    1C
    1UUSER                                                              
    1UDATE              27.october.2022                                 
    1UTIME              00:43:06                                        
    1UHOST                                                              
    1UPGM               CalculiX                                        
    1UVERSION           Version 2.17                             
    1UCOMPILETIME       Thu Jul 23 21:43:50 CEST 2020                    
    1UDIR                                                               
    1UDBN                                                               
    1UMAT    1SOLIDMATERIAL                                             
    2C                          4266                                     1
 -1         1 5.58648E+01 1.81815E+01 0.00000E+00
 -1         2 6.17879E+01 1.12649E+01 0.00000E+00
 -1         3 1.50000E+02 0.00000E+00 0.00000E+00
 -1         4 1.50000E+02 5.00000E+01 0.00000E+00
 -1         5 0.00000E+00 0.00000E+00 0.00000E+00
 -1         6 0.00000E+00 5.00000E+01 0.00000E+00
 -1         7 0.00000E+00 4.70500E+01 0.00000E+00
 -1         8 0.00000E+00 4.41000E+01 0.00000E+00
 -1         9 0.00000E+00 4.11500E+01 0.00000E+00
 -1        10 0.00000E+00 3.82000E+01 0.00000E+00
 -1        11 0.00000E+00 3.52500E+01 0.00000E+00
 -1        12 0.00000E+00 3.23500E+01 0.00000E+00
 -1        13 0.00000E+00 2.94000E+01 0.00000E+00
 -1        14 0.00000E+00 2.64500E+01 0.00000E+00
 -1        15 0.00000E+00 2.35000E+01 0.00000E+00
 -1        16 0.00000E+00 2.05500E+01 0.00000E+00
 -1        17 0.00000E+00 1.76000E+01 0.00000E+00
 -1        18 0.00000E+00 1.47000E+01 0.00000E+00
 -1        19 0.00000E+00 1.17500E+01 0.00000E+00
 -1        20 0.00000E+00 8.80000E+00 0.00000E+00
 -1        21 0.00000E+00 5.85000E+00 0.00000E+00
 -1        22 0.00000E+00 2.90000E+00 0.00000E+00
 -1        23 3.15000E+00 5.00000E+01 0.00000E+00
 -1        24 6.15000E+00 5.00000E+01 0.00000E+00
 -1        25 9.15000E+00 5.00000E+01 0.00000E+00
 -1        26 1.21500E+01 5.00000E+01 0.00000E+00
 -1        27 1.51500E+01 5.00000E+01 0.00000E+00
 -1        28 1.81500E+01 5.00000E+01 0.00000E+00
 -1        29 2.11500E+01 5.00000E+01 0.00000E+00
 -1        30 2.41500E+01 5.00000E+01 0.00000E+00
 -1        31 2.71500E+01 5.00000E+01 0.00000E+00
 -1        32 3.01500E+01 5.00000E+01 0.00000E+00
 -1        33 3.31500E+01 5.00000E+01 0.00000E+00
 -1        34 3.61500E+01 5.00000E+01 0.00000E+00
 -1        35 3.91500E+01 5.00000E+01 0.00000E+00
 -1        36 4.21500E+01 5.00000E+01 0.00000E+00
 -1        37 4.51500E+01 5.00000E+01 0.00000E+00
 -1        38 4.81500E+01 5.00000E+01 0.00000E+00
 -1        39 5.11500E+01 5.00000E+01 0.00000E+00
 -1        40 5.41500E+01 5.00000E+01 0.00000E+00
 -1        41 5.71500E+01 5.00000E+01 0.00000E+00
 -1        42 6.01500E+01 5.00000E+01 0.00000E+00
 -1        43 6.31500E+01 5.00000E+01 0.00000E+00
 -1        44 6.61500E+01 5.00000E+01 0.00000E+00
 -1        45 6.91500E+01 5.00000E+01 0.00000E+00
 -1        46 7.21500E+01 5.00000E+01 0.00000E+00
 -1        47 7.51500E+01 5.00000E+01 0.00000E+00
 -1        48 7.81500E+01 5.00000E+01 0.00000E+00
 -1        49 8.11500E+01 5.00000E+01 0.00000E+00
 -1        50 8.41500E+01 5.00000E+01 0.00000E+00
 -1        51 8.71500E+01 5.00000E+01 0.00000E+00
 -1        52 9.01500E+01 5.00000E+01 0.00000E+00
 -1        53 9.31500E+01 5.00000E+01 0.00000E+00
 -1        54 9.61500E+01 5.00000E+01 0.00000E+00
 -1        55 9.91500E+01 5.00000E+01 0.00000E+00
 -1        56 1.02150E+02 5.00000E+01 0.00000E+00
 -1        57 1.05150E+02 5.00000E+01 0.00000E+00
 -1        58 1.08150E+02 5.00000E+01 0.00000E+00
 -1        59 1.11150E+02 5.00000E+01 0.00000E+00
 -1        60 1.14150E+02 5.00000E+01 0.00000E+00
 -1        61 1.17150E+02 5.00000E+01 0.00000E+00
 -1        62 1.20150E+02 5.00000E+01 0.00000E+00
 -1        63 1.23150E+02 5.00000E+01 0.00000E+00
 -1        64 1.26150E+02 5.00000E+01 0.00000E+00
 -1        65 1.29150E+02 5.00000E+01 0.00000E+00
 -1        66 1.32150E+02 5.00000E+01 0.00000E+00
 -1        67 1.35150E+02 5.00000E+01 0.00000E+00
 -1        68 1.38150E+02 5.00000E+01 0.00000E+00
 -1        69 1.41150E+02 5.00000E+01 0.00000E+00
 -1        70 1.44150E+02 5.00000E+01 0.00000E+00
 -1        71 1.47150E+02 5.00000E+01 0.00000E+00
 -1        72 3.00000E+00 0.00000E+00 0.00000E+00
 -1        73 6.00000E+00 0.00000E+00 0.00000E+00
 -1        74 9.00000E+00 0.00000E+00 0.00000E+00
 -1        75 1.20000E+01 0.00000E+00 0.00000E+00
 -1        76 1.50000E+01 0.00000E+00 0.00000E+00
 -1        77 1.80000E+01 0.00000E+00 0.00000E+00
 -1        78 2.10000E+01 0.00000E+00 0.00000E+00
 -1        79 2.40000E+01 0.00000E+00 0.00000E+00
 -1        80 2.70000E+01 0.00000E+00 0.00000E+00
 -1        81 3.00000E+01 0.00000E+00 0.00000E+00
 -1        82 3.30000E+01 0.00000E+00 0.00000E+00
 -1        83 3.58500E+01 0.00000E+00 0.00000E+00
 -1        84 3.88500E+01 0.00000E+00 0.00000E+00
 -1        85 4.18500E+01 0.00000E+00 0.00000E+00
 -1        86 4.48500E+01 0.00000E+00 0.00000E+00
 -1        87 4.77000E+01 0.00000E+00 0.00000E+00
 -1        88 5.01000E+01 0.00000E+00 0.00000E+00
 -1        89 5.26500E+01 0.00000E+00 0.00000E+00
 -1        90 5.50500E+01 0.00000E+00 0.00000E+00
 -1        91 5.70000E+01 0.00000E+00 0.00000E+00
 -1        92 5.91000E+01 0.00000E+00 0.00000E+00
 -1        93 6.13500E+01 0.00000E+00 0.00000E+00
 -1        94 6.37500E+01 0.00000E+00 0.00000E+00
 -1        95 6.64500E+01 0.00000E+00 0.00000E+00
 -1        96 6.94500E+01 0.00000E+00 0.00000E+00
 -1        97 7.24500E+01 0.00000E+00 0.00000E+00
 -1        98 7.54500E+01 0.00000E+00 0.00000E+00
 -1        99 7.84500E+01 0.00000E+00 0.00000E+00
 -1       100 8.14500E+01 0.00000E+00 0.00000E+00
 -1       101 8.43000E+01 0.00000E+00 0.00000E+00
 -1       102 8.73000E+01 0.00000E+00 0.00000E+00
 -1       103 9.03000E+01 0.00000E+00 0.00000E+00
 -1       104 9.33000E+01 0.00000E+00 0.00000E+00
 -1       105 9.63000E+01 0.00000E+00 0.00000E+00
 -1       106 9.93000E+01 0.00000E+00 0.00000E+00
 -1       107 1.02300E+02 0.00000E+00 0.00000E+00
 -1       108 1.05300E+02 0.00000E+00 0.00000E+00
 -1       109 1.08300E+02 0.00000E+00 0.00000E+00
 -1       110 1.11300E+02 0.00000E+00 0.00000E+00
 -1       111 1.14300E+02 0.00000E+00 0.00000E+00
 -1       112 1.17150E+02 0.00000E+00 0.00000E+00
 -1       113 1.20150E+02 0.00000E+00 0.00000E+00
 -1       114 1.23150E+02 0.00000E+00 0.00000E+00
 -1       115 1.26150E+02 0.00000E+00 0.00000E+00
 -1       116 1.29150E+02 0.00000E+00 0.00000E+00
 -1       117 1.32150E+02 0.00000E+00 0.00000E+00
 -1       118 1.35150E+02 0.00000E+00 0.00000E+00
 -1       119 1.38150E+02 0.00000E+00 0.00000E+00
 -1       120 1.41150E+02 0.00000E+00 0.00000E+00
 -1       121 1.44150E+02 0.00000E+00 0.00000E+00
 -1       122 1.47150E+02 0.00000E+00 0.00000E+00
 -1       123 1.50000E+02 2.95000E+00 0.00000E+00
 -1       124 1.50000E+02 5.90000E+00 0.00000E+00
 -1       125 1.50000E+02 8.85000E+00 0.00000E+00
 -1       126 1.50000E+02 1.18000E+01 0.00000E+00
 -1       127 1.50000E+02 1.47500E+01 0.00000E+00
 -1       128 1.50000E+02 1.76500E+01 0.00000E+00
 -1       129 1.50000E+02 2.06000E+01 0.00000E+00
 -1       130 1.50000E+02 2.35500E+01 0.00000E+00
 -1       131 1.50000E+02 2.65000E+01 0.00000E+00
 -1       132 1.50000E+02 2.94500E+01 0.00000E+00
 -1       133 1.50000E+02 3.24000E+01 0.00000E+00
 -1       134 1.50000E+02 3.53000E+01 0.00000E+00
 -1       135 1.50000E+02 3.82500E+01 0.00000E+00
 -1       136 1.50000E+02 4.12000E+01 0.00000E+00
 -1       137 1.50000E+02 4.41500E+01 0.00000E+00
 -1       138 1.50000E+02 4.71000E+01 0.00000E+00
 -1       139 6.16353E+01 9.81123E+00 0.00000E+00
 -1       140 6.11329E+01 8.30838E+00 0.00000E+00
 -1       141 6.03367E+01 6.99745E+00 0.00000E+00
 -1       142 5.93786E+01 5.98049E+00 0.00000E+00
 -1       143 5.81492E+01 5.12470E+00 0.00000E+00
 -1       144 5.68461E+01 4.57432E+00 0.00000E+00
 -1       145 5.54257E+01 4.29399E+00 0.00000E+00
 -1       146 5.39518E+01 4.31498E+00 0.00000E+00
 -1       147 5.23996E+01 4.68488E+00 0.00000E+00
 -1       148 5.10815E+01 5.32659E+00 0.00000E+00
 -1       149 4.99475E+01 6.20809E+00 0.00000E+00
 -1       150 4.89970E+01 7.33214E+00 0.00000E+00
 -1       151 4.82872E+01 8.66841E+00 0.00000E+00
 -1       152 4.78858E+01 1.00980E+01 0.00000E+00
 -1       153 4.77927E+01 1.15252E+01 0.00000E+00
 -1       154 4.79929E+01 1.29469E+01 0.00000E+00
 -1       155 4.84681E+01 1.42750E+01 0.00000E+00
 -1       156 4.92380E+01 1.55310E+01 0.00000E+00
 -1       157 5.02482E+01 1.65932E+01 0.00000E+00
 -1       158 5.15235E+01 1.74571E+01 0.00000E+00
 -1       159 5.29179E+01 1.80105E+01 0.00000E+00
 -1       160 5.43531E+01 1.82514E+01 0.00000E+00
 -1       161 5.72179E+01 1.78295E+01 0.00000E+00
 -1       162 5.85131E+01 1.71913E+01 0.00000E+00
 -1       163 5.95954E+01 1.63528E+01 0.00000E+00
 -1       164 6.05496E+01 1.52401E+01 0.00000E+00
 -1       165 6.12200E+01 1.40268E+01 0.00000E+00
 -1       166 6.16347E+01 1.27210E+01 0.00000E+00
 -1       167 2.59800E+00 4.55750E+01 0.00000E+00
 -1       168 2.59800E+00 4.26250E+01 0.00000E+00
 -1       169 2.59800E+00 3.96750E+01 0.00000E+00
 -1       170 2.59800E+00 3.67250E+01 0.00000E+00
 -1       171 2.59800E+00 3.38250E+01 0.00000E+00
 -1       172 2.59800E+00 3.08750E+01 0.00000E+00
 -1       173 2.59800E+00 2.79250E+01 0.00000E+00
 -1       174 2.59800E+00 2.49750E+01 0.00000E+00
 -1       175 2.59800E+00 2.20250E+01 0.00000E+00
 -1       176 2.59800E+00 1.90750E+01 0.00000E+00
 -1       177 2.59800E+00 1.61750E+01 0.00000E+00
 -1       178 2.59800E+00 1.32250E+01 0.00000E+00
 -1       179 2.59800E+00 1.02750E+01 0.00000E+00
 -1       180 2.59800E+00 7.32500E+00 0.00000E+00
 -1       181 2.59800E+00 4.37500E+00 0.00000E+00
 -1       182 4.65000E+00 4.74020E+01 0.00000E+00
 -1       183 7.65000E+00 4.74020E+01 0.00000E+00
 -1       184 1.06500E+01 4.74020E+01 0.00000E+00
 -1       185 1.36500E+01 4.74020E+01 0.00000E+00
 -1       186 1.66500E+01 4.74020E+01 0.00000E+00
 -1       187 1.96500E+01 4.74020E+01 0.00000E+00
 -1       188 2.26500E+01 4.74020E+01 0.00000E+00
 -1       189 2.56500E+01 4.74020E+01 0.00000E+00
 -1       190 2.86500E+01 4.74020E+01 0.00000E+00
 -1       191 3.16500E+01 4.74020E+01 0.00000E+00
 -1       192 3.46500E+01 4.74020E+01 0.00000E+00
 -1       193 3.76500E+01 4.74020E+01 0.00000E+00
 -1       194 4.06500E+01 4.74020E+01 0.00000E+00
 -1       195 4.36500E+01 4.74020E+01 0.00000E+00
 -1       196 4.66500E+01 4.74020E+01 0.00000E+00
 -1       197 4.96500E+01 4.74020E+01 0.00000E+00
 -1       198 5.26500E+01 4.74020E+01 0.00000E+00
 -1       199 5.56500E+01 4.74020E+01 0.00000E+00
 -1       200 5.86500E+01 4.74020E+01 0.00000E+00
 -1       201 6.16500E+01 4.74020E+01 0.00000E+00
 -1       202 6.46500E+01 4.74020E+01 0.00000E+00
 -1       203 6.76500E+01 4.74020E+01 0.00000E+00
 -1       204 7.06500E+01 4.74020E+01 0.00000E+00
 -1       205 7.36500E+01 4.74020E+01 0.00000E+00
 -1       206 7.66500E+01 4.74020E+01 0.00000E+00
 -1       207 7.96500E+01 4.74020E+01 0.00000E+00
 -1       208 8.26500E+01 4.74020E+01 0.00000E+00
 -1       209 8.56500E+01 4.74020E+01 0.00000E+00
 -1       210 8.86500E+01 4.74020E+01 0.00000E+00
 -1       211 9.16500E+01 4.74020E+01 0.00000E+00
 -1       212 9.46500E+01 4.74020E+01 0.00000E+00
 -1       213 9.76500E+01 4.74020E+01 0.00000E+00
 -1       214 1.00650E+02 4.74020E+01 0.00000E+00
 -1       215 1.03650E+02 4.74020E+01 0.00000E+00
 -1       216 1.06650E+02 4.74020E+01 0.00000E+00
 -1       217 1.09650E+02 4.74020E+01 0.00000E+00
 -1       218 1.12650E+02 4.74020E+01 0.00000E+00
 -1       219 1.15650E+02 4.74020E+01 0.00000E+00
 -1       220 1.18650E+02 4.74020E+01 0.00000E+00
 -1       221 1.21650E+02 4.74020E+01 0.00000E+00
 -1       222 1.24650E+02 4.74020E+01 0.00000E+00
 -1       223 1.27650E+02 4.74020E+01 0.00000E+00
 -1       224 1.30650E+02 4.74020E+01 0.00000E+00
 -1       225 1.33650E+02 4.74020E+01 0.00000E+00
 -1       226 1.36650E+02 4.74020E+01 0.00000E+00
 -1       227 1.39650E+02 4.74020E+01 0.00000E+00
 -1       228 1.42650E+02 4.74020E+01 0.00000E+00
 -1       229 1.45650E+02 4.74020E+01 0.00000E+00
 -1       230 4.50000E+00 2.59800E+00 0.00000E+00
 -1       231 7.50000E+00 2.59800E+00 0.00000E+00
 -1       232 1.05000E+01 2.59800E+00 0.00000E+00
 -1       233 1.35000E+01 2.59800E+00 0.00000E+00
 -1       234 1.65000E+01 2.59800E+00 0.00000E+00
 -1       235 1.95000E+01 2.59800E+00 0.00000E+00
 -1       236 2.25000E+01 2.59800E+00 0.00000E+00
 -1       237 2.55000E+01 2.59800E+00 0.00000E+00
 -1       238 2.85000E+01 2.59800E+00 0.00000E+00
 -1       239 3.15000E+01 2.59800E+00 0.00000E+00
 -1       240 3.43500E+01 2.59800E+00 0.00000E+00
 -1       241 3.73500E+01 2.59800E+00 0.00000E+00
 -1       242 4.03500E+01 2.59800E+00 0.00000E+00
 -1       243 4.33500E+01 2.59800E+00 0.00000E+00
 -1       244 4.62000E+01 2.59800E+00 0.00000E+00
 -1       245 4.86000E+01 2.59800E+00 0.00000E+00
 -1       246 5.38500E+01 2.05025E+00 0.00000E+00
 -1       247 5.58000E+01 2.05025E+00 0.00000E+00
 -1       248 5.79000E+01 2.05025E+00 0.00000E+00
 -1       249 6.01500E+01 2.05025E+00 0.00000E+00
 -1       250 6.25500E+01 2.05025E+00 0.00000E+00
 -1       251 6.52500E+01 2.05025E+00 0.00000E+00
 -1       252 6.82500E+01 2.05025E+00 0.00000E+00
 -1       253 7.12500E+01 2.05025E+00 0.00000E+00
 -1       254 7.42500E+01 2.05025E+00 0.00000E+00
 -1       255 7.72500E+01 2.05025E+00 0.00000E+00
 -1       256 8.02500E+01 2.05025E+00 0.00000E+00
 -1       257 8.31000E+01 2.05025E+00 0.00000E+00
 -1       258 8.61000E+01 2.05025E+00 0.00000E+00
 -1       259 8.91000E+01 2.05025E+00 0.00000E+00
 -1       260 9.21000E+01 2.05025E+00 0.00000E+00
 -1       261 9.51000E+01 2.05025E+00 0.00000E+00
 -1       262 9.81000E+01 2.05025E+00 0.00000E+00
 -1       263 1.01100E+02 2.05025E+00 0.00000E+00
 -1       264 1.04100E+02 2.05025E+00 0.00000E+00
 -1       265 1.07100E+02 2.05025E+00 0.00000E+00
 -1       266 1.10100E+02 2.05025E+00 0.00000E+00
 -1       267 1.13100E+02 2.05025E+00 0.00000E+00
 -1       268 1.15950E+02 2.05025E+00 0.00000E+00
 -1       269 1.18950E+02 2.05025E+00 0.00000E+00
 -1       270 1.21950E+02 2.05025E+00 0.00000E+00
 -1       271 1.24950E+02 2.05025E+00 0.00000E+00
 -1       272 1.27950E+02 2.05025E+00 0.00000E+00
 -1       273 1.30950E+02 2.05025E+00 0.00000E+00
 -1       274 1.33950E+02 2.05025E+00 0.00000E+00
 -1       275 1.36950E+02 2.05025E+00 0.00000E+00
 -1       276 1.39950E+02 2.05025E+00 0.00000E+00
 -1       277 1.42950E+02 2.05025E+00 0.00000E+00
 -1       278 1.45950E+02 2.05025E+00 0.00000E+00
 -1       279 1.47975E+02 2.50013E+00 0.00000E+00
 -1       280 1.47975E+02 5.45013E+00 0.00000E+00
 -1       281 1.47975E+02 8.40013E+00 0.00000E+00
 -1       282 1.47975E+02 1.13501E+01 0.00000E+00
 -1       283 1.47975E+02 1.43001E+01 0.00000E+00
 -1       284 1.47975E+02 1.72001E+01 0.00000E+00
 -1       285 1.47975E+02 2.01501E+01 0.00000E+00
 -1       286 1.47975E+02 2.31001E+01 0.00000E+00
 -1       287 1.47975E+02 2.60501E+01 0.00000E+00
 -1       288 1.47975E+02 2.90001E+01 0.00000E+00
 -1       289 1.47975E+02 3.19501E+01 0.00000E+00
 -1       290 1.47975E+02 3.48501E+01 0.00000E+00
 -1       291 1.47975E+02 3.78001E+01 0.00000E+00
 -1       292 1.47975E+02 4.07501E+01 0.00000E+00
 -1       293 1.47975E+02 4.37001E+01 0.00000E+00
 -1       294 6.29173E+01 1.04115E+01 0.00000E+00
 -1       295 6.28518E+01 8.56916E+00 0.00000E+00
 -1       296 6.19142E+01 6.93655E+00 0.00000E+00
 -1       297 6.07401E+01 5.65763E+00 0.00000E+00
 -1       298 5.95523E+01 4.41998E+00 0.00000E+00
 -1       299 5.79694E+01 3.73265E+00 0.00000E+00
 -1       300 5.63707E+01 3.24469E+00 0.00000E+00
 -1       301 5.46703E+01 3.00843E+00 0.00000E+00
 -1       302 5.28364E+01 3.07604E+00 0.00000E+00
 -1       303 5.12099E+01 3.91566E+00 0.00000E+00
 -1       304 4.97190E+01 4.74396E+00 0.00000E+00
 -1       305 4.84185E+01 5.87908E+00 0.00000E+00
 -1       306 4.73494E+01 7.31360E+00 0.00000E+00
 -1       307 4.68386E+01 9.03277E+00 0.00000E+00
 -1       308 4.66294E+01 1.07327E+01 0.00000E+00
 -1       309 4.66093E+01 1.24168E+01 0.00000E+00
 -1       310 4.70101E+01 1.40475E+01 0.00000E+00
 -1       311 4.77480E+01 1.55804E+01 0.00000E+00
 -1       312 4.88038E+01 1.69553E+01 0.00000E+00
 -1       313 5.01119E+01 1.81677E+01 0.00000E+00
 -1       314 5.17735E+01 1.88607E+01 0.00000E+00
 -1       315 5.34348E+01 1.93266E+01 0.00000E+00
 -1       316 5.51726E+01 1.95949E+01 0.00000E+00
 -1       317 5.68466E+01 1.91789E+01 0.00000E+00
 -1       318 5.84384E+01 1.86731E+01 0.00000E+00
 -1       319 5.97967E+01 1.77305E+01 0.00000E+00
 -1       320 6.10564E+01 1.66403E+01 0.00000E+00
 -1       321 6.19460E+01 1.52198E+01 0.00000E+00
 -1       322 6.25828E+01 1.37410E+01 0.00000E+00
 -1       323 6.30004E+01 1.21285E+01 0.00000E+00
 -1       324 5.11256E+01 2.32415E+00 0.00000E+00
 -1       325 1.47402E+02 4.56250E+01 0.00000E+00
 -1       326 5.19600E+00 4.11500E+01 0.00000E+00
 -1       327 5.19600E+00 4.41000E+01 0.00000E+00
 -1       328 5.19600E+00 3.52750E+01 0.00000E+00
 -1       329 5.19600E+00 3.23250E+01 0.00000E+00
 -1       330 5.19600E+00 2.93750E+01 0.00000E+00
 -1       331 5.19600E+00 2.64250E+01 0.00000E+00
 -1       332 5.19600E+00 2.34750E+01 0.00000E+00
 -1       333 5.19600E+00 2.05250E+01 0.00000E+00
 -1       334 5.19600E+00 1.76250E+01 0.00000E+00
 -1       335 5.19600E+00 1.46750E+01 0.00000E+00
 -1       336 5.19600E+00 1.17250E+01 0.00000E+00
 -1       337 5.19600E+00 8.77500E+00 0.00000E+00
 -1       338 5.19600E+00 5.82500E+00 0.00000E+00
 -1       339 6.35070E+01 7.10737E+00 0.00000E+00
 -1       340 9.15000E+00 4.48040E+01 0.00000E+00
 -1       341 1.21500E+01 4.48040E+01 0.00000E+00
 -1       342 1.51500E+01 4.48040E+01 0.00000E+00
 -1       343 1.81500E+01 4.48040E+01 0.00000E+00
 -1       344 2.11500E+01 4.48040E+01 0.00000E+00
 -1       345 2.41500E+01 4.48040E+01 0.00000E+00
 -1       346 2.71500E+01 4.48040E+01 0.00000E+00
 -1       347 3.01500E+01 4.48040E+01 0.00000E+00
 -1       348 3.31500E+01 4.48040E+01 0.00000E+00
 -1       349 3.61500E+01 4.48040E+01 0.00000E+00
 -1       350 3.91500E+01 4.48040E+01 0.00000E+00
 -1       351 4.21500E+01 4.48040E+01 0.00000E+00
 -1       352 4.51500E+01 4.48040E+01 0.00000E+00
 -1       353 4.81500E+01 4.48040E+01 0.00000E+00
 -1       354 5.11500E+01 4.48040E+01 0.00000E+00
 -1       355 5.41500E+01 4.48040E+01 0.00000E+00
 -1       356 5.71500E+01 4.48040E+01 0.00000E+00
 -1       357 6.01500E+01 4.48040E+01 0.00000E+00
 -1       358 6.31500E+01 4.48040E+01 0.00000E+00
 -1       359 6.61500E+01 4.48040E+01 0.00000E+00
 -1       360 6.91500E+01 4.48040E+01 0.00000E+00
 -1       361 7.21500E+01 4.48040E+01 0.00000E+00
 -1       362 7.51500E+01 4.48040E+01 0.00000E+00
 -1       363 7.81500E+01 4.48040E+01 0.00000E+00
 -1       364 8.11500E+01 4.48040E+01 0.00000E+00
 -1       365 8.41500E+01 4.48040E+01 0.00000E+00
 -1       366 8.71500E+01 4.48040E+01 0.00000E+00
 -1       367 9.01500E+01 4.48040E+01 0.00000E+00
 -1       368 9.31500E+01 4.48040E+01 0.00000E+00
 -1       369 9.61500E+01 4.48040E+01 0.00000E+00
 -1       370 9.91500E+01 4.48040E+01 0.00000E+00
 -1       371 1.02150E+02 4.48040E+01 0.00000E+00
 -1       372 1.05150E+02 4.48040E+01 0.00000E+00
 -1       373 1.08150E+02 4.48040E+01 0.00000E+00
 -1       374 1.11150E+02 4.48040E+01 0.00000E+00
 -1       375 1.14150E+02 4.48040E+01 0.00000E+00
 -1       376 1.17150E+02 4.48040E+01 0.00000E+00
 -1       377 1.20150E+02 4.48040E+01 0.00000E+00
 -1       378 1.23150E+02 4.48040E+01 0.00000E+00
 -1       379 1.26150E+02 4.48040E+01 0.00000E+00
 -1       380 1.29150E+02 4.48040E+01 0.00000E+00
 -1       381 1.32150E+02 4.48040E+01 0.00000E+00
 -1       382 1.35150E+02 4.48040E+01 0.00000E+00
 -1       383 1.38150E+02 4.48040E+01 0.00000E+00
 -1       384 1.41150E+02 4.48040E+01 0.00000E+00
 -1       385 1.44150E+02 4.48040E+01 0.00000E+00
 -1       386 1.20000E+01 5.19600E+00 0.00000E+00
 -1       387 9.00000E+00 5.19600E+00 0.00000E+00
 -1       388 1.50000E+01 5.19600E+00 0.00000E+00
 -1       389 1.80000E+01 5.19600E+00 0.00000E+00
 -1       390 2.10000E+01 5.19600E+00 0.00000E+00
 -1       391 2.40000E+01 5.19600E+00 0.00000E+00
 -1       392 2.70000E+01 5.19600E+00 0.00000E+00
 -1       393 3.00000E+01 5.19600E+00 0.00000E+00
 -1       394 3.28500E+01 5.19600E+00 0.00000E+00
 -1       395 3.58500E+01 5.19600E+00 0.00000E+00
 -1       396 3.88500E+01 5.19600E+00 0.00000E+00
 -1       397 4.18500E+01 5.19600E+00 0.00000E+00
 -1       398 4.47000E+01 5.19600E+00 0.00000E+00
 -1       399 6.13500E+01 4.10050E+00 0.00000E+00
 -1       400 6.40500E+01 4.10050E+00 0.00000E+00
 -1       401 6.70500E+01 4.10050E+00 0.00000E+00
 -1       402 7.00500E+01 4.10050E+00 0.00000E+00
 -1       403 7.30500E+01 4.10050E+00 0.00000E+00
 -1       404 7.60500E+01 4.10050E+00 0.00000E+00
 -1       405 7.90500E+01 4.10050E+00 0.00000E+00
 -1       406 8.19000E+01 4.10050E+00 0.00000E+00
 -1       407 8.49000E+01 4.10050E+00 0.00000E+00
 -1       408 8.79000E+01 4.10050E+00 0.00000E+00
 -1       409 9.09000E+01 4.10050E+00 0.00000E+00
 -1       410 9.39000E+01 4.10050E+00 0.00000E+00
 -1       411 9.69000E+01 4.10050E+00 0.00000E+00
 -1       412 9.99000E+01 4.10050E+00 0.00000E+00
 -1       413 1.02900E+02 4.10050E+00 0.00000E+00
 -1       414 1.05900E+02 4.10050E+00 0.00000E+00
 -1       415 1.08900E+02 4.10050E+00 0.00000E+00
 -1       416 1.11900E+02 4.10050E+00 0.00000E+00
 -1       417 1.14750E+02 4.10050E+00 0.00000E+00
 -1       418 1.17750E+02 4.10050E+00 0.00000E+00
 -1       419 1.20750E+02 4.10050E+00 0.00000E+00
 -1       420 1.23750E+02 4.10050E+00 0.00000E+00
 -1       421 1.26750E+02 4.10050E+00 0.00000E+00
 -1       422 1.29750E+02 4.10050E+00 0.00000E+00
 -1       423 1.32750E+02 4.10050E+00 0.00000E+00
 -1       424 1.35750E+02 4.10050E+00 0.00000E+00
 -1       425 1.38750E+02 4.10050E+00 0.00000E+00
 -1       426 1.41750E+02 4.10050E+00 0.00000E+00
 -1       427 1.44750E+02 4.10050E+00 0.00000E+00
 -1       428 1.46363E+02 4.77532E+00 0.00000E+00
 -1       429 1.45377E+02 9.87513E+00 0.00000E+00
 -1       430 1.45870E+02 7.32522E+00 0.00000E+00
 -1       431 1.45377E+02 1.28251E+01 0.00000E+00
 -1       432 1.45377E+02 1.57251E+01 0.00000E+00
 -1       433 1.45377E+02 1.86751E+01 0.00000E+00
 -1       434 1.45377E+02 2.16251E+01 0.00000E+00
 -1       435 1.45377E+02 2.45751E+01 0.00000E+00
 -1       436 1.45377E+02 2.75251E+01 0.00000E+00
 -1       437 1.45377E+02 3.04751E+01 0.00000E+00
 -1       438 1.45377E+02 3.33751E+01 0.00000E+00
 -1       439 1.45377E+02 3.63251E+01 0.00000E+00
 -1       440 1.45377E+02 3.92751E+01 0.00000E+00
 -1       441 1.45377E+02 4.22251E+01 0.00000E+00
 -1       442 6.24672E+01 5.25053E+00 0.00000E+00
 -1       443 6.46720E+01 1.11872E+01 0.00000E+00
 -1       444 5.19600E+00 3.82125E+01 0.00000E+00
 -1       445 4.81062E+01 4.20875E+00 0.00000E+00
 -1       446 4.65760E+01 5.62151E+00 0.00000E+00
 -1       447 4.58515E+01 7.80398E+00 0.00000E+00
 -1       448 4.53644E+01 9.71421E+00 0.00000E+00
 -1       449 4.53233E+01 1.15593E+01 0.00000E+00
 -1       450 4.53883E+01 1.35815E+01 0.00000E+00
 -1       451 4.60601E+01 1.54489E+01 0.00000E+00
 -1       452 4.72479E+01 1.70573E+01 0.00000E+00
 -1       453 4.84059E+01 1.86965E+01 0.00000E+00
 -1       454 5.03470E+01 1.99425E+01 0.00000E+00
 -1       455 5.22315E+01 2.04224E+01 0.00000E+00
 -1       456 5.40931E+01 2.08246E+01 0.00000E+00
 -1       457 5.64031E+01 2.09701E+01 0.00000E+00
 -1       458 5.79949E+01 2.04643E+01 0.00000E+00
 -1       459 5.99043E+01 1.93356E+01 0.00000E+00
 -1       460 6.12749E+01 1.81655E+01 0.00000E+00
 -1       461 6.27418E+01 1.67069E+01 0.00000E+00
 -1       462 6.34549E+01 1.49931E+01 0.00000E+00
 -1       463 6.42897E+01 1.33227E+01 0.00000E+00
 -1       464 6.46064E+01 9.34484E+00 0.00000E+00
 -1       465 6.61691E+01 1.25571E+01 0.00000E+00
 -1       466 7.79400E+00 3.08500E+01 0.00000E+00
 -1       467 7.79400E+00 3.38000E+01 0.00000E+00
 -1       468 7.79400E+00 2.49500E+01 0.00000E+00
 -1       469 7.79400E+00 2.20000E+01 0.00000E+00
 -1       470 7.79400E+00 1.91000E+01 0.00000E+00
 -1       471 7.79400E+00 1.61500E+01 0.00000E+00
 -1       472 7.79400E+00 1.32000E+01 0.00000E+00
 -1       473 7.79400E+00 1.02500E+01 0.00000E+00
 -1       474 8.39700E+00 7.72300E+00 0.00000E+00
 -1       475 6.65207E+01 1.01990E+01 0.00000E+00
 -1       476 1.06500E+01 4.22060E+01 0.00000E+00
 -1       477 1.36500E+01 4.22060E+01 0.00000E+00
 -1       478 1.66500E+01 4.22060E+01 0.00000E+00
 -1       479 1.96500E+01 4.22060E+01 0.00000E+00
 -1       480 2.26500E+01 4.22060E+01 0.00000E+00
 -1       481 2.56500E+01 4.22060E+01 0.00000E+00
 -1       482 2.86500E+01 4.22060E+01 0.00000E+00
 -1       483 3.16500E+01 4.22060E+01 0.00000E+00
 -1       484 3.46500E+01 4.22060E+01 0.00000E+00
 -1       485 3.76500E+01 4.22060E+01 0.00000E+00
 -1       486 4.06500E+01 4.22060E+01 0.00000E+00
 -1       487 4.36500E+01 4.22060E+01 0.00000E+00
 -1       488 4.66500E+01 4.22060E+01 0.00000E+00
 -1       489 4.96500E+01 4.22060E+01 0.00000E+00
 -1       490 5.26500E+01 4.22060E+01 0.00000E+00
 -1       491 5.56500E+01 4.22060E+01 0.00000E+00
 -1       492 5.86500E+01 4.22060E+01 0.00000E+00
 -1       493 6.16500E+01 4.22060E+01 0.00000E+00
 -1       494 6.46500E+01 4.22060E+01 0.00000E+00
 -1       495 6.76500E+01 4.22060E+01 0.00000E+00
 -1       496 7.06500E+01 4.22060E+01 0.00000E+00
 -1       497 7.36500E+01 4.22060E+01 0.00000E+00
 -1       498 7.66500E+01 4.22060E+01 0.00000E+00
 -1       499 7.96500E+01 4.22060E+01 0.00000E+00
 -1       500 8.26500E+01 4.22060E+01 0.00000E+00
 -1       501 8.56500E+01 4.22060E+01 0.00000E+00
 -1       502 8.86500E+01 4.22060E+01 0.00000E+00
 -1       503 9.16500E+01 4.22060E+01 0.00000E+00
 -1       504 9.46500E+01 4.22060E+01 0.00000E+00
 -1       505 9.76500E+01 4.22060E+01 0.00000E+00
 -1       506 1.00650E+02 4.22060E+01 0.00000E+00
 -1       507 1.03650E+02 4.22060E+01 0.00000E+00
 -1       508 1.06650E+02 4.22060E+01 0.00000E+00
 -1       509 1.09650E+02 4.22060E+01 0.00000E+00
 -1       510 1.12650E+02 4.22060E+01 0.00000E+00
 -1       511 1.15650E+02 4.22060E+01 0.00000E+00
 -1       512 1.18650E+02 4.22060E+01 0.00000E+00
 -1       513 1.21650E+02 4.22060E+01 0.00000E+00
 -1       514 1.24650E+02 4.22060E+01 0.00000E+00
 -1       515 1.27650E+02 4.22060E+01 0.00000E+00
 -1       516 1.30650E+02 4.22060E+01 0.00000E+00
 -1       517 1.33650E+02 4.22060E+01 0.00000E+00
 -1       518 1.36650E+02 4.22060E+01 0.00000E+00
 -1       519 1.39650E+02 4.22060E+01 0.00000E+00
 -1       520 1.42514E+02 4.22156E+01 0.00000E+00
 -1       521 1.65000E+01 7.79400E+00 0.00000E+00
 -1       522 6.53705E+01 7.58061E+00 0.00000E+00
 -1       523 1.95000E+01 7.79400E+00 0.00000E+00
 -1       524 2.25000E+01 7.79400E+00 0.00000E+00
 -1       525 2.55000E+01 7.79400E+00 0.00000E+00
 -1       526 2.85000E+01 7.79400E+00 0.00000E+00
 -1       527 3.13500E+01 7.79400E+00 0.00000E+00
 -1       528 3.43500E+01 7.79400E+00 0.00000E+00
 -1       529 3.73500E+01 7.79400E+00 0.00000E+00
 -1       530 4.03500E+01 7.79400E+00 0.00000E+00
 -1       531 4.31007E+01 7.79899E+00 0.00000E+00
 -1       532 7.15500E+01 6.69850E+00 0.00000E+00
 -1       533 7.45500E+01 6.69850E+00 0.00000E+00
 -1       534 7.75500E+01 6.69850E+00 0.00000E+00
 -1       535 8.04000E+01 6.69850E+00 0.00000E+00
 -1       536 8.34000E+01 6.69850E+00 0.00000E+00
 -1       537 8.64000E+01 6.69850E+00 0.00000E+00
 -1       538 8.94000E+01 6.69850E+00 0.00000E+00
 -1       539 9.24000E+01 6.69850E+00 0.00000E+00
 -1       540 9.54000E+01 6.69850E+00 0.00000E+00
 -1       541 9.84000E+01 6.69850E+00 0.00000E+00
 -1       542 1.01400E+02 6.69850E+00 0.00000E+00
 -1       543 1.04400E+02 6.69850E+00 0.00000E+00
 -1       544 1.07400E+02 6.69850E+00 0.00000E+00
 -1       545 1.10400E+02 6.69850E+00 0.00000E+00
 -1       546 1.13250E+02 6.69850E+00 0.00000E+00
 -1       547 1.16250E+02 6.69850E+00 0.00000E+00
 -1       548 1.19250E+02 6.69850E+00 0.00000E+00
 -1       549 1.22250E+02 6.69850E+00 0.00000E+00
 -1       550 1.25250E+02 6.69850E+00 0.00000E+00
 -1       551 1.28250E+02 6.69850E+00 0.00000E+00
 -1       552 1.31250E+02 6.69850E+00 0.00000E+00
 -1       553 1.34250E+02 6.69850E+00 0.00000E+00
 -1       554 1.37250E+02 6.69850E+00 0.00000E+00
 -1       555 1.40250E+02 6.69850E+00 0.00000E+00
 -1       556 1.44257E+02 6.65041E+00 0.00000E+00
 -1       557 1.42779E+02 1.42751E+01 0.00000E+00
 -1       558 1.42779E+02 1.72251E+01 0.00000E+00
 -1       559 1.42779E+02 1.13251E+01 0.00000E+00
 -1       560 1.42779E+02 2.01751E+01 0.00000E+00
 -1       561 1.42779E+02 2.31251E+01 0.00000E+00
 -1       562 1.42779E+02 2.60751E+01 0.00000E+00
 -1       563 1.42779E+02 2.90251E+01 0.00000E+00
 -1       564 1.42779E+02 3.19251E+01 0.00000E+00
 -1       565 1.42779E+02 3.48751E+01 0.00000E+00
 -1       566 1.42779E+02 3.78251E+01 0.00000E+00
 -1       567 4.42680E+01 1.50391E+01 0.00000E+00
 -1       568 6.18120E+01 2.01824E+01 0.00000E+00
 -1       569 7.92300E+00 4.16780E+01 0.00000E+00
 -1       570 4.37253E+01 1.26228E+01 0.00000E+00
 -1       571 5.51508E+01 2.24418E+01 0.00000E+00
 -1       572 6.85500E+01 6.69850E+00 0.00000E+00
 -1       573 6.55500E+01 6.15076E+00 0.00000E+00
 -1       574 1.13970E+01 7.72300E+00 0.00000E+00
 -1       575 7.79400E+00 2.79000E+01 0.00000E+00
 -1       576 1.39485E+01 7.75850E+00 0.00000E+00
 -1       577 6.51067E+01 1.47748E+01 0.00000E+00
 -1       578 4.38804E+01 1.06041E+01 0.00000E+00
 -1       579 4.54091E+01 1.71724E+01 0.00000E+00
 -1       580 4.65671E+01 1.88116E+01 0.00000E+00
 -1       581 4.84952E+01 2.06924E+01 0.00000E+00
 -1       582 5.08867E+01 2.17633E+01 0.00000E+00
 -1       583 5.27483E+01 2.21655E+01 0.00000E+00
 -1       584 5.78198E+01 2.26712E+01 0.00000E+00
 -1       585 5.99026E+01 2.13111E+01 0.00000E+00
 -1       586 6.32789E+01 1.87238E+01 0.00000E+00
 -1       587 6.43936E+01 1.64886E+01 0.00000E+00
 -1       588 7.79400E+00 3.67375E+01 0.00000E+00
 -1       589 6.72847E+01 8.43480E+00 0.00000E+00
 -1       590 1.43518E+02 8.98777E+00 0.00000E+00
 -1       591 1.03920E+01 2.05500E+01 0.00000E+00
 -1       592 1.03920E+01 2.35000E+01 0.00000E+00
 -1       593 1.03920E+01 1.46750E+01 0.00000E+00
 -1       594 1.03920E+01 1.17250E+01 0.00000E+00
 -1       595 1.08945E+01 9.72400E+00 0.00000E+00
 -1       596 1.03920E+01 1.76125E+01 0.00000E+00
 -1       597 7.00500E+01 8.74876E+00 0.00000E+00
 -1       598 1.21500E+01 3.96080E+01 0.00000E+00
 -1       599 1.51500E+01 3.96080E+01 0.00000E+00
 -1       600 1.81500E+01 3.96080E+01 0.00000E+00
 -1       601 2.11500E+01 3.96080E+01 0.00000E+00
 -1       602 2.41500E+01 3.96080E+01 0.00000E+00
 -1       603 2.71500E+01 3.96080E+01 0.00000E+00
 -1       604 3.01500E+01 3.96080E+01 0.00000E+00
 -1       605 3.31500E+01 3.96080E+01 0.00000E+00
 -1       606 3.61500E+01 3.96080E+01 0.00000E+00
 -1       607 3.91500E+01 3.96080E+01 0.00000E+00
 -1       608 4.21500E+01 3.96080E+01 0.00000E+00
 -1       609 4.51500E+01 3.96080E+01 0.00000E+00
 -1       610 4.81500E+01 3.96080E+01 0.00000E+00
 -1       611 5.11500E+01 3.96080E+01 0.00000E+00
 -1       612 5.41500E+01 3.96080E+01 0.00000E+00
 -1       613 5.71500E+01 3.96080E+01 0.00000E+00
 -1       614 6.01500E+01 3.96080E+01 0.00000E+00
 -1       615 6.31500E+01 3.96080E+01 0.00000E+00
 -1       616 6.61500E+01 3.96080E+01 0.00000E+00
 -1       617 6.91500E+01 3.96080E+01 0.00000E+00
 -1       618 7.21500E+01 3.96080E+01 0.00000E+00
 -1       619 7.51500E+01 3.96080E+01 0.00000E+00
 -1       620 7.81500E+01 3.96080E+01 0.00000E+00
 -1       621 8.11500E+01 3.96080E+01 0.00000E+00
 -1       622 8.41500E+01 3.96080E+01 0.00000E+00
 -1       623 8.71500E+01 3.96080E+01 0.00000E+00
 -1       624 9.01500E+01 3.96080E+01 0.00000E+00
 -1       625 9.31500E+01 3.96080E+01 0.00000E+00
 -1       626 9.61500E+01 3.96080E+01 0.00000E+00
 -1       627 9.91500E+01 3.96080E+01 0.00000E+00
 -1       628 1.02150E+02 3.96080E+01 0.00000E+00
 -1       629 1.05150E+02 3.96080E+01 0.00000E+00
 -1       630 1.08150E+02 3.96080E+01 0.00000E+00
 -1       631 1.11150E+02 3.96080E+01 0.00000E+00
 -1       632 1.14150E+02 3.96080E+01 0.00000E+00
 -1       633 1.17150E+02 3.96080E+01 0.00000E+00
 -1       634 1.20150E+02 3.96080E+01 0.00000E+00
 -1       635 1.23150E+02 3.96080E+01 0.00000E+00
 -1       636 1.26150E+02 3.96080E+01 0.00000E+00
 -1       637 1.29150E+02 3.96080E+01 0.00000E+00
 -1       638 1.32150E+02 3.96080E+01 0.00000E+00
 -1       639 1.35150E+02 3.96080E+01 0.00000E+00
 -1       640 1.38150E+02 3.96080E+01 0.00000E+00
 -1       641 1.40464E+02 3.87166E+01 0.00000E+00
 -1       642 5.37632E+01 2.39243E+01 0.00000E+00
 -1       643 1.80000E+01 1.03920E+01 0.00000E+00
 -1       644 2.70000E+01 1.03920E+01 0.00000E+00
 -1       645 2.98500E+01 1.03920E+01 0.00000E+00
 -1       646 3.28500E+01 1.03920E+01 0.00000E+00
 -1       647 3.58500E+01 1.03920E+01 0.00000E+00
 -1       648 3.88500E+01 1.03920E+01 0.00000E+00
 -1       649 4.13652E+01 1.04981E+01 0.00000E+00
 -1       650 7.89750E+01 9.29650E+00 0.00000E+00
 -1       651 1.40181E+02 2.16501E+01 0.00000E+00
 -1       652 7.59750E+01 9.29650E+00 0.00000E+00
 -1       653 2.40000E+01 1.03920E+01 0.00000E+00
 -1       654 6.19006E+01 2.25117E+01 0.00000E+00
 -1       655 6.73358E+01 1.44794E+01 0.00000E+00
 -1       656 7.29750E+01 9.29650E+00 0.00000E+00
 -1       657 8.19750E+01 9.29650E+00 0.00000E+00
 -1       658 8.49750E+01 9.29650E+00 0.00000E+00
 -1       659 8.79750E+01 9.29650E+00 0.00000E+00
 -1       660 9.09750E+01 9.29650E+00 0.00000E+00
 -1       661 9.39750E+01 9.29650E+00 0.00000E+00
 -1       662 9.69750E+01 9.29650E+00 0.00000E+00
 -1       663 9.99750E+01 9.29650E+00 0.00000E+00
 -1       664 1.02975E+02 9.29650E+00 0.00000E+00
 -1       665 1.05975E+02 9.29650E+00 0.00000E+00
 -1       666 1.08975E+02 9.29650E+00 0.00000E+00
 -1       667 1.11825E+02 9.29650E+00 0.00000E+00
 -1       668 1.14825E+02 9.29650E+00 0.00000E+00
 -1       669 1.17825E+02 9.29650E+00 0.00000E+00
 -1       670 1.20825E+02 9.29650E+00 0.00000E+00
 -1       671 1.23825E+02 9.29650E+00 0.00000E+00
 -1       672 1.26825E+02 9.29650E+00 0.00000E+00
 -1       673 1.29825E+02 9.29650E+00 0.00000E+00
 -1       674 1.32825E+02 9.29650E+00 0.00000E+00
 -1       675 1.35825E+02 9.29650E+00 0.00000E+00
 -1       676 1.38825E+02 9.29650E+00 0.00000E+00
 -1       677 1.40181E+02 1.57501E+01 0.00000E+00
 -1       678 1.40181E+02 1.28001E+01 0.00000E+00
 -1       679 1.40181E+02 1.87001E+01 0.00000E+00
 -1       680 1.40181E+02 2.46001E+01 0.00000E+00
 -1       681 1.40181E+02 2.75501E+01 0.00000E+00
 -1       682 1.40181E+02 3.04501E+01 0.00000E+00
 -1       683 1.40181E+02 3.34001E+01 0.00000E+00
 -1       684 1.40323E+02 3.60583E+01 0.00000E+00
 -1       685 6.53711E+01 1.83716E+01 0.00000E+00
 -1       686 6.37548E+01 2.06693E+01 0.00000E+00
 -1       687 5.63097E+01 2.45992E+01 0.00000E+00
 -1       688 4.62166E+01 2.10997E+01 0.00000E+00
 -1       689 4.19963E+01 1.42803E+01 0.00000E+00
 -1       690 6.83728E+01 1.16804E+01 0.00000E+00
 -1       691 2.10000E+01 1.03920E+01 0.00000E+00
 -1       692 1.03920E+01 3.23250E+01 0.00000E+00
 -1       693 4.43136E+01 1.91750E+01 0.00000E+00
 -1       694 5.98179E+01 2.38718E+01 0.00000E+00
 -1       695 5.14199E+01 2.38046E+01 0.00000E+00
 -1       696 4.31725E+01 1.70417E+01 0.00000E+00
 -1       697 6.63535E+01 1.64255E+01 0.00000E+00
 -1       698 4.89900E+01 2.27932E+01 0.00000E+00
 -1       699 1.34460E+01 9.75950E+00 0.00000E+00
 -1       700 1.03920E+01 2.64500E+01 0.00000E+00
 -1       701 1.03920E+01 2.93875E+01 0.00000E+00
 -1       702 6.92114E+01 1.02146E+01 0.00000E+00
 -1       703 1.57230E+01 1.00758E+01 0.00000E+00
 -1       704 4.67113E+01 2.32005E+01 0.00000E+00
 -1       705 9.78035E+00 3.93914E+01 0.00000E+00
 -1       706 4.16807E+01 1.23892E+01 0.00000E+00
 -1       707 5.83078E+01 2.57998E+01 0.00000E+00
 -1       708 1.03920E+01 3.52625E+01 0.00000E+00
 -1       709 1.29435E+01 1.17605E+01 0.00000E+00
 -1       710 5.24870E+01 2.59121E+01 0.00000E+00
 -1       711 1.36500E+01 3.70100E+01 0.00000E+00
 -1       712 4.08523E+01 1.63988E+01 0.00000E+00
 -1       713 6.41547E+01 2.29260E+01 0.00000E+00
 -1       714 6.61028E+01 2.06037E+01 0.00000E+00
 -1       715 1.66500E+01 3.70100E+01 0.00000E+00
 -1       716 1.96500E+01 3.70100E+01 0.00000E+00
 -1       717 2.26500E+01 3.70100E+01 0.00000E+00
 -1       718 2.56500E+01 3.70100E+01 0.00000E+00
 -1       719 2.86500E+01 3.70100E+01 0.00000E+00
 -1       720 3.16500E+01 3.70100E+01 0.00000E+00
 -1       721 3.46500E+01 3.70100E+01 0.00000E+00
 -1       722 3.76500E+01 3.70100E+01 0.00000E+00
 -1       723 4.06500E+01 3.70100E+01 0.00000E+00
 -1       724 4.36500E+01 3.70100E+01 0.00000E+00
 -1       725 4.66500E+01 3.70100E+01 0.00000E+00
 -1       726 4.96500E+01 3.70100E+01 0.00000E+00
 -1       727 5.26500E+01 3.70100E+01 0.00000E+00
 -1       728 5.56500E+01 3.70100E+01 0.00000E+00
 -1       729 5.86500E+01 3.70100E+01 0.00000E+00
 -1       730 6.16500E+01 3.70100E+01 0.00000E+00
 -1       731 6.46500E+01 3.70100E+01 0.00000E+00
 -1       732 6.76500E+01 3.70100E+01 0.00000E+00
 -1       733 7.06500E+01 3.70100E+01 0.00000E+00
 -1       734 7.36500E+01 3.70100E+01 0.00000E+00
 -1       735 7.66500E+01 3.70100E+01 0.00000E+00
 -1       736 7.96500E+01 3.70100E+01 0.00000E+00
 -1       737 8.26500E+01 3.70100E+01 0.00000E+00
 -1       738 8.56500E+01 3.70100E+01 0.00000E+00
 -1       739 8.86500E+01 3.70100E+01 0.00000E+00
 -1       740 9.16500E+01 3.70100E+01 0.00000E+00
 -1       741 9.46500E+01 3.70100E+01 0.00000E+00
 -1       742 9.76500E+01 3.70100E+01 0.00000E+00
 -1       743 1.00650E+02 3.70100E+01 0.00000E+00
 -1       744 1.03650E+02 3.70100E+01 0.00000E+00
 -1       745 1.06650E+02 3.70100E+01 0.00000E+00
 -1       746 1.09650E+02 3.70100E+01 0.00000E+00
 -1       747 1.12650E+02 3.70100E+01 0.00000E+00
 -1       748 1.15650E+02 3.70100E+01 0.00000E+00
 -1       749 1.18650E+02 3.70100E+01 0.00000E+00
 -1       750 1.21650E+02 3.70100E+01 0.00000E+00
 -1       751 1.24650E+02 3.70100E+01 0.00000E+00
 -1       752 1.27650E+02 3.70100E+01 0.00000E+00
 -1       753 1.30650E+02 3.70100E+01 0.00000E+00
 -1       754 1.33650E+02 3.70100E+01 0.00000E+00
 -1       755 1.36650E+02 3.70100E+01 0.00000E+00
 -1       756 1.38486E+02 3.65342E+01 0.00000E+00
 -1       757 2.84250E+01 1.29900E+01 0.00000E+00
 -1       758 3.73500E+01 1.29450E+01 0.00000E+00
 -1       759 3.95154E+01 1.26671E+01 0.00000E+00
 -1       760 8.34750E+01 1.18945E+01 0.00000E+00
 -1       761 1.37583E+02 2.60751E+01 0.00000E+00
 -1       762 1.37583E+02 2.31251E+01 0.00000E+00
 -1       763 8.04750E+01 1.18945E+01 0.00000E+00
 -1       764 2.54250E+01 1.29900E+01 0.00000E+00
 -1       765 8.64750E+01 1.18945E+01 0.00000E+00
 -1       766 8.94750E+01 1.18945E+01 0.00000E+00
 -1       767 9.24750E+01 1.18945E+01 0.00000E+00
 -1       768 9.54750E+01 1.18945E+01 0.00000E+00
 -1       769 9.84750E+01 1.18945E+01 0.00000E+00
 -1       770 1.01475E+02 1.18945E+01 0.00000E+00
 -1       771 1.04475E+02 1.18945E+01 0.00000E+00
 -1       772 1.07475E+02 1.18945E+01 0.00000E+00
 -1       773 1.10325E+02 1.18945E+01 0.00000E+00
 -1       774 1.13325E+02 1.18945E+01 0.00000E+00
 -1       775 1.16325E+02 1.18945E+01 0.00000E+00
 -1       776 1.19325E+02 1.18945E+01 0.00000E+00
 -1       777 1.22325E+02 1.18945E+01 0.00000E+00
 -1       778 1.25325E+02 1.18945E+01 0.00000E+00
 -1       779 1.28325E+02 1.18945E+01 0.00000E+00
 -1       780 1.31325E+02 1.18945E+01 0.00000E+00
 -1       781 1.34325E+02 1.18945E+01 0.00000E+00
 -1       782 1.37253E+02 1.23473E+01 0.00000E+00
 -1       783 4.38071E+01 2.15788E+01 0.00000E+00
 -1       784 1.37253E+02 1.52973E+01 0.00000E+00
 -1       785 4.22307E+01 1.89173E+01 0.00000E+00
 -1       786 4.93526E+01 2.53464E+01 0.00000E+00
 -1       787 1.37583E+02 2.01751E+01 0.00000E+00
 -1       788 1.37583E+02 2.89751E+01 0.00000E+00
 -1       789 1.37583E+02 3.19251E+01 0.00000E+00
 -1       790 6.97769E+01 1.37921E+01 0.00000E+00
 -1       791 1.95000E+01 1.29900E+01 0.00000E+00
 -1       792 6.20719E+01 2.50487E+01 0.00000E+00
 -1       793 2.24625E+01 1.29900E+01 0.00000E+00
 -1       794 7.21364E+01 1.07623E+01 0.00000E+00
 -1       795 1.37418E+02 1.77362E+01 0.00000E+00
 -1       796 5.50335E+01 2.65870E+01 0.00000E+00
 -1       797 7.51364E+01 1.07623E+01 0.00000E+00
 -1       798 7.78057E+01 1.13284E+01 0.00000E+00
 -1       799 3.43500E+01 1.29450E+01 0.00000E+00
 -1       800 3.13875E+01 1.29675E+01 0.00000E+00
 -1       801 1.29900E+01 2.20250E+01 0.00000E+00
 -1       802 1.29900E+01 2.49750E+01 0.00000E+00
 -1       803 3.96202E+01 1.43654E+01 0.00000E+00
 -1       804 4.43019E+01 2.36796E+01 0.00000E+00
 -1       805 1.72230E+01 1.26737E+01 0.00000E+00
 -1       806 5.70316E+01 2.77875E+01 0.00000E+00
 -1       807 6.91120E+01 1.61093E+01 0.00000E+00
 -1       808 7.06155E+01 1.23263E+01 0.00000E+00
 -1       809 1.38035E+02 3.42296E+01 0.00000E+00
 -1       810 1.29900E+01 1.90875E+01 0.00000E+00
 -1       811 6.05618E+01 2.69767E+01 0.00000E+00
 -1       812 1.29900E+01 3.08563E+01 0.00000E+00
 -1       813 6.78422E+01 1.83980E+01 0.00000E+00
 -1       814 1.29900E+01 3.37938E+01 0.00000E+00
 -1       815 1.29900E+01 1.61500E+01 0.00000E+00
 -1       816 3.84828E+01 1.64446E+01 0.00000E+00
 -1       817 1.29900E+01 2.79188E+01 0.00000E+00
 -1       818 1.55646E+01 1.39277E+01 0.00000E+00
 -1       819 7.36364E+01 1.33603E+01 0.00000E+00
 -1       820 6.49355E+01 2.57754E+01 0.00000E+00
 -1       821 8.49750E+01 1.44925E+01 0.00000E+00
 -1       822 1.81500E+01 3.44120E+01 0.00000E+00
 -1       823 2.11500E+01 3.44120E+01 0.00000E+00
 -1       824 2.41500E+01 3.44120E+01 0.00000E+00
 -1       825 2.71500E+01 3.44120E+01 0.00000E+00
 -1       826 3.01500E+01 3.44120E+01 0.00000E+00
 -1       827 3.31500E+01 3.44120E+01 0.00000E+00
 -1       828 3.61500E+01 3.44120E+01 0.00000E+00
 -1       829 3.91500E+01 3.44120E+01 0.00000E+00
 -1       830 4.21500E+01 3.44120E+01 0.00000E+00
 -1       831 4.51500E+01 3.44120E+01 0.00000E+00
 -1       832 4.81500E+01 3.44120E+01 0.00000E+00
 -1       833 5.11500E+01 3.44120E+01 0.00000E+00
 -1       834 5.41500E+01 3.44120E+01 0.00000E+00
 -1       835 5.71500E+01 3.44120E+01 0.00000E+00
 -1       836 6.01500E+01 3.44120E+01 0.00000E+00
 -1       837 6.31500E+01 3.44120E+01 0.00000E+00
 -1       838 6.61500E+01 3.44120E+01 0.00000E+00
 -1       839 6.91500E+01 3.44120E+01 0.00000E+00
 -1       840 7.21500E+01 3.44120E+01 0.00000E+00
 -1       841 7.51500E+01 3.44120E+01 0.00000E+00
 -1       842 7.81500E+01 3.44120E+01 0.00000E+00
 -1       843 8.11500E+01 3.44120E+01 0.00000E+00
 -1       844 8.41500E+01 3.44120E+01 0.00000E+00
 -1       845 8.71500E+01 3.44120E+01 0.00000E+00
 -1       846 9.01500E+01 3.44120E+01 0.00000E+00
 -1       847 9.31500E+01 3.44120E+01 0.00000E+00
 -1       848 9.61500E+01 3.44120E+01 0.00000E+00
 -1       849 9.91500E+01 3.44120E+01 0.00000E+00
 -1       850 1.02150E+02 3.44120E+01 0.00000E+00
 -1       851 1.05150E+02 3.44120E+01 0.00000E+00
 -1       852 1.08150E+02 3.44120E+01 0.00000E+00
 -1       853 1.11150E+02 3.44120E+01 0.00000E+00
 -1       854 1.14150E+02 3.44120E+01 0.00000E+00
 -1       855 1.17150E+02 3.44120E+01 0.00000E+00
 -1       856 1.20150E+02 3.44120E+01 0.00000E+00
 -1       857 1.23150E+02 3.44120E+01 0.00000E+00
 -1       858 1.26150E+02 3.44120E+01 0.00000E+00
 -1       859 1.29150E+02 3.44120E+01 0.00000E+00
 -1       860 1.32150E+02 3.44120E+01 0.00000E+00
 -1       861 8.79750E+01 1.44925E+01 0.00000E+00
 -1       862 1.34985E+02 3.04501E+01 0.00000E+00
 -1       863 1.34985E+02 2.46001E+01 0.00000E+00
 -1       864 1.34985E+02 2.75251E+01 0.00000E+00
 -1       865 8.19750E+01 1.44925E+01 0.00000E+00
 -1       866 2.69250E+01 1.55880E+01 0.00000E+00
 -1       867 9.09750E+01 1.44925E+01 0.00000E+00
 -1       868 9.39750E+01 1.44925E+01 0.00000E+00
 -1       869 9.69750E+01 1.44925E+01 0.00000E+00
 -1       870 9.99750E+01 1.44925E+01 0.00000E+00
 -1       871 1.02975E+02 1.44925E+01 0.00000E+00
 -1       872 1.05975E+02 1.44925E+01 0.00000E+00
 -1       873 1.08825E+02 1.44925E+01 0.00000E+00
 -1       874 1.11825E+02 1.44925E+01 0.00000E+00
 -1       875 1.14825E+02 1.44925E+01 0.00000E+00
 -1       876 1.17825E+02 1.44925E+01 0.00000E+00
 -1       877 1.20825E+02 1.44925E+01 0.00000E+00
 -1       878 1.23825E+02 1.44925E+01 0.00000E+00
 -1       879 1.26825E+02 1.44925E+01 0.00000E+00
 -1       880 1.29825E+02 1.44925E+01 0.00000E+00
 -1       881 1.32825E+02 1.44925E+01 0.00000E+00
 -1       882 1.35039E+02 1.48949E+01 0.00000E+00
 -1       883 6.68836E+01 2.34531E+01 0.00000E+00
 -1       884 7.19416E+01 1.56673E+01 0.00000E+00
 -1       885 5.31492E+01 2.85553E+01 0.00000E+00
 -1       886 1.34985E+02 2.16501E+01 0.00000E+00
 -1       887 3.98612E+01 1.89631E+01 0.00000E+00
 -1       888 4.63938E+01 2.62898E+01 0.00000E+00
 -1       889 5.00148E+01 2.79897E+01 0.00000E+00
 -1       890 3.58500E+01 1.55430E+01 0.00000E+00
 -1       891 6.87140E+01 2.08741E+01 0.00000E+00
 -1       892 4.11107E+01 2.13783E+01 0.00000E+00
 -1       893 7.06719E+01 1.79559E+01 0.00000E+00
 -1       894 1.55880E+01 2.93875E+01 0.00000E+00
 -1       895 6.34255E+01 2.77034E+01 0.00000E+00
 -1       896 1.55880E+01 2.05562E+01 0.00000E+00
 -1       897 2.39625E+01 1.55880E+01 0.00000E+00
 -1       898 1.35150E+02 3.44120E+01 0.00000E+00
 -1       899 2.98875E+01 1.55655E+01 0.00000E+00
 -1       900 1.80041E+01 1.54052E+01 0.00000E+00
 -1       901 1.35204E+02 1.73338E+01 0.00000E+00
 -1       902 5.51472E+01 2.97559E+01 0.00000E+00
 -1       903 5.92856E+01 2.89644E+01 0.00000E+00
 -1       904 7.63057E+01 1.39264E+01 0.00000E+00
 -1       905 3.28875E+01 1.55655E+01 0.00000E+00
 -1       906 4.16055E+01 2.34791E+01 0.00000E+00
 -1       907 1.55880E+01 2.35063E+01 0.00000E+00
 -1       908 7.89751E+01 1.44925E+01 0.00000E+00
 -1       909 1.35094E+02 1.94920E+01 0.00000E+00
 -1       910 2.10000E+01 1.55880E+01 0.00000E+00
 -1       911 1.51500E+01 3.44120E+01 0.00000E+00
 -1       912 1.55880E+01 1.76187E+01 0.00000E+00
 -1       913 1.55880E+01 2.64469E+01 0.00000E+00
 -1       914 1.81860E+01 1.90875E+01 0.00000E+00
 -1       915 1.66500E+01 3.18140E+01 0.00000E+00
 -1       916 3.63393E+01 1.84090E+01 0.00000E+00
 -1       917 8.64750E+01 1.70905E+01 0.00000E+00
 -1       918 2.26500E+01 3.18140E+01 0.00000E+00
 -1       919 2.56500E+01 3.18140E+01 0.00000E+00
 -1       920 2.86500E+01 3.18140E+01 0.00000E+00
 -1       921 3.16500E+01 3.18140E+01 0.00000E+00
 -1       922 3.46500E+01 3.18140E+01 0.00000E+00
 -1       923 3.76500E+01 3.18140E+01 0.00000E+00
 -1       924 4.06500E+01 3.18140E+01 0.00000E+00
 -1       925 4.36500E+01 3.18140E+01 0.00000E+00
 -1       926 4.66500E+01 3.18140E+01 0.00000E+00
 -1       927 4.96500E+01 3.18140E+01 0.00000E+00
 -1       928 5.26500E+01 3.18140E+01 0.00000E+00
 -1       929 6.16500E+01 3.18140E+01 0.00000E+00
 -1       930 6.46500E+01 3.18140E+01 0.00000E+00
 -1       931 6.76500E+01 3.18140E+01 0.00000E+00
 -1       932 7.06500E+01 3.18140E+01 0.00000E+00
 -1       933 7.36500E+01 3.18140E+01 0.00000E+00
 -1       934 7.66500E+01 3.18140E+01 0.00000E+00
 -1       935 7.96500E+01 3.18140E+01 0.00000E+00
 -1       936 8.26500E+01 3.18140E+01 0.00000E+00
 -1       937 8.56500E+01 3.18140E+01 0.00000E+00
 -1       938 8.86500E+01 3.18140E+01 0.00000E+00
 -1       939 9.16500E+01 3.18140E+01 0.00000E+00
 -1       940 9.46500E+01 3.18140E+01 0.00000E+00
 -1       941 9.76500E+01 3.18140E+01 0.00000E+00
 -1       942 1.00650E+02 3.18140E+01 0.00000E+00
 -1       943 1.03650E+02 3.18140E+01 0.00000E+00
 -1       944 1.06650E+02 3.18140E+01 0.00000E+00
 -1       945 1.09650E+02 3.18140E+01 0.00000E+00
 -1       946 1.12650E+02 3.18140E+01 0.00000E+00
 -1       947 1.15650E+02 3.18140E+01 0.00000E+00
 -1       948 1.18650E+02 3.18140E+01 0.00000E+00
 -1       949 1.21650E+02 3.18140E+01 0.00000E+00
 -1       950 1.24650E+02 3.18140E+01 0.00000E+00
 -1       951 1.27650E+02 3.18140E+01 0.00000E+00
 -1       952 1.30650E+02 3.18140E+01 0.00000E+00
 -1       953 9.24750E+01 1.70905E+01 0.00000E+00
 -1       954 9.54750E+01 1.70905E+01 0.00000E+00
 -1       955 8.94750E+01 1.70905E+01 0.00000E+00
 -1       956 9.84750E+01 1.70905E+01 0.00000E+00
 -1       957 8.34750E+01 1.70905E+01 0.00000E+00
 -1       958 1.01475E+02 1.70905E+01 0.00000E+00
 -1       959 1.04475E+02 1.70905E+01 0.00000E+00
 -1       960 1.07325E+02 1.70905E+01 0.00000E+00
 -1       961 1.10325E+02 1.70905E+01 0.00000E+00
 -1       962 1.13325E+02 1.70905E+01 0.00000E+00
 -1       963 1.16325E+02 1.70905E+01 0.00000E+00
 -1       964 1.19325E+02 1.70905E+01 0.00000E+00
 -1       965 1.22325E+02 1.70905E+01 0.00000E+00
 -1       966 1.25325E+02 1.70905E+01 0.00000E+00
 -1       967 1.28325E+02 1.70905E+01 0.00000E+00
 -1       968 1.31325E+02 1.70905E+01 0.00000E+00
 -1       969 1.33264E+02 1.72122E+01 0.00000E+00
 -1       970 1.32387E+02 2.31251E+01 0.00000E+00
 -1       971 1.96500E+01 3.18140E+01 0.00000E+00
 -1       972 1.93438E+01 1.80898E+01 0.00000E+00
 -1       973 8.04751E+01 1.70905E+01 0.00000E+00
 -1       974 4.33557E+01 2.65813E+01 0.00000E+00
 -1       975 6.78655E+01 2.62550E+01 0.00000E+00
 -1       976 4.65028E+01 2.91976E+01 0.00000E+00
 -1       977 7.16738E+01 2.07440E+01 0.00000E+00
 -1       978 3.85161E+01 2.11898E+01 0.00000E+00
 -1       979 6.99174E+01 2.36673E+01 0.00000E+00
 -1       980 7.35785E+01 1.80720E+01 0.00000E+00
 -1       981 7.49421E+01 1.59992E+01 0.00000E+00
 -1       982 1.85880E+01 2.93875E+01 0.00000E+00
 -1       983 2.54438E+01 1.81860E+01 0.00000E+00
 -1       984 6.63554E+01 2.81830E+01 0.00000E+00
 -1       985 3.33768E+01 1.84315E+01 0.00000E+00
 -1       986 5.85908E+01 3.10998E+01 0.00000E+00
 -1       987 2.84063E+01 1.81635E+01 0.00000E+00
 -1       988 1.30650E+02 2.88890E+01 0.00000E+00
 -1       989 2.24813E+01 1.81860E+01 0.00000E+00
 -1       990 1.31518E+02 2.60071E+01 0.00000E+00
 -1       991 7.76115E+01 1.65653E+01 0.00000E+00
 -1       992 1.81860E+01 2.20375E+01 0.00000E+00
 -1       993 1.32497E+02 2.09670E+01 0.00000E+00
 -1       994 3.90109E+01 2.32906E+01 0.00000E+00
 -1       995 1.02975E+02 1.96885E+01 0.00000E+00
 -1       996 9.99750E+01 1.96885E+01 0.00000E+00
 -1       997 2.71500E+01 2.92160E+01 0.00000E+00
 -1       998 3.01500E+01 2.92160E+01 0.00000E+00
 -1       999 3.31500E+01 2.92160E+01 0.00000E+00
 -1      1000 3.61500E+01 2.92160E+01 0.00000E+00
 -1      1001 3.91500E+01 2.92160E+01 0.00000E+00
 -1      1002 7.09271E+01 2.65753E+01 0.00000E+00
 -1      1003 9.69750E+01 1.96885E+01 0.00000E+00
 -1      1004 7.21500E+01 2.92160E+01 0.00000E+00
 -1      1005 7.51500E+01 2.92160E+01 0.00000E+00
 -1      1006 7.81500E+01 2.92160E+01 0.00000E+00
 -1      1007 8.11500E+01 2.92160E+01 0.00000E+00
 -1      1008 8.41500E+01 2.92160E+01 0.00000E+00
 -1      1009 8.71500E+01 2.92160E+01 0.00000E+00
 -1      1010 9.01500E+01 2.92160E+01 0.00000E+00
 -1      1011 9.31500E+01 2.92160E+01 0.00000E+00
 -1      1012 9.61500E+01 2.92160E+01 0.00000E+00
 -1      1013 9.91500E+01 2.92160E+01 0.00000E+00
 -1      1014 1.02150E+02 2.92160E+01 0.00000E+00
 -1      1015 1.05150E+02 2.92160E+01 0.00000E+00
 -1      1016 1.08150E+02 2.92160E+01 0.00000E+00
 -1      1017 1.11150E+02 2.92160E+01 0.00000E+00
 -1      1018 1.14150E+02 2.92160E+01 0.00000E+00
 -1      1019 1.17150E+02 2.92160E+01 0.00000E+00
 -1      1020 1.20150E+02 2.92160E+01 0.00000E+00
 -1      1021 1.23150E+02 2.92160E+01 0.00000E+00
 -1      1022 1.26150E+02 2.92160E+01 0.00000E+00
 -1      1023 1.28400E+02 2.90525E+01 0.00000E+00
 -1      1024 9.39750E+01 1.96885E+01 0.00000E+00
 -1      1025 2.39625E+01 2.07840E+01 0.00000E+00
 -1      1026 8.49750E+01 1.96885E+01 0.00000E+00
 -1      1027 1.05825E+02 1.96885E+01 0.00000E+00
 -1      1028 1.08825E+02 1.96885E+01 0.00000E+00
 -1      1029 1.11825E+02 1.96885E+01 0.00000E+00
 -1      1030 1.14825E+02 1.96885E+01 0.00000E+00
 -1      1031 1.17825E+02 1.96885E+01 0.00000E+00
 -1      1032 1.20825E+02 1.96885E+01 0.00000E+00
 -1      1033 1.23825E+02 1.96885E+01 0.00000E+00
 -1      1034 1.26825E+02 1.96885E+01 0.00000E+00
 -1      1035 1.29825E+02 1.96885E+01 0.00000E+00
 -1      1036 2.15880E+01 2.93875E+01 0.00000E+00
 -1      1037 3.08915E+01 1.82975E+01 0.00000E+00
 -1      1038 8.19751E+01 1.96885E+01 0.00000E+00
 -1      1039 7.85746E+01 1.93833E+01 0.00000E+00
 -1      1040 3.53820E+01 2.14008E+01 0.00000E+00
 -1      1041 4.02178E+01 2.63068E+01 0.00000E+00
 -1      1042 7.30225E+01 2.35437E+01 0.00000E+00
 -1      1043 7.49273E+01 2.08716E+01 0.00000E+00
 -1      1044 2.43690E+01 2.93018E+01 0.00000E+00
 -1      1045 1.89066E+01 2.60619E+01 0.00000E+00
 -1      1046 6.92886E+01 2.91947E+01 0.00000E+00
 -1      1047 4.21500E+01 2.92160E+01 0.00000E+00
 -1      1048 9.09750E+01 1.96885E+01 0.00000E+00
 -1      1049 8.79750E+01 1.96885E+01 0.00000E+00
 -1      1050 2.69250E+01 2.07615E+01 0.00000E+00
 -1      1051 2.08329E+01 2.07347E+01 0.00000E+00
 -1      1052 7.60766E+01 1.87277E+01 0.00000E+00
 -1      1053 3.58767E+01 2.35016E+01 0.00000E+00
 -1      1054 1.29715E+02 2.18467E+01 0.00000E+00
 -1      1055 1.28847E+02 2.47286E+01 0.00000E+00
 -1      1056 3.16500E+01 2.66180E+01 0.00000E+00
 -1      1057 3.46500E+01 2.66180E+01 0.00000E+00
 -1      1058 9.84750E+01 2.22865E+01 0.00000E+00
 -1      1059 8.34751E+01 2.22865E+01 0.00000E+00
 -1      1060 7.66500E+01 2.66180E+01 0.00000E+00
 -1      1061 7.96500E+01 2.66180E+01 0.00000E+00
 -1      1062 8.26500E+01 2.66180E+01 0.00000E+00
 -1      1063 8.56500E+01 2.66180E+01 0.00000E+00
 -1      1064 8.86500E+01 2.66180E+01 0.00000E+00
 -1      1065 9.16500E+01 2.66180E+01 0.00000E+00
 -1      1066 9.46500E+01 2.66180E+01 0.00000E+00
 -1      1067 9.76500E+01 2.66180E+01 0.00000E+00
 -1      1068 1.00650E+02 2.66180E+01 0.00000E+00
 -1      1069 1.03650E+02 2.66180E+01 0.00000E+00
 -1      1070 1.06650E+02 2.66180E+01 0.00000E+00
 -1      1071 1.09650E+02 2.66180E+01 0.00000E+00
 -1      1072 1.12650E+02 2.66180E+01 0.00000E+00
 -1      1073 1.15650E+02 2.66180E+01 0.00000E+00
 -1      1074 1.18650E+02 2.66180E+01 0.00000E+00
 -1      1075 1.21650E+02 2.66180E+01 0.00000E+00
 -1      1076 1.24650E+02 2.66180E+01 0.00000E+00
 -1      1077 9.54750E+01 2.22865E+01 0.00000E+00
 -1      1078 1.28624E+02 2.68905E+01 0.00000E+00
 -1      1079 7.74253E+01 2.15273E+01 0.00000E+00
 -1      1080 3.22263E+01 2.13702E+01 0.00000E+00
 -1      1081 1.04400E+02 2.22865E+01 0.00000E+00
 -1      1082 1.13325E+02 2.22865E+01 0.00000E+00
 -1      1083 1.16325E+02 2.22865E+01 0.00000E+00
 -1      1084 1.19325E+02 2.22865E+01 0.00000E+00
 -1      1085 1.22325E+02 2.22865E+01 0.00000E+00
 -1      1086 1.25325E+02 2.22865E+01 0.00000E+00
 -1      1087 2.14346E+01 2.34229E+01 0.00000E+00
 -1      1088 7.40863E+01 2.63798E+01 0.00000E+00
 -1      1089 1.10325E+02 2.22865E+01 0.00000E+00
 -1      1090 8.04502E+01 2.19069E+01 0.00000E+00
 -1      1091 3.75134E+01 2.63588E+01 0.00000E+00
 -1      1092 2.86500E+01 2.66180E+01 0.00000E+00
 -1      1093 1.01438E+02 2.22865E+01 0.00000E+00
 -1      1094 1.07363E+02 2.22865E+01 0.00000E+00
 -1      1095 2.29018E+01 2.63623E+01 0.00000E+00
 -1      1096 8.64751E+01 2.22865E+01 0.00000E+00
 -1      1097 9.24750E+01 2.22865E+01 0.00000E+00
 -1      1098 1.26637E+02 2.67543E+01 0.00000E+00
 -1      1099 2.94103E+01 2.08955E+01 0.00000E+00
 -1      1100 2.54635E+01 2.33707E+01 0.00000E+00
 -1      1101 3.27211E+01 2.34710E+01 0.00000E+00
 -1      1102 7.60904E+01 2.37157E+01 0.00000E+00
 -1      1103 2.57759E+01 2.64902E+01 0.00000E+00
 -1      1104 8.94750E+01 2.22865E+01 0.00000E+00
 -1      1105 8.11500E+01 2.40200E+01 0.00000E+00
 -1      1106 2.79488E+01 2.35047E+01 0.00000E+00
 -1      1107 7.85377E+01 2.40726E+01 0.00000E+00
 -1      1108 3.01500E+01 2.40200E+01 0.00000E+00
 -1      1109 0.00000E+00 4.85250E+01 0.00000E+00
 -1      1110 0.00000E+00 4.55750E+01 0.00000E+00
 -1      1111 0.00000E+00 4.26250E+01 0.00000E+00
 -1      1112 0.00000E+00 3.96750E+01 0.00000E+00
 -1      1113 0.00000E+00 3.67250E+01 0.00000E+00
 -1      1114 0.00000E+00 3.38000E+01 0.00000E+00
 -1      1115 0.00000E+00 3.08750E+01 0.00000E+00
 -1      1116 0.00000E+00 2.79250E+01 0.00000E+00
 -1      1117 0.00000E+00 2.49750E+01 0.00000E+00
 -1      1118 0.00000E+00 2.20250E+01 0.00000E+00
 -1      1119 0.00000E+00 1.90750E+01 0.00000E+00
 -1      1120 0.00000E+00 1.61500E+01 0.00000E+00
 -1      1121 0.00000E+00 1.32250E+01 0.00000E+00
 -1      1122 0.00000E+00 1.02750E+01 0.00000E+00
 -1      1123 0.00000E+00 7.32500E+00 0.00000E+00
 -1      1124 0.00000E+00 4.37500E+00 0.00000E+00
 -1      1125 0.00000E+00 1.45000E+00 0.00000E+00
 -1      1126 1.57500E+00 5.00000E+01 0.00000E+00
 -1      1127 4.65000E+00 5.00000E+01 0.00000E+00
 -1      1128 7.65000E+00 5.00000E+01 0.00000E+00
 -1      1129 1.06500E+01 5.00000E+01 0.00000E+00
 -1      1130 1.36500E+01 5.00000E+01 0.00000E+00
 -1      1131 1.66500E+01 5.00000E+01 0.00000E+00
 -1      1132 1.96500E+01 5.00000E+01 0.00000E+00
 -1      1133 2.26500E+01 5.00000E+01 0.00000E+00
 -1      1134 2.56500E+01 5.00000E+01 0.00000E+00
 -1      1135 2.86500E+01 5.00000E+01 0.00000E+00
 -1      1136 3.16500E+01 5.00000E+01 0.00000E+00
 -1      1137 3.46500E+01 5.00000E+01 0.00000E+00
 -1      1138 3.76500E+01 5.00000E+01 0.00000E+00
 -1      1139 4.06500E+01 5.00000E+01 0.00000E+00
 -1      1140 4.36500E+01 5.00000E+01 0.00000E+00
 -1      1141 4.66500E+01 5.00000E+01 0.00000E+00
 -1      1142 4.96500E+01 5.00000E+01 0.00000E+00
 -1      1143 5.26500E+01 5.00000E+01 0.00000E+00
 -1      1144 5.56500E+01 5.00000E+01 0.00000E+00
 -1      1145 5.86500E+01 5.00000E+01 0.00000E+00
 -1      1146 6.16500E+01 5.00000E+01 0.00000E+00
 -1      1147 6.46500E+01 5.00000E+01 0.00000E+00
 -1      1148 6.76500E+01 5.00000E+01 0.00000E+00
 -1      1149 7.06500E+01 5.00000E+01 0.00000E+00
 -1      1150 7.36500E+01 5.00000E+01 0.00000E+00
 -1      1151 7.66500E+01 5.00000E+01 0.00000E+00
 -1      1152 7.96500E+01 5.00000E+01 0.00000E+00
 -1      1153 8.26500E+01 5.00000E+01 0.00000E+00
 -1      1154 8.56500E+01 5.00000E+01 0.00000E+00
 -1      1155 8.86500E+01 5.00000E+01 0.00000E+00
 -1      1156 9.16500E+01 5.00000E+01 0.00000E+00
 -1      1157 9.46500E+01 5.00000E+01 0.00000E+00
 -1      1158 9.76500E+01 5.00000E+01 0.00000E+00
 -1      1159 1.00650E+02 5.00000E+01 0.00000E+00
 -1      1160 1.03650E+02 5.00000E+01 0.00000E+00
 -1      1161 1.06650E+02 5.00000E+01 0.00000E+00
 -1      1162 1.09650E+02 5.00000E+01 0.00000E+00
 -1      1163 1.12650E+02 5.00000E+01 0.00000E+00
 -1      1164 1.15650E+02 5.00000E+01 0.00000E+00
 -1      1165 1.18650E+02 5.00000E+01 0.00000E+00
 -1      1166 1.21650E+02 5.00000E+01 0.00000E+00
 -1      1167 1.24650E+02 5.00000E+01 0.00000E+00
 -1      1168 1.27650E+02 5.00000E+01 0.00000E+00
 -1      1169 1.30650E+02 5.00000E+01 0.00000E+00
 -1      1170 1.33650E+02 5.00000E+01 0.00000E+00
 -1      1171 1.36650E+02 5.00000E+01 0.00000E+00
 -1      1172 1.39650E+02 5.00000E+01 0.00000E+00
 -1      1173 1.42650E+02 5.00000E+01 0.00000E+00
 -1      1174 1.45650E+02 5.00000E+01 0.00000E+00
 -1      1175 1.48575E+02 5.00000E+01 0.00000E+00
 -1      1176 1.50000E+00 0.00000E+00 0.00000E+00
 -1      1177 4.50000E+00 0.00000E+00 0.00000E+00
 -1      1178 7.50000E+00 0.00000E+00 0.00000E+00
 -1      1179 1.05000E+01 0.00000E+00 0.00000E+00
 -1      1180 1.35000E+01 0.00000E+00 0.00000E+00
 -1      1181 1.65000E+01 0.00000E+00 0.00000E+00
 -1      1182 1.95000E+01 0.00000E+00 0.00000E+00
 -1      1183 2.25000E+01 0.00000E+00 0.00000E+00
 -1      1184 2.55000E+01 0.00000E+00 0.00000E+00
 -1      1185 2.85000E+01 0.00000E+00 0.00000E+00
 -1      1186 3.15000E+01 0.00000E+00 0.00000E+00
 -1      1187 3.44250E+01 0.00000E+00 0.00000E+00
 -1      1188 3.73500E+01 0.00000E+00 0.00000E+00
 -1      1189 4.03500E+01 0.00000E+00 0.00000E+00
 -1      1190 4.33500E+01 0.00000E+00 0.00000E+00
 -1      1191 4.62750E+01 0.00000E+00 0.00000E+00
 -1      1192 4.89000E+01 0.00000E+00 0.00000E+00
 -1      1193 5.13750E+01 0.00000E+00 0.00000E+00
 -1      1194 5.38500E+01 0.00000E+00 0.00000E+00
 -1      1195 5.60250E+01 0.00000E+00 0.00000E+00
 -1      1196 5.80500E+01 0.00000E+00 0.00000E+00
 -1      1197 6.02250E+01 0.00000E+00 0.00000E+00
 -1      1198 6.25500E+01 0.00000E+00 0.00000E+00
 -1      1199 6.51000E+01 0.00000E+00 0.00000E+00
 -1      1200 6.79500E+01 0.00000E+00 0.00000E+00
 -1      1201 7.09500E+01 0.00000E+00 0.00000E+00
 -1      1202 7.39500E+01 0.00000E+00 0.00000E+00
 -1      1203 7.69500E+01 0.00000E+00 0.00000E+00
 -1      1204 7.99500E+01 0.00000E+00 0.00000E+00
 -1      1205 8.28750E+01 0.00000E+00 0.00000E+00
 -1      1206 8.58000E+01 0.00000E+00 0.00000E+00
 -1      1207 8.88000E+01 0.00000E+00 0.00000E+00
 -1      1208 9.18000E+01 0.00000E+00 0.00000E+00
 -1      1209 9.48000E+01 0.00000E+00 0.00000E+00
 -1      1210 9.78000E+01 0.00000E+00 0.00000E+00
 -1      1211 1.00800E+02 0.00000E+00 0.00000E+00
 -1      1212 1.03800E+02 0.00000E+00 0.00000E+00
 -1      1213 1.06800E+02 0.00000E+00 0.00000E+00
 -1      1214 1.09800E+02 0.00000E+00 0.00000E+00
 -1      1215 1.12800E+02 0.00000E+00 0.00000E+00
 -1      1216 1.15725E+02 0.00000E+00 0.00000E+00
 -1      1217 1.18650E+02 0.00000E+00 0.00000E+00
 -1      1218 1.21650E+02 0.00000E+00 0.00000E+00
 -1      1219 1.24650E+02 0.00000E+00 0.00000E+00
 -1      1220 1.27650E+02 0.00000E+00 0.00000E+00
 -1      1221 1.30650E+02 0.00000E+00 0.00000E+00
 -1      1222 1.33650E+02 0.00000E+00 0.00000E+00
 -1      1223 1.36650E+02 0.00000E+00 0.00000E+00
 -1      1224 1.39650E+02 0.00000E+00 0.00000E+00
 -1      1225 1.42650E+02 0.00000E+00 0.00000E+00
 -1      1226 1.45650E+02 0.00000E+00 0.00000E+00
 -1      1227 1.48575E+02 0.00000E+00 0.00000E+00
 -1      1228 1.50000E+02 1.47500E+00 0.00000E+00
 -1      1229 1.50000E+02 4.42500E+00 0.00000E+00
 -1      1230 1.50000E+02 7.37500E+00 0.00000E+00
 -1      1231 1.50000E+02 1.03250E+01 0.00000E+00
 -1      1232 1.50000E+02 1.32750E+01 0.00000E+00
 -1      1233 1.50000E+02 1.62000E+01 0.00000E+00
 -1      1234 1.50000E+02 1.91250E+01 0.00000E+00
 -1      1235 1.50000E+02 2.20750E+01 0.00000E+00
 -1      1236 1.50000E+02 2.50250E+01 0.00000E+00
 -1      1237 1.50000E+02 2.79750E+01 0.00000E+00
 -1      1238 1.50000E+02 3.09250E+01 0.00000E+00
 -1      1239 1.50000E+02 3.38500E+01 0.00000E+00
 -1      1240 1.50000E+02 3.67750E+01 0.00000E+00
 -1      1241 1.50000E+02 3.97250E+01 0.00000E+00
 -1      1242 1.50000E+02 4.26750E+01 0.00000E+00
 -1      1243 1.50000E+02 4.56250E+01 0.00000E+00
 -1      1244 1.50000E+02 4.85500E+01 0.00000E+00
 -1      1245 6.17496E+01 1.05341E+01 0.00000E+00
 -1      1246 6.14267E+01 9.04554E+00 0.00000E+00
 -1      1247 6.07708E+01 7.63104E+00 0.00000E+00
 -1      1248 5.98831E+01 6.46501E+00 0.00000E+00
 -1      1249 5.87869E+01 5.51961E+00 0.00000E+00
 -1      1250 5.75116E+01 4.81651E+00 0.00000E+00
 -1      1251 5.61432E+01 4.39733E+00 0.00000E+00
 -1      1252 5.46882E+01 4.26558E+00 0.00000E+00
 -1      1253 5.31651E+01 4.45555E+00 0.00000E+00
 -1      1254 5.17237E+01 4.97113E+00 0.00000E+00
 -1      1255 5.04919E+01 5.73817E+00 0.00000E+00
 -1      1256 4.94426E+01 6.74506E+00 0.00000E+00
 -1      1257 4.86059E+01 7.98104E+00 0.00000E+00
 -1      1258 4.80485E+01 9.37251E+00 0.00000E+00
 -1      1259 4.78027E+01 1.08092E+01 0.00000E+00
 -1      1260 4.78563E+01 1.22412E+01 0.00000E+00
 -1      1261 4.81970E+01 1.36229E+01 0.00000E+00
 -1      1262 4.88199E+01 1.49233E+01 0.00000E+00
 -1      1263 4.97152E+01 1.60886E+01 0.00000E+00
 -1      1264 5.08620E+01 1.70604E+01 0.00000E+00
 -1      1265 5.22058E+01 1.77713E+01 0.00000E+00
 -1      1266 5.36292E+01 1.81683E+01 0.00000E+00
 -1      1267 5.51108E+01 1.82574E+01 0.00000E+00
 -1      1268 5.65501E+01 1.80394E+01 0.00000E+00
 -1      1269 5.78820E+01 1.75439E+01 0.00000E+00
 -1      1270 5.90748E+01 1.67986E+01 0.00000E+00
 -1      1271 6.01017E+01 1.58215E+01 0.00000E+00
 -1      1272 6.09149E+01 1.46501E+01 0.00000E+00
 -1      1273 6.14594E+01 1.33841E+01 0.00000E+00
 -1      1274 6.17495E+01 1.19970E+01 0.00000E+00
 -1      1275 1.57500E+00 4.85250E+01 0.00000E+00
 -1      1276 1.29900E+00 4.48375E+01 0.00000E+00
 -1      1277 1.29900E+00 4.63125E+01 0.00000E+00
 -1      1278 1.29900E+00 4.18875E+01 0.00000E+00
 -1      1279 1.29900E+00 4.33625E+01 0.00000E+00
 -1      1280 2.59800E+00 4.41000E+01 0.00000E+00
 -1      1281 1.29900E+00 3.89375E+01 0.00000E+00
 -1      1282 1.29900E+00 4.04125E+01 0.00000E+00
 -1      1283 2.59800E+00 4.11500E+01 0.00000E+00
 -1      1284 1.29900E+00 3.59875E+01 0.00000E+00
 -1      1285 1.29900E+00 3.74625E+01 0.00000E+00
 -1      1286 2.59800E+00 3.82000E+01 0.00000E+00
 -1      1287 1.29900E+00 3.30875E+01 0.00000E+00
 -1      1288 1.29900E+00 3.45375E+01 0.00000E+00
 -1      1289 2.59800E+00 3.52750E+01 0.00000E+00
 -1      1290 1.29900E+00 3.01375E+01 0.00000E+00
 -1      1291 1.29900E+00 3.16125E+01 0.00000E+00
 -1      1292 2.59800E+00 3.23500E+01 0.00000E+00
 -1      1293 1.29900E+00 2.71875E+01 0.00000E+00
 -1      1294 1.29900E+00 2.86625E+01 0.00000E+00
 -1      1295 2.59800E+00 2.94000E+01 0.00000E+00
 -1      1296 1.29900E+00 2.42375E+01 0.00000E+00
 -1      1297 1.29900E+00 2.57125E+01 0.00000E+00
 -1      1298 2.59800E+00 2.64500E+01 0.00000E+00
 -1      1299 1.29900E+00 2.12875E+01 0.00000E+00
 -1      1300 1.29900E+00 2.27625E+01 0.00000E+00
 -1      1301 2.59800E+00 2.35000E+01 0.00000E+00
 -1      1302 1.29900E+00 1.83375E+01 0.00000E+00
 -1      1303 1.29900E+00 1.98125E+01 0.00000E+00
 -1      1304 2.59800E+00 2.05500E+01 0.00000E+00
 -1      1305 1.29900E+00 1.54375E+01 0.00000E+00
 -1      1306 1.29900E+00 1.68875E+01 0.00000E+00
 -1      1307 2.59800E+00 1.76250E+01 0.00000E+00
 -1      1308 1.29900E+00 1.24875E+01 0.00000E+00
 -1      1309 1.29900E+00 1.39625E+01 0.00000E+00
 -1      1310 2.59800E+00 1.47000E+01 0.00000E+00
 -1      1311 1.29900E+00 9.53750E+00 0.00000E+00
 -1      1312 1.29900E+00 1.10125E+01 0.00000E+00
 -1      1313 2.59800E+00 1.17500E+01 0.00000E+00
 -1      1314 1.29900E+00 6.58750E+00 0.00000E+00
 -1      1315 1.29900E+00 8.06250E+00 0.00000E+00
 -1      1316 2.59800E+00 8.80000E+00 0.00000E+00
 -1      1317 1.29900E+00 3.63750E+00 0.00000E+00
 -1      1318 1.29900E+00 5.11250E+00 0.00000E+00
 -1      1319 2.59800E+00 5.85000E+00 0.00000E+00
 -1      1320 1.50000E+00 1.45000E+00 0.00000E+00
 -1      1321 3.90000E+00 4.87010E+01 0.00000E+00
 -1      1322 5.40000E+00 4.87010E+01 0.00000E+00
 -1      1323 6.90000E+00 4.87010E+01 0.00000E+00
 -1      1324 8.40000E+00 4.87010E+01 0.00000E+00
 -1      1325 6.15000E+00 4.74020E+01 0.00000E+00
 -1      1326 9.90000E+00 4.87010E+01 0.00000E+00
 -1      1327 1.14000E+01 4.87010E+01 0.00000E+00
 -1      1328 9.15000E+00 4.74020E+01 0.00000E+00
 -1      1329 1.29000E+01 4.87010E+01 0.00000E+00
 -1      1330 1.44000E+01 4.87010E+01 0.00000E+00
 -1      1331 1.21500E+01 4.74020E+01 0.00000E+00
 -1      1332 1.59000E+01 4.87010E+01 0.00000E+00
 -1      1333 1.74000E+01 4.87010E+01 0.00000E+00
 -1      1334 1.51500E+01 4.74020E+01 0.00000E+00
 -1      1335 1.89000E+01 4.87010E+01 0.00000E+00
 -1      1336 2.04000E+01 4.87010E+01 0.00000E+00
 -1      1337 1.81500E+01 4.74020E+01 0.00000E+00
 -1      1338 2.19000E+01 4.87010E+01 0.00000E+00
 -1      1339 2.34000E+01 4.87010E+01 0.00000E+00
 -1      1340 2.11500E+01 4.74020E+01 0.00000E+00
 -1      1341 2.49000E+01 4.87010E+01 0.00000E+00
 -1      1342 2.64000E+01 4.87010E+01 0.00000E+00
 -1      1343 2.41500E+01 4.74020E+01 0.00000E+00
 -1      1344 2.79000E+01 4.87010E+01 0.00000E+00
 -1      1345 2.94000E+01 4.87010E+01 0.00000E+00
 -1      1346 2.71500E+01 4.74020E+01 0.00000E+00
 -1      1347 3.09000E+01 4.87010E+01 0.00000E+00
 -1      1348 3.24000E+01 4.87010E+01 0.00000E+00
 -1      1349 3.01500E+01 4.74020E+01 0.00000E+00
 -1      1350 3.39000E+01 4.87010E+01 0.00000E+00
 -1      1351 3.54000E+01 4.87010E+01 0.00000E+00
 -1      1352 3.31500E+01 4.74020E+01 0.00000E+00
 -1      1353 3.69000E+01 4.87010E+01 0.00000E+00
 -1      1354 3.84000E+01 4.87010E+01 0.00000E+00
 -1      1355 3.61500E+01 4.74020E+01 0.00000E+00
 -1      1356 3.99000E+01 4.87010E+01 0.00000E+00
 -1      1357 4.14000E+01 4.87010E+01 0.00000E+00
 -1      1358 3.91500E+01 4.74020E+01 0.00000E+00
 -1      1359 4.29000E+01 4.87010E+01 0.00000E+00
 -1      1360 4.44000E+01 4.87010E+01 0.00000E+00
 -1      1361 4.21500E+01 4.74020E+01 0.00000E+00
 -1      1362 4.59000E+01 4.87010E+01 0.00000E+00
 -1      1363 4.74000E+01 4.87010E+01 0.00000E+00
 -1      1364 4.51500E+01 4.74020E+01 0.00000E+00
 -1      1365 4.89000E+01 4.87010E+01 0.00000E+00
 -1      1366 5.04000E+01 4.87010E+01 0.00000E+00
 -1      1367 4.81500E+01 4.74020E+01 0.00000E+00
 -1      1368 5.19000E+01 4.87010E+01 0.00000E+00
 -1      1369 5.34000E+01 4.87010E+01 0.00000E+00
 -1      1370 5.11500E+01 4.74020E+01 0.00000E+00
 -1      1371 5.49000E+01 4.87010E+01 0.00000E+00
 -1      1372 5.64000E+01 4.87010E+01 0.00000E+00
 -1      1373 5.41500E+01 4.74020E+01 0.00000E+00
 -1      1374 5.79000E+01 4.87010E+01 0.00000E+00
 -1      1375 5.94000E+01 4.87010E+01 0.00000E+00
 -1      1376 5.71500E+01 4.74020E+01 0.00000E+00
 -1      1377 6.09000E+01 4.87010E+01 0.00000E+00
 -1      1378 6.24000E+01 4.87010E+01 0.00000E+00
 -1      1379 6.01500E+01 4.74020E+01 0.00000E+00
 -1      1380 6.39000E+01 4.87010E+01 0.00000E+00
 -1      1381 6.54000E+01 4.87010E+01 0.00000E+00
 -1      1382 6.31500E+01 4.74020E+01 0.00000E+00
 -1      1383 6.69000E+01 4.87010E+01 0.00000E+00
 -1      1384 6.84000E+01 4.87010E+01 0.00000E+00
 -1      1385 6.61500E+01 4.74020E+01 0.00000E+00
 -1      1386 6.99000E+01 4.87010E+01 0.00000E+00
 -1      1387 7.14000E+01 4.87010E+01 0.00000E+00
 -1      1388 6.91500E+01 4.74020E+01 0.00000E+00
 -1      1389 7.29000E+01 4.87010E+01 0.00000E+00
 -1      1390 7.44000E+01 4.87010E+01 0.00000E+00
 -1      1391 7.21500E+01 4.74020E+01 0.00000E+00
 -1      1392 7.59000E+01 4.87010E+01 0.00000E+00
 -1      1393 7.74000E+01 4.87010E+01 0.00000E+00
 -1      1394 7.51500E+01 4.74020E+01 0.00000E+00
 -1      1395 7.89000E+01 4.87010E+01 0.00000E+00
 -1      1396 8.04000E+01 4.87010E+01 0.00000E+00
 -1      1397 7.81500E+01 4.74020E+01 0.00000E+00
 -1      1398 8.19000E+01 4.87010E+01 0.00000E+00
 -1      1399 8.34000E+01 4.87010E+01 0.00000E+00
 -1      1400 8.11500E+01 4.74020E+01 0.00000E+00
 -1      1401 8.49000E+01 4.87010E+01 0.00000E+00
 -1      1402 8.64000E+01 4.87010E+01 0.00000E+00
 -1      1403 8.41500E+01 4.74020E+01 0.00000E+00
 -1      1404 8.79000E+01 4.87010E+01 0.00000E+00
 -1      1405 8.94000E+01 4.87010E+01 0.00000E+00
 -1      1406 8.71500E+01 4.74020E+01 0.00000E+00
 -1      1407 9.09000E+01 4.87010E+01 0.00000E+00
 -1      1408 9.24000E+01 4.87010E+01 0.00000E+00
 -1      1409 9.01500E+01 4.74020E+01 0.00000E+00
 -1      1410 9.39000E+01 4.87010E+01 0.00000E+00
 -1      1411 9.54000E+01 4.87010E+01 0.00000E+00
 -1      1412 9.31500E+01 4.74020E+01 0.00000E+00
 -1      1413 9.69000E+01 4.87010E+01 0.00000E+00
 -1      1414 9.84000E+01 4.87010E+01 0.00000E+00
 -1      1415 9.61500E+01 4.74020E+01 0.00000E+00
 -1      1416 9.99000E+01 4.87010E+01 0.00000E+00
 -1      1417 1.01400E+02 4.87010E+01 0.00000E+00
 -1      1418 9.91500E+01 4.74020E+01 0.00000E+00
 -1      1419 1.02900E+02 4.87010E+01 0.00000E+00
 -1      1420 1.04400E+02 4.87010E+01 0.00000E+00
 -1      1421 1.02150E+02 4.74020E+01 0.00000E+00
 -1      1422 1.05900E+02 4.87010E+01 0.00000E+00
 -1      1423 1.07400E+02 4.87010E+01 0.00000E+00
 -1      1424 1.05150E+02 4.74020E+01 0.00000E+00
 -1      1425 1.08900E+02 4.87010E+01 0.00000E+00
 -1      1426 1.10400E+02 4.87010E+01 0.00000E+00
 -1      1427 1.08150E+02 4.74020E+01 0.00000E+00
 -1      1428 1.11900E+02 4.87010E+01 0.00000E+00
 -1      1429 1.13400E+02 4.87010E+01 0.00000E+00
 -1      1430 1.11150E+02 4.74020E+01 0.00000E+00
 -1      1431 1.14900E+02 4.87010E+01 0.00000E+00
 -1      1432 1.16400E+02 4.87010E+01 0.00000E+00
 -1      1433 1.14150E+02 4.74020E+01 0.00000E+00
 -1      1434 1.17900E+02 4.87010E+01 0.00000E+00
 -1      1435 1.19400E+02 4.87010E+01 0.00000E+00
 -1      1436 1.17150E+02 4.74020E+01 0.00000E+00
 -1      1437 1.20900E+02 4.87010E+01 0.00000E+00
 -1      1438 1.22400E+02 4.87010E+01 0.00000E+00
 -1      1439 1.20150E+02 4.74020E+01 0.00000E+00
 -1      1440 1.23900E+02 4.87010E+01 0.00000E+00
 -1      1441 1.25400E+02 4.87010E+01 0.00000E+00
 -1      1442 1.23150E+02 4.74020E+01 0.00000E+00
 -1      1443 1.26900E+02 4.87010E+01 0.00000E+00
 -1      1444 1.28400E+02 4.87010E+01 0.00000E+00
 -1      1445 1.26150E+02 4.74020E+01 0.00000E+00
 -1      1446 1.29900E+02 4.87010E+01 0.00000E+00
 -1      1447 1.31400E+02 4.87010E+01 0.00000E+00
 -1      1448 1.29150E+02 4.74020E+01 0.00000E+00
 -1      1449 1.32900E+02 4.87010E+01 0.00000E+00
 -1      1450 1.34400E+02 4.87010E+01 0.00000E+00
 -1      1451 1.32150E+02 4.74020E+01 0.00000E+00
 -1      1452 1.35900E+02 4.87010E+01 0.00000E+00
 -1      1453 1.37400E+02 4.87010E+01 0.00000E+00
 -1      1454 1.35150E+02 4.74020E+01 0.00000E+00
 -1      1455 1.38900E+02 4.87010E+01 0.00000E+00
 -1      1456 1.40400E+02 4.87010E+01 0.00000E+00
 -1      1457 1.38150E+02 4.74020E+01 0.00000E+00
 -1      1458 1.41900E+02 4.87010E+01 0.00000E+00
 -1      1459 1.43400E+02 4.87010E+01 0.00000E+00
 -1      1460 1.41150E+02 4.74020E+01 0.00000E+00
 -1      1461 1.44900E+02 4.87010E+01 0.00000E+00
 -1      1462 1.46400E+02 4.87010E+01 0.00000E+00
 -1      1463 1.44150E+02 4.74020E+01 0.00000E+00
 -1      1464 1.48575E+02 4.85500E+01 0.00000E+00
 -1      1465 1.47825E+02 4.72510E+01 0.00000E+00
 -1      1466 5.25000E+00 1.29900E+00 0.00000E+00
 -1      1467 3.75000E+00 1.29900E+00 0.00000E+00
 -1      1468 8.25000E+00 1.29900E+00 0.00000E+00
 -1      1469 6.75000E+00 1.29900E+00 0.00000E+00
 -1      1470 6.00000E+00 2.59800E+00 0.00000E+00
 -1      1471 1.12500E+01 1.29900E+00 0.00000E+00
 -1      1472 9.75000E+00 1.29900E+00 0.00000E+00
 -1      1473 9.00000E+00 2.59800E+00 0.00000E+00
 -1      1474 1.42500E+01 1.29900E+00 0.00000E+00
 -1      1475 1.27500E+01 1.29900E+00 0.00000E+00
 -1      1476 1.20000E+01 2.59800E+00 0.00000E+00
 -1      1477 1.72500E+01 1.29900E+00 0.00000E+00
 -1      1478 1.57500E+01 1.29900E+00 0.00000E+00
 -1      1479 1.50000E+01 2.59800E+00 0.00000E+00
 -1      1480 2.02500E+01 1.29900E+00 0.00000E+00
 -1      1481 1.87500E+01 1.29900E+00 0.00000E+00
 -1      1482 1.80000E+01 2.59800E+00 0.00000E+00
 -1      1483 2.32500E+01 1.29900E+00 0.00000E+00
 -1      1484 2.17500E+01 1.29900E+00 0.00000E+00
 -1      1485 2.10000E+01 2.59800E+00 0.00000E+00
 -1      1486 2.62500E+01 1.29900E+00 0.00000E+00
 -1      1487 2.47500E+01 1.29900E+00 0.00000E+00
 -1      1488 2.40000E+01 2.59800E+00 0.00000E+00
 -1      1489 2.92500E+01 1.29900E+00 0.00000E+00
 -1      1490 2.77500E+01 1.29900E+00 0.00000E+00
 -1      1491 2.70000E+01 2.59800E+00 0.00000E+00
 -1      1492 3.22500E+01 1.29900E+00 0.00000E+00
 -1      1493 3.07500E+01 1.29900E+00 0.00000E+00
 -1      1494 3.00000E+01 2.59800E+00 0.00000E+00
 -1      1495 3.51000E+01 1.29900E+00 0.00000E+00
 -1      1496 3.36750E+01 1.29900E+00 0.00000E+00
 -1      1497 3.29250E+01 2.59800E+00 0.00000E+00
 -1      1498 3.81000E+01 1.29900E+00 0.00000E+00
 -1      1499 3.66000E+01 1.29900E+00 0.00000E+00
 -1      1500 3.58500E+01 2.59800E+00 0.00000E+00
 -1      1501 4.11000E+01 1.29900E+00 0.00000E+00
 -1      1502 3.96000E+01 1.29900E+00 0.00000E+00
 -1      1503 3.88500E+01 2.59800E+00 0.00000E+00
 -1      1504 4.41000E+01 1.29900E+00 0.00000E+00
 -1      1505 4.26000E+01 1.29900E+00 0.00000E+00
 -1      1506 4.18500E+01 2.59800E+00 0.00000E+00
 -1      1507 4.69500E+01 1.29900E+00 0.00000E+00
 -1      1508 4.55250E+01 1.29900E+00 0.00000E+00
 -1      1509 4.47750E+01 2.59800E+00 0.00000E+00
 -1      1510 4.93500E+01 1.29900E+00 0.00000E+00
 -1      1511 4.81500E+01 1.29900E+00 0.00000E+00
 -1      1512 4.74000E+01 2.59800E+00 0.00000E+00
 -1      1513 5.44500E+01 1.02513E+00 0.00000E+00
 -1      1514 5.32500E+01 1.02513E+00 0.00000E+00
 -1      1515 5.64000E+01 1.02513E+00 0.00000E+00
 -1      1516 5.54250E+01 1.02513E+00 0.00000E+00
 -1      1517 5.48250E+01 2.05025E+00 0.00000E+00
 -1      1518 5.85000E+01 1.02513E+00 0.00000E+00
 -1      1519 5.74500E+01 1.02513E+00 0.00000E+00
 -1      1520 5.68500E+01 2.05025E+00 0.00000E+00
 -1      1521 6.07500E+01 1.02513E+00 0.00000E+00
 -1      1522 5.96250E+01 1.02513E+00 0.00000E+00
 -1      1523 5.90250E+01 2.05025E+00 0.00000E+00
 -1      1524 6.31500E+01 1.02513E+00 0.00000E+00
 -1      1525 6.19500E+01 1.02513E+00 0.00000E+00
 -1      1526 6.13500E+01 2.05025E+00 0.00000E+00
 -1      1527 6.58500E+01 1.02513E+00 0.00000E+00
 -1      1528 6.45000E+01 1.02513E+00 0.00000E+00
 -1      1529 6.39000E+01 2.05025E+00 0.00000E+00
 -1      1530 6.88500E+01 1.02513E+00 0.00000E+00
 -1      1531 6.73500E+01 1.02513E+00 0.00000E+00
 -1      1532 6.67500E+01 2.05025E+00 0.00000E+00
 -1      1533 7.18500E+01 1.02513E+00 0.00000E+00
 -1      1534 7.03500E+01 1.02513E+00 0.00000E+00
 -1      1535 6.97500E+01 2.05025E+00 0.00000E+00
 -1      1536 7.48500E+01 1.02513E+00 0.00000E+00
 -1      1537 7.33500E+01 1.02513E+00 0.00000E+00
 -1      1538 7.27500E+01 2.05025E+00 0.00000E+00
 -1      1539 7.78500E+01 1.02513E+00 0.00000E+00
 -1      1540 7.63500E+01 1.02513E+00 0.00000E+00
 -1      1541 7.57500E+01 2.05025E+00 0.00000E+00
 -1      1542 8.08500E+01 1.02513E+00 0.00000E+00
 -1      1543 7.93500E+01 1.02513E+00 0.00000E+00
 -1      1544 7.87500E+01 2.05025E+00 0.00000E+00
 -1      1545 8.37000E+01 1.02513E+00 0.00000E+00
 -1      1546 8.22750E+01 1.02513E+00 0.00000E+00
 -1      1547 8.16750E+01 2.05025E+00 0.00000E+00
 -1      1548 8.67000E+01 1.02513E+00 0.00000E+00
 -1      1549 8.52000E+01 1.02513E+00 0.00000E+00
 -1      1550 8.46000E+01 2.05025E+00 0.00000E+00
 -1      1551 8.97000E+01 1.02513E+00 0.00000E+00
 -1      1552 8.82000E+01 1.02513E+00 0.00000E+00
 -1      1553 8.76000E+01 2.05025E+00 0.00000E+00
 -1      1554 9.27000E+01 1.02513E+00 0.00000E+00
 -1      1555 9.12000E+01 1.02513E+00 0.00000E+00
 -1      1556 9.06000E+01 2.05025E+00 0.00000E+00
 -1      1557 9.57000E+01 1.02513E+00 0.00000E+00
 -1      1558 9.42000E+01 1.02513E+00 0.00000E+00
 -1      1559 9.36000E+01 2.05025E+00 0.00000E+00
 -1      1560 9.87000E+01 1.02513E+00 0.00000E+00
 -1      1561 9.72000E+01 1.02513E+00 0.00000E+00
 -1      1562 9.66000E+01 2.05025E+00 0.00000E+00
 -1      1563 1.01700E+02 1.02513E+00 0.00000E+00
 -1      1564 1.00200E+02 1.02513E+00 0.00000E+00
 -1      1565 9.96000E+01 2.05025E+00 0.00000E+00
 -1      1566 1.04700E+02 1.02513E+00 0.00000E+00
 -1      1567 1.03200E+02 1.02513E+00 0.00000E+00
 -1      1568 1.02600E+02 2.05025E+00 0.00000E+00
 -1      1569 1.07700E+02 1.02513E+00 0.00000E+00
 -1      1570 1.06200E+02 1.02513E+00 0.00000E+00
 -1      1571 1.05600E+02 2.05025E+00 0.00000E+00
 -1      1572 1.10700E+02 1.02513E+00 0.00000E+00
 -1      1573 1.09200E+02 1.02513E+00 0.00000E+00
 -1      1574 1.08600E+02 2.05025E+00 0.00000E+00
 -1      1575 1.13700E+02 1.02513E+00 0.00000E+00
 -1      1576 1.12200E+02 1.02513E+00 0.00000E+00
 -1      1577 1.11600E+02 2.05025E+00 0.00000E+00
 -1      1578 1.16550E+02 1.02513E+00 0.00000E+00
 -1      1579 1.15125E+02 1.02513E+00 0.00000E+00
 -1      1580 1.14525E+02 2.05025E+00 0.00000E+00
 -1      1581 1.19550E+02 1.02513E+00 0.00000E+00
 -1      1582 1.18050E+02 1.02513E+00 0.00000E+00
 -1      1583 1.17450E+02 2.05025E+00 0.00000E+00
 -1      1584 1.22550E+02 1.02513E+00 0.00000E+00
 -1      1585 1.21050E+02 1.02513E+00 0.00000E+00
 -1      1586 1.20450E+02 2.05025E+00 0.00000E+00
 -1      1587 1.25550E+02 1.02513E+00 0.00000E+00
 -1      1588 1.24050E+02 1.02513E+00 0.00000E+00
 -1      1589 1.23450E+02 2.05025E+00 0.00000E+00
 -1      1590 1.28550E+02 1.02513E+00 0.00000E+00
 -1      1591 1.27050E+02 1.02513E+00 0.00000E+00
 -1      1592 1.26450E+02 2.05025E+00 0.00000E+00
 -1      1593 1.31550E+02 1.02513E+00 0.00000E+00
 -1      1594 1.30050E+02 1.02513E+00 0.00000E+00
 -1      1595 1.29450E+02 2.05025E+00 0.00000E+00
 -1      1596 1.34550E+02 1.02513E+00 0.00000E+00
 -1      1597 1.33050E+02 1.02513E+00 0.00000E+00
 -1      1598 1.32450E+02 2.05025E+00 0.00000E+00
 -1      1599 1.37550E+02 1.02513E+00 0.00000E+00
 -1      1600 1.36050E+02 1.02513E+00 0.00000E+00
 -1      1601 1.35450E+02 2.05025E+00 0.00000E+00
 -1      1602 1.40550E+02 1.02513E+00 0.00000E+00
 -1      1603 1.39050E+02 1.02513E+00 0.00000E+00
 -1      1604 1.38450E+02 2.05025E+00 0.00000E+00
 -1      1605 1.43550E+02 1.02513E+00 0.00000E+00
 -1      1606 1.42050E+02 1.02513E+00 0.00000E+00
 -1      1607 1.41450E+02 2.05025E+00 0.00000E+00
 -1      1608 1.46550E+02 1.02513E+00 0.00000E+00
 -1      1609 1.45050E+02 1.02513E+00 0.00000E+00
 -1      1610 1.44450E+02 2.05025E+00 0.00000E+00
 -1      1611 1.48988E+02 1.25006E+00 0.00000E+00
 -1      1612 1.47563E+02 1.25006E+00 0.00000E+00
 -1      1613 1.46962E+02 2.27519E+00 0.00000E+00
 -1      1614 1.48988E+02 2.72506E+00 0.00000E+00
 -1      1615 1.48988E+02 5.67506E+00 0.00000E+00
 -1      1616 1.48988E+02 4.20006E+00 0.00000E+00
 -1      1617 1.47975E+02 3.97513E+00 0.00000E+00
 -1      1618 1.48988E+02 8.62506E+00 0.00000E+00
 -1      1619 1.48988E+02 7.15006E+00 0.00000E+00
 -1      1620 1.47975E+02 6.92513E+00 0.00000E+00
 -1      1621 1.48988E+02 1.15751E+01 0.00000E+00
 -1      1622 1.48988E+02 1.01001E+01 0.00000E+00
 -1      1623 1.47975E+02 9.87513E+00 0.00000E+00
 -1      1624 1.48988E+02 1.45251E+01 0.00000E+00
 -1      1625 1.48988E+02 1.30501E+01 0.00000E+00
 -1      1626 1.47975E+02 1.28251E+01 0.00000E+00
 -1      1627 1.48988E+02 1.74251E+01 0.00000E+00
 -1      1628 1.48988E+02 1.59751E+01 0.00000E+00
 -1      1629 1.47975E+02 1.57501E+01 0.00000E+00
 -1      1630 1.48988E+02 2.03751E+01 0.00000E+00
 -1      1631 1.48988E+02 1.89001E+01 0.00000E+00
 -1      1632 1.47975E+02 1.86751E+01 0.00000E+00
 -1      1633 1.48988E+02 2.33251E+01 0.00000E+00
 -1      1634 1.48988E+02 2.18501E+01 0.00000E+00
 -1      1635 1.47975E+02 2.16251E+01 0.00000E+00
 -1      1636 1.48988E+02 2.62751E+01 0.00000E+00
 -1      1637 1.48988E+02 2.48001E+01 0.00000E+00
 -1      1638 1.47975E+02 2.45751E+01 0.00000E+00
 -1      1639 1.48988E+02 2.92251E+01 0.00000E+00
 -1      1640 1.48988E+02 2.77501E+01 0.00000E+00
 -1      1641 1.47975E+02 2.75251E+01 0.00000E+00
 -1      1642 1.48988E+02 3.21751E+01 0.00000E+00
 -1      1643 1.48988E+02 3.07001E+01 0.00000E+00
 -1      1644 1.47975E+02 3.04751E+01 0.00000E+00
 -1      1645 1.48988E+02 3.50751E+01 0.00000E+00
 -1      1646 1.48988E+02 3.36251E+01 0.00000E+00
 -1      1647 1.47975E+02 3.34001E+01 0.00000E+00
 -1      1648 1.48988E+02 3.80251E+01 0.00000E+00
 -1      1649 1.48988E+02 3.65501E+01 0.00000E+00
 -1      1650 1.47975E+02 3.63251E+01 0.00000E+00
 -1      1651 1.48988E+02 4.09751E+01 0.00000E+00
 -1      1652 1.48988E+02 3.95001E+01 0.00000E+00
 -1      1653 1.47975E+02 3.92751E+01 0.00000E+00
 -1      1654 1.48988E+02 4.39251E+01 0.00000E+00
 -1      1655 1.48988E+02 4.24501E+01 0.00000E+00
 -1      1656 1.47975E+02 4.22251E+01 0.00000E+00
 -1      1657 6.22763E+01 1.01114E+01 0.00000E+00
 -1      1658 6.23526E+01 1.08382E+01 0.00000E+00
 -1      1659 6.19923E+01 8.43877E+00 0.00000E+00
 -1      1660 6.22435E+01 9.19019E+00 0.00000E+00
 -1      1661 6.11254E+01 6.96700E+00 0.00000E+00
 -1      1662 6.15235E+01 7.62246E+00 0.00000E+00
 -1      1663 6.00594E+01 5.81906E+00 0.00000E+00
 -1      1664 6.05384E+01 6.32754E+00 0.00000E+00
 -1      1665 5.88507E+01 4.77234E+00 0.00000E+00
 -1      1666 5.94654E+01 5.20023E+00 0.00000E+00
 -1      1667 5.74078E+01 4.15348E+00 0.00000E+00
 -1      1668 5.80593E+01 4.42868E+00 0.00000E+00
 -1      1669 5.58982E+01 3.76934E+00 0.00000E+00
 -1      1670 5.66084E+01 3.90950E+00 0.00000E+00
 -1      1671 5.43110E+01 3.66170E+00 0.00000E+00
 -1      1672 5.50480E+01 3.65121E+00 0.00000E+00
 -1      1673 5.26180E+01 3.88046E+00 0.00000E+00
 -1      1674 5.33941E+01 3.69551E+00 0.00000E+00
 -1      1675 5.11457E+01 4.62112E+00 0.00000E+00
 -1      1676 5.18047E+01 4.30027E+00 0.00000E+00
 -1      1677 4.98333E+01 5.47602E+00 0.00000E+00
 -1      1678 5.04003E+01 5.03528E+00 0.00000E+00
 -1      1679 4.87078E+01 6.60561E+00 0.00000E+00
 -1      1680 4.91830E+01 6.04358E+00 0.00000E+00
 -1      1681 4.78183E+01 7.99100E+00 0.00000E+00
 -1      1682 4.81732E+01 7.32287E+00 0.00000E+00
 -1      1683 4.73622E+01 9.56537E+00 0.00000E+00
 -1      1684 4.75629E+01 8.85059E+00 0.00000E+00
 -1      1685 4.72111E+01 1.11289E+01 0.00000E+00
 -1      1686 4.72576E+01 1.04153E+01 0.00000E+00
 -1      1687 4.73011E+01 1.26818E+01 0.00000E+00
 -1      1688 4.72010E+01 1.19710E+01 0.00000E+00
 -1      1689 4.77391E+01 1.41613E+01 0.00000E+00
 -1      1690 4.75015E+01 1.34972E+01 0.00000E+00
 -1      1691 4.84930E+01 1.55557E+01 0.00000E+00
 -1      1692 4.81080E+01 1.49277E+01 0.00000E+00
 -1      1693 4.95260E+01 1.67743E+01 0.00000E+00
 -1      1694 4.90209E+01 1.62431E+01 0.00000E+00
 -1      1695 5.08177E+01 1.78124E+01 0.00000E+00
 -1      1696 5.01801E+01 1.73805E+01 0.00000E+00
 -1      1697 5.23457E+01 1.84356E+01 0.00000E+00
 -1      1698 5.16485E+01 1.81589E+01 0.00000E+00
 -1      1699 5.38939E+01 1.87890E+01 0.00000E+00
 -1      1700 5.31763E+01 1.86685E+01 0.00000E+00
 -1      1701 5.55187E+01 1.88882E+01 0.00000E+00
 -1      1702 5.47628E+01 1.89231E+01 0.00000E+00
 -1      1703 5.70322E+01 1.85042E+01 0.00000E+00
 -1      1704 5.63557E+01 1.86802E+01 0.00000E+00
 -1      1705 5.84757E+01 1.79322E+01 0.00000E+00
 -1      1706 5.78281E+01 1.82513E+01 0.00000E+00
 -1      1707 5.96961E+01 1.70417E+01 0.00000E+00
 -1      1708 5.91549E+01 1.74609E+01 0.00000E+00
 -1      1709 6.08030E+01 1.59402E+01 0.00000E+00
 -1      1710 6.03259E+01 1.64966E+01 0.00000E+00
 -1      1711 6.15830E+01 1.46233E+01 0.00000E+00
 -1      1712 6.12478E+01 1.52300E+01 0.00000E+00
 -1      1713 6.21088E+01 1.32310E+01 0.00000E+00
 -1      1714 6.19014E+01 1.38839E+01 0.00000E+00
 -1      1715 6.23941E+01 1.16967E+01 0.00000E+00
 -1      1716 6.23175E+01 1.24248E+01 0.00000E+00
 -1      1717 2.79900E+00 2.18750E+00 0.00000E+00
 -1      1718 5.06128E+01 1.16207E+00 0.00000E+00
 -1      1719 4.98628E+01 2.46107E+00 0.00000E+00
 -1      1720 5.18878E+01 1.16207E+00 0.00000E+00
 -1      1721 6.23830E+01 7.75285E+00 0.00000E+00
 -1      1722 6.29589E+01 1.12700E+01 0.00000E+00
 -1      1723 6.28845E+01 9.49032E+00 0.00000E+00
 -1      1724 1.48701E+02 4.63625E+01 0.00000E+00
 -1      1725 1.48701E+02 4.48875E+01 0.00000E+00
 -1      1726 1.47689E+02 4.46626E+01 0.00000E+00
 -1      1727 6.13272E+01 6.29709E+00 0.00000E+00
 -1      1728 6.01462E+01 5.03881E+00 0.00000E+00
 -1      1729 5.87608E+01 4.07632E+00 0.00000E+00
 -1      1730 5.71700E+01 3.48867E+00 0.00000E+00
 -1      1731 5.55205E+01 3.12656E+00 0.00000E+00
 -1      1732 5.37533E+01 3.04223E+00 0.00000E+00
 -1      1733 5.20231E+01 3.49585E+00 0.00000E+00
 -1      1734 5.04645E+01 4.32981E+00 0.00000E+00
 -1      1735 4.90688E+01 5.31152E+00 0.00000E+00
 -1      1736 4.78840E+01 6.59634E+00 0.00000E+00
 -1      1737 4.70940E+01 8.17319E+00 0.00000E+00
 -1      1738 4.67340E+01 9.88272E+00 0.00000E+00
 -1      1739 4.66194E+01 1.15747E+01 0.00000E+00
 -1      1740 4.68097E+01 1.32322E+01 0.00000E+00
 -1      1741 4.73790E+01 1.48140E+01 0.00000E+00
 -1      1742 4.82759E+01 1.62679E+01 0.00000E+00
 -1      1743 4.94579E+01 1.75615E+01 0.00000E+00
 -1      1744 5.09427E+01 1.85142E+01 0.00000E+00
 -1      1745 5.26041E+01 1.90937E+01 0.00000E+00
 -1      1746 5.43037E+01 1.94608E+01 0.00000E+00
 -1      1747 5.60096E+01 1.93869E+01 0.00000E+00
 -1      1748 5.76425E+01 1.89260E+01 0.00000E+00
 -1      1749 5.91176E+01 1.82018E+01 0.00000E+00
 -1      1750 6.04266E+01 1.71854E+01 0.00000E+00
 -1      1751 6.15012E+01 1.59300E+01 0.00000E+00
 -1      1752 6.22644E+01 1.44804E+01 0.00000E+00
 -1      1753 6.27916E+01 1.29347E+01 0.00000E+00
 -1      1754 2.87400E+00 4.77875E+01 0.00000E+00
 -1      1755 5.24878E+01 2.18720E+00 0.00000E+00
 -1      1756 3.89700E+00 4.04125E+01 0.00000E+00
 -1      1757 3.89700E+00 4.18875E+01 0.00000E+00
 -1      1758 3.89700E+00 4.33625E+01 0.00000E+00
 -1      1759 3.89700E+00 4.48375E+01 0.00000E+00
 -1      1760 5.19600E+00 4.26250E+01 0.00000E+00
 -1      1761 3.89700E+00 3.45500E+01 0.00000E+00
 -1      1762 3.89700E+00 3.60000E+01 0.00000E+00
 -1      1763 3.89700E+00 3.16000E+01 0.00000E+00
 -1      1764 3.89700E+00 3.30750E+01 0.00000E+00
 -1      1765 5.19600E+00 3.38000E+01 0.00000E+00
 -1      1766 3.89700E+00 2.86500E+01 0.00000E+00
 -1      1767 3.89700E+00 3.01250E+01 0.00000E+00
 -1      1768 5.19600E+00 3.08500E+01 0.00000E+00
 -1      1769 3.89700E+00 2.57000E+01 0.00000E+00
 -1      1770 3.89700E+00 2.71750E+01 0.00000E+00
 -1      1771 5.19600E+00 2.79000E+01 0.00000E+00
 -1      1772 3.89700E+00 2.27500E+01 0.00000E+00
 -1      1773 3.89700E+00 2.42250E+01 0.00000E+00
 -1      1774 5.19600E+00 2.49500E+01 0.00000E+00
 -1      1775 3.89700E+00 1.98000E+01 0.00000E+00
 -1      1776 3.89700E+00 2.12750E+01 0.00000E+00
 -1      1777 5.19600E+00 2.20000E+01 0.00000E+00
 -1      1778 3.89700E+00 1.69000E+01 0.00000E+00
 -1      1779 3.89700E+00 1.83500E+01 0.00000E+00
 -1      1780 5.19600E+00 1.90750E+01 0.00000E+00
 -1      1781 3.89700E+00 1.39500E+01 0.00000E+00
 -1      1782 3.89700E+00 1.54250E+01 0.00000E+00
 -1      1783 5.19600E+00 1.61500E+01 0.00000E+00
 -1      1784 3.89700E+00 1.10000E+01 0.00000E+00
 -1      1785 3.89700E+00 1.24750E+01 0.00000E+00
 -1      1786 5.19600E+00 1.32000E+01 0.00000E+00
 -1      1787 3.89700E+00 8.05000E+00 0.00000E+00
 -1      1788 3.89700E+00 9.52500E+00 0.00000E+00
 -1      1789 5.19600E+00 1.02500E+01 0.00000E+00
 -1      1790 3.89700E+00 5.10000E+00 0.00000E+00
 -1      1791 3.89700E+00 6.57500E+00 0.00000E+00
 -1      1792 5.19600E+00 7.30000E+00 0.00000E+00
 -1      1793 6.27106E+01 7.02196E+00 0.00000E+00
 -1      1794 6.31794E+01 7.83826E+00 0.00000E+00
 -1      1795 3.62400E+00 4.64885E+01 0.00000E+00
 -1      1796 3.54900E+00 3.48650E+00 0.00000E+00
 -1      1797 8.40000E+00 4.61030E+01 0.00000E+00
 -1      1798 9.90000E+00 4.61030E+01 0.00000E+00
 -1      1799 1.14000E+01 4.61030E+01 0.00000E+00
 -1      1800 1.29000E+01 4.61030E+01 0.00000E+00
 -1      1801 1.06500E+01 4.48040E+01 0.00000E+00
 -1      1802 1.44000E+01 4.61030E+01 0.00000E+00
 -1      1803 1.59000E+01 4.61030E+01 0.00000E+00
 -1      1804 1.36500E+01 4.48040E+01 0.00000E+00
 -1      1805 1.74000E+01 4.61030E+01 0.00000E+00
 -1      1806 1.89000E+01 4.61030E+01 0.00000E+00
 -1      1807 1.66500E+01 4.48040E+01 0.00000E+00
 -1      1808 2.04000E+01 4.61030E+01 0.00000E+00
 -1      1809 2.19000E+01 4.61030E+01 0.00000E+00
 -1      1810 1.96500E+01 4.48040E+01 0.00000E+00
 -1      1811 2.34000E+01 4.61030E+01 0.00000E+00
 -1      1812 2.49000E+01 4.61030E+01 0.00000E+00
 -1      1813 2.26500E+01 4.48040E+01 0.00000E+00
 -1      1814 2.64000E+01 4.61030E+01 0.00000E+00
 -1      1815 2.79000E+01 4.61030E+01 0.00000E+00
 -1      1816 2.56500E+01 4.48040E+01 0.00000E+00
 -1      1817 2.94000E+01 4.61030E+01 0.00000E+00
 -1      1818 3.09000E+01 4.61030E+01 0.00000E+00
 -1      1819 2.86500E+01 4.48040E+01 0.00000E+00
 -1      1820 3.24000E+01 4.61030E+01 0.00000E+00
 -1      1821 3.39000E+01 4.61030E+01 0.00000E+00
 -1      1822 3.16500E+01 4.48040E+01 0.00000E+00
 -1      1823 3.54000E+01 4.61030E+01 0.00000E+00
 -1      1824 3.69000E+01 4.61030E+01 0.00000E+00
 -1      1825 3.46500E+01 4.48040E+01 0.00000E+00
 -1      1826 3.84000E+01 4.61030E+01 0.00000E+00
 -1      1827 3.99000E+01 4.61030E+01 0.00000E+00
 -1      1828 3.76500E+01 4.48040E+01 0.00000E+00
 -1      1829 4.14000E+01 4.61030E+01 0.00000E+00
 -1      1830 4.29000E+01 4.61030E+01 0.00000E+00
 -1      1831 4.06500E+01 4.48040E+01 0.00000E+00
 -1      1832 4.44000E+01 4.61030E+01 0.00000E+00
 -1      1833 4.59000E+01 4.61030E+01 0.00000E+00
 -1      1834 4.36500E+01 4.48040E+01 0.00000E+00
 -1      1835 4.74000E+01 4.61030E+01 0.00000E+00
 -1      1836 4.89000E+01 4.61030E+01 0.00000E+00
 -1      1837 4.66500E+01 4.48040E+01 0.00000E+00
 -1      1838 5.04000E+01 4.61030E+01 0.00000E+00
 -1      1839 5.19000E+01 4.61030E+01 0.00000E+00
 -1      1840 4.96500E+01 4.48040E+01 0.00000E+00
 -1      1841 5.34000E+01 4.61030E+01 0.00000E+00
 -1      1842 5.49000E+01 4.61030E+01 0.00000E+00
 -1      1843 5.26500E+01 4.48040E+01 0.00000E+00
 -1      1844 5.64000E+01 4.61030E+01 0.00000E+00
 -1      1845 5.79000E+01 4.61030E+01 0.00000E+00
 -1      1846 5.56500E+01 4.48040E+01 0.00000E+00
 -1      1847 5.94000E+01 4.61030E+01 0.00000E+00
 -1      1848 6.09000E+01 4.61030E+01 0.00000E+00
 -1      1849 5.86500E+01 4.48040E+01 0.00000E+00
 -1      1850 6.24000E+01 4.61030E+01 0.00000E+00
 -1      1851 6.39000E+01 4.61030E+01 0.00000E+00
 -1      1852 6.16500E+01 4.48040E+01 0.00000E+00
 -1      1853 6.54000E+01 4.61030E+01 0.00000E+00
 -1      1854 6.69000E+01 4.61030E+01 0.00000E+00
 -1      1855 6.46500E+01 4.48040E+01 0.00000E+00
 -1      1856 6.84000E+01 4.61030E+01 0.00000E+00
 -1      1857 6.99000E+01 4.61030E+01 0.00000E+00
 -1      1858 6.76500E+01 4.48040E+01 0.00000E+00
 -1      1859 7.14000E+01 4.61030E+01 0.00000E+00
 -1      1860 7.29000E+01 4.61030E+01 0.00000E+00
 -1      1861 7.06500E+01 4.48040E+01 0.00000E+00
 -1      1862 7.44000E+01 4.61030E+01 0.00000E+00
 -1      1863 7.59000E+01 4.61030E+01 0.00000E+00
 -1      1864 7.36500E+01 4.48040E+01 0.00000E+00
 -1      1865 7.74000E+01 4.61030E+01 0.00000E+00
 -1      1866 7.89000E+01 4.61030E+01 0.00000E+00
 -1      1867 7.66500E+01 4.48040E+01 0.00000E+00
 -1      1868 8.04000E+01 4.61030E+01 0.00000E+00
 -1      1869 8.19000E+01 4.61030E+01 0.00000E+00
 -1      1870 7.96500E+01 4.48040E+01 0.00000E+00
 -1      1871 8.34000E+01 4.61030E+01 0.00000E+00
 -1      1872 8.49000E+01 4.61030E+01 0.00000E+00
 -1      1873 8.26500E+01 4.48040E+01 0.00000E+00
 -1      1874 8.64000E+01 4.61030E+01 0.00000E+00
 -1      1875 8.79000E+01 4.61030E+01 0.00000E+00
 -1      1876 8.56500E+01 4.48040E+01 0.00000E+00
 -1      1877 8.94000E+01 4.61030E+01 0.00000E+00
 -1      1878 9.09000E+01 4.61030E+01 0.00000E+00
 -1      1879 8.86500E+01 4.48040E+01 0.00000E+00
 -1      1880 9.24000E+01 4.61030E+01 0.00000E+00
 -1      1881 9.39000E+01 4.61030E+01 0.00000E+00
 -1      1882 9.16500E+01 4.48040E+01 0.00000E+00
 -1      1883 9.54000E+01 4.61030E+01 0.00000E+00
 -1      1884 9.69000E+01 4.61030E+01 0.00000E+00
 -1      1885 9.46500E+01 4.48040E+01 0.00000E+00
 -1      1886 9.84000E+01 4.61030E+01 0.00000E+00
 -1      1887 9.99000E+01 4.61030E+01 0.00000E+00
 -1      1888 9.76500E+01 4.48040E+01 0.00000E+00
 -1      1889 1.01400E+02 4.61030E+01 0.00000E+00
 -1      1890 1.02900E+02 4.61030E+01 0.00000E+00
 -1      1891 1.00650E+02 4.48040E+01 0.00000E+00
 -1      1892 1.04400E+02 4.61030E+01 0.00000E+00
 -1      1893 1.05900E+02 4.61030E+01 0.00000E+00
 -1      1894 1.03650E+02 4.48040E+01 0.00000E+00
 -1      1895 1.07400E+02 4.61030E+01 0.00000E+00
 -1      1896 1.08900E+02 4.61030E+01 0.00000E+00
 -1      1897 1.06650E+02 4.48040E+01 0.00000E+00
 -1      1898 1.10400E+02 4.61030E+01 0.00000E+00
 -1      1899 1.11900E+02 4.61030E+01 0.00000E+00
 -1      1900 1.09650E+02 4.48040E+01 0.00000E+00
 -1      1901 1.13400E+02 4.61030E+01 0.00000E+00
 -1      1902 1.14900E+02 4.61030E+01 0.00000E+00
 -1      1903 1.12650E+02 4.48040E+01 0.00000E+00
 -1      1904 1.16400E+02 4.61030E+01 0.00000E+00
 -1      1905 1.17900E+02 4.61030E+01 0.00000E+00
 -1      1906 1.15650E+02 4.48040E+01 0.00000E+00
 -1      1907 1.19400E+02 4.61030E+01 0.00000E+00
 -1      1908 1.20900E+02 4.61030E+01 0.00000E+00
 -1      1909 1.18650E+02 4.48040E+01 0.00000E+00
 -1      1910 1.22400E+02 4.61030E+01 0.00000E+00
 -1      1911 1.23900E+02 4.61030E+01 0.00000E+00
 -1      1912 1.21650E+02 4.48040E+01 0.00000E+00
 -1      1913 1.25400E+02 4.61030E+01 0.00000E+00
 -1      1914 1.26900E+02 4.61030E+01 0.00000E+00
 -1      1915 1.24650E+02 4.48040E+01 0.00000E+00
 -1      1916 1.28400E+02 4.61030E+01 0.00000E+00
 -1      1917 1.29900E+02 4.61030E+01 0.00000E+00
 -1      1918 1.27650E+02 4.48040E+01 0.00000E+00
 -1      1919 1.31400E+02 4.61030E+01 0.00000E+00
 -1      1920 1.32900E+02 4.61030E+01 0.00000E+00
 -1      1921 1.30650E+02 4.48040E+01 0.00000E+00
 -1      1922 1.34400E+02 4.61030E+01 0.00000E+00
 -1      1923 1.35900E+02 4.61030E+01 0.00000E+00
 -1      1924 1.33650E+02 4.48040E+01 0.00000E+00
 -1      1925 1.37400E+02 4.61030E+01 0.00000E+00
 -1      1926 1.38900E+02 4.61030E+01 0.00000E+00
 -1      1927 1.36650E+02 4.48040E+01 0.00000E+00
 -1      1928 1.40400E+02 4.61030E+01 0.00000E+00
 -1      1929 1.41900E+02 4.61030E+01 0.00000E+00
 -1      1930 1.39650E+02 4.48040E+01 0.00000E+00
 -1      1931 1.43400E+02 4.61030E+01 0.00000E+00
 -1      1932 1.44900E+02 4.61030E+01 0.00000E+00
 -1      1933 1.42650E+02 4.48040E+01 0.00000E+00
 -1      1934 1.27500E+01 3.89700E+00 0.00000E+00
 -1      1935 1.12500E+01 3.89700E+00 0.00000E+00
 -1      1936 9.75000E+00 3.89700E+00 0.00000E+00
 -1      1937 8.25000E+00 3.89700E+00 0.00000E+00
 -1      1938 1.05000E+01 5.19600E+00 0.00000E+00
 -1      1939 1.57500E+01 3.89700E+00 0.00000E+00
 -1      1940 1.42500E+01 3.89700E+00 0.00000E+00
 -1      1941 1.35000E+01 5.19600E+00 0.00000E+00
 -1      1942 1.87500E+01 3.89700E+00 0.00000E+00
 -1      1943 1.72500E+01 3.89700E+00 0.00000E+00
 -1      1944 1.65000E+01 5.19600E+00 0.00000E+00
 -1      1945 2.17500E+01 3.89700E+00 0.00000E+00
 -1      1946 2.02500E+01 3.89700E+00 0.00000E+00
 -1      1947 1.95000E+01 5.19600E+00 0.00000E+00
 -1      1948 2.47500E+01 3.89700E+00 0.00000E+00
 -1      1949 2.32500E+01 3.89700E+00 0.00000E+00
 -1      1950 2.25000E+01 5.19600E+00 0.00000E+00
 -1      1951 2.77500E+01 3.89700E+00 0.00000E+00
 -1      1952 2.62500E+01 3.89700E+00 0.00000E+00
 -1      1953 2.55000E+01 5.19600E+00 0.00000E+00
 -1      1954 3.07500E+01 3.89700E+00 0.00000E+00
 -1      1955 2.92500E+01 3.89700E+00 0.00000E+00
 -1      1956 2.85000E+01 5.19600E+00 0.00000E+00
 -1      1957 3.36000E+01 3.89700E+00 0.00000E+00
 -1      1958 3.21750E+01 3.89700E+00 0.00000E+00
 -1      1959 3.14250E+01 5.19600E+00 0.00000E+00
 -1      1960 3.66000E+01 3.89700E+00 0.00000E+00
 -1      1961 3.51000E+01 3.89700E+00 0.00000E+00
 -1      1962 3.43500E+01 5.19600E+00 0.00000E+00
 -1      1963 3.96000E+01 3.89700E+00 0.00000E+00
 -1      1964 3.81000E+01 3.89700E+00 0.00000E+00
 -1      1965 3.73500E+01 5.19600E+00 0.00000E+00
 -1      1966 4.26000E+01 3.89700E+00 0.00000E+00
 -1      1967 4.11000E+01 3.89700E+00 0.00000E+00
 -1      1968 4.03500E+01 5.19600E+00 0.00000E+00
 -1      1969 4.54500E+01 3.89700E+00 0.00000E+00
 -1      1970 4.40250E+01 3.89700E+00 0.00000E+00
 -1      1971 4.32750E+01 5.19600E+00 0.00000E+00
 -1      1972 5.71353E+01 2.64747E+00 0.00000E+00
 -1      1973 5.60853E+01 2.64747E+00 0.00000E+00
 -1      1974 5.52351E+01 2.52934E+00 0.00000E+00
 -1      1975 5.42601E+01 2.52934E+00 0.00000E+00
 -1      1976 6.19500E+01 3.07538E+00 0.00000E+00
 -1      1977 6.07500E+01 3.07538E+00 0.00000E+00
 -1      1978 6.46500E+01 3.07538E+00 0.00000E+00
 -1      1979 6.33000E+01 3.07538E+00 0.00000E+00
 -1      1980 6.27000E+01 4.10050E+00 0.00000E+00
 -1      1981 6.76500E+01 3.07538E+00 0.00000E+00
 -1      1982 6.61500E+01 3.07538E+00 0.00000E+00
 -1      1983 6.55500E+01 4.10050E+00 0.00000E+00
 -1      1984 7.06500E+01 3.07538E+00 0.00000E+00
 -1      1985 6.91500E+01 3.07538E+00 0.00000E+00
 -1      1986 6.85500E+01 4.10050E+00 0.00000E+00
 -1      1987 7.36500E+01 3.07538E+00 0.00000E+00
 -1      1988 7.21500E+01 3.07538E+00 0.00000E+00
 -1      1989 7.15500E+01 4.10050E+00 0.00000E+00
 -1      1990 7.66500E+01 3.07538E+00 0.00000E+00
 -1      1991 7.51500E+01 3.07538E+00 0.00000E+00
 -1      1992 7.45500E+01 4.10050E+00 0.00000E+00
 -1      1993 7.96500E+01 3.07538E+00 0.00000E+00
 -1      1994 7.81500E+01 3.07538E+00 0.00000E+00
 -1      1995 7.75500E+01 4.10050E+00 0.00000E+00
 -1      1996 8.25000E+01 3.07538E+00 0.00000E+00
 -1      1997 8.10750E+01 3.07538E+00 0.00000E+00
 -1      1998 8.04750E+01 4.10050E+00 0.00000E+00
 -1      1999 8.55000E+01 3.07538E+00 0.00000E+00
 -1      2000 8.40000E+01 3.07538E+00 0.00000E+00
 -1      2001 8.34000E+01 4.10050E+00 0.00000E+00
 -1      2002 8.85000E+01 3.07538E+00 0.00000E+00
 -1      2003 8.70000E+01 3.07538E+00 0.00000E+00
 -1      2004 8.64000E+01 4.10050E+00 0.00000E+00
 -1      2005 9.15000E+01 3.07538E+00 0.00000E+00
 -1      2006 9.00000E+01 3.07538E+00 0.00000E+00
 -1      2007 8.94000E+01 4.10050E+00 0.00000E+00
 -1      2008 9.45000E+01 3.07538E+00 0.00000E+00
 -1      2009 9.30000E+01 3.07538E+00 0.00000E+00
 -1      2010 9.24000E+01 4.10050E+00 0.00000E+00
 -1      2011 9.75000E+01 3.07538E+00 0.00000E+00
 -1      2012 9.60000E+01 3.07538E+00 0.00000E+00
 -1      2013 9.54000E+01 4.10050E+00 0.00000E+00
 -1      2014 1.00500E+02 3.07538E+00 0.00000E+00
 -1      2015 9.90000E+01 3.07538E+00 0.00000E+00
 -1      2016 9.84000E+01 4.10050E+00 0.00000E+00
 -1      2017 1.03500E+02 3.07538E+00 0.00000E+00
 -1      2018 1.02000E+02 3.07538E+00 0.00000E+00
 -1      2019 1.01400E+02 4.10050E+00 0.00000E+00
 -1      2020 1.06500E+02 3.07538E+00 0.00000E+00
 -1      2021 1.05000E+02 3.07538E+00 0.00000E+00
 -1      2022 1.04400E+02 4.10050E+00 0.00000E+00
 -1      2023 1.09500E+02 3.07538E+00 0.00000E+00
 -1      2024 1.08000E+02 3.07538E+00 0.00000E+00
 -1      2025 1.07400E+02 4.10050E+00 0.00000E+00
 -1      2026 1.12500E+02 3.07538E+00 0.00000E+00
 -1      2027 1.11000E+02 3.07538E+00 0.00000E+00
 -1      2028 1.10400E+02 4.10050E+00 0.00000E+00
 -1      2029 1.15350E+02 3.07538E+00 0.00000E+00
 -1      2030 1.13925E+02 3.07538E+00 0.00000E+00
 -1      2031 1.13325E+02 4.10050E+00 0.00000E+00
 -1      2032 1.18350E+02 3.07538E+00 0.00000E+00
 -1      2033 1.16850E+02 3.07538E+00 0.00000E+00
 -1      2034 1.16250E+02 4.10050E+00 0.00000E+00
 -1      2035 1.21350E+02 3.07538E+00 0.00000E+00
 -1      2036 1.19850E+02 3.07538E+00 0.00000E+00
 -1      2037 1.19250E+02 4.10050E+00 0.00000E+00
 -1      2038 1.24350E+02 3.07538E+00 0.00000E+00
 -1      2039 1.22850E+02 3.07538E+00 0.00000E+00
 -1      2040 1.22250E+02 4.10050E+00 0.00000E+00
 -1      2041 1.27350E+02 3.07538E+00 0.00000E+00
 -1      2042 1.25850E+02 3.07538E+00 0.00000E+00
 -1      2043 1.25250E+02 4.10050E+00 0.00000E+00
 -1      2044 1.30350E+02 3.07538E+00 0.00000E+00
 -1      2045 1.28850E+02 3.07538E+00 0.00000E+00
 -1      2046 1.28250E+02 4.10050E+00 0.00000E+00
 -1      2047 1.33350E+02 3.07538E+00 0.00000E+00
 -1      2048 1.31850E+02 3.07538E+00 0.00000E+00
 -1      2049 1.31250E+02 4.10050E+00 0.00000E+00
 -1      2050 1.36350E+02 3.07538E+00 0.00000E+00
 -1      2051 1.34850E+02 3.07538E+00 0.00000E+00
 -1      2052 1.34250E+02 4.10050E+00 0.00000E+00
 -1      2053 1.39350E+02 3.07538E+00 0.00000E+00
 -1      2054 1.37850E+02 3.07538E+00 0.00000E+00
 -1      2055 1.37250E+02 4.10050E+00 0.00000E+00
 -1      2056 1.42350E+02 3.07538E+00 0.00000E+00
 -1      2057 1.40850E+02 3.07538E+00 0.00000E+00
 -1      2058 1.40250E+02 4.10050E+00 0.00000E+00
 -1      2059 1.45350E+02 3.07538E+00 0.00000E+00
 -1      2060 1.43850E+02 3.07538E+00 0.00000E+00
 -1      2061 1.43250E+02 4.10050E+00 0.00000E+00
 -1      2062 1.47169E+02 3.63772E+00 0.00000E+00
 -1      2063 1.46156E+02 3.41278E+00 0.00000E+00
 -1      2064 1.45556E+02 4.43791E+00 0.00000E+00
 -1      2065 1.47169E+02 5.11272E+00 0.00000E+00
 -1      2066 1.46676E+02 1.06126E+01 0.00000E+00
 -1      2067 1.46676E+02 9.13763E+00 0.00000E+00
 -1      2068 1.46922E+02 7.86267E+00 0.00000E+00
 -1      2069 1.46922E+02 6.38767E+00 0.00000E+00
 -1      2070 1.46116E+02 6.05027E+00 0.00000E+00
 -1      2071 1.45623E+02 8.60017E+00 0.00000E+00
 -1      2072 1.46676E+02 1.35626E+01 0.00000E+00
 -1      2073 1.46676E+02 1.20876E+01 0.00000E+00
 -1      2074 1.45377E+02 1.13501E+01 0.00000E+00
 -1      2075 1.46676E+02 1.64626E+01 0.00000E+00
 -1      2076 1.46676E+02 1.50126E+01 0.00000E+00
 -1      2077 1.45377E+02 1.42751E+01 0.00000E+00
 -1      2078 1.46676E+02 1.94126E+01 0.00000E+00
 -1      2079 1.46676E+02 1.79376E+01 0.00000E+00
 -1      2080 1.45377E+02 1.72001E+01 0.00000E+00
 -1      2081 1.46676E+02 2.23626E+01 0.00000E+00
 -1      2082 1.46676E+02 2.08876E+01 0.00000E+00
 -1      2083 1.45377E+02 2.01501E+01 0.00000E+00
 -1      2084 1.46676E+02 2.53126E+01 0.00000E+00
 -1      2085 1.46676E+02 2.38376E+01 0.00000E+00
 -1      2086 1.45377E+02 2.31001E+01 0.00000E+00
 -1      2087 1.46676E+02 2.82626E+01 0.00000E+00
 -1      2088 1.46676E+02 2.67876E+01 0.00000E+00
 -1      2089 1.45377E+02 2.60501E+01 0.00000E+00
 -1      2090 1.46676E+02 3.12126E+01 0.00000E+00
 -1      2091 1.46676E+02 2.97376E+01 0.00000E+00
 -1      2092 1.45377E+02 2.90001E+01 0.00000E+00
 -1      2093 1.46676E+02 3.41126E+01 0.00000E+00
 -1      2094 1.46676E+02 3.26626E+01 0.00000E+00
 -1      2095 1.45377E+02 3.19251E+01 0.00000E+00
 -1      2096 1.46676E+02 3.70626E+01 0.00000E+00
 -1      2097 1.46676E+02 3.55876E+01 0.00000E+00
 -1      2098 1.45377E+02 3.48501E+01 0.00000E+00
 -1      2099 1.46676E+02 4.00126E+01 0.00000E+00
 -1      2100 1.46676E+02 3.85376E+01 0.00000E+00
 -1      2101 1.45377E+02 3.78001E+01 0.00000E+00
 -1      2102 1.46676E+02 4.29626E+01 0.00000E+00
 -1      2103 1.46676E+02 4.14876E+01 0.00000E+00
 -1      2104 1.45377E+02 4.07501E+01 0.00000E+00
 -1      2105 6.16037E+01 5.45408E+00 0.00000E+00
 -1      2106 6.21907E+01 6.09354E+00 0.00000E+00
 -1      2107 1.46526E+02 4.65135E+01 0.00000E+00
 -1      2108 6.37947E+01 1.07993E+01 0.00000E+00
 -1      2109 6.38362E+01 1.16578E+01 0.00000E+00
 -1      2110 3.89700E+00 3.74688E+01 0.00000E+00
 -1      2111 3.89700E+00 3.89437E+01 0.00000E+00
 -1      2112 5.19600E+00 3.96813E+01 0.00000E+00
 -1      2113 5.19600E+00 3.67438E+01 0.00000E+00
 -1      2114 6.04511E+01 4.26024E+00 0.00000E+00
 -1      2115 6.10451E+01 4.87907E+00 0.00000E+00
 -1      2116 5.79347E+01 2.89145E+00 0.00000E+00
 -1      2117 5.33432E+01 2.56315E+00 0.00000E+00
 -1      2118 4.82624E+01 5.04391E+00 0.00000E+00
 -1      2119 4.89126E+01 4.47635E+00 0.00000E+00
 -1      2120 4.69627E+01 6.46755E+00 0.00000E+00
 -1      2121 4.74972E+01 5.75029E+00 0.00000E+00
 -1      2122 4.63450E+01 8.41838E+00 0.00000E+00
 -1      2123 4.66005E+01 7.55879E+00 0.00000E+00
 -1      2124 4.59969E+01 1.02234E+01 0.00000E+00
 -1      2125 4.61015E+01 9.37349E+00 0.00000E+00
 -1      2126 4.59663E+01 1.19880E+01 0.00000E+00
 -1      2127 4.59764E+01 1.11460E+01 0.00000E+00
 -1      2128 4.61992E+01 1.38145E+01 0.00000E+00
 -1      2129 4.59988E+01 1.29992E+01 0.00000E+00
 -1      2130 4.69041E+01 1.55146E+01 0.00000E+00
 -1      2131 4.65351E+01 1.47482E+01 0.00000E+00
 -1      2132 4.80258E+01 1.70063E+01 0.00000E+00
 -1      2133 4.74979E+01 1.63188E+01 0.00000E+00
 -1      2134 4.92589E+01 1.84321E+01 0.00000E+00
 -1      2135 4.86049E+01 1.78259E+01 0.00000E+00
 -1      2136 5.10602E+01 1.94016E+01 0.00000E+00
 -1      2137 5.02295E+01 1.90551E+01 0.00000E+00
 -1      2138 5.28332E+01 1.98745E+01 0.00000E+00
 -1      2139 5.20025E+01 1.96415E+01 0.00000E+00
 -1      2140 5.46328E+01 2.02098E+01 0.00000E+00
 -1      2141 5.37639E+01 2.00756E+01 0.00000E+00
 -1      2142 5.66248E+01 2.00745E+01 0.00000E+00
 -1      2143 5.57878E+01 2.02825E+01 0.00000E+00
 -1      2144 5.82167E+01 1.95687E+01 0.00000E+00
 -1      2145 5.74207E+01 1.98216E+01 0.00000E+00
 -1      2146 5.71990E+01 2.07172E+01 0.00000E+00
 -1      2147 5.98505E+01 1.85331E+01 0.00000E+00
 -1      2148 5.91714E+01 1.90043E+01 0.00000E+00
 -1      2149 6.11656E+01 1.74029E+01 0.00000E+00
 -1      2150 6.05358E+01 1.79480E+01 0.00000E+00
 -1      2151 6.23439E+01 1.59633E+01 0.00000E+00
 -1      2152 6.18991E+01 1.66736E+01 0.00000E+00
 -1      2153 6.30189E+01 1.43670E+01 0.00000E+00
 -1      2154 6.27004E+01 1.51064E+01 0.00000E+00
 -1      2155 6.36451E+01 1.27256E+01 0.00000E+00
 -1      2156 6.34363E+01 1.35318E+01 0.00000E+00
 -1      2157 4.84800E+00 4.21150E+00 0.00000E+00
 -1      2158 6.37291E+01 8.95700E+00 0.00000E+00
 -1      2159 6.37619E+01 9.87816E+00 0.00000E+00
 -1      2160 6.46392E+01 1.02660E+01 0.00000E+00
 -1      2161 4.92300E+00 4.57510E+01 0.00000E+00
 -1      2162 1.45776E+02 4.52145E+01 0.00000E+00
 -1      2163 5.90597E+01 2.89145E+00 0.00000E+00
 -1      2164 6.40567E+01 8.22611E+00 0.00000E+00
 -1      2165 6.29871E+01 6.17895E+00 0.00000E+00
 -1      2166 5.04223E+01 3.53406E+00 0.00000E+00
 -1      2167 4.91595E+01 3.67098E+00 0.00000E+00
 -1      2168 6.42300E+00 4.57510E+01 0.00000E+00
 -1      2169 7.17300E+00 4.44520E+01 0.00000E+00
 -1      2170 7.09800E+00 5.51050E+00 0.00000E+00
 -1      2171 6.34800E+00 4.21150E+00 0.00000E+00
 -1      2172 4.63880E+01 4.10975E+00 0.00000E+00
 -1      2173 4.56380E+01 5.40875E+00 0.00000E+00
 -1      2174 6.19086E+01 4.67552E+00 0.00000E+00
 -1      2175 4.83531E+01 3.40337E+00 0.00000E+00
 -1      2176 4.57242E+01 1.45152E+01 0.00000E+00
 -1      2177 4.71531E+01 3.40337E+00 0.00000E+00
 -1      2178 1.46063E+02 4.42521E+01 0.00000E+00
 -1      2179 6.44809E+01 1.22549E+01 0.00000E+00
 -1      2180 4.53558E+01 1.25704E+01 0.00000E+00
 -1      2181 6.38723E+01 1.41579E+01 0.00000E+00
 -1      2182 6.30983E+01 1.58500E+01 0.00000E+00
 -1      2183 6.20083E+01 1.74362E+01 0.00000E+00
 -1      2184 5.89496E+01 1.98999E+01 0.00000E+00
 -1      2185 5.52481E+01 2.08973E+01 0.00000E+00
 -1      2186 5.31623E+01 2.06235E+01 0.00000E+00
 -1      2187 5.12893E+01 2.01824E+01 0.00000E+00
 -1      2188 4.93765E+01 1.93195E+01 0.00000E+00
 -1      2189 4.78269E+01 1.78769E+01 0.00000E+00
 -1      2190 4.66540E+01 1.62531E+01 0.00000E+00
 -1      2191 4.53438E+01 1.06367E+01 0.00000E+00
 -1      2192 4.56079E+01 8.75909E+00 0.00000E+00
 -1      2193 5.98511E+01 3.23512E+00 0.00000E+00
 -1      2194 4.62137E+01 6.71274E+00 0.00000E+00
 -1      2195 4.73411E+01 4.91513E+00 0.00000E+00
 -1      2196 5.11677E+01 3.11990E+00 0.00000E+00
 -1      2197 5.19810E+01 2.70010E+00 0.00000E+00
 -1      2198 1.44764E+02 4.35146E+01 0.00000E+00
 -1      2199 6.05896E+01 1.87505E+01 0.00000E+00
 -1      2200 6.54206E+01 1.18721E+01 0.00000E+00
 -1      2201 6.52294E+01 1.29399E+01 0.00000E+00
 -1      2202 6.49500E+00 3.01125E+01 0.00000E+00
 -1      2203 6.49500E+00 3.15875E+01 0.00000E+00
 -1      2204 6.49500E+00 3.30625E+01 0.00000E+00
 -1      2205 6.49500E+00 3.45375E+01 0.00000E+00
 -1      2206 7.79400E+00 3.23250E+01 0.00000E+00
 -1      2207 6.49500E+00 2.42125E+01 0.00000E+00
 -1      2208 6.49500E+00 2.56875E+01 0.00000E+00
 -1      2209 6.49500E+00 2.12625E+01 0.00000E+00
 -1      2210 6.49500E+00 2.27375E+01 0.00000E+00
 -1      2211 7.79400E+00 2.34750E+01 0.00000E+00
 -1      2212 6.49500E+00 1.83625E+01 0.00000E+00
 -1      2213 6.49500E+00 1.98125E+01 0.00000E+00
 -1      2214 7.79400E+00 2.05500E+01 0.00000E+00
 -1      2215 6.49500E+00 1.54125E+01 0.00000E+00
 -1      2216 6.49500E+00 1.68875E+01 0.00000E+00
 -1      2217 7.79400E+00 1.76250E+01 0.00000E+00
 -1      2218 6.49500E+00 1.24625E+01 0.00000E+00
 -1      2219 6.49500E+00 1.39375E+01 0.00000E+00
 -1      2220 7.79400E+00 1.46750E+01 0.00000E+00
 -1      2221 6.49500E+00 9.51250E+00 0.00000E+00
 -1      2222 6.49500E+00 1.09875E+01 0.00000E+00
 -1      2223 7.79400E+00 1.17250E+01 0.00000E+00
 -1      2224 6.79650E+00 6.77400E+00 0.00000E+00
 -1      2225 6.79650E+00 8.24900E+00 0.00000E+00
 -1      2226 8.09550E+00 8.98650E+00 0.00000E+00
 -1      2227 8.69850E+00 6.45950E+00 0.00000E+00
 -1      2228 6.55635E+01 9.77194E+00 0.00000E+00
 -1      2229 6.55963E+01 1.06931E+01 0.00000E+00
 -1      2230 9.90000E+00 4.35050E+01 0.00000E+00
 -1      2231 1.14000E+01 4.35050E+01 0.00000E+00
 -1      2232 4.52758E+01 6.49999E+00 0.00000E+00
 -1      2233 1.29000E+01 4.35050E+01 0.00000E+00
 -1      2234 1.44000E+01 4.35050E+01 0.00000E+00
 -1      2235 1.21500E+01 4.22060E+01 0.00000E+00
 -1      2236 1.59000E+01 4.35050E+01 0.00000E+00
 -1      2237 1.74000E+01 4.35050E+01 0.00000E+00
 -1      2238 1.51500E+01 4.22060E+01 0.00000E+00
 -1      2239 1.89000E+01 4.35050E+01 0.00000E+00
 -1      2240 2.04000E+01 4.35050E+01 0.00000E+00
 -1      2241 1.81500E+01 4.22060E+01 0.00000E+00
 -1      2242 2.19000E+01 4.35050E+01 0.00000E+00
 -1      2243 2.34000E+01 4.35050E+01 0.00000E+00
 -1      2244 2.11500E+01 4.22060E+01 0.00000E+00
 -1      2245 2.49000E+01 4.35050E+01 0.00000E+00
 -1      2246 2.64000E+01 4.35050E+01 0.00000E+00
 -1      2247 2.41500E+01 4.22060E+01 0.00000E+00
 -1      2248 2.79000E+01 4.35050E+01 0.00000E+00
 -1      2249 2.94000E+01 4.35050E+01 0.00000E+00
 -1      2250 2.71500E+01 4.22060E+01 0.00000E+00
 -1      2251 3.09000E+01 4.35050E+01 0.00000E+00
 -1      2252 3.24000E+01 4.35050E+01 0.00000E+00
 -1      2253 3.01500E+01 4.22060E+01 0.00000E+00
 -1      2254 3.39000E+01 4.35050E+01 0.00000E+00
 -1      2255 3.54000E+01 4.35050E+01 0.00000E+00
 -1      2256 3.31500E+01 4.22060E+01 0.00000E+00
 -1      2257 3.69000E+01 4.35050E+01 0.00000E+00
 -1      2258 3.84000E+01 4.35050E+01 0.00000E+00
 -1      2259 3.61500E+01 4.22060E+01 0.00000E+00
 -1      2260 3.99000E+01 4.35050E+01 0.00000E+00
 -1      2261 4.14000E+01 4.35050E+01 0.00000E+00
 -1      2262 3.91500E+01 4.22060E+01 0.00000E+00
 -1      2263 4.29000E+01 4.35050E+01 0.00000E+00
 -1      2264 4.44000E+01 4.35050E+01 0.00000E+00
 -1      2265 4.21500E+01 4.22060E+01 0.00000E+00
 -1      2266 4.59000E+01 4.35050E+01 0.00000E+00
 -1      2267 4.74000E+01 4.35050E+01 0.00000E+00
 -1      2268 4.51500E+01 4.22060E+01 0.00000E+00
 -1      2269 4.89000E+01 4.35050E+01 0.00000E+00
 -1      2270 5.04000E+01 4.35050E+01 0.00000E+00
 -1      2271 4.81500E+01 4.22060E+01 0.00000E+00
 -1      2272 5.19000E+01 4.35050E+01 0.00000E+00
 -1      2273 5.34000E+01 4.35050E+01 0.00000E+00
 -1      2274 5.11500E+01 4.22060E+01 0.00000E+00
 -1      2275 5.49000E+01 4.35050E+01 0.00000E+00
 -1      2276 5.64000E+01 4.35050E+01 0.00000E+00
 -1      2277 5.41500E+01 4.22060E+01 0.00000E+00
 -1      2278 5.79000E+01 4.35050E+01 0.00000E+00
 -1      2279 5.94000E+01 4.35050E+01 0.00000E+00
 -1      2280 5.71500E+01 4.22060E+01 0.00000E+00
 -1      2281 6.09000E+01 4.35050E+01 0.00000E+00
 -1      2282 6.24000E+01 4.35050E+01 0.00000E+00
 -1      2283 6.01500E+01 4.22060E+01 0.00000E+00
 -1      2284 6.39000E+01 4.35050E+01 0.00000E+00
 -1      2285 6.54000E+01 4.35050E+01 0.00000E+00
 -1      2286 6.31500E+01 4.22060E+01 0.00000E+00
 -1      2287 6.69000E+01 4.35050E+01 0.00000E+00
 -1      2288 6.84000E+01 4.35050E+01 0.00000E+00
 -1      2289 6.61500E+01 4.22060E+01 0.00000E+00
 -1      2290 6.99000E+01 4.35050E+01 0.00000E+00
 -1      2291 7.14000E+01 4.35050E+01 0.00000E+00
 -1      2292 6.91500E+01 4.22060E+01 0.00000E+00
 -1      2293 7.29000E+01 4.35050E+01 0.00000E+00
 -1      2294 7.44000E+01 4.35050E+01 0.00000E+00
 -1      2295 7.21500E+01 4.22060E+01 0.00000E+00
 -1      2296 7.59000E+01 4.35050E+01 0.00000E+00
 -1      2297 7.74000E+01 4.35050E+01 0.00000E+00
 -1      2298 7.51500E+01 4.22060E+01 0.00000E+00
 -1      2299 7.89000E+01 4.35050E+01 0.00000E+00
 -1      2300 8.04000E+01 4.35050E+01 0.00000E+00
 -1      2301 7.81500E+01 4.22060E+01 0.00000E+00
 -1      2302 8.19000E+01 4.35050E+01 0.00000E+00
 -1      2303 8.34000E+01 4.35050E+01 0.00000E+00
 -1      2304 8.11500E+01 4.22060E+01 0.00000E+00
 -1      2305 8.49000E+01 4.35050E+01 0.00000E+00
 -1      2306 8.64000E+01 4.35050E+01 0.00000E+00
 -1      2307 8.41500E+01 4.22060E+01 0.00000E+00
 -1      2308 8.79000E+01 4.35050E+01 0.00000E+00
 -1      2309 8.94000E+01 4.35050E+01 0.00000E+00
 -1      2310 8.71500E+01 4.22060E+01 0.00000E+00
 -1      2311 9.09000E+01 4.35050E+01 0.00000E+00
 -1      2312 9.24000E+01 4.35050E+01 0.00000E+00
 -1      2313 9.01500E+01 4.22060E+01 0.00000E+00
 -1      2314 9.39000E+01 4.35050E+01 0.00000E+00
 -1      2315 9.54000E+01 4.35050E+01 0.00000E+00
 -1      2316 9.31500E+01 4.22060E+01 0.00000E+00
 -1      2317 9.69000E+01 4.35050E+01 0.00000E+00
 -1      2318 9.84000E+01 4.35050E+01 0.00000E+00
 -1      2319 9.61500E+01 4.22060E+01 0.00000E+00
 -1      2320 9.99000E+01 4.35050E+01 0.00000E+00
 -1      2321 1.01400E+02 4.35050E+01 0.00000E+00
 -1      2322 9.91500E+01 4.22060E+01 0.00000E+00
 -1      2323 1.02900E+02 4.35050E+01 0.00000E+00
 -1      2324 1.04400E+02 4.35050E+01 0.00000E+00
 -1      2325 1.02150E+02 4.22060E+01 0.00000E+00
 -1      2326 1.05900E+02 4.35050E+01 0.00000E+00
 -1      2327 1.07400E+02 4.35050E+01 0.00000E+00
 -1      2328 1.05150E+02 4.22060E+01 0.00000E+00
 -1      2329 1.08900E+02 4.35050E+01 0.00000E+00
 -1      2330 1.10400E+02 4.35050E+01 0.00000E+00
 -1      2331 1.08150E+02 4.22060E+01 0.00000E+00
 -1      2332 1.11900E+02 4.35050E+01 0.00000E+00
 -1      2333 1.13400E+02 4.35050E+01 0.00000E+00
 -1      2334 1.11150E+02 4.22060E+01 0.00000E+00
 -1      2335 1.14900E+02 4.35050E+01 0.00000E+00
 -1      2336 1.16400E+02 4.35050E+01 0.00000E+00
 -1      2337 1.14150E+02 4.22060E+01 0.00000E+00
 -1      2338 1.17900E+02 4.35050E+01 0.00000E+00
 -1      2339 1.19400E+02 4.35050E+01 0.00000E+00
 -1      2340 1.17150E+02 4.22060E+01 0.00000E+00
 -1      2341 1.20900E+02 4.35050E+01 0.00000E+00
 -1      2342 1.22400E+02 4.35050E+01 0.00000E+00
 -1      2343 1.20150E+02 4.22060E+01 0.00000E+00
 -1      2344 1.23900E+02 4.35050E+01 0.00000E+00
 -1      2345 1.25400E+02 4.35050E+01 0.00000E+00
 -1      2346 1.23150E+02 4.22060E+01 0.00000E+00
 -1      2347 1.26900E+02 4.35050E+01 0.00000E+00
 -1      2348 1.28400E+02 4.35050E+01 0.00000E+00
 -1      2349 1.26150E+02 4.22060E+01 0.00000E+00
 -1      2350 1.29900E+02 4.35050E+01 0.00000E+00
 -1      2351 1.31400E+02 4.35050E+01 0.00000E+00
 -1      2352 1.29150E+02 4.22060E+01 0.00000E+00
 -1      2353 1.32900E+02 4.35050E+01 0.00000E+00
 -1      2354 1.34400E+02 4.35050E+01 0.00000E+00
 -1      2355 1.32150E+02 4.22060E+01 0.00000E+00
 -1      2356 1.35900E+02 4.35050E+01 0.00000E+00
 -1      2357 1.37400E+02 4.35050E+01 0.00000E+00
 -1      2358 1.35150E+02 4.22060E+01 0.00000E+00
 -1      2359 1.38900E+02 4.35050E+01 0.00000E+00
 -1      2360 1.40400E+02 4.35050E+01 0.00000E+00
 -1      2361 1.38150E+02 4.22060E+01 0.00000E+00
 -1      2362 1.41832E+02 4.35098E+01 0.00000E+00
 -1      2363 1.43332E+02 4.35098E+01 0.00000E+00
 -1      2364 1.43945E+02 4.22203E+01 0.00000E+00
 -1      2365 1.41082E+02 4.22108E+01 0.00000E+00
 -1      2366 1.72500E+01 6.49500E+00 0.00000E+00
 -1      2367 1.57500E+01 6.49500E+00 0.00000E+00
 -1      2368 6.44387E+01 7.34399E+00 0.00000E+00
 -1      2369 6.49884E+01 8.46273E+00 0.00000E+00
 -1      2370 2.02500E+01 6.49500E+00 0.00000E+00
 -1      2371 1.87500E+01 6.49500E+00 0.00000E+00
 -1      2372 1.80000E+01 7.79400E+00 0.00000E+00
 -1      2373 2.32500E+01 6.49500E+00 0.00000E+00
 -1      2374 2.17500E+01 6.49500E+00 0.00000E+00
 -1      2375 2.10000E+01 7.79400E+00 0.00000E+00
 -1      2376 2.62500E+01 6.49500E+00 0.00000E+00
 -1      2377 2.47500E+01 6.49500E+00 0.00000E+00
 -1      2378 2.40000E+01 7.79400E+00 0.00000E+00
 -1      2379 2.92500E+01 6.49500E+00 0.00000E+00
 -1      2380 2.77500E+01 6.49500E+00 0.00000E+00
 -1      2381 2.70000E+01 7.79400E+00 0.00000E+00
 -1      2382 3.21000E+01 6.49500E+00 0.00000E+00
 -1      2383 3.06750E+01 6.49500E+00 0.00000E+00
 -1      2384 2.99250E+01 7.79400E+00 0.00000E+00
 -1      2385 3.51000E+01 6.49500E+00 0.00000E+00
 -1      2386 3.36000E+01 6.49500E+00 0.00000E+00
 -1      2387 3.28500E+01 7.79400E+00 0.00000E+00
 -1      2388 3.81000E+01 6.49500E+00 0.00000E+00
 -1      2389 3.66000E+01 6.49500E+00 0.00000E+00
 -1      2390 3.58500E+01 7.79400E+00 0.00000E+00
 -1      2391 4.11000E+01 6.49500E+00 0.00000E+00
 -1      2392 3.96000E+01 6.49500E+00 0.00000E+00
 -1      2393 3.88500E+01 7.79400E+00 0.00000E+00
 -1      2394 4.39004E+01 6.49749E+00 0.00000E+00
 -1      2395 4.24754E+01 6.49749E+00 0.00000E+00
 -1      2396 4.17254E+01 7.79649E+00 0.00000E+00
 -1      2397 4.44761E+01 7.80148E+00 0.00000E+00
 -1      2398 6.32586E+01 4.67552E+00 0.00000E+00
 -1      2399 7.23000E+01 5.39950E+00 0.00000E+00
 -1      2400 7.08000E+01 5.39950E+00 0.00000E+00
 -1      2401 7.53000E+01 5.39950E+00 0.00000E+00
 -1      2402 7.38000E+01 5.39950E+00 0.00000E+00
 -1      2403 7.30500E+01 6.69850E+00 0.00000E+00
 -1      2404 7.83000E+01 5.39950E+00 0.00000E+00
 -1      2405 7.68000E+01 5.39950E+00 0.00000E+00
 -1      2406 7.60500E+01 6.69850E+00 0.00000E+00
 -1      2407 8.11500E+01 5.39950E+00 0.00000E+00
 -1      2408 7.97250E+01 5.39950E+00 0.00000E+00
 -1      2409 7.89750E+01 6.69850E+00 0.00000E+00
 -1      2410 8.41500E+01 5.39950E+00 0.00000E+00
 -1      2411 8.26500E+01 5.39950E+00 0.00000E+00
 -1      2412 8.19000E+01 6.69850E+00 0.00000E+00
 -1      2413 8.71500E+01 5.39950E+00 0.00000E+00
 -1      2414 8.56500E+01 5.39950E+00 0.00000E+00
 -1      2415 8.49000E+01 6.69850E+00 0.00000E+00
 -1      2416 9.01500E+01 5.39950E+00 0.00000E+00
 -1      2417 8.86500E+01 5.39950E+00 0.00000E+00
 -1      2418 8.79000E+01 6.69850E+00 0.00000E+00
 -1      2419 9.31500E+01 5.39950E+00 0.00000E+00
 -1      2420 9.16500E+01 5.39950E+00 0.00000E+00
 -1      2421 9.09000E+01 6.69850E+00 0.00000E+00
 -1      2422 9.61500E+01 5.39950E+00 0.00000E+00
 -1      2423 9.46500E+01 5.39950E+00 0.00000E+00
 -1      2424 9.39000E+01 6.69850E+00 0.00000E+00
 -1      2425 9.91500E+01 5.39950E+00 0.00000E+00
 -1      2426 9.76500E+01 5.39950E+00 0.00000E+00
 -1      2427 9.69000E+01 6.69850E+00 0.00000E+00
 -1      2428 1.02150E+02 5.39950E+00 0.00000E+00
 -1      2429 1.00650E+02 5.39950E+00 0.00000E+00
 -1      2430 9.99000E+01 6.69850E+00 0.00000E+00
 -1      2431 1.05150E+02 5.39950E+00 0.00000E+00
 -1      2432 1.03650E+02 5.39950E+00 0.00000E+00
 -1      2433 1.02900E+02 6.69850E+00 0.00000E+00
 -1      2434 1.08150E+02 5.39950E+00 0.00000E+00
 -1      2435 1.06650E+02 5.39950E+00 0.00000E+00
 -1      2436 1.05900E+02 6.69850E+00 0.00000E+00
 -1      2437 1.11150E+02 5.39950E+00 0.00000E+00
 -1      2438 1.09650E+02 5.39950E+00 0.00000E+00
 -1      2439 1.08900E+02 6.69850E+00 0.00000E+00
 -1      2440 1.14000E+02 5.39950E+00 0.00000E+00
 -1      2441 1.12575E+02 5.39950E+00 0.00000E+00
 -1      2442 1.11825E+02 6.69850E+00 0.00000E+00
 -1      2443 1.17000E+02 5.39950E+00 0.00000E+00
 -1      2444 1.15500E+02 5.39950E+00 0.00000E+00
 -1      2445 1.14750E+02 6.69850E+00 0.00000E+00
 -1      2446 1.20000E+02 5.39950E+00 0.00000E+00
 -1      2447 1.18500E+02 5.39950E+00 0.00000E+00
 -1      2448 1.17750E+02 6.69850E+00 0.00000E+00
 -1      2449 1.23000E+02 5.39950E+00 0.00000E+00
 -1      2450 1.21500E+02 5.39950E+00 0.00000E+00
 -1      2451 1.20750E+02 6.69850E+00 0.00000E+00
 -1      2452 1.26000E+02 5.39950E+00 0.00000E+00
 -1      2453 1.24500E+02 5.39950E+00 0.00000E+00
 -1      2454 1.23750E+02 6.69850E+00 0.00000E+00
 -1      2455 1.29000E+02 5.39950E+00 0.00000E+00
 -1      2456 1.27500E+02 5.39950E+00 0.00000E+00
 -1      2457 1.26750E+02 6.69850E+00 0.00000E+00
 -1      2458 1.32000E+02 5.39950E+00 0.00000E+00
 -1      2459 1.30500E+02 5.39950E+00 0.00000E+00
 -1      2460 1.29750E+02 6.69850E+00 0.00000E+00
 -1      2461 1.35000E+02 5.39950E+00 0.00000E+00
 -1      2462 1.33500E+02 5.39950E+00 0.00000E+00
 -1      2463 1.32750E+02 6.69850E+00 0.00000E+00
 -1      2464 1.38000E+02 5.39950E+00 0.00000E+00
 -1      2465 1.36500E+02 5.39950E+00 0.00000E+00
 -1      2466 1.35750E+02 6.69850E+00 0.00000E+00
 -1      2467 1.41000E+02 5.39950E+00 0.00000E+00
 -1      2468 1.39500E+02 5.39950E+00 0.00000E+00
 -1      2469 1.38750E+02 6.69850E+00 0.00000E+00
 -1      2470 1.45310E+02 5.71286E+00 0.00000E+00
 -1      2471 1.44504E+02 5.37546E+00 0.00000E+00
 -1      2472 1.45064E+02 6.98782E+00 0.00000E+00
 -1      2473 1.44078E+02 1.50001E+01 0.00000E+00
 -1      2474 1.44078E+02 1.35501E+01 0.00000E+00
 -1      2475 1.44078E+02 1.79501E+01 0.00000E+00
 -1      2476 1.44078E+02 1.64751E+01 0.00000E+00
 -1      2477 1.42779E+02 1.57501E+01 0.00000E+00
 -1      2478 1.44078E+02 1.20751E+01 0.00000E+00
 -1      2479 1.44078E+02 1.06001E+01 0.00000E+00
 -1      2480 1.42779E+02 1.28001E+01 0.00000E+00
 -1      2481 1.44078E+02 2.09001E+01 0.00000E+00
 -1      2482 1.44078E+02 1.94251E+01 0.00000E+00
 -1      2483 1.42779E+02 1.87001E+01 0.00000E+00
 -1      2484 1.44078E+02 2.38501E+01 0.00000E+00
 -1      2485 1.44078E+02 2.23751E+01 0.00000E+00
 -1      2486 1.42779E+02 2.16501E+01 0.00000E+00
 -1      2487 1.44078E+02 2.68001E+01 0.00000E+00
 -1      2488 1.44078E+02 2.53251E+01 0.00000E+00
 -1      2489 1.42779E+02 2.46001E+01 0.00000E+00
 -1      2490 1.44078E+02 2.97501E+01 0.00000E+00
 -1      2491 1.44078E+02 2.82751E+01 0.00000E+00
 -1      2492 1.42779E+02 2.75501E+01 0.00000E+00
 -1      2493 1.44078E+02 3.26501E+01 0.00000E+00
 -1      2494 1.44078E+02 3.12001E+01 0.00000E+00
 -1      2495 1.42779E+02 3.04751E+01 0.00000E+00
 -1      2496 1.44078E+02 3.56001E+01 0.00000E+00
 -1      2497 1.44078E+02 3.41251E+01 0.00000E+00
 -1      2498 1.42779E+02 3.34001E+01 0.00000E+00
 -1      2499 1.44078E+02 3.85501E+01 0.00000E+00
 -1      2500 1.44078E+02 3.70751E+01 0.00000E+00
 -1      2501 1.42779E+02 3.63501E+01 0.00000E+00
 -1      2502 1.43945E+02 4.07453E+01 0.00000E+00
 -1      2503 4.51641E+01 1.52440E+01 0.00000E+00
 -1      2504 4.48281E+01 1.43103E+01 0.00000E+00
 -1      2505 6.15434E+01 1.91739E+01 0.00000E+00
 -1      2506 6.08582E+01 1.97590E+01 0.00000E+00
 -1      2507 6.55950E+00 4.28890E+01 0.00000E+00
 -1      2508 8.53650E+00 4.32410E+01 0.00000E+00
 -1      2509 9.28650E+00 4.19420E+01 0.00000E+00
 -1      2510 6.55950E+00 4.14140E+01 0.00000E+00
 -1      2511 4.45568E+01 1.31021E+01 0.00000E+00
 -1      2512 4.45243E+01 1.20910E+01 0.00000E+00
 -1      2513 5.57769E+01 2.17059E+01 0.00000E+00
 -1      2514 5.46219E+01 2.16332E+01 0.00000E+00
 -1      2515 6.93000E+01 5.39950E+00 0.00000E+00
 -1      2516 6.78000E+01 5.39950E+00 0.00000E+00
 -1      2517 7.00500E+01 6.69850E+00 0.00000E+00
 -1      2518 6.63000E+01 5.12563E+00 0.00000E+00
 -1      2519 6.48000E+01 5.12563E+00 0.00000E+00
 -1      2520 1.16985E+01 6.45950E+00 0.00000E+00
 -1      2521 1.01985E+01 6.45950E+00 0.00000E+00
 -1      2522 9.89700E+00 7.72300E+00 0.00000E+00
 -1      2523 6.49500E+00 2.71625E+01 0.00000E+00
 -1      2524 6.49500E+00 2.86375E+01 0.00000E+00
 -1      2525 7.79400E+00 2.93750E+01 0.00000E+00
 -1      2526 7.79400E+00 2.64250E+01 0.00000E+00
 -1      2527 1.44742E+01 6.47725E+00 0.00000E+00
 -1      2528 1.29742E+01 6.47725E+00 0.00000E+00
 -1      2529 1.26728E+01 7.74075E+00 0.00000E+00
 -1      2530 1.52242E+01 7.77625E+00 0.00000E+00
 -1      2531 4.42326E+01 8.75660E+00 0.00000E+00
 -1      2532 6.46982E+01 1.40487E+01 0.00000E+00
 -1      2533 6.42808E+01 1.48839E+01 0.00000E+00
 -1      2534 4.46019E+01 1.10817E+01 0.00000E+00
 -1      2535 4.46224E+01 1.01592E+01 0.00000E+00
 -1      2536 4.63285E+01 1.71148E+01 0.00000E+00
 -1      2537 4.57346E+01 1.63106E+01 0.00000E+00
 -1      2538 4.74865E+01 1.87541E+01 0.00000E+00
 -1      2539 4.69075E+01 1.79344E+01 0.00000E+00
 -1      2540 4.59881E+01 1.79920E+01 0.00000E+00
 -1      2541 4.94211E+01 2.03174E+01 0.00000E+00
 -1      2542 4.84506E+01 1.96944E+01 0.00000E+00
 -1      2543 5.15591E+01 2.10928E+01 0.00000E+00
 -1      2544 5.06169E+01 2.08529E+01 0.00000E+00
 -1      2545 5.34207E+01 2.14950E+01 0.00000E+00
 -1      2546 5.24899E+01 2.12939E+01 0.00000E+00
 -1      2547 5.18175E+01 2.19644E+01 0.00000E+00
 -1      2548 5.79074E+01 2.15678E+01 0.00000E+00
 -1      2549 5.71114E+01 2.18206E+01 0.00000E+00
 -1      2550 5.99035E+01 2.03233E+01 0.00000E+00
 -1      2551 5.89488E+01 2.08877E+01 0.00000E+00
 -1      2552 6.08573E+01 2.07467E+01 0.00000E+00
 -1      2553 6.30104E+01 1.77153E+01 0.00000E+00
 -1      2554 6.22769E+01 1.84446E+01 0.00000E+00
 -1      2555 6.25455E+01 1.94531E+01 0.00000E+00
 -1      2556 6.39242E+01 1.57409E+01 0.00000E+00
 -1      2557 6.35677E+01 1.65978E+01 0.00000E+00
 -1      2558 6.47501E+01 1.56317E+01 0.00000E+00
 -1      2559 7.79400E+00 3.52687E+01 0.00000E+00
 -1      2560 6.49500E+00 3.60062E+01 0.00000E+00
 -1      2561 6.49500E+00 3.74750E+01 0.00000E+00
 -1      2562 6.59456E+01 8.88982E+00 0.00000E+00
 -1      2563 6.69027E+01 9.31692E+00 0.00000E+00
 -1      2564 6.63276E+01 8.00770E+00 0.00000E+00
 -1      2565 5.39495E+01 2.23037E+01 0.00000E+00
 -1      2566 5.64853E+01 2.25565E+01 0.00000E+00
 -1      2567 4.38029E+01 1.16135E+01 0.00000E+00
 -1      2568 6.55950E+00 3.99453E+01 0.00000E+00
 -1      2569 6.63449E+01 1.13781E+01 0.00000E+00
 -1      2570 6.45285E+01 6.62906E+00 0.00000E+00
 -1      2571 6.54602E+01 6.86568E+00 0.00000E+00
 -1      2572 1.43004E+02 5.37546E+00 0.00000E+00
 -1      2573 1.42254E+02 6.67446E+00 0.00000E+00
 -1      2574 1.44448E+02 9.43145E+00 0.00000E+00
 -1      2575 1.44694E+02 8.15649E+00 0.00000E+00
 -1      2576 1.43888E+02 7.81909E+00 0.00000E+00
 -1      2577 1.43149E+02 1.01564E+01 0.00000E+00
 -1      2578 1.42646E+02 4.00203E+01 0.00000E+00
 -1      2579 6.38363E+01 1.76062E+01 0.00000E+00
 -1      2580 4.48386E+01 1.61058E+01 0.00000E+00
 -1      2581 6.70500E+01 6.42463E+00 0.00000E+00
 -1      2582 4.75312E+01 1.97520E+01 0.00000E+00
 -1      2583 4.39967E+01 1.38309E+01 0.00000E+00
 -1      2584 6.40086E+01 5.70064E+00 0.00000E+00
 -1      2585 6.56379E+01 1.36659E+01 0.00000E+00
 -1      2586 4.34906E+01 9.20157E+00 0.00000E+00
 -1      2587 4.96910E+01 2.12278E+01 0.00000E+00
 -1      2588 5.88612E+01 2.19911E+01 0.00000E+00
 -1      2589 9.09300E+00 1.98250E+01 0.00000E+00
 -1      2590 9.09300E+00 2.12750E+01 0.00000E+00
 -1      2591 9.09300E+00 2.27500E+01 0.00000E+00
 -1      2592 9.09300E+00 2.42250E+01 0.00000E+00
 -1      2593 1.03920E+01 2.20250E+01 0.00000E+00
 -1      2594 9.09300E+00 1.39375E+01 0.00000E+00
 -1      2595 9.09300E+00 1.54125E+01 0.00000E+00
 -1      2596 9.09300E+00 1.09875E+01 0.00000E+00
 -1      2597 9.09300E+00 1.24625E+01 0.00000E+00
 -1      2598 1.03920E+01 1.32000E+01 0.00000E+00
 -1      2599 9.64575E+00 8.72350E+00 0.00000E+00
 -1      2600 9.34425E+00 9.98700E+00 0.00000E+00
 -1      2601 1.06433E+01 1.07245E+01 0.00000E+00
 -1      2602 1.11458E+01 8.72350E+00 0.00000E+00
 -1      2603 9.09300E+00 1.68813E+01 0.00000E+00
 -1      2604 9.09300E+00 1.83563E+01 0.00000E+00
 -1      2605 1.03920E+01 1.90812E+01 0.00000E+00
 -1      2606 1.03920E+01 1.61437E+01 0.00000E+00
 -1      2607 7.08000E+01 7.72363E+00 0.00000E+00
 -1      2608 6.93000E+01 7.72363E+00 0.00000E+00
 -1      2609 1.14000E+01 4.09070E+01 0.00000E+00
 -1      2610 1.29000E+01 4.09070E+01 0.00000E+00
 -1      2611 1.44000E+01 4.09070E+01 0.00000E+00
 -1      2612 1.59000E+01 4.09070E+01 0.00000E+00
 -1      2613 1.36500E+01 3.96080E+01 0.00000E+00
 -1      2614 1.74000E+01 4.09070E+01 0.00000E+00
 -1      2615 1.89000E+01 4.09070E+01 0.00000E+00
 -1      2616 1.66500E+01 3.96080E+01 0.00000E+00
 -1      2617 2.04000E+01 4.09070E+01 0.00000E+00
 -1      2618 2.19000E+01 4.09070E+01 0.00000E+00
 -1      2619 1.96500E+01 3.96080E+01 0.00000E+00
 -1      2620 2.34000E+01 4.09070E+01 0.00000E+00
 -1      2621 2.49000E+01 4.09070E+01 0.00000E+00
 -1      2622 2.26500E+01 3.96080E+01 0.00000E+00
 -1      2623 2.64000E+01 4.09070E+01 0.00000E+00
 -1      2624 2.79000E+01 4.09070E+01 0.00000E+00
 -1      2625 2.56500E+01 3.96080E+01 0.00000E+00
 -1      2626 2.94000E+01 4.09070E+01 0.00000E+00
 -1      2627 3.09000E+01 4.09070E+01 0.00000E+00
 -1      2628 2.86500E+01 3.96080E+01 0.00000E+00
 -1      2629 3.24000E+01 4.09070E+01 0.00000E+00
 -1      2630 3.39000E+01 4.09070E+01 0.00000E+00
 -1      2631 3.16500E+01 3.96080E+01 0.00000E+00
 -1      2632 3.54000E+01 4.09070E+01 0.00000E+00
 -1      2633 3.69000E+01 4.09070E+01 0.00000E+00
 -1      2634 3.46500E+01 3.96080E+01 0.00000E+00
 -1      2635 3.84000E+01 4.09070E+01 0.00000E+00
 -1      2636 3.99000E+01 4.09070E+01 0.00000E+00
 -1      2637 3.76500E+01 3.96080E+01 0.00000E+00
 -1      2638 4.14000E+01 4.09070E+01 0.00000E+00
 -1      2639 4.29000E+01 4.09070E+01 0.00000E+00
 -1      2640 4.06500E+01 3.96080E+01 0.00000E+00
 -1      2641 4.44000E+01 4.09070E+01 0.00000E+00
 -1      2642 4.59000E+01 4.09070E+01 0.00000E+00
 -1      2643 4.36500E+01 3.96080E+01 0.00000E+00
 -1      2644 4.74000E+01 4.09070E+01 0.00000E+00
 -1      2645 4.89000E+01 4.09070E+01 0.00000E+00
 -1      2646 4.66500E+01 3.96080E+01 0.00000E+00
 -1      2647 5.04000E+01 4.09070E+01 0.00000E+00
 -1      2648 5.19000E+01 4.09070E+01 0.00000E+00
 -1      2649 4.96500E+01 3.96080E+01 0.00000E+00
 -1      2650 5.34000E+01 4.09070E+01 0.00000E+00
 -1      2651 5.49000E+01 4.09070E+01 0.00000E+00
 -1      2652 5.26500E+01 3.96080E+01 0.00000E+00
 -1      2653 5.64000E+01 4.09070E+01 0.00000E+00
 -1      2654 5.79000E+01 4.09070E+01 0.00000E+00
 -1      2655 5.56500E+01 3.96080E+01 0.00000E+00
 -1      2656 5.94000E+01 4.09070E+01 0.00000E+00
 -1      2657 6.09000E+01 4.09070E+01 0.00000E+00
 -1      2658 5.86500E+01 3.96080E+01 0.00000E+00
 -1      2659 6.24000E+01 4.09070E+01 0.00000E+00
 -1      2660 6.39000E+01 4.09070E+01 0.00000E+00
 -1      2661 6.16500E+01 3.96080E+01 0.00000E+00
 -1      2662 6.54000E+01 4.09070E+01 0.00000E+00
 -1      2663 6.69000E+01 4.09070E+01 0.00000E+00
 -1      2664 6.46500E+01 3.96080E+01 0.00000E+00
 -1      2665 6.84000E+01 4.09070E+01 0.00000E+00
 -1      2666 6.99000E+01 4.09070E+01 0.00000E+00
 -1      2667 6.76500E+01 3.96080E+01 0.00000E+00
 -1      2668 7.14000E+01 4.09070E+01 0.00000E+00
 -1      2669 7.29000E+01 4.09070E+01 0.00000E+00
 -1      2670 7.06500E+01 3.96080E+01 0.00000E+00
 -1      2671 7.44000E+01 4.09070E+01 0.00000E+00
 -1      2672 7.59000E+01 4.09070E+01 0.00000E+00
 -1      2673 7.36500E+01 3.96080E+01 0.00000E+00
 -1      2674 7.74000E+01 4.09070E+01 0.00000E+00
 -1      2675 7.89000E+01 4.09070E+01 0.00000E+00
 -1      2676 7.66500E+01 3.96080E+01 0.00000E+00
 -1      2677 8.04000E+01 4.09070E+01 0.00000E+00
 -1      2678 8.19000E+01 4.09070E+01 0.00000E+00
 -1      2679 7.96500E+01 3.96080E+01 0.00000E+00
 -1      2680 8.34000E+01 4.09070E+01 0.00000E+00
 -1      2681 8.49000E+01 4.09070E+01 0.00000E+00
 -1      2682 8.26500E+01 3.96080E+01 0.00000E+00
 -1      2683 8.64000E+01 4.09070E+01 0.00000E+00
 -1      2684 8.79000E+01 4.09070E+01 0.00000E+00
 -1      2685 8.56500E+01 3.96080E+01 0.00000E+00
 -1      2686 8.94000E+01 4.09070E+01 0.00000E+00
 -1      2687 9.09000E+01 4.09070E+01 0.00000E+00
 -1      2688 8.86500E+01 3.96080E+01 0.00000E+00
 -1      2689 9.24000E+01 4.09070E+01 0.00000E+00
 -1      2690 9.39000E+01 4.09070E+01 0.00000E+00
 -1      2691 9.16500E+01 3.96080E+01 0.00000E+00
 -1      2692 9.54000E+01 4.09070E+01 0.00000E+00
 -1      2693 9.69000E+01 4.09070E+01 0.00000E+00
 -1      2694 9.46500E+01 3.96080E+01 0.00000E+00
 -1      2695 9.84000E+01 4.09070E+01 0.00000E+00
 -1      2696 9.99000E+01 4.09070E+01 0.00000E+00
 -1      2697 9.76500E+01 3.96080E+01 0.00000E+00
 -1      2698 1.01400E+02 4.09070E+01 0.00000E+00
 -1      2699 1.02900E+02 4.09070E+01 0.00000E+00
 -1      2700 1.00650E+02 3.96080E+01 0.00000E+00
 -1      2701 1.04400E+02 4.09070E+01 0.00000E+00
 -1      2702 1.05900E+02 4.09070E+01 0.00000E+00
 -1      2703 1.03650E+02 3.96080E+01 0.00000E+00
 -1      2704 1.07400E+02 4.09070E+01 0.00000E+00
 -1      2705 1.08900E+02 4.09070E+01 0.00000E+00
 -1      2706 1.06650E+02 3.96080E+01 0.00000E+00
 -1      2707 1.10400E+02 4.09070E+01 0.00000E+00
 -1      2708 1.11900E+02 4.09070E+01 0.00000E+00
 -1      2709 1.09650E+02 3.96080E+01 0.00000E+00
 -1      2710 1.13400E+02 4.09070E+01 0.00000E+00
 -1      2711 1.14900E+02 4.09070E+01 0.00000E+00
 -1      2712 1.12650E+02 3.96080E+01 0.00000E+00
 -1      2713 1.16400E+02 4.09070E+01 0.00000E+00
 -1      2714 1.17900E+02 4.09070E+01 0.00000E+00
 -1      2715 1.15650E+02 3.96080E+01 0.00000E+00
 -1      2716 1.19400E+02 4.09070E+01 0.00000E+00
 -1      2717 1.20900E+02 4.09070E+01 0.00000E+00
 -1      2718 1.18650E+02 3.96080E+01 0.00000E+00
 -1      2719 1.22400E+02 4.09070E+01 0.00000E+00
 -1      2720 1.23900E+02 4.09070E+01 0.00000E+00
 -1      2721 1.21650E+02 3.96080E+01 0.00000E+00
 -1      2722 1.25400E+02 4.09070E+01 0.00000E+00
 -1      2723 1.26900E+02 4.09070E+01 0.00000E+00
 -1      2724 1.24650E+02 3.96080E+01 0.00000E+00
 -1      2725 1.28400E+02 4.09070E+01 0.00000E+00
 -1      2726 1.29900E+02 4.09070E+01 0.00000E+00
 -1      2727 1.27650E+02 3.96080E+01 0.00000E+00
 -1      2728 1.31400E+02 4.09070E+01 0.00000E+00
 -1      2729 1.32900E+02 4.09070E+01 0.00000E+00
 -1      2730 1.30650E+02 3.96080E+01 0.00000E+00
 -1      2731 1.34400E+02 4.09070E+01 0.00000E+00
 -1      2732 1.35900E+02 4.09070E+01 0.00000E+00
 -1      2733 1.33650E+02 3.96080E+01 0.00000E+00
 -1      2734 1.37400E+02 4.09070E+01 0.00000E+00
 -1      2735 1.38900E+02 4.09070E+01 0.00000E+00
 -1      2736 1.36650E+02 3.96080E+01 0.00000E+00
 -1      2737 1.40057E+02 4.04613E+01 0.00000E+00
 -1      2738 1.41489E+02 4.04661E+01 0.00000E+00
 -1      2739 1.41622E+02 3.82708E+01 0.00000E+00
 -1      2740 1.39307E+02 3.91623E+01 0.00000E+00
 -1      2741 5.44570E+01 2.31831E+01 0.00000E+00
 -1      2742 5.32557E+01 2.30449E+01 0.00000E+00
 -1      2743 1.87500E+01 9.09300E+00 0.00000E+00
 -1      2744 1.72500E+01 9.09300E+00 0.00000E+00
 -1      2745 2.77500E+01 9.09300E+00 0.00000E+00
 -1      2746 2.62500E+01 9.09300E+00 0.00000E+00
 -1      2747 3.06000E+01 9.09300E+00 0.00000E+00
 -1      2748 2.91750E+01 9.09300E+00 0.00000E+00
 -1      2749 2.84250E+01 1.03920E+01 0.00000E+00
 -1      2750 3.36000E+01 9.09300E+00 0.00000E+00
 -1      2751 3.21000E+01 9.09300E+00 0.00000E+00
 -1      2752 3.13500E+01 1.03920E+01 0.00000E+00
 -1      2753 3.66000E+01 9.09300E+00 0.00000E+00
 -1      2754 3.51000E+01 9.09300E+00 0.00000E+00
 -1      2755 3.43500E+01 1.03920E+01 0.00000E+00
 -1      2756 3.96000E+01 9.09300E+00 0.00000E+00
 -1      2757 3.81000E+01 9.09300E+00 0.00000E+00
 -1      2758 3.73500E+01 1.03920E+01 0.00000E+00
 -1      2759 4.22330E+01 9.14853E+00 0.00000E+00
 -1      2760 4.08576E+01 9.14604E+00 0.00000E+00
 -1      2761 4.01076E+01 1.04450E+01 0.00000E+00
 -1      2762 4.26228E+01 1.05511E+01 0.00000E+00
 -1      2763 7.96875E+01 7.99750E+00 0.00000E+00
 -1      2764 7.82625E+01 7.99750E+00 0.00000E+00
 -1      2765 1.41480E+02 2.23876E+01 0.00000E+00
 -1      2766 1.41480E+02 2.09126E+01 0.00000E+00
 -1      2767 7.67625E+01 7.99750E+00 0.00000E+00
 -1      2768 7.52625E+01 7.99750E+00 0.00000E+00
 -1      2769 7.74750E+01 9.29650E+00 0.00000E+00
 -1      2770 2.47500E+01 9.09300E+00 0.00000E+00
 -1      2771 2.32500E+01 9.09300E+00 0.00000E+00
 -1      2772 2.55000E+01 1.03920E+01 0.00000E+00
 -1      2773 6.18563E+01 2.13470E+01 0.00000E+00
 -1      2774 6.09016E+01 2.19114E+01 0.00000E+00
 -1      2775 6.67525E+01 1.35182E+01 0.00000E+00
 -1      2776 6.62213E+01 1.46271E+01 0.00000E+00
 -1      2777 7.37625E+01 7.99750E+00 0.00000E+00
 -1      2778 7.22625E+01 7.99750E+00 0.00000E+00
 -1      2779 7.44750E+01 9.29650E+00 0.00000E+00
 -1      2780 8.26875E+01 7.99750E+00 0.00000E+00
 -1      2781 8.11875E+01 7.99750E+00 0.00000E+00
 -1      2782 8.04750E+01 9.29650E+00 0.00000E+00
 -1      2783 8.56875E+01 7.99750E+00 0.00000E+00
 -1      2784 8.41875E+01 7.99750E+00 0.00000E+00
 -1      2785 8.34750E+01 9.29650E+00 0.00000E+00
 -1      2786 8.86875E+01 7.99750E+00 0.00000E+00
 -1      2787 8.71875E+01 7.99750E+00 0.00000E+00
 -1      2788 8.64750E+01 9.29650E+00 0.00000E+00
 -1      2789 9.16875E+01 7.99750E+00 0.00000E+00
 -1      2790 9.01875E+01 7.99750E+00 0.00000E+00
 -1      2791 8.94750E+01 9.29650E+00 0.00000E+00
 -1      2792 9.46875E+01 7.99750E+00 0.00000E+00
 -1      2793 9.31875E+01 7.99750E+00 0.00000E+00
 -1      2794 9.24750E+01 9.29650E+00 0.00000E+00
 -1      2795 9.76875E+01 7.99750E+00 0.00000E+00
 -1      2796 9.61875E+01 7.99750E+00 0.00000E+00
 -1      2797 9.54750E+01 9.29650E+00 0.00000E+00
 -1      2798 1.00688E+02 7.99750E+00 0.00000E+00
 -1      2799 9.91875E+01 7.99750E+00 0.00000E+00
 -1      2800 9.84750E+01 9.29650E+00 0.00000E+00
 -1      2801 1.03688E+02 7.99750E+00 0.00000E+00
 -1      2802 1.02188E+02 7.99750E+00 0.00000E+00
 -1      2803 1.01475E+02 9.29650E+00 0.00000E+00
 -1      2804 1.06688E+02 7.99750E+00 0.00000E+00
 -1      2805 1.05188E+02 7.99750E+00 0.00000E+00
 -1      2806 1.04475E+02 9.29650E+00 0.00000E+00
 -1      2807 1.09688E+02 7.99750E+00 0.00000E+00
 -1      2808 1.08188E+02 7.99750E+00 0.00000E+00
 -1      2809 1.07475E+02 9.29650E+00 0.00000E+00
 -1      2810 1.12537E+02 7.99750E+00 0.00000E+00
 -1      2811 1.11113E+02 7.99750E+00 0.00000E+00
 -1      2812 1.10400E+02 9.29650E+00 0.00000E+00
 -1      2813 1.15537E+02 7.99750E+00 0.00000E+00
 -1      2814 1.14037E+02 7.99750E+00 0.00000E+00
 -1      2815 1.13325E+02 9.29650E+00 0.00000E+00
 -1      2816 1.18537E+02 7.99750E+00 0.00000E+00
 -1      2817 1.17037E+02 7.99750E+00 0.00000E+00
 -1      2818 1.16325E+02 9.29650E+00 0.00000E+00
 -1      2819 1.21537E+02 7.99750E+00 0.00000E+00
 -1      2820 1.20037E+02 7.99750E+00 0.00000E+00
 -1      2821 1.19325E+02 9.29650E+00 0.00000E+00
 -1      2822 1.24537E+02 7.99750E+00 0.00000E+00
 -1      2823 1.23037E+02 7.99750E+00 0.00000E+00
 -1      2824 1.22325E+02 9.29650E+00 0.00000E+00
 -1      2825 1.27537E+02 7.99750E+00 0.00000E+00
 -1      2826 1.26037E+02 7.99750E+00 0.00000E+00
 -1      2827 1.25325E+02 9.29650E+00 0.00000E+00
 -1      2828 1.30538E+02 7.99750E+00 0.00000E+00
 -1      2829 1.29038E+02 7.99750E+00 0.00000E+00
 -1      2830 1.28325E+02 9.29650E+00 0.00000E+00
 -1      2831 1.33538E+02 7.99750E+00 0.00000E+00
 -1      2832 1.32038E+02 7.99750E+00 0.00000E+00
 -1      2833 1.31325E+02 9.29650E+00 0.00000E+00
 -1      2834 1.36538E+02 7.99750E+00 0.00000E+00
 -1      2835 1.35038E+02 7.99750E+00 0.00000E+00
 -1      2836 1.34325E+02 9.29650E+00 0.00000E+00
 -1      2837 1.39538E+02 7.99750E+00 0.00000E+00
 -1      2838 1.38038E+02 7.99750E+00 0.00000E+00
 -1      2839 1.37325E+02 9.29650E+00 0.00000E+00
 -1      2840 1.41884E+02 7.84314E+00 0.00000E+00
 -1      2841 1.41480E+02 1.64876E+01 0.00000E+00
 -1      2842 1.41480E+02 1.50126E+01 0.00000E+00
 -1      2843 1.41480E+02 1.35376E+01 0.00000E+00
 -1      2844 1.41480E+02 1.20626E+01 0.00000E+00
 -1      2845 1.40181E+02 1.42751E+01 0.00000E+00
 -1      2846 1.41480E+02 1.94376E+01 0.00000E+00
 -1      2847 1.41480E+02 1.79626E+01 0.00000E+00
 -1      2848 1.40181E+02 2.01751E+01 0.00000E+00
 -1      2849 1.41480E+02 2.53376E+01 0.00000E+00
 -1      2850 1.41480E+02 2.38626E+01 0.00000E+00
 -1      2851 1.40181E+02 2.31251E+01 0.00000E+00
 -1      2852 1.41480E+02 2.82876E+01 0.00000E+00
 -1      2853 1.41480E+02 2.68126E+01 0.00000E+00
 -1      2854 1.40181E+02 2.60751E+01 0.00000E+00
 -1      2855 1.41480E+02 3.11876E+01 0.00000E+00
 -1      2856 1.41480E+02 2.97376E+01 0.00000E+00
 -1      2857 1.40181E+02 2.90001E+01 0.00000E+00
 -1      2858 1.41480E+02 3.41376E+01 0.00000E+00
 -1      2859 1.41480E+02 3.26626E+01 0.00000E+00
 -1      2860 1.40181E+02 3.19251E+01 0.00000E+00
 -1      2861 1.41551E+02 3.69417E+01 0.00000E+00
 -1      2862 1.41551E+02 3.54667E+01 0.00000E+00
 -1      2863 1.40252E+02 3.47292E+01 0.00000E+00
 -1      2864 1.40394E+02 3.73875E+01 0.00000E+00
 -1      2865 6.48824E+01 1.74301E+01 0.00000E+00
 -1      2866 6.43250E+01 1.85477E+01 0.00000E+00
 -1      2867 6.35169E+01 1.96965E+01 0.00000E+00
 -1      2868 6.27834E+01 2.04258E+01 0.00000E+00
 -1      2869 5.70648E+01 2.36352E+01 0.00000E+00
 -1      2870 5.57303E+01 2.35205E+01 0.00000E+00
 -1      2871 4.73559E+01 2.08960E+01 0.00000E+00
 -1      2872 4.63919E+01 1.99556E+01 0.00000E+00
 -1      2873 4.31321E+01 1.46597E+01 0.00000E+00
 -1      2874 4.28608E+01 1.34515E+01 0.00000E+00
 -1      2875 7.85850E+00 3.92077E+01 0.00000E+00
 -1      2876 6.74467E+01 1.09397E+01 0.00000E+00
 -1      2877 6.72710E+01 1.21187E+01 0.00000E+00
 -1      2878 2.17500E+01 9.09300E+00 0.00000E+00
 -1      2879 2.02500E+01 9.09300E+00 0.00000E+00
 -1      2880 2.25000E+01 1.03920E+01 0.00000E+00
 -1      2881 9.09300E+00 3.15875E+01 0.00000E+00
 -1      2882 9.09300E+00 3.30625E+01 0.00000E+00
 -1      2883 4.54404E+01 1.89933E+01 0.00000E+00
 -1      2884 4.48613E+01 1.81737E+01 0.00000E+00
 -1      2885 5.98602E+01 2.25914E+01 0.00000E+00
 -1      2886 5.88188E+01 2.32715E+01 0.00000E+00
 -1      2887 6.08592E+01 2.31917E+01 0.00000E+00
 -1      2888 5.20841E+01 2.29851E+01 0.00000E+00
 -1      2889 5.11533E+01 2.27840E+01 0.00000E+00
 -1      2890 4.42908E+01 1.71071E+01 0.00000E+00
 -1      2891 4.37203E+01 1.60404E+01 0.00000E+00
 -1      2892 4.37431E+01 1.81084E+01 0.00000E+00
 -1      2893 6.57301E+01 1.56002E+01 0.00000E+00
 -1      2894 6.53735E+01 1.64571E+01 0.00000E+00
 -1      2895 6.58623E+01 1.73986E+01 0.00000E+00
 -1      2896 6.68446E+01 1.54524E+01 0.00000E+00
 -1      2897 4.99384E+01 2.22782E+01 0.00000E+00
 -1      2898 4.87426E+01 2.17428E+01 0.00000E+00
 -1      2899 1.36973E+01 8.75900E+00 0.00000E+00
 -1      2900 1.24215E+01 8.74125E+00 0.00000E+00
 -1      2901 1.21702E+01 9.74175E+00 0.00000E+00
 -1      2902 1.03920E+01 2.49750E+01 0.00000E+00
 -1      2903 9.09300E+00 2.57000E+01 0.00000E+00
 -1      2904 9.09300E+00 2.71750E+01 0.00000E+00
 -1      2905 9.09300E+00 2.86437E+01 0.00000E+00
 -1      2906 9.09300E+00 3.01187E+01 0.00000E+00
 -1      2907 1.03920E+01 3.08563E+01 0.00000E+00
 -1      2908 1.03920E+01 2.79188E+01 0.00000E+00
 -1      2909 5.25915E+01 2.38645E+01 0.00000E+00
 -1      2910 6.86674E+01 8.59178E+00 0.00000E+00
 -1      2911 6.79174E+01 7.56665E+00 0.00000E+00
 -1      2912 6.45629E+01 1.95205E+01 0.00000E+00
 -1      2913 1.95000E+01 1.03920E+01 0.00000E+00
 -1      2914 1.40181E+02 1.72251E+01 0.00000E+00
 -1      2915 5.02049E+01 2.32989E+01 0.00000E+00
 -1      2916 6.78543E+01 1.30799E+01 0.00000E+00
 -1      2917 6.82481E+01 9.32468E+00 0.00000E+00
 -1      2918 6.78660E+01 1.02068E+01 0.00000E+00
 -1      2919 6.87921E+01 1.09475E+01 0.00000E+00
 -1      2920 6.96307E+01 9.48166E+00 0.00000E+00
 -1      2921 6.28277E+01 2.15905E+01 0.00000E+00
 -1      2922 1.61115E+01 8.93487E+00 0.00000E+00
 -1      2923 1.48357E+01 8.91712E+00 0.00000E+00
 -1      2924 1.45845E+01 9.91763E+00 0.00000E+00
 -1      2925 1.68615E+01 1.02339E+01 0.00000E+00
 -1      2926 4.78507E+01 2.29968E+01 0.00000E+00
 -1      2927 4.76033E+01 2.19464E+01 0.00000E+00
 -1      2928 4.64640E+01 2.21501E+01 0.00000E+00
 -1      2929 7.15125E+01 9.02263E+00 0.00000E+00
 -1      2930 1.41172E+02 9.14214E+00 0.00000E+00
 -1      2931 1.40802E+02 1.03108E+01 0.00000E+00
 -1      2932 5.50365E+01 2.42618E+01 0.00000E+00
 -1      2933 1.39503E+02 1.10483E+01 0.00000E+00
 -1      2934 4.52651E+01 2.01373E+01 0.00000E+00
 -1      2935 8.85168E+00 4.05347E+01 0.00000E+00
 -1      2936 1.02152E+01 4.07987E+01 0.00000E+00
 -1      2937 4.27030E+01 1.25060E+01 0.00000E+00
 -1      2938 4.27806E+01 1.14967E+01 0.00000E+00
 -1      2939 4.15230E+01 1.14436E+01 0.00000E+00
 -1      2940 4.18385E+01 1.33347E+01 0.00000E+00
 -1      2941 1.09652E+01 3.94997E+01 0.00000E+00
 -1      2942 4.25844E+01 1.56610E+01 0.00000E+00
 -1      2943 5.80638E+01 2.42355E+01 0.00000E+00
 -1      2944 5.73088E+01 2.51995E+01 0.00000E+00
 -1      2945 5.90628E+01 2.48358E+01 0.00000E+00
 -1      2946 6.64174E+01 7.29278E+00 0.00000E+00
 -1      2947 1.03920E+01 3.37938E+01 0.00000E+00
 -1      2948 9.09300E+00 3.45313E+01 0.00000E+00
 -1      2949 9.09300E+00 3.60000E+01 0.00000E+00
 -1      2950 1.19190E+01 1.07423E+01 0.00000E+00
 -1      2951 1.16678E+01 1.17428E+01 0.00000E+00
 -1      2952 1.31947E+01 1.07600E+01 0.00000E+00
 -1      2953 1.16678E+01 1.32177E+01 0.00000E+00
 -1      2954 5.31251E+01 2.49182E+01 0.00000E+00
 -1      2955 5.19534E+01 2.48583E+01 0.00000E+00
 -1      2956 1.29000E+01 3.83090E+01 0.00000E+00
 -1      2957 1.44000E+01 3.83090E+01 0.00000E+00
 -1      2958 4.20124E+01 1.67203E+01 0.00000E+00
 -1      2959 4.14243E+01 1.53395E+01 0.00000E+00
 -1      2960 6.39547E+01 2.17976E+01 0.00000E+00
 -1      2961 6.30277E+01 2.27188E+01 0.00000E+00
 -1      2962 6.57369E+01 1.94877E+01 0.00000E+00
 -1      2963 6.49288E+01 2.06365E+01 0.00000E+00
 -1      2964 1.59000E+01 3.83090E+01 0.00000E+00
 -1      2965 1.74000E+01 3.83090E+01 0.00000E+00
 -1      2966 1.51500E+01 3.70100E+01 0.00000E+00
 -1      2967 1.89000E+01 3.83090E+01 0.00000E+00
 -1      2968 2.04000E+01 3.83090E+01 0.00000E+00
 -1      2969 1.81500E+01 3.70100E+01 0.00000E+00
 -1      2970 2.19000E+01 3.83090E+01 0.00000E+00
 -1      2971 2.34000E+01 3.83090E+01 0.00000E+00
 -1      2972 2.11500E+01 3.70100E+01 0.00000E+00
 -1      2973 2.49000E+01 3.83090E+01 0.00000E+00
 -1      2974 2.64000E+01 3.83090E+01 0.00000E+00
 -1      2975 2.41500E+01 3.70100E+01 0.00000E+00
 -1      2976 2.79000E+01 3.83090E+01 0.00000E+00
 -1      2977 2.94000E+01 3.83090E+01 0.00000E+00
 -1      2978 2.71500E+01 3.70100E+01 0.00000E+00
 -1      2979 3.09000E+01 3.83090E+01 0.00000E+00
 -1      2980 3.24000E+01 3.83090E+01 0.00000E+00
 -1      2981 3.01500E+01 3.70100E+01 0.00000E+00
 -1      2982 3.39000E+01 3.83090E+01 0.00000E+00
 -1      2983 3.54000E+01 3.83090E+01 0.00000E+00
 -1      2984 3.31500E+01 3.70100E+01 0.00000E+00
 -1      2985 3.69000E+01 3.83090E+01 0.00000E+00
 -1      2986 3.84000E+01 3.83090E+01 0.00000E+00
 -1      2987 3.61500E+01 3.70100E+01 0.00000E+00
 -1      2988 3.99000E+01 3.83090E+01 0.00000E+00
 -1      2989 4.14000E+01 3.83090E+01 0.00000E+00
 -1      2990 3.91500E+01 3.70100E+01 0.00000E+00
 -1      2991 4.29000E+01 3.83090E+01 0.00000E+00
 -1      2992 4.44000E+01 3.83090E+01 0.00000E+00
 -1      2993 4.21500E+01 3.70100E+01 0.00000E+00
 -1      2994 4.59000E+01 3.83090E+01 0.00000E+00
 -1      2995 4.74000E+01 3.83090E+01 0.00000E+00
 -1      2996 4.51500E+01 3.70100E+01 0.00000E+00
 -1      2997 4.89000E+01 3.83090E+01 0.00000E+00
 -1      2998 5.04000E+01 3.83090E+01 0.00000E+00
 -1      2999 4.81500E+01 3.70100E+01 0.00000E+00
 -1      3000 5.19000E+01 3.83090E+01 0.00000E+00
 -1      3001 5.34000E+01 3.83090E+01 0.00000E+00
 -1      3002 5.11500E+01 3.70100E+01 0.00000E+00
 -1      3003 5.49000E+01 3.83090E+01 0.00000E+00
 -1      3004 5.64000E+01 3.83090E+01 0.00000E+00
 -1      3005 5.41500E+01 3.70100E+01 0.00000E+00
 -1      3006 5.79000E+01 3.83090E+01 0.00000E+00
 -1      3007 5.94000E+01 3.83090E+01 0.00000E+00
 -1      3008 5.71500E+01 3.70100E+01 0.00000E+00
 -1      3009 6.09000E+01 3.83090E+01 0.00000E+00
 -1      3010 6.24000E+01 3.83090E+01 0.00000E+00
 -1      3011 6.01500E+01 3.70100E+01 0.00000E+00
 -1      3012 6.39000E+01 3.83090E+01 0.00000E+00
 -1      3013 6.54000E+01 3.83090E+01 0.00000E+00
 -1      3014 6.31500E+01 3.70100E+01 0.00000E+00
 -1      3015 6.69000E+01 3.83090E+01 0.00000E+00
 -1      3016 6.84000E+01 3.83090E+01 0.00000E+00
 -1      3017 6.61500E+01 3.70100E+01 0.00000E+00
 -1      3018 6.99000E+01 3.83090E+01 0.00000E+00
 -1      3019 7.14000E+01 3.83090E+01 0.00000E+00
 -1      3020 6.91500E+01 3.70100E+01 0.00000E+00
 -1      3021 7.29000E+01 3.83090E+01 0.00000E+00
 -1      3022 7.44000E+01 3.83090E+01 0.00000E+00
 -1      3023 7.21500E+01 3.70100E+01 0.00000E+00
 -1      3024 7.59000E+01 3.83090E+01 0.00000E+00
 -1      3025 7.74000E+01 3.83090E+01 0.00000E+00
 -1      3026 7.51500E+01 3.70100E+01 0.00000E+00
 -1      3027 7.89000E+01 3.83090E+01 0.00000E+00
 -1      3028 8.04000E+01 3.83090E+01 0.00000E+00
 -1      3029 7.81500E+01 3.70100E+01 0.00000E+00
 -1      3030 8.19000E+01 3.83090E+01 0.00000E+00
 -1      3031 8.34000E+01 3.83090E+01 0.00000E+00
 -1      3032 8.11500E+01 3.70100E+01 0.00000E+00
 -1      3033 8.49000E+01 3.83090E+01 0.00000E+00
 -1      3034 8.64000E+01 3.83090E+01 0.00000E+00
 -1      3035 8.41500E+01 3.70100E+01 0.00000E+00
 -1      3036 8.79000E+01 3.83090E+01 0.00000E+00
 -1      3037 8.94000E+01 3.83090E+01 0.00000E+00
 -1      3038 8.71500E+01 3.70100E+01 0.00000E+00
 -1      3039 9.09000E+01 3.83090E+01 0.00000E+00
 -1      3040 9.24000E+01 3.83090E+01 0.00000E+00
 -1      3041 9.01500E+01 3.70100E+01 0.00000E+00
 -1      3042 9.39000E+01 3.83090E+01 0.00000E+00
 -1      3043 9.54000E+01 3.83090E+01 0.00000E+00
 -1      3044 9.31500E+01 3.70100E+01 0.00000E+00
 -1      3045 9.69000E+01 3.83090E+01 0.00000E+00
 -1      3046 9.84000E+01 3.83090E+01 0.00000E+00
 -1      3047 9.61500E+01 3.70100E+01 0.00000E+00
 -1      3048 9.99000E+01 3.83090E+01 0.00000E+00
 -1      3049 1.01400E+02 3.83090E+01 0.00000E+00
 -1      3050 9.91500E+01 3.70100E+01 0.00000E+00
 -1      3051 1.02900E+02 3.83090E+01 0.00000E+00
 -1      3052 1.04400E+02 3.83090E+01 0.00000E+00
 -1      3053 1.02150E+02 3.70100E+01 0.00000E+00
 -1      3054 1.05900E+02 3.83090E+01 0.00000E+00
 -1      3055 1.07400E+02 3.83090E+01 0.00000E+00
 -1      3056 1.05150E+02 3.70100E+01 0.00000E+00
 -1      3057 1.08900E+02 3.83090E+01 0.00000E+00
 -1      3058 1.10400E+02 3.83090E+01 0.00000E+00
 -1      3059 1.08150E+02 3.70100E+01 0.00000E+00
 -1      3060 1.11900E+02 3.83090E+01 0.00000E+00
 -1      3061 1.13400E+02 3.83090E+01 0.00000E+00
 -1      3062 1.11150E+02 3.70100E+01 0.00000E+00
 -1      3063 1.14900E+02 3.83090E+01 0.00000E+00
 -1      3064 1.16400E+02 3.83090E+01 0.00000E+00
 -1      3065 1.14150E+02 3.70100E+01 0.00000E+00
 -1      3066 1.17900E+02 3.83090E+01 0.00000E+00
 -1      3067 1.19400E+02 3.83090E+01 0.00000E+00
 -1      3068 1.17150E+02 3.70100E+01 0.00000E+00
 -1      3069 1.20900E+02 3.83090E+01 0.00000E+00
 -1      3070 1.22400E+02 3.83090E+01 0.00000E+00
 -1      3071 1.20150E+02 3.70100E+01 0.00000E+00
 -1      3072 1.23900E+02 3.83090E+01 0.00000E+00
 -1      3073 1.25400E+02 3.83090E+01 0.00000E+00
 -1      3074 1.23150E+02 3.70100E+01 0.00000E+00
 -1      3075 1.26900E+02 3.83090E+01 0.00000E+00
 -1      3076 1.28400E+02 3.83090E+01 0.00000E+00
 -1      3077 1.26150E+02 3.70100E+01 0.00000E+00
 -1      3078 1.29900E+02 3.83090E+01 0.00000E+00
 -1      3079 1.31400E+02 3.83090E+01 0.00000E+00
 -1      3080 1.29150E+02 3.70100E+01 0.00000E+00
 -1      3081 1.32900E+02 3.83090E+01 0.00000E+00
 -1      3082 1.34400E+02 3.83090E+01 0.00000E+00
 -1      3083 1.32150E+02 3.70100E+01 0.00000E+00
 -1      3084 1.35900E+02 3.83090E+01 0.00000E+00
 -1      3085 1.37400E+02 3.83090E+01 0.00000E+00
 -1      3086 1.35150E+02 3.70100E+01 0.00000E+00
 -1      3087 1.38318E+02 3.80711E+01 0.00000E+00
 -1      3088 1.39475E+02 3.76254E+01 0.00000E+00
 -1      3089 1.39405E+02 3.62963E+01 0.00000E+00
 -1      3090 1.37568E+02 3.67721E+01 0.00000E+00
 -1      3091 2.91375E+01 1.16910E+01 0.00000E+00
 -1      3092 2.77125E+01 1.16910E+01 0.00000E+00
 -1      3093 3.81000E+01 1.16685E+01 0.00000E+00
 -1      3094 3.66000E+01 1.16685E+01 0.00000E+00
 -1      3095 4.04403E+01 1.15826E+01 0.00000E+00
 -1      3096 3.91827E+01 1.15295E+01 0.00000E+00
 -1      3097 3.84327E+01 1.28060E+01 0.00000E+00
 -1      3098 4.05981E+01 1.25281E+01 0.00000E+00
 -1      3099 8.42250E+01 1.05955E+01 0.00000E+00
 -1      3100 8.27250E+01 1.05955E+01 0.00000E+00
 -1      3101 1.38882E+02 2.68126E+01 0.00000E+00
 -1      3102 1.38882E+02 2.53376E+01 0.00000E+00
 -1      3103 1.38882E+02 2.38626E+01 0.00000E+00
 -1      3104 1.38882E+02 2.23876E+01 0.00000E+00
 -1      3105 1.37583E+02 2.46001E+01 0.00000E+00
 -1      3106 8.12250E+01 1.05955E+01 0.00000E+00
 -1      3107 7.97250E+01 1.05955E+01 0.00000E+00
 -1      3108 8.19750E+01 1.18945E+01 0.00000E+00
 -1      3109 2.62125E+01 1.16910E+01 0.00000E+00
 -1      3110 2.47125E+01 1.16910E+01 0.00000E+00
 -1      3111 2.69250E+01 1.29900E+01 0.00000E+00
 -1      3112 8.72250E+01 1.05955E+01 0.00000E+00
 -1      3113 8.57250E+01 1.05955E+01 0.00000E+00
 -1      3114 8.49750E+01 1.18945E+01 0.00000E+00
 -1      3115 9.02250E+01 1.05955E+01 0.00000E+00
 -1      3116 8.87250E+01 1.05955E+01 0.00000E+00
 -1      3117 8.79750E+01 1.18945E+01 0.00000E+00
 -1      3118 9.32250E+01 1.05955E+01 0.00000E+00
 -1      3119 9.17250E+01 1.05955E+01 0.00000E+00
 -1      3120 9.09750E+01 1.18945E+01 0.00000E+00
 -1      3121 9.62250E+01 1.05955E+01 0.00000E+00
 -1      3122 9.47250E+01 1.05955E+01 0.00000E+00
 -1      3123 9.39750E+01 1.18945E+01 0.00000E+00
 -1      3124 9.92250E+01 1.05955E+01 0.00000E+00
 -1      3125 9.77250E+01 1.05955E+01 0.00000E+00
 -1      3126 9.69750E+01 1.18945E+01 0.00000E+00
 -1      3127 1.02225E+02 1.05955E+01 0.00000E+00
 -1      3128 1.00725E+02 1.05955E+01 0.00000E+00
 -1      3129 9.99750E+01 1.18945E+01 0.00000E+00
 -1      3130 1.05225E+02 1.05955E+01 0.00000E+00
 -1      3131 1.03725E+02 1.05955E+01 0.00000E+00
 -1      3132 1.02975E+02 1.18945E+01 0.00000E+00
 -1      3133 1.08225E+02 1.05955E+01 0.00000E+00
 -1      3134 1.06725E+02 1.05955E+01 0.00000E+00
 -1      3135 1.05975E+02 1.18945E+01 0.00000E+00
 -1      3136 1.11075E+02 1.05955E+01 0.00000E+00
 -1      3137 1.09650E+02 1.05955E+01 0.00000E+00
 -1      3138 1.08900E+02 1.18945E+01 0.00000E+00
 -1      3139 1.14075E+02 1.05955E+01 0.00000E+00
 -1      3140 1.12575E+02 1.05955E+01 0.00000E+00
 -1      3141 1.11825E+02 1.18945E+01 0.00000E+00
 -1      3142 1.17075E+02 1.05955E+01 0.00000E+00
 -1      3143 1.15575E+02 1.05955E+01 0.00000E+00
 -1      3144 1.14825E+02 1.18945E+01 0.00000E+00
 -1      3145 1.20075E+02 1.05955E+01 0.00000E+00
 -1      3146 1.18575E+02 1.05955E+01 0.00000E+00
 -1      3147 1.17825E+02 1.18945E+01 0.00000E+00
 -1      3148 1.23075E+02 1.05955E+01 0.00000E+00
 -1      3149 1.21575E+02 1.05955E+01 0.00000E+00
 -1      3150 1.20825E+02 1.18945E+01 0.00000E+00
 -1      3151 1.26075E+02 1.05955E+01 0.00000E+00
 -1      3152 1.24575E+02 1.05955E+01 0.00000E+00
 -1      3153 1.23825E+02 1.18945E+01 0.00000E+00
 -1      3154 1.29075E+02 1.05955E+01 0.00000E+00
 -1      3155 1.27575E+02 1.05955E+01 0.00000E+00
 -1      3156 1.26825E+02 1.18945E+01 0.00000E+00
 -1      3157 1.32075E+02 1.05955E+01 0.00000E+00
 -1      3158 1.30575E+02 1.05955E+01 0.00000E+00
 -1      3159 1.29825E+02 1.18945E+01 0.00000E+00
 -1      3160 1.35075E+02 1.05955E+01 0.00000E+00
 -1      3161 1.33575E+02 1.05955E+01 0.00000E+00
 -1      3162 1.32825E+02 1.18945E+01 0.00000E+00
 -1      3163 1.38039E+02 1.08219E+01 0.00000E+00
 -1      3164 1.36539E+02 1.08219E+01 0.00000E+00
 -1      3165 1.35789E+02 1.21209E+01 0.00000E+00
 -1      3166 1.38717E+02 1.25737E+01 0.00000E+00
 -1      3167 4.50119E+01 2.13392E+01 0.00000E+00
 -1      3168 4.40604E+01 2.03769E+01 0.00000E+00
 -1      3169 1.38717E+02 1.55237E+01 0.00000E+00
 -1      3170 1.38717E+02 1.40487E+01 0.00000E+00
 -1      3171 1.37253E+02 1.38223E+01 0.00000E+00
 -1      3172 4.32721E+01 1.90461E+01 0.00000E+00
 -1      3173 4.27016E+01 1.79795E+01 0.00000E+00
 -1      3174 5.03863E+01 2.45755E+01 0.00000E+00
 -1      3175 4.91713E+01 2.40698E+01 0.00000E+00
 -1      3176 1.38882E+02 2.09126E+01 0.00000E+00
 -1      3177 1.38882E+02 1.94376E+01 0.00000E+00
 -1      3178 1.37583E+02 2.16501E+01 0.00000E+00
 -1      3179 1.38882E+02 2.97126E+01 0.00000E+00
 -1      3180 1.38882E+02 2.82626E+01 0.00000E+00
 -1      3181 1.37583E+02 2.75251E+01 0.00000E+00
 -1      3182 1.38882E+02 3.26626E+01 0.00000E+00
 -1      3183 1.38882E+02 3.11876E+01 0.00000E+00
 -1      3184 1.37583E+02 3.04501E+01 0.00000E+00
 -1      3185 6.90748E+01 1.27362E+01 0.00000E+00
 -1      3186 6.85563E+01 1.41357E+01 0.00000E+00
 -1      3187 2.02500E+01 1.16910E+01 0.00000E+00
 -1      3188 1.87500E+01 1.16910E+01 0.00000E+00
 -1      3189 6.19863E+01 2.37802E+01 0.00000E+00
 -1      3190 6.09449E+01 2.44602E+01 0.00000E+00
 -1      3191 8.78718E+00 3.80644E+01 0.00000E+00
 -1      3192 2.32313E+01 1.16910E+01 0.00000E+00
 -1      3193 2.17313E+01 1.16910E+01 0.00000E+00
 -1      3194 2.09813E+01 1.29900E+01 0.00000E+00
 -1      3195 2.39438E+01 1.29900E+01 0.00000E+00
 -1      3196 7.25557E+01 1.00294E+01 0.00000E+00
 -1      3197 7.10932E+01 9.75554E+00 0.00000E+00
 -1      3198 7.06739E+01 1.04884E+01 0.00000E+00
 -1      3199 1.38799E+02 1.82182E+01 0.00000E+00
 -1      3200 1.38799E+02 1.67432E+01 0.00000E+00
 -1      3201 1.37335E+02 1.65168E+01 0.00000E+00
 -1      3202 1.37501E+02 1.89557E+01 0.00000E+00
 -1      3203 5.56716E+01 2.55931E+01 0.00000E+00
 -1      3204 5.43983E+01 2.52556E+01 0.00000E+00
 -1      3205 5.37603E+01 2.62495E+01 0.00000E+00
 -1      3206 7.55557E+01 1.00294E+01 0.00000E+00
 -1      3207 7.40557E+01 1.00294E+01 0.00000E+00
 -1      3208 7.36364E+01 1.07623E+01 0.00000E+00
 -1      3209 7.83903E+01 1.03125E+01 0.00000E+00
 -1      3210 7.68903E+01 1.03125E+01 0.00000E+00
 -1      3211 7.64710E+01 1.10454E+01 0.00000E+00
 -1      3212 7.91403E+01 1.16115E+01 0.00000E+00
 -1      3213 3.51000E+01 1.16685E+01 0.00000E+00
 -1      3214 3.36000E+01 1.16685E+01 0.00000E+00
 -1      3215 3.58500E+01 1.29450E+01 0.00000E+00
 -1      3216 3.21188E+01 1.16797E+01 0.00000E+00
 -1      3217 3.06187E+01 1.16797E+01 0.00000E+00
 -1      3218 2.99063E+01 1.29787E+01 0.00000E+00
 -1      3219 3.28688E+01 1.29562E+01 0.00000E+00
 -1      3220 1.16910E+01 2.12875E+01 0.00000E+00
 -1      3221 1.16910E+01 2.27625E+01 0.00000E+00
 -1      3222 1.00862E+01 3.73269E+01 0.00000E+00
 -1      3223 1.16910E+01 2.42375E+01 0.00000E+00
 -1      3224 1.16910E+01 2.57125E+01 0.00000E+00
 -1      3225 1.29900E+01 2.35000E+01 0.00000E+00
 -1      3226 4.02363E+01 1.53821E+01 0.00000E+00
 -1      3227 4.08082E+01 1.43228E+01 0.00000E+00
 -1      3228 6.31133E+01 2.39873E+01 0.00000E+00
 -1      3229 6.51288E+01 2.17648E+01 0.00000E+00
 -1      3230 4.55066E+01 2.34401E+01 0.00000E+00
 -1      3231 4.52592E+01 2.23897E+01 0.00000E+00
 -1      3232 4.40545E+01 2.26292E+01 0.00000E+00
 -1      3233 4.06505E+01 1.33773E+01 0.00000E+00
 -1      3234 1.76115E+01 1.15329E+01 0.00000E+00
 -1      3235 1.64730E+01 1.13748E+01 0.00000E+00
 -1      3236 1.83615E+01 1.28319E+01 0.00000E+00
 -1      3237 4.15415E+01 1.76581E+01 0.00000E+00
 -1      3238 5.66707E+01 2.61934E+01 0.00000E+00
 -1      3239 5.60326E+01 2.71873E+01 0.00000E+00
 -1      3240 5.76697E+01 2.67937E+01 0.00000E+00
 -1      3241 4.30189E+01 2.02481E+01 0.00000E+00
 -1      3242 4.80320E+01 2.42734E+01 0.00000E+00
 -1      3243 6.94444E+01 1.49507E+01 0.00000E+00
 -1      3244 6.82239E+01 1.52943E+01 0.00000E+00
 -1      3245 6.94941E+01 1.20033E+01 0.00000E+00
 -1      3246 7.01962E+01 1.30592E+01 0.00000E+00
 -1      3247 6.99134E+01 1.12704E+01 0.00000E+00
 -1      3248 1.39179E+02 3.51440E+01 0.00000E+00
 -1      3249 1.39108E+02 3.38149E+01 0.00000E+00
 -1      3250 1.37809E+02 3.30774E+01 0.00000E+00
 -1      3251 1.38261E+02 3.53819E+01 0.00000E+00
 -1      3252 1.16910E+01 1.98188E+01 0.00000E+00
 -1      3253 1.29900E+01 2.05562E+01 0.00000E+00
 -1      3254 1.16910E+01 1.83500E+01 0.00000E+00
 -1      3255 6.13168E+01 2.60127E+01 0.00000E+00
 -1      3256 6.01898E+01 2.54242E+01 0.00000E+00
 -1      3257 5.94348E+01 2.63882E+01 0.00000E+00
 -1      3258 5.09198E+01 2.56292E+01 0.00000E+00
 -1      3259 1.12710E+01 3.74352E+01 0.00000E+00
 -1      3260 1.16910E+01 3.01219E+01 0.00000E+00
 -1      3261 1.16910E+01 3.15906E+01 0.00000E+00
 -1      3262 6.70978E+01 1.74117E+01 0.00000E+00
 -1      3263 6.66066E+01 1.83848E+01 0.00000E+00
 -1      3264 6.69725E+01 1.95008E+01 0.00000E+00
 -1      3265 1.16910E+01 3.30594E+01 0.00000E+00
 -1      3266 1.16910E+01 3.45281E+01 0.00000E+00
 -1      3267 1.29900E+01 3.23250E+01 0.00000E+00
 -1      3268 1.16910E+01 1.54125E+01 0.00000E+00
 -1      3269 1.16910E+01 1.68813E+01 0.00000E+00
 -1      3270 1.29900E+01 1.76187E+01 0.00000E+00
 -1      3271 6.77327E+01 1.62674E+01 0.00000E+00
 -1      3272 1.20210E+01 3.61362E+01 0.00000E+00
 -1      3273 1.29668E+01 1.39552E+01 0.00000E+00
 -1      3274 3.96675E+01 1.64217E+01 0.00000E+00
 -1      3275 3.90515E+01 1.54050E+01 0.00000E+00
 -1      3276 1.16910E+01 2.71844E+01 0.00000E+00
 -1      3277 1.16910E+01 2.86531E+01 0.00000E+00
 -1      3278 1.29900E+01 2.93875E+01 0.00000E+00
 -1      3279 1.42541E+01 1.28441E+01 0.00000E+00
 -1      3280 1.42773E+01 1.50389E+01 0.00000E+00
 -1      3281 7.43864E+01 1.20613E+01 0.00000E+00
 -1      3282 7.28864E+01 1.20613E+01 0.00000E+00
 -1      3283 6.45451E+01 2.43507E+01 0.00000E+00
 -1      3284 6.35037E+01 2.54120E+01 0.00000E+00
 -1      3285 8.57250E+01 1.31935E+01 0.00000E+00
 -1      3286 8.42250E+01 1.31935E+01 0.00000E+00
 -1      3287 1.74000E+01 3.57110E+01 0.00000E+00
 -1      3288 1.89000E+01 3.57110E+01 0.00000E+00
 -1      3289 2.04000E+01 3.57110E+01 0.00000E+00
 -1      3290 2.19000E+01 3.57110E+01 0.00000E+00
 -1      3291 1.96500E+01 3.44120E+01 0.00000E+00
 -1      3292 2.34000E+01 3.57110E+01 0.00000E+00
 -1      3293 2.49000E+01 3.57110E+01 0.00000E+00
 -1      3294 2.26500E+01 3.44120E+01 0.00000E+00
 -1      3295 2.64000E+01 3.57110E+01 0.00000E+00
 -1      3296 2.79000E+01 3.57110E+01 0.00000E+00
 -1      3297 2.56500E+01 3.44120E+01 0.00000E+00
 -1      3298 2.94000E+01 3.57110E+01 0.00000E+00
 -1      3299 3.09000E+01 3.57110E+01 0.00000E+00
 -1      3300 2.86500E+01 3.44120E+01 0.00000E+00
 -1      3301 3.24000E+01 3.57110E+01 0.00000E+00
 -1      3302 3.39000E+01 3.57110E+01 0.00000E+00
 -1      3303 3.16500E+01 3.44120E+01 0.00000E+00
 -1      3304 3.54000E+01 3.57110E+01 0.00000E+00
 -1      3305 3.69000E+01 3.57110E+01 0.00000E+00
 -1      3306 3.46500E+01 3.44120E+01 0.00000E+00
 -1      3307 3.84000E+01 3.57110E+01 0.00000E+00
 -1      3308 3.99000E+01 3.57110E+01 0.00000E+00
 -1      3309 3.76500E+01 3.44120E+01 0.00000E+00
 -1      3310 4.14000E+01 3.57110E+01 0.00000E+00
 -1      3311 4.29000E+01 3.57110E+01 0.00000E+00
 -1      3312 4.06500E+01 3.44120E+01 0.00000E+00
 -1      3313 4.44000E+01 3.57110E+01 0.00000E+00
 -1      3314 4.59000E+01 3.57110E+01 0.00000E+00
 -1      3315 4.36500E+01 3.44120E+01 0.00000E+00
 -1      3316 4.74000E+01 3.57110E+01 0.00000E+00
 -1      3317 4.89000E+01 3.57110E+01 0.00000E+00
 -1      3318 4.66500E+01 3.44120E+01 0.00000E+00
 -1      3319 5.04000E+01 3.57110E+01 0.00000E+00
 -1      3320 5.19000E+01 3.57110E+01 0.00000E+00
 -1      3321 4.96500E+01 3.44120E+01 0.00000E+00
 -1      3322 5.34000E+01 3.57110E+01 0.00000E+00
 -1      3323 5.49000E+01 3.57110E+01 0.00000E+00
 -1      3324 5.26500E+01 3.44120E+01 0.00000E+00
 -1      3325 5.64000E+01 3.57110E+01 0.00000E+00
 -1      3326 5.79000E+01 3.57110E+01 0.00000E+00
 -1      3327 5.56500E+01 3.44120E+01 0.00000E+00
 -1      3328 5.94000E+01 3.57110E+01 0.00000E+00
 -1      3329 6.09000E+01 3.57110E+01 0.00000E+00
 -1      3330 5.86500E+01 3.44120E+01 0.00000E+00
 -1      3331 6.24000E+01 3.57110E+01 0.00000E+00
 -1      3332 6.39000E+01 3.57110E+01 0.00000E+00
 -1      3333 6.16500E+01 3.44120E+01 0.00000E+00
 -1      3334 6.54000E+01 3.57110E+01 0.00000E+00
 -1      3335 6.69000E+01 3.57110E+01 0.00000E+00
 -1      3336 6.46500E+01 3.44120E+01 0.00000E+00
 -1      3337 6.84000E+01 3.57110E+01 0.00000E+00
 -1      3338 6.99000E+01 3.57110E+01 0.00000E+00
 -1      3339 6.76500E+01 3.44120E+01 0.00000E+00
 -1      3340 7.14000E+01 3.57110E+01 0.00000E+00
 -1      3341 7.29000E+01 3.57110E+01 0.00000E+00
 -1      3342 7.06500E+01 3.44120E+01 0.00000E+00
 -1      3343 7.44000E+01 3.57110E+01 0.00000E+00
 -1      3344 7.59000E+01 3.57110E+01 0.00000E+00
 -1      3345 7.36500E+01 3.44120E+01 0.00000E+00
 -1      3346 7.74000E+01 3.57110E+01 0.00000E+00
 -1      3347 7.89000E+01 3.57110E+01 0.00000E+00
 -1      3348 7.66500E+01 3.44120E+01 0.00000E+00
 -1      3349 8.04000E+01 3.57110E+01 0.00000E+00
 -1      3350 8.19000E+01 3.57110E+01 0.00000E+00
 -1      3351 7.96500E+01 3.44120E+01 0.00000E+00
 -1      3352 8.34000E+01 3.57110E+01 0.00000E+00
 -1      3353 8.49000E+01 3.57110E+01 0.00000E+00
 -1      3354 8.26500E+01 3.44120E+01 0.00000E+00
 -1      3355 8.64000E+01 3.57110E+01 0.00000E+00
 -1      3356 8.79000E+01 3.57110E+01 0.00000E+00
 -1      3357 8.56500E+01 3.44120E+01 0.00000E+00
 -1      3358 8.94000E+01 3.57110E+01 0.00000E+00
 -1      3359 9.09000E+01 3.57110E+01 0.00000E+00
 -1      3360 8.86500E+01 3.44120E+01 0.00000E+00
 -1      3361 9.24000E+01 3.57110E+01 0.00000E+00
 -1      3362 9.39000E+01 3.57110E+01 0.00000E+00
 -1      3363 9.16500E+01 3.44120E+01 0.00000E+00
 -1      3364 9.54000E+01 3.57110E+01 0.00000E+00
 -1      3365 9.69000E+01 3.57110E+01 0.00000E+00
 -1      3366 9.46500E+01 3.44120E+01 0.00000E+00
 -1      3367 9.84000E+01 3.57110E+01 0.00000E+00
 -1      3368 9.99000E+01 3.57110E+01 0.00000E+00
 -1      3369 9.76500E+01 3.44120E+01 0.00000E+00
 -1      3370 1.01400E+02 3.57110E+01 0.00000E+00
 -1      3371 1.02900E+02 3.57110E+01 0.00000E+00
 -1      3372 1.00650E+02 3.44120E+01 0.00000E+00
 -1      3373 1.04400E+02 3.57110E+01 0.00000E+00
 -1      3374 1.05900E+02 3.57110E+01 0.00000E+00
 -1      3375 1.03650E+02 3.44120E+01 0.00000E+00
 -1      3376 1.07400E+02 3.57110E+01 0.00000E+00
 -1      3377 1.08900E+02 3.57110E+01 0.00000E+00
 -1      3378 1.06650E+02 3.44120E+01 0.00000E+00
 -1      3379 1.10400E+02 3.57110E+01 0.00000E+00
 -1      3380 1.11900E+02 3.57110E+01 0.00000E+00
 -1      3381 1.09650E+02 3.44120E+01 0.00000E+00
 -1      3382 1.13400E+02 3.57110E+01 0.00000E+00
 -1      3383 1.14900E+02 3.57110E+01 0.00000E+00
 -1      3384 1.12650E+02 3.44120E+01 0.00000E+00
 -1      3385 1.16400E+02 3.57110E+01 0.00000E+00
 -1      3386 1.17900E+02 3.57110E+01 0.00000E+00
 -1      3387 1.15650E+02 3.44120E+01 0.00000E+00
 -1      3388 1.19400E+02 3.57110E+01 0.00000E+00
 -1      3389 1.20900E+02 3.57110E+01 0.00000E+00
 -1      3390 1.18650E+02 3.44120E+01 0.00000E+00
 -1      3391 1.22400E+02 3.57110E+01 0.00000E+00
 -1      3392 1.23900E+02 3.57110E+01 0.00000E+00
 -1      3393 1.21650E+02 3.44120E+01 0.00000E+00
 -1      3394 1.25400E+02 3.57110E+01 0.00000E+00
 -1      3395 1.26900E+02 3.57110E+01 0.00000E+00
 -1      3396 1.24650E+02 3.44120E+01 0.00000E+00
 -1      3397 1.28400E+02 3.57110E+01 0.00000E+00
 -1      3398 1.29900E+02 3.57110E+01 0.00000E+00
 -1      3399 1.27650E+02 3.44120E+01 0.00000E+00
 -1      3400 1.31400E+02 3.57110E+01 0.00000E+00
 -1      3401 1.32900E+02 3.57110E+01 0.00000E+00
 -1      3402 1.30650E+02 3.44120E+01 0.00000E+00
 -1      3403 8.87250E+01 1.31935E+01 0.00000E+00
 -1      3404 8.72250E+01 1.31935E+01 0.00000E+00
 -1      3405 8.64750E+01 1.44925E+01 0.00000E+00
 -1      3406 1.36284E+02 3.11876E+01 0.00000E+00
 -1      3407 1.36284E+02 2.97126E+01 0.00000E+00
 -1      3408 1.36284E+02 2.53376E+01 0.00000E+00
 -1      3409 1.36284E+02 2.38626E+01 0.00000E+00
 -1      3410 1.36284E+02 2.82501E+01 0.00000E+00
 -1      3411 1.36284E+02 2.68001E+01 0.00000E+00
 -1      3412 1.34985E+02 2.60626E+01 0.00000E+00
 -1      3413 1.34985E+02 2.89876E+01 0.00000E+00
 -1      3414 8.27250E+01 1.31935E+01 0.00000E+00
 -1      3415 8.12250E+01 1.31935E+01 0.00000E+00
 -1      3416 8.34750E+01 1.44925E+01 0.00000E+00
 -1      3417 2.76750E+01 1.42890E+01 0.00000E+00
 -1      3418 2.61750E+01 1.42890E+01 0.00000E+00
 -1      3419 9.17250E+01 1.31935E+01 0.00000E+00
 -1      3420 9.02250E+01 1.31935E+01 0.00000E+00
 -1      3421 8.94750E+01 1.44925E+01 0.00000E+00
 -1      3422 9.47250E+01 1.31935E+01 0.00000E+00
 -1      3423 9.32250E+01 1.31935E+01 0.00000E+00
 -1      3424 9.24750E+01 1.44925E+01 0.00000E+00
 -1      3425 9.77250E+01 1.31935E+01 0.00000E+00
 -1      3426 9.62250E+01 1.31935E+01 0.00000E+00
 -1      3427 9.54750E+01 1.44925E+01 0.00000E+00
 -1      3428 1.00725E+02 1.31935E+01 0.00000E+00
 -1      3429 9.92250E+01 1.31935E+01 0.00000E+00
 -1      3430 9.84750E+01 1.44925E+01 0.00000E+00
 -1      3431 1.03725E+02 1.31935E+01 0.00000E+00
 -1      3432 1.02225E+02 1.31935E+01 0.00000E+00
 -1      3433 1.01475E+02 1.44925E+01 0.00000E+00
 -1      3434 1.06725E+02 1.31935E+01 0.00000E+00
 -1      3435 1.05225E+02 1.31935E+01 0.00000E+00
 -1      3436 1.04475E+02 1.44925E+01 0.00000E+00
 -1      3437 1.09575E+02 1.31935E+01 0.00000E+00
 -1      3438 1.08150E+02 1.31935E+01 0.00000E+00
 -1      3439 1.07400E+02 1.44925E+01 0.00000E+00
 -1      3440 1.12575E+02 1.31935E+01 0.00000E+00
 -1      3441 1.11075E+02 1.31935E+01 0.00000E+00
 -1      3442 1.10325E+02 1.44925E+01 0.00000E+00
 -1      3443 1.15575E+02 1.31935E+01 0.00000E+00
 -1      3444 1.14075E+02 1.31935E+01 0.00000E+00
 -1      3445 1.13325E+02 1.44925E+01 0.00000E+00
 -1      3446 1.18575E+02 1.31935E+01 0.00000E+00
 -1      3447 1.17075E+02 1.31935E+01 0.00000E+00
 -1      3448 1.16325E+02 1.44925E+01 0.00000E+00
 -1      3449 1.21575E+02 1.31935E+01 0.00000E+00
 -1      3450 1.20075E+02 1.31935E+01 0.00000E+00
 -1      3451 1.19325E+02 1.44925E+01 0.00000E+00
 -1      3452 1.24575E+02 1.31935E+01 0.00000E+00
 -1      3453 1.23075E+02 1.31935E+01 0.00000E+00
 -1      3454 1.22325E+02 1.44925E+01 0.00000E+00
 -1      3455 1.27575E+02 1.31935E+01 0.00000E+00
 -1      3456 1.26075E+02 1.31935E+01 0.00000E+00
 -1      3457 1.25325E+02 1.44925E+01 0.00000E+00
 -1      3458 1.30575E+02 1.31935E+01 0.00000E+00
 -1      3459 1.29075E+02 1.31935E+01 0.00000E+00
 -1      3460 1.28325E+02 1.44925E+01 0.00000E+00
 -1      3461 1.33575E+02 1.31935E+01 0.00000E+00
 -1      3462 1.32075E+02 1.31935E+01 0.00000E+00
 -1      3463 1.31325E+02 1.44925E+01 0.00000E+00
 -1      3464 1.36146E+02 1.36211E+01 0.00000E+00
 -1      3465 1.34682E+02 1.33947E+01 0.00000E+00
 -1      3466 1.33932E+02 1.46937E+01 0.00000E+00
 -1      3467 1.36146E+02 1.50961E+01 0.00000E+00
 -1      3468 3.95678E+01 1.35162E+01 0.00000E+00
 -1      3469 6.64932E+01 2.20284E+01 0.00000E+00
 -1      3470 6.55192E+01 2.31895E+01 0.00000E+00
 -1      3471 6.59096E+01 2.46142E+01 0.00000E+00
 -1      3472 7.08592E+01 1.47297E+01 0.00000E+00
 -1      3473 7.05268E+01 1.58883E+01 0.00000E+00
 -1      3474 5.40913E+01 2.75711E+01 0.00000E+00
 -1      3475 5.28181E+01 2.72337E+01 0.00000E+00
 -1      3476 1.36284E+02 2.23876E+01 0.00000E+00
 -1      3477 1.36284E+02 2.09126E+01 0.00000E+00
 -1      3478 1.34985E+02 2.31251E+01 0.00000E+00
 -1      3479 6.84771E+01 1.72536E+01 0.00000E+00
 -1      3480 4.10459E+01 1.89402E+01 0.00000E+00
 -1      3481 4.03567E+01 1.76809E+01 0.00000E+00
 -1      3482 3.91720E+01 1.77038E+01 0.00000E+00
 -1      3483 1.43333E+01 1.09181E+01 0.00000E+00
 -1      3484 4.78732E+01 2.58181E+01 0.00000E+00
 -1      3485 4.65525E+01 2.47452E+01 0.00000E+00
 -1      3486 7.13759E+01 1.15443E+01 0.00000E+00
 -1      3487 5.12509E+01 2.69509E+01 0.00000E+00
 -1      3488 4.96837E+01 2.66680E+01 0.00000E+00
 -1      3489 5.15820E+01 2.82725E+01 0.00000E+00
 -1      3490 3.66000E+01 1.42440E+01 0.00000E+00
 -1      3491 3.51000E+01 1.42440E+01 0.00000E+00
 -1      3492 6.82781E+01 1.96360E+01 0.00000E+00
 -1      3493 6.74084E+01 2.07389E+01 0.00000E+00
 -1      3494 4.24589E+01 2.14786E+01 0.00000E+00
 -1      3495 4.16707E+01 2.01478E+01 0.00000E+00
 -1      3496 1.33200E+01 3.54019E+01 0.00000E+00
 -1      3497 6.98919E+01 1.70326E+01 0.00000E+00
 -1      3498 6.92570E+01 1.81769E+01 0.00000E+00
 -1      3499 7.13067E+01 1.68116E+01 0.00000E+00
 -1      3500 1.42890E+01 2.86531E+01 0.00000E+00
 -1      3501 1.42890E+01 3.01219E+01 0.00000E+00
 -1      3502 1.29900E+01 2.64469E+01 0.00000E+00
 -1      3503 7.21259E+01 1.28433E+01 0.00000E+00
 -1      3504 6.41805E+01 2.67394E+01 0.00000E+00
 -1      3505 6.27487E+01 2.63760E+01 0.00000E+00
 -1      3506 6.19936E+01 2.73400E+01 0.00000E+00
 -1      3507 1.42890E+01 1.98219E+01 0.00000E+00
 -1      3508 1.42890E+01 2.12906E+01 0.00000E+00
 -1      3509 2.54438E+01 1.55880E+01 0.00000E+00
 -1      3510 2.46938E+01 1.42890E+01 0.00000E+00
 -1      3511 2.32125E+01 1.42890E+01 0.00000E+00
 -1      3512 4.53478E+01 2.49847E+01 0.00000E+00
 -1      3513 1.34400E+02 3.57110E+01 0.00000E+00
 -1      3514 1.35900E+02 3.57110E+01 0.00000E+00
 -1      3515 1.37342E+02 3.56198E+01 0.00000E+00
 -1      3516 1.36367E+02 3.31686E+01 0.00000E+00
 -1      3517 1.35068E+02 3.24311E+01 0.00000E+00
 -1      3518 3.06375E+01 1.42665E+01 0.00000E+00
 -1      3519 2.91563E+01 1.42777E+01 0.00000E+00
 -1      3520 2.84063E+01 1.55767E+01 0.00000E+00
 -1      3521 3.84851E+01 1.36552E+01 0.00000E+00
 -1      3522 1.87520E+01 1.41976E+01 0.00000E+00
 -1      3523 1.76135E+01 1.40395E+01 0.00000E+00
 -1      3524 3.77351E+01 1.49542E+01 0.00000E+00
 -1      3525 1.33650E+02 3.44120E+01 0.00000E+00
 -1      3526 1.36592E+02 3.43208E+01 0.00000E+00
 -1      3527 3.71664E+01 1.59938E+01 0.00000E+00
 -1      3528 1.36311E+02 1.75350E+01 0.00000E+00
 -1      3529 1.36229E+02 1.63156E+01 0.00000E+00
 -1      3530 1.35122E+02 1.61144E+01 0.00000E+00
 -1      3531 5.50904E+01 2.81714E+01 0.00000E+00
 -1      3532 5.41482E+01 2.91556E+01 0.00000E+00
 -1      3533 5.60894E+01 2.87717E+01 0.00000E+00
 -1      3534 6.77988E+01 2.21636E+01 0.00000E+00
 -1      3535 5.87967E+01 2.73821E+01 0.00000E+00
 -1      3536 5.81586E+01 2.83760E+01 0.00000E+00
 -1      3537 5.99237E+01 2.79706E+01 0.00000E+00
 -1      3538 4.82043E+01 2.71397E+01 0.00000E+00
 -1      3539 7.70557E+01 1.26274E+01 0.00000E+00
 -1      3540 7.57210E+01 1.23444E+01 0.00000E+00
 -1      3541 7.49710E+01 1.36434E+01 0.00000E+00
 -1      3542 3.43688E+01 1.55542E+01 0.00000E+00
 -1      3543 3.36188E+01 1.42552E+01 0.00000E+00
 -1      3544 3.21375E+01 1.42665E+01 0.00000E+00
 -1      3545 4.27063E+01 2.25290E+01 0.00000E+00
 -1      3546 4.13581E+01 2.24287E+01 0.00000E+00
 -1      3547 4.29537E+01 2.35794E+01 0.00000E+00
 -1      3548 4.04859E+01 2.01707E+01 0.00000E+00
 -1      3549 6.96929E+01 1.94150E+01 0.00000E+00
 -1      3550 1.55880E+01 2.20313E+01 0.00000E+00
 -1      3551 1.42890E+01 2.27656E+01 0.00000E+00
 -1      3552 1.42890E+01 2.42406E+01 0.00000E+00
 -1      3553 8.04750E+01 1.44925E+01 0.00000E+00
 -1      3554 7.97250E+01 1.31935E+01 0.00000E+00
 -1      3555 7.83904E+01 1.29105E+01 0.00000E+00
 -1      3556 1.36339E+02 1.98335E+01 0.00000E+00
 -1      3557 1.36256E+02 1.86141E+01 0.00000E+00
 -1      3558 1.35149E+02 1.84129E+01 0.00000E+00
 -1      3559 1.35040E+02 2.05710E+01 0.00000E+00
 -1      3560 2.17313E+01 1.42890E+01 0.00000E+00
 -1      3561 2.02500E+01 1.42890E+01 0.00000E+00
 -1      3562 2.24813E+01 1.55880E+01 0.00000E+00
 -1      3563 1.44000E+01 3.57110E+01 0.00000E+00
 -1      3564 1.59000E+01 3.57110E+01 0.00000E+00
 -1      3565 1.40700E+01 3.41029E+01 0.00000E+00
 -1      3566 1.56438E+01 1.20017E+01 0.00000E+00
 -1      3567 1.42890E+01 1.68844E+01 0.00000E+00
 -1      3568 1.42890E+01 1.83531E+01 0.00000E+00
 -1      3569 1.55880E+01 1.90875E+01 0.00000E+00
 -1      3570 1.66500E+01 3.44120E+01 0.00000E+00
 -1      3571 1.95020E+01 1.54966E+01 0.00000E+00
 -1      3572 1.55763E+01 1.57732E+01 0.00000E+00
 -1      3573 1.42890E+01 2.57109E+01 0.00000E+00
 -1      3574 1.42890E+01 2.71828E+01 0.00000E+00
 -1      3575 1.55880E+01 2.79172E+01 0.00000E+00
 -1      3576 1.55880E+01 2.49766E+01 0.00000E+00
 -1      3577 1.68870E+01 1.83531E+01 0.00000E+00
 -1      3578 1.68870E+01 1.98219E+01 0.00000E+00
 -1      3579 1.59000E+01 3.31130E+01 0.00000E+00
 -1      3580 1.74000E+01 3.31130E+01 0.00000E+00
 -1      3581 3.74110E+01 1.74268E+01 0.00000E+00
 -1      3582 3.60946E+01 1.69760E+01 0.00000E+00
 -1      3583 8.72250E+01 1.57915E+01 0.00000E+00
 -1      3584 8.57250E+01 1.57915E+01 0.00000E+00
 -1      3585 2.19000E+01 3.31130E+01 0.00000E+00
 -1      3586 2.34000E+01 3.31130E+01 0.00000E+00
 -1      3587 2.49000E+01 3.31130E+01 0.00000E+00
 -1      3588 2.64000E+01 3.31130E+01 0.00000E+00
 -1      3589 2.41500E+01 3.18140E+01 0.00000E+00
 -1      3590 2.79000E+01 3.31130E+01 0.00000E+00
 -1      3591 2.94000E+01 3.31130E+01 0.00000E+00
 -1      3592 2.71500E+01 3.18140E+01 0.00000E+00
 -1      3593 3.09000E+01 3.31130E+01 0.00000E+00
 -1      3594 3.24000E+01 3.31130E+01 0.00000E+00
 -1      3595 3.01500E+01 3.18140E+01 0.00000E+00
 -1      3596 3.39000E+01 3.31130E+01 0.00000E+00
 -1      3597 3.54000E+01 3.31130E+01 0.00000E+00
 -1      3598 3.31500E+01 3.18140E+01 0.00000E+00
 -1      3599 3.69000E+01 3.31130E+01 0.00000E+00
 -1      3600 3.84000E+01 3.31130E+01 0.00000E+00
 -1      3601 3.61500E+01 3.18140E+01 0.00000E+00
 -1      3602 3.99000E+01 3.31130E+01 0.00000E+00
 -1      3603 4.14000E+01 3.31130E+01 0.00000E+00
 -1      3604 3.91500E+01 3.18140E+01 0.00000E+00
 -1      3605 4.29000E+01 3.31130E+01 0.00000E+00
 -1      3606 4.44000E+01 3.31130E+01 0.00000E+00
 -1      3607 4.21500E+01 3.18140E+01 0.00000E+00
 -1      3608 4.59000E+01 3.31130E+01 0.00000E+00
 -1      3609 4.74000E+01 3.31130E+01 0.00000E+00
 -1      3610 4.51500E+01 3.18140E+01 0.00000E+00
 -1      3611 4.89000E+01 3.31130E+01 0.00000E+00
 -1      3612 5.04000E+01 3.31130E+01 0.00000E+00
 -1      3613 4.81500E+01 3.18140E+01 0.00000E+00
 -1      3614 5.19000E+01 3.31130E+01 0.00000E+00
 -1      3615 5.34000E+01 3.31130E+01 0.00000E+00
 -1      3616 5.11500E+01 3.18140E+01 0.00000E+00
 -1      3617 5.46486E+01 3.20839E+01 0.00000E+00
 -1      3618 5.61486E+01 3.20839E+01 0.00000E+00
 -1      3619 6.09000E+01 3.31130E+01 0.00000E+00
 -1      3620 6.24000E+01 3.31130E+01 0.00000E+00
 -1      3621 6.39000E+01 3.31130E+01 0.00000E+00
 -1      3622 6.54000E+01 3.31130E+01 0.00000E+00
 -1      3623 6.31500E+01 3.18140E+01 0.00000E+00
 -1      3624 6.69000E+01 3.31130E+01 0.00000E+00
 -1      3625 6.84000E+01 3.31130E+01 0.00000E+00
 -1      3626 6.61500E+01 3.18140E+01 0.00000E+00
 -1      3627 6.99000E+01 3.31130E+01 0.00000E+00
 -1      3628 7.14000E+01 3.31130E+01 0.00000E+00
 -1      3629 6.91500E+01 3.18140E+01 0.00000E+00
 -1      3630 7.29000E+01 3.31130E+01 0.00000E+00
 -1      3631 7.44000E+01 3.31130E+01 0.00000E+00
 -1      3632 7.21500E+01 3.18140E+01 0.00000E+00
 -1      3633 7.59000E+01 3.31130E+01 0.00000E+00
 -1      3634 7.74000E+01 3.31130E+01 0.00000E+00
 -1      3635 7.51500E+01 3.18140E+01 0.00000E+00
 -1      3636 7.89000E+01 3.31130E+01 0.00000E+00
 -1      3637 8.04000E+01 3.31130E+01 0.00000E+00
 -1      3638 7.81500E+01 3.18140E+01 0.00000E+00
 -1      3639 8.19000E+01 3.31130E+01 0.00000E+00
 -1      3640 8.34000E+01 3.31130E+01 0.00000E+00
 -1      3641 8.11500E+01 3.18140E+01 0.00000E+00
 -1      3642 8.49000E+01 3.31130E+01 0.00000E+00
 -1      3643 8.64000E+01 3.31130E+01 0.00000E+00
 -1      3644 8.41500E+01 3.18140E+01 0.00000E+00
 -1      3645 8.79000E+01 3.31130E+01 0.00000E+00
 -1      3646 8.94000E+01 3.31130E+01 0.00000E+00
 -1      3647 8.71500E+01 3.18140E+01 0.00000E+00
 -1      3648 9.09000E+01 3.31130E+01 0.00000E+00
 -1      3649 9.24000E+01 3.31130E+01 0.00000E+00
 -1      3650 9.01500E+01 3.18140E+01 0.00000E+00
 -1      3651 9.39000E+01 3.31130E+01 0.00000E+00
 -1      3652 9.54000E+01 3.31130E+01 0.00000E+00
 -1      3653 9.31500E+01 3.18140E+01 0.00000E+00
 -1      3654 9.69000E+01 3.31130E+01 0.00000E+00
 -1      3655 9.84000E+01 3.31130E+01 0.00000E+00
 -1      3656 9.61500E+01 3.18140E+01 0.00000E+00
 -1      3657 9.99000E+01 3.31130E+01 0.00000E+00
 -1      3658 1.01400E+02 3.31130E+01 0.00000E+00
 -1      3659 9.91500E+01 3.18140E+01 0.00000E+00
 -1      3660 1.02900E+02 3.31130E+01 0.00000E+00
 -1      3661 1.04400E+02 3.31130E+01 0.00000E+00
 -1      3662 1.02150E+02 3.18140E+01 0.00000E+00
 -1      3663 1.05900E+02 3.31130E+01 0.00000E+00
 -1      3664 1.07400E+02 3.31130E+01 0.00000E+00
 -1      3665 1.05150E+02 3.18140E+01 0.00000E+00
 -1      3666 1.08900E+02 3.31130E+01 0.00000E+00
 -1      3667 1.10400E+02 3.31130E+01 0.00000E+00
 -1      3668 1.08150E+02 3.18140E+01 0.00000E+00
 -1      3669 1.11900E+02 3.31130E+01 0.00000E+00
 -1      3670 1.13400E+02 3.31130E+01 0.00000E+00
 -1      3671 1.11150E+02 3.18140E+01 0.00000E+00
 -1      3672 1.14900E+02 3.31130E+01 0.00000E+00
 -1      3673 1.16400E+02 3.31130E+01 0.00000E+00
 -1      3674 1.14150E+02 3.18140E+01 0.00000E+00
 -1      3675 1.17900E+02 3.31130E+01 0.00000E+00
 -1      3676 1.19400E+02 3.31130E+01 0.00000E+00
 -1      3677 1.17150E+02 3.18140E+01 0.00000E+00
 -1      3678 1.20900E+02 3.31130E+01 0.00000E+00
 -1      3679 1.22400E+02 3.31130E+01 0.00000E+00
 -1      3680 1.20150E+02 3.18140E+01 0.00000E+00
 -1      3681 1.23900E+02 3.31130E+01 0.00000E+00
 -1      3682 1.25400E+02 3.31130E+01 0.00000E+00
 -1      3683 1.23150E+02 3.18140E+01 0.00000E+00
 -1      3684 1.26900E+02 3.31130E+01 0.00000E+00
 -1      3685 1.28400E+02 3.31130E+01 0.00000E+00
 -1      3686 1.26150E+02 3.18140E+01 0.00000E+00
 -1      3687 1.29900E+02 3.31130E+01 0.00000E+00
 -1      3688 1.31400E+02 3.31130E+01 0.00000E+00
 -1      3689 1.29150E+02 3.18140E+01 0.00000E+00
 -1      3690 9.32250E+01 1.57915E+01 0.00000E+00
 -1      3691 9.17250E+01 1.57915E+01 0.00000E+00
 -1      3692 9.62250E+01 1.57915E+01 0.00000E+00
 -1      3693 9.47250E+01 1.57915E+01 0.00000E+00
 -1      3694 9.39750E+01 1.70905E+01 0.00000E+00
 -1      3695 9.02250E+01 1.57915E+01 0.00000E+00
 -1      3696 8.87250E+01 1.57915E+01 0.00000E+00
 -1      3697 8.79750E+01 1.70905E+01 0.00000E+00
 -1      3698 9.09750E+01 1.70905E+01 0.00000E+00
 -1      3699 9.92250E+01 1.57915E+01 0.00000E+00
 -1      3700 9.77250E+01 1.57915E+01 0.00000E+00
 -1      3701 9.69750E+01 1.70905E+01 0.00000E+00
 -1      3702 8.42250E+01 1.57915E+01 0.00000E+00
 -1      3703 8.27250E+01 1.57915E+01 0.00000E+00
 -1      3704 8.49750E+01 1.70905E+01 0.00000E+00
 -1      3705 1.02225E+02 1.57915E+01 0.00000E+00
 -1      3706 1.00725E+02 1.57915E+01 0.00000E+00
 -1      3707 9.99750E+01 1.70905E+01 0.00000E+00
 -1      3708 1.05225E+02 1.57915E+01 0.00000E+00
 -1      3709 1.03725E+02 1.57915E+01 0.00000E+00
 -1      3710 1.02975E+02 1.70905E+01 0.00000E+00
 -1      3711 1.08075E+02 1.57915E+01 0.00000E+00
 -1      3712 1.06650E+02 1.57915E+01 0.00000E+00
 -1      3713 1.05900E+02 1.70905E+01 0.00000E+00
 -1      3714 1.11075E+02 1.57915E+01 0.00000E+00
 -1      3715 1.09575E+02 1.57915E+01 0.00000E+00
 -1      3716 1.08825E+02 1.70905E+01 0.00000E+00
 -1      3717 1.14075E+02 1.57915E+01 0.00000E+00
 -1      3718 1.12575E+02 1.57915E+01 0.00000E+00
 -1      3719 1.11825E+02 1.70905E+01 0.00000E+00
 -1      3720 1.17075E+02 1.57915E+01 0.00000E+00
 -1      3721 1.15575E+02 1.57915E+01 0.00000E+00
 -1      3722 1.14825E+02 1.70905E+01 0.00000E+00
 -1      3723 1.20075E+02 1.57915E+01 0.00000E+00
 -1      3724 1.18575E+02 1.57915E+01 0.00000E+00
 -1      3725 1.17825E+02 1.70905E+01 0.00000E+00
 -1      3726 1.23075E+02 1.57915E+01 0.00000E+00
 -1      3727 1.21575E+02 1.57915E+01 0.00000E+00
 -1      3728 1.20825E+02 1.70905E+01 0.00000E+00
 -1      3729 1.26075E+02 1.57915E+01 0.00000E+00
 -1      3730 1.24575E+02 1.57915E+01 0.00000E+00
 -1      3731 1.23825E+02 1.70905E+01 0.00000E+00
 -1      3732 1.29075E+02 1.57915E+01 0.00000E+00
 -1      3733 1.27575E+02 1.57915E+01 0.00000E+00
 -1      3734 1.26825E+02 1.70905E+01 0.00000E+00
 -1      3735 1.32075E+02 1.57915E+01 0.00000E+00
 -1      3736 1.30575E+02 1.57915E+01 0.00000E+00
 -1      3737 1.29825E+02 1.70905E+01 0.00000E+00
 -1      3738 1.34152E+02 1.60535E+01 0.00000E+00
 -1      3739 1.33045E+02 1.58523E+01 0.00000E+00
 -1      3740 1.32295E+02 1.71513E+01 0.00000E+00
 -1      3741 1.34234E+02 1.72730E+01 0.00000E+00
 -1      3742 1.33686E+02 2.38626E+01 0.00000E+00
 -1      3743 1.33686E+02 2.23876E+01 0.00000E+00
 -1      3744 1.89000E+01 3.31130E+01 0.00000E+00
 -1      3745 2.04000E+01 3.31130E+01 0.00000E+00
 -1      3746 2.11500E+01 3.18140E+01 0.00000E+00
 -1      3747 7.17066E+01 1.35762E+01 0.00000E+00
 -1      3748 7.27890E+01 1.45138E+01 0.00000E+00
 -1      3749 1.63938E+01 1.33007E+01 0.00000E+00
 -1      3750 1.33568E+02 3.24311E+01 0.00000E+00
 -1      3751 2.01719E+01 1.68389E+01 0.00000E+00
 -1      3752 1.86739E+01 1.67475E+01 0.00000E+00
 -1      3753 8.12250E+01 1.57915E+01 0.00000E+00
 -1      3754 7.97251E+01 1.57915E+01 0.00000E+00
 -1      3755 8.19750E+01 1.70905E+01 0.00000E+00
 -1      3756 7.76404E+01 1.42095E+01 0.00000E+00
 -1      3757 4.48747E+01 2.64356E+01 0.00000E+00
 -1      3758 4.38288E+01 2.51305E+01 0.00000E+00
 -1      3759 5.13996E+01 3.01847E+01 0.00000E+00
 -1      3760 4.98324E+01 2.99018E+01 0.00000E+00
 -1      3761 3.81002E+01 1.86860E+01 0.00000E+00
 -1      3762 6.73745E+01 2.48540E+01 0.00000E+00
 -1      3763 6.64005E+01 2.60152E+01 0.00000E+00
 -1      3764 4.82588E+01 2.85936E+01 0.00000E+00
 -1      3765 4.64483E+01 2.77437E+01 0.00000E+00
 -1      3766 4.49293E+01 2.78895E+01 0.00000E+00
 -1      3767 4.80764E+01 3.05058E+01 0.00000E+00
 -1      3768 1.32818E+02 3.11321E+01 0.00000E+00
 -1      3769 7.11728E+01 1.93500E+01 0.00000E+00
 -1      3770 7.01939E+01 2.08091E+01 0.00000E+00
 -1      3771 1.48200E+01 3.13351E+01 0.00000E+00
 -1      3772 1.48200E+01 3.28039E+01 0.00000E+00
 -1      3773 3.98134E+01 2.12840E+01 0.00000E+00
 -1      3774 3.91886E+01 2.00764E+01 0.00000E+00
 -1      3775 1.61190E+01 3.06007E+01 0.00000E+00
 -1      3776 6.93157E+01 2.22707E+01 0.00000E+00
 -1      3777 6.84005E+01 2.35602E+01 0.00000E+00
 -1      3778 7.27601E+01 1.68696E+01 0.00000E+00
 -1      3779 7.21252E+01 1.80140E+01 0.00000E+00
 -1      3780 7.42892E+01 1.46798E+01 0.00000E+00
 -1      3781 7.34419E+01 1.58332E+01 0.00000E+00
 -1      3782 7.42603E+01 1.70356E+01 0.00000E+00
 -1      3783 7.56239E+01 1.49628E+01 0.00000E+00
 -1      3784 1.81500E+01 3.18140E+01 0.00000E+00
 -1      3785 1.67844E+01 1.46665E+01 0.00000E+00
 -1      3786 1.70880E+01 2.93875E+01 0.00000E+00
 -1      3787 1.76190E+01 3.06007E+01 0.00000E+00
 -1      3788 1.91190E+01 3.06007E+01 0.00000E+00
 -1      3789 1.67960E+01 1.65120E+01 0.00000E+00
 -1      3790 2.61844E+01 1.68870E+01 0.00000E+00
 -1      3791 2.47031E+01 1.68870E+01 0.00000E+00
 -1      3792 6.56455E+01 2.69792E+01 0.00000E+00
 -1      3793 6.48904E+01 2.79432E+01 0.00000E+00
 -1      3794 6.71104E+01 2.72190E+01 0.00000E+00
 -1      3795 3.48580E+01 1.84203E+01 0.00000E+00
 -1      3796 3.46134E+01 1.69873E+01 0.00000E+00
 -1      3797 3.31321E+01 1.69985E+01 0.00000E+00
 -1      3798 3.13875E+01 1.55655E+01 0.00000E+00
 -1      3799 5.38986E+01 3.07849E+01 0.00000E+00
 -1      3800 5.68690E+01 3.04278E+01 0.00000E+00
 -1      3801 5.78704E+01 3.27559E+01 0.00000E+00
 -1      3802 5.93704E+01 3.27559E+01 0.00000E+00
 -1      3803 5.78112E+01 2.94436E+01 0.00000E+00
 -1      3804 6.01204E+01 3.14569E+01 0.00000E+00
 -1      3805 7.07956E+01 2.22057E+01 0.00000E+00
 -1      3806 2.91469E+01 1.68645E+01 0.00000E+00
 -1      3807 2.76656E+01 1.68757E+01 0.00000E+00
 -1      3808 2.69250E+01 1.81747E+01 0.00000E+00
 -1      3809 1.32818E+02 2.96696E+01 0.00000E+00
 -1      3810 1.32818E+02 2.82071E+01 0.00000E+00
 -1      3811 1.30650E+02 3.03515E+01 0.00000E+00
 -1      3812 2.32219E+01 1.68870E+01 0.00000E+00
 -1      3813 2.17406E+01 1.68870E+01 0.00000E+00
 -1      3814 2.39625E+01 1.81860E+01 0.00000E+00
 -1      3815 1.33252E+02 2.67661E+01 0.00000E+00
 -1      3816 1.33252E+02 2.53036E+01 0.00000E+00
 -1      3817 1.31953E+02 2.45661E+01 0.00000E+00
 -1      3818 1.31084E+02 2.74480E+01 0.00000E+00
 -1      3819 5.28996E+01 3.01847E+01 0.00000E+00
 -1      3820 1.70880E+01 2.79172E+01 0.00000E+00
 -1      3821 4.24806E+01 2.50302E+01 0.00000E+00
 -1      3822 7.82933E+01 1.55289E+01 0.00000E+00
 -1      3823 7.69586E+01 1.52459E+01 0.00000E+00
 -1      3824 7.62768E+01 1.62823E+01 0.00000E+00
 -1      3825 2.09125E+01 1.81379E+01 0.00000E+00
 -1      3826 7.90433E+01 1.68279E+01 0.00000E+00
 -1      3827 1.68870E+01 2.12969E+01 0.00000E+00
 -1      3828 1.68870E+01 2.27719E+01 0.00000E+00
 -1      3829 1.81860E+01 2.05625E+01 0.00000E+00
 -1      3830 6.88914E+01 2.49611E+01 0.00000E+00
 -1      3831 1.33741E+02 2.13085E+01 0.00000E+00
 -1      3832 1.33796E+02 2.02295E+01 0.00000E+00
 -1      3833 1.32442E+02 2.20460E+01 0.00000E+00
 -1      3834 1.80950E+01 1.72463E+01 0.00000E+00
 -1      3835 6.25377E+01 2.97587E+01 0.00000E+00
 -1      3836 6.11059E+01 2.93953E+01 0.00000E+00
 -1      3837 3.74277E+01 1.97994E+01 0.00000E+00
 -1      3838 4.00608E+01 2.23344E+01 0.00000E+00
 -1      3839 3.87635E+01 2.22402E+01 0.00000E+00
 -1      3840 4.03082E+01 2.33848E+01 0.00000E+00
 -1      3841 7.26261E+01 1.94080E+01 0.00000E+00
 -1      3842 5.89382E+01 3.00321E+01 0.00000E+00
 -1      3843 1.03725E+02 1.83895E+01 0.00000E+00
 -1      3844 1.02225E+02 1.83895E+01 0.00000E+00
 -1      3845 1.00725E+02 1.83895E+01 0.00000E+00
 -1      3846 9.92250E+01 1.83895E+01 0.00000E+00
 -1      3847 1.01475E+02 1.96885E+01 0.00000E+00
 -1      3848 2.64000E+01 3.05150E+01 0.00000E+00
 -1      3849 2.79000E+01 3.05150E+01 0.00000E+00
 -1      3850 2.94000E+01 3.05150E+01 0.00000E+00
 -1      3851 3.09000E+01 3.05150E+01 0.00000E+00
 -1      3852 2.86500E+01 2.92160E+01 0.00000E+00
 -1      3853 3.24000E+01 3.05150E+01 0.00000E+00
 -1      3854 3.39000E+01 3.05150E+01 0.00000E+00
 -1      3855 3.16500E+01 2.92160E+01 0.00000E+00
 -1      3856 3.54000E+01 3.05150E+01 0.00000E+00
 -1      3857 3.69000E+01 3.05150E+01 0.00000E+00
 -1      3858 3.46500E+01 2.92160E+01 0.00000E+00
 -1      3859 3.84000E+01 3.05150E+01 0.00000E+00
 -1      3860 3.99000E+01 3.05150E+01 0.00000E+00
 -1      3861 3.76500E+01 2.92160E+01 0.00000E+00
 -1      3862 4.65764E+01 3.05058E+01 0.00000E+00
 -1      3863 7.04223E+01 2.51213E+01 0.00000E+00
 -1      3864 6.93963E+01 2.64151E+01 0.00000E+00
 -1      3865 9.77250E+01 1.83895E+01 0.00000E+00
 -1      3866 9.62250E+01 1.83895E+01 0.00000E+00
 -1      3867 9.84750E+01 1.96885E+01 0.00000E+00
 -1      3868 6.55027E+01 2.99985E+01 0.00000E+00
 -1      3869 6.70027E+01 2.99985E+01 0.00000E+00
 -1      3870 7.14000E+01 3.05150E+01 0.00000E+00
 -1      3871 7.29000E+01 3.05150E+01 0.00000E+00
 -1      3872 7.44000E+01 3.05150E+01 0.00000E+00
 -1      3873 7.59000E+01 3.05150E+01 0.00000E+00
 -1      3874 7.36500E+01 2.92160E+01 0.00000E+00
 -1      3875 7.74000E+01 3.05150E+01 0.00000E+00
 -1      3876 7.89000E+01 3.05150E+01 0.00000E+00
 -1      3877 7.66500E+01 2.92160E+01 0.00000E+00
 -1      3878 8.04000E+01 3.05150E+01 0.00000E+00
 -1      3879 8.19000E+01 3.05150E+01 0.00000E+00
 -1      3880 7.96500E+01 2.92160E+01 0.00000E+00
 -1      3881 8.34000E+01 3.05150E+01 0.00000E+00
 -1      3882 8.49000E+01 3.05150E+01 0.00000E+00
 -1      3883 8.26500E+01 2.92160E+01 0.00000E+00
 -1      3884 8.64000E+01 3.05150E+01 0.00000E+00
 -1      3885 8.79000E+01 3.05150E+01 0.00000E+00
 -1      3886 8.56500E+01 2.92160E+01 0.00000E+00
 -1      3887 8.94000E+01 3.05150E+01 0.00000E+00
 -1      3888 9.09000E+01 3.05150E+01 0.00000E+00
 -1      3889 8.86500E+01 2.92160E+01 0.00000E+00
 -1      3890 9.24000E+01 3.05150E+01 0.00000E+00
 -1      3891 9.39000E+01 3.05150E+01 0.00000E+00
 -1      3892 9.16500E+01 2.92160E+01 0.00000E+00
 -1      3893 9.54000E+01 3.05150E+01 0.00000E+00
 -1      3894 9.69000E+01 3.05150E+01 0.00000E+00
 -1      3895 9.46500E+01 2.92160E+01 0.00000E+00
 -1      3896 9.84000E+01 3.05150E+01 0.00000E+00
 -1      3897 9.99000E+01 3.05150E+01 0.00000E+00
 -1      3898 9.76500E+01 2.92160E+01 0.00000E+00
 -1      3899 1.01400E+02 3.05150E+01 0.00000E+00
 -1      3900 1.02900E+02 3.05150E+01 0.00000E+00
 -1      3901 1.00650E+02 2.92160E+01 0.00000E+00
 -1      3902 1.04400E+02 3.05150E+01 0.00000E+00
 -1      3903 1.05900E+02 3.05150E+01 0.00000E+00
 -1      3904 1.03650E+02 2.92160E+01 0.00000E+00
 -1      3905 1.07400E+02 3.05150E+01 0.00000E+00
 -1      3906 1.08900E+02 3.05150E+01 0.00000E+00
 -1      3907 1.06650E+02 2.92160E+01 0.00000E+00
 -1      3908 1.10400E+02 3.05150E+01 0.00000E+00
 -1      3909 1.11900E+02 3.05150E+01 0.00000E+00
 -1      3910 1.09650E+02 2.92160E+01 0.00000E+00
 -1      3911 1.13400E+02 3.05150E+01 0.00000E+00
 -1      3912 1.14900E+02 3.05150E+01 0.00000E+00
 -1      3913 1.12650E+02 2.92160E+01 0.00000E+00
 -1      3914 1.16400E+02 3.05150E+01 0.00000E+00
 -1      3915 1.17900E+02 3.05150E+01 0.00000E+00
 -1      3916 1.15650E+02 2.92160E+01 0.00000E+00
 -1      3917 1.19400E+02 3.05150E+01 0.00000E+00
 -1      3918 1.20900E+02 3.05150E+01 0.00000E+00
 -1      3919 1.18650E+02 2.92160E+01 0.00000E+00
 -1      3920 1.22400E+02 3.05150E+01 0.00000E+00
 -1      3921 1.23900E+02 3.05150E+01 0.00000E+00
 -1      3922 1.21650E+02 2.92160E+01 0.00000E+00
 -1      3923 1.25400E+02 3.05150E+01 0.00000E+00
 -1      3924 1.26900E+02 3.05150E+01 0.00000E+00
 -1      3925 1.24650E+02 2.92160E+01 0.00000E+00
 -1      3926 1.28025E+02 3.04333E+01 0.00000E+00
 -1      3927 1.29525E+02 3.04333E+01 0.00000E+00
 -1      3928 1.29525E+02 2.89708E+01 0.00000E+00
 -1      3929 1.27275E+02 2.91343E+01 0.00000E+00
 -1      3930 9.47250E+01 1.83895E+01 0.00000E+00
 -1      3931 9.32250E+01 1.83895E+01 0.00000E+00
 -1      3932 9.54750E+01 1.96885E+01 0.00000E+00
 -1      3933 2.47031E+01 1.94850E+01 0.00000E+00
 -1      3934 2.32219E+01 1.94850E+01 0.00000E+00
 -1      3935 8.57250E+01 1.83895E+01 0.00000E+00
 -1      3936 8.42250E+01 1.83895E+01 0.00000E+00
 -1      3937 1.06575E+02 1.83895E+01 0.00000E+00
 -1      3938 1.05150E+02 1.83895E+01 0.00000E+00
 -1      3939 1.04400E+02 1.96885E+01 0.00000E+00
 -1      3940 1.09575E+02 1.83895E+01 0.00000E+00
 -1      3941 1.08075E+02 1.83895E+01 0.00000E+00
 -1      3942 1.07325E+02 1.96885E+01 0.00000E+00
 -1      3943 1.12575E+02 1.83895E+01 0.00000E+00
 -1      3944 1.11075E+02 1.83895E+01 0.00000E+00
 -1      3945 1.10325E+02 1.96885E+01 0.00000E+00
 -1      3946 1.15575E+02 1.83895E+01 0.00000E+00
 -1      3947 1.14075E+02 1.83895E+01 0.00000E+00
 -1      3948 1.13325E+02 1.96885E+01 0.00000E+00
 -1      3949 1.18575E+02 1.83895E+01 0.00000E+00
 -1      3950 1.17075E+02 1.83895E+01 0.00000E+00
 -1      3951 1.16325E+02 1.96885E+01 0.00000E+00
 -1      3952 1.21575E+02 1.83895E+01 0.00000E+00
 -1      3953 1.20075E+02 1.83895E+01 0.00000E+00
 -1      3954 1.19325E+02 1.96885E+01 0.00000E+00
 -1      3955 1.24575E+02 1.83895E+01 0.00000E+00
 -1      3956 1.23075E+02 1.83895E+01 0.00000E+00
 -1      3957 1.22325E+02 1.96885E+01 0.00000E+00
 -1      3958 1.27575E+02 1.83895E+01 0.00000E+00
 -1      3959 1.26075E+02 1.83895E+01 0.00000E+00
 -1      3960 1.25325E+02 1.96885E+01 0.00000E+00
 -1      3961 1.30575E+02 1.83895E+01 0.00000E+00
 -1      3962 1.29075E+02 1.83895E+01 0.00000E+00
 -1      3963 1.28325E+02 1.96885E+01 0.00000E+00
 -1      3964 2.06190E+01 3.06007E+01 0.00000E+00
 -1      3965 2.21190E+01 3.06007E+01 0.00000E+00
 -1      3966 2.00880E+01 2.93875E+01 0.00000E+00
 -1      3967 3.18895E+01 1.69315E+01 0.00000E+00
 -1      3968 3.03895E+01 1.69315E+01 0.00000E+00
 -1      3969 2.96489E+01 1.82305E+01 0.00000E+00
 -1      3970 3.21341E+01 1.83645E+01 0.00000E+00
 -1      3971 8.27250E+01 1.83895E+01 0.00000E+00
 -1      3972 8.12251E+01 1.83895E+01 0.00000E+00
 -1      3973 8.34750E+01 1.96885E+01 0.00000E+00
 -1      3974 6.40377E+01 2.97587E+01 0.00000E+00
 -1      3975 7.95248E+01 1.82369E+01 0.00000E+00
 -1      3976 7.80931E+01 1.79743E+01 0.00000E+00
 -1      3977 3.69490E+01 2.12953E+01 0.00000E+00
 -1      3978 3.58606E+01 1.99049E+01 0.00000E+00
 -1      3979 4.17868E+01 2.64440E+01 0.00000E+00
 -1      3980 4.09117E+01 2.48930E+01 0.00000E+00
 -1      3981 7.23482E+01 2.21439E+01 0.00000E+00
 -1      3982 7.14700E+01 2.36055E+01 0.00000E+00
 -1      3983 1.34180E+02 1.83521E+01 0.00000E+00
 -1      3984 7.42529E+01 1.94718E+01 0.00000E+00
 -1      3985 7.33005E+01 2.08078E+01 0.00000E+00
 -1      3986 7.39749E+01 2.22077E+01 0.00000E+00
 -1      3987 2.35095E+01 3.05579E+01 0.00000E+00
 -1      3988 2.50095E+01 3.05579E+01 0.00000E+00
 -1      3989 2.57595E+01 2.92589E+01 0.00000E+00
 -1      3990 2.29785E+01 2.93446E+01 0.00000E+00
 -1      3991 1.72473E+01 2.62544E+01 0.00000E+00
 -1      3992 1.87473E+01 2.77247E+01 0.00000E+00
 -1      3993 1.72473E+01 2.47841E+01 0.00000E+00
 -1      3994 6.85770E+01 2.77248E+01 0.00000E+00
 -1      3995 6.78220E+01 2.86888E+01 0.00000E+00
 -1      3996 6.84693E+01 3.05043E+01 0.00000E+00
 -1      3997 7.01078E+01 2.78850E+01 0.00000E+00
 -1      3998 3.43794E+01 1.99162E+01 0.00000E+00
 -1      3999 4.50764E+01 3.05058E+01 0.00000E+00
 -1      4000 4.14000E+01 3.05150E+01 0.00000E+00
 -1      4001 4.29000E+01 3.05150E+01 0.00000E+00
 -1      4002 4.43264E+01 2.92068E+01 0.00000E+00
 -1      4003 7.19748E+01 2.50595E+01 0.00000E+00
 -1      4004 6.99693E+01 3.05043E+01 0.00000E+00
 -1      4005 9.24750E+01 1.96885E+01 0.00000E+00
 -1      4006 9.17250E+01 1.83895E+01 0.00000E+00
 -1      4007 9.02250E+01 1.83895E+01 0.00000E+00
 -1      4008 8.72250E+01 1.83895E+01 0.00000E+00
 -1      4009 8.64750E+01 1.96885E+01 0.00000E+00
 -1      4010 8.87250E+01 1.83895E+01 0.00000E+00
 -1      4011 2.61844E+01 1.94737E+01 0.00000E+00
 -1      4012 2.54438E+01 2.07727E+01 0.00000E+00
 -1      4013 2.76656E+01 1.94625E+01 0.00000E+00
 -1      4014 6.04678E+01 3.03892E+01 0.00000E+00
 -1      4015 2.02473E+01 2.77247E+01 0.00000E+00
 -1      4016 1.31911E+02 1.90287E+01 0.00000E+00
 -1      4017 1.31161E+02 2.03277E+01 0.00000E+00
 -1      4018 2.16571E+01 1.94603E+01 0.00000E+00
 -1      4019 2.00883E+01 1.94122E+01 0.00000E+00
 -1      4020 1.85463E+01 2.40497E+01 0.00000E+00
 -1      4021 4.27528E+01 2.78986E+01 0.00000E+00
 -1      4022 4.11839E+01 2.77614E+01 0.00000E+00
 -1      4023 7.68440E+01 1.76465E+01 0.00000E+00
 -1      4024 7.55093E+01 1.73634E+01 0.00000E+00
 -1      4025 7.48275E+01 1.83998E+01 0.00000E+00
 -1      4026 7.73256E+01 1.90555E+01 0.00000E+00
 -1      4027 8.02748E+01 1.95359E+01 0.00000E+00
 -1      4028 3.71964E+01 2.23457E+01 0.00000E+00
 -1      4029 3.56293E+01 2.24512E+01 0.00000E+00
 -1      4030 3.74438E+01 2.33961E+01 0.00000E+00
 -1      4031 1.31051E+02 2.24859E+01 0.00000E+00
 -1      4032 1.31106E+02 2.14068E+01 0.00000E+00
 -1      4033 1.29770E+02 2.07676E+01 0.00000E+00
 -1      4034 7.07193E+01 2.92053E+01 0.00000E+00
 -1      4035 3.96144E+01 2.47987E+01 0.00000E+00
 -1      4036 1.87649E+01 1.85886E+01 0.00000E+00
 -1      4037 7.55019E+01 1.97997E+01 0.00000E+00
 -1      4038 1.30183E+02 2.53678E+01 0.00000E+00
 -1      4039 1.30617E+02 2.39269E+01 0.00000E+00
 -1      4040 1.29281E+02 2.32876E+01 0.00000E+00
 -1      4041 2.23977E+01 2.07593E+01 0.00000E+00
 -1      4042 4.06500E+01 2.92160E+01 0.00000E+00
 -1      4043 1.95094E+01 1.99111E+01 0.00000E+00
 -1      4044 1.95094E+01 2.13861E+01 0.00000E+00
 -1      4045 7.15386E+01 2.78957E+01 0.00000E+00
 -1      4046 3.09000E+01 2.79170E+01 0.00000E+00
 -1      4047 3.24000E+01 2.79170E+01 0.00000E+00
 -1      4048 3.39000E+01 2.79170E+01 0.00000E+00
 -1      4049 3.54000E+01 2.79170E+01 0.00000E+00
 -1      4050 3.31500E+01 2.66180E+01 0.00000E+00
 -1      4051 9.92250E+01 2.09875E+01 0.00000E+00
 -1      4052 9.77250E+01 2.09875E+01 0.00000E+00
 -1      4053 3.96839E+01 2.77614E+01 0.00000E+00
 -1      4054 8.42250E+01 2.09875E+01 0.00000E+00
 -1      4055 8.27251E+01 2.09875E+01 0.00000E+00
 -1      4056 7.59000E+01 2.79170E+01 0.00000E+00
 -1      4057 7.74000E+01 2.79170E+01 0.00000E+00
 -1      4058 7.89000E+01 2.79170E+01 0.00000E+00
 -1      4059 8.04000E+01 2.79170E+01 0.00000E+00
 -1      4060 7.81500E+01 2.66180E+01 0.00000E+00
 -1      4061 8.19000E+01 2.79170E+01 0.00000E+00
 -1      4062 8.34000E+01 2.79170E+01 0.00000E+00
 -1      4063 8.11500E+01 2.66180E+01 0.00000E+00
 -1      4064 8.49000E+01 2.79170E+01 0.00000E+00
 -1      4065 8.64000E+01 2.79170E+01 0.00000E+00
 -1      4066 8.41500E+01 2.66180E+01 0.00000E+00
 -1      4067 8.79000E+01 2.79170E+01 0.00000E+00
 -1      4068 8.94000E+01 2.79170E+01 0.00000E+00
 -1      4069 8.71500E+01 2.66180E+01 0.00000E+00
 -1      4070 9.09000E+01 2.79170E+01 0.00000E+00
 -1      4071 9.24000E+01 2.79170E+01 0.00000E+00
 -1      4072 9.01500E+01 2.66180E+01 0.00000E+00
 -1      4073 9.39000E+01 2.79170E+01 0.00000E+00
 -1      4074 9.54000E+01 2.79170E+01 0.00000E+00
 -1      4075 9.31500E+01 2.66180E+01 0.00000E+00
 -1      4076 9.69000E+01 2.79170E+01 0.00000E+00
 -1      4077 9.84000E+01 2.79170E+01 0.00000E+00
 -1      4078 9.61500E+01 2.66180E+01 0.00000E+00
 -1      4079 9.99000E+01 2.79170E+01 0.00000E+00
 -1      4080 1.01400E+02 2.79170E+01 0.00000E+00
 -1      4081 9.91500E+01 2.66180E+01 0.00000E+00
 -1      4082 1.02900E+02 2.79170E+01 0.00000E+00
 -1      4083 1.04400E+02 2.79170E+01 0.00000E+00
 -1      4084 1.02150E+02 2.66180E+01 0.00000E+00
 -1      4085 1.05900E+02 2.79170E+01 0.00000E+00
 -1      4086 1.07400E+02 2.79170E+01 0.00000E+00
 -1      4087 1.05150E+02 2.66180E+01 0.00000E+00
 -1      4088 1.08900E+02 2.79170E+01 0.00000E+00
 -1      4089 1.10400E+02 2.79170E+01 0.00000E+00
 -1      4090 1.08150E+02 2.66180E+01 0.00000E+00
 -1      4091 1.11900E+02 2.79170E+01 0.00000E+00
 -1      4092 1.13400E+02 2.79170E+01 0.00000E+00
 -1      4093 1.11150E+02 2.66180E+01 0.00000E+00
 -1      4094 1.14900E+02 2.79170E+01 0.00000E+00
 -1      4095 1.16400E+02 2.79170E+01 0.00000E+00
 -1      4096 1.14150E+02 2.66180E+01 0.00000E+00
 -1      4097 1.17900E+02 2.79170E+01 0.00000E+00
 -1      4098 1.19400E+02 2.79170E+01 0.00000E+00
 -1      4099 1.17150E+02 2.66180E+01 0.00000E+00
 -1      4100 1.20900E+02 2.79170E+01 0.00000E+00
 -1      4101 1.22400E+02 2.79170E+01 0.00000E+00
 -1      4102 1.20150E+02 2.66180E+01 0.00000E+00
 -1      4103 1.23900E+02 2.79170E+01 0.00000E+00
 -1      4104 1.25400E+02 2.79170E+01 0.00000E+00
 -1      4105 1.23150E+02 2.66180E+01 0.00000E+00
 -1      4106 9.62250E+01 2.09875E+01 0.00000E+00
 -1      4107 9.47250E+01 2.09875E+01 0.00000E+00
 -1      4108 9.69750E+01 2.22865E+01 0.00000E+00
 -1      4109 1.29637E+02 2.78898E+01 0.00000E+00
 -1      4110 1.30071E+02 2.64488E+01 0.00000E+00
 -1      4111 1.28735E+02 2.58096E+01 0.00000E+00
 -1      4112 1.28512E+02 2.79715E+01 0.00000E+00
 -1      4113 7.80000E+01 2.04553E+01 0.00000E+00
 -1      4114 7.67510E+01 2.01275E+01 0.00000E+00
 -1      4115 7.61763E+01 2.11995E+01 0.00000E+00
 -1      4116 3.38041E+01 2.13855E+01 0.00000E+00
 -1      4117 3.28016E+01 1.99009E+01 0.00000E+00
 -1      4118 1.05113E+02 2.09875E+01 0.00000E+00
 -1      4119 1.03688E+02 2.09875E+01 0.00000E+00
 -1      4120 1.14075E+02 2.09875E+01 0.00000E+00
 -1      4121 1.12575E+02 2.09875E+01 0.00000E+00
 -1      4122 1.17075E+02 2.09875E+01 0.00000E+00
 -1      4123 1.15575E+02 2.09875E+01 0.00000E+00
 -1      4124 1.14825E+02 2.22865E+01 0.00000E+00
 -1      4125 1.20075E+02 2.09875E+01 0.00000E+00
 -1      4126 1.18575E+02 2.09875E+01 0.00000E+00
 -1      4127 1.17825E+02 2.22865E+01 0.00000E+00
 -1      4128 1.23075E+02 2.09875E+01 0.00000E+00
 -1      4129 1.21575E+02 2.09875E+01 0.00000E+00
 -1      4130 1.20825E+02 2.22865E+01 0.00000E+00
 -1      4131 1.26075E+02 2.09875E+01 0.00000E+00
 -1      4132 1.24575E+02 2.09875E+01 0.00000E+00
 -1      4133 1.23825E+02 2.22865E+01 0.00000E+00
 -1      4134 1.28270E+02 2.07676E+01 0.00000E+00
 -1      4135 1.33210E+02 1.82912E+01 0.00000E+00
 -1      4136 2.11337E+01 2.20788E+01 0.00000E+00
 -1      4137 1.98103E+01 2.27302E+01 0.00000E+00
 -1      4138 2.01706E+01 2.47424E+01 0.00000E+00
 -1      4139 2.26985E+01 2.21035E+01 0.00000E+00
 -1      4140 7.25067E+01 2.64776E+01 0.00000E+00
 -1      4141 7.31181E+01 2.77979E+01 0.00000E+00
 -1      4142 7.46181E+01 2.77979E+01 0.00000E+00
 -1      4143 7.35544E+01 2.49618E+01 0.00000E+00
 -1      4144 1.11075E+02 2.09875E+01 0.00000E+00
 -1      4145 1.09575E+02 2.09875E+01 0.00000E+00
 -1      4146 1.11825E+02 2.22865E+01 0.00000E+00
 -1      4147 8.12126E+01 2.07977E+01 0.00000E+00
 -1      4148 7.95124E+01 2.06451E+01 0.00000E+00
 -1      4149 7.89378E+01 2.17171E+01 0.00000E+00
 -1      4150 8.19626E+01 2.20967E+01 0.00000E+00
 -1      4151 3.88656E+01 2.63328E+01 0.00000E+00
 -1      4152 3.82621E+01 2.48247E+01 0.00000E+00
 -1      4153 3.66950E+01 2.49302E+01 0.00000E+00
 -1      4154 3.83317E+01 2.77874E+01 0.00000E+00
 -1      4155 2.79000E+01 2.79170E+01 0.00000E+00
 -1      4156 2.94000E+01 2.79170E+01 0.00000E+00
 -1      4157 3.01500E+01 2.66180E+01 0.00000E+00
 -1      4158 1.02206E+02 2.09875E+01 0.00000E+00
 -1      4159 1.00706E+02 2.09875E+01 0.00000E+00
 -1      4160 9.99563E+01 2.22865E+01 0.00000E+00
 -1      4161 1.02919E+02 2.22865E+01 0.00000E+00
 -1      4162 1.08094E+02 2.09875E+01 0.00000E+00
 -1      4163 1.06594E+02 2.09875E+01 0.00000E+00
 -1      4164 1.05881E+02 2.22865E+01 0.00000E+00
 -1      4165 1.08844E+02 2.22865E+01 0.00000E+00
 -1      4166 1.27520E+02 2.20666E+01 0.00000E+00
 -1      4167 2.09042E+01 2.62121E+01 0.00000E+00
 -1      4168 2.22449E+01 2.78749E+01 0.00000E+00
 -1      4169 2.36354E+01 2.78320E+01 0.00000E+00
 -1      4170 2.21682E+01 2.48926E+01 0.00000E+00
 -1      4171 3.60817E+01 2.64884E+01 0.00000E+00
 -1      4172 3.68317E+01 2.77874E+01 0.00000E+00
 -1      4173 8.57250E+01 2.09875E+01 0.00000E+00
 -1      4174 8.49751E+01 2.22865E+01 0.00000E+00
 -1      4175 8.72250E+01 2.09875E+01 0.00000E+00
 -1      4176 9.32250E+01 2.09875E+01 0.00000E+00
 -1      4177 9.17250E+01 2.09875E+01 0.00000E+00
 -1      4178 9.39750E+01 2.22865E+01 0.00000E+00
 -1      4179 8.94750E+01 1.96885E+01 0.00000E+00
 -1      4180 1.26393E+02 2.79851E+01 0.00000E+00
 -1      4181 1.27518E+02 2.79034E+01 0.00000E+00
 -1      4182 1.27630E+02 2.68224E+01 0.00000E+00
 -1      4183 1.25643E+02 2.66861E+01 0.00000E+00
 -1      4184 2.89083E+01 1.95295E+01 0.00000E+00
 -1      4185 2.81676E+01 2.08285E+01 0.00000E+00
 -1      4186 3.01509E+01 1.95965E+01 0.00000E+00
 -1      4187 2.61942E+01 2.20661E+01 0.00000E+00
 -1      4188 2.47130E+01 2.20773E+01 0.00000E+00
 -1      4189 3.40515E+01 2.24359E+01 0.00000E+00
 -1      4190 3.24737E+01 2.24206E+01 0.00000E+00
 -1      4191 3.42989E+01 2.34863E+01 0.00000E+00
 -1      4192 2.34490E+01 2.33968E+01 0.00000E+00
 -1      4193 7.55089E+01 2.22937E+01 0.00000E+00
 -1      4194 7.45565E+01 2.36297E+01 0.00000E+00
 -1      4195 7.50884E+01 2.50478E+01 0.00000E+00
 -1      4196 3.15589E+01 1.98338E+01 0.00000E+00
 -1      4197 7.53681E+01 2.64989E+01 0.00000E+00
 -1      4198 1.27086E+02 2.35076E+01 0.00000E+00
 -1      4199 2.50724E+01 2.78960E+01 0.00000E+00
 -1      4200 2.64629E+01 2.78531E+01 0.00000E+00
 -1      4201 2.72129E+01 2.65541E+01 0.00000E+00
 -1      4202 2.43388E+01 2.64263E+01 0.00000E+00
 -1      4203 7.67579E+01 2.26215E+01 0.00000E+00
 -1      4204 3.21855E+01 2.50445E+01 0.00000E+00
 -1      4205 3.36855E+01 2.50445E+01 0.00000E+00
 -1      4206 9.02250E+01 2.09875E+01 0.00000E+00
 -1      4207 8.87250E+01 2.09875E+01 0.00000E+00
 -1      4208 8.79751E+01 2.22865E+01 0.00000E+00
 -1      4209 9.09750E+01 2.22865E+01 0.00000E+00
 -1      4210 8.04000E+01 2.53190E+01 0.00000E+00
 -1      4211 8.19000E+01 2.53190E+01 0.00000E+00
 -1      4212 8.30625E+01 2.44523E+01 0.00000E+00
 -1      4213 8.45625E+01 2.44523E+01 0.00000E+00
 -1      4214 8.60625E+01 2.44523E+01 0.00000E+00
 -1      4215 8.75625E+01 2.44523E+01 0.00000E+00
 -1      4216 8.90625E+01 2.44523E+01 0.00000E+00
 -1      4217 9.05625E+01 2.44523E+01 0.00000E+00
 -1      4218 9.20625E+01 2.44523E+01 0.00000E+00
 -1      4219 9.35625E+01 2.44523E+01 0.00000E+00
 -1      4220 9.50625E+01 2.44523E+01 0.00000E+00
 -1      4221 9.65625E+01 2.44523E+01 0.00000E+00
 -1      4222 9.80625E+01 2.44523E+01 0.00000E+00
 -1      4223 9.95625E+01 2.44523E+01 0.00000E+00
 -1      4224 1.01044E+02 2.44523E+01 0.00000E+00
 -1      4225 1.02544E+02 2.44523E+01 0.00000E+00
 -1      4226 1.04025E+02 2.44523E+01 0.00000E+00
 -1      4227 1.05525E+02 2.44523E+01 0.00000E+00
 -1      4228 1.07006E+02 2.44523E+01 0.00000E+00
 -1      4229 1.08506E+02 2.44523E+01 0.00000E+00
 -1      4230 1.09988E+02 2.44523E+01 0.00000E+00
 -1      4231 1.11488E+02 2.44523E+01 0.00000E+00
 -1      4232 1.12988E+02 2.44523E+01 0.00000E+00
 -1      4233 1.14488E+02 2.44523E+01 0.00000E+00
 -1      4234 1.15988E+02 2.44523E+01 0.00000E+00
 -1      4235 1.17488E+02 2.44523E+01 0.00000E+00
 -1      4236 1.18988E+02 2.44523E+01 0.00000E+00
 -1      4237 1.20488E+02 2.44523E+01 0.00000E+00
 -1      4238 1.21988E+02 2.44523E+01 0.00000E+00
 -1      4239 1.23488E+02 2.44523E+01 0.00000E+00
 -1      4240 2.74369E+01 2.21331E+01 0.00000E+00
 -1      4241 2.67061E+01 2.34377E+01 0.00000E+00
 -1      4242 2.86795E+01 2.22001E+01 0.00000E+00
 -1      4243 1.24988E+02 2.44523E+01 0.00000E+00
 -1      4244 7.63702E+01 2.51668E+01 0.00000E+00
 -1      4245 3.08183E+01 2.11328E+01 0.00000E+00
 -1      4246 2.41826E+01 2.48665E+01 0.00000E+00
 -1      4247 3.52634E+01 2.50598E+01 0.00000E+00
 -1      4248 7.73140E+01 2.38942E+01 0.00000E+00
 -1      4249 7.75938E+01 2.53453E+01 0.00000E+00
 -1      4250 7.90938E+01 2.53453E+01 0.00000E+00
 -1      4251 7.79815E+01 2.28000E+01 0.00000E+00
 -1      4252 7.98438E+01 2.40463E+01 0.00000E+00
 -1      4253 2.94000E+01 2.53190E+01 0.00000E+00
 -1      4254 3.09000E+01 2.53190E+01 0.00000E+00
 -1      4255 3.11882E+01 2.26951E+01 0.00000E+00
 -1      4256 2.97801E+01 2.24578E+01 0.00000E+00
 -1      4257 3.14355E+01 2.37455E+01 0.00000E+00
 -1      4258 8.23125E+01 2.31533E+01 0.00000E+00
 -1      4259 2.68623E+01 2.49974E+01 0.00000E+00
 -1      4260 2.56197E+01 2.49304E+01 0.00000E+00
 -1      4261 1.26748E+02 2.56733E+01 0.00000E+00
 -1      4262 8.08001E+01 2.29635E+01 0.00000E+00
 -1      4263 7.94939E+01 2.29898E+01 0.00000E+00
 -1      4264 2.82994E+01 2.50613E+01 0.00000E+00
 -1      4265 2.90494E+01 2.37623E+01 0.00000E+00
 -1      4266 1.27742E+02 2.57414E+01 0.00000E+00
 -3
    3C                          2050                                     1
 -1       167    8    0    1
 -2         6         7        23      1109      1275      1126
 -1       168    8    0    1
 -2         7         8       167      1110      1276      1277
 -1       169    8    0    1
 -2         8         9       168      1111      1278      1279
 -1       170    8    0    1
 -2         8       168       167      1279      1280      1276
 -1       171    8    0    1
 -2         9        10       169      1112      1281      1282
 -1       172    8    0    1
 -2         9       169       168      1282      1283      1278
 -1       173    8    0    1
 -2        10        11       170      1113      1284      1285
 -1       174    8    0    1
 -2        10       170       169      1285      1286      1281
 -1       175    8    0    1
 -2        11        12       171      1114      1287      1288
 -1       176    8    0    1
 -2        11       171       170      1288      1289      1284
 -1       177    8    0    1
 -2        12        13       172      1115      1290      1291
 -1       178    8    0    1
 -2        12       172       171      1291      1292      1287
 -1       179    8    0    1
 -2        13        14       173      1116      1293      1294
 -1       180    8    0    1
 -2        13       173       172      1294      1295      1290
 -1       181    8    0    1
 -2        14        15       174      1117      1296      1297
 -1       182    8    0    1
 -2        14       174       173      1297      1298      1293
 -1       183    8    0    1
 -2        15        16       175      1118      1299      1300
 -1       184    8    0    1
 -2        15       175       174      1300      1301      1296
 -1       185    8    0    1
 -2        16        17       176      1119      1302      1303
 -1       186    8    0    1
 -2        16       176       175      1303      1304      1299
 -1       187    8    0    1
 -2        17        18       177      1120      1305      1306
 -1       188    8    0    1
 -2        17       177       176      1306      1307      1302
 -1       189    8    0    1
 -2        18        19       178      1121      1308      1309
 -1       190    8    0    1
 -2        18       178       177      1309      1310      1305
 -1       191    8    0    1
 -2        19        20       179      1122      1311      1312
 -1       192    8    0    1
 -2        19       179       178      1312      1313      1308
 -1       193    8    0    1
 -2        20        21       180      1123      1314      1315
 -1       194    8    0    1
 -2        20       180       179      1315      1316      1311
 -1       195    8    0    1
 -2        21        22       181      1124      1317      1318
 -1       196    8    0    1
 -2        21       181       180      1318      1319      1314
 -1       197    8    0    1
 -2        22         5        72      1125      1176      1320
 -1       198    8    0    1
 -2        24        23       182      1127      1321      1322
 -1       199    8    0    1
 -2        25        24       183      1128      1323      1324
 -1       200    8    0    1
 -2        24       182       183      1322      1325      1323
 -1       201    8    0    1
 -2        26        25       184      1129      1326      1327
 -1       202    8    0    1
 -2        25       183       184      1324      1328      1326
 -1       203    8    0    1
 -2        27        26       185      1130      1329      1330
 -1       204    8    0    1
 -2        26       184       185      1327      1331      1329
 -1       205    8    0    1
 -2        28        27       186      1131      1332      1333
 -1       206    8    0    1
 -2        27       185       186      1330      1334      1332
 -1       207    8    0    1
 -2        29        28       187      1132      1335      1336
 -1       208    8    0    1
 -2        28       186       187      1333      1337      1335
 -1       209    8    0    1
 -2        30        29       188      1133      1338      1339
 -1       210    8    0    1
 -2        29       187       188      1336      1340      1338
 -1       211    8    0    1
 -2        31        30       189      1134      1341      1342
 -1       212    8    0    1
 -2        30       188       189      1339      1343      1341
 -1       213    8    0    1
 -2        32        31       190      1135      1344      1345
 -1       214    8    0    1
 -2        31       189       190      1342      1346      1344
 -1       215    8    0    1
 -2        33        32       191      1136      1347      1348
 -1       216    8    0    1
 -2        32       190       191      1345      1349      1347
 -1       217    8    0    1
 -2        34        33       192      1137      1350      1351
 -1       218    8    0    1
 -2        33       191       192      1348      1352      1350
 -1       219    8    0    1
 -2        35        34       193      1138      1353      1354
 -1       220    8    0    1
 -2        34       192       193      1351      1355      1353
 -1       221    8    0    1
 -2        36        35       194      1139      1356      1357
 -1       222    8    0    1
 -2        35       193       194      1354      1358      1356
 -1       223    8    0    1
 -2        37        36       195      1140      1359      1360
 -1       224    8    0    1
 -2        36       194       195      1357      1361      1359
 -1       225    8    0    1
 -2        38        37       196      1141      1362      1363
 -1       226    8    0    1
 -2        37       195       196      1360      1364      1362
 -1       227    8    0    1
 -2        39        38       197      1142      1365      1366
 -1       228    8    0    1
 -2        38       196       197      1363      1367      1365
 -1       229    8    0    1
 -2        40        39       198      1143      1368      1369
 -1       230    8    0    1
 -2        39       197       198      1366      1370      1368
 -1       231    8    0    1
 -2        41        40       199      1144      1371      1372
 -1       232    8    0    1
 -2        40       198       199      1369      1373      1371
 -1       233    8    0    1
 -2        42        41       200      1145      1374      1375
 -1       234    8    0    1
 -2        41       199       200      1372      1376      1374
 -1       235    8    0    1
 -2        43        42       201      1146      1377      1378
 -1       236    8    0    1
 -2        42       200       201      1375      1379      1377
 -1       237    8    0    1
 -2        44        43       202      1147      1380      1381
 -1       238    8    0    1
 -2        43       201       202      1378      1382      1380
 -1       239    8    0    1
 -2        45        44       203      1148      1383      1384
 -1       240    8    0    1
 -2        44       202       203      1381      1385      1383
 -1       241    8    0    1
 -2        46        45       204      1149      1386      1387
 -1       242    8    0    1
 -2        45       203       204      1384      1388      1386
 -1       243    8    0    1
 -2        47        46       205      1150      1389      1390
 -1       244    8    0    1
 -2        46       204       205      1387      1391      1389
 -1       245    8    0    1
 -2        48        47       206      1151      1392      1393
 -1       246    8    0    1
 -2        47       205       206      1390      1394      1392
 -1       247    8    0    1
 -2        49        48       207      1152      1395      1396
 -1       248    8    0    1
 -2        48       206       207      1393      1397      1395
 -1       249    8    0    1
 -2        50        49       208      1153      1398      1399
 -1       250    8    0    1
 -2        49       207       208      1396      1400      1398
 -1       251    8    0    1
 -2        51        50       209      1154      1401      1402
 -1       252    8    0    1
 -2        50       208       209      1399      1403      1401
 -1       253    8    0    1
 -2        52        51       210      1155      1404      1405
 -1       254    8    0    1
 -2        51       209       210      1402      1406      1404
 -1       255    8    0    1
 -2        53        52       211      1156      1407      1408
 -1       256    8    0    1
 -2        52       210       211      1405      1409      1407
 -1       257    8    0    1
 -2        54        53       212      1157      1410      1411
 -1       258    8    0    1
 -2        53       211       212      1408      1412      1410
 -1       259    8    0    1
 -2        55        54       213      1158      1413      1414
 -1       260    8    0    1
 -2        54       212       213      1411      1415      1413
 -1       261    8    0    1
 -2        56        55       214      1159      1416      1417
 -1       262    8    0    1
 -2        55       213       214      1414      1418      1416
 -1       263    8    0    1
 -2        57        56       215      1160      1419      1420
 -1       264    8    0    1
 -2        56       214       215      1417      1421      1419
 -1       265    8    0    1
 -2        58        57       216      1161      1422      1423
 -1       266    8    0    1
 -2        57       215       216      1420      1424      1422
 -1       267    8    0    1
 -2        59        58       217      1162      1425      1426
 -1       268    8    0    1
 -2        58       216       217      1423      1427      1425
 -1       269    8    0    1
 -2        60        59       218      1163      1428      1429
 -1       270    8    0    1
 -2        59       217       218      1426      1430      1428
 -1       271    8    0    1
 -2        61        60       219      1164      1431      1432
 -1       272    8    0    1
 -2        60       218       219      1429      1433      1431
 -1       273    8    0    1
 -2        62        61       220      1165      1434      1435
 -1       274    8    0    1
 -2        61       219       220      1432      1436      1434
 -1       275    8    0    1
 -2        63        62       221      1166      1437      1438
 -1       276    8    0    1
 -2        62       220       221      1435      1439      1437
 -1       277    8    0    1
 -2        64        63       222      1167      1440      1441
 -1       278    8    0    1
 -2        63       221       222      1438      1442      1440
 -1       279    8    0    1
 -2        65        64       223      1168      1443      1444
 -1       280    8    0    1
 -2        64       222       223      1441      1445      1443
 -1       281    8    0    1
 -2        66        65       224      1169      1446      1447
 -1       282    8    0    1
 -2        65       223       224      1444      1448      1446
 -1       283    8    0    1
 -2        67        66       225      1170      1449      1450
 -1       284    8    0    1
 -2        66       224       225      1447      1451      1449
 -1       285    8    0    1
 -2        68        67       226      1171      1452      1453
 -1       286    8    0    1
 -2        67       225       226      1450      1454      1452
 -1       287    8    0    1
 -2        69        68       227      1172      1455      1456
 -1       288    8    0    1
 -2        68       226       227      1453      1457      1455
 -1       289    8    0    1
 -2        70        69       228      1173      1458      1459
 -1       290    8    0    1
 -2        69       227       228      1456      1460      1458
 -1       291    8    0    1
 -2        71        70       229      1174      1461      1462
 -1       292    8    0    1
 -2        70       228       229      1459      1463      1461
 -1       293    8    0    1
 -2         4        71       138      1175      1464      1244
 -1       294    8    0    1
 -2       138        71       229      1464      1462      1465
 -1       295    8    0    1
 -2        72        73       230      1177      1466      1467
 -1       296    8    0    1
 -2        73        74       231      1178      1468      1469
 -1       297    8    0    1
 -2        73       231       230      1469      1470      1466
 -1       298    8    0    1
 -2        74        75       232      1179      1471      1472
 -1       299    8    0    1
 -2        74       232       231      1472      1473      1468
 -1       300    8    0    1
 -2        75        76       233      1180      1474      1475
 -1       301    8    0    1
 -2        75       233       232      1475      1476      1471
 -1       302    8    0    1
 -2        76        77       234      1181      1477      1478
 -1       303    8    0    1
 -2        76       234       233      1478      1479      1474
 -1       304    8    0    1
 -2        77        78       235      1182      1480      1481
 -1       305    8    0    1
 -2        77       235       234      1481      1482      1477
 -1       306    8    0    1
 -2        78        79       236      1183      1483      1484
 -1       307    8    0    1
 -2        78       236       235      1484      1485      1480
 -1       308    8    0    1
 -2        79        80       237      1184      1486      1487
 -1       309    8    0    1
 -2        79       237       236      1487      1488      1483
 -1       310    8    0    1
 -2        80        81       238      1185      1489      1490
 -1       311    8    0    1
 -2        80       238       237      1490      1491      1486
 -1       312    8    0    1
 -2        81        82       239      1186      1492      1493
 -1       313    8    0    1
 -2        81       239       238      1493      1494      1489
 -1       314    8    0    1
 -2        82        83       240      1187      1495      1496
 -1       315    8    0    1
 -2        82       240       239      1496      1497      1492
 -1       316    8    0    1
 -2        83        84       241      1188      1498      1499
 -1       317    8    0    1
 -2        83       241       240      1499      1500      1495
 -1       318    8    0    1
 -2        84        85       242      1189      1501      1502
 -1       319    8    0    1
 -2        84       242       241      1502      1503      1498
 -1       320    8    0    1
 -2        85        86       243      1190      1504      1505
 -1       321    8    0    1
 -2        85       243       242      1505      1506      1501
 -1       322    8    0    1
 -2        86        87       244      1191      1507      1508
 -1       323    8    0    1
 -2        86       244       243      1508      1509      1504
 -1       324    8    0    1
 -2        87        88       245      1192      1510      1511
 -1       325    8    0    1
 -2        87       245       244      1511      1512      1507
 -1       326    8    0    1
 -2        89        90       246      1194      1513      1514
 -1       327    8    0    1
 -2        90        91       247      1195      1515      1516
 -1       328    8    0    1
 -2        90       247       246      1516      1517      1513
 -1       329    8    0    1
 -2        91        92       248      1196      1518      1519
 -1       330    8    0    1
 -2        91       248       247      1519      1520      1515
 -1       331    8    0    1
 -2        92        93       249      1197      1521      1522
 -1       332    8    0    1
 -2        92       249       248      1522      1523      1518
 -1       333    8    0    1
 -2        93        94       250      1198      1524      1525
 -1       334    8    0    1
 -2        93       250       249      1525      1526      1521
 -1       335    8    0    1
 -2        94        95       251      1199      1527      1528
 -1       336    8    0    1
 -2        94       251       250      1528      1529      1524
 -1       337    8    0    1
 -2        95        96       252      1200      1530      1531
 -1       338    8    0    1
 -2        95       252       251      1531      1532      1527
 -1       339    8    0    1
 -2        96        97       253      1201      1533      1534
 -1       340    8    0    1
 -2        96       253       252      1534      1535      1530
 -1       341    8    0    1
 -2        97        98       254      1202      1536      1537
 -1       342    8    0    1
 -2        97       254       253      1537      1538      1533
 -1       343    8    0    1
 -2        98        99       255      1203      1539      1540
 -1       344    8    0    1
 -2        98       255       254      1540      1541      1536
 -1       345    8    0    1
 -2        99       100       256      1204      1542      1543
 -1       346    8    0    1
 -2        99       256       255      1543      1544      1539
 -1       347    8    0    1
 -2       100       101       257      1205      1545      1546
 -1       348    8    0    1
 -2       100       257       256      1546      1547      1542
 -1       349    8    0    1
 -2       101       102       258      1206      1548      1549
 -1       350    8    0    1
 -2       101       258       257      1549      1550      1545
 -1       351    8    0    1
 -2       102       103       259      1207      1551      1552
 -1       352    8    0    1
 -2       102       259       258      1552      1553      1548
 -1       353    8    0    1
 -2       103       104       260      1208      1554      1555
 -1       354    8    0    1
 -2       103       260       259      1555      1556      1551
 -1       355    8    0    1
 -2       104       105       261      1209      1557      1558
 -1       356    8    0    1
 -2       104       261       260      1558      1559      1554
 -1       357    8    0    1
 -2       105       106       262      1210      1560      1561
 -1       358    8    0    1
 -2       105       262       261      1561      1562      1557
 -1       359    8    0    1
 -2       106       107       263      1211      1563      1564
 -1       360    8    0    1
 -2       106       263       262      1564      1565      1560
 -1       361    8    0    1
 -2       107       108       264      1212      1566      1567
 -1       362    8    0    1
 -2       107       264       263      1567      1568      1563
 -1       363    8    0    1
 -2       108       109       265      1213      1569      1570
 -1       364    8    0    1
 -2       108       265       264      1570      1571      1566
 -1       365    8    0    1
 -2       109       110       266      1214      1572      1573
 -1       366    8    0    1
 -2       109       266       265      1573      1574      1569
 -1       367    8    0    1
 -2       110       111       267      1215      1575      1576
 -1       368    8    0    1
 -2       110       267       266      1576      1577      1572
 -1       369    8    0    1
 -2       111       112       268      1216      1578      1579
 -1       370    8    0    1
 -2       111       268       267      1579      1580      1575
 -1       371    8    0    1
 -2       112       113       269      1217      1581      1582
 -1       372    8    0    1
 -2       112       269       268      1582      1583      1578
 -1       373    8    0    1
 -2       113       114       270      1218      1584      1585
 -1       374    8    0    1
 -2       113       270       269      1585      1586      1581
 -1       375    8    0    1
 -2       114       115       271      1219      1587      1588
 -1       376    8    0    1
 -2       114       271       270      1588      1589      1584
 -1       377    8    0    1
 -2       115       116       272      1220      1590      1591
 -1       378    8    0    1
 -2       115       272       271      1591      1592      1587
 -1       379    8    0    1
 -2       116       117       273      1221      1593      1594
 -1       380    8    0    1
 -2       116       273       272      1594      1595      1590
 -1       381    8    0    1
 -2       117       118       274      1222      1596      1597
 -1       382    8    0    1
 -2       117       274       273      1597      1598      1593
 -1       383    8    0    1
 -2       118       119       275      1223      1599      1600
 -1       384    8    0    1
 -2       118       275       274      1600      1601      1596
 -1       385    8    0    1
 -2       119       120       276      1224      1602      1603
 -1       386    8    0    1
 -2       119       276       275      1603      1604      1599
 -1       387    8    0    1
 -2       120       121       277      1225      1605      1606
 -1       388    8    0    1
 -2       120       277       276      1606      1607      1602
 -1       389    8    0    1
 -2       121       122       278      1226      1608      1609
 -1       390    8    0    1
 -2       121       278       277      1609      1610      1605
 -1       391    8    0    1
 -2       122         3       279      1227      1611      1612
 -1       392    8    0    1
 -2       278       122       279      1608      1612      1613
 -1       393    8    0    1
 -2         3       123       279      1228      1614      1611
 -1       394    8    0    1
 -2       123       124       280      1229      1615      1616
 -1       395    8    0    1
 -2       123       280       279      1616      1617      1614
 -1       396    8    0    1
 -2       124       125       281      1230      1618      1619
 -1       397    8    0    1
 -2       124       281       280      1619      1620      1615
 -1       398    8    0    1
 -2       125       126       282      1231      1621      1622
 -1       399    8    0    1
 -2       125       282       281      1622      1623      1618
 -1       400    8    0    1
 -2       126       127       283      1232      1624      1625
 -1       401    8    0    1
 -2       126       283       282      1625      1626      1621
 -1       402    8    0    1
 -2       127       128       284      1233      1627      1628
 -1       403    8    0    1
 -2       127       284       283      1628      1629      1624
 -1       404    8    0    1
 -2       128       129       285      1234      1630      1631
 -1       405    8    0    1
 -2       128       285       284      1631      1632      1627
 -1       406    8    0    1
 -2       129       130       286      1235      1633      1634
 -1       407    8    0    1
 -2       129       286       285      1634      1635      1630
 -1       408    8    0    1
 -2       130       131       287      1236      1636      1637
 -1       409    8    0    1
 -2       130       287       286      1637      1638      1633
 -1       410    8    0    1
 -2       131       132       288      1237      1639      1640
 -1       411    8    0    1
 -2       131       288       287      1640      1641      1636
 -1       412    8    0    1
 -2       132       133       289      1238      1642      1643
 -1       413    8    0    1
 -2       132       289       288      1643      1644      1639
 -1       414    8    0    1
 -2       133       134       290      1239      1645      1646
 -1       415    8    0    1
 -2       133       290       289      1646      1647      1642
 -1       416    8    0    1
 -2       134       135       291      1240      1648      1649
 -1       417    8    0    1
 -2       134       291       290      1649      1650      1645
 -1       418    8    0    1
 -2       135       136       292      1241      1651      1652
 -1       419    8    0    1
 -2       135       292       291      1652      1653      1648
 -1       420    8    0    1
 -2       136       137       293      1242      1654      1655
 -1       421    8    0    1
 -2       136       293       292      1655      1656      1651
 -1       422    8    0    1
 -2         2       139       294      1245      1657      1658
 -1       423    8    0    1
 -2       139       140       295      1246      1659      1660
 -1       424    8    0    1
 -2       140       141       296      1247      1661      1662
 -1       425    8    0    1
 -2       141       142       297      1248      1663      1664
 -1       426    8    0    1
 -2       142       143       298      1249      1665      1666
 -1       427    8    0    1
 -2       143       144       299      1250      1667      1668
 -1       428    8    0    1
 -2       144       145       300      1251      1669      1670
 -1       429    8    0    1
 -2       145       146       301      1252      1671      1672
 -1       430    8    0    1
 -2       146       147       302      1253      1673      1674
 -1       431    8    0    1
 -2       147       148       303      1254      1675      1676
 -1       432    8    0    1
 -2       148       149       304      1255      1677      1678
 -1       433    8    0    1
 -2       149       150       305      1256      1679      1680
 -1       434    8    0    1
 -2       150       151       306      1257      1681      1682
 -1       435    8    0    1
 -2       151       152       307      1258      1683      1684
 -1       436    8    0    1
 -2       152       153       308      1259      1685      1686
 -1       437    8    0    1
 -2       153       154       309      1260      1687      1688
 -1       438    8    0    1
 -2       154       155       310      1261      1689      1690
 -1       439    8    0    1
 -2       155       156       311      1262      1691      1692
 -1       440    8    0    1
 -2       156       157       312      1263      1693      1694
 -1       441    8    0    1
 -2       157       158       313      1264      1695      1696
 -1       442    8    0    1
 -2       158       159       314      1265      1697      1698
 -1       443    8    0    1
 -2       159       160       315      1266      1699      1700
 -1       444    8    0    1
 -2       160         1       316      1267      1701      1702
 -1       445    8    0    1
 -2         1       161       317      1268      1703      1704
 -1       446    8    0    1
 -2       161       162       318      1269      1705      1706
 -1       447    8    0    1
 -2       162       163       319      1270      1707      1708
 -1       448    8    0    1
 -2       163       164       320      1271      1709      1710
 -1       449    8    0    1
 -2       164       165       321      1272      1711      1712
 -1       450    8    0    1
 -2       165       166       322      1273      1713      1714
 -1       451    8    0    1
 -2       166         2       323      1274      1715      1716
 -1       452    8    0    1
 -2        22        72       181      1320      1717      1317
 -1       453    8    0    1
 -2       245        88       324      1510      1718      1719
 -1       454    8    0    1
 -2        88        89       324      1193      1720      1718
 -1       455    8    0    1
 -2       295       140       296      1659      1662      1721
 -1       456    8    0    1
 -2         2       294       323      1658      1722      1715
 -1       457    8    0    1
 -2       294       139       295      1657      1660      1723
 -1       458    8    0    1
 -2       137       138       325      1243      1724      1725
 -1       459    8    0    1
 -2       137       325       293      1725      1726      1654
 -1       460    8    0    1
 -2       141       297       296      1664      1727      1661
 -1       461    8    0    1
 -2       142       298       297      1666      1728      1663
 -1       462    8    0    1
 -2       143       299       298      1668      1729      1665
 -1       463    8    0    1
 -2       144       300       299      1670      1730      1667
 -1       464    8    0    1
 -2       145       301       300      1672      1731      1669
 -1       465    8    0    1
 -2       146       302       301      1674      1732      1671
 -1       466    8    0    1
 -2       147       303       302      1676      1733      1673
 -1       467    8    0    1
 -2       148       304       303      1678      1734      1675
 -1       468    8    0    1
 -2       149       305       304      1680      1735      1677
 -1       469    8    0    1
 -2       150       306       305      1682      1736      1679
 -1       470    8    0    1
 -2       151       307       306      1684      1737      1681
 -1       471    8    0    1
 -2       152       308       307      1686      1738      1683
 -1       472    8    0    1
 -2       153       309       308      1688      1739      1685
 -1       473    8    0    1
 -2       154       310       309      1690      1740      1687
 -1       474    8    0    1
 -2       155       311       310      1692      1741      1689
 -1       475    8    0    1
 -2       156       312       311      1694      1742      1691
 -1       476    8    0    1
 -2       157       313       312      1696      1743      1693
 -1       477    8    0    1
 -2       158       314       313      1698      1744      1695
 -1       478    8    0    1
 -2       159       315       314      1700      1745      1697
 -1       479    8    0    1
 -2       160       316       315      1702      1746      1699
 -1       480    8    0    1
 -2         1       317       316      1704      1747      1701
 -1       481    8    0    1
 -2       161       318       317      1706      1748      1703
 -1       482    8    0    1
 -2       162       319       318      1708      1749      1705
 -1       483    8    0    1
 -2       163       320       319      1710      1750      1707
 -1       484    8    0    1
 -2       164       321       320      1712      1751      1709
 -1       485    8    0    1
 -2       165       322       321      1714      1752      1711
 -1       486    8    0    1
 -2       166       323       322      1716      1753      1713
 -1       487    8    0    1
 -2        23         7       167      1275      1277      1754
 -1       488    8    0    1
 -2       324        89       246      1720      1514      1755
 -1       489    8    0    1
 -2       168       169       326      1283      1756      1757
 -1       490    8    0    1
 -2       167       168       327      1280      1758      1759
 -1       491    8    0    1
 -2       168       326       327      1757      1760      1758
 -1       492    8    0    1
 -2       170       171       328      1289      1761      1762
 -1       493    8    0    1
 -2       171       172       329      1292      1763      1764
 -1       494    8    0    1
 -2       171       329       328      1764      1765      1761
 -1       495    8    0    1
 -2       172       173       330      1295      1766      1767
 -1       496    8    0    1
 -2       172       330       329      1767      1768      1763
 -1       497    8    0    1
 -2       173       174       331      1298      1769      1770
 -1       498    8    0    1
 -2       173       331       330      1770      1771      1766
 -1       499    8    0    1
 -2       174       175       332      1301      1772      1773
 -1       500    8    0    1
 -2       174       332       331      1773      1774      1769
 -1       501    8    0    1
 -2       175       176       333      1304      1775      1776
 -1       502    8    0    1
 -2       175       333       332      1776      1777      1772
 -1       503    8    0    1
 -2       176       177       334      1307      1778      1779
 -1       504    8    0    1
 -2       176       334       333      1779      1780      1775
 -1       505    8    0    1
 -2       177       178       335      1310      1781      1782
 -1       506    8    0    1
 -2       177       335       334      1782      1783      1778
 -1       507    8    0    1
 -2       178       179       336      1313      1784      1785
 -1       508    8    0    1
 -2       178       336       335      1785      1786      1781
 -1       509    8    0    1
 -2       179       180       337      1316      1787      1788
 -1       510    8    0    1
 -2       179       337       336      1788      1789      1784
 -1       511    8    0    1
 -2       180       181       338      1319      1790      1791
 -1       512    8    0    1
 -2       180       338       337      1791      1792      1787
 -1       513    8    0    1
 -2       295       296       339      1721      1793      1794
 -1       514    8    0    1
 -2       182        23       167      1321      1754      1795
 -1       515    8    0    1
 -2        72       230       181      1467      1796      1717
 -1       516    8    0    1
 -2       184       183       340      1328      1797      1798
 -1       517    8    0    1
 -2       185       184       341      1331      1799      1800
 -1       518    8    0    1
 -2       184       340       341      1798      1801      1799
 -1       519    8    0    1
 -2       186       185       342      1334      1802      1803
 -1       520    8    0    1
 -2       185       341       342      1800      1804      1802
 -1       521    8    0    1
 -2       187       186       343      1337      1805      1806
 -1       522    8    0    1
 -2       186       342       343      1803      1807      1805
 -1       523    8    0    1
 -2       188       187       344      1340      1808      1809
 -1       524    8    0    1
 -2       187       343       344      1806      1810      1808
 -1       525    8    0    1
 -2       189       188       345      1343      1811      1812
 -1       526    8    0    1
 -2       188       344       345      1809      1813      1811
 -1       527    8    0    1
 -2       190       189       346      1346      1814      1815
 -1       528    8    0    1
 -2       189       345       346      1812      1816      1814
 -1       529    8    0    1
 -2       191       190       347      1349      1817      1818
 -1       530    8    0    1
 -2       190       346       347      1815      1819      1817
 -1       531    8    0    1
 -2       192       191       348      1352      1820      1821
 -1       532    8    0    1
 -2       191       347       348      1818      1822      1820
 -1       533    8    0    1
 -2       193       192       349      1355      1823      1824
 -1       534    8    0    1
 -2       192       348       349      1821      1825      1823
 -1       535    8    0    1
 -2       194       193       350      1358      1826      1827
 -1       536    8    0    1
 -2       193       349       350      1824      1828      1826
 -1       537    8    0    1
 -2       195       194       351      1361      1829      1830
 -1       538    8    0    1
 -2       194       350       351      1827      1831      1829
 -1       539    8    0    1
 -2       196       195       352      1364      1832      1833
 -1       540    8    0    1
 -2       195       351       352      1830      1834      1832
 -1       541    8    0    1
 -2       197       196       353      1367      1835      1836
 -1       542    8    0    1
 -2       196       352       353      1833      1837      1835
 -1       543    8    0    1
 -2       198       197       354      1370      1838      1839
 -1       544    8    0    1
 -2       197       353       354      1836      1840      1838
 -1       545    8    0    1
 -2       199       198       355      1373      1841      1842
 -1       546    8    0    1
 -2       198       354       355      1839      1843      1841
 -1       547    8    0    1
 -2       200       199       356      1376      1844      1845
 -1       548    8    0    1
 -2       199       355       356      1842      1846      1844
 -1       549    8    0    1
 -2       201       200       357      1379      1847      1848
 -1       550    8    0    1
 -2       200       356       357      1845      1849      1847
 -1       551    8    0    1
 -2       202       201       358      1382      1850      1851
 -1       552    8    0    1
 -2       201       357       358      1848      1852      1850
 -1       553    8    0    1
 -2       203       202       359      1385      1853      1854
 -1       554    8    0    1
 -2       202       358       359      1851      1855      1853
 -1       555    8    0    1
 -2       204       203       360      1388      1856      1857
 -1       556    8    0    1
 -2       203       359       360      1854      1858      1856
 -1       557    8    0    1
 -2       205       204       361      1391      1859      1860
 -1       558    8    0    1
 -2       204       360       361      1857      1861      1859
 -1       559    8    0    1
 -2       206       205       362      1394      1862      1863
 -1       560    8    0    1
 -2       205       361       362      1860      1864      1862
 -1       561    8    0    1
 -2       207       206       363      1397      1865      1866
 -1       562    8    0    1
 -2       206       362       363      1863      1867      1865
 -1       563    8    0    1
 -2       208       207       364      1400      1868      1869
 -1       564    8    0    1
 -2       207       363       364      1866      1870      1868
 -1       565    8    0    1
 -2       209       208       365      1403      1871      1872
 -1       566    8    0    1
 -2       208       364       365      1869      1873      1871
 -1       567    8    0    1
 -2       210       209       366      1406      1874      1875
 -1       568    8    0    1
 -2       209       365       366      1872      1876      1874
 -1       569    8    0    1
 -2       211       210       367      1409      1877      1878
 -1       570    8    0    1
 -2       210       366       367      1875      1879      1877
 -1       571    8    0    1
 -2       212       211       368      1412      1880      1881
 -1       572    8    0    1
 -2       211       367       368      1878      1882      1880
 -1       573    8    0    1
 -2       213       212       369      1415      1883      1884
 -1       574    8    0    1
 -2       212       368       369      1881      1885      1883
 -1       575    8    0    1
 -2       214       213       370      1418      1886      1887
 -1       576    8    0    1
 -2       213       369       370      1884      1888      1886
 -1       577    8    0    1
 -2       215       214       371      1421      1889      1890
 -1       578    8    0    1
 -2       214       370       371      1887      1891      1889
 -1       579    8    0    1
 -2       216       215       372      1424      1892      1893
 -1       580    8    0    1
 -2       215       371       372      1890      1894      1892
 -1       581    8    0    1
 -2       217       216       373      1427      1895      1896
 -1       582    8    0    1
 -2       216       372       373      1893      1897      1895
 -1       583    8    0    1
 -2       218       217       374      1430      1898      1899
 -1       584    8    0    1
 -2       217       373       374      1896      1900      1898
 -1       585    8    0    1
 -2       219       218       375      1433      1901      1902
 -1       586    8    0    1
 -2       218       374       375      1899      1903      1901
 -1       587    8    0    1
 -2       220       219       376      1436      1904      1905
 -1       588    8    0    1
 -2       219       375       376      1902      1906      1904
 -1       589    8    0    1
 -2       221       220       377      1439      1907      1908
 -1       590    8    0    1
 -2       220       376       377      1905      1909      1907
 -1       591    8    0    1
 -2       222       221       378      1442      1910      1911
 -1       592    8    0    1
 -2       221       377       378      1908      1912      1910
 -1       593    8    0    1
 -2       223       222       379      1445      1913      1914
 -1       594    8    0    1
 -2       222       378       379      1911      1915      1913
 -1       595    8    0    1
 -2       224       223       380      1448      1916      1917
 -1       596    8    0    1
 -2       223       379       380      1914      1918      1916
 -1       597    8    0    1
 -2       225       224       381      1451      1919      1920
 -1       598    8    0    1
 -2       224       380       381      1917      1921      1919
 -1       599    8    0    1
 -2       226       225       382      1454      1922      1923
 -1       600    8    0    1
 -2       225       381       382      1920      1924      1922
 -1       601    8    0    1
 -2       227       226       383      1457      1925      1926
 -1       602    8    0    1
 -2       226       382       383      1923      1927      1925
 -1       603    8    0    1
 -2       228       227       384      1460      1928      1929
 -1       604    8    0    1
 -2       227       383       384      1926      1930      1928
 -1       605    8    0    1
 -2       229       228       385      1463      1931      1932
 -1       606    8    0    1
 -2       228       384       385      1929      1933      1931
 -1       607    8    0    1
 -2       232       233       386      1476      1934      1935
 -1       608    8    0    1
 -2       231       232       387      1473      1936      1937
 -1       609    8    0    1
 -2       232       386       387      1935      1938      1936
 -1       610    8    0    1
 -2       233       234       388      1479      1939      1940
 -1       611    8    0    1
 -2       233       388       386      1940      1941      1934
 -1       612    8    0    1
 -2       234       235       389      1482      1942      1943
 -1       613    8    0    1
 -2       234       389       388      1943      1944      1939
 -1       614    8    0    1
 -2       235       236       390      1485      1945      1946
 -1       615    8    0    1
 -2       235       390       389      1946      1947      1942
 -1       616    8    0    1
 -2       236       237       391      1488      1948      1949
 -1       617    8    0    1
 -2       236       391       390      1949      1950      1945
 -1       618    8    0    1
 -2       237       238       392      1491      1951      1952
 -1       619    8    0    1
 -2       237       392       391      1952      1953      1948
 -1       620    8    0    1
 -2       238       239       393      1494      1954      1955
 -1       621    8    0    1
 -2       238       393       392      1955      1956      1951
 -1       622    8    0    1
 -2       239       240       394      1497      1957      1958
 -1       623    8    0    1
 -2       239       394       393      1958      1959      1954
 -1       624    8    0    1
 -2       240       241       395      1500      1960      1961
 -1       625    8    0    1
 -2       240       395       394      1961      1962      1957
 -1       626    8    0    1
 -2       241       242       396      1503      1963      1964
 -1       627    8    0    1
 -2       241       396       395      1964      1965      1960
 -1       628    8    0    1
 -2       242       243       397      1506      1966      1967
 -1       629    8    0    1
 -2       242       397       396      1967      1968      1963
 -1       630    8    0    1
 -2       243       244       398      1509      1969      1970
 -1       631    8    0    1
 -2       243       398       397      1970      1971      1966
 -1       632    8    0    1
 -2       247       248       300      1520      1972      1973
 -1       633    8    0    1
 -2       246       247       301      1517      1974      1975
 -1       634    8    0    1
 -2       249       250       399      1526      1976      1977
 -1       635    8    0    1
 -2       250       251       400      1529      1978      1979
 -1       636    8    0    1
 -2       250       400       399      1979      1980      1976
 -1       637    8    0    1
 -2       251       252       401      1532      1981      1982
 -1       638    8    0    1
 -2       251       401       400      1982      1983      1978
 -1       639    8    0    1
 -2       252       253       402      1535      1984      1985
 -1       640    8    0    1
 -2       252       402       401      1985      1986      1981
 -1       641    8    0    1
 -2       253       254       403      1538      1987      1988
 -1       642    8    0    1
 -2       253       403       402      1988      1989      1984
 -1       643    8    0    1
 -2       254       255       404      1541      1990      1991
 -1       644    8    0    1
 -2       254       404       403      1991      1992      1987
 -1       645    8    0    1
 -2       255       256       405      1544      1993      1994
 -1       646    8    0    1
 -2       255       405       404      1994      1995      1990
 -1       647    8    0    1
 -2       256       257       406      1547      1996      1997
 -1       648    8    0    1
 -2       256       406       405      1997      1998      1993
 -1       649    8    0    1
 -2       257       258       407      1550      1999      2000
 -1       650    8    0    1
 -2       257       407       406      2000      2001      1996
 -1       651    8    0    1
 -2       258       259       408      1553      2002      2003
 -1       652    8    0    1
 -2       258       408       407      2003      2004      1999
 -1       653    8    0    1
 -2       259       260       409      1556      2005      2006
 -1       654    8    0    1
 -2       259       409       408      2006      2007      2002
 -1       655    8    0    1
 -2       260       261       410      1559      2008      2009
 -1       656    8    0    1
 -2       260       410       409      2009      2010      2005
 -1       657    8    0    1
 -2       261       262       411      1562      2011      2012
 -1       658    8    0    1
 -2       261       411       410      2012      2013      2008
 -1       659    8    0    1
 -2       262       263       412      1565      2014      2015
 -1       660    8    0    1
 -2       262       412       411      2015      2016      2011
 -1       661    8    0    1
 -2       263       264       413      1568      2017      2018
 -1       662    8    0    1
 -2       263       413       412      2018      2019      2014
 -1       663    8    0    1
 -2       264       265       414      1571      2020      2021
 -1       664    8    0    1
 -2       264       414       413      2021      2022      2017
 -1       665    8    0    1
 -2       265       266       415      1574      2023      2024
 -1       666    8    0    1
 -2       265       415       414      2024      2025      2020
 -1       667    8    0    1
 -2       266       267       416      1577      2026      2027
 -1       668    8    0    1
 -2       266       416       415      2027      2028      2023
 -1       669    8    0    1
 -2       267       268       417      1580      2029      2030
 -1       670    8    0    1
 -2       267       417       416      2030      2031      2026
 -1       671    8    0    1
 -2       268       269       418      1583      2032      2033
 -1       672    8    0    1
 -2       268       418       417      2033      2034      2029
 -1       673    8    0    1
 -2       269       270       419      1586      2035      2036
 -1       674    8    0    1
 -2       269       419       418      2036      2037      2032
 -1       675    8    0    1
 -2       270       271       420      1589      2038      2039
 -1       676    8    0    1
 -2       270       420       419      2039      2040      2035
 -1       677    8    0    1
 -2       271       272       421      1592      2041      2042
 -1       678    8    0    1
 -2       271       421       420      2042      2043      2038
 -1       679    8    0    1
 -2       272       273       422      1595      2044      2045
 -1       680    8    0    1
 -2       272       422       421      2045      2046      2041
 -1       681    8    0    1
 -2       273       274       423      1598      2047      2048
 -1       682    8    0    1
 -2       273       423       422      2048      2049      2044
 -1       683    8    0    1
 -2       274       275       424      1601      2050      2051
 -1       684    8    0    1
 -2       274       424       423      2051      2052      2047
 -1       685    8    0    1
 -2       275       276       425      1604      2053      2054
 -1       686    8    0    1
 -2       275       425       424      2054      2055      2050
 -1       687    8    0    1
 -2       276       277       426      1607      2056      2057
 -1       688    8    0    1
 -2       276       426       425      2057      2058      2053
 -1       689    8    0    1
 -2       277       278       427      1610      2059      2060
 -1       690    8    0    1
 -2       277       427       426      2060      2061      2056
 -1       691    8    0    1
 -2       278       279       428      1613      2062      2063
 -1       692    8    0    1
 -2       427       278       428      2059      2063      2064
 -1       693    8    0    1
 -2       279       280       428      1617      2065      2062
 -1       694    8    0    1
 -2       281       282       429      1623      2066      2067
 -1       695    8    0    1
 -2       280       281       430      1620      2068      2069
 -1       696    8    0    1
 -2       428       280       430      2065      2069      2070
 -1       697    8    0    1
 -2       281       429       430      2067      2071      2068
 -1       698    8    0    1
 -2       282       283       431      1626      2072      2073
 -1       699    8    0    1
 -2       282       431       429      2073      2074      2066
 -1       700    8    0    1
 -2       283       284       432      1629      2075      2076
 -1       701    8    0    1
 -2       283       432       431      2076      2077      2072
 -1       702    8    0    1
 -2       284       285       433      1632      2078      2079
 -1       703    8    0    1
 -2       284       433       432      2079      2080      2075
 -1       704    8    0    1
 -2       285       286       434      1635      2081      2082
 -1       705    8    0    1
 -2       285       434       433      2082      2083      2078
 -1       706    8    0    1
 -2       286       287       435      1638      2084      2085
 -1       707    8    0    1
 -2       286       435       434      2085      2086      2081
 -1       708    8    0    1
 -2       287       288       436      1641      2087      2088
 -1       709    8    0    1
 -2       287       436       435      2088      2089      2084
 -1       710    8    0    1
 -2       288       289       437      1644      2090      2091
 -1       711    8    0    1
 -2       288       437       436      2091      2092      2087
 -1       712    8    0    1
 -2       289       290       438      1647      2093      2094
 -1       713    8    0    1
 -2       289       438       437      2094      2095      2090
 -1       714    8    0    1
 -2       290       291       439      1650      2096      2097
 -1       715    8    0    1
 -2       290       439       438      2097      2098      2093
 -1       716    8    0    1
 -2       291       292       440      1653      2099      2100
 -1       717    8    0    1
 -2       291       440       439      2100      2101      2096
 -1       718    8    0    1
 -2       292       293       441      1656      2102      2103
 -1       719    8    0    1
 -2       292       441       440      2103      2104      2099
 -1       720    8    0    1
 -2       296       297       442      1727      2105      2106
 -1       721    8    0    1
 -2       325       138       229      1724      1465      2107
 -1       722    8    0    1
 -2       323       294       443      1722      2108      2109
 -1       723    8    0    1
 -2       301       247       300      1974      1973      1731
 -1       724    8    0    1
 -2       169       170       444      1286      2110      2111
 -1       725    8    0    1
 -2       326       169       444      1756      2111      2112
 -1       726    8    0    1
 -2       170       328       444      1762      2113      2110
 -1       727    8    0    1
 -2       297       298       399      1728      2114      2115
 -1       728    8    0    1
 -2       299       300       248      1730      1972      2116
 -1       729    8    0    1
 -2       301       302       246      1732      2117      1975
 -1       730    8    0    1
 -2       304       305       445      1735      2118      2119
 -1       731    8    0    1
 -2       305       306       446      1736      2120      2121
 -1       732    8    0    1
 -2       306       307       447      1737      2122      2123
 -1       733    8    0    1
 -2       307       308       448      1738      2124      2125
 -1       734    8    0    1
 -2       308       309       449      1739      2126      2127
 -1       735    8    0    1
 -2       309       310       450      1740      2128      2129
 -1       736    8    0    1
 -2       310       311       451      1741      2130      2131
 -1       737    8    0    1
 -2       311       312       452      1742      2132      2133
 -1       738    8    0    1
 -2       312       313       453      1743      2134      2135
 -1       739    8    0    1
 -2       313       314       454      1744      2136      2137
 -1       740    8    0    1
 -2       314       315       455      1745      2138      2139
 -1       741    8    0    1
 -2       315       316       456      1746      2140      2141
 -1       742    8    0    1
 -2       316       317       457      1747      2142      2143
 -1       743    8    0    1
 -2       317       318       458      1748      2144      2145
 -1       744    8    0    1
 -2       317       458       457      2145      2146      2142
 -1       745    8    0    1
 -2       318       319       459      1749      2147      2148
 -1       746    8    0    1
 -2       319       320       460      1750      2149      2150
 -1       747    8    0    1
 -2       320       321       461      1751      2151      2152
 -1       748    8    0    1
 -2       321       322       462      1752      2153      2154
 -1       749    8    0    1
 -2       322       323       463      1753      2155      2156
 -1       750    8    0    1
 -2       181       230       338      1796      2157      1790
 -1       751    8    0    1
 -2       294       295       464      1723      2158      2159
 -1       752    8    0    1
 -2       294       464       443      2159      2160      2108
 -1       753    8    0    1
 -2       182       167       327      1795      1759      2161
 -1       754    8    0    1
 -2       325       229       385      2107      1932      2162
 -1       755    8    0    1
 -2       299       248       249      2116      1523      2163
 -1       756    8    0    1
 -2       295       339       464      1794      2164      2158
 -1       757    8    0    1
 -2       339       296       442      1793      2106      2165
 -1       758    8    0    1
 -2       245       324       304      1719      2166      2167
 -1       759    8    0    1
 -2       183       182       327      1325      2161      2168
 -1       760    8    0    1
 -2       340       183       327      1797      2168      2169
 -1       761    8    0    1
 -2       231       387       338      1937      2170      2171
 -1       762    8    0    1
 -2       230       231       338      1470      2171      2157
 -1       763    8    0    1
 -2       398       244       446      1969      2172      2173
 -1       764    8    0    1
 -2       297       399       442      2115      2174      2105
 -1       765    8    0    1
 -2       304       445       245      2119      2175      2167
 -1       766    8    0    1
 -2       450       310       451      2128      2131      2176
 -1       767    8    0    1
 -2       245       445       244      2175      2177      1512
 -1       768    8    0    1
 -2       293       325       385      1726      2162      2178
 -1       769    8    0    1
 -2       323       443       463      2109      2179      2155
 -1       770    8    0    1
 -2       449       309       450      2126      2129      2180
 -1       771    8    0    1
 -2       462       322       463      2153      2156      2181
 -1       772    8    0    1
 -2       461       321       462      2151      2154      2182
 -1       773    8    0    1
 -2       460       320       461      2149      2152      2183
 -1       774    8    0    1
 -2       458       318       459      2144      2148      2184
 -1       775    8    0    1
 -2       456       316       457      2140      2143      2185
 -1       776    8    0    1
 -2       455       315       456      2138      2141      2186
 -1       777    8    0    1
 -2       454       314       455      2136      2139      2187
 -1       778    8    0    1
 -2       453       313       454      2134      2137      2188
 -1       779    8    0    1
 -2       452       312       453      2132      2135      2189
 -1       780    8    0    1
 -2       451       311       452      2130      2133      2190
 -1       781    8    0    1
 -2       448       308       449      2124      2127      2191
 -1       782    8    0    1
 -2       447       307       448      2122      2125      2192
 -1       783    8    0    1
 -2       298       299       249      1729      2163      2193
 -1       784    8    0    1
 -2       446       306       447      2120      2123      2194
 -1       785    8    0    1
 -2       445       305       446      2118      2121      2195
 -1       786    8    0    1
 -2       302       303       324      1733      2196      2197
 -1       787    8    0    1
 -2       298       249       399      2193      1977      2114
 -1       788    8    0    1
 -2       446       244       445      2172      2177      2195
 -1       789    8    0    1
 -2       293       385       441      2178      2198      2102
 -1       790    8    0    1
 -2       459       319       460      2147      2150      2199
 -1       791    8    0    1
 -2       463       443       465      2179      2200      2201
 -1       792    8    0    1
 -2       329       330       466      1768      2202      2203
 -1       793    8    0    1
 -2       328       329       467      1765      2204      2205
 -1       794    8    0    1
 -2       329       466       467      2203      2206      2204
 -1       795    8    0    1
 -2       331       332       468      1774      2207      2208
 -1       796    8    0    1
 -2       332       333       469      1777      2209      2210
 -1       797    8    0    1
 -2       332       469       468      2210      2211      2207
 -1       798    8    0    1
 -2       333       334       470      1780      2212      2213
 -1       799    8    0    1
 -2       333       470       469      2213      2214      2209
 -1       800    8    0    1
 -2       334       335       471      1783      2215      2216
 -1       801    8    0    1
 -2       334       471       470      2216      2217      2212
 -1       802    8    0    1
 -2       335       336       472      1786      2218      2219
 -1       803    8    0    1
 -2       335       472       471      2219      2220      2215
 -1       804    8    0    1
 -2       336       337       473      1789      2221      2222
 -1       805    8    0    1
 -2       336       473       472      2222      2223      2218
 -1       806    8    0    1
 -2       337       338       474      1792      2224      2225
 -1       807    8    0    1
 -2       473       337       474      2221      2225      2226
 -1       808    8    0    1
 -2       338       387       474      2170      2227      2224
 -1       809    8    0    1
 -2       443       464       475      2160      2228      2229
 -1       810    8    0    1
 -2       304       324       303      2166      2196      1734
 -1       811    8    0    1
 -2       341       340       476      1801      2230      2231
 -1       812    8    0    1
 -2       324       246       302      1755      2117      2197
 -1       813    8    0    1
 -2       446       447       398      2194      2232      2173
 -1       814    8    0    1
 -2       342       341       477      1804      2233      2234
 -1       815    8    0    1
 -2       341       476       477      2231      2235      2233
 -1       816    8    0    1
 -2       343       342       478      1807      2236      2237
 -1       817    8    0    1
 -2       342       477       478      2234      2238      2236
 -1       818    8    0    1
 -2       344       343       479      1810      2239      2240
 -1       819    8    0    1
 -2       343       478       479      2237      2241      2239
 -1       820    8    0    1
 -2       345       344       480      1813      2242      2243
 -1       821    8    0    1
 -2       344       479       480      2240      2244      2242
 -1       822    8    0    1
 -2       346       345       481      1816      2245      2246
 -1       823    8    0    1
 -2       345       480       481      2243      2247      2245
 -1       824    8    0    1
 -2       347       346       482      1819      2248      2249
 -1       825    8    0    1
 -2       346       481       482      2246      2250      2248
 -1       826    8    0    1
 -2       348       347       483      1822      2251      2252
 -1       827    8    0    1
 -2       347       482       483      2249      2253      2251
 -1       828    8    0    1
 -2       349       348       484      1825      2254      2255
 -1       829    8    0    1
 -2       348       483       484      2252      2256      2254
 -1       830    8    0    1
 -2       350       349       485      1828      2257      2258
 -1       831    8    0    1
 -2       349       484       485      2255      2259      2257
 -1       832    8    0    1
 -2       351       350       486      1831      2260      2261
 -1       833    8    0    1
 -2       350       485       486      2258      2262      2260
 -1       834    8    0    1
 -2       352       351       487      1834      2263      2264
 -1       835    8    0    1
 -2       351       486       487      2261      2265      2263
 -1       836    8    0    1
 -2       353       352       488      1837      2266      2267
 -1       837    8    0    1
 -2       352       487       488      2264      2268      2266
 -1       838    8    0    1
 -2       354       353       489      1840      2269      2270
 -1       839    8    0    1
 -2       353       488       489      2267      2271      2269
 -1       840    8    0    1
 -2       355       354       490      1843      2272      2273
 -1       841    8    0    1
 -2       354       489       490      2270      2274      2272
 -1       842    8    0    1
 -2       356       355       491      1846      2275      2276
 -1       843    8    0    1
 -2       355       490       491      2273      2277      2275
 -1       844    8    0    1
 -2       357       356       492      1849      2278      2279
 -1       845    8    0    1
 -2       356       491       492      2276      2280      2278
 -1       846    8    0    1
 -2       358       357       493      1852      2281      2282
 -1       847    8    0    1
 -2       357       492       493      2279      2283      2281
 -1       848    8    0    1
 -2       359       358       494      1855      2284      2285
 -1       849    8    0    1
 -2       358       493       494      2282      2286      2284
 -1       850    8    0    1
 -2       360       359       495      1858      2287      2288
 -1       851    8    0    1
 -2       359       494       495      2285      2289      2287
 -1       852    8    0    1
 -2       361       360       496      1861      2290      2291
 -1       853    8    0    1
 -2       360       495       496      2288      2292      2290
 -1       854    8    0    1
 -2       362       361       497      1864      2293      2294
 -1       855    8    0    1
 -2       361       496       497      2291      2295      2293
 -1       856    8    0    1
 -2       363       362       498      1867      2296      2297
 -1       857    8    0    1
 -2       362       497       498      2294      2298      2296
 -1       858    8    0    1
 -2       364       363       499      1870      2299      2300
 -1       859    8    0    1
 -2       363       498       499      2297      2301      2299
 -1       860    8    0    1
 -2       365       364       500      1873      2302      2303
 -1       861    8    0    1
 -2       364       499       500      2300      2304      2302
 -1       862    8    0    1
 -2       366       365       501      1876      2305      2306
 -1       863    8    0    1
 -2       365       500       501      2303      2307      2305
 -1       864    8    0    1
 -2       367       366       502      1879      2308      2309
 -1       865    8    0    1
 -2       366       501       502      2306      2310      2308
 -1       866    8    0    1
 -2       368       367       503      1882      2311      2312
 -1       867    8    0    1
 -2       367       502       503      2309      2313      2311
 -1       868    8    0    1
 -2       369       368       504      1885      2314      2315
 -1       869    8    0    1
 -2       368       503       504      2312      2316      2314
 -1       870    8    0    1
 -2       370       369       505      1888      2317      2318
 -1       871    8    0    1
 -2       369       504       505      2315      2319      2317
 -1       872    8    0    1
 -2       371       370       506      1891      2320      2321
 -1       873    8    0    1
 -2       370       505       506      2318      2322      2320
 -1       874    8    0    1
 -2       372       371       507      1894      2323      2324
 -1       875    8    0    1
 -2       371       506       507      2321      2325      2323
 -1       876    8    0    1
 -2       373       372       508      1897      2326      2327
 -1       877    8    0    1
 -2       372       507       508      2324      2328      2326
 -1       878    8    0    1
 -2       374       373       509      1900      2329      2330
 -1       879    8    0    1
 -2       373       508       509      2327      2331      2329
 -1       880    8    0    1
 -2       375       374       510      1903      2332      2333
 -1       881    8    0    1
 -2       374       509       510      2330      2334      2332
 -1       882    8    0    1
 -2       376       375       511      1906      2335      2336
 -1       883    8    0    1
 -2       375       510       511      2333      2337      2335
 -1       884    8    0    1
 -2       377       376       512      1909      2338      2339
 -1       885    8    0    1
 -2       376       511       512      2336      2340      2338
 -1       886    8    0    1
 -2       378       377       513      1912      2341      2342
 -1       887    8    0    1
 -2       377       512       513      2339      2343      2341
 -1       888    8    0    1
 -2       379       378       514      1915      2344      2345
 -1       889    8    0    1
 -2       378       513       514      2342      2346      2344
 -1       890    8    0    1
 -2       380       379       515      1918      2347      2348
 -1       891    8    0    1
 -2       379       514       515      2345      2349      2347
 -1       892    8    0    1
 -2       381       380       516      1921      2350      2351
 -1       893    8    0    1
 -2       380       515       516      2348      2352      2350
 -1       894    8    0    1
 -2       382       381       517      1924      2353      2354
 -1       895    8    0    1
 -2       381       516       517      2351      2355      2353
 -1       896    8    0    1
 -2       383       382       518      1927      2356      2357
 -1       897    8    0    1
 -2       382       517       518      2354      2358      2356
 -1       898    8    0    1
 -2       384       383       519      1930      2359      2360
 -1       899    8    0    1
 -2       383       518       519      2357      2361      2359
 -1       900    8    0    1
 -2       385       384       520      1933      2362      2363
 -1       901    8    0    1
 -2       441       385       520      2198      2363      2364
 -1       902    8    0    1
 -2       384       519       520      2360      2365      2362
 -1       903    8    0    1
 -2       388       389       521      1944      2366      2367
 -1       904    8    0    1
 -2       464       339       522      2164      2368      2369
 -1       905    8    0    1
 -2       389       390       523      1947      2370      2371
 -1       906    8    0    1
 -2       389       523       521      2371      2372      2366
 -1       907    8    0    1
 -2       390       391       524      1950      2373      2374
 -1       908    8    0    1
 -2       390       524       523      2374      2375      2370
 -1       909    8    0    1
 -2       391       392       525      1953      2376      2377
 -1       910    8    0    1
 -2       391       525       524      2377      2378      2373
 -1       911    8    0    1
 -2       392       393       526      1956      2379      2380
 -1       912    8    0    1
 -2       392       526       525      2380      2381      2376
 -1       913    8    0    1
 -2       393       394       527      1959      2382      2383
 -1       914    8    0    1
 -2       393       527       526      2383      2384      2379
 -1       915    8    0    1
 -2       394       395       528      1962      2385      2386
 -1       916    8    0    1
 -2       394       528       527      2386      2387      2382
 -1       917    8    0    1
 -2       395       396       529      1965      2388      2389
 -1       918    8    0    1
 -2       395       529       528      2389      2390      2385
 -1       919    8    0    1
 -2       396       397       530      1968      2391      2392
 -1       920    8    0    1
 -2       396       530       529      2392      2393      2388
 -1       921    8    0    1
 -2       397       398       531      1971      2394      2395
 -1       922    8    0    1
 -2       530       397       531      2391      2395      2396
 -1       923    8    0    1
 -2       398       447       531      2232      2397      2394
 -1       924    8    0    1
 -2       442       399       400      2174      1980      2398
 -1       925    8    0    1
 -2       402       403       532      1989      2399      2400
 -1       926    8    0    1
 -2       403       404       533      1992      2401      2402
 -1       927    8    0    1
 -2       403       533       532      2402      2403      2399
 -1       928    8    0    1
 -2       404       405       534      1995      2404      2405
 -1       929    8    0    1
 -2       404       534       533      2405      2406      2401
 -1       930    8    0    1
 -2       405       406       535      1998      2407      2408
 -1       931    8    0    1
 -2       405       535       534      2408      2409      2404
 -1       932    8    0    1
 -2       406       407       536      2001      2410      2411
 -1       933    8    0    1
 -2       406       536       535      2411      2412      2407
 -1       934    8    0    1
 -2       407       408       537      2004      2413      2414
 -1       935    8    0    1
 -2       407       537       536      2414      2415      2410
 -1       936    8    0    1
 -2       408       409       538      2007      2416      2417
 -1       937    8    0    1
 -2       408       538       537      2417      2418      2413
 -1       938    8    0    1
 -2       409       410       539      2010      2419      2420
 -1       939    8    0    1
 -2       409       539       538      2420      2421      2416
 -1       940    8    0    1
 -2       410       411       540      2013      2422      2423
 -1       941    8    0    1
 -2       410       540       539      2423      2424      2419
 -1       942    8    0    1
 -2       411       412       541      2016      2425      2426
 -1       943    8    0    1
 -2       411       541       540      2426      2427      2422
 -1       944    8    0    1
 -2       412       413       542      2019      2428      2429
 -1       945    8    0    1
 -2       412       542       541      2429      2430      2425
 -1       946    8    0    1
 -2       413       414       543      2022      2431      2432
 -1       947    8    0    1
 -2       413       543       542      2432      2433      2428
 -1       948    8    0    1
 -2       414       415       544      2025      2434      2435
 -1       949    8    0    1
 -2       414       544       543      2435      2436      2431
 -1       950    8    0    1
 -2       415       416       545      2028      2437      2438
 -1       951    8    0    1
 -2       415       545       544      2438      2439      2434
 -1       952    8    0    1
 -2       416       417       546      2031      2440      2441
 -1       953    8    0    1
 -2       416       546       545      2441      2442      2437
 -1       954    8    0    1
 -2       417       418       547      2034      2443      2444
 -1       955    8    0    1
 -2       417       547       546      2444      2445      2440
 -1       956    8    0    1
 -2       418       419       548      2037      2446      2447
 -1       957    8    0    1
 -2       418       548       547      2447      2448      2443
 -1       958    8    0    1
 -2       419       420       549      2040      2449      2450
 -1       959    8    0    1
 -2       419       549       548      2450      2451      2446
 -1       960    8    0    1
 -2       420       421       550      2043      2452      2453
 -1       961    8    0    1
 -2       420       550       549      2453      2454      2449
 -1       962    8    0    1
 -2       421       422       551      2046      2455      2456
 -1       963    8    0    1
 -2       421       551       550      2456      2457      2452
 -1       964    8    0    1
 -2       422       423       552      2049      2458      2459
 -1       965    8    0    1
 -2       422       552       551      2459      2460      2455
 -1       966    8    0    1
 -2       423       424       553      2052      2461      2462
 -1       967    8    0    1
 -2       423       553       552      2462      2463      2458
 -1       968    8    0    1
 -2       424       425       554      2055      2464      2465
 -1       969    8    0    1
 -2       424       554       553      2465      2466      2461
 -1       970    8    0    1
 -2       425       426       555      2058      2467      2468
 -1       971    8    0    1
 -2       425       555       554      2468      2469      2464
 -1       972    8    0    1
 -2       427       428       556      2064      2470      2471
 -1       973    8    0    1
 -2       428       430       556      2070      2472      2470
 -1       974    8    0    1
 -2       431       432       557      2077      2473      2474
 -1       975    8    0    1
 -2       432       433       558      2080      2475      2476
 -1       976    8    0    1
 -2       432       558       557      2476      2477      2473
 -1       977    8    0    1
 -2       429       431       559      2074      2478      2479
 -1       978    8    0    1
 -2       431       557       559      2474      2480      2478
 -1       979    8    0    1
 -2       433       434       560      2083      2481      2482
 -1       980    8    0    1
 -2       433       560       558      2482      2483      2475
 -1       981    8    0    1
 -2       434       435       561      2086      2484      2485
 -1       982    8    0    1
 -2       434       561       560      2485      2486      2481
 -1       983    8    0    1
 -2       435       436       562      2089      2487      2488
 -1       984    8    0    1
 -2       435       562       561      2488      2489      2484
 -1       985    8    0    1
 -2       436       437       563      2092      2490      2491
 -1       986    8    0    1
 -2       436       563       562      2491      2492      2487
 -1       987    8    0    1
 -2       437       438       564      2095      2493      2494
 -1       988    8    0    1
 -2       437       564       563      2494      2495      2490
 -1       989    8    0    1
 -2       438       439       565      2098      2496      2497
 -1       990    8    0    1
 -2       438       565       564      2497      2498      2493
 -1       991    8    0    1
 -2       439       440       566      2101      2499      2500
 -1       992    8    0    1
 -2       439       566       565      2500      2501      2496
 -1       993    8    0    1
 -2       440       441       520      2104      2364      2502
 -1       994    8    0    1
 -2       450       451       567      2176      2503      2504
 -1       995    8    0    1
 -2       459       460       568      2199      2505      2506
 -1       996    8    0    1
 -2       340       327       569      2169      2507      2508
 -1       997    8    0    1
 -2       476       340       569      2230      2508      2509
 -1       998    8    0    1
 -2       327       326       569      1760      2510      2507
 -1       999    8    0    1
 -2       449       450       570      2180      2511      2512
 -1      1000    8    0    1
 -2       456       457       571      2185      2513      2514
 -1      1001    8    0    1
 -2       401       402       572      1986      2515      2516
 -1      1002    8    0    1
 -2       402       532       572      2400      2517      2515
 -1      1003    8    0    1
 -2       400       401       573      1983      2518      2519
 -1      1004    8    0    1
 -2       387       386       574      1938      2520      2521
 -1      1005    8    0    1
 -2       387       574       474      2521      2522      2227
 -1      1006    8    0    1
 -2       330       331       575      1771      2523      2524
 -1      1007    8    0    1
 -2       466       330       575      2202      2524      2525
 -1      1008    8    0    1
 -2       331       468       575      2208      2526      2523
 -1      1009    8    0    1
 -2       386       388       576      1941      2527      2528
 -1      1010    8    0    1
 -2       574       386       576      2520      2528      2529
 -1      1011    8    0    1
 -2       388       521       576      2367      2530      2527
 -1      1012    8    0    1
 -2       447       448       531      2192      2531      2397
 -1      1013    8    0    1
 -2       462       463       577      2181      2532      2533
 -1      1014    8    0    1
 -2       448       449       578      2191      2534      2535
 -1      1015    8    0    1
 -2       451       452       579      2190      2536      2537
 -1      1016    8    0    1
 -2       452       453       580      2189      2538      2539
 -1      1017    8    0    1
 -2       452       580       579      2539      2540      2536
 -1      1018    8    0    1
 -2       453       454       581      2188      2541      2542
 -1      1019    8    0    1
 -2       454       455       582      2187      2543      2544
 -1      1020    8    0    1
 -2       455       456       583      2186      2545      2546
 -1      1021    8    0    1
 -2       455       583       582      2546      2547      2543
 -1      1022    8    0    1
 -2       457       458       584      2146      2548      2549
 -1      1023    8    0    1
 -2       458       459       585      2184      2550      2551
 -1      1024    8    0    1
 -2       459       568       585      2506      2552      2550
 -1      1025    8    0    1
 -2       460       461       586      2183      2553      2554
 -1      1026    8    0    1
 -2       460       586       568      2554      2555      2505
 -1      1027    8    0    1
 -2       461       462       587      2182      2556      2557
 -1      1028    8    0    1
 -2       462       577       587      2533      2558      2556
 -1      1029    8    0    1
 -2       328       467       588      2205      2559      2560
 -1      1030    8    0    1
 -2       328       588       444      2560      2561      2113
 -1      1031    8    0    1
 -2       475       464       589      2228      2562      2563
 -1      1032    8    0    1
 -2       464       522       589      2369      2564      2562
 -1      1033    8    0    1
 -2       583       456       571      2545      2514      2565
 -1      1034    8    0    1
 -2       457       584       571      2549      2566      2513
 -1      1035    8    0    1
 -2       578       449       570      2534      2512      2567
 -1      1036    8    0    1
 -2       569       326       444      2510      2112      2568
 -1      1037    8    0    1
 -2       443       475       465      2229      2569      2200
 -1      1038    8    0    1
 -2       522       339       573      2368      2570      2571
 -1      1039    8    0    1
 -2       427       556       426      2471      2572      2061
 -1      1040    8    0    1
 -2       555       426       556      2467      2572      2573
 -1      1041    8    0    1
 -2       430       429       590      2071      2574      2575
 -1      1042    8    0    1
 -2       556       430       590      2472      2575      2576
 -1      1043    8    0    1
 -2       429       559       590      2479      2577      2574
 -1      1044    8    0    1
 -2       440       520       566      2502      2578      2499
 -1      1045    8    0    1
 -2       461       587       586      2557      2579      2553
 -1      1046    8    0    1
 -2       567       451       579      2503      2537      2580
 -1      1047    8    0    1
 -2       401       572       573      2516      2581      2518
 -1      1048    8    0    1
 -2       580       453       581      2538      2542      2582
 -1      1049    8    0    1
 -2       570       450       567      2511      2504      2583
 -1      1050    8    0    1
 -2       442       400       573      2398      2519      2584
 -1      1051    8    0    1
 -2       577       463       465      2532      2201      2585
 -1      1052    8    0    1
 -2       448       578       531      2535      2586      2531
 -1      1053    8    0    1
 -2       581       454       582      2541      2544      2587
 -1      1054    8    0    1
 -2       584       458       585      2548      2551      2588
 -1      1055    8    0    1
 -2       339       442       573      2165      2584      2570
 -1      1056    8    0    1
 -2       469       470       591      2214      2589      2590
 -1      1057    8    0    1
 -2       468       469       592      2211      2591      2592
 -1      1058    8    0    1
 -2       469       591       592      2590      2593      2591
 -1      1059    8    0    1
 -2       471       472       593      2220      2594      2595
 -1      1060    8    0    1
 -2       472       473       594      2223      2596      2597
 -1      1061    8    0    1
 -2       472       594       593      2597      2598      2594
 -1      1062    8    0    1
 -2       473       474       595      2226      2599      2600
 -1      1063    8    0    1
 -2       594       473       595      2596      2600      2601
 -1      1064    8    0    1
 -2       474       574       595      2522      2602      2599
 -1      1065    8    0    1
 -2       470       471       596      2217      2603      2604
 -1      1066    8    0    1
 -2       591       470       596      2589      2604      2605
 -1      1067    8    0    1
 -2       471       593       596      2595      2606      2603
 -1      1068    8    0    1
 -2       572       532       597      2517      2607      2608
 -1      1069    8    0    1
 -2       477       476       598      2235      2609      2610
 -1      1070    8    0    1
 -2       478       477       599      2238      2611      2612
 -1      1071    8    0    1
 -2       477       598       599      2610      2613      2611
 -1      1072    8    0    1
 -2       479       478       600      2241      2614      2615
 -1      1073    8    0    1
 -2       478       599       600      2612      2616      2614
 -1      1074    8    0    1
 -2       480       479       601      2244      2617      2618
 -1      1075    8    0    1
 -2       479       600       601      2615      2619      2617
 -1      1076    8    0    1
 -2       481       480       602      2247      2620      2621
 -1      1077    8    0    1
 -2       480       601       602      2618      2622      2620
 -1      1078    8    0    1
 -2       482       481       603      2250      2623      2624
 -1      1079    8    0    1
 -2       481       602       603      2621      2625      2623
 -1      1080    8    0    1
 -2       483       482       604      2253      2626      2627
 -1      1081    8    0    1
 -2       482       603       604      2624      2628      2626
 -1      1082    8    0    1
 -2       484       483       605      2256      2629      2630
 -1      1083    8    0    1
 -2       483       604       605      2627      2631      2629
 -1      1084    8    0    1
 -2       485       484       606      2259      2632      2633
 -1      1085    8    0    1
 -2       484       605       606      2630      2634      2632
 -1      1086    8    0    1
 -2       486       485       607      2262      2635      2636
 -1      1087    8    0    1
 -2       485       606       607      2633      2637      2635
 -1      1088    8    0    1
 -2       487       486       608      2265      2638      2639
 -1      1089    8    0    1
 -2       486       607       608      2636      2640      2638
 -1      1090    8    0    1
 -2       488       487       609      2268      2641      2642
 -1      1091    8    0    1
 -2       487       608       609      2639      2643      2641
 -1      1092    8    0    1
 -2       489       488       610      2271      2644      2645
 -1      1093    8    0    1
 -2       488       609       610      2642      2646      2644
 -1      1094    8    0    1
 -2       490       489       611      2274      2647      2648
 -1      1095    8    0    1
 -2       489       610       611      2645      2649      2647
 -1      1096    8    0    1
 -2       491       490       612      2277      2650      2651
 -1      1097    8    0    1
 -2       490       611       612      2648      2652      2650
 -1      1098    8    0    1
 -2       492       491       613      2280      2653      2654
 -1      1099    8    0    1
 -2       491       612       613      2651      2655      2653
 -1      1100    8    0    1
 -2       493       492       614      2283      2656      2657
 -1      1101    8    0    1
 -2       492       613       614      2654      2658      2656
 -1      1102    8    0    1
 -2       494       493       615      2286      2659      2660
 -1      1103    8    0    1
 -2       493       614       615      2657      2661      2659
 -1      1104    8    0    1
 -2       495       494       616      2289      2662      2663
 -1      1105    8    0    1
 -2       494       615       616      2660      2664      2662
 -1      1106    8    0    1
 -2       496       495       617      2292      2665      2666
 -1      1107    8    0    1
 -2       495       616       617      2663      2667      2665
 -1      1108    8    0    1
 -2       497       496       618      2295      2668      2669
 -1      1109    8    0    1
 -2       496       617       618      2666      2670      2668
 -1      1110    8    0    1
 -2       498       497       619      2298      2671      2672
 -1      1111    8    0    1
 -2       497       618       619      2669      2673      2671
 -1      1112    8    0    1
 -2       499       498       620      2301      2674      2675
 -1      1113    8    0    1
 -2       498       619       620      2672      2676      2674
 -1      1114    8    0    1
 -2       500       499       621      2304      2677      2678
 -1      1115    8    0    1
 -2       499       620       621      2675      2679      2677
 -1      1116    8    0    1
 -2       501       500       622      2307      2680      2681
 -1      1117    8    0    1
 -2       500       621       622      2678      2682      2680
 -1      1118    8    0    1
 -2       502       501       623      2310      2683      2684
 -1      1119    8    0    1
 -2       501       622       623      2681      2685      2683
 -1      1120    8    0    1
 -2       503       502       624      2313      2686      2687
 -1      1121    8    0    1
 -2       502       623       624      2684      2688      2686
 -1      1122    8    0    1
 -2       504       503       625      2316      2689      2690
 -1      1123    8    0    1
 -2       503       624       625      2687      2691      2689
 -1      1124    8    0    1
 -2       505       504       626      2319      2692      2693
 -1      1125    8    0    1
 -2       504       625       626      2690      2694      2692
 -1      1126    8    0    1
 -2       506       505       627      2322      2695      2696
 -1      1127    8    0    1
 -2       505       626       627      2693      2697      2695
 -1      1128    8    0    1
 -2       507       506       628      2325      2698      2699
 -1      1129    8    0    1
 -2       506       627       628      2696      2700      2698
 -1      1130    8    0    1
 -2       508       507       629      2328      2701      2702
 -1      1131    8    0    1
 -2       507       628       629      2699      2703      2701
 -1      1132    8    0    1
 -2       509       508       630      2331      2704      2705
 -1      1133    8    0    1
 -2       508       629       630      2702      2706      2704
 -1      1134    8    0    1
 -2       510       509       631      2334      2707      2708
 -1      1135    8    0    1
 -2       509       630       631      2705      2709      2707
 -1      1136    8    0    1
 -2       511       510       632      2337      2710      2711
 -1      1137    8    0    1
 -2       510       631       632      2708      2712      2710
 -1      1138    8    0    1
 -2       512       511       633      2340      2713      2714
 -1      1139    8    0    1
 -2       511       632       633      2711      2715      2713
 -1      1140    8    0    1
 -2       513       512       634      2343      2716      2717
 -1      1141    8    0    1
 -2       512       633       634      2714      2718      2716
 -1      1142    8    0    1
 -2       514       513       635      2346      2719      2720
 -1      1143    8    0    1
 -2       513       634       635      2717      2721      2719
 -1      1144    8    0    1
 -2       515       514       636      2349      2722      2723
 -1      1145    8    0    1
 -2       514       635       636      2720      2724      2722
 -1      1146    8    0    1
 -2       516       515       637      2352      2725      2726
 -1      1147    8    0    1
 -2       515       636       637      2723      2727      2725
 -1      1148    8    0    1
 -2       517       516       638      2355      2728      2729
 -1      1149    8    0    1
 -2       516       637       638      2726      2730      2728
 -1      1150    8    0    1
 -2       518       517       639      2358      2731      2732
 -1      1151    8    0    1
 -2       517       638       639      2729      2733      2731
 -1      1152    8    0    1
 -2       519       518       640      2361      2734      2735
 -1      1153    8    0    1
 -2       518       639       640      2732      2736      2734
 -1      1154    8    0    1
 -2       520       519       641      2365      2737      2738
 -1      1155    8    0    1
 -2       566       520       641      2578      2738      2739
 -1      1156    8    0    1
 -2       519       640       641      2735      2740      2737
 -1      1157    8    0    1
 -2       583       571       642      2565      2741      2742
 -1      1158    8    0    1
 -2       521       523       643      2372      2743      2744
 -1      1159    8    0    1
 -2       525       526       644      2381      2745      2746
 -1      1160    8    0    1
 -2       526       527       645      2384      2747      2748
 -1      1161    8    0    1
 -2       526       645       644      2748      2749      2745
 -1      1162    8    0    1
 -2       527       528       646      2387      2750      2751
 -1      1163    8    0    1
 -2       527       646       645      2751      2752      2747
 -1      1164    8    0    1
 -2       528       529       647      2390      2753      2754
 -1      1165    8    0    1
 -2       528       647       646      2754      2755      2750
 -1      1166    8    0    1
 -2       529       530       648      2393      2756      2757
 -1      1167    8    0    1
 -2       529       648       647      2757      2758      2753
 -1      1168    8    0    1
 -2       530       531       649      2396      2759      2760
 -1      1169    8    0    1
 -2       648       530       649      2756      2760      2761
 -1      1170    8    0    1
 -2       531       578       649      2586      2762      2759
 -1      1171    8    0    1
 -2       534       535       650      2409      2763      2764
 -1      1172    8    0    1
 -2       560       561       651      2486      2765      2766
 -1      1173    8    0    1
 -2       533       534       652      2406      2767      2768
 -1      1174    8    0    1
 -2       534       650       652      2764      2769      2767
 -1      1175    8    0    1
 -2       524       525       653      2378      2770      2771
 -1      1176    8    0    1
 -2       525       644       653      2746      2772      2770
 -1      1177    8    0    1
 -2       585       568       654      2552      2773      2774
 -1      1178    8    0    1
 -2       577       465       655      2585      2775      2776
 -1      1179    8    0    1
 -2       532       533       656      2403      2777      2778
 -1      1180    8    0    1
 -2       533       652       656      2768      2779      2777
 -1      1181    8    0    1
 -2       535       536       657      2412      2780      2781
 -1      1182    8    0    1
 -2       535       657       650      2781      2782      2763
 -1      1183    8    0    1
 -2       536       537       658      2415      2783      2784
 -1      1184    8    0    1
 -2       536       658       657      2784      2785      2780
 -1      1185    8    0    1
 -2       537       538       659      2418      2786      2787
 -1      1186    8    0    1
 -2       537       659       658      2787      2788      2783
 -1      1187    8    0    1
 -2       538       539       660      2421      2789      2790
 -1      1188    8    0    1
 -2       538       660       659      2790      2791      2786
 -1      1189    8    0    1
 -2       539       540       661      2424      2792      2793
 -1      1190    8    0    1
 -2       539       661       660      2793      2794      2789
 -1      1191    8    0    1
 -2       540       541       662      2427      2795      2796
 -1      1192    8    0    1
 -2       540       662       661      2796      2797      2792
 -1      1193    8    0    1
 -2       541       542       663      2430      2798      2799
 -1      1194    8    0    1
 -2       541       663       662      2799      2800      2795
 -1      1195    8    0    1
 -2       542       543       664      2433      2801      2802
 -1      1196    8    0    1
 -2       542       664       663      2802      2803      2798
 -1      1197    8    0    1
 -2       543       544       665      2436      2804      2805
 -1      1198    8    0    1
 -2       543       665       664      2805      2806      2801
 -1      1199    8    0    1
 -2       544       545       666      2439      2807      2808
 -1      1200    8    0    1
 -2       544       666       665      2808      2809      2804
 -1      1201    8    0    1
 -2       545       546       667      2442      2810      2811
 -1      1202    8    0    1
 -2       545       667       666      2811      2812      2807
 -1      1203    8    0    1
 -2       546       547       668      2445      2813      2814
 -1      1204    8    0    1
 -2       546       668       667      2814      2815      2810
 -1      1205    8    0    1
 -2       547       548       669      2448      2816      2817
 -1      1206    8    0    1
 -2       547       669       668      2817      2818      2813
 -1      1207    8    0    1
 -2       548       549       670      2451      2819      2820
 -1      1208    8    0    1
 -2       548       670       669      2820      2821      2816
 -1      1209    8    0    1
 -2       549       550       671      2454      2822      2823
 -1      1210    8    0    1
 -2       549       671       670      2823      2824      2819
 -1      1211    8    0    1
 -2       550       551       672      2457      2825      2826
 -1      1212    8    0    1
 -2       550       672       671      2826      2827      2822
 -1      1213    8    0    1
 -2       551       552       673      2460      2828      2829
 -1      1214    8    0    1
 -2       551       673       672      2829      2830      2825
 -1      1215    8    0    1
 -2       552       553       674      2463      2831      2832
 -1      1216    8    0    1
 -2       552       674       673      2832      2833      2828
 -1      1217    8    0    1
 -2       553       554       675      2466      2834      2835
 -1      1218    8    0    1
 -2       553       675       674      2835      2836      2831
 -1      1219    8    0    1
 -2       554       555       676      2469      2837      2838
 -1      1220    8    0    1
 -2       554       676       675      2838      2839      2834
 -1      1221    8    0    1
 -2       555       556       590      2573      2576      2840
 -1      1222    8    0    1
 -2       557       558       677      2477      2841      2842
 -1      1223    8    0    1
 -2       559       557       678      2480      2843      2844
 -1      1224    8    0    1
 -2       557       677       678      2842      2845      2843
 -1      1225    8    0    1
 -2       558       560       679      2483      2846      2847
 -1      1226    8    0    1
 -2       560       651       679      2766      2848      2846
 -1      1227    8    0    1
 -2       561       562       680      2489      2849      2850
 -1      1228    8    0    1
 -2       561       680       651      2850      2851      2765
 -1      1229    8    0    1
 -2       562       563       681      2492      2852      2853
 -1      1230    8    0    1
 -2       562       681       680      2853      2854      2849
 -1      1231    8    0    1
 -2       563       564       682      2495      2855      2856
 -1      1232    8    0    1
 -2       563       682       681      2856      2857      2852
 -1      1233    8    0    1
 -2       564       565       683      2498      2858      2859
 -1      1234    8    0    1
 -2       564       683       682      2859      2860      2855
 -1      1235    8    0    1
 -2       565       566       684      2501      2861      2862
 -1      1236    8    0    1
 -2       683       565       684      2858      2862      2863
 -1      1237    8    0    1
 -2       566       641       684      2739      2864      2861
 -1      1238    8    0    1
 -2       586       587       685      2579      2865      2866
 -1      1239    8    0    1
 -2       568       586       686      2555      2867      2868
 -1      1240    8    0    1
 -2       571       584       687      2566      2869      2870
 -1      1241    8    0    1
 -2       580       581       688      2582      2871      2872
 -1      1242    8    0    1
 -2       570       567       689      2583      2873      2874
 -1      1243    8    0    1
 -2       569       444       588      2568      2561      2875
 -1      1244    8    0    1
 -2       465       475       690      2569      2876      2877
 -1      1245    8    0    1
 -2       523       524       691      2375      2878      2879
 -1      1246    8    0    1
 -2       524       653       691      2771      2880      2878
 -1      1247    8    0    1
 -2       467       466       692      2206      2881      2882
 -1      1248    8    0    1
 -2       579       580       693      2540      2883      2884
 -1      1249    8    0    1
 -2       584       585       694      2588      2885      2886
 -1      1250    8    0    1
 -2       585       654       694      2774      2887      2885
 -1      1251    8    0    1
 -2       582       583       695      2547      2888      2889
 -1      1252    8    0    1
 -2       567       579       696      2580      2890      2891
 -1      1253    8    0    1
 -2       579       693       696      2884      2892      2890
 -1      1254    8    0    1
 -2       587       577       697      2558      2893      2894
 -1      1255    8    0    1
 -2       685       587       697      2865      2894      2895
 -1      1256    8    0    1
 -2       577       655       697      2776      2896      2893
 -1      1257    8    0    1
 -2       581       582       698      2587      2897      2898
 -1      1258    8    0    1
 -2       574       576       699      2529      2899      2900
 -1      1259    8    0    1
 -2       574       699       595      2900      2901      2602
 -1      1260    8    0    1
 -2       468       592       700      2592      2902      2903
 -1      1261    8    0    1
 -2       468       700       575      2903      2904      2526
 -1      1262    8    0    1
 -2       466       575       701      2525      2905      2906
 -1      1263    8    0    1
 -2       692       466       701      2881      2906      2907
 -1      1264    8    0    1
 -2       575       700       701      2904      2908      2905
 -1      1265    8    0    1
 -2       583       642       695      2742      2909      2888
 -1      1266    8    0    1
 -2       572       597       589      2608      2910      2911
 -1      1267    8    0    1
 -2       586       685       686      2866      2912      2867
 -1      1268    8    0    1
 -2       643       523       691      2743      2879      2913
 -1      1269    8    0    1
 -2       558       679       677      2847      2914      2841
 -1      1270    8    0    1
 -2       582       695       698      2889      2915      2897
 -1      1271    8    0    1
 -2       465       690       655      2877      2916      2775
 -1      1272    8    0    1
 -2       475       589       702      2563      2917      2918
 -1      1273    8    0    1
 -2       690       475       702      2876      2918      2919
 -1      1274    8    0    1
 -2       589       597       702      2910      2920      2917
 -1      1275    8    0    1
 -2       654       568       686      2773      2868      2921
 -1      1276    8    0    1
 -2       576       521       703      2530      2922      2923
 -1      1277    8    0    1
 -2       699       576       703      2899      2923      2924
 -1      1278    8    0    1
 -2       521       643       703      2744      2925      2922
 -1      1279    8    0    1
 -2       581       698       704      2898      2926      2927
 -1      1280    8    0    1
 -2       581       704       688      2927      2928      2871
 -1      1281    8    0    1
 -2       532       656       597      2778      2929      2607
 -1      1282    8    0    1
 -2       555       590       676      2840      2930      2837
 -1      1283    8    0    1
 -2       590       559       676      2577      2931      2930
 -1      1284    8    0    1
 -2       642       571       687      2741      2870      2932
 -1      1285    8    0    1
 -2       559       678       676      2844      2933      2931
 -1      1286    8    0    1
 -2       693       580       688      2883      2872      2934
 -1      1287    8    0    1
 -2       476       569       705      2509      2935      2936
 -1      1288    8    0    1
 -2       578       570       706      2567      2937      2938
 -1      1289    8    0    1
 -2       649       578       706      2762      2938      2939
 -1      1290    8    0    1
 -2       570       689       706      2874      2940      2937
 -1      1291    8    0    1
 -2       476       705       598      2936      2941      2609
 -1      1292    8    0    1
 -2       689       567       696      2873      2891      2942
 -1      1293    8    0    1
 -2       687       584       707      2869      2943      2944
 -1      1294    8    0    1
 -2       584       694       707      2886      2945      2943
 -1      1295    8    0    1
 -2       573       572       589      2581      2911      2946
 -1      1296    8    0    1
 -2       522       573       589      2571      2946      2564
 -1      1297    8    0    1
 -2       467       692       708      2882      2947      2948
 -1      1298    8    0    1
 -2       467       708       588      2948      2949      2559
 -1      1299    8    0    1
 -2       594       595       709      2601      2950      2951
 -1      1300    8    0    1
 -2       595       699       709      2901      2952      2950
 -1      1301    8    0    1
 -2       593       594       709      2598      2951      2953
 -1      1302    8    0    1
 -2       695       642       710      2909      2954      2955
 -1      1303    8    0    1
 -2       599       598       711      2613      2956      2957
 -1      1304    8    0    1
 -2       689       696       712      2942      2958      2959
 -1      1305    8    0    1
 -2       654       686       713      2921      2960      2961
 -1      1306    8    0    1
 -2       686       685       714      2912      2962      2963
 -1      1307    8    0    1
 -2       600       599       715      2616      2964      2965
 -1      1308    8    0    1
 -2       599       711       715      2957      2966      2964
 -1      1309    8    0    1
 -2       601       600       716      2619      2967      2968
 -1      1310    8    0    1
 -2       600       715       716      2965      2969      2967
 -1      1311    8    0    1
 -2       602       601       717      2622      2970      2971
 -1      1312    8    0    1
 -2       601       716       717      2968      2972      2970
 -1      1313    8    0    1
 -2       603       602       718      2625      2973      2974
 -1      1314    8    0    1
 -2       602       717       718      2971      2975      2973
 -1      1315    8    0    1
 -2       604       603       719      2628      2976      2977
 -1      1316    8    0    1
 -2       603       718       719      2974      2978      2976
 -1      1317    8    0    1
 -2       605       604       720      2631      2979      2980
 -1      1318    8    0    1
 -2       604       719       720      2977      2981      2979
 -1      1319    8    0    1
 -2       606       605       721      2634      2982      2983
 -1      1320    8    0    1
 -2       605       720       721      2980      2984      2982
 -1      1321    8    0    1
 -2       607       606       722      2637      2985      2986
 -1      1322    8    0    1
 -2       606       721       722      2983      2987      2985
 -1      1323    8    0    1
 -2       608       607       723      2640      2988      2989
 -1      1324    8    0    1
 -2       607       722       723      2986      2990      2988
 -1      1325    8    0    1
 -2       609       608       724      2643      2991      2992
 -1      1326    8    0    1
 -2       608       723       724      2989      2993      2991
 -1      1327    8    0    1
 -2       610       609       725      2646      2994      2995
 -1      1328    8    0    1
 -2       609       724       725      2992      2996      2994
 -1      1329    8    0    1
 -2       611       610       726      2649      2997      2998
 -1      1330    8    0    1
 -2       610       725       726      2995      2999      2997
 -1      1331    8    0    1
 -2       612       611       727      2652      3000      3001
 -1      1332    8    0    1
 -2       611       726       727      2998      3002      3000
 -1      1333    8    0    1
 -2       613       612       728      2655      3003      3004
 -1      1334    8    0    1
 -2       612       727       728      3001      3005      3003
 -1      1335    8    0    1
 -2       614       613       729      2658      3006      3007
 -1      1336    8    0    1
 -2       613       728       729      3004      3008      3006
 -1      1337    8    0    1
 -2       615       614       730      2661      3009      3010
 -1      1338    8    0    1
 -2       614       729       730      3007      3011      3009
 -1      1339    8    0    1
 -2       616       615       731      2664      3012      3013
 -1      1340    8    0    1
 -2       615       730       731      3010      3014      3012
 -1      1341    8    0    1
 -2       617       616       732      2667      3015      3016
 -1      1342    8    0    1
 -2       616       731       732      3013      3017      3015
 -1      1343    8    0    1
 -2       618       617       733      2670      3018      3019
 -1      1344    8    0    1
 -2       617       732       733      3016      3020      3018
 -1      1345    8    0    1
 -2       619       618       734      2673      3021      3022
 -1      1346    8    0    1
 -2       618       733       734      3019      3023      3021
 -1      1347    8    0    1
 -2       620       619       735      2676      3024      3025
 -1      1348    8    0    1
 -2       619       734       735      3022      3026      3024
 -1      1349    8    0    1
 -2       621       620       736      2679      3027      3028
 -1      1350    8    0    1
 -2       620       735       736      3025      3029      3027
 -1      1351    8    0    1
 -2       622       621       737      2682      3030      3031
 -1      1352    8    0    1
 -2       621       736       737      3028      3032      3030
 -1      1353    8    0    1
 -2       623       622       738      2685      3033      3034
 -1      1354    8    0    1
 -2       622       737       738      3031      3035      3033
 -1      1355    8    0    1
 -2       624       623       739      2688      3036      3037
 -1      1356    8    0    1
 -2       623       738       739      3034      3038      3036
 -1      1357    8    0    1
 -2       625       624       740      2691      3039      3040
 -1      1358    8    0    1
 -2       624       739       740      3037      3041      3039
 -1      1359    8    0    1
 -2       626       625       741      2694      3042      3043
 -1      1360    8    0    1
 -2       625       740       741      3040      3044      3042
 -1      1361    8    0    1
 -2       627       626       742      2697      3045      3046
 -1      1362    8    0    1
 -2       626       741       742      3043      3047      3045
 -1      1363    8    0    1
 -2       628       627       743      2700      3048      3049
 -1      1364    8    0    1
 -2       627       742       743      3046      3050      3048
 -1      1365    8    0    1
 -2       629       628       744      2703      3051      3052
 -1      1366    8    0    1
 -2       628       743       744      3049      3053      3051
 -1      1367    8    0    1
 -2       630       629       745      2706      3054      3055
 -1      1368    8    0    1
 -2       629       744       745      3052      3056      3054
 -1      1369    8    0    1
 -2       631       630       746      2709      3057      3058
 -1      1370    8    0    1
 -2       630       745       746      3055      3059      3057
 -1      1371    8    0    1
 -2       632       631       747      2712      3060      3061
 -1      1372    8    0    1
 -2       631       746       747      3058      3062      3060
 -1      1373    8    0    1
 -2       633       632       748      2715      3063      3064
 -1      1374    8    0    1
 -2       632       747       748      3061      3065      3063
 -1      1375    8    0    1
 -2       634       633       749      2718      3066      3067
 -1      1376    8    0    1
 -2       633       748       749      3064      3068      3066
 -1      1377    8    0    1
 -2       635       634       750      2721      3069      3070
 -1      1378    8    0    1
 -2       634       749       750      3067      3071      3069
 -1      1379    8    0    1
 -2       636       635       751      2724      3072      3073
 -1      1380    8    0    1
 -2       635       750       751      3070      3074      3072
 -1      1381    8    0    1
 -2       637       636       752      2727      3075      3076
 -1      1382    8    0    1
 -2       636       751       752      3073      3077      3075
 -1      1383    8    0    1
 -2       638       637       753      2730      3078      3079
 -1      1384    8    0    1
 -2       637       752       753      3076      3080      3078
 -1      1385    8    0    1
 -2       639       638       754      2733      3081      3082
 -1      1386    8    0    1
 -2       638       753       754      3079      3083      3081
 -1      1387    8    0    1
 -2       640       639       755      2736      3084      3085
 -1      1388    8    0    1
 -2       639       754       755      3082      3086      3084
 -1      1389    8    0    1
 -2       641       640       756      2740      3087      3088
 -1      1390    8    0    1
 -2       684       641       756      2864      3088      3089
 -1      1391    8    0    1
 -2       640       755       756      3085      3090      3087
 -1      1392    8    0    1
 -2       644       645       757      2749      3091      3092
 -1      1393    8    0    1
 -2       647       648       758      2758      3093      3094
 -1      1394    8    0    1
 -2       648       649       759      2761      3095      3096
 -1      1395    8    0    1
 -2       758       648       759      3093      3096      3097
 -1      1396    8    0    1
 -2       649       706       759      2939      3098      3095
 -1      1397    8    0    1
 -2       657       658       760      2785      3099      3100
 -1      1398    8    0    1
 -2       680       681       761      2854      3101      3102
 -1      1399    8    0    1
 -2       651       680       762      2851      3103      3104
 -1      1400    8    0    1
 -2       680       761       762      3102      3105      3103
 -1      1401    8    0    1
 -2       650       657       763      2782      3106      3107
 -1      1402    8    0    1
 -2       657       760       763      3100      3108      3106
 -1      1403    8    0    1
 -2       653       644       764      2772      3109      3110
 -1      1404    8    0    1
 -2       644       757       764      3092      3111      3109
 -1      1405    8    0    1
 -2       658       659       765      2788      3112      3113
 -1      1406    8    0    1
 -2       658       765       760      3113      3114      3099
 -1      1407    8    0    1
 -2       659       660       766      2791      3115      3116
 -1      1408    8    0    1
 -2       659       766       765      3116      3117      3112
 -1      1409    8    0    1
 -2       660       661       767      2794      3118      3119
 -1      1410    8    0    1
 -2       660       767       766      3119      3120      3115
 -1      1411    8    0    1
 -2       661       662       768      2797      3121      3122
 -1      1412    8    0    1
 -2       661       768       767      3122      3123      3118
 -1      1413    8    0    1
 -2       662       663       769      2800      3124      3125
 -1      1414    8    0    1
 -2       662       769       768      3125      3126      3121
 -1      1415    8    0    1
 -2       663       664       770      2803      3127      3128
 -1      1416    8    0    1
 -2       663       770       769      3128      3129      3124
 -1      1417    8    0    1
 -2       664       665       771      2806      3130      3131
 -1      1418    8    0    1
 -2       664       771       770      3131      3132      3127
 -1      1419    8    0    1
 -2       665       666       772      2809      3133      3134
 -1      1420    8    0    1
 -2       665       772       771      3134      3135      3130
 -1      1421    8    0    1
 -2       666       667       773      2812      3136      3137
 -1      1422    8    0    1
 -2       666       773       772      3137      3138      3133
 -1      1423    8    0    1
 -2       667       668       774      2815      3139      3140
 -1      1424    8    0    1
 -2       667       774       773      3140      3141      3136
 -1      1425    8    0    1
 -2       668       669       775      2818      3142      3143
 -1      1426    8    0    1
 -2       668       775       774      3143      3144      3139
 -1      1427    8    0    1
 -2       669       670       776      2821      3145      3146
 -1      1428    8    0    1
 -2       669       776       775      3146      3147      3142
 -1      1429    8    0    1
 -2       670       671       777      2824      3148      3149
 -1      1430    8    0    1
 -2       670       777       776      3149      3150      3145
 -1      1431    8    0    1
 -2       671       672       778      2827      3151      3152
 -1      1432    8    0    1
 -2       671       778       777      3152      3153      3148
 -1      1433    8    0    1
 -2       672       673       779      2830      3154      3155
 -1      1434    8    0    1
 -2       672       779       778      3155      3156      3151
 -1      1435    8    0    1
 -2       673       674       780      2833      3157      3158
 -1      1436    8    0    1
 -2       673       780       779      3158      3159      3154
 -1      1437    8    0    1
 -2       674       675       781      2836      3160      3161
 -1      1438    8    0    1
 -2       674       781       780      3161      3162      3157
 -1      1439    8    0    1
 -2       675       676       782      2839      3163      3164
 -1      1440    8    0    1
 -2       781       675       782      3160      3164      3165
 -1      1441    8    0    1
 -2       676       678       782      2933      3166      3163
 -1      1442    8    0    1
 -2       693       688       783      2934      3167      3168
 -1      1443    8    0    1
 -2       678       677       784      2845      3169      3170
 -1      1444    8    0    1
 -2       678       784       782      3170      3171      3166
 -1      1445    8    0    1
 -2       696       693       785      2892      3172      3173
 -1      1446    8    0    1
 -2       698       695       786      2915      3174      3175
 -1      1447    8    0    1
 -2       679       651       787      2848      3176      3177
 -1      1448    8    0    1
 -2       651       762       787      3104      3178      3176
 -1      1449    8    0    1
 -2       681       682       788      2857      3179      3180
 -1      1450    8    0    1
 -2       681       788       761      3180      3181      3101
 -1      1451    8    0    1
 -2       682       683       789      2860      3182      3183
 -1      1452    8    0    1
 -2       682       789       788      3183      3184      3179
 -1      1453    8    0    1
 -2       655       690       790      2916      3185      3186
 -1      1454    8    0    1
 -2       643       691       791      2913      3187      3188
 -1      1455    8    0    1
 -2       694       654       792      2887      3189      3190
 -1      1456    8    0    1
 -2       705       569       588      2935      2875      3191
 -1      1457    8    0    1
 -2       691       653       793      2880      3192      3193
 -1      1458    8    0    1
 -2       791       691       793      3187      3193      3194
 -1      1459    8    0    1
 -2       653       764       793      3110      3195      3192
 -1      1460    8    0    1
 -2       597       656       794      2929      3196      3197
 -1      1461    8    0    1
 -2       597       794       702      3197      3198      2920
 -1      1462    8    0    1
 -2       677       679       795      2914      3199      3200
 -1      1463    8    0    1
 -2       784       677       795      3169      3200      3201
 -1      1464    8    0    1
 -2       679       787       795      3177      3202      3199
 -1      1465    8    0    1
 -2       642       687       796      2932      3203      3204
 -1      1466    8    0    1
 -2       642       796       710      3204      3205      2954
 -1      1467    8    0    1
 -2       656       652       797      2779      3206      3207
 -1      1468    8    0    1
 -2       656       797       794      3207      3208      3196
 -1      1469    8    0    1
 -2       652       650       798      2769      3209      3210
 -1      1470    8    0    1
 -2       797       652       798      3206      3210      3211
 -1      1471    8    0    1
 -2       650       763       798      3107      3212      3209
 -1      1472    8    0    1
 -2       646       647       799      2755      3213      3214
 -1      1473    8    0    1
 -2       647       758       799      3094      3215      3213
 -1      1474    8    0    1
 -2       645       646       800      2752      3216      3217
 -1      1475    8    0    1
 -2       757       645       800      3091      3217      3218
 -1      1476    8    0    1
 -2       646       799       800      3214      3219      3216
 -1      1477    8    0    1
 -2       592       591       801      2593      3220      3221
 -1      1478    8    0    1
 -2       705       588       708      3191      2949      3222
 -1      1479    8    0    1
 -2       700       592       802      2902      3223      3224
 -1      1480    8    0    1
 -2       592       801       802      3221      3225      3223
 -1      1481    8    0    1
 -2       689       712       803      2959      3226      3227
 -1      1482    8    0    1
 -2       654       713       792      2961      3228      3189
 -1      1483    8    0    1
 -2       686       714       713      2963      3229      2960
 -1      1484    8    0    1
 -2       688       704       804      2928      3230      3231
 -1      1485    8    0    1
 -2       688       804       783      3231      3232      3167
 -1      1486    8    0    1
 -2       689       803       706      3227      3233      2940
 -1      1487    8    0    1
 -2       703       643       805      2925      3234      3235
 -1      1488    8    0    1
 -2       643       791       805      3188      3236      3234
 -1      1489    8    0    1
 -2       696       785       712      3173      3237      2958
 -1      1490    8    0    1
 -2       796       687       806      3203      3238      3239
 -1      1491    8    0    1
 -2       687       707       806      2944      3240      3238
 -1      1492    8    0    1
 -2       785       693       783      3172      3168      3241
 -1      1493    8    0    1
 -2       698       786       704      3175      3242      2926
 -1      1494    8    0    1
 -2       655       790       807      3186      3243      3244
 -1      1495    8    0    1
 -2       790       690       808      3185      3245      3246
 -1      1496    8    0    1
 -2       690       702       808      2919      3247      3245
 -1      1497    8    0    1
 -2       683       684       809      2863      3248      3249
 -1      1498    8    0    1
 -2       789       683       809      3182      3249      3250
 -1      1499    8    0    1
 -2       684       756       809      3089      3251      3248
 -1      1500    8    0    1
 -2       801       591       810      3220      3252      3253
 -1      1501    8    0    1
 -2       591       596       810      2605      3254      3252
 -1      1502    8    0    1
 -2       694       792       811      3190      3255      3256
 -1      1503    8    0    1
 -2       694       811       707      3256      3257      2945
 -1      1504    8    0    1
 -2       786       695       710      3174      2955      3258
 -1      1505    8    0    1
 -2       598       705       708      2941      3222      3259
 -1      1506    8    0    1
 -2       692       701       812      2907      3260      3261
 -1      1507    8    0    1
 -2       685       697       813      2895      3262      3263
 -1      1508    8    0    1
 -2       714       685       813      2962      3263      3264
 -1      1509    8    0    1
 -2       708       692       814      2947      3265      3266
 -1      1510    8    0    1
 -2       692       812       814      3261      3267      3265
 -1      1511    8    0    1
 -2       596       593       815      2606      3268      3269
 -1      1512    8    0    1
 -2       596       815       810      3269      3270      3254
 -1      1513    8    0    1
 -2       697       655       807      2896      3244      3271
 -1      1514    8    0    1
 -2       598       708       711      3259      3272      2956
 -1      1515    8    0    1
 -2       593       709       815      2953      3273      3268
 -1      1516    8    0    1
 -2       803       712       816      3226      3274      3275
 -1      1517    8    0    1
 -2       701       700       817      2908      3276      3277
 -1      1518    8    0    1
 -2       701       817       812      3277      3278      3260
 -1      1519    8    0    1
 -2       815       709       818      3273      3279      3280
 -1      1520    8    0    1
 -2       794       797       819      3208      3281      3282
 -1      1521    8    0    1
 -2       792       713       820      3228      3283      3284
 -1      1522    8    0    1
 -2       760       765       821      3114      3285      3286
 -1      1523    8    0    1
 -2       716       715       822      2969      3287      3288
 -1      1524    8    0    1
 -2       717       716       823      2972      3289      3290
 -1      1525    8    0    1
 -2       716       822       823      3288      3291      3289
 -1      1526    8    0    1
 -2       718       717       824      2975      3292      3293
 -1      1527    8    0    1
 -2       717       823       824      3290      3294      3292
 -1      1528    8    0    1
 -2       719       718       825      2978      3295      3296
 -1      1529    8    0    1
 -2       718       824       825      3293      3297      3295
 -1      1530    8    0    1
 -2       720       719       826      2981      3298      3299
 -1      1531    8    0    1
 -2       719       825       826      3296      3300      3298
 -1      1532    8    0    1
 -2       721       720       827      2984      3301      3302
 -1      1533    8    0    1
 -2       720       826       827      3299      3303      3301
 -1      1534    8    0    1
 -2       722       721       828      2987      3304      3305
 -1      1535    8    0    1
 -2       721       827       828      3302      3306      3304
 -1      1536    8    0    1
 -2       723       722       829      2990      3307      3308
 -1      1537    8    0    1
 -2       722       828       829      3305      3309      3307
 -1      1538    8    0    1
 -2       724       723       830      2993      3310      3311
 -1      1539    8    0    1
 -2       723       829       830      3308      3312      3310
 -1      1540    8    0    1
 -2       725       724       831      2996      3313      3314
 -1      1541    8    0    1
 -2       724       830       831      3311      3315      3313
 -1      1542    8    0    1
 -2       726       725       832      2999      3316      3317
 -1      1543    8    0    1
 -2       725       831       832      3314      3318      3316
 -1      1544    8    0    1
 -2       727       726       833      3002      3319      3320
 -1      1545    8    0    1
 -2       726       832       833      3317      3321      3319
 -1      1546    8    0    1
 -2       728       727       834      3005      3322      3323
 -1      1547    8    0    1
 -2       727       833       834      3320      3324      3322
 -1      1548    8    0    1
 -2       729       728       835      3008      3325      3326
 -1      1549    8    0    1
 -2       728       834       835      3323      3327      3325
 -1      1550    8    0    1
 -2       730       729       836      3011      3328      3329
 -1      1551    8    0    1
 -2       729       835       836      3326      3330      3328
 -1      1552    8    0    1
 -2       731       730       837      3014      3331      3332
 -1      1553    8    0    1
 -2       730       836       837      3329      3333      3331
 -1      1554    8    0    1
 -2       732       731       838      3017      3334      3335
 -1      1555    8    0    1
 -2       731       837       838      3332      3336      3334
 -1      1556    8    0    1
 -2       733       732       839      3020      3337      3338
 -1      1557    8    0    1
 -2       732       838       839      3335      3339      3337
 -1      1558    8    0    1
 -2       734       733       840      3023      3340      3341
 -1      1559    8    0    1
 -2       733       839       840      3338      3342      3340
 -1      1560    8    0    1
 -2       735       734       841      3026      3343      3344
 -1      1561    8    0    1
 -2       734       840       841      3341      3345      3343
 -1      1562    8    0    1
 -2       736       735       842      3029      3346      3347
 -1      1563    8    0    1
 -2       735       841       842      3344      3348      3346
 -1      1564    8    0    1
 -2       737       736       843      3032      3349      3350
 -1      1565    8    0    1
 -2       736       842       843      3347      3351      3349
 -1      1566    8    0    1
 -2       738       737       844      3035      3352      3353
 -1      1567    8    0    1
 -2       737       843       844      3350      3354      3352
 -1      1568    8    0    1
 -2       739       738       845      3038      3355      3356
 -1      1569    8    0    1
 -2       738       844       845      3353      3357      3355
 -1      1570    8    0    1
 -2       740       739       846      3041      3358      3359
 -1      1571    8    0    1
 -2       739       845       846      3356      3360      3358
 -1      1572    8    0    1
 -2       741       740       847      3044      3361      3362
 -1      1573    8    0    1
 -2       740       846       847      3359      3363      3361
 -1      1574    8    0    1
 -2       742       741       848      3047      3364      3365
 -1      1575    8    0    1
 -2       741       847       848      3362      3366      3364
 -1      1576    8    0    1
 -2       743       742       849      3050      3367      3368
 -1      1577    8    0    1
 -2       742       848       849      3365      3369      3367
 -1      1578    8    0    1
 -2       744       743       850      3053      3370      3371
 -1      1579    8    0    1
 -2       743       849       850      3368      3372      3370
 -1      1580    8    0    1
 -2       745       744       851      3056      3373      3374
 -1      1581    8    0    1
 -2       744       850       851      3371      3375      3373
 -1      1582    8    0    1
 -2       746       745       852      3059      3376      3377
 -1      1583    8    0    1
 -2       745       851       852      3374      3378      3376
 -1      1584    8    0    1
 -2       747       746       853      3062      3379      3380
 -1      1585    8    0    1
 -2       746       852       853      3377      3381      3379
 -1      1586    8    0    1
 -2       748       747       854      3065      3382      3383
 -1      1587    8    0    1
 -2       747       853       854      3380      3384      3382
 -1      1588    8    0    1
 -2       749       748       855      3068      3385      3386
 -1      1589    8    0    1
 -2       748       854       855      3383      3387      3385
 -1      1590    8    0    1
 -2       750       749       856      3071      3388      3389
 -1      1591    8    0    1
 -2       749       855       856      3386      3390      3388
 -1      1592    8    0    1
 -2       751       750       857      3074      3391      3392
 -1      1593    8    0    1
 -2       750       856       857      3389      3393      3391
 -1      1594    8    0    1
 -2       752       751       858      3077      3394      3395
 -1      1595    8    0    1
 -2       751       857       858      3392      3396      3394
 -1      1596    8    0    1
 -2       753       752       859      3080      3397      3398
 -1      1597    8    0    1
 -2       752       858       859      3395      3399      3397
 -1      1598    8    0    1
 -2       754       753       860      3083      3400      3401
 -1      1599    8    0    1
 -2       753       859       860      3398      3402      3400
 -1      1600    8    0    1
 -2       765       766       861      3117      3403      3404
 -1      1601    8    0    1
 -2       765       861       821      3404      3405      3285
 -1      1602    8    0    1
 -2       788       789       862      3184      3406      3407
 -1      1603    8    0    1
 -2       762       761       863      3105      3408      3409
 -1      1604    8    0    1
 -2       761       788       864      3181      3410      3411
 -1      1605    8    0    1
 -2       863       761       864      3408      3411      3412
 -1      1606    8    0    1
 -2       788       862       864      3407      3413      3410
 -1      1607    8    0    1
 -2       763       760       865      3108      3414      3415
 -1      1608    8    0    1
 -2       760       821       865      3286      3416      3414
 -1      1609    8    0    1
 -2       764       757       866      3111      3417      3418
 -1      1610    8    0    1
 -2       766       767       867      3120      3419      3420
 -1      1611    8    0    1
 -2       766       867       861      3420      3421      3403
 -1      1612    8    0    1
 -2       767       768       868      3123      3422      3423
 -1      1613    8    0    1
 -2       767       868       867      3423      3424      3419
 -1      1614    8    0    1
 -2       768       769       869      3126      3425      3426
 -1      1615    8    0    1
 -2       768       869       868      3426      3427      3422
 -1      1616    8    0    1
 -2       769       770       870      3129      3428      3429
 -1      1617    8    0    1
 -2       769       870       869      3429      3430      3425
 -1      1618    8    0    1
 -2       770       771       871      3132      3431      3432
 -1      1619    8    0    1
 -2       770       871       870      3432      3433      3428
 -1      1620    8    0    1
 -2       771       772       872      3135      3434      3435
 -1      1621    8    0    1
 -2       771       872       871      3435      3436      3431
 -1      1622    8    0    1
 -2       772       773       873      3138      3437      3438
 -1      1623    8    0    1
 -2       772       873       872      3438      3439      3434
 -1      1624    8    0    1
 -2       773       774       874      3141      3440      3441
 -1      1625    8    0    1
 -2       773       874       873      3441      3442      3437
 -1      1626    8    0    1
 -2       774       775       875      3144      3443      3444
 -1      1627    8    0    1
 -2       774       875       874      3444      3445      3440
 -1      1628    8    0    1
 -2       775       776       876      3147      3446      3447
 -1      1629    8    0    1
 -2       775       876       875      3447      3448      3443
 -1      1630    8    0    1
 -2       776       777       877      3150      3449      3450
 -1      1631    8    0    1
 -2       776       877       876      3450      3451      3446
 -1      1632    8    0    1
 -2       777       778       878      3153      3452      3453
 -1      1633    8    0    1
 -2       777       878       877      3453      3454      3449
 -1      1634    8    0    1
 -2       778       779       879      3156      3455      3456
 -1      1635    8    0    1
 -2       778       879       878      3456      3457      3452
 -1      1636    8    0    1
 -2       779       780       880      3159      3458      3459
 -1      1637    8    0    1
 -2       779       880       879      3459      3460      3455
 -1      1638    8    0    1
 -2       780       781       881      3162      3461      3462
 -1      1639    8    0    1
 -2       780       881       880      3462      3463      3458
 -1      1640    8    0    1
 -2       781       782       882      3165      3464      3465
 -1      1641    8    0    1
 -2       881       781       882      3461      3465      3466
 -1      1642    8    0    1
 -2       782       784       882      3171      3467      3464
 -1      1643    8    0    1
 -2       706       803       759      3233      3468      3098
 -1      1644    8    0    1
 -2       713       714       883      3229      3469      3470
 -1      1645    8    0    1
 -2       713       883       820      3470      3471      3283
 -1      1646    8    0    1
 -2       807       790       884      3243      3472      3473
 -1      1647    8    0    1
 -2       710       796       885      3205      3474      3475
 -1      1648    8    0    1
 -2       787       762       886      3178      3476      3477
 -1      1649    8    0    1
 -2       762       863       886      3409      3478      3476
 -1      1650    8    0    1
 -2       697       807       813      3271      3479      3262
 -1      1651    8    0    1
 -2       712       785       887      3237      3480      3481
 -1      1652    8    0    1
 -2       712       887       816      3481      3482      3274
 -1      1653    8    0    1
 -2       699       703       709      2924      3483      2952
 -1      1654    8    0    1
 -2       704       786       888      3242      3484      3485
 -1      1655    8    0    1
 -2       702       794       808      3198      3486      3247
 -1      1656    8    0    1
 -2       786       710       889      3258      3487      3488
 -1      1657    8    0    1
 -2       710       885       889      3475      3489      3487
 -1      1658    8    0    1
 -2       799       758       890      3215      3490      3491
 -1      1659    8    0    1
 -2       714       813       891      3264      3492      3493
 -1      1660    8    0    1
 -2       785       783       892      3241      3494      3495
 -1      1661    8    0    1
 -2       711       708       814      3272      3266      3496
 -1      1662    8    0    1
 -2       813       807       893      3479      3497      3498
 -1      1663    8    0    1
 -2       807       884       893      3473      3499      3497
 -1      1664    8    0    1
 -2       812       817       894      3278      3500      3501
 -1      1665    8    0    1
 -2       700       802       817      3224      3502      3276
 -1      1666    8    0    1
 -2       794       819       808      3282      3503      3486
 -1      1667    8    0    1
 -2       792       820       895      3284      3504      3505
 -1      1668    8    0    1
 -2       792       895       811      3505      3506      3255
 -1      1669    8    0    1
 -2       801       810       896      3253      3507      3508
 -1      1670    8    0    1
 -2       764       866       897      3418      3509      3510
 -1      1671    8    0    1
 -2       764       897       793      3510      3511      3195
 -1      1672    8    0    1
 -2       804       704       888      3230      3485      3512
 -1      1673    8    0    1
 -2       755       754       898      3086      3513      3514
 -1      1674    8    0    1
 -2       756       755       809      3090      3515      3251
 -1      1675    8    0    1
 -2       862       789       898      3406      3516      3517
 -1      1676    8    0    1
 -2       757       800       899      3218      3518      3519
 -1      1677    8    0    1
 -2       757       899       866      3519      3520      3417
 -1      1678    8    0    1
 -2       758       759       803      3097      3468      3521
 -1      1679    8    0    1
 -2       805       791       900      3236      3522      3523
 -1      1680    8    0    1
 -2       758       803       890      3521      3524      3490
 -1      1681    8    0    1
 -2       898       754       860      3513      3401      3525
 -1      1682    8    0    1
 -2       809       755       898      3515      3514      3526
 -1      1683    8    0    1
 -2       898       789       809      3516      3250      3526
 -1      1684    8    0    1
 -2       890       803       816      3524      3275      3527
 -1      1685    8    0    1
 -2       784       795       901      3201      3528      3529
 -1      1686    8    0    1
 -2       784       901       882      3529      3530      3467
 -1      1687    8    0    1
 -2       885       796       902      3474      3531      3532
 -1      1688    8    0    1
 -2       796       806       902      3239      3533      3531
 -1      1689    8    0    1
 -2       883       714       891      3469      3493      3534
 -1      1690    8    0    1
 -2       806       707       903      3240      3535      3536
 -1      1691    8    0    1
 -2       707       811       903      3257      3537      3535
 -1      1692    8    0    1
 -2       786       889       888      3488      3538      3484
 -1      1693    8    0    1
 -2       797       798       904      3211      3539      3540
 -1      1694    8    0    1
 -2       797       904       819      3540      3541      3281
 -1      1695    8    0    1
 -2       799       890       905      3491      3542      3543
 -1      1696    8    0    1
 -2       799       905       800      3543      3544      3219
 -1      1697    8    0    1
 -2       892       783       906      3494      3545      3546
 -1      1698    8    0    1
 -2       783       804       906      3232      3547      3545
 -1      1699    8    0    1
 -2       887       785       892      3480      3495      3548
 -1      1700    8    0    1
 -2       891       813       893      3492      3498      3549
 -1      1701    8    0    1
 -2       801       896       907      3508      3550      3551
 -1      1702    8    0    1
 -2       801       907       802      3551      3552      3225
 -1      1703    8    0    1
 -2       763       865       908      3415      3553      3554
 -1      1704    8    0    1
 -2       763       908       798      3554      3555      3212
 -1      1705    8    0    1
 -2       795       787       909      3202      3556      3557
 -1      1706    8    0    1
 -2       901       795       909      3528      3557      3558
 -1      1707    8    0    1
 -2       787       886       909      3477      3559      3556
 -1      1708    8    0    1
 -2       791       793       910      3194      3560      3561
 -1      1709    8    0    1
 -2       793       897       910      3511      3562      3560
 -1      1710    8    0    1
 -2       715       711       911      2966      3563      3564
 -1      1711    8    0    1
 -2       711       814       911      3496      3565      3563
 -1      1712    8    0    1
 -2       709       703       818      3483      3566      3279
 -1      1713    8    0    1
 -2       810       815       912      3270      3567      3568
 -1      1714    8    0    1
 -2       810       912       896      3568      3569      3507
 -1      1715    8    0    1
 -2       715       911       822      3564      3570      3287
 -1      1716    8    0    1
 -2       791       910       900      3561      3571      3522
 -1      1717    8    0    1
 -2       912       815       818      3567      3280      3572
 -1      1718    8    0    1
 -2       817       802       913      3502      3573      3574
 -1      1719    8    0    1
 -2       894       817       913      3500      3574      3575
 -1      1720    8    0    1
 -2       802       907       913      3552      3576      3573
 -1      1721    8    0    1
 -2       896       912       914      3569      3577      3578
 -1      1722    8    0    1
 -2       822       911       915      3570      3579      3580
 -1      1723    8    0    1
 -2       890       816       916      3527      3581      3582
 -1      1724    8    0    1
 -2       821       861       917      3405      3583      3584
 -1      1725    8    0    1
 -2       824       823       918      3294      3585      3586
 -1      1726    8    0    1
 -2       825       824       919      3297      3587      3588
 -1      1727    8    0    1
 -2       824       918       919      3586      3589      3587
 -1      1728    8    0    1
 -2       826       825       920      3300      3590      3591
 -1      1729    8    0    1
 -2       825       919       920      3588      3592      3590
 -1      1730    8    0    1
 -2       827       826       921      3303      3593      3594
 -1      1731    8    0    1
 -2       826       920       921      3591      3595      3593
 -1      1732    8    0    1
 -2       828       827       922      3306      3596      3597
 -1      1733    8    0    1
 -2       827       921       922      3594      3598      3596
 -1      1734    8    0    1
 -2       829       828       923      3309      3599      3600
 -1      1735    8    0    1
 -2       828       922       923      3597      3601      3599
 -1      1736    8    0    1
 -2       830       829       924      3312      3602      3603
 -1      1737    8    0    1
 -2       829       923       924      3600      3604      3602
 -1      1738    8    0    1
 -2       831       830       925      3315      3605      3606
 -1      1739    8    0    1
 -2       830       924       925      3603      3607      3605
 -1      1740    8    0    1
 -2       832       831       926      3318      3608      3609
 -1      1741    8    0    1
 -2       831       925       926      3606      3610      3608
 -1      1742    8    0    1
 -2       833       832       927      3321      3611      3612
 -1      1743    8    0    1
 -2       832       926       927      3609      3613      3611
 -1      1744    8    0    1
 -2       834       833       928      3324      3614      3615
 -1      1745    8    0    1
 -2       833       927       928      3612      3616      3614
 -1      1746    8    0    1
 -2       835       834       902      3327      3617      3618
 -1      1747    8    0    1
 -2       837       836       929      3333      3619      3620
 -1      1748    8    0    1
 -2       838       837       930      3336      3621      3622
 -1      1749    8    0    1
 -2       837       929       930      3620      3623      3621
 -1      1750    8    0    1
 -2       839       838       931      3339      3624      3625
 -1      1751    8    0    1
 -2       838       930       931      3622      3626      3624
 -1      1752    8    0    1
 -2       840       839       932      3342      3627      3628
 -1      1753    8    0    1
 -2       839       931       932      3625      3629      3627
 -1      1754    8    0    1
 -2       841       840       933      3345      3630      3631
 -1      1755    8    0    1
 -2       840       932       933      3628      3632      3630
 -1      1756    8    0    1
 -2       842       841       934      3348      3633      3634
 -1      1757    8    0    1
 -2       841       933       934      3631      3635      3633
 -1      1758    8    0    1
 -2       843       842       935      3351      3636      3637
 -1      1759    8    0    1
 -2       842       934       935      3634      3638      3636
 -1      1760    8    0    1
 -2       844       843       936      3354      3639      3640
 -1      1761    8    0    1
 -2       843       935       936      3637      3641      3639
 -1      1762    8    0    1
 -2       845       844       937      3357      3642      3643
 -1      1763    8    0    1
 -2       844       936       937      3640      3644      3642
 -1      1764    8    0    1
 -2       846       845       938      3360      3645      3646
 -1      1765    8    0    1
 -2       845       937       938      3643      3647      3645
 -1      1766    8    0    1
 -2       847       846       939      3363      3648      3649
 -1      1767    8    0    1
 -2       846       938       939      3646      3650      3648
 -1      1768    8    0    1
 -2       848       847       940      3366      3651      3652
 -1      1769    8    0    1
 -2       847       939       940      3649      3653      3651
 -1      1770    8    0    1
 -2       849       848       941      3369      3654      3655
 -1      1771    8    0    1
 -2       848       940       941      3652      3656      3654
 -1      1772    8    0    1
 -2       850       849       942      3372      3657      3658
 -1      1773    8    0    1
 -2       849       941       942      3655      3659      3657
 -1      1774    8    0    1
 -2       851       850       943      3375      3660      3661
 -1      1775    8    0    1
 -2       850       942       943      3658      3662      3660
 -1      1776    8    0    1
 -2       852       851       944      3378      3663      3664
 -1      1777    8    0    1
 -2       851       943       944      3661      3665      3663
 -1      1778    8    0    1
 -2       853       852       945      3381      3666      3667
 -1      1779    8    0    1
 -2       852       944       945      3664      3668      3666
 -1      1780    8    0    1
 -2       854       853       946      3384      3669      3670
 -1      1781    8    0    1
 -2       853       945       946      3667      3671      3669
 -1      1782    8    0    1
 -2       855       854       947      3387      3672      3673
 -1      1783    8    0    1
 -2       854       946       947      3670      3674      3672
 -1      1784    8    0    1
 -2       856       855       948      3390      3675      3676
 -1      1785    8    0    1
 -2       855       947       948      3673      3677      3675
 -1      1786    8    0    1
 -2       857       856       949      3393      3678      3679
 -1      1787    8    0    1
 -2       856       948       949      3676      3680      3678
 -1      1788    8    0    1
 -2       858       857       950      3396      3681      3682
 -1      1789    8    0    1
 -2       857       949       950      3679      3683      3681
 -1      1790    8    0    1
 -2       859       858       951      3399      3684      3685
 -1      1791    8    0    1
 -2       858       950       951      3682      3686      3684
 -1      1792    8    0    1
 -2       860       859       952      3402      3687      3688
 -1      1793    8    0    1
 -2       859       951       952      3685      3689      3687
 -1      1794    8    0    1
 -2       867       868       953      3424      3690      3691
 -1      1795    8    0    1
 -2       868       869       954      3427      3692      3693
 -1      1796    8    0    1
 -2       868       954       953      3693      3694      3690
 -1      1797    8    0    1
 -2       861       867       955      3421      3695      3696
 -1      1798    8    0    1
 -2       917       861       955      3583      3696      3697
 -1      1799    8    0    1
 -2       867       953       955      3691      3698      3695
 -1      1800    8    0    1
 -2       869       870       956      3430      3699      3700
 -1      1801    8    0    1
 -2       869       956       954      3700      3701      3692
 -1      1802    8    0    1
 -2       865       821       957      3416      3702      3703
 -1      1803    8    0    1
 -2       821       917       957      3584      3704      3702
 -1      1804    8    0    1
 -2       870       871       958      3433      3705      3706
 -1      1805    8    0    1
 -2       870       958       956      3706      3707      3699
 -1      1806    8    0    1
 -2       871       872       959      3436      3708      3709
 -1      1807    8    0    1
 -2       871       959       958      3709      3710      3705
 -1      1808    8    0    1
 -2       872       873       960      3439      3711      3712
 -1      1809    8    0    1
 -2       872       960       959      3712      3713      3708
 -1      1810    8    0    1
 -2       873       874       961      3442      3714      3715
 -1      1811    8    0    1
 -2       873       961       960      3715      3716      3711
 -1      1812    8    0    1
 -2       874       875       962      3445      3717      3718
 -1      1813    8    0    1
 -2       874       962       961      3718      3719      3714
 -1      1814    8    0    1
 -2       875       876       963      3448      3720      3721
 -1      1815    8    0    1
 -2       875       963       962      3721      3722      3717
 -1      1816    8    0    1
 -2       876       877       964      3451      3723      3724
 -1      1817    8    0    1
 -2       876       964       963      3724      3725      3720
 -1      1818    8    0    1
 -2       877       878       965      3454      3726      3727
 -1      1819    8    0    1
 -2       877       965       964      3727      3728      3723
 -1      1820    8    0    1
 -2       878       879       966      3457      3729      3730
 -1      1821    8    0    1
 -2       878       966       965      3730      3731      3726
 -1      1822    8    0    1
 -2       879       880       967      3460      3732      3733
 -1      1823    8    0    1
 -2       879       967       966      3733      3734      3729
 -1      1824    8    0    1
 -2       880       881       968      3463      3735      3736
 -1      1825    8    0    1
 -2       880       968       967      3736      3737      3732
 -1      1826    8    0    1
 -2       881       882       969      3466      3738      3739
 -1      1827    8    0    1
 -2       968       881       969      3735      3739      3740
 -1      1828    8    0    1
 -2       882       901       969      3530      3741      3738
 -1      1829    8    0    1
 -2       886       863       970      3478      3742      3743
 -1      1830    8    0    1
 -2       823       822       971      3291      3744      3745
 -1      1831    8    0    1
 -2       823       971       918      3745      3746      3585
 -1      1832    8    0    1
 -2       884       790       819      3472      3747      3748
 -1      1833    8    0    1
 -2       703       805       818      3235      3749      3566
 -1      1834    8    0    1
 -2       862       898       860      3517      3525      3750
 -1      1835    8    0    1
 -2       900       910       972      3571      3751      3752
 -1      1836    8    0    1
 -2       908       865       973      3553      3753      3754
 -1      1837    8    0    1
 -2       865       957       973      3703      3755      3753
 -1      1838    8    0    1
 -2       798       908       904      3555      3756      3539
 -1      1839    8    0    1
 -2       804       888       974      3512      3757      3758
 -1      1840    8    0    1
 -2       889       885       927      3489      3759      3760
 -1      1841    8    0    1
 -2       816       887       916      3482      3761      3581
 -1      1842    8    0    1
 -2       820       883       975      3471      3762      3763
 -1      1843    8    0    1
 -2       888       889       976      3538      3764      3765
 -1      1844    8    0    1
 -2       974       888       976      3757      3765      3766
 -1      1845    8    0    1
 -2       889       927       976      3760      3767      3764
 -1      1846    8    0    1
 -2       862       860       952      3750      3688      3768
 -1      1847    8    0    1
 -2       891       893       977      3549      3769      3770
 -1      1848    8    0    1
 -2       814       812       915      3267      3771      3772
 -1      1849    8    0    1
 -2       887       892       978      3548      3773      3774
 -1      1850    8    0    1
 -2       812       894       915      3501      3775      3771
 -1      1851    8    0    1
 -2       883       891       979      3534      3776      3777
 -1      1852    8    0    1
 -2       893       884       980      3499      3778      3779
 -1      1853    8    0    1
 -2       884       819       981      3748      3780      3781
 -1      1854    8    0    1
 -2       980       884       981      3778      3781      3782
 -1      1855    8    0    1
 -2       819       904       981      3541      3783      3780
 -1      1856    8    0    1
 -2       822       915       971      3580      3784      3744
 -1      1857    8    0    1
 -2       818       805       900      3749      3523      3785
 -1      1858    8    0    1
 -2       915       894       982      3775      3786      3787
 -1      1859    8    0    1
 -2       915       982       971      3787      3788      3784
 -1      1860    8    0    1
 -2       818       900       912      3785      3789      3572
 -1      1861    8    0    1
 -2       915       911       814      3579      3565      3772
 -1      1862    8    0    1
 -2       897       866       983      3509      3790      3791
 -1      1863    8    0    1
 -2       895       820       984      3504      3792      3793
 -1      1864    8    0    1
 -2       820       975       984      3763      3794      3792
 -1      1865    8    0    1
 -2       890       916       985      3582      3795      3796
 -1      1866    8    0    1
 -2       890       985       905      3796      3797      3542
 -1      1867    8    0    1
 -2       899       800       905      3518      3544      3798
 -1      1868    8    0    1
 -2       834       928       902      3615      3799      3617
 -1      1869    8    0    1
 -2       835       902       986      3618      3800      3801
 -1      1870    8    0    1
 -2       836       835       986      3330      3801      3802
 -1      1871    8    0    1
 -2       902       806       986      3533      3803      3800
 -1      1872    8    0    1
 -2       836       986       929      3802      3804      3619
 -1      1873    8    0    1
 -2       891       977       979      3770      3805      3776
 -1      1874    8    0    1
 -2       866       899       987      3520      3806      3807
 -1      1875    8    0    1
 -2       866       987       983      3807      3808      3790
 -1      1876    8    0    1
 -2       864       862       988      3413      3809      3810
 -1      1877    8    0    1
 -2       862       952       988      3768      3811      3809
 -1      1878    8    0    1
 -2       910       897       989      3562      3812      3813
 -1      1879    8    0    1
 -2       897       983       989      3791      3814      3812
 -1      1880    8    0    1
 -2       863       864       990      3412      3815      3816
 -1      1881    8    0    1
 -2       970       863       990      3742      3816      3817
 -1      1882    8    0    1
 -2       864       988       990      3810      3818      3815
 -1      1883    8    0    1
 -2       885       902       928      3532      3799      3819
 -1      1884    8    0    1
 -2       819       790       808      3747      3246      3503
 -1      1885    8    0    1
 -2       982       894       913      3786      3575      3820
 -1      1886    8    0    1
 -2       804       974       906      3758      3821      3547
 -1      1887    8    0    1
 -2       904       908       991      3756      3822      3823
 -1      1888    8    0    1
 -2       904       991       981      3823      3824      3783
 -1      1889    8    0    1
 -2       972       910       989      3751      3813      3825
 -1      1890    8    0    1
 -2       908       973       991      3754      3826      3822
 -1      1891    8    0    1
 -2       907       896       992      3550      3827      3828
 -1      1892    8    0    1
 -2       896       914       992      3578      3829      3827
 -1      1893    8    0    1
 -2       927       885       928      3759      3819      3616
 -1      1894    8    0    1
 -2       883       979       975      3777      3830      3762
 -1      1895    8    0    1
 -2       909       886       993      3559      3831      3832
 -1      1896    8    0    1
 -2       886       970       993      3743      3833      3831
 -1      1897    8    0    1
 -2       912       900       914      3789      3834      3577
 -1      1898    8    0    1
 -2       811       895       929      3506      3835      3836
 -1      1899    8    0    1
 -2       916       887       978      3761      3774      3837
 -1      1900    8    0    1
 -2       978       892       994      3773      3838      3839
 -1      1901    8    0    1
 -2       892       906       994      3546      3840      3838
 -1      1902    8    0    1
 -2       977       893       980      3769      3779      3841
 -1      1903    8    0    1
 -2       806       903       986      3536      3842      3803
 -1      1904    8    0    1
 -2       958       959       995      3710      3843      3844
 -1      1905    8    0    1
 -2       956       958       996      3707      3845      3846
 -1      1906    8    0    1
 -2       958       995       996      3844      3847      3845
 -1      1907    8    0    1
 -2       920       919       997      3592      3848      3849
 -1      1908    8    0    1
 -2       921       920       998      3595      3850      3851
 -1      1909    8    0    1
 -2       920       997       998      3849      3852      3850
 -1      1910    8    0    1
 -2       922       921       999      3598      3853      3854
 -1      1911    8    0    1
 -2       921       998       999      3851      3855      3853
 -1      1912    8    0    1
 -2       923       922      1000      3601      3856      3857
 -1      1913    8    0    1
 -2       922       999      1000      3854      3858      3856
 -1      1914    8    0    1
 -2       924       923      1001      3604      3859      3860
 -1      1915    8    0    1
 -2       923      1000      1001      3857      3861      3859
 -1      1916    8    0    1
 -2       927       926       976      3613      3862      3767
 -1      1917    8    0    1
 -2       975       979      1002      3830      3863      3864
 -1      1918    8    0    1
 -2       954       956      1003      3701      3865      3866
 -1      1919    8    0    1
 -2       956       996      1003      3846      3867      3865
 -1      1920    8    0    1
 -2       931       930       984      3626      3868      3869
 -1      1921    8    0    1
 -2       933       932      1004      3632      3870      3871
 -1      1922    8    0    1
 -2       934       933      1005      3635      3872      3873
 -1      1923    8    0    1
 -2       933      1004      1005      3871      3874      3872
 -1      1924    8    0    1
 -2       935       934      1006      3638      3875      3876
 -1      1925    8    0    1
 -2       934      1005      1006      3873      3877      3875
 -1      1926    8    0    1
 -2       936       935      1007      3641      3878      3879
 -1      1927    8    0    1
 -2       935      1006      1007      3876      3880      3878
 -1      1928    8    0    1
 -2       937       936      1008      3644      3881      3882
 -1      1929    8    0    1
 -2       936      1007      1008      3879      3883      3881
 -1      1930    8    0    1
 -2       938       937      1009      3647      3884      3885
 -1      1931    8    0    1
 -2       937      1008      1009      3882      3886      3884
 -1      1932    8    0    1
 -2       939       938      1010      3650      3887      3888
 -1      1933    8    0    1
 -2       938      1009      1010      3885      3889      3887
 -1      1934    8    0    1
 -2       940       939      1011      3653      3890      3891
 -1      1935    8    0    1
 -2       939      1010      1011      3888      3892      3890
 -1      1936    8    0    1
 -2       941       940      1012      3656      3893      3894
 -1      1937    8    0    1
 -2       940      1011      1012      3891      3895      3893
 -1      1938    8    0    1
 -2       942       941      1013      3659      3896      3897
 -1      1939    8    0    1
 -2       941      1012      1013      3894      3898      3896
 -1      1940    8    0    1
 -2       943       942      1014      3662      3899      3900
 -1      1941    8    0    1
 -2       942      1013      1014      3897      3901      3899
 -1      1942    8    0    1
 -2       944       943      1015      3665      3902      3903
 -1      1943    8    0    1
 -2       943      1014      1015      3900      3904      3902
 -1      1944    8    0    1
 -2       945       944      1016      3668      3905      3906
 -1      1945    8    0    1
 -2       944      1015      1016      3903      3907      3905
 -1      1946    8    0    1
 -2       946       945      1017      3671      3908      3909
 -1      1947    8    0    1
 -2       945      1016      1017      3906      3910      3908
 -1      1948    8    0    1
 -2       947       946      1018      3674      3911      3912
 -1      1949    8    0    1
 -2       946      1017      1018      3909      3913      3911
 -1      1950    8    0    1
 -2       948       947      1019      3677      3914      3915
 -1      1951    8    0    1
 -2       947      1018      1019      3912      3916      3914
 -1      1952    8    0    1
 -2       949       948      1020      3680      3917      3918
 -1      1953    8    0    1
 -2       948      1019      1020      3915      3919      3917
 -1      1954    8    0    1
 -2       950       949      1021      3683      3920      3921
 -1      1955    8    0    1
 -2       949      1020      1021      3918      3922      3920
 -1      1956    8    0    1
 -2       951       950      1022      3686      3923      3924
 -1      1957    8    0    1
 -2       950      1021      1022      3921      3925      3923
 -1      1958    8    0    1
 -2       952       951      1023      3689      3926      3927
 -1      1959    8    0    1
 -2       988       952      1023      3811      3927      3928
 -1      1960    8    0    1
 -2       951      1022      1023      3924      3929      3926
 -1      1961    8    0    1
 -2       953       954      1024      3694      3930      3931
 -1      1962    8    0    1
 -2       954      1003      1024      3866      3932      3930
 -1      1963    8    0    1
 -2       989       983      1025      3814      3933      3934
 -1      1964    8    0    1
 -2       957       917      1026      3704      3935      3936
 -1      1965    8    0    1
 -2       959       960      1027      3713      3937      3938
 -1      1966    8    0    1
 -2       959      1027       995      3938      3939      3843
 -1      1967    8    0    1
 -2       960       961      1028      3716      3940      3941
 -1      1968    8    0    1
 -2       960      1028      1027      3941      3942      3937
 -1      1969    8    0    1
 -2       961       962      1029      3719      3943      3944
 -1      1970    8    0    1
 -2       961      1029      1028      3944      3945      3940
 -1      1971    8    0    1
 -2       962       963      1030      3722      3946      3947
 -1      1972    8    0    1
 -2       962      1030      1029      3947      3948      3943
 -1      1973    8    0    1
 -2       963       964      1031      3725      3949      3950
 -1      1974    8    0    1
 -2       963      1031      1030      3950      3951      3946
 -1      1975    8    0    1
 -2       964       965      1032      3728      3952      3953
 -1      1976    8    0    1
 -2       964      1032      1031      3953      3954      3949
 -1      1977    8    0    1
 -2       965       966      1033      3731      3955      3956
 -1      1978    8    0    1
 -2       965      1033      1032      3956      3957      3952
 -1      1979    8    0    1
 -2       966       967      1034      3734      3958      3959
 -1      1980    8    0    1
 -2       966      1034      1033      3959      3960      3955
 -1      1981    8    0    1
 -2       967       968      1035      3737      3961      3962
 -1      1982    8    0    1
 -2       967      1035      1034      3962      3963      3958
 -1      1983    8    0    1
 -2       918       971      1036      3746      3964      3965
 -1      1984    8    0    1
 -2       971       982      1036      3788      3966      3964
 -1      1985    8    0    1
 -2       899       905      1037      3798      3967      3968
 -1      1986    8    0    1
 -2       987       899      1037      3806      3968      3969
 -1      1987    8    0    1
 -2       905       985      1037      3797      3970      3967
 -1      1988    8    0    1
 -2       973       957      1038      3755      3971      3972
 -1      1989    8    0    1
 -2       957      1026      1038      3936      3973      3971
 -1      1990    8    0    1
 -2       930       929       895      3623      3835      3974
 -1      1991    8    0    1
 -2       991       973      1039      3826      3975      3976
 -1      1992    8    0    1
 -2       916       978      1040      3837      3977      3978
 -1      1993    8    0    1
 -2       906       974      1041      3821      3979      3980
 -1      1994    8    0    1
 -2       979       977      1042      3805      3981      3982
 -1      1995    8    0    1
 -2       901       909       969      3558      3983      3741
 -1      1996    8    0    1
 -2       977       980      1043      3841      3984      3985
 -1      1997    8    0    1
 -2       977      1043      1042      3985      3986      3981
 -1      1998    8    0    1
 -2       919       918      1044      3589      3987      3988
 -1      1999    8    0    1
 -2       997       919      1044      3848      3988      3989
 -1      2000    8    0    1
 -2       918      1036      1044      3965      3990      3987
 -1      2001    8    0    1
 -2       982       913      1045      3820      3991      3992
 -1      2002    8    0    1
 -2       913       907      1045      3576      3993      3991
 -1      2003    8    0    1
 -2       930       895       984      3974      3793      3868
 -1      2004    8    0    1
 -2       984       975      1046      3794      3994      3995
 -1      2005    8    0    1
 -2       931       984      1046      3869      3995      3996
 -1      2006    8    0    1
 -2       975      1002      1046      3864      3997      3994
 -1      2007    8    0    1
 -2       985       916      1040      3795      3978      3998
 -1      2008    8    0    1
 -2       976       926       925      3862      3610      3999
 -1      2009    8    0    1
 -2       925       924      1047      3607      4000      4001
 -1      2010    8    0    1
 -2       925      1047       976      4001      4002      3999
 -1      2011    8    0    1
 -2      1002       979      1042      3863      3982      4003
 -1      2012    8    0    1
 -2       931      1046       932      3996      4004      3629
 -1      2013    8    0    1
 -2       953      1024      1048      3931      4005      4006
 -1      2014    8    0    1
 -2       953      1048       955      4006      4007      3698
 -1      2015    8    0    1
 -2      1026       917      1049      3935      4008      4009
 -1      2016    8    0    1
 -2       917       955      1049      3697      4010      4008
 -1      2017    8    0    1
 -2      1025       983      1050      3933      4011      4012
 -1      2018    8    0    1
 -2       983       987      1050      3808      4013      4011
 -1      2019    8    0    1
 -2       811       929       903      3836      4014      3537
 -1      2020    8    0    1
 -2       929       986       903      3804      3842      4014
 -1      2021    8    0    1
 -2       982      1045      1036      3992      4015      3966
 -1      2022    8    0    1
 -2      1035       968       993      3961      4016      4017
 -1      2023    8    0    1
 -2       972       989      1051      3825      4018      4019
 -1      2024    8    0    1
 -2       907       992      1045      3828      4020      3993
 -1      2025    8    0    1
 -2      1041       974      1047      3979      4021      4022
 -1      2026    8    0    1
 -2       981       991      1052      3824      4023      4024
 -1      2027    8    0    1
 -2       980       981      1052      3782      4024      4025
 -1      2028    8    0    1
 -2       991      1039      1052      3976      4026      4023
 -1      2029    8    0    1
 -2       973      1038      1039      3972      4027      3975
 -1      2030    8    0    1
 -2      1040       978      1053      3977      4028      4029
 -1      2031    8    0    1
 -2       978       994      1053      3839      4030      4028
 -1      2032    8    0    1
 -2       993       970      1054      3833      4031      4032
 -1      2033    8    0    1
 -2       993      1054      1035      4032      4033      4017
 -1      2034    8    0    1
 -2      1004       932      1046      3870      4004      4034
 -1      2035    8    0    1
 -2       906      1041       994      3980      4035      3840
 -1      2036    8    0    1
 -2       974       976      1047      3766      4002      4021
 -1      2037    8    0    1
 -2       900       972       914      3752      4036      3834
 -1      2038    8    0    1
 -2      1043       980      1052      3984      4025      4037
 -1      2039    8    0    1
 -2       970       990      1055      3817      4038      4039
 -1      2040    8    0    1
 -2       970      1055      1054      4039      4040      4031
 -1      2041    8    0    1
 -2      1051       989      1025      4018      3934      4041
 -1      2042    8    0    1
 -2      1047       924      1001      4000      3860      4042
 -1      2043    8    0    1
 -2       914       972      1051      4036      4019      4043
 -1      2044    8    0    1
 -2       914      1051       992      4043      4044      3829
 -1      2045    8    0    1
 -2      1046      1002      1004      3997      4045      4034
 -1      2046    8    0    1
 -2       999       998      1056      3855      4046      4047
 -1      2047    8    0    1
 -2      1000       999      1057      3858      4048      4049
 -1      2048    8    0    1
 -2       999      1056      1057      4047      4050      4048
 -1      2049    8    0    1
 -2      1003       996      1058      3867      4051      4052
 -1      2050    8    0    1
 -2      1047      1001      1041      4042      4053      4022
 -1      2051    8    0    1
 -2      1038      1026      1059      3973      4054      4055
 -1      2052    8    0    1
 -2      1006      1005      1060      3877      4056      4057
 -1      2053    8    0    1
 -2      1007      1006      1061      3880      4058      4059
 -1      2054    8    0    1
 -2      1006      1060      1061      4057      4060      4058
 -1      2055    8    0    1
 -2      1008      1007      1062      3883      4061      4062
 -1      2056    8    0    1
 -2      1007      1061      1062      4059      4063      4061
 -1      2057    8    0    1
 -2      1009      1008      1063      3886      4064      4065
 -1      2058    8    0    1
 -2      1008      1062      1063      4062      4066      4064
 -1      2059    8    0    1
 -2      1010      1009      1064      3889      4067      4068
 -1      2060    8    0    1
 -2      1009      1063      1064      4065      4069      4067
 -1      2061    8    0    1
 -2      1011      1010      1065      3892      4070      4071
 -1      2062    8    0    1
 -2      1010      1064      1065      4068      4072      4070
 -1      2063    8    0    1
 -2      1012      1011      1066      3895      4073      4074
 -1      2064    8    0    1
 -2      1011      1065      1066      4071      4075      4073
 -1      2065    8    0    1
 -2      1013      1012      1067      3898      4076      4077
 -1      2066    8    0    1
 -2      1012      1066      1067      4074      4078      4076
 -1      2067    8    0    1
 -2      1014      1013      1068      3901      4079      4080
 -1      2068    8    0    1
 -2      1013      1067      1068      4077      4081      4079
 -1      2069    8    0    1
 -2      1015      1014      1069      3904      4082      4083
 -1      2070    8    0    1
 -2      1014      1068      1069      4080      4084      4082
 -1      2071    8    0    1
 -2      1016      1015      1070      3907      4085      4086
 -1      2072    8    0    1
 -2      1015      1069      1070      4083      4087      4085
 -1      2073    8    0    1
 -2      1017      1016      1071      3910      4088      4089
 -1      2074    8    0    1
 -2      1016      1070      1071      4086      4090      4088
 -1      2075    8    0    1
 -2      1018      1017      1072      3913      4091      4092
 -1      2076    8    0    1
 -2      1017      1071      1072      4089      4093      4091
 -1      2077    8    0    1
 -2      1019      1018      1073      3916      4094      4095
 -1      2078    8    0    1
 -2      1018      1072      1073      4092      4096      4094
 -1      2079    8    0    1
 -2      1020      1019      1074      3919      4097      4098
 -1      2080    8    0    1
 -2      1019      1073      1074      4095      4099      4097
 -1      2081    8    0    1
 -2      1021      1020      1075      3922      4100      4101
 -1      2082    8    0    1
 -2      1020      1074      1075      4098      4102      4100
 -1      2083    8    0    1
 -2      1022      1021      1076      3925      4103      4104
 -1      2084    8    0    1
 -2      1021      1075      1076      4101      4105      4103
 -1      2085    8    0    1
 -2      1024      1003      1077      3932      4106      4107
 -1      2086    8    0    1
 -2      1003      1058      1077      4052      4108      4106
 -1      2087    8    0    1
 -2       990       988      1078      3818      4109      4110
 -1      2088    8    0    1
 -2      1055       990      1078      4038      4110      4111
 -1      2089    8    0    1
 -2       988      1023      1078      3928      4112      4109
 -1      2090    8    0    1
 -2      1052      1039      1079      4026      4113      4114
 -1      2091    8    0    1
 -2      1052      1079      1043      4114      4115      4037
 -1      2092    8    0    1
 -2       985      1040      1080      3998      4116      4117
 -1      2093    8    0    1
 -2       995      1027      1081      3939      4118      4119
 -1      2094    8    0    1
 -2      1029      1030      1082      3948      4120      4121
 -1      2095    8    0    1
 -2      1030      1031      1083      3951      4122      4123
 -1      2096    8    0    1
 -2      1030      1083      1082      4123      4124      4120
 -1      2097    8    0    1
 -2      1031      1032      1084      3954      4125      4126
 -1      2098    8    0    1
 -2      1031      1084      1083      4126      4127      4122
 -1      2099    8    0    1
 -2      1032      1033      1085      3957      4128      4129
 -1      2100    8    0    1
 -2      1032      1085      1084      4129      4130      4125
 -1      2101    8    0    1
 -2      1033      1034      1086      3960      4131      4132
 -1      2102    8    0    1
 -2      1033      1086      1085      4132      4133      4128
 -1      2103    8    0    1
 -2      1034      1035      1054      3963      4033      4134
 -1      2104    8    0    1
 -2       993       968       909      4016      4135      3832
 -1      2105    8    0    1
 -2       992      1051      1087      4044      4136      4137
 -1      2106    8    0    1
 -2      1045       992      1087      4020      4137      4138
 -1      2107    8    0    1
 -2      1051      1025      1087      4041      4139      4136
 -1      2108    8    0    1
 -2      1004      1002      1088      4045      4140      4141
 -1      2109    8    0    1
 -2      1005      1004      1088      3874      4141      4142
 -1      2110    8    0    1
 -2      1002      1042      1088      4003      4143      4140
 -1      2111    8    0    1
 -2      1028      1029      1089      3945      4144      4145
 -1      2112    8    0    1
 -2      1029      1082      1089      4121      4146      4144
 -1      2113    8    0    1
 -2      1039      1038      1090      4027      4147      4148
 -1      2114    8    0    1
 -2      1079      1039      1090      4113      4148      4149
 -1      2115    8    0    1
 -2      1038      1059      1090      4055      4150      4147
 -1      2116    8    0    1
 -2       994      1041      1091      4035      4151      4152
 -1      2117    8    0    1
 -2      1053       994      1091      4030      4152      4153
 -1      2118    8    0    1
 -2      1041      1001      1091      4053      4154      4151
 -1      2119    8    0    1
 -2       998       997      1092      3852      4155      4156
 -1      2120    8    0    1
 -2       998      1092      1056      4156      4157      4046
 -1      2121    8    0    1
 -2       996       995      1093      3847      4158      4159
 -1      2122    8    0    1
 -2      1058       996      1093      4051      4159      4160
 -1      2123    8    0    1
 -2       995      1081      1093      4119      4161      4158
 -1      2124    8    0    1
 -2      1027      1028      1094      3942      4162      4163
 -1      2125    8    0    1
 -2      1081      1027      1094      4118      4163      4164
 -1      2126    8    0    1
 -2      1028      1089      1094      4145      4165      4162
 -1      2127    8    0    1
 -2      1034      1054      1086      4134      4166      4131
 -1      2128    8    0    1
 -2      1036      1045      1095      4015      4167      4168
 -1      2129    8    0    1
 -2      1044      1036      1095      3990      4168      4169
 -1      2130    8    0    1
 -2      1045      1087      1095      4138      4170      4167
 -1      2131    8    0    1
 -2      1000      1057      1091      4049      4171      4172
 -1      2132    8    0    1
 -2      1001      1000      1091      3861      4172      4154
 -1      2133    8    0    1
 -2      1059      1026      1096      4054      4173      4174
 -1      2134    8    0    1
 -2      1026      1049      1096      4009      4175      4173
 -1      2135    8    0    1
 -2      1048      1024      1097      4005      4176      4177
 -1      2136    8    0    1
 -2      1024      1077      1097      4107      4178      4176
 -1      2137    8    0    1
 -2      1049       955      1048      4010      4007      4179
 -1      2138    8    0    1
 -2      1023      1022      1098      3929      4180      4181
 -1      2139    8    0    1
 -2      1078      1023      1098      4112      4181      4182
 -1      2140    8    0    1
 -2      1022      1076      1098      4104      4183      4180
 -1      2141    8    0    1
 -2      1050       987      1099      4013      4184      4185
 -1      2142    8    0    1
 -2       987      1037      1099      3969      4186      4184
 -1      2143    8    0    1
 -2      1025      1050      1100      4012      4187      4188
 -1      2144    8    0    1
 -2      1080      1040      1101      4116      4189      4190
 -1      2145    8    0    1
 -2      1040      1053      1101      4029      4191      4189
 -1      2146    8    0    1
 -2      1087      1025      1100      4139      4188      4192
 -1      2147    8    0    1
 -2      1042      1043      1102      3986      4193      4194
 -1      2148    8    0    1
 -2      1088      1042      1102      4143      4194      4195
 -1      2149    8    0    1
 -2      1037       985      1080      3970      4117      4196
 -1      2150    8    0    1
 -2      1060      1005      1088      4056      4142      4197
 -1      2151    8    0    1
 -2      1054      1055      1086      4040      4198      4166
 -1      2152    8    0    1
 -2       997      1044      1103      3989      4199      4200
 -1      2153    8    0    1
 -2      1092       997      1103      4155      4200      4201
 -1      2154    8    0    1
 -2      1044      1095      1103      4169      4202      4199
 -1      2155    8    0    1
 -2      1102      1043      1079      4193      4115      4203
 -1      2156    8    0    1
 -2      1057      1056      1101      4050      4204      4205
 -1      2157    8    0    1
 -2      1049      1048      1104      4179      4206      4207
 -1      2158    8    0    1
 -2      1096      1049      1104      4175      4207      4208
 -1      2159    8    0    1
 -2      1048      1097      1104      4177      4209      4206
 -1      2160    8    0    1
 -2      1062      1061      1105      4063      4210      4211
 -1      2161    8    0    1
 -2      1063      1062      1059      4066      4212      4213
 -1      2162    8    0    1
 -2      1064      1063      1096      4069      4214      4215
 -1      2163    8    0    1
 -2      1065      1064      1104      4072      4216      4217
 -1      2164    8    0    1
 -2      1066      1065      1097      4075      4218      4219
 -1      2165    8    0    1
 -2      1067      1066      1077      4078      4220      4221
 -1      2166    8    0    1
 -2      1068      1067      1058      4081      4222      4223
 -1      2167    8    0    1
 -2      1069      1068      1093      4084      4224      4225
 -1      2168    8    0    1
 -2      1070      1069      1081      4087      4226      4227
 -1      2169    8    0    1
 -2      1071      1070      1094      4090      4228      4229
 -1      2170    8    0    1
 -2      1072      1071      1089      4093      4230      4231
 -1      2171    8    0    1
 -2      1073      1072      1082      4096      4232      4233
 -1      2172    8    0    1
 -2      1074      1073      1083      4099      4234      4235
 -1      2173    8    0    1
 -2      1075      1074      1084      4102      4236      4237
 -1      2174    8    0    1
 -2      1076      1075      1085      4105      4238      4239
 -1      2175    8    0    1
 -2      1077      1058      1067      4108      4222      4221
 -1      2176    8    0    1
 -2      1100      1050      1106      4187      4240      4241
 -1      2177    8    0    1
 -2      1050      1099      1106      4185      4242      4240
 -1      2178    8    0    1
 -2      1082      1072      1089      4232      4231      4146
 -1      2179    8    0    1
 -2      1082      1083      1073      4124      4234      4233
 -1      2180    8    0    1
 -2      1085      1086      1076      4133      4243      4239
 -1      2181    8    0    1
 -2      1088      1102      1060      4195      4244      4197
 -1      2182    8    0    1
 -2      1077      1066      1097      4220      4219      4178
 -1      2183    8    0    1
 -2      1037      1080      1099      4196      4245      4186
 -1      2184    8    0    1
 -2      1087      1100      1095      4192      4246      4170
 -1      2185    8    0    1
 -2      1085      1075      1084      4238      4237      4130
 -1      2186    8    0    1
 -2      1084      1074      1083      4236      4235      4127
 -1      2187    8    0    1
 -2       909       968       969      4135      3740      3983
 -1      2188    8    0    1
 -2      1091      1057      1053      4171      4247      4153
 -1      2189    8    0    1
 -2      1089      1071      1094      4230      4229      4165
 -1      2190    8    0    1
 -2      1081      1069      1093      4226      4225      4161
 -1      2191    8    0    1
 -2      1063      1059      1096      4213      4174      4214
 -1      2192    8    0    1
 -2      1068      1058      1093      4223      4160      4224
 -1      2193    8    0    1
 -2      1070      1081      1094      4227      4164      4228
 -1      2194    8    0    1
 -2      1060      1102      1107      4244      4248      4249
 -1      2195    8    0    1
 -2      1061      1060      1107      4060      4249      4250
 -1      2196    8    0    1
 -2      1102      1079      1107      4203      4251      4248
 -1      2197    8    0    1
 -2      1053      1057      1101      4247      4205      4191
 -1      2198    8    0    1
 -2      1061      1107      1105      4250      4252      4210
 -1      2199    8    0    1
 -2      1056      1092      1108      4157      4253      4254
 -1      2200    8    0    1
 -2      1099      1080      1108      4245      4255      4256
 -1      2201    8    0    1
 -2      1108      1080      1101      4255      4190      4257
 -1      2202    8    0    1
 -2      1059      1062      1105      4212      4211      4258
 -1      2203    8    0    1
 -2      1064      1096      1104      4215      4208      4216
 -1      2204    8    0    1
 -2      1065      1104      1097      4217      4209      4218
 -1      2205    8    0    1
 -2      1100      1106      1103      4241      4259      4260
 -1      2206    8    0    1
 -2      1076      1086      1055      4243      4198      4261
 -1      2207    8    0    1
 -2      1059      1105      1090      4258      4262      4150
 -1      2208    8    0    1
 -2      1095      1100      1103      4246      4260      4202
 -1      2209    8    0    1
 -2      1107      1079      1090      4251      4149      4263
 -1      2210    8    0    1
 -2      1101      1056      1108      4204      4254      4257
 -1      2211    8    0    1
 -2      1092      1103      1106      4201      4259      4264
 -1      2212    8    0    1
 -2      1108      1092      1106      4253      4264      4265
 -1      2213    8    0    1
 -2      1099      1108      1106      4256      4265      4242
 -1      2214    8    0    1
 -2      1105      1107      1090      4252      4263      4262
 -1      2215    8    0    1
 -2      1055      1078      1098      4111      4182      4266
 -1      2216    8    0    1
 -2      1076      1055      1098      4261      4266      4183
 -3
    1PSTEP                         1           1           1          
  100CL  101 1.000000000        4266                     0    1           1
 -4  DISP        4    1
 -5  D1          1    2    1    0
 -5  D2          1    2    2    0
 -5  D3          1    2    3    0
 -5  ALL         1    2    0    0    1ALL
 -1         1 6.40312E-03 2.02983E-04-3.19250E-15
 -1         2 8.98525E-03 1.28820E-03-2.82003E-15
 -1         3 1.74309E-02 8.34944E-03-2.41886E-14
 -1         4 1.34170E-02 6.92084E-03-4.76988E-14
 -1         5 0.00000E+00 0.00000E+00 0.00000E+00
 -1         6 0.00000E+00 0.00000E+00 0.00000E+00
 -1         7 0.00000E+00 0.00000E+00 0.00000E+00
 -1         8 0.00000E+00 0.00000E+00 0.00000E+00
 -1         9 0.00000E+00 0.00000E+00 0.00000E+00
 -1        10 0.00000E+00 0.00000E+00 0.00000E+00
 -1        11 0.00000E+00 0.00000E+00 0.00000E+00
 -1        12 0.00000E+00 0.00000E+00 0.00000E+00
 -1        13 0.00000E+00 0.00000E+00 0.00000E+00
 -1        14 0.00000E+00 0.00000E+00 0.00000E+00
 -1        15 0.00000E+00 0.00000E+00 0.00000E+00
 -1        16 0.00000E+00 0.00000E+00 0.00000E+00
 -1        17 0.00000E+00 0.00000E+00 0.00000E+00
 -1        18 0.00000E+00 0.00000E+00 0.00000E+00
 -1        19 0.00000E+00 0.00000E+00 0.00000E+00
 -1        20 0.00000E+00 0.00000E+00 0.00000E+00
 -1        21 0.00000E+00 0.00000E+00 0.00000E+00
 -1        22 0.00000E+00 0.00000E+00 0.00000E+00
 -1        23 4.11894E-04-2.60931E-04-3.99562E-17
 -1        24 7.04387E-04-4.01463E-04-1.47489E-16
 -1        25 9.74987E-04-4.99405E-04-3.14551E-16
 -1        26 1.23995E-03-5.69120E-04-5.33600E-16
 -1        27 1.50376E-03-6.19895E-04-7.99213E-16
 -1        28 1.76825E-03-6.57265E-04-1.10692E-15
 -1        29 2.03394E-03-6.85064E-04-1.45459E-15
 -1        30 2.30056E-03-7.06024E-04-1.84019E-15
 -1        31 2.56722E-03-7.22005E-04-2.26430E-15
 -1        32 2.83254E-03-7.34028E-04-2.72878E-15
 -1        33 3.09469E-03-7.42191E-04-3.22845E-15
 -1        34 3.35162E-03-7.45536E-04-3.75722E-15
 -1        35 3.60122E-03-7.41924E-04-4.32001E-15
 -1        36 3.84177E-03-7.28019E-04-4.91588E-15
 -1        37 4.07232E-03-6.99487E-04-5.54617E-15
 -1        38 4.29316E-03-6.51478E-04-6.21172E-15
 -1        39 4.50606E-03-5.79384E-04-6.91381E-15
 -1        40 4.71419E-03-4.79716E-04-7.65749E-15
 -1        41 4.92167E-03-3.50875E-04-8.43958E-15
 -1        42 5.13281E-03-1.93528E-04-9.25884E-15
 -1        43 5.35136E-03-1.04736E-05-1.01196E-14
 -1        44 5.57986E-03 1.93952E-04-1.10222E-14
 -1        45 5.81943E-03 4.14720E-04-1.19706E-14
 -1        46 6.06985E-03 6.46913E-04-1.29640E-14
 -1        47 6.32994E-03 8.86308E-04-1.39986E-14
 -1        48 6.59801E-03 1.12965E-03-1.50742E-14
 -1        49 6.87223E-03 1.37471E-03-1.61949E-14
 -1        50 7.15090E-03 1.62007E-03-1.73631E-14
 -1        51 7.43261E-03 1.86499E-03-1.85690E-14
 -1        52 7.71630E-03 2.10917E-03-1.98161E-14
 -1        53 8.00117E-03 2.35255E-03-2.10923E-14
 -1        54 8.28670E-03 2.59520E-03-2.23973E-14
 -1        55 8.57257E-03 2.83728E-03-2.37224E-14
 -1        56 8.85857E-03 3.07891E-03-2.50614E-14
 -1        57 9.14460E-03 3.32023E-03-2.64282E-14
 -1        58 9.43059E-03 3.56133E-03-2.78163E-14
 -1        59 9.71653E-03 3.80229E-03-2.92114E-14
 -1        60 1.00024E-02 4.04317E-03-3.06111E-14
 -1        61 1.02883E-02 4.28400E-03-3.20162E-14
 -1        62 1.05741E-02 4.52480E-03-3.34317E-14
 -1        63 1.08598E-02 4.76560E-03-3.48650E-14
 -1        64 1.11456E-02 5.00639E-03-3.63050E-14
 -1        65 1.14313E-02 5.24719E-03-3.77417E-14
 -1        66 1.17170E-02 5.48799E-03-3.91938E-14
 -1        67 1.20028E-02 5.72880E-03-4.06458E-14
 -1        68 1.22885E-02 5.96961E-03-4.20926E-14
 -1        69 1.25742E-02 6.21042E-03-4.35266E-14
 -1        70 1.28599E-02 6.45124E-03-4.49424E-14
 -1        71 1.31456E-02 6.69206E-03-4.63466E-14
 -1        72 3.95260E-04 2.51694E-04 5.85910E-17
 -1        73 6.89638E-04 3.93910E-04 1.35769E-16
 -1        74 9.60742E-04 4.91861E-04 2.19592E-16
 -1        75 1.22628E-03 5.60251E-04 3.03156E-16
 -1        76 1.49135E-03 6.08254E-04 3.80911E-16
 -1        77 1.75865E-03 6.41132E-04 4.46325E-16
 -1        78 2.03011E-03 6.62398E-04 4.98025E-16
 -1        79 2.30778E-03 6.74611E-04 5.36257E-16
 -1        80 2.59458E-03 6.79958E-04 5.58866E-16
 -1        81 2.89539E-03 6.81046E-04 5.62836E-16
 -1        82 3.21847E-03 6.82356E-04 5.46526E-16
 -1        83 3.55853E-03 6.92564E-04 5.13526E-16
 -1        84 3.97161E-03 7.32463E-04 4.62622E-16
 -1        85 4.46843E-03 8.44575E-04 3.98031E-16
 -1        86 5.06910E-03 1.10708E-03 3.20273E-16
 -1        87 5.70795E-03 1.58758E-03 2.45280E-16
 -1        88 6.20995E-03 2.17468E-03 1.82708E-16
 -1        89 6.58360E-03 2.80572E-03 1.02850E-16
 -1        90 6.78081E-03 3.08206E-03 8.49066E-18
 -1        91 6.94910E-03 2.95905E-03-1.03995E-16
 -1        92 7.25016E-03 2.60434E-03-2.77502E-16
 -1        93 7.70687E-03 2.20964E-03-5.21528E-16
 -1        94 8.25118E-03 1.94045E-03-8.31651E-16
 -1        95 8.82707E-03 1.84811E-03-1.22037E-15
 -1        96 9.37022E-03 1.92648E-03-1.68241E-15
 -1        97 9.81941E-03 2.10583E-03-2.19044E-15
 -1        98 1.02028E-02 2.33005E-03-2.73434E-15
 -1        99 1.05451E-02 2.57169E-03-3.31919E-15
 -1       100 1.08629E-02 2.81871E-03-3.94419E-15
 -1       101 1.11517E-02 3.05399E-03-4.57496E-15
 -1       102 1.14478E-02 3.30068E-03-5.27036E-15
 -1       103 1.17391E-02 3.54604E-03-6.02331E-15
 -1       104 1.20279E-02 3.79017E-03-6.83026E-15
 -1       105 1.23152E-02 4.03334E-03-7.69339E-15
 -1       106 1.26018E-02 4.27578E-03-8.57970E-15
 -1       107 1.28879E-02 4.51771E-03-9.46832E-15
 -1       108 1.31738E-02 4.75929E-03-1.03521E-14
 -1       109 1.34596E-02 5.00063E-03-1.12383E-14
 -1       110 1.37453E-02 5.24182E-03-1.21326E-14
 -1       111 1.40310E-02 5.48289E-03-1.30464E-14
 -1       112 1.43025E-02 5.71184E-03-1.39283E-14
 -1       113 1.45882E-02 5.95280E-03-1.48594E-14
 -1       114 1.48739E-02 6.19372E-03-1.57953E-14
 -1       115 1.51596E-02 6.43462E-03-1.67235E-14
 -1       116 1.54453E-02 6.67550E-03-1.76378E-14
 -1       117 1.57310E-02 6.91637E-03-1.85552E-14
 -1       118 1.60167E-02 7.15723E-03-1.95116E-14
 -1       119 1.63024E-02 7.39809E-03-2.04666E-14
 -1       120 1.65881E-02 7.63894E-03-2.14055E-14
 -1       121 1.68738E-02 7.87979E-03-2.23487E-14
 -1       122 1.71595E-02 8.12064E-03-2.32881E-14
 -1       123 1.71941E-02 8.26516E-03-2.55876E-14
 -1       124 1.69573E-02 8.18087E-03-2.70162E-14
 -1       125 1.67204E-02 8.09658E-03-2.84552E-14
 -1       126 1.64836E-02 8.01229E-03-2.99118E-14
 -1       127 1.62468E-02 7.92800E-03-3.13700E-14
 -1       128 1.60140E-02 7.84514E-03-3.27835E-14
 -1       129 1.57771E-02 7.76085E-03-3.41881E-14
 -1       130 1.55403E-02 7.67656E-03-3.55909E-14
 -1       131 1.53035E-02 7.59228E-03-3.69723E-14
 -1       132 1.50667E-02 7.50799E-03-3.83264E-14
 -1       133 1.48299E-02 7.42370E-03-3.97276E-14
 -1       134 1.45971E-02 7.34084E-03-4.10693E-14
 -1       135 1.43603E-02 7.25656E-03-4.24455E-14
 -1       136 1.41234E-02 7.17227E-03-4.37734E-14
 -1       137 1.38866E-02 7.08798E-03-4.50924E-14
 -1       138 1.36498E-02 7.00370E-03-4.64231E-14
 -1       139 9.05776E-03 1.49103E-03-2.51621E-15
 -1       140 9.00872E-03 1.72080E-03-2.14901E-15
 -1       141 8.82692E-03 1.96908E-03-1.79045E-15
 -1       142 8.53753E-03 2.22042E-03-1.47910E-15
 -1       143 8.09174E-03 2.50111E-03-1.18085E-15
 -1       144 7.54876E-03 2.73036E-03-9.50588E-16
 -1       145 6.89904E-03 2.84804E-03-7.75462E-16
 -1       146 6.19744E-03 2.77793E-03-6.62908E-16
 -1       147 5.47297E-03 2.50052E-03-6.10690E-16
 -1       148 4.88670E-03 2.14797E-03-6.18985E-16
 -1       149 4.41829E-03 1.78911E-03-6.72290E-16
 -1       150 4.05470E-03 1.45730E-03-7.69147E-16
 -1       151 3.79914E-03 1.16465E-03-9.11409E-16
 -1       152 3.66237E-03 9.18454E-04-1.08670E-15
 -1       153 3.63382E-03 7.13926E-04-1.27797E-15
 -1       154 3.70377E-03 5.38012E-04-1.48599E-15
 -1       155 3.86431E-03 3.91615E-04-1.70768E-15
 -1       156 4.12254E-03 2.68206E-04-1.95434E-15
 -1       157 4.46173E-03 1.78373E-04-2.21021E-15
 -1       158 4.89157E-03 1.22308E-04-2.48934E-15
 -1       159 5.36845E-03 1.08792E-04-2.75482E-15
 -1       160 5.86791E-03 1.35176E-04-2.98840E-15
 -1       161 6.89915E-03 2.98877E-04-3.33720E-15
 -1       162 7.39093E-03 4.27500E-04-3.42375E-15
 -1       163 7.82439E-03 5.71192E-04-3.43721E-15
 -1       164 8.23557E-03 7.42582E-04-3.37875E-15
 -1       165 8.56083E-03 9.15855E-04-3.25444E-15
 -1       166 8.80967E-03 1.09383E-03-3.07355E-15
 -1       167 2.40596E-04-1.25534E-04-3.79606E-17
 -1       168 2.25370E-04-9.45797E-05-3.55754E-17
 -1       169 2.19561E-04-7.26652E-05-3.16350E-17
 -1       170 2.16712E-04-5.48945E-05-2.71965E-17
 -1       171 2.15186E-04-3.96426E-05-2.28089E-17
 -1       172 2.14296E-04-2.54979E-05-1.84721E-17
 -1       173 2.13804E-04-1.22030E-05-1.44267E-17
 -1       174 2.13608E-04 6.31083E-07-1.04659E-17
 -1       175 2.13701E-04 1.33563E-05-6.42729E-18
 -1       176 2.14146E-04 2.63572E-05-2.11081E-18
 -1       177 2.15059E-04 3.98706E-05 2.82570E-18
 -1       178 2.16736E-04 5.50071E-05 8.46017E-18
 -1       179 2.19754E-04 7.25568E-05 1.52601E-17
 -1       180 2.25703E-04 9.44481E-05 2.35035E-17
 -1       181 2.41023E-04 1.25665E-04 3.37356E-17
 -1       182 4.69134E-04-2.63751E-04-9.57622E-17
 -1       183 7.67599E-04-3.82752E-04-2.27557E-16
 -1       184 1.05170E-03-4.66402E-04-4.09700E-16
 -1       185 1.32918E-03-5.26451E-04-6.38009E-16
 -1       186 1.60353E-03-5.70097E-04-9.08406E-16
 -1       187 1.87655E-03-6.02206E-04-1.21832E-15
 -1       188 2.14899E-03-6.26220E-04-1.56597E-15
 -1       189 2.42085E-03-6.44580E-04-1.94949E-15
 -1       190 2.69161E-03-6.58857E-04-2.37051E-15
 -1       191 2.96036E-03-6.69731E-04-2.82726E-15
 -1       192 3.22587E-03-6.76858E-04-3.31643E-15
 -1       193 3.48682E-03-6.78713E-04-3.83692E-15
 -1       194 3.74197E-03-6.72480E-04-4.39178E-15
 -1       195 3.99045E-03-6.54110E-04-4.97978E-15
 -1       196 4.23210E-03-6.18657E-04-5.60296E-15
 -1       197 4.46765E-03-5.60945E-04-6.26143E-15
 -1       198 4.69883E-03-4.76489E-04-6.95747E-15
 -1       199 4.92816E-03-3.62446E-04-7.69240E-15
 -1       200 5.15859E-03-2.18281E-04-8.46678E-15
 -1       201 5.39292E-03-4.59182E-05-9.27871E-15
 -1       202 5.63333E-03 1.50698E-04-1.01362E-14
 -1       203 5.88112E-03 3.66442E-04-1.10353E-14
 -1       204 6.13661E-03 5.95951E-04-1.19810E-14
 -1       205 6.39936E-03 8.34385E-04-1.29680E-14
 -1       206 6.66841E-03 1.07788E-03-1.39953E-14
 -1       207 6.94258E-03 1.32368E-03-1.50652E-14
 -1       208 7.22066E-03 1.57001E-03-1.61804E-14
 -1       209 7.50158E-03 1.81590E-03-1.73367E-14
 -1       210 7.78445E-03 2.06091E-03-1.85297E-14
 -1       211 8.06862E-03 2.30496E-03-1.97612E-14
 -1       212 8.35359E-03 2.54812E-03-2.10241E-14
 -1       213 8.63904E-03 2.79055E-03-2.23102E-14
 -1       214 8.92473E-03 3.03242E-03-2.36185E-14
 -1       215 9.21055E-03 3.27389E-03-2.49465E-14
 -1       216 9.49641E-03 3.51509E-03-2.62990E-14
 -1       217 9.78227E-03 3.75610E-03-2.76658E-14
 -1       218 1.00681E-02 3.99701E-03-2.90423E-14
 -1       219 1.03539E-02 4.23785E-03-3.04199E-14
 -1       220 1.06397E-02 4.47865E-03-3.18080E-14
 -1       221 1.09255E-02 4.71944E-03-3.32057E-14
 -1       222 1.12112E-02 4.96023E-03-3.46140E-14
 -1       223 1.14970E-02 5.20102E-03-3.60273E-14
 -1       224 1.17827E-02 5.44182E-03-3.74445E-14
 -1       225 1.20684E-02 5.68262E-03-3.88700E-14
 -1       226 1.23542E-02 5.92343E-03-4.02951E-14
 -1       227 1.26399E-02 6.16424E-03-4.17114E-14
 -1       228 1.29256E-02 6.40506E-03-4.31192E-14
 -1       229 1.32113E-02 6.64588E-03-4.45190E-14
 -1       230 4.53960E-04 2.55613E-04 7.75035E-17
 -1       231 7.53323E-04 3.75201E-04 1.41482E-16
 -1       232 1.03850E-03 4.58167E-04 2.06842E-16
 -1       233 1.31745E-03 5.16020E-04 2.67425E-16
 -1       234 1.59430E-03 5.55711E-04 3.18722E-16
 -1       235 1.87173E-03 5.81679E-04 3.56089E-16
 -1       236 2.15182E-03 5.96903E-04 3.78309E-16
 -1       237 2.43662E-03 6.03550E-04 3.86471E-16
 -1       238 2.72868E-03 6.03576E-04 3.77340E-16
 -1       239 3.03159E-03 5.99709E-04 3.48615E-16
 -1       240 3.33410E-03 5.97509E-04 3.03048E-16
 -1       241 3.67478E-03 6.08706E-04 2.35994E-16
 -1       242 4.04732E-03 6.61576E-04 1.53781E-16
 -1       243 4.46253E-03 8.13899E-04 5.79506E-17
 -1       244 4.90791E-03 1.14062E-03-4.00477E-17
 -1       245 5.32801E-03 1.62159E-03-1.27082E-16
 -1       246 6.48936E-03 2.93368E-03-2.83973E-16
 -1       247 6.89161E-03 3.00030E-03-4.06061E-16
 -1       248 7.31706E-03 2.72090E-03-5.75210E-16
 -1       249 7.76110E-03 2.28073E-03-8.09099E-16
 -1       250 8.21194E-03 1.91943E-03-1.11079E-15
 -1       251 8.68095E-03 1.74705E-03-1.49878E-15
 -1       252 9.14580E-03 1.77988E-03-1.96882E-15
 -1       253 9.55571E-03 1.94254E-03-2.47826E-15
 -1       254 9.92290E-03 2.16330E-03-3.03197E-15
 -1       255 1.02600E-02 2.40625E-03-3.62250E-15
 -1       256 1.05774E-02 2.65574E-03-4.25170E-15
 -1       257 1.08671E-02 2.89323E-03-4.88801E-15
 -1       258 1.11645E-02 3.14176E-03-5.59766E-15
 -1       259 1.14571E-02 3.38844E-03-6.35015E-15
 -1       260 1.17468E-02 3.63349E-03-7.15636E-15
 -1       261 1.20348E-02 3.87727E-03-8.01136E-15
 -1       262 1.23219E-02 4.12012E-03-8.89811E-15
 -1       263 1.26083E-02 4.36232E-03-9.80250E-15
 -1       264 1.28945E-02 4.60407E-03-1.07102E-14
 -1       265 1.31804E-02 4.84552E-03-1.16139E-14
 -1       266 1.34662E-02 5.08677E-03-1.25236E-14
 -1       267 1.37520E-02 5.32789E-03-1.34497E-14
 -1       268 1.40235E-02 5.55687E-03-1.43409E-14
 -1       269 1.43092E-02 5.79784E-03-1.52911E-14
 -1       270 1.45949E-02 6.03878E-03-1.62450E-14
 -1       271 1.48807E-02 6.27968E-03-1.71929E-14
 -1       272 1.51664E-02 6.52057E-03-1.81406E-14
 -1       273 1.54521E-02 6.76144E-03-1.90850E-14
 -1       274 1.57378E-02 7.00231E-03-2.00515E-14
 -1       275 1.60235E-02 7.24317E-03-2.10261E-14
 -1       276 1.63092E-02 7.48402E-03-2.19811E-14
 -1       277 1.65949E-02 7.72487E-03-2.29401E-14
 -1       278 1.68806E-02 7.96572E-03-2.38915E-14
 -1       279 1.70374E-02 8.11544E-03-2.47492E-14
 -1       280 1.68005E-02 8.03115E-03-2.61680E-14
 -1       281 1.65637E-02 7.94686E-03-2.75878E-14
 -1       282 1.63269E-02 7.86258E-03-2.90071E-14
 -1       283 1.60900E-02 7.77829E-03-3.04259E-14
 -1       284 1.58572E-02 7.69543E-03-3.18133E-14
 -1       285 1.56204E-02 7.61114E-03-3.32057E-14
 -1       286 1.53836E-02 7.52685E-03-3.45836E-14
 -1       287 1.51468E-02 7.44257E-03-3.59506E-14
 -1       288 1.49099E-02 7.35828E-03-3.73125E-14
 -1       289 1.46731E-02 7.27400E-03-3.86694E-14
 -1       290 1.44403E-02 7.19114E-03-3.99947E-14
 -1       291 1.42035E-02 7.10686E-03-4.13341E-14
 -1       292 1.39667E-02 7.02257E-03-4.26593E-14
 -1       293 1.37299E-02 6.93828E-03-4.39733E-14
 -1       294 9.06987E-03 1.42182E-03-2.86687E-15
 -1       295 9.05875E-03 1.52804E-03-2.49239E-15
 -1       296 8.86193E-03 1.68747E-03-2.01632E-15
 -1       297 8.53806E-03 1.92704E-03-1.59645E-15
 -1       298 8.07926E-03 2.22698E-03-1.20560E-15
 -1       299 7.59828E-03 2.59898E-03-9.01074E-16
 -1       300 7.10116E-03 2.88649E-03-6.64833E-16
 -1       301 6.61353E-03 2.95739E-03-4.95087E-16
 -1       302 6.10961E-03 2.70290E-03-3.92522E-16
 -1       303 5.49172E-03 2.23347E-03-4.29032E-16
 -1       304 4.94519E-03 1.75606E-03-4.68016E-16
 -1       305 4.43946E-03 1.35629E-03-5.56231E-16
 -1       306 4.01746E-03 1.06002E-03-6.89836E-16
 -1       307 3.72641E-03 8.90525E-04-8.83286E-16
 -1       308 3.60715E-03 7.68384E-04-1.09044E-15
 -1       309 3.63618E-03 6.67364E-04-1.30649E-15
 -1       310 3.79773E-03 5.70590E-04-1.54879E-15
 -1       311 4.06888E-03 4.56221E-04-1.81575E-15
 -1       312 4.42098E-03 3.22767E-04-2.10592E-15
 -1       313 4.82637E-03 1.87026E-04-2.42114E-15
 -1       314 5.23513E-03 8.05472E-05-2.73034E-15
 -1       315 5.64668E-03 4.10226E-05-3.03100E-15
 -1       316 6.05787E-03 7.73422E-05-3.33188E-15
 -1       317 6.49361E-03 2.09268E-04-3.52490E-15
 -1       318 6.92368E-03 3.97028E-04-3.69773E-15
 -1       319 7.39015E-03 6.13526E-04-3.75211E-15
 -1       320 7.84360E-03 8.45242E-04-3.76360E-15
 -1       321 8.28975E-03 1.03623E-03-3.64354E-15
 -1       322 8.65092E-03 1.19296E-03-3.46688E-15
 -1       323 8.92390E-03 1.32351E-03-3.22339E-15
 -1       324 5.88325E-03 2.31916E-03-1.91890E-16
 -1       325 1.35208E-02 6.83729E-03-4.45582E-14
 -1       326 4.55564E-04-1.64787E-04-1.03446E-16
 -1       327 4.74553E-04-2.13113E-04-1.12516E-16
 -1       328 4.40501E-04-9.35327E-05-8.02648E-17
 -1       329 4.37436E-04-6.41655E-05-6.82742E-17
 -1       330 4.35642E-04-3.69883E-05-5.64022E-17
 -1       331 4.34711E-04-1.11081E-05-4.48216E-17
 -1       332 4.34533E-04 1.41992E-05-3.29055E-17
 -1       333 4.35191E-04 3.96564E-05-2.04677E-17
 -1       334 4.36889E-04 6.56510E-05-7.46405E-18
 -1       335 4.40146E-04 9.41690E-05 7.31836E-18
 -1       336 4.45851E-04 1.26349E-04 2.37948E-17
 -1       337 4.56066E-04 1.64611E-04 4.27514E-17
 -1       338 4.75660E-04 2.13260E-04 6.46727E-17
 -1       339 8.96642E-03 1.56464E-03-2.30857E-15
 -1       340 8.63868E-04-3.58220E-04-3.00324E-16
 -1       341 1.15035E-03-4.27951E-04-4.93664E-16
 -1       342 1.43313E-03-4.78703E-04-7.28797E-16
 -1       343 1.71359E-03-5.15812E-04-1.00216E-15
 -1       344 1.99269E-03-5.43269E-04-1.31232E-15
 -1       345 2.27090E-03-5.64028E-04-1.65763E-15
 -1       346 2.54831E-03-5.80176E-04-2.03770E-15
 -1       347 2.82462E-03-5.92954E-04-2.45238E-15
 -1       348 3.09924E-03-6.02662E-04-2.90083E-15
 -1       349 3.37132E-03-6.08488E-04-3.37942E-15
 -1       350 3.63988E-03-6.08318E-04-3.89151E-15
 -1       351 3.90398E-03-5.98649E-04-4.43852E-15
 -1       352 4.16301E-03-5.74721E-04-5.01883E-15
 -1       353 4.41693E-03-5.31015E-04-5.63431E-15
 -1       354 4.66654E-03-4.62127E-04-6.28430E-15
 -1       355 4.91352E-03-3.63877E-04-6.97316E-15
 -1       356 5.16015E-03-2.34315E-04-7.70020E-15
 -1       357 5.40884E-03-7.42314E-05-8.46690E-15
 -1       358 5.66161E-03 1.13027E-04-9.27690E-15
 -1       359 5.91970E-03 3.22365E-04-1.01296E-14
 -1       360 6.18350E-03 5.48024E-04-1.10256E-14
 -1       361 6.45270E-03 7.84559E-04-1.19652E-14
 -1       362 6.72652E-03 1.02748E-03-1.29454E-14
 -1       363 7.00403E-03 1.27347E-03-1.39661E-14
 -1       364 7.28431E-03 1.52039E-03-1.50312E-14
 -1       365 7.56657E-03 1.76700E-03-1.61382E-14
 -1       366 7.85019E-03 2.01270E-03-1.72829E-14
 -1       367 8.13471E-03 2.25734E-03-1.84650E-14
 -1       368 8.41979E-03 2.50096E-03-1.96818E-14
 -1       369 8.70521E-03 2.74374E-03-2.09273E-14
 -1       370 8.99083E-03 2.98586E-03-2.22009E-14
 -1       371 9.27656E-03 3.22750E-03-2.34957E-14
 -1       372 9.56233E-03 3.46880E-03-2.48114E-14
 -1       373 9.84812E-03 3.70988E-03-2.61459E-14
 -1       374 1.01339E-02 3.95082E-03-2.74947E-14
 -1       375 1.04197E-02 4.19168E-03-2.88504E-14
 -1       376 1.07054E-02 4.43249E-03-3.02096E-14
 -1       377 1.09912E-02 4.67328E-03-3.15762E-14
 -1       378 1.12769E-02 4.91407E-03-3.29555E-14
 -1       379 1.15627E-02 5.15486E-03-3.43421E-14
 -1       380 1.18484E-02 5.39565E-03-3.57335E-14
 -1       381 1.21341E-02 5.63645E-03-3.71267E-14
 -1       382 1.24198E-02 5.87725E-03-3.85264E-14
 -1       383 1.27056E-02 6.11806E-03-3.99187E-14
 -1       384 1.29913E-02 6.35888E-03-4.13055E-14
 -1       385 1.32770E-02 6.59970E-03-4.26955E-14
 -1       386 1.13765E-03 4.18911E-04 1.75248E-16
 -1       387 8.50347E-04 3.50692E-04 1.30945E-16
 -1       388 1.42167E-03 4.66656E-04 2.11921E-16
 -1       389 1.70401E-03 4.98814E-04 2.35634E-16
 -1       390 1.98599E-03 5.18898E-04 2.44237E-16
 -1       391 2.26856E-03 5.29476E-04 2.37003E-16
 -1       392 2.55233E-03 5.32634E-04 2.13578E-16
 -1       393 2.83743E-03 5.30686E-04 1.71849E-16
 -1       394 3.10905E-03 5.27547E-04 1.14536E-16
 -1       395 3.39438E-03 5.30220E-04 3.37187E-17
 -1       396 3.67707E-03 5.54878E-04-6.57975E-17
 -1       397 3.95697E-03 6.34062E-04-1.80489E-16
 -1       398 4.23068E-03 8.17722E-04-3.00795E-16
 -1       399 8.30221E-03 1.92890E-03-1.37227E-15
 -1       400 8.68263E-03 1.68056E-03-1.76245E-15
 -1       401 9.04704E-03 1.66312E-03-2.23971E-15
 -1       402 9.38023E-03 1.79931E-03-2.75338E-15
 -1       403 9.69883E-03 2.00814E-03-3.31101E-15
 -1       404 1.00084E-02 2.24686E-03-3.90792E-15
 -1       405 1.03111E-02 2.49569E-03-4.54442E-15
 -1       406 1.05938E-02 2.73382E-03-5.18240E-15
 -1       407 1.08875E-02 2.98336E-03-5.89826E-15
 -1       408 1.11785E-02 3.23100E-03-6.65669E-15
 -1       409 1.14676E-02 3.47681E-03-7.46321E-15
 -1       410 1.17554E-02 3.72115E-03-8.31628E-15
 -1       411 1.20425E-02 3.96439E-03-9.20606E-15
 -1       412 1.23290E-02 4.20686E-03-1.01202E-14
 -1       413 1.26152E-02 4.44879E-03-1.10469E-14
 -1       414 1.29013E-02 4.69036E-03-1.19708E-14
 -1       415 1.31872E-02 4.93169E-03-1.28962E-14
 -1       416 1.34730E-02 5.17286E-03-1.38322E-14
 -1       417 1.37445E-02 5.40188E-03-1.47342E-14
 -1       418 1.40303E-02 5.64288E-03-1.57001E-14
 -1       419 1.43160E-02 5.88383E-03-1.66735E-14
 -1       420 1.46017E-02 6.12474E-03-1.76473E-14
 -1       421 1.48875E-02 6.36564E-03-1.86186E-14
 -1       422 1.51732E-02 6.60652E-03-1.95898E-14
 -1       423 1.54589E-02 6.84739E-03-2.05722E-14
 -1       424 1.57446E-02 7.08825E-03-2.15670E-14
 -1       425 1.60303E-02 7.32910E-03-2.25494E-14
 -1       426 1.63160E-02 7.56995E-03-2.35204E-14
 -1       427 1.66017E-02 7.81080E-03-2.44887E-14
 -1       428 1.67011E-02 7.92097E-03-2.53275E-14
 -1       429 1.61979E-02 7.69615E-03-2.74307E-14
 -1       430 1.64495E-02 7.80856E-03-2.63867E-14
 -1       431 1.59610E-02 7.61186E-03-2.88223E-14
 -1       432 1.57282E-02 7.52900E-03-3.01749E-14
 -1       433 1.54914E-02 7.44472E-03-3.15425E-14
 -1       434 1.52546E-02 7.36043E-03-3.28962E-14
 -1       435 1.50177E-02 7.27615E-03-3.42420E-14
 -1       436 1.47809E-02 7.19186E-03-3.55834E-14
 -1       437 1.45441E-02 7.10758E-03-3.69180E-14
 -1       438 1.43113E-02 7.02473E-03-3.82194E-14
 -1       439 1.40745E-02 6.94044E-03-3.95307E-14
 -1       440 1.38377E-02 6.85616E-03-4.08356E-14
 -1       441 1.36009E-02 6.77188E-03-4.21330E-14
 -1       442 8.64179E-03 1.72177E-03-1.76374E-15
 -1       443 9.04016E-03 1.45828E-03-3.35008E-15
 -1       444 4.45712E-04-1.26264E-04-9.22724E-17
 -1       445 4.85810E-03 1.38989E-03-3.22801E-16
 -1       446 4.33165E-03 1.02193E-03-4.37550E-16
 -1       447 3.86841E-03 8.35675E-04-6.74303E-16
 -1       448 3.64234E-03 7.39064E-04-8.81616E-16
 -1       449 3.58846E-03 6.88459E-04-1.10485E-15
 -1       450 3.69155E-03 6.31157E-04-1.35792E-15
 -1       451 3.93259E-03 5.52360E-04-1.64564E-15
 -1       452 4.27045E-03 4.29031E-04-1.96160E-15
 -1       453 4.65141E-03 2.79467E-04-2.30093E-15
 -1       454 5.09124E-03 1.10122E-04-2.70574E-15
 -1       455 5.44962E-03 2.10062E-05-3.03074E-15
 -1       456 5.79232E-03 9.71633E-06-3.36942E-15
 -1       457 6.19911E-03 1.24936E-04-3.76644E-15
 -1       458 6.52951E-03 2.89931E-04-3.95054E-15
 -1       459 7.03521E-03 5.73066E-04-4.08193E-15
 -1       460 7.48492E-03 8.20242E-04-4.11054E-15
 -1       461 7.99288E-03 1.08948E-03-4.10008E-15
 -1       462 8.43063E-03 1.24898E-03-3.89286E-15
 -1       463 8.77815E-03 1.38378E-03-3.71492E-15
 -1       464 9.11140E-03 1.49119E-03-2.95910E-15
 -1       465 8.93691E-03 1.51256E-03-3.92165E-15
 -1       466 6.65790E-04-7.37625E-05-1.30535E-16
 -1       467 6.69997E-04-1.14982E-04-1.52937E-16
 -1       468 6.62252E-04 2.63121E-06-8.52081E-17
 -1       469 6.62568E-04 3.97892E-05-6.15759E-17
 -1       470 6.64524E-04 7.69789E-05-3.72830E-17
 -1       471 6.68747E-04 1.16764E-04-1.11402E-17
 -1       472 6.76206E-04 1.60199E-04 1.74082E-17
 -1       473 6.88731E-04 2.09546E-04 4.89043E-17
 -1       474 7.63441E-04 2.74774E-04 8.53809E-17
 -1       475 9.13045E-03 1.54561E-03-3.48759E-15
 -1       476 9.76864E-04-3.29584E-04-3.67152E-16
 -1       477 1.26305E-03-3.85569E-04-5.68020E-16
 -1       478 1.54841E-03-4.27061E-04-8.06419E-16
 -1       479 1.83298E-03-4.57697E-04-1.08071E-15
 -1       480 2.11704E-03-4.80568E-04-1.38873E-15
 -1       481 2.40085E-03-4.98083E-04-1.72983E-15
 -1       482 2.68451E-03-5.11948E-04-2.10401E-15
 -1       483 2.96785E-03-5.23076E-04-2.50981E-15
 -1       484 3.25045E-03-5.31429E-04-2.94807E-15
 -1       485 3.53151E-03-5.35772E-04-3.41785E-15
 -1       486 3.81003E-03-5.33426E-04-3.92155E-15
 -1       487 4.08491E-03-5.20150E-04-4.45915E-15
 -1       488 4.35534E-03-4.90341E-04-5.02993E-15
 -1       489 4.62121E-03-4.37734E-04-5.63658E-15
 -1       490 4.88348E-03-3.56601E-04-6.27896E-15
 -1       491 5.14406E-03-2.43174E-04-6.96112E-15
 -1       492 5.40544E-03-9.67208E-05-7.68178E-15
 -1       493 5.66988E-03 8.02115E-05-8.44548E-15
 -1       494 5.93879E-03 2.82531E-04-9.25174E-15
 -1       495 6.21255E-03 5.03922E-04-1.01012E-14
 -1       496 6.49065E-03 7.38170E-04-1.09922E-14
 -1       497 6.77209E-03 9.80060E-04-1.19242E-14
 -1       498 7.05578E-03 1.22575E-03-1.28978E-14
 -1       499 7.34082E-03 1.47273E-03-1.39134E-14
 -1       500 7.62656E-03 1.71954E-03-1.49713E-14
 -1       501 7.91257E-03 1.96550E-03-1.60678E-14
 -1       502 8.19865E-03 2.21038E-03-1.72027E-14
 -1       503 8.48469E-03 2.45422E-03-1.83775E-14
 -1       504 8.77066E-03 2.69717E-03-1.95802E-14
 -1       505 9.05656E-03 2.93942E-03-2.08111E-14
 -1       506 9.34241E-03 3.18115E-03-2.20720E-14
 -1       507 9.62821E-03 3.42253E-03-2.33530E-14
 -1       508 9.91398E-03 3.66365E-03-2.46535E-14
 -1       509 1.01997E-02 3.90462E-03-2.59715E-14
 -1       510 1.04855E-02 4.14550E-03-2.73020E-14
 -1       511 1.07712E-02 4.38632E-03-2.86373E-14
 -1       512 1.10569E-02 4.62712E-03-2.99747E-14
 -1       513 1.13427E-02 4.86790E-03-3.13204E-14
 -1       514 1.16284E-02 5.10869E-03-3.26816E-14
 -1       515 1.19141E-02 5.34948E-03-3.40490E-14
 -1       516 1.21998E-02 5.59027E-03-3.54175E-14
 -1       517 1.24855E-02 5.83107E-03-3.67873E-14
 -1       518 1.27713E-02 6.07188E-03-3.81567E-14
 -1       519 1.30570E-02 6.31270E-03-3.95170E-14
 -1       520 1.33289E-02 6.54229E-03-4.08270E-14
 -1       521 1.53403E-03 4.14686E-04 1.36145E-16
 -1       522 9.09094E-03 1.53747E-03-2.72294E-15
 -1       523 1.81752E-03 4.40338E-04 1.31531E-16
 -1       524 2.09929E-03 4.56256E-04 1.10880E-16
 -1       525 2.37859E-03 4.64906E-04 7.34750E-17
 -1       526 2.65373E-03 4.68843E-04 1.80147E-17
 -1       527 2.90831E-03 4.71285E-04-5.30988E-17
 -1       528 3.16395E-03 4.77780E-04-1.46611E-16
 -1       529 3.39880E-03 4.97620E-04-2.60683E-16
 -1       530 3.60229E-03 5.47058E-04-3.93318E-16
 -1       531 3.75251E-03 6.42504E-04-5.29548E-16
 -1       532 9.48710E-03 1.84598E-03-3.64527E-15
 -1       533 9.73840E-03 2.06815E-03-4.25152E-15
 -1       534 1.00057E-02 2.30769E-03-4.89277E-15
 -1       535 1.02685E-02 2.54131E-03-5.53736E-15
 -1       536 1.05501E-02 2.78872E-03-6.25553E-15
 -1       537 1.08344E-02 3.03557E-03-7.01958E-15
 -1       538 1.11198E-02 3.28122E-03-7.83098E-15
 -1       539 1.14057E-02 3.52565E-03-8.68920E-15
 -1       540 1.16917E-02 3.76906E-03-9.58483E-15
 -1       541 1.19778E-02 4.01169E-03-1.05078E-14
 -1       542 1.22638E-02 4.25376E-03-1.14491E-14
 -1       543 1.25497E-02 4.49544E-03-1.24002E-14
 -1       544 1.28356E-02 4.73685E-03-1.33461E-14
 -1       545 1.31215E-02 4.97807E-03-1.42965E-14
 -1       546 1.33930E-02 5.20713E-03-1.52135E-14
 -1       547 1.36788E-02 5.44815E-03-1.61959E-14
 -1       548 1.39645E-02 5.68913E-03-1.71937E-14
 -1       549 1.42503E-02 5.93006E-03-1.81970E-14
 -1       550 1.45360E-02 6.17096E-03-1.92037E-14
 -1       551 1.48217E-02 6.41185E-03-2.02036E-14
 -1       552 1.51074E-02 6.65272E-03-2.12139E-14
 -1       553 1.53932E-02 6.89359E-03-2.22251E-14
 -1       554 1.56789E-02 7.13445E-03-2.32401E-14
 -1       555 1.59646E-02 7.37530E-03-2.42409E-14
 -1       556 1.63501E-02 7.69839E-03-2.55365E-14
 -1       557 1.55972E-02 7.36186E-03-2.85830E-14
 -1       558 1.53604E-02 7.27757E-03-2.99230E-14
 -1       559 1.58340E-02 7.44614E-03-2.72278E-14
 -1       560 1.51235E-02 7.19329E-03-3.12530E-14
 -1       561 1.48867E-02 7.10901E-03-3.25747E-14
 -1       562 1.46499E-02 7.02473E-03-3.38914E-14
 -1       563 1.44131E-02 6.94045E-03-3.51980E-14
 -1       564 1.41803E-02 6.85760E-03-3.64773E-14
 -1       565 1.39435E-02 6.77332E-03-3.77718E-14
 -1       566 1.37066E-02 6.68904E-03-3.90491E-14
 -1       567 3.76792E-03 5.78481E-04-1.44421E-15
 -1       568 7.18509E-03 7.84772E-04-4.60524E-15
 -1       569 7.12960E-04-2.52149E-04-2.16098E-16
 -1       570 3.58334E-03 6.24530E-04-1.12006E-15
 -1       571 5.90834E-03 3.23472E-05-3.80519E-15
 -1       572 9.25896E-03 1.66241E-03-3.08446E-15
 -1       573 9.02050E-03 1.57370E-03-2.44540E-15
 -1       574 1.04941E-03 3.42141E-04 1.13316E-16
 -1       575 6.63331E-04-3.49005E-05-1.08119E-16
 -1       576 1.29215E-03 3.84002E-04 1.29186E-16
 -1       577 8.57052E-03 1.40072E-03-4.17444E-15
 -1       578 3.57742E-03 6.51617E-04-8.95418E-16
 -1       579 4.08840E-03 4.82457E-04-1.80132E-15
 -1       580 4.40766E-03 3.60185E-04-2.12081E-15
 -1       581 4.84957E-03 1.71967E-04-2.58384E-15
 -1       582 5.26707E-03 2.79649E-05-3.04555E-15
 -1       583 5.55513E-03-1.63271E-05-3.37727E-15
 -1       584 6.28505E-03 2.25094E-04-4.30956E-15
 -1       585 6.73439E-03 4.92550E-04-4.45072E-15
 -1       586 7.64168E-03 1.04219E-03-4.60961E-15
 -1       587 8.19789E-03 1.27515E-03-4.38356E-15
 -1       588 6.76885E-04-1.59692E-04-1.75366E-16
 -1       589 9.19358E-03 1.58623E-03-3.24483E-15
 -1       590 1.60921E-02 7.57226E-03-2.63921E-14
 -1       591 8.97403E-04 7.56232E-05-9.21131E-17
 -1       592 8.95969E-04 2.76057E-05-1.30484E-16
 -1       593 9.09634E-04 1.76571E-04-9.79509E-18
 -1       594 9.22952E-04 2.33468E-04 3.61243E-17
 -1       595 9.83534E-04 2.85348E-04 7.15269E-17
 -1       596 9.01658E-04 1.24683E-04-5.22281E-17
 -1       597 9.32906E-03 1.73000E-03-3.83228E-15
 -1       598 1.09862E-03-2.95432E-04-4.27762E-16
 -1       599 1.38492E-03-3.38868E-04-6.32283E-16
 -1       600 1.67232E-03-3.71381E-04-8.71356E-16
 -1       601 1.96039E-03-3.95520E-04-1.14322E-15
 -1       602 2.24918E-03-4.13630E-04-1.44683E-15
 -1       603 2.53888E-03-4.27635E-04-1.78165E-15
 -1       604 2.82963E-03-4.38917E-04-2.14741E-15
 -1       605 3.12138E-03-4.48167E-04-2.54378E-15
 -1       606 3.41366E-03-4.55133E-04-2.97121E-15
 -1       607 3.70551E-03-4.58257E-04-3.43168E-15
 -1       608 3.99551E-03-4.54281E-04-3.92589E-15
 -1       609 4.28200E-03-4.38011E-04-4.45311E-15
 -1       610 4.56378E-03-4.02588E-04-5.01465E-15
 -1       611 4.84074E-03-3.40546E-04-5.61144E-15
 -1       612 5.11431E-03-2.45650E-04-6.24865E-15
 -1       613 5.38719E-03-1.14843E-04-6.92489E-15
 -1       614 5.66234E-03 5.06552E-05-7.64236E-15
 -1       615 5.94186E-03 2.45760E-04-8.40259E-15
 -1       616 6.22631E-03 4.63219E-04-9.20475E-15
 -1       617 6.51488E-03 6.95585E-04-1.00476E-14
 -1       618 6.80605E-03 9.36610E-04-1.09342E-14
 -1       619 7.09825E-03 1.18181E-03-1.18591E-14
 -1       620 7.39025E-03 1.42838E-03-1.28275E-14
 -1       621 7.68137E-03 1.67480E-03-1.38359E-14
 -1       622 7.97133E-03 1.92039E-03-1.48846E-14
 -1       623 8.26016E-03 2.16494E-03-1.59745E-14
 -1       624 8.54802E-03 2.40852E-03-1.71035E-14
 -1       625 8.83514E-03 2.65128E-03-1.82672E-14
 -1       626 9.12173E-03 2.89340E-03-1.94551E-14
 -1       627 9.40795E-03 3.13506E-03-2.06764E-14
 -1       628 9.69394E-03 3.37638E-03-2.19238E-14
 -1       629 9.97980E-03 3.61749E-03-2.31919E-14
 -1       630 1.02656E-02 3.85845E-03-2.44784E-14
 -1       631 1.05513E-02 4.09932E-03-2.57799E-14
 -1       632 1.08370E-02 4.34014E-03-2.70881E-14
 -1       633 1.11227E-02 4.58093E-03-2.83996E-14
 -1       634 1.14084E-02 4.82172E-03-2.97157E-14
 -1       635 1.16941E-02 5.06251E-03-3.10481E-14
 -1       636 1.19798E-02 5.30330E-03-3.23869E-14
 -1       637 1.22655E-02 5.54409E-03-3.37335E-14
 -1       638 1.25512E-02 5.78489E-03-3.50769E-14
 -1       639 1.28370E-02 6.02570E-03-3.64183E-14
 -1       640 1.31227E-02 6.26652E-03-3.77550E-14
 -1       641 1.34147E-02 6.47777E-03-3.84103E-14
 -1       642 5.66053E-03-2.14437E-05-3.81563E-15
 -1       643 1.65137E-03 3.61593E-04 4.01189E-17
 -1       644 2.48451E-03 4.07433E-04-1.13519E-16
 -1       645 2.73460E-03 4.17080E-04-1.97467E-16
 -1       646 2.98296E-03 4.31451E-04-3.05369E-16
 -1       647 3.20744E-03 4.56904E-04-4.33705E-16
 -1       648 3.39562E-03 5.02961E-04-5.81464E-16
 -1       649 3.51057E-03 5.64758E-04-7.31408E-16
 -1       650 9.96621E-03 2.37020E-03-5.87901E-15
 -1       651 1.47577E-02 6.94258E-03-3.09247E-14
 -1       652 9.71691E-03 2.13735E-03-5.19728E-15
 -1       653 2.21191E-03 3.96889E-04-4.39813E-17
 -1       654 6.89371E-03 6.77148E-04-5.06294E-15
 -1       655 8.74353E-03 1.54598E-03-4.56025E-15
 -1       656 9.49236E-03 1.91805E-03-4.55052E-15
 -1       657 1.02308E-02 2.60972E-03-6.60110E-15
 -1       658 1.05046E-02 2.85203E-03-7.37164E-15
 -1       659 1.07838E-02 3.09516E-03-8.18950E-15
 -1       660 1.10661E-02 3.33824E-03-9.04979E-15
 -1       661 1.13500E-02 3.58094E-03-9.95452E-15
 -1       662 1.16349E-02 3.82322E-03-1.08907E-14
 -1       663 1.19202E-02 4.06513E-03-1.18478E-14
 -1       664 1.22058E-02 4.30674E-03-1.28171E-14
 -1       665 1.24915E-02 4.54813E-03-1.37872E-14
 -1       666 1.27772E-02 4.78936E-03-1.47565E-14
 -1       667 1.30487E-02 5.01843E-03-1.56858E-14
 -1       668 1.33345E-02 5.25947E-03-1.66897E-14
 -1       669 1.36202E-02 5.50045E-03-1.77065E-14
 -1       670 1.39060E-02 5.74140E-03-1.87377E-14
 -1       671 1.41917E-02 5.98231E-03-1.97750E-14
 -1       672 1.44774E-02 6.22320E-03-2.08084E-14
 -1       673 1.47631E-02 6.46408E-03-2.18402E-14
 -1       674 1.50489E-02 6.70495E-03-2.28766E-14
 -1       675 1.53346E-02 6.94581E-03-2.39146E-14
 -1       676 1.56203E-02 7.18666E-03-2.49451E-14
 -1       677 1.52313E-02 7.11114E-03-2.83201E-14
 -1       678 1.54682E-02 7.19543E-03-2.69947E-14
 -1       679 1.49945E-02 7.02686E-03-2.96282E-14
 -1       680 1.45209E-02 6.85830E-03-3.22094E-14
 -1       681 1.42841E-02 6.77403E-03-3.34944E-14
 -1       682 1.40513E-02 6.69118E-03-3.47471E-14
 -1       683 1.38144E-02 6.60690E-03-3.60192E-14
 -1       684 1.36146E-02 6.54234E-03-3.72167E-14
 -1       685 7.95858E-03 1.26494E-03-4.96366E-15
 -1       686 7.39140E-03 9.79740E-04-5.08822E-15
 -1       687 5.96131E-03 8.48445E-05-4.36374E-15
 -1       688 4.53767E-03 2.36115E-04-2.37596E-15
 -1       689 3.58303E-03 5.52669E-04-1.18251E-15
 -1       690 9.09602E-03 1.62972E-03-4.16316E-15
 -1       691 1.93340E-03 3.82547E-04 6.62719E-18
 -1       692 9.04317E-04-1.20536E-04-2.39571E-16
 -1       693 4.15290E-03 3.84950E-04-1.93960E-15
 -1       694 6.47199E-03 3.97869E-04-4.89758E-15
 -1       695 5.34972E-03-2.86512E-05-3.42815E-15
 -1       696 3.85675E-03 4.90878E-04-1.58518E-15
 -1       697 8.38008E-03 1.42940E-03-4.76796E-15
 -1       698 5.00460E-03 5.93606E-05-2.93767E-15
 -1       699 1.22528E-03 3.26509E-04 7.60974E-17
 -1       700 8.96767E-04-2.04545E-05-1.67804E-16
 -1       701 8.99502E-04-6.94334E-05-2.03955E-16
 -1       702 9.22613E-03 1.67743E-03-4.00155E-15
 -1       703 1.43864E-03 3.47572E-04 6.43779E-17
 -1       704 4.68915E-03 1.10780E-04-2.70372E-15
 -1       705 8.72900E-04-2.47387E-04-2.89611E-16
 -1       706 3.50833E-03 5.67209E-04-9.54950E-16
 -1       707 6.14606E-03 2.16181E-04-4.94092E-15
 -1       708 9.11935E-04-1.74833E-04-2.74777E-16
 -1       709 1.16263E-03 2.72335E-04 3.03983E-17
 -1       710 5.44077E-03-5.86189E-05-3.91518E-15
 -1       711 1.22611E-03-2.55089E-04-4.80183E-16
 -1       712 3.61582E-03 4.74926E-04-1.32312E-15
 -1       713 7.16328E-03 8.96794E-04-5.60776E-15
 -1       714 7.70919E-03 1.20699E-03-5.56847E-15
 -1       715 1.51330E-03-2.87154E-04-6.85182E-16
 -1       716 1.80287E-03-3.11082E-04-9.21877E-16
 -1       717 2.09443E-03-3.28683E-04-1.18907E-15
 -1       718 2.38805E-03-3.41749E-04-1.48658E-15
 -1       719 2.68404E-03-3.51847E-04-1.81312E-15
 -1       720 2.98268E-03-3.60196E-04-2.16908E-15
 -1       721 3.28401E-03-3.67466E-04-2.55452E-15
 -1       722 3.58744E-03-3.73415E-04-2.97128E-15
 -1       723 3.89156E-03-3.76294E-04-3.42071E-15
 -1       724 4.19415E-03-3.72127E-04-3.90390E-15
 -1       725 4.49269E-03-3.54239E-04-4.42119E-15
 -1       726 4.78543E-03-3.13639E-04-4.97329E-15
 -1       727 5.07262E-03-2.40925E-04-5.56281E-15
 -1       728 5.35685E-03-1.29340E-04-6.19482E-15
 -1       729 5.64212E-03 2.25551E-05-6.86732E-15
 -1       730 5.93182E-03 2.10064E-04-7.58116E-15
 -1       731 6.22728E-03 4.24492E-04-8.33723E-15
 -1       732 6.52750E-03 6.56279E-04-9.13416E-15
 -1       733 6.83017E-03 8.97436E-04-9.97153E-15
 -1       734 7.13282E-03 1.14254E-03-1.08522E-14
 -1       735 7.43366E-03 1.38851E-03-1.17727E-14
 -1       736 7.73177E-03 1.63395E-03-1.27332E-14
 -1       737 8.02697E-03 1.87840E-03-1.37353E-14
 -1       738 8.31952E-03 2.12187E-03-1.47763E-14
 -1       739 8.60993E-03 2.36452E-03-1.58595E-14
 -1       740 8.89870E-03 2.60655E-03-1.69810E-14
 -1       741 9.18632E-03 2.84815E-03-1.81359E-14
 -1       742 9.47316E-03 3.08943E-03-1.93164E-14
 -1       743 9.75949E-03 3.33052E-03-2.05248E-14
 -1       744 1.00455E-02 3.57147E-03-2.17567E-14
 -1       745 1.03314E-02 3.81234E-03-2.30101E-14
 -1       746 1.06171E-02 4.05317E-03-2.42842E-14
 -1       747 1.09028E-02 4.29396E-03-2.55650E-14
 -1       748 1.11885E-02 4.53475E-03-2.68457E-14
 -1       749 1.14742E-02 4.77553E-03-2.81352E-14
 -1       750 1.17599E-02 5.01632E-03-2.94378E-14
 -1       751 1.20456E-02 5.25711E-03-3.07540E-14
 -1       752 1.23313E-02 5.49790E-03-3.20741E-14
 -1       753 1.26170E-02 5.73871E-03-3.33894E-14
 -1       754 1.29027E-02 5.97951E-03-3.47056E-14
 -1       755 1.31884E-02 6.22033E-03-3.60168E-14
 -1       756 1.34015E-02 6.38133E-03-3.66186E-14
 -1       757 2.58730E-03 3.58093E-04-3.22506E-16
 -1       758 3.28166E-03 4.56638E-04-7.43570E-16
 -1       759 3.40901E-03 5.06536E-04-8.45779E-16
 -1       760 1.01714E-02 2.67031E-03-7.67556E-15
 -1       761 1.41550E-02 6.60760E-03-3.18191E-14
 -1       762 1.43919E-02 6.69187E-03-3.05642E-14
 -1       763 9.90801E-03 2.43657E-03-6.90316E-15
 -1       764 2.32053E-03 3.42036E-04-2.20696E-16
 -1       765 1.04437E-02 2.90809E-03-8.49665E-15
 -1       766 1.07215E-02 3.14792E-03-9.36032E-15
 -1       767 1.10027E-02 3.38871E-03-1.02703E-14
 -1       768 1.12858E-02 3.62988E-03-1.12167E-14
 -1       769 1.15701E-02 3.87116E-03-1.21897E-14
 -1       770 1.18551E-02 4.11242E-03-1.31752E-14
 -1       771 1.21405E-02 4.35362E-03-1.41700E-14
 -1       772 1.24260E-02 4.59476E-03-1.51606E-14
 -1       773 1.26974E-02 4.82378E-03-1.61098E-14
 -1       774 1.29831E-02 5.06480E-03-1.71272E-14
 -1       775 1.32688E-02 5.30578E-03-1.81608E-14
 -1       776 1.35545E-02 5.54672E-03-1.92178E-14
 -1       777 1.38403E-02 5.78764E-03-2.02862E-14
 -1       778 1.41260E-02 6.02854E-03-2.13499E-14
 -1       779 1.44117E-02 6.26942E-03-2.24087E-14
 -1       780 1.46974E-02 6.51029E-03-2.34666E-14
 -1       781 1.49832E-02 6.75116E-03-2.45285E-14
 -1       782 1.52257E-02 6.97329E-03-2.57596E-14
 -1       783 4.23566E-03 2.54492E-04-2.17023E-15
 -1       784 1.49888E-02 6.88901E-03-2.70610E-14
 -1       785 3.89618E-03 3.97881E-04-1.71144E-15
 -1       786 5.05977E-03-3.40616E-05-3.34659E-15
 -1       787 1.46287E-02 6.77615E-03-2.93007E-14
 -1       788 1.39222E-02 6.52476E-03-3.30478E-14
 -1       789 1.36854E-02 6.44049E-03-3.42956E-14
 -1       790 8.96530E-03 1.68952E-03-4.91544E-15
 -1       791 1.77283E-03 3.08274E-04-7.68733E-17
 -1       792 6.67991E-03 5.87853E-04-5.56760E-15
 -1       793 2.04911E-03 3.26579E-04-1.39432E-16
 -1       794 9.35317E-03 1.85098E-03-4.72058E-15
 -1       795 1.48088E-02 6.83258E-03-2.81864E-14
 -1       796 5.71773E-03 3.65647E-06-4.45800E-15
 -1       797 9.55871E-03 2.05613E-03-5.37139E-15
 -1       798 9.72686E-03 2.24412E-03-6.11811E-15
 -1       799 3.07185E-03 4.09619E-04-5.80655E-16
 -1       800 2.83859E-03 3.78962E-04-4.41375E-16
 -1       801 1.13519E-03 6.27686E-05-1.76362E-16
 -1       802 1.13524E-03 5.55977E-06-2.30742E-16
 -1       803 3.44568E-03 4.90479E-04-1.02346E-15
 -1       804 4.37352E-03 1.35442E-04-2.47320E-15
 -1       805 1.56068E-03 2.98240E-04-3.00222E-17
 -1       806 5.89326E-03 9.69721E-05-5.02608E-15
 -1       807 8.64545E-03 1.60890E-03-5.27892E-15
 -1       808 9.15064E-03 1.74946E-03-4.76197E-15
 -1       809 1.35434E-02 6.41091E-03-3.54565E-14
 -1       810 1.13837E-03 1.19930E-04-1.21051E-16
 -1       811 6.35156E-03 3.82719E-04-5.59778E-15
 -1       812 1.14291E-03-1.12138E-04-3.34815E-16
 -1       813 8.21771E-03 1.45029E-03-5.49214E-15
 -1       814 1.15063E-03-1.74520E-04-3.85427E-16
 -1       815 1.14572E-03 1.78682E-04-6.26804E-17
 -1       816 3.42906E-03 4.23467E-04-1.14901E-15
 -1       817 1.13790E-03-5.24488E-05-2.83454E-16
 -1       818 1.39683E-03 2.53116E-04-4.53976E-17
 -1       819 9.25456E-03 1.92431E-03-5.65325E-15
 -1       820 6.98991E-03 8.35064E-04-6.32574E-15
 -1       821 1.01025E-02 2.72645E-03-8.77926E-15
 -1       822 1.64649E-03-2.29861E-04-7.25690E-16
 -1       823 1.93841E-03-2.45584E-04-9.57371E-16
 -1       824 2.23346E-03-2.56577E-04-1.21831E-15
 -1       825 2.53195E-03-2.64238E-04-1.50689E-15
 -1       826 2.83447E-03-2.69962E-04-1.82341E-15
 -1       827 3.14160E-03-2.75048E-04-2.16865E-15
 -1       828 3.45354E-03-2.80478E-04-2.54340E-15
 -1       829 3.76953E-03-2.86364E-04-2.94793E-15
 -1       830 4.08745E-03-2.90919E-04-3.38576E-15
 -1       831 4.40383E-03-2.89078E-04-3.85769E-15
 -1       832 4.71483E-03-2.71583E-04-4.36504E-15
 -1       833 5.01825E-03-2.25768E-04-4.90859E-15
 -1       834 5.31540E-03-1.39145E-04-5.49309E-15
 -1       835 5.61114E-03-5.43100E-06-6.11876E-15
 -1       836 5.91089E-03 1.72940E-04-6.78678E-15
 -1       837 6.21769E-03 3.85466E-04-7.49755E-15
 -1       838 6.53074E-03 6.18959E-04-8.24931E-15
 -1       839 6.84669E-03 8.62307E-04-9.04155E-15
 -1       840 7.16173E-03 1.10845E-03-9.87534E-15
 -1       841 7.47309E-03 1.35402E-03-1.07489E-14
 -1       842 7.77949E-03 1.59799E-03-1.16625E-14
 -1       843 8.08083E-03 1.84049E-03-1.26185E-14
 -1       844 8.37773E-03 2.08195E-03-1.36151E-14
 -1       845 8.67108E-03 2.32284E-03-1.46521E-14
 -1       846 8.96178E-03 2.56345E-03-1.57275E-14
 -1       847 9.25060E-03 2.80398E-03-1.68424E-14
 -1       848 9.53817E-03 3.04451E-03-1.79867E-14
 -1       849 9.82492E-03 3.28509E-03-1.91594E-14
 -1       850 1.01112E-02 3.52571E-03-2.03559E-14
 -1       851 1.03971E-02 3.76638E-03-2.15731E-14
 -1       852 1.06829E-02 4.00708E-03-2.28097E-14
 -1       853 1.09686E-02 4.24781E-03-2.40636E-14
 -1       854 1.12543E-02 4.48857E-03-2.53192E-14
 -1       855 1.15400E-02 4.72933E-03-2.65817E-14
 -1       856 1.18256E-02 4.97011E-03-2.78558E-14
 -1       857 1.21113E-02 5.21090E-03-2.91423E-14
 -1       858 1.23970E-02 5.45170E-03-3.04353E-14
 -1       859 1.26827E-02 5.69251E-03-3.17259E-14
 -1       860 1.29684E-02 5.93332E-03-3.30162E-14
 -1       861 1.03770E-02 2.96131E-03-9.64664E-15
 -1       862 1.35564E-02 6.27407E-03-3.25982E-14
 -1       863 1.40260E-02 6.44117E-03-3.01698E-14
 -1       864 1.37912E-02 6.35762E-03-3.13859E-14
 -1       865 9.83464E-03 2.49624E-03-7.95703E-15
 -1       866 2.44468E-03 2.91342E-04-4.24031E-16
 -1       867 1.06558E-02 3.19892E-03-1.05583E-14
 -1       868 1.09373E-02 3.43811E-03-1.15102E-14
 -1       869 1.12205E-02 3.67818E-03-1.24957E-14
 -1       870 1.15048E-02 3.91872E-03-1.34991E-14
 -1       871 1.17897E-02 4.15949E-03-1.45146E-14
 -1       872 1.20750E-02 4.40038E-03-1.55291E-14
 -1       873 1.23462E-02 4.62927E-03-1.64973E-14
 -1       874 1.26318E-02 4.87021E-03-1.75316E-14
 -1       875 1.29175E-02 5.11115E-03-1.85857E-14
 -1       876 1.32031E-02 5.35207E-03-1.96605E-14
 -1       877 1.34889E-02 5.59298E-03-2.07534E-14
 -1       878 1.37746E-02 5.83388E-03-2.18497E-14
 -1       879 1.40603E-02 6.07476E-03-2.29347E-14
 -1       880 1.43460E-02 6.31564E-03-2.40184E-14
 -1       881 1.46317E-02 6.55650E-03-2.51040E-14
 -1       882 1.48103E-02 6.72276E-03-2.60806E-14
 -1       883 7.46284E-03 1.12494E-03-6.31205E-15
 -1       884 8.91119E-03 1.78432E-03-5.80175E-15
 -1       885 5.43086E-03-7.85150E-05-4.42905E-15
 -1       886 1.42628E-02 6.52544E-03-2.89356E-14
 -1       887 3.65388E-03 3.68856E-04-1.50606E-15
 -1       888 4.67344E-03-1.87234E-05-3.05802E-15
 -1       889 5.09266E-03-1.05707E-04-3.82075E-15
 -1       890 3.20078E-03 3.91233E-04-8.87809E-16
 -1       891 7.98299E-03 1.40129E-03-6.19977E-15
 -1       892 3.89531E-03 2.72656E-04-1.87144E-15
 -1       893 8.54426E-03 1.64936E-03-6.02228E-15
 -1       894 1.38527E-03-9.17302E-05-4.35155E-16
 -1       895 6.65194E-03 6.17427E-04-6.34906E-15
 -1       896 1.37885E-03 1.05435E-04-2.20693E-16
 -1       897 2.17456E-03 2.72676E-04-3.10390E-16
 -1       898 1.32541E-02 6.17414E-03-3.42986E-14
 -1       899 2.70719E-03 3.14809E-04-5.56135E-16
 -1       900 1.61916E-03 2.39043E-04-1.33885E-16
 -1       901 1.46302E-02 6.66633E-03-2.71889E-14
 -1       902 5.60145E-03-2.55949E-05-4.98042E-15
 -1       903 6.08924E-03 2.32148E-04-5.67626E-15
 -1       904 9.40597E-03 2.09446E-03-6.40032E-15
 -1       905 2.96233E-03 3.46654E-04-7.13320E-16
 -1       906 4.02515E-03 1.68707E-04-2.14657E-15
 -1       907 1.37788E-03 4.07866E-05-2.93893E-16
 -1       908 9.57636E-03 2.27350E-03-7.18527E-15
 -1       909 1.44465E-02 6.59588E-03-2.80666E-14
 -1       910 1.89942E-03 2.54812E-04-2.16607E-16
 -1       911 1.35792E-03-2.08071E-04-5.23073E-16
 -1       912 1.38421E-03 1.69941E-04-1.45100E-16
 -1       913 1.38026E-03-2.46194E-05-3.65217E-16
 -1       914 1.62543E-03 1.53316E-04-2.59910E-16
 -1       915 1.49294E-03-1.54323E-04-5.54678E-16
 -1       916 3.30274E-03 3.30658E-04-1.17352E-15
 -1       917 1.00294E-02 2.77762E-03-9.90978E-15
 -1       918 2.07724E-03-1.74538E-04-9.77405E-16
 -1       919 2.37546E-03-1.78788E-04-1.22910E-15
 -1       920 2.67846E-03-1.80592E-04-1.50734E-15
 -1       921 2.98733E-03-1.81369E-04-1.81297E-15
 -1       922 3.30321E-03-1.82854E-04-2.14680E-15
 -1       923 3.62668E-03-1.86846E-04-2.50811E-15
 -1       924 3.95689E-03-1.94371E-04-2.90101E-15
 -1       925 4.29052E-03-2.03749E-04-3.32634E-15
 -1       926 4.62262E-03-2.08363E-04-3.78815E-15
 -1       927 4.94692E-03-1.93347E-04-4.28544E-15
 -1       928 5.26136E-03-1.40365E-04-4.82137E-15
 -1       929 6.19946E-03 3.42960E-04-6.68472E-15
 -1       930 6.52677E-03 5.81449E-04-7.39254E-15
 -1       931 6.85838E-03 8.30505E-04-8.14045E-15
 -1       932 7.18807E-03 1.07988E-03-8.92852E-15
 -1       933 7.51160E-03 1.32570E-03-9.75702E-15
 -1       934 7.82725E-03 1.56780E-03-1.06233E-14
 -1       935 8.13516E-03 1.80739E-03-1.15330E-14
 -1       936 8.43649E-03 2.04579E-03-1.24848E-14
 -1       937 8.73271E-03 2.28391E-03-1.34767E-14
 -1       938 9.02520E-03 2.52229E-03-1.45077E-14
 -1       939 9.31511E-03 2.76112E-03-1.55816E-14
 -1       940 9.60330E-03 3.00044E-03-1.66870E-14
 -1       941 9.89041E-03 3.24019E-03-1.78233E-14
 -1       942 1.01768E-02 3.48027E-03-1.89860E-14
 -1       943 1.04629E-02 3.72060E-03-2.01681E-14
 -1       944 1.07487E-02 3.96109E-03-2.13668E-14
 -1       945 1.10344E-02 4.20171E-03-2.25854E-14
 -1       946 1.13201E-02 4.44240E-03-2.38119E-14
 -1       947 1.16057E-02 4.68313E-03-2.50477E-14
 -1       948 1.18914E-02 4.92390E-03-2.62920E-14
 -1       949 1.21770E-02 5.16469E-03-2.75506E-14
 -1       950 1.24627E-02 5.40549E-03-2.88185E-14
 -1       951 1.27484E-02 5.64630E-03-3.00837E-14
 -1       952 1.30341E-02 5.88712E-03-3.13484E-14
 -1       953 1.05881E-02 3.24789E-03-1.17812E-14
 -1       954 1.08707E-02 3.48625E-03-1.27724E-14
 -1       955 1.03074E-02 3.01131E-03-1.08241E-14
 -1       956 1.11545E-02 3.72570E-03-1.37901E-14
 -1       957 9.75520E-03 2.54840E-03-9.04266E-15
 -1       958 1.14390E-02 3.96581E-03-1.48236E-14
 -1       959 1.17241E-02 4.20629E-03-1.58602E-14
 -1       960 1.19951E-02 4.43494E-03-1.68508E-14
 -1       961 1.22806E-02 4.67574E-03-1.79050E-14
 -1       962 1.25662E-02 4.91659E-03-1.89801E-14
 -1       963 1.28518E-02 5.15747E-03-2.00696E-14
 -1       964 1.31375E-02 5.39836E-03-2.11811E-14
 -1       965 1.34232E-02 5.63924E-03-2.23029E-14
 -1       966 1.37089E-02 5.88012E-03-2.34230E-14
 -1       967 1.39946E-02 6.12099E-03-2.45339E-14
 -1       968 1.42803E-02 6.36185E-03-2.56421E-14
 -1       969 1.44553E-02 6.51409E-03-2.64155E-14
 -1       970 1.38970E-02 6.27474E-03-2.85389E-14
 -1       971 1.78311E-03-1.66691E-04-7.52341E-16
 -1       972 1.73641E-03 1.83969E-04-2.63014E-16
 -1       973 9.48620E-03 2.32583E-03-8.21925E-15
 -1       974 4.29135E-03 6.39426E-06-2.69433E-15
 -1       975 7.31089E-03 1.07553E-03-7.10231E-15
 -1       976 4.65714E-03-1.25977E-04-3.44030E-15
 -1       977 8.31597E-03 1.61686E-03-6.86007E-15
 -1       978 3.59965E-03 2.62396E-04-1.60748E-15
 -1       979 7.80543E-03 1.36396E-03-7.06270E-15
 -1       980 8.78953E-03 1.82958E-03-6.72324E-15
 -1       981 9.11266E-03 1.96591E-03-6.56958E-15
 -1       982 1.67305E-03-9.92082E-05-6.04656E-16
 -1       983 2.30817E-03 2.18495E-04-5.05492E-16
 -1       984 6.96984E-03 8.60297E-04-7.11874E-15
 -1       985 3.03532E-03 2.86668E-04-9.67393E-16
 -1       986 5.90773E-03 1.41814E-04-5.89035E-15
 -1       987 2.58159E-03 2.41025E-04-6.50992E-16
 -1       988 1.32689E-02 5.97066E-03-3.01863E-14
 -1       989 2.03140E-03 2.00101E-04-3.79142E-16
 -1       990 1.35830E-02 6.12269E-03-2.93743E-14
 -1       991 9.28278E-03 2.13400E-03-7.35298E-15
 -1       992 1.62339E-03 8.32877E-05-3.54934E-16
 -1       993 1.40807E-02 6.34517E-03-2.76898E-14
 -1       994 3.71369E-03 1.74993E-04-1.85763E-15
 -1       995 1.13731E-02 4.01248E-03-1.61602E-14
 -1       996 1.10882E-02 3.77253E-03-1.51031E-14
 -1       997 2.51785E-03-9.52795E-05-1.22024E-15
 -1       998 2.82426E-03-9.05948E-05-1.48672E-15
 -1       999 3.13858E-03-8.56264E-05-1.78011E-15
 -1      1000 3.46291E-03-8.30246E-05-2.10110E-15
 -1      1001 3.79874E-03-8.62214E-05-2.45034E-15
 -1      1002 7.64153E-03 1.31511E-03-7.92301E-15
 -1      1003 1.08037E-02 3.53326E-03-1.40549E-14
 -1      1004 7.55365E-03 1.30432E-03-8.79524E-15
 -1      1005 7.87910E-03 1.54413E-03-9.61499E-15
 -1      1006 8.19324E-03 1.77967E-03-1.04776E-14
 -1      1007 8.49830E-03 2.01370E-03-1.13838E-14
 -1      1008 8.79660E-03 2.24792E-03-1.23324E-14
 -1      1009 9.09019E-03 2.48314E-03-1.33189E-14
 -1      1010 9.38064E-03 2.71960E-03-1.43485E-14
 -1      1011 9.66908E-03 2.95724E-03-1.54171E-14
 -1      1012 9.95628E-03 3.19583E-03-1.65142E-14
 -1      1013 1.02427E-02 3.43515E-03-1.76410E-14
 -1      1014 1.05288E-02 3.67500E-03-1.87901E-14
 -1      1015 1.08146E-02 3.91520E-03-1.99546E-14
 -1      1016 1.11002E-02 4.15565E-03-2.11355E-14
 -1      1017 1.13859E-02 4.39624E-03-2.23327E-14
 -1      1018 1.16715E-02 4.63693E-03-2.35380E-14
 -1      1019 1.19571E-02 4.87768E-03-2.47537E-14
 -1      1020 1.22428E-02 5.11847E-03-2.59792E-14
 -1      1021 1.25284E-02 5.35927E-03-2.72205E-14
 -1      1022 1.28141E-02 5.60009E-03-2.84602E-14
 -1      1023 1.30415E-02 5.78537E-03-2.93237E-14
 -1      1024 1.05199E-02 3.29507E-03-1.30274E-14
 -1      1025 2.17236E-03 1.42246E-04-5.67075E-16
 -1      1026 9.67567E-03 2.59463E-03-1.01540E-14
 -1      1027 1.16440E-02 4.24081E-03-1.71733E-14
 -1      1028 1.19294E-02 4.48140E-03-1.82516E-14
 -1      1029 1.22149E-02 4.72212E-03-1.93452E-14
 -1      1030 1.25005E-02 4.96293E-03-2.04561E-14
 -1      1031 1.27861E-02 5.20377E-03-2.15807E-14
 -1      1032 1.30718E-02 5.44463E-03-2.27253E-14
 -1      1033 1.33575E-02 5.68549E-03-2.38694E-14
 -1      1034 1.36432E-02 5.92635E-03-2.50139E-14
 -1      1035 1.39289E-02 6.16721E-03-2.61475E-14
 -1      1036 1.96518E-03-1.02846E-04-8.01026E-16
 -1      1037 2.80893E-03 2.60911E-04-8.00792E-16
 -1      1038 9.39750E-03 2.36998E-03-9.28446E-15
 -1      1039 9.11159E-03 2.13232E-03-8.28308E-15
 -1      1040 3.28053E-03 2.20586E-04-1.35812E-15
 -1      1041 3.90822E-03 3.75968E-05-2.28746E-15
 -1      1042 8.16286E-03 1.60319E-03-7.80257E-15
 -1      1043 8.62626E-03 1.83522E-03-7.68930E-15
 -1      1044 2.23948E-03-1.00487E-04-1.00043E-15
 -1      1045 1.69642E-03-1.39480E-05-5.17774E-16
 -1      1046 7.23386E-03 1.06965E-03-8.04192E-15
 -1      1047 4.14536E-03-9.80623E-05-2.83007E-15
 -1      1048 1.02371E-02 3.05859E-03-1.20289E-14
 -1      1049 9.95558E-03 2.82469E-03-1.10686E-14
 -1      1050 2.45406E-03 1.61241E-04-7.25460E-16
 -1      1051 1.87471E-03 1.27202E-04-4.18929E-16
 -1      1052 8.94614E-03 1.97697E-03-7.48404E-15
 -1      1053 3.37315E-03 1.46617E-04-1.57995E-15
 -1      1054 1.37452E-02 6.09678E-03-2.69791E-14
 -1      1055 1.34312E-02 5.94474E-03-2.77974E-14
 -1      1056 2.96494E-03 5.57435E-06-1.44552E-15
 -1      1057 3.28259E-03 1.75019E-05-1.72627E-15
 -1      1058 1.07368E-02 3.57946E-03-1.53508E-14
 -1      1059 9.31442E-03 2.40916E-03-1.03793E-14
 -1      1060 8.25968E-03 1.75765E-03-9.45136E-15
 -1      1061 8.56652E-03 1.98562E-03-1.03118E-14
 -1      1062 8.86503E-03 2.21461E-03-1.12149E-14
 -1      1063 9.15834E-03 2.44571E-03-1.21570E-14
 -1      1064 9.44824E-03 2.67916E-03-1.31433E-14
 -1      1065 9.73614E-03 2.91468E-03-1.41709E-14
 -1      1066 1.00229E-02 3.15185E-03-1.52301E-14
 -1      1067 1.03090E-02 3.39025E-03-1.63191E-14
 -1      1068 1.05948E-02 3.62952E-03-1.74333E-14
 -1      1069 1.08805E-02 3.86937E-03-1.85641E-14
 -1      1070 1.11661E-02 4.10961E-03-1.97117E-14
 -1      1071 1.14517E-02 4.35009E-03-2.08753E-14
 -1      1072 1.17373E-02 4.59073E-03-2.20492E-14
 -1      1073 1.20229E-02 4.83145E-03-2.32341E-14
 -1      1074 1.23085E-02 5.07223E-03-2.44311E-14
 -1      1075 1.25942E-02 5.31304E-03-2.56352E-14
 -1      1076 1.28798E-02 5.55386E-03-2.68529E-14
 -1      1077 1.04520E-02 3.34101E-03-1.42888E-14
 -1      1078 1.32363E-02 5.86506E-03-2.85661E-14
 -1      1079 8.80428E-03 1.98902E-03-8.48840E-15
 -1      1080 2.96783E-03 1.88132E-04-1.11158E-15
 -1      1081 1.12999E-02 4.05282E-03-1.74880E-14
 -1      1082 1.21492E-02 4.76844E-03-2.08084E-14
 -1      1083 1.24348E-02 5.00922E-03-2.19543E-14
 -1      1084 1.27205E-02 5.25004E-03-2.31126E-14
 -1      1085 1.30061E-02 5.49088E-03-2.42823E-14
 -1      1086 1.32918E-02 5.73173E-03-2.54541E-14
 -1      1087 1.93506E-03 6.05519E-05-5.55142E-16
 -1      1088 8.00940E-03 1.57078E-03-8.70024E-15
 -1      1089 1.18637E-02 4.52773E-03-1.96784E-14
 -1      1090 9.05954E-03 2.19562E-03-9.40909E-15
 -1      1091 3.59584E-03 3.59902E-05-1.99456E-15
 -1      1092 2.65743E-03-6.49658E-06-1.19146E-15
 -1      1093 1.10183E-02 3.81585E-03-1.64129E-14
 -1      1094 1.15817E-02 4.29017E-03-1.85784E-14
 -1      1095 2.08482E-03-1.58292E-05-7.64064E-16
 -1      1096 9.59905E-03 2.63711E-03-1.12930E-14
 -1      1097 1.01674E-02 3.10398E-03-1.32568E-14
 -1      1098 1.30581E-02 5.70946E-03-2.77103E-14
 -1      1099 2.69159E-03 1.76424E-04-8.84841E-16
 -1      1100 2.32452E-03 7.90831E-05-7.81859E-16
 -1      1101 3.04417E-03 1.23101E-04-1.30674E-15
 -1      1102 8.46587E-03 1.82058E-03-8.63861E-15
 -1      1103 2.36870E-03-1.22183E-05-9.65906E-16
 -1      1104 9.88321E-03 2.86906E-03-1.22571E-14
 -1      1105 8.94094E-03 2.18319E-03-1.01269E-14
 -1      1106 2.56812E-03 8.87506E-05-9.50947E-16
 -1      1107 8.67917E-03 1.98768E-03-9.39169E-15
 -1      1108 2.79033E-03 8.63468E-05-1.14314E-15
 -1      1109 0.00000E+00 0.00000E+00 0.00000E+00
 -1      1110 0.00000E+00 0.00000E+00 0.00000E+00
 -1      1111 0.00000E+00 0.00000E+00 0.00000E+00
 -1      1112 0.00000E+00 0.00000E+00 0.00000E+00
 -1      1113 0.00000E+00 0.00000E+00 0.00000E+00
 -1      1114 0.00000E+00 0.00000E+00 0.00000E+00
 -1      1115 0.00000E+00 0.00000E+00 0.00000E+00
 -1      1116 0.00000E+00 0.00000E+00 0.00000E+00
 -1      1117 0.00000E+00 0.00000E+00 0.00000E+00
 -1      1118 0.00000E+00 0.00000E+00 0.00000E+00
 -1      1119 0.00000E+00 0.00000E+00 0.00000E+00
 -1      1120 0.00000E+00 0.00000E+00 0.00000E+00
 -1      1121 0.00000E+00 0.00000E+00 0.00000E+00
 -1      1122 0.00000E+00 0.00000E+00 0.00000E+00
 -1      1123 0.00000E+00 0.00000E+00 0.00000E+00
 -1      1124 0.00000E+00 0.00000E+00 0.00000E+00
 -1      1125 0.00000E+00 0.00000E+00 0.00000E+00
 -1      1126 2.11906E-04-1.48407E-04-2.08302E-17
 -1      1127 5.52374E-04-3.37756E-04-1.02877E-16
 -1      1128 8.34699E-04-4.59633E-04-2.37576E-16
 -1      1129 1.10475E-03-5.42038E-04-4.30266E-16
 -1      1130 1.37051E-03-6.00489E-04-6.72856E-16
 -1      1131 1.63532E-03-6.43040E-04-9.59248E-16
 -1      1132 1.90070E-03-6.74496E-04-1.28634E-15
 -1      1133 2.16695E-03-6.98091E-04-1.65262E-15
 -1      1134 2.43358E-03-7.16095E-04-2.05687E-15
 -1      1135 2.69951E-03-7.29960E-04-2.50161E-15
 -1      1136 2.96316E-03-7.40279E-04-2.98427E-15
 -1      1137 3.22261E-03-7.46655E-04-3.49795E-15
 -1      1138 3.47582E-03-7.47546E-04-4.04344E-15
 -1      1139 3.72088E-03-7.40163E-04-4.62290E-15
 -1      1140 3.95648E-03-7.20543E-04-5.23543E-15
 -1      1141 4.18229E-03-6.83881E-04-5.88336E-15
 -1      1142 4.39932E-03-6.25182E-04-6.56772E-15
 -1      1143 4.61003E-03-5.40140E-04-7.29139E-15
 -1      1144 4.81803E-03-4.26032E-04-8.05345E-15
 -1      1145 5.02754E-03-2.82354E-04-8.85528E-15
 -1      1146 5.24257E-03-1.10950E-04-9.69576E-15
 -1      1147 5.46624E-03 8.43893E-05-1.05801E-14
 -1      1148 5.70036E-03 2.98721E-04-1.15033E-14
 -1      1149 5.94538E-03 5.26842E-04-1.24744E-14
 -1      1150 6.20061E-03 7.64025E-04-1.34897E-14
 -1      1151 6.46462E-03 1.00647E-03-1.45432E-14
 -1      1152 6.73566E-03 1.25142E-03-1.56398E-14
 -1      1153 7.01200E-03 1.49711E-03-1.67831E-14
 -1      1154 7.29209E-03 1.74253E-03-1.79710E-14
 -1      1155 7.57469E-03 1.98722E-03-1.91991E-14
 -1      1156 7.85889E-03 2.23105E-03-2.04600E-14
 -1      1157 8.14404E-03 2.47406E-03-2.17485E-14
 -1      1158 8.42970E-03 2.71640E-03-2.30635E-14
 -1      1159 8.71561E-03 2.95822E-03-2.43960E-14
 -1      1160 9.00161E-03 3.19966E-03-2.57464E-14
 -1      1161 9.28760E-03 3.44085E-03-2.71235E-14
 -1      1162 9.57356E-03 3.68186E-03-2.85152E-14
 -1      1163 9.85948E-03 3.92276E-03-2.99133E-14
 -1      1164 1.01453E-02 4.16360E-03-3.13128E-14
 -1      1165 1.04312E-02 4.40441E-03-3.27234E-14
 -1      1166 1.07169E-02 4.64521E-03-3.41501E-14
 -1      1167 1.10027E-02 4.88600E-03-3.55893E-14
 -1      1168 1.12884E-02 5.12679E-03-3.70265E-14
 -1      1169 1.15742E-02 5.36759E-03-3.84680E-14
 -1      1170 1.18599E-02 5.60839E-03-3.99239E-14
 -1      1171 1.21456E-02 5.84920E-03-4.13687E-14
 -1      1172 1.24313E-02 6.09001E-03-4.28102E-14
 -1      1173 1.27170E-02 6.33083E-03-4.42374E-14
 -1      1174 1.30028E-02 6.57165E-03-4.56455E-14
 -1      1175 1.32813E-02 6.80645E-03-4.70248E-14
 -1      1176 2.02949E-04 1.42937E-04 2.94632E-17
 -1      1177 5.37078E-04 3.29551E-04 9.98008E-17
 -1      1178 8.20227E-04 4.52332E-04 1.78365E-16
 -1      1179 1.09089E-03 5.34193E-04 2.61266E-16
 -1      1180 1.35770E-03 5.90656E-04 3.40860E-16
 -1      1181 1.62474E-03 6.29587E-04 4.12146E-16
 -1      1182 1.89469E-03 6.55427E-04 4.70164E-16
 -1      1183 2.16975E-03 6.71022E-04 5.14671E-16
 -1      1184 2.45253E-03 6.78430E-04 5.45205E-16
 -1      1185 2.74698E-03 6.79500E-04 5.57849E-16
 -1      1186 3.05956E-03 6.76800E-04 5.52103E-16
 -1      1187 3.39187E-03 6.75632E-04 5.27071E-16
 -1      1188 3.76695E-03 6.87514E-04 4.86292E-16
 -1      1189 4.21905E-03 7.42549E-04 4.29236E-16
 -1      1190 4.76582E-03 9.04582E-04 3.55998E-16
 -1      1191 5.39422E-03 1.26763E-03 2.77122E-16
 -1      1192 5.98200E-03 1.84079E-03 2.06107E-16
 -1      1193 6.43583E-03 2.52976E-03 1.32002E-16
 -1      1194 6.69915E-03 3.05584E-03 4.54010E-17
 -1      1195 6.84734E-03 3.11099E-03-5.97531E-17
 -1      1196 7.06609E-03 2.81797E-03-2.01607E-16
 -1      1197 7.45169E-03 2.37802E-03-4.10208E-16
 -1      1198 7.96855E-03 2.00763E-03-6.86923E-16
 -1      1199 8.53943E-03 1.82012E-03-1.03365E-15
 -1      1200 9.10183E-03 1.83008E-03-1.45852E-15
 -1      1201 9.59478E-03 1.98310E-03-1.94278E-15
 -1      1202 1.00091E-02 2.20114E-03-2.46980E-15
 -1      1203 1.03716E-02 2.44309E-03-3.03300E-15
 -1      1204 1.07021E-02 2.69194E-03-3.63753E-15
 -1      1205 1.10058E-02 2.93515E-03-4.26728E-15
 -1      1206 1.12988E-02 3.17703E-03-4.92933E-15
 -1      1207 1.15928E-02 3.42344E-03-5.65178E-15
 -1      1208 1.18831E-02 3.66829E-03-6.43176E-15
 -1      1209 1.21713E-02 3.91195E-03-7.26623E-15
 -1      1210 1.24583E-02 4.15472E-03-8.14165E-15
 -1      1211 1.27447E-02 4.39687E-03-9.02621E-15
 -1      1212 1.30308E-02 4.63859E-03-9.90706E-15
 -1      1213 1.33167E-02 4.88003E-03-1.07912E-14
 -1      1214 1.36024E-02 5.12127E-03-1.16812E-14
 -1      1215 1.38882E-02 5.36238E-03-1.25916E-14
 -1      1216 1.41668E-02 5.59739E-03-1.34904E-14
 -1      1217 1.44453E-02 5.83233E-03-1.43877E-14
 -1      1218 1.47310E-02 6.07327E-03-1.53192E-14
 -1      1219 1.50167E-02 6.31418E-03-1.62574E-14
 -1      1220 1.53024E-02 6.55506E-03-1.71798E-14
 -1      1221 1.55881E-02 6.79594E-03-1.80926E-14
 -1      1222 1.58738E-02 7.03680E-03-1.90317E-14
 -1      1223 1.61595E-02 7.27766E-03-1.99849E-14
 -1      1224 1.64452E-02 7.51851E-03-2.09378E-14
 -1      1225 1.67310E-02 7.75936E-03-2.18810E-14
 -1      1226 1.70167E-02 8.00021E-03-2.28255E-14
 -1      1227 1.72952E-02 8.23504E-03-2.37363E-14
 -1      1228 1.73125E-02 8.30730E-03-2.48879E-14
 -1      1229 1.70757E-02 8.22301E-03-2.62870E-14
 -1      1230 1.68389E-02 8.13873E-03-2.77216E-14
 -1      1231 1.66020E-02 8.05444E-03-2.91699E-14
 -1      1232 1.63652E-02 7.97015E-03-3.06387E-14
 -1      1233 1.61304E-02 7.88657E-03-3.20793E-14
 -1      1234 1.58955E-02 7.80300E-03-3.34881E-14
 -1      1235 1.56587E-02 7.71871E-03-3.48853E-14
 -1      1236 1.54219E-02 7.63442E-03-3.62874E-14
 -1      1237 1.51851E-02 7.55013E-03-3.76394E-14
 -1      1238 1.49483E-02 7.46585E-03-3.90170E-14
 -1      1239 1.47135E-02 7.38227E-03-4.03960E-14
 -1      1240 1.44787E-02 7.29870E-03-4.17583E-14
 -1      1241 1.42418E-02 7.21441E-03-4.31115E-14
 -1      1242 1.40050E-02 7.13013E-03-4.44263E-14
 -1      1243 1.37682E-02 7.04584E-03-4.57602E-14
 -1      1244 1.35334E-02 6.96227E-03-4.70722E-14
 -1      1245 9.09088E-03 1.37505E-03-2.67387E-15
 -1      1246 9.09538E-03 1.55825E-03-2.33949E-15
 -1      1247 8.95565E-03 1.77652E-03-1.97971E-15
 -1      1248 8.68852E-03 2.03062E-03-1.65257E-15
 -1      1249 8.29870E-03 2.32985E-03-1.35451E-15
 -1      1250 7.79371E-03 2.64203E-03-1.09583E-15
 -1      1251 7.20705E-03 2.86997E-03-8.87474E-16
 -1      1252 6.55114E-03 2.91370E-03-7.33138E-16
 -1      1253 5.85564E-03 2.70997E-03-6.39327E-16
 -1      1254 5.20755E-03 2.33370E-03-6.11192E-16
 -1      1255 4.66867E-03 1.92731E-03-6.37457E-16
 -1      1256 4.22609E-03 1.55509E-03-7.08391E-16
 -1      1257 3.88571E-03 1.24365E-03-8.26542E-16
 -1      1258 3.66775E-03 9.97637E-04-9.90920E-16
 -1      1259 3.57958E-03 8.05397E-04-1.18198E-15
 -1      1260 3.61153E-03 6.45568E-04-1.38569E-15
 -1      1261 3.75147E-03 5.04050E-04-1.60403E-15
 -1      1262 3.99035E-03 3.72446E-04-1.84371E-15
 -1      1263 4.31651E-03 2.52542E-04-2.10204E-15
 -1      1264 4.71563E-03 1.53111E-04-2.37673E-15
 -1      1265 5.16711E-03 8.83819E-05-2.65296E-15
 -1      1266 5.63715E-03 7.42768E-05-2.90078E-15
 -1      1267 6.12822E-03 1.17046E-04-3.11489E-15
 -1      1268 6.62027E-03 2.11052E-04-3.28196E-15
 -1      1269 7.10195E-03 3.47758E-04-3.39396E-15
 -1      1270 7.56735E-03 5.12134E-04-3.44188E-15
 -1      1271 8.00904E-03 6.92511E-04-3.41949E-15
 -1      1272 8.40534E-03 8.75041E-04-3.32544E-15
 -1      1273 8.72132E-03 1.04433E-03-3.17155E-15
 -1      1274 8.95734E-03 1.20880E-03-2.95303E-15
 -1      1275 1.66889E-04-1.10362E-04-2.59802E-17
 -1      1276 1.12613E-04-5.69356E-05-2.45843E-17
 -1      1277 1.17724E-04-6.75586E-05-2.45978E-17
 -1      1278 1.08452E-04-4.34325E-05-2.36898E-17
 -1      1279 1.10333E-04-4.95594E-05-2.44217E-17
 -1      1280 2.26455E-04-1.07574E-04-5.84927E-17
 -1      1281 1.06842E-04-3.35177E-05-2.14808E-17
 -1      1282 1.07702E-04-3.82613E-05-2.24159E-17
 -1      1283 2.19160E-04-8.23578E-05-5.49962E-17
 -1      1284 1.06042E-04-2.52176E-05-1.87703E-17
 -1      1285 1.06482E-04-2.92751E-05-1.96783E-17
 -1      1286 2.15868E-04-6.30965E-05-4.94261E-17
 -1      1287 1.05624E-04-1.79053E-05-1.61682E-17
 -1      1288 1.05864E-04-2.14998E-05-1.69949E-17
 -1      1289 2.14181E-04-4.69097E-05-4.32190E-17
 -1      1290 1.05379E-04-1.10176E-05-1.34577E-17
 -1      1291 1.05516E-04-1.44183E-05-1.42573E-17
 -1      1292 2.13227E-04-3.23686E-05-3.69577E-17
 -1      1293 1.05253E-04-4.47332E-06-1.08285E-17
 -1      1294 1.05321E-04-7.71890E-06-1.15468E-17
 -1      1295 2.12670E-04-1.87463E-05-3.05881E-17
 -1      1296 1.05220E-04 1.89356E-06-7.99599E-18
 -1      1297 1.05230E-04-1.28167E-06-8.76849E-18
 -1      1298 2.12387E-04-5.74908E-06-2.42997E-17
 -1      1299 1.05287E-04 8.24679E-06-5.32614E-18
 -1      1300 1.05232E-04 5.05552E-06-6.08508E-18
 -1      1301 2.12339E-04 6.96654E-06-1.78487E-17
 -1      1302 1.05485E-04 1.47756E-05-2.29038E-18
 -1      1303 1.05345E-04 1.14663E-05-3.19840E-18
 -1      1304 2.12554E-04 1.97489E-05-1.12215E-17
 -1      1305 1.05865E-04 2.15963E-05 1.05710E-18
 -1      1306 1.05604E-04 1.81025E-05-1.35525E-20
 -1      1307 2.13108E-04 3.28936E-05-4.06576E-18
 -1      1308 1.06558E-04 2.92673E-05 4.75694E-18
 -1      1309 1.06083E-04 2.52843E-05 3.53721E-18
 -1      1310 2.14154E-04 4.70303E-05 3.80826E-18
 -1      1311 1.07835E-04 3.81957E-05 9.09375E-18
 -1      1312 1.06946E-04 3.34785E-05 7.49455E-18
 -1      1313 2.16018E-04 6.30603E-05 1.26039E-17
 -1      1314 1.10497E-04 4.95272E-05 1.40946E-17
 -1      1315 1.08595E-04 4.33715E-05 1.20211E-17
 -1      1316 2.19431E-04 8.22219E-05 2.26192E-17
 -1      1317 1.17894E-04 6.76753E-05 1.98545E-17
 -1      1318 1.12764E-04 5.69808E-05 1.72659E-17
 -1      1319 2.26815E-04 1.07571E-04 3.38813E-17
 -1      1320 1.59233E-04 1.05468E-04 2.72406E-17
 -1      1321 4.22048E-04-2.61865E-04-8.60179E-17
 -1      1322 5.75349E-04-3.37051E-04-1.36054E-16
 -1      1323 7.22735E-04-3.97845E-04-2.02759E-16
 -1      1324 8.66089E-04-4.47407E-04-2.83478E-16
 -1      1325 6.12717E-04-3.31184E-04-1.70437E-16
 -1      1326 1.00628E-03-4.88847E-04-3.76598E-16
 -1      1327 1.14425E-03-5.23311E-04-4.82294E-16
 -1      1328 9.06220E-04-4.32432E-04-3.26318E-16
 -1      1329 1.28082E-03-5.52701E-04-5.99632E-16
 -1      1330 1.41646E-03-5.77502E-04-7.28381E-16
 -1      1331 1.18879E-03-5.02834E-04-5.30961E-16
 -1      1332 1.55159E-03-5.98819E-04-8.67673E-16
 -1      1333 1.68643E-03-6.16989E-04-1.01686E-15
 -1      1334 1.46559E-03-5.53190E-04-7.80327E-16
 -1      1335 1.82115E-03-6.32684E-04-1.17567E-15
 -1      1336 1.95582E-03-6.46188E-04-1.34434E-15
 -1      1337 1.73967E-03-5.89873E-04-1.06988E-15
 -1      1338 2.09048E-03-6.57948E-04-1.52256E-15
 -1      1339 2.22510E-03-6.68181E-04-1.71044E-15
 -1      1340 2.01253E-03-6.17047E-04-1.39775E-15
 -1      1341 2.35962E-03-6.77192E-04-1.90768E-15
 -1      1342 2.49395E-03-6.85117E-04-2.11407E-15
 -1      1343 2.28468E-03-6.37641E-04-1.76345E-15
 -1      1344 2.62795E-03-6.92145E-04-2.33030E-15
 -1      1345 2.76148E-03-6.98311E-04-2.55664E-15
 -1      1346 2.55591E-03-6.53671E-04-2.16567E-15
 -1      1347 2.89436E-03-7.03682E-04-2.79059E-15
 -1      1348 3.02641E-03-7.08174E-04-3.03344E-15
 -1      1349 2.82554E-03-6.66291E-04-2.60402E-15
 -1      1350 3.15742E-03-7.11711E-04-3.28424E-15
 -1      1351 3.28720E-03-7.14069E-04-3.54226E-15
 -1      1352 3.09254E-03-6.75709E-04-3.07657E-15
 -1      1353 3.41553E-03-7.15001E-04-3.80945E-15
 -1      1354 3.54224E-03-7.14140E-04-4.08460E-15
 -1      1355 3.35565E-03-6.81017E-04-3.58127E-15
 -1      1356 3.66716E-03-7.11053E-04-4.36809E-15
 -1      1357 3.79016E-03-7.05240E-04-4.66001E-15
 -1      1358 3.61363E-03-6.80032E-04-4.11960E-15
 -1      1359 3.91116E-03-6.96101E-04-4.96061E-15
 -1      1360 4.03014E-03-6.83043E-04-5.26912E-15
 -1      1361 3.86545E-03-6.69238E-04-4.69106E-15
 -1      1362 4.14715E-03-6.65368E-04-5.58626E-15
 -1      1363 4.26227E-03-6.42467E-04-5.91322E-15
 -1      1364 4.11060E-03-6.43968E-04-5.29607E-15
 -1      1365 4.37571E-03-6.13657E-04-6.24908E-15
 -1      1366 4.48772E-03-5.78419E-04-6.59448E-15
 -1      1367 4.34936E-03-5.98915E-04-5.93655E-15
 -1      1368 4.59861E-03-5.36223E-04-6.94978E-15
 -1      1369 4.70876E-03-4.86745E-04-7.31416E-15
 -1      1370 4.58296E-03-5.28971E-04-6.61419E-15
 -1      1371 4.81858E-03-4.29736E-04-7.68892E-15
 -1      1372 4.92850E-03-3.65140E-04-8.07286E-15
 -1      1373 4.81348E-03-4.30236E-04-7.33079E-15
 -1      1374 5.03895E-03-2.93051E-04-8.46597E-15
 -1      1375 5.15034E-03-2.13696E-04-8.86970E-15
 -1      1376 5.04364E-03-3.00904E-04-8.08425E-15
 -1      1377 5.26305E-03-1.27491E-04-9.28442E-15
 -1      1378 5.37740E-03-3.48986E-05-9.70944E-15
 -1      1379 5.27627E-03-1.41712E-04-8.87880E-15
 -1      1380 5.49365E-03 6.34441E-05-1.01439E-14
 -1      1381 5.61198E-03 1.66931E-04-1.05894E-14
 -1      1382 5.51385E-03 4.42256E-05-9.71513E-15
 -1      1383 5.73253E-03 2.74840E-04-1.10462E-14
 -1      1384 5.85534E-03 3.86527E-04-1.15126E-14
 -1      1385 5.75808E-03 2.52115E-04-1.05940E-14
 -1      1386 5.98041E-03 5.01312E-04-1.19914E-14
 -1      1387 6.10767E-03 6.18598E-04-1.24820E-14
 -1      1388 6.00978E-03 4.76455E-04-1.15164E-14
 -1      1389 6.23701E-03 7.37833E-04-1.29816E-14
 -1      1390 6.36830E-03 8.58520E-04-1.34917E-14
 -1      1391 6.26887E-03 7.11948E-04-1.24820E-14
 -1      1392 6.50137E-03 9.80270E-04-1.40133E-14
 -1      1393 6.63604E-03 1.10271E-03-1.45431E-14
 -1      1394 6.53469E-03 9.54136E-04-1.34887E-14
 -1      1395 6.77214E-03 1.22559E-03-1.50855E-14
 -1      1396 6.90948E-03 1.34866E-03-1.56387E-14
 -1      1397 6.80618E-03 1.19968E-03-1.45379E-14
 -1      1398 7.04789E-03 1.47180E-03-1.62020E-14
 -1      1399 7.18722E-03 1.59484E-03-1.67779E-14
 -1      1400 7.08216E-03 1.44634E-03-1.56300E-14
 -1      1401 7.32732E-03 1.71776E-03-1.73641E-14
 -1      1402 7.46805E-03 1.84044E-03-1.79598E-14
 -1      1403 7.36153E-03 1.69282E-03-1.67651E-14
 -1      1404 7.60930E-03 1.96292E-03-1.85660E-14
 -1      1405 7.75097E-03 2.08514E-03-1.91799E-14
 -1      1406 7.64331E-03 1.93847E-03-1.79410E-14
 -1      1407 7.89297E-03 2.20713E-03-1.98034E-14
 -1      1408 8.03524E-03 2.32888E-03-2.04332E-14
 -1      1409 7.92674E-03 2.18309E-03-1.91537E-14
 -1      1410 8.17771E-03 2.45044E-03-2.10709E-14
 -1      1411 8.32033E-03 2.57179E-03-2.17139E-14
 -1      1412 8.21124E-03 2.42672E-03-2.04001E-14
 -1      1413 8.46307E-03 2.69298E-03-2.23633E-14
 -1      1414 8.60589E-03 2.81402E-03-2.30191E-14
 -1      1415 8.49640E-03 2.66950E-03-2.16728E-14
 -1      1416 8.74877E-03 2.93494E-03-2.36784E-14
 -1      1417 8.89168E-03 3.05575E-03-2.43443E-14
 -1      1418 8.78193E-03 2.91162E-03-2.29686E-14
 -1      1419 9.03462E-03 3.17648E-03-2.50156E-14
 -1      1420 9.17757E-03 3.29712E-03-2.56902E-14
 -1      1421 9.06767E-03 3.15326E-03-2.42878E-14
 -1      1422 9.32053E-03 3.41771E-03-2.63716E-14
 -1      1423 9.46349E-03 3.53825E-03-2.70582E-14
 -1      1424 9.35349E-03 3.39456E-03-2.56284E-14
 -1      1425 9.60644E-03 3.65876E-03-2.77471E-14
 -1      1426 9.74938E-03 3.77923E-03-2.84377E-14
 -1      1427 9.63935E-03 3.63565E-03-2.69851E-14
 -1      1428 9.89232E-03 3.89968E-03-2.91304E-14
 -1      1429 1.00352E-02 4.02011E-03-2.98267E-14
 -1      1430 9.92520E-03 3.87659E-03-2.83554E-14
 -1      1431 1.01782E-02 4.14053E-03-3.05217E-14
 -1      1432 1.03211E-02 4.26093E-03-3.12158E-14
 -1      1433 1.02110E-02 4.11745E-03-2.97318E-14
 -1      1434 1.04640E-02 4.38134E-03-3.19149E-14
 -1      1435 1.06069E-02 4.50173E-03-3.26195E-14
 -1      1436 1.04968E-02 4.35826E-03-3.11148E-14
 -1      1437 1.07498E-02 4.62213E-03-3.33252E-14
 -1      1438 1.08927E-02 4.74252E-03-3.40359E-14
 -1      1439 1.07826E-02 4.59905E-03-3.25069E-14
 -1      1440 1.10355E-02 4.86292E-03-3.47483E-14
 -1      1441 1.11784E-02 4.98331E-03-3.54585E-14
 -1      1442 1.10684E-02 4.83984E-03-3.39122E-14
 -1      1443 1.13213E-02 5.10371E-03-3.61718E-14
 -1      1444 1.14641E-02 5.22410E-03-3.68850E-14
 -1      1445 1.13541E-02 5.08063E-03-3.53245E-14
 -1      1446 1.16070E-02 5.34450E-03-3.76021E-14
 -1      1447 1.17499E-02 5.46490E-03-3.83196E-14
 -1      1448 1.16398E-02 5.32142E-03-3.67411E-14
 -1      1449 1.18927E-02 5.58530E-03-3.90375E-14
 -1      1450 1.20356E-02 5.70571E-03-3.97572E-14
 -1      1451 1.19256E-02 5.56222E-03-3.81617E-14
 -1      1452 1.21785E-02 5.82611E-03-4.04733E-14
 -1      1453 1.23213E-02 5.94652E-03-4.11863E-14
 -1      1454 1.22113E-02 5.80302E-03-3.95828E-14
 -1      1455 1.24642E-02 6.06692E-03-4.19012E-14
 -1      1456 1.26070E-02 6.18733E-03-4.26149E-14
 -1      1457 1.24970E-02 6.04384E-03-4.10028E-14
 -1      1458 1.27499E-02 6.30774E-03-4.33249E-14
 -1      1459 1.28927E-02 6.42815E-03-4.40290E-14
 -1      1460 1.27827E-02 6.28465E-03-4.24145E-14
 -1      1461 1.30356E-02 6.54856E-03-4.47320E-14
 -1      1462 1.31785E-02 6.66897E-03-4.54336E-14
 -1      1463 1.30684E-02 6.52547E-03-4.38199E-14
 -1      1464 1.33977E-02 6.84788E-03-4.63925E-14
 -1      1465 1.34306E-02 6.82479E-03-4.54696E-14
 -1      1466 5.60144E-04 3.29154E-04 1.06875E-16
 -1      1467 4.06289E-04 2.53041E-04 7.45660E-17
 -1      1468 8.51917E-04 4.40042E-04 1.78880E-16
 -1      1469 7.08057E-04 3.90398E-04 1.42274E-16
 -1      1470 5.98028E-04 3.23604E-04 1.11293E-16
 -1      1471 1.13119E-03 5.14978E-04 2.51305E-16
 -1      1472 9.92618E-04 4.81171E-04 2.15472E-16
 -1      1473 8.92546E-04 4.24848E-04 1.74773E-16
 -1      1474 1.40514E-03 5.66684E-04 3.19054E-16
 -1      1475 1.26850E-03 5.43320E-04 2.86067E-16
 -1      1476 1.17648E-03 4.93855E-04 2.36736E-16
 -1      1477 1.67830E-03 6.01850E-04 3.76123E-16
 -1      1478 1.54163E-03 5.86075E-04 3.48964E-16
 -1      1479 1.45544E-03 5.41166E-04 2.91650E-16
 -1      1480 1.95358E-03 6.24446E-04 4.20359E-16
 -1      1481 1.81553E-03 6.14527E-04 4.00084E-16
 -1      1482 1.73320E-03 5.72751E-04 3.35384E-16
 -1      1483 2.23339E-03 6.37067E-04 4.50716E-16
 -1      1484 2.09277E-03 6.31840E-04 4.37326E-16
 -1      1485 2.01245E-03 5.92236E-04 3.65417E-16
 -1      1486 2.52047E-03 6.41574E-04 4.64960E-16
 -1      1487 2.37581E-03 6.40167E-04 4.60135E-16
 -1      1488 2.29543E-03 6.01988E-04 3.80365E-16
 -1      1489 2.81870E-03 6.39684E-04 4.61965E-16
 -1      1490 2.66787E-03 6.41203E-04 4.65543E-16
 -1      1491 2.58455E-03 6.03701E-04 3.79295E-16
 -1      1492 3.13398E-03 6.34043E-04 4.39522E-16
 -1      1493 2.97371E-03 6.36948E-04 4.52980E-16
 -1      1494 2.88293E-03 5.99056E-04 3.59711E-16
 -1      1495 3.45731E-03 6.30538E-04 3.99515E-16
 -1      1496 3.29207E-03 6.31428E-04 4.21741E-16
 -1      1497 3.18680E-03 5.91247E-04 3.22198E-16
 -1      1498 3.83451E-03 6.43032E-04 3.43299E-16
 -1      1499 3.64022E-03 6.33179E-04 3.73223E-16
 -1      1500 3.50871E-03 5.86711E-04 2.66565E-16
 -1      1501 4.26462E-03 7.06450E-04 2.69329E-16
 -1      1502 4.04184E-03 6.64891E-04 3.08212E-16
 -1      1503 3.86455E-03 6.02767E-04 1.93029E-16
 -1      1504 4.76233E-03 8.95238E-04 1.83040E-16
 -1      1505 4.50435E-03 7.78103E-04 2.27493E-16
 -1      1506 4.25577E-03 6.80557E-04 1.03812E-16
 -1      1507 5.29919E-03 1.29999E-03 9.56266E-17
 -1      1508 5.02458E-03 1.06185E-03 1.40350E-16
 -1      1509 4.68531E-03 8.96072E-04 6.87113E-18
 -1      1510 5.77534E-03 1.87347E-03 1.56667E-17
 -1      1511 5.53772E-03 1.55788E-03 5.66496E-17
 -1      1512 5.12505E-03 1.30491E-03-8.66820E-17
 -1      1513 6.67849E-03 3.10223E-03-1.58212E-16
 -1      1514 6.51214E-03 2.94381E-03-9.95840E-17
 -1      1515 6.94627E-03 3.05251E-03-2.80049E-16
 -1      1516 6.80875E-03 3.12528E-03-2.16732E-16
 -1      1517 6.69144E-03 3.08372E-03-3.59765E-16
 -1      1518 7.28500E-03 2.67707E-03-4.52004E-16
 -1      1519 7.10602E-03 2.88750E-03-3.60470E-16
 -1      1520 7.08840E-03 2.94233E-03-5.09006E-16
 -1      1521 7.71704E-03 2.20681E-03-6.87737E-16
 -1      1522 7.49424E-03 2.43133E-03-5.62240E-16
 -1      1523 7.51951E-03 2.49813E-03-7.09610E-16
 -1      1524 8.20617E-03 1.87010E-03-9.88196E-16
 -1      1525 7.96267E-03 2.01150E-03-8.32044E-16
 -1      1526 7.97594E-03 2.03424E-03-9.73586E-16
 -1      1527 8.72510E-03 1.74244E-03-1.37105E-15
 -1      1528 8.47199E-03 1.77728E-03-1.17438E-15
 -1      1529 8.44494E-03 1.75024E-03-1.31348E-15
 -1      1530 9.23149E-03 1.81562E-03-1.83940E-15
 -1      1531 8.98772E-03 1.75854E-03-1.60066E-15
 -1      1532 8.91329E-03 1.69589E-03-1.73986E-15
 -1      1533 9.66697E-03 2.00283E-03-2.34890E-15
 -1      1534 9.45716E-03 1.90024E-03-2.08928E-15
 -1      1535 9.34780E-03 1.82075E-03-2.23023E-15
 -1      1536 1.00486E-02 2.23570E-03-2.89693E-15
 -1      1537 9.86345E-03 2.11599E-03-2.61713E-15
 -1      1538 9.73508E-03 2.03157E-03-2.76278E-15
 -1      1539 1.03933E-02 2.48376E-03-3.48177E-15
 -1      1540 1.02247E-02 2.35887E-03-3.18529E-15
 -1      1541 1.00876E-02 2.27441E-03-3.33185E-15
 -1      1542 1.07145E-02 2.73496E-03-4.11167E-15
 -1      1543 1.05562E-02 2.60938E-03-3.79053E-15
 -1      1544 1.04158E-02 2.52635E-03-3.94242E-15
 -1      1545 1.10060E-02 2.97267E-03-4.74399E-15
 -1      1546 1.08615E-02 2.85407E-03-4.42422E-15
 -1      1547 1.07202E-02 2.77256E-03-4.57502E-15
 -1      1548 1.13041E-02 3.22094E-03-5.44722E-15
 -1      1549 1.11559E-02 3.09710E-03-5.09013E-15
 -1      1550 1.10146E-02 3.01684E-03-5.24746E-15
 -1      1551 1.15969E-02 3.46724E-03-6.20093E-15
 -1      1552 1.14510E-02 3.34434E-03-5.81685E-15
 -1      1553 1.13100E-02 3.26501E-03-5.97713E-15
 -1      1554 1.18867E-02 3.71192E-03-7.00603E-15
 -1      1555 1.17421E-02 3.58977E-03-6.59680E-15
 -1      1556 1.16015E-02 3.51108E-03-6.75743E-15
 -1      1557 1.21746E-02 3.95541E-03-7.85969E-15
 -1      1558 1.20308E-02 3.83380E-03-7.42748E-15
 -1      1559 1.18905E-02 3.75555E-03-7.58612E-15
 -1      1560 1.24616E-02 4.19805E-03-8.74408E-15
 -1      1561 1.23182E-02 4.07682E-03-8.30079E-15
 -1      1562 1.21782E-02 3.99885E-03-8.45737E-15
 -1      1563 1.27480E-02 4.44009E-03-9.63688E-15
 -1      1564 1.26048E-02 4.31913E-03-9.18960E-15
 -1      1565 1.24650E-02 4.24135E-03-9.35072E-15
 -1      1566 1.30341E-02 4.68174E-03-1.05292E-14
 -1      1567 1.28911E-02 4.56096E-03-1.00852E-14
 -1      1568 1.27513E-02 4.48329E-03-1.02551E-14
 -1      1569 1.33200E-02 4.92312E-03-1.14256E-14
 -1      1570 1.31770E-02 4.80246E-03-1.09755E-14
 -1      1571 1.30374E-02 4.72486E-03-1.11588E-14
 -1      1572 1.36058E-02 5.16432E-03-1.23306E-14
 -1      1573 1.34629E-02 5.04374E-03-1.18774E-14
 -1      1574 1.33233E-02 4.96619E-03-1.20654E-14
 -1      1575 1.38915E-02 5.40541E-03-1.32529E-14
 -1      1576 1.37487E-02 5.28488E-03-1.27882E-14
 -1      1577 1.36091E-02 5.20736E-03-1.29850E-14
 -1      1578 1.41630E-02 5.63437E-03-1.41384E-14
 -1      1579 1.40273E-02 5.51990E-03-1.36960E-14
 -1      1580 1.38878E-02 5.44240E-03-1.38933E-14
 -1      1581 1.44487E-02 5.87533E-03-1.50710E-14
 -1      1582 1.43058E-02 5.75485E-03-1.46052E-14
 -1      1583 1.41664E-02 5.67737E-03-1.48144E-14
 -1      1584 1.47344E-02 6.11625E-03-1.60154E-14
 -1      1585 1.45915E-02 5.99580E-03-1.55410E-14
 -1      1586 1.44521E-02 5.91832E-03-1.57628E-14
 -1      1587 1.50201E-02 6.35716E-03-1.69606E-14
 -1      1588 1.48773E-02 6.23671E-03-1.64888E-14
 -1      1589 1.47378E-02 6.15924E-03-1.67158E-14
 -1      1590 1.53058E-02 6.59804E-03-1.78888E-14
 -1      1591 1.51630E-02 6.47760E-03-1.74268E-14
 -1      1592 1.50235E-02 6.40013E-03-1.76664E-14
 -1      1593 1.55915E-02 6.83891E-03-1.88271E-14
 -1      1594 1.54487E-02 6.71847E-03-1.83554E-14
 -1      1595 1.53092E-02 6.64101E-03-1.86126E-14
 -1      1596 1.58772E-02 7.07977E-03-1.97821E-14
 -1      1597 1.57344E-02 6.95934E-03-1.93026E-14
 -1      1598 1.55949E-02 6.88188E-03-1.95661E-14
 -1      1599 1.61629E-02 7.32063E-03-2.07403E-14
 -1      1600 1.60201E-02 7.20020E-03-2.02610E-14
 -1      1601 1.58806E-02 7.12274E-03-2.05361E-14
 -1      1602 1.64487E-02 7.56148E-03-2.16979E-14
 -1      1603 1.63058E-02 7.44105E-03-2.12210E-14
 -1      1604 1.61664E-02 7.36359E-03-2.15034E-14
 -1      1605 1.67344E-02 7.80233E-03-2.26464E-14
 -1      1606 1.65915E-02 7.68190E-03-2.21722E-14
 -1      1607 1.64521E-02 7.60444E-03-2.24616E-14
 -1      1608 1.70201E-02 8.04318E-03-2.35927E-14
 -1      1609 1.68772E-02 7.92275E-03-2.31199E-14
 -1      1610 1.67378E-02 7.84529E-03-2.34151E-14
 -1      1611 1.72342E-02 8.23244E-03-2.44613E-14
 -1      1612 1.70984E-02 8.11804E-03-2.40144E-14
 -1      1613 1.69590E-02 8.04058E-03-2.43144E-14
 -1      1614 1.71157E-02 8.19030E-03-2.51598E-14
 -1      1615 1.68789E-02 8.10601E-03-2.65794E-14
 -1      1616 1.69973E-02 8.14815E-03-2.58665E-14
 -1      1617 1.69190E-02 8.07329E-03-2.54440E-14
 -1      1618 1.66421E-02 8.02172E-03-2.80091E-14
 -1      1619 1.67605E-02 8.06387E-03-2.72970E-14
 -1      1620 1.66821E-02 7.98901E-03-2.68646E-14
 -1      1621 1.64052E-02 7.93743E-03-2.94515E-14
 -1      1622 1.65237E-02 7.97958E-03-2.87263E-14
 -1      1623 1.64453E-02 7.90472E-03-2.82872E-14
 -1      1624 1.61684E-02 7.85315E-03-3.08964E-14
 -1      1625 1.62868E-02 7.89529E-03-3.01746E-14
 -1      1626 1.62084E-02 7.82043E-03-2.97132E-14
 -1      1627 1.59356E-02 7.77029E-03-3.22917E-14
 -1      1628 1.60520E-02 7.81171E-03-3.15962E-14
 -1      1629 1.59736E-02 7.73686E-03-3.11185E-14
 -1      1630 1.56988E-02 7.68600E-03-3.36922E-14
 -1      1631 1.58172E-02 7.72814E-03-3.29956E-14
 -1      1632 1.57388E-02 7.65328E-03-3.25057E-14
 -1      1633 1.54619E-02 7.60171E-03-3.50816E-14
 -1      1634 1.55804E-02 7.64385E-03-3.43883E-14
 -1      1635 1.55020E-02 7.56900E-03-3.38906E-14
 -1      1636 1.52251E-02 7.51742E-03-3.64607E-14
 -1      1637 1.53435E-02 7.55956E-03-3.57743E-14
 -1      1638 1.52652E-02 7.48471E-03-3.52661E-14
 -1      1639 1.49883E-02 7.43314E-03-3.78065E-14
 -1      1640 1.51067E-02 7.47528E-03-3.71343E-14
 -1      1641 1.50283E-02 7.40042E-03-3.66240E-14
 -1      1642 1.47515E-02 7.34885E-03-3.91907E-14
 -1      1643 1.48699E-02 7.39099E-03-3.84972E-14
 -1      1644 1.47915E-02 7.31614E-03-3.79798E-14
 -1      1645 1.45187E-02 7.26599E-03-4.05252E-14
 -1      1646 1.46351E-02 7.30742E-03-3.98605E-14
 -1      1647 1.45567E-02 7.23257E-03-3.93254E-14
 -1      1648 1.42819E-02 7.18171E-03-4.18911E-14
 -1      1649 1.44003E-02 7.22385E-03-4.12097E-14
 -1      1650 1.43219E-02 7.14900E-03-4.06649E-14
 -1      1651 1.40451E-02 7.09742E-03-4.32093E-14
 -1      1652 1.41635E-02 7.13956E-03-4.25522E-14
 -1      1653 1.40851E-02 7.06471E-03-4.19962E-14
 -1      1654 1.38083E-02 7.01313E-03-4.45245E-14
 -1      1655 1.39267E-02 7.05528E-03-4.38661E-14
 -1      1656 1.38483E-02 6.98043E-03-4.33057E-14
 -1      1657 9.12458E-03 1.41748E-03-2.69060E-15
 -1      1658 9.09169E-03 1.36721E-03-2.84410E-15
 -1      1659 9.07175E-03 1.54074E-03-2.32193E-15
 -1      1660 9.11986E-03 1.48021E-03-2.50801E-15
 -1      1661 8.84581E-03 1.73048E-03-1.91336E-15
 -1      1662 8.97013E-03 1.63723E-03-2.09371E-15
 -1      1663 8.50582E-03 1.99524E-03-1.55560E-15
 -1      1664 8.67691E-03 1.86907E-03-1.71128E-15
 -1      1665 8.02725E-03 2.33210E-03-1.22176E-15
 -1      1666 8.25577E-03 2.15930E-03-1.36828E-15
 -1      1667 7.52816E-03 2.70404E-03-9.59139E-16
 -1      1668 7.76569E-03 2.54168E-03-1.07556E-15
 -1      1669 6.99825E-03 2.96111E-03-7.50485E-16
 -1      1670 7.24509E-03 2.86500E-03-8.39796E-16
 -1      1671 6.45947E-03 2.96460E-03-5.98588E-16
 -1      1672 6.70917E-03 3.00395E-03-6.56783E-16
 -1      1673 5.88389E-03 2.64210E-03-5.11662E-16
 -1      1674 6.16054E-03 2.83042E-03-5.37385E-16
 -1      1675 5.26257E-03 2.16793E-03-5.27573E-16
 -1      1676 5.52792E-03 2.39013E-03-5.22423E-16
 -1      1677 4.72466E-03 1.70616E-03-5.68759E-16
 -1      1678 4.97138E-03 1.90956E-03-5.41803E-16
 -1      1679 4.24589E-03 1.32713E-03-6.56549E-16
 -1      1680 4.45889E-03 1.48566E-03-6.09064E-16
 -1      1681 3.86725E-03 1.05118E-03-7.93511E-16
 -1      1682 4.02700E-03 1.16121E-03-7.23007E-16
 -1      1683 3.63126E-03 8.83094E-04-9.81284E-16
 -1      1684 3.71760E-03 9.56478E-04-8.94358E-16
 -1      1685 3.55822E-03 7.59710E-04-1.18627E-15
 -1      1686 3.57292E-03 8.12877E-04-1.09116E-15
 -1      1687 3.62854E-03 6.55696E-04-1.40111E-15
 -1      1688 3.57849E-03 7.01972E-04-1.29849E-15
 -1      1689 3.82261E-03 5.49655E-04-1.63715E-15
 -1      1690 3.71931E-03 5.99331E-04-1.52691E-15
 -1      1691 4.12259E-03 4.24405E-04-1.89956E-15
 -1      1692 3.97183E-03 4.84690E-04-1.77486E-15
 -1      1693 4.49275E-03 2.85956E-04-2.17861E-15
 -1      1694 4.31615E-03 3.50609E-04-2.04838E-15
 -1      1695 4.91596E-03 1.51065E-04-2.48247E-15
 -1      1696 4.71894E-03 2.12949E-04-2.34180E-15
 -1      1697 5.33705E-03 5.46983E-05-2.76995E-15
 -1      1698 5.13955E-03 9.15055E-05-2.63789E-15
 -1      1699 5.75766E-03 2.96074E-05-3.03400E-15
 -1      1700 5.56494E-03 3.18138E-05-2.91734E-15
 -1      1701 6.18832E-03 8.47618E-05-3.28153E-15
 -1      1702 5.98775E-03 4.61156E-05-3.17812E-15
 -1      1703 6.62984E-03 2.22350E-04-3.44053E-15
 -1      1704 6.43157E-03 1.53080E-04-3.37011E-15
 -1      1705 7.07860E-03 4.16254E-04-3.56678E-15
 -1      1706 6.86514E-03 3.20179E-04-3.52035E-15
 -1      1707 7.54266E-03 6.27702E-04-3.60080E-15
 -1      1708 7.33409E-03 5.28649E-04-3.59099E-15
 -1      1709 8.00338E-03 8.52336E-04-3.57632E-15
 -1      1710 7.78637E-03 7.50972E-04-3.60272E-15
 -1      1711 8.42836E-03 1.03449E-03-3.45170E-15
 -1      1712 8.24416E-03 9.53026E-04-3.51299E-15
 -1      1713 8.76669E-03 1.18323E-03-3.27108E-15
 -1      1714 8.62124E-03 1.11935E-03-3.36234E-15
 -1      1715 9.01292E-03 1.31006E-03-3.01986E-15
 -1      1716 8.91218E-03 1.25714E-03-3.14907E-15
 -1      1717 2.78329E-04 1.72226E-04 5.22450E-17
 -1      1718 6.05184E-03 2.25192E-03-1.05981E-17
 -1      1719 5.62229E-03 1.94043E-03-1.64473E-16
 -1      1720 6.27755E-03 2.61544E-03-6.03359E-17
 -1      1721 9.01063E-03 1.54108E-03-2.25710E-15
 -1      1722 9.06208E-03 1.37525E-03-3.04353E-15
 -1      1723 9.13283E-03 1.44885E-03-2.67924E-15
 -1      1724 1.35853E-02 6.92049E-03-4.54846E-14
 -1      1725 1.37037E-02 6.96264E-03-4.48246E-14
 -1      1726 1.36253E-02 6.88779E-03-4.42556E-14
 -1      1727 8.71958E-03 1.72785E-03-1.81585E-15
 -1      1728 8.29719E-03 2.01433E-03-1.41866E-15
 -1      1729 7.80601E-03 2.39619E-03-1.07715E-15
 -1      1730 7.31244E-03 2.79562E-03-8.10577E-16
 -1      1731 6.83884E-03 3.02825E-03-6.01624E-16
 -1      1732 6.37304E-03 2.93330E-03-4.55799E-16
 -1      1733 5.84370E-03 2.50707E-03-4.18312E-16
 -1      1734 5.24989E-03 1.97051E-03-4.50486E-16
 -1      1735 4.69872E-03 1.48921E-03-5.10090E-16
 -1      1736 4.20251E-03 1.13108E-03-6.18839E-16
 -1      1737 3.81728E-03 9.20304E-04-7.82950E-16
 -1      1738 3.59931E-03 8.06042E-04-9.87430E-16
 -1      1739 3.55849E-03 7.26144E-04-1.20304E-15
 -1      1740 3.67366E-03 6.56004E-04-1.43462E-15
 -1      1741 3.91924E-03 5.63101E-04-1.69246E-15
 -1      1742 4.26166E-03 4.33746E-04-1.97460E-15
 -1      1743 4.66450E-03 2.77902E-04-2.28292E-15
 -1      1744 5.07468E-03 1.23956E-04-2.59918E-15
 -1      1745 5.47535E-03 2.34006E-05-2.90382E-15
 -1      1746 5.86508E-03 8.06148E-06-3.20024E-15
 -1      1747 6.25118E-03 9.66414E-05-3.44161E-15
 -1      1748 6.66910E-03 2.75788E-04-3.61782E-15
 -1      1749 7.10870E-03 5.07614E-04-3.72998E-15
 -1      1750 7.58142E-03 7.58328E-04-3.76291E-15
 -1      1751 8.05540E-03 9.87631E-04-3.70727E-15
 -1      1752 8.48964E-03 1.16286E-03-3.55757E-15
 -1      1753 8.83422E-03 1.29217E-03-3.34487E-15
 -1      1754 2.85555E-04-1.76263E-04-6.33852E-17
 -1      1755 6.21079E-03 2.71857E-03-2.46331E-16
 -1      1756 3.32265E-04-1.16648E-04-8.13016E-17
 -1      1757 3.36438E-04-1.32948E-04-8.51776E-17
 -1      1758 3.42371E-04-1.51978E-04-8.81321E-17
 -1      1759 3.51996E-04-1.74018E-04-8.99888E-17
 -1      1760 4.58524E-04-1.88097E-04-1.25252E-16
 -1      1761 3.24543E-04-6.49334E-05-6.30870E-17
 -1      1762 3.25707E-04-7.63212E-05-6.78711E-17
 -1      1763 3.22974E-04-4.32815E-05-5.34918E-17
 -1      1764 3.23671E-04-5.38454E-05-5.84520E-17
 -1      1765 4.36505E-04-7.86478E-05-8.84302E-17
 -1      1766 3.22076E-04-2.30912E-05-4.40457E-17
 -1      1767 3.22469E-04-3.30264E-05-4.88704E-17
 -1      1768 4.34377E-04-5.04583E-05-7.48506E-17
 -1      1769 3.21652E-04-3.73404E-06-3.46809E-17
 -1      1770 3.21815E-04-1.33265E-05-3.96411E-17
 -1      1771 4.33165E-04-2.39846E-05-6.16233E-17
 -1      1772 3.21668E-04 1.53228E-05-2.50044E-17
 -1      1773 3.21602E-04 5.81403E-06-3.00324E-17
 -1      1774 4.32655E-04 1.55969E-06-4.82199E-17
 -1      1775 3.22203E-04 3.46382E-05-1.47858E-17
 -1      1776 3.21856E-04 2.49280E-05-2.00306E-17
 -1      1777 4.32847E-04 2.68817E-05-3.40575E-17
 -1      1778 3.23405E-04 5.45356E-05-4.06576E-18
 -1      1779 3.22692E-04 4.44525E-05-9.83913E-18
 -1      1780 4.33883E-04 5.25321E-05-1.94885E-17
 -1      1781 3.25640E-04 7.66021E-05 8.17217E-18
 -1      1782 3.24344E-04 6.53130E-05 1.80249E-18
 -1      1783 4.36062E-04 7.96710E-05-3.76760E-18
 -1      1784 3.29576E-04 1.01879E-04 2.17247E-17
 -1      1785 3.27294E-04 8.88056E-05 1.45012E-17
 -1      1786 4.39983E-04 1.09869E-04 1.36881E-17
 -1      1787 3.36897E-04 1.32804E-04 3.71068E-17
 -1      1788 3.32618E-04 1.16548E-04 2.90295E-17
 -1      1789 4.46832E-04 1.44895E-04 3.32037E-17
 -1      1790 3.52782E-04 1.74234E-04 5.44405E-17
 -1      1791 3.43031E-04 1.51994E-04 4.53061E-17
 -1      1792 4.59438E-04 1.88069E-04 5.50504E-17
 -1      1793 8.93355E-03 1.54749E-03-2.16745E-15
 -1      1794 9.04934E-03 1.49757E-03-2.40435E-15
 -1      1795 3.40335E-04-1.90940E-04-8.25213E-17
 -1      1796 3.33301E-04 1.87073E-04 5.84385E-17
 -1      1797 8.07886E-04-3.74731E-04-2.79074E-16
 -1      1798 9.53231E-04-4.16280E-04-3.66853E-16
 -1      1799 1.09612E-03-4.51459E-04-4.65963E-16
 -1      1800 1.23779E-03-4.80978E-04-5.76403E-16
 -1      1801 1.00452E-03-3.99060E-04-4.05397E-16
 -1      1802 1.37813E-03-5.06260E-04-6.97006E-16
 -1      1803 1.51766E-03-5.27611E-04-8.28100E-16
 -1      1804 1.29024E-03-4.58271E-04-6.18714E-16
 -1      1805 1.65657E-03-5.45995E-04-9.68816E-16
 -1      1806 1.79500E-03-5.61655E-04-1.11861E-15
 -1      1807 1.57247E-03-5.01178E-04-8.72173E-16
 -1      1808 1.93314E-03-5.75246E-04-1.27781E-15
 -1      1809 2.07095E-03-5.86964E-04-1.44635E-15
 -1      1810 1.85256E-03-5.32607E-04-1.16343E-15
 -1      1811 2.20860E-03-5.97262E-04-1.62439E-15
 -1      1812 2.34594E-03-6.06285E-04-1.81117E-15
 -1      1813 2.13136E-03-5.56085E-04-1.49086E-15
 -1      1814 2.48310E-03-6.14334E-04-2.00671E-15
 -1      1815 2.61985E-03-6.21485E-04-2.21118E-15
 -1      1816 2.40922E-03-5.74162E-04-1.85363E-15
 -1      1817 2.75629E-03-6.27895E-04-2.42443E-15
 -1      1818 2.89214E-03-6.33552E-04-2.64590E-15
 -1      1819 2.68608E-03-5.88534E-04-2.25068E-15
 -1      1820 3.02748E-03-6.38454E-04-2.87594E-15
 -1      1821 3.16199E-03-6.42481E-04-3.11379E-15
 -1      1822 2.96153E-03-6.00012E-04-2.68175E-15
 -1      1823 3.29572E-03-6.45446E-04-3.35970E-15
 -1      1824 3.42836E-03-6.47097E-04-3.61427E-15
 -1      1825 3.23488E-03-6.08381E-04-3.14478E-15
 -1      1826 3.55995E-03-6.47041E-04-3.87705E-15
 -1      1827 3.69022E-03-6.44883E-04-4.14831E-15
 -1      1828 3.50524E-03-6.12193E-04-3.64081E-15
 -1      1829 3.81920E-03-6.40032E-04-4.42761E-15
 -1      1830 3.94673E-03-6.31962E-04-4.71567E-15
 -1      1831 3.77165E-03-6.08604E-04-4.17055E-15
 -1      1832 4.07282E-03-6.19929E-04-5.01190E-15
 -1      1833 4.19751E-03-6.03332E-04-5.31667E-15
 -1      1834 4.03332E-03-5.93369E-04-4.73344E-15
 -1      1835 4.32078E-03-5.81376E-04-5.63021E-15
 -1      1836 4.44290E-03-5.53476E-04-5.95316E-15
 -1      1837 4.28990E-03-5.61145E-04-5.33074E-15
 -1      1838 4.56386E-03-5.18933E-04-6.28616E-15
 -1      1839 4.68413E-03-4.77298E-04-6.62778E-15
 -1      1840 4.54174E-03-5.06203E-04-5.96353E-15
 -1      1841 4.80369E-03-4.28122E-04-6.97841E-15
 -1      1842 4.92318E-03-3.71197E-04-7.33902E-15
 -1      1843 4.79007E-03-4.23480E-04-6.63327E-15
 -1      1844 5.04257E-03-3.06436E-04-7.71105E-15
 -1      1845 5.16253E-03-2.33926E-04-8.09034E-15
 -1      1846 5.03688E-03-3.09722E-04-7.34207E-15
 -1      1847 5.28303E-03-1.53965E-04-8.48049E-15
 -1      1848 5.40465E-03-6.69161E-05-8.88271E-15
 -1      1849 5.28456E-03-1.64306E-04-8.09087E-15
 -1      1850 5.52737E-03 2.66097E-05-9.29404E-15
 -1      1851 5.65157E-03 1.26059E-04-9.71581E-15
 -1      1852 5.53535E-03 1.05775E-05-8.87918E-15
 -1      1853 5.77723E-03 2.30647E-04-1.01489E-14
 -1      1854 5.90452E-03 3.39745E-04-1.05934E-14
 -1      1855 5.79087E-03 2.10470E-04-9.71117E-15
 -1      1856 6.03341E-03 4.52545E-04-1.10475E-14
 -1      1857 6.16388E-03 5.68450E-04-1.15127E-14
 -1      1858 6.05193E-03 4.29675E-04-1.05856E-14
 -1      1859 6.29593E-03 6.86746E-04-1.19886E-14
 -1      1860 6.42937E-03 8.06935E-04-1.24742E-14
 -1      1861 6.31853E-03 6.62364E-04-1.15025E-14
 -1      1862 6.56423E-03 9.28467E-04-1.29713E-14
 -1      1863 6.70022E-03 1.05097E-03-1.34789E-14
 -1      1864 6.59009E-03 9.03427E-04-1.24613E-14
 -1      1865 6.83740E-03 1.17406E-03-1.39968E-14
 -1      1866 6.97546E-03 1.29750E-03-1.45249E-14
 -1      1867 6.86576E-03 1.14891E-03-1.34630E-14
 -1      1868 7.11444E-03 1.42106E-03-1.50657E-14
 -1      1869 7.25408E-03 1.54458E-03-1.56147E-14
 -1      1870 7.14462E-03 1.39609E-03-1.45069E-14
 -1      1871 7.39441E-03 1.66797E-03-1.61733E-14
 -1      1872 7.53521E-03 1.79113E-03-1.67442E-14
 -1      1873 7.42583E-03 1.64333E-03-1.55923E-14
 -1      1874 7.67649E-03 1.91405E-03-1.73252E-14
 -1      1875 7.81809E-03 2.03668E-03-1.79145E-14
 -1      1876 7.70869E-03 1.88976E-03-1.67170E-14
 -1      1877 7.96002E-03 2.15905E-03-1.85119E-14
 -1      1878 8.10216E-03 2.28113E-03-1.91198E-14
 -1      1879 7.99268E-03 2.13508E-03-1.78804E-14
 -1      1880 8.24451E-03 2.40297E-03-1.97363E-14
 -1      1881 8.38699E-03 2.52458E-03-2.03583E-14
 -1      1882 8.27741E-03 2.37927E-03-1.90805E-14
 -1      1883 8.52960E-03 2.64598E-03-2.09897E-14
 -1      1884 8.67229E-03 2.76720E-03-2.16251E-14
 -1      1885 8.56261E-03 2.62248E-03-2.03133E-14
 -1      1886 8.81506E-03 2.88827E-03-2.22656E-14
 -1      1887 8.95787E-03 3.00920E-03-2.29137E-14
 -1      1888 8.84810E-03 2.86492E-03-2.15712E-14
 -1      1889 9.10072E-03 3.13002E-03-2.35659E-14
 -1      1890 9.24359E-03 3.25074E-03-2.42256E-14
 -1      1891 9.13374E-03 3.10678E-03-2.28538E-14
 -1      1892 9.38648E-03 3.37140E-03-2.48907E-14
 -1      1893 9.52938E-03 3.49198E-03-2.55584E-14
 -1      1894 9.41947E-03 3.34822E-03-2.41578E-14
 -1      1895 9.67229E-03 3.61252E-03-2.62303E-14
 -1      1896 9.81519E-03 3.73302E-03-2.69064E-14
 -1      1897 9.70524E-03 3.58939E-03-2.54834E-14
 -1      1898 9.95810E-03 3.85349E-03-2.75860E-14
 -1      1899 1.01010E-02 3.97393E-03-2.82676E-14
 -1      1900 9.99102E-03 3.83039E-03-2.68237E-14
 -1      1901 1.02439E-02 4.09436E-03-2.89510E-14
 -1      1902 1.03868E-02 4.21478E-03-2.96342E-14
 -1      1903 1.02768E-02 4.07127E-03-2.81750E-14
 -1      1904 1.05297E-02 4.33518E-03-3.03198E-14
 -1      1905 1.06726E-02 4.45558E-03-3.10067E-14
 -1      1906 1.05626E-02 4.31210E-03-2.95315E-14
 -1      1907 1.08155E-02 4.57598E-03-3.16973E-14
 -1      1908 1.09583E-02 4.69637E-03-3.23912E-14
 -1      1909 1.08483E-02 4.55290E-03-3.08950E-14
 -1      1910 1.11012E-02 4.81676E-03-3.30856E-14
 -1      1911 1.12441E-02 4.93715E-03-3.37839E-14
 -1      1912 1.11341E-02 4.79368E-03-3.22668E-14
 -1      1913 1.13870E-02 5.05755E-03-3.44837E-14
 -1      1914 1.15298E-02 5.17794E-03-3.51840E-14
 -1      1915 1.14198E-02 5.03446E-03-3.36495E-14
 -1      1916 1.16727E-02 5.29834E-03-3.58864E-14
 -1      1917 1.18156E-02 5.41873E-03-3.65899E-14
 -1      1918 1.17055E-02 5.27525E-03-3.50402E-14
 -1      1919 1.19584E-02 5.53913E-03-3.72960E-14
 -1      1920 1.21013E-02 5.65953E-03-3.79993E-14
 -1      1921 1.19913E-02 5.51605E-03-3.64346E-14
 -1      1922 1.22441E-02 5.77994E-03-3.87017E-14
 -1      1923 1.23870E-02 5.90034E-03-3.94048E-14
 -1      1924 1.22770E-02 5.75685E-03-3.78303E-14
 -1      1925 1.25299E-02 6.02075E-03-4.01083E-14
 -1      1926 1.26727E-02 6.14115E-03-4.08109E-14
 -1      1927 1.25627E-02 5.99766E-03-3.92217E-14
 -1      1928 1.28156E-02 6.26156E-03-4.15106E-14
 -1      1929 1.29584E-02 6.38197E-03-4.22099E-14
 -1      1930 1.28484E-02 6.23847E-03-4.06123E-14
 -1      1931 1.31013E-02 6.50238E-03-4.29089E-14
 -1      1932 1.32441E-02 6.62279E-03-4.36052E-14
 -1      1933 1.31341E-02 6.47929E-03-4.19997E-14
 -1      1934 1.22597E-03 4.71330E-04 2.17233E-16
 -1      1935 1.08352E-03 4.42904E-04 1.92527E-16
 -1      1936 9.40038E-04 4.08451E-04 1.66154E-16
 -1      1937 7.94160E-04 3.67223E-04 1.38913E-16
 -1      1938 9.91593E-04 3.91014E-04 1.53415E-16
 -1      1939 1.50801E-03 5.14370E-04 2.59301E-16
 -1      1940 1.36724E-03 4.95042E-04 2.39636E-16
 -1      1941 1.27843E-03 4.47997E-04 1.92825E-16
 -1      1942 1.78887E-03 5.42610E-04 2.89062E-16
 -1      1943 1.64842E-03 5.30145E-04 2.75726E-16
 -1      1944 1.56238E-03 4.86854E-04 2.21936E-16
 -1      1945 2.07059E-03 5.59311E-04 3.04715E-16
 -1      1946 1.92948E-03 5.52260E-04 2.98725E-16
 -1      1947 1.84510E-03 5.11928E-04 2.37644E-16
 -1      1948 2.35487E-03 5.66663E-04 3.04715E-16
 -1      1949 2.21223E-03 5.64044E-04 3.06911E-16
 -1      1950 2.12786E-03 5.26170E-04 2.38701E-16
 -1      1951 2.64328E-03 5.66328E-04 2.87368E-16
 -1      1952 2.49828E-03 5.67354E-04 2.98169E-16
 -1      1953 2.41151E-03 5.31676E-04 2.23129E-16
 -1      1954 2.93749E-03 5.60193E-04 2.52253E-16
 -1      1955 2.78923E-03 5.63852E-04 2.72121E-16
 -1      1956 2.69643E-03 5.30226E-04 1.90169E-16
 -1      1957 3.22389E-03 5.52258E-04 1.99493E-16
 -1      1958 3.07926E-03 5.56279E-04 2.27655E-16
 -1      1959 2.97516E-03 5.24358E-04 1.39320E-16
 -1      1960 3.53414E-03 5.49901E-04 1.27529E-16
 -1      1961 3.37702E-03 5.49736E-04 1.65747E-16
 -1      1962 3.25347E-03 5.18271E-04 7.03647E-17
 -1      1963 3.85532E-03 5.73795E-04 3.68900E-17
 -1      1964 3.69220E-03 5.56980E-04 8.41883E-17
 -1      1965 3.53594E-03 5.21637E-04-1.86889E-17
 -1      1966 4.19378E-03 6.69122E-04-6.74509E-17
 -1      1967 4.02082E-03 6.08356E-04-1.34034E-17
 -1      1968 3.81331E-03 5.56554E-04-1.24981E-16
 -1      1969 4.55090E-03 9.06509E-04-1.75424E-16
 -1      1970 4.36618E-03 7.61148E-04-1.20482E-16
 -1      1971 4.08489E-03 6.64046E-04-2.41777E-16
 -1      1972 7.19515E-03 2.86212E-03-6.48082E-16
 -1      1973 6.95713E-03 3.01610E-03-5.61048E-16
 -1      1974 6.76732E-03 3.07204E-03-4.72306E-16
 -1      1975 6.54539E-03 3.03127E-03-4.04678E-16
 -1      1976 8.22484E-03 1.86483E-03-1.26043E-15
 -1      1977 8.00841E-03 2.05500E-03-1.10713E-15
 -1      1978 8.66212E-03 1.65575E-03-1.64429E-15
 -1      1979 8.45506E-03 1.72951E-03-1.44779E-15
 -1      1980 8.49086E-03 1.71365E-03-1.57590E-15
 -1      1981 9.07887E-03 1.67783E-03-2.11598E-15
 -1      1982 8.87814E-03 1.64230E-03-1.87464E-15
 -1      1983 8.87116E-03 1.59602E-03-2.00760E-15
 -1      1984 9.45191E-03 1.84340E-03-2.63197E-15
 -1      1985 9.26897E-03 1.74886E-03-2.36952E-15
 -1      1986 9.21598E-03 1.68425E-03-2.50395E-15
 -1      1987 9.79809E-03 2.06997E-03-3.18461E-15
 -1      1988 9.62713E-03 1.95195E-03-2.90294E-15
 -1      1989 9.53812E-03 1.87749E-03-3.03936E-15
 -1      1990 1.01251E-02 2.31815E-03-3.77773E-15
 -1      1991 9.96311E-03 2.19259E-03-3.47630E-15
 -1      1992 9.85093E-03 2.11375E-03-3.61607E-15
 -1      1993 1.04382E-02 2.57146E-03-4.40841E-15
 -1      1994 1.02828E-02 2.44464E-03-4.08716E-15
 -1      1995 1.01572E-02 2.36450E-03-4.22983E-15
 -1      1996 1.07266E-02 2.81138E-03-5.04780E-15
 -1      1997 1.05831E-02 2.69167E-03-4.72403E-15
 -1      1998 1.04505E-02 2.61156E-03-4.86777E-15
 -1      1999 1.10236E-02 3.06159E-03-5.75986E-15
 -1      2000 1.08756E-02 2.93684E-03-5.39912E-15
 -1      2001 1.07393E-02 2.85720E-03-5.54506E-15
 -1      2002 1.13163E-02 3.30933E-03-6.51723E-15
 -1      2003 1.11703E-02 3.18577E-03-6.13283E-15
 -1      2004 1.10321E-02 3.10668E-03-6.28226E-15
 -1      2005 1.16063E-02 3.55502E-03-7.32145E-15
 -1      2006 1.14616E-02 3.43241E-03-6.91255E-15
 -1      2007 1.13225E-02 3.35380E-03-7.06388E-15
 -1      2008 1.18946E-02 3.79920E-03-8.17292E-15
 -1      2009 1.17506E-02 3.67728E-03-7.74311E-15
 -1      2010 1.16112E-02 3.59903E-03-7.89314E-15
 -1      2011 1.21819E-02 4.04229E-03-9.05803E-15
 -1      2012 1.20383E-02 3.92086E-03-8.61153E-15
 -1      2013 1.18987E-02 3.84287E-03-8.76439E-15
 -1      2014 1.24685E-02 4.28463E-03-9.96257E-15
 -1      2015 1.23252E-02 4.16354E-03-9.50826E-15
 -1      2016 1.21856E-02 4.08573E-03-9.66225E-15
 -1      2017 1.27547E-02 4.52647E-03-1.08784E-14
 -1      2018 1.26117E-02 4.40560E-03-1.04200E-14
 -1      2019 1.24720E-02 4.32791E-03-1.05813E-14
 -1      2020 1.30408E-02 4.76797E-03-1.17905E-14
 -1      2021 1.28978E-02 4.64726E-03-1.13350E-14
 -1      2022 1.27582E-02 4.56964E-03-1.15056E-14
 -1      2023 1.33267E-02 5.00926E-03-1.27109E-14
 -1      2024 1.31837E-02 4.88864E-03-1.22485E-14
 -1      2025 1.30442E-02 4.81108E-03-1.24290E-14
 -1      2026 1.36125E-02 5.25039E-03-1.36420E-14
 -1      2027 1.34696E-02 5.12984E-03-1.31755E-14
 -1      2028 1.33301E-02 5.05231E-03-1.33596E-14
 -1      2029 1.38840E-02 5.47939E-03-1.45423E-14
 -1      2030 1.37482E-02 5.36490E-03-1.40904E-14
 -1      2031 1.36087E-02 5.28739E-03-1.42831E-14
 -1      2032 1.41697E-02 5.72037E-03-1.54964E-14
 -1      2033 1.40269E-02 5.59988E-03-1.50196E-14
 -1      2034 1.38874E-02 5.52239E-03-1.52171E-14
 -1      2035 1.44555E-02 5.96131E-03-1.64560E-14
 -1      2036 1.43126E-02 5.84084E-03-1.59758E-14
 -1      2037 1.41731E-02 5.76336E-03-1.61842E-14
 -1      2038 1.47412E-02 6.20222E-03-1.74223E-14
 -1      2039 1.45983E-02 6.08177E-03-1.69387E-14
 -1      2040 1.44589E-02 6.00429E-03-1.71587E-14
 -1      2041 1.50269E-02 6.44311E-03-1.83810E-14
 -1      2042 1.48841E-02 6.32267E-03-1.79035E-14
 -1      2043 1.47446E-02 6.24520E-03-1.81336E-14
 -1      2044 1.53126E-02 6.68398E-03-1.93441E-14
 -1      2045 1.51698E-02 6.56355E-03-1.88605E-14
 -1      2046 1.50303E-02 6.48608E-03-1.91054E-14
 -1      2047 1.55983E-02 6.92485E-03-2.03156E-14
 -1      2048 1.54555E-02 6.80442E-03-1.98279E-14
 -1      2049 1.53160E-02 6.72696E-03-2.00825E-14
 -1      2050 1.58841E-02 7.16571E-03-2.12918E-14
 -1      2051 1.57412E-02 7.04528E-03-2.08042E-14
 -1      2052 1.56017E-02 6.96782E-03-2.10676E-14
 -1      2053 1.61698E-02 7.40656E-03-2.22623E-14
 -1      2054 1.60269E-02 7.28613E-03-2.17769E-14
 -1      2055 1.58875E-02 7.20867E-03-2.20510E-14
 -1      2056 1.64555E-02 7.64741E-03-2.32311E-14
 -1      2057 1.63126E-02 7.52699E-03-2.27497E-14
 -1      2058 1.61732E-02 7.44953E-03-2.30287E-14
 -1      2059 1.67412E-02 7.88826E-03-2.41892E-14
 -1      2060 1.65983E-02 7.76783E-03-2.37103E-14
 -1      2061 1.64589E-02 7.69038E-03-2.40018E-14
 -1      2062 1.68693E-02 8.01821E-03-2.50305E-14
 -1      2063 1.67909E-02 7.94335E-03-2.46048E-14
 -1      2064 1.66514E-02 7.86589E-03-2.49014E-14
 -1      2065 1.67508E-02 7.97606E-03-2.57348E-14
 -1      2066 1.62624E-02 7.77936E-03-2.82089E-14
 -1      2067 1.63808E-02 7.82150E-03-2.75055E-14
 -1      2068 1.65066E-02 7.87771E-03-2.69745E-14
 -1      2069 1.66250E-02 7.91986E-03-2.62641E-14
 -1      2070 1.65753E-02 7.86477E-03-2.58461E-14
 -1      2071 1.63237E-02 7.75235E-03-2.68985E-14
 -1      2072 1.60255E-02 7.69507E-03-2.96164E-14
 -1      2073 1.61439E-02 7.73722E-03-2.89120E-14
 -1      2074 1.60794E-02 7.65400E-03-2.81212E-14
 -1      2075 1.57927E-02 7.61222E-03-3.09846E-14
 -1      2076 1.59091E-02 7.65364E-03-3.03044E-14
 -1      2077 1.58446E-02 7.57043E-03-2.94959E-14
 -1      2078 1.55559E-02 7.52793E-03-3.23655E-14
 -1      2079 1.56743E-02 7.57007E-03-3.16779E-14
 -1      2080 1.56098E-02 7.48686E-03-3.08583E-14
 -1      2081 1.53191E-02 7.44364E-03-3.37326E-14
 -1      2082 1.54375E-02 7.48579E-03-3.30495E-14
 -1      2083 1.53730E-02 7.40257E-03-3.22188E-14
 -1      2084 1.50822E-02 7.35936E-03-3.50921E-14
 -1      2085 1.52007E-02 7.40150E-03-3.44127E-14
 -1      2086 1.51361E-02 7.31829E-03-3.35690E-14
 -1      2087 1.48454E-02 7.27507E-03-3.64378E-14
 -1      2088 1.49638E-02 7.31722E-03-3.57686E-14
 -1      2089 1.48993E-02 7.23401E-03-3.49119E-14
 -1      2090 1.46086E-02 7.19079E-03-3.77823E-14
 -1      2091 1.47270E-02 7.23293E-03-3.71078E-14
 -1      2092 1.46625E-02 7.14972E-03-3.62464E-14
 -1      2093 1.43758E-02 7.10793E-03-3.90984E-14
 -1      2094 1.44922E-02 7.14936E-03-3.84412E-14
 -1      2095 1.44277E-02 7.06615E-03-3.75622E-14
 -1      2096 1.41390E-02 7.02365E-03-4.04283E-14
 -1      2097 1.42574E-02 7.06579E-03-3.97620E-14
 -1      2098 1.41929E-02 6.98259E-03-3.88724E-14
 -1      2099 1.39022E-02 6.93937E-03-4.17416E-14
 -1      2100 1.40206E-02 6.98151E-03-4.10907E-14
 -1      2101 1.39561E-02 6.89830E-03-4.01824E-14
 -1      2102 1.36654E-02 6.85508E-03-4.30434E-14
 -1      2103 1.37838E-02 6.89722E-03-4.23943E-14
 -1      2104 1.37193E-02 6.81402E-03-4.14858E-14
 -1      2105 8.57516E-03 1.73801E-03-1.69190E-15
 -1      2106 8.75553E-03 1.63303E-03-1.90340E-15
 -1      2107 1.33661E-02 6.74159E-03-4.45366E-14
 -1      2108 9.10470E-03 1.42641E-03-3.10704E-15
 -1      2109 9.02993E-03 1.41528E-03-3.28852E-15
 -1      2110 3.27154E-04-8.87120E-05-7.23840E-17
 -1      2111 3.29289E-04-1.01935E-04-7.71545E-17
 -1      2112 4.46427E-04-1.44962E-04-1.14465E-16
 -1      2113 4.40055E-04-1.09571E-04-1.01779E-16
 -1      2114 8.16221E-03 2.01387E-03-1.30636E-15
 -1      2115 8.38833E-03 1.85753E-03-1.50203E-15
 -1      2116 7.39923E-03 2.67903E-03-7.68239E-16
 -1      2117 6.34082E-03 2.88992E-03-3.51688E-16
 -1      2118 4.67172E-03 1.30453E-03-4.37801E-16
 -1      2119 4.93349E-03 1.50866E-03-3.93972E-16
 -1      2120 4.16550E-03 9.72349E-04-5.59757E-16
 -1      2121 4.39309E-03 1.10128E-03-4.93712E-16
 -1      2122 3.75730E-03 8.20847E-04-7.75628E-16
 -1      2123 3.91408E-03 8.76132E-04-6.79612E-16
 -1      2124 3.57217E-03 7.46656E-04-9.87620E-16
 -1      2125 3.63696E-03 7.71196E-04-8.84567E-16
 -1      2126 3.56585E-03 7.05257E-04-1.21036E-15
 -1      2127 3.54750E-03 7.23099E-04-1.10388E-15
 -1      2128 3.72167E-03 6.53792E-04-1.46074E-15
 -1      2129 3.62997E-03 6.78189E-04-1.34042E-15
 -1      2130 4.00774E-03 5.64667E-04-1.74178E-15
 -1      2131 3.85987E-03 6.11464E-04-1.60897E-15
 -1      2132 4.37893E-03 4.22848E-04-2.04906E-15
 -1      2133 4.19610E-03 4.94437E-04-1.90317E-15
 -1      2134 4.78720E-03 2.54442E-04-2.38266E-15
 -1      2135 4.59397E-03 3.38712E-04-2.22249E-15
 -1      2136 5.20983E-03 8.13530E-05-2.74422E-15
 -1      2137 5.02790E-03 1.54725E-04-2.58848E-15
 -1      2138 5.56944E-03-9.13856E-06-3.05477E-15
 -1      2139 5.40215E-03 2.57704E-05-2.90441E-15
 -1      2140 5.91304E-03-4.05296E-06-3.37057E-15
 -1      2141 5.75275E-03-1.96595E-05-3.21989E-15
 -1      2142 6.29780E-03 1.28313E-04-3.65978E-15
 -1      2143 6.12653E-03 5.48894E-05-3.56301E-15
 -1      2144 6.65968E-03 3.28596E-04-3.83271E-15
 -1      2145 6.47758E-03 2.17654E-04-3.74535E-15
 -1      2146 6.33349E-03 1.73765E-04-3.86876E-15
 -1      2147 7.14598E-03 6.10271E-04-3.92644E-15
 -1      2148 6.93148E-03 4.83220E-04-3.89494E-15
 -1      2149 7.61585E-03 8.73534E-04-3.94379E-15
 -1      2150 7.38982E-03 7.44784E-04-3.93532E-15
 -1      2151 8.11981E-03 1.11804E-03-3.87686E-15
 -1      2152 7.88997E-03 1.02004E-03-3.93572E-15
 -1      2153 8.55325E-03 1.26818E-03-3.68321E-15
 -1      2154 8.35991E-03 1.20197E-03-3.77213E-15
 -1      2155 8.88786E-03 1.37746E-03-3.46818E-15
 -1      2156 8.74073E-03 1.33974E-03-3.59310E-15
 -1      2157 4.52822E-04 2.33282E-04 7.46880E-17
 -1      2158 9.13089E-03 1.45895E-03-2.72169E-15
 -1      2159 9.14130E-03 1.44465E-03-2.91327E-15
 -1      2160 9.13352E-03 1.46332E-03-3.15351E-15
 -1      2161 4.59322E-04-2.36821E-04-1.22027E-16
 -1      2162 1.33989E-02 6.71849E-03-4.36200E-14
 -1      2163 7.63799E-03 2.42608E-03-8.81212E-16
 -1      2164 9.10277E-03 1.47496E-03-2.63151E-15
 -1      2165 8.83543E-03 1.57185E-03-2.04143E-15
 -1      2166 5.47541E-03 2.01807E-03-3.38542E-16
 -1      2167 5.19751E-03 1.63584E-03-2.98630E-16
 -1      2168 6.08359E-04-2.98394E-04-1.81143E-16
 -1      2169 6.64004E-04-2.92738E-04-2.11338E-16
 -1      2170 6.57999E-04 2.88944E-04 9.79577E-17
 -1      2171 6.02157E-04 2.94786E-04 1.00655E-16
 -1      2172 4.63746E-03 1.01850E-03-2.38646E-16
 -1      2173 4.27839E-03 8.49813E-04-3.68270E-16
 -1      2174 8.47067E-03 1.75425E-03-1.57960E-15
 -1      2175 5.11525E-03 1.45310E-03-2.28821E-16
 -1      2176 3.78517E-03 6.34139E-04-1.51040E-15
 -1      2177 4.91264E-03 1.19621E-03-1.79774E-16
 -1      2178 1.35034E-02 6.76899E-03-4.33283E-14
 -1      2179 8.96520E-03 1.44063E-03-3.53449E-15
 -1      2180 3.58852E-03 6.80941E-04-1.23917E-15
 -1      2181 8.63500E-03 1.35856E-03-3.80775E-15
 -1      2182 8.21318E-03 1.21563E-03-4.00186E-15
 -1      2183 7.71657E-03 9.93442E-04-4.11063E-15
 -1      2184 6.73584E-03 4.16475E-04-4.02518E-15
 -1      2185 5.99370E-03 1.54971E-05-3.58017E-15
 -1      2186 5.64454E-03-2.74824E-05-3.21751E-15
 -1      2187 5.30780E-03 4.27658E-05-2.88837E-15
 -1      2188 4.91414E-03 2.00279E-04-2.51956E-15
 -1      2189 4.49292E-03 3.87023E-04-2.14526E-15
 -1      2190 4.10320E-03 5.38061E-04-1.81401E-15
 -1      2191 3.55526E-03 7.06651E-04-9.98540E-16
 -1      2192 3.69914E-03 7.47429E-04-7.79970E-16
 -1      2193 7.85878E-03 2.21539E-03-1.03441E-15
 -1      2194 4.06118E-03 8.63286E-04-5.56064E-16
 -1      2195 4.58568E-03 1.12842E-03-3.81314E-16
 -1      2196 5.74304E-03 2.27934E-03-3.17265E-16
 -1      2197 6.01562E-03 2.55641E-03-2.97613E-16
 -1      2198 1.34389E-02 6.68579E-03-4.24150E-14
 -1      2199 7.21682E-03 7.12294E-04-4.10423E-15
 -1      2200 9.02482E-03 1.48992E-03-3.63598E-15
 -1      2201 8.88904E-03 1.47563E-03-3.82162E-15
 -1      2202 5.47602E-04-5.41453E-05-1.01292E-16
 -1      2203 5.48757E-04-7.09889E-05-1.10507E-16
 -1      2204 5.50268E-04-8.84732E-05-1.19466E-16
 -1      2205 5.52200E-04-1.06634E-04-1.28735E-16
 -1      2206 6.65359E-04-9.43274E-05-1.54512E-16
 -1      2207 5.45600E-04 9.88682E-06-6.42254E-17
 -1      2208 5.45736E-04-5.80518E-06-7.37529E-17
 -1      2209 5.46125E-04 4.13611E-05-4.45743E-17
 -1      2210 5.45722E-04 2.55941E-05-5.45354E-17
 -1      2211 6.60202E-04 2.12258E-05-8.16133E-17
 -1      2212 5.47915E-04 7.31875E-05-2.46927E-17
 -1      2213 5.46843E-04 5.71198E-05-3.48300E-17
 -1      2214 6.61231E-04 5.83673E-05-5.60261E-17
 -1      2215 5.51511E-04 1.07701E-04-2.69695E-18
 -1      2216 5.49456E-04 9.01161E-05-1.40811E-17
 -1      2217 6.64075E-04 9.68029E-05-2.94225E-17
 -1      2218 5.57796E-04 1.46082E-04 2.14808E-17
 -1      2219 5.54261E-04 1.26326E-04 9.09375E-18
 -1      2220 6.69482E-04 1.38379E-04-4.20128E-19
 -1      2221 5.68599E-04 1.90855E-04 4.80437E-17
 -1      2222 5.62515E-04 1.67552E-04 3.42743E-17
 -1      2223 6.78705E-04 1.84815E-04 3.12386E-17
 -1      2224 6.14973E-04 2.50815E-04 7.92281E-17
 -1      2225 6.03975E-04 2.21646E-04 6.31548E-17
 -1      2226 7.21206E-04 2.42176E-04 6.54858E-17
 -1      2227 8.01385E-04 3.13944E-04 1.06943E-16
 -1      2228 9.15893E-03 1.49444E-03-3.22099E-15
 -1      2229 9.12216E-03 1.50026E-03-3.42268E-15
 -1      2230 9.15654E-04-3.47208E-04-3.48639E-16
 -1      2231 1.05982E-03-3.80976E-04-4.41555E-16
 -1      2232 4.03485E-03 7.73624E-04-4.85004E-16
 -1      2233 1.20313E-03-4.09964E-04-5.45015E-16
 -1      2234 1.34598E-03-4.34590E-04-6.58328E-16
 -1      2235 1.11757E-03-3.61878E-04-4.75992E-16
 -1      2236 1.48817E-03-4.55751E-04-7.80964E-16
 -1      2237 1.62993E-03-4.73738E-04-9.13183E-16
 -1      2238 1.40416E-03-4.10057E-04-6.95028E-16
 -1      2239 1.77130E-03-4.89264E-04-1.05431E-15
 -1      2240 1.91236E-03-5.02558E-04-1.20416E-15
 -1      2241 1.68963E-03-4.45456E-04-9.50412E-16
 -1      2242 2.05321E-03-5.14148E-04-1.36296E-15
 -1      2243 2.19382E-03-5.24214E-04-1.53045E-15
 -1      2244 1.97424E-03-4.71634E-04-1.24091E-15
 -1      2245 2.33433E-03-5.33134E-04-1.70615E-15
 -1      2246 2.47461E-03-5.41033E-04-1.89070E-15
 -1      2247 2.25836E-03-4.91420E-04-1.56494E-15
 -1      2248 2.61479E-03-5.48149E-04-2.08358E-15
 -1      2249 2.75469E-03-5.54539E-04-2.28440E-15
 -1      2250 2.54221E-03-5.06919E-04-1.92255E-15
 -1      2251 2.89443E-03-5.60293E-04-2.49365E-15
 -1      2252 3.03375E-03-5.65375E-04-2.71106E-15
 -1      2253 2.82582E-03-5.19490E-04-2.31245E-15
 -1      2254 3.17277E-03-5.69709E-04-2.93625E-15
 -1      2255 3.31118E-03-5.73128E-04-3.16942E-15
 -1      2256 3.10893E-03-5.29624E-04-2.73433E-15
 -1      2257 3.44907E-03-5.75368E-04-3.41131E-15
 -1      2258 3.58613E-03-5.76099E-04-3.66145E-15
 -1      2259 3.39094E-03-5.36729E-04-3.18827E-15
 -1      2260 3.72239E-03-5.74851E-04-3.91951E-15
 -1      2261 3.85762E-03-5.71117E-04-4.18658E-15
 -1      2262 3.67096E-03-5.38865E-04-3.67535E-15
 -1      2263 3.99179E-03-5.64239E-04-4.46115E-15
 -1      2264 4.12480E-03-5.53552E-04-4.74439E-15
 -1      2265 3.94789E-03-5.32525E-04-4.19539E-15
 -1      2266 4.25658E-03-5.38277E-04-5.03737E-15
 -1      2267 4.38723E-03-5.17676E-04-5.33804E-15
 -1      2268 4.22070E-03-5.12644E-04-4.74935E-15
 -1      2269 4.51669E-03-4.90974E-04-5.64762E-15
 -1      2270 4.64527E-03-4.57499E-04-5.96731E-15
 -1      2271 4.48887E-03-4.73039E-04-5.33869E-15
 -1      2272 4.77294E-03-4.16642E-04-6.29577E-15
 -1      2273 4.90023E-03-3.67967E-04-6.63286E-15
 -1      2274 4.75277E-03-4.07395E-04-5.96307E-15
 -1      2275 5.02709E-03-3.11184E-04-6.98035E-15
 -1      2276 5.15419E-03-2.46211E-04-7.33876E-15
 -1      2277 5.01389E-03-3.10678E-04-6.62641E-15
 -1      2278 5.28147E-03-1.73159E-04-7.70650E-15
 -1      2279 5.40955E-03-9.23276E-05-8.08380E-15
 -1      2280 5.27453E-03-1.80489E-04-7.32834E-15
 -1      2281 5.53838E-03-4.20119E-06-8.47159E-15
 -1      2282 5.66840E-03 9.06226E-05-8.87052E-15
 -1      2283 5.53719E-03-1.77878E-05-8.07090E-15
 -1      2284 5.79954E-03 1.91413E-04-9.27978E-15
 -1      2285 5.93201E-03 2.97427E-04-9.69981E-15
 -1      2286 5.80380E-03 1.73374E-04-8.85551E-15
 -1      2287 6.06575E-03 4.07849E-04-1.01316E-14
 -1      2288 6.20074E-03 5.21946E-04-1.05726E-14
 -1      2289 6.07524E-03 3.86982E-04-9.68342E-15
 -1      2290 6.33694E-03 6.38958E-04-1.10252E-14
 -1      2291 6.47418E-03 7.58270E-04-1.14868E-14
 -1      2292 6.35137E-03 6.16495E-04-1.05544E-14
 -1      2293 6.61245E-03 8.79265E-04-1.19591E-14
 -1      2294 6.75150E-03 1.00149E-03-1.24425E-14
 -1      2295 6.63135E-03 8.56015E-04-1.14653E-14
 -1      2296 6.89134E-03 1.12451E-03-1.29371E-14
 -1      2297 7.03172E-03 1.24801E-03-1.34419E-14
 -1      2298 6.91409E-03 1.10094E-03-1.24183E-14
 -1      2299 7.17269E-03 1.37173E-03-1.39570E-14
 -1      2300 7.31400E-03 1.49549E-03-1.44831E-14
 -1      2301 7.19857E-03 1.34809E-03-1.34145E-14
 -1      2302 7.45572E-03 1.61914E-03-1.50179E-14
 -1      2303 7.59765E-03 1.74260E-03-1.55616E-14
 -1      2304 7.48399E-03 1.59553E-03-1.44505E-14
 -1      2305 7.73985E-03 1.86579E-03-1.61177E-14
 -1      2306 7.88217E-03 1.98870E-03-1.66838E-14
 -1      2307 7.76986E-03 1.84226E-03-1.55271E-14
 -1      2308 8.02466E-03 2.11132E-03-1.72578E-14
 -1      2309 8.16722E-03 2.23365E-03-1.78415E-14
 -1      2310 8.05586E-03 2.08788E-03-1.66430E-14
 -1      2311 8.30989E-03 2.35570E-03-1.84344E-14
 -1      2312 8.45260E-03 2.47749E-03-1.90353E-14
 -1      2313 8.34187E-03 2.33234E-03-1.77968E-14
 -1      2314 8.59537E-03 2.59906E-03-1.96446E-14
 -1      2315 8.73816E-03 2.72042E-03-2.02609E-14
 -1      2316 8.62783E-03 2.57577E-03-1.89850E-14
 -1      2317 8.88099E-03 2.84161E-03-2.08836E-14
 -1      2318 9.02383E-03 2.96264E-03-2.15116E-14
 -1      2319 8.91372E-03 2.81838E-03-2.02021E-14
 -1      2320 9.16669E-03 3.08355E-03-2.21471E-14
 -1      2321 9.30956E-03 3.20434E-03-2.27874E-14
 -1      2322 9.19956E-03 3.06037E-03-2.14477E-14
 -1      2323 9.45243E-03 3.32505E-03-2.34345E-14
 -1      2324 9.59531E-03 3.44569E-03-2.40868E-14
 -1      2325 9.48536E-03 3.30190E-03-2.27190E-14
 -1      2326 9.73819E-03 3.56626E-03-2.47437E-14
 -1      2327 9.88107E-03 3.68679E-03-2.54035E-14
 -1      2328 9.77113E-03 3.54314E-03-2.40103E-14
 -1      2329 1.00239E-02 3.80728E-03-2.60668E-14
 -1      2330 1.01668E-02 3.92774E-03-2.67343E-14
 -1      2331 1.00569E-02 3.78417E-03-2.53177E-14
 -1      2332 1.03097E-02 4.04818E-03-2.74046E-14
 -1      2333 1.04526E-02 4.16860E-03-2.80766E-14
 -1      2334 1.03426E-02 4.02508E-03-2.66408E-14
 -1      2335 1.05955E-02 4.28901E-03-2.87482E-14
 -1      2336 1.07383E-02 4.40942E-03-2.94216E-14
 -1      2337 1.06284E-02 4.26592E-03-2.79712E-14
 -1      2338 1.08812E-02 4.52981E-03-3.00983E-14
 -1      2339 1.10241E-02 4.65021E-03-3.07762E-14
 -1      2340 1.09141E-02 4.50673E-03-2.93075E-14
 -1      2341 1.11669E-02 4.77060E-03-3.14564E-14
 -1      2342 1.13098E-02 4.89099E-03-3.21384E-14
 -1      2343 1.11998E-02 4.74751E-03-3.06519E-14
 -1      2344 1.14527E-02 5.01138E-03-3.28245E-14
 -1      2345 1.15955E-02 5.13177E-03-3.35129E-14
 -1      2346 1.14855E-02 4.98830E-03-3.20058E-14
 -1      2347 1.17384E-02 5.25217E-03-3.41998E-14
 -1      2348 1.18813E-02 5.37256E-03-3.48909E-14
 -1      2349 1.17712E-02 5.22908E-03-3.33681E-14
 -1      2350 1.20241E-02 5.49296E-03-3.55802E-14
 -1      2351 1.21670E-02 5.61336E-03-3.62723E-14
 -1      2352 1.20570E-02 5.46987E-03-3.47333E-14
 -1      2353 1.23098E-02 5.73376E-03-3.69637E-14
 -1      2354 1.24527E-02 5.85416E-03-3.76517E-14
 -1      2355 1.23427E-02 5.71067E-03-3.61016E-14
 -1      2356 1.25956E-02 5.97457E-03-3.83423E-14
 -1      2357 1.27384E-02 6.09497E-03-3.90307E-14
 -1      2358 1.26284E-02 5.95148E-03-3.74705E-14
 -1      2359 1.28813E-02 6.21538E-03-3.97230E-14
 -1      2360 1.30241E-02 6.33579E-03-4.04117E-14
 -1      2361 1.29141E-02 6.19229E-03-3.88362E-14
 -1      2362 1.31601E-02 6.45058E-03-4.10686E-14
 -1      2363 1.33030E-02 6.57099E-03-4.17563E-14
 -1      2364 1.34649E-02 6.65708E-03-4.14783E-14
 -1      2365 1.31929E-02 6.42749E-03-4.01741E-14
 -1      2366 1.61832E-03 4.58779E-04 1.79205E-16
 -1      2367 1.47611E-03 4.43178E-04 1.73269E-16
 -1      2368 9.05664E-03 1.49133E-03-2.51718E-15
 -1      2369 9.14032E-03 1.48361E-03-2.84352E-15
 -1      2370 1.90172E-03 4.81041E-04 1.81102E-16
 -1      2371 1.76012E-03 4.71333E-04 1.81821E-16
 -1      2372 1.67526E-03 4.30491E-04 1.31853E-16
 -1      2373 2.18417E-03 4.93420E-04 1.67292E-16
 -1      2374 2.04300E-03 4.88359E-04 1.76007E-16
 -1      2375 1.95841E-03 4.50353E-04 1.19045E-16
 -1      2376 2.46554E-03 4.98036E-04 1.35458E-16
 -1      2377 2.32492E-03 4.96623E-04 1.53631E-16
 -1      2378 2.23938E-03 4.61528E-04 8.95280E-17
 -1      2379 2.74476E-03 4.96984E-04 8.67497E-17
 -1      2380 2.60534E-03 4.98165E-04 1.13516E-16
 -1      2381 2.51692E-03 4.66306E-04 4.25143E-17
 -1      2382 3.00576E-03 4.93503E-04 2.14672E-17
 -1      2383 2.87568E-03 4.95510E-04 5.65954E-17
 -1      2384 2.78177E-03 4.67308E-04-2.11826E-17
 -1      2385 3.27161E-03 4.92576E-04-6.52148E-17
 -1      2386 3.13969E-03 4.92592E-04-1.97596E-17
 -1      2387 3.03649E-03 4.68318E-04-1.03501E-16
 -1      2388 3.52157E-03 5.05580E-04-1.71521E-16
 -1      2389 3.39828E-03 4.96999E-04-1.16308E-16
 -1      2390 3.27980E-03 4.75873E-04-2.07950E-16
 -1      2391 3.74899E-03 5.54762E-04-2.94496E-16
 -1      2392 3.63717E-03 5.24659E-04-2.30989E-16
 -1      2393 3.49432E-03 5.01744E-04-3.30682E-16
 -1      2394 3.94293E-03 6.70526E-04-4.20772E-16
 -1      2395 3.84381E-03 6.00484E-04-3.55110E-16
 -1      2396 3.66273E-03 5.62054E-04-4.63950E-16
 -1      2397 3.78718E-03 6.81948E-04-6.01763E-16
 -1      2398 8.65101E-03 1.63210E-03-1.77632E-15
 -1      2399 9.58603E-03 1.90609E-03-3.49373E-15
 -1      2400 9.44798E-03 1.79561E-03-3.20982E-15
 -1      2401 9.86672E-03 2.14489E-03-4.09389E-15
 -1      2402 9.72465E-03 2.02279E-03-3.78853E-15
 -1      2403 9.61390E-03 1.94122E-03-3.95432E-15
 -1      2404 1.01531E-02 2.39442E-03-4.72894E-15
 -1      2405 1.00089E-02 2.26881E-03-4.40720E-15
 -1      2406 9.87129E-03 2.17925E-03-4.57720E-15
 -1      2407 1.04272E-02 2.63342E-03-5.37305E-15
 -1      2408 1.02897E-02 2.51388E-03-5.04575E-15
 -1      2409 1.01360E-02 2.41996E-03-5.21854E-15
 -1      2410 1.07161E-02 2.88381E-03-6.09217E-15
 -1      2411 1.05715E-02 2.75883E-03-5.72838E-15
 -1      2412 1.04082E-02 2.66270E-03-5.90108E-15
 -1      2413 1.10047E-02 3.13212E-03-6.85275E-15
 -1      2414 1.08604E-02 3.00824E-03-6.46498E-15
 -1      2415 1.06914E-02 2.91106E-03-6.64342E-15
 -1      2416 1.12925E-02 3.37843E-03-7.66061E-15
 -1      2417 1.11486E-02 3.25552E-03-7.25173E-15
 -1      2418 1.09765E-02 3.15794E-03-7.42982E-15
 -1      2419 1.15798E-02 3.62312E-03-8.51405E-15
 -1      2420 1.14362E-02 3.50096E-03-8.08145E-15
 -1      2421 1.12623E-02 3.40328E-03-8.26289E-15
 -1      2422 1.18667E-02 3.86660E-03-9.40331E-15
 -1      2423 1.17233E-02 3.74500E-03-8.95575E-15
 -1      2424 1.15484E-02 3.64733E-03-9.13847E-15
 -1      2425 1.21531E-02 4.10923E-03-1.03175E-14
 -1      2426 1.20099E-02 3.98801E-03-9.85803E-15
 -1      2427 1.18346E-02 3.89041E-03-1.00466E-14
 -1      2428 1.24394E-02 4.35127E-03-1.12491E-14
 -1      2429 1.22963E-02 4.23031E-03-1.07822E-14
 -1      2430 1.21207E-02 4.13277E-03-1.09763E-14
 -1      2431 1.27254E-02 4.59291E-03-1.21845E-14
 -1      2432 1.25824E-02 4.47213E-03-1.17167E-14
 -1      2433 1.24067E-02 4.37464E-03-1.19207E-14
 -1      2434 1.30113E-02 4.83428E-03-1.31206E-14
 -1      2435 1.28684E-02 4.71362E-03-1.26523E-14
 -1      2436 1.26926E-02 4.61618E-03-1.28665E-14
 -1      2437 1.32972E-02 5.07548E-03-1.40674E-14
 -1      2438 1.31543E-02 4.95490E-03-1.35934E-14
 -1      2439 1.29785E-02 4.85749E-03-1.38171E-14
 -1      2440 1.35687E-02 5.30451E-03-1.49786E-14
 -1      2441 1.34330E-02 5.19001E-03-1.45204E-14
 -1      2442 1.32572E-02 5.09262E-03-1.47532E-14
 -1      2443 1.38545E-02 5.54552E-03-1.59528E-14
 -1      2444 1.37116E-02 5.42503E-03-1.54647E-14
 -1      2445 1.35359E-02 5.32766E-03-1.57039E-14
 -1      2446 1.41403E-02 5.78648E-03-1.69337E-14
 -1      2447 1.39974E-02 5.66601E-03-1.64423E-14
 -1      2448 1.38216E-02 5.56865E-03-1.66927E-14
 -1      2449 1.44260E-02 6.02741E-03-1.79250E-14
 -1      2450 1.42831E-02 5.90695E-03-1.74288E-14
 -1      2451 1.41074E-02 5.80960E-03-1.76923E-14
 -1      2452 1.47117E-02 6.26831E-03-1.89132E-14
 -1      2453 1.45689E-02 6.14786E-03-1.84184E-14
 -1      2454 1.43931E-02 6.05052E-03-1.86959E-14
 -1      2455 1.49974E-02 6.50919E-03-1.99034E-14
 -1      2456 1.48546E-02 6.38875E-03-1.94097E-14
 -1      2457 1.46789E-02 6.29141E-03-1.97019E-14
 -1      2458 1.52832E-02 6.75006E-03-2.08954E-14
 -1      2459 1.51403E-02 6.62962E-03-2.03969E-14
 -1      2460 1.49646E-02 6.53229E-03-2.07052E-14
 -1      2461 1.55689E-02 6.99092E-03-2.18939E-14
 -1      2462 1.54260E-02 6.87049E-03-2.13959E-14
 -1      2463 1.52503E-02 6.77316E-03-2.17121E-14
 -1      2464 1.58546E-02 7.23177E-03-2.28887E-14
 -1      2465 1.57117E-02 7.11135E-03-2.23927E-14
 -1      2466 1.55360E-02 7.01402E-03-2.27238E-14
 -1      2467 1.61403E-02 7.47262E-03-2.38775E-14
 -1      2468 1.59975E-02 7.35220E-03-2.33823E-14
 -1      2469 1.58217E-02 7.25487E-03-2.37303E-14
 -1      2470 1.65256E-02 7.80968E-03-2.54284E-14
 -1      2471 1.64759E-02 7.75459E-03-2.50091E-14
 -1      2472 1.63998E-02 7.75347E-03-2.59510E-14
 -1      2473 1.56627E-02 7.44543E-03-2.93712E-14
 -1      2474 1.57791E-02 7.48686E-03-2.86997E-14
 -1      2475 1.54259E-02 7.36115E-03-3.07236E-14
 -1      2476 1.55443E-02 7.40329E-03-3.00496E-14
 -1      2477 1.54788E-02 7.31972E-03-2.92483E-14
 -1      2478 1.58975E-02 7.52900E-03-2.80142E-14
 -1      2479 1.60159E-02 7.57114E-03-2.73260E-14
 -1      2480 1.57156E-02 7.40400E-03-2.78979E-14
 -1      2481 1.51890E-02 7.27686E-03-3.20682E-14
 -1      2482 1.53075E-02 7.31900E-03-3.13985E-14
 -1      2483 1.52419E-02 7.23543E-03-3.05843E-14
 -1      2484 1.49522E-02 7.19258E-03-3.34032E-14
 -1      2485 1.50706E-02 7.23472E-03-3.27374E-14
 -1      2486 1.50051E-02 7.15115E-03-3.19121E-14
 -1      2487 1.47154E-02 7.10830E-03-3.47296E-14
 -1      2488 1.48338E-02 7.15044E-03-3.40672E-14
 -1      2489 1.47683E-02 7.06687E-03-3.32292E-14
 -1      2490 1.44786E-02 7.02402E-03-3.60470E-14
 -1      2491 1.45970E-02 7.06616E-03-3.53917E-14
 -1      2492 1.45315E-02 6.98259E-03-3.45398E-14
 -1      2493 1.42458E-02 6.94116E-03-3.73430E-14
 -1      2494 1.43622E-02 6.98259E-03-3.66963E-14
 -1      2495 1.42967E-02 6.89902E-03-3.58346E-14
 -1      2496 1.40090E-02 6.85688E-03-3.86411E-14
 -1      2497 1.41274E-02 6.89902E-03-3.79933E-14
 -1      2498 1.40619E-02 6.81546E-03-3.71209E-14
 -1      2499 1.37722E-02 6.77260E-03-3.99394E-14
 -1      2500 1.38906E-02 6.81474E-03-3.92897E-14
 -1      2501 1.38251E-02 6.73118E-03-3.84071E-14
 -1      2502 1.35833E-02 6.69922E-03-4.08394E-14
 -1      2503 3.84012E-03 6.10080E-04-1.55353E-15
 -1      2504 3.71418E-03 6.36924E-04-1.41115E-15
 -1      2505 7.28216E-03 8.25239E-04-4.36551E-15
 -1      2506 7.07059E-03 6.93037E-04-4.34911E-15
 -1      2507 5.88776E-04-2.38141E-04-1.77877E-16
 -1      2508 7.81698E-04-3.05324E-04-2.71647E-16
 -1      2509 8.41128E-04-2.94127E-04-3.01422E-16
 -1      2510 5.79184E-04-2.10248E-04-1.70979E-16
 -1      2511 3.60385E-03 6.57791E-04-1.24483E-15
 -1      2512 3.55148E-03 6.65521E-04-1.12099E-15
 -1      2513 6.03116E-03 3.98044E-05-3.80170E-15
 -1      2514 5.86292E-03-1.86693E-05-3.60207E-15
 -1      2515 9.31409E-03 1.69818E-03-2.93563E-15
 -1      2516 9.17984E-03 1.61703E-03-2.66990E-15
 -1      2517 9.37881E-03 1.72616E-03-3.37203E-15
 -1      2518 9.02974E-03 1.57000E-03-2.35275E-15
 -1      2519 8.88023E-03 1.55907E-03-2.10995E-15
 -1      2520 1.09016E-03 3.82604E-04 1.41692E-16
 -1      2521 9.45848E-04 3.51099E-04 1.25117E-16
 -1      2522 9.03227E-04 3.12927E-04 9.94078E-17
 -1      2523 5.46113E-04-2.16601E-05-8.28737E-17
 -1      2524 5.46729E-04-3.77123E-05-9.20623E-17
 -1      2525 6.62269E-04-5.42871E-05-1.30633E-16
 -1      2526 6.60597E-04-1.60977E-05-1.06428E-16
 -1      2527 1.35511E-03 4.27522E-04 1.65653E-16
 -1      2528 1.21197E-03 4.04951E-04 1.53631E-16
 -1      2529 1.16883E-03 3.66809E-04 1.20157E-16
 -1      2530 1.41192E-03 4.02613E-04 1.30836E-16
 -1      2531 3.66683E-03 6.62653E-04-7.03844E-16
 -1      2532 8.69468E-03 1.42285E-03-3.94640E-15
 -1      2533 8.51197E-03 1.36940E-03-4.03707E-15
 -1      2534 3.54139E-03 6.75056E-04-1.00538E-15
 -1      2535 3.56823E-03 6.75555E-04-8.94938E-16
 -1      2536 4.19532E-03 5.01189E-04-1.89287E-15
 -1      2537 4.02093E-03 5.58675E-04-1.73563E-15
 -1      2538 4.55971E-03 3.49342E-04-2.22558E-15
 -1      2539 4.37604E-03 4.31059E-04-2.05612E-15
 -1      2540 4.26277E-03 4.54667E-04-1.97066E-15
 -1      2541 5.00746E-03 1.44128E-04-2.66630E-15
 -1      2542 4.80233E-03 2.39302E-04-2.46113E-15
 -1      2543 5.38780E-03 2.81108E-06-3.06141E-15
 -1      2544 5.22990E-03 5.61843E-05-2.89832E-15
 -1      2545 5.68092E-03-4.03155E-05-3.39296E-15
 -1      2546 5.53949E-03-2.83200E-05-3.22374E-15
 -1      2547 5.43696E-03-2.30077E-05-3.22900E-15
 -1      2548 6.36489E-03 2.33707E-04-4.14195E-15
 -1      2549 6.22515E-03 1.45278E-04-4.04841E-15
 -1      2550 6.82869E-03 5.32120E-04-4.27767E-15
 -1      2551 6.60101E-03 3.77580E-04-4.20605E-15
 -1      2552 6.92378E-03 6.39311E-04-4.53554E-15
 -1      2553 7.78403E-03 1.10340E-03-4.36161E-15
 -1      2554 7.53140E-03 9.66591E-04-4.36386E-15
 -1      2555 7.38490E-03 9.34093E-04-4.61432E-15
 -1      2556 8.30882E-03 1.30449E-03-4.14227E-15
 -1      2557 8.08714E-03 1.22766E-03-4.24553E-15
 -1      2558 8.39659E-03 1.37519E-03-4.28296E-15
 -1      2559 6.70462E-04-1.37300E-04-1.77999E-16
 -1      2560 5.54727E-04-1.25727E-04-1.37626E-16
 -1      2561 5.57916E-04-1.45896E-04-1.46489E-16
 -1      2562 9.17452E-03 1.50872E-03-3.10550E-15
 -1      2563 9.19636E-03 1.54909E-03-3.37402E-15
 -1      2564 9.17226E-03 1.52354E-03-2.98725E-15
 -1      2565 5.74153E-03-3.71242E-05-3.60351E-15
 -1      2566 6.08651E-03 8.63778E-05-4.06565E-15
 -1      2567 3.53300E-03 6.43204E-04-1.01547E-15
 -1      2568 5.72015E-04-1.85151E-04-1.62983E-16
 -1      2569 9.08417E-03 1.53287E-03-3.70961E-15
 -1      2570 9.00300E-03 1.50798E-03-2.38251E-15
 -1      2571 9.07883E-03 1.51269E-03-2.58961E-15
 -1      2572 1.63331E-02 7.63417E-03-2.45224E-14
 -1      2573 1.61573E-02 7.53684E-03-2.48815E-14
 -1      2574 1.61450E-02 7.63421E-03-2.69020E-14
 -1      2575 1.62708E-02 7.69041E-03-2.63788E-14
 -1      2576 1.62211E-02 7.63533E-03-2.59583E-14
 -1      2577 1.59630E-02 7.50920E-03-2.68012E-14
 -1      2578 1.35178E-02 6.61566E-03-3.99387E-14
 -1      2579 7.90852E-03 1.19466E-03-4.50289E-15
 -1      2580 3.91475E-03 5.70482E-04-1.62977E-15
 -1      2581 9.15923E-03 1.56567E-03-2.76857E-15
 -1      2582 4.66231E-03 2.81926E-04-2.36309E-15
 -1      2583 3.63614E-03 6.29982E-04-1.28919E-15
 -1      2584 8.86099E-03 1.54966E-03-2.10531E-15
 -1      2585 8.79493E-03 1.48617E-03-4.05317E-15
 -1      2586 3.61270E-03 6.28773E-04-7.15197E-16
 -1      2587 5.09486E-03 8.78746E-05-2.82863E-15
 -1      2588 6.47256E-03 3.33958E-04-4.39069E-15
 -1      2589 7.78266E-04 7.80114E-05-6.75729E-17
 -1      2590 7.77149E-04 5.66717E-05-8.38630E-17
 -1      2591 7.76530E-04 3.51776E-05-1.00058E-16
 -1      2592 7.76394E-04 1.38011E-05-1.16240E-16
 -1      2593 8.94398E-04 5.16771E-05-1.19045E-16
 -1      2594 7.90103E-04 1.71021E-04 3.65918E-18
 -1      2595 7.85802E-04 1.46346E-04-1.54092E-17
 -1      2596 8.02769E-04 2.24921E-04 4.35985E-17
 -1      2597 7.95748E-04 1.97147E-04 2.31748E-17
 -1      2598 9.13145E-04 2.05192E-04 9.40545E-18
 -1      2599 8.70157E-04 2.84155E-04 8.04885E-17
 -1      2600 8.32401E-04 2.50229E-04 5.89128E-17
 -1      2601 9.50060E-04 2.60093E-04 5.07542E-17
 -1      2602 1.01327E-03 3.15071E-04 8.98533E-17
 -1      2603 7.82484E-04 1.22820E-04-3.33257E-17
 -1      2604 7.80028E-04 1.00076E-04-5.06729E-17
 -1      2605 8.97073E-04 1.00215E-04-7.84691E-17
 -1      2606 9.02922E-04 1.50701E-04-3.60226E-17
 -1      2607 9.41561E-03 1.76907E-03-3.75385E-15
 -1      2608 9.32004E-03 1.67227E-03-3.46773E-15
 -1      2609 1.03427E-03-3.15126E-04-4.11861E-16
 -1      2610 1.17770E-03-3.41727E-04-5.08382E-16
 -1      2611 1.32116E-03-3.64764E-04-6.14065E-16
 -1      2612 1.46468E-03-3.84521E-04-7.28665E-16
 -1      2613 1.23950E-03-3.20306E-04-5.38401E-16
 -1      2614 1.60811E-03-4.01567E-04-8.52088E-16
 -1      2615 1.75149E-03-4.16151E-04-9.83968E-16
 -1      2616 1.52701E-03-3.57945E-04-7.59199E-16
 -1      2617 1.89484E-03-4.28770E-04-1.12463E-15
 -1      2618 2.03815E-03-4.39639E-04-1.27323E-15
 -1      2619 1.81518E-03-3.85845E-04-1.01411E-15
 -1      2620 2.18152E-03-4.49150E-04-1.43036E-15
 -1      2621 2.32490E-03-4.57481E-04-1.59516E-15
 -1      2622 2.10390E-03-4.06596E-04-1.30146E-15
 -1      2623 2.46841E-03-4.64912E-04-1.76789E-15
 -1      2624 2.61195E-03-4.71572E-04-1.94911E-15
 -1      2625 2.39336E-03-4.22409E-04-1.62026E-15
 -1      2626 2.75565E-03-4.77624E-04-2.13836E-15
 -1      2627 2.89936E-03-4.83125E-04-2.33496E-15
 -1      2628 2.68379E-03-4.34994E-04-1.97061E-15
 -1      2629 3.04318E-03-4.88103E-04-2.53936E-15
 -1      2630 3.18689E-03-4.92507E-04-2.75156E-15
 -1      2631 2.97528E-03-4.45452E-04-2.35182E-15
 -1      2632 3.33057E-03-4.96206E-04-2.97220E-15
 -1      2633 3.47393E-03-4.98987E-04-3.20132E-15
 -1      2634 3.26761E-03-4.54071E-04-2.76354E-15
 -1      2635 3.61699E-03-5.00530E-04-3.43801E-15
 -1      2636 3.75945E-03-5.00405E-04-3.68294E-15
 -1      2637 3.56007E-03-4.60018E-04-3.20757E-15
 -1      2638 3.90125E-03-4.98086E-04-3.93637E-15
 -1      2639 4.04214E-03-4.92897E-04-4.19810E-15
 -1      2640 3.85143E-03-4.60920E-04-3.68371E-15
 -1      2641 4.18199E-03-4.84129E-04-4.46839E-15
 -1      2642 4.32070E-03-4.70890E-04-4.74759E-15
 -1      2643 4.14004E-03-4.52503E-04-4.19489E-15
 -1      2644 4.45815E-03-4.52372E-04-5.03602E-15
 -1      2645 4.59448E-03-4.27616E-04-5.33227E-15
 -1      2646 4.42432E-03-4.28549E-04-4.73928E-15
 -1      2647 4.72959E-03-3.95869E-04-5.63812E-15
 -1      2648 4.86393E-03-3.56331E-04-5.95331E-15
 -1      2649 4.70346E-03-3.81543E-04-5.31957E-15
 -1      2650 4.99744E-03-3.08495E-04-6.27818E-15
 -1      2651 5.13081E-03-2.51986E-04-6.61287E-15
 -1      2652 4.97812E-03-3.04205E-04-5.93664E-15
 -1      2653 5.26403E-03-1.86699E-04-6.95768E-15
 -1      2654 5.39782E-03-1.12785E-04-7.31232E-15
 -1      2655 5.25055E-03-1.91558E-04-6.59348E-15
 -1      2656 5.53214E-03-3.05889E-05-7.67757E-15
 -1      2657 5.66757E-03 5.92477E-05-8.05341E-15
 -1      2658 5.52386E-03-4.26171E-05-7.29131E-15
 -1      2659 5.80403E-03 1.56046E-04-8.43887E-15
 -1      2660 5.94180E-03 2.58883E-04-8.83515E-15
 -1      2661 5.80079E-03 1.39246E-04-8.02953E-15
 -1      2662 6.08077E-03 3.66932E-04-9.24372E-15
 -1      2663 6.22092E-03 4.79238E-04-9.66233E-15
 -1      2664 6.08275E-03 3.47461E-04-8.81077E-15
 -1      2665 6.36214E-03 5.95001E-04-1.00904E-14
 -1      2666 6.50423E-03 7.13418E-04-1.05290E-14
 -1      2667 6.36953E-03 5.74284E-04-9.63423E-15
 -1      2668 6.64708E-03 8.33830E-04-1.09785E-14
 -1      2669 6.79043E-03 9.55661E-04-1.14376E-14
 -1      2670 6.65979E-03 8.12610E-04-1.04982E-14
 -1      2671 6.93424E-03 1.07843E-03-1.19075E-14
 -1      2672 7.07822E-03 1.20178E-03-1.23884E-14
 -1      2673 6.95185E-03 1.05698E-03-1.14049E-14
 -1      2674 7.22241E-03 1.32541E-03-1.28788E-14
 -1      2675 7.36656E-03 1.44912E-03-1.33804E-14
 -1      2676 7.24424E-03 1.30375E-03-1.23514E-14
 -1      2677 7.51074E-03 1.57273E-03-1.38927E-14
 -1      2678 7.65479E-03 1.69618E-03-1.44126E-14
 -1      2679 7.53597E-03 1.55083E-03-1.33403E-14
 -1      2680 7.79878E-03 1.81936E-03-1.49433E-14
 -1      2681 7.94259E-03 1.94228E-03-1.54848E-14
 -1      2682 7.82659E-03 1.79721E-03-1.43694E-14
 -1      2683 8.08632E-03 2.06490E-03-1.60371E-14
 -1      2684 8.22988E-03 2.18724E-03-1.65985E-14
 -1      2685 8.11600E-03 2.04249E-03-1.54380E-14
 -1      2686 8.37335E-03 2.30931E-03-1.71685E-14
 -1      2687 8.51670E-03 2.43112E-03-1.77476E-14
 -1      2688 8.40432E-03 2.28668E-03-1.65478E-14
 -1      2689 8.65996E-03 2.55270E-03-1.83344E-14
 -1      2690 8.80313E-03 2.67408E-03-1.89301E-14
 -1      2691 8.69177E-03 2.52991E-03-1.76930E-14
 -1      2692 8.94625E-03 2.79529E-03-1.95318E-14
 -1      2693 9.08930E-03 2.91634E-03-2.01402E-14
 -1      2694 8.97858E-03 2.77238E-03-1.88693E-14
 -1      2695 9.23231E-03 3.03727E-03-2.07577E-14
 -1      2696 9.37528E-03 3.15808E-03-2.13807E-14
 -1      2697 9.26494E-03 3.01428E-03-2.00752E-14
 -1      2698 9.51822E-03 3.27880E-03-2.20092E-14
 -1      2699 9.66114E-03 3.39945E-03-2.26447E-14
 -1      2700 9.55102E-03 3.25576E-03-2.13089E-14
 -1      2701 9.80404E-03 3.52004E-03-2.32832E-14
 -1      2702 9.94692E-03 3.64057E-03-2.39277E-14
 -1      2703 9.83692E-03 3.49697E-03-2.25643E-14
 -1      2704 1.00898E-02 3.76107E-03-2.45755E-14
 -1      2705 1.02327E-02 3.88154E-03-2.52267E-14
 -1      2706 1.01227E-02 3.73799E-03-2.38398E-14
 -1      2707 1.03755E-02 4.00199E-03-2.58820E-14
 -1      2708 1.05184E-02 4.12242E-03-2.65408E-14
 -1      2709 1.04085E-02 3.97890E-03-2.51321E-14
 -1      2710 1.06613E-02 4.24283E-03-2.72006E-14
 -1      2711 1.08041E-02 4.36324E-03-2.78597E-14
 -1      2712 1.06942E-02 4.21974E-03-2.64345E-14
 -1      2713 1.09470E-02 4.48364E-03-2.85225E-14
 -1      2714 1.10898E-02 4.60403E-03-2.91866E-14
 -1      2715 1.09799E-02 4.46054E-03-2.77437E-14
 -1      2716 1.12327E-02 4.72442E-03-2.98529E-14
 -1      2717 1.13755E-02 4.84482E-03-3.05213E-14
 -1      2718 1.12656E-02 4.70133E-03-2.90602E-14
 -1      2719 1.15184E-02 4.96521E-03-3.11928E-14
 -1      2720 1.16613E-02 5.08560E-03-3.18662E-14
 -1      2721 1.15513E-02 4.94212E-03-3.03855E-14
 -1      2722 1.18041E-02 5.20599E-03-3.25408E-14
 -1      2723 1.19470E-02 5.32639E-03-3.32161E-14
 -1      2724 1.18370E-02 5.18290E-03-3.17209E-14
 -1      2725 1.20898E-02 5.44678E-03-3.38929E-14
 -1      2726 1.22327E-02 5.56718E-03-3.45715E-14
 -1      2727 1.21227E-02 5.42369E-03-3.30604E-14
 -1      2728 1.23755E-02 5.68758E-03-3.52500E-14
 -1      2729 1.25184E-02 5.80798E-03-3.59272E-14
 -1      2730 1.24084E-02 5.66449E-03-3.44046E-14
 -1      2731 1.26613E-02 5.92839E-03-3.66041E-14
 -1      2732 1.28041E-02 6.04879E-03-3.72797E-14
 -1      2733 1.26941E-02 5.90530E-03-3.57441E-14
 -1      2734 1.29470E-02 6.16920E-03-3.79557E-14
 -1      2735 1.30898E-02 6.28961E-03-3.86338E-14
 -1      2736 1.29798E-02 6.14611E-03-3.70832E-14
 -1      2737 1.32358E-02 6.39524E-03-3.89668E-14
 -1      2738 1.33718E-02 6.51003E-03-3.96106E-14
 -1      2739 1.35607E-02 6.58340E-03-3.87290E-14
 -1      2740 1.32687E-02 6.37214E-03-3.80831E-14
 -1      2741 5.78051E-03-2.70154E-05-3.82577E-15
 -1      2742 5.62739E-03-4.96767E-05-3.61083E-15
 -1      2743 1.73318E-03 4.02177E-04 7.91332E-17
 -1      2744 1.59116E-03 3.89716E-04 8.67497E-17
 -1      2745 2.56693E-03 4.37222E-04-5.63650E-17
 -1      2746 2.43131E-03 4.34634E-04-2.26869E-17
 -1      2747 2.81722E-03 4.41816E-04-1.34102E-16
 -1      2748 2.69334E-03 4.39657E-04-9.32820E-17
 -1      2749 2.60964E-03 4.10901E-04-1.59554E-16
 -1      2750 3.06497E-03 4.49850E-04-2.35285E-16
 -1      2751 2.94344E-03 4.45428E-04-1.81888E-16
 -1      2752 2.85854E-03 4.20969E-04-2.55031E-16
 -1      2753 3.28668E-03 4.68692E-04-3.55971E-16
 -1      2754 3.17964E-03 4.58062E-04-2.93236E-16
 -1      2755 3.09340E-03 4.38313E-04-3.73047E-16
 -1      2756 3.46844E-03 5.09791E-04-4.96280E-16
 -1      2757 3.38324E-03 4.86846E-04-4.24255E-16
 -1      2758 3.29608E-03 4.70790E-04-5.11371E-16
 -1      2759 3.57991E-03 5.77108E-04-6.38771E-16
 -1      2760 3.52594E-03 5.39646E-04-5.66380E-16
 -1      2761 3.43963E-03 5.23258E-04-6.61573E-16
 -1      2762 3.52121E-03 5.97985E-04-8.18962E-16
 -1      2763 1.01165E-02 2.45053E-03-5.71988E-15
 -1      2764 9.99023E-03 2.33440E-03-5.39289E-15
 -1      2765 1.48222E-02 7.02580E-03-3.17419E-14
 -1      2766 1.49406E-02 7.06794E-03-3.10891E-14
 -1      2767 9.86137E-03 2.21395E-03-5.05643E-15
 -1      2768 9.73659E-03 2.09476E-03-4.73089E-15
 -1      2769 9.84152E-03 2.24843E-03-5.54237E-15
 -1      2770 2.29403E-03 4.31018E-04 6.49166E-18
 -1      2771 2.15518E-03 4.26418E-04 3.14148E-17
 -1      2772 2.34838E-03 4.02188E-04-8.21825E-17
 -1      2773 6.99824E-03 7.35043E-04-4.84340E-15
 -1      2774 6.78665E-03 5.85981E-04-4.76234E-15
 -1      2775 8.86323E-03 1.54484E-03-4.24431E-15
 -1      2776 8.67311E-03 1.50127E-03-4.37120E-15
 -1      2777 9.61855E-03 1.98002E-03-4.41433E-15
 -1      2778 9.50718E-03 1.86835E-03-4.10703E-15
 -1      2779 9.60641E-03 2.01889E-03-4.87879E-15
 -1      2780 1.03893E-02 2.69607E-03-6.44481E-15
 -1      2781 1.02517E-02 2.57299E-03-6.07603E-15
 -1      2782 1.00979E-02 2.48692E-03-6.24578E-15
 -1      2783 1.06685E-02 2.94196E-03-7.20967E-15
 -1      2784 1.05282E-02 2.81900E-03-6.82211E-15
 -1      2785 1.03670E-02 2.72920E-03-6.99197E-15
 -1      2786 1.09510E-02 3.18714E-03-8.02365E-15
 -1      2787 1.08094E-02 3.06464E-03-7.61134E-15
 -1      2788 1.06436E-02 2.97272E-03-7.78533E-15
 -1      2789 1.12353E-02 3.43135E-03-8.88136E-15
 -1      2790 1.10930E-02 3.30936E-03-8.44763E-15
 -1      2791 1.09245E-02 3.21626E-03-8.62387E-15
 -1      2792 1.15205E-02 3.67468E-03-9.77892E-15
 -1      2793 1.13778E-02 3.55311E-03-9.32556E-15
 -1      2794 1.12077E-02 3.45938E-03-9.50482E-15
 -1      2795 1.18061E-02 3.91728E-03-1.07045E-14
 -1      2796 1.16632E-02 3.79606E-03-1.02386E-14
 -1      2797 1.14922E-02 3.70200E-03-1.04219E-14
 -1      2798 1.20918E-02 4.15936E-03-1.16503E-14
 -1      2799 1.19489E-02 4.03838E-03-1.11764E-14
 -1      2800 1.17774E-02 3.94415E-03-1.13674E-14
 -1      2801 1.23776E-02 4.40105E-03-1.26063E-14
 -1      2802 1.22347E-02 4.28024E-03-1.21271E-14
 -1      2803 1.20629E-02 4.18594E-03-1.23260E-14
 -1      2804 1.26635E-02 4.64247E-03-1.35638E-14
 -1      2805 1.25206E-02 4.52179E-03-1.30861E-14
 -1      2806 1.23486E-02 4.42745E-03-1.32958E-14
 -1      2807 1.29493E-02 4.88371E-03-1.45294E-14
 -1      2808 1.28064E-02 4.76311E-03-1.40460E-14
 -1      2809 1.26343E-02 4.66876E-03-1.42676E-14
 -1      2810 1.32208E-02 5.11278E-03-1.54549E-14
 -1      2811 1.30851E-02 4.99826E-03-1.49907E-14
 -1      2812 1.29129E-02 4.90391E-03-1.52193E-14
 -1      2813 1.35066E-02 5.35381E-03-1.64468E-14
 -1      2814 1.33637E-02 5.23330E-03-1.59484E-14
 -1      2815 1.31916E-02 5.13896E-03-1.61864E-14
 -1      2816 1.37924E-02 5.59479E-03-1.74537E-14
 -1      2817 1.36495E-02 5.47431E-03-1.69501E-14
 -1      2818 1.34773E-02 5.37997E-03-1.71960E-14
 -1      2819 1.40781E-02 5.83573E-03-1.84700E-14
 -1      2820 1.39352E-02 5.71526E-03-1.79605E-14
 -1      2821 1.37631E-02 5.62093E-03-1.82220E-14
 -1      2822 1.43638E-02 6.07664E-03-1.94897E-14
 -1      2823 1.42210E-02 5.95619E-03-1.89799E-14
 -1      2824 1.40488E-02 5.86186E-03-1.92539E-14
 -1      2825 1.46496E-02 6.31753E-03-2.05104E-14
 -1      2826 1.45067E-02 6.19709E-03-1.99996E-14
 -1      2827 1.43346E-02 6.10276E-03-2.02911E-14
 -1      2828 1.49353E-02 6.55841E-03-2.15255E-14
 -1      2829 1.47924E-02 6.43797E-03-2.10168E-14
 -1      2830 1.46203E-02 6.34365E-03-2.13195E-14
 -1      2831 1.52210E-02 6.79927E-03-2.25480E-14
 -1      2832 1.50782E-02 6.67884E-03-2.20365E-14
 -1      2833 1.49060E-02 6.58452E-03-2.23521E-14
 -1      2834 1.55067E-02 7.04013E-03-2.35705E-14
 -1      2835 1.53639E-02 6.91970E-03-2.30607E-14
 -1      2836 1.51917E-02 6.82538E-03-2.33876E-14
 -1      2837 1.57924E-02 7.28098E-03-2.45884E-14
 -1      2838 1.56496E-02 7.16056E-03-2.40813E-14
 -1      2839 1.54774E-02 7.06624E-03-2.44216E-14
 -1      2840 1.60283E-02 7.47378E-03-2.53012E-14
 -1      2841 1.52958E-02 7.19436E-03-2.91105E-14
 -1      2842 1.54143E-02 7.23650E-03-2.84452E-14
 -1      2843 1.55327E-02 7.27864E-03-2.77793E-14
 -1      2844 1.56511E-02 7.32079E-03-2.71061E-14
 -1      2845 1.53498E-02 7.15329E-03-2.76492E-14
 -1      2846 1.50590E-02 7.11008E-03-3.04327E-14
 -1      2847 1.51774E-02 7.15222E-03-2.97730E-14
 -1      2848 1.48761E-02 6.98472E-03-3.02721E-14
 -1      2849 1.45854E-02 6.94152E-03-3.30431E-14
 -1      2850 1.47038E-02 6.98366E-03-3.23950E-14
 -1      2851 1.46393E-02 6.90044E-03-3.15651E-14
 -1      2852 1.43486E-02 6.85724E-03-3.43375E-14
 -1      2853 1.44670E-02 6.89938E-03-3.36906E-14
 -1      2854 1.44025E-02 6.81617E-03-3.28509E-14
 -1      2855 1.41158E-02 6.77439E-03-3.56062E-14
 -1      2856 1.42322E-02 6.81581E-03-3.49720E-14
 -1      2857 1.41677E-02 6.73260E-03-3.41189E-14
 -1      2858 1.38790E-02 6.69011E-03-3.68890E-14
 -1      2859 1.39974E-02 6.73225E-03-3.62501E-14
 -1      2860 1.39328E-02 6.64904E-03-3.53832E-14
 -1      2861 1.36606E-02 6.61569E-03-3.81268E-14
 -1      2862 1.37790E-02 6.65783E-03-3.74906E-14
 -1      2863 1.37145E-02 6.57462E-03-3.66166E-14
 -1      2864 1.35146E-02 6.51006E-03-3.78111E-14
 -1      2865 8.06221E-03 1.30070E-03-4.67957E-15
 -1      2866 7.78974E-03 1.18479E-03-4.79251E-15
 -1      2867 7.48542E-03 1.03064E-03-4.85616E-15
 -1      2868 7.26390E-03 8.99514E-04-4.85166E-15
 -1      2869 6.09955E-03 1.24270E-04-4.35180E-15
 -1      2870 5.93367E-03 3.01146E-05-4.09728E-15
 -1      2871 4.71792E-03 2.17934E-04-2.49398E-15
 -1      2872 4.50958E-03 3.15976E-04-2.26136E-15
 -1      2873 3.65537E-03 5.93250E-04-1.31913E-15
 -1      2874 3.56415E-03 6.03212E-04-1.16140E-15
 -1      2875 6.88824E-04-2.03967E-04-2.10918E-16
 -1      2876 9.14308E-03 1.58046E-03-3.82813E-15
 -1      2877 9.04222E-03 1.57798E-03-4.04872E-15
 -1      2878 2.01536E-03 4.20196E-04 5.14183E-17
 -1      2879 1.87457E-03 4.12288E-04 6.70579E-17
 -1      2880 2.07253E-03 3.90831E-04-2.18602E-17
 -1      2881 7.81869E-04-9.64156E-05-1.92717E-16
 -1      2882 7.84330E-04-1.20083E-04-2.07652E-16
 -1      2883 4.29579E-03 4.02261E-04-2.04081E-15
 -1      2884 4.14185E-03 4.62151E-04-1.88239E-15
 -1      2885 6.56303E-03 4.33611E-04-4.68596E-15
 -1      2886 6.36052E-03 2.94810E-04-4.61106E-15
 -1      2887 6.65417E-03 5.26431E-04-4.99038E-15
 -1      2888 5.46826E-03-4.55325E-05-3.42223E-15
 -1      2889 5.34113E-03-2.07372E-05-3.25624E-15
 -1      2890 3.97249E-03 5.21796E-04-1.70116E-15
 -1      2891 3.81214E-03 5.63154E-04-1.52549E-15
 -1      2892 4.00617E-03 4.65651E-04-1.76854E-15
 -1      2893 8.47810E-03 1.44385E-03-4.47393E-15
 -1      2894 8.29126E-03 1.38655E-03-4.57923E-15
 -1      2895 8.17137E-03 1.37591E-03-4.87409E-15
 -1      2896 8.58148E-03 1.51326E-03-4.67143E-15
 -1      2897 5.16094E-03 3.49208E-05-3.01224E-15
 -1      2898 4.96826E-03 1.11305E-04-2.77918E-15
 -1      2899 1.25644E-03 3.56765E-04 9.90148E-17
 -1      2900 1.13482E-03 3.37415E-04 9.54911E-17
 -1      2901 1.10211E-03 3.08888E-04 7.25060E-17
 -1      2902 8.94159E-04 3.62800E-06-1.58253E-16
 -1      2903 7.76682E-04-7.65914E-06-1.31731E-16
 -1      2904 7.77368E-04-2.92793E-05-1.47262E-16
 -1      2905 7.78447E-04-5.11516E-05-1.62346E-16
 -1      2906 7.79926E-04-7.35277E-05-1.77619E-16
 -1      2907 8.99539E-04-9.50308E-05-2.33266E-16
 -1      2908 8.95907E-04-4.49271E-05-1.96092E-16
 -1      2909 5.51826E-03-5.68357E-05-3.63373E-15
 -1      2910 9.27645E-03 1.63387E-03-3.54458E-15
 -1      2911 9.24197E-03 1.59676E-03-3.17682E-15
 -1      2912 7.65888E-03 1.14589E-03-5.03575E-15
 -1      2913 1.79181E-03 3.74027E-04 2.08438E-17
 -1      2914 1.51129E-02 7.06900E-03-2.89670E-14
 -1      2915 5.20459E-03-5.70465E-06-3.19468E-15
 -1      2916 8.96063E-03 1.60231E-03-4.37276E-15
 -1      2917 9.24148E-03 1.61219E-03-3.62887E-15
 -1      2918 9.19667E-03 1.59804E-03-3.74923E-15
 -1      2919 9.18602E-03 1.64930E-03-4.09336E-15
 -1      2920 9.29646E-03 1.69157E-03-3.93029E-15
 -1      2921 7.11390E-03 8.34193E-04-5.08575E-15
 -1      2922 1.48463E-03 3.82470E-04 9.50710E-17
 -1      2923 1.36339E-03 3.68101E-04 9.64127E-17
 -1      2924 1.33034E-03 3.39531E-04 6.83589E-17
 -1      2925 1.54387E-03 3.56666E-04 4.98733E-17
 -1      2926 4.86729E-03 8.49781E-05-2.83496E-15
 -1      2927 4.80440E-03 1.48452E-04-2.66342E-15
 -1      2928 4.64237E-03 1.77039E-04-2.54999E-15
 -1      2929 9.41880E-03 1.81023E-03-4.19753E-15
 -1      2930 1.58562E-02 7.37947E-03-2.56636E-14
 -1      2931 1.57272E-02 7.31641E-03-2.60735E-14
 -1      2932 5.81329E-03-5.15531E-06-4.09839E-15
 -1      2933 1.55442E-02 7.19105E-03-2.59599E-14
 -1      2934 4.36188E-03 3.31286E-04-2.16256E-15
 -1      2935 7.89223E-04-2.52742E-04-2.67296E-16
 -1      2936 9.20511E-04-2.88829E-04-3.41158E-16
 -1      2937 3.52238E-03 6.05477E-04-1.04446E-15
 -1      2938 3.51124E-03 6.05485E-04-9.35626E-16
 -1      2939 3.47670E-03 5.65926E-04-8.50529E-16
 -1      2940 3.51752E-03 5.72594E-04-1.07675E-15
 -1      2941 9.82757E-04-2.73721E-04-3.69130E-16
 -1      2942 3.69449E-03 5.51190E-04-1.38886E-15
 -1      2943 6.19364E-03 2.02793E-04-4.63792E-15
 -1      2944 6.04652E-03 1.28418E-04-4.66162E-15
 -1      2945 6.28564E-03 2.86547E-04-4.93224E-15
 -1      2946 9.15356E-03 1.53235E-03-2.84844E-15
 -1      2947 9.05459E-04-1.47826E-04-2.69777E-16
 -1      2948 7.87481E-04-1.44568E-04-2.22289E-16
 -1      2949 7.91418E-04-1.70083E-04-2.36885E-16
 -1      2950 1.07058E-03 2.81488E-04 5.11743E-17
 -1      2951 1.04025E-03 2.55133E-04 3.15638E-17
 -1      2952 1.19151E-03 3.00415E-04 4.92634E-17
 -1      2953 1.03229E-03 2.23787E-04 3.13063E-18
 -1      2954 5.55550E-03-6.17934E-05-3.88077E-15
 -1      2955 5.41448E-03-6.64559E-05-3.68518E-15
 -1      2956 1.15962E-03-2.77455E-04-4.67942E-16
 -1      2957 1.30296E-03-2.97613E-04-5.65723E-16
 -1      2958 3.72643E-03 5.05364E-04-1.45966E-15
 -1      2959 3.59100E-03 5.30052E-04-1.26308E-15
 -1      2960 7.25017E-03 9.45735E-04-5.35836E-15
 -1      2961 7.01079E-03 7.92895E-04-5.34296E-15
 -1      2962 7.81503E-03 1.25424E-03-5.27513E-15
 -1      2963 7.53910E-03 1.11213E-03-5.33406E-15
 -1      2964 1.44678E-03-3.15119E-04-6.71839E-16
 -1      2965 1.59106E-03-3.30208E-04-7.86291E-16
 -1      2966 1.36761E-03-2.73445E-04-5.90321E-16
 -1      2967 1.73566E-03-3.43222E-04-9.09293E-16
 -1      2968 1.88057E-03-3.54379E-04-1.04016E-15
 -1      2969 1.65648E-03-3.01234E-04-8.10346E-16
 -1      2970 2.02581E-03-3.64011E-04-1.17888E-15
 -1      2971 2.17135E-03-3.72325E-04-1.32541E-15
 -1      2972 1.94742E-03-3.21718E-04-1.06238E-15
 -1      2973 2.31728E-03-3.79593E-04-1.47930E-15
 -1      2974 2.46357E-03-3.85999E-04-1.64045E-15
 -1      2975 2.24030E-03-3.36805E-04-1.34440E-15
 -1      2976 2.61034E-03-3.91740E-04-1.80987E-15
 -1      2977 2.75751E-03-3.96961E-04-1.98721E-15
 -1      2978 2.53537E-03-3.48236E-04-1.65628E-15
 -1      2979 2.90522E-03-4.01768E-04-2.17088E-15
 -1      2980 3.05332E-03-4.06241E-04-2.36218E-15
 -1      2981 2.83298E-03-3.57468E-04-1.99732E-15
 -1      2982 3.20192E-03-4.10370E-04-2.56198E-15
 -1      2983 3.35078E-03-4.14108E-04-2.76957E-15
 -1      2984 3.13336E-03-3.65525E-04-2.36771E-15
 -1      2985 3.49994E-03-4.17299E-04-2.98492E-15
 -1      2986 3.64906E-03-4.19682E-04-3.20768E-15
 -1      2987 3.43627E-03-3.72731E-04-2.76992E-15
 -1      2988 3.79809E-03-4.20909E-04-3.43950E-15
 -1      2989 3.94662E-03-4.20398E-04-3.67916E-15
 -1      2990 3.74071E-03-3.78217E-04-3.20244E-15
 -1      2991 4.09451E-03-4.17574E-04-3.92756E-15
 -1      2992 4.24139E-03-4.11496E-04-4.18455E-15
 -1      2993 4.04475E-03-3.79204E-04-3.66860E-15
 -1      2994 4.38708E-03-4.01373E-04-4.45046E-15
 -1      2995 4.53140E-03-3.85947E-04-4.72540E-15
 -1      2996 4.34579E-03-3.70323E-04-4.16865E-15
 -1      2997 4.67420E-03-3.64331E-04-5.00842E-15
 -1      2998 4.81572E-03-3.35243E-04-5.30026E-15
 -1      2999 4.64140E-03-3.43434E-04-4.70452E-15
 -1      3000 4.95588E-03-2.97919E-04-5.60285E-15
 -1      3001 5.09535E-03-2.51423E-04-5.91451E-15
 -1      3002 4.93066E-03-2.88771E-04-5.27561E-15
 -1      3003 5.23411E-03-1.95368E-04-6.23603E-15
 -1      3004 5.37313E-03-1.29609E-04-6.56857E-15
 -1      3005 5.21509E-03-1.97571E-04-5.88681E-15
 -1      3006 5.51242E-03-5.42864E-05-6.91123E-15
 -1      3007 5.65280E-03 3.00013E-05-7.26441E-15
 -1      3008 5.49842E-03-6.54146E-05-6.53812E-15
 -1      3009 5.79421E-03 1.22598E-04-7.62770E-15
 -1      3010 5.93713E-03 2.22341E-04-8.00031E-15
 -1      3011 5.78491E-03 1.05907E-04-7.23129E-15
 -1      3012 6.08139E-03 3.28343E-04-8.38419E-15
 -1      3013 6.22701E-03 4.39286E-04-8.77983E-15
 -1      3014 6.07716E-03 3.09192E-04-7.96622E-15
 -1      3015 6.37379E-03 5.54296E-04-9.18566E-15
 -1      3016 6.52144E-03 6.72255E-04-9.60011E-15
 -1      3017 6.37526E-03 5.34662E-04-8.74279E-15
 -1      3018 6.66979E-03 7.92452E-04-1.00262E-14
 -1      3019 6.81843E-03 9.14122E-04-1.04625E-14
 -1      3020 6.67729E-03 7.73108E-04-9.56132E-15
 -1      3021 6.96725E-03 1.03676E-03-1.09080E-14
 -1      3022 7.11590E-03 1.15994E-03-1.13643E-14
 -1      3023 6.98059E-03 1.01767E-03-1.04196E-14
 -1      3024 7.26435E-03 1.28333E-03-1.18325E-14
 -1      3025 7.41234E-03 1.40677E-03-1.23093E-14
 -1      3026 7.28286E-03 1.26416E-03-1.13197E-14
 -1      3027 7.55993E-03 1.53006E-03-1.27968E-14
 -1      3028 7.70694E-03 1.65316E-03-1.32950E-14
 -1      3029 7.58269E-03 1.51046E-03-1.22617E-14
 -1      3030 7.85349E-03 1.77597E-03-1.38031E-14
 -1      3031 7.99948E-03 1.89854E-03-1.43198E-14
 -1      3032 7.87954E-03 1.75576E-03-1.32436E-14
 -1      3033 8.14504E-03 2.02080E-03-1.48467E-14
 -1      3034 8.29012E-03 2.14282E-03-1.53853E-14
 -1      3035 8.17349E-03 1.99992E-03-1.42648E-14
 -1      3036 8.43485E-03 2.26458E-03-1.59347E-14
 -1      3037 8.57920E-03 2.38614E-03-1.64917E-14
 -1      3038 8.46498E-03 2.24309E-03-1.53290E-14
 -1      3039 8.72328E-03 2.50749E-03-1.70569E-14
 -1      3040 8.86710E-03 2.62868E-03-1.76318E-14
 -1      3041 8.75454E-03 2.48549E-03-1.64300E-14
 -1      3042 9.01072E-03 2.74971E-03-1.82137E-14
 -1      3043 9.15415E-03 2.87063E-03-1.88037E-14
 -1      3044 9.04269E-03 2.72734E-03-1.75661E-14
 -1      3045 9.29746E-03 2.99144E-03-1.94001E-14
 -1      3046 9.44065E-03 3.11217E-03-2.00043E-14
 -1      3047 9.32988E-03 2.96880E-03-1.87333E-14
 -1      3048 9.58375E-03 3.23282E-03-2.06153E-14
 -1      3049 9.72678E-03 3.35341E-03-2.12302E-14
 -1      3050 9.61642E-03 3.20999E-03-1.99282E-14
 -1      3051 9.86976E-03 3.47396E-03-2.18521E-14
 -1      3052 1.00127E-02 3.59446E-03-2.24791E-14
 -1      3053 9.90257E-03 3.45101E-03-2.11478E-14
 -1      3054 1.01556E-02 3.71494E-03-2.31115E-14
 -1      3055 1.02985E-02 3.83539E-03-2.37485E-14
 -1      3056 1.01885E-02 3.69192E-03-2.23903E-14
 -1      3057 1.04414E-02 3.95582E-03-2.43890E-14
 -1      3058 1.05842E-02 4.07624E-03-2.50324E-14
 -1      3059 1.04743E-02 3.93277E-03-2.36511E-14
 -1      3060 1.07271E-02 4.19665E-03-2.56757E-14
 -1      3061 1.08699E-02 4.31705E-03-2.63225E-14
 -1      3062 1.07600E-02 4.17357E-03-2.49250E-14
 -1      3063 1.10128E-02 4.43745E-03-2.69713E-14
 -1      3064 1.11556E-02 4.55785E-03-2.76208E-14
 -1      3065 1.10457E-02 4.41436E-03-2.62056E-14
 -1      3066 1.12985E-02 4.67824E-03-2.82730E-14
 -1      3067 1.14413E-02 4.79863E-03-2.89280E-14
 -1      3068 1.13314E-02 4.65514E-03-2.74916E-14
 -1      3069 1.15842E-02 4.91902E-03-2.95843E-14
 -1      3070 1.17270E-02 5.03941E-03-3.02440E-14
 -1      3071 1.16170E-02 4.89592E-03-2.87899E-14
 -1      3072 1.18698E-02 5.15981E-03-3.09059E-14
 -1      3073 1.20127E-02 5.28020E-03-3.15682E-14
 -1      3074 1.19027E-02 5.13671E-03-3.00957E-14
 -1      3075 1.21555E-02 5.40060E-03-3.22329E-14
 -1      3076 1.22984E-02 5.52100E-03-3.28971E-14
 -1      3077 1.21884E-02 5.37750E-03-3.14110E-14
 -1      3078 1.24412E-02 5.64140E-03-3.35631E-14
 -1      3079 1.25841E-02 5.76180E-03-3.42273E-14
 -1      3080 1.24741E-02 5.61830E-03-3.27277E-14
 -1      3081 1.27270E-02 5.88220E-03-3.48923E-14
 -1      3082 1.28698E-02 6.00261E-03-3.55542E-14
 -1      3083 1.27598E-02 5.85911E-03-3.40440E-14
 -1      3084 1.30127E-02 6.12301E-03-3.62177E-14
 -1      3085 1.31555E-02 6.24342E-03-3.68813E-14
 -1      3086 1.30455E-02 6.09992E-03-3.53582E-14
 -1      3087 1.32621E-02 6.32392E-03-3.71869E-14
 -1      3088 1.34081E-02 6.42955E-03-3.75090E-14
 -1      3089 1.35080E-02 6.46184E-03-3.69135E-14
 -1      3090 1.32949E-02 6.30083E-03-3.63143E-14
 -1      3091 2.65725E-03 3.87379E-04-2.69289E-16
 -1      3092 2.53345E-03 3.81284E-04-2.21557E-16
 -1      3093 3.31940E-03 4.78340E-04-6.72382E-16
 -1      3094 3.22945E-03 4.53260E-04-5.91581E-16
 -1      3095 3.43466E-03 5.32991E-04-7.98908E-16
 -1      3096 3.37833E-03 5.02639E-04-7.19788E-16
 -1      3097 3.33580E-03 4.81255E-04-8.01510E-16
 -1      3098 3.44373E-03 5.38646E-04-9.07884E-16
 -1      3099 1.03383E-02 2.75906E-03-7.54010E-15
 -1      3100 1.02031E-02 2.63899E-03-7.14854E-15
 -1      3101 1.42196E-02 6.69081E-03-3.26496E-14
 -1      3102 1.43380E-02 6.73295E-03-3.20170E-14
 -1      3103 1.44564E-02 6.77509E-03-3.13798E-14
 -1      3104 1.45748E-02 6.81723E-03-3.07419E-14
 -1      3105 1.42734E-02 6.64974E-03-3.11874E-14
 -1      3106 1.00706E-02 2.51995E-03-6.76896E-15
 -1      3107 9.94099E-03 2.40172E-03-6.40045E-15
 -1      3108 1.00394E-02 2.55149E-03-7.29818E-15
 -1      3109 2.40024E-03 3.75004E-04-1.75952E-16
 -1      3110 2.26457E-03 3.68955E-04-1.35227E-16
 -1      3111 2.45366E-03 3.49564E-04-2.75591E-16
 -1      3112 1.06136E-02 3.00028E-03-8.35662E-15
 -1      3113 1.04752E-02 2.87945E-03-7.94165E-15
 -1      3114 1.03071E-02 2.78799E-03-8.09383E-15
 -1      3115 1.08936E-02 3.24225E-03-9.21889E-15
 -1      3116 1.07531E-02 3.12120E-03-8.78255E-15
 -1      3117 1.05822E-02 3.02729E-03-8.93412E-15
 -1      3118 1.11761E-02 3.48433E-03-1.01242E-14
 -1      3119 1.10346E-02 3.36328E-03-9.66684E-15
 -1      3120 1.08618E-02 3.26791E-03-9.82004E-15
 -1      3121 1.14601E-02 3.72626E-03-1.10589E-14
 -1      3122 1.13180E-02 3.60531E-03-1.05861E-14
 -1      3123 1.11440E-02 3.50907E-03-1.07448E-14
 -1      3124 1.17450E-02 3.96797E-03-1.20210E-14
 -1      3125 1.16025E-02 3.84714E-03-1.15377E-14
 -1      3126 1.14278E-02 3.75040E-03-1.17004E-14
 -1      3127 1.20303E-02 4.20948E-03-1.29939E-14
 -1      3128 1.18876E-02 4.08875E-03-1.25074E-14
 -1      3129 1.17125E-02 3.99173E-03-1.26778E-14
 -1      3130 1.23159E-02 4.45082E-03-1.39739E-14
 -1      3131 1.21731E-02 4.33017E-03-1.34831E-14
 -1      3132 1.19977E-02 4.23300E-03-1.36644E-14
 -1      3133 1.26016E-02 4.69203E-03-1.49610E-14
 -1      3134 1.24587E-02 4.57144E-03-1.44678E-14
 -1      3135 1.22832E-02 4.47418E-03-1.46578E-14
 -1      3136 1.28730E-02 4.92109E-03-1.59050E-14
 -1      3137 1.27373E-02 4.80657E-03-1.54325E-14
 -1      3138 1.25617E-02 4.70927E-03-1.56339E-14
 -1      3139 1.31587E-02 5.16213E-03-1.69106E-14
 -1      3140 1.30159E-02 5.04161E-03-1.64044E-14
 -1      3141 1.28402E-02 4.94429E-03-1.66170E-14
 -1      3142 1.34445E-02 5.40311E-03-1.79414E-14
 -1      3143 1.33016E-02 5.28262E-03-1.74241E-14
 -1      3144 1.31259E-02 5.18529E-03-1.76442E-14
 -1      3145 1.37302E-02 5.64406E-03-1.89803E-14
 -1      3146 1.35874E-02 5.52359E-03-1.84574E-14
 -1      3147 1.34117E-02 5.42625E-03-1.86868E-14
 -1      3148 1.40160E-02 5.88498E-03-2.00292E-14
 -1      3149 1.38731E-02 5.76452E-03-1.95045E-14
 -1      3150 1.36974E-02 5.66718E-03-1.97457E-14
 -1      3151 1.43017E-02 6.12587E-03-2.10791E-14
 -1      3152 1.41588E-02 6.00543E-03-2.05538E-14
 -1      3153 1.39831E-02 5.90809E-03-2.08098E-14
 -1      3154 1.45874E-02 6.36675E-03-2.21208E-14
 -1      3155 1.44446E-02 6.24631E-03-2.16016E-14
 -1      3156 1.42688E-02 6.14898E-03-2.18701E-14
 -1      3157 1.48731E-02 6.60762E-03-2.31689E-14
 -1      3158 1.47303E-02 6.48719E-03-2.26460E-14
 -1      3159 1.45546E-02 6.38986E-03-2.29283E-14
 -1      3160 1.51589E-02 6.84848E-03-2.42172E-14
 -1      3161 1.50160E-02 6.72805E-03-2.36938E-14
 -1      3162 1.48403E-02 6.63073E-03-2.39895E-14
 -1      3163 1.54230E-02 7.07998E-03-2.53503E-14
 -1      3164 1.52801E-02 6.95955E-03-2.48291E-14
 -1      3165 1.51044E-02 6.86223E-03-2.51366E-14
 -1      3166 1.53469E-02 7.08436E-03-2.63707E-14
 -1      3167 4.40028E-03 2.61456E-04-2.28272E-15
 -1      3168 4.21537E-03 3.34538E-04-2.06593E-15
 -1      3169 1.51101E-02 7.00008E-03-2.76801E-14
 -1      3170 1.52285E-02 7.04222E-03-2.70257E-14
 -1      3171 1.51072E-02 6.93115E-03-2.64028E-14
 -1      3172 4.02744E-03 4.13601E-04-1.83303E-15
 -1      3173 3.88308E-03 4.64573E-04-1.65906E-15
 -1      3174 5.21910E-03-4.47318E-05-3.40578E-15
 -1      3175 5.06151E-03 9.05426E-07-3.16000E-15
 -1      3176 1.46932E-02 6.85937E-03-3.01024E-14
 -1      3177 1.48116E-02 6.90151E-03-2.94608E-14
 -1      3178 1.45103E-02 6.73401E-03-2.99258E-14
 -1      3179 1.39867E-02 6.60797E-03-3.38932E-14
 -1      3180 1.41031E-02 6.64939E-03-3.32726E-14
 -1      3181 1.40386E-02 6.56618E-03-3.24320E-14
 -1      3182 1.37499E-02 6.52369E-03-3.51539E-14
 -1      3183 1.38683E-02 6.56583E-03-3.45237E-14
 -1      3184 1.38038E-02 6.48262E-03-3.36722E-14
 -1      3185 9.05145E-03 1.66359E-03-4.54512E-15
 -1      3186 8.87055E-03 1.62889E-03-4.74422E-15
 -1      3187 1.85143E-03 3.46165E-04-4.28260E-17
 -1      3188 1.71043E-03 3.35876E-04-2.03152E-17
 -1      3189 6.75873E-03 6.27824E-04-5.32673E-15
 -1      3190 6.55996E-03 4.87248E-04-5.23926E-15
 -1      3191 7.70310E-04-2.02352E-04-2.42590E-16
 -1      3192 2.12880E-03 3.62313E-04-9.99092E-17
 -1      3193 1.98978E-03 3.54862E-04-6.90637E-17
 -1      3194 1.91030E-03 3.18534E-04-1.11388E-16
 -1      3195 2.18446E-03 3.34694E-04-1.83474E-16
 -1      3196 9.43324E-03 1.87716E-03-4.64713E-15
 -1      3197 9.36030E-03 1.78051E-03-4.28283E-15
 -1      3198 9.29935E-03 1.75430E-03-4.36547E-15
 -1      3199 1.49016E-02 6.92972E-03-2.88955E-14
 -1      3200 1.50200E-02 6.97186E-03-2.82478E-14
 -1      3201 1.48988E-02 6.86080E-03-2.76131E-14
 -1      3202 1.47187E-02 6.80436E-03-2.87333E-14
 -1      3203 5.83148E-03 2.06661E-05-4.42731E-15
 -1      3204 5.69735E-03-3.31087E-05-4.14848E-15
 -1      3205 5.58570E-03-5.61734E-05-4.19502E-15
 -1      3206 9.64264E-03 2.09131E-03-5.29352E-15
 -1      3207 9.53346E-03 1.98136E-03-4.96639E-15
 -1      3208 9.45922E-03 1.94651E-03-5.04970E-15
 -1      3209 9.84896E-03 2.30305E-03-6.00838E-15
 -1      3210 9.72739E-03 2.18770E-03-5.66147E-15
 -1      3211 9.64478E-03 2.14629E-03-5.74805E-15
 -1      3212 9.81816E-03 2.33800E-03-6.51615E-15
 -1      3213 3.12854E-03 4.32080E-04-5.16514E-16
 -1      3214 3.01944E-03 4.16974E-04-4.46434E-16
 -1      3215 3.17297E-03 4.30438E-04-6.66798E-16
 -1      3216 2.90442E-03 4.04480E-04-3.82994E-16
 -1      3217 2.78242E-03 3.95376E-04-3.23241E-16
 -1      3218 2.71234E-03 3.67028E-04-3.86626E-16
 -1      3219 2.95357E-03 3.91813E-04-5.16324E-16
 -1      3220 1.01377E-03 7.06493E-05-1.37639E-16
 -1      3221 1.01306E-03 4.41958E-05-1.61655E-16
 -1      3222 8.88427E-04-2.11613E-04-2.96773E-16
 -1      3223 1.01300E-03 1.77500E-05-1.85073E-16
 -1      3224 1.01354E-03-8.80159E-06-2.08262E-16
 -1      3225 1.13304E-03 3.42881E-05-2.12070E-16
 -1      3226 3.51252E-03 4.97148E-04-1.17954E-15
 -1      3227 3.50270E-03 5.31888E-04-1.11040E-15
 -1      3228 6.89684E-03 7.38470E-04-5.60097E-15
 -1      3229 7.41830E-03 1.06358E-03-5.60118E-15
 -1      3230 4.54473E-03 1.28933E-04-2.59936E-15
 -1      3231 4.48034E-03 1.94675E-04-2.43990E-15
 -1      3232 4.32257E-03 2.01206E-04-2.33132E-15
 -1      3233 3.46223E-03 5.35460E-04-1.00068E-15
 -1      3234 1.60424E-03 3.30710E-04-4.47233E-19
 -1      3235 1.49773E-03 3.24285E-04 1.58158E-17
 -1      3236 1.66561E-03 3.04600E-04-5.63785E-17
 -1      3237 3.74621E-03 4.59364E-04-1.52230E-15
 -1      3238 5.92109E-03 7.45662E-05-4.70770E-15
 -1      3239 5.80425E-03 2.97150E-05-4.75145E-15
 -1      3240 6.00761E-03 1.37438E-04-4.99687E-15
 -1      3241 4.07457E-03 3.45458E-04-1.94579E-15
 -1      3242 4.90392E-03 2.44200E-05-3.02982E-15
 -1      3243 8.82438E-03 1.66192E-03-5.10864E-15
 -1      3244 8.70054E-03 1.59200E-03-4.92481E-15
 -1      3245 9.13730E-03 1.68803E-03-4.46819E-15
 -1      3246 9.07584E-03 1.72270E-03-4.84954E-15
 -1      3247 9.21177E-03 1.70992E-03-4.38987E-15
 -1      3248 1.35790E-02 6.47662E-03-3.63289E-14
 -1      3249 1.36789E-02 6.50891E-03-3.57386E-14
 -1      3250 1.36144E-02 6.42570E-03-3.48743E-14
 -1      3251 1.34725E-02 6.39612E-03-3.60336E-14
 -1      3252 1.01525E-03 9.71951E-05-1.13421E-16
 -1      3253 1.13447E-03 9.15136E-05-1.56044E-16
 -1      3254 1.01756E-03 1.24096E-04-8.86877E-17
 -1      3255 6.49631E-03 4.73296E-04-5.59723E-15
 -1      3256 6.39149E-03 3.80721E-04-5.25990E-15
 -1      3257 6.23941E-03 2.86382E-04-5.27746E-15
 -1      3258 5.26669E-03-7.23262E-05-3.63812E-15
 -1      3259 1.00044E-03-2.33097E-04-3.59847E-16
 -1      3260 1.01839E-03-9.02463E-05-2.75428E-16
 -1      3261 1.02110E-03-1.18444E-04-2.97681E-16
 -1      3262 8.29247E-03 1.46005E-03-5.13593E-15
 -1      3263 8.08723E-03 1.38139E-03-5.23506E-15
 -1      3264 7.96165E-03 1.34984E-03-5.54306E-15
 -1      3265 1.02451E-03-1.47409E-04-3.19650E-16
 -1      3266 1.02868E-03-1.77226E-04-3.41226E-16
 -1      3267 1.14446E-03-1.43550E-04-3.71393E-16
 -1      3268 1.02528E-03 1.79854E-04-3.74050E-17
 -1      3269 1.02088E-03 1.51584E-04-6.35071E-17
 -1      3270 1.13955E-03 1.49504E-04-9.79848E-17
 -1      3271 8.52270E-03 1.54035E-03-5.02810E-15
 -1      3272 1.06557E-03-2.15425E-04-3.82452E-16
 -1      3273 1.15046E-03 2.25222E-04-2.13317E-17
 -1      3274 3.51615E-03 4.59338E-04-1.24285E-15
 -1      3275 3.42912E-03 4.65815E-04-1.09725E-15
 -1      3276 1.01463E-03-3.55734E-05-2.31016E-16
 -1      3277 1.01624E-03-6.26496E-05-2.53500E-16
 -1      3278 1.13825E-03-8.23579E-05-3.19582E-16
 -1      3279 1.27764E-03 2.65238E-04-7.08797E-18
 -1      3280 1.26857E-03 2.16000E-04-6.14472E-17
 -1      3281 9.41792E-03 1.98685E-03-5.52404E-15
 -1      3282 9.31790E-03 1.88709E-03-5.19384E-15
 -1      3283 7.05557E-03 8.66138E-04-5.97901E-15
 -1      3284 6.82411E-03 7.12155E-04-5.95315E-15
 -1      3285 1.02740E-02 2.81608E-03-8.65276E-15
 -1      3286 1.01384E-02 2.69824E-03-8.23822E-15
 -1      3287 1.57794E-03-2.60289E-04-7.17782E-16
 -1      3288 1.72317E-03-2.70946E-04-8.31217E-16
 -1      3289 1.86903E-03-2.80036E-04-9.52173E-16
 -1      3290 2.01553E-03-2.87750E-04-1.08048E-15
 -1      3291 1.79087E-03-2.39277E-04-8.48578E-16
 -1      3292 2.16269E-03-2.94304E-04-1.21593E-15
 -1      3293 2.31051E-03-2.99897E-04-1.35875E-15
 -1      3294 2.08469E-03-2.52433E-04-1.09422E-15
 -1      3295 2.45909E-03-3.04713E-04-1.50886E-15
 -1      3296 2.60844E-03-3.08956E-04-1.66665E-15
 -1      3297 2.38175E-03-2.61569E-04-1.36878E-15
 -1      3298 2.75870E-03-3.12761E-04-1.83088E-15
 -1      3299 2.90981E-03-3.16326E-04-2.00207E-15
 -1      3300 2.68256E-03-2.68129E-04-1.67123E-15
 -1      3301 3.06195E-03-3.19723E-04-2.18118E-15
 -1      3302 3.21496E-03-3.23098E-04-2.36803E-15
 -1      3303 2.98779E-03-2.73526E-04-2.00225E-15
 -1      3304 3.36896E-03-3.26437E-04-2.56240E-15
 -1      3305 3.52364E-03-3.29739E-04-2.76402E-15
 -1      3306 3.29791E-03-2.79013E-04-2.36250E-15
 -1      3307 3.67905E-03-3.32854E-04-2.97306E-15
 -1      3308 3.83467E-03-3.35479E-04-3.19093E-15
 -1      3309 3.61270E-03-2.85321E-04-2.75206E-15
 -1      3310 3.99040E-03-3.37248E-04-3.41755E-15
 -1      3311 4.14561E-03-3.37342E-04-3.65139E-15
 -1      3312 3.93069E-03-2.91868E-04-3.17346E-15
 -1      3313 4.30005E-03-3.35098E-04-3.89504E-15
 -1      3314 4.45320E-03-3.29158E-04-4.14729E-15
 -1      3315 4.24884E-03-2.95383E-04-3.62935E-15
 -1      3316 4.60473E-03-3.18551E-04-4.40674E-15
 -1      3317 4.75447E-03-3.01389E-04-4.67690E-15
 -1      3318 4.56309E-03-2.88695E-04-4.11844E-15
 -1      3319 4.90222E-03-2.76642E-04-4.95597E-15
 -1      3320 5.04850E-03-2.42549E-04-5.24477E-15
 -1      3321 4.86989E-03-2.60198E-04-4.64375E-15
 -1      3322 5.19327E-03-1.98340E-04-5.54385E-15
 -1      3323 5.33767E-03-1.43029E-04-5.85289E-15
 -1      3324 5.16858E-03-1.96394E-04-5.20790E-15
 -1      3325 5.48158E-03-7.63898E-05-6.17255E-15
 -1      3326 5.62663E-03 1.05178E-06-6.50262E-15
 -1      3327 5.46265E-03-8.67717E-05-5.81346E-15
 -1      3328 5.77267E-03 8.87351E-05-6.84182E-15
 -1      3329 5.92051E-03 1.85319E-04-7.19266E-15
 -1      3330 5.75822E-03 7.10341E-05-6.46008E-15
 -1      3331 6.07002E-03 2.89741E-04-7.55347E-15
 -1      3332 6.22131E-03 4.00087E-04-7.92472E-15
 -1      3333 6.06058E-03 2.69436E-04-7.14789E-15
 -1      3334 6.37409E-03 5.15322E-04-8.30838E-15
 -1      3335 6.52795E-03 6.33791E-04-8.70159E-15
 -1      3336 6.37068E-03 4.95652E-04-7.88021E-15
 -1      3337 6.68262E-03 7.54684E-04-9.10337E-15
 -1      3338 6.83745E-03 8.76901E-04-9.51646E-15
 -1      3339 6.68602E-03 7.36721E-04-8.65344E-15
 -1      3340 6.99228E-03 9.99910E-04-9.93990E-15
 -1      3341 7.14655E-03 1.12319E-03-1.03718E-14
 -1      3342 7.00252E-03 9.83249E-04-9.46578E-15
 -1      3343 7.30021E-03 1.24645E-03-1.08157E-14
 -1      3344 7.45289E-03 1.36951E-03-1.12701E-14
 -1      3345 7.31657E-03 1.23013E-03-1.03198E-14
 -1      3346 7.60467E-03 1.49224E-03-1.17351E-14
 -1      3347 7.75535E-03 1.61467E-03-1.22088E-14
 -1      3348 7.62603E-03 1.47544E-03-1.12147E-14
 -1      3349 7.90507E-03 1.73671E-03-1.26920E-14
 -1      3350 8.05376E-03 1.85849E-03-1.31869E-14
 -1      3351 7.93024E-03 1.71893E-03-1.21496E-14
 -1      3352 8.20160E-03 1.97997E-03-1.36918E-14
 -1      3353 8.34859E-03 2.10124E-03-1.42060E-14
 -1      3354 8.22951E-03 1.96103E-03-1.31254E-14
 -1      3355 8.49489E-03 2.22229E-03-1.47308E-14
 -1      3356 8.64052E-03 2.34322E-03-1.52673E-14
 -1      3357 8.52468E-03 2.20227E-03-1.41427E-14
 -1      3358 8.78564E-03 2.46400E-03-1.58115E-14
 -1      3359 8.93029E-03 2.58470E-03-1.63632E-14
 -1      3360 8.81668E-03 2.44306E-03-1.51998E-14
 -1      3361 9.07457E-03 2.70530E-03-1.69260E-14
 -1      3362 9.21852E-03 2.82587E-03-1.74966E-14
 -1      3363 9.10640E-03 2.68365E-03-1.62941E-14
 -1      3364 9.36223E-03 2.94637E-03-1.80734E-14
 -1      3365 9.50572E-03 3.06685E-03-1.86586E-14
 -1      3366 9.39455E-03 2.92420E-03-1.74226E-14
 -1      3367 9.64905E-03 3.18730E-03-1.92497E-14
 -1      3368 9.79225E-03 3.30773E-03-1.98484E-14
 -1      3369 9.68166E-03 3.16477E-03-1.85793E-14
 -1      3370 9.93536E-03 3.42815E-03-2.04528E-14
 -1      3371 1.00784E-02 3.54855E-03-2.10615E-14
 -1      3372 9.96813E-03 3.40538E-03-1.97641E-14
 -1      3373 1.02213E-02 3.66895E-03-2.16755E-14
 -1      3374 1.03643E-02 3.78934E-03-2.22960E-14
 -1      3375 1.02542E-02 3.64604E-03-2.09702E-14
 -1      3376 1.05072E-02 3.90973E-03-2.29196E-14
 -1      3377 1.06500E-02 4.03012E-03-2.35479E-14
 -1      3378 1.05401E-02 3.88673E-03-2.21951E-14
 -1      3379 1.07929E-02 4.15050E-03-2.41785E-14
 -1      3380 1.09357E-02 4.27089E-03-2.48101E-14
 -1      3381 1.08258E-02 4.12745E-03-2.34381E-14
 -1      3382 1.10786E-02 4.39127E-03-2.54463E-14
 -1      3383 1.12214E-02 4.51166E-03-2.60825E-14
 -1      3384 1.11115E-02 4.36819E-03-2.46912E-14
 -1      3385 1.13642E-02 4.63205E-03-2.67172E-14
 -1      3386 1.15071E-02 4.75243E-03-2.73573E-14
 -1      3387 1.13971E-02 4.60895E-03-2.59502E-14
 -1      3388 1.16499E-02 4.87282E-03-2.80008E-14
 -1      3389 1.17928E-02 4.99322E-03-2.86471E-14
 -1      3390 1.16828E-02 4.84972E-03-2.72169E-14
 -1      3391 1.19356E-02 5.11361E-03-2.92947E-14
 -1      3392 1.20784E-02 5.23401E-03-2.99438E-14
 -1      3393 1.19685E-02 5.09051E-03-2.84984E-14
 -1      3394 1.22213E-02 5.35440E-03-3.05950E-14
 -1      3395 1.23641E-02 5.47480E-03-3.12474E-14
 -1      3396 1.22541E-02 5.33130E-03-2.97858E-14
 -1      3397 1.25070E-02 5.59521E-03-3.18987E-14
 -1      3398 1.26498E-02 5.71561E-03-3.25491E-14
 -1      3399 1.25398E-02 5.57210E-03-3.10746E-14
 -1      3400 1.27927E-02 5.83601E-03-3.32017E-14
 -1      3401 1.29355E-02 5.95642E-03-3.38532E-14
 -1      3402 1.28255E-02 5.81291E-03-3.23651E-14
 -1      3403 1.05496E-02 3.05378E-03-9.51824E-15
 -1      3404 1.04111E-02 2.93459E-03-9.08030E-15
 -1      3405 1.02395E-02 2.84301E-03-9.22008E-15
 -1      3406 1.36209E-02 6.35728E-03-3.34405E-14
 -1      3407 1.37393E-02 6.39941E-03-3.28244E-14
 -1      3408 1.40905E-02 6.52439E-03-3.09876E-14
 -1      3409 1.42089E-02 6.56652E-03-3.03664E-14
 -1      3410 1.38567E-02 6.44119E-03-3.22127E-14
 -1      3411 1.39731E-02 6.48261E-03-3.16027E-14
 -1      3412 1.39086E-02 6.39939E-03-3.07750E-14
 -1      3413 1.36738E-02 6.31584E-03-3.19907E-14
 -1      3414 1.00049E-02 2.58168E-03-7.83545E-15
 -1      3415 9.87395E-03 2.46632E-03-7.44293E-15
 -1      3416 9.96847E-03 2.61007E-03-8.37778E-15
 -1      3417 2.51337E-03 3.25526E-04-3.82696E-16
 -1      3418 2.37971E-03 3.16513E-04-3.25599E-16
 -1      3419 1.08293E-02 3.29326E-03-1.04275E-14
 -1      3420 1.06890E-02 3.17334E-03-9.96740E-15
 -1      3421 1.05161E-02 3.07955E-03-1.01087E-14
 -1      3422 1.11115E-02 3.53364E-03-1.13729E-14
 -1      3423 1.09702E-02 3.41336E-03-1.08981E-14
 -1      3424 1.07963E-02 3.31816E-03-1.10405E-14
 -1      3425 1.13953E-02 3.77444E-03-1.23464E-14
 -1      3426 1.12533E-02 3.65400E-03-1.18557E-14
 -1      3427 1.10787E-02 3.55793E-03-1.20062E-14
 -1      3428 1.16799E-02 4.01543E-03-1.33380E-14
 -1      3429 1.15375E-02 3.89492E-03-1.28393E-14
 -1      3430 1.13625E-02 3.79832E-03-1.29954E-14
 -1      3431 1.19650E-02 4.25647E-03-1.43373E-14
 -1      3432 1.18224E-02 4.13594E-03-1.38380E-14
 -1      3433 1.16472E-02 4.03903E-03-1.40009E-14
 -1      3434 1.22505E-02 4.49752E-03-1.53448E-14
 -1      3435 1.21077E-02 4.37700E-03-1.48403E-14
 -1      3436 1.19323E-02 4.27989E-03-1.50155E-14
 -1      3437 1.25218E-02 4.72649E-03-1.63106E-14
 -1      3438 1.23861E-02 4.61201E-03-1.58262E-14
 -1      3439 1.22106E-02 4.51480E-03-1.60101E-14
 -1      3440 1.28074E-02 4.96749E-03-1.73347E-14
 -1      3441 1.26646E-02 4.84699E-03-1.68221E-14
 -1      3442 1.24890E-02 4.74973E-03-1.70155E-14
 -1      3443 1.30931E-02 5.20845E-03-1.83813E-14
 -1      3444 1.29503E-02 5.08797E-03-1.78544E-14
 -1      3445 1.27746E-02 4.99067E-03-1.80599E-14
 -1      3446 1.33788E-02 5.44939E-03-1.94429E-14
 -1      3447 1.32360E-02 5.32893E-03-1.89125E-14
 -1      3448 1.30603E-02 5.23161E-03-1.91248E-14
 -1      3449 1.36645E-02 5.69031E-03-2.05189E-14
 -1      3450 1.35217E-02 5.56985E-03-1.99786E-14
 -1      3451 1.33460E-02 5.47253E-03-2.02049E-14
 -1      3452 1.39503E-02 5.93121E-03-2.15941E-14
 -1      3453 1.38074E-02 5.81076E-03-2.10573E-14
 -1      3454 1.36317E-02 5.71343E-03-2.12938E-14
 -1      3455 1.42360E-02 6.17209E-03-2.26680E-14
 -1      3456 1.40931E-02 6.05165E-03-2.21332E-14
 -1      3457 1.39174E-02 5.95432E-03-2.23842E-14
 -1      3458 1.45217E-02 6.41297E-03-2.37420E-14
 -1      3459 1.43789E-02 6.29253E-03-2.32063E-14
 -1      3460 1.42031E-02 6.19520E-03-2.34719E-14
 -1      3461 1.48074E-02 6.65383E-03-2.48153E-14
 -1      3462 1.46646E-02 6.53340E-03-2.42786E-14
 -1      3463 1.44889E-02 6.43607E-03-2.45576E-14
 -1      3464 1.50180E-02 6.84803E-03-2.59199E-14
 -1      3465 1.48967E-02 6.73696E-03-2.52955E-14
 -1      3466 1.47210E-02 6.63963E-03-2.55857E-14
 -1      3467 1.48996E-02 6.80589E-03-2.65606E-14
 -1      3468 3.40907E-03 5.04240E-04-9.43229E-16
 -1      3469 7.56585E-03 1.17376E-03-5.95049E-15
 -1      3470 7.30366E-03 1.02024E-03-5.96617E-15
 -1      3471 7.21056E-03 9.82282E-04-6.33381E-15
 -1      3472 8.94372E-03 1.74255E-03-5.36311E-15
 -1      3473 8.78731E-03 1.70472E-03-5.54669E-15
 -1      3474 5.57289E-03-5.65474E-05-4.45870E-15
 -1      3475 5.44448E-03-8.53344E-05-4.18437E-15
 -1      3476 1.43274E-02 6.60866E-03-2.97406E-14
 -1      3477 1.44458E-02 6.65079E-03-2.91135E-14
 -1      3478 1.41444E-02 6.48331E-03-2.95473E-14
 -1      3479 8.44273E-03 1.54947E-03-5.39801E-15
 -1      3480 3.77372E-03 3.98236E-04-1.61637E-15
 -1      3481 3.63640E-03 4.35846E-04-1.42543E-15
 -1      3482 3.53107E-03 4.10202E-04-1.33286E-15
 -1      3483 1.29837E-03 3.11726E-04 4.20670E-17
 -1      3484 4.87835E-03-3.19885E-05-3.21566E-15
 -1      3485 4.70615E-03 4.15038E-05-2.89477E-15
 -1      3486 9.26656E-03 1.79638E-03-4.75242E-15
 -1      3487 5.27266E-03-9.69196E-05-3.88281E-15
 -1      3488 5.09357E-03-8.39156E-05-3.59792E-15
 -1      3489 5.27090E-03-1.14562E-04-4.13028E-15
 -1      3490 3.23225E-03 4.28218E-04-8.25911E-16
 -1      3491 3.12422E-03 4.02013E-04-7.38193E-16
 -1      3492 8.09106E-03 1.43858E-03-5.85495E-15
 -1      3493 7.84230E-03 1.31880E-03-5.88966E-15
 -1      3494 4.06904E-03 2.78360E-04-2.02755E-15
 -1      3495 3.90782E-03 3.47582E-04-1.80323E-15
 -1      3496 1.18557E-03-2.14645E-04-4.43710E-16
 -1      3497 8.59566E-03 1.63973E-03-5.65813E-15
 -1      3498 8.38729E-03 1.56443E-03-5.76542E-15
 -1      3499 8.73907E-03 1.72759E-03-5.92447E-15
 -1      3500 1.25912E-03-7.15988E-05-3.64577E-16
 -1      3501 1.26189E-03-1.03743E-04-3.94880E-16
 -1      3502 1.13446E-03-2.33912E-05-2.66632E-16
 -1      3503 9.20792E-03 1.83489E-03-5.21093E-15
 -1      3504 6.80620E-03 7.21277E-04-6.35296E-15
 -1      3505 6.65178E-03 5.98946E-04-5.96784E-15
 -1      3506 6.49277E-03 4.93172E-04-5.98088E-15
 -1      3507 1.25636E-03 1.14087E-04-1.73161E-16
 -1      3508 1.25481E-03 8.35346E-05-2.06161E-16
 -1      3509 2.30894E-03 2.81985E-04-3.71393E-16
 -1      3510 2.24552E-03 3.08027E-04-2.74466E-16
 -1      3511 2.10963E-03 2.99857E-04-2.28075E-16
 -1      3512 4.54571E-03 5.43562E-05-2.77008E-15
 -1      3513 1.30784E-02 6.07683E-03-3.45045E-14
 -1      3514 1.32212E-02 6.19723E-03-3.51540E-14
 -1      3515 1.33659E-02 6.31562E-03-3.57378E-14
 -1      3516 1.34698E-02 6.30731E-03-3.43019E-14
 -1      3517 1.34052E-02 6.22410E-03-3.34468E-14
 -1      3518 2.76903E-03 3.47993E-04-5.08979E-16
 -1      3519 2.64287E-03 3.36071E-04-4.43073E-16
 -1      3520 2.57511E-03 3.02548E-04-4.94735E-16
 -1      3521 3.34878E-03 4.76600E-04-8.87609E-16
 -1      3522 1.69405E-03 2.74176E-04-1.13231E-16
 -1      3523 1.58776E-03 2.69368E-04-8.57333E-17
 -1      3524 3.32319E-03 4.42779E-04-9.64113E-16
 -1      3525 1.31112E-02 6.05373E-03-3.36545E-14
 -1      3526 1.33988E-02 6.29252E-03-3.48759E-14
 -1      3527 3.30643E-03 4.11626E-04-1.02265E-15
 -1      3528 1.47195E-02 6.74945E-03-2.76782E-14
 -1      3529 1.48095E-02 6.77767E-03-2.71219E-14
 -1      3530 1.47202E-02 6.69454E-03-2.66279E-14
 -1      3531 5.65900E-03-2.45027E-05-4.73466E-15
 -1      3532 5.51923E-03-6.96891E-05-4.71331E-15
 -1      3533 5.74156E-03 1.76552E-05-5.01727E-15
 -1      3534 7.71405E-03 1.27456E-03-6.26873E-15
 -1      3535 6.10827E-03 2.13321E-04-5.32030E-15
 -1      3536 5.98634E-03 1.49400E-04-5.35975E-15
 -1      3537 6.20802E-03 2.93697E-04-5.65247E-15
 -1      3538 4.90260E-03-8.02589E-05-3.43841E-15
 -1      3539 9.57308E-03 2.16677E-03-6.26945E-15
 -1      3540 9.49289E-03 2.07534E-03-5.89336E-15
 -1      3541 9.33312E-03 2.00767E-03-6.03181E-15
 -1      3542 3.07875E-03 3.68715E-04-8.05738E-16
 -1      3543 3.01098E-03 3.80072E-04-6.57270E-16
 -1      3544 2.89321E-03 3.62716E-04-5.81458E-16
 -1      3545 4.14248E-03 2.19962E-04-2.17086E-15
 -1      3546 3.96923E-03 2.28393E-04-2.01774E-15
 -1      3547 4.20605E-03 1.60058E-04-2.31708E-15
 -1      3548 3.77551E-03 3.34874E-04-1.69469E-15
 -1      3549 8.26960E-03 1.54279E-03-6.12439E-15
 -1      3550 1.37623E-03 7.33668E-05-2.64993E-16
 -1      3551 1.25418E-03 5.29019E-05-2.38890E-16
 -1      3552 1.25439E-03 2.21710E-05-2.70915E-16
 -1      3553 9.70582E-03 2.38320E-03-7.58137E-15
 -1      3554 9.74612E-03 2.35321E-03-7.06153E-15
 -1      3555 9.65777E-03 2.25907E-03-6.65987E-15
 -1      3556 1.45376E-02 6.68602E-03-2.86765E-14
 -1      3557 1.46276E-02 6.71423E-03-2.81216E-14
 -1      3558 1.45384E-02 6.63111E-03-2.76219E-14
 -1      3559 1.43547E-02 6.56066E-03-2.84940E-14
 -1      3560 1.97239E-03 2.91293E-04-1.86049E-16
 -1      3561 1.83411E-03 2.82207E-04-1.49091E-16
 -1      3562 2.03616E-03 2.64246E-04-2.67134E-16
 -1      3563 1.28972E-03-2.33424E-04-5.14711E-16
 -1      3564 1.43345E-03-2.47838E-04-6.12317E-16
 -1      3565 1.25205E-03-1.92158E-04-4.62941E-16
 -1      3566 1.41462E-03 3.00518E-04 3.52366E-18
 -1      3567 1.26286E-03 1.76046E-04-1.05845E-16
 -1      3568 1.25901E-03 1.44859E-04-1.40160E-16
 -1      3569 1.37924E-03 1.37990E-04-1.89857E-16
 -1      3570 1.50021E-03-2.20685E-04-6.31534E-16
 -1      3571 1.75812E-03 2.47930E-04-1.78216E-16
 -1      3572 1.38761E-03 2.11717E-04-1.01536E-16
 -1      3573 1.25532E-03-8.69878E-06-3.02479E-16
 -1      3574 1.25691E-03-3.99396E-05-3.33880E-16
 -1      3575 1.38083E-03-5.81722E-05-4.09923E-16
 -1      3576 1.37707E-03 8.24467E-06-3.38501E-16
 -1      3577 1.50287E-03 1.62878E-04-2.04928E-16
 -1      3578 1.50030E-03 1.29213E-04-2.47822E-16
 -1      3579 1.42345E-03-1.82786E-04-5.51168E-16
 -1      3580 1.56784E-03-1.91992E-04-6.47540E-16
 -1      3581 3.36609E-03 3.82879E-04-1.17240E-15
 -1      3582 3.24301E-03 3.68429E-04-1.03811E-15
 -1      3583 1.02041E-02 2.86894E-03-9.79470E-15
 -1      3584 1.00667E-02 2.75229E-03-9.35456E-15
 -1      3585 2.00658E-03-2.11469E-04-9.79224E-16
 -1      3586 2.15463E-03-2.15716E-04-1.10365E-15
 -1      3587 2.30364E-03-2.19071E-04-1.23573E-15
 -1      3588 2.45368E-03-2.21745E-04-1.37420E-15
 -1      3589 2.22511E-03-1.77575E-04-1.10925E-15
 -1      3590 2.60487E-03-2.23853E-04-1.51955E-15
 -1      3591 2.75728E-03-2.25650E-04-1.67126E-15
 -1      3592 2.52600E-03-1.80394E-04-1.37462E-15
 -1      3593 2.91111E-03-2.27237E-04-1.83050E-15
 -1      3594 3.06635E-03-2.28915E-04-1.99714E-15
 -1      3595 2.83228E-03-1.81477E-04-1.66649E-15
 -1      3596 3.22323E-03-2.30760E-04-2.17049E-15
 -1      3597 3.38158E-03-2.33060E-04-2.35127E-15
 -1      3598 3.14518E-03-1.82469E-04-1.98615E-15
 -1      3599 3.54159E-03-2.35840E-04-2.53908E-15
 -1      3600 3.70282E-03-2.39222E-04-2.73418E-15
 -1      3601 3.46569E-03-1.85306E-04-2.33380E-15
 -1      3602 3.86534E-03-2.43101E-04-2.93869E-15
 -1      3603 4.02834E-03-2.47143E-04-3.15060E-15
 -1      3604 3.79377E-03-1.91727E-04-2.71173E-15
 -1      3605 4.19169E-03-2.50947E-04-3.37130E-15
 -1      3606 4.35436E-03-2.53306E-04-3.60084E-15
 -1      3607 4.12733E-03-2.01997E-04-3.12211E-15
 -1      3608 4.51598E-03-2.53387E-04-3.83774E-15
 -1      3609 4.67568E-03-2.49049E-04-4.08366E-15
 -1      3610 4.46165E-03-2.11908E-04-3.56543E-15
 -1      3611 4.83314E-03-2.39013E-04-4.33932E-15
 -1      3612 4.98821E-03-2.20292E-04-4.60539E-15
 -1      3613 4.79023E-03-2.11259E-04-4.04344E-15
 -1      3614 5.14034E-03-1.91781E-04-4.88029E-15
 -1      3615 5.29133E-03-1.50720E-04-5.16583E-15
 -1      3616 5.10805E-03-1.82255E-04-4.56045E-15
 -1      3617 5.45635E-03-9.05724E-05-5.25541E-15
 -1      3618 5.60870E-03-2.45098E-05-5.55532E-15
 -1      3619 6.04859E-03 2.47956E-04-6.75095E-15
 -1      3620 6.20579E-03 3.58705E-04-7.09964E-15
 -1      3621 6.36504E-03 4.75645E-04-7.45839E-15
 -1      3622 6.52587E-03 5.96217E-04-7.82966E-15
 -1      3623 6.35776E-03 4.54269E-04-7.04580E-15
 -1      3624 6.68786E-03 7.19430E-04-8.21065E-15
 -1      3625 6.84994E-03 8.43514E-04-8.59993E-15
 -1      3626 6.68843E-03 7.02057E-04-7.77353E-15
 -1      3627 7.01186E-03 9.67950E-04-9.00038E-15
 -1      3628 7.17275E-03 1.09201E-03-9.41150E-15
 -1      3629 7.02056E-03 9.53639E-04-8.54182E-15
 -1      3630 7.33257E-03 1.21547E-03-9.83076E-15
 -1      3631 7.49073E-03 1.33824E-03-1.02606E-14
 -1      3632 7.34845E-03 1.20235E-03-9.35028E-15
 -1      3633 7.64737E-03 1.46025E-03-1.07029E-14
 -1      3634 7.80223E-03 1.58169E-03-1.11546E-14
 -1      3635 7.66893E-03 1.44671E-03-1.01987E-14
 -1      3636 7.95554E-03 1.70253E-03-1.16152E-14
 -1      3637 8.10724E-03 1.82305E-03-1.20860E-14
 -1      3638 7.98121E-03 1.68761E-03-1.10872E-14
 -1      3639 8.25759E-03 1.94321E-03-1.25671E-14
 -1      3640 8.40664E-03 2.06322E-03-1.30602E-14
 -1      3641 8.28606E-03 1.92657E-03-1.20175E-14
 -1      3642 8.55462E-03 2.18308E-03-1.35625E-14
 -1      3643 8.70163E-03 2.30292E-03-1.40747E-14
 -1      3644 8.58490E-03 2.16478E-03-1.29895E-14
 -1      3645 8.84783E-03 2.42271E-03-1.45972E-14
 -1      3646 8.99335E-03 2.54255E-03-1.51288E-14
 -1      3647 8.87924E-03 2.40300E-03-1.40019E-14
 -1      3648 9.13831E-03 2.66241E-03-1.56699E-14
 -1      3649 9.28280E-03 2.78234E-03-1.62203E-14
 -1      3650 9.17039E-03 2.64160E-03-1.50534E-14
 -1      3651 9.42691E-03 2.90230E-03-1.67781E-14
 -1      3652 9.57072E-03 3.02234E-03-1.73428E-14
 -1      3653 9.45939E-03 2.88069E-03-1.61421E-14
 -1      3654 9.71429E-03 3.14242E-03-1.79170E-14
 -1      3655 9.85767E-03 3.26255E-03-1.84977E-14
 -1      3656 9.74699E-03 3.12024E-03-1.72614E-14
 -1      3657 1.00009E-02 3.38272E-03-1.90822E-14
 -1      3658 1.01440E-02 3.50294E-03-1.96754E-14
 -1      3659 1.00337E-02 3.36017E-03-1.84096E-14
 -1      3660 1.02871E-02 3.62318E-03-2.02725E-14
 -1      3661 1.04300E-02 3.74346E-03-2.08723E-14
 -1      3662 1.03199E-02 3.60039E-03-1.95809E-14
 -1      3663 1.05729E-02 3.86375E-03-2.14800E-14
 -1      3664 1.07158E-02 3.98407E-03-2.20908E-14
 -1      3665 1.06058E-02 3.84082E-03-2.07716E-14
 -1      3666 1.08587E-02 4.10441E-03-2.27049E-14
 -1      3667 1.10015E-02 4.22475E-03-2.33211E-14
 -1      3668 1.08916E-02 4.08138E-03-2.19795E-14
 -1      3669 1.11444E-02 4.34511E-03-2.39419E-14
 -1      3670 1.12872E-02 4.46548E-03-2.45642E-14
 -1      3671 1.11773E-02 4.32204E-03-2.31999E-14
 -1      3672 1.14300E-02 4.58585E-03-2.51880E-14
 -1      3673 1.15729E-02 4.70623E-03-2.58128E-14
 -1      3674 1.14629E-02 4.56276E-03-2.44308E-14
 -1      3675 1.17157E-02 4.82662E-03-2.64427E-14
 -1      3676 1.18585E-02 4.94701E-03-2.70752E-14
 -1      3677 1.17486E-02 4.80351E-03-2.56728E-14
 -1      3678 1.20013E-02 5.06740E-03-2.77070E-14
 -1      3679 1.21442E-02 5.18780E-03-2.83444E-14
 -1      3680 1.20342E-02 5.04429E-03-2.69236E-14
 -1      3681 1.22870E-02 5.30820E-03-2.89827E-14
 -1      3682 1.24299E-02 5.42860E-03-2.96198E-14
 -1      3683 1.23199E-02 5.28509E-03-2.81831E-14
 -1      3684 1.25727E-02 5.54900E-03-3.02596E-14
 -1      3685 1.27155E-02 5.66941E-03-3.08973E-14
 -1      3686 1.26056E-02 5.52590E-03-2.94478E-14
 -1      3687 1.28584E-02 5.78981E-03-3.15318E-14
 -1      3688 1.30012E-02 5.91022E-03-3.21721E-14
 -1      3689 1.28912E-02 5.76671E-03-3.07090E-14
 -1      3690 1.07629E-02 3.34268E-03-1.16577E-14
 -1      3691 1.06222E-02 3.22345E-03-1.11764E-14
 -1      3692 1.10457E-02 3.58199E-03-1.26416E-14
 -1      3693 1.09041E-02 3.46220E-03-1.21477E-14
 -1      3694 1.07293E-02 3.36677E-03-1.22801E-14
 -1      3695 1.04820E-02 3.10469E-03-1.07062E-14
 -1      3696 1.03426E-02 2.98643E-03-1.02456E-14
 -1      3697 1.01683E-02 2.89385E-03-1.03754E-14
 -1      3698 1.04476E-02 3.12916E-03-1.13088E-14
 -1      3699 1.13297E-02 3.82205E-03-1.36473E-14
 -1      3700 1.11876E-02 3.70195E-03-1.31425E-14
 -1      3701 1.10125E-02 3.60578E-03-1.32820E-14
 -1      3702 9.93061E-03 2.63690E-03-8.92708E-15
 -1      3703 9.79621E-03 2.52285E-03-8.51280E-15
 -1      3704 9.89230E-03 2.66219E-03-9.48493E-15
 -1      3705 1.16144E-02 4.06255E-03-1.46682E-14
 -1      3706 1.14719E-02 3.94226E-03-1.41579E-14
 -1      3707 1.12967E-02 3.84563E-03-1.43060E-14
 -1      3708 1.18995E-02 4.30327E-03-1.56951E-14
 -1      3709 1.17569E-02 4.18289E-03-1.51808E-14
 -1      3710 1.15815E-02 4.08597E-03-1.53391E-14
 -1      3711 1.21706E-02 4.53206E-03-1.66801E-14
 -1      3712 1.20351E-02 4.41765E-03-1.61870E-14
 -1      3713 1.18596E-02 4.32057E-03-1.63548E-14
 -1      3714 1.24562E-02 4.77295E-03-1.77263E-14
 -1      3715 1.23134E-02 4.65250E-03-1.72009E-14
 -1      3716 1.21378E-02 4.55531E-03-1.73802E-14
 -1      3717 1.27418E-02 5.01385E-03-1.87906E-14
 -1      3718 1.25990E-02 4.89340E-03-1.82570E-14
 -1      3719 1.24234E-02 4.79615E-03-1.84451E-14
 -1      3720 1.30275E-02 5.25476E-03-1.98739E-14
 -1      3721 1.28846E-02 5.13431E-03-1.93297E-14
 -1      3722 1.27090E-02 5.03702E-03-1.95277E-14
 -1      3723 1.33132E-02 5.49567E-03-2.09680E-14
 -1      3724 1.31703E-02 5.37521E-03-2.04187E-14
 -1      3725 1.29946E-02 5.27791E-03-2.06250E-14
 -1      3726 1.35989E-02 5.73656E-03-2.20717E-14
 -1      3727 1.34560E-02 5.61611E-03-2.15202E-14
 -1      3728 1.32803E-02 5.51880E-03-2.17372E-14
 -1      3729 1.38846E-02 5.97744E-03-2.31748E-14
 -1      3730 1.37417E-02 5.85700E-03-2.26239E-14
 -1      3731 1.35660E-02 5.75968E-03-2.28550E-14
 -1      3732 1.41703E-02 6.21831E-03-2.42751E-14
 -1      3733 1.40274E-02 6.09788E-03-2.37255E-14
 -1      3734 1.38517E-02 6.00055E-03-2.39701E-14
 -1      3735 1.44560E-02 6.45918E-03-2.53758E-14
 -1      3736 1.43132E-02 6.33875E-03-2.48266E-14
 -1      3737 1.41374E-02 6.24142E-03-2.50835E-14
 -1      3738 1.46328E-02 6.61842E-03-2.62459E-14
 -1      3739 1.45435E-02 6.53530E-03-2.57564E-14
 -1      3740 1.43678E-02 6.43797E-03-2.60247E-14
 -1      3741 1.45427E-02 6.59021E-03-2.67958E-14
 -1      3742 1.39615E-02 6.35795E-03-2.93480E-14
 -1      3743 1.40799E-02 6.40009E-03-2.87333E-14
 -1      3744 1.71318E-03-1.99752E-04-7.51189E-16
 -1      3745 1.85944E-03-2.06206E-04-8.62049E-16
 -1      3746 1.92865E-03-1.71702E-04-8.71089E-16
 -1      3747 9.11545E-03 1.80470E-03-5.28748E-15
 -1      3748 9.09700E-03 1.85791E-03-5.74010E-15
 -1      3749 1.47702E-03 2.76579E-04-4.30699E-17
 -1      3750 1.32624E-02 6.10369E-03-3.28152E-14
 -1      3751 1.81611E-03 2.19742E-04-2.48309E-16
 -1      3752 1.67555E-03 2.12344E-04-2.02136E-16
 -1      3753 9.66360E-03 2.41079E-03-8.10716E-15
 -1      3754 9.53339E-03 2.30082E-03-7.71273E-15
 -1      3755 9.62103E-03 2.43619E-03-8.63936E-15
 -1      3756 9.49247E-03 2.18260E-03-6.79970E-15
 -1      3757 4.49087E-03-5.94914E-06-2.88470E-15
 -1      3758 4.34874E-03 7.09672E-05-2.59807E-15
 -1      3759 5.18853E-03-1.49067E-04-4.37412E-15
 -1      3760 5.02796E-03-1.58479E-04-4.06863E-15
 -1      3761 3.47136E-03 3.58399E-04-1.34287E-15
 -1      3762 7.37324E-03 1.10195E-03-6.71578E-15
 -1      3763 7.14438E-03 9.58768E-04-6.72031E-15
 -1      3764 4.88175E-03-1.24508E-04-3.64022E-15
 -1      3765 4.67976E-03-7.93095E-05-3.26155E-15
 -1      3766 4.49169E-03-6.74854E-05-3.06603E-15
 -1      3767 4.81642E-03-1.76208E-04-3.86186E-15
 -1      3768 1.32953E-02 6.08059E-03-3.19742E-14
 -1      3769 8.42614E-03 1.64175E-03-6.45142E-15
 -1      3770 8.15106E-03 1.51879E-03-6.53602E-15
 -1      3771 1.31510E-03-1.33785E-04-4.48141E-16
 -1      3772 1.31920E-03-1.67893E-04-4.79827E-16
 -1      3773 3.74698E-03 2.77669E-04-1.74628E-15
 -1      3774 3.63193E-03 3.23808E-04-1.56849E-15
 -1      3775 1.43714E-03-1.22740E-04-5.03151E-16
 -1      3776 7.88286E-03 1.38856E-03-6.63974E-15
 -1      3777 7.63113E-03 1.25268E-03-6.69420E-15
 -1      3778 8.85201E-03 1.81289E-03-6.26845E-15
 -1      3779 8.67035E-03 1.74509E-03-6.37835E-15
 -1      3780 9.19070E-03 1.94819E-03-6.11863E-15
 -1      3781 9.01477E-03 1.87640E-03-6.19023E-15
 -1      3782 8.95838E-03 1.90231E-03-6.65830E-15
 -1      3783 9.26682E-03 2.03114E-03-6.49639E-15
 -1      3784 1.63615E-03-1.61719E-04-6.60442E-16
 -1      3785 1.50630E-03 2.47608E-04-9.13169E-17
 -1      3786 1.52709E-03-9.62971E-05-5.26312E-16
 -1      3787 1.58128E-03-1.28328E-04-5.91405E-16
 -1      3788 1.72653E-03-1.32794E-04-6.86571E-16
 -1      3789 1.49958E-03 2.04606E-04-1.47858E-16
 -1      3790 2.37467E-03 2.55882E-04-4.74460E-16
 -1      3791 2.23858E-03 2.46200E-04-4.11970E-16
 -1      3792 6.96970E-03 8.46651E-04-6.73218E-15
 -1      3793 6.80409E-03 7.37080E-04-6.74063E-15
 -1      3794 7.13045E-03 9.67128E-04-7.12258E-15
 -1      3795 3.16622E-03 3.11240E-04-1.07645E-15
 -1      3796 3.11821E-03 3.42827E-04-9.39990E-16
 -1      3797 2.99246E-03 3.20616E-04-8.47507E-16
 -1      3798 2.83332E-03 3.29860E-04-6.39381E-16
 -1      3799 5.42986E-03-9.85423E-05-4.91478E-15
 -1      3800 5.75381E-03 3.85598E-05-5.43828E-15
 -1      3801 5.75395E-03 5.71593E-05-6.02201E-15
 -1      3802 5.90764E-03 1.50352E-04-6.34715E-15
 -1      3803 5.89776E-03 1.09041E-04-5.46739E-15
 -1      3804 6.04942E-03 2.30471E-04-6.29404E-15
 -1      3805 8.05802E-03 1.50029E-03-6.97665E-15
 -1      3806 2.64241E-03 2.79415E-04-6.13835E-16
 -1      3807 2.50946E-03 2.66987E-04-5.41464E-16
 -1      3808 2.44388E-03 2.29709E-04-5.83260E-16
 -1      3809 1.34127E-02 6.12236E-03-3.13824E-14
 -1      3810 1.35301E-02 6.16414E-03-3.07882E-14
 -1      3811 1.31515E-02 5.92889E-03-3.07587E-14
 -1      3812 2.10126E-03 2.37017E-04-3.53897E-16
 -1      3813 1.96306E-03 2.28162E-04-3.00785E-16
 -1      3814 2.16876E-03 2.09455E-04-4.46908E-16
 -1      3815 1.36871E-02 6.24016E-03-3.03734E-14
 -1      3816 1.38045E-02 6.28193E-03-2.97701E-14
 -1      3817 1.37400E-02 6.19871E-03-2.89536E-14
 -1      3818 1.34259E-02 6.04668E-03-2.97762E-14
 -1      3819 5.34840E-03-1.19628E-04-4.64075E-15
 -1      3820 1.52393E-03-6.02561E-05-4.85926E-16
 -1      3821 4.17420E-03 8.94230E-05-2.42452E-15
 -1      3822 9.43407E-03 2.20396E-03-7.28412E-15
 -1      3823 9.34853E-03 2.11617E-03-6.88510E-15
 -1      3824 9.19910E-03 2.04994E-03-6.96777E-15
 -1      3825 1.88267E-03 1.92511E-04-3.24746E-16
 -1      3826 9.38497E-03 2.22938E-03-7.79273E-15
 -1      3827 1.49900E-03 9.53994E-05-2.90485E-16
 -1      3828 1.49883E-03 6.13987E-05-3.32823E-16
 -1      3829 1.62229E-03 1.18722E-04-3.14852E-16
 -1      3830 7.54930E-03 1.22471E-03-7.09665E-15
 -1      3831 1.41718E-02 6.43531E-03-2.83052E-14
 -1      3832 1.42636E-02 6.47053E-03-2.78775E-14
 -1      3833 1.39889E-02 6.30995E-03-2.81126E-14
 -1      3834 1.61949E-03 1.96627E-04-2.03234E-16
 -1      3835 6.40741E-03 4.66053E-04-6.53622E-15
 -1      3836 6.26454E-03 3.55823E-04-6.15292E-15
 -1      3837 3.44359E-03 3.08251E-04-1.39292E-15
 -1      3838 3.81155E-03 2.29948E-04-1.87693E-15
 -1      3839 3.66020E-03 2.25450E-04-1.74181E-15
 -1      3840 3.87164E-03 1.79010E-04-2.00937E-15
 -1      3841 8.55918E-03 1.73294E-03-6.80560E-15
 -1      3842 5.99159E-03 1.75685E-04-5.79911E-15
 -1      3843 1.15486E-02 4.10932E-03-1.60124E-14
 -1      3844 1.14061E-02 3.98915E-03-1.54887E-14
 -1      3845 1.12637E-02 3.86908E-03-1.49649E-14
 -1      3846 1.11214E-02 3.74913E-03-1.44446E-14
 -1      3847 1.12306E-02 3.89240E-03-1.56297E-14
 -1      3848 2.44635E-03-1.38031E-04-1.23660E-15
 -1      3849 2.59826E-03-1.37529E-04-1.36959E-15
 -1      3850 2.75173E-03-1.36593E-04-1.50932E-15
 -1      3851 2.90693E-03-1.35578E-04-1.65577E-15
 -1      3852 2.67008E-03-9.31185E-05-1.35958E-15
 -1      3853 3.06415E-03-1.34569E-04-1.80933E-15
 -1      3854 3.22346E-03-1.34069E-04-1.96949E-15
 -1      3855 2.98081E-03-8.78816E-05-1.63987E-15
 -1      3856 3.38523E-03-1.34184E-04-2.13665E-15
 -1      3857 3.54929E-03-1.35494E-04-2.31096E-15
 -1      3858 3.30079E-03-8.36494E-05-1.94738E-15
 -1      3859 3.71598E-03-1.38120E-04-2.49307E-15
 -1      3860 3.88462E-03-1.42425E-04-2.68299E-15
 -1      3861 3.63202E-03-8.36757E-05-2.28299E-15
 -1      3862 4.64795E-03-1.73733E-04-3.62598E-15
 -1      3863 7.71451E-03 1.34135E-03-7.50287E-15
 -1      3864 7.47367E-03 1.19894E-03-7.51741E-15
 -1      3865 1.09792E-02 3.62936E-03-1.39270E-14
 -1      3866 1.08373E-02 3.50979E-03-1.34152E-14
 -1      3867 1.09459E-02 3.65273E-03-1.45765E-14
 -1      3868 6.73384E-03 7.12805E-04-7.27170E-15
 -1      3869 6.90650E-03 8.42028E-04-7.63885E-15
 -1      3870 7.36511E-03 1.19112E-03-8.87661E-15
 -1      3871 7.52950E-03 1.31383E-03-9.28303E-15
 -1      3872 7.69158E-03 1.43501E-03-9.70053E-15
 -1      3873 7.85094E-03 1.55512E-03-1.01296E-14
 -1      3874 7.71566E-03 1.42525E-03-9.21213E-15
 -1      3875 8.00796E-03 1.67424E-03-1.05682E-14
 -1      3876 8.16268E-03 1.79290E-03-1.10163E-14
 -1      3877 8.03615E-03 1.66255E-03-1.00539E-14
 -1      3878 8.31544E-03 1.91112E-03-1.14758E-14
 -1      3879 8.46641E-03 2.02928E-03-1.19439E-14
 -1      3880 8.34605E-03 1.89698E-03-1.09398E-14
 -1      3881 8.61587E-03 2.14735E-03-1.24236E-14
 -1      3882 8.76404E-03 2.26557E-03-1.29136E-14
 -1      3883 8.64780E-03 2.13086E-03-1.18659E-14
 -1      3884 8.91113E-03 2.38390E-03-1.34143E-14
 -1      3885 9.05733E-03 2.50246E-03-1.39245E-14
 -1      3886 8.94372E-03 2.36544E-03-1.28329E-14
 -1      3887 9.20280E-03 2.62121E-03-1.44441E-14
 -1      3888 9.34768E-03 2.74019E-03-1.49743E-14
 -1      3889 9.23568E-03 2.60123E-03-1.38421E-14
 -1      3890 9.49207E-03 2.85935E-03-1.55128E-14
 -1      3891 9.63609E-03 2.97871E-03-1.60582E-14
 -1      3892 9.52506E-03 2.83828E-03-1.48898E-14
 -1      3893 9.77981E-03 3.09824E-03-1.66122E-14
 -1      3894 9.92330E-03 3.21792E-03-1.71748E-14
 -1      3895 9.81282E-03 3.07641E-03-1.59704E-14
 -1      3896 1.00666E-02 3.33773E-03-1.77439E-14
 -1      3897 1.02098E-02 3.45765E-03-1.83174E-14
 -1      3898 1.00996E-02 3.31539E-03-1.70831E-14
 -1      3899 1.03528E-02 3.57767E-03-1.88952E-14
 -1      3900 1.04958E-02 3.69776E-03-1.94801E-14
 -1      3901 1.03858E-02 3.55500E-03-1.82176E-14
 -1      3902 1.06388E-02 3.81792E-03-2.00698E-14
 -1      3903 1.07816E-02 3.93813E-03-2.06627E-14
 -1      3904 1.06717E-02 3.79505E-03-1.93736E-14
 -1      3905 1.09245E-02 4.05838E-03-2.12613E-14
 -1      3906 1.10673E-02 4.17866E-03-2.18606E-14
 -1      3907 1.09574E-02 4.03539E-03-2.05468E-14
 -1      3908 1.12102E-02 4.29898E-03-2.24629E-14
 -1      3909 1.13530E-02 4.41931E-03-2.30705E-14
 -1      3910 1.12431E-02 4.27592E-03-2.17360E-14
 -1      3911 1.14958E-02 4.53967E-03-2.36814E-14
 -1      3912 1.16386E-02 4.66003E-03-2.42913E-14
 -1      3913 1.15287E-02 4.51657E-03-2.29356E-14
 -1      3914 1.17814E-02 4.78041E-03-2.49046E-14
 -1      3915 1.19243E-02 4.90079E-03-2.55232E-14
 -1      3916 1.18143E-02 4.75730E-03-2.41449E-14
 -1      3917 1.20671E-02 5.02118E-03-2.61431E-14
 -1      3918 1.22099E-02 5.14158E-03-2.67629E-14
 -1      3919 1.21000E-02 4.99807E-03-2.53644E-14
 -1      3920 1.23527E-02 5.26198E-03-2.73863E-14
 -1      3921 1.24956E-02 5.38238E-03-2.80119E-14
 -1      3922 1.23856E-02 5.23887E-03-2.65952E-14
 -1      3923 1.26384E-02 5.50279E-03-2.86387E-14
 -1      3924 1.27813E-02 5.62320E-03-2.92645E-14
 -1      3925 1.26713E-02 5.47968E-03-2.78342E-14
 -1      3926 1.28950E-02 5.71584E-03-2.97024E-14
 -1      3927 1.30378E-02 5.83625E-03-3.03248E-14
 -1      3928 1.31552E-02 5.87802E-03-2.97486E-14
 -1      3929 1.29278E-02 5.69273E-03-2.88869E-14
 -1      3930 1.06955E-02 3.39051E-03-1.29085E-14
 -1      3931 1.05541E-02 3.27156E-03-1.24082E-14
 -1      3932 1.06618E-02 3.41393E-03-1.35403E-14
 -1      3933 2.23900E-03 1.81042E-04-5.46113E-16
 -1      3934 2.09941E-03 1.72135E-04-4.76453E-16
 -1      3935 9.85382E-03 2.68619E-03-1.00498E-14
 -1      3936 9.71579E-03 2.57213E-03-9.61069E-15
 -1      3937 1.18196E-02 4.33783E-03-1.70192E-14
 -1      3938 1.16840E-02 4.22355E-03-1.65131E-14
 -1      3939 1.15085E-02 4.12658E-03-1.66665E-14
 -1      3940 1.21050E-02 4.57853E-03-1.80852E-14
 -1      3941 1.19623E-02 4.45816E-03-1.75505E-14
 -1      3942 1.17867E-02 4.36106E-03-1.77132E-14
 -1      3943 1.23905E-02 4.81934E-03-1.91704E-14
 -1      3944 1.22478E-02 4.69893E-03-1.86254E-14
 -1      3945 1.20721E-02 4.60173E-03-1.87979E-14
 -1      3946 1.26762E-02 5.06019E-03-2.02705E-14
 -1      3947 1.25333E-02 4.93976E-03-1.97193E-14
 -1      3948 1.23577E-02 4.84251E-03-1.99019E-14
 -1      3949 1.29618E-02 5.30105E-03-2.13864E-14
 -1      3950 1.28190E-02 5.18062E-03-2.08282E-14
 -1      3951 1.26433E-02 5.08334E-03-2.10214E-14
 -1      3952 1.32475E-02 5.54193E-03-2.25119E-14
 -1      3953 1.31046E-02 5.42149E-03-2.19475E-14
 -1      3954 1.29290E-02 5.32419E-03-2.21520E-14
 -1      3955 1.35332E-02 5.78280E-03-2.36425E-14
 -1      3956 1.33903E-02 5.66237E-03-2.30773E-14
 -1      3957 1.32146E-02 5.56506E-03-2.32923E-14
 -1      3958 1.38189E-02 6.02367E-03-2.47703E-14
 -1      3959 1.36760E-02 5.90324E-03-2.42067E-14
 -1      3960 1.35003E-02 5.80592E-03-2.44353E-14
 -1      3961 1.41046E-02 6.26453E-03-2.58978E-14
 -1      3962 1.39617E-02 6.14410E-03-2.53341E-14
 -1      3963 1.37860E-02 6.04678E-03-2.55759E-14
 -1      3964 1.87281E-03-1.36169E-04-7.88012E-16
 -1      3965 2.02012E-03-1.38573E-04-8.95876E-16
 -1      3966 1.81740E-03-1.01808E-04-7.08702E-16
 -1      3967 2.88422E-03 3.06187E-04-7.68130E-16
 -1      3968 2.75307E-03 2.89733E-04-6.83928E-16
 -1      3969 2.69370E-03 2.51306E-04-7.31457E-16
 -1      3970 2.91996E-03 2.74926E-04-8.89954E-16
 -1      3971 9.57852E-03 2.45969E-03-9.18051E-15
 -1      3972 9.44234E-03 2.34905E-03-8.76335E-15
 -1      3973 9.53692E-03 2.48177E-03-9.72982E-15
 -1      3974 6.57989E-03 5.94347E-04-6.88039E-15
 -1      3975 9.30250E-03 2.23022E-03-8.26601E-15
 -1      3976 9.19886E-03 2.13571E-03-7.82770E-15
 -1      3977 3.43855E-03 2.46681E-04-1.48908E-15
 -1      3978 3.29308E-03 2.81406E-04-1.27697E-15
 -1      3979 4.10430E-03 2.55394E-05-2.49731E-15
 -1      3980 3.97740E-03 1.05039E-04-2.23121E-15
 -1      3981 8.23300E-03 1.61427E-03-7.33972E-15
 -1      3982 7.98441E-03 1.48928E-03-7.43917E-15
 -1      3983 1.44509E-02 6.55499E-03-2.72324E-14
 -1      3984 8.70609E-03 1.83705E-03-7.21301E-15
 -1      3985 8.47288E-03 1.73017E-03-7.27904E-15
 -1      3986 8.39578E-03 1.72575E-03-7.75894E-15
 -1      3987 2.15749E-03-1.38678E-04-1.00033E-15
 -1      3988 2.30689E-03-1.39398E-04-1.12107E-15
 -1      3989 2.37755E-03-9.83517E-05-1.11681E-15
 -1      3990 2.10098E-03-1.02314E-04-9.06976E-16
 -1      3991 1.53625E-03-2.00321E-05-4.47477E-16
 -1      3992 1.68311E-03-5.66688E-05-5.71225E-16
 -1      3993 1.53434E-03 1.51527E-05-4.05451E-16
 -1      3994 7.26415E-03 1.07169E-03-7.58021E-15
 -1      3995 7.09829E-03 9.65282E-04-7.58565E-15
 -1      3996 7.03787E-03 9.47034E-04-8.10624E-15
 -1      3997 7.42985E-03 1.19295E-03-7.99724E-15
 -1      3998 3.15160E-03 2.60360E-04-1.16519E-15
 -1      3999 4.47734E-03-1.67444E-04-3.39964E-15
 -1      4000 4.05551E-03-1.48448E-04-2.88070E-15
 -1      4001 4.22719E-03-1.55908E-04-3.08735E-15
 -1      4002 4.40723E-03-1.14655E-04-3.13863E-15
 -1      4003 7.89750E-03 1.46467E-03-7.87743E-15
 -1      4004 7.20658E-03 1.07302E-03-8.49429E-15
 -1      4005 1.03785E-02 3.17649E-03-1.25316E-14
 -1      4006 1.04130E-02 3.15308E-03-1.19169E-14
 -1      4007 1.02724E-02 3.03512E-03-1.14352E-14
 -1      4008 9.99271E-03 2.80149E-03-1.04992E-14
 -1      4009 9.81574E-03 2.70912E-03-1.06204E-14
 -1      4010 1.01322E-02 2.91789E-03-1.09630E-14
 -1      4011 2.37826E-03 1.91121E-04-6.20150E-16
 -1      4012 2.31203E-03 1.51792E-04-6.51348E-16
 -1      4013 2.51690E-03 2.02329E-04-6.98524E-16
 -1      4014 6.14060E-03 2.80374E-04-6.18701E-15
 -1      4015 1.82847E-03-5.67832E-05-6.59710E-16
 -1      4016 1.41805E-02 6.35351E-03-2.66625E-14
 -1      4017 1.40048E-02 6.25619E-03-2.69141E-14
 -1      4018 1.95155E-03 1.63888E-04-4.08392E-16
 -1      4019 1.80327E-03 1.56494E-04-3.44695E-16
 -1      4020 1.65753E-03 3.57419E-05-4.42788E-16
 -1      4021 4.22688E-03-4.73792E-05-2.77724E-15
 -1      4022 4.03753E-03-3.09440E-05-2.56426E-15
 -1      4023 9.11950E-03 2.05791E-03-7.43231E-15
 -1      4024 9.03169E-03 1.97528E-03-7.03523E-15
 -1      4025 8.86893E-03 1.90531E-03-7.10998E-15
 -1      4026 9.02945E-03 2.05532E-03-7.88966E-15
 -1      4027 9.25492E-03 2.25054E-03-8.78936E-15
 -1      4028 3.49132E-03 2.07716E-04-1.60675E-15
 -1      4029 3.32762E-03 1.88015E-04-1.47747E-15
 -1      4030 3.54285E-03 1.65511E-04-1.72582E-15
 -1      4031 1.38211E-02 6.18576E-03-2.77537E-14
 -1      4032 1.39130E-02 6.22097E-03-2.73350E-14
 -1      4033 1.38371E-02 6.13199E-03-2.65629E-14
 -1      4034 7.39153E-03 1.18778E-03-8.42498E-15
 -1      4035 3.81949E-03 1.10621E-04-2.07972E-15
 -1      4036 1.67939E-03 1.68941E-04-2.68354E-16
 -1      4037 8.78916E-03 1.91037E-03-7.59917E-15
 -1      4038 1.35071E-02 6.03372E-03-2.85780E-14
 -1      4039 1.36641E-02 6.10974E-03-2.81686E-14
 -1      4040 1.35882E-02 6.02076E-03-2.73886E-14
 -1      4041 2.02219E-03 1.34781E-04-4.97296E-16
 -1      4042 3.97512E-03-9.16932E-05-2.64792E-15
 -1      4043 1.74807E-03 1.41174E-04-3.41429E-16
 -1      4044 1.74762E-03 1.04967E-04-3.94772E-16
 -1      4045 7.59211E-03 1.30951E-03-8.36711E-15
 -1      4046 2.89580E-03-4.28387E-05-1.47834E-15
 -1      4047 3.05304E-03-3.84790E-05-1.61907E-15
 -1      4048 3.21300E-03-3.42962E-05-1.76618E-15
 -1      4049 3.37595E-03-3.11481E-05-1.91986E-15
 -1      4050 3.12306E-03 1.27669E-05-1.59291E-15
 -1      4051 1.09126E-02 3.67594E-03-1.52306E-14
 -1      4052 1.07702E-02 3.55638E-03-1.47020E-14
 -1      4053 3.86051E-03-2.49870E-05-2.38279E-15
 -1      4054 9.49632E-03 2.50266E-03-1.02842E-14
 -1      4055 9.35561E-03 2.39039E-03-9.84260E-15
 -1      4056 8.06674E-03 1.65250E-03-9.54940E-15
 -1      4057 8.22403E-03 1.76857E-03-9.97595E-15
 -1      4058 8.37861E-03 1.88404E-03-1.04115E-14
 -1      4059 8.53085E-03 1.99959E-03-1.08584E-14
 -1      4060 8.41352E-03 1.87241E-03-9.89149E-15
 -1      4061 8.68115E-03 2.11519E-03-1.13155E-14
 -1      4062 8.82987E-03 2.23118E-03-1.17820E-14
 -1      4063 8.71627E-03 2.10035E-03-1.07716E-14
 -1      4064 8.97729E-03 2.34751E-03-1.22599E-14
 -1      4065 9.12368E-03 2.46435E-03-1.27489E-14
 -1      4066 9.01207E-03 2.33013E-03-1.16937E-14
 -1      4067 9.26921E-03 2.58159E-03-1.32471E-14
 -1      4068 9.41410E-03 2.69931E-03-1.37559E-14
 -1      4069 9.30356E-03 2.56228E-03-1.26583E-14
 -1      4070 9.55846E-03 2.81741E-03-1.42738E-14
 -1      4071 9.70242E-03 2.93590E-03-1.48001E-14
 -1      4072 9.59237E-03 2.79673E-03-1.36645E-14
 -1      4073 9.84607E-03 3.05469E-03-1.53369E-14
 -1      4074 9.98949E-03 3.17379E-03-1.58795E-14
 -1      4075 9.87964E-03 3.03309E-03-1.47083E-14
 -1      4076 1.01327E-02 3.29312E-03-1.64283E-14
 -1      4077 1.02758E-02 3.41266E-03-1.69856E-14
 -1      4078 1.01660E-02 3.27090E-03-1.57814E-14
 -1      4079 1.04188E-02 3.53237E-03-1.75474E-14
 -1      4080 1.05618E-02 3.65223E-03-1.81125E-14
 -1      4081 1.04520E-02 3.50977E-03-1.68818E-14
 -1      4082 1.07047E-02 3.77220E-03-1.86838E-14
 -1      4083 1.08475E-02 3.89227E-03-1.92608E-14
 -1      4084 1.07377E-02 3.74936E-03-1.80030E-14
 -1      4085 1.09904E-02 4.01241E-03-1.98397E-14
 -1      4086 1.11332E-02 4.13261E-03-2.04248E-14
 -1      4087 1.10233E-02 3.98943E-03-1.91395E-14
 -1      4088 1.12760E-02 4.25287E-03-2.10115E-14
 -1      4089 1.14188E-02 4.37316E-03-2.16003E-14
 -1      4090 1.13089E-02 4.22981E-03-2.02925E-14
 -1      4091 1.15616E-02 4.49348E-03-2.21956E-14
 -1      4092 1.17044E-02 4.61383E-03-2.27927E-14
 -1      4093 1.15945E-02 4.47039E-03-2.14596E-14
 -1      4094 1.18472E-02 4.73419E-03-2.33889E-14
 -1      4095 1.19900E-02 4.85457E-03-2.39898E-14
 -1      4096 1.18801E-02 4.71108E-03-2.26387E-14
 -1      4097 1.21328E-02 4.97495E-03-2.45948E-14
 -1      4098 1.22757E-02 5.09535E-03-2.52014E-14
 -1      4099 1.21657E-02 4.95183E-03-2.38281E-14
 -1      4100 1.24185E-02 5.21575E-03-2.58140E-14
 -1      4101 1.25613E-02 5.33615E-03-2.64232E-14
 -1      4102 1.24513E-02 5.19263E-03-2.50323E-14
 -1      4103 1.27041E-02 5.45656E-03-2.70337E-14
 -1      4104 1.28470E-02 5.57697E-03-2.76478E-14
 -1      4105 1.27370E-02 5.43345E-03-2.62410E-14
 -1      4106 1.06280E-02 3.43709E-03-1.41785E-14
 -1      4107 1.04859E-02 3.31810E-03-1.36615E-14
 -1      4108 1.05944E-02 3.46004E-03-1.48211E-14
 -1      4109 1.32526E-02 5.91786E-03-2.93651E-14
 -1      4110 1.34096E-02 5.99387E-03-2.89673E-14
 -1      4111 1.33338E-02 5.90490E-03-2.81777E-14
 -1      4112 1.31389E-02 5.82521E-03-2.89410E-14
 -1      4113 8.96004E-03 2.06322E-03-8.39953E-15
 -1      4114 8.87416E-03 1.98583E-03-7.99423E-15
 -1      4115 8.71538E-03 1.91363E-03-8.09445E-15
 -1      4116 3.12234E-03 2.06485E-04-1.24021E-15
 -1      4117 3.00158E-03 2.40845E-04-1.05073E-15
 -1      4118 1.14720E-02 4.14678E-03-1.73382E-14
 -1      4119 1.13365E-02 4.03265E-03-1.68234E-14
 -1      4120 1.23249E-02 4.86567E-03-2.06402E-14
 -1      4121 1.21821E-02 4.74528E-03-2.00763E-14
 -1      4122 1.26105E-02 5.10648E-03-2.17741E-14
 -1      4123 1.24677E-02 4.98607E-03-2.12037E-14
 -1      4124 1.22920E-02 4.88882E-03-2.13822E-14
 -1      4125 1.28961E-02 5.34733E-03-2.29205E-14
 -1      4126 1.27533E-02 5.22690E-03-2.23471E-14
 -1      4127 1.25776E-02 5.12962E-03-2.25322E-14
 -1      4128 1.31818E-02 5.58818E-03-2.40776E-14
 -1      4129 1.30390E-02 5.46775E-03-2.35010E-14
 -1      4130 1.28633E-02 5.37046E-03-2.36968E-14
 -1      4131 1.34675E-02 5.82904E-03-2.52311E-14
 -1      4132 1.33247E-02 5.70861E-03-2.46539E-14
 -1      4133 1.31490E-02 5.61131E-03-2.48660E-14
 -1      4134 1.36942E-02 6.01157E-03-2.59869E-14
 -1      4135 1.43634E-02 6.47887E-03-2.68427E-14
 -1      4136 1.90297E-03 9.46318E-05-4.93529E-16
 -1      4137 1.77705E-03 7.26806E-05-4.56097E-16
 -1      4138 1.81440E-03 2.22231E-05-5.47373E-16
 -1      4139 2.05282E-03 1.01032E-04-5.71781E-16
 -1      4140 7.82505E-03 1.44604E-03-8.31888E-15
 -1      4141 7.77680E-03 1.43966E-03-8.76309E-15
 -1      4142 7.94010E-03 1.55754E-03-9.16792E-15
 -1      4143 8.08066E-03 1.58876E-03-8.26203E-15
 -1      4144 1.20393E-02 4.62491E-03-1.95185E-14
 -1      4145 1.18965E-02 4.50456E-03-1.89646E-14
 -1      4146 1.20064E-02 4.64806E-03-2.02454E-14
 -1      4147 9.23023E-03 2.28408E-03-9.36190E-15
 -1      4148 9.08459E-03 2.16522E-03-8.85189E-15
 -1      4149 8.93239E-03 2.09271E-03-8.95399E-15
 -1      4150 9.18722E-03 2.30223E-03-9.89973E-15
 -1      4151 3.75388E-03 3.98882E-05-2.14963E-15
 -1      4152 3.66263E-03 1.07238E-04-1.94059E-15
 -1      4153 3.48756E-03 9.60355E-05-1.79311E-15
 -1      4154 3.70384E-03-2.39363E-05-2.22884E-15
 -1      4155 2.58787E-03-5.13395E-05-1.21786E-15
 -1      4156 2.74087E-03-4.73005E-05-1.34474E-15
 -1      4157 2.81015E-03-6.87467E-08-1.32487E-15
 -1      4158 1.11957E-02 3.91411E-03-1.62903E-14
 -1      4159 1.10532E-02 3.79420E-03-1.57545E-14
 -1      4160 1.08775E-02 3.69752E-03-1.58809E-14
 -1      4161 1.11591E-02 3.93424E-03-1.69510E-14
 -1      4162 1.17556E-02 4.38575E-03-1.84204E-14
 -1      4163 1.16129E-02 4.26548E-03-1.78734E-14
 -1      4164 1.14408E-02 4.17143E-03-1.80345E-14
 -1      4165 1.17227E-02 4.40891E-03-1.91302E-14
 -1      4166 1.35185E-02 5.91425E-03-2.62171E-14
 -1      4167 1.88854E-03-1.53006E-05-6.43352E-16
 -1      4168 2.02405E-03-5.99439E-05-7.93351E-16
 -1      4169 2.16089E-03-5.72205E-05-8.87216E-16
 -1      4170 2.00803E-03 2.35166E-05-6.63993E-16
 -1      4171 3.43946E-03 2.87987E-05-1.86910E-15
 -1      4172 3.53396E-03-2.38008E-05-2.06183E-15
 -1      4173 9.63721E-03 2.61632E-03-1.07358E-14
 -1      4174 9.45707E-03 2.52279E-03-1.08441E-14
 -1      4175 9.77815E-03 2.73121E-03-1.11971E-14
 -1      4176 1.03440E-02 3.19952E-03-1.31510E-14
 -1      4177 1.02023E-02 3.08141E-03-1.26490E-14
 -1      4178 1.03097E-02 3.22223E-03-1.37760E-14
 -1      4179 1.00963E-02 2.94119E-03-1.15559E-14
 -1      4180 1.29361E-02 5.65477E-03-2.80800E-14
 -1      4181 1.30498E-02 5.74742E-03-2.85081E-14
 -1      4182 1.31472E-02 5.78726E-03-2.81320E-14
 -1      4183 1.29690E-02 5.63166E-03-2.72747E-14
 -1      4184 2.63343E-03 2.10834E-04-7.73632E-16
 -1      4185 2.57150E-03 1.69283E-04-8.11010E-16
 -1      4186 2.74980E-03 2.20529E-04-8.53430E-16
 -1      4187 2.38875E-03 1.20781E-04-7.64295E-16
 -1      4188 2.24623E-03 1.11939E-04-6.78683E-16
 -1      4189 3.16462E-03 1.73175E-04-1.34358E-15
 -1      4190 3.00531E-03 1.58461E-04-1.21723E-15
 -1      4191 3.20711E-03 1.37293E-04-1.44940E-15
 -1      4192 2.12819E-03 6.94163E-05-6.71487E-16
 -1      4193 8.54282E-03 1.83063E-03-8.17318E-15
 -1      4194 8.31499E-03 1.71453E-03-8.22737E-15
 -1      4195 8.23647E-03 1.69974E-03-8.68481E-15
 -1      4196 2.88401E-03 2.28475E-04-9.60942E-16
 -1      4197 8.13415E-03 1.66558E-03-9.08510E-15
 -1      4198 1.33615E-02 5.83824E-03-2.66155E-14
 -1      4199 2.30370E-03-5.68778E-05-9.94498E-16
 -1      4200 2.44259E-03-5.27675E-05-1.09866E-15
 -1      4201 2.51184E-03-9.30183E-06-1.08461E-15
 -1      4202 2.22538E-03-1.41748E-05-8.70303E-16
 -1      4203 8.63579E-03 1.90803E-03-8.57787E-15
 -1      4204 3.00699E-03 6.54995E-05-1.38836E-15
 -1      4205 3.16379E-03 7.45818E-05-1.51979E-15
 -1      4206 1.00607E-02 2.96392E-03-1.21556E-14
 -1      4207 9.91934E-03 2.84712E-03-1.16718E-14
 -1      4208 9.74131E-03 2.75270E-03-1.17816E-14
 -1      4209 1.00254E-02 2.98618E-03-1.27606E-14
 -1      4210 8.75371E-03 2.08612E-03-1.02362E-14
 -1      4211 8.90189E-03 2.19921E-03-1.06800E-14
 -1      4212 9.08957E-03 2.31399E-03-1.08155E-14
 -1      4213 9.23455E-03 2.42799E-03-1.12743E-14
 -1      4214 9.37876E-03 2.54281E-03-1.17451E-14
 -1      4215 9.52253E-03 2.65853E-03-1.22257E-14
 -1      4216 9.66589E-03 2.77499E-03-1.27164E-14
 -1      4217 9.80903E-03 2.89214E-03-1.32176E-14
 -1      4218 9.95197E-03 3.00986E-03-1.37264E-14
 -1      4219 1.00948E-02 3.12809E-03-1.42467E-14
 -1      4220 1.02376E-02 3.24674E-03-1.47726E-14
 -1      4221 1.03803E-02 3.36573E-03-1.53046E-14
 -1      4222 1.05230E-02 3.48502E-03-1.58443E-14
 -1      4223 1.06657E-02 3.60455E-03-1.63889E-14
 -1      4224 1.08066E-02 3.72277E-03-1.69300E-14
 -1      4225 1.09493E-02 3.84264E-03-1.74813E-14
 -1      4226 1.10903E-02 3.96114E-03-1.80334E-14
 -1      4227 1.12330E-02 4.08123E-03-1.85953E-14
 -1      4228 1.13740E-02 4.19991E-03-1.91526E-14
 -1      4229 1.15167E-02 4.32014E-03-1.97186E-14
 -1      4230 1.16577E-02 4.43892E-03-2.02841E-14
 -1      4231 1.18005E-02 4.55924E-03-2.08587E-14
 -1      4232 1.19433E-02 4.67958E-03-2.14350E-14
 -1      4233 1.20861E-02 4.79995E-03-2.20157E-14
 -1      4234 1.22289E-02 4.92033E-03-2.25981E-14
 -1      4235 1.23717E-02 5.04073E-03-2.31853E-14
 -1      4236 1.25145E-02 5.16113E-03-2.37752E-14
 -1      4237 1.26573E-02 5.28154E-03-2.43707E-14
 -1      4238 1.28001E-02 5.40196E-03-2.49658E-14
 -1      4239 1.29430E-02 5.52237E-03-2.55577E-14
 -1      4240 2.50909E-03 1.26816E-04-8.44309E-16
 -1      4241 2.44509E-03 8.41919E-05-8.72200E-16
 -1      4242 2.62994E-03 1.33638E-04-9.28728E-16
 -1      4243 1.30858E-02 5.64279E-03-2.61520E-14
 -1      4244 8.35950E-03 1.79071E-03-9.05845E-15
 -1      4245 2.82773E-03 1.83354E-04-1.00319E-15
 -1      4246 2.20431E-03 3.08925E-05-7.84922E-16
 -1      4247 3.33252E-03 8.34785E-05-1.66649E-15
 -1      4248 8.57260E-03 1.90524E-03-9.02346E-15
 -1      4249 8.46911E-03 1.87533E-03-9.43774E-15
 -1      4250 8.62104E-03 1.98742E-03-9.86236E-15
 -1      4251 8.74008E-03 1.99004E-03-8.94975E-15
 -1      4252 8.81057E-03 2.08597E-03-9.76798E-15
 -1      4253 2.72455E-03 4.02079E-05-1.17895E-15
 -1      4254 2.87720E-03 4.82844E-05-1.29976E-15
 -1      4255 2.88047E-03 1.38213E-04-1.13937E-15
 -1      4256 2.73940E-03 1.34178E-04-1.02084E-15
 -1      4257 2.91665E-03 1.05554E-04-1.23281E-15
 -1      4258 9.12878E-03 2.29699E-03-1.02672E-14
 -1      4259 2.46869E-03 3.79719E-05-9.70510E-16
 -1      4260 2.34563E-03 3.45467E-05-8.81633E-16
 -1      4261 1.31555E-02 5.74930E-03-2.73283E-14
 -1      4262 8.99974E-03 2.19044E-03-9.77918E-15
 -1      4263 8.87068E-03 2.09371E-03-9.41411E-15
 -1      4264 2.61217E-03 4.28537E-05-1.07870E-15
 -1      4265 2.67792E-03 8.84131E-05-1.05307E-15
 -1      4266 1.32446E-02 5.82710E-03-2.77524E-14
 -3
    1PSTEP                         2           1           1          
  100CL  101 1.000000000        4266                     0    1           1
 -4  STRESS      6    1
 -5  SXX         1    4    1    1
 -5  SYY         1    4    2    2
 -5  SZZ         1    4    3    3
 -5  SXY         1    4    1    2
 -5  SYZ         1    4    2    3
 -5  SZX         1    4    3    1
 -1         1 7.04630E+01 2.39672E+00 3.53173E+00-1.03298E+01-3.91287E-13 2.22350E-12
 -1         2-7.00521E-01-2.82737E+01-3.45896E+00-1.80273E-01 1.39330E-12 1.17555E-13
 -1         3 1.99998E+01 8.08957E-06 3.34084E-06 9.46208E-06 1.34681E-12 1.00521E-12
 -1         4 1.99998E+01 1.83558E-06 1.07067E-05-1.67423E-06-5.88647E-14 1.50017E-13
 -1         5 3.60026E+01 1.23752E+01 5.24774E+00 8.74984E+00-4.70596E-14 1.28741E-12
 -1         6 3.57876E+01 1.22752E+01 5.12947E+00-8.65175E+00-1.07248E-13-1.30132E-13
 -1         7 2.08388E+01 6.10540E+00-1.28332E-01-4.72486E+00-1.60844E-14-6.73517E-13
 -1         8 1.96821E+01 5.93820E+00 5.09246E-02-3.27194E+00 4.12170E-15-6.57428E-13
 -1         9 1.91411E+01 5.77328E+00 4.91941E-02-2.52237E+00 1.06564E-14-5.77916E-13
 -1        10 1.88941E+01 5.69212E+00 5.12125E-02-1.94484E+00 1.39324E-14-4.75943E-13
 -1        11 1.87696E+01 5.65026E+00 5.06962E-02-1.44684E+00 1.52504E-14-3.79617E-13
 -1        12 1.87029E+01 5.62766E+00 4.92167E-02-1.00283E+00 1.54694E-14-2.98468E-13
 -1        13 1.86654E+01 5.61497E+00 4.75096E-02-5.81335E-01 1.54459E-14-2.16225E-13
 -1        14 1.86473E+01 5.60886E+00 4.62337E-02-1.78441E-01 1.59088E-14-1.43079E-13
 -1        15 1.86452E+01 5.60814E+00 4.56443E-02 2.15847E-01 1.99177E-14-6.92504E-14
 -1        16 1.86609E+01 5.61335E+00 4.59464E-02 6.11886E-01 1.58166E-14 4.77916E-15
 -1        17 1.87005E+01 5.62642E+00 4.72395E-02 1.02198E+00 2.05669E-14 9.51890E-14
 -1        18 1.87745E+01 5.65110E+00 4.91556E-02 1.45366E+00 1.85641E-14 2.05506E-13
 -1        19 1.89101E+01 5.69622E+00 5.07604E-02 1.94301E+00 2.32774E-14 3.29780E-13
 -1        20 1.91648E+01 5.78008E+00 4.94062E-02 2.51791E+00 2.23883E-14 4.99258E-13
 -1        21 1.97104E+01 5.94763E+00 5.18797E-02 3.27101E+00 1.95538E-14 7.30837E-13
 -1        22 2.08239E+01 6.12695E+00-1.28019E-01 4.72037E+00-6.34215E-15 1.01200E-12
 -1        23 2.30632E+01-1.38067E+00-9.38943E-01-7.10480E-01-7.04575E-14-4.52041E-13
 -1        24 1.94025E+01-9.92290E-02-3.09770E-01 6.38582E-02-1.59829E-14-7.09412E-13
 -1        25 1.87133E+01-5.57063E-02-6.83944E-02 6.14090E-02-1.10448E-14-9.08716E-13
 -1        26 1.85026E+01-2.10415E-02-5.60019E-03 3.37416E-02 1.73849E-14-1.06806E-12
 -1        27 1.84919E+01-1.01233E-02 3.21520E-03 2.33216E-02 4.38777E-15-1.11468E-12
 -1        28 1.85607E+01-3.71238E-03 4.51949E-03 1.67349E-02 4.90466E-15-1.10441E-12
 -1        29 1.86383E+01 5.13157E-04 5.97427E-03 1.18675E-02 6.64162E-15-1.18861E-12
 -1        30 1.86755E+01 3.60067E-03 8.06376E-03 7.51824E-03 1.14119E-14-1.25297E-12
 -1        31 1.86332E+01 5.93070E-03 1.03522E-02 2.97224E-03-2.40676E-14-1.37616E-12
 -1        32 1.84783E+01 7.50851E-03 1.23359E-02-2.19491E-03-1.89109E-14-1.49315E-12
 -1        33 1.81862E+01 8.09479E-03 1.33645E-02-8.10413E-03 5.67947E-14-1.42180E-12
 -1        34 1.77460E+01 7.32575E-03 1.26193E-02-1.44538E-02 2.93586E-15-1.34683E-12
 -1        35 1.71683E+01 4.88675E-03 9.31452E-03-2.04041E-02 1.28159E-14-1.41456E-12
 -1        36 1.64928E+01 7.39395E-04 3.09286E-03-2.46061E-02 7.81338E-15-1.42952E-12
 -1        37 1.57912E+01-4.66788E-03-5.52478E-03-2.55071E-02-5.89364E-14-1.53133E-12
 -1        38 1.51603E+01-1.03381E-02-1.49298E-02-2.19480E-02-3.59865E-14-1.65530E-12
 -1        39 1.47043E+01-1.49233E-02-2.27226E-02-1.38448E-02-5.27052E-15-1.75489E-12
 -1        40 1.45087E+01-1.71755E-02-2.65822E-02-2.55048E-03 2.15638E-14-1.79364E-12
 -1        41 1.46160E+01-1.64537E-02-2.52902E-02 9.43205E-03 1.00364E-14-1.86970E-12
 -1        42 1.50121E+01-1.30069E-02-1.93319E-02 1.93574E-02-4.59980E-14-1.88671E-12
 -1        43 1.56320E+01-7.85905E-03-1.06541E-02 2.52887E-02-7.66471E-15-1.81556E-12
 -1        44 1.63801E+01-2.36421E-03-1.74507E-03 2.66978E-02 3.83483E-14-1.60681E-12
 -1        45 1.71571E+01 2.30324E-03 5.37448E-03 2.43612E-02-3.03811E-14-1.56647E-12
 -1        46 1.78815E+01 5.47269E-03 9.71792E-03 1.97632E-02 3.17116E-14-1.63616E-12
 -1        47 1.85015E+01 7.02406E-03 1.13210E-02 1.44277E-02 8.13103E-15-1.27078E-12
 -1        48 1.89950E+01 7.23223E-03 1.08599E-02 9.48085E-03-3.10851E-14-1.28956E-12
 -1        49 1.93635E+01 6.54636E-03 9.20691E-03 5.52101E-03 2.71084E-14-1.43121E-12
 -1        50 1.96231E+01 5.40994E-03 7.11717E-03 2.70319E-03-2.84090E-14-1.49566E-12
 -1        51 1.97957E+01 4.16282E-03 5.09754E-03 9.07815E-04 1.28499E-14-1.58317E-12
 -1        52 1.99038E+01 3.01591E-03 3.40836E-03-1.02388E-04 1.64140E-15-1.55698E-12
 -1        53 1.99669E+01 2.06939E-03 2.12874E-03-5.76722E-04 1.89843E-14-1.37491E-12
 -1        54 2.00006E+01 1.34704E-03 1.23204E-03-7.23349E-04-2.38067E-14-1.34064E-12
 -1        55 2.00161E+01 8.29334E-04 6.45284E-04-6.93297E-04 1.35767E-14-1.44151E-12
 -1        56 2.00210E+01 4.78157E-04 2.86439E-04-5.84729E-04 3.09533E-14-1.37583E-12
 -1        57 2.00205E+01 2.52128E-04 8.31235E-05-4.55025E-04 1.16813E-14-1.43149E-12
 -1        58 2.00175E+01 1.14463E-04-2.08255E-05-3.33675E-04-1.87648E-15-1.65170E-12
 -1        59 2.00138E+01 3.59118E-05-6.53476E-05-2.32904E-04-4.71428E-14-1.49689E-12
 -1        60 2.00102E+01-5.07019E-06-7.69466E-05-1.55299E-04-5.44798E-14-1.26513E-12
 -1        61 2.00071E+01-2.34341E-05-7.21464E-05-9.87520E-05 5.57526E-14-1.47108E-12
 -1        62 2.00047E+01-2.90307E-05-6.06085E-05-5.93728E-05-6.80513E-14-1.74384E-12
 -1        63 2.00029E+01-2.80363E-05-4.75634E-05-3.30441E-05-9.28717E-14-1.60264E-12
 -1        64 2.00016E+01-2.41227E-05-3.55438E-05-1.61337E-05 3.21006E-14-1.24203E-12
 -1        65 2.00008E+01-1.93367E-05-2.55432E-05-5.73380E-06 5.81709E-14-9.17782E-13
 -1        66 2.00002E+01-1.47185E-05-1.77470E-05 3.45265E-07-1.26908E-13-1.30553E-12
 -1        67 1.99999E+01-1.07099E-05-1.19602E-05 3.69168E-06 5.96386E-14-9.33547E-13
 -1        68 1.99998E+01-7.40626E-06-7.81297E-06 5.43310E-06 1.56627E-14-6.82469E-13
 -1        69 1.99997E+01-4.70485E-06-4.75492E-06 6.33770E-06-2.50729E-14-6.04678E-13
 -1        70 1.99997E+01-2.23977E-06-1.61954E-06 6.92508E-06 1.31543E-13 1.33276E-13
 -1        71 1.99998E+01 9.26079E-08 4.20641E-06 6.51059E-06 6.95222E-14 5.10838E-13
 -1        72 2.32568E+01-1.34052E+00-9.30236E-01 7.99533E-01-3.69670E-14 1.39272E-12
 -1        73 1.94543E+01-1.08757E-01-3.28751E-01-6.56509E-02-4.94396E-15 1.45613E-12
 -1        74 1.87459E+01-5.91721E-02-7.53226E-02-6.09179E-02-2.24126E-15 1.42975E-12
 -1        75 1.85625E+01-2.50454E-02-9.58838E-03-3.26211E-02 6.05202E-15 1.41599E-12
 -1        76 1.86282E+01-1.57669E-02-1.72875E-03-2.17869E-02-8.74192E-16 1.40034E-12
 -1        77 1.88497E+01-1.24815E-02-4.11953E-03-1.55123E-02 1.72219E-14 1.32496E-12
 -1        78 1.92065E+01-1.32030E-02-9.32618E-03-1.23182E-02 4.97161E-15 1.27432E-12
 -1        79 1.97315E+01-1.75928E-02-1.87950E-02-1.24101E-02-1.18786E-14 1.28994E-12
 -1        80 2.05187E+01-2.61449E-02-3.67204E-02-1.80578E-02 1.31603E-14 1.34374E-12
 -1        81 2.17472E+01-4.01993E-02-6.95565E-02-3.45153E-02-2.43447E-15 1.38149E-12
 -1        82 2.37173E+01-5.31708E-02-1.20833E-01-7.99931E-02 1.63224E-14 1.37526E-12
 -1        83 2.67048E+01-6.94884E-02-1.80059E-01-1.51728E-01-6.66567E-15 1.35484E-12
 -1        84 3.15364E+01-5.59550E-02-1.74384E-01-3.03149E-01 2.82335E-14 1.33593E-12
 -1        85 3.83315E+01 2.38129E-02 1.00244E-01-4.97578E-01-7.17438E-15 1.23303E-12
 -1        86 4.54598E+01 1.66818E-01 8.01221E-01-4.33035E-01 4.88498E-15 1.47381E-12
 -1        87 4.72246E+01 1.40156E-01 1.13691E+00 6.90652E-01-4.14694E-14 2.04531E-12
 -1        88 3.89372E+01 3.91832E-03-1.24718E-01 2.23917E+00-1.85650E-14 2.55757E-12
 -1        89 2.16390E+01-7.91193E-02-3.61012E+00 2.12958E+00-7.70634E-14 3.14815E-12
 -1        90 1.36674E+01-1.06038E-01-5.25412E+00-3.85968E-01 9.95731E-14 3.25216E-12
 -1        91 2.19587E+01-2.06022E-01-3.51255E+00-2.00155E+00 6.93612E-14 2.39625E-12
 -1        92 3.67465E+01 3.08921E-02-5.22336E-01-1.75122E+00 6.47052E-16 1.41770E-12
 -1        93 4.67518E+01 1.43726E-01 1.17680E+00-5.93830E-01-3.15546E-14 9.22235E-13
 -1        94 4.73977E+01 1.44339E-01 1.07747E+00 1.61490E-01 1.09201E-14 8.12201E-13
 -1        95 4.17165E+01 3.38319E-02 3.37003E-01 3.63190E-01-9.37149E-14 6.99316E-13
 -1        96 3.43567E+01-2.49309E-02-1.25636E-01 2.69768E-01 1.99185E-14 9.19098E-13
 -1        97 2.87563E+01-4.44294E-02-2.05197E-01 1.46055E-01-4.54073E-14 8.28518E-13
 -1        98 2.51338E+01-3.97519E-02-1.52583E-01 7.03301E-02 5.81082E-14 1.20116E-12
 -1        99 2.29454E+01-2.88816E-02-9.12580E-02 3.16846E-02 2.64675E-15 1.27321E-12
 -1       100 2.16695E+01-1.87654E-02-4.96366E-02 1.20373E-02-2.15019E-15 1.37623E-12
 -1       101 2.09599E+01-1.26453E-02-2.80786E-02 5.75263E-03-1.50023E-14 1.43644E-12
 -1       102 2.05301E+01-7.55101E-03-1.47945E-02 1.60774E-03-2.65858E-14 1.62790E-12
 -1       103 2.02888E+01-4.57359E-03-7.85028E-03 9.02340E-05-7.76037E-14 1.27413E-12
 -1       104 2.01546E+01-2.72903E-03-4.16121E-03-4.24875E-04 3.35116E-14 8.92872E-13
 -1       105 2.00809E+01-1.61096E-03-2.18248E-03-5.26632E-04-5.00436E-14 7.28766E-13
 -1       106 2.00410E+01-9.41388E-04-1.12098E-03-4.72136E-04-6.00672E-14 1.30578E-12
 -1       107 2.00199E+01-5.44607E-04-5.56979E-04-3.73562E-04-5.28041E-14 1.79100E-12
 -1       108 2.00089E+01-3.11911E-04-2.63008E-04-2.76387E-04-5.35509E-15 1.73571E-12
 -1       109 2.00034E+01-1.76944E-04-1.14357E-04-1.96056E-04 1.30100E-13 1.22348E-12
 -1       110 2.00007E+01-1.00111E-04-4.24586E-05-1.35191E-04-6.61621E-14 8.05472E-13
 -1       111 1.99995E+01-5.47903E-05-1.01663E-05-9.46016E-05-6.89070E-14 7.70568E-13
 -1       112 1.99990E+01-3.19069E-05 2.04586E-06-6.10640E-05-7.85404E-14 1.11136E-12
 -1       113 1.99988E+01-1.80617E-05 5.88986E-06-4.15816E-05 4.27011E-14 7.04595E-13
 -1       114 1.99988E+01-1.04083E-05 5.84585E-06-2.78272E-05 6.54544E-14-3.46443E-13
 -1       115 1.99989E+01-6.18203E-06 4.50189E-06-1.89353E-05-9.61317E-14 4.88768E-13
 -1       116 1.99990E+01-3.81675E-06 3.00410E-06-1.32771E-05-1.05412E-13 9.82863E-13
 -1       117 1.99991E+01-2.42685E-06 1.77270E-06-9.75829E-06 1.32990E-13 2.43221E-13
 -1       118 1.99992E+01-1.50905E-06 9.54850E-07-7.66829E-06-6.14992E-14-3.43725E-13
 -1       119 1.99994E+01-7.47078E-07 7.39445E-07-6.55881E-06-1.02276E-13-4.83420E-13
 -1       120 1.99995E+01 8.56272E-08 1.55959E-06-6.05583E-06-2.01357E-14-2.93536E-13
 -1       121 1.99997E+01 1.46707E-06 4.33329E-06-5.91559E-06-1.71509E-13 9.85064E-14
 -1       122 1.99998E+01 4.25930E-07 6.02425E-06-2.61388E-06-2.05434E-13 1.66856E-12
 -1       123 1.99998E+01-2.13298E-05 5.94850E-06-1.29271E-06 8.10854E-13-6.06016E-13
 -1       124 1.99998E+01-1.20250E-04 1.38831E-06-5.88797E-06-6.09741E-13 3.05260E-13
 -1       125 1.99998E+01-2.30700E-04-3.22617E-06-5.89702E-06-1.09443E-12-1.25017E-13
 -1       126 1.99998E+01-3.07880E-04-5.31252E-06-4.26872E-06-2.62089E-12-3.92909E-13
 -1       127 1.99998E+01-3.33226E-04-5.22001E-06-2.04454E-06-2.26196E-12-1.29766E-13
 -1       128 1.99998E+01-3.08529E-04-3.81965E-06-8.64512E-10-2.12603E-12 4.08009E-14
 -1       129 1.99998E+01-2.46675E-04-1.68244E-06 1.64357E-06-1.78901E-12 6.90042E-14
 -1       130 1.99998E+01-1.69094E-04 4.91245E-07 2.49449E-06-2.30288E-12-3.60843E-14
 -1       131 1.99998E+01-9.79536E-05 2.14534E-06 2.50036E-06-6.64767E-13 4.98711E-13
 -1       132 1.99998E+01-5.02464E-05 2.86312E-06 1.79465E-06-1.50820E-12-6.16581E-13
 -1       133 1.99998E+01-3.35330E-05 2.42362E-06 6.76722E-07-1.86812E-12 2.03642E-13
 -1       134 1.99998E+01-4.33027E-05 9.05458E-07-3.31350E-07-1.98827E-12-3.66071E-13
 -1       135 1.99998E+01-6.53914E-05-1.33411E-06-7.65025E-07-1.29605E-12 3.03272E-13
 -1       136 1.99998E+01-7.84063E-05-3.13378E-06 4.15321E-08-2.43819E-13-2.05064E-13
 -1       137 1.99998E+01-6.45649E-05-2.16214E-06 3.44013E-06-1.50984E-12-2.62068E-13
 -1       138 1.99998E+01-2.35805E-05 2.80206E-06 9.84946E-06-1.08251E-12 1.47814E-13
 -1       139-2.20790E+00-2.79744E+01-3.74504E+00-5.99316E+00 1.72280E-12 2.72300E-13
 -1       140-4.34758E+00-1.89756E+01-3.74280E+00-7.84004E+00 2.00878E-12 1.14360E-12
 -1       141-2.44863E+00-5.93705E+00-3.32446E+00-3.18848E+00 2.32070E-12 1.65951E-12
 -1       142 9.10484E+00 4.54622E+00-1.92971E+00 6.93533E+00 1.59162E-12 1.88982E-12
 -1       143 3.60685E+01 8.86720E+00 1.21724E+00 1.77306E+01 8.56648E-13 1.31273E-12
 -1       144 7.11138E+01 6.56831E+00 5.70997E+00 1.96968E+01 7.61891E-14 3.15747E-13
 -1       145 9.78754E+01 2.41811E+00 9.32233E+00 7.80236E+00-1.40297E-13-8.30280E-13
 -1       146 9.50941E+01 3.09437E+00 8.97327E+00-1.03717E+01 1.47177E-13-1.12038E-12
 -1       147 6.32725E+01 7.40628E+00 4.71886E+00-1.99022E+01 3.54328E-13-1.09890E-12
 -1       148 2.79178E+01 8.56587E+00 2.03850E-01-1.59138E+01 4.67293E-13-7.36411E-13
 -1       149 5.29065E+00 2.50289E+00-2.48896E+00-4.39949E+00 3.38174E-13-3.51941E-13
 -1       150-3.56159E+00-9.15508E+00-3.49836E+00 4.85362E+00-1.98175E-13 8.08242E-14
 -1       151-4.00145E+00-2.14977E+01-3.76517E+00 8.06661E+00-1.28580E-12 4.80324E-13
 -1       152-1.56218E+00-2.89190E+01-3.69761E+00 4.85503E+00-1.85973E-12 3.50230E-13
 -1       153-6.97204E-01-2.75638E+01-3.38551E+00-7.84166E-01-1.42711E-12 1.11092E-14
 -1       154-1.36977E+00-1.80511E+01-2.78392E+00-3.73905E+00-1.13326E-12-3.08725E-13
 -1       155-5.79808E-01-4.53846E+00-1.86197E+00-1.16878E+00-9.19820E-13-3.56798E-13
 -1       156 6.07094E+00 7.87380E+00-5.89150E-01 7.06194E+00-4.82725E-13-3.60101E-13
 -1       157 2.09647E+01 1.35420E+01 8.33747E-01 1.66246E+01-3.26073E-13-4.19165E-13
 -1       158 4.25158E+01 1.15270E+01 2.18944E+00 2.15099E+01-1.10661E-13-1.85019E-13
 -1       159 6.29262E+01 5.24919E+00 3.19559E+00 1.68586E+01 1.87378E-13 7.33691E-13
 -1       160 7.35625E+01 1.14712E+00 3.67022E+00 4.20577E+00 6.66689E-14 1.64967E-12
 -1       161 5.57511E+01 7.85751E+00 2.85922E+00-1.99049E+01-6.54268E-13 1.89287E-12
 -1       162 3.51362E+01 1.30416E+01 1.77319E+00-2.09356E+01-1.04455E-12 1.62304E-12
 -1       163 1.66366E+01 1.32404E+01 4.90579E-01-1.47016E+01-1.17450E-12 1.20998E-12
 -1       164 3.86905E+00 5.83438E+00-8.61529E-01-4.97990E+00-8.16569E-13 6.05571E-13
 -1       165-9.51726E-01-6.71491E+00-2.00722E+00 2.02793E+00 1.72418E-13 6.17562E-14
 -1       166-1.20175E+00-1.96672E+01-2.87608E+00 3.47925E+00 7.73881E-13-2.05717E-13
 -1       167 2.10292E+01 3.69485E+00-5.74787E-02-3.60962E+00-8.57960E-14-5.76473E-13
 -1       168 1.99986E+01 4.20627E+00-4.58820E-02-2.80824E+00 2.53833E-14-5.29937E-13
 -1       169 1.95123E+01 4.47203E+00-3.17436E-02-2.19134E+00 9.61917E-14-4.58076E-13
 -1       170 1.92678E+01 4.60746E+00-2.38962E-02-1.66915E+00 1.43217E-13-3.79767E-13
 -1       171 1.91348E+01 4.68826E+00-1.95960E-02-1.20860E+00 1.72326E-13-2.89160E-13
 -1       172 1.90561E+01 4.74112E+00-1.74549E-02-7.77761E-01 1.87910E-13-2.12021E-13
 -1       173 1.90122E+01 4.77351E+00-1.63909E-02-3.71091E-01 2.11110E-13-1.40217E-13
 -1       174 1.89943E+01 4.78853E+00-1.60226E-02 2.17615E-02 2.18308E-13-7.92066E-14
 -1       175 1.90021E+01 4.78589E+00-1.62733E-02 4.10524E-01 2.28398E-13-1.44138E-14
 -1       176 1.90413E+01 4.76269E+00-1.72481E-02 8.06177E-01 2.33400E-13 5.51616E-14
 -1       177 1.91219E+01 4.71462E+00-1.93213E-02 1.21513E+00 2.30488E-13 1.43220E-13
 -1       178 1.92691E+01 4.63003E+00-2.33716E-02 1.66895E+00 2.35529E-13 2.54479E-13
 -1       179 1.95309E+01 4.48515E+00-3.12282E-02 2.18531E+00 2.16918E-13 3.88467E-13
 -1       180 2.00297E+01 4.20830E+00-4.56391E-02 2.79938E+00 1.67547E-13 5.58959E-13
 -1       181 2.10645E+01 3.67857E+00-5.38901E-02 3.61172E+00 6.48301E-14 7.69249E-13
 -1       182 2.19942E+01 8.57766E-01 5.47295E-04-1.95872E+00-1.10700E-13-4.86410E-13
 -1       183 2.04662E+01 1.88655E-01-1.01611E-02-7.66707E-01-9.41816E-14-4.86603E-13
 -1       184 1.96821E+01 9.86113E-02 1.32652E-02-2.94384E-01-6.98105E-14-4.84453E-13
 -1       185 1.93243E+01 4.17578E-02 9.57634E-03-8.80826E-02-2.72826E-14-5.18852E-13
 -1       186 1.91611E+01 1.37572E-02 4.56023E-03 3.53362E-04-1.52722E-14-5.34977E-13
 -1       187 1.90903E+01-3.94341E-03 1.61609E-03 2.38071E-02-5.41954E-14-5.22718E-13
 -1       188 1.90471E+01-1.72641E-02 8.30224E-05 3.56502E-03-3.25016E-14-5.35433E-13
 -1       189 1.89868E+01-2.82915E-02-7.55246E-04-5.01661E-02-1.57435E-14-5.48627E-13
 -1       190 1.88766E+01-3.72564E-02-1.21266E-03-1.30744E-01-5.00739E-14-4.76417E-13
 -1       191 1.86924E+01-4.30809E-02-1.37181E-03-2.30821E-01 1.96566E-16-4.39463E-13
 -1       192 1.84201E+01-4.36926E-02-1.23316E-03-3.39325E-01-1.79724E-14-6.00521E-13
 -1       193 1.80589E+01-3.66135E-02-7.95679E-04-4.39658E-01-5.11637E-14-6.71109E-13
 -1       194 1.76255E+01-2.00483E-02-9.75798E-05-5.10019E-01 1.21298E-14-6.89188E-13
 -1       195 1.71565E+01 5.66284E-03 7.63272E-04-5.26907E-01-7.53767E-14-6.85142E-13
 -1       196 1.67074E+01 3.68728E-02 1.64298E-03-4.71901E-01-8.75383E-14-6.32369E-13
 -1       197 1.63441E+01 6.66918E-02 2.37879E-03-3.39861E-01-5.39245E-14-7.23306E-13
 -1       198 1.61286E+01 8.69358E-02 2.84165E-03-1.44632E-01-4.78586E-14-7.46011E-13
 -1       199 1.61030E+01 9.14115E-02 2.95065E-03 8.18063E-02-3.82407E-14-7.82337E-13
 -1       200 1.62766E+01 7.88220E-02 2.69069E-03 2.98015E-01-7.43511E-14-8.59423E-13
 -1       201 1.66234E+01 5.34174E-02 2.11012E-03 4.66273E-01 2.55705E-14-9.08027E-13
 -1       202 1.70910E+01 2.29050E-02 1.31542E-03 5.63931E-01 6.61291E-14-8.63862E-13
 -1       203 1.76151E+01-4.96280E-03 4.52361E-04 5.87806E-01 8.54595E-15-8.35058E-13
 -1       204 1.81359E+01-2.50767E-02-3.29870E-04 5.50882E-01 5.15739E-14-6.42862E-13
 -1       205 1.86086E+01-3.58333E-02-9.19162E-04 4.74597E-01 1.11227E-13-6.16935E-13
 -1       206 1.90073E+01-3.84061E-02-1.26643E-03 3.80984E-01 5.55545E-16-6.48483E-13
 -1       207 1.93233E+01-3.53469E-02-1.38295E-03 2.87475E-01-5.32404E-14-5.55781E-13
 -1       208 1.95602E+01-2.93449E-02-1.32106E-03 2.04990E-01-4.18504E-14-6.32541E-13
 -1       209 1.97290E+01-2.25107E-02-1.14811E-03 1.38452E-01-2.93334E-14-6.75125E-13
 -1       210 1.98437E+01-1.61655E-02-9.26455E-04 8.84595E-02-8.82253E-15-5.59035E-13
 -1       211 1.99178E+01-1.09391E-02-7.02440E-04 5.31208E-02 8.54004E-14-5.71920E-13
 -1       212 1.99631E+01-6.98443E-03-5.03955E-04 2.95071E-02-7.21103E-16-4.97243E-13
 -1       213 1.99890E+01-4.18775E-03-3.43296E-04 1.45935E-02-8.49766E-14-5.43958E-13
 -1       214 2.00024E+01-2.32410E-03-2.22029E-04 5.74588E-03 8.07889E-14-6.66237E-13
 -1       215 2.00083E+01-1.15175E-03-1.35714E-04 8.96539E-04-2.52527E-14-5.87827E-13
 -1       216 2.00100E+01-4.58939E-04-7.74591E-05-1.46079E-03-1.33920E-13-6.52374E-13
 -1       217 2.00094E+01-8.01232E-05-4.01406E-05-2.35858E-03 1.25896E-13-5.70512E-13
 -1       218 2.00079E+01 1.04320E-04-1.75413E-05-2.46687E-03-1.88436E-14-6.15459E-13
 -1       219 2.00061E+01 1.75637E-04-4.75782E-06-2.19734E-03-3.58794E-14-4.17682E-13
 -1       220 2.00045E+01 1.86054E-04 1.80744E-06-1.78788E-03-2.16349E-13-7.26335E-13
 -1       221 2.00031E+01 1.67370E-04 4.64499E-06-1.36541E-03-5.63443E-16-6.56668E-13
 -1       222 2.00020E+01 1.37801E-04 5.39259E-06-9.89692E-04 1.58211E-13-5.17195E-13
 -1       223 2.00012E+01 1.06989E-04 5.07411E-06-6.82244E-04 2.08556E-13-3.77403E-13
 -1       224 2.00006E+01 7.94416E-05 4.29329E-06-4.44471E-04-1.57392E-13-3.18657E-13
 -1       225 2.00002E+01 5.67804E-05 3.37836E-06-2.68510E-04 2.85432E-13-7.11838E-14
 -1       226 2.00000E+01 3.90789E-05 2.48446E-06-1.43352E-04 1.25496E-13 1.53359E-13
 -1       227 1.99999E+01 2.55475E-05 1.66439E-06-5.82631E-05 9.44383E-14-1.39516E-13
 -1       228 1.99998E+01 1.48305E-05 9.80979E-07-4.60863E-06 3.14551E-13-1.21985E-13
 -1       229 1.99998E+01 4.32252E-06 7.75987E-07 2.23948E-05 2.67538E-13 2.55761E-13
 -1       230 2.20690E+01 9.18781E-01 5.51000E-04 2.02192E+00 2.37033E-14 8.47100E-13
 -1       231 2.05413E+01 2.09532E-01-1.10578E-02 7.80822E-01 3.61326E-14 7.81161E-13
 -1       232 1.97727E+01 1.12182E-01 1.37136E-02 2.70294E-01 3.45843E-14 7.13679E-13
 -1       233 1.94669E+01 6.01451E-02 1.12425E-02 2.22071E-02 2.85904E-14 6.65600E-13
 -1       234 1.94088E+01 4.27945E-02 7.03412E-03-1.28589E-01 5.65672E-14 6.35315E-13
 -1       235 1.95223E+01 4.36673E-02 5.26017E-03-2.51927E-01 4.05090E-14 6.33207E-13
 -1       236 1.97843E+01 6.05395E-02 5.44381E-03-3.92414E-01 3.23478E-14 5.78058E-13
 -1       237 2.02124E+01 9.75502E-02 6.74742E-03-5.95126E-01-4.12244E-14 5.20689E-13
 -1       238 2.08615E+01 1.63550E-01 8.24773E-03-9.17632E-01-3.81839E-14 5.63896E-13
 -1       239 2.18219E+01 2.69690E-01 8.13672E-03-1.43793E+00 7.35176E-15 5.83171E-13
 -1       240 2.31346E+01 4.10474E-01 5.50879E-03-2.19530E+00 2.33398E-14 6.04731E-13
 -1       241 2.50498E+01 5.58951E-01 4.46217E-03-3.29314E+00 3.34463E-14 5.77278E-13
 -1       242 2.75736E+01 5.09732E-01 2.85134E-02-4.48946E+00 3.47582E-14 5.10359E-13
 -1       243 3.06771E+01-2.94879E-01 1.02940E-01-4.83367E+00-1.20643E-13 5.61983E-13
 -1       244 3.43806E+01-2.38641E+00 1.77664E-01-2.59601E+00-3.47333E-13 6.65100E-13
 -1       245 3.81920E+01-3.82869E+00 8.16617E-02 2.40708E+00-3.85041E-13 7.83353E-13
 -1       246 4.45011E+01 4.10496E+00 2.07083E-01 3.31899E+00 3.54716E-14 9.54847E-13
 -1       247 4.40084E+01 4.00397E+00 1.11596E-01-3.59488E+00 4.94660E-13 8.82155E-13
 -1       248 4.14268E+01-2.55828E-01-2.89049E-01-7.44208E+00 5.37764E-13 7.33608E-13
 -1       249 3.99851E+01-3.06554E+00-1.62632E-02-4.79111E+00 3.88564E-13 3.00007E-13
 -1       250 3.77274E+01-2.13073E+00 2.43685E-01 5.53123E-01 8.18373E-14 1.09872E-13
 -1       251 3.44154E+01-5.81314E-01 1.80977E-01 3.70142E+00 1.71460E-14 1.53788E-13
 -1       252 3.04865E+01 2.57432E-01 3.17568E-02 4.03234E+00-9.81949E-14 7.14429E-14
 -1       253 2.71267E+01 3.88921E-01-1.93598E-02 3.06883E+00-3.40682E-14 3.69690E-13
 -1       254 2.46063E+01 3.06494E-01-1.70418E-02 2.02791E+00-9.38399E-14 3.70800E-13
 -1       255 2.28784E+01 2.01762E-01-5.82726E-03 1.25468E+00-7.34170E-14 4.63545E-13
 -1       256 2.17594E+01 1.23309E-01 7.69445E-04 7.50560E-01-5.23089E-14 4.92515E-13
 -1       257 2.10838E+01 7.48019E-02 2.16653E-03 4.51995E-01 5.96012E-14 5.08093E-13
 -1       258 2.06419E+01 4.35626E-02 2.45946E-03 2.62227E-01-1.03806E-13 3.39959E-13
 -1       259 2.03764E+01 2.50331E-02 1.86859E-03 1.50430E-01 3.08018E-14 3.21388E-13
 -1       260 2.02185E+01 1.42674E-02 1.27882E-03 8.54418E-02 5.28837E-14 3.89947E-13
 -1       261 2.01256E+01 8.05874E-03 8.32198E-04 4.80048E-02 2.60861E-14 8.78655E-13
 -1       262 2.00715E+01 4.50325E-03 5.27877E-04 2.66415E-02-1.88759E-13 7.20837E-13
 -1       263 2.00403E+01 2.48338E-03 3.29768E-04 1.45813E-02-1.34591E-13 6.68843E-13
 -1       264 2.00224E+01 1.34762E-03 2.03738E-04 7.85764E-03 3.03470E-14 6.89752E-13
 -1       265 2.00123E+01 7.17424E-04 1.24724E-04 4.16221E-03 2.49387E-13 7.01295E-13
 -1       266 2.00066E+01 3.73654E-04 7.58892E-05 2.16275E-03 1.68509E-13 6.23824E-13
 -1       267 2.00033E+01 1.89828E-04 4.62490E-05 1.09839E-03 9.80856E-14 3.19161E-13
 -1       268 2.00016E+01 9.71596E-05 2.75103E-05 5.60959E-04-5.48860E-14 1.50110E-13
 -1       269 2.00006E+01 4.70622E-05 1.68133E-05 2.62522E-04 2.36729E-13-1.71327E-13
 -1       270 2.00000E+01 2.29010E-05 1.00619E-05 1.07053E-04 3.02456E-13-2.27206E-13
 -1       271 1.99997E+01 1.14294E-05 6.03781E-06 2.51090E-05-4.96373E-13-2.98138E-13
 -1       272 1.99996E+01 6.22433E-06 3.63737E-06-2.03250E-05 6.25377E-14-3.69333E-13
 -1       273 1.99995E+01 3.87796E-06 2.18944E-06-4.74355E-05 1.12242E-13-6.65057E-13
 -1       274 1.99995E+01 2.66628E-06 1.28534E-06-6.47957E-05 2.12042E-13-5.27906E-13
 -1       275 1.99995E+01 1.62435E-06 6.95849E-07-7.58274E-05-2.96780E-15-3.80163E-13
 -1       276 1.99996E+01-9.05727E-08 3.58856E-07-8.05873E-05-1.52798E-13-4.40732E-13
 -1       277 1.99997E+01-3.37246E-06 4.35083E-07-7.64454E-05-1.40431E-13-1.62788E-13
 -1       278 1.99997E+01-1.09429E-05 7.91230E-07-5.64052E-05-7.32021E-13-4.01034E-13
 -1       279 1.99998E+01-2.39095E-05 1.42238E-06-3.54678E-05-2.06326E-13-9.08974E-13
 -1       280 1.99998E+01-7.99966E-05 3.58618E-07-6.14023E-05 2.90037E-13-6.89443E-14
 -1       281 1.99998E+01-1.36768E-04-2.63209E-07-5.78546E-05-1.61299E-13-3.56300E-13
 -1       282 1.99998E+01-1.74756E-04-4.66263E-07-3.36932E-05-4.55241E-13-6.30380E-13
 -1       283 1.99998E+01-1.81839E-04-3.33793E-07-2.25179E-06-8.26883E-13 9.27216E-14
 -1       284 1.99998E+01-1.57408E-04-1.76458E-07 2.56317E-05-1.13849E-12 2.67377E-13
 -1       285 1.99998E+01-1.08656E-04-3.07823E-08 4.38225E-05-1.25136E-12 1.62307E-13
 -1       286 1.99998E+01-4.95811E-05 6.44252E-08 4.85140E-05-8.56021E-13-2.11996E-14
 -1       287 1.99998E+01 4.53716E-06 1.09994E-07 4.03706E-05-1.04848E-12 6.31278E-13
 -1       288 1.99998E+01 4.13464E-05 9.99773E-08 2.34245E-05-7.91777E-13-3.96455E-13
 -1       289 1.99998E+01 5.45485E-05 2.31666E-08 3.95704E-06-6.30999E-13-4.54402E-14
 -1       290 1.99998E+01 4.58836E-05-1.21609E-07-1.08121E-05-8.85079E-13-1.50141E-13
 -1       291 1.99998E+01 2.33861E-05-3.83532E-07-1.56533E-05-5.24119E-13 5.49401E-13
 -1       292 1.99998E+01-1.33042E-07-6.05411E-07-7.43894E-06-6.17583E-13 5.80537E-14
 -1       293 1.99998E+01-1.19235E-05-2.84519E-07 9.52791E-06-5.41941E-13-4.70277E-13
 -1       294-2.22899E+00-1.30146E+01-1.04002E+00-1.61866E+00 8.09078E-13 3.61655E-13
 -1       295 7.20225E-01-9.92984E+00-7.70901E-01 1.51938E+00 6.64524E-13 4.39870E-13
 -1       296 7.40920E+00-8.71033E+00-9.67910E-01 3.30405E+00 7.61113E-13 7.11352E-13
 -1       297 1.82007E+01-6.10005E+00-8.72112E-01 4.47588E+00 1.05060E-12 6.37684E-13
 -1       298 3.50097E+01-4.16855E+00-1.04826E-01 3.13377E+00 9.16794E-13 4.55302E-13
 -1       299 4.91161E+01 2.72273E-01 1.03280E+00 9.16703E-01 7.92651E-13 4.17499E-13
 -1       300 5.91985E+01 5.00785E+00 2.35522E+00-5.78288E-01 5.57027E-13 4.29712E-13
 -1       301 6.04870E+01 6.82129E+00 2.51260E+00 2.08978E-01 1.15352E-13 2.80886E-13
 -1       302 5.46292E+01 4.11587E+00 1.63671E+00 1.88400E+00 3.17524E-14 3.75533E-13
 -1       303 4.61989E+01-2.15614E-01 8.60785E-01-2.03430E+00-6.01741E-14-5.06262E-14
 -1       304 3.11299E+01-4.61564E+00-3.79754E-01-4.18699E+00-2.22711E-13-2.80331E-14
 -1       305 1.62203E+01-7.02304E+00-8.51261E-01-4.53313E+00-3.59657E-13-9.12603E-14
 -1       306 5.66512E+00-8.97030E+00-8.72864E-01-3.22194E+00-5.81118E-13-2.54768E-13
 -1       307-7.98206E-01-1.19276E+01-1.05063E+00-1.77010E-01-6.87048E-13-3.86913E-14
 -1       308-2.11558E+00-1.32679E+01-1.05601E+00 1.79539E+00-7.26474E-13 2.52909E-13
 -1       309-1.25520E-01-1.08812E+01-8.18564E-01 3.62122E+00-5.60302E-13 7.82013E-14
 -1       310 4.84044E+00-7.55081E+00-6.10145E-01 5.68609E+00-4.29601E-13 3.26822E-15
 -1       311 1.26452E+01-3.34591E+00-3.31400E-01 7.67549E+00-3.27516E-13-7.03604E-15
 -1       312 2.29016E+01 8.49979E-01 3.58899E-02 9.13237E+00-1.91291E-13-9.62841E-14
 -1       313 3.41369E+01 3.90314E+00 3.73472E-01 8.64204E+00-1.03861E-13 3.64431E-14
 -1       314 4.45092E+01 6.63443E+00 8.14324E-01 7.71014E+00-3.13517E-13 4.18804E-13
 -1       315 5.12792E+01 7.46140E+00 1.03575E+00 3.86085E+00-2.85827E-13 6.38531E-13
 -1       316 5.09156E+01 8.15857E+00 8.94735E-01-9.86216E-01-3.01981E-13 7.04291E-13
 -1       317 4.89302E+01 7.27135E+00 9.33735E-01-5.63559E+00-1.67463E-13 8.86430E-13
 -1       318 4.08256E+01 5.96691E+00 6.38523E-01-8.16014E+00-2.19125E-13 6.72268E-13
 -1       319 3.07204E+01 3.99123E+00 3.35207E-01-9.81542E+00-2.98872E-13 5.63827E-13
 -1       320 2.03244E+01 1.74925E-01-4.96494E-02-8.99381E+00-2.10443E-13 5.46535E-13
 -1       321 1.04327E+01-3.83412E+00-4.14804E-01-7.20566E+00 1.72973E-13 7.14762E-13
 -1       322 3.59158E+00-8.27160E+00-7.12443E-01-5.10365E+00 3.64431E-13 2.95187E-13
 -1       323-6.57980E-01-1.11169E+01-8.48775E-01-3.49912E+00 6.64080E-13 2.48024E-13
 -1       324 4.34027E+01-1.20316E+00 9.29999E-02 6.68729E+00-2.55407E-13 1.05274E-12
 -1       325 1.99998E+01-2.87157E-06 8.32731E-07 1.78313E-05 5.79899E-14 3.15133E-13
 -1       326 2.01523E+01 3.00517E+00-1.79430E-02-2.11245E+00 4.48710E-14-3.78062E-13
 -1       327 2.07667E+01 2.20394E+00-1.79499E-02-2.36559E+00-3.77411E-14-4.28154E-13
 -1       328 1.95884E+01 3.67365E+00-1.52174E-02-1.30935E+00 1.83143E-13-2.71072E-13
 -1       329 1.94607E+01 3.83228E+00-1.36368E-02-9.08119E-01 2.14473E-13-2.04384E-13
 -1       330 1.93835E+01 3.93054E+00-1.26807E-02-5.22030E-01 2.48826E-13-1.35008E-13
 -1       331 1.93418E+01 3.98402E+00-1.22093E-02-1.49179E-01 2.67179E-13-7.87937E-14
 -1       332 1.93321E+01 3.99707E+00-1.21503E-02 2.14631E-01 2.71937E-13-1.70224E-14
 -1       333 1.93587E+01 3.96614E+00-1.25225E-02 5.75349E-01 2.82673E-13 3.84983E-14
 -1       334 1.94302E+01 3.88288E+00-1.34798E-02 9.34599E-01 2.81468E-13 1.06581E-13
 -1       335 1.95666E+01 3.72531E+00-1.53178E-02 1.31239E+00 2.81326E-13 1.98281E-13
 -1       336 1.97976E+01 3.45683E+00-1.83618E-02 1.70547E+00 2.55271E-13 2.99219E-13
 -1       337 2.01760E+01 2.99927E+00-2.14344E-02 2.08294E+00 2.22628E-13 3.98385E-13
 -1       338 2.08090E+01 2.17767E+00-1.79124E-02 2.33180E+00 1.27152E-13 5.58937E-13
 -1       339 9.27141E+00-5.32749E+00-8.52684E-02 5.40669E+00-5.86753E-14 3.70717E-13
 -1       340 2.04653E+01 6.65728E-01 1.21766E-02-1.03725E+00-5.12906E-14-3.48430E-13
 -1       341 2.00349E+01 3.19058E-01 6.85774E-03-4.85101E-01-5.89921E-14-3.08357E-13
 -1       342 1.97638E+01 1.47415E-01 3.73867E-03-2.01765E-01-2.63941E-14-3.19674E-13
 -1       343 1.96001E+01 4.55586E-02 1.32486E-03-7.06524E-02-6.19909E-15-3.06118E-13
 -1       344 1.94996E+01-2.42072E-02-3.88204E-06-3.88906E-02 1.38106E-15-2.52593E-13
 -1       345 1.94250E+01-7.78232E-02-7.63515E-04-7.90503E-02-1.42071E-14-2.24965E-13
 -1       346 1.93469E+01-1.20789E-01-1.24277E-03-1.75112E-01-1.89187E-14-2.17805E-13
 -1       347 1.92417E+01-1.52248E-01-1.51758E-03-3.14119E-01-3.61488E-14-2.44859E-13
 -1       348 1.90914E+01-1.66634E-01-1.56367E-03-4.80269E-01-6.99796E-14-2.39397E-13
 -1       349 1.88843E+01-1.55404E-01-1.32726E-03-6.50583E-01-1.10349E-13-2.21239E-13
 -1       350 1.86188E+01-1.10239E-01-7.78530E-04-7.93019E-01-9.82184E-14-3.22066E-13
 -1       351 1.83071E+01-2.79992E-02 5.76970E-05-8.68857E-01-1.16514E-15-3.28322E-13
 -1       352 1.79783E+01 8.38886E-02 1.06315E-03-8.40856E-01-8.51966E-14-2.84102E-13
 -1       353 1.76774E+01 2.04815E-01 2.05340E-03-6.86356E-01-1.00666E-13-3.25295E-13
 -1       354 1.74571E+01 3.04593E-01 2.79982E-03-4.10533E-01-7.37492E-14-3.46093E-13
 -1       355 1.73635E+01 3.54010E-01 3.15862E-03-5.20954E-02-7.89621E-14-3.74813E-13
 -1       356 1.74198E+01 3.37694E-01 3.05228E-03 3.24641E-01-7.74532E-14-3.92697E-13
 -1       357 1.76179E+01 2.61676E-01 2.51105E-03 6.49914E-01-4.19636E-14-4.00898E-13
 -1       358 1.79216E+01 1.50361E-01 1.65552E-03 8.71526E-01 1.31139E-14-4.19717E-13
 -1       359 1.82802E+01 3.48887E-02 6.73640E-04 9.68904E-01 1.35286E-13-3.98311E-13
 -1       360 1.86446E+01-5.93630E-02-2.31559E-04 9.52855E-01 7.53714E-14-3.10436E-13
 -1       361 1.89781E+01-1.19615E-01-9.06924E-04 8.54517E-01 6.42045E-14-2.64334E-13
 -1       362 1.92602E+01-1.45504E-01-1.29391E-03 7.11235E-01-2.26995E-14-4.50110E-13
 -1       363 1.94846E+01-1.44591E-01-1.41373E-03 5.55676E-01 3.87804E-14-4.62924E-13
 -1       364 1.96541E+01-1.27132E-01-1.33680E-03 4.10546E-01-1.35766E-14-3.58034E-13
 -1       365 1.97768E+01-1.02377E-01-1.14464E-03 2.88095E-01-1.60107E-14-2.40480E-13
 -1       366 1.98622E+01-7.68900E-02-9.07734E-04 1.92304E-01-1.74853E-14-2.54494E-13
 -1       367 1.99195E+01-5.44038E-02-6.75228E-04 1.21864E-01 2.12344E-14-4.39339E-13
 -1       368 1.99564E+01-3.64381E-02-4.74434E-04 7.28013E-02 4.21421E-14-4.83740E-13
 -1       369 1.99792E+01-2.31046E-02-3.15758E-04 4.03329E-02-4.61295E-14-2.87466E-13
 -1       370 1.99925E+01-1.37922E-02-1.98759E-04 1.99415E-02-3.74651E-15-1.68650E-13
 -1       371 1.99997E+01-7.63481E-03-1.17446E-04 7.87076E-03 4.89414E-14-2.85710E-13
 -1       372 2.00032E+01-3.77835E-03-6.39530E-05 1.24831E-03-1.61687E-13-2.41382E-13
 -1       373 2.00044E+01-1.50326E-03-3.06714E-05-1.98641E-03 1.95740E-13-1.01835E-13
 -1       374 2.00044E+01-2.58611E-04-1.12327E-05-3.23428E-03 7.24303E-14-3.87880E-14
 -1       375 2.00039E+01 3.49211E-04-7.74909E-07-3.40167E-03 1.02026E-13 2.17067E-13
 -1       376 2.00031E+01 5.85964E-04 4.16768E-06-3.04611E-03-1.94079E-13 1.13767E-13
 -1       377 2.00023E+01 6.22159E-04 5.92895E-06-2.49147E-03 9.11817E-14 3.44760E-13
 -1       378 2.00016E+01 5.61721E-04 6.00008E-06-1.91231E-03 5.03001E-14 3.05506E-13
 -1       379 2.00011E+01 4.64408E-04 5.28396E-06-1.39244E-03 1.95583E-13 1.43351E-13
 -1       380 2.00007E+01 3.62055E-04 4.29400E-06-9.63509E-04 1.32660E-13-5.56887E-14
 -1       381 2.00003E+01 2.69732E-04 3.29470E-06-6.29437E-04 2.20302E-13 3.23156E-13
 -1       382 2.00001E+01 1.92955E-04 2.40282E-06-3.81027E-04 2.88589E-13 1.66648E-13
 -1       383 2.00000E+01 1.31837E-04 1.65605E-06-2.04404E-04-7.94995E-14 3.16160E-13
 -1       384 1.99999E+01 8.33247E-05 1.03683E-06-8.61493E-05 1.32789E-13 3.60979E-13
 -1       385 1.99998E+01 4.27597E-05 4.39590E-07-1.41836E-05 5.37422E-13 3.35349E-13
 -1       386 2.01257E+01 3.88995E-01 8.67193E-03 4.05375E-01 7.46165E-14 3.94717E-13
 -1       387 2.05237E+01 7.23061E-01 1.32484E-02 1.00985E+00 1.04340E-13 4.67454E-13
 -1       388 1.99031E+01 2.45098E-01 5.64954E-03 3.63581E-02 4.80902E-14 3.41793E-13
 -1       389 1.98155E+01 1.96046E-01 3.58932E-03-2.24513E-01 5.02442E-14 3.33596E-13
 -1       390 1.98310E+01 2.15180E-01 3.55932E-03-4.56041E-01 4.76249E-14 3.63708E-13
 -1       391 1.99227E+01 2.99266E-01 4.72307E-03-7.22915E-01 5.99775E-14 3.40649E-13
 -1       392 2.00664E+01 4.63765E-01 6.84468E-03-1.09017E+00-7.59332E-15 2.33318E-13
 -1       393 2.02271E+01 7.33187E-01 9.83345E-03-1.63215E+00-2.94686E-14 1.57133E-13
 -1       394 2.03417E+01 1.10048E+00 1.26899E-02-2.38341E+00 2.10162E-14 1.82680E-13
 -1       395 2.03341E+01 1.54866E+00 1.93312E-02-3.47717E+00 3.75477E-14 1.83061E-13
 -1       396 2.00989E+01 1.78796E+00 4.24826E-02-4.85224E+00 1.06242E-13 1.46307E-13
 -1       397 1.97737E+01 9.63841E-01 1.03624E-01-6.24156E+00-2.28567E-14 5.05221E-14
 -1       398 2.02710E+01-2.09802E+00 1.57936E-01-6.75526E+00-2.65760E-13-6.17562E-16
 -1       399 3.09595E+01-6.25884E+00-1.48788E-01 2.43660E+00 3.09447E-13-1.37765E-13
 -1       400 2.64690E+01-3.03711E+00 1.55625E-01 5.39137E+00-7.59115E-14-1.44888E-13
 -1       401 2.40621E+01 2.57399E-01 1.03913E-01 6.06384E+00-2.31794E-13 1.78732E-13
 -1       402 2.29859E+01 1.25378E+00 3.76278E-02 4.94889E+00-1.26752E-13 1.79063E-13
 -1       403 2.22698E+01 1.18315E+00 1.72159E-02 3.50784E+00-1.92060E-14 1.38573E-13
 -1       404 2.16663E+01 8.53778E-01 1.32884E-02 2.30964E+00-2.31535E-13 2.09848E-13
 -1       405 2.11695E+01 5.54617E-01 1.11464E-02 1.45784E+00-1.57049E-14 3.44573E-13
 -1       406 2.08047E+01 3.51797E-01 8.23430E-03 9.17593E-01 3.68147E-14-1.09860E-14
 -1       407 2.05271E+01 2.11684E-01 5.67670E-03 5.53739E-01 3.46366E-14-3.71480E-15
 -1       408 2.03382E+01 1.25438E-01 3.58967E-03 3.29902E-01-4.88704E-14 7.23552E-14
 -1       409 2.02135E+01 7.34980E-02 2.17572E-03 1.94367E-01-3.43639E-14 3.44872E-13
 -1       410 2.01332E+01 4.26556E-02 1.29245E-03 1.13359E-01-3.09559E-13 5.88508E-13
 -1       411 2.00824E+01 2.45158E-02 7.57901E-04 6.54686E-02-2.65198E-14 6.17207E-13
 -1       412 2.00506E+01 1.39401E-02 4.40033E-04 3.74493E-02-9.94278E-14 5.07412E-13
 -1       413 2.00309E+01 7.83223E-03 2.53051E-04 2.12261E-02 9.98668E-14 2.96387E-13
 -1       414 2.00188E+01 4.34296E-03 1.44040E-04 1.19314E-02 1.35963E-13 3.07488E-13
 -1       415 2.00114E+01 2.37514E-03 8.12850E-05 6.66148E-03 1.11661E-13 4.00570E-13
 -1       416 2.00069E+01 1.28049E-03 4.58802E-05 3.69969E-03 1.83559E-13 4.35488E-13
 -1       417 2.00042E+01 7.06198E-04 2.49642E-05 2.10994E-03 3.27660E-13 3.83076E-13
 -1       418 2.00024E+01 3.75292E-04 1.41193E-05 1.16086E-03 4.51824E-13-2.31105E-13
 -1       419 2.00013E+01 2.00656E-04 7.68611E-06 6.29237E-04 2.95947E-13-4.02093E-13
 -1       420 2.00006E+01 1.10092E-04 4.23106E-06 3.26215E-04-8.65937E-14-3.42186E-13
 -1       421 2.00002E+01 6.33500E-05 2.36399E-06 1.48148E-04-2.77370E-13-5.52567E-13
 -1       422 2.00000E+01 3.88467E-05 1.35022E-06 3.91802E-05 1.47567E-13-2.86762E-13
 -1       423 1.99998E+01 2.51060E-05 7.75710E-07-3.01607E-05 1.25911E-13-3.47056E-13
 -1       424 1.99998E+01 1.58929E-05 4.10061E-07-7.47836E-05 1.73373E-14-2.19303E-13
 -1       425 1.99997E+01 7.17130E-06 7.44625E-08-1.01227E-04-1.41990E-13 6.93785E-14
 -1       426 1.99997E+01-4.18178E-06-1.10916E-07-1.09238E-04-5.05824E-13 4.42520E-13
 -1       427 1.99998E+01-2.38423E-05 9.27650E-08-9.70990E-05-2.02810E-13 2.30657E-13
 -1       428 1.99998E+01-4.79302E-05 1.17020E-08-8.48844E-05-1.19369E-13 2.30053E-13
 -1       429 1.99998E+01-6.26881E-05 4.01855E-07-6.31821E-05-3.57893E-13-8.46721E-13
 -1       430 1.99998E+01-6.75117E-05-2.01733E-08-8.95720E-05-2.21241E-13-1.96243E-13
 -1       431 1.99998E+01-4.89446E-05 4.64563E-07-1.03811E-05-1.41915E-13-2.65788E-13
 -1       432 1.99998E+01-1.41884E-05 4.66050E-07 4.27619E-05-2.69725E-13-7.70238E-14
 -1       433 1.99998E+01 3.82632E-05 3.26630E-07 8.26475E-05-8.20926E-13-4.65177E-14
 -1       434 1.99998E+01 9.75607E-05 9.90453E-08 9.89657E-05-7.33303E-13 3.61140E-13
 -1       435 1.99998E+01 1.51545E-04-1.22324E-07 8.97985E-05-6.04119E-13 4.65315E-13
 -1       436 1.99998E+01 1.89167E-04-2.71076E-07 5.99907E-05-7.61272E-13 2.73791E-13
 -1       437 1.99998E+01 2.03002E-04-3.14841E-07 1.95806E-05-5.84057E-13-6.78190E-14
 -1       438 1.99998E+01 1.91452E-04-2.53140E-07-1.81093E-05-4.99744E-14 8.67105E-14
 -1       439 1.99998E+01 1.57793E-04-1.21436E-07-4.21339E-05 5.59777E-14 9.35054E-14
 -1       440 1.99998E+01 1.11357E-04 1.02153E-07-4.45371E-05-1.25036E-13 3.28398E-13
 -1       441 1.99998E+01 6.32931E-05 2.93278E-07-2.51749E-05 9.93967E-14-2.75842E-14
 -1       442 2.13176E+01-6.23455E+00-1.09270E-01 5.59162E+00 6.23390E-14-3.62384E-14
 -1       443 9.94750E-01-2.95794E+00 8.84821E-02-2.77146E+00 2.52891E-13 4.18804E-13
 -1       444 1.97930E+01 3.42431E+00-2.08108E-02-1.72473E+00 1.28311E-13-3.23760E-13
 -1       445 3.01969E+01-6.15859E+00-6.60935E-02-2.94060E+00-3.74728E-13 2.81608E-13
 -1       446 1.88803E+01-5.69755E+00-1.30306E-02-6.25721E+00-4.64101E-13-1.51906E-13
 -1       447 5.97254E+00-5.10429E+00-1.10593E-01-4.79874E+00-3.44141E-13-3.03521E-13
 -1       448 6.25923E-01-4.45449E+00-7.05024E-02-8.75082E-01-2.07927E-13 7.42462E-14
 -1       449 4.78258E-01-4.81514E+00-6.16413E-02 3.40617E+00-2.49231E-13 2.68674E-13
 -1       450 5.55978E+00-4.60460E+00 1.59604E-02 7.34926E+00-1.45745E-13 1.33782E-13
 -1       451 1.34587E+01-5.17576E+00 4.16912E-03 8.96382E+00-1.37890E-13 1.93869E-13
 -1       452 2.21858E+01-4.29288E+00-7.54057E-03 8.16911E+00-9.97535E-14 1.09940E-13
 -1       453 3.04453E+01-2.10137E+00-9.43716E-03 5.21315E+00-3.42504E-14 6.18394E-14
 -1       454 3.62207E+01 2.85773E+00 1.16377E-02 1.96892E+00-2.73774E-13 1.48825E-13
 -1       455 3.96382E+01 7.16112E+00 6.72510E-02 8.21323E-01-4.21774E-13 2.47621E-13
 -1       456 4.03885E+01 9.51494E+00 5.64802E-02 4.17912E-02-4.08701E-13 1.89338E-13
 -1       457 3.86377E+01 8.82207E+00-3.03762E-02 1.93901E-02-1.04861E-13 2.08826E-13
 -1       458 3.81004E+01 5.97529E+00 1.03456E-02-7.27970E-01 1.03112E-14 2.20893E-13
 -1       459 3.46159E+01 1.29136E+00 1.80056E-02-3.71713E+00-8.28781E-14 2.65510E-13
 -1       460 2.87214E+01-2.07240E+00 2.49121E-02-6.50010E+00-5.38042E-14 2.54463E-13
 -1       461 2.01658E+01-4.61586E+00-1.04043E-02-8.63782E+00 1.37695E-13 5.54438E-13
 -1       462 1.12517E+01-5.12377E+00-3.72592E-02-8.76418E+00 2.06113E-13 7.81358E-13
 -1       463 4.84895E+00-4.24992E+00 3.37953E-02-7.11138E+00 9.14963E-14 3.96197E-13
 -1       464 2.25462E+00-2.69355E+00 1.04441E-01 1.74071E+00 2.04260E-13-6.75848E-14
 -1       465 5.88629E+00-2.12214E-01 2.02720E-01-5.20036E+00-3.60267E-14 5.35696E-13
 -1       466 1.97378E+01 3.07874E+00-5.33448E-03-6.06438E-01 2.32411E-13-1.57111E-13
 -1       467 1.98415E+01 2.89802E+00-5.72645E-03-9.36460E-01 2.02432E-13-2.03323E-13
 -1       468 1.96376E+01 3.24002E+00-4.96866E-03 4.87932E-02 2.60080E-13-3.66292E-14
 -1       469 1.96393E+01 3.23133E+00-5.01667E-03 3.62557E-01 2.55968E-13 7.36878E-15
 -1       470 1.96842E+01 3.15483E+00-5.30873E-03 6.60903E-01 2.64188E-13 7.51219E-14
 -1       471 1.97861E+01 2.98925E+00-5.86328E-03 9.53747E-01 2.67245E-13 1.49891E-13
 -1       472 1.99596E+01 2.70474E+00-6.55671E-03 1.22619E+00 2.42597E-13 2.13055E-13
 -1       473 2.02106E+01 2.25246E+00-6.74266E-03 1.44246E+00 2.17906E-13 3.16982E-13
 -1       474 2.04604E+01 1.49823E+00-3.10393E-03 1.35121E+00 1.63254E-13 3.70851E-13
 -1       475 5.40448E+00 1.34708E+00 2.51892E-01-1.28319E-02-1.60451E-13 1.16185E-13
 -1       476 2.03521E+01 9.43074E-01 2.31194E-03-9.65526E-01 1.59779E-15-2.57553E-13
 -1       477 2.01775E+01 4.96705E-01 1.91256E-03-5.14544E-01-2.57830E-14-1.90418E-13
 -1       478 2.00277E+01 2.29081E-01 9.09450E-04-2.51317E-01-7.12317E-15-1.41347E-13
 -1       479 1.99219E+01 5.03029E-02 1.64856E-04-1.27773E-01-9.69242E-15-1.64876E-13
 -1       480 1.98536E+01-8.20120E-02-2.41097E-04-1.09142E-01 7.32871E-15-1.66886E-13
 -1       481 1.98082E+01-1.86939E-01-4.89987E-04-1.73401E-01-1.74327E-14-1.88043E-13
 -1       482 1.97692E+01-2.69249E-01-6.51235E-04-3.04782E-01-5.82173E-15-1.83597E-13
 -1       483 1.97191E+01-3.22928E-01-7.24378E-04-4.87487E-01-3.78684E-14-1.22012E-13
 -1       484 1.96402E+01-3.33550E-01-6.79669E-04-6.99519E-01-8.96744E-14-9.98028E-14
 -1       485 1.95160E+01-2.82574E-01-4.85556E-04-9.07529E-01-6.84835E-14-2.11466E-14
 -1       486 1.93372E+01-1.55570E-01-1.53614E-04-1.06502E+00-9.43607E-14 6.04224E-14
 -1       487 1.91087E+01 4.61679E-02 2.92639E-04-1.11737E+00-3.41489E-14-5.93616E-14
 -1       488 1.88566E+01 2.95022E-01 7.50158E-04-1.01617E+00-1.07660E-13-2.49123E-14
 -1       489 1.86287E+01 5.35804E-01 1.13269E-03-7.40652E-01-1.47499E-13-4.20540E-14
 -1       490 1.84819E+01 7.00628E-01 1.28784E-03-3.16404E-01-1.58694E-13-1.18774E-13
 -1       491 1.84594E+01 7.37072E-01 1.31938E-03 1.82629E-01-8.35696E-14-1.49504E-13
 -1       492 1.85708E+01 6.33895E-01 1.23633E-03 6.56061E-01-8.61103E-14-1.30391E-13
 -1       493 1.87863E+01 4.27255E-01 1.00584E-03 1.01383E+00 3.32941E-14-3.39565E-14
 -1       494 1.90526E+01 1.81633E-01 6.10298E-04 1.20721E+00 6.11315E-14-9.74819E-14
 -1       495 1.93158E+01-4.00664E-02 1.43862E-04 1.23705E+00 1.11417E-13-1.83317E-13
 -1       496 1.95391E+01-1.98304E-01-2.54984E-04 1.14052E+00 9.98992E-15-1.64246E-13
 -1       497 1.97079E+01-2.82273E-01-5.17366E-04 9.69207E-01-1.81809E-14-2.17451E-13
 -1       498 1.98240E+01-3.02556E-01-6.31013E-04 7.70709E-01-3.50102E-14-2.66353E-13
 -1       499 1.98981E+01-2.79526E-01-6.31165E-04 5.79230E-01 4.75138E-14-2.85915E-13
 -1       500 1.99428E+01-2.33875E-01-5.59214E-04 4.14045E-01-4.17324E-14-2.63357E-13
 -1       501 1.99685E+01-1.81562E-01-4.53899E-04 2.82426E-01-6.54782E-14-3.20711E-13
 -1       502 1.99831E+01-1.32548E-01-3.43708E-04 1.83873E-01 1.07948E-14-3.31886E-13
 -1       503 1.99912E+01-9.16639E-02-2.45089E-04 1.13846E-01 8.71198E-14-3.63677E-13
 -1       504 1.99959E+01-6.02136E-02-1.65353E-04 6.63976E-02 1.24894E-13-1.30546E-13
 -1       505 1.99985E+01-3.75073E-02-1.05571E-04 3.57095E-02 3.93534E-14-1.40962E-13
 -1       506 2.00001E+01-2.19823E-02-6.34452E-05 1.68262E-02 5.39714E-14-6.50627E-14
 -1       507 2.00009E+01-1.18946E-02-3.53716E-05 5.87574E-03 6.18662E-15-5.68226E-14
 -1       508 2.00013E+01-5.67460E-03-1.76657E-05 1.83283E-05 8.38372E-14 9.47494E-14
 -1       509 2.00014E+01-2.06347E-03-7.15334E-06-2.72474E-03 1.54401E-13 1.51821E-13
 -1       510 2.00013E+01-1.27093E-04-1.36534E-06-3.67071E-03 1.70669E-13 1.56458E-13
 -1       511 2.00011E+01 7.87753E-04 1.48351E-06-3.65856E-03-1.32465E-13 2.46822E-13
 -1       512 2.00009E+01 1.11529E-03 2.60971E-06-3.19799E-03 5.87400E-14 2.30541E-13
 -1       513 2.00007E+01 1.13070E-03 2.79955E-06-2.58171E-03 2.38365E-14 2.85387E-13
 -1       514 2.00005E+01 9.99953E-04 2.53562E-06-1.96540E-03 5.63834E-14 4.10341E-13
 -1       515 2.00003E+01 8.17363E-04 2.09758E-06-1.42210E-03-1.16927E-13 1.92083E-13
 -1       516 2.00002E+01 6.32384E-04 1.63386E-06-9.77838E-04 3.35121E-13 2.63836E-13
 -1       517 2.00001E+01 4.67862E-04 1.20088E-06-6.33846E-04 1.37366E-13 2.84722E-13
 -1       518 2.00000E+01 3.31183E-04 9.02868E-07-3.79962E-04 3.53170E-13 2.36124E-13
 -1       519 1.99999E+01 2.21821E-04 7.00308E-07-2.02881E-04 1.10885E-14 3.50071E-13
 -1       520 1.99999E+01 1.35971E-04 5.06014E-07-9.16421E-05 1.25818E-13 3.81308E-13
 -1       521 2.00533E+01 4.68255E-01 1.63534E-03 4.82093E-04 6.72017E-14 2.29456E-13
 -1       522 9.32093E+00-8.64713E-01 1.90254E-01 5.36066E+00-2.05475E-13-1.26260E-13
 -1       523 1.99273E+01 4.18062E-01 1.25478E-03-2.91665E-01 5.12204E-14 2.12220E-13
 -1       524 1.98050E+01 4.86284E-01 1.56359E-03-5.58613E-01 7.10412E-14 1.80166E-13
 -1       525 1.96377E+01 6.76143E-01 2.24618E-03-8.52898E-01 6.78320E-14 1.84428E-13
 -1       526 1.93426E+01 1.01124E+00 3.53585E-03-1.22007E+00 3.85830E-14 1.32055E-13
 -1       527 1.88252E+01 1.48462E+00 4.78269E-03-1.67383E+00 9.89410E-15 2.55533E-14
 -1       528 1.78437E+01 2.12276E+00 1.02925E-02-2.28356E+00 1.36370E-14 5.36559E-14
 -1       529 1.61374E+01 2.73162E+00 2.99351E-02-3.03717E+00 9.18292E-14 1.03240E-13
 -1       530 1.34230E+01 2.69789E+00 9.89483E-02-3.94469E+00 1.41843E-13 1.01429E-13
 -1       531 9.92407E+00 1.07373E+00 2.48926E-01-4.91554E+00 9.82825E-14-9.66727E-14
 -1       532 1.74873E+01 2.48648E+00 3.76114E-02 3.78213E+00-9.50759E-14 1.77315E-13
 -1       533 1.87836E+01 2.00051E+00 1.51515E-02 2.69518E+00-1.88793E-13 3.58767E-13
 -1       534 1.95047E+01 1.40418E+00 8.44140E-03 1.83801E+00-7.02511E-14 2.82604E-13
 -1       535 1.98483E+01 9.40274E-01 5.85048E-03 1.23614E+00 2.33013E-13 1.46226E-13
 -1       536 2.00073E+01 5.93935E-01 3.92067E-03 7.94436E-01 3.31297E-14 1.53594E-13
 -1       537 2.00633E+01 3.66264E-01 2.51164E-03 5.00620E-01-1.10920E-13 2.13743E-13
 -1       538 2.00725E+01 2.22279E-01 1.52437E-03 3.10449E-01-1.63014E-13-4.14119E-15
 -1       539 2.00639E+01 1.33235E-01 9.01366E-04 1.90012E-01-3.17317E-13 1.90852E-13
 -1       540 2.00505E+01 7.89998E-02 5.25969E-04 1.15041E-01-2.28968E-14 1.68110E-13
 -1       541 2.00377E+01 4.63583E-02 3.03945E-04 6.90291E-02-3.18319E-14 1.84665E-13
 -1       542 2.00271E+01 2.69234E-02 1.73956E-04 4.11301E-02 1.00243E-13 1.02200E-13
 -1       543 2.00191E+01 1.54754E-02 9.84557E-05 2.43896E-02 1.62821E-13 4.54170E-14
 -1       544 2.00132E+01 8.80816E-03 5.50363E-05 1.44322E-02 8.17915E-14-1.77052E-13
 -1       545 2.00090E+01 4.97138E-03 3.11087E-05 8.55065E-03 1.57618E-13 1.29339E-14
 -1       546 2.00062E+01 2.87343E-03 1.63336E-05 5.21369E-03 3.38156E-13 3.34014E-15
 -1       547 2.00041E+01 1.61262E-03 9.32525E-06 3.11178E-03 5.04982E-13 9.26590E-14
 -1       548 2.00026E+01 9.12469E-04 4.93562E-06 1.86329E-03 3.45197E-13 1.96679E-13
 -1       549 2.00017E+01 5.26351E-04 2.63267E-06 1.11116E-03 1.15728E-13 1.74600E-13
 -1       550 2.00010E+01 3.13359E-04 1.41994E-06 6.48072E-04-1.87155E-13 3.19286E-14
 -1       551 2.00005E+01 1.94214E-04 7.84538E-07 3.55426E-04 1.62802E-13-2.97784E-13
 -1       552 2.00002E+01 1.24989E-04 4.43162E-07 1.65730E-04-4.33716E-14-5.57542E-14
 -1       553 2.00001E+01 8.12936E-05 2.62867E-07 4.10166E-05 7.90420E-14 2.24693E-13
 -1       554 1.99999E+01 4.92115E-05 9.83939E-08-3.96646E-05-3.09413E-13 4.78005E-13
 -1       555 1.99999E+01 1.94429E-05-9.44292E-08-8.64630E-05-2.91312E-13 1.20922E-13
 -1       556 1.99998E+01-3.27586E-05-1.48739E-07-1.03213E-04 2.18625E-14-9.89274E-14
 -1       557 1.99999E+01 8.81003E-05 3.24976E-07 6.23666E-05 1.98117E-14-4.80922E-13
 -1       558 1.99999E+01 1.63736E-04 2.69825E-07 1.23493E-04-2.64607E-13-5.59413E-13
 -1       559 1.99999E+01 2.90020E-05-1.71411E-07-1.26954E-05 2.22956E-13-2.53107E-13
 -1       560 1.99998E+01 2.44566E-04 1.23697E-07 1.54494E-04-3.12976E-13 1.83166E-13
 -1       561 1.99998E+01 3.17412E-04-8.93352E-09 1.48898E-04-2.49693E-13 4.68237E-13
 -1       562 1.99997E+01 3.69565E-04-9.80014E-08 1.09649E-04-1.61071E-13 3.83523E-13
 -1       563 1.99997E+01 3.91249E-04-1.37788E-07 4.78787E-05-4.49622E-14 2.46848E-14
 -1       564 1.99997E+01 3.78432E-04-1.49917E-07-1.87263E-05-1.14086E-13 3.35612E-13
 -1       565 1.99998E+01 3.31550E-04-1.49914E-07-7.49237E-05 4.63474E-14 3.58644E-13
 -1       566 1.99998E+01 2.58143E-04-2.71462E-07-1.03902E-04 2.05985E-13 2.40622E-13
 -1       567 1.21851E+01-3.24675E+00 1.45881E-01 8.54873E+00-2.53825E-14 2.37262E-13
 -1       568 3.09098E+01-2.56147E+00-7.19002E-02-2.42494E+00 1.91789E-13 9.88862E-14
 -1       569 2.04022E+01 1.75446E+00-5.06473E-03-1.55944E+00 3.05192E-14-3.13122E-13
 -1       570 5.57896E+00-8.67891E-01 2.12246E-01 5.33806E+00-5.95496E-14 2.35381E-13
 -1       571 3.33725E+01 9.26810E+00-1.94847E-01 1.98034E-01-2.12386E-13-4.73024E-14
 -1       572 1.54728E+01 2.11245E+00 1.03944E-01 5.07950E+00-7.64389E-14-3.40596E-14
 -1       573 1.55146E+01-9.30217E-01 1.81886E-01 6.56489E+00-3.87620E-13 1.12396E-13
 -1       574 2.03219E+01 8.90618E-01 2.72256E-03 7.15080E-01 1.29621E-13 3.13353E-13
 -1       575 1.96715E+01 3.18891E+00-5.07550E-03-2.75246E-01 2.54450E-13-9.90817E-14
 -1       576 2.01809E+01 6.10529E-01 2.03007E-03 3.10265E-01 9.70534E-14 2.67153E-13
 -1       577 1.12099E+01-3.19138E+00 1.43961E-01-8.60051E+00 1.06304E-13 6.28407E-13
 -1       578 3.29639E+00-1.77313E-01 2.25472E-01 8.84379E-01 1.75636E-14 8.40300E-14
 -1       579 2.07283E+01-5.07020E+00 8.53346E-02 8.20741E+00-5.80369E-14 1.11892E-13
 -1       580 2.71704E+01-4.76382E+00-1.15608E-02 5.54056E+00-1.14832E-13-3.44863E-14
 -1       581 3.21914E+01-1.24129E+00-8.41386E-02 1.04883E+00-1.95789E-13-5.85018E-14
 -1       582 3.36987E+01 4.41109E+00-1.34409E-01-1.28745E+00-4.64177E-13 2.50272E-13
 -1       583 3.38157E+01 7.86150E+00-1.83484E-01-1.19620E+00-4.01623E-13 1.48034E-13
 -1       584 3.20156E+01 6.19577E+00-2.04776E-01 1.76817E+00 1.04076E-13-1.46529E-13
 -1       585 3.31331E+01 1.76761E+00-1.36175E-01 4.45763E-01 1.18031E-13-6.08957E-14
 -1       586 2.65451E+01-4.69273E+00 2.87765E-02-5.92379E+00 2.47240E-13 2.80331E-14
 -1       587 1.80810E+01-4.66624E+00 7.66659E-02-8.80608E+00 2.14967E-13 6.54785E-13
 -1       588 1.99912E+01 2.63567E+00-6.03823E-03-1.25431E+00 1.48042E-13-2.54690E-13
 -1       589 9.60471E+00 2.07398E+00 2.20517E-01 3.36101E+00-1.20138E-13-2.12198E-13
 -1       590 1.99999E+01-1.44927E-05 3.39593E-08-7.30966E-05-1.50246E-13-7.36592E-13
 -1       591 1.98919E+01 2.51628E+00-1.54426E-03 4.42289E-01 2.35445E-13 4.53668E-14
 -1       592 1.98850E+01 2.55477E+00-1.49574E-03 2.00387E-01 2.20448E-13-1.98688E-14
 -1       593 2.00544E+01 2.15181E+00-1.46281E-03 8.34154E-01 2.19545E-13 1.57908E-13
 -1       594 2.02026E+01 1.78616E+00 2.99673E-04 9.50320E-01 2.06427E-13 2.39156E-13
 -1       595 2.03063E+01 1.33863E+00 9.62184E-04 8.73016E-01 1.59590E-13 2.66126E-13
 -1       596 1.99455E+01 2.38927E+00-1.52305E-03 6.55426E-01 2.36448E-13 1.11451E-13
 -1       597 1.29264E+01 3.12018E+00 7.71401E-02 2.34769E+00-2.39124E-13 1.25275E-13
 -1       598 2.03156E+01 1.06344E+00 2.61159E-04-7.94726E-01 4.36582E-14-1.78829E-13
 -1       599 2.02771E+01 5.81689E-01 5.11188E-04-4.50169E-01 1.63894E-14-1.29680E-13
 -1       600 2.02289E+01 2.50717E-01 1.44231E-04-2.40336E-01-1.80695E-14-9.09996E-14
 -1       601 2.01983E+01 6.58511E-03-4.89978E-05-1.45583E-01 1.47587E-16-5.30222E-14
 -1       602 2.01949E+01-1.86294E-01-1.44645E-04-1.48342E-01 1.23162E-14-6.70322E-14
 -1       603 2.02172E+01-3.43536E-01-2.08919E-04-2.35231E-01-9.38926E-16-4.32871E-14
 -1       604 2.02562E+01-4.64119E-01-2.52019E-04-3.94928E-01 2.58711E-14-1.14685E-14
 -1       605 2.02953E+01-5.31820E-01-2.59022E-04-6.12869E-01-3.58244E-14 4.63511E-14
 -1       606 2.03103E+01-5.18149E-01-2.02797E-04-8.63924E-01-3.00655E-14 1.08474E-13
 -1       607 2.02732E+01-3.90751E-01-5.93957E-05-1.10506E+00-1.00944E-13 3.67573E-14
 -1       608 2.01617E+01-1.30121E-01 8.49227E-05-1.27248E+00-1.60891E-13 4.36955E-14
 -1       609 1.99750E+01 2.48229E-01 2.70200E-04-1.29044E+00-8.89469E-14-3.05897E-14
 -1       610 1.97471E+01 6.76492E-01 3.85833E-04-1.09605E+00-1.10920E-13-3.80546E-14
 -1       611 1.95454E+01 1.04148E+00 4.93362E-04-6.76330E-01-1.53808E-13 6.32475E-14
 -1       612 1.94445E+01 1.22485E+00 1.90512E-04-9.35051E-02-1.60955E-13 1.23790E-13
 -1       613 1.94866E+01 1.16223E+00 2.34460E-04 5.25257E-01-7.68216E-14 1.46865E-13
 -1       614 1.96546E+01 8.78860E-01 5.18527E-04 1.03731E+00-1.99983E-14 6.20111E-14
 -1       615 1.98831E+01 4.75756E-01 5.47054E-04 1.34712E+00-6.38048E-15 2.64477E-14
 -1       616 2.00968E+01 7.41689E-02 3.05873E-04 1.43526E+00 4.37235E-14-5.21905E-14
 -1       617 2.02451E+01-2.36927E-01 4.41864E-05 1.34519E+00 4.89109E-14-1.17407E-13
 -1       618 2.03136E+01-4.21824E-01-1.41039E-04 1.14812E+00 2.16842E-14-1.03594E-14
 -1       619 2.03155E+01-4.89565E-01-2.16634E-04 9.11352E-01-7.15273E-14 7.72194E-14
 -1       620 2.02757E+01-4.72601E-01-2.32399E-04 6.82155E-01-6.59905E-14 7.15033E-14
 -1       621 2.02180E+01-4.07548E-01-2.10891E-04 4.85839E-01-4.69703E-14 1.29887E-14
 -1       622 2.01593E+01-3.24161E-01-1.72044E-04 3.30953E-01-1.46706E-14 2.82740E-14
 -1       623 2.01088E+01-2.41917E-01-1.30683E-04 2.16000E-01-8.94959E-14 6.78885E-16
 -1       624 2.00699E+01-1.71018E-01-9.31737E-05 1.34789E-01 7.94821E-15-7.27679E-14
 -1       625 2.00421E+01-1.15057E-01-6.27564E-05 7.98340E-02 2.59817E-13-1.73631E-13
 -1       626 2.00237E+01-7.37035E-02-4.00454E-05 4.41457E-02 2.15468E-13-1.48209E-13
 -1       627 2.00122E+01-4.47659E-02-2.41472E-05 2.19500E-02 1.18140E-13-3.83618E-14
 -1       628 2.00055E+01-2.54851E-02-1.35995E-05 8.82476E-03-8.97808E-14 1.64093E-14
 -1       629 2.00019E+01-1.32427E-02-6.95354E-06 1.56316E-03 8.60163E-14 1.66003E-13
 -1       630 2.00002E+01-5.86463E-03-2.99314E-06-2.06086E-03 5.24755E-14 6.85274E-14
 -1       631 1.99995E+01-1.69236E-03-7.89207E-07-3.53432E-03 1.65313E-13-5.40151E-14
 -1       632 1.99993E+01 4.63606E-04 3.22220E-07-3.81455E-03-2.27091E-14-2.79320E-13
 -1       633 1.99993E+01 1.41418E-03 7.90397E-07-3.49420E-03-1.78626E-13-2.27309E-13
 -1       634 1.99994E+01 1.68760E-03 9.03936E-07-2.92376E-03 4.77000E-14-2.13663E-13
 -1       635 1.99996E+01 1.61279E-03 8.40138E-07-2.29848E-03 2.44098E-13-1.56881E-14
 -1       636 1.99997E+01 1.38465E-03 7.05728E-07-1.71769E-03-1.56920E-13 1.73868E-13
 -1       637 1.99998E+01 1.11160E-03 5.60433E-07-1.22404E-03 2.17467E-13 3.80685E-13
 -1       638 1.99998E+01 8.48406E-04 4.03778E-07-8.29116E-04 2.55530E-13 9.61257E-14
 -1       639 1.99998E+01 6.19858E-04 3.14602E-07-5.28214E-04 3.19645E-14 2.03170E-13
 -1       640 1.99998E+01 4.31521E-04 3.27267E-07-3.10738E-04 1.93663E-13-1.02934E-13
 -1       641 1.99998E+01 3.47605E-04 7.53011E-08-1.90570E-04 2.60467E-13-1.08966E-13
 -1       642 2.96920E+01 7.90786E+00-1.76523E-01-8.49194E-01-3.19703E-13-1.07976E-13
 -1       643 2.00379E+01 6.77004E-01 1.10747E-04-2.19035E-02 6.69229E-14 1.39240E-13
 -1       644 1.91017E+01 1.05670E+00 8.55759E-04-6.35984E-01 7.89086E-14 1.39147E-13
 -1       645 1.84069E+01 1.47747E+00 7.11730E-04-7.68727E-01 8.74356E-14 1.53696E-13
 -1       646 1.72221E+01 2.06993E+00 3.39572E-03-8.41570E-01 6.82680E-14 1.01273E-13
 -1       647 1.52974E+01 2.72419E+00 1.74171E-02-7.79528E-01 3.92459E-14-2.80203E-14
 -1       648 1.22448E+01 3.09176E+00 6.16035E-02-4.71484E-01 1.42195E-13-8.94979E-14
 -1       649 8.37215E+00 2.59651E+00 1.61340E-01 1.37874E-01 1.69613E-13-8.31210E-14
 -1       650 1.85124E+01 1.55125E+00 7.79796E-04 9.30687E-01 1.58183E-13 9.71796E-14
 -1       651 1.99998E+01 4.87673E-04-3.55111E-08 2.31428E-04-1.65809E-14 6.24570E-13
 -1       652 1.73300E+01 2.20713E+00 2.80685E-03 1.20899E+00-8.71224E-14 1.90129E-13
 -1       653 1.95544E+01 7.75562E-01 3.66632E-04-4.65503E-01 7.80777E-14 1.41957E-13
 -1       654 3.00515E+01-9.98886E-01-7.23173E-02 4.52152E-01 1.63737E-13-2.06057E-13
 -1       655 1.16898E+01-4.62939E-01 1.45609E-01-6.75554E+00 6.16382E-14 4.19761E-13
 -1       656 1.53451E+01 2.89434E+00 2.11346E-02 1.48425E+00-2.56440E-13 1.63379E-13
 -1       657 1.91988E+01 1.03897E+00 1.49144E-03 6.79463E-01 1.90299E-13 1.77850E-14
 -1       658 1.95851E+01 6.70389E-01 9.24030E-04 4.73051E-01-8.80843E-14-3.26419E-14
 -1       659 1.97954E+01 4.23089E-01 5.73227E-04 3.18315E-01-1.47362E-15 2.97681E-15
 -1       660 1.99064E+01 2.62508E-01 3.43292E-04 2.09018E-01-2.32020E-13-3.36878E-14
 -1       661 1.99629E+01 1.60641E-01 2.01208E-04 1.34768E-01-1.65257E-13-4.19132E-13
 -1       662 1.99901E+01 9.71339E-02 1.16922E-04 8.57376E-02-6.85989E-14-1.88798E-13
 -1       663 2.00022E+01 5.81011E-02 6.74119E-05 5.40434E-02 6.89550E-15-1.73397E-13
 -1       664 2.00066E+01 3.44135E-02 3.84440E-05 3.38821E-02 2.88883E-13-3.26750E-14
 -1       665 2.00074E+01 2.02105E-02 2.14245E-05 2.12063E-02 2.34002E-13-1.18964E-13
 -1       666 2.00066E+01 1.17960E-02 1.25097E-05 1.33043E-02 7.23201E-14-2.34278E-13
 -1       667 2.00055E+01 7.05207E-03 6.36914E-06 8.57313E-03-2.11224E-14-2.04237E-13
 -1       668 2.00042E+01 4.10445E-03 3.83386E-06 5.42719E-03 3.07041E-13-1.18268E-13
 -1       669 2.00031E+01 2.40989E-03 2.01209E-06 3.45680E-03 3.53936E-13 5.95949E-14
 -1       670 2.00022E+01 1.43802E-03 1.07052E-06 2.20603E-03 2.62346E-14 5.75145E-14
 -1       671 2.00015E+01 8.79378E-04 5.69833E-07 1.39914E-03 1.30059E-14 2.18539E-13
 -1       672 2.00009E+01 5.54263E-04 3.08159E-07 8.69124E-04 1.41643E-13 3.43985E-13
 -1       673 2.00006E+01 3.59839E-04 1.67229E-07 5.15105E-04 1.62918E-13 3.68810E-13
 -1       674 2.00003E+01 2.37675E-04 1.22132E-07 2.76203E-04 1.35625E-14-3.59002E-13
 -1       675 2.00001E+01 1.53940E-04 9.35317E-08 1.15819E-04-2.97838E-13-3.88509E-13
 -1       676 2.00000E+01 9.00430E-05 2.27407E-07 9.88205E-06 4.27584E-14-1.23391E-13
 -1       677 2.00000E+01 2.61482E-04-7.87288E-08 1.78699E-04 1.54996E-14-5.70107E-13
 -1       678 2.00000E+01 1.54926E-04-3.13392E-08 9.30092E-05 5.14509E-14-7.54640E-13
 -1       679 1.99999E+01 3.78703E-04-4.87767E-08 2.29114E-04-2.79857E-14-2.08253E-13
 -1       680 1.99997E+01 5.71151E-04-4.42967E-08 1.84546E-04 9.39726E-15 4.53067E-13
 -1       681 1.99997E+01 6.15104E-04-4.23824E-08 9.92616E-05 1.12495E-13 5.07834E-13
 -1       682 1.99996E+01 6.11804E-04 9.89541E-09-3.05528E-06 2.11739E-13 9.57772E-14
 -1       683 1.99997E+01 5.58857E-04-2.09046E-07-1.03697E-04 1.92537E-13 3.63456E-13
 -1       684 1.99997E+01 4.63649E-04-2.01221E-07-1.65788E-04 2.58741E-13 5.74354E-13
 -1       685 2.27334E+01-4.53931E+00 4.18309E-02-6.74179E+00 4.09461E-13-5.15070E-14
 -1       686 2.82349E+01-3.97447E+00-1.40705E-02-3.03295E+00 3.12111E-13-9.86017E-15
 -1       687 2.84661E+01 7.11601E+00-1.64060E-01 1.09844E+00-2.07334E-14-2.14339E-13
 -1       688 2.89113E+01-3.63330E+00-2.78203E-02 2.13466E+00-7.58401E-14-1.20303E-13
 -1       689 1.14897E+01-2.30208E-01 1.42866E-01 6.26894E+00 1.23179E-13 2.03705E-13
 -1       690 8.81963E+00 2.32193E+00 1.60831E-01-2.37219E+00-2.84900E-13 2.69576E-13
 -1       691 1.98418E+01 6.51015E-01 2.44747E-04-2.65814E-01 6.69376E-14 1.24075E-13
 -1       692 2.00448E+01 2.25252E+00-1.58900E-03-6.01007E-01 1.88605E-13-1.43468E-13
 -1       693 2.44394E+01-4.74685E+00 2.34684E-02 5.68435E+00-3.84935E-14-1.79149E-14
 -1       694 2.95087E+01 2.78320E+00-1.12853E-01 2.13081E+00 1.33553E-13-1.83561E-13
 -1       695 2.99219E+01 5.31818E+00-1.46820E-01-2.10639E+00-5.18245E-13-6.40356E-14
 -1       696 1.84571E+01-3.44715E+00 9.73043E-02 7.60623E+00-4.19803E-15 1.08562E-13
 -1       697 1.68252E+01-2.96571E+00 1.00776E-01-7.94775E+00 2.72480E-13 3.66009E-13
 -1       698 3.06058E+01 1.10557E+00-1.18573E-01-1.46458E+00-3.96252E-13-2.17742E-14
 -1       699 2.02333E+01 9.48483E-01 8.99000E-04 4.70493E-01 1.37876E-13 2.18262E-13
 -1       700 1.99138E+01 2.51975E+00-1.49556E-03-6.18246E-02 2.13197E-13-7.02905E-14
 -1       701 1.99690E+01 2.41932E+00-1.54432E-03-3.33648E-01 2.09803E-13-1.05738E-13
 -1       702 1.03578E+01 3.04437E+00 1.19770E-01 2.84887E-01-3.22848E-13 2.32703E-13
 -1       703 2.01493E+01 7.64884E-01-1.05100E-04 1.98138E-01 1.11239E-13 1.55482E-13
 -1       704 2.88943E+01-1.79803E+00-5.75706E-02-4.35451E-01-1.43754E-13 3.66998E-14
 -1       705 2.02790E+01 1.65057E+00-2.00392E-03-1.14384E+00 8.28152E-14-2.40331E-13
 -1       706 8.71824E+00 1.57845E+00 1.78918E-01 3.58275E+00 9.28355E-14 2.32897E-13
 -1       707 2.70937E+01 4.64754E+00-7.82471E-02 2.03493E+00 1.17864E-13-1.85378E-13
 -1       708 2.01463E+01 2.00750E+00-1.83556E-03-8.48900E-01 1.53955E-13-1.99629E-13
 -1       709 2.02224E+01 1.28783E+00 5.56048E-04 5.92716E-01 1.74095E-13 1.97878E-13
 -1       710 2.69159E+01 5.73376E+00-8.94458E-02-1.56077E+00-3.32182E-13-1.82811E-13
 -1       711 2.03362E+01 1.07385E+00 1.62650E-04-5.89959E-01 6.59188E-14-1.50485E-13
 -1       712 1.63877E+01-1.21537E+00 5.77927E-02 6.16865E+00 9.42198E-14 1.10634E-13
 -1       713 2.79560E+01-2.74078E+00-2.06196E-02-7.01343E-01 2.70274E-13-2.68820E-13
 -1       714 2.51753E+01-4.08567E+00 5.19373E-03-4.11364E+00 3.53672E-13-3.57331E-14
 -1       715 2.03795E+01 5.82478E-01-8.64754E-05-3.35475E-01 6.11971E-14-9.37775E-14
 -1       716 2.04132E+01 2.09942E-01-3.94230E-05-1.77270E-01 3.35488E-14-1.55189E-14
 -1       717 2.04610E+01-8.67496E-02-5.43106E-05-1.10910E-01-3.34855E-14 1.43756E-14
 -1       718 2.05399E+01-3.34280E-01-6.93673E-05-1.30475E-01-2.24063E-15-1.36539E-14
 -1       719 2.06556E+01-5.41450E-01-9.09279E-05-2.32459E-01 2.47881E-14 5.66368E-15
 -1       720 2.08020E+01-6.97221E-01-1.15893E-04-4.13965E-01 2.32745E-14 9.81637E-15
 -1       721 2.09580E+01-7.69341E-01-1.17378E-04-6.66459E-01 1.76481E-14 3.19521E-14
 -1       722 2.10859E+01-7.07896E-01-5.14797E-05-9.64761E-01-7.91827E-14 4.00612E-14
 -1       723 2.11375E+01-4.60143E-01 1.30563E-04-1.25390E+00-6.40370E-14 6.74261E-14
 -1       724 2.10727E+01-2.70263E-03 3.23056E-05-1.44295E+00-1.23418E-13-2.69749E-14
 -1       725 2.08883E+01 6.19618E-01 1.12496E-04-1.42076E+00-1.27090E-13 1.61448E-14
 -1       726 2.06442E+01 1.26345E+00 4.04234E-05-1.10292E+00-7.34138E-14 4.43193E-14
 -1       727 2.04502E+01 1.72387E+00 5.98372E-04-4.98001E-01-1.07078E-13 9.83947E-14
 -1       728 2.04028E+01 1.82818E+00-2.57974E-04 2.58465E-01-4.54514E-14 2.05420E-13
 -1       729 2.05325E+01 1.52787E+00 3.41198E-04 9.58544E-01-6.77377E-14 1.79647E-13
 -1       730 2.07590E+01 9.56454E-01 8.40312E-04 1.42182E+00-1.62167E-14 2.47047E-13
 -1       731 2.09684E+01 3.17860E-01 5.59672E-04 1.58352E+00-4.60743E-14 1.52910E-13
 -1       732 2.10758E+01-2.12960E-01 1.53522E-04 1.49306E+00-2.03434E-15 1.48833E-13
 -1       733 2.10573E+01-5.50726E-01-1.05122E-04 1.25422E+00 9.46472E-14 1.15732E-13
 -1       734 2.09391E+01-6.96031E-01-1.28141E-04 9.67001E-01 4.96914E-15 5.49947E-14
 -1       735 2.07677E+01-6.97325E-01-1.17271E-04 6.97730E-01-8.35237E-14-4.49768E-14
 -1       736 2.05855E+01-6.14067E-01-9.40993E-05 4.77342E-01-1.22236E-13-1.16184E-13
 -1       737 2.04208E+01-4.95606E-01-6.69057E-05 3.12066E-01 4.69146E-14 5.99104E-14
 -1       738 2.02866E+01-3.74460E-01-4.75215E-05 1.95585E-01-2.10392E-15 1.16931E-13
 -1       739 2.01855E+01-2.68008E-01-3.20277E-05 1.17304E-01 1.58251E-14 2.51793E-13
 -1       740 2.01140E+01-1.82828E-01-1.99124E-05 6.67154E-02-6.96598E-14 3.13780E-13
 -1       741 2.00661E+01-1.19099E-01-1.14740E-05 3.51949E-02 4.92185E-14 6.66985E-14
 -1       742 2.00356E+01-7.39206E-02-6.23665E-06 1.63053E-02 2.06218E-13-8.59126E-14
 -1       743 2.00172E+01-4.33681E-02-3.16982E-06 5.51245E-03 4.08902E-15-3.70059E-14
 -1       744 2.00068E+01-2.36151E-02-1.44640E-06-2.48499E-04 1.35252E-13 5.85111E-14
 -1       745 2.00014E+01-1.14311E-02-5.21854E-07-2.98508E-03 1.04639E-13 9.33121E-14
 -1       746 1.99988E+01-4.31620E-03-5.78198E-08-3.97828E-03-1.77574E-13 2.16106E-13
 -1       747 1.99979E+01-4.52469E-04 1.49839E-07-4.02510E-03-1.35508E-13-8.65844E-14
 -1       748 1.99979E+01 1.41861E-03 2.20898E-07-3.60748E-03 2.47934E-14-1.68689E-13
 -1       749 1.99981E+01 2.13135E-03 2.24040E-07-3.00648E-03 7.23872E-14 1.05381E-14
 -1       750 1.99985E+01 2.21636E-03 1.93069E-07-2.37766E-03 2.85249E-13 1.59742E-13
 -1       751 1.99989E+01 1.99662E-03 1.46736E-07-1.80009E-03 1.14477E-13 2.95729E-13
 -1       752 1.99992E+01 1.65882E-03 1.26862E-07-1.30769E-03 1.47029E-13 3.30340E-13
 -1       753 1.99994E+01 1.30336E-03 1.26819E-07-9.08492E-04 2.19420E-13 2.99126E-13
 -1       754 1.99996E+01 9.77235E-04 6.31342E-08-6.00779E-04 1.64521E-13 4.42009E-13
 -1       755 1.99997E+01 7.02048E-04 4.30218E-08-3.71490E-04 5.97535E-14 3.87367E-13
 -1       756 1.99997E+01 5.79284E-04-1.22450E-07-2.54866E-04-9.75727E-14 5.41254E-13
 -1       757 1.86407E+01 1.23187E+00-3.63156E-04-3.52976E-02 8.26862E-14 9.20090E-14
 -1       758 1.41054E+01 2.30315E+00 4.18247E-02 1.81154E+00 1.00297E-13 1.44260E-13
 -1       759 1.18685E+01 2.21063E+00 9.63328E-02 2.61558E+00 1.29215E-13 1.17777E-13
 -1       760 1.90592E+01 9.24722E-01 2.90060E-04 1.69959E-01-3.10156E-14 3.32062E-13
 -1       761 1.99996E+01 8.70477E-04-9.39253E-08 1.88502E-04 2.95446E-13 4.65568E-13
 -1       762 1.99997E+01 7.87832E-04-9.60877E-08 2.98682E-04 2.54316E-13 5.12462E-13
 -1       763 1.83908E+01 1.35251E+00 1.94475E-03 1.21309E-01 1.45978E-13-2.66175E-14
 -1       764 1.92777E+01 9.54489E-01-9.66465E-05-1.25265E-01 7.27586E-14 1.06206E-13
 -1       765 1.94616E+01 6.13087E-01 1.14417E-04 1.59658E-01-7.82295E-14 2.85216E-13
 -1       766 1.96997E+01 3.96749E-01 6.42244E-05 1.29684E-01-8.03532E-14 1.45957E-13
 -1       767 1.98375E+01 2.51920E-01 3.82734E-05 9.75833E-02-7.99699E-14 5.01816E-14
 -1       768 1.99156E+01 1.57501E-01 2.33488E-05 7.01503E-02-8.21102E-14 8.74254E-14
 -1       769 1.99587E+01 9.71994E-02 1.44227E-05 4.90174E-02 4.79972E-14-1.20992E-13
 -1       770 1.99818E+01 5.93348E-02 8.89113E-06 3.36633E-02 2.04418E-14-1.46621E-13
 -1       771 1.99935E+01 3.59064E-02 4.93160E-06 2.28980E-02 1.99083E-13-1.13483E-13
 -1       772 1.99991E+01 2.16085E-02 3.38268E-06 1.55243E-02 1.71988E-13 5.35414E-14
 -1       773 2.00014E+01 1.33049E-02 2.01952E-06 1.07155E-02 3.72393E-14 7.14961E-14
 -1       774 2.00022E+01 7.99260E-03 1.21148E-06 7.25768E-03 8.82103E-14-1.44970E-13
 -1       775 2.00022E+01 4.84250E-03 7.69715E-07 4.92453E-03 1.55265E-13-2.77324E-14
 -1       776 2.00018E+01 2.97587E-03 4.44154E-07 3.33739E-03 1.71052E-13 1.66467E-13
 -1       777 2.00014E+01 1.86644E-03 2.51940E-07 2.24874E-03-1.50005E-14-1.44327E-13
 -1       778 2.00010E+01 1.19956E-03 1.48045E-07 1.49526E-03-1.06091E-14-1.62946E-13
 -1       779 2.00007E+01 7.89794E-04 7.74127E-08 9.69987E-04 2.57120E-13-2.59098E-14
 -1       780 2.00004E+01 5.29007E-04 1.12630E-07 6.02963E-04 3.11212E-13-1.25735E-13
 -1       781 2.00002E+01 3.55034E-04 5.08844E-07 3.47968E-04-5.28848E-14-8.92838E-14
 -1       782 2.00001E+01 2.49862E-04 2.77461E-07 1.95585E-04-2.68471E-13-4.29859E-13
 -1       783 2.62671E+01-3.94496E+00 7.78778E-03 2.93318E+00 5.80473E-14-8.77568E-14
 -1       784 2.00000E+01 4.08267E-04-6.86814E-08 3.05787E-04 1.16107E-13-3.17859E-13
 -1       785 2.17782E+01-3.57939E+00 3.21580E-02 5.79654E+00 2.50407E-14 1.23335E-14
 -1       786 2.78638E+01 2.33904E+00-6.90620E-02-2.31751E+00-3.37641E-13 4.64941E-14
 -1       787 1.99998E+01 6.55898E-04-2.35300E-07 3.49613E-04 3.89343E-13 1.24121E-13
 -1       788 1.99995E+01 8.92199E-04-2.81990E-08 4.34466E-05 1.87769E-13 3.76276E-13
 -1       789 1.99995E+01 8.47357E-04-5.89668E-08-1.10936E-04 9.10684E-14 6.55829E-14
 -1       790 1.26117E+01 1.49315E+00 7.10310E-02-4.17041E+00-2.29750E-13 2.61027E-13
 -1       791 1.99528E+01 8.25100E-01 6.63569E-06 2.97164E-02 5.92248E-14 9.16130E-14
 -1       792 2.77707E+01 1.84309E-01-4.35608E-02 1.67164E+00 1.99555E-13-3.03444E-13
 -1       793 1.96879E+01 8.16550E-01-5.38774E-07-9.34481E-02 4.66738E-14 9.03538E-14
 -1       794 1.38247E+01 2.98853E+00 3.57003E-02 1.61715E-02-1.44487E-13 2.74219E-13
 -1       795 1.99999E+01 5.37942E-04-1.16803E-07 3.50410E-04 3.43336E-13-3.75656E-13
 -1       796 2.59793E+01 6.23689E+00-8.64643E-02 1.32439E-01-1.95691E-13-2.77744E-13
 -1       797 1.62337E+01 2.44718E+00 4.52340E-03 3.50622E-01-1.44380E-13 1.83915E-13
 -1       798 1.75261E+01 1.85521E+00 3.25856E-03 2.01847E-01 1.62433E-13-7.02008E-14
 -1       799 1.62470E+01 2.03240E+00 7.46388E-03 7.90119E-01 1.16342E-13 1.48002E-13
 -1       800 1.76819E+01 1.61749E+00 7.06971E-04 2.30334E-01 1.04820E-13 1.17508E-13
 -1       801 2.00655E+01 1.94936E+00-3.04527E-04 2.98133E-01 2.02990E-13 2.80886E-14
 -1       802 2.01007E+01 1.93115E+00-3.54132E-04 1.09928E-01 1.79172E-13-2.52495E-14
 -1       803 1.35431E+01 1.07143E+00 6.52296E-02 4.32641E+00 6.58150E-14 1.83957E-13
 -1       804 2.69572E+01-2.92533E+00-1.91603E-02 6.80626E-01-1.16117E-14 3.10581E-14
 -1       805 2.00839E+01 9.17374E-01 4.17363E-04 1.68006E-01 1.30085E-13 1.18556E-13
 -1       806 2.50606E+01 4.84620E+00-3.88035E-02 1.23965E+00-3.85308E-14-3.51872E-13
 -1       807 1.58738E+01-6.05080E-01 6.89251E-02-5.94702E+00 3.27325E-14 1.77624E-13
 -1       808 1.23236E+01 2.56315E+00 8.43429E-02-2.10123E+00-2.58971E-13 3.43829E-13
 -1       809 1.99996E+01 7.22184E-04-9.81229E-08-2.02701E-04 1.16256E-13 2.68874E-13
 -1       810 2.00627E+01 1.88765E+00-2.46288E-04 4.47042E-01 2.07161E-13 6.15308E-14
 -1       811 2.61542E+01 2.18656E+00-3.04954E-02 2.21699E+00 2.21280E-13-1.92679E-13
 -1       812 2.02152E+01 1.70322E+00-2.31540E-04-3.17822E-01 1.73425E-13-1.16969E-13
 -1       813 2.04263E+01-2.92342E+00 3.60144E-02-6.09918E+00 2.85849E-13 9.67386E-14
 -1       814 2.02692E+01 1.50171E+00-9.34274E-04-5.07787E-01 1.59172E-13-1.24818E-13
 -1       815 2.01017E+01 1.73076E+00-6.17434E-04 5.49964E-01 1.80946E-13 1.22115E-13
 -1       816 1.67577E+01-3.09187E-02 2.15329E-02 4.45648E+00 1.13919E-13 1.27734E-13
 -1       817 2.01550E+01 1.84690E+00-3.47199E-04-1.02396E-01 1.82161E-13-9.34732E-14
 -1       818 2.01362E+01 1.16934E+00-4.17442E-04 3.46871E-01 1.88241E-13 1.99309E-13
 -1       819 1.53262E+01 2.13915E+00 1.56273E-02-1.73410E+00-4.03701E-14 6.25884E-14
 -1       820 2.62692E+01-1.61849E+00-1.11713E-02 6.57057E-01 1.47224E-13-9.13447E-14
 -1       821 1.92083E+01 6.91009E-01-9.49021E-05-1.80589E-01 1.44111E-14 3.25389E-13
 -1       822 2.04888E+01 5.20474E-01 4.97614E-05-1.86871E-01 9.71728E-14-7.83850E-14
 -1       823 2.05881E+01 1.20779E-01-2.85798E-05-6.52155E-02 4.51963E-14-6.10708E-14
 -1       824 2.07122E+01-2.17689E-01-2.33145E-05-1.28301E-02 1.78583E-14 3.74768E-14
 -1       825 2.08833E+01-5.15008E-01-3.53654E-05-3.43101E-02 5.51571E-15 4.29588E-14
 -1       826 2.11126E+01-7.72277E-01-7.42774E-05-1.38005E-01 5.35307E-15 2.46856E-14
 -1       827 2.13949E+01-9.64911E-01-1.33961E-04-3.35037E-01 4.64212E-14 1.03143E-14
 -1       828 2.17002E+01-1.03702E+00-1.59750E-04-6.29578E-01-5.28680E-15 5.02176E-14
 -1       829 2.19685E+01-9.04449E-01-7.31769E-05-1.00006E+00-9.22418E-14 4.09639E-14
 -1       830 2.21191E+01-4.80902E-01 4.42908E-04-1.37207E+00-1.45944E-13-5.41593E-14
 -1       831 2.20819E+01 2.59997E-01-9.80338E-04-1.60914E+00-8.11308E-14-1.77148E-14
 -1       832 2.18635E+01 1.21386E+00-1.09963E-03-1.52772E+00-3.44755E-14 5.11415E-14
 -1       833 2.15737E+01 2.10688E+00 1.45940E-04-1.02809E+00-1.21404E-14 1.33305E-13
 -1       834 2.13977E+01 2.54731E+00 3.13072E-03-1.69692E-01-4.53303E-14 1.65931E-13
 -1       835 2.14443E+01 2.38874E+00 2.13944E-03 7.56968E-01-8.71387E-14 2.91257E-13
 -1       836 2.16972E+01 1.67756E+00 3.16603E-03 1.44167E+00-1.39724E-14 3.30024E-13
 -1       837 2.19431E+01 7.32965E-01 3.61602E-04 1.71369E+00-7.03537E-14 2.24533E-13
 -1       838 2.20408E+01-1.09339E-01-2.78034E-04 1.61425E+00 2.51925E-15 1.73562E-13
 -1       839 2.19414E+01-6.68810E-01-5.93628E-04 1.29943E+00-2.28198E-14 1.14709E-13
 -1       840 2.16865E+01-9.25549E-01-3.04646E-04 9.30276E-01-1.93663E-15 1.42022E-13
 -1       841 2.13562E+01-9.53353E-01-1.80361E-04 6.06003E-01-1.51503E-13 2.83951E-14
 -1       842 2.10225E+01-8.47153E-01-9.94807E-05 3.63641E-01-1.62592E-13 1.01058E-13
 -1       843 2.07298E+01-6.85627E-01-4.33695E-05 2.01278E-01 2.60952E-14 6.96565E-14
 -1       844 2.04961E+01-5.18531E-01-2.63265E-05 1.01301E-01 1.82954E-13 8.62474E-14
 -1       845 2.03221E+01-3.71620E-01-1.80539E-05 4.42270E-02-3.87040E-14 1.39996E-13
 -1       846 2.01998E+01-2.54309E-01-1.00684E-05 1.39671E-02 3.33320E-14 6.85397E-14
 -1       847 2.01178E+01-1.66619E-01-3.74822E-06-6.93886E-04-6.25252E-14 2.11738E-13
 -1       848 2.00652E+01-1.04381E-01-7.38370E-07-6.83680E-03 3.77948E-14 1.78845E-13
 -1       849 2.00331E+01-6.21330E-02 3.12882E-07-8.64684E-03 1.45452E-13-3.94912E-14
 -1       850 2.00145E+01-3.46281E-02 5.34375E-07-8.44099E-03 2.78875E-13-1.23052E-14
 -1       851 2.00043E+01-1.74738E-02 4.70979E-07-7.42378E-03 1.27417E-13 1.47079E-13
 -1       852 1.99993E+01-7.28700E-03 3.41576E-07-6.18152E-03 1.37773E-13 5.51908E-14
 -1       853 1.99972E+01-1.60782E-03 2.25413E-07-4.97646E-03-2.22561E-13 3.31467E-13
 -1       854 1.99967E+01 1.27207E-03 1.40196E-07-3.91036E-03-3.52630E-13 4.81419E-13
 -1       855 1.99970E+01 2.49309E-03 8.39511E-08-3.01032E-03 2.44578E-13 3.48619E-13
 -1       856 1.99975E+01 2.78842E-03 5.11385E-08-2.27143E-03 1.99647E-13 2.28036E-13
 -1       857 1.99981E+01 2.61125E-03 1.89344E-08-1.67677E-03 3.69404E-13 2.59200E-13
 -1       858 1.99986E+01 2.22953E-03-4.16189E-08-1.20642E-03 2.58623E-13 3.54464E-13
 -1       859 1.99990E+01 1.79163E-03-9.56622E-09-8.40474E-04 1.31342E-13 5.08274E-13
 -1       860 1.99993E+01 1.37514E-03-5.69055E-07-5.57729E-04 2.55857E-13 2.75074E-13
 -1       861 1.95207E+01 4.73815E-01-4.76948E-05-6.82963E-02 1.24490E-13 1.83536E-13
 -1       862 1.99994E+01 1.19733E-03-3.88208E-08-7.95710E-05-1.55915E-13-7.66446E-14
 -1       863 1.99995E+01 1.15365E-03-3.90178E-07 3.33105E-04 3.36696E-13 3.61148E-13
 -1       864 1.99994E+01 1.21438E-03-1.85177E-07 1.39756E-04-1.66820E-13 3.34000E-13
 -1       865 1.87232E+01 9.68520E-01-2.84639E-04-4.02573E-01-1.76993E-13 2.18643E-13
 -1       866 1.91707E+01 9.08862E-01-6.89814E-05 4.10322E-01 7.27061E-14 9.85742E-14
 -1       867 1.97166E+01 3.15690E-01-2.64201E-05-1.48814E-02-7.98876E-14 1.53201E-13
 -1       868 1.98366E+01 2.05737E-01-1.52570E-05 7.94809E-03-4.33203E-14 6.93091E-14
 -1       869 1.99084E+01 1.31758E-01-8.82502E-06 1.57355E-02-9.44169E-15 1.42491E-13
 -1       870 1.99504E+01 8.32300E-02-4.95755E-06 1.66569E-02-2.70260E-14 3.49061E-13
 -1       871 1.99743E+01 5.20378E-02-3.35735E-06 1.48143E-02 1.27443E-13 4.52160E-13
 -1       872 1.99876E+01 3.23402E-02-1.67439E-06 1.21717E-02 1.25916E-13 1.84272E-13
 -1       873 1.99944E+01 2.05273E-02 6.00628E-08 9.66787E-03 9.92889E-14 1.34992E-13
 -1       874 1.99981E+01 1.27340E-02-4.62499E-07 7.36773E-03 2.30250E-13 2.24709E-13
 -1       875 1.99998E+01 7.96540E-03-2.71791E-08 5.50141E-03-2.39806E-14 8.74900E-14
 -1       876 2.00005E+01 5.04716E-03 1.75984E-08 4.03451E-03 2.42552E-14 6.71561E-14
 -1       877 2.00007E+01 3.25493E-03 2.88207E-08 2.90796E-03 1.93407E-13 3.21535E-13
 -1       878 2.00007E+01 2.14234E-03 1.39055E-08 2.05613E-03 1.90485E-13 8.47044E-14
 -1       879 2.00005E+01 1.43809E-03 1.97764E-08 1.42013E-03 1.83358E-13-1.22714E-13
 -1       880 2.00004E+01 9.79884E-04 5.49534E-08 9.51498E-04 3.05071E-13-4.23445E-13
 -1       881 2.00002E+01 6.70696E-04 3.09020E-07 6.12580E-04 1.56819E-13-2.91018E-13
 -1       882 2.00001E+01 5.30267E-04-7.01992E-08 4.39607E-04 1.24060E-14-1.70452E-13
 -1       883 2.56471E+01-3.08686E+00-1.13395E-03-1.60934E+00 2.03594E-13-4.89110E-14
 -1       884 1.60366E+01 8.14299E-01 2.48987E-02-3.84292E+00 8.49896E-14 7.48204E-14
 -1       885 2.44496E+01 4.72926E+00-3.47545E-02-9.23725E-01-1.34901E-13 8.17872E-14
 -1       886 1.99997E+01 1.01551E-03-1.64421E-07 4.65747E-04 8.08728E-13 1.56958E-13
 -1       887 2.02749E+01-2.11160E+00 1.97821E-02 4.92589E+00 9.48980E-14-1.51840E-14
 -1       888 2.66914E+01-4.40745E-01-2.01353E-02-1.61668E+00-9.86758E-14 1.12708E-13
 -1       889 2.53509E+01 2.94406E+00-2.84023E-02-2.10572E+00-2.39321E-13 1.71724E-13
 -1       890 1.67219E+01 1.08062E+00 9.21384E-03 2.68136E+00 9.22982E-14 1.55931E-13
 -1       891 2.29235E+01-3.04634E+00 1.01398E-02-4.04164E+00 1.43353E-13-3.03267E-14
 -1       892 2.36043E+01-3.23798E+00 1.16472E-02 3.57187E+00 4.73146E-16-5.48023E-14
 -1       893 1.86039E+01-1.06097E+00 1.94481E-02-4.87044E+00 1.35998E-13 5.65069E-14
 -1       894 2.03549E+01 1.23494E+00-3.10565E-05-8.36491E-02 1.45178E-13-1.02928E-13
 -1       895 2.55011E+01-7.49240E-03-1.21473E-02 1.73917E+00 7.14717E-14-6.89813E-15
 -1       896 2.01570E+01 1.44982E+00 2.53982E-05 3.39369E-01 1.75887E-13 2.94846E-14
 -1       897 1.96003E+01 8.33347E-01-5.79287E-06 2.18931E-01 5.02906E-14 7.74587E-14
 -1       898 1.99995E+01 1.01266E-03 8.84123E-07-3.50893E-04-1.63476E-13 2.55390E-13
 -1       899 1.85614E+01 1.04606E+00-2.49142E-04 8.12323E-01 5.91714E-14 8.87740E-14
 -1       900 2.00587E+01 1.02624E+00-2.21696E-04 2.42041E-01 1.33043E-13 2.05906E-13
 -1       901 2.00000E+01 7.02374E-04 1.62647E-07 4.88831E-04 1.46893E-13-1.88527E-13
 -1       902 2.35842E+01 4.38272E+00-1.86130E-02 1.90314E-01 8.01325E-14-5.17490E-14
 -1       903 2.44714E+01 3.03483E+00-2.24457E-02 1.84854E+00 2.45201E-14-2.91018E-13
 -1       904 1.69254E+01 1.69192E+00 4.06020E-03-1.20208E+00 5.53873E-14 4.96803E-14
 -1       905 1.77363E+01 1.15607E+00 1.91480E-03 1.54160E+00 7.91468E-14 1.37306E-13
 -1       906 2.49571E+01-3.13575E+00-4.88012E-03 1.89087E+00 5.53372E-14-1.59632E-14
 -1       907 2.02204E+01 1.43436E+00 3.94074E-04 2.35313E-01 1.79041E-13 6.79051E-15
 -1       908 1.79960E+01 1.28319E+00 9.68969E-04-8.15502E-01 1.15917E-13 2.42255E-13
 -1       909 1.99998E+01 8.66401E-04 1.91646E-07 4.98622E-04 5.42943E-13 2.69551E-13
 -1       910 1.98886E+01 8.63341E-01 3.29911E-05 1.76793E-01 8.33810E-14 1.50252E-13
 -1       911 2.03822E+01 1.01628E+00 1.56746E-04-3.77460E-01 1.03330E-13-8.18816E-14
 -1       912 2.01240E+01 1.38589E+00-8.27715E-05 3.83692E-01 1.43706E-13 8.77033E-14
 -1       913 2.02933E+01 1.35674E+00 1.46531E-04 8.70450E-02 1.51353E-13-4.07062E-14
 -1       914 2.01344E+01 1.08586E+00-1.69146E-04 3.37982E-01 1.33232E-13 3.08161E-15
 -1       915 2.04474E+01 9.04416E-01 3.91114E-04-1.59913E-01 1.25153E-13-1.26543E-13
 -1       916 1.89210E+01-4.07730E-01 1.06353E-02 3.44029E+00 1.07601E-13 1.47486E-14
 -1       917 1.94635E+01 4.32525E-01-8.03395E-06-3.54645E-01 9.54872E-14 2.75329E-13
 -1       918 2.07377E+01 6.37289E-03 6.99361E-05 9.69456E-02 9.15420E-14-6.62962E-14
 -1       919 2.09321E+01-3.65488E-01 7.59275E-05 1.59654E-01 2.62405E-14-5.12824E-14
 -1       920 2.12007E+01-7.12087E-01-9.19993E-06 1.61516E-01 1.56200E-14 9.03609E-15
 -1       921 2.15634E+01-1.02750E+00-1.16406E-04 7.72348E-02 3.41918E-14 4.35900E-14
 -1       922 2.20178E+01-1.27085E+00-2.62392E-04-1.26505E-01 4.75293E-15 9.02783E-15
 -1       923 2.25227E+01-1.35139E+00-4.11123E-04-4.78040E-01-1.10897E-14 1.04626E-17
 -1       924 2.29842E+01-1.12697E+00-2.29510E-04-9.67731E-01-1.15208E-13 6.28614E-14
 -1       925 2.32542E+01-4.67150E-01-1.70570E-03-1.46938E+00-6.51818E-14 2.62190E-13
 -1       926 2.32453E+01 7.33598E-01 2.42788E-03-1.80048E+00-1.40990E-14 3.35832E-13
 -1       927 2.29332E+01 2.13063E+00-4.37217E-03-1.64647E+00-6.46216E-14 2.39944E-13
 -1       928 2.26250E+01 3.19141E+00-7.79794E-03-8.25008E-01-7.22079E-16 9.74242E-14
 -1       929 2.30218E+01 1.39986E+00-5.47054E-03 1.87471E+00-7.45590E-14 1.91768E-13
 -1       930 2.31932E+01 1.11965E-01-9.75429E-05 1.75870E+00-3.07221E-14 1.29217E-13
 -1       931 2.30031E+01-7.85034E-01-3.26826E-04 1.29954E+00-2.62455E-14 7.27847E-14
 -1       932 2.25660E+01-1.19937E+00-6.67764E-04 7.87038E-01 5.10217E-14 5.52284E-14
 -1       933 2.20252E+01-1.25213E+00-5.21971E-04 3.80369E-01-7.88931E-14 1.51557E-13
 -1       934 2.14992E+01-1.10522E+00-1.95966E-04 1.15204E-01-1.24958E-13 2.23744E-13
 -1       935 2.10522E+01-8.83300E-01-2.34394E-05-2.71841E-02-3.38482E-14 2.94898E-13
 -1       936 2.07054E+01-6.59129E-01-5.05622E-06-8.70473E-02 5.38244E-14 2.60274E-13
 -1       937 2.04533E+01-4.66350E-01-5.44425E-07-9.93204E-02 1.77576E-14-2.32821E-14
 -1       938 2.02794E+01-3.15886E-01 1.53657E-06-8.89273E-02-7.03039E-15 1.70725E-13
 -1       939 2.01644E+01-2.05381E-01 6.81997E-06-7.08203E-02 1.35707E-13 2.20736E-13
 -1       940 2.00914E+01-1.28035E-01 7.56784E-06-5.24665E-02 3.29460E-14 2.32608E-13
 -1       941 2.00470E+01-7.60697E-02 5.94147E-06-3.70272E-02 1.81094E-14 2.53395E-13
 -1       942 2.00211E+01-4.24579E-02 4.01320E-06-2.52708E-02 2.04132E-13 2.92435E-13
 -1       943 2.00070E+01-2.15508E-02 2.55018E-06-1.68646E-02 2.12461E-13 3.70057E-14
 -1       944 1.99998E+01-9.11984E-03 1.53462E-06-1.11052E-02 1.01172E-13-3.78861E-14
 -1       945 1.99967E+01-2.14922E-03 8.89354E-07-7.27249E-03 2.65593E-13 9.07269E-15
 -1       946 1.99958E+01 1.43004E-03 4.95061E-07-4.76760E-03-1.80926E-13 1.37405E-13
 -1       947 1.99959E+01 2.98995E-03 2.57645E-07-3.14339E-03-1.43896E-13 1.29927E-13
 -1       948 1.99966E+01 3.41149E-03 1.26952E-07-2.08821E-03 1.14459E-13 7.54438E-14
 -1       949 1.99973E+01 3.24104E-03 7.33185E-08-1.39500E-03 3.32604E-13 2.95014E-13
 -1       950 1.99980E+01 2.80374E-03-5.44923E-08-9.31343E-04 2.68575E-13 3.63582E-13
 -1       951 1.99985E+01 2.28333E-03-5.92117E-07-6.16352E-04 2.30421E-13 4.18924E-13
 -1       952 1.99990E+01 1.77894E-03-6.49474E-07-3.97292E-04 1.33246E-13 2.94086E-13
 -1       953 1.97874E+01 2.15239E-01-1.04551E-06-9.93634E-02 3.03586E-14 1.75164E-13
 -1       954 1.98712E+01 1.45051E-01-3.49971E-06-4.76100E-02-1.56066E-13 3.26007E-13
 -1       955 1.96577E+01 3.10836E-01 1.95861E-06-1.92332E-01 2.67921E-14 2.23818E-13
 -1       956 1.99239E+01 9.58248E-02-3.80088E-06-1.97700E-02-1.01586E-13 4.17406E-13
 -1       957 1.91843E+01 5.70482E-01-1.47122E-04-6.29923E-01-1.42462E-13 4.54432E-14
 -1       958 1.99561E+01 6.24295E-02-3.36722E-06-5.50113E-03 9.22974E-14 2.57716E-13
 -1       959 1.99753E+01 4.03409E-02-3.08006E-06 1.27645E-03 2.58472E-13 2.40024E-13
 -1       960 1.99861E+01 2.65511E-02-2.68048E-07 3.94332E-03 1.31121E-13 2.02696E-13
 -1       961 1.99927E+01 1.71063E-02-1.35082E-06 4.70380E-03-1.83748E-14 1.92136E-13
 -1       962 1.99964E+01 1.11070E-02-5.01705E-07 4.46145E-03 8.07465E-14 3.33492E-13
 -1       963 1.99983E+01 7.29601E-03-3.23925E-07 3.80681E-03 1.20889E-13 4.64457E-13
 -1       964 1.99993E+01 4.86551E-03-2.05531E-07 3.04900E-03-6.57566E-14 2.26189E-13
 -1       965 1.99998E+01 3.29887E-03-1.22837E-07 2.33409E-03 3.15567E-13 1.25825E-13
 -1       966 2.00000E+01 2.27170E-03-4.08431E-08 1.72068E-03 3.21453E-13 2.78524E-14
 -1       967 2.00001E+01 1.58110E-03 1.45758E-07 1.22630E-03 5.46100E-13-1.97444E-13
 -1       968 2.00001E+01 1.10565E-03-7.09382E-07 8.40983E-04 1.60785E-13-4.46979E-14
 -1       969 2.00000E+01 8.89215E-04 1.68662E-06 6.49626E-04 1.11312E-13 2.88863E-14
 -1       970 1.99995E+01 1.46771E-03 1.41866E-07 5.45763E-04 2.19901E-13-3.77516E-15
 -1       971 2.05870E+01 4.20862E-01 2.88246E-06-1.24507E-02 1.04584E-13-9.70820E-14
 -1       972 2.00775E+01 9.66262E-01 1.56537E-04 3.18394E-01 1.53838E-13 6.84832E-14
 -1       973 1.88075E+01 6.91782E-01 1.29471E-04-1.08166E+00-5.85295E-14 1.00747E-13
 -1       974 2.55956E+01-1.94250E+00-5.28665E-03-4.66965E-01 4.84720E-14 1.65971E-13
 -1       975 2.47810E+01-2.19671E+00-1.39834E-03-2.28526E-01 7.78394E-14 1.09181E-14
 -1       976 2.47542E+01 3.81001E-01-2.80742E-03-1.89630E+00-4.28754E-14 2.96322E-13
 -1       977 2.10571E+01-1.74824E+00 2.55806E-03-3.54542E+00 1.11767E-13 9.44362E-14
 -1       978 2.18152E+01-2.16051E+00 8.30928E-03 3.40520E+00 9.89908E-14-5.63788E-14
 -1       979 2.35846E+01-2.59332E+00 1.45001E-03-2.10544E+00-8.74040E-15-1.12510E-14
 -1       980 1.85049E+01-1.09886E-01 4.57282E-03-3.38276E+00 1.45636E-13-8.54856E-14
 -1       981 1.72724E+01 1.00628E+00 5.44369E-03-2.45787E+00-7.95544E-15-3.44668E-14
 -1       982 2.05195E+01 6.97472E-01-1.24712E-04 5.81191E-02 1.22771E-13-7.49143E-14
 -1       983 1.97073E+01 6.44747E-01 1.99947E-04 6.00119E-01 2.46217E-14 9.92370E-14
 -1       984 2.46808E+01-1.26720E+00-2.70676E-03 9.57793E-01 6.13142E-14 1.95512E-13
 -1       985 1.90239E+01 1.62284E-01 3.40621E-04 2.26917E+00 1.11031E-13 1.29969E-15
 -1       986 2.31015E+01 2.91115E+00-7.65407E-03 1.46414E+00 7.54944E-15 1.19442E-13
 -1       987 1.94085E+01 5.70958E-01 2.38646E-04 9.92301E-01 7.89565E-14 1.38109E-13
 -1       988 1.99989E+01 1.89275E-03 2.68753E-07-1.70256E-05-1.53136E-13 2.36882E-13
 -1       989 1.99326E+01 7.52886E-01 2.19581E-05 3.91946E-01 9.54509E-14 4.03278E-14
 -1       990 1.99992E+01 1.73615E-03 4.77509E-08 3.23214E-04-8.19080E-14 8.38247E-14
 -1       991 1.81745E+01 8.66287E-01 6.39947E-04-1.66808E+00-1.09301E-14-1.67729E-13
 -1       992 2.02493E+01 1.04565E+00-2.76694E-04 3.30558E-01 1.48058E-13 3.32071E-14
 -1       993 1.99997E+01 1.30664E-03-5.36118E-07 6.59351E-04 1.72947E-13 3.49531E-13
 -1       994 2.32499E+01-2.53670E+00 1.44070E-04 2.32376E+00 9.61287E-14 6.73937E-14
 -1       995 1.99675E+01 4.09735E-02-6.11224E-06-1.69131E-02 3.92354E-13-1.30205E-13
 -1       996 1.99474E+01 5.98002E-02-9.72382E-06-3.65147E-02 4.56539E-14-2.24956E-13
 -1       997 2.10816E+01-5.03331E-01 8.41249E-05 4.19235E-01 6.41198E-14-3.76661E-14
 -1       998 2.14466E+01-9.02863E-01 1.25677E-04 4.81756E-01 8.64687E-15-2.68100E-14
 -1       999 2.19641E+01-1.29774E+00-8.87303E-05 4.51097E-01 1.45612E-14 3.02723E-14
 -1      1000 2.26441E+01-1.62728E+00-3.31655E-04 2.57959E-01-2.08294E-14 1.70660E-14
 -1      1001 2.34357E+01-1.74442E+00 2.63467E-04-1.68579E-01-6.53172E-15 1.62618E-14
 -1      1002 2.33965E+01-2.07439E+00 7.03643E-04-7.62553E-01-9.74778E-14-9.79326E-14
 -1      1003 1.99162E+01 8.60425E-02-5.93795E-06-7.12928E-02-1.33393E-13-1.76596E-13
 -1      1004 2.27593E+01-1.61868E+00 7.86319E-05-2.53973E-02 2.46850E-14 1.46895E-13
 -1      1005 2.19723E+01-1.38835E+00 4.59240E-05-3.09062E-01-1.60157E-13-1.98656E-14
 -1      1006 2.13380E+01-1.07498E+00 2.42537E-04-4.03848E-01-8.07153E-14 5.07264E-14
 -1      1007 2.08676E+01-7.76052E-01 1.08475E-04-3.88763E-01-2.42859E-14-1.01432E-14
 -1      1008 2.05401E+01-5.31126E-01 8.17205E-05-3.24567E-01-2.39774E-14 4.03627E-14
 -1      1009 2.03240E+01-3.49528E-01 9.80674E-05-2.47887E-01-3.16674E-14 6.14207E-14
 -1      1010 2.01853E+01-2.20949E-01 6.14041E-05-1.78216E-01 2.34807E-13 1.87445E-15
 -1      1011 2.01001E+01-1.34076E-01 4.34548E-05-1.22064E-01 1.12942E-13 2.44652E-13
 -1      1012 2.00497E+01-7.75048E-02 2.77787E-05-8.03842E-02 1.01560E-14 4.01586E-13
 -1      1013 2.00212E+01-4.18859E-02 1.65602E-05-5.11789E-02 9.44338E-16 2.61506E-13
 -1      1014 2.00059E+01-2.02506E-02 9.32162E-06-3.16145E-02 1.00547E-13 2.72866E-13
 -1      1015 1.99984E+01-7.66891E-03 5.00853E-06-1.89876E-02-6.82310E-14 1.26958E-13
 -1      1016 1.99953E+01-7.82024E-04 2.56440E-06-1.11039E-02 3.18302E-14 1.16056E-13
 -1      1017 1.99946E+01 2.63612E-03 1.19130E-06-6.32801E-03-1.94983E-14-1.65037E-13
 -1      1018 1.99949E+01 4.02215E-03 4.56110E-07-3.51572E-03-1.70583E-13-9.84150E-14
 -1      1019 1.99957E+01 4.28018E-03 6.39369E-08-1.90406E-03 1.88358E-13 2.03956E-13
 -1      1020 1.99966E+01 3.96352E-03-9.96114E-08-1.00343E-03 4.15756E-13 3.55590E-13
 -1      1021 1.99975E+01 3.39838E-03-1.02056E-07-5.10931E-04 2.41307E-13 4.68436E-13
 -1      1022 1.99982E+01 2.76287E-03-6.24052E-07-2.50235E-04 3.81133E-13 4.39577E-13
 -1      1023 1.99986E+01 2.31842E-03 3.17576E-08-1.12914E-04 3.09144E-13 6.92394E-13
 -1      1024 1.98696E+01 1.20804E-01 5.01006E-06-1.30953E-01 5.74313E-14 2.47030E-13
 -1      1025 2.01292E+01 4.87643E-01 2.06448E-04 6.06535E-01 1.92108E-14 3.71324E-14
 -1      1026 1.95986E+01 2.39970E-01 1.48765E-04-6.49105E-01-2.19673E-13 3.17133E-13
 -1      1027 1.99798E+01 2.84121E-02-4.02426E-06-6.70600E-03 1.40024E-13-2.21427E-13
 -1      1028 1.99879E+01 1.93049E-02-4.66194E-06-1.13652E-03 3.68733E-14 7.40495E-16
 -1      1029 1.99928E+01 1.31916E-02-2.65628E-06 1.40344E-03 1.04686E-13 1.20643E-13
 -1      1030 1.99957E+01 9.09486E-03-1.74855E-06 2.31306E-03 4.99586E-14 4.77327E-14
 -1      1031 1.99975E+01 6.34053E-03-1.13629E-06 2.40347E-03 4.01752E-14 3.00222E-13
 -1      1032 1.99985E+01 4.47066E-03-7.81361E-07 2.12635E-03 1.40556E-13 9.86115E-14
 -1      1033 1.99992E+01 3.18182E-03-1.37837E-07 1.72534E-03 3.23524E-13 8.29008E-14
 -1      1034 1.99995E+01 2.27532E-03-3.81946E-07 1.31217E-03 2.09635E-13 2.00596E-13
 -1      1035 1.99997E+01 1.63429E-03 4.62595E-07 9.59789E-04 2.07495E-13 3.50804E-13
 -1      1036 2.06762E+01 2.39035E-01-4.13361E-04 1.94794E-01 1.08898E-13-8.63354E-14
 -1      1037 1.91770E+01 4.37715E-01-8.07372E-05 1.52867E+00 9.71568E-14 7.27986E-14
 -1      1038 1.94780E+01 2.26886E-01-2.80157E-04-1.03934E+00-1.41666E-13 2.48897E-13
 -1      1039 1.92905E+01 1.46700E-01 7.88902E-04-1.70441E+00-2.18922E-13 5.56899E-14
 -1      1040 2.08403E+01-1.16484E+00 1.94455E-03 2.61288E+00 1.41859E-13 2.48610E-14
 -1      1041 2.42884E+01-2.34628E+00 1.41644E-03 6.16556E-01 1.24988E-13 2.20161E-13
 -1      1042 2.19904E+01-1.79038E+00-1.38401E-04-2.13720E+00-6.06438E-14 1.40065E-13
 -1      1043 2.02004E+01-7.93906E-01 2.13434E-03-2.58988E+00 1.46727E-13 3.30029E-13
 -1      1044 2.08484E+01-1.38888E-01-1.55833E-04 3.14859E-01 1.03662E-13-7.93011E-14
 -1      1045 2.04422E+01 7.95579E-01 5.61418E-05 2.34322E-01 1.44926E-13-1.65091E-14
 -1      1046 2.35511E+01-1.57066E+00-1.70945E-03 4.70511E-01 7.58584E-14 2.57892E-13
 -1      1047 2.42034E+01-1.42275E+00 2.71817E-03-8.51463E-01 4.62208E-14 2.10162E-13
 -1      1048 1.98026E+01 1.63270E-01 3.38186E-05-2.30511E-01 1.34162E-13 4.26092E-13
 -1      1049 1.97118E+01 2.07916E-01 9.59131E-05-3.92484E-01 3.37959E-14 4.94695E-13
 -1      1050 2.00536E+01 2.59836E-01 2.01875E-04 9.25257E-01 3.20569E-14-3.67610E-14
 -1      1051 2.01834E+01 7.71880E-01 7.20497E-04 4.13727E-01 8.34023E-14 2.00684E-14
 -1      1052 1.89685E+01 8.08640E-02 2.54636E-03-2.41300E+00 5.99434E-14-3.28950E-14
 -1      1053 2.19526E+01-1.67864E+00-2.52398E-04 2.05322E+00 1.09588E-13 2.58964E-14
 -1      1054 1.99994E+01 1.85003E-03-1.71840E-07 8.26153E-04 2.45795E-13 2.84096E-13
 -1      1055 1.99989E+01 2.21704E-03 2.04890E-06 5.68146E-04 1.29575E-13-4.23002E-13
 -1      1056 2.15456E+01-1.05487E+00-1.40418E-05 9.54631E-01 6.70100E-14-1.39793E-14
 -1      1057 2.22392E+01-1.57254E+00-6.71147E-04 1.04311E+00 2.59266E-14 1.80882E-14
 -1      1058 1.99568E+01 3.78129E-02-4.49434E-05-7.28807E-02 2.06040E-13-2.23236E-13
 -1      1059 1.99431E+01-9.12955E-02 1.04977E-05-8.51163E-01-1.65235E-13 1.58572E-13
 -1      1060 2.15046E+01-1.24206E+00-3.45578E-04-9.70351E-01-1.07370E-13 7.09274E-14
 -1      1061 2.09127E+01-8.36488E-01 9.96292E-04-8.23876E-01-7.92115E-14-1.57498E-14
 -1      1062 2.05321E+01-5.39410E-01 4.52793E-04-6.41169E-01-7.08975E-14-1.26604E-13
 -1      1063 2.03010E+01-3.36010E-01 2.40157E-04-4.65417E-01 1.21635E-14-2.28342E-13
 -1      1064 2.01576E+01-1.98053E-01 1.25217E-04-3.21106E-01 4.69130E-14-1.72173E-13
 -1      1065 2.00760E+01-1.11234E-01 9.77309E-05-2.13020E-01 2.27859E-13-2.88512E-13
 -1      1066 2.00313E+01-5.84754E-02 6.89419E-05-1.36421E-01 1.43128E-13-4.53143E-13
 -1      1067 2.00083E+01-2.74768E-02 4.46055E-05-8.44796E-02 7.68686E-14-8.39149E-14
 -1      1068 1.99973E+01-9.97888E-03 2.90782E-05-5.05590E-02 1.89198E-13 2.79734E-13
 -1      1069 1.99929E+01-6.38188E-04 1.67487E-05-2.91575E-02-2.81308E-13 1.87427E-13
 -1      1070 1.99919E+01 3.91107E-03 8.41386E-06-1.61061E-02-2.19964E-16 2.15728E-13
 -1      1071 1.99924E+01 5.73468E-03 3.97919E-06-8.41893E-03-9.23070E-14 1.22576E-13
 -1      1072 1.99936E+01 6.07116E-03 1.32893E-06-4.06493E-03-1.88516E-13 1.42169E-13
 -1      1073 1.99949E+01 5.65371E-03 9.77166E-08-1.71259E-03 1.30281E-13 8.20100E-14
 -1      1074 1.99961E+01 4.90515E-03-3.68389E-07-5.19031E-04 3.81335E-13-4.19069E-14
 -1      1075 1.99971E+01 4.06306E-03-4.76316E-07 3.13240E-05 4.63422E-13-9.38576E-14
 -1      1076 1.99980E+01 3.24738E-03-1.81236E-06 2.55361E-04 4.27377E-13 1.20380E-13
 -1      1077 1.99402E+01 4.53889E-02-7.25450E-05-1.27550E-01 1.60945E-13 1.35981E-13
 -1      1078 1.99987E+01 2.31177E-03 2.14582E-06 2.53110E-04-3.81414E-14-1.02868E-13
 -1      1079 2.01155E+01-4.85031E-01 1.46431E-03-1.87658E+00-2.30959E-14 2.22881E-13
 -1      1080 2.03418E+01-4.66672E-01 2.18697E-03 1.86211E+00 1.63470E-13 4.78645E-14
 -1      1081 1.99790E+01 2.28771E-02-1.40007E-05-2.06424E-02 2.83895E-13-8.70724E-15
 -1      1082 1.99935E+01 9.65216E-03-7.53883E-07-5.08028E-04-1.05099E-14 2.54943E-13
 -1      1083 1.99957E+01 7.19948E-03 6.38992E-08 8.54873E-04 1.14908E-13 3.14444E-13
 -1      1084 1.99971E+01 5.37245E-03 3.11434E-07 1.31114E-03 2.46472E-13 1.08252E-13
 -1      1085 1.99981E+01 4.00589E-03 3.23437E-07 1.32240E-03 3.63114E-13 3.79913E-14
 -1      1086 1.99988E+01 2.96326E-03 1.75478E-06 1.14125E-03 2.17885E-13 2.96795E-14
 -1      1087 2.03818E+01 5.66935E-01 3.54072E-04 4.36637E-01 7.18544E-14 2.09313E-14
 -1      1088 2.22035E+01-1.64666E+00-3.82775E-04-1.06636E+00-7.40069E-14-7.73909E-14
 -1      1089 1.99903E+01 1.29429E-02-2.59084E-06-3.57523E-03-2.43668E-13 1.50690E-14
 -1      1090 1.99696E+01-2.12170E-01-2.01189E-05-1.27725E+00-2.86440E-13 8.09159E-14
 -1      1091 2.31577E+01-2.06142E+00-1.48529E-03 1.00857E+00 1.11872E-14 1.47729E-13
 -1      1092 2.10990E+01-5.89757E-01 1.00064E-03 7.73757E-01 7.56470E-14-4.69388E-14
 -1      1093 1.99696E+01 2.98543E-02-2.57815E-05-4.00422E-02 1.86805E-13-3.56782E-13
 -1      1094 1.99857E+01 1.72615E-02-6.93994E-06-9.58359E-03-1.05357E-13 1.44298E-13
 -1      1095 2.06351E+01 2.05132E-01 1.73078E-04 4.23187E-01 1.02642E-13-3.56318E-14
 -1      1096 1.99035E+01 2.43860E-03-2.31748E-04-5.55078E-01-1.39663E-13 1.50335E-13
 -1      1097 1.99214E+01 4.87512E-02-1.09481E-04-2.15111E-01 1.55577E-13 1.76140E-13
 -1      1098 1.99984E+01 2.75247E-03-1.27629E-06 2.55785E-04 3.63596E-13 3.73911E-14
 -1      1099 2.00626E+01 1.01390E-02 5.71225E-04 1.31551E+00 5.93538E-14-5.18465E-15
 -1      1100 2.04640E+01 1.05913E-01-2.37200E-04 7.35606E-01 9.35846E-14-1.54845E-14
 -1      1101 2.11377E+01-9.55482E-01 8.58595E-04 1.65110E+00 1.00390E-13-9.13169E-14
 -1      1102 2.10764E+01-1.11019E+00 1.05873E-03-1.72649E+00 3.99148E-14 1.24502E-13
 -1      1103 2.08196E+01-1.85610E-01 3.41934E-04 5.92307E-01 9.68704E-14-4.92761E-14
 -1      1104 1.99051E+01 3.98060E-02-1.50073E-04-3.51098E-01 4.68459E-14 7.77876E-14
 -1      1105 2.03456E+01-4.47209E-01-2.89203E-04-1.01792E+00-2.09090E-13 1.34666E-13
 -1      1106 2.05965E+01-2.08969E-01-1.02667E-03 9.98271E-01 4.56326E-14-5.85933E-14
 -1      1107 2.06783E+01-7.55010E-01-8.06995E-04-1.33387E+00-1.21854E-13 1.79628E-13
 -1      1108 2.08899E+01-5.84381E-01-1.72135E-03 1.22421E+00 7.58213E-14-1.25791E-13
 -1      1109 2.79908E+01 9.09552E+00 2.32745E+00-6.70075E+00-4.01901E-14-4.05176E-13
 -1      1110 2.05631E+01 6.23198E+00 2.10123E-01-3.90216E+00-8.21565E-15-6.50882E-13
 -1      1111 1.94417E+01 5.85513E+00 7.53874E-02-2.88464E+00-1.11022E-15-6.12812E-13
 -1      1112 1.90272E+01 5.72628E+00 6.03759E-02-2.22993E+00 3.42781E-15-5.23846E-13
 -1      1113 1.88369E+01 5.66840E+00 5.77586E-02-1.69384E+00 5.78530E-15-4.21958E-13
 -1      1114 1.87401E+01 5.63878E+00 5.58445E-02-1.22343E+00 6.27623E-15-3.36744E-13
 -1      1115 1.86876E+01 5.62244E+00 5.38935E-02-7.91131E-01 5.95270E-15-2.54245E-13
 -1      1116 1.86596E+01 5.61354E+00 5.21854E-02-3.79313E-01 7.04666E-15-1.76627E-13
 -1      1117 1.86495E+01 5.61022E+00 5.11868E-02 1.88857E-02 7.80300E-15-1.00582E-13
 -1      1118 1.86565E+01 5.61229E+00 5.11283E-02 4.13592E-01 7.44305E-15-3.34836E-14
 -1      1119 1.86844E+01 5.62096E+00 5.21605E-02 8.16082E-01 7.19216E-15 5.45978E-14
 -1      1120 1.87421E+01 5.63893E+00 5.43642E-02 1.23639E+00 8.27637E-15 1.52671E-13
 -1      1121 1.88480E+01 5.67152E+00 5.70925E-02 1.69602E+00 8.76382E-15 2.72635E-13
 -1      1122 1.90474E+01 5.73239E+00 6.05370E-02 2.22656E+00 9.50628E-15 4.15757E-13
 -1      1123 1.94681E+01 5.86331E+00 7.62663E-02 2.88188E+00 8.16014E-15 6.18023E-13
 -1      1124 2.05927E+01 6.24152E+00 2.12292E-01 3.90478E+00 1.72085E-15 8.82142E-13
 -1      1125 2.80411E+01 9.12163E+00 2.36417E+00 6.73224E+00-2.40363E-14 1.14325E-12
 -1      1126 2.88470E+01 3.61931E+00 1.27222E+00-4.21904E+00-1.13548E-13-2.99039E-13
 -1      1127 2.02622E+01-1.77620E-01-6.16423E-01-1.09183E-01-3.94199E-14-5.61634E-13
 -1      1128 1.88699E+01-9.56941E-02-2.35765E-01 6.31347E-02-1.28821E-14-8.28225E-13
 -1      1129 1.85324E+01-4.67737E-02-5.82716E-02 4.11925E-02-5.05802E-15-1.00753E-12
 -1      1130 1.84637E+01-2.24253E-02-1.27615E-02 2.74584E-02 1.65644E-15-1.12449E-12
 -1      1131 1.85140E+01-9.61274E-03-9.16313E-04 1.95241E-02 7.14641E-15-1.12447E-12
 -1      1132 1.86001E+01-1.49177E-03 4.82982E-03 1.40279E-02-3.71068E-15-1.16175E-12
 -1      1133 1.86669E+01 4.35215E-03 9.74388E-03 9.48599E-03 8.89322E-15-1.23727E-12
 -1      1134 1.86718E+01 8.89478E-03 1.43882E-02 5.03354E-03-2.23964E-15-1.32091E-12
 -1      1135 1.85790E+01 1.23666E-02 1.84208E-02 1.47631E-04-1.51890E-14-1.47046E-12
 -1      1136 1.83591E+01 1.44914E-02 2.11019E-02-5.41456E-03 4.32250E-15-1.52790E-12
 -1      1137 1.79930E+01 1.46396E-02 2.13306E-02-1.15428E-02 2.77183E-14-1.35087E-12
 -1      1138 1.74793E+01 1.20550E-02 1.78630E-02-1.76574E-02 1.34745E-14-1.41126E-12
 -1      1139 1.68421E+01 6.22730E-03 9.82364E-03-2.26685E-02-7.70824E-15-1.44504E-12
 -1      1140 1.61375E+01-2.64049E-03-2.60334E-03-2.51426E-02-1.69008E-14-1.50272E-12
 -1      1141 1.54520E+01-1.32661E-02-1.76324E-02-2.37467E-02-2.13228E-14-1.61882E-12
 -1      1142 1.48905E+01-2.33364E-02-3.19451E-02-1.78766E-02-3.15884E-14-1.72142E-12
 -1      1143 1.45525E+01-3.01424E-02-4.16364E-02-8.16870E-03 1.42304E-14-1.79797E-12
 -1      1144 1.45056E+01-3.16533E-02-4.37775E-02 3.46356E-03 5.48173E-15-1.85033E-12
 -1      1145 1.47648E+01-2.74424E-02-3.77582E-02 1.44193E-02-3.54994E-14-1.88887E-12
 -1      1146 1.52882E+01-1.88963E-02-2.55876E-02 2.23768E-02-2.73089E-15-1.86568E-12
 -1      1147 1.59908E+01-8.54481E-03-1.09280E-02 2.61090E-02 7.53325E-15-1.74474E-12
 -1      1148 1.67707E+01 1.03814E-03 2.49907E-03 2.57285E-02 6.50792E-17-1.58092E-12
 -1      1149 1.75341E+01 8.11340E-03 1.22044E-02 2.23434E-02-3.34094E-14-1.65008E-12
 -1      1150 1.82134E+01 1.20787E-02 1.73788E-02 1.74354E-02 3.43193E-14-1.46995E-12
 -1      1151 1.87722E+01 1.32551E-02 1.85713E-02 1.23171E-02-3.69776E-14-1.23694E-12
 -1      1152 1.92016E+01 1.24483E-02 1.70219E-02 7.85043E-03 1.80119E-14-1.40708E-12
 -1      1153 1.95122E+01 1.05430E-02 1.40502E-02 4.42088E-03-2.54650E-14-1.55668E-12
 -1      1154 1.97240E+01 8.25965E-03 1.06950E-02 2.05881E-03-2.54545E-14-1.55840E-12
 -1      1155 1.98604E+01 6.06959E-03 7.60416E-03 5.97389E-04 3.29580E-14-1.62951E-12
 -1      1156 1.99427E+01 4.21571E-03 5.08061E-03-1.98536E-04-1.61459E-14-1.47281E-12
 -1      1157 1.99885E+01 2.77582E-03 3.19085E-03-5.53440E-04 4.41213E-15-1.33981E-12
 -1      1158 2.00113E+01 1.72985E-03 1.87086E-03-6.45755E-04 1.16508E-14-1.52621E-12
 -1      1159 2.00202E+01 1.01219E-03 1.00429E-03-6.00861E-04-1.24907E-14-1.43609E-12
 -1      1160 2.00216E+01 5.45297E-04 4.69219E-04-4.98244E-04 2.82608E-15-1.38203E-12
 -1      1161 2.00194E+01 2.57655E-04 1.60741E-04-3.83268E-04-3.54984E-15-1.65164E-12
 -1      1162 2.00157E+01 9.11912E-05-1.86938E-06-2.78542E-04-2.62136E-14-1.61255E-12
 -1      1163 2.00119E+01 2.50562E-06-7.60331E-05-1.92881E-04-3.33985E-14-1.38293E-12
 -1      1164 2.00085E+01-3.88497E-05-1.00099E-04-1.27567E-04 3.17331E-14-1.38076E-12
 -1      1165 2.00058E+01-5.31271E-05-9.82593E-05-8.03230E-05-2.55591E-14-1.62048E-12
 -1      1166 2.00037E+01-5.31410E-05-8.49135E-05-4.76185E-05-3.69266E-14-1.81855E-12
 -1      1167 2.00022E+01-4.65882E-05-6.80705E-05-2.58705E-05-1.05083E-14-1.35924E-12
 -1      1168 2.00011E+01-3.78157E-05-5.17879E-05-1.19783E-05-8.03168E-15-1.06476E-12
 -1      1169 2.00005E+01-2.90809E-05-3.78181E-05-3.48469E-06-3.51402E-14-1.10792E-12
 -1      1170 2.00000E+01-2.14008E-05-2.66566E-05 1.45492E-06 2.16979E-14-1.11225E-12
 -1      1171 1.99998E+01-1.50840E-05-1.81484E-05 4.18042E-06-2.89787E-15-8.77623E-13
 -1      1172 1.99997E+01-1.00294E-05-1.17498E-05 5.63490E-06-3.84776E-14-6.33974E-13
 -1      1173 1.99997E+01-5.90556E-06-6.43127E-06 6.42063E-06 1.27383E-13-2.52387E-13
 -1      1174 1.99998E+01-2.73727E-06 2.98873E-07 7.16219E-06-4.36018E-14 3.81900E-13
 -1      1175 1.99998E+01 3.09215E-06 7.97804E-06 2.49942E-06 1.30947E-13 4.05720E-13
 -1      1176 2.91079E+01 3.71362E+00 1.35946E+00 4.33418E+00-4.56024E-14 1.36102E-12
 -1      1177 2.03886E+01-1.76129E-01-6.29191E-01 1.38170E-01-1.97065E-14 1.45503E-12
 -1      1178 1.89003E+01-9.94074E-02-2.50213E-01-6.24808E-02-3.20230E-15 1.46223E-12
 -1      1179 1.85694E+01-5.23745E-02-6.65552E-02-4.04370E-02-1.17094E-15 1.43790E-12
 -1      1180 1.85491E+01-2.98227E-02-2.12045E-02-2.63409E-02 4.50855E-15 1.42897E-12
 -1      1181 1.87067E+01-2.10053E-02-1.39512E-02-1.86121E-02 3.13595E-15 1.37356E-12
 -1      1182 1.89964E+01-1.94808E-02-1.71211E-02-1.44361E-02 1.07288E-14 1.31506E-12
 -1      1183 1.94269E+01-2.38929E-02-2.71740E-02-1.34330E-02-2.69663E-15 1.31698E-12
 -1      1184 2.00594E+01-3.48109E-02-4.73730E-02-1.70087E-02 1.77983E-15 1.32543E-12
 -1      1185 2.10260E+01-5.38096E-02-8.39720E-02-2.92290E-02 2.01315E-15 1.40290E-12
 -1      1186 2.25631E+01-7.97310E-02-1.43023E-01-5.94274E-02 9.31633E-15 1.39369E-12
 -1      1187 2.49711E+01-1.18270E-01-2.20361E-01-1.20879E-01-9.14026E-15 1.38034E-12
 -1      1188 2.88015E+01-1.43874E-01-2.69320E-01-2.31257E-01 1.04864E-14 1.38317E-12
 -1      1189 3.47016E+01-1.15971E-01-1.19139E-01-4.01010E-01 2.80132E-14 1.34670E-12
 -1      1190 4.22056E+01 6.63074E-02 4.97610E-01-4.77593E-01-1.48822E-14 1.31137E-12
 -1      1191 4.76093E+01 4.00584E-01 1.32153E+00 6.94001E-02 4.91968E-15 1.75535E-12
 -1      1192 4.44515E+01 5.65120E-01 9.68865E-01 1.42956E+00-4.55642E-14 2.37410E-12
 -1      1193 3.03270E+01 3.12280E-01-1.75133E+00 2.34745E+00-5.03486E-14 2.83507E-12
 -1      1194 1.53073E+01-7.36105E-01-5.18501E+00 1.00806E+00-9.68670E-15 3.33211E-12
 -1      1195 1.62307E+01-7.87633E-01-4.97620E+00-1.30385E+00 3.97460E-14 2.95408E-12
 -1      1196 2.94832E+01-2.78931E-02-1.97314E+00-1.95095E+00 1.82354E-14 1.92180E-12
 -1      1197 4.30642E+01 4.86494E-01 7.56256E-01-1.19578E+00-1.60531E-14 1.06215E-12
 -1      1198 4.82383E+01 4.33377E-01 1.47632E+00-1.85102E-01-2.04697E-14 8.84182E-13
 -1      1199 4.50666E+01 1.14400E-01 8.11880E-01 2.63989E-01 1.14977E-14 6.75043E-13
 -1      1200 3.80093E+01-7.80068E-02 6.61907E-02 3.22566E-01-5.15188E-14 8.77631E-13
 -1      1201 3.13509E+01-9.54173E-02-2.26436E-01 2.23584E-01-6.05939E-15 8.14515E-13
 -1      1202 2.67615E+01-7.53970E-02-2.25054E-01 1.26940E-01 1.85659E-14 1.07023E-12
 -1      1203 2.39118E+01-5.14376E-02-1.52601E-01 6.58525E-02 5.49994E-15 1.27529E-12
 -1      1204 2.22249E+01-3.26674E-02-8.98964E-02 3.22732E-02-3.81769E-15 1.31550E-12
 -1      1205 2.12656E+01-2.27394E-02-5.21437E-02 1.37932E-02-1.10385E-14 1.44100E-12
 -1      1206 2.07148E+01-1.28045E-02-2.88074E-02 7.29366E-03-5.20875E-14 1.63984E-12
 -1      1207 2.03919E+01-7.72843E-03-1.57937E-02 3.04526E-03-2.29985E-14 1.39770E-12
 -1      1208 2.02115E+01-4.60006E-03-8.65437E-03 1.09874E-03 3.00028E-14 1.15235E-12
 -1      1209 2.01119E+01-2.70959E-03-4.72377E-03 2.42878E-04 2.85736E-15 7.30037E-13
 -1      1210 2.00576E+01-1.57995E-03-2.55172E-03-9.63292E-05-5.04977E-14 1.04339E-12
 -1      1211 2.00285E+01-9.11711E-04-1.35545E-03-1.99885E-04-6.34741E-14 1.52167E-12
 -1      1212 2.00133E+01-5.20522E-04-7.03150E-04-2.03696E-04 7.33640E-15 1.89237E-12
 -1      1213 2.00056E+01-2.94084E-04-3.53257E-04-1.71635E-04 4.54418E-14 1.43805E-12
 -1      1214 2.00017E+01-1.64503E-04-1.69761E-04-1.32248E-04-6.63431E-14 1.09556E-12
 -1      1215 1.99999E+01-8.84922E-05-7.57098E-05-9.63595E-05-2.81144E-14 7.80121E-13
 -1      1216 1.99992E+01-5.60756E-05-3.31725E-05-7.13980E-05-6.32910E-14 9.55850E-13
 -1      1217 1.99989E+01-2.96011E-05-1.22771E-05-4.86819E-05-5.41221E-14 9.79361E-13
 -1      1218 1.99988E+01-1.68122E-05-3.15400E-06-3.33106E-05 9.08230E-14 6.09555E-14
 -1      1219 1.99988E+01-9.96618E-06-1.52197E-07-2.30082E-05-1.28988E-14-3.86474E-14
 -1      1220 1.99989E+01-6.19811E-06 4.21860E-07-1.61675E-05-5.98141E-14 9.38905E-13
 -1      1221 1.99990E+01-4.04067E-06 1.72701E-07-1.17380E-05-7.86436E-15 8.12721E-13
 -1      1222 1.99992E+01-2.68858E-06-1.73006E-07-8.97512E-06-1.20954E-14-1.87894E-13
 -1      1223 1.99993E+01-1.66685E-06-1.89958E-07-7.37218E-06 1.84750E-14-3.87600E-13
 -1      1224 1.99995E+01-5.94883E-07 6.35487E-07-6.54515E-06-1.54251E-13-3.48127E-13
 -1      1225 1.99996E+01 8.15551E-07 3.11182E-06-6.12303E-06 2.81301E-14 3.67326E-14
 -1      1226 1.99997E+01 2.83208E-06 7.52374E-06-5.06551E-06-1.76031E-13 8.28277E-13
 -1      1227 1.99998E+01 4.80026E-06 6.65643E-06 2.88096E-06 4.49684E-13 1.37504E-12
 -1      1228 1.99998E+01-1.75372E-07 6.05946E-06 3.70335E-06 1.70627E-12 1.72335E-13
 -1      1229 1.99998E+01-6.31655E-05 5.30296E-06-2.44814E-06-2.38152E-13-2.05346E-14
 -1      1230 1.99998E+01-1.74302E-04-1.06866E-06-5.08147E-06-6.73670E-13 9.37945E-14
 -1      1231 1.99998E+01-2.72348E-04-5.43315E-06-5.15077E-06-2.10742E-12-3.09344E-13
 -1      1232 1.99998E+01-3.25664E-04-6.79698E-06-3.85785E-06-2.56869E-12-1.16820E-13
 -1      1233 1.99998E+01-3.25959E-04-5.91679E-06-1.91076E-06-2.12769E-12 5.99008E-15
 -1      1234 1.99998E+01-2.81267E-04-3.58368E-06-6.82546E-09-1.85096E-12 9.52780E-14
 -1      1235 1.99998E+01-2.09215E-04-7.07908E-07 1.55030E-06-2.14454E-12-8.93416E-14
 -1      1236 1.99998E+01-1.32461E-04 1.87898E-06 2.40011E-06-1.58892E-12 2.34189E-13
 -1      1237 1.99998E+01-7.13175E-05 3.48414E-06 2.44520E-06-5.65399E-13-1.14944E-14
 -1      1238 1.99998E+01-3.86167E-05 3.64193E-06 1.78746E-06-2.29298E-12-1.30505E-13
 -1      1239 1.99998E+01-3.62155E-05 2.26781E-06 7.11771E-07-1.46286E-12-1.35612E-13
 -1      1240 1.99998E+01-5.45757E-05-4.12649E-07-2.44799E-07-2.21227E-12 1.85028E-14
 -1      1241 1.99998E+01-7.51672E-05-3.25250E-06-5.08944E-07-4.18098E-13 1.48658E-13
 -1      1242 1.99998E+01-7.67496E-05-4.10480E-06 5.83342E-07-7.75486E-13-1.29527E-13
 -1      1243 1.99998E+01-4.37936E-05 8.41636E-07 6.37621E-06-1.68872E-12 6.54671E-14
 -1      1244 1.99998E+01-9.09898E-06 6.75187E-06 3.66324E-06-6.00100E-13 5.27461E-14
 -1      1245-1.36025E+00-3.03310E+01-4.18511E+00-3.30618E+00 1.57541E-12 2.16493E-13
 -1      1246-3.72303E+00-2.51405E+01-4.30307E+00-7.64802E+00 1.78113E-12 6.96859E-13
 -1      1247-4.36438E+00-1.35887E+01-4.10553E+00-6.60264E+00 2.31215E-12 1.43485E-12
 -1      1248 1.99712E+00-8.84031E-01-3.03683E+00 1.09145E+00 2.02061E-12 1.79634E-12
 -1      1249 2.15778E+01 7.36307E+00-4.38331E-01 1.23785E+01 1.25633E-12 1.77147E-12
 -1      1250 5.43910E+01 8.52693E+00 3.90903E+00 1.99189E+01 4.51195E-13 7.70495E-13
 -1      1251 8.86477E+01 5.00264E+00 8.81587E+00 1.50391E+01-2.22600E-14-2.56684E-13
 -1      1252 1.02587E+02 3.24654E+00 1.09842E+01-1.41527E+00-1.68338E-14-1.11194E-12
 -1      1253 8.29127E+01 6.06882E+00 8.09762E+00-1.64908E+01 2.42195E-13-1.17550E-12
 -1      1254 4.57738E+01 8.82718E+00 2.77397E+00-1.91051E+01 4.02345E-13-9.15712E-13
 -1      1255 1.52724E+01 5.72173E+00-1.46509E+00-9.87554E+00 4.45199E-13-6.49258E-13
 -1      1256-4.71135E-01-3.80011E+00-3.48842E+00 1.14057E+00 1.38112E-13-1.53655E-13
 -1      1257-4.57099E+00-1.65231E+01-4.16264E+00 7.44312E+00-8.31557E-13 3.12861E-13
 -1      1258-2.98542E+00-2.70254E+01-4.27678E+00 7.12858E+00-1.70214E-12 4.35776E-13
 -1      1259-1.11134E+00-3.01635E+01-4.06317E+00 2.10367E+00-1.72085E-12 1.91722E-13
 -1      1260-1.18853E+00-2.43273E+01-3.54067E+00-2.70068E+00-1.25755E-12-1.80383E-13
 -1      1261-1.38347E+00-1.21695E+01-2.67550E+00-3.12282E+00-1.06315E-12-3.52496E-13
 -1      1262 2.16022E+00 1.70925E+00-1.36698E+00 2.46370E+00-7.46070E-13-3.67928E-13
 -1      1263 1.32027E+01 1.14999E+01 2.67763E-01 1.19626E+01-3.66152E-13-3.74367E-13
 -1      1264 3.21141E+01 1.34867E+01 1.88073E+00 1.97506E+01-2.75668E-13-3.90576E-13
 -1      1265 5.42231E+01 8.89847E+00 3.24488E+00 2.01586E+01 5.09592E-14 2.53131E-13
 -1      1266 7.06884E+01 3.36772E+00 4.16469E+00 1.10874E+01 1.65951E-13 1.17728E-12
 -1      1267 7.44672E+01 2.05331E+00 4.35574E+00-3.22815E+00-1.82319E-13 2.04958E-12
 -1      1268 6.52730E+01 5.48740E+00 3.91135E+00-1.59057E+01-5.03153E-13 2.16249E-12
 -1      1269 4.64949E+01 1.12282E+01 2.82822E+00-2.12406E+01-8.67417E-13 1.76126E-12
 -1      1270 2.60947E+01 1.40222E+01 1.44321E+00-1.83802E+01-1.15818E-12 1.49614E-12
 -1      1271 9.83803E+00 1.01374E+01-1.27923E-01-9.81712E+00-1.05471E-12 9.26370E-13
 -1      1272 9.73781E-01-5.47862E-01-1.58789E+00-9.56464E-01-4.14335E-13 3.47500E-13
 -1      1273-1.42540E+00-1.41406E+01-2.80365E+00 3.37531E+00 5.35572E-13-1.44995E-13
 -1      1274-1.09694E+00-2.55132E+01-3.62657E+00 2.01960E+00 1.15508E-12-6.41986E-14
 -1      1275 2.22934E+01 1.83938E+00-7.26351E-01-2.79019E+00-4.74065E-14-5.57110E-13
 -1      1276 2.03723E+01 4.69214E+00-4.87922E-02-3.30535E+00-2.61041E-14-6.41834E-13
 -1      1277 2.08848E+01 4.81381E+00-1.13300E-01-4.16051E+00-6.95555E-14-6.62234E-13
 -1      1278 1.95376E+01 4.99343E+00-1.96015E-02-2.65201E+00 2.62984E-14-5.78006E-13
 -1      1279 1.98387E+01 5.09114E+00 1.40218E-04-3.04377E+00 1.07275E-14-6.20740E-13
 -1      1280 2.05377E+01 3.95255E+00-2.59694E-02-3.07419E+00-2.66939E-14-5.51503E-13
 -1      1281 1.91855E+01 5.08183E+00-3.53924E-03-2.06571E+00 6.32619E-14-4.89695E-13
 -1      1282 1.93367E+01 5.13760E+00 1.04674E-02-2.36009E+00 5.75026E-14-5.40477E-13
 -1      1283 1.97597E+01 4.36263E+00-2.44477E-02-2.48778E+00 5.84914E-14-4.92856E-13
 -1      1284 1.90072E+01 5.12660E+00 3.41048E-03-1.55699E+00 8.77649E-14-3.97444E-13
 -1      1285 1.90862E+01 5.15695E+00 1.25632E-02-1.80859E+00 8.48540E-14-4.49019E-13
 -1      1286 1.93943E+01 4.54899E+00-1.98086E-02-1.92675E+00 1.12891E-13-4.18100E-13
 -1      1287 1.89107E+01 5.15530E+00 6.65512E-03-1.10565E+00 1.04080E-13-3.09676E-13
 -1      1288 1.89547E+01 5.17218E+00 1.28857E-02-1.32879E+00 1.01496E-13-3.53514E-13
 -1      1289 1.92046E+01 4.65284E+00-1.63355E-02-1.43665E+00 1.46291E-13-3.32387E-13
 -1      1290 1.88547E+01 5.17533E+00 8.06439E-03-6.79676E-01 1.11744E-13-2.24834E-13
 -1      1291 1.88801E+01 5.18505E+00 1.23137E-02-8.90870E-01 1.09854E-13-2.72199E-13
 -1      1292 1.90979E+01 4.71863E+00-1.42005E-02-9.91847E-01 1.69078E-13-2.52902E-13
 -1      1293 1.88253E+01 5.18889E+00 8.89265E-03-2.74911E-01 1.24009E-13-1.52859E-13
 -1      1294 1.88380E+01 5.19372E+00 1.13619E-02-4.76545E-01 1.22389E-13-1.91619E-13
 -1      1295 1.90364E+01 4.76079E+00-1.30865E-02-5.73617E-01 1.87998E-13-1.71613E-13
 -1      1296 1.88167E+01 5.19671E+00 9.59057E-03 1.18755E-01 1.30603E-13-7.97713E-14
 -1      1297 1.88187E+01 5.19744E+00 1.03121E-02-7.85087E-02 1.23262E-13-1.22602E-13
 -1      1298 1.90054E+01 4.78438E+00-1.25430E-02-1.74271E-01 2.00950E-13-1.10845E-13
 -1      1299 1.88300E+01 5.19895E+00 1.04102E-02 5.11351E-01 1.33838E-13-1.07189E-14
 -1      1300 1.88201E+01 5.19521E+00 9.15828E-03 3.13134E-01 1.34064E-13-5.28223E-14
 -1      1301 1.90004E+01 4.79069E+00-1.24283E-02 2.16098E-01 2.12421E-13-4.56787E-14
 -1      1302 1.88712E+01 5.19523E+00 1.13998E-02 9.14507E-01 1.36767E-13 6.97498E-14
 -1      1303 1.88456E+01 5.18578E+00 7.81342E-03 7.09039E-01 1.34039E-13 2.28203E-14
 -1      1304 1.90240E+01 4.77815E+00-1.27755E-02 6.07771E-01 2.21089E-13 2.39669E-14
 -1      1305 1.89509E+01 5.18580E+00 1.24459E-02 1.33528E+00 1.36065E-13 1.73188E-13
 -1      1306 1.89032E+01 5.16783E+00 5.96632E-03 1.11850E+00 1.35202E-13 1.15134E-13
 -1      1307 1.90846E+01 4.74317E+00-1.36768E-02 1.00942E+00 2.16631E-13 9.88411E-14
 -1      1308 1.90957E+01 5.17034E+00 1.29675E-02 1.80764E+00 1.42223E-13 2.92936E-13
 -1      1309 1.90097E+01 5.13809E+00 2.74478E-03 1.56070E+00 1.36356E-13 2.24895E-13
 -1      1310 1.91988E+01 4.67825E+00-1.56695E-02 1.43976E+00 2.20811E-13 2.01110E-13
 -1      1311 1.93579E+01 5.14804E+00 1.10910E-02 2.35449E+00 1.32783E-13 4.47489E-13
 -1      1312 1.92014E+01 5.09014E+00-3.96806E-03 2.06160E+00 1.30822E-13 3.59282E-13
 -1      1313 1.94043E+01 4.56766E+00-1.90585E-02 1.92290E+00 2.13315E-13 3.24081E-13
 -1      1314 1.98695E+01 5.09734E+00 1.40463E-03 3.03929E+00 1.01176E-13 6.52083E-13
 -1      1315 1.95635E+01 4.99724E+00-1.99819E-02 2.64576E+00 1.07074E-13 5.31773E-13
 -1      1316 1.97856E+01 4.37231E+00-2.32055E-02 2.48063E+00 1.86420E-13 4.76189E-13
 -1      1317 2.09203E+01 4.84003E+00-9.81331E-02 4.16976E+00 2.94764E-14 9.05012E-13
 -1      1318 2.04052E+01 4.69001E+00-4.81865E-02 3.30648E+00 5.53307E-14 7.66762E-13
 -1      1319 2.05757E+01 3.94539E+00-2.46942E-02 3.06959E+00 1.12625E-13 6.77833E-13
 -1      1320 2.23829E+01 1.87465E+00-7.16803E-01 2.84131E+00-2.34535E-14 1.19194E-12
 -1      1321 2.20290E+01 1.31026E-01-4.01094E-01-1.28535E+00-8.06022E-14-4.79922E-13
 -1      1322 2.07068E+01 3.06327E-01-1.64974E-01-8.05461E-01-6.06043E-14-5.88120E-13
 -1      1323 2.01074E+01 1.52860E-01-7.37110E-02-4.02965E-01-4.91863E-14-5.99813E-13
 -1      1324 1.96364E+01 9.02279E-02-1.51664E-02-3.31187E-01-4.51583E-14-6.80137E-13
 -1      1325 2.09934E+01 3.68235E-01-1.04205E-01-1.27499E+00-1.07962E-13-4.96794E-13
 -1      1326 1.92749E+01 6.32388E-02 2.81972E-03-1.39149E-01-4.72782E-14-6.88380E-13
 -1      1327 1.91155E+01 3.94648E-02 1.28847E-02-1.22064E-01-2.45776E-14-7.48734E-13
 -1      1328 1.99374E+01 1.32156E-01-3.48525E-02-5.09480E-01-8.94840E-14-4.94752E-13
 -1      1329 1.89463E+01 2.92116E-02 1.29968E-02-3.72820E-02-4.62130E-15-7.79172E-13
 -1      1330 1.89147E+01 1.63402E-02 1.06388E-02-2.91983E-02-8.96418E-15-8.04953E-13
 -1      1331 1.94478E+01 5.21706E-02-7.96660E-03-1.84214E-01-4.92766E-14-5.05887E-13
 -1      1332 1.88419E+01 1.21783E-02 8.53269E-03 6.59105E-03 3.25065E-15-8.01133E-13
 -1      1333 1.88601E+01 4.29495E-03 5.93159E-03 9.09100E-03 4.56449E-16-7.95466E-13
 -1      1334 1.92144E+01 1.87767E-02-2.58098E-03-4.04256E-02-1.91982E-14-5.45686E-13
 -1      1335 1.88314E+01 1.90786E-03 4.48203E-03 1.80909E-02-2.75669E-14-8.03142E-13
 -1      1336 1.88591E+01-3.59413E-03 3.07918E-03 1.66780E-02-2.47270E-14-8.40772E-13
 -1      1337 1.91140E+01 1.34716E-03-7.54589E-04 1.43664E-02-4.17626E-14-5.46643E-13
 -1      1338 1.88422E+01-5.51076E-03 2.39141E-03 7.68573E-03-7.20452E-15-8.58100E-13
 -1      1339 1.88529E+01-9.59721E-03 1.65338E-03 3.13366E-03-1.38542E-14-8.85117E-13
 -1      1340 1.90679E+01-1.03381E-02 8.47636E-04 1.54039E-02-3.66152E-14-5.42100E-13
 -1      1341 1.88257E+01-1.15116E-02 1.53921E-03-1.96710E-02-7.31186E-16-8.80595E-13
 -1      1342 1.87992E+01-1.44669E-02 9.83145E-04-2.69461E-02-2.70942E-14-9.41452E-13
 -1      1343 1.90240E+01-1.95544E-02 2.47837E-03-2.19261E-02-2.31351E-14-5.45044E-13
 -1      1344 1.87451E+01-1.64646E-02 1.34376E-03-6.08388E-02-4.02354E-14-9.19854E-13
 -1      1345 1.86654E+01-1.81576E-02 7.28775E-04-7.04179E-02-3.54185E-14-9.64902E-13
 -1      1346 1.89446E+01-2.71906E-02 3.98315E-03-8.94099E-02-3.77480E-14-5.45155E-13
 -1      1347 1.85722E+01-2.00421E-02 1.49779E-03-1.12357E-01-2.40246E-14-9.44934E-13
 -1      1348 1.84275E+01-2.00518E-02 7.22830E-04-1.23517E-01 2.80049E-14-9.37079E-13
 -1      1349 1.88014E+01-3.28462E-02 5.18446E-03-1.80203E-01-3.52765E-14-4.63812E-13
 -1      1350 1.82880E+01-2.13794E-02 1.79156E-03-1.68890E-01 3.39858E-14-9.70454E-13
 -1      1351 1.80736E+01-1.91420E-02 8.25220E-04-1.80345E-01-9.08388E-15-9.51874E-13
 -1      1352 1.85747E+01-3.52036E-02 5.83528E-03-2.85209E-01 1.11981E-14-5.44335E-13
 -1      1353 1.78872E+01-1.93136E-02 2.01366E-03-2.22228E-01-2.77465E-14-9.97277E-13
 -1      1354 1.76090E+01-1.43691E-02 8.71486E-04-2.32000E-01-1.98630E-14-1.02141E-12
 -1      1355 1.82564E+01-3.24059E-02 5.59982E-03-3.90634E-01-5.34325E-14-6.59659E-13
 -1      1356 1.73844E+01-1.28418E-02 1.95177E-03-2.61311E-01 2.14584E-14-1.04244E-12
 -1      1357 1.70619E+01-5.18054E-03 6.94499E-04-2.66888E-01 4.27262E-15-1.03189E-12
 -1      1358 1.78535E+01-2.27479E-02 4.13613E-03-4.77189E-01-6.96058E-15-7.05496E-13
 -1      1359 1.68181E+01-1.78732E-03 1.46066E-03-2.73858E-01-3.32793E-14-1.04361E-12
 -1      1360 1.64856E+01 7.81562E-03 1.99297E-04-2.72751E-01-7.82806E-14-1.09887E-12
 -1      1361 1.73927E+01-5.69332E-03 1.27738E-03-5.21953E-01-3.83677E-14-6.95208E-13
 -1      1362 1.62516E+01 1.25738E-02 5.58593E-04-2.49757E-01-7.40475E-14-1.05565E-12
 -1      1363 1.59543E+01 2.24465E-02-5.54041E-04-2.40402E-01-7.04482E-14-1.15357E-12
 -1      1364 1.69211E+01 1.70984E-02-2.75187E-03-5.03551E-01-7.41631E-14-6.51796E-13
 -1      1365 1.57645E+01 2.73512E-02-5.31769E-04-1.85362E-01-4.27774E-14-1.17340E-12
 -1      1366 1.55508E+01 3.52398E-02-1.32288E-03-1.68041E-01-2.40376E-14-1.22531E-12
 -1      1367 1.65015E+01 4.13984E-02-7.20479E-03-4.09799E-01-9.26780E-14-7.24759E-13
 -1      1368 1.54380E+01 3.87257E-02-1.44418E-03-8.67495E-02-1.90052E-14-1.21940E-12
 -1      1369 1.53470E+01 4.25342E-02-1.76989E-03-6.39871E-02-3.04661E-15-1.25362E-12
 -1      1370 1.62012E+01 6.12458E-02-1.09329E-02-2.44886E-01-4.11737E-14-7.53147E-13
 -1      1371 1.53333E+01 4.33744E-02-1.85382E-03 3.02621E-02-1.28101E-14-1.28489E-12
 -1      1372 1.53844E+01 4.20195E-02-1.64044E-03 5.42228E-02-1.75719E-14-1.31269E-12
 -1      1373 1.60753E+01 7.10273E-02-1.27876E-02-3.19806E-02-5.29438E-14-7.89591E-13
 -1      1374 1.54746E+01 3.99597E-02-1.65077E-03 1.44231E-01-2.46981E-14-1.36677E-12
 -1      1375 1.56616E+01 3.38570E-02-9.22002E-04 1.64786E-01-7.17777E-14-1.36727E-12
 -1      1376 1.61510E+01 6.78313E-02-1.21615E-02 1.91582E-01-5.17919E-14-8.43325E-13
 -1      1377 1.58422E+01 2.97577E-02-1.00046E-03 2.34891E-01 2.90002E-15-1.38212E-12
 -1      1378 1.61352E+01 2.06246E-02 1.32419E-04 2.48620E-01 4.97692E-15-1.35297E-12
 -1      1379 1.64195E+01 5.28082E-02-9.29345E-03 3.85512E-01-2.95666E-14-8.88072E-13
 -1      1380 1.63785E+01 1.60043E-02-2.34195E-04 2.89385E-01 3.49725E-14-1.31345E-12
 -1      1381 1.67337E+01 6.10463E-03 1.14323E-03 2.94995E-01 6.93913E-14-1.21907E-12
 -1      1382 1.68389E+01 3.06167E-02-5.14601E-03 5.19183E-01 3.85894E-14-8.98090E-13
 -1      1383 1.70059E+01 2.40913E-03 3.39280E-04 3.05047E-01 2.35743E-14-1.21519E-12
 -1      1384 1.73771E+01-6.29783E-03 1.80026E-03 3.03348E-01-2.47842E-14-1.19776E-12
 -1      1385 1.73476E+01 7.33714E-03-9.23818E-04 5.79670E-01 4.75720E-14-8.55922E-13
 -1      1386 1.76469E+01-8.23546E-03 5.68708E-04 2.88044E-01 1.51133E-14-1.11360E-12
 -1      1387 1.79955E+01-1.46155E-02 1.98468E-03 2.81187E-01 4.28861E-14-1.12186E-12
 -1      1388 1.78810E+01-1.18988E-02 2.42780E-03 5.72203E-01 2.27547E-14-7.84455E-13
 -1      1389 1.82397E+01-1.46980E-02 4.78563E-04 2.49429E-01 9.49720E-14-1.10040E-12
 -1      1390 1.85405E+01-1.85024E-02 1.76597E-03 2.39929E-01 7.54115E-14-9.71520E-13
 -1      1391 1.83851E+01-2.43465E-02 4.47540E-03 5.14434E-01 7.42249E-14-6.07637E-13
 -1      1392 1.87458E+01-1.71582E-02 1.99373E-04 2.00900E-01 1.28333E-14-9.33974E-13
 -1      1393 1.89875E+01-1.87664E-02 1.31473E-03 1.90901E-01-1.72872E-14-9.15234E-13
 -1      1394 1.88243E+01-2.97642E-02 5.25941E-03 4.28444E-01 5.71466E-14-7.06816E-13
 -1      1395 1.91495E+01-1.66264E-02-1.21620E-04 1.51886E-01-1.54245E-14-9.19084E-13
 -1      1396 1.93318E+01-1.66970E-02 8.07552E-04 1.42817E-01 3.42890E-15-9.76230E-13
 -1      1397 1.91821E+01-2.96038E-02 5.10027E-03 3.34142E-01-2.66701E-14-5.88171E-13
 -1      1398 1.94528E+01-1.43379E-02-3.79539E-04 1.08390E-01-1.19581E-14-9.95333E-13
 -1      1399 1.95825E+01-1.35325E-02 3.67678E-04 1.00960E-01-3.84504E-14-1.04031E-12
 -1      1400 1.94569E+01-2.59621E-02 4.39281E-03 2.45727E-01-5.31352E-14-6.14187E-13
 -1      1401 1.96684E+01-1.13521E-02-5.29137E-04 7.31885E-02-4.81559E-14-1.02760E-12
 -1      1402 1.97557E+01-1.01879E-02 5.14050E-05 6.75610E-02-2.42868E-14-1.08419E-12
 -1      1403 1.96572E+01-2.07809E-02 3.47265E-03 1.71058E-01-5.31897E-14-7.09134E-13
 -1      1404 1.98137E+01-8.38982E-03-5.72665E-04 4.67025E-02-2.92256E-14-1.06035E-12
 -1      1405 1.98692E+01-7.20118E-03-1.37340E-04 4.27117E-02 1.58542E-14-1.06903E-12
 -1      1406 1.97961E+01-1.54573E-02 2.56463E-03 1.12802E-01-5.49855E-14-6.57253E-13
 -1      1407 1.99064E+01-5.83995E-03-5.37763E-04 2.79771E-02 3.52596E-14-1.02432E-12
 -1      1408 1.99394E+01-4.80284E-03-2.23295E-04 2.53115E-02 5.56384E-14-9.29613E-13
 -1      1409 1.98879E+01-1.07879E-02 1.78698E-03 7.02327E-02 7.06411E-14-6.09315E-13
 -1      1410 1.99620E+01-3.84268E-03-4.58207E-04 1.54759E-02 6.03988E-14-8.82465E-13
 -1      1411 1.99800E+01-3.02204E-03-2.39886E-04 1.37982E-02 4.72914E-14-8.09281E-13
 -1      1412 1.99453E+01-7.09195E-03 1.18019E-03 4.08811E-02 4.25120E-14-5.29818E-13
 -1      1413 1.99928E+01-2.38670E-03-3.62529E-04 7.59581E-03-7.43474E-14-9.10212E-13
 -1      1414 2.00015E+01-1.78208E-03-2.17328E-04 6.60698E-03-9.45289E-16-9.53488E-13
 -1      1415 1.99793E+01-4.38415E-03 7.38658E-04 2.17373E-02-6.33350E-14-5.08679E-13
 -1      1416 2.00080E+01-1.38762E-03-2.69896E-04 2.93545E-03 3.69294E-14-9.65984E-13
 -1      1417 2.00112E+01-9.67331E-04-1.77843E-04 2.39932E-03 5.98670E-14-1.03591E-12
 -1      1418 1.99977E+01-2.52456E-03 4.35419E-04 9.95643E-03 1.07903E-14-5.98471E-13
 -1      1419 2.00140E+01-7.39325E-04-1.90507E-04 3.93829E-04-1.62332E-14-9.31489E-13
 -1      1420 2.00142E+01-4.62036E-04-1.35360E-04 1.38224E-04-4.19067E-14-9.63891E-13
 -1      1421 2.00066E+01-1.32144E-03 2.37798E-04 3.18372E-03 2.75656E-14-6.70092E-13
 -1      1422 2.00148E+01-3.42006E-04-1.27933E-04-8.30693E-04-7.27915E-14-9.99229E-13
 -1      1423 2.00137E+01-1.68276E-04-9.72267E-05-9.23449E-04-4.66118E-14-1.13344E-12
 -1      1424 2.00098E+01-5.89219E-04 1.15590E-04-3.65886E-04-1.19860E-13-6.45767E-13
 -1      1425 2.00133E+01-1.13993E-04-8.16979E-05-1.28678E-03 7.31918E-14-1.06494E-12
 -1      1426 2.00116E+01-1.11954E-05-6.63678E-05-1.29263E-03 4.75907E-14-1.01033E-12
 -1      1427 2.00100E+01-1.74192E-04 4.43298E-05-1.95745E-03 1.28118E-14-6.61311E-13
 -1      1428 2.00108E+01 5.84650E-06-4.93477E-05-1.32963E-03 3.73161E-14-1.04283E-12
 -1      1429 2.00091E+01 6.24246E-05-4.31272E-05-1.29488E-03-2.50871E-14-9.44694E-13
 -1      1430 2.00088E+01 3.92372E-05 5.80626E-06-2.43763E-03 8.09340E-14-6.56238E-13
 -1      1431 2.00081E+01 6.03290E-05-2.78139E-05-1.17678E-03-7.48128E-14-7.90084E-13
 -1      1432 2.00067E+01 8.82417E-05-2.65848E-05-1.12789E-03 5.03555E-15-9.77214E-13
 -1      1433 2.00070E+01 1.32013E-04-1.27201E-05-2.34327E-03-7.27283E-14-4.48058E-13
 -1      1434 2.00058E+01 7.78127E-05-1.41772E-05-9.53359E-04-1.18205E-13-1.03548E-12
 -1      1435 2.00047E+01 8.88936E-05-1.53741E-05-9.04191E-04-2.10098E-13-1.22381E-12
 -1      1436 2.00053E+01 1.57533E-04-1.97113E-05-1.99603E-03-1.11073E-13-6.03412E-13
 -1      1437 2.00039E+01 7.61262E-05-6.00599E-06-7.25662E-04-2.93885E-14-1.19733E-12
 -1      1438 2.00031E+01 7.79836E-05-8.12632E-06-6.82572E-04-3.25673E-14-1.18674E-12
 -1      1439 2.00037E+01 1.49112E-04-2.05276E-05-1.57607E-03-1.30460E-13-7.30734E-13
 -1      1440 2.00025E+01 6.58837E-05-1.43884E-06-5.24532E-04-2.70872E-14-9.96784E-13
 -1      1441 2.00019E+01 6.31820E-05-3.67171E-06-4.89632E-04 1.12380E-13-8.86259E-13
 -1      1442 2.00025E+01 1.26348E-04-1.84033E-05-1.17521E-03 5.70557E-14-6.19478E-13
 -1      1443 2.00014E+01 5.30062E-05 8.61787E-07-3.60714E-04 1.13770E-13-8.03744E-13
 -1      1444 2.00010E+01 4.84564E-05-1.09966E-06-3.33935E-04 1.17757E-13-7.04485E-13
 -1      1445 2.00015E+01 9.99732E-05-1.51833E-05-8.33091E-04 2.27351E-13-4.26747E-13
 -1      1446 2.00007E+01 4.05129E-05 1.80552E-06-2.34479E-04-4.37700E-14-6.23490E-13
 -1      1447 2.00005E+01 3.55867E-05 2.50551E-07-2.14778E-04-1.51885E-13-7.89610E-13
 -1      1448 2.00009E+01 7.52949E-05-1.18437E-05-5.60576E-04 5.14387E-15-4.15039E-13
 -1      1449 2.00003E+01 2.97235E-05 1.97678E-06-1.41328E-04 5.29254E-14-6.82598E-13
 -1      1450 2.00001E+01 2.51350E-05 8.28892E-07-1.27355E-04 1.60569E-13-4.89696E-13
 -1      1451 2.00004E+01 5.44858E-05-8.84528E-06-3.54078E-04 3.44802E-14-2.24335E-13
 -1      1452 2.00000E+01 2.10104E-05 1.72870E-06-7.52027E-05 1.06091E-13-4.16387E-13
 -1      1453 1.99999E+01 1.70124E-05 9.27227E-07-6.56406E-05 1.11659E-13-2.63592E-13
 -1      1454 2.00001E+01 3.80160E-05-6.35731E-06-2.03961E-04 2.00347E-13-4.57888E-14
 -1      1455 1.99998E+01 1.42066E-05 1.27181E-06-3.02360E-05 5.87593E-14-3.80800E-13
 -1      1456 1.99998E+01 1.07726E-05 7.80725E-07-2.40011E-05 2.15271E-14-3.74691E-13
 -1      1457 1.99999E+01 2.54376E-05-4.38583E-06-9.92351E-05 7.89129E-14 3.57353E-14
 -1      1458 1.99998E+01 8.82940E-06 8.26245E-07-1.73404E-06 1.66169E-13-3.65353E-13
 -1      1459 1.99998E+01 5.52330E-06 7.08423E-07 2.01315E-06 3.01963E-13-3.33895E-14
 -1      1460 1.99998E+01 1.58277E-05-2.79027E-06-3.02152E-05 1.90633E-13-1.58065E-13
 -1      1461 1.99998E+01 4.66980E-06 1.15611E-06 1.25877E-05 1.62476E-13 1.20491E-13
 -1      1462 1.99998E+01 2.38798E-07 1.88857E-06 1.44733E-05 9.56212E-14 3.64082E-13
 -1      1463 1.99998E+01 7.13490E-06-1.20819E-06 9.56946E-06 3.35980E-13-2.08252E-14
 -1      1464 1.99998E+01-6.48489E-06 4.60746E-06 7.96049E-06-3.79265E-13 3.19960E-13
 -1      1465 1.99998E+01-8.81203E-06 1.40026E-06 1.76912E-05-2.70280E-13 2.99731E-13
 -1      1466 2.07772E+01 3.27363E-01-1.75625E-01 8.41364E-01 1.60566E-14 1.13737E-12
 -1      1467 2.21536E+01 1.87367E-01-4.00379E-01 1.35319E+00-2.88658E-15 1.11783E-12
 -1      1468 1.96989E+01 9.55179E-02-1.77926E-02 3.36262E-01 2.14412E-14 1.09132E-12
 -1      1469 2.01790E+01 1.61280E-01-7.99220E-02 4.09992E-01 1.38153E-14 1.10408E-12
 -1      1470 2.10704E+01 4.14669E-01-1.02773E-01 1.31794E+00 3.08850E-14 8.28251E-13
 -1      1471 1.91967E+01 4.64456E-02 1.34124E-02 1.08800E-01 2.62151E-14 1.04410E-12
 -1      1472 1.93415E+01 6.97949E-02 1.61476E-03 1.28806E-01 1.78729E-14 1.05670E-12
 -1      1473 2.00163E+01 1.43606E-01-3.75748E-02 5.05603E-01 3.41949E-14 7.66772E-13
 -1      1474 1.90624E+01 2.63626E-02 1.23967E-02-5.66794E-03 1.59525E-14 1.02013E-12
 -1      1475 1.90529E+01 3.72338E-02 1.36453E-02 6.59627E-03 1.75992E-14 1.02774E-12
 -1      1476 1.95554E+01 6.49222E-02-1.00309E-02 1.39958E-01 3.16656E-14 6.95617E-13
 -1      1477 1.91413E+01 2.02251E-02 8.35123E-03-7.66967E-02 3.89593E-14 9.59019E-13
 -1      1478 1.90419E+01 2.47308E-02 9.76599E-03-6.74493E-02 2.41842E-14 9.99426E-13
 -1      1479 1.93964E+01 3.76516E-02-5.20934E-03-5.54966E-02 3.76105E-14 6.55545E-13
 -1      1480 1.93793E+01 2.21567E-02 6.14935E-03-1.37289E-01 2.02173E-14 9.27571E-13
 -1      1481 1.92052E+01 2.24605E-02 5.77436E-03-1.27513E-01 3.35777E-14 9.59425E-13
 -1      1482 1.94337E+01 3.23844E-02-4.91108E-03-1.90610E-01 5.25378E-14 6.46846E-13
 -1      1483 1.97808E+01 3.17288E-02 5.13956E-03-2.09686E-01 8.43683E-15 9.06241E-13
 -1      1484 1.95169E+01 2.80343E-02 3.31121E-03-1.95819E-01 1.19522E-14 9.14208E-13
 -1      1485 1.96217E+01 4.11461E-02-5.72989E-03-3.20782E-01 2.39687E-14 6.27853E-13
 -1      1486 2.04027E+01 5.10321E-02 3.64227E-03-3.17751E-01-9.09255E-15 8.96047E-13
 -1      1487 2.00027E+01 4.27294E-02 9.23209E-04-2.94971E-01-2.24352E-14 8.87855E-13
 -1      1488 1.99591E+01 6.51780E-02-7.85973E-03-4.90303E-01 3.23179E-15 5.67106E-13
 -1      1489 2.13634E+01 8.39826E-02-7.05621E-04-4.93366E-01-1.93578E-14 9.44047E-13
 -1      1490 2.07395E+01 7.01184E-02-3.78641E-03-4.54432E-01-8.26422E-15 9.45792E-13
 -1      1491 2.04823E+01 1.10646E-01-1.22761E-02-7.50091E-01-4.27089E-14 5.61363E-13
 -1      1492 2.28546E+01 1.35781E-01-1.14916E-02-7.81231E-01 1.50886E-14 9.57089E-13
 -1      1493 2.18661E+01 1.13474E-01-1.49929E-02-7.14365E-01 4.61089E-15 9.57751E-13
 -1      1494 2.12649E+01 1.87458E-01-2.01802E-02-1.16749E+00-1.27572E-14 5.75000E-13
 -1      1495 2.50245E+01 1.94027E-01-2.65053E-02-1.20479E+00 6.60236E-15 9.46021E-13
 -1      1496 2.35502E+01 1.76621E-01-3.49393E-02-1.10875E+00 1.42438E-14 9.67858E-13
 -1      1497 2.23827E+01 2.98995E-01-3.06728E-02-1.80365E+00 1.11890E-14 6.19541E-13
 -1      1498 2.83739E+01 2.33881E-01-2.68490E-02-1.82834E+00 2.07404E-14 9.42690E-13
 -1      1499 2.60545E+01 2.50558E-01-5.73800E-02-1.67646E+00 1.42525E-14 9.57401E-13
 -1      1500 2.39741E+01 4.32767E-01-4.15967E-02-2.72963E+00 3.81674E-14 6.05757E-13
 -1      1501 3.28740E+01 1.40857E-01 5.63503E-02-2.49331E+00 1.20199E-14 8.89400E-13
 -1      1502 2.97495E+01 2.66695E-01-4.37229E-02-2.34036E+00 3.13484E-14 8.94951E-13
 -1      1503 2.62112E+01 4.79928E-01-2.73749E-02-3.90023E+00 3.05741E-14 5.40769E-13
 -1      1504 3.76878E+01-3.33939E-01 2.85970E-01-2.54576E+00-1.00392E-13 9.79092E-13
 -1      1505 3.45629E+01 2.51634E-03 1.00401E-01-2.62688E+00-6.16521E-14 8.55593E-13
 -1      1506 2.90995E+01 1.07852E-01 5.63875E-02-4.75510E+00-7.34135E-15 5.59448E-13
 -1      1507 4.03140E+01-1.26416E+00 3.99258E-01-7.26174E-01-1.86434E-13 1.29263E-12
 -1      1508 3.94886E+01-7.98951E-01 4.07377E-01-1.48893E+00-1.58540E-13 1.05050E-12
 -1      1509 3.25370E+01-1.18787E+00 2.05119E-01-3.93178E+00-2.38976E-13 6.17284E-13
 -1      1510 3.86764E+01-1.60999E+00-8.73495E-02 2.47713E+00-1.84800E-13 1.63758E-12
 -1      1511 4.18442E+01-1.59872E+00 4.61010E-01 1.50743E+00-2.09392E-13 1.41182E-12
 -1      1512 3.59829E+01-2.98010E+00 1.60578E-01-1.37731E-01-3.93505E-13 7.25281E-13
 -1      1513 2.96283E+01 2.20426E+00-2.19383E+00 1.25451E+00 9.85878E-14 2.05175E-12
 -1      1514 3.29017E+01 1.33731E+00-1.71210E+00 2.88769E+00-4.52971E-14 2.04053E-12
 -1      1515 3.29891E+01 1.47678E+00-1.60041E+00-2.97552E+00 2.99871E-13 1.63602E-12
 -1      1516 2.97175E+01 1.86587E+00-2.25129E+00-1.94266E+00 2.94431E-13 1.99626E-12
 -1      1517 4.43738E+01 4.19208E+00 1.33451E-01-2.09991E-01 2.57794E-13 9.46361E-13
 -1      1518 3.87044E+01-4.89658E-01-4.53243E-01-4.47376E+00 2.82413E-13 1.13032E-12
 -1      1519 3.25670E+01 2.28742E-01-1.59955E+00-4.71200E+00 3.25961E-13 1.53733E-12
 -1      1520 4.30585E+01 2.11429E+00 3.63657E-02-5.85749E+00 5.18918E-13 8.70637E-13
 -1      1521 4.25657E+01-1.30003E+00 4.40602E-01-2.42707E+00 1.18110E-13 6.83675E-13
 -1      1522 3.83267E+01-9.90628E-01-2.68578E-01-3.28015E+00 2.14620E-13 9.06386E-13
 -1      1523 4.10568E+01-1.50867E+00 8.04964E-02-6.40933E+00 5.11591E-13 5.55916E-13
 -1      1524 4.21431E+01-7.47399E-01 5.95880E-01 4.47354E-01 2.26485E-14 5.48318E-13
 -1      1525 4.17937E+01-1.00288E+00 5.07227E-01-1.61731E-01 4.33265E-14 5.86753E-13
 -1      1526 3.88765E+01-2.39680E+00 1.80907E-01-1.93477E+00 2.04010E-13 2.16202E-13
 -1      1527 3.80449E+01-7.97472E-02 2.67765E-01 2.03155E+00-5.73708E-14 4.51444E-13
 -1      1528 4.05308E+01-4.45724E-01 4.47402E-01 1.82328E+00 6.95277E-14 4.79800E-13
 -1      1529 3.61987E+01-1.26269E+00 2.82166E-01 2.32183E+00 1.03140E-13 1.22381E-13
 -1      1530 3.25346E+01 2.03740E-01-2.08961E-02 2.10575E+00-2.23840E-14 4.99184E-13
 -1      1531 3.59185E+01-3.24545E-02 1.17582E-01 2.17043E+00-9.96148E-14 4.12947E-13
 -1      1532 3.25039E+01-1.77426E-01 1.13160E-01 3.98777E+00-9.89764E-14 1.36537E-13
 -1      1533 2.80606E+01 1.94142E-01-9.24876E-02 1.55789E+00-1.90403E-14 5.85199E-13
 -1      1534 3.07296E+01 1.14493E-01-5.53994E-02 1.68031E+00 3.21236E-14 6.15341E-13
 -1      1535 2.87716E+01 2.89255E-01-1.35817E-02 3.57550E+00-5.52991E-14 2.27290E-13
 -1      1536 2.49579E+01 1.33436E-01-7.20597E-02 1.01235E+00-2.41474E-14 7.45265E-13
 -1      1537 2.67326E+01 1.26337E-01-7.17078E-02 1.11129E+00-8.72080E-14 5.92276E-13
 -1      1538 2.57928E+01 3.11895E-01-4.75896E-02 2.54505E+00-5.43732E-14 4.14058E-13
 -1      1539 2.29685E+01 8.20437E-02-4.06237E-02 6.19130E-01-5.58789E-14 8.60333E-13
 -1      1540 2.40610E+01 9.56409E-02-4.52353E-02 6.84921E-01-1.91635E-14 7.99694E-13
 -1      1541 2.36706E+01 2.26189E-01-3.79037E-02 1.63451E+00-9.51600E-14 4.20646E-13
 -1      1542 2.17482E+01 4.87112E-02-1.92156E-02 3.67190E-01 5.86683E-15 9.27560E-13
 -1      1543 2.23930E+01 6.32076E-02-2.19176E-02 4.07735E-01 5.64652E-15 8.93969E-13
 -1      1544 2.22620E+01 1.43083E-01-2.25266E-02 9.97342E-01-8.35252E-14 5.36387E-13
 -1      1545 2.10430E+01 2.89988E-02-9.43750E-03 2.19932E-01 2.12625E-14 9.51910E-13
 -1      1546 2.14066E+01 4.06516E-02-8.87021E-03 2.42809E-01 7.25288E-15 9.13533E-13
 -1      1547 2.13822E+01 8.43399E-02-1.34032E-02 5.97935E-01-7.51135E-16 4.87222E-13
 -1      1548 2.05979E+01 1.60826E-02-4.28399E-03 1.26552E-01-1.15503E-13 1.00634E-12
 -1      1549 2.08188E+01 2.45029E-02-3.48115E-03 1.41234E-01-9.87179E-14 8.59186E-13
 -1      1550 2.08359E+01 5.12213E-02-6.48710E-03 3.55190E-01-3.76730E-14 4.54527E-13
 -1      1551 2.03394E+01 9.01908E-03-1.84109E-03 7.21466E-02-4.59979E-14 8.00338E-13
 -1      1552 2.04647E+01 1.47846E-02-8.66431E-04 8.06114E-02 2.06890E-14 9.19874E-13
 -1      1553 2.04924E+01 2.90489E-02-3.54772E-03 2.05184E-01-2.39960E-14 3.58072E-13
 -1      1554 2.01904E+01 5.02161E-03-7.49468E-04 4.07134E-02 4.04355E-14 7.14574E-13
 -1      1555 2.02606E+01 8.73898E-03 2.69290E-05 4.55916E-02 4.41602E-14 8.29784E-13
 -1      1556 2.02870E+01 1.64205E-02-1.94526E-03 1.17286E-01 6.93386E-14 3.55187E-13
 -1      1557 2.01054E+01 2.76557E-03-2.63736E-04 2.27130E-02-6.89977E-14 7.95488E-13
 -1      1558 2.01443E+01 5.11600E-03 2.78158E-04 2.55036E-02 3.73321E-14 8.40921E-13
 -1      1559 2.01657E+01 9.19956E-03-1.08173E-03 6.63498E-02 4.07482E-14 6.58134E-13
 -1      1560 2.00575E+01 1.50115E-03-5.46134E-05 1.25042E-02-1.43881E-13 1.04675E-12
 -1      1561 2.00787E+01 2.96804E-03 3.01849E-04 1.40858E-02-9.81507E-14 7.37728E-13
 -1      1562 2.00947E+01 5.10013E-03-6.03332E-04 3.71077E-02-8.63081E-14 8.09723E-13
 -1      1563 2.00307E+01 7.99471E-04 2.71769E-05 6.77944E-03-8.85967E-14 1.17602E-12
 -1      1564 2.00421E+01 1.70540E-03 2.54431E-04 7.66580E-03-9.42917E-14 1.01911E-12
 -1      1565 2.00536E+01 2.79014E-03-3.34102E-04 2.04873E-02-2.00813E-13 7.70251E-13
 -1      1566 2.00160E+01 4.15377E-04 5.15276E-05 3.61172E-03 1.78596E-14 1.23988E-12
 -1      1567 2.00220E+01 9.69717E-04 1.93662E-04 4.10197E-03-3.36325E-14 1.25668E-12
 -1      1568 2.00300E+01 1.50065E-03-1.82556E-04 1.11484E-02-5.43779E-14 6.46037E-13
 -1      1569 2.00080E+01 2.08994E-04 5.16589E-05 1.88587E-03 2.34777E-13 9.31054E-13
 -1      1570 2.00111E+01 5.45337E-04 1.39363E-04 2.15306E-03 9.83743E-14 1.22213E-12
 -1      1571 2.00165E+01 7.89782E-04-9.81070E-05 5.96950E-03 1.30878E-13 8.17570E-13
 -1      1572 2.00037E+01 1.01180E-04 4.34740E-05 9.61822E-04 5.01356E-14 7.55583E-13
 -1      1573 2.00053E+01 3.03316E-04 9.66698E-05 1.10515E-03 1.08706E-13 9.85128E-13
 -1      1574 2.00089E+01 4.04602E-04-5.17207E-05 3.13972E-03 1.70974E-13 6.79734E-13
 -1      1575 2.00015E+01 4.87979E-05 3.40621E-05 4.77224E-04-1.60310E-14 5.45474E-13
 -1      1576 2.00022E+01 1.64487E-04 6.45738E-05 5.51602E-04 1.74410E-14 5.00493E-13
 -1      1577 2.00047E+01 2.02391E-04-2.60575E-05 1.61824E-03 2.25334E-13 4.60082E-13
 -1      1578 2.00003E+01 2.43996E-05 2.49564E-05 2.35669E-04-8.15038E-14 6.83243E-13
 -1      1579 2.00006E+01 9.11303E-05 4.23893E-05 2.71774E-04-7.73996E-14 4.80975E-13
 -1      1580 2.00023E+01 8.89100E-05-1.59215E-05 8.22121E-04-3.32386E-14 2.74478E-13
 -1      1581 1.99997E+01 7.18151E-06 1.67286E-05 1.02342E-04 1.17806E-13 2.89938E-13
 -1      1582 1.99998E+01 5.00296E-05 2.81633E-05 1.23891E-04 9.85553E-14 4.78883E-13
 -1      1583 2.00010E+01 4.56304E-05-7.24994E-06 4.08004E-04 8.69880E-14 8.60388E-14
 -1      1584 1.99994E+01 1.81199E-06 1.12202E-05 3.53452E-05 2.31205E-13-2.70658E-13
 -1      1585 1.99995E+01 2.90197E-05 1.85199E-05 4.68761E-05 2.22962E-13 1.85456E-13
 -1      1586 2.00002E+01 1.80308E-05-4.22147E-06 1.82553E-04 2.76295E-13-2.48013E-13
 -1      1587 1.99993E+01-1.34594E-07 7.36316E-06 6.64615E-07-3.23897E-13-1.14268E-15
 -1      1588 1.99993E+01 1.68044E-05 1.17982E-05 7.19511E-06-1.73494E-13-2.54291E-13
 -1      1589 1.99998E+01 6.71387E-06-2.56515E-06 6.49914E-05-2.86620E-14-2.22366E-13
 -1      1590 1.99993E+01-6.65410E-07 4.72524E-06-1.82630E-05-2.63116E-14 2.93920E-13
 -1      1591 1.99992E+01 1.02944E-05 7.44926E-06-1.42413E-05-1.00873E-13 2.06877E-13
 -1      1592 1.99996E+01 2.18264E-06-1.75766E-06 1.76332E-06-3.69759E-13-2.88439E-13
 -1      1593 1.99993E+01-7.21745E-07 2.95151E-06-2.95202E-05 1.86204E-13-1.27351E-13
 -1      1594 1.99993E+01 6.77544E-06 4.66349E-06-2.67805E-05-3.04875E-15 1.12692E-13
 -1      1595 1.99995E+01 6.68227E-07-1.34067E-06-3.42901E-05 1.16324E-13-5.47514E-13
 -1      1596 1.99994E+01-7.47144E-07 1.77277E-06-3.67885E-05 2.39555E-14-5.05893E-13
 -1      1597 1.99993E+01 4.76993E-06 2.87647E-06-3.47714E-05 2.01240E-13-2.30198E-13
 -1      1598 1.99995E+01 2.97929E-07-1.09052E-06-5.64408E-05 2.53035E-13-5.28522E-13
 -1      1599 1.99995E+01-9.98033E-07 1.05790E-06-4.13970E-05-4.00601E-14-4.08472E-13
 -1      1600 1.99994E+01 3.44039E-06 1.73958E-06-3.99219E-05-7.82396E-15-3.71386E-13
 -1      1601 1.99995E+01 1.33524E-07-8.84572E-07-7.06433E-05 1.87681E-14-5.07294E-13
 -1      1602 1.99996E+01-1.71804E-06 8.92242E-07-4.30421E-05-1.15963E-13-4.69322E-13
 -1      1603 1.99995E+01 2.16482E-06 1.13296E-06-4.22788E-05-8.94476E-14-4.19500E-13
 -1      1604 1.99996E+01-4.88030E-07-5.97976E-07-7.86582E-05-1.11191E-14-2.56349E-13
 -1      1605 1.99997E+01-3.26840E-06 1.55346E-06-4.00904E-05-1.46962E-13-9.98147E-14
 -1      1606 1.99996E+01 3.95218E-07 1.19811E-06-4.04930E-05-9.17456E-14-3.42570E-13
 -1      1607 1.99996E+01-2.13974E-06 2.52250E-08-7.91830E-05-2.71164E-13-3.81882E-13
 -1      1608 1.99998E+01-6.95093E-06 2.00862E-06-2.77907E-05-4.42288E-13 5.15012E-13
 -1      1609 1.99997E+01-2.74970E-06 2.28507E-06-3.11973E-05-4.43924E-13-1.98981E-13
 -1      1610 1.99997E+01-5.82461E-06 1.43497E-06-6.76367E-05-3.95714E-13-1.31535E-13
 -1      1611 1.99998E+01-1.00547E-05 1.07137E-06-1.15847E-05 4.45043E-13 7.42951E-14
 -1      1612 1.99998E+01-9.81716E-06 3.13472E-06-1.89415E-05-2.13079E-13 3.88331E-13
 -1      1613 1.99998E+01-1.48200E-05 3.07424E-06-4.61790E-05-4.52308E-13-7.72211E-13
 -1      1614 1.99998E+01-2.42291E-05 3.99646E-06-1.93540E-05 3.77107E-13-8.05180E-13
 -1      1615 1.99998E+01-1.00756E-04 9.13701E-07-3.41605E-05-1.98081E-13 9.09223E-14
 -1      1616 1.99998E+01-5.56385E-05 1.38240E-06-2.99616E-05 2.68216E-13-3.14873E-13
 -1      1617 1.99998E+01-5.04274E-05 1.33406E-06-4.90243E-05 1.18168E-13-3.58719E-13
 -1      1618 1.99998E+01-1.83042E-04-1.59150E-06-3.09299E-05-5.92956E-13-2.30561E-13
 -1      1619 1.99998E+01-1.33058E-04-3.74892E-07-3.13270E-05-3.63112E-13 4.85695E-14
 -1      1620 1.99998E+01-1.07861E-04 7.39170E-08-6.05886E-05 3.51602E-14-2.62592E-13
 -1      1621 1.99998E+01-2.39842E-04-2.60112E-06-1.75131E-05-1.57614E-12-5.80004E-13
 -1      1622 1.99998E+01-2.04434E-04-1.38586E-06-2.05345E-05-8.62108E-13-5.02238E-13
 -1      1623 1.99998E+01-1.57881E-04-1.29323E-06-4.64479E-05-3.33431E-13-5.83069E-13
 -1      1624 1.99998E+01-2.55901E-04-2.49525E-06-7.24370E-07-1.63530E-12-7.65104E-14
 -1      1625 1.99998E+01-2.44201E-04-1.57644E-06-4.71132E-06-1.55263E-12-1.25715E-13
 -1      1626 1.99998E+01-1.82228E-04-1.90740E-06-1.82259E-05-5.90936E-13-1.61188E-13
 -1      1627 1.99998E+01-2.31694E-04-1.82423E-06 1.38336E-05-1.67330E-12 1.03258E-13
 -1      1628 1.99998E+01-2.43140E-04-1.24704E-06 1.02706E-05-1.60421E-12 1.63792E-14
 -1      1629 1.99998E+01-1.73652E-04-1.82910E-06 1.18338E-05-1.09189E-12 1.63118E-13
 -1      1630 1.99998E+01-1.77127E-04-8.66549E-07 2.30976E-05-1.54158E-12 1.98043E-13
 -1      1631 1.99998E+01-2.06037E-04-7.37785E-07 2.07581E-05-1.64879E-12 1.26524E-13
 -1      1632 1.99998E+01-1.35892E-04-1.17560E-06 3.51479E-05-1.16237E-12 1.84013E-13
 -1      1633 1.99998E+01-1.09586E-04 1.01258E-07 2.51932E-05-1.54345E-12 6.61635E-15
 -1      1634 1.99998E+01-1.45985E-04-1.82294E-07 2.46089E-05-1.39554E-12-1.20890E-13
 -1      1635 1.99998E+01-7.99564E-05-2.97853E-07 4.67386E-05-1.15706E-12-9.99987E-14
 -1      1636 1.99998E+01-4.75621E-05 8.44042E-07 2.06158E-05-9.17905E-13 5.41864E-13
 -1      1637 1.99998E+01-8.11388E-05 2.63364E-07 2.17126E-05-1.53101E-12 4.00682E-13
 -1      1638 1.99998E+01-2.12302E-05 5.85723E-07 4.49958E-05-9.00099E-13 4.27985E-13
 -1      1639 1.99998E+01-5.51764E-06 1.19635E-06 1.15867E-05-1.05288E-12-6.46872E-13
 -1      1640 1.99998E+01-2.83387E-05 5.15571E-07 1.38261E-05-7.78374E-13 6.70302E-14
 -1      1641 1.99998E+01 2.58605E-05 1.23311E-06 3.22757E-05-1.03142E-12 2.09252E-13
 -1      1642 1.99998E+01 9.73007E-06 1.05612E-06 1.46621E-06-1.32099E-12 2.25279E-13
 -1      1643 1.99998E+01 1.21747E-06 5.24768E-07 3.97275E-06-1.14825E-12-2.60671E-13
 -1      1644 1.99998E+01 5.15255E-05 1.45425E-06 1.37719E-05-5.77800E-13-4.44320E-13
 -1      1645 1.99998E+01 1.27510E-06 4.53800E-07-5.95497E-06-1.31356E-12-3.78993E-13
 -1      1646 1.99998E+01 4.90923E-06 2.58339E-07-4.19823E-06-1.22633E-12 1.60009E-14
 -1      1647 1.99998E+01 5.32270E-05 1.19084E-06-3.71387E-06-9.15714E-13 1.04939E-13
 -1      1648 1.99998E+01-1.99674E-05-5.09906E-07-7.90512E-06-1.02898E-12 4.43399E-13
 -1      1649 1.99998E+01-1.06030E-05-2.33082E-07-7.74011E-06-1.38990E-12 1.28200E-13
 -1      1650 1.99998E+01 3.60828E-05 3.92362E-07-1.38413E-05-7.26539E-13 4.10421E-14
 -1      1651 1.99998E+01-3.73943E-05-1.33036E-06-2.95951E-06-4.30731E-13-2.35004E-13
 -1      1652 1.99998E+01-3.19188E-05-7.96195E-07-4.80787E-06-7.88526E-13 2.98651E-13
 -1      1653 1.99998E+01 1.08852E-05-7.05465E-07-1.22988E-05-5.29145E-13 5.76499E-13
 -1      1654 1.99998E+01-3.68833E-05-8.78420E-07 5.67372E-06-9.21175E-13-4.14239E-13
 -1      1655 1.99998E+01-4.27791E-05-1.03166E-06 2.87751E-06-4.79551E-13-3.09046E-13
 -1      1656 1.99998E+01-8.11516E-06-1.04415E-06 6.03183E-07-5.63752E-13-3.16525E-13
 -1      1657-1.66796E+00-1.97628E+01-2.00231E+00-3.39778E+00 1.25883E-12 2.96263E-13
 -1      1658-1.15634E+00-1.99354E+01-1.92613E+00-1.21517E+00 1.03634E-12 2.56961E-13
 -1      1659-7.78143E-01-1.38678E+01-1.74059E+00-2.74399E+00 1.28930E-12 7.88591E-13
 -1      1660-7.56407E-01-1.77627E+01-1.91728E+00-2.24665E+00 1.18733E-12 3.43420E-13
 -1      1661 3.59801E+00-6.97591E+00-1.65077E+00 1.12413E-01 1.54898E-12 1.16290E-12
 -1      1662 1.47358E+00-1.27771E+01-2.08557E+00-1.89802E+00 1.37679E-12 9.58400E-13
 -1      1663 1.41033E+01-4.05120E-01-1.08776E+00 5.40413E+00 1.32427E-12 1.27987E-12
 -1      1664 7.60352E+00-5.44523E+00-2.05575E+00 1.25477E+00 1.65579E-12 1.16274E-12
 -1      1665 3.51360E+01 2.59987E+00 6.10591E-01 9.99134E+00 9.13047E-13 9.52571E-13
 -1      1666 2.23519E+01-1.03407E-01-1.11659E+00 5.92545E+00 1.22546E-12 1.22657E-12
 -1      1667 5.86025E+01 3.65186E+00 3.01947E+00 1.03245E+01 4.13392E-13 4.33209E-13
 -1      1668 4.25687E+01 3.75382E+00 7.32485E-01 9.62221E+00 7.89036E-13 8.02913E-13
 -1      1669 7.60478E+01 3.43691E+00 5.01655E+00 4.07590E+00 2.24487E-13-1.30229E-13
 -1      1670 6.45560E+01 4.74434E+00 3.42935E+00 8.87892E+00 3.34149E-13 4.05675E-13
 -1      1671 7.58283E+01 4.31471E+00 4.90080E+00-4.07145E+00 9.90319E-14-3.84137E-13
 -1      1672 7.70154E+01 4.10393E+00 5.06137E+00 2.98953E+00-3.76366E-14-2.71894E-13
 -1      1673 5.88356E+01 4.54392E+00 2.63775E+00-8.19725E+00 1.26288E-13-3.59934E-13
 -1      1674 7.17284E+01 3.23067E+00 4.29972E+00-4.29403E+00 8.05467E-14-3.41505E-13
 -1      1675 3.64802E+01 3.78371E+00 1.90239E-01-9.47733E+00 1.77303E-13-3.48610E-13
 -1      1676 5.28240E+01 3.72435E+00 2.36998E+00-1.07013E+01 1.56097E-13-5.27578E-13
 -1      1677 1.81029E+01-6.16061E-01-1.35145E+00-5.00775E+00 4.46310E-14-1.59206E-13
 -1      1678 2.94793E+01 2.27393E+00 1.34412E-01-9.42119E+00 1.54765E-13-3.14859E-13
 -1      1679 6.29057E+00-7.35267E+00-2.01783E+00-4.96525E-01-2.54463E-13-1.02141E-14
 -1      1680 1.16710E+01-1.99774E+00-1.23798E+00-4.25436E+00-2.81997E-14-1.86962E-13
 -1      1681 7.80036E-01-1.42093E+01-2.05612E+00 2.07272E+00-8.69638E-13 1.15553E-13
 -1      1682 2.22016E+00-8.71636E+00-1.67624E+00 6.39338E-01-4.24549E-13-6.12288E-14
 -1      1683-1.16947E+00-1.94582E+01-2.08390E+00 2.46889E+00-1.23146E-12 1.80966E-13
 -1      1684-1.58885E+00-1.61126E+01-1.96414E+00 3.58770E+00-9.74221E-13 1.76359E-13
 -1      1685-1.05437E+00-1.96984E+01-1.88589E+00 8.00244E-01-1.07925E-12 1.45606E-13
 -1      1686-1.44852E+00-2.03373E+01-2.03583E+00 2.92654E+00-1.26370E-12 2.64677E-13
 -1      1687-1.25100E-01-1.40349E+01-1.45008E+00 2.46754E-01-8.27560E-13-1.08191E-13
 -1      1688-4.04067E-01-1.83008E+01-1.84521E+00 1.24550E+00-9.68225E-13 2.87825E-14
 -1      1689 2.82666E+00-5.90796E+00-9.37444E-01 2.29875E+00-6.74572E-13-1.81966E-13
 -1      1690 1.55721E+00-1.19737E+01-1.54075E+00 1.08292E+00-7.64167E-13-1.73195E-13
 -1      1691 9.76743E+00 2.23065E+00-2.89895E-01 7.06207E+00-4.28546E-13-1.90403E-13
 -1      1692 5.81696E+00-3.51268E+00-1.08425E+00 3.62005E+00-6.08402E-13-1.50657E-13
 -1      1693 2.16932E+01 7.23224E+00 4.35047E-01 1.23793E+01-2.62124E-13-2.66454E-13
 -1      1694 1.43069E+01 4.18980E+00-4.36336E-01 8.51934E+00-3.25517E-13-2.33147E-13
 -1      1695 3.75617E+01 7.85184E+00 1.14964E+00 1.46193E+01-1.49769E-13-6.57252E-14
 -1      1696 2.75436E+01 7.91024E+00 2.93580E-01 1.28249E+01-2.31037E-13-1.86962E-13
 -1      1697 5.26298E+01 6.11012E+00 1.75494E+00 1.23116E+01-8.30724E-14 5.51670E-13
 -1      1698 4.31843E+01 8.16558E+00 1.08450E+00 1.44671E+01-1.80245E-13 1.50102E-13
 -1      1699 6.11596E+01 4.06835E+00 1.91466E+00 4.39002E+00-9.25926E-14 1.10595E-12
 -1      1700 5.64572E+01 5.60164E+00 1.67296E+00 9.90763E+00-5.83700E-14 7.02660E-13
 -1      1701 5.97234E+01 4.67525E+00 1.72766E+00-5.06255E+00-3.34621E-13 1.38461E-12
 -1      1702 6.11164E+01 4.25307E+00 1.82160E+00 1.11908E+00-1.68698E-13 1.18092E-12
 -1      1703 5.17727E+01 6.73711E+00 1.44678E+00-1.24574E+01-3.76116E-13 1.41298E-12
 -1      1704 5.84074E+01 4.77587E+00 1.84458E+00-8.22595E+00-2.91864E-13 1.52967E-12
 -1      1705 3.78145E+01 8.57751E+00 8.31391E-01-1.44922E+01-5.94969E-13 1.09490E-12
 -1      1706 4.71977E+01 7.02422E+00 1.49780E+00-1.38466E+01-4.56524E-13 1.26299E-12
 -1      1707 2.35055E+01 8.08404E+00 1.52304E-01-1.25104E+01-6.82010E-13 8.72413E-13
 -1      1708 3.23012E+01 8.64356E+00 9.50895E-01-1.49635E+01-6.65468E-13 1.04849E-12
 -1      1709 1.19981E+01 2.91311E+00-5.72542E-01-7.42764E+00-4.55636E-13 5.87752E-13
 -1      1710 1.85315E+01 6.64712E+00 2.75211E-01-1.13802E+01-6.85674E-13 8.35776E-13
 -1      1711 4.47467E+00-4.81979E+00-1.19591E+00-2.87357E+00 1.73417E-13 3.97238E-13
 -1      1712 7.57783E+00 1.01978E+00-4.51357E-01-5.86010E+00-3.09530E-13 6.27831E-13
 -1      1713 1.01884E+00-1.31301E+01-1.63082E+00-8.05825E-01 5.34239E-13-8.75688E-15
 -1      1714 1.96451E+00-7.30723E+00-1.07138E+00-1.58386E+00 2.86438E-13 1.41109E-13
 -1      1715-5.87178E-01-1.88161E+01-1.88181E+00-1.54949E+00 1.01419E-12 1.42192E-13
 -1      1716-3.01935E-01-1.49632E+01-1.51114E+00-3.05079E-01 7.25087E-13 4.94604E-14
 -1      1717 2.29599E+01 1.98608E+00-2.69232E-02 2.75994E+00 4.38538E-15 1.04258E-12
 -1      1718 4.04849E+01-9.32970E-01-7.86891E-02 4.63487E+00-1.32783E-13 1.77358E-12
 -1      1719 4.05478E+01-2.95279E+00-5.61265E-02 4.74710E+00-3.17885E-13 9.60176E-13
 -1      1720 3.34654E+01 2.06090E-01-1.35936E+00 4.67391E+00-1.42608E-13 2.01034E-12
 -1      1721 3.38221E+00-1.03223E+01-1.30934E+00 2.15065E+00 6.89448E-13 6.73933E-13
 -1      1722-2.01943E+00-1.31963E+01-1.40776E+00-2.57351E+00 7.24532E-13 3.03757E-13
 -1      1723-1.42198E+00-1.24958E+01-1.36229E+00-1.85277E-01 7.83651E-13 3.58047E-13
 -1      1724 1.99998E+01-1.89489E-05 6.22645E-07 1.31029E-05-5.11064E-13 2.76238E-13
 -1      1725 1.99998E+01-3.33876E-05-6.48926E-07 1.02801E-05-7.45751E-13-6.62299E-14
 -1      1726 1.99998E+01-7.42942E-06-3.05953E-07 1.41240E-05-2.68583E-13-1.59523E-13
 -1      1727 1.20755E+01-8.05154E+00-1.27783E+00 3.63673E+00 9.97646E-13 6.44151E-13
 -1      1728 2.66925E+01-5.09630E+00-4.80036E-01 4.24056E+00 9.67337E-13 6.27498E-13
 -1      1729 4.25600E+01-1.62453E+00 7.22127E-01 1.86795E+00 9.03777E-13 4.03455E-13
 -1      1730 5.61588E+01 3.44437E+00 2.44176E+00 3.51173E-01 6.55254E-13 4.73177E-13
 -1      1731 6.21349E+01 7.27221E+00 3.43871E+00-3.20910E-01 3.40172E-13 3.07254E-13
 -1      1732 5.93843E+01 6.93003E+00 3.01126E+00 1.31948E+00 6.75016E-14 2.97207E-13
 -1      1733 5.28194E+01 2.23673E+00 1.98130E+00-1.71236E-01-3.70259E-14 1.43885E-13
 -1      1734 3.80180E+01-2.81554E+00-1.15911E-01-3.35824E+00-1.09912E-13-6.61693E-14
 -1      1735 2.30288E+01-5.91614E+00-7.52189E-01-4.40921E+00-2.87992E-13-4.36318E-14
 -1      1736 1.02549E+01-8.65455E+00-1.21988E+00-3.66497E+00-4.90719E-13-1.75138E-13
 -1      1737 1.79043E+00-1.12744E+01-1.35808E+00-1.52027E+00-6.40488E-13-1.82909E-13
 -1      1738-2.02936E+00-1.36388E+01-1.48491E+00 9.28025E-01-7.49317E-13 1.45328E-13
 -1      1739-1.61022E+00-1.30391E+01-1.33018E+00 2.68195E+00-6.84841E-13 1.89959E-13
 -1      1740 1.92498E+00-9.97344E+00-1.03535E+00 4.56707E+00-4.95493E-13 5.82867E-15
 -1      1741 8.44216E+00-5.87258E+00-6.64373E-01 6.60562E+00-3.97793E-13 2.94764E-14
 -1      1742 1.77585E+01-1.23287E+00-1.35667E-01 8.42807E+00-2.88214E-13-7.43294E-14
 -1      1743 2.90438E+01 2.73012E+00 4.47078E-01 9.07475E+00-1.41109E-13-9.59233E-14
 -1      1744 3.99858E+01 5.85543E+00 9.53142E-01 8.29027E+00-2.15702E-13 2.37366E-13
 -1      1745 4.92234E+01 7.71418E+00 1.47387E+00 6.00812E+00-3.10529E-13 5.00489E-13
 -1      1746 5.26182E+01 8.51154E+00 1.57861E+00 1.42340E+00-2.85549E-13 7.59004E-13
 -1      1747 5.14430E+01 8.47153E+00 1.54492E+00-3.38106E+00-2.48968E-13 8.30058E-13
 -1      1748 4.59823E+01 7.31678E+00 1.29825E+00-7.07277E+00-1.77233E-13 8.92175E-13
 -1      1749 3.65765E+01 5.49033E+00 8.51933E-01-9.24814E+00-2.95763E-13 5.74873E-13
 -1      1750 2.57270E+01 2.33181E+00 2.84357E-01-9.44582E+00-2.86438E-13 5.63993E-13
 -1      1751 1.53490E+01-1.83363E+00-2.41893E-01-8.16165E+00-6.73905E-14 6.64024E-13
 -1      1752 6.68539E+00-6.52147E+00-7.76292E-01-6.04080E+00 2.91989E-13 4.97713E-13
 -1      1753 1.02022E+00-1.06016E+01-1.14561E+00-4.21033E+00 5.08260E-13 2.39253E-13
 -1      1754 2.28848E+01 1.98558E+00-2.35402E-02-2.72198E+00-8.85507E-14-5.08371E-13
 -1      1755 4.39154E+01 1.66750E+00 1.41099E-01 5.63440E+00-1.57874E-13 1.00264E-12
 -1      1756 1.98309E+01 3.70641E+00-3.53554E-02-2.15255E+00 7.42540E-14-3.94709E-13
 -1      1757 2.00650E+01 3.55690E+00-4.04755E-02-2.44579E+00 3.58359E-14-4.31044E-13
 -1      1758 2.03731E+01 3.17867E+00-4.58303E-02-2.58541E+00-1.66924E-15-4.49599E-13
 -1      1759 2.05971E+01 2.80807E+00-1.42659E-01-2.85401E+00-5.75477E-14-4.85667E-13
 -1      1760 2.04327E+01 2.68550E+00-4.42355E-03-2.22673E+00 1.65623E-15-4.07521E-13
 -1      1761 1.93560E+01 4.17582E+00-2.00413E-02-1.26123E+00 1.78376E-13-2.56101E-13
 -1      1762 1.94313E+01 4.13667E+00-1.69505E-02-1.48801E+00 1.62204E-13-3.04513E-13
 -1      1763 1.92546E+01 4.28335E+00-1.67993E-02-8.44569E-01 1.99835E-13-1.91517E-13
 -1      1764 1.93002E+01 4.25870E+00-1.41153E-02-1.05757E+00 1.94052E-13-2.30222E-13
 -1      1765 1.95289E+01 3.76497E+00-9.40925E-03-1.10804E+00 1.94676E-13-2.36429E-13
 -1      1766 1.91953E+01 4.34957E+00-1.49359E-02-4.47875E-01 2.30218E-13-1.21542E-13
 -1      1767 1.92215E+01 4.33495E+00-1.29827E-02-6.49230E-01 2.20248E-13-1.59931E-13
 -1      1768 1.94253E+01 3.88981E+00-9.53724E-03-7.14376E-01 2.25894E-13-1.73373E-13
 -1      1769 1.91666E+01 4.38433E+00-1.38675E-02-6.48507E-02 2.42570E-13-6.92467E-14
 -1      1770 1.91779E+01 4.37785E+00-1.27698E-02-2.59381E-01 2.39908E-13-1.02753E-13
 -1      1771 1.93654E+01 3.96424E+00-9.38706E-03-3.35084E-01 2.53949E-13-1.04944E-13
 -1      1772 1.91668E+01 4.38982E+00-1.33515E-02 3.11534E-01 2.52124E-13-7.06726E-15
 -1      1773 1.91629E+01 4.39142E+00-1.32630E-02 1.19183E-01 2.49392E-13-4.13402E-14
 -1      1774 1.93398E+01 3.99741E+00-9.14605E-03 3.30070E-02 2.61983E-13-4.88429E-14
 -1      1775 1.92009E+01 4.36277E+00-1.33928E-02 6.89797E-01 2.63663E-13 5.45883E-14
 -1      1776 1.91786E+01 4.37384E+00-1.44799E-02 4.94329E-01 2.58738E-13 1.32828E-14
 -1      1777 1.93485E+01 3.98944E+00-8.91803E-03 3.94962E-01 2.69697E-13 1.13191E-14
 -1      1778 1.92782E+01 4.29670E+00-1.42529E-02 1.07383E+00 2.54514E-13 1.23696E-13
 -1      1779 1.92321E+01 4.31916E+00-1.66632E-02 8.72281E-01 2.59111E-13 8.09214E-14
 -1      1780 1.93985E+01 3.93432E+00-8.69688E-03 7.54510E-01 2.78458E-13 7.56513E-14
 -1      1781 1.94208E+01 4.17351E+00-1.68387E-02 1.48938E+00 2.60666E-13 2.28444E-13
 -1      1782 1.93380E+01 4.21446E+00-2.02858E-02 1.26646E+00 2.54021E-13 1.73150E-13
 -1      1783 1.95034E+01 3.81798E+00-8.61401E-03 1.12260E+00 2.69306E-13 1.54834E-13
 -1      1784 1.96644E+01 3.95802E+00-2.41933E-02 1.94237E+00 2.37926E-13 3.40662E-13
 -1      1785 1.95245E+01 4.03389E+00-2.63946E-02 1.69086E+00 2.44704E-13 2.73840E-13
 -1      1786 1.96895E+01 3.61287E+00-8.14233E-03 1.50754E+00 2.61764E-13 2.46879E-13
 -1      1787 2.00884E+01 3.56026E+00-4.29078E-02 2.42453E+00 1.98178E-13 4.70811E-13
 -1      1788 1.98469E+01 3.72433E+00-3.53769E-02 2.13952E+00 2.18424E-13 3.88772E-13
 -1      1789 1.99976E+01 3.27253E+00-4.72742E-03 1.89569E+00 2.35310E-13 3.54366E-13
 -1      1790 2.06417E+01 2.79629E+00-1.37497E-01 2.84396E+00 1.00329E-13 6.65037E-13
 -1      1791 2.04115E+01 3.16836E+00-4.58869E-02 2.57218E+00 1.47034E-13 5.54778E-13
 -1      1792 2.04952E+01 2.68337E+00 4.95440E-03 2.20815E+00 1.74990E-13 4.86691E-13
 -1      1793 8.79331E+00-6.99549E+00-3.92244E-01 4.56577E+00 3.24851E-13 5.18474E-13
 -1      1794 4.77638E+00-7.34734E+00-4.40195E-01 3.38662E+00 3.01092E-13 4.37539E-13
 -1      1795 2.18167E+01 2.45842E+00 9.07758E-02-3.04784E+00-9.77291E-14-4.88054E-13
 -1      1796 2.18587E+01 2.47333E+00 8.93117E-02 3.07044E+00 3.69201E-14 7.89216E-13
 -1      1797 2.05343E+01 4.95414E-01 3.22301E-02-9.28466E-01-7.50962E-14-4.17253E-13
 -1      1798 2.00977E+01 3.44478E-01 6.76148E-03-6.40366E-01-5.01890E-14-4.28484E-13
 -1      1799 1.98991E+01 2.47502E-01 2.71367E-02-4.08827E-01-6.10579E-14-4.01785E-13
 -1      1800 1.96981E+01 1.64833E-01 9.19717E-03-2.77924E-01-4.42415E-14-4.24043E-13
 -1      1801 2.02042E+01 4.70494E-01-5.55999E-03-7.41726E-01-5.26454E-14-3.22786E-13
 -1      1802 1.95682E+01 1.16247E-01 1.62726E-02-1.55861E-01-2.91182E-14-4.26234E-13
 -1      1803 1.94719E+01 7.18055E-02 5.18629E-03-9.63322E-02-1.68637E-14-4.39047E-13
 -1      1804 1.98657E+01 2.21254E-01-5.36935E-03-3.35255E-01-5.02801E-14-3.28917E-13
 -1      1805 1.93937E+01 4.25313E-02 8.15923E-03-4.07732E-02-2.09911E-14-4.26712E-13
 -1      1806 1.93486E+01 1.43172E-02 1.56020E-03-2.19075E-02-2.38260E-14-4.10515E-13
 -1      1807 1.96616E+01 8.94112E-02-3.97647E-03-1.31165E-01-2.18701E-14-3.21206E-13
 -1      1808 1.93010E+01-5.99600E-03 3.51366E-03-9.90564E-03-2.88097E-14-3.66216E-13
 -1      1809 1.92723E+01-2.66494E-02-1.03018E-03-1.82585E-02-1.76157E-14-3.80143E-13
 -1      1810 1.95396E+01 7.35202E-03-2.50297E-03-5.12662E-02-6.49410E-16-2.77397E-13
 -1      1811 1.92374E+01-4.23827E-02 9.04438E-04-3.78739E-02-3.05586E-14-3.65410E-13
 -1      1812 1.92017E+01-5.89311E-02-2.96552E-03-6.68290E-02-4.94613E-15-3.72230E-13
 -1      1813 1.94596E+01-5.15227E-02-9.91807E-04-5.62756E-02-1.60145E-14-2.48395E-13
 -1      1814 1.91648E+01-7.15213E-02-6.43364E-04-1.11115E-01-9.88055E-15-3.67259E-13
 -1      1815 1.91053E+01-8.46931E-02-4.38903E-03-1.56359E-01-1.81404E-14-3.41097E-13
 -1      1816 1.93890E+01-9.76127E-02 3.83202E-04-1.24928E-01-1.75176E-14-2.17171E-13
 -1      1817 1.90547E+01-9.37683E-02-1.60185E-03-2.19651E-01-3.88873E-14-3.48102E-13
 -1      1818 1.89595E+01-1.02400E-01-5.18368E-03-2.76621E-01-1.53167E-14-3.25679E-13
 -1      1819 1.93016E+01-1.33102E-01 1.55430E-03-2.43034E-01-2.79902E-14-2.43878E-13
 -1      1820 1.88858E+01-1.06223E-01-2.15912E-03-3.51893E-01-2.60423E-14-3.47711E-13
 -1      1821 1.87484E+01-1.07763E-01-5.10113E-03-4.13993E-01-3.56106E-14-4.00456E-13
 -1      1822 1.91765E+01-1.54808E-01 2.46914E-03-3.96446E-01-5.97486E-14-2.65535E-13
 -1      1823 1.86455E+01-1.03724E-01-2.34570E-03-4.90934E-01-7.86847E-14-4.14208E-13
 -1      1824 1.84663E+01-9.50464E-02-3.90629E-03-5.48468E-01-7.35336E-14-4.36232E-13
 -1      1825 1.89987E+01-1.55863E-01 3.00499E-03-5.65933E-01-8.44557E-14-2.27121E-13
 -1      1826 1.83328E+01-8.06219E-02-2.08718E-03-6.12663E-01-6.34102E-14-4.80579E-13
 -1      1827 1.81206E+01-5.94601E-02-1.54574E-03-6.52979E-01-4.62826E-14-5.05316E-13
 -1      1828 1.87610E+01-1.28138E-01 2.94277E-03-7.24001E-01-1.00886E-13-2.66265E-13
 -1      1829 1.79624E+01-3.37136E-02-1.23779E-03-6.87043E-01-5.31004E-15-5.24210E-13
 -1      1830 1.77356E+01-5.48394E-04 1.69426E-03-6.96502E-01-3.30728E-14-5.04652E-13
 -1      1831 1.84681E+01-6.62288E-02 2.02299E-03-8.35038E-01-4.82777E-14-3.59208E-13
 -1      1832 1.75673E+01 3.42197E-02 3.31723E-04-6.83793E-01-7.27000E-14-4.91414E-13
 -1      1833 1.73525E+01 7.46312E-02 5.13666E-03-6.51654E-01-6.92465E-14-4.35371E-13
 -1      1834 1.81406E+01 2.76005E-02 1.03724E-04-8.60538E-01-3.43523E-14-2.90298E-13
 -1      1835 1.71974E+01 1.12079E-01 2.60361E-03-5.82157E-01-8.71620E-14-4.88468E-13
 -1      1836 1.70252E+01 1.50773E-01 7.87516E-03-5.05333E-01-8.09509E-14-4.91120E-13
 -1      1837 1.78165E+01 1.39667E-01-2.63380E-03-7.69841E-01-1.15222E-13-3.44562E-13
 -1      1838 1.69111E+01 1.81609E-01 5.24725E-03-3.81519E-01-5.47240E-14-5.24822E-13
 -1      1839 1.68099E+01 2.07929E-01 9.13644E-03-2.67969E-01-5.63755E-14-5.29756E-13
 -1      1840 1.75468E+01 2.45570E-01-5.53929E-03-5.53648E-01-7.40916E-14-3.53688E-13
 -1      1841 1.67611E+01 2.23162E-01 7.61693E-03-1.07236E-01-7.30826E-14-5.52553E-13
 -1      1842 1.67498E+01 2.29036E-01 8.65911E-03 2.44777E-02-4.91751E-14-5.56570E-13
 -1      1843 1.73836E+01 3.16990E-01-7.64836E-03-2.33902E-01-8.10242E-14-3.46943E-13
 -1      1844 1.67785E+01 2.23924E-01 8.90410E-03 1.93387E-01-4.72088E-14-5.84405E-13
 -1      1845 1.68614E+01 2.07659E-01 6.79918E-03 3.19140E-01-6.81013E-14-6.02195E-13
 -1      1846 1.73636E+01 3.32844E-01-8.10521E-03 1.37150E-01-7.77568E-14-3.90711E-13
 -1      1847 1.69634E+01 1.84061E-01 8.52811E-03 4.65082E-01-5.32864E-14-5.86504E-13
 -1      1848 1.71288E+01 1.51189E-01 4.30876E-03 5.62929E-01-1.45409E-14-6.14165E-13
 -1      1849 1.74947E+01 2.88715E-01-6.72916E-03 4.91288E-01-5.42496E-14-4.17387E-13
 -1      1850 1.72848E+01 1.16618E-01 6.46095E-03 6.62530E-01 3.18174E-14-6.43597E-13
 -1      1851 1.75091E+01 7.71679E-02 1.93446E-03 7.19360E-01 4.92384E-14-6.63133E-13
 -1      1852 1.77535E+01 1.98991E-01-4.10728E-03 7.66526E-01-3.94630E-14-4.12886E-13
 -1      1853 1.76925E+01 4.12062E-02 3.27591E-03 7.63288E-01 8.78352E-14-6.50807E-13
 -1      1854 1.79461E+01 5.25084E-03 1.33581E-04 7.77330E-01 7.36398E-14-6.00551E-13
 -1      1855 1.80939E+01 9.00452E-02-1.22291E-03 9.26154E-01 9.68741E-14-3.97575E-13
 -1      1856 1.81311E+01-2.42952E-02-1.40130E-04 7.70286E-01 3.57870E-14-5.24906E-13
 -1      1857 1.83857E+01-5.01254E-02-9.74457E-04 7.49115E-01 6.73535E-14-4.70077E-13
 -1      1858 1.84636E+01-1.10646E-02 1.10333E-03 9.65655E-01 9.06612E-14-3.32208E-13
 -1      1859 1.85537E+01-6.93152E-02-2.98729E-03 7.04984E-01 4.69238E-14-4.12597E-13
 -1      1860 1.87874E+01-8.29398E-02-1.49492E-03 6.61006E-01 6.89485E-14-3.92776E-13
 -1      1861 1.88184E+01-8.58520E-02 2.50983E-03 9.06698E-01 7.46133E-14-3.05195E-13
 -1      1862 1.89282E+01-9.16339E-02-4.81863E-03 5.96560E-01 4.42372E-14-4.99783E-13
 -1      1863 1.91276E+01-9.45725E-02-1.61707E-03 5.42475E-01 8.08880E-15-5.23129E-13
 -1      1864 1.91293E+01-1.27769E-01 3.04534E-03 7.84165E-01 1.33285E-14-3.71730E-13
 -1      1865 1.92385E+01-9.50488E-02-5.57588E-03 4.72450E-01 2.12382E-14-5.52307E-13
 -1      1866 1.93982E+01-9.06144E-02-1.51318E-03 4.18298E-01 5.28375E-15-4.88421E-13
 -1      1867 1.93834E+01-1.40106E-01 2.96985E-03 6.33435E-01-4.15965E-15-4.87502E-13
 -1      1868 1.94812E+01-8.59750E-02-5.46855E-03 3.52968E-01-3.82285E-14-4.74251E-13
 -1      1869 1.96023E+01-7.76712E-02-1.30479E-03 3.05053E-01 1.53534E-14-4.39305E-13
 -1      1870 1.95797E+01-1.31385E-01 2.56787E-03 4.82301E-01 2.46324E-14-4.45279E-13
 -1      1871 1.96618E+01-7.07147E-02-4.81209E-03 2.49967E-01-6.16872E-14-4.62124E-13
 -1      1872 1.97491E+01-6.13087E-02-1.06430E-03 2.11163E-01-1.21793E-14-4.45840E-13
 -1      1873 1.97243E+01-1.11031E-01 2.05458E-03 3.48171E-01-2.61449E-14-2.86511E-13
 -1      1874 1.97901E+01-5.40247E-02-3.90489E-03 1.68123E-01-1.62124E-14-4.79158E-13
 -1      1875 1.98501E+01-4.52659E-02-8.30984E-04 1.38824E-01 1.05653E-14-3.63921E-13
 -1      1876 1.98266E+01-8.67261E-02 1.55685E-03 2.39019E-01-3.17790E-14-2.82204E-13
 -1      1877 1.98773E+01-3.87918E-02-2.96743E-03 1.07231E-01 1.20860E-14-4.40425E-13
 -1      1878 1.99165E+01-3.15293E-02-6.24267E-04 8.63943E-02 5.96575E-14-5.51423E-13
 -1      1879 1.98963E+01-6.34895E-02 1.13229E-03 1.56044E-01 2.70325E-14-2.87447E-13
 -1      1880 1.99340E+01-2.63370E-02-2.13078E-03 6.44404E-02 3.52409E-14-5.35039E-13
 -1      1881 1.99583E+01-2.07915E-02-4.52023E-04 5.04126E-02-2.68665E-14-5.24509E-13
 -1      1882 1.99419E+01-4.38896E-02 7.96315E-04 9.65023E-02 5.27599E-14-5.16993E-13
 -1      1883 1.99690E+01-1.69296E-02-1.45238E-03 3.59273E-02-8.67227E-14-4.77910E-13
 -1      1884 1.99831E+01-1.29634E-02-3.15420E-04 2.69836E-02-7.25909E-14-4.23683E-13
 -1      1885 1.99706E+01-2.87286E-02 5.43302E-04 5.59499E-02 1.76582E-14-3.86209E-13
 -1      1886 1.99893E+01-1.02624E-02-9.40459E-04 1.79212E-02-6.36322E-14-4.23004E-13
 -1      1887 1.99969E+01-7.58284E-03-2.11707E-04 1.25481E-02 9.74199E-14-4.22309E-13
 -1      1888 1.99877E+01-1.77673E-02 3.59606E-04 2.97046E-02-7.30595E-14-2.00658E-13
 -1      1889 2.00002E+01-5.79499E-03-5.76371E-04 7.21126E-03 9.04032E-14-4.73246E-13
 -1      1890 2.00037E+01-4.08049E-03-1.36100E-04 4.21170E-03 5.42435E-14-4.06509E-13
 -1      1891 1.99973E+01-1.02882E-02 2.30236E-04 1.36184E-02 7.17265E-14-2.23357E-13
 -1      1892 2.00052E+01-2.95957E-03-3.30776E-04 1.30600E-03-7.44593E-14-4.71045E-13
 -1      1893 2.00064E+01-1.92371E-03-8.31096E-05-1.98536E-04-1.34158E-13-4.57048E-13
 -1      1894 2.00022E+01-5.45489E-03 1.41662E-04 4.37781E-03-9.48230E-14-3.31560E-13
 -1      1895 2.00069E+01-1.26157E-03-1.73410E-04-1.59907E-03 3.34505E-14-4.54976E-13
 -1      1896 2.00068E+01-6.77124E-04-4.74232E-05-2.21585E-03 1.75698E-13-3.08010E-13
 -1      1897 2.00042E+01-2.50222E-03 8.27394E-05-4.77568E-04 4.11263E-14-1.43122E-13
 -1      1898 2.00068E+01-3.14179E-04-7.79635E-05-2.73863E-03 9.33079E-14-3.20084E-13
 -1      1899 2.00061E+01-1.44894E-05-2.43958E-05-2.86551E-03 2.99430E-14-3.12237E-13
 -1      1900 2.00046E+01-8.12854E-04 4.47716E-05-2.67082E-03 1.11191E-13-1.34001E-13
 -1      1901 2.00058E+01 1.63365E-04-2.37581E-05-2.91491E-03 3.65293E-14-1.45720E-13
 -1      1902 2.00050E+01 2.93277E-04-1.02528E-05-2.79919E-03 9.61012E-14-6.51442E-14
 -1      1903 2.00042E+01 7.16686E-05 2.12190E-05-3.34845E-03 1.05034E-13 1.28213E-13
 -1      1904 2.00046E+01 3.63130E-04 4.33138E-06-2.62275E-03-9.98537E-14-1.28524E-13
 -1      1905 2.00038E+01 3.98480E-04-2.09761E-06-2.40947E-03-1.64866E-13-2.68088E-13
 -1      1906 2.00035E+01 4.70928E-04 7.30988E-06-3.23664E-03-5.21173E-14 1.38911E-13
 -1      1907 2.00034E+01 4.09822E-04 1.67529E-05-2.15012E-03-1.26962E-14-1.70226E-13
 -1      1908 2.00027E+01 3.97357E-04 2.18792E-06-1.91837E-03 2.46663E-14-1.07242E-13
 -1      1909 2.00027E+01 5.95994E-04-3.44110E-07-2.77176E-03-4.64309E-14 2.62110E-13
 -1      1910 2.00024E+01 3.80380E-04 2.03679E-05-1.65245E-03 3.75292E-14-1.64801E-13
 -1      1911 2.00018E+01 3.47590E-04 4.08662E-06-1.44091E-03 1.31467E-13-9.57166E-14
 -1      1912 2.00020E+01 5.79340E-04-4.08541E-06-2.19997E-03 4.23936E-14 2.74211E-13
 -1      1913 2.00016E+01 3.19680E-04 1.94665E-05-1.20449E-03 1.90262E-13-1.24911E-13
 -1      1914 2.00012E+01 2.81660E-04 4.59349E-06-1.02842E-03 2.03130E-13-1.14782E-14
 -1      1915 2.00013E+01 4.99742E-04-5.48824E-06-1.64843E-03 1.54882E-13 2.49317E-13
 -1      1916 2.00009E+01 2.52103E-04 1.65907E-05-8.34607E-04 1.34377E-13-1.95780E-13
 -1      1917 2.00007E+01 2.16357E-04 4.34768E-06-6.96677E-04 3.95030E-14-1.54840E-13
 -1      1918 2.00008E+01 4.01097E-04-5.57692E-06-1.17356E-03 1.02039E-13-2.81132E-14
 -1      1919 2.00005E+01 1.89576E-04 1.31466E-05-5.46461E-04 4.32199E-14 7.03389E-14
 -1      1920 2.00003E+01 1.59209E-04 3.73613E-06-4.43316E-04 2.86430E-13 2.59914E-13
 -1      1921 2.00005E+01 3.05750E-04-4.99055E-06-7.92360E-04 2.68241E-13 1.45784E-13
 -1      1922 2.00002E+01 1.36847E-04 9.84118E-06-3.32051E-04 3.65439E-13 1.45305E-13
 -1      1923 2.00001E+01 1.12528E-04 2.97221E-06-2.58050E-04 2.39309E-13 2.14876E-13
 -1      1924 2.00002E+01 2.23366E-04-4.11933E-06-5.01729E-04 1.71915E-13 2.60252E-13
 -1      1925 2.00000E+01 9.46647E-05 6.97758E-06-1.79175E-04-7.67439E-14 2.76092E-13
 -1      1926 1.99999E+01 7.56520E-05 2.12705E-06-1.28510E-04-7.52032E-14 6.61036E-14
 -1      1927 2.00000E+01 1.56516E-04-3.17452E-06-2.89873E-04 1.22976E-13 2.17304E-13
 -1      1928 1.99999E+01 6.14055E-05 4.63672E-06-7.58315E-05 6.68833E-14 1.61026E-13
 -1      1929 1.99999E+01 4.62250E-05 1.26122E-06-4.38413E-05 1.38525E-13 1.29523E-13
 -1      1930 1.99999E+01 1.03447E-04-2.32241E-06-1.42992E-04 3.01291E-14 4.04271E-13
 -1      1931 1.99998E+01 3.44958E-05 2.98541E-06-1.23030E-05 3.48701E-13 1.38206E-13
 -1      1932 1.99998E+01 1.79685E-05 2.08409E-08 4.50100E-06 3.54942E-13 3.30393E-13
 -1      1933 1.99999E+01 6.04611E-05-1.49831E-06-4.88799E-05 3.03852E-13 2.33783E-13
 -1      1934 1.98231E+01 2.10061E-01 1.33940E-02 2.01819E-01 5.36411E-14 5.32971E-13
 -1      1935 1.99912E+01 2.83859E-01 2.67539E-02 3.57004E-01 4.86815E-14 5.51700E-13
 -1      1936 2.01823E+01 3.82718E-01 9.77324E-03 6.17013E-01 6.92172E-14 5.95813E-13
 -1      1937 2.05978E+01 5.32393E-01 2.97082E-02 9.28914E-01 6.86395E-14 6.20926E-13
 -1      1938 2.02815E+01 5.32426E-01-3.95622E-03 6.91229E-01 8.67032E-14 4.31626E-13
 -1      1939 1.96742E+01 1.40893E-01 1.13697E-02-5.48177E-02 5.74714E-14 4.87449E-13
 -1      1940 1.97123E+01 1.70009E-01 1.72955E-02 4.13675E-02 4.28594E-14 5.02550E-13
 -1      1941 1.99778E+01 3.01018E-01-4.83850E-03 2.15297E-01 6.19860E-14 3.74709E-13
 -1      1942 1.96847E+01 1.24885E-01 1.11258E-02-2.45589E-01 4.80132E-14 4.90935E-13
 -1      1943 1.96307E+01 1.27785E-01 9.80807E-03-1.68214E-01 5.19289E-14 4.92066E-13
 -1      1944 1.98303E+01 2.08580E-01-4.99881E-03-9.67322E-02 4.46383E-14 3.31600E-13
 -1      1945 1.98245E+01 1.49484E-01 1.35667E-02-4.32302E-01 4.87332E-14 4.72224E-13
 -1      1946 1.96904E+01 1.30122E-01 5.43378E-03-3.47731E-01 4.93590E-14 5.04679E-13
 -1      1947 1.98006E+01 1.97383E-01-3.75002E-03-3.39999E-01 5.01829E-14 3.65245E-13
 -1      1948 2.00881E+01 2.18397E-01 1.86954E-02-6.69235E-01 1.08325E-14 4.26121E-13
 -1      1949 1.98652E+01 1.73404E-01 2.88614E-03-5.52109E-01 5.97122E-14 4.67745E-13
 -1      1950 1.98584E+01 2.50107E-01-1.87904E-03-5.86462E-01 6.07943E-14 3.67114E-13
 -1      1951 2.04898E+01 3.44637E-01 2.63619E-02-1.01752E+00-3.40830E-14 3.95000E-13
 -1      1952 2.01506E+01 2.65853E-01 5.53648E-04-8.37008E-01-3.96974E-14 3.81589E-13
 -1      1953 1.99796E+01 3.74881E-01 7.75748E-04-9.00384E-01 2.39002E-14 2.84091E-13
 -1      1954 2.10522E+01 5.44962E-01 3.49456E-02-1.55221E+00-1.84679E-14 3.79883E-13
 -1      1955 2.05553E+01 4.23074E-01-3.35575E-03-1.26888E+00-3.09891E-14 3.74243E-13
 -1      1956 2.01391E+01 5.92374E-01 4.95113E-03-1.35118E+00-1.07987E-14 1.89524E-13
 -1      1957 2.17675E+01 8.06140E-01 4.32901E-02-2.30525E+00 1.71044E-14 4.06832E-13
 -1      1958 2.10837E+01 6.50558E-01-1.10692E-02-1.90881E+00 8.08728E-15 3.82828E-13
 -1      1959 2.02939E+01 9.17953E-01 1.39757E-02-1.99450E+00-1.05523E-14 1.73163E-13
 -1      1960 2.27134E+01 1.09651E+00 5.44156E-02-3.39693E+00 4.33802E-14 3.79256E-13
 -1      1961 2.17340E+01 9.39557E-01-1.98380E-02-2.83372E+00 3.94129E-14 4.01143E-13
 -1      1962 2.03742E+01 1.33127E+00 2.47088E-02-2.91321E+00 3.20976E-14 1.89497E-13
 -1      1963 2.38488E+01 1.12092E+00 7.56094E-02-4.66620E+00 5.54253E-14 3.31814E-13
 -1      1964 2.25719E+01 1.16040E+00-1.31323E-02-4.07690E+00 6.73988E-14 3.57370E-13
 -1      1965 2.02921E+01 1.69492E+00 4.98020E-02-4.15240E+00 6.34085E-14 1.53994E-13
 -1      1966 2.52863E+01 1.32885E-01 1.22590E-01-5.52793E+00-6.83065E-14 3.10404E-13
 -1      1967 2.37266E+01 8.19820E-01 5.17983E-02-5.35959E+00 1.65978E-14 2.73963E-13
 -1      1968 2.00263E+01 1.45407E+00 9.70130E-02-5.55480E+00 6.00631E-14 1.07823E-13
 -1      1969 2.74796E+01-2.66632E+00 1.10255E-01-4.75010E+00-3.00260E-13 3.67345E-13
 -1      1970 2.56756E+01-1.05860E+00 1.63300E-01-5.71672E+00-1.78968E-13 3.19779E-13
 -1      1971 2.00427E+01-5.22387E-01 1.46262E-01-6.58140E+00-1.49769E-13 3.08226E-14
 -1      1972 4.93973E+01 1.92181E+00 7.66266E-01-3.60617E+00 5.02598E-13 5.48006E-13
 -1      1973 5.11024E+01 4.66502E+00 1.07460E+00-2.44342E+00 4.90274E-13 6.17728E-13
 -1      1974 5.18064E+01 5.26575E+00 1.12264E+00-1.17844E+00 3.26850E-13 5.80716E-13
 -1      1975 5.22196E+01 4.87565E+00 1.11811E+00 1.20735E+00 9.05942E-14 6.46240E-13
 -1      1976 3.49556E+01-4.17119E+00 2.20380E-01 1.38205E+00 1.66839E-13-1.12327E-13
 -1      1977 3.67649E+01-4.45379E+00 1.57710E-01-9.29274E-01 3.76171E-13 4.04954E-14
 -1      1978 3.06545E+01-1.49203E+00 2.66224E-01 4.50483E+00 1.54876E-14-1.13702E-14
 -1      1979 3.23101E+01-2.90427E+00 1.64788E-01 3.01547E+00 5.75096E-14-5.80438E-14
 -1      1980 2.83051E+01-4.71252E+00-3.64366E-02 4.00427E+00 8.59868E-14-2.00104E-13
 -1      1981 2.73306E+01 4.34943E-01 9.58721E-02 5.03541E+00-1.65194E-13 8.34992E-14
 -1      1982 2.91921E+01-4.51386E-01 1.00590E-01 4.88997E+00-1.28536E-13 1.68030E-13
 -1      1983 2.51171E+01-1.42461E+00 6.34691E-02 5.89745E+00-1.77858E-13 2.74641E-14
 -1      1984 2.50569E+01 8.54288E-01-8.23626E-03 3.99051E+00-1.56637E-13 1.95302E-13
 -1      1985 2.67291E+01 6.59217E-01 4.93539E-02 4.46189E+00-1.43692E-13 6.73697E-14
 -1      1986 2.35461E+01 7.62452E-01 6.25777E-02 5.54410E+00-1.27370E-13 1.78408E-13
 -1      1987 2.34290E+01 7.27263E-01-2.54348E-02 2.74536E+00-3.04513E-14 2.64731E-13
 -1      1988 2.47221E+01 7.91973E-01 3.33535E-02 3.27922E+00-3.40700E-14 2.45519E-13
 -1      1989 2.26689E+01 1.23031E+00 3.64995E-02 4.22634E+00-7.24898E-14 1.68958E-13
 -1      1990 2.22668E+01 5.02914E-01-1.59635E-02 1.76165E+00-1.11295E-13 3.29732E-13
 -1      1991 2.31703E+01 6.14903E-01 3.06838E-02 2.17328E+00-1.45148E-13 3.05906E-13
 -1      1992 2.19810E+01 1.02164E+00 1.87174E-02 2.89622E+00-1.52548E-13 1.82954E-13
 -1      1993 2.14628E+01 3.20119E-01-6.01126E-03 1.08816E+00-8.01668E-14 3.83344E-13
 -1      1994 2.20539E+01 4.12745E-01 2.71916E-02 1.36490E+00-4.54740E-14 4.16742E-13
 -1      1995 2.14091E+01 7.01053E-01 9.68546E-03 1.87111E+00-1.10432E-13 3.22855E-13
 -1      1996 2.09454E+01 2.00082E-01-1.74342E-03 6.74217E-01 8.27827E-14 2.41460E-13
 -1      1997 2.13084E+01 2.64235E-01 2.16408E-02 8.43171E-01-4.08042E-14 2.00534E-13
 -1      1998 2.09699E+01 4.46828E-01 3.74098E-03 1.17871E+00-2.75179E-14 1.61587E-13
 -1      1999 2.05850E+01 1.19129E-01-1.68995E-04 4.00816E-01-4.45564E-15 1.89790E-13
 -1      2000 2.08214E+01 1.61526E-01 1.50918E-02 5.09713E-01 6.83047E-14 2.78182E-13
 -1      2001 2.06502E+01 2.77410E-01 2.53115E-03 7.29150E-01 5.34451E-14-3.11756E-14
 -1      2002 2.03580E+01 7.00615E-02 4.12239E-04 2.35603E-01-1.10693E-14 1.60323E-13
 -1      2003 2.05011E+01 9.66750E-02 1.00749E-02 3.00876E-01-3.41181E-14 1.85966E-13
 -1      2004 2.04201E+01 1.65032E-01 8.86273E-04 4.37775E-01 3.58697E-15-1.83443E-14
 -1      2005 2.02166E+01 4.08093E-02 4.88540E-04 1.37072E-01 3.49269E-14 2.50627E-13
 -1      2006 2.03021E+01 5.70138E-02 6.37182E-03 1.75662E-01 2.17367E-14 2.51057E-13
 -1      2007 2.02667E+01 9.68469E-02 1.02398E-04 2.59620E-01-4.79634E-14 2.31125E-13
 -1      2008 2.01299E+01 2.35536E-02 4.13108E-04 7.89521E-02-1.40246E-13 6.24306E-13
 -1      2009 2.01803E+01 3.32905E-02 3.92446E-03 1.01538E-01-1.42915E-13 4.11230E-13
 -1      2010 2.01670E+01 5.62495E-02-2.02509E-04 1.52331E-01-1.43407E-13 4.93243E-13
 -1      2011 2.00773E+01 1.34609E-02 3.11096E-04 4.50120E-02-5.25806E-14 6.66519E-13
 -1      2012 2.01068E+01 1.92539E-02 2.37501E-03 5.81056E-02 6.39651E-14 7.84584E-13
 -1      2013 2.01036E+01 3.23558E-02-2.73940E-04 8.84917E-02-1.63126E-13 5.86347E-13
 -1      2014 2.00457E+01 7.60777E-03 2.21518E-04 2.53932E-02-1.26611E-13 5.17615E-13
 -1      2015 2.00627E+01 1.10232E-02 1.41891E-03 3.29075E-02-1.52029E-13 6.10079E-13
 -1      2016 2.00637E+01 1.84208E-02-2.50127E-04 5.09095E-02-1.05191E-13 6.64183E-13
 -1      2017 2.00268E+01 4.24589E-03 1.52686E-04 1.41744E-02 3.11527E-14 3.96427E-13
 -1      2018 2.00366E+01 6.24047E-03 8.38458E-04 1.84397E-02-2.46334E-14 4.14305E-13
 -1      2019 2.00390E+01 1.03662E-02-1.98085E-04 2.90134E-02 1.29424E-15 3.68117E-13
 -1      2020 2.00157E+01 2.33696E-03 1.03073E-04 7.83163E-03 2.37051E-13 4.66510E-13
 -1      2021 2.00212E+01 3.48962E-03 4.90372E-04 1.02244E-02 1.36362E-13 4.64433E-13
 -1      2022 2.00238E+01 5.75698E-03-1.46008E-04 1.63894E-02 1.02268E-13 3.14914E-13
 -1      2023 2.00091E+01 1.26860E-03 6.90690E-05 4.28707E-03 1.47630E-13 4.35361E-13
 -1      2024 2.00122E+01 1.92610E-03 2.83889E-04 5.61321E-03 1.54818E-13 4.73215E-13
 -1      2025 2.00144E+01 3.15070E-03-1.03252E-04 9.18681E-03 8.86182E-14 3.99996E-13
 -1      2026 2.00052E+01 6.81983E-04 4.79425E-05 2.32881E-03 1.43578E-13 4.33074E-13
 -1      2027 2.00069E+01 1.04611E-03 1.61483E-04 3.05258E-03 1.84834E-13 4.46061E-13
 -1      2028 2.00087E+01 1.70076E-03-7.05557E-05 5.11780E-03 2.02903E-13 3.30613E-13
 -1      2029 2.00029E+01 3.76280E-04 3.24481E-05 1.29450E-03 1.23328E-13 2.36671E-13
 -1      2030 2.00039E+01 5.75846E-04 9.25450E-05 1.67696E-03 1.20241E-13 4.31153E-13
 -1      2031 2.00053E+01 8.98812E-04-5.36448E-05 2.86980E-03 2.11918E-13 5.20683E-13
 -1      2032 2.00015E+01 1.96059E-04 2.04126E-05 6.86576E-04 3.02351E-13-1.96117E-13
 -1      2033 2.00021E+01 3.10303E-04 5.27197E-05 9.06904E-04 2.02554E-13-6.34124E-14
 -1      2034 2.00031E+01 4.89946E-04-3.30531E-05 1.61449E-03 4.16023E-13 9.61854E-14
 -1      2035 2.00007E+01 1.04201E-04 1.33931E-05 3.53306E-04 2.51622E-13-3.36981E-13
 -1      2036 2.00010E+01 1.68393E-04 3.03091E-05 4.74329E-04 3.18171E-13-3.73920E-13
 -1      2037 2.00017E+01 2.54546E-04-2.25558E-05 8.83855E-04 4.05995E-13-3.44975E-13
 -1      2038 2.00002E+01 5.73079E-05 8.98651E-06 1.66738E-04-2.09746E-13-3.40026E-13
 -1      2039 2.00003E+01 9.25985E-05 1.71904E-05 2.34484E-04 9.32961E-14-3.34937E-13
 -1      2040 2.00009E+01 1.33784E-04-1.53110E-05 4.71633E-04 6.25539E-14-3.58480E-13
 -1      2041 1.99999E+01 3.32752E-05 6.08769E-06 5.84006E-05-7.44249E-14-4.87912E-13
 -1      2042 2.00000E+01 5.29801E-05 9.81123E-06 9.80303E-05-4.45017E-13-4.14375E-13
 -1      2043 2.00004E+01 7.25969E-05-1.04155E-05 2.33812E-04-2.45136E-13-4.64770E-13
 -1      2044 1.99997E+01 2.06382E-05 4.15627E-06-7.60893E-06 7.41451E-14-5.14325E-13
 -1      2045 1.99998E+01 3.21582E-05 5.67592E-06 1.69149E-05 2.19815E-13-4.09941E-13
 -1      2046 2.00001E+01 4.17166E-05-7.12339E-06 9.17406E-05-2.80588E-14-4.03921E-13
 -1      2047 1.99997E+01 1.33242E-05 2.81163E-06-4.96806E-05 1.97555E-13-4.45961E-13
 -1      2048 1.99997E+01 2.07208E-05 3.31749E-06-3.37420E-05 9.90627E-14-5.43996E-13
 -1      2049 1.99999E+01 2.56790E-05-4.88754E-06 3.33178E-06 1.37142E-13-3.40169E-13
 -1      2050 1.99997E+01 7.95143E-06 1.78506E-06-7.66178E-05-3.65096E-14-3.53476E-13
 -1      2051 1.99996E+01 1.36045E-05 1.91846E-06-6.63091E-05 6.61164E-14-3.74099E-13
 -1      2052 1.99998E+01 1.62990E-05-3.34051E-06-5.32968E-05 5.35584E-14-2.69259E-13
 -1      2053 1.99997E+01 1.99710E-06 8.32396E-07-9.15189E-05-5.54227E-14-1.77339E-13
 -1      2054 1.99996E+01 7.74959E-06 1.04881E-06-8.61226E-05-2.09983E-15-1.86065E-13
 -1      2055 1.99997E+01 8.81298E-06-2.26559E-06-8.86872E-05-6.39672E-14-1.30374E-13
 -1      2056 1.99997E+01-6.32507E-06 6.10555E-08-9.28259E-05-2.87453E-13 1.92706E-13
 -1      2057 1.99997E+01 7.60061E-07 6.45680E-07-9.35137E-05-4.48154E-13-6.12058E-14
 -1      2058 1.99997E+01-7.24290E-07-1.52450E-06-1.06457E-04-3.54840E-13 2.68895E-13
 -1      2059 1.99998E+01-1.99578E-05-3.16305E-07-7.56902E-05-4.73347E-13-1.98366E-16
 -1      2060 1.99997E+01-1.06368E-05 4.40454E-07-8.63277E-05-1.96000E-13 1.64854E-13
 -1      2061 1.99998E+01-1.25104E-05-3.51785E-07-1.04501E-04-3.15505E-13 4.04511E-13
 -1      2062 1.99998E+01-3.76088E-05-1.06632E-07-5.93926E-05-1.84006E-14-3.03774E-13
 -1      2063 1.99998E+01-2.91234E-05 7.86248E-08-7.15119E-05-3.39005E-13-5.13171E-14
 -1      2064 1.99998E+01-3.43180E-05 1.43370E-06-9.05471E-05-1.17812E-13 1.82954E-13
 -1      2065 1.99998E+01-6.23137E-05 1.28581E-06-7.29260E-05 7.07241E-14 1.79955E-13
 -1      2066 1.99998E+01-1.14894E-04 5.70826E-07-4.72612E-05-3.39491E-13-7.29012E-13
 -1      2067 1.99998E+01-9.76861E-05 5.68763E-07-6.14407E-05-1.90248E-13-6.73241E-13
 -1      2068 1.99998E+01-9.89946E-05 8.70393E-07-7.29103E-05-1.45600E-13-3.56384E-13
 -1      2069 1.99998E+01-7.36464E-05 1.68874E-08-7.53613E-05 3.20244E-14-1.64827E-13
 -1      2070 1.99998E+01-6.01138E-05-9.69873E-07-8.84389E-05-3.07275E-13 3.19737E-14
 -1      2071 1.99998E+01-6.88592E-05-1.34013E-06-7.78152E-05-2.31083E-13-5.48519E-13
 -1      2072 1.99998E+01-1.12399E-04 3.79207E-07-5.00808E-06-4.26134E-13-5.98723E-14
 -1      2073 1.99998E+01-1.08350E-04 1.22172E-06-2.31128E-05-2.90369E-13-3.40536E-13
 -1      2074 1.99998E+01-5.95053E-05-1.32304E-06-3.72734E-05-3.09408E-13-5.28515E-13
 -1      2075 1.99998E+01-8.40415E-05 3.46590E-08 3.51228E-05-6.41942E-13 1.84061E-13
 -1      2076 1.99998E+01-9.43166E-05 1.49141E-06 1.92386E-05-5.46839E-13 1.92430E-14
 -1      2077 1.99998E+01-3.51959E-05-1.09872E-06 1.65182E-05-2.29468E-13-3.02946E-13
 -1      2078 1.99998E+01-3.51115E-05-3.87920E-07 6.34898E-05-9.38112E-13 1.68422E-13
 -1      2079 1.99998E+01-5.69141E-05 1.30407E-06 5.34278E-05-9.13188E-13 2.87321E-13
 -1      2080 1.99998E+01 9.87156E-06-5.12317E-07 6.36674E-05-5.57803E-13-6.18703E-14
 -1      2081 1.99998E+01 2.25215E-05-7.54932E-07 7.32404E-05-7.91753E-13 1.66241E-13
 -1      2082 1.99998E+01-4.47083E-06 7.70949E-07 7.11828E-05-1.05197E-12 1.46363E-13
 -1      2083 1.99998E+01 6.78940E-05 1.77233E-07 9.20279E-05-8.34946E-13 5.25757E-14
 -1      2084 1.99998E+01 7.55089E-05-9.50764E-07 6.39701E-05-8.61989E-13 4.68763E-13
 -1      2085 1.99998E+01 5.03083E-05 7.49777E-08 6.94705E-05-6.94913E-13 3.05990E-13
 -1      2086 1.99998E+01 1.26772E-04 8.66241E-07 9.55252E-05-5.98396E-13 3.64247E-13
 -1      2087 1.99998E+01 1.12399E-04-8.94431E-07 4.02992E-05-8.96100E-13 5.68256E-14
 -1      2088 1.99998E+01 9.47406E-05-5.96313E-07 5.09304E-05-1.00186E-12 3.56146E-13
 -1      2089 1.99998E+01 1.74362E-04 1.40744E-06 7.56701E-05-6.38453E-13 2.77728E-13
 -1      2090 1.99998E+01 1.26373E-04-5.84117E-07 1.04979E-05-5.11945E-13-2.79948E-13
 -1      2091 1.99998E+01 1.19299E-04-1.09299E-06 2.25065E-05-5.51497E-13-2.09047E-13
 -1      2092 1.99998E+01 2.01003E-04 1.66394E-06 4.00044E-05-7.23261E-13 1.77280E-13
 -1      2093 1.99998E+01 1.17365E-04-7.17601E-08-1.52131E-05-4.78340E-13 1.95720E-14
 -1      2094 1.99998E+01 1.20093E-04-1.35613E-06-6.06378E-06-3.91069E-13 1.48828E-15
 -1      2095 1.99998E+01 2.01916E-04 1.61337E-06 3.35972E-07-3.12166E-13-1.92630E-14
 -1      2096 1.99998E+01 9.06554E-05 4.29343E-07-2.88734E-05-2.33190E-13 1.70397E-13
 -1      2097 1.99998E+01 9.97805E-05-1.34347E-06-2.57030E-05-2.84195E-13-1.32676E-15
 -1      2098 1.99998E+01 1.78175E-04 1.18347E-06-3.10884E-05 5.84713E-14 1.23519E-13
 -1      2099 1.99998E+01 5.59271E-05 7.40641E-07-2.46072E-05-3.81075E-13 2.64818E-13
 -1      2100 1.99998E+01 6.61440E-05-9.92107E-07-2.96412E-05-2.78382E-13 4.93013E-13
 -1      2101 1.99998E+01 1.36027E-04 6.13570E-07-4.46285E-05-1.48642E-13 2.36131E-13
 -1      2102 1.99998E+01 2.40708E-05 4.09513E-07-6.60891E-06-2.24045E-13-2.57527E-13
 -1      2103 1.99998E+01 3.07534E-05-8.60144E-07-1.66809E-05-3.12763E-13-1.16022E-13
 -1      2104 1.99998E+01 8.58808E-05-9.98285E-07-3.48295E-05-3.62159E-15 7.63826E-14
 -1      2105 2.03916E+01-6.25677E+00-3.06115E-01 4.93953E+00 5.60996E-13 2.83717E-13
 -1      2106 1.43409E+01-7.18973E+00-5.57236E-01 4.51514E+00 3.65485E-13 2.77733E-13
 -1      2107 1.99998E+01 4.99614E-06 2.40805E-06 2.00866E-05 1.54112E-13 4.37974E-13
 -1      2108-4.00888E-01-7.43663E+00-3.03664E-01-1.92238E+00 5.37015E-13 3.97737E-13
 -1      2109 2.68043E-01-6.53212E+00-1.94884E-01-3.39530E+00 4.34430E-13 4.23106E-13
 -1      2110 1.95220E+01 4.00438E+00-2.69587E-02-1.69876E+00 1.37168E-13-3.31386E-13
 -1      2111 1.96509E+01 3.93575E+00-2.47997E-02-1.95211E+00 1.08704E-13-3.65971E-13
 -1      2112 1.99786E+01 3.23389E+00-1.37730E-02-1.91900E+00 8.78074E-14-3.49039E-13
 -1      2113 1.97022E+01 3.56778E+00-7.47155E-03-1.51626E+00 1.49505E-13-3.02669E-13
 -1      2114 3.24425E+01-5.41517E+00-2.61833E-01 2.52093E+00 5.91416E-13 2.14606E-13
 -1      2115 2.46000E+01-6.41214E+00-6.30749E-01 3.30414E+00 6.44484E-13 2.65732E-13
 -1      2116 4.47461E+01-1.67707E-01 1.06396E-01-3.74601E+00 6.36546E-13 4.82503E-13
 -1      2117 4.92750E+01 4.77134E+00 9.48374E-01 2.89553E+00 9.34808E-14 6.69576E-13
 -1      2118 2.28688E+01-6.68368E+00-6.55141E-01-3.64206E+00-3.57936E-13 1.19627E-13
 -1      2119 3.01668E+01-5.64018E+00-2.95534E-01-3.33404E+00-3.16192E-13 1.50102E-13
 -1      2120 1.20699E+01-7.18992E+00-5.15060E-01-4.67904E+00-5.24247E-13-1.75415E-13
 -1      2121 1.79996E+01-6.30273E+00-2.37004E-01-5.42596E+00-4.08118E-13-1.36613E-13
 -1      2122 2.42751E+00-8.31409E+00-5.98462E-01-2.20536E+00-5.14311E-13-1.62204E-13
 -1      2123 6.11781E+00-6.80925E+00-3.14736E-01-4.06771E+00-4.57523E-13-2.86715E-13
 -1      2124-6.79161E-01-8.54287E+00-4.64963E-01 6.78065E-01-4.59743E-13 1.74583E-13
 -1      2125 2.92580E-01-7.93463E+00-3.82314E-01-8.20246E-01-4.64018E-13 2.03726E-14
 -1      2126 2.99233E-01-7.55882E+00-3.11737E-01 3.69905E+00-4.08840E-13 1.97287E-13
 -1      2127-6.72661E-01-8.73986E+00-4.62962E-01 2.36146E+00-4.74260E-13 2.43139E-13
 -1      2128 5.43335E+00-5.92338E+00-1.63481E-01 6.71971E+00-2.81108E-13 7.99083E-14
 -1      2129 2.74689E+00-7.44959E+00-3.64920E-01 5.36626E+00-3.33678E-13 9.08162E-14
 -1      2130 1.32754E+01-4.22607E+00-4.43594E-02 8.42623E+00-2.20157E-13 1.11855E-13
 -1      2131 9.14594E+00-6.18052E+00-3.17995E-01 7.32814E+00-2.83995E-13 1.28834E-13
 -1      2132 2.24775E+01-1.69998E+00 5.14760E-02 8.61961E+00-1.38667E-13 2.34257E-14
 -1      2133 1.73039E+01-3.84712E+00-2.63864E-01 7.88898E+00-1.85407E-13 2.79776E-14
 -1      2134 3.19595E+01 8.67383E-01 1.48874E-01 6.89366E+00-3.33622E-14 3.21965E-14
 -1      2135 2.67727E+01-9.81207E-01-1.20750E-01 7.08665E+00-8.94840E-14 3.05311E-14
 -1      2136 3.99386E+01 4.79070E+00 3.70388E-01 4.81281E+00-2.93918E-13 2.96985E-13
 -1      2137 3.50538E+01 3.00414E+00-6.70891E-03 5.08494E+00-1.61600E-13 1.22125E-13
 -1      2138 4.48378E+01 7.29684E+00 4.02644E-01 2.54468E+00-3.34288E-13 4.05342E-13
 -1      2139 4.17559E+01 6.46885E+00 1.98588E-01 3.91839E+00-3.51275E-13 3.33511E-13
 -1      2140 4.50282E+01 8.62322E+00 2.45404E-01-1.88174E-01-3.04312E-13 4.08375E-13
 -1      2141 4.54426E+01 8.26005E+00 3.83242E-01 1.52193E+00-3.42282E-13 3.89661E-13
 -1      2142 4.33487E+01 7.69218E+00 2.31553E-01-2.31806E+00-1.36002E-13 4.92162E-13
 -1      2143 4.40841E+01 8.38943E+00 2.28671E-01-7.58797E-01-2.16549E-13 4.43784E-13
 -1      2144 3.92731E+01 5.55893E+00 9.77679E-02-4.11253E+00-6.93612E-14 4.63740E-13
 -1      2145 4.28307E+01 6.55519E+00 3.10019E-01-3.24232E+00-9.44522E-14 5.22693E-13
 -1      2146 3.89667E+01 7.83381E+00 3.00817E-01-3.32093E-01-5.15143E-14 2.39225E-13
 -1      2147 3.26137E+01 2.20124E+00-8.90286E-03-6.59458E+00-1.86240E-13 4.03233E-13
 -1      2148 3.72467E+01 3.64842E+00 2.45213E-01-5.95044E+00-1.61163E-13 4.15890E-13
 -1      2149 2.43605E+01-1.10781E+00-1.59291E-01-7.70595E+00-1.12188E-13 4.08340E-13
 -1      2150 2.95777E+01 1.02573E+00 2.09261E-01-8.12310E+00-1.76859E-13 4.31655E-13
 -1      2151 1.53461E+01-4.29975E+00-2.85622E-01-7.98627E+00 1.87295E-13 6.95749E-13
 -1      2152 2.02798E+01-2.21608E+00 4.51926E-02-8.82232E+00-3.11973E-14 5.38625E-13
 -1      2153 7.35062E+00-6.46717E+00-3.77590E-01-6.91981E+00 3.14415E-13 5.62272E-13
 -1      2154 1.10316E+01-4.37969E+00-1.06255E-01-8.07033E+00 1.81521E-13 7.46639E-13
 -1      2155 2.13544E+00-7.18727E+00-3.09531E-01-5.20826E+00 3.93574E-13 3.14693E-13
 -1      2156 4.51828E+00-6.04426E+00-1.75924E-01-6.38690E+00 1.94955E-13 4.14918E-13
 -1      2157 2.15731E+01 1.75541E+00 7.78620E-02 2.34283E+00 6.60826E-14 7.03007E-13
 -1      2158 1.78072E+00-5.95842E+00-1.32675E-01 1.84266E+00 3.99236E-13 1.07359E-13
 -1      2159-1.82841E-02-7.34068E+00-3.60776E-01-1.53574E-01 4.77098E-13 1.33171E-13
 -1      2160 1.30699E+00-3.33457E+00-1.21333E-01-5.44959E-01 2.58720E-13 1.52545E-13
 -1      2161 2.15244E+01 1.74025E+00 7.93780E-02-2.33810E+00-7.94469E-14-4.59521E-13
 -1      2162 1.99998E+01 1.95929E-05 2.51248E-07 4.39185E-06 2.51619E-13 4.45449E-13
 -1      2163 4.35120E+01-2.35790E+00 2.61340E-01-2.47418E+00 6.47746E-13 2.92877E-13
 -1      2164 5.19174E+00-4.46431E+00-1.48387E-01 3.55673E+00 1.44662E-13 2.02671E-13
 -1      2165 1.49296E+01-6.20636E+00-3.04978E-01 5.74506E+00-2.42029E-14 1.49547E-13
 -1      2166 3.90844E+01-2.44304E+00 1.21836E-01 8.78127E-01-1.96454E-13 4.06897E-13
 -1      2167 3.59559E+01-4.79571E+00 5.15678E-02-6.45628E-01-3.18412E-13 3.23852E-13
 -1      2168 2.07505E+01 1.10477E+00-2.11388E-02-1.61876E+00-6.48891E-14-4.60933E-13
 -1      2169 2.06369E+01 1.32329E+00-1.84217E-02-1.68451E+00-5.08742E-14-3.83386E-13
 -1      2170 2.06741E+01 1.33747E+00-2.27137E-02 1.64866E+00 1.11916E-13 5.15438E-13
 -1      2171 2.07986E+01 1.11062E+00-2.26471E-02 1.60233E+00 8.08451E-14 6.66274E-13
 -1      2172 2.70093E+01-4.14260E+00 8.54309E-02-4.49769E+00-3.91853E-13 2.99320E-13
 -1      2173 1.97513E+01-3.84236E+00 1.14919E-01-6.54921E+00-3.54938E-13-7.18592E-14
 -1      2174 2.62039E+01-6.45875E+00-1.74703E-01 4.06732E+00 2.70339E-13-7.13041E-14
 -1      2175 3.48319E+01-4.96760E+00 1.78950E-01-5.58150E-01-3.69205E-13 4.82114E-13
 -1      2176 9.41916E+00-5.17411E+00-7.32428E-02 8.20257E+00-1.56930E-13 1.53932E-13
 -1      2177 3.28248E+01-4.29934E+00 2.23146E-01-2.77799E+00-3.70537E-13 4.76452E-13
 -1      2178 1.99998E+01 1.77557E-05-6.05440E-08 8.73925E-08 6.86596E-14 1.23073E-14
 -1      2179 2.60363E+00-4.12030E+00-1.17539E-01-4.97455E+00 2.15439E-13 4.02289E-13
 -1      2180 2.74794E+00-5.03720E+00-1.59568E-01 5.44553E+00-2.15605E-13 2.16938E-13
 -1      2181 7.85574E+00-5.09367E+00-1.34035E-01-7.89782E+00 9.76996E-14 5.79314E-13
 -1      2182 1.57344E+01-4.92972E+00-3.40972E-02-8.81506E+00 2.25708E-13 7.49380E-13
 -1      2183 2.46054E+01-3.42042E+00 5.85323E-02-7.57180E+00-9.76996E-15 3.79696E-13
 -1      2184 3.71111E+01 3.90040E+00 2.45527E-01-2.35585E+00-1.66117E-14 2.80220E-13
 -1      2185 4.03306E+01 9.53261E+00 2.81202E-01 1.37807E-02-2.54519E-13 2.41057E-13
 -1      2186 4.07535E+01 8.78543E+00 3.76737E-01 4.60366E-01-4.19498E-13 2.44610E-13
 -1      2187 3.84050E+01 5.37488E+00 2.73059E-01 1.37504E+00-3.45252E-13 2.22822E-13
 -1      2188 3.38339E+01 4.64350E-01 1.51204E-01 3.61777E+00-1.38702E-13 6.93889E-14
 -1      2189 2.66613E+01-3.09516E+00 9.86086E-02 6.85821E+00-1.02252E-13 1.09246E-13
 -1      2190 1.78186E+01-4.92694E+00-2.15606E-02 8.55246E+00-1.14797E-13 1.78385E-13
 -1      2191 2.93934E-01-5.19569E+00-2.55094E-01 1.29880E+00-2.53506E-13 1.78191E-13
 -1      2192 2.99965E+00-5.22783E+00-2.66220E-01-2.69118E+00-3.04812E-13-1.19349E-13
 -1      2193 3.77550E+01-4.24557E+00-2.26692E-01-1.62853E+00 6.61360E-13 1.88072E-13
 -1      2194 1.21196E+01-5.62390E+00-1.56685E-01-5.55150E+00-3.89189E-13-2.36228E-13
 -1      2195 2.43673E+01-6.09157E+00-1.07580E-01-4.58891E+00-4.30711E-13 7.43017E-14
 -1      2196 4.61354E+01-6.12616E-01 8.33207E-01 2.61683E+00-1.34497E-13 4.92273E-13
 -1      2197 4.75909E+01 2.62601E-01 2.97493E-01 3.55030E+00-9.94205E-14 7.65055E-13
 -1      2198 1.99998E+01 5.71422E-05 1.76981E-06-2.03873E-05 3.51419E-13 8.51774E-14
 -1      2199 3.20890E+01-1.70077E-01 1.96667E-01-5.17677E+00-7.90201E-14 2.09222E-13
 -1      2200 3.49813E+00-1.47188E+00 1.56265E-01-3.91186E+00 1.15533E-13 4.68903E-13
 -1      2201 5.35300E+00-2.18902E+00 1.28291E-01-6.25989E+00 3.97182E-14 4.67126E-13
 -1      2202 1.95581E+01 3.49933E+00-1.11221E-02-5.66649E-01 2.40133E-13-1.48060E-13
 -1      2203 1.95986E+01 3.45014E+00-1.00812E-02-7.54797E-01 2.26965E-13-1.86459E-13
 -1      2204 1.96486E+01 3.35812E+00-1.25268E-02-9.25348E-01 2.13290E-13-2.00550E-13
 -1      2205 1.97120E+01 3.27650E+00-1.23630E-02-1.11923E+00 1.93244E-13-2.36465E-13
 -1      2206 1.97948E+01 3.00297E+00-2.69455E-04-7.71589E-01 2.17178E-13-1.83893E-13
 -1      2207 1.94828E+01 3.61390E+00-9.97321E-03 1.29462E-01 2.67034E-13-2.72291E-14
 -1      2208 1.94897E+01 3.60848E+00-9.00396E-03-4.83788E-02 2.65934E-13-5.93414E-14
 -1      2209 1.94971E+01 3.59343E+00-1.00818E-02 4.66389E-01 2.71218E-13 2.68899E-14
 -1      2210 1.94851E+01 3.61003E+00-9.58161E-03 2.90717E-01 2.67132E-13-7.97366E-15
 -1      2211 1.96426E+01 3.24671E+00-8.62292E-04 2.06148E-01 2.53470E-13-1.62214E-14
 -1      2212 1.95553E+01 3.51205E+00-1.08339E-02 7.94490E-01 2.77122E-13 9.17530E-14
 -1      2213 1.95198E+01 3.55469E+00-1.08561E-02 6.20707E-01 2.74898E-13 5.52041E-14
 -1      2214 1.96670E+01 3.20627E+00-8.74375E-05 5.12098E-01 2.54661E-13 4.33980E-14
 -1      2215 1.96730E+01 3.34705E+00-1.29074E-02 1.12838E+00 2.76074E-13 1.71915E-13
 -1      2216 1.96055E+01 3.42796E+00-1.28479E-02 9.47724E-01 2.75500E-13 1.27943E-13
 -1      2217 1.97417E+01 3.08957E+00 9.81961E-04 8.07628E-01 2.62419E-13 1.14719E-13
 -1      2218 1.98700E+01 3.06225E+00-1.77663E-02 1.45829E+00 2.50886E-13 2.60296E-13
 -1      2219 1.97606E+01 3.20284E+00-1.54906E-02 1.27447E+00 2.63541E-13 2.02506E-13
 -1      2220 1.98817E+01 2.87158E+00 2.81305E-03 1.09067E+00 2.47382E-13 1.80328E-13
 -1      2221 2.01717E+01 2.58654E+00-2.72241E-02 1.75214E+00 2.19378E-13 3.55450E-13
 -1      2222 2.00108E+01 2.83695E+00-1.69069E-02 1.58397E+00 2.38388E-13 3.04784E-13
 -1      2223 2.00973E+01 2.51458E+00 5.17521E-03 1.33837E+00 2.27797E-13 2.68885E-13
 -1      2224 2.06051E+01 1.78597E+00-1.87801E-02 1.78817E+00 1.51908E-13 4.65164E-13
 -1      2225 2.03522E+01 2.21706E+00-9.65370E-03 1.73565E+00 1.92045E-13 3.83088E-13
 -1      2226 2.03597E+01 1.91304E+00 8.00363E-03 1.41180E+00 1.85169E-13 3.50329E-13
 -1      2227 2.04687E+01 1.13495E+00 2.09978E-03 1.18650E+00 1.37684E-13 4.26034E-13
 -1      2228 3.89901E+00-4.92630E-01 2.01525E-01 9.42368E-01 2.71588E-14 8.54872E-15
 -1      2229 3.21686E+00-6.85830E-01 1.88650E-01-1.47672E+00 3.27932E-14 2.79055E-13
 -1      2230 2.04089E+01 8.36226E-01 1.30869E-02-1.01769E+00-2.12521E-14-2.94476E-13
 -1      2231 2.01912E+01 6.01941E-01-5.69100E-03-7.17187E-01-2.31750E-14-2.80668E-13
 -1      2232 1.31091E+01-3.39337E+00 2.86864E-02-6.00400E+00-2.87104E-13-1.69503E-13
 -1      2233 2.01265E+01 4.38331E-01 1.64844E-02-5.12239E-01-4.69394E-14-2.40364E-13
 -1      2234 1.99753E+01 3.04171E-01-1.29587E-03-3.54252E-01-3.01512E-14-2.51345E-13
 -1      2235 2.02512E+01 7.08818E-01-1.76407E-03-7.28524E-01-1.69276E-14-2.33829E-13
 -1      2236 1.99121E+01 2.09466E-01 1.12486E-02-2.34837E-01-2.35348E-14-2.18532E-13
 -1      2237 1.98171E+01 1.25183E-01-1.21665E-03-1.58884E-01-5.73673E-15-2.30614E-13
 -1      2238 2.00858E+01 3.55835E-01-3.54255E-03-3.75577E-01-1.65828E-14-1.66277E-13
 -1      2239 1.97722E+01 6.26727E-02 6.87163E-03-1.04549E-01-4.67923E-15-2.30816E-13
 -1      2240 1.97118E+01 3.68838E-03-1.95454E-03-8.26211E-02 6.52383E-15-2.17647E-13
 -1      2241 1.99617E+01 1.34660E-01-3.46899E-03-1.84440E-01-9.44272E-15-1.59226E-13
 -1      2242 1.96836E+01-4.24763E-02 4.15263E-03-7.71845E-02 6.72883E-15-2.27592E-13
 -1      2243 1.96382E+01-8.79802E-02-2.88105E-03-9.45264E-02 4.76423E-15-1.99415E-13
 -1      2244 1.98792E+01-1.89722E-02-2.66164E-03-1.14533E-01-9.90569E-15-1.77669E-13
 -1      2245 1.96205E+01-1.24582E-01 2.44673E-03-1.27767E-01-6.41186E-15-2.09923E-13
 -1      2246 1.95746E+01-1.61099E-01-3.78485E-03-1.75576E-01-1.64587E-14-2.18204E-13
 -1      2247 1.98264E+01-1.35985E-01-1.64730E-03-1.38090E-01 6.84403E-16-1.68518E-13
 -1      2248 1.95594E+01-1.89664E-01 1.24085E-03-2.40175E-01-1.05732E-14-2.24207E-13
 -1      2249 1.95013E+01-2.16819E-01-4.42142E-03-3.11374E-01-4.91035E-15-2.19339E-13
 -1      2250 1.97877E+01-2.28218E-01-6.06870E-04-2.36512E-01-1.66354E-14-2.09111E-13
 -1      2251 1.94796E+01-2.35031E-01 1.93837E-04-3.99870E-01-4.97289E-14-2.02385E-13
 -1      2252 1.94007E+01-2.48636E-01-4.46888E-03-4.86034E-01-7.38817E-14-1.94186E-13
 -1      2253 1.97462E+01-2.94972E-01 4.44812E-04-3.94303E-01-2.33217E-14-1.53861E-13
 -1      2254 1.93630E+01-2.51226E-01-8.93644E-04-5.87883E-01-7.16738E-14-1.61297E-13
 -1      2255 1.92585E+01-2.44523E-01-3.58292E-03-6.76924E-01-7.99422E-14-1.62869E-13
 -1      2256 1.96842E+01-3.26014E-01 1.49127E-03-5.92837E-01-6.91922E-14-1.09553E-13
 -1      2257 1.91957E+01-2.24854E-01-2.04742E-03-7.76123E-01-9.73128E-14-1.27229E-13
 -1      2258 1.90660E+01-1.90962E-01-1.54101E-03-8.51181E-01-9.30885E-14-1.52462E-13
 -1      2259 1.95843E+01-3.04994E-01 2.39103E-03-8.04643E-01-7.01245E-14-9.94174E-14
 -1      2260 1.89725E+01-1.43998E-01-3.06421E-03-9.25572E-01-9.46226E-14-1.35387E-13
 -1      2261 1.88245E+01-7.99026E-02 1.54969E-03-9.66120E-01-4.23353E-14-1.43539E-13
 -1      2262 1.94330E+01-2.15770E-01 2.80258E-03-9.89779E-01-8.54096E-14 3.93163E-14
 -1      2263 1.87026E+01-6.32924E-03-3.47249E-03-9.89966E-01-3.22210E-14-1.76306E-13
 -1      2264 1.85504E+01 8.25507E-02 5.07776E-03-9.75962E-01-6.66581E-14-1.76442E-13
 -1      2265 1.92270E+01-5.22910E-02 2.25140E-03-1.09728E+00-6.72996E-14 5.79533E-15
 -1      2266 1.84143E+01 1.72622E-01-2.71867E-03-9.26827E-01-1.21076E-13-1.59389E-13
 -1      2267 1.82780E+01 2.69902E-01 7.96270E-03-8.45707E-01-1.26620E-13-1.59960E-13
 -1      2268 1.89815E+01 1.70631E-01 4.18896E-04-1.07474E+00-7.69669E-14-6.95679E-14
 -1      2269 1.81540E+01 3.56641E-01-4.79640E-04-7.14423E-01-1.14542E-13-1.67604E-13
 -1      2270 1.80562E+01 4.37594E-01 9.07167E-03-5.68431E-01-1.10568E-13-2.15608E-13
 -1      2271 1.87342E+01 4.11810E-01-2.48171E-03-8.86454E-01-1.21520E-13-2.29227E-14
 -1      2272 1.79757E+01 4.96786E-01 2.86731E-03-3.67476E-01-1.28310E-13-2.16347E-13
 -1      2273 1.79351E+01 5.37069E-01 7.87332E-03-1.77090E-01-1.21608E-13-2.56492E-13
 -1      2274 1.85399E+01 6.10977E-01-5.44752E-03-5.34185E-01-1.62422E-13-9.22960E-14
 -1      2275 1.79223E+01 5.50117E-01 6.31761E-03 5.87922E-02-7.87393E-14-2.86813E-13
 -1      2276 1.79484E+01 5.36790E-01 4.89439E-03 2.59017E-01-7.38784E-14-2.69784E-13
 -1      2277 1.84516E+01 7.09569E-01-7.11206E-03-6.81307E-02-1.17592E-13-1.39876E-13
 -1      2278 1.80084E+01 4.99691E-01 8.49582E-03 4.82999E-01-9.79171E-14-2.73307E-13
 -1      2279 1.80980E+01 4.37830E-01 1.40503E-03 6.55453E-01-7.16070E-14-2.90250E-13
 -1      2280 1.84974E+01 6.76976E-01-6.46967E-03 4.22979E-01-8.52547E-14-1.61616E-13
 -1      2281 1.82144E+01 3.63419E-01 8.47847E-03 8.25438E-01-8.79505E-16-2.59110E-13
 -1      2282 1.83529E+01 2.73467E-01-1.33054E-03 9.42237E-01 6.56072E-15-2.60707E-13
 -1      2283 1.86666E+01 5.25174E-01-3.90932E-03 8.42023E-01-4.08438E-14-9.40030E-14
 -1      2284 1.84959E+01 1.84683E-01 6.32106E-03 1.03505E+00 2.67499E-14-2.33898E-13
 -1      2285 1.86623E+01 9.23576E-02-2.68411E-03 1.08561E+00 1.02425E-13-2.47501E-13
 -1      2286 1.89150E+01 3.02855E-01-7.85875E-04 1.11861E+00 4.32169E-14-4.78664E-14
 -1      2287 1.88023E+01 1.17204E-02 2.95654E-03 1.10107E+00 1.26104E-13-3.04033E-13
 -1      2288 1.89749E+01-6.25224E-02-2.74221E-03 1.09167E+00 1.10628E-13-2.84178E-13
 -1      2289 1.91860E+01 7.21995E-02 1.60853E-03 1.22906E+00 8.50213E-14-1.49598E-13
 -1      2290 1.90919E+01-1.20677E-01-4.34985E-04 1.04682E+00 7.50109E-14-2.80776E-13
 -1      2291 1.92537E+01-1.67042E-01-2.00745E-03 9.94322E-01 6.16037E-14-2.17865E-13
 -1      2292 1.94331E+01-1.16175E-01 2.76143E-03 1.19341E+00 9.07716E-14-1.68825E-13
 -1      2293 1.93400E+01-1.98597E-01-3.00707E-03 9.13344E-01 9.68333E-15-2.73841E-13
 -1      2294 1.94802E+01-2.17397E-01-1.04330E-03 8.37591E-01-4.65574E-14-3.46466E-13
 -1      2295 1.96305E+01-2.36932E-01 2.84067E-03 1.05707E+00-3.46333E-14-1.72296E-13
 -1      2296 1.95374E+01-2.25939E-01-4.44633E-03 7.43129E-01-4.28227E-14-3.79424E-13
 -1      2297 1.96516E+01-2.23650E-01-2.24663E-04 6.61249E-01-1.85457E-14-3.32199E-13
 -1      2298 1.97725E+01-2.89431E-01 2.32364E-03 8.70269E-01-2.48423E-14-2.80656E-13
 -1      2299 1.96862E+01-2.16385E-01-4.86079E-03 5.69778E-01 5.80694E-14-3.49698E-13
 -1      2300 1.97744E+01-2.01363E-01 2.98318E-04 4.93546E-01 2.69142E-14-3.19617E-13
 -1      2301 1.98665E+01-2.88689E-01 1.64032E-03 6.74109E-01 2.01363E-15-2.82757E-13
 -1      2302 1.97935E+01-1.85706E-01-4.55844E-03 4.14470E-01-4.89046E-14-3.30149E-13
 -1      2303 1.98587E+01-1.65289E-01 5.39089E-04 3.50178E-01 2.90105E-14-2.53415E-13
 -1      2304 1.99246E+01-2.54960E-01 1.04343E-03 4.95239E-01-2.21222E-14-2.77164E-13
 -1      2305 1.98684E+01-1.47015E-01-3.86846E-03 2.87124E-01-1.79703E-14-2.73637E-13
 -1      2306 1.99147E+01-1.26311E-01 5.80239E-04 2.36781E-01-5.29294E-14-3.09313E-13
 -1      2307 1.99588E+01-2.06470E-01 6.19470E-04 3.46737E-01-5.56439E-14-2.46876E-13
 -1      2308 1.99192E+01-1.09057E-01-3.04949E-03 1.89588E-01-3.96446E-14-2.83360E-13
 -1      2309 1.99509E+01-9.09148E-02 5.11025E-04 1.52486E-01-1.73247E-14-3.87476E-13
 -1      2310 1.99781E+01-1.56170E-01 3.57031E-04 2.31797E-01-1.62082E-14-3.04837E-13
 -1      2311 1.99528E+01-7.64695E-02-2.26567E-03 1.19002E-01 2.73603E-14-4.40659E-13
 -1      2312 1.99736E+01-6.20108E-02 3.99423E-04 9.30716E-02 1.00286E-13-4.26021E-13
 -1      2313 1.99888E+01-1.11480E-01 2.10328E-04 1.47758E-01 5.32967E-16-3.90705E-13
 -1      2314 1.99743E+01-5.08807E-02-1.59965E-03 7.04392E-02 9.37012E-14-3.34923E-13
 -1      2315 1.99874E+01-4.01464E-02 2.86361E-04 5.31981E-02 7.61929E-14-2.03064E-13
 -1      2316 1.99948E+01-7.54969E-02 1.33310E-04 8.92868E-02 1.39290E-13-2.57649E-13
 -1      2317 1.99875E+01-3.21084E-02-1.07751E-03 3.86119E-02-7.81413E-15-2.24960E-13
 -1      2318 1.99954E+01-2.45916E-02 1.91200E-04 2.77151E-02-1.54833E-14-9.95480E-14
 -1      2319 1.99981E+01-4.85509E-02 9.28108E-05 5.04553E-02 7.82008E-14-1.58517E-13
 -1      2320 1.99954E+01-1.90997E-02-6.92615E-04 1.87833E-02 3.64104E-14-1.32758E-13
 -1      2321 1.99998E+01-1.41058E-02 1.19565E-04 1.22766E-02 6.88983E-14-1.83137E-13
 -1      2322 1.99999E+01-2.95312E-02 6.93458E-05 2.58597E-02 3.59457E-14-8.03393E-14
 -1      2323 1.99997E+01-1.05429E-02-4.23162E-04 7.13257E-03 1.36687E-14-2.32200E-13
 -1      2324 2.00020E+01-7.39267E-03 6.98911E-05 3.51669E-03-7.35363E-14-2.14447E-13
 -1      2325 2.00009E+01-1.67946E-02 5.31836E-05 1.10851E-02 1.19904E-15-8.68612E-14
 -1      2326 2.00019E+01-5.20136E-03-2.43166E-04 7.94031E-04-2.40561E-14-8.37949E-15
 -1      2327 2.00028E+01-3.32345E-03 3.77553E-05-1.01125E-03 1.34700E-13 2.70264E-14
 -1      2328 2.00014E+01-8.69093E-03 4.02794E-05 2.78187E-03 8.35634E-14 7.84750E-15
 -1      2329 2.00027E+01-2.05605E-03-1.28366E-04-2.26152E-03 1.06383E-13 3.95573E-14
 -1      2330 2.00029E+01-1.01235E-03 1.82993E-05-2.99454E-03 8.62789E-14 1.70382E-14
 -1      2331 2.00015E+01-3.81087E-03 2.93671E-05-1.45038E-03 8.03275E-14 1.19423E-13
 -1      2332 2.00028E+01-3.36760E-04-5.87269E-05-3.40171E-03 1.29491E-13 1.02595E-13
 -1      2333 2.00026E+01 1.86943E-04 7.33966E-06-3.54330E-03 7.54458E-14 2.00080E-13
 -1      2334 2.00015E+01-1.06157E-03 2.02481E-05-3.25100E-03 1.84129E-13 9.09440E-14
 -1      2335 2.00025E+01 5.02648E-04-1.89697E-05-3.50617E-03-2.21729E-14 1.77792E-13
 -1      2336 2.00021E+01 7.19712E-04 1.70413E-06-3.35454E-03-1.18788E-13 1.40969E-13
 -1      2337 2.00013E+01 3.47789E-04 1.29565E-05-3.69084E-03 1.83036E-15 2.28351E-13
 -1      2338 2.00020E+01 8.29398E-04 1.88765E-06-3.11387E-03-6.69905E-14 1.80387E-13
 -1      2339 2.00016E+01 8.77758E-04-8.12699E-07-2.84412E-03 1.15994E-13 2.96879E-13
 -1      2340 2.00011E+01 9.58676E-04 7.44711E-06-3.43864E-03-8.71044E-14 3.00157E-13
 -1      2341 2.00015E+01 8.78675E-04 1.13620E-05-2.53698E-03 2.18605E-14 2.60490E-13
 -1      2342 2.00012E+01 8.43245E-04-1.64112E-06-2.24498E-03 2.23091E-14 2.55873E-13
 -1      2343 2.00008E+01 1.12402E-03 3.54043E-06-2.89156E-03 3.31755E-14 2.56490E-13
 -1      2344 2.00011E+01 7.93825E-04 1.43768E-05-1.94336E-03 6.22101E-14 3.21436E-13
 -1      2345 2.00008E+01 7.24093E-04-1.65231E-06-1.67635E-03 1.49059E-13 2.16967E-13
 -1      2346 2.00006E+01 1.06303E-03 9.66491E-07-2.27101E-03 1.03657E-13 3.78707E-13
 -1      2347 2.00007E+01 6.57392E-04 1.40197E-05-1.41326E-03 5.36625E-14 1.70744E-13
 -1      2348 2.00005E+01 5.80241E-04-1.34673E-06-1.19024E-03-1.12066E-14 6.17785E-14
 -1      2349 2.00004E+01 9.04869E-04-5.74620E-07-1.68951E-03-3.65339E-14 3.35981E-13
 -1      2350 2.00004E+01 5.13467E-04 1.21340E-05-9.76702E-04 2.01298E-13 1.52932E-13
 -1      2351 2.00003E+01 4.42054E-04-9.85699E-07-8.01375E-04 3.03599E-13 2.16534E-13
 -1      2352 2.00002E+01 7.20697E-04-1.36508E-06-1.19540E-03 9.36094E-14 2.45268E-13
 -1      2353 2.00002E+01 3.83055E-04 9.74778E-06-6.36984E-04 1.30297E-13 1.17089E-13
 -1      2354 2.00001E+01 3.22580E-04-7.13846E-07-5.05619E-04 1.76828E-13 1.31199E-13
 -1      2355 2.00001E+01 5.46239E-04-1.62861E-06-8.01634E-04 2.09753E-13 2.64526E-13
 -1      2356 2.00001E+01 2.73864E-04 7.42119E-06-3.84826E-04 3.39861E-13 1.17256E-13
 -1      2357 2.00000E+01 2.25157E-04-4.84228E-07-2.90880E-04 2.28687E-13 3.12056E-13
 -1      2358 2.00000E+01 3.96199E-04-1.58847E-06-5.03226E-04 2.79482E-13 2.56258E-13
 -1      2359 1.99999E+01 1.86106E-04 5.34902E-06-2.06185E-04 6.69210E-14 3.82475E-13
 -1      2360 1.99999E+01 1.47012E-04-5.70493E-07-1.42790E-04 1.47180E-13 4.37619E-13
 -1      2361 1.99999E+01 2.73834E-04-1.50368E-06-2.88384E-04 2.00853E-13 3.09450E-13
 -1      2362 1.99999E+01 1.16461E-04 3.89048E-06-9.06187E-05 1.90408E-13 2.91403E-13
 -1      2363 1.99998E+01 8.48328E-05-2.88729E-07-5.26692E-05 3.99948E-13 2.91584E-13
 -1      2364 1.99998E+01 1.00328E-04 2.77879E-07-5.57346E-05 2.09922E-13 2.93730E-13
 -1      2365 1.99999E+01 1.73825E-04-2.15390E-06-1.43928E-04 5.10274E-15 4.29855E-13
 -1      2366 1.99433E+01 3.28069E-01 4.74136E-03-1.17372E-01 5.79974E-14 2.70415E-13
 -1      2367 1.99921E+01 3.68665E-01 8.46420E-03 2.70115E-02 4.97391E-14 2.85687E-13
 -1      2368 9.32236E+00-2.94489E+00 1.04936E-01 5.32522E+00-1.48159E-13 1.00142E-13
 -1      2369 5.76316E+00-1.83784E+00 1.22959E-01 3.60667E+00 4.53526E-14-3.53051E-14
 -1      2370 1.98866E+01 3.20344E-01 6.61332E-03-3.77657E-01 3.49612E-14 3.03900E-13
 -1      2371 1.98810E+01 3.12488E-01 4.21287E-03-2.52604E-01 4.97002E-14 2.76575E-13
 -1      2372 1.99785E+01 4.35971E-01-2.06205E-03-1.48337E-01 5.84995E-14 2.12335E-13
 -1      2373 1.98694E+01 4.02680E-01 9.24562E-03-6.43644E-01 6.37710E-14 2.73267E-13
 -1      2374 1.98211E+01 3.47473E-01-2.70154E-04-5.04706E-01 5.51983E-14 2.70267E-13
 -1      2375 1.98616E+01 4.49835E-01 6.28201E-04-4.24952E-01 6.10412E-14 2.05539E-13
 -1      2376 1.98533E+01 5.85774E-01 1.23908E-02-9.72633E-01 3.75563E-14 2.19750E-13
 -1      2377 1.97753E+01 4.75286E-01-4.97920E-03-7.88397E-01 5.88960E-14 2.46154E-13
 -1      2378 1.97286E+01 5.82684E-01 5.10752E-03-7.03297E-01 7.30223E-14 1.80782E-13
 -1      2379 1.97752E+01 8.92759E-01 1.51305E-02-1.42355E+00 6.27016E-15 1.28417E-13
 -1      2380 1.96887E+01 7.14934E-01-1.08239E-02-1.16042E+00 2.11302E-14 1.93433E-13
 -1      2381 1.95171E+01 8.50519E-01 1.22684E-02-1.03218E+00 5.42955E-14 1.82766E-13
 -1      2382 1.95582E+01 1.31370E+00 1.69887E-02-2.01604E+00 3.28730E-15 1.21767E-13
 -1      2383 1.94877E+01 1.07481E+00-1.95456E-02-1.66635E+00-2.33025E-14 8.81751E-14
 -1      2384 1.91420E+01 1.26858E+00 2.53733E-02-1.44072E+00 2.43468E-14 7.21827E-14
 -1      2385 1.90357E+01 1.85382E+00 2.26608E-02-2.85156E+00 2.68882E-14 1.53745E-13
 -1      2386 1.90336E+01 1.56452E+00-2.88022E-02-2.35859E+00 3.29216E-14 1.37999E-13
 -1      2387 1.84454E+01 1.83727E+00 4.34607E-02-1.97175E+00 1.01755E-14 3.89415E-14
 -1      2388 1.80282E+01 2.26061E+00 4.26832E-02-3.89112E+00 9.70448E-14 1.39012E-13
 -1      2389 1.81436E+01 2.08506E+00-3.11166E-02-3.30331E+00 6.43801E-14 1.42100E-13
 -1      2390 1.71798E+01 2.49089E+00 7.94531E-02-2.65331E+00 5.24090E-14 7.82326E-14
 -1      2391 1.64704E+01 1.82189E+00 1.12320E-01-5.02398E+00 4.91968E-14 1.10592E-13
 -1      2392 1.66641E+01 2.20364E+00 4.86793E-03-4.46574E+00 1.27925E-13 1.26968E-13
 -1      2393 1.50840E+01 2.83027E+00 1.48487E-01-3.48435E+00 1.13338E-13 1.02789E-13
 -1      2394 1.47708E+01-7.67782E-01 1.40337E-01-5.89454E+00-1.17600E-13-7.40796E-14
 -1      2395 1.47404E+01 9.03936E-01 8.38801E-02-5.65838E+00 1.19349E-14-2.06501E-14
 -1      2396 1.21056E+01 1.97948E+00 2.71857E-01-4.36856E+00 1.27315E-13 4.54498E-14
 -1      2397 8.40544E+00-1.73318E+00 2.16053E-01-5.08327E+00-1.24983E-13-1.90514E-13
 -1      2398 2.41024E+01-4.44336E+00 1.32944E-01 5.23941E+00-4.38538E-14-9.92262E-14
 -1      2399 1.98345E+01 1.79746E+00-1.62173E-02 3.70504E+00-4.81132E-14 1.52947E-13
 -1      2400 2.01807E+01 1.86192E+00 5.61306E-02 4.36225E+00-8.87365E-14 2.16381E-13
 -1      2401 2.02002E+01 1.37809E+00-2.10161E-02 2.53222E+00-2.54057E-13 2.73366E-13
 -1      2402 2.05002E+01 1.61170E+00 3.32328E-02 3.09485E+00-1.14605E-13 2.24292E-13
 -1      2403 1.82706E+01 2.29331E+00 6.71080E-02 3.22851E+00-1.21690E-13 2.52910E-13
 -1      2404 2.03278E+01 9.40025E-01-1.31342E-02 1.66307E+00-1.41796E-14 3.30303E-13
 -1      2405 2.05809E+01 1.15546E+00 2.63168E-02 2.07558E+00-1.96291E-13 2.77084E-13
 -1      2406 1.92325E+01 1.72809E+00 3.96800E-02 2.25658E+00-1.61347E-13 4.02102E-13
 -1      2407 2.03260E+01 6.17499E-01-7.13018E-03 1.08497E+00 1.02499E-13 7.54041E-14
 -1      2408 2.05188E+01 7.72549E-01 2.19072E-02 1.35419E+00 1.12213E-13 2.37735E-13
 -1      2409 1.97193E+01 1.18581E+00 2.20356E-02 1.52771E+00 1.11132E-13 1.94039E-13
 -1      2410 2.02683E+01 3.83373E-01-3.95000E-03 6.77490E-01-7.36217E-15 1.02564E-13
 -1      2411 2.04154E+01 4.92484E-01 1.62968E-02 8.61319E-01 4.28815E-14 6.66361E-14
 -1      2412 1.99490E+01 7.72755E-01 1.24987E-02 1.00771E+00 1.04582E-13 8.65326E-14
 -1      2413 2.02028E+01 2.33513E-01-1.93283E-03 4.16470E-01-7.54995E-14 9.50451E-14
 -1      2414 2.03045E+01 3.03041E-01 1.13859E-02 5.31678E-01-6.25628E-15 1.20454E-13
 -1      2415 2.00435E+01 4.81978E-01 6.43231E-03 6.42212E-01-5.00572E-14 2.88548E-13
 -1      2416 2.01450E+01 1.40248E-01-9.28104E-04 2.52681E-01-1.23080E-13 2.32972E-13
 -1      2417 2.02128E+01 1.83427E-01 7.55943E-03 3.23470E-01-1.26719E-13 1.79680E-13
 -1      2418 2.00698E+01 2.94477E-01 3.05390E-03 4.01956E-01-1.16467E-13 9.36936E-14
 -1      2419 2.01002E+01 8.32984E-02-4.25608E-04 1.51598E-01-3.75746E-13 4.72477E-13
 -1      2420 2.01442E+01 1.09653E-01 4.85004E-03 1.94469E-01-2.17070E-13 3.13444E-13
 -1      2421 2.00676E+01 1.77360E-01 1.31472E-03 2.47903E-01-2.01334E-13 6.87259E-15
 -1      2422 2.00676E+01 4.89718E-02-1.76791E-04 9.00613E-02-6.35165E-14 4.15308E-13
 -1      2423 2.00956E+01 6.48579E-02 3.04289E-03 1.15718E-01-2.09468E-13 4.58191E-13
 -1      2424 2.00559E+01 1.05586E-01 4.76679E-04 1.51049E-01-2.45049E-13 1.89000E-13
 -1      2425 2.00450E+01 2.85000E-02-5.79710E-05 5.30432E-02-2.83167E-14 3.27356E-13
 -1      2426 2.00625E+01 3.79737E-02 1.87760E-03 6.82340E-02-6.19945E-14 3.74293E-13
 -1      2427 2.00428E+01 6.21929E-02 1.02335E-04 9.11141E-02-3.35828E-14 2.38526E-13
 -1      2428 2.00296E+01 1.64137E-02-4.86091E-06 3.10144E-02 1.48451E-13 1.45333E-13
 -1      2429 2.00405E+01 2.20049E-02 1.14303E-03 3.99171E-02 5.82358E-14 2.29690E-13
 -1      2430 2.00313E+01 3.62535E-02-4.63892E-05 5.45139E-02 3.56663E-14 1.64028E-13
 -1      2431 2.00193E+01 9.35313E-03 1.59435E-05 1.80353E-02 8.66044E-14 1.45819E-13
 -1      2432 2.00261E+01 1.26171E-02 6.87701E-04 2.32017E-02 1.85799E-13 1.81508E-13
 -1      2433 2.00223E+01 2.09115E-02-9.16454E-05 3.24169E-02 1.66035E-13 6.11050E-14
 -1      2434 2.00125E+01 5.27626E-03 2.19115E-05 1.04551E-02 1.17674E-13 1.64657E-13
 -1      2435 2.00167E+01 7.15891E-03 4.09409E-04 1.34262E-02 8.47169E-14 1.94426E-13
 -1      2436 2.00155E+01 1.19361E-02-9.33799E-05 1.92053E-02 8.40272E-14-3.36475E-14
 -1      2437 2.00081E+01 2.95836E-03 2.54231E-05 6.06107E-03 1.83871E-13 2.23416E-13
 -1      2438 2.00106E+01 4.02024E-03 2.40729E-04 7.75414E-03 1.75043E-13 2.66034E-13
 -1      2439 2.00107E+01 6.74687E-03-7.97226E-05 1.13672E-02 1.31493E-13-1.86333E-13
 -1      2440 2.00053E+01 1.69892E-03 2.16558E-05 3.61808E-03 3.52907E-13 7.68010E-14
 -1      2441 2.00068E+01 2.28422E-03 1.42653E-04 4.55045E-03 2.92874E-13 1.79634E-13
 -1      2442 2.00073E+01 3.80928E-03-7.09940E-05 6.81293E-03 2.02388E-13 3.42367E-14
 -1      2443 2.00033E+01 9.41175E-04 1.47934E-05 2.10426E-03 5.19325E-13 5.52972E-15
 -1      2444 2.00043E+01 1.28243E-03 8.35156E-05 2.66799E-03 4.81223E-13 1.34763E-13
 -1      2445 2.00049E+01 2.17694E-03-4.70126E-05 4.11865E-03 4.22122E-13 6.18927E-14
 -1      2446 2.00020E+01 5.28792E-04 1.12243E-05 1.22430E-03 3.18747E-13-9.13020E-14
 -1      2447 2.00026E+01 7.18564E-04 4.92744E-05 1.54773E-03 4.40279E-13 2.00145E-14
 -1      2448 2.00032E+01 1.21622E-03-3.44928E-05 2.46271E-03 4.20858E-13 1.89400E-13
 -1      2449 2.00012E+01 3.04083E-04 8.48834E-06 7.03534E-04 4.33601E-16-1.78337E-13
 -1      2450 2.00015E+01 4.07844E-04 2.88034E-05 8.92339E-04 2.31010E-13-1.08141E-13
 -1      2451 2.00021E+01 6.87931E-04-2.47818E-05 1.47304E-03 2.56479E-13 2.36463E-13
 -1      2452 2.00006E+01 1.81309E-04 6.32585E-06 3.87656E-04-2.13079E-13-2.76044E-13
 -1      2453 2.00008E+01 2.38327E-04 1.69825E-05 5.01013E-04-1.45640E-13-9.64779E-14
 -1      2454 2.00013E+01 3.98388E-04-1.75937E-05 8.71341E-04-8.62760E-14 8.17702E-14
 -1      2455 2.00003E+01 1.12999E-04 4.64954E-06 1.90082E-04 1.48441E-13-2.51094E-13
 -1      2456 2.00004E+01 1.45060E-04 1.01451E-05 2.60585E-04-1.07898E-14-3.90742E-13
 -1      2457 2.00007E+01 2.39107E-04-1.23848E-05 4.96821E-04 1.69804E-14-1.17022E-13
 -1      2458 2.00000E+01 7.30978E-05 3.34383E-06 6.28218E-05 3.57940E-14-1.17594E-13
 -1      2459 2.00001E+01 9.21889E-05 6.14877E-06 1.08091E-04 4.60514E-14-1.41010E-13
 -1      2460 2.00004E+01 1.49562E-04-8.64602E-06 2.57525E-04 3.05049E-14-2.95301E-13
 -1      2461 1.99999E+01 4.72010E-05 2.30701E-06-2.02109E-05 1.14668E-13-4.56028E-14
 -1      2462 2.00000E+01 6.00103E-05 3.76815E-06 9.03413E-06 1.09524E-13 6.54088E-15
 -1      2463 2.00001E+01 9.63301E-05-5.96768E-06 1.01333E-04 2.01363E-14 2.45403E-13
 -1      2464 1.99998E+01 2.64544E-05 1.26060E-06-7.25721E-05-3.06996E-13 2.95357E-13
 -1      2465 1.99999E+01 3.73916E-05 2.32317E-06-5.49566E-05-1.41872E-13 1.85237E-13
 -1      2466 2.00000E+01 6.07369E-05-4.03536E-06-7.17670E-07-7.28118E-14 2.54782E-13
 -1      2467 1.99998E+01 3.74769E-06-2.23874E-07-9.96155E-05-4.32025E-13 3.01389E-13
 -1      2468 1.99998E+01 1.72791E-05 1.58954E-06-9.23542E-05-3.43358E-13 2.68091E-13
 -1      2469 1.99999E+01 3.01202E-05-2.87295E-06-6.46049E-05-2.97367E-13 3.56066E-13
 -1      2470 1.99998E+01-4.22654E-05-6.43518E-07-9.34337E-05-7.58318E-14 2.99035E-14
 -1      2471 1.99998E+01-3.19567E-05-8.28216E-07-1.01310E-04-1.33379E-14 3.73111E-15
 -1      2472 1.99998E+01-4.71225E-05 1.80750E-06-9.42168E-05-1.37063E-13-8.93300E-14
 -1      2473 1.99999E+01 3.71216E-05-2.86518E-07 5.29207E-05-1.17179E-13-2.31107E-13
 -1      2474 1.99999E+01 2.16490E-05 1.71099E-06 2.50022E-05-8.27769E-14-3.61089E-13
 -1      2475 1.99998E+01 9.98041E-05-1.04746E-06 1.02704E-04-5.62416E-13-4.13601E-13
 -1      2476 1.99999E+01 7.65702E-05 1.91032E-06 8.22487E-05-2.43120E-13-3.27052E-13
 -1      2477 1.99999E+01 1.25264E-04-1.60786E-07 9.41697E-05-6.14459E-14-4.87658E-13
 -1      2478 1.99999E+01-7.97716E-06 5.44245E-07-1.06664E-05 4.56096E-14-2.38738E-13
 -1      2479 1.99999E+01-1.58128E-05 6.71455E-07-3.90875E-05-1.20089E-13-4.98343E-13
 -1      2480 1.99999E+01 5.66827E-05-8.74479E-07 2.50127E-05 5.81574E-14-4.70592E-13
 -1      2481 1.99998E+01 1.68826E-04-1.60213E-06 1.25707E-04-5.72036E-13 3.66365E-13
 -1      2482 1.99998E+01 1.42590E-04 1.58297E-06 1.18049E-04-6.89870E-13-8.09156E-14
 -1      2483 1.99999E+01 2.05191E-04 4.78661E-07 1.40657E-04-3.38359E-13-2.10647E-13
 -1      2484 1.99998E+01 2.31592E-04-1.81946E-06 1.17880E-04-3.89481E-13 4.57957E-13
 -1      2485 1.99998E+01 2.07618E-04 8.66596E-07 1.23977E-04-4.75134E-13 5.12971E-13
 -1      2486 1.99998E+01 2.83998E-04 1.18785E-06 1.53412E-04-3.12388E-13 4.81604E-13
 -1      2487 1.99998E+01 2.76377E-04-1.62967E-06 8.31973E-05-3.61180E-13 3.03308E-13
 -1      2488 1.99998E+01 2.59483E-04-4.54009E-08 1.00418E-04-4.62228E-13 5.32124E-13
 -1      2489 1.99998E+01 3.48226E-04 1.83743E-06 1.30653E-04-2.16256E-13 4.59375E-13
 -1      2490 1.99997E+01 2.94573E-04-1.08115E-06 3.22930E-05-3.73193E-13-1.31769E-14
 -1      2491 1.99997E+01 2.88072E-04-9.50420E-07 5.51943E-05-3.53704E-13 1.98986E-13
 -1      2492 1.99997E+01 3.86239E-04 2.23216E-06 7.94759E-05-4.47611E-14 1.33914E-13
 -1      2493 1.99998E+01 2.83273E-04-2.80910E-07-1.94417E-05-5.44575E-14 2.32799E-13
 -1      2494 1.99997E+01 2.87759E-04-1.70275E-06 1.99177E-06-4.17491E-13 1.99168E-13
 -1      2495 1.99997E+01 3.90790E-04 2.30868E-06 1.44585E-05-7.42255E-14 1.09532E-13
 -1      2496 1.99998E+01 2.44075E-04 6.04151E-07-5.90048E-05 1.40032E-13 2.97298E-13
 -1      2497 1.99998E+01 2.58464E-04-2.12760E-06-4.47514E-05 2.30885E-14 2.86310E-13
 -1      2498 1.99997E+01 3.60401E-04 1.92868E-06-4.76595E-05-1.18174E-13 4.06261E-13
 -1      2499 1.99998E+01 1.86398E-04 1.33616E-06-7.49005E-05 1.86564E-14 2.85647E-13
 -1      2500 1.99998E+01 2.05273E-04-2.36629E-06-7.11180E-05 4.44202E-14 1.57886E-13
 -1      2501 1.99998E+01 2.99241E-04 1.63593E-06-9.05040E-05 2.29020E-13 2.85358E-13
 -1      2502 1.99998E+01 1.26049E-04-7.22086E-07-6.79967E-05 4.89334E-15 1.96722E-13
 -1      2503 1.26622E+01-4.25501E+00 3.38486E-02 8.83669E+00-9.43690E-14 1.79412E-13
 -1      2504 9.03928E+00-3.77778E+00 1.23935E-01 7.84566E+00-8.75411E-14 1.82132E-13
 -1      2505 2.99233E+01-2.38132E+00-5.41947E-02-4.31313E+00 8.07132E-14 1.53655E-13
 -1      2506 3.23877E+01-8.14546E-01-1.18384E-01-3.09669E+00 4.58696E-14 2.23932E-13
 -1      2507 2.05563E+01 1.94435E+00-1.38663E-02-1.90420E+00-5.37764E-16-3.67373E-13
 -1      2508 2.04176E+01 1.19980E+00-7.65241E-03-1.29867E+00-1.45509E-14-3.37648E-13
 -1      2509 2.03923E+01 1.35707E+00 8.03585E-03-1.25234E+00 1.48215E-14-2.78970E-13
 -1      2510 2.02966E+01 2.37059E+00-5.11510E-03-1.84900E+00 3.75871E-14-3.41409E-13
 -1      2511 5.39847E+00-2.69336E+00 1.04020E-01 6.40882E+00-1.08663E-13 1.87628E-13
 -1      2512 3.16860E+00-2.70992E+00 1.09072E-01 4.24096E+00-1.60510E-13 2.56184E-13
 -1      2513 3.58479E+01 9.02165E+00-1.75901E-01 2.01243E-01-1.44718E-13 1.01530E-13
 -1      2514 3.67329E+01 9.31980E+00-1.17095E-01-6.17930E-02-3.40561E-13 8.45712E-14
 -1      2515 1.92413E+01 1.72134E+00 4.93063E-02 5.09254E+00-6.34388E-14 1.29730E-13
 -1      2516 1.97021E+01 1.06832E+00 1.14385E-01 5.61685E+00-1.26815E-13 4.23064E-14
 -1      2517 1.66616E+01 2.35851E+00 1.02768E-01 4.41009E+00-8.20212E-14 1.21785E-13
 -1      2518 1.99515E+01-4.89144E-02 1.99898E-01 6.24219E+00-3.39048E-13 1.39527E-13
 -1      2519 2.09055E+01-2.32374E+00 1.10174E-01 6.14877E+00-2.67453E-13 1.36835E-14
 -1      2520 2.02214E+01 6.33417E-01 2.03733E-04 5.55186E-01 1.06270E-13 3.59473E-13
 -1      2521 2.04146E+01 8.19827E-01 8.16981E-03 8.70124E-01 1.20938E-13 3.96812E-13
 -1      2522 2.03902E+01 1.20700E+00 5.49026E-03 1.03263E+00 1.40947E-13 3.38374E-13
 -1      2523 1.95043E+01 3.58184E+00-1.03155E-02-2.14396E-01 2.62164E-13-8.86695E-14
 -1      2524 1.95276E+01 3.55592E+00-9.11576E-03-3.96742E-01 2.52271E-13-1.18525E-13
 -1      2525 1.97088E+01 3.14505E+00-1.09260E-03-4.40594E-01 2.41829E-13-1.23248E-13
 -1      2526 1.96584E+01 3.22472E+00-1.21689E-03-1.12790E-01 2.49624E-13-7.33059E-14
 -1      2527 2.00517E+01 4.20310E-01 3.62108E-03 1.67809E-01 7.19628E-14 3.09479E-13
 -1      2528 2.01660E+01 5.15899E-01 1.09356E-02 3.68992E-01 9.25948E-14 3.28979E-13
 -1      2529 2.02411E+01 7.50754E-01 7.81945E-04 5.10619E-01 1.14759E-13 2.85186E-13
 -1      2530 2.01024E+01 5.32610E-01-2.79936E-03 1.53126E-01 7.73014E-14 2.49152E-13
 -1      2531 5.45368E+00-1.19055E+00 1.95468E-01-2.91922E+00-2.08306E-14-4.07452E-14
 -1      2532 8.05013E+00-3.59077E+00 1.01159E-01-7.77237E+00 1.15519E-13 5.10647E-13
 -1      2533 1.12295E+01-4.20314E+00 5.08860E-02-8.76973E+00 1.44884E-13 7.29805E-13
 -1      2534 1.92110E+00-2.36192E+00 1.26342E-01 2.27659E+00-1.13132E-13 1.85352E-13
 -1      2535 1.96110E+00-2.19751E+00 1.00596E-01-1.50712E-01-9.16628E-14 1.03750E-13
 -1      2536 2.12791E+01-4.81050E+00-1.09762E-02 8.25518E+00-8.13238E-14 1.00697E-13
 -1      2537 1.72181E+01-4.98041E+00 7.33038E-02 8.50982E+00-8.73746E-14 1.54841E-13
 -1      2538 2.84122E+01-3.60227E+00-1.27452E-01 5.46935E+00-9.44800E-14 1.72362E-14
 -1      2539 2.48904E+01-4.46885E+00 2.15640E-02 6.74937E+00-1.02779E-13 6.89726E-14
 -1      2540 2.41186E+01-4.92955E+00 8.79035E-02 6.91244E+00-8.90676E-14 5.01404E-14
 -1      2541 3.38467E+01 6.31308E-01-1.44697E-01 1.65616E+00-2.10727E-13 1.65423E-14
 -1      2542 3.14981E+01-1.52657E+00-3.06001E-03 2.97073E+00-9.49379E-14-2.96985E-14
 -1      2543 3.63634E+01 5.64909E+00-1.07435E-01-1.15271E-01-4.60937E-13 2.51882E-13
 -1      2544 3.48781E+01 3.68613E+00-9.67355E-02 1.76362E-01-3.79974E-13 2.13385E-13
 -1      2545 3.67531E+01 8.60500E+00-1.57584E-01-4.40539E-01-4.10061E-13 1.63952E-13
 -1      2546 3.65663E+01 7.40029E+00-1.28201E-01-3.72219E-01-4.08451E-13 1.92957E-13
 -1      2547 3.40205E+01 6.29538E+00-4.16668E-02-1.25765E+00-4.24688E-13 2.43083E-13
 -1      2548 3.49341E+01 6.02366E+00-1.32840E-01 7.39703E-01 4.55469E-14 5.74540E-15
 -1      2549 3.49635E+01 7.32644E+00-2.19650E-01 7.58597E-01 1.31561E-14 8.07687E-15
 -1      2550 3.39101E+01 1.48730E+00-8.51483E-02-1.44569E+00 4.18277E-14 1.61815E-13
 -1      2551 3.51985E+01 3.73906E+00-1.82992E-01-2.11922E-01 5.96467E-14 9.28702E-14
 -1      2552 3.23705E+01-3.27143E-01 1.32116E-02-9.84257E-01 1.80682E-13 5.30964E-14
 -1      2553 2.35629E+01-4.55490E+00 3.53860E-02-7.19373E+00 1.68060E-13 2.56947E-13
 -1      2554 2.74071E+01-3.59007E+00-4.20034E-02-6.22735E+00 8.07965E-14 1.81299E-13
 -1      2555 2.89644E+01-3.63330E+00 4.41282E-02-4.18309E+00 1.89848E-13 5.82312E-14
 -1      2556 1.48136E+01-4.78508E+00 4.44852E-02-8.70694E+00 2.37699E-13 7.14914E-13
 -1      2557 1.88836E+01-4.70354E+00-2.61522E-02-8.78340E+00 1.89737E-13 5.84865E-13
 -1      2558 1.46822E+01-3.99700E+00 1.13142E-01-8.72872E+00 1.32616E-13 7.13582E-13
 -1      2559 1.99258E+01 2.78034E+00 1.54385E-03-1.09170E+00 1.67638E-13-2.32808E-13
 -1      2560 1.97897E+01 3.13516E+00-1.51178E-02-1.28113E+00 1.67673E-13-2.70289E-13
 -1      2561 1.98852E+01 3.01521E+00-1.72181E-02-1.48197E+00 1.39132E-13-2.95021E-13
 -1      2562 6.31287E+00-5.68549E-02 2.06513E-01 2.54999E+00 1.41276E-14-1.77525E-13
 -1      2563 7.44201E+00 1.56765E+00 1.64232E-01 1.81762E+00-1.16643E-13-1.03695E-13
 -1      2564 9.45420E+00 6.60758E-01 2.25396E-01 4.28072E+00-1.38348E-13-2.17548E-13
 -1      2565 3.39617E+01 8.79331E+00-7.32030E-02-5.21296E-01-3.39062E-13 2.23432E-14
 -1      2566 3.29316E+01 7.93131E+00-1.18767E-01 1.06502E+00-3.74700E-15-8.53206E-14
 -1      2567 4.27093E+00-7.41385E-01 1.37686E-01 3.14960E+00-4.81837E-14 1.55043E-13
 -1      2568 2.01215E+01 2.60269E+00-1.17618E-02-1.68332E+00 8.30800E-14-3.18580E-13
 -1      2569 5.47438E+00 4.04829E-01 1.91496E-01-2.58347E+00-7.34690E-14 4.10560E-13
 -1      2570 1.27913E+01-2.85042E+00 1.59911E-01 5.84778E+00-3.01037E-13 2.01672E-13
 -1      2571 1.24379E+01-1.00078E+00 1.43287E-01 5.95075E+00-3.01675E-13-5.74540E-15
 -1      2572 1.99998E+01-1.26996E-05 1.39315E-06-1.05599E-04-2.16941E-13 1.72127E-13
 -1      2573 1.99998E+01-3.25296E-06-3.91994E-07-9.64955E-05-1.95553E-13-7.74567E-14
 -1      2574 1.99999E+01-3.51545E-05 2.17731E-06-6.57834E-05-3.44810E-13-8.13969E-13
 -1      2575 1.99998E+01-4.22392E-05-2.53630E-07-8.12675E-05-1.85881E-13-4.21960E-13
 -1      2576 1.99998E+01-2.99487E-05-1.96458E-06-8.96339E-05-9.21645E-14-3.50086E-13
 -1      2577 1.99999E+01 3.12031E-06-1.85636E-06-4.52539E-05 2.04916E-14-5.67880E-13
 -1      2578 1.99998E+01 2.01371E-04 1.39437E-06-1.01915E-04 4.15365E-14 2.44920E-13
 -1      2579 2.24827E+01-4.76809E+00 6.75309E-02-7.53613E+00 2.50022E-13 2.87423E-13
 -1      2580 1.65233E+01-4.28970E+00 1.29217E-01 8.46356E+00-3.99680E-14 1.80897E-13
 -1      2581 1.54369E+01 6.97242E-01 1.30070E-01 5.83359E+00-1.73486E-13-1.67921E-14
 -1      2582 3.00700E+01-2.99706E+00 3.68250E-02 3.35334E+00-1.57985E-13-9.29534E-14
 -1      2583 8.71519E+00-2.16512E+00 1.57506E-01 7.07277E+00-3.52218E-14 2.23238E-13
 -1      2584 1.79947E+01-3.62838E+00 1.65413E-02 6.19081E+00-2.13718E-13 3.57214E-14
 -1      2585 8.38032E+00-1.85748E+00 1.50269E-01-6.94021E+00 3.57492E-14 5.04458E-13
 -1      2586 6.14824E+00 2.11956E-01 1.01481E-01-2.22025E+00 7.69523E-14-2.81442E-14
 -1      2587 3.32051E+01 1.60820E+00-6.71694E-02-1.60527E-01-3.38216E-13 1.01447E-13
 -1      2588 3.29855E+01 4.17655E+00-5.48525E-02 1.09275E+00 9.32587E-14-1.13909E-13
 -1      2589 1.97829E+01 2.82639E+00-7.02172E-03 5.47387E-01 2.49721E-13 5.81570E-14
 -1      2590 1.97653E+01 2.86747E+00-5.10628E-03 4.05385E-01 2.44761E-13 2.26713E-14
 -1      2591 1.97578E+01 2.88563E+00-6.32452E-03 2.77969E-01 2.40936E-13-1.06503E-14
 -1      2592 1.97610E+01 2.89206E+00-4.60703E-03 1.27116E-01 2.44120E-13-2.21134E-14
 -1      2593 1.98940E+01 2.55007E+00 3.85698E-03 3.22370E-01 2.27733E-13 4.54270E-15
 -1      2594 1.99928E+01 2.41143E+00-1.12896E-02 1.01960E+00 2.35088E-13 1.79104E-13
 -1      2595 1.99178E+01 2.55945E+00-7.42548E-03 8.98606E-01 2.39820E-13 1.51027E-13
 -1      2596 2.01919E+01 1.99816E+00-1.09896E-02 1.18396E+00 2.16559E-13 2.79530E-13
 -1      2597 2.00904E+01 2.23011E+00-5.21729E-03 1.09630E+00 2.24259E-13 2.26668E-13
 -1      2598 2.01424E+01 1.99179E+00 8.36972E-03 8.97333E-01 2.11965E-13 2.02555E-13
 -1      2599 2.03658E+01 1.40941E+00-8.35509E-03 1.10251E+00 1.58172E-13 3.17611E-13
 -1      2600 2.02736E+01 1.78937E+00 2.02710E-03 1.16203E+00 1.90977E-13 2.94923E-13
 -1      2601 2.02563E+01 1.57320E+00 3.22663E-03 9.12872E-01 1.89217E-13 2.54698E-13
 -1      2602 2.03083E+01 1.12148E+00 8.59553E-04 7.94820E-01 1.40395E-13 2.88487E-13
 -1      2603 1.98592E+01 2.67725E+00-8.20639E-03 7.98746E-01 2.56688E-13 1.34795E-13
 -1      2604 1.98143E+01 2.76382E+00-5.98787E-03 6.62202E-01 2.52604E-13 9.40832E-14
 -1      2605 1.99257E+01 2.47065E+00 5.14681E-03 5.50296E-01 2.29845E-13 7.44170E-14
 -1      2606 2.00094E+01 2.29374E+00 7.49540E-03 7.46558E-01 2.21325E-13 1.37990E-13
 -1      2607 1.50667E+01 2.76723E+00-2.56706E-03 3.12499E+00-1.67760E-13 9.00044E-14
 -1      2608 1.41595E+01 2.60663E+00 1.00759E-01 3.59988E+00-1.75819E-13 5.75928E-15
 -1      2609 2.03368E+01 1.01870E+00 6.58238E-03-8.83666E-01 2.63326E-14-2.19387E-13
 -1      2610 2.02407E+01 7.61806E-01-6.23458E-03-6.51939E-01 1.93135E-14-1.87514E-13
 -1      2611 2.02392E+01 5.60260E-01 9.53313E-03-4.88844E-01-5.48146E-16-1.56269E-13
 -1      2612 2.01517E+01 3.89822E-01-4.44687E-03-3.49504E-01 8.25685E-15-1.36644E-13
 -1      2613 2.02919E+01 8.19665E-01 1.03785E-03-6.15019E-01 2.59107E-14-1.51207E-13
 -1      2614 2.01398E+01 2.57551E-01 7.86861E-03-2.51761E-01-1.03791E-14-1.10654E-13
 -1      2615 2.00756E+01 1.38424E-01-3.41293E-03-1.83120E-01-9.22561E-15-1.33846E-13
 -1      2616 2.02439E+01 4.12112E-01-2.07109E-03-3.39667E-01-3.82948E-15-1.12927E-13
 -1      2617 2.00697E+01 4.26835E-02 6.13286E-03-1.41373E-01-1.18917E-14-1.10965E-13
 -1      2618 2.00259E+01-4.76515E-02-3.11389E-03-1.26851E-01-3.89317E-15-1.03636E-13
 -1      2619 2.02041E+01 1.24797E-01-2.77998E-03-1.88415E-01-7.77518E-15-8.36465E-14
 -1      2620 2.00319E+01-1.22518E-01 4.89224E-03-1.32330E-01 1.36384E-14-1.01222E-13
 -1      2621 2.00007E+01-1.95257E-01-3.27665E-03-1.60820E-01-8.61575E-16-1.15351E-13
 -1      2622 2.01881E+01-9.31919E-02-2.73127E-03-1.43117E-01 9.06698E-15-6.00940E-14
 -1      2623 2.00185E+01-2.55724E-01 3.97220E-03-2.06930E-01-2.34606E-14-1.04994E-13
 -1      2624 1.99914E+01-3.13944E-01-3.63487E-03-2.70385E-01-1.01365E-14-1.05998E-13
 -1      2625 2.01991E+01-2.67622E-01-2.30641E-03-1.88430E-01-4.77916E-15-4.94505E-14
 -1      2626 2.00166E+01-3.59490E-01 3.06850E-03-3.51475E-01-1.53290E-15-8.84578E-14
 -1      2627 1.99852E+01-3.99421E-01-3.86076E-03-4.41945E-01 7.56264E-15-5.31458E-14
 -1      2628 2.02319E+01-4.05743E-01-1.56593E-03-3.12194E-01 1.14126E-14-4.70470E-14
 -1      2629 2.00087E+01-4.23516E-01 1.84983E-03-5.50586E-01-1.80023E-14-3.42547E-14
 -1      2630 1.99650E+01-4.35514E-01-3.54195E-03-6.57135E-01-7.69801E-14-2.16834E-14
 -1      2631 2.02737E+01-4.98783E-01-4.35464E-04-5.01763E-01-9.41589E-16 2.31225E-14
 -1      2632 1.99738E+01-4.27059E-01 6.21321E-05-7.80571E-01-7.49285E-14 6.88734E-15
 -1      2633 1.99113E+01-3.98011E-01-2.23167E-03-8.86543E-01-3.96770E-14 3.08646E-14
 -1      2634 2.03042E+01-5.24283E-01 1.10304E-03-7.37657E-01-3.37732E-14 8.42568E-14
 -1      2635 1.98898E+01-3.44834E-01-2.29442E-03-1.00334E+00-6.54840E-14 3.43832E-14
 -1      2636 1.98055E+01-2.63494E-01 3.27965E-04-1.08513E+00-8.85404E-14 7.47128E-14
 -1      2637 2.02968E+01-4.51975E-01 2.80870E-03-9.86120E-01-6.25460E-14 6.43106E-14
 -1      2638 1.97417E+01-1.58888E-01-4.80715E-03-1.16423E+00-1.41837E-13 3.95244E-14
 -1      2639 1.96393E+01-2.41545E-02 3.88675E-03-1.19351E+00-8.03585E-14-8.62862E-15
 -1      2640 2.02250E+01-2.56531E-01 3.99567E-03-1.19372E+00-1.43089E-13 3.69407E-14
 -1      2641 1.95328E+01 1.24880E-01-6.46129E-03-1.19889E+00-4.71481E-14-5.75854E-14
 -1      2642 1.94243E+01 2.95511E-01 7.43253E-03-1.14968E+00-8.41931E-14-6.75969E-14
 -1      2643 2.00754E+01 6.29710E-02 3.70652E-03-1.29000E+00-1.15611E-13 3.10166E-14
 -1      2644 1.92946E+01 4.62170E-01-6.11607E-03-1.05246E+00-1.08904E-13-4.43991E-14
 -1      2645 1.91996E+01 6.30303E-01 9.34273E-03-9.12660E-01-1.50894E-13-2.69455E-14
 -1      2646 1.98634E+01 4.64011E-01 1.34028E-03-1.20404E+00-9.85501E-14-7.51348E-14
 -1      2647 1.90849E+01 7.71241E-01-3.12404E-03-7.08030E-01-1.59526E-13 1.21791E-14
 -1      2648 1.90252E+01 8.87644E-01 8.27314E-03-4.89960E-01-1.55451E-13-1.64128E-14
 -1      2649 1.96411E+01 8.56470E-01-2.51925E-03-8.96078E-01-1.42050E-13 1.52139E-14
 -1      2650 1.89676E+01 9.58166E-01 1.56526E-03-2.08226E-01-1.44399E-13 1.09960E-14
 -1      2651 1.89596E+01 9.83919E-01 4.25045E-03 4.93909E-02-1.22520E-13 1.37394E-14
 -1      2652 1.94833E+01 1.12707E+00-5.96677E-03-3.90058E-01-1.50095E-13 9.68855E-14
 -1      2653 1.89829E+01 9.59946E-01 6.30902E-03 3.48029E-01-8.22354E-14 1.87359E-14
 -1      2654 1.90297E+01 8.86517E-01-7.89819E-04 5.91992E-01-5.28156E-14 2.16145E-14
 -1      2655 1.94523E+01 1.18617E+00-7.04078E-03 2.17733E-01-1.25597E-13 1.38379E-13
 -1      2656 1.91246E+01 7.77434E-01 8.90264E-03 8.40532E-01-2.24866E-14 4.74710E-15
 -1      2657 1.92154E+01 6.31935E-01-4.61049E-03 1.02326E+00 2.50674E-14 3.41999E-14
 -1      2658 1.95622E+01 1.01626E+00-4.26819E-03 7.89288E-01-4.56585E-14 9.69358E-14
 -1      2659 1.93447E+01 4.75756E-01 8.30180E-03 1.17595E+00 6.17117E-15 1.36506E-14
 -1      2660 1.94594E+01 3.05585E-01-6.06046E-03 1.27259E+00 2.57213E-14-7.48256E-14
 -1      2661 1.97683E+01 6.77370E-01-5.13025E-05 1.20287E+00-1.71437E-14 3.08268E-14
 -1      2662 1.95805E+01 1.48381E-01 5.27742E-03 1.31897E+00 6.15043E-14-9.43360E-14
 -1      2663 1.96977E+01-1.81455E-03-5.26335E-03 1.33123E+00 6.98704E-14-1.39434E-13
 -1      2664 1.99957E+01 2.78223E-01 3.14803E-03 1.40083E+00 2.23605E-14-7.16183E-15
 -1      2665 1.97819E+01-1.25443E-01 1.53317E-03 1.29073E+00 4.77631E-14-1.03858E-13
 -1      2666 1.98857E+01-2.29304E-01-3.15418E-03 1.23900E+00 2.31363E-15-1.44505E-13
 -1      2667 2.01792E+01-7.70941E-02 4.30313E-03 1.39674E+00 4.51382E-14-8.69665E-14
 -1      2668 1.99248E+01-3.04649E-01-1.54039E-03 1.14504E+00-5.47831E-15-9.07230E-14
 -1      2669 2.00072E+01-3.56708E-01-8.55149E-04 1.05637E+00 4.20380E-14-3.07837E-14
 -1      2670 2.02866E+01-3.25886E-01 3.70792E-03 1.24974E+00 4.60356E-14-1.21564E-13
 -1      2671 2.00086E+01-3.86285E-01-3.35736E-03 9.41421E-01-3.84612E-14-5.94898E-14
 -1      2672 2.00688E+01-3.95538E-01 9.15861E-04 8.40130E-01-5.59192E-14-9.63303E-14
 -1      2673 2.03191E+01-4.53704E-01 2.30283E-03 1.03018E+00-4.16840E-14 8.38947E-14
 -1      2674 2.00464E+01-3.91325E-01-4.00288E-03 7.27607E-01-5.19846E-14-1.33513E-13
 -1      2675 2.00876E+01-3.72581E-01 1.91110E-03 6.30717E-01-3.40103E-15-1.50595E-13
 -1      2676 2.02973E+01-4.80475E-01 8.85784E-04 7.95646E-01-8.40719E-14 5.56963E-14
 -1      2677 2.00549E+01-3.48651E-01-3.85139E-03 5.33575E-01-1.61960E-14-1.68648E-13
 -1      2678 2.00819E+01-3.16082E-01 2.23367E-03 4.50428E-01-3.02755E-14-1.40770E-13
 -1      2679 2.02465E+01-4.40359E-01-1.28976E-04 5.82245E-01-4.68472E-14 3.65829E-14
 -1      2680 2.00484E+01-2.84181E-01-3.28863E-03 3.73363E-01-4.14985E-14-1.67396E-13
 -1      2681 2.00657E+01-2.48261E-01 2.11275E-03 3.07309E-01-5.93423E-14-1.68017E-13
 -1      2682 2.01872E+01-3.66543E-01-6.64354E-04 4.06574E-01-2.16040E-15 2.31748E-18
 -1      2683 2.00366E+01-2.16261E-01-2.59554E-03 2.49908E-01-3.78279E-14-2.09518E-13
 -1      2684 2.00475E+01-1.83265E-01 1.76853E-03 2.00506E-01 2.90072E-14-1.73922E-13
 -1      2685 2.01324E+01-2.83799E-01-8.29641E-04 2.71876E-01-5.97735E-14 1.08191E-14
 -1      2686 2.00249E+01-1.55410E-01-1.93372E-03 1.59881E-01 2.82158E-14-2.67961E-13
 -1      2687 2.00318E+01-1.28214E-01 1.36045E-03 1.24764E-01 6.29447E-14-2.66973E-13
 -1      2688 2.00878E+01-2.07122E-01-7.72968E-04 1.74118E-01-9.44459E-14-1.74539E-14
 -1      2689 2.00156E+01-1.06092E-01-1.37604E-03 9.72682E-02 2.12865E-13-2.51401E-13
 -1      2690 2.00199E+01-8.53263E-02 9.80130E-04 7.34297E-02 1.95805E-13-1.41018E-13
 -1      2691 2.00548E+01-1.43525E-01-6.18326E-04 1.06358E-01 1.75415E-13-1.78622E-13
 -1      2692 2.00090E+01-6.89179E-02-9.41087E-04 5.55980E-02 8.77377E-14-1.05676E-13
 -1      2693 2.00117E+01-5.39892E-02 6.67802E-04 4.01296E-02 1.08208E-13-1.63008E-13
 -1      2694 2.00321E+01-9.47062E-02-4.45727E-04 6.13122E-02 1.91400E-13-1.28132E-13
 -1      2695 2.00048E+01-4.24831E-02-6.19917E-04 2.90723E-02 1.13965E-13-8.02708E-14
 -1      2696 2.00065E+01-3.22948E-02 4.32029E-04 1.95073E-02 6.58591E-14-4.14525E-14
 -1      2697 2.00175E+01-5.94322E-02-2.95212E-04 3.25861E-02 1.91987E-13-1.21083E-13
 -1      2698 2.00024E+01-2.46226E-02-3.92837E-04 1.30005E-02-1.84188E-14-1.51110E-14
 -1      2699 2.00034E+01-1.80012E-02 2.65170E-04 7.41399E-03-2.08230E-14 2.60377E-14
 -1      2700 2.00086E+01-3.52323E-02-1.80566E-04 1.50848E-02-2.26494E-14-1.62542E-14
 -1      2701 2.00011E+01-1.31317E-02-2.38231E-04 3.84163E-03 4.43681E-14 1.25225E-13
 -1      2702 2.00017E+01-9.03985E-03 1.53376E-04 8.20304E-04 9.52365E-14 1.18505E-13
 -1      2703 2.00036E+01-1.94130E-02-1.01300E-04 5.00350E-03 2.35999E-14 1.07684E-13
 -1      2704 2.00006E+01-6.10993E-03-1.36675E-04-9.39225E-04 8.71130E-14 1.48053E-13
 -1      2705 2.00008E+01-3.72351E-03 8.22018E-05-2.38250E-03 1.61486E-13 1.43903E-13
 -1      2706 2.00010E+01-9.56967E-03-5.08331E-05-3.63477E-04 9.06422E-14 1.50462E-13
 -1      2707 2.00003E+01-2.07181E-03-7.23976E-05-3.07693E-03 1.75526E-13 7.69184E-14
 -1      2708 2.00004E+01-7.81856E-04 3.92078E-05-3.60191E-03 1.54847E-13 2.66148E-14
 -1      2709 1.99998E+01-3.77783E-03-2.12294E-05-2.86277E-03 1.20717E-13-4.86307E-14
 -1      2710 2.00002E+01 6.68964E-05-3.34007E-05-3.71083E-03 8.26757E-14 3.16684E-14
 -1      2711 2.00002E+01 6.85611E-04 1.47629E-05-3.74001E-03-1.13395E-13 2.31070E-14
 -1      2712 1.99994E+01-6.06953E-04-5.45709E-06-3.70858E-03 6.64345E-14-1.41975E-13
 -1      2713 2.00002E+01 1.05553E-03-1.09716E-05-3.55870E-03-1.54459E-13-1.19911E-14
 -1      2714 2.00001E+01 1.28593E-03 1.93501E-06-3.35058E-03-2.33833E-14 2.29377E-14
 -1      2715 1.99993E+01 9.47678E-04 1.85177E-06-3.66984E-03-1.32279E-13-3.23633E-13
 -1      2716 2.00002E+01 1.38795E-03 9.78832E-07-3.05236E-03 1.36651E-14-5.40866E-14
 -1      2717 2.00001E+01 1.40988E-03-3.98932E-06-2.75684E-03 2.04952E-14-2.81892E-14
 -1      2718 1.99994E+01 1.55852E-03 4.40631E-06-3.21380E-03-7.49878E-14-1.21115E-13
 -1      2719 2.00001E+01 1.37509E-03 6.56492E-06-2.43721E-03 1.92801E-13 1.32869E-13
 -1      2720 2.00000E+01 1.29756E-03-6.05842E-06-2.13515E-03 1.88506E-13 2.35701E-13
 -1      2721 1.99995E+01 1.65583E-03 4.56995E-06-2.61033E-03 1.79203E-13-1.17038E-13
 -1      2722 2.00001E+01 1.20336E-03 8.48055E-06-1.84186E-03-1.15795E-13 3.34095E-13
 -1      2723 2.00000E+01 1.08881E-03-6.15178E-06-1.57217E-03-1.78529E-13 1.64022E-13
 -1      2724 1.99996E+01 1.50236E-03 3.73607E-06-2.00470E-03 4.12888E-14 1.12838E-13
 -1      2725 2.00000E+01 9.78045E-04 8.43457E-06-1.32501E-03 4.31374E-14 1.99289E-13
 -1      2726 2.00000E+01 8.59564E-04-5.39086E-06-1.10243E-03 3.77533E-13 2.33487E-13
 -1      2727 1.99997E+01 1.25015E-03 2.65584E-06-1.46661E-03-1.18489E-14 2.77225E-13
 -1      2728 2.00000E+01 7.53761E-04 7.44938E-06-9.06021E-04 3.21111E-13 1.63664E-13
 -1      2729 1.99999E+01 6.47037E-04-4.36924E-06-7.32454E-04 2.21567E-13 2.50997E-13
 -1      2730 1.99998E+01 9.80835E-04 1.66075E-06-1.02227E-03 2.83864E-13 2.59532E-13
 -1      2731 1.99999E+01 5.55673E-04 6.12148E-06-5.83572E-04 8.50088E-14 3.50949E-13
 -1      2732 1.99999E+01 4.66285E-04-3.23280E-06-4.54628E-04 1.33286E-13 1.97987E-13
 -1      2733 1.99998E+01 7.34228E-04 9.16076E-07-6.74838E-04 1.39700E-13 9.37205E-14
 -1      2734 1.99999E+01 3.90507E-04 4.84926E-06-3.46217E-04 2.12163E-13 9.77846E-14
 -1      2735 1.99999E+01 3.20911E-04-9.00962E-07-2.57237E-04 1.04481E-13 7.02545E-14
 -1      2736 1.99998E+01 5.25028E-04 7.78542E-08-4.15609E-04 1.03857E-13 5.88656E-14
 -1      2737 1.99999E+01 2.92847E-04 3.71231E-06-2.00332E-04 1.38505E-13 8.10965E-14
 -1      2738 1.99998E+01 2.37159E-04 1.77511E-07-1.42933E-04 9.81755E-14 1.36205E-13
 -1      2739 1.99998E+01 2.96942E-04-3.07860E-06-1.45626E-04 1.77801E-13 1.48251E-13
 -1      2740 1.99998E+01 3.86297E-04-2.80102E-06-2.47576E-04 3.14837E-13-1.19237E-13
 -1      2741 3.14059E+01 8.57668E+00-2.15187E-01-2.72234E-01-2.79526E-13-6.94913E-14
 -1      2742 3.17287E+01 7.90774E+00-1.85916E-01-1.09590E+00-3.69899E-13 1.72362E-14
 -1      2743 1.99827E+01 5.41987E-01-5.85067E-05-1.57639E-01 6.42004E-14 1.62417E-13
 -1      2744 2.00501E+01 5.79530E-01 2.48343E-03-6.85334E-03 7.38990E-14 1.92221E-13
 -1      2745 1.91963E+01 1.03038E+00-2.42071E-03-9.17528E-01 6.20281E-14 1.37843E-13
 -1      2746 1.93495E+01 8.56048E-01-9.91354E-03-7.52700E-01 7.43299E-14 1.61011E-13
 -1      2747 1.85683E+01 1.47028E+00-7.70561E-03-1.19962E+00 6.41228E-14 8.70606E-14
 -1      2748 1.88325E+01 1.22742E+00-1.71795E-02-1.00937E+00 6.29970E-14 1.28499E-13
 -1      2749 1.88165E+01 1.29087E+00 2.40246E-02-7.03473E-01 8.54210E-14 1.44784E-13
 -1      2750 1.74459E+01 2.07301E+00-1.34914E-02-1.52197E+00 2.54501E-14 2.88636E-14
 -1      2751 1.79561E+01 1.75415E+00-2.50173E-02-1.28711E+00 4.83942E-14 5.40531E-14
 -1      2752 1.79261E+01 1.80942E+00 3.94268E-02-8.09427E-01 7.63379E-14 1.46129E-13
 -1      2753 1.55655E+01 2.68616E+00-1.23577E-02-1.83719E+00 5.58503E-14 2.28133E-14
 -1      2754 1.64527E+01 2.39152E+00-3.09818E-02-1.58254E+00 2.01479E-14-4.81646E-15
 -1      2755 1.64455E+01 2.45770E+00 7.02002E-02-8.17794E-01 5.49552E-14 4.12938E-14
 -1      2756 1.25545E+01 2.86788E+00 2.95554E-02-2.12729E+00 1.55419E-13 3.12250E-15
 -1      2757 1.39900E+01 2.89053E+00-1.87804E-02-1.85550E+00 1.18783E-13 3.05658E-14
 -1      2758 1.40674E+01 3.01782E+00 1.28612E-01-6.40448E-01 7.01292E-14-6.03198E-14
 -1      2759 8.68524E+00 1.80571E+00 1.46153E-01-2.22923E+00 1.42171E-13-6.00631E-14
 -1      2760 1.05066E+01 2.57469E+00 3.07943E-02-2.06473E+00 1.65871E-13-1.07692E-14
 -1      2761 1.07262E+01 2.99422E+00 2.38196E-01-1.49492E-01 1.68223E-13-8.96783E-14
 -1      2762 6.25338E+00 1.42289E+00 3.21086E-01 5.55626E-01 9.41296E-14-3.94129E-15
 -1      2763 1.91314E+01 1.22304E+00-2.01773E-02 1.10424E+00 2.11167E-13 9.17831E-14
 -1      2764 1.89650E+01 1.48581E+00 2.03784E-03 1.37274E+00 7.95666E-14 1.32740E-13
 -1      2765 1.99998E+01 3.98399E-04-2.75762E-06 1.88091E-04-1.48515E-13 6.24828E-13
 -1      2766 1.99998E+01 3.66546E-04 1.48501E-06 1.92949E-04-8.19394E-14 4.88353E-13
 -1      2767 1.83383E+01 1.78096E+00-2.78965E-02 1.56310E+00-2.55961E-14 2.31175E-13
 -1      2768 1.79742E+01 2.10924E+00 2.09397E-03 1.92860E+00-7.80053E-14 3.35596E-13
 -1      2769 1.80188E+01 1.90976E+00 3.27143E-02 1.06641E+00 8.42677E-14 1.49112E-13
 -1      2770 1.95846E+01 7.25079E-01 1.85155E-05-6.54706E-01 7.72754E-14 1.63311E-13
 -1      2771 1.96717E+01 6.27385E-01-4.59942E-03-5.14492E-01 7.43931E-14 1.57280E-13
 -1      2772 1.93622E+01 9.26289E-01 1.28378E-02-5.51779E-01 7.86910E-14 1.36868E-13
 -1      2773 3.05881E+01-1.59527E+00-1.68428E-02-8.64844E-01 1.86330E-13-9.10383E-14
 -1      2774 3.12958E+01 1.96565E-01-1.90088E-01 3.48040E-01 1.38757E-13-1.04639E-13
 -1      2775 8.75732E+00-2.88366E-01 1.56828E-01-6.00733E+00-1.43635E-14 4.29462E-13
 -1      2776 1.14256E+01-1.86858E+00 1.22660E-01-7.73237E+00 7.17204E-14 5.03431E-13
 -1      2777 1.69461E+01 2.41835E+00-2.77897E-02 2.15608E+00-2.36039E-13 2.22595E-13
 -1      2778 1.63128E+01 2.70125E+00 3.19614E-02 2.57771E+00-2.14952E-13 2.18771E-13
 -1      2779 1.64790E+01 2.58555E+00 4.80229E-02 1.34122E+00-1.91753E-13 1.69327E-13
 -1      2780 1.95768E+01 7.96833E-01-1.27950E-02 7.46222E-01 1.03968E-13 7.51386E-14
 -1      2781 1.94993E+01 9.97087E-01 3.32999E-03 9.48168E-01 2.01213E-13 1.03854E-13
 -1      2782 1.89183E+01 1.31994E+00 2.40244E-02 8.03140E-01 1.70514E-13 5.71283E-14
 -1      2783 1.98099E+01 5.04648E-01-7.89910E-03 4.91493E-01-1.12486E-13 1.30973E-13
 -1      2784 1.97856E+01 6.39794E-01 3.84616E-03 6.29866E-01 9.53708E-15 1.12507E-13
 -1      2785 1.94307E+01 8.67201E-01 1.51290E-02 5.73878E-01 2.92058E-14-1.17187E-14
 -1      2786 1.99262E+01 3.13522E-01-4.81421E-03 3.16724E-01-8.88470E-14-5.14092E-14
 -1      2787 1.99254E+01 4.01535E-01 3.54426E-03 4.08286E-01-5.24281E-14 7.32050E-14
 -1      2788 1.97110E+01 5.53596E-01 8.49307E-03 3.93383E-01-1.10624E-14-3.93599E-14
 -1      2789 1.99811E+01 1.91922E-01-2.88901E-03 2.00646E-01-2.11766E-13 3.36478E-14
 -1      2790 1.99885E+01 2.47770E-01 2.78400E-03 2.59688E-01-2.06833E-13-5.79233E-14
 -1      2791 1.98616E+01 3.46350E-01 4.61680E-03 2.61876E-01-1.26229E-13 1.45785E-14
 -1      2792 2.00046E+01 1.16047E-01-1.70624E-03 1.25418E-01-1.10285E-13-2.69006E-13
 -1      2793 2.00137E+01 1.50844E-01 2.01859E-03 1.62742E-01-2.52154E-13-8.63418E-14
 -1      2794 1.99399E+01 2.13342E-01 2.43610E-03 1.70599E-01-1.89505E-13-1.51318E-13
 -1      2795 2.00129E+01 6.93991E-02-9.90947E-04 7.75926E-02-5.38596E-14 6.57823E-14
 -1      2796 2.00210E+01 9.07700E-02 1.39464E-03 1.00816E-01 3.06006E-14-1.82356E-14
 -1      2797 1.99790E+01 1.29719E-01 1.24233E-03 1.09362E-01-1.19861E-13-3.99952E-13
 -1      2798 2.00142E+01 4.10767E-02-5.65286E-04 4.76517E-02 2.46308E-15 3.06700E-14
 -1      2799 2.00206E+01 5.40390E-02 9.32328E-04 6.19144E-02-2.69800E-14 5.98648E-14
 -1      2800 1.99972E+01 7.79725E-02 6.04794E-04 6.92982E-02-1.26670E-14-1.37431E-13
 -1      2801 2.00126E+01 2.40800E-02-3.15912E-04 2.91373E-02 2.42092E-13 1.27116E-15
 -1      2802 2.00174E+01 3.18502E-02 6.08467E-04 3.78029E-02 1.89071E-13 2.84705E-14
 -1      2803 2.00047E+01 4.63795E-02 2.73145E-04 4.35787E-02 1.31196E-13-1.15152E-13
 -1      2804 2.00102E+01 1.39963E-02-1.72332E-04 1.77960E-02 1.49557E-13-1.75798E-13
 -1      2805 2.00136E+01 1.86006E-02 3.90038E-04 2.30162E-02 2.40372E-13-7.70988E-15
 -1      2806 2.00070E+01 2.73273E-02 1.06218E-04 2.73001E-02 3.26168E-13-3.01421E-14
 -1      2807 2.00078E+01 8.09420E-03-8.50167E-05 1.08965E-02 1.05155E-13-1.88110E-13
 -1      2808 2.00102E+01 1.07798E-02 2.47178E-04 1.40186E-02 5.54218E-14-1.98989E-13
 -1      2809 2.00069E+01 1.59700E-02 2.49438E-05 1.70981E-02 1.25053E-13-1.78096E-13
 -1      2810 2.00058E+01 4.79357E-03-4.18899E-05 6.87004E-03 2.24818E-13-1.17369E-13
 -1      2811 2.00075E+01 6.31446E-03 1.57329E-04 8.67766E-03 1.82403E-13-5.85085E-14
 -1      2812 2.00059E+01 9.37352E-03-1.86104E-05 1.08467E-02 2.19266E-14-1.61573E-13
 -1      2813 2.00042E+01 2.75838E-03-2.16306E-05 4.24705E-03 4.09082E-13 3.01762E-14
 -1      2814 2.00053E+01 3.67596E-03 9.76234E-05 5.39251E-03 3.24518E-13 5.83299E-14
 -1      2815 2.00047E+01 5.53704E-03-2.02306E-05 6.93864E-03 9.90967E-14-2.64322E-13
 -1      2816 2.00029E+01 1.60446E-03-9.05151E-06 2.64241E-03 2.87853E-13 3.24075E-14
 -1      2817 2.00037E+01 2.12947E-03 6.14972E-05 3.33455E-03 4.30039E-13 1.54036E-14
 -1      2818 2.00035E+01 3.22275E-03-2.25020E-05 4.40564E-03 3.96254E-13 6.63428E-15
 -1      2819 2.00019E+01 9.50565E-04-2.64186E-06 1.64530E-03 8.13305E-14 1.12352E-13
 -1      2820 2.00025E+01 1.24881E-03 3.84599E-05 2.06870E-03 2.15478E-13 1.09094E-13
 -1      2821 2.00025E+01 1.89635E-03-2.04585E-05 2.80924E-03 1.97337E-13 5.43371E-14
 -1      2822 2.00012E+01 5.78715E-04 2.29003E-07 1.01387E-03-1.42140E-13 6.97139E-14
 -1      2823 2.00016E+01 7.49032E-04 2.42117E-05 1.27813E-03 1.87615E-14 2.51753E-13
 -1      2824 2.00018E+01 1.13750E-03-1.68770E-05 1.78889E-03 1.00601E-14 1.41051E-13
 -1      2825 2.00008E+01 3.64211E-04 1.30000E-06 6.05307E-04 2.11591E-13 3.57573E-14
 -1      2826 2.00010E+01 4.63208E-04 1.53990E-05 7.74159E-04 1.59197E-14 7.09506E-14
 -1      2827 2.00012E+01 7.01005E-04-1.31683E-05 1.12553E-03 6.60047E-14 1.84963E-13
 -1      2828 2.00004E+01 2.36441E-04 1.49189E-06 3.35559E-04 3.23686E-14 4.87249E-14
 -1      2829 2.00006E+01 2.96132E-04 9.90530E-06 4.45843E-04 1.71515E-13 4.17784E-14
 -1      2830 2.00007E+01 4.45510E-04-9.89781E-06 6.86570E-04 1.62838E-13 5.08219E-13
 -1      2831 2.00002E+01 1.55640E-04 1.34150E-06 1.55311E-04 1.80502E-14-4.12867E-14
 -1      2832 2.00003E+01 1.94128E-04 6.44271E-06 2.28156E-04-1.57014E-14-1.36605E-13
 -1      2833 2.00004E+01 2.90543E-04-7.21677E-06 3.91916E-04 4.45032E-14 7.03637E-14
 -1      2834 2.00000E+01 9.84767E-05 9.76816E-07 3.56540E-05-2.66119E-13 3.96962E-15
 -1      2835 2.00001E+01 1.26494E-04 4.20398E-06 8.30282E-05-1.27653E-13-4.22101E-14
 -1      2836 2.00002E+01 1.90156E-04-5.24224E-06 1.93501E-04-7.72796E-14-3.67286E-13
 -1      2837 1.99999E+01 4.82162E-05-9.53696E-07-4.10763E-05-3.21853E-15-4.16401E-14
 -1      2838 2.00000E+01 7.69540E-05 3.38823E-06-1.05304E-05-1.16421E-13 4.08282E-14
 -1      2839 2.00000E+01 1.16165E-04-3.81336E-06 6.17097E-05-2.47622E-13-4.12194E-13
 -1      2840 1.99999E+01 1.08601E-05 2.63807E-06-7.71569E-05-1.70565E-13-3.32853E-13
 -1      2841 1.99999E+01 2.10984E-04-1.92411E-06 1.50274E-04-1.76501E-13-5.87914E-13
 -1      2842 1.99999E+01 1.77353E-04 2.05218E-06 1.20959E-04 5.33761E-14-4.80212E-13
 -1      2843 1.99999E+01 1.20616E-04-1.15288E-06 7.75623E-05 6.07120E-16-7.63027E-13
 -1      2844 1.99999E+01 9.51860E-05 1.33945E-06 4.17830E-05 1.59011E-13-5.61050E-13
 -1      2845 2.00000E+01 2.10888E-04 1.61650E-06 1.37686E-04 3.69449E-14-5.51991E-13
 -1      2846 1.99998E+01 3.08589E-04-2.47616E-06 1.90410E-04-1.42146E-13-1.25438E-13
 -1      2847 1.99999E+01 2.72807E-04 2.04784E-06 1.76294E-04-1.56077E-13-3.66434E-13
 -1      2848 1.99998E+01 4.37666E-04 1.46540E-06 2.32505E-04-8.16062E-14 1.87184E-13
 -1      2849 1.99997E+01 4.66035E-04-2.51013E-06 1.44868E-04-7.26204E-14 3.61297E-13
 -1      2850 1.99998E+01 4.43456E-04 6.09443E-07 1.67347E-04-4.59890E-14 3.84355E-13
 -1      2851 1.99998E+01 5.35477E-04 2.33597E-06 2.10103E-04 5.04068E-14 5.77082E-13
 -1      2852 1.99997E+01 4.99385E-04-1.78599E-06 7.15343E-05-3.87262E-14 2.71456E-13
 -1      2853 1.99997E+01 4.90178E-04-4.72740E-07 1.05730E-04-5.51082E-14 3.91798E-13
 -1      2854 1.99997E+01 6.00477E-04 2.92884E-06 1.43314E-04 2.63114E-14 4.67677E-13
 -1      2855 1.99997E+01 4.92325E-04-7.83580E-07-1.23786E-05 4.95488E-14 1.22245E-13
 -1      2856 1.99997E+01 4.98057E-04-1.54421E-06 2.41241E-05 6.53507E-14 8.00528E-14
 -1      2857 1.99997E+01 6.21111E-04 3.22019E-06 4.84211E-05 1.95168E-13 3.07283E-13
 -1      2858 1.99997E+01 4.43599E-04 1.53950E-07-8.95765E-05 3.48425E-14 3.38995E-13
 -1      2859 1.99997E+01 4.65054E-04-2.31124E-06-5.87103E-05-8.30705E-15 3.96042E-13
 -1      2860 1.99997E+01 5.92738E-04 2.68474E-06-5.40292E-05 1.79263E-13 1.73450E-13
 -1      2861 1.99998E+01 3.59503E-04 7.59949E-07-1.34511E-04 3.22702E-13 3.93647E-13
 -1      2862 1.99997E+01 3.93478E-04-2.80100E-06-1.18231E-04 1.63034E-13 3.73715E-13
 -1      2863 1.99997E+01 5.17179E-04 2.18059E-06-1.36199E-04 2.87261E-13 4.78071E-13
 -1      2864 1.99998E+01 4.11391E-04 2.90519E-06-1.79797E-04 2.12882E-13 2.44427E-13
 -1      2865 2.06693E+01-4.45512E+00 1.36143E-01-7.68567E+00 3.21743E-13 2.86702E-13
 -1      2866 2.42509E+01-4.81290E+00-9.54068E-02-6.42059E+00 3.39673E-13-2.05218E-15
 -1      2867 2.75926E+01-4.14682E+00 9.82113E-02-4.32076E+00 2.73628E-13-2.17742E-14
 -1      2868 2.92474E+01-3.41212E+00-1.50191E-01-2.83022E+00 2.40929E-13 1.86379E-14
 -1      2869 3.02236E+01 6.81790E+00-1.70162E-01 1.42261E+00 5.28744E-14-1.36578E-13
 -1      2870 3.08531E+01 8.09046E+00-1.94472E-01 5.94001E-01-9.64229E-14-1.47091E-13
 -1      2871 3.02256E+01-2.62296E+00-1.51755E-01 1.64579E+00-1.53183E-13-1.04972E-13
 -1      2872 2.82815E+01-4.06098E+00 4.25605E-02 3.70536E+00-1.02043E-13-1.19363E-13
 -1      2873 1.15707E+01-1.75268E+00 8.21664E-02 7.47387E+00 6.07708E-14 2.26041E-13
 -1      2874 8.63490E+00-4.11951E-01 1.97110E-01 5.76027E+00 5.47479E-14 2.06279E-13
 -1      2875 2.01918E+01 2.24783E+00 8.32968E-05-1.43070E+00 9.04638E-14-2.85686E-13
 -1      2876 7.07170E+00 1.86976E+00 1.88402E-01-1.22644E+00-2.59954E-13 2.09083E-13
 -1      2877 7.37036E+00 1.13389E+00 1.91295E-01-3.78875E+00-1.34240E-13 4.57245E-13
 -1      2878 1.98194E+01 5.66634E-01 4.10014E-04-4.11108E-01 6.48460E-14 1.50458E-13
 -1      2879 1.98849E+01 5.37501E-01-2.73049E-04-2.77351E-01 6.56474E-14 1.61126E-13
 -1      2880 1.97130E+01 7.17619E-01 6.31503E-03-3.66995E-01 7.02344E-14 1.38095E-13
 -1      2881 1.98904E+01 2.65852E+00-5.86404E-03-6.06883E-01 2.13910E-13-1.54867E-13
 -1      2882 1.99372E+01 2.56519E+00-7.34104E-03-7.64081E-01 1.97519E-13-1.78852E-13
 -1      2883 2.54462E+01-4.90619E+00-1.01772E-01 5.70702E+00-6.65024E-14-6.07153E-15
 -1      2884 2.27806E+01-4.75696E+00 1.08528E-01 6.80832E+00-6.04655E-14 4.26742E-14
 -1      2885 3.13853E+01 2.37225E+00-9.54374E-02 1.40788E+00 1.13215E-13-1.28647E-13
 -1      2886 3.05871E+01 4.40507E+00-2.05314E-01 1.92746E+00 9.54237E-14-1.07581E-13
 -1      2887 2.99799E+01 9.21665E-01-5.20804E-02 1.33402E+00 1.46869E-13-1.90611E-13
 -1      2888 3.16863E+01 6.43393E+00-2.18312E-01-1.56084E+00-4.55302E-13 7.11375E-14
 -1      2889 3.17839E+01 4.97855E+00-1.13817E-01-1.79177E+00-4.64684E-13 8.17540E-14
 -1      2890 1.93199E+01-4.38352E+00-3.59464E-03 7.96164E+00-2.35645E-14 1.12604E-13
 -1      2891 1.55357E+01-3.22455E+00 1.70059E-01 8.01288E+00-5.59275E-15 1.96190E-13
 -1      2892 2.15835E+01-4.14305E+00 8.82939E-02 6.70680E+00-3.85386E-14 2.08843E-14
 -1      2893 1.41511E+01-2.96150E+00 1.43102E-01-8.21511E+00 1.34864E-13 5.47132E-13
 -1      2894 1.72261E+01-3.87776E+00 2.07355E-02-8.42461E+00 2.12941E-13 5.88946E-13
 -1      2895 1.99161E+01-3.77978E+00 1.13198E-01-7.39781E+00 3.69330E-13 1.41609E-13
 -1      2896 1.43106E+01-1.79294E+00 1.36290E-01-7.39940E+00 1.60885E-13 4.11907E-13
 -1      2897 3.20154E+01 2.58319E+00-1.82646E-01-1.28755E+00-4.24299E-13 9.32865E-14
 -1      2898 3.14362E+01 8.93065E-02-7.21703E-02-2.54167E-01-3.03896E-13-1.01447E-14
 -1      2899 2.02044E+01 7.79076E-01-2.36732E-04 3.87478E-01 1.10773E-13 2.52437E-13
 -1      2900 2.02763E+01 9.20848E-01 1.15501E-03 5.92621E-01 1.32114E-13 2.58933E-13
 -1      2901 2.02713E+01 1.14922E+00 3.94590E-03 6.72686E-01 1.47124E-13 2.29299E-13
 -1      2902 1.99041E+01 2.54990E+00 3.11827E-03 7.00149E-02 2.14259E-13-3.07041E-14
 -1      2903 1.97721E+01 2.87333E+00-5.97856E-03-9.56101E-03 2.38789E-13-5.02595E-14
 -1      2904 1.97917E+01 2.84889E+00-4.70494E-03-1.66013E-01 2.33033E-13-9.06397E-14
 -1      2905 1.98176E+01 2.79779E+00-5.84941E-03-3.07352E-01 2.36299E-13-9.82246E-14
 -1      2906 1.98507E+01 2.74225E+00-5.53455E-03-4.66924E-01 2.23245E-13-1.26496E-13
 -1      2907 2.00122E+01 2.34996E+00 3.44569E-03-4.68009E-01 1.96845E-13-1.22596E-13
 -1      2908 1.99460E+01 2.48204E+00 2.95157E-03-1.97445E-01 2.07493E-13-9.75715E-14
 -1      2909 2.99619E+01 6.68811E+00-1.18373E-01-1.53164E+00-4.13503E-13-4.28615E-14
 -1      2910 1.14799E+01 2.62684E+00 1.77831E-01 2.84122E+00-1.88325E-13 2.90740E-14
 -1      2911 1.24230E+01 2.07304E+00 1.18268E-01 4.25877E+00-9.93372E-14-1.10356E-13
 -1      2912 2.56401E+01-4.36653E+00 2.92528E-02-4.98830E+00 3.62668E-13-3.32165E-14
 -1      2913 1.99439E+01 6.62283E-01 2.20951E-03-1.46648E-01 6.58396E-14 1.22541E-13
 -1      2914 1.99999E+01 3.23576E-04 1.40795E-06 2.06078E-04 2.58078E-14-4.39284E-13
 -1      2915 3.04920E+01 3.17506E+00-1.08017E-01-1.84077E+00-4.87277E-13-7.51760E-14
 -1      2916 1.00260E+01 9.37537E-01 1.59686E-01-4.60978E+00-7.28445E-14 3.89105E-13
 -1      2917 9.87193E+00 2.56362E+00 1.52722E-01 1.72880E+00-2.29293E-13 1.18572E-13
 -1      2918 8.17955E+00 2.26658E+00 2.32777E-01 8.89365E-02-2.81325E-13 1.47132E-13
 -1      2919 9.48464E+00 2.58530E+00 7.74078E-02-9.20117E-01-3.41067E-13 1.64799E-13
 -1      2920 1.14876E+01 3.02070E+00 4.26225E-02 1.39858E+00-2.36767E-13 2.44665E-13
 -1      2921 2.93317E+01-2.51211E+00-2.08250E-02-1.26745E+00 2.52028E-13-1.19349E-13
 -1      2922 2.01019E+01 6.17643E-01 8.99399E-04 9.69162E-02 9.55541E-14 1.99589E-13
 -1      2923 2.01683E+01 6.95272E-01 3.29478E-03 2.57240E-01 9.95097E-14 2.17325E-13
 -1      2924 2.01841E+01 8.44740E-01-3.88167E-03 3.32982E-01 1.28429E-13 1.97653E-13
 -1      2925 2.00909E+01 7.24334E-01 9.50954E-04 8.48932E-02 9.05804E-14 1.53402E-13
 -1      2926 2.96483E+01-4.92841E-01-1.33954E-01-9.55778E-01-2.50598E-13 2.03310E-15
 -1      2927 3.04840E+01-1.58358E+00-4.92534E-02 2.56609E-01-1.89114E-13-3.43475E-14
 -1      2928 2.89245E+01-2.61046E+00-1.60380E-02 9.22498E-01-1.23005E-13-4.76043E-14
 -1      2929 1.42878E+01 3.07464E+00 9.57163E-02 1.88919E+00-2.48162E-13 1.98706E-13
 -1      2930 1.99999E+01 3.96784E-05-4.20693E-07-3.49231E-05 3.85934E-14-3.44645E-13
 -1      2931 1.99999E+01 6.54714E-05 8.02435E-07-7.61084E-07 1.60705E-13-1.03960E-13
 -1      2932 2.92194E+01 7.62462E+00-1.35539E-01 1.81413E-01-1.59039E-13-1.87537E-13
 -1      2933 2.00000E+01 1.27166E-04 1.27764E-06 5.40622E-05 6.04793E-14-3.07721E-13
 -1      2934 2.69478E+01-4.26300E+00 5.64176E-02 3.91699E+00-3.93782E-14-6.52811E-14
 -1      2935 2.03124E+01 1.70191E+00-9.67662E-03-1.33588E+00 5.78335E-14-2.80637E-13
 -1      2936 2.02981E+01 1.29358E+00-7.26440E-03-1.05814E+00 4.12157E-14-2.48014E-13
 -1      2937 7.22266E+00 4.98206E-01 2.25055E-01 4.49879E+00 2.70756E-14 2.55407E-13
 -1      2938 5.94593E+00 8.35201E-01 1.83683E-01 2.34955E+00 3.06803E-14 1.38889E-13
 -1      2939 8.40023E+00 1.93578E+00 9.49248E-02 1.76615E+00 1.09027E-13 3.24463E-14
 -1      2940 1.01123E+01 5.82193E-01 1.46533E-01 4.85363E+00 1.31145E-13 2.38046E-13
 -1      2941 2.02966E+01 1.36423E+00 1.94669E-03-9.64613E-01 5.99857E-14-2.10365E-13
 -1      2942 1.48894E+01-1.87768E+00 1.40471E-01 7.10579E+00 6.13398E-14 1.58942E-13
 -1      2943 2.94609E+01 5.34408E+00-1.31192E-01 1.91455E+00 8.35720E-14-1.37695E-13
 -1      2944 2.77628E+01 5.89437E+00-1.15407E-01 1.63708E+00 4.09534E-14-1.91326E-13
 -1      2945 2.83532E+01 3.81152E+00-7.21288E-02 2.03428E+00 1.08843E-13-1.48298E-13
 -1      2946 1.22919E+01 4.47165E-01 1.80330E-01 4.96743E+00-1.82160E-13-7.39964E-14
 -1      2947 2.00999E+01 2.14794E+00 5.00348E-03-7.22037E-01 1.63904E-13-1.67538E-13
 -1      2948 1.99932E+01 2.44377E+00-5.70871E-03-8.91352E-01 1.76535E-13-2.00540E-13
 -1      2949 2.00463E+01 2.30672E+00-1.19966E-02-1.03891E+00 1.47413E-13-2.24762E-13
 -1      2950 2.02592E+01 1.30781E+00-2.32007E-03 7.25733E-01 1.63104E-13 2.20969E-13
 -1      2951 2.02065E+01 1.52964E+00-2.32328E-03 7.68257E-01 1.87454E-13 2.14841E-13
 -1      2952 2.02323E+01 1.12465E+00 4.14975E-03 5.31527E-01 1.55984E-13 2.05230E-13
 -1      2953 2.01461E+01 1.71590E+00-1.13348E-03 7.30027E-01 1.99583E-13 1.89243E-13
 -1      2954 2.82036E+01 6.72056E+00-1.61750E-01-1.14769E+00-3.28348E-13-1.74869E-13
 -1      2955 2.84055E+01 5.66967E+00-8.52454E-02-1.87055E+00-4.26409E-13-1.02279E-13
 -1      2956 2.03241E+01 1.07460E+00 1.02188E-03-6.94952E-01 4.81177E-14-1.67961E-13
 -1      2957 2.02988E+01 8.15894E-01-5.73163E-03-5.17423E-01 3.92673E-14-1.45759E-13
 -1      2958 1.71373E+01-2.40588E+00-4.04864E-03 6.93273E+00 4.23411E-14 1.11744E-13
 -1      2959 1.40185E+01-6.88239E-01 1.14715E-01 6.21923E+00 9.97605E-14 1.59289E-13
 -1      2960 2.83090E+01-3.15332E+00 8.63622E-02-1.74202E+00 2.84519E-13-9.15795E-14
 -1      2961 2.87625E+01-2.01583E+00-1.36165E-01-2.05563E-01 2.24914E-13-2.20206E-13
 -1      2962 2.41718E+01-4.13566E+00 1.10933E-01-5.33520E+00 3.38177E-13-6.10900E-14
 -1      2963 2.63803E+01-4.23175E+00-1.27578E-01-3.67474E+00 3.17562E-13 5.46785E-15
 -1      2964 2.03354E+01 5.96383E-01 5.69129E-03-3.97152E-01 3.30236E-14-1.14124E-13
 -1      2965 2.03026E+01 4.04540E-01-4.44251E-03-2.87505E-01 1.62147E-14-9.84704E-14
 -1      2966 2.03541E+01 8.25802E-01 4.12905E-05-4.56085E-01 5.98881E-14-1.20422E-13
 -1      2967 2.03301E+01 2.44617E-01 6.08430E-03-2.13372E-01-4.83120E-16-4.46222E-14
 -1      2968 2.03056E+01 9.78126E-02-3.46748E-03-1.60723E-01 1.27278E-14-4.00160E-14
 -1      2969 2.03895E+01 3.93456E-01-1.70956E-03-2.52062E-01 5.57012E-14-5.82034E-14
 -1      2970 2.03387E+01-2.70097E-02 5.78284E-03-1.32674E-01-1.34896E-14-1.13011E-14
 -1      2971 2.03283E+01-1.45724E-01-3.03062E-03-1.28752E-01-5.62435E-15-3.88196E-14
 -1      2972 2.04279E+01 5.78486E-02-2.80774E-03-1.40298E-01-7.82870E-15 9.74486E-15
 -1      2973 2.03760E+01-2.48259E-01 5.53145E-03-1.43572E-01 7.15172E-15-3.28623E-14
 -1      2974 2.03787E+01-3.47376E-01-3.08758E-03-1.82005E-01 1.26304E-14-2.72671E-14
 -1      2975 2.04901E+01-2.14709E-01-3.37497E-03-1.17124E-01-1.27157E-14-5.17492E-15
 -1      2976 2.04442E+01-4.31515E-01 5.23834E-03-2.37611E-01 1.67740E-14-3.01787E-14
 -1      2977 2.04555E+01-5.10585E-01-3.46077E-03-3.13058E-01 2.27534E-14 3.59126E-15
 -1      2978 2.05873E+01-4.42191E-01-3.45162E-03-1.77988E-01 7.65683E-15-2.08838E-14
 -1      2979 2.05354E+01-5.71472E-01 4.58569E-03-4.07452E-01 2.29684E-14 1.67207E-14
 -1      2980 2.05473E+01-6.20856E-01-3.80882E-03-5.13196E-01-1.72649E-14 4.39873E-14
 -1      2981 2.07197E+01-6.23273E-01-2.88609E-03-3.19846E-01 2.20351E-14 8.74908E-15
 -1      2982 2.06300E+01-6.45036E-01 3.12037E-03-6.41214E-01-2.04095E-14 4.31111E-14
 -1      2983 2.06320E+01-6.46602E-01-3.56845E-03-7.65515E-01-5.71030E-15 5.99361E-14
 -1      2984 2.08741E+01-7.35962E-01-1.42430E-03-5.37378E-01 2.28722E-14 3.47066E-14
 -1      2985 2.06970E+01-6.14174E-01 4.49913E-04-9.13490E-01-6.24866E-14 7.51539E-14
 -1      2986 2.06777E+01-5.45488E-01-2.01116E-03-1.03563E+00-1.08780E-13 1.62588E-14
 -1      2987 2.10216E+01-7.38884E-01 1.05243E-03-8.14325E-01-3.56243E-14 3.33165E-14
 -1      2988 2.06985E+01-4.36674E-01-3.38961E-03-1.17547E+00-1.05835E-13 3.65267E-14
 -1      2989 2.06500E+01-2.81310E-01 1.26648E-03-1.26355E+00-1.05294E-13 5.62841E-14
 -1      2990 2.11183E+01-5.80905E-01 4.14258E-03-1.11128E+00-7.61615E-14 5.81098E-14
 -1      2991 2.06050E+01-8.93328E-02-7.71075E-03-1.35075E+00-1.38262E-13 4.91376E-14
 -1      2992 2.05288E+01 1.47638E-01 5.80504E-03-1.36559E+00-1.22682E-13 1.36345E-14
 -1      2993 2.11175E+01-2.25115E-01 6.42973E-03-1.35529E+00-7.53444E-14 3.72999E-14
 -1      2994 2.04171E+01 4.02161E-01-1.04126E-02-1.34758E+00-1.11852E-13-1.54348E-14
 -1      2995 2.03276E+01 6.79509E-01 9.79727E-03-1.25455E+00-9.74793E-14-1.98695E-14
 -1      2996 2.09940E+01 3.15454E-01 6.07326E-03-1.44420E+00-1.32590E-13-5.10267E-14
 -1      2997 2.01839E+01 9.38559E-01-9.47966E-03-1.09356E+00-8.31504E-14-1.17690E-14
 -1      2998 2.01070E+01 1.18030E+00 1.06131E-02-8.83575E-01-1.00985E-13 1.92469E-14
 -1      2999 2.07736E+01 9.45425E-01 2.31219E-03-1.27662E+00-1.14913E-13 3.60765E-14
 -1      3000 1.99937E+01 1.36365E+00-4.04323E-03-5.86544E-01-1.26314E-13 3.77977E-14
 -1      3001 1.99562E+01 1.48639E+00 6.67338E-03-2.90457E-01-1.45861E-13 6.50419E-14
 -1      3002 2.05444E+01 1.49125E+00-3.30629E-03-8.12150E-01-6.89972E-14 4.50402E-14
 -1      3003 1.99292E+01 1.52711E+00 2.77799E-03 7.82824E-02-1.04122E-13 1.13303E-13
 -1      3004 1.99458E+01 1.48454E+00-9.12990E-04 3.93811E-01-7.30647E-14 1.52209E-13
 -1      3005 2.04193E+01 1.77145E+00-5.79077E-03-1.23295E-01-8.34974E-14 1.42359E-13
 -1      3006 2.00208E+01 1.36637E+00 8.98619E-03 7.35885E-01-7.08515E-14 1.47940E-13
 -1      3007 2.00848E+01 1.17651E+00-7.13964E-03 9.94197E-01-5.21728E-14 1.21404E-13
 -1      3008 2.04629E+01 1.67329E+00-5.17673E-03 6.17275E-01-5.80023E-14 1.95237E-13
 -1      3009 2.02177E+01 9.48349E-01 1.06243E-02 1.22477E+00-2.86013E-14 1.73170E-13
 -1      3010 2.03070E+01 6.83683E-01-9.77052E-03 1.37696E+00 2.35740E-14 1.59471E-13
 -1      3011 2.06491E+01 1.24403E+00 5.84847E-04 1.20446E+00-5.20872E-14 2.48223E-13
 -1      3012 2.04324E+01 4.24841E-01 7.67691E-03 1.46321E+00-2.01958E-14 1.43653E-13
 -1      3013 2.05187E+01 1.68807E-01-8.69149E-03 1.50155E+00-1.25886E-14 9.37112E-14
 -1      3014 2.08756E+01 6.43441E-01 5.55609E-03 1.51637E+00-2.82469E-14 1.63773E-13
 -1      3015 2.05880E+01-5.09579E-02 2.90522E-03 1.46422E+00 2.71715E-15 4.11685E-14
 -1      3016 2.06507E+01-2.41427E-01-5.17692E-03 1.41348E+00 3.70829E-14 2.26875E-15
 -1      3017 2.10365E+01 5.97820E-02 7.14840E-03 1.54754E+00-3.74758E-14 1.12537E-13
 -1      3018 2.06496E+01-3.85962E-01-1.13900E-03 1.30063E+00 7.25491E-14 9.51157E-15
 -1      3019 2.06812E+01-4.92103E-01-1.25423E-03 1.19856E+00 3.19300E-14 1.64520E-15
 -1      3020 2.10773E+01-3.76859E-01 5.58306E-03 1.37765E+00 4.31133E-14 1.63266E-13
 -1      3021 2.06236E+01-5.58892E-01-3.35312E-03 1.05839E+00-1.86529E-14 4.25424E-14
 -1      3022 2.06276E+01-5.91080E-01 1.75383E-03 9.39098E-01-3.34105E-14 9.06785E-14
 -1      3023 2.10025E+01-6.21648E-01 2.76570E-03 1.11076E+00 5.12062E-14 6.91491E-14
 -1      3024 2.05391E+01-5.97636E-01-3.93976E-03 8.04909E-01-5.08487E-14 2.39766E-14
 -1      3025 2.05249E+01-5.79298E-01 3.36412E-03 6.91394E-01-7.22435E-14 7.05333E-14
 -1      3026 2.08518E+01-6.97644E-01 1.44782E-04 8.30497E-01-4.01651E-14-1.19303E-15
 -1      3027 2.04290E+01-5.48929E-01-3.56066E-03 5.79696E-01-1.02084E-13 9.45155E-15
 -1      3028 2.04062E+01-5.03946E-01 3.80776E-03 4.83637E-01-1.03717E-13-2.44666E-14
 -1      3029 2.06714E+01-6.58186E-01-1.59780E-03 5.85058E-01-1.11005E-13-7.68775E-14
 -1      3030 2.03186E+01-4.56947E-01-2.80298E-03 3.98669E-01-9.63617E-15 1.91548E-14
 -1      3031 2.02944E+01-4.03432E-01 3.52655E-03 3.23540E-01 3.57043E-14 1.08004E-13
 -1      3032 2.04965E+01-5.57780E-01-2.36909E-03 3.92388E-01-3.26061E-14-4.22853E-14
 -1      3033 2.02227E+01-3.53764E-01-2.02825E-03 2.62921E-01-2.23764E-14 1.12496E-13
 -1      3034 2.02015E+01-3.02857E-01 2.90712E-03 2.07504E-01-6.72276E-14 8.13188E-14
 -1      3035 2.03473E+01-4.37783E-01-2.44644E-03 2.51960E-01 1.13223E-14 8.47669E-14
 -1      3036 2.01472E+01-2.58354E-01-1.38748E-03 1.66344E-01-1.00567E-13 1.25412E-13
 -1      3037 2.01306E+01-2.15454E-01 2.21401E-03 1.27346E-01-8.09872E-16 1.65770E-13
 -1      3038 2.02307E+01-3.23483E-01-2.13712E-03 1.55070E-01-3.31627E-14 1.39609E-13
 -1      3039 2.00921E+01-1.79368E-01-9.13563E-04 1.00528E-01-4.76488E-14 1.58469E-13
 -1      3040 2.00802E+01-1.46027E-01 1.58791E-03 7.41890E-02 8.34037E-14 5.46228E-14
 -1      3041 2.01456E+01-2.27096E-01-1.67853E-03 9.10530E-02-6.83901E-16 3.23987E-13
 -1      3042 2.00542E+01-1.18772E-01-5.85734E-04 5.73754E-02 1.35052E-13-1.66726E-14
 -1      3043 2.00463E+01-9.44035E-02 1.08304E-03 4.02739E-02 1.93356E-13-2.21924E-15
 -1      3044 2.00871E+01-1.52132E-01-1.22086E-03 5.03150E-02 4.97179E-15 1.85152E-13
 -1      3045 2.00297E+01-7.49497E-02-3.67774E-04 3.01547E-02 2.49819E-13-1.04937E-13
 -1      3046 2.00249E+01-5.80295E-02 7.05418E-04 1.95028E-02 1.41248E-13-4.70712E-14
 -1      3047 2.00489E+01-9.72747E-02-8.33890E-04 2.53356E-02 1.30933E-13 2.05103E-14
 -1      3048 2.00148E+01-4.48090E-02-2.26458E-04 1.37069E-02 5.56522E-14-4.11810E-14
 -1      3049 2.00120E+01-3.35965E-02 4.38802E-04 7.38743E-03-7.49446E-14-2.40904E-14
 -1      3050 2.00252E+01-5.91161E-02-5.38238E-04 1.06483E-02 1.22429E-13-1.26916E-13
 -1      3051 2.00062E+01-2.50199E-02-1.36254E-04 4.29100E-03-2.45818E-14-1.72660E-14
 -1      3052 2.00047E+01-1.79262E-02 2.59470E-04 7.75499E-04 9.40302E-14 1.10164E-14
 -1      3053 2.00113E+01-3.37646E-02-3.28469E-04 2.47317E-03 1.68093E-14 9.86804E-14
 -1      3054 2.00016E+01-1.26241E-02-7.92963E-05-6.95190E-04 6.65581E-14 1.49036E-13
 -1      3055 2.00009E+01-8.35863E-03 1.44101E-04-2.46587E-03 3.40543E-14 8.10654E-14
 -1      3056 2.00037E+01-1.76691E-02-1.88442E-04-1.71009E-03 1.48120E-13 4.88954E-14
 -1      3057 1.99995E+01-5.25824E-03-4.37277E-05-3.00005E-03-7.40925E-14 7.26542E-14
 -1      3058 1.99992E+01-2.84906E-03 7.31407E-05-3.73392E-03 5.05463E-14 4.36007E-14
 -1      3059 1.99999E+01-7.94328E-03-1.00039E-04-3.53380E-03-2.09142E-14 1.66773E-13
 -1      3060 1.99987E+01-1.16413E-03-2.18727E-05-3.76148E-03 5.31979E-14-1.17979E-13
 -1      3061 1.99986E+01 8.00025E-05 3.16360E-05-3.91562E-03-1.76589E-14-3.19719E-13
 -1      3062 1.99983E+01-2.41103E-03-4.73143E-05-4.02857E-03-1.80351E-13 9.58868E-14
 -1      3063 1.99985E+01 8.96420E-04-8.79638E-06-3.69630E-03-2.07518E-14-2.91585E-13
 -1      3064 1.99986E+01 1.44445E-03 8.85407E-06-3.55501E-03-1.51094E-13-2.46023E-13
 -1      3065 1.99979E+01 4.78505E-04-1.78558E-05-3.82818E-03-5.10101E-14-1.44447E-13
 -1      3066 1.99987E+01 1.75597E-03-1.31401E-06-3.23966E-03-1.03302E-13-8.34375E-14
 -1      3067 1.99988E+01 1.91263E-03-2.53869E-06-2.97224E-03 4.27133E-14-1.10883E-13
 -1      3068 1.99980E+01 1.78033E-03-2.76158E-06-3.31036E-03 6.66686E-14-5.74066E-14
 -1      3069 1.99990E+01 1.95079E-03 2.64269E-06-2.64368E-03 1.55186E-13 2.35560E-14
 -1      3070 1.99990E+01 1.90572E-03-7.34372E-06-2.34540E-03 2.21689E-13 4.15680E-14
 -1      3071 1.99983E+01 2.18245E-03 3.96147E-06-2.69094E-03 1.20823E-13 1.04185E-13
 -1      3072 1.99992E+01 1.81146E-03 4.42575E-06-2.04516E-03 1.09997E-13 2.32683E-14
 -1      3073 1.99993E+01 1.67717E-03-8.57522E-06-1.76524E-03 3.37152E-14 1.97949E-13
 -1      3074 1.99987E+01 2.11505E-03 6.13602E-06-2.08563E-03 2.30826E-13 1.42504E-13
 -1      3075 1.99994E+01 1.53181E-03 4.93426E-06-1.51068E-03 9.05857E-14 1.94647E-13
 -1      3076 1.99995E+01 1.37108E-03-8.02731E-06-1.27090E-03 1.72893E-13 3.46284E-13
 -1      3077 1.99991E+01 1.83486E-03 6.07690E-06-1.54991E-03 1.35454E-13 3.50770E-13
 -1      3078 1.99996E+01 1.21814E-03 4.75106E-06-1.06582E-03 1.19971E-13 3.42499E-13
 -1      3079 1.99996E+01 1.06250E-03-6.86885E-06-8.72592E-04 1.92582E-13 2.22318E-13
 -1      3080 1.99993E+01 1.48651E-03 5.16576E-06-1.10432E-03 1.34276E-13 2.81615E-13
 -1      3081 1.99997E+01 9.23011E-04 4.17376E-06-7.15041E-04 1.75571E-13 2.39181E-13
 -1      3082 1.99997E+01 7.87752E-04-5.37812E-06-5.66986E-04 1.24020E-13 2.76728E-13
 -1      3083 1.99995E+01 1.14419E-03 4.06243E-06-7.50677E-04 1.85525E-13 2.96488E-13
 -1      3084 1.99998E+01 6.68801E-04 3.48166E-06-4.49414E-04 5.19583E-14 3.22424E-13
 -1      3085 1.99998E+01 5.60035E-04-2.63154E-06-3.43695E-04 4.73883E-14 1.45246E-13
 -1      3086 1.99996E+01 8.41538E-04 2.43452E-06-4.82348E-04 1.80645E-13 4.33414E-13
 -1      3087 1.99998E+01 5.12709E-04 2.88939E-06-2.85936E-04-2.39258E-14 2.19430E-13
 -1      3088 1.99998E+01 4.61222E-04-5.35332E-09-2.23712E-04 5.28947E-14 1.56134E-13
 -1      3089 1.99997E+01 5.15826E-04-2.90350E-06-2.09734E-04 7.51412E-14 5.38595E-13
 -1      3090 1.99997E+01 6.42416E-04 3.62485E-07-3.11303E-04-3.57716E-14 4.71098E-13
 -1      3091 1.84778E+01 1.32613E+00-1.79592E-02-3.81976E-01 9.11404E-14 1.31028E-13
 -1      3092 1.88431E+01 1.14636E+00-7.89448E-03-3.47142E-01 7.97450E-14 1.18277E-13
 -1      3093 1.30290E+01 2.58715E+00-9.90233E-03 7.70722E-01 1.09909E-13 1.00822E-14
 -1      3094 1.45734E+01 2.50880E+00 5.03883E-04 4.50568E-01 8.01859E-14 4.90163E-14
 -1      3095 1.00072E+01 2.34357E+00 6.54246E-02 1.48984E+00 1.60354E-13 1.79579E-14
 -1      3096 1.18612E+01 2.61428E+00 3.07623E-02 1.01789E+00 1.43845E-13-1.47729E-14
 -1      3097 1.31792E+01 2.34736E+00 1.48288E-01 2.18813E+00 1.11843E-13 1.18853E-13
 -1      3098 1.05105E+01 1.91470E+00 1.86006E-01 3.16054E+00 1.03452E-13 1.73986E-13
 -1      3099 1.93007E+01 7.89334E-01-8.91711E-03 3.31034E-01-7.97004E-14 7.84531E-14
 -1      3100 1.91022E+01 9.71803E-01-7.23290E-03 4.11969E-01 1.13506E-13 8.77626E-14
 -1      3101 1.99996E+01 7.37231E-04-2.95145E-06 1.41074E-04 3.16884E-13 4.69007E-13
 -1      3102 1.99997E+01 7.18745E-04 2.76810E-08 1.87875E-04 1.72386E-13 4.66162E-13
 -1      3103 1.99997E+01 6.73479E-04-3.70691E-06 2.38571E-04 1.24056E-13 5.27434E-13
 -1      3104 1.99997E+01 6.37077E-04 1.17143E-06 2.65625E-04 1.28438E-13 4.84411E-13
 -1      3105 1.99996E+01 8.38616E-04 3.68287E-06 2.45968E-04 3.19980E-13 4.96463E-13
 -1      3106 1.87647E+01 1.18406E+00-1.20461E-02 4.19597E-01 2.22634E-13-1.37446E-14
 -1      3107 1.84234E+01 1.43805E+00-6.35532E-03 5.00448E-01 1.65406E-13 4.41676E-14
 -1      3108 1.87856E+01 1.15796E+00 2.13983E-02 1.51691E-01 8.58471E-14 1.24401E-13
 -1      3109 1.91626E+01 9.86874E-01-1.06354E-02-3.68142E-01 7.36080E-14 1.22036E-13
 -1      3110 1.94012E+01 8.68174E-01-4.37209E-03-3.01091E-01 6.90251E-14 1.27779E-13
 -1      3111 1.90072E+01 1.10925E+00 1.68482E-02-8.63260E-02 8.37263E-14 8.43982E-14
 -1      3112 1.96156E+01 5.11468E-01-6.03541E-03 2.44416E-01-4.32821E-14 1.01048E-13
 -1      3113 1.95082E+01 6.38080E-01-3.49052E-03 3.09641E-01-9.87426E-14 1.09513E-13
 -1      3114 1.92963E+01 7.81169E-01 1.31015E-02 1.66150E-01-8.14327E-14 3.21360E-13
 -1      3115 1.97955E+01 3.24675E-01-3.94049E-03 1.72429E-01-1.54286E-13 3.86191E-14
 -1      3116 1.97396E+01 4.09354E-01-1.33852E-03 2.20595E-01-3.29554E-15 1.10669E-13
 -1      3117 1.96016E+01 5.12108E-01 7.82985E-03 1.44892E-01-4.67870E-14 1.71664E-13
 -1      3118 1.98959E+01 2.02776E-01-2.50800E-03 1.17890E-01-7.78306E-14-1.02395E-13
 -1      3119 1.98681E+01 2.57873E-01-3.23756E-04 1.51658E-01-1.82031E-13-4.37427E-14
 -1      3120 1.97806E+01 3.28441E-01 4.59074E-03 1.13443E-01-1.36968E-13 8.43846E-14
 -1      3121 1.99504E+01 1.24939E-01-1.56139E-03 7.88792E-02-1.76736E-13-1.17943E-13
 -1      3122 1.99374E+01 1.60053E-01 9.39992E-05 1.01725E-01-1.27455E-13-1.63565E-13
 -1      3123 1.98833E+01 2.07006E-01 2.63833E-03 8.35640E-02-5.05354E-14 1.48784E-13
 -1      3124 1.99791E+01 7.60856E-02-9.52862E-04 5.20266E-02 1.20716E-14-1.89914E-13
 -1      3125 1.99737E+01 9.80924E-02 2.26223E-04 6.70926E-02-5.31713E-14-2.09337E-13
 -1      3126 1.99408E+01 1.28601E-01 1.48450E-03 5.92957E-02-3.89879E-14-4.91241E-14
 -1      3127 1.99934E+01 4.58709E-02-5.70658E-04 3.40258E-02 9.30592E-14-1.17063E-13
 -1      3128 1.99917E+01 5.94642E-02 2.34736E-04 4.37786E-02 1.56004E-15-1.74441E-13
 -1      3129 1.99722E+01 7.89263E-02 8.14794E-04 4.11082E-02 5.24224E-14-8.28548E-14
 -1      3130 2.00001E+01 2.74269E-02-3.36314E-04 2.21728E-02 2.18240E-13-1.07548E-13
 -1      3131 2.00000E+01 3.57158E-02 1.98615E-04 2.84048E-02 2.71203E-13-9.04062E-14
 -1      3132 1.99886E+01 4.79516E-02 4.32789E-04 2.81091E-02 7.59074E-14-1.75065E-13
 -1      3133 2.00027E+01 1.63215E-02-1.88368E-04 1.44612E-02 1.64394E-13-3.70304E-14
 -1      3134 2.00033E+01 2.13058E-02 1.55933E-04 1.84059E-02 1.41751E-13-1.44375E-14
 -1      3135 1.99968E+01 2.88970E-02 2.16271E-04 1.90846E-02 1.51865E-13 7.07778E-15
 -1      3136 2.00034E+01 9.94101E-03-1.06739E-04 9.66535E-03-9.04143E-14 6.32657E-15
 -1      3137 2.00041E+01 1.28317E-02 1.16174E-04 1.20777E-02 6.55347E-14-1.11528E-13
 -1      3138 2.00004E+01 1.75250E-02 9.57396E-05 1.30382E-02 1.53437E-13 4.68224E-14
 -1      3139 2.00032E+01 5.90253E-03-6.17730E-05 6.34453E-03 1.27866E-13-2.12079E-13
 -1      3140 2.00039E+01 7.70831E-03 8.12802E-05 7.95733E-03-4.00140E-14-1.76433E-13
 -1      3141 2.00019E+01 1.06603E-02 4.41970E-05 8.92780E-03 6.24946E-14 3.69306E-14
 -1      3142 2.00026E+01 3.53847E-03-3.33714E-05 4.18557E-03 2.78709E-13 6.36871E-14
 -1      3143 2.00033E+01 4.59951E-03 5.67562E-05 5.21333E-03 2.56876E-13-1.27836E-13
 -1      3144 2.00022E+01 6.41449E-03 1.37886E-05 6.05348E-03 1.04315E-13-1.46913E-13
 -1      3145 2.00020E+01 2.15439E-03-1.74398E-05 2.76461E-03 1.05335E-13 1.55973E-13
 -1      3146 2.00025E+01 2.77715E-03 3.93118E-05 3.42606E-03 2.94295E-13 1.72924E-13
 -1      3147 2.00020E+01 3.89780E-03-8.10505E-07 4.10590E-03 1.11583E-13 6.59341E-14
 -1      3148 2.00015E+01 1.34116E-03-8.80869E-06 1.81708E-03-4.75761E-14-4.35234E-14
 -1      3149 2.00018E+01 1.70875E-03 2.71200E-05 2.24905E-03-8.05946E-14-4.36458E-14
 -1      3150 2.00016E+01 2.40797E-03-6.61090E-06 2.77634E-03 1.05566E-13 4.73781E-14
 -1      3151 2.00010E+01 8.57363E-04-4.27546E-06 1.17645E-03 3.95977E-14 3.39192E-14
 -1      3152 2.00013E+01 1.07768E-03 1.87060E-05 1.46309E-03 5.52207E-14-1.51166E-14
 -1      3153 2.00012E+01 1.52086E-03-8.04483E-06 1.86072E-03-2.19697E-14-1.45706E-13
 -1      3154 2.00006E+01 5.62368E-04-2.00683E-06 7.38110E-04 2.46618E-13 9.24832E-14
 -1      3155 2.00009E+01 6.98158E-04 1.29166E-05 9.31041E-04 1.88292E-13 2.31197E-13
 -1      3156 2.00008E+01 9.84634E-04-7.49690E-06 1.22488E-03 9.33256E-14-8.94452E-14
 -1      3157 2.00004E+01 3.75297E-04-7.67829E-07 4.36385E-04 1.83217E-13-3.77876E-13
 -1      3158 2.00005E+01 4.62592E-04 8.94092E-06 5.67189E-04 3.16540E-13-3.75152E-14
 -1      3159 2.00006E+01 6.51542E-04-6.22925E-06 7.80949E-04 3.06098E-13-5.18019E-14
 -1      3160 2.00002E+01 2.49302E-04 5.50842E-07 2.29796E-04-9.30966E-14-2.68035E-13
 -1      3161 2.00003E+01 3.08365E-04 6.10335E-06 3.17049E-04 1.19435E-15-3.01988E-13
 -1      3162 2.00003E+01 4.36298E-04-4.86175E-06 4.71449E-04 6.53377E-14-1.40277E-13
 -1      3163 2.00000E+01 1.64254E-04 4.04391E-07 1.02314E-04-1.59775E-13-2.42229E-13
 -1      3164 2.00001E+01 2.11290E-04 4.00131E-06 1.60274E-04-2.56623E-13-3.51338E-13
 -1      3165 2.00002E+01 2.96165E-04-5.03339E-06 2.68434E-04-1.42891E-13-1.99164E-13
 -1      3166 2.00000E+01 1.95679E-04-4.06822E-06 1.41095E-04-1.40865E-13-6.92784E-13
 -1      3167 2.73377E+01-3.91474E+00-8.93575E-02 2.58937E+00 2.96985E-15-1.06970E-13
 -1      3168 2.56020E+01-4.19389E+00 1.00294E-01 4.18960E+00 2.90670E-14-3.79800E-14
 -1      3169 2.00000E+01 3.28588E-04-3.80350E-06 2.38697E-04 7.02760E-14-4.68460E-13
 -1      3170 2.00000E+01 2.77742E-04 1.20540E-06 1.96668E-04 8.45570E-14-4.16534E-13
 -1      3171 2.00001E+01 3.36104E-04 3.72131E-06 2.54176E-04-4.94450E-14-3.06671E-13
 -1      3172 2.27858E+01-4.31772E+00-9.46738E-02 5.81541E+00-1.83881E-14-2.60486E-14
 -1      3173 2.03291E+01-3.37268E+00 1.41723E-01 6.57778E+00 1.87697E-14 3.66929E-14
 -1      3174 2.87376E+01 3.67375E+00-1.67047E-01-2.14957E+00-4.45019E-13-3.15581E-14
 -1      3175 2.93656E+01 1.86180E+00-2.53345E-02-1.98179E+00-3.52343E-13 2.57502E-14
 -1      3176 1.99998E+01 5.66450E-04-3.75098E-06 2.88175E-04 1.66090E-13 3.52604E-13
 -1      3177 1.99999E+01 5.16513E-04 1.29236E-06 2.88760E-04 1.34874E-13 4.20043E-14
 -1      3178 1.99998E+01 7.30122E-04 2.72264E-06 3.27421E-04 2.95045E-13 3.62599E-13
 -1      3179 1.99996E+01 7.47868E-04-1.45704E-06 1.77826E-05 2.44050E-13 2.77676E-13
 -1      3180 1.99996E+01 7.49705E-04-1.31426E-06 7.33391E-05 2.59852E-13 4.80765E-13
 -1      3181 1.99996E+01 8.90938E-04 4.07850E-06 1.17405E-04 2.24706E-13 4.68091E-13
 -1      3182 1.99996E+01 7.00798E-04-1.64377E-07-1.08398E-04 1.59394E-13 2.70063E-13
 -1      3183 1.99996E+01 7.24278E-04-2.25084E-06-5.43123E-05 8.50628E-14 1.35261E-13
 -1      3184 1.99995E+01 8.77889E-04 4.02583E-06-3.48918E-05 5.37111E-14 9.83044E-14
 -1      3185 1.06755E+01 1.87565E+00 1.04080E-01-3.35695E+00-2.83162E-13 2.56975E-13
 -1      3186 1.20563E+01 5.49164E-01 9.61620E-02-5.45048E+00-6.60166E-14 3.23977E-13
 -1      3187 1.98885E+01 7.28436E-01-4.44234E-03-1.14393E-01 6.85026E-14 1.06209E-13
 -1      3188 1.99941E+01 7.57038E-01 2.60013E-04 4.19271E-03 6.55281E-14 1.07633E-13
 -1      3189 2.90060E+01-2.55416E-01 2.84925E-03 1.15266E+00 1.74694E-13-2.89081E-13
 -1      3190 2.84933E+01 1.40392E+00-1.19034E-01 1.85175E+00 1.73264E-13-2.85136E-13
 -1      3191 2.01563E+01 2.14645E+00 2.83180E-04-1.21638E+00 1.20561E-13-2.43157E-13
 -1      3192 1.96056E+01 7.83609E-01-6.57048E-03-2.72776E-01 6.91695E-14 1.13482E-13
 -1      3193 1.97587E+01 7.38612E-01-1.54860E-03-1.81558E-01 6.51564E-14 1.11755E-13
 -1      3194 1.98350E+01 8.25417E-01 6.17055E-03-3.58540E-02 5.85389E-14 9.11609E-14
 -1      3195 1.95104E+01 8.95431E-01 1.05695E-02-1.13604E-01 5.04861E-14 1.01463E-13
 -1      3196 1.45136E+01 2.89549E+00-2.75628E-03 8.02707E-01-1.93488E-13 1.86606E-13
 -1      3197 1.33417E+01 3.03585E+00 5.18997E-02 1.08552E+00-2.03993E-13 2.33757E-13
 -1      3198 1.23215E+01 3.08759E+00 1.40603E-01 1.36895E-01-2.05629E-13 2.50466E-13
 -1      3199 1.99999E+01 4.52925E-04-3.49217E-06 2.86797E-04 1.53699E-13-2.66898E-13
 -1      3200 2.00000E+01 3.97175E-04 1.00181E-06 2.63090E-04 1.81199E-13-5.18436E-13
 -1      3201 2.00000E+01 4.81530E-04 3.75666E-06 3.31337E-04 2.00786E-13-4.28518E-13
 -1      3202 1.99999E+01 6.04934E-04 2.98055E-06 3.52561E-04 3.43406E-13-1.31720E-13
 -1      3203 2.71758E+01 6.70738E+00-1.28167E-01 6.21789E-01-1.11092E-13-2.32901E-13
 -1      3204 2.77584E+01 7.05773E+00-1.35094E-01-3.68556E-01-2.29011E-13-2.17979E-13
 -1      3205 2.65225E+01 6.04172E+00-7.56939E-02-6.88251E-01-2.51549E-13-2.70483E-13
 -1      3206 1.67457E+01 2.29610E+00-1.83069E-02 8.07266E-01-2.47216E-13 1.44393E-13
 -1      3207 1.57957E+01 2.62497E+00-4.21681E-03 8.56217E-01-2.08894E-13 8.02101E-14
 -1      3208 1.52022E+01 2.76555E+00 6.99442E-02 1.96238E-01-1.41916E-13 2.05319E-13
 -1      3209 1.79754E+01 1.68051E+00-1.99094E-02 5.86879E-01 1.33407E-13 6.85745E-14
 -1      3210 1.74198E+01 2.00178E+00-4.98531E-03 6.62452E-01 2.15513E-14 6.07174E-14
 -1      3211 1.70020E+01 2.19680E+00 5.05484E-02 2.74370E-01 4.50597E-14 1.37306E-13
 -1      3212 1.80366E+01 1.64325E+00 3.45293E-02 1.62943E-01 1.28423E-13-8.82291E-14
 -1      3213 1.56523E+01 2.30515E+00-3.52700E-02 6.61567E-02 8.41271E-14 7.78501E-14
 -1      3214 1.66577E+01 2.06037E+00-1.14673E-02-6.23601E-02 9.66770E-14 1.18177E-13
 -1      3215 1.53498E+01 2.23095E+00 7.82988E-02 1.27774E+00 1.07865E-13 1.61694E-13
 -1      3216 1.73760E+01 1.79451E+00-2.86937E-02-2.70074E-01 8.23326E-14 1.26922E-13
 -1      3217 1.79996E+01 1.55155E+00-1.12241E-02-2.90547E-01 9.01412E-14 1.35398E-13
 -1      3218 1.82382E+01 1.45145E+00 2.65899E-02 8.73811E-02 9.33524E-14 1.13784E-13
 -1      3219 1.70839E+01 1.86682E+00 4.37989E-02 4.91268E-01 1.13224E-13 1.18565E-13
 -1      3220 1.99715E+01 2.22298E+00-5.52289E-03 3.65597E-01 2.22933E-13 3.55741E-14
 -1      3221 1.99761E+01 2.24615E+00-2.20453E-03 2.52162E-01 2.08985E-13-3.32454E-15
 -1      3222 2.02250E+01 1.85087E+00 5.19178E-03-1.00757E+00 1.20515E-13-2.29534E-13
 -1      3223 1.99874E+01 2.23475E+00-4.64679E-03 1.51406E-01 1.96333E-13-1.57932E-14
 -1      3224 2.00069E+01 2.21973E+00-2.38533E-03 2.67760E-02 1.98994E-13-3.99804E-14
 -1      3225 2.00884E+01 1.95415E+00 4.73067E-03 2.05431E-01 1.83071E-13 1.83851E-15
 -1      3226 1.49752E+01-5.19107E-02 9.63151E-02 5.21910E+00 7.64822E-14 1.46917E-13
 -1      3227 1.25604E+01 4.37944E-01 9.78360E-02 5.29605E+00 7.99361E-14 1.91597E-13
 -1      3228 2.79644E+01-1.30039E+00-3.76218E-02 5.37656E-01 2.40316E-13-3.02501E-13
 -1      3229 2.67267E+01-3.50140E+00 5.94295E-03-2.43118E+00 3.25705E-13-1.11335E-13
 -1      3230 2.77533E+01-2.42876E+00-9.05449E-02 1.61427E-01-7.08999E-14 7.67407E-14
 -1      3231 2.79569E+01-3.20837E+00 1.13001E-02 1.35176E+00-2.76723E-14-4.44783E-15
 -1      3232 2.65848E+01-3.39982E+00-1.19403E-02 1.83097E+00 1.31822E-14-5.14038E-14
 -1      3233 1.11732E+01 1.31299E+00 1.06682E-01 4.02762E+00 8.38496E-14 2.10734E-13
 -1      3234 2.00546E+01 7.92551E-01-3.10249E-03 7.31547E-02 9.15291E-14 1.30865E-13
 -1      3235 2.01134E+01 8.42819E-01-1.88353E-03 1.82658E-01 1.15563E-13 1.34273E-13
 -1      3236 2.00229E+01 8.73995E-01 2.87113E-03 9.49515E-02 9.04897E-14 9.66396E-14
 -1      3237 1.91369E+01-2.39425E+00 8.84053E-02 6.08202E+00 7.29694E-14 5.51573E-14
 -1      3238 2.67155E+01 5.85468E+00-1.02230E-01 1.16861E+00-2.16424E-14-2.43444E-13
 -1      3239 2.55623E+01 5.56930E+00-4.38331E-02 7.47549E-01-1.08732E-13-2.41245E-13
 -1      3240 2.60899E+01 4.81855E+00-4.41005E-02 1.58464E+00 5.81896E-14-2.62140E-13
 -1      3241 2.42081E+01-3.85023E+00 4.04864E-02 4.40322E+00 2.85189E-14-1.86318E-14
 -1      3242 2.85498E+01 2.71421E-01-6.16178E-02-1.42800E+00-2.17444E-13 4.23134E-14
 -1      3243 1.43059E+01 4.45028E-01 1.10402E-01-5.09114E+00-5.72042E-14 2.22211E-13
 -1      3244 1.39128E+01-4.73826E-01 1.21321E-01-6.27926E+00 6.20198E-14 2.55324E-13
 -1      3245 1.08217E+01 2.43820E+00 1.63602E-01-2.26909E+00-2.65357E-13 2.61791E-13
 -1      3246 1.24438E+01 1.99712E+00 6.42033E-02-3.07239E+00-2.88818E-13 3.41928E-13
 -1      3247 1.12652E+01 2.77436E+00 9.05469E-02-1.00910E+00-2.89171E-13 2.59438E-13
 -1      3248 1.99997E+01 5.90039E-04-1.66270E-07-1.85201E-04 1.83577E-13 4.29470E-13
 -1      3249 1.99996E+01 6.34297E-04-2.91276E-06-1.53252E-04 1.32803E-13 3.25718E-13
 -1      3250 1.99996E+01 7.88032E-04 1.36427E-07-1.58981E-04 1.74107E-13 1.94566E-13
 -1      3251 1.99997E+01 6.51778E-04-2.25058E-07-2.29704E-04 7.97390E-14 4.13112E-13
 -1      3252 1.99788E+01 2.19488E+00-2.42124E-03 4.48161E-01 2.25288E-13 5.50439E-14
 -1      3253 2.00708E+01 1.93518E+00 5.95388E-03 3.74563E-01 2.10911E-13 4.37638E-14
 -1      3254 1.99951E+01 2.12646E+00-6.46014E-03 5.45542E-01 2.19050E-13 8.54669E-14
 -1      3255 2.69634E+01 1.23010E+00-4.10711E-02 1.91513E+00 2.20553E-13-2.27311E-13
 -1      3256 2.78044E+01 2.47154E+00-6.02945E-02 2.16566E+00 1.79558E-13-1.98189E-13
 -1      3257 2.65964E+01 3.40944E+00-6.57369E-02 2.15831E+00 1.73909E-13-1.86830E-13
 -1      3258 2.74433E+01 4.06675E+00-7.96221E-02-1.99905E+00-3.66263E-13-6.67279E-14
 -1      3259 2.02447E+01 1.53767E+00-1.38051E-03-8.41524E-01 1.02071E-13-2.07120E-13
 -1      3260 2.00915E+01 2.05577E+00-2.77664E-03-3.28405E-01 1.94724E-13-1.03896E-13
 -1      3261 2.01241E+01 1.96876E+00-4.83098E-03-4.55083E-01 1.77479E-13-1.22819E-13
 -1      3262 1.87961E+01-2.82954E+00 1.15398E-01-6.94111E+00 2.83107E-13 1.49596E-13
 -1      3263 2.12711E+01-3.82200E+00-6.10975E-02-6.47326E+00 3.40700E-13-1.14388E-14
 -1      3264 2.29459E+01-3.52766E+00 7.22691E-02-5.16357E+00 3.37261E-13 6.88815E-15
 -1      3265 2.01609E+01 1.86992E+00-2.16165E-03-5.59738E-01 1.72653E-13-1.30329E-13
 -1      3266 2.01966E+01 1.74099E+00-6.64514E-03-6.70304E-01 1.52573E-13-1.54160E-13
 -1      3267 2.02488E+01 1.61421E+00 4.07316E-03-4.14312E-01 1.56980E-13-1.28099E-13
 -1      3268 2.00676E+01 1.92809E+00-7.32892E-03 6.83637E-01 2.02883E-13 1.41393E-13
 -1      3269 2.00250E+01 2.04924E+00-3.11521E-03 6.05608E-01 2.08954E-13 1.16719E-13
 -1      3270 2.00917E+01 1.82788E+00 7.59927E-03 4.99446E-01 1.83903E-13 8.84038E-14
 -1      3271 1.61409E+01-1.82866E+00 2.30752E-02-6.97516E+00 1.85962E-13 1.81924E-13
 -1      3272 2.02550E+01 1.53351E+00 1.47513E-03-7.24759E-01 1.13394E-13-1.74929E-13
 -1      3273 2.01663E+01 1.54192E+00 6.87713E-03 5.80473E-01 1.82689E-13 1.66504E-13
 -1      3274 1.65379E+01-6.45096E-01 1.70454E-02 5.29417E+00 1.02196E-13 1.08982E-13
 -1      3275 1.51791E+01 4.80003E-01 3.75256E-02 4.42201E+00 8.77458E-14 1.64677E-13
 -1      3276 2.00309E+01 2.17628E+00-3.81677E-03-8.52225E-02 2.01077E-13-8.19471E-14
 -1      3277 2.00593E+01 2.12631E+00-3.27206E-03-2.14880E-01 1.96321E-13-1.01528E-13
 -1      3278 2.01895E+01 1.78943E+00 4.30652E-03-2.10681E-01 1.78572E-13-1.04438E-13
 -1      3279 2.01670E+01 1.21922E+00-6.13913E-03 4.59913E-01 1.84101E-13 1.94542E-13
 -1      3280 2.01280E+01 1.44325E+00 3.39199E-04 4.58653E-01 1.80581E-13 1.56895E-13
 -1      3281 1.56392E+01 2.28191E+00-1.69285E-02-6.51028E-01-6.84973E-14 2.27431E-13
 -1      3282 1.44664E+01 2.49089E+00-1.12941E-02-9.18684E-01-9.75157E-14 2.94886E-13
 -1      3283 2.71927E+01-2.03619E+00 3.99586E-02 6.19122E-02 1.94464E-13-2.20577E-13
 -1      3284 2.69382E+01-7.96938E-01-5.52140E-02 1.14341E+00 1.67703E-13-2.03848E-13
 -1      3285 1.93207E+01 6.53778E-01-3.65977E-03-4.07328E-03-1.40437E-15 4.27125E-13
 -1      3286 1.91082E+01 7.89779E-01-1.11845E-02-1.65852E-02-1.92289E-14 5.24888E-13
 -1      3287 2.04404E+01 5.62591E-01 4.45423E-03-2.64083E-01 8.66345E-14-7.50116E-14
 -1      3288 2.04503E+01 3.56386E-01-3.26805E-03-1.81670E-01 8.06781E-14-5.64840E-14
 -1      3289 2.05087E+01 1.76854E-01 5.08827E-03-1.25289E-01 3.51976E-14-3.94753E-14
 -1      3290 2.05256E+01 8.86049E-03-2.54048E-03-8.68323E-02-3.09350E-15-2.36128E-14
 -1      3291 2.05310E+01 3.17668E-01-1.97408E-03-1.23241E-01 7.18516E-14-7.63669E-14
 -1      3292 2.05960E+01-1.40257E-01 5.67550E-03-6.65233E-02-1.14935E-14 1.20477E-14
 -1      3293 2.06280E+01-2.83863E-01-2.28923E-03-6.98854E-02 7.93216E-15 2.00689E-14
 -1      3294 2.06391E+01-5.29031E-02-3.52887E-03-3.60113E-02 2.27199E-14-1.75409E-14
 -1      3295 2.07218E+01-4.12060E-01 6.23768E-03-8.75084E-02-5.26251E-15 1.06696E-14
 -1      3296 2.07715E+01-5.36409E-01-2.62986E-03-1.31378E-01 1.48519E-14 2.96458E-14
 -1      3297 2.07838E+01-3.72104E-01-4.70050E-03-2.02930E-02 1.62748E-14 5.26705E-14
 -1      3298 2.08946E+01-6.43733E-01 6.62536E-03-1.90545E-01 9.43054E-15 2.31639E-14
 -1      3299 2.09584E+01-7.43435E-01-3.50272E-03-2.74177E-01 1.78116E-14 3.35455E-15
 -1      3300 2.09822E+01-6.50272E-01-5.29985E-03-8.23778E-02 3.15270E-15 5.60102E-14
 -1      3301 2.11077E+01-8.18564E-01 6.34279E-03-3.79291E-01 3.18352E-14 4.48453E-16
 -1      3302 2.11757E+01-8.75316E-01-4.51614E-03-4.99679E-01 3.00761E-14 1.02929E-14
 -1      3303 2.12387E+01-8.75228E-01-4.87414E-03-2.32197E-01 2.70971E-14 1.32912E-14
 -1      3304 2.13347E+01-8.94364E-01 4.64253E-03-6.50939E-01 3.83537E-17 2.88812E-14
 -1      3305 2.13904E+01-8.77043E-01-4.77232E-03-7.97368E-01-4.05312E-14 4.36405E-14
 -1      3306 2.15369E+01-1.00606E+00-2.86287E-03-4.77962E-01 1.92756E-14 2.24424E-14
 -1      3307 2.15260E+01-8.06435E-01 7.83633E-04-9.81560E-01-7.52028E-14 4.92144E-14
 -1      3308 2.15498E+01-6.77753E-01-2.87306E-03-1.12854E+00-8.07202E-14 5.69956E-14
 -1      3309 2.18328E+01-9.72011E-01 1.13534E-03-8.12119E-01-4.19035E-14 6.60604E-14
 -1      3310 2.16173E+01-4.85813E-01-5.15854E-03-1.30689E+00-1.09476E-13-9.72841E-15
 -1      3311 2.15949E+01-2.22461E-01 1.74579E-03-1.40900E+00-1.24494E-13-5.12375E-14
 -1      3312 2.20542E+01-6.87419E-01 6.63822E-03-1.18819E+00-1.30322E-13-6.23199E-15
 -1      3313 2.15583E+01 9.49467E-02-1.24360E-02-1.51419E+00-8.92181E-14-7.20267E-14
 -1      3314 2.14909E+01 4.75610E-01 7.97572E-03-1.51421E+00-8.53657E-14 2.98313E-15
 -1      3315 2.21222E+01-9.96196E-02 1.03395E-02-1.50077E+00-1.14606E-13-4.83814E-14
 -1      3316 2.13537E+01 8.71788E-01-1.59796E-02-1.46252E+00-8.46205E-14 6.88234E-14
 -1      3317 2.12653E+01 1.28072E+00 1.24630E-02-1.31173E+00-7.73507E-14 9.75043E-14
 -1      3318 2.19945E+01 7.45900E-01 7.10221E-03-1.58678E+00-3.33785E-14 2.48243E-14
 -1      3319 2.10936E+01 1.64247E+00-1.27250E-02-1.05814E+00-5.20004E-14 1.07565E-13
 -1      3320 2.10239E+01 1.94358E+00 1.17954E-02-7.56191E-01-5.06992E-14 1.56676E-13
 -1      3321 2.17337E+01 1.66611E+00 2.82475E-03-1.29946E+00-4.53030E-14 8.41195E-14
 -1      3322 2.09240E+01 2.12356E+00-3.43387E-03-3.34936E-01-6.73120E-14 1.59472E-13
 -1      3323 2.09078E+01 2.19453E+00 2.56768E-03 4.14343E-02-5.27048E-14 2.26727E-13
 -1      3324 2.14918E+01 2.33886E+00-1.37117E-03-6.08742E-01-1.46823E-14 1.23763E-13
 -1      3325 2.09370E+01 2.12834E+00 5.99632E-03 5.05516E-01-8.67314E-14 2.28282E-13
 -1      3326 2.09837E+01 1.92760E+00-1.01006E-02 8.53120E-01-9.77408E-14 1.89243E-13
 -1      3327 2.14262E+01 2.46050E+00-5.98791E-04 2.93859E-01-7.58039E-14 2.18221E-13
 -1      3328 2.11285E+01 1.64283E+00 1.43383E-02 1.19591E+00-4.66492E-14 2.20856E-13
 -1      3329 2.12072E+01 1.27195E+00-1.41872E-02 1.42168E+00-1.05369E-14 2.51486E-13
 -1      3330 2.15855E+01 2.03701E+00 1.25640E-03 1.11887E+00-4.74449E-14 3.47836E-13
 -1      3331 2.13588E+01 8.84864E-01 1.11425E-02 1.56628E+00-6.25761E-14 2.21743E-13
 -1      3332 2.14334E+01 4.86301E-01-1.36604E-02 1.63640E+00-4.54897E-14 1.77548E-13
 -1      3333 2.18408E+01 1.21754E+00 8.60163E-03 1.59977E+00-5.08163E-14 2.62614E-13
 -1      3334 2.15056E+01 1.31042E-01 4.27720E-03 1.60032E+00-2.47456E-14 1.25821E-13
 -1      3335 2.15434E+01-1.84305E-01-8.25858E-03 1.54470E+00-4.25094E-15 1.69483E-13
 -1      3336 2.20146E+01 3.24746E-01 1.05411E-02 1.67754E+00-2.77795E-14 1.74453E-13
 -1      3337 2.15052E+01-4.30506E-01-1.81464E-03 1.39826E+00-8.85023E-15 1.51729E-13
 -1      3338 2.14935E+01-6.16439E-01-2.01339E-03 1.27319E+00 5.91358E-14 1.22928E-13
 -1      3339 2.20080E+01-3.81971E-01 7.96046E-03 1.46170E+00-3.00654E-14 1.40951E-13
 -1      3340 2.13679E+01-7.39252E-01-4.68354E-03 1.09335E+00 5.73852E-14 1.33350E-13
 -1      3341 2.13146E+01-8.06329E-01 2.80785E-03 9.49476E-01 6.42344E-15 1.04193E-13
 -1      3342 2.18192E+01-7.95546E-01 3.41798E-03 1.11389E+00 2.01129E-14 1.42077E-13
 -1      3343 2.11454E+01-8.31078E-01-4.91902E-03 7.86330E-01-4.45483E-14-1.11420E-14
 -1      3344 2.10682E+01-8.15802E-01 5.18414E-03 6.55149E-01-1.00280E-13-4.33784E-14
 -1      3345 2.15162E+01-9.42396E-01-8.76103E-04 7.64613E-01-8.93200E-14 9.64760E-14
 -1      3346 2.08948E+01-7.79537E-01-3.85463E-03 5.29508E-01-1.29503E-13-3.53833E-14
 -1      3347 2.08119E+01-7.20340E-01 5.64183E-03 4.24520E-01-1.10978E-13-2.07350E-14
 -1      3348 2.11781E+01-9.05596E-01-3.63616E-03 4.80926E-01-1.67734E-13 4.90547E-14
 -1      3349 2.06589E+01-6.55926E-01-2.49071E-03 3.37701E-01-2.65093E-14-6.78113E-14
 -1      3350 2.05829E+01-5.81746E-01 5.02935E-03 2.60430E-01 5.67496E-14 5.83853E-14
 -1      3351 2.08630E+01-7.72161E-01-4.64749E-03 2.79309E-01-6.16149E-14 1.31296E-13
 -1      3352 2.04604E+01-5.11414E-01-1.37386E-03 2.05064E-01 9.26231E-14 7.35103E-14
 -1      3353 2.03977E+01-4.39694E-01 3.99476E-03 1.51502E-01 9.49507E-14 1.50069E-13
 -1      3354 2.06007E+01-6.07254E-01-4.53005E-03 1.49071E-01 1.17788E-13 4.43673E-14
 -1      3355 2.03065E+01-3.75842E-01-6.26021E-04 1.18509E-01-1.74750E-14 1.29626E-13
 -1      3356 2.02587E+01-3.14992E-01 2.93919E-03 8.30365E-02-5.48430E-16 1.91941E-13
 -1      3357 2.03990E+01-4.49221E-01-3.84554E-03 7.13555E-02 5.03590E-14 1.01190E-13
 -1      3358 2.01945E+01-2.62835E-01-1.97704E-04 6.45555E-02 3.02408E-14 1.75976E-13
 -1      3359 2.01604E+01-2.15330E-01 2.04665E-03 4.19193E-02-8.96462E-15 1.67450E-13
 -1      3360 2.02533E+01-3.16024E-01-2.97119E-03 2.82736E-02 1.71167E-14 1.62753E-13
 -1      3361 2.01173E+01-1.75676E-01 8.24724E-06 3.22379E-02-9.67790E-14 1.76701E-13
 -1      3362 2.00943E+01-1.40775E-01 1.36266E-03 1.82888E-02-4.39840E-14 7.15497E-14
 -1      3363 2.01534E+01-2.12599E-01-2.14831E-03 6.18065E-03-3.17399E-14 1.15638E-13
 -1      3364 2.00667E+01-1.12257E-01 8.49379E-05 1.36626E-02 1.84917E-15 1.04036E-13
 -1      3365 2.00519E+01-8.78597E-02 8.70635E-04 5.38293E-03 1.27921E-13 2.84800E-14
 -1      3366 2.00878E+01-1.36914E-01-1.47077E-03-4.00122E-03-1.04465E-14 2.81677E-13
 -1      3367 2.00351E+01-6.82975E-02 9.60460E-05 3.50600E-03 1.81708E-13-3.82411E-14
 -1      3368 2.00261E+01-5.19802E-02 5.33896E-04-1.18305E-03 7.67350E-14-8.97768E-14
 -1      3369 2.00468E+01-8.41488E-02-9.59619E-04-7.85461E-03 1.14627E-13 9.34071E-14
 -1      3370 2.00163E+01-3.91350E-02 8.04559E-05-1.65297E-03 1.17623E-13-1.34687E-14
 -1      3371 2.00112E+01-2.86806E-02 3.12882E-04-4.13102E-03 1.67317E-13 1.23102E-13
 -1      3372 2.00224E+01-4.89160E-02-5.97784E-04-8.59210E-03 2.13153E-13-1.37211E-13
 -1      3373 2.00058E+01-2.06109E-02 5.85397E-05-3.93739E-03 1.71102E-13 1.39051E-13
 -1      3374 2.00031E+01-1.42135E-02 1.73235E-04-5.09519E-03 1.36067E-13 8.58345E-14
 -1      3375 2.00086E+01-2.63547E-02-3.54524E-04-7.94870E-03 1.73488E-13 1.50306E-13
 -1      3376 2.00005E+01-9.38881E-03 3.90838E-05-4.63137E-03 1.19460E-13 4.94930E-14
 -1      3377 1.99992E+01-5.68259E-03 8.83289E-05-5.03143E-03-3.66236E-14 1.51573E-13
 -1      3378 2.00014E+01-1.25404E-02-1.98335E-04-6.80430E-03 1.19799E-13 1.18936E-13
 -1      3379 1.99981E+01-2.97261E-03 2.46762E-05-4.49540E-03-1.96530E-13 2.39753E-13
 -1      3380 1.99977E+01-9.79800E-04 3.89092E-05-4.48546E-03-1.80199E-13 2.21359E-13
 -1      3381 1.99981E+01-4.52259E-03-1.02522E-04-5.57458E-03-2.41224E-14 9.15041E-14
 -1      3382 1.99974E+01 4.09343E-04 1.51198E-05-3.97036E-03-2.60831E-13 2.26670E-13
 -1      3383 1.99973E+01 1.35827E-03 1.17088E-05-3.76009E-03-9.73805E-14 1.78242E-13
 -1      3384 1.99969E+01-1.95885E-04-4.66100E-05-4.43698E-03-3.04497E-13 4.45941E-13
 -1      3385 1.99974E+01 1.96078E-03 9.27221E-06-3.30478E-03 1.78555E-13 7.30639E-14
 -1      3386 1.99975E+01 2.30628E-03-2.07260E-06-3.01656E-03 2.15354E-13 1.73988E-13
 -1      3387 1.99968E+01 1.87877E-03-1.59201E-05-3.45369E-03-1.93391E-14 4.21704E-13
 -1      3388 1.99978E+01 2.46754E-03 5.91526E-06-2.63280E-03 1.69097E-13 1.01055E-13
 -1      3389 1.99980E+01 2.48822E-03-8.09265E-06-2.33460E-03 3.01801E-13 2.38010E-13
 -1      3390 1.99972E+01 2.64781E-03-4.75375E-07-2.63472E-03 2.01444E-13 2.47582E-13
 -1      3391 1.99983E+01 2.42262E-03 4.06567E-06-2.02134E-03 3.48105E-13 2.08290E-13
 -1      3392 1.99984E+01 2.28737E-03-9.86814E-06-1.74794E-03 2.78524E-13 3.56288E-13
 -1      3393 1.99978E+01 2.71047E-03 6.20418E-06-1.96868E-03 2.77589E-13 2.31290E-13
 -1      3394 1.99987E+01 2.12206E-03 3.05060E-06-1.49850E-03 1.78935E-13 4.54161E-13
 -1      3395 1.99989E+01 1.92824E-03-9.49401E-06-1.26496E-03 1.62721E-13 4.19922E-13
 -1      3396 1.99983E+01 2.43097E-03 8.15598E-06-1.43693E-03 3.18006E-13 3.49529E-13
 -1      3397 1.99991E+01 1.73402E-03 2.51953E-06-1.07053E-03 3.17916E-14 5.33315E-13
 -1      3398 1.99992E+01 1.53401E-03-8.14197E-06-8.80933E-04 1.94441E-13 5.11065E-13
 -1      3399 1.99988E+01 2.01962E-03 7.70990E-06-1.01920E-03 2.53913E-13 3.98361E-13
 -1      3400 1.99993E+01 1.34495E-03 1.89558E-06-7.32339E-04 3.27300E-13 3.18169E-13
 -1      3401 1.99994E+01 1.16171E-03-7.72009E-06-5.87288E-04 2.22858E-13 4.30333E-13
 -1      3402 1.99991E+01 1.59067E-03 7.54823E-06-6.95461E-04 1.97903E-13 3.32870E-13
 -1      3403 1.96011E+01 4.35119E-01-2.84372E-03 3.46259E-02 2.83889E-14 1.47385E-13
 -1      3404 1.94761E+01 5.33697E-01-6.31691E-03 3.90148E-02 8.32413E-14 2.88477E-13
 -1      3405 1.93898E+01 5.91575E-01 9.09435E-03-1.21257E-01 1.25716E-13 1.89534E-13
 -1      3406 1.99995E+01 1.02348E-03 1.55385E-06-9.95760E-05-8.78091E-14-9.88955E-14
 -1      3407 1.99994E+01 1.03714E-03-2.83188E-06-1.73283E-05-4.77456E-14 6.94006E-14
 -1      3408 1.99995E+01 1.00428E-03-4.94401E-06 2.55761E-04 2.92702E-13 5.01365E-13
 -1      3409 1.99996E+01 9.70449E-04 7.59355E-07 3.16234E-04 3.43926E-13 3.99326E-13
 -1      3410 1.99995E+01 1.04766E-03-3.33174E-06 8.72612E-05-4.10630E-15 3.61230E-13
 -1      3411 1.99995E+01 1.04109E-03-5.72808E-07 1.65015E-04 8.85806E-14 3.56587E-13
 -1      3412 1.99995E+01 1.20110E-03 6.92727E-06 2.39401E-04 1.07465E-13 3.45289E-13
 -1      3413 1.99994E+01 1.21662E-03 6.46050E-06 2.85355E-05-2.14694E-13 2.16186E-13
 -1      3414 1.88684E+01 9.52313E-01-4.49332E-03-1.05886E-01-1.25341E-13 4.33022E-13
 -1      3415 1.85133E+01 1.13174E+00-1.84412E-02-1.58386E-01-4.05329E-14 1.95640E-13
 -1      3416 1.90049E+01 8.44296E-01 1.37214E-02-2.85211E-01-1.40051E-13 3.00918E-13
 -1      3417 1.88720E+01 1.03644E+00-1.84759E-02 2.03068E-01 7.04549E-14 9.39471E-14
 -1      3418 1.92117E+01 9.45703E-01 3.13312E-04 1.36286E-01 7.87753E-14 8.30819E-14
 -1      3419 1.97715E+01 2.82961E-01-2.06957E-03 4.37219E-02-1.12283E-13 5.65775E-14
 -1      3420 1.96994E+01 3.51219E-01-3.45211E-03 5.35951E-02-1.32083E-13 1.33222E-13
 -1      3421 1.96346E+01 4.00472E-01 5.84765E-03-3.99365E-02-1.04932E-14 1.73982E-13
 -1      3422 1.98727E+01 1.80673E-01-1.43311E-03 4.04510E-02-4.26542E-14 1.31817E-13
 -1      3423 1.98321E+01 2.26416E-01-1.82133E-03 5.06511E-02-4.88884E-14 8.68342E-14
 -1      3424 1.97864E+01 2.64205E-01 3.65981E-03-2.65434E-03-6.88733E-14 1.05535E-13
 -1      3425 1.99315E+01 1.13664E-01-9.55177E-04 3.31879E-02 2.47470E-14 6.26960E-14
 -1      3426 1.99093E+01 1.43564E-01-9.20778E-04 4.18017E-02 6.73271E-15 1.34313E-13
 -1      3427 1.98783E+01 1.70831E-01 2.23660E-03 1.22130E-02-3.16057E-14 8.11164E-14
 -1      3428 1.99649E+01 7.06576E-02-6.17482E-04 2.56182E-02 5.69287E-14 9.06154E-14
 -1      3429 1.99531E+01 8.98153E-02-4.38665E-04 3.22433E-02 6.94712E-14 1.63520E-13
 -1      3430 1.99328E+01 1.08709E-01 1.33621E-03 1.63469E-02-1.71279E-14 3.37939E-13
 -1      3431 1.99833E+01 4.35213E-02-3.90883E-04 1.91067E-02 1.34990E-13 1.25132E-13
 -1      3432 1.99773E+01 5.55958E-02-1.88933E-04 2.39456E-02 8.34416E-14 1.33680E-13
 -1      3433 1.99643E+01 6.83232E-02 7.79246E-04 1.57828E-02 3.20996E-14 3.60039E-13
 -1      3434 1.99930E+01 2.66648E-02-2.39462E-04 1.39731E-02 1.13980E-13 4.73531E-14
 -1      3435 1.99902E+01 3.41663E-02-5.95511E-05 1.73973E-02 1.37420E-13 5.70556E-14
 -1      3436 1.99820E+01 4.25445E-02 4.38504E-04 1.34899E-02 1.17423E-13 3.27536E-13
 -1      3437 1.99977E+01 1.67009E-02-1.46988E-04 1.02604E-02 9.20776E-14 8.35565E-14
 -1      3438 1.99966E+01 2.11676E-02-2.66323E-06 1.25671E-02 1.65185E-13 4.59944E-14
 -1      3439 1.99915E+01 2.66687E-02 2.44569E-04 1.08998E-02 1.38301E-13 1.66671E-13
 -1      3440 2.00000E+01 1.02246E-02-8.93886E-05 7.34480E-03 2.07241E-13 3.25332E-14
 -1      3441 1.99997E+01 1.31066E-02 1.73463E-05 9.02417E-03 1.26857E-13 1.64460E-13
 -1      3442 1.99965E+01 1.67202E-02 1.31755E-04 8.49682E-03 1.52915E-13 1.87604E-13
 -1      3443 2.00009E+01 6.31341E-03-5.26857E-05 5.22538E-03 2.72104E-14 3.58179E-14
 -1      3444 2.00010E+01 8.05480E-03 2.30149E-05 6.38544E-03 6.43905E-14-4.90462E-14
 -1      3445 1.99991E+01 1.03979E-02 6.74842E-05 6.41568E-03 1.44493E-13 1.27818E-13
 -1      3446 2.00012E+01 3.95228E-03-3.09133E-05 3.68908E-03 3.57660E-14 9.00587E-14
 -1      3447 2.00014E+01 5.00665E-03 2.31583E-05 4.49195E-03 5.71890E-14 4.68464E-14
 -1      3448 2.00002E+01 6.52491E-03 3.12812E-05 4.75142E-03-4.26201E-14 1.66612E-14
 -1      3449 2.00011E+01 2.52159E-03-1.81147E-05 2.57745E-03 1.47799E-13 9.37975E-14
 -1      3450 2.00013E+01 3.16378E-03 2.02495E-05 3.13615E-03 1.60838E-13 2.01010E-13
 -1      3451 2.00006E+01 4.15522E-03 1.22832E-05 3.45790E-03 7.76403E-14 1.66971E-13
 -1      3452 2.00008E+01 1.64472E-03-1.06914E-05 1.77340E-03 2.86822E-14-7.31436E-14
 -1      3453 2.00011E+01 2.04135E-03 1.64914E-05 2.16457E-03 1.27143E-13-2.03313E-14
 -1      3454 2.00007E+01 2.69646E-03 2.96266E-06 2.47162E-03 2.60919E-13 2.26480E-13
 -1      3455 2.00006E+01 1.09597E-03-6.41584E-06 1.19265E-03 1.99469E-13-7.82074E-14
 -1      3456 2.00008E+01 1.34670E-03 1.28971E-05 1.46771E-03 1.17360E-13-1.01638E-13
 -1      3457 2.00006E+01 1.78575E-03-1.17975E-06 1.73006E-03 1.43491E-13-4.16958E-14
 -1      3458 2.00004E+01 7.42013E-04-3.79573E-06 7.75076E-04 2.85055E-13-1.08918E-13
 -1      3459 2.00006E+01 9.05727E-04 9.79665E-06 9.68505E-04 2.73875E-13-1.18429E-13
 -1      3460 2.00004E+01 1.20433E-03-2.58194E-06 1.17957E-03 2.81076E-13-2.33556E-13
 -1      3461 2.00002E+01 5.06338E-04-4.58432E-07 4.79215E-04 1.98005E-14-1.44486E-13
 -1      3462 2.00004E+01 6.14204E-04 7.13173E-06 6.12282E-04 2.10016E-13-5.93080E-14
 -1      3463 2.00003E+01 8.20902E-04-3.06918E-06 7.76450E-04 2.39770E-13-3.83459E-13
 -1      3464 2.00001E+01 3.87163E-04 1.40966E-06 3.17207E-04-5.97913E-14-1.66672E-13
 -1      3465 2.00002E+01 4.52887E-04 4.72339E-06 3.99337E-04-4.38522E-14-6.90626E-14
 -1      3466 2.00002E+01 5.93118E-04-5.55017E-06 5.22701E-04-1.18630E-14-2.59583E-13
 -1      3467 2.00001E+01 4.61008E-04-5.54293E-06 3.69601E-04 8.62647E-14-1.03802E-13
 -1      3468 1.26156E+01 1.55517E+00 3.74047E-02 3.47206E+00 8.72635E-14 1.51865E-13
 -1      3469 2.55878E+01-3.41381E+00 7.69183E-02-2.75343E+00 3.19204E-13-2.17066E-14
 -1      3470 2.65820E+01-3.04734E+00-8.84140E-02-1.22149E+00 2.34832E-13-1.95777E-13
 -1      3471 2.60384E+01-2.41505E+00-1.20640E-02-4.62747E-01 1.57437E-13-8.20403E-14
 -1      3472 1.43744E+01 1.14785E+00 3.93935E-02-3.98727E+00-3.54786E-14 1.52572E-13
 -1      3473 1.58409E+01 7.80497E-02 3.83632E-03-4.88483E+00 1.99424E-14 1.87603E-13
 -1      3474 2.51983E+01 5.50956E+00-6.24563E-02-3.91628E-01-1.78996E-13-1.21609E-13
 -1      3475 2.56689E+01 5.23333E+00-5.63185E-02-1.25552E+00-2.11130E-13-4.38850E-14
 -1      3476 1.99997E+01 8.94632E-04-4.79619E-06 3.78607E-04 4.70539E-13 3.79035E-13
 -1      3477 1.99998E+01 8.34588E-04 1.17469E-06 4.07827E-04 6.18223E-13 8.66125E-14
 -1      3478 1.99996E+01 1.09971E-03 4.71887E-06 4.03443E-04 5.52473E-13 2.84517E-13
 -1      3479 1.81835E+01-1.78472E+00 7.76821E-02-6.10484E+00 1.28758E-13 1.41213E-13
 -1      3480 2.08331E+01-2.93200E+00-4.99301E-02 5.37871E+00 5.85226E-14 3.78170E-15
 -1      3481 1.84523E+01-1.64120E+00 5.69497E-02 5.54559E+00 9.42371E-14 4.72782E-14
 -1      3482 1.85635E+01-1.05947E+00 5.50928E-02 4.74128E+00 1.13055E-13 5.01040E-14
 -1      3483 2.01915E+01 1.01659E+00 1.52998E-03 3.95389E-01 1.45351E-13 1.81373E-13
 -1      3484 2.71689E+01 8.15903E-01-9.16004E-02-1.92510E+00-2.09017E-13 7.54327E-14
 -1      3485 2.78948E+01-9.33359E-01 2.92502E-02-1.09728E+00-1.16854E-13 8.02101E-14
 -1      3486 1.28972E+01 2.75732E+00 8.73114E-03-1.00366E+00-2.13238E-13 2.86701E-13
 -1      3487 2.60629E+01 4.28229E+00-7.35459E-02-1.80345E+00-3.04083E-13 2.19035E-14
 -1      3488 2.66478E+01 2.78380E+00 4.71795E-03-2.24920E+00-3.15713E-13 1.05853E-13
 -1      3489 2.49169E+01 3.85459E+00-3.62096E-02-1.49827E+00-1.75571E-13 1.39635E-13
 -1      3490 1.53726E+01 1.60379E+00-1.88017E-02 2.31550E+00 7.82837E-14 1.65423E-13
 -1      3491 1.64142E+01 1.59344E+00 1.50571E-02 1.72094E+00 1.02336E-13 1.55442E-13
 -1      3492 2.18392E+01-2.87917E+00 8.31398E-02-5.00243E+00 2.66131E-13 4.14790E-14
 -1      3493 2.37814E+01-3.68563E+00-9.07278E-02-4.13495E+00 2.56685E-13-9.19542E-14
 -1      3494 2.47594E+01-3.69465E+00-4.82334E-02 3.29822E+00 2.41794E-14-6.75675E-14
 -1      3495 2.28808E+01-3.31315E+00 7.70656E-02 4.61299E+00 1.30018E-15-6.20641E-15
 -1      3496 2.03084E+01 1.29874E+00 2.57633E-03-5.55444E-01 1.13356E-13-1.37439E-13
 -1      3497 1.73194E+01-7.77047E-01 6.79252E-02-5.33468E+00 3.80321E-14 1.12153E-13
 -1      3498 1.92720E+01-2.07091E+00-5.16449E-02-5.52932E+00 1.80817E-13 1.20126E-13
 -1      3499 1.73553E+01-8.30766E-02 5.77590E-02-4.37299E+00 8.26873E-14 5.20833E-14
 -1      3500 2.02544E+01 1.53422E+00-2.11921E-03-9.64704E-02 1.64887E-13-9.69366E-14
 -1      3501 2.02821E+01 1.46058E+00-2.86635E-03-1.98768E-01 1.64689E-13-1.11153E-13
 -1      3502 2.01325E+01 1.90138E+00 4.03002E-03 4.57809E-03 1.81250E-13-6.16433E-14
 -1      3503 1.39517E+01 2.37315E+00 6.59461E-02-1.87550E+00-1.63247E-13 2.11135E-13
 -1      3504 2.58732E+01-8.36577E-01-2.83163E-02 1.16439E+00 9.77113E-14-6.34198E-14
 -1      3505 2.66420E+01 6.11696E-02-1.69621E-02 1.69225E+00 1.39165E-13-1.62211E-13
 -1      3506 2.58412E+01 1.09380E+00-1.37553E-02 2.00705E+00 1.52215E-13-1.03445E-13
 -1      3507 2.00999E+01 1.65714E+00-6.03047E-03 3.87719E-01 1.94890E-13 4.83899E-14
 -1      3508 2.01145E+01 1.69416E+00-5.50575E-04 3.21802E-01 1.88726E-13 3.70147E-14
 -1      3509 1.94130E+01 8.81808E-01 1.03100E-02 3.07156E-01 7.03481E-14 7.59580E-14
 -1      3510 1.94165E+01 8.71116E-01-1.22869E-02 5.64402E-02 5.66390E-14 8.93870E-14
 -1      3511 1.96370E+01 8.35323E-01 4.18902E-04 5.95041E-02 3.51362E-14 8.28551E-14
 -1      3512 2.69272E+01-1.72169E+00-2.40872E-02-4.63997E-01-5.35151E-14 7.69489E-14
 -1      3513 1.99995E+01 1.00197E-03 1.94650E-06-4.74442E-04-1.17423E-14 3.70411E-13
 -1      3514 1.99996E+01 8.48571E-04-3.74601E-06-3.64231E-04-1.91901E-14 2.70544E-13
 -1      3515 1.99996E+01 7.17614E-04 7.82655E-07-2.86865E-04 1.27313E-13 3.79709E-13
 -1      3516 1.99995E+01 9.25790E-04-3.32772E-06-2.29415E-04 4.54563E-14 2.15587E-13
 -1      3517 1.99994E+01 1.11150E-03-1.84808E-06-2.19763E-04-1.86826E-13 1.07093E-13
 -1      3518 1.80692E+01 1.28174E+00-2.76119E-02 5.42676E-01 9.48972E-14 1.09227E-13
 -1      3519 1.85796E+01 1.16365E+00 1.88530E-03 3.77925E-01 6.98902E-14 9.53934E-14
 -1      3520 1.89044E+01 9.93314E-01 1.36328E-02 6.00261E-01 5.43480E-14 1.02415E-13
 -1      3521 1.37439E+01 1.71425E+00 4.29429E-02 2.99885E+00 9.20288E-14 1.58276E-13
 -1      3522 1.99972E+01 9.13707E-01-5.68665E-03 1.40530E-01 8.97353E-14 1.62147E-13
 -1      3523 2.00733E+01 9.85014E-01 4.34813E-03 2.05660E-01 1.37506E-13 1.62896E-13
 -1      3524 1.53400E+01 1.08832E+00 6.14264E-02 3.42266E+00 8.69699E-14 1.63938E-13
 -1      3525 1.99994E+01 1.20386E-03 5.81493E-06-4.52992E-04 3.18644E-14 3.16472E-13
 -1      3526 1.99996E+01 8.67238E-04 2.73284E-06-2.74079E-04 4.45109E-14 2.23535E-13
 -1      3527 1.66419E+01 5.40220E-01-1.43023E-02 3.52030E+00 1.10838E-13 1.44948E-13
 -1      3528 2.00000E+01 6.12258E-04-4.18466E-06 4.17447E-04 2.67992E-13-2.79938E-13
 -1      3529 2.00000E+01 5.52533E-04 8.85615E-07 3.98142E-04 1.14548E-13-3.79886E-13
 -1      3530 2.00001E+01 6.24808E-04 4.33419E-06 4.67528E-04 2.45764E-14-2.41437E-13
 -1      3531 2.47726E+01 5.19005E+00-6.95768E-02 1.52812E-01-8.41480E-14-1.60076E-13
 -1      3532 2.40540E+01 4.60940E+00-1.35706E-02-3.17409E-01-4.35034E-14 2.92474E-15
 -1      3533 2.43348E+01 4.71729E+00-1.29820E-02 6.93594E-01-1.16226E-15-2.16655E-13
 -1      3534 2.44203E+01-3.11597E+00 2.41431E-02-2.83773E+00 1.44110E-13 7.82360E-15
 -1      3535 2.57859E+01 3.75803E+00-5.31107E-02 1.92043E+00 9.38034E-14-2.66931E-13
 -1      3536 2.47941E+01 3.91885E+00-3.51185E-02 1.59654E+00-1.13590E-14-3.82021E-13
 -1      3537 2.53289E+01 2.63393E+00-2.19925E-02 1.98487E+00 1.23861E-13-2.54747E-13
 -1      3538 2.60576E+01 1.23177E+00-4.62619E-02-1.92470E+00-1.69103E-13 1.07638E-13
 -1      3539 1.71203E+01 1.76351E+00-2.46015E-02-4.79921E-01 1.55031E-13 1.53905E-14
 -1      3540 1.64634E+01 2.03508E+00-2.39856E-02-4.70269E-01 4.91863E-14 1.90466E-13
 -1      3541 1.62684E+01 1.95881E+00 6.31803E-02-1.45827E+00 3.69971E-14 5.39950E-14
 -1      3542 1.72472E+01 1.12674E+00 1.29726E-02 2.08940E+00 8.61229E-14 1.48320E-13
 -1      3543 1.69115E+01 1.52312E+00-3.59201E-02 1.19304E+00 1.06225E-13 1.56706E-13
 -1      3544 1.76708E+01 1.42683E+00 6.51422E-03 8.68614E-01 1.09353E-13 1.21971E-13
 -1      3545 2.56464E+01-3.47092E+00 3.90373E-02 2.37355E+00 4.74039E-14-5.34503E-14
 -1      3546 2.42391E+01-3.19399E+00-1.21059E-02 2.77157E+00 4.00149E-14-3.80104E-14
 -1      3547 2.58498E+01-3.06996E+00-3.94353E-02 1.32307E+00 8.50492E-15-2.24638E-14
 -1      3548 2.20935E+01-2.71821E+00 4.72714E-02 4.26989E+00 3.89341E-14-4.53234E-14
 -1      3549 2.08104E+01-2.06025E+00 4.78690E-02-4.56626E+00 1.86564E-13 4.57768E-14
 -1      3550 2.01950E+01 1.45673E+00 5.69520E-03 2.90395E-01 1.75670E-13 2.51723E-14
 -1      3551 2.01344E+01 1.68224E+00-4.97693E-03 2.63116E-01 1.90972E-13 2.35770E-14
 -1      3552 2.01619E+01 1.67780E+00-8.10869E-04 1.75698E-01 1.78271E-13-1.37723E-14
 -1      3553 1.84230E+01 1.14795E+00 2.15900E-02-5.97213E-01-5.19983E-16 1.56159E-13
 -1      3554 1.81376E+01 1.31806E+00-1.21845E-02-3.36538E-01 7.89117E-14 1.44388E-13
 -1      3555 1.76895E+01 1.54257E+00-1.92683E-02-3.37872E-01 1.32141E-13 8.79472E-14
 -1      3556 1.99998E+01 7.52305E-04-4.58001E-06 4.21747E-04 5.38324E-13 4.45295E-14
 -1      3557 1.99999E+01 6.98463E-04-2.48274E-07 4.25343E-04 5.08210E-13-1.21989E-13
 -1      3558 1.99999E+01 7.88453E-04 9.86882E-07 4.96086E-04 3.65975E-13 1.09958E-13
 -1      3559 1.99998E+01 9.51425E-04 6.06090E-06 4.86008E-04 7.71007E-13 1.19095E-13
 -1      3560 1.97735E+01 8.23591E-01-8.55023E-03 4.82071E-02 5.63611E-14 1.25513E-13
 -1      3561 1.99191E+01 8.53008E-01 1.47225E-03 1.01647E-01 6.56550E-14 1.27451E-13
 -1      3562 1.97625E+01 8.55523E-01 7.34517E-03 1.92479E-01 6.47197E-14 1.08801E-13
 -1      3563 2.03582E+01 1.04804E+00 1.88702E-04-4.84418E-01 8.82553E-14-1.10061E-13
 -1      3564 2.03780E+01 7.90516E-01-4.05017E-03-3.56654E-01 8.49164E-14-8.41409E-14
 -1      3565 2.03256E+01 1.25896E+00-2.60801E-04-4.43516E-01 1.38484E-13-1.05998E-13
 -1      3566 2.01470E+01 9.81975E-01 3.06570E-03 2.74961E-01 1.45860E-13 1.73151E-13
 -1      3567 2.00997E+01 1.54330E+00-7.76639E-03 4.58620E-01 1.60939E-13 1.06693E-13
 -1      3568 2.00965E+01 1.62850E+00-1.17880E-03 4.18057E-01 1.74681E-13 6.86855E-14
 -1      3569 2.01492E+01 1.43380E+00 6.74814E-03 3.63440E-01 1.57996E-13 4.56663E-14
 -1      3570 2.04327E+01 7.67715E-01 1.87816E-04-2.78204E-01 9.81416E-14-6.48141E-14
 -1      3571 1.99841E+01 9.43966E-01 3.47946E-03 2.03625E-01 1.06033E-13 1.84604E-13
 -1      3572 2.01404E+01 1.29886E+00 7.87630E-03 3.70050E-01 1.63107E-13 1.48600E-13
 -1      3573 2.01912E+01 1.63632E+00-3.77732E-03 9.57507E-02 1.69793E-13-3.06852E-14
 -1      3574 2.02234E+01 1.59614E+00-1.70870E-03-4.67718E-03 1.64193E-13-6.80095E-14
 -1      3575 2.03281E+01 1.30506E+00 3.05677E-03 8.84091E-04 1.45237E-13-7.70376E-14
 -1      3576 2.02586E+01 1.40629E+00 3.46579E-03 1.61934E-01 1.61531E-13-1.44369E-14
 -1      3577 2.01194E+01 1.22418E+00-5.99689E-03 3.55239E-01 1.39942E-13 5.26798E-14
 -1      3578 2.01532E+01 1.26014E+00 3.33276E-04 3.41241E-01 1.53391E-13 1.71849E-14
 -1      3579 2.04174E+01 9.70461E-01 3.73129E-03-2.68430E-01 1.13260E-13-1.06507E-13
 -1      3580 2.04671E+01 7.07771E-01-2.39463E-03-1.74631E-01 1.09433E-13-1.06339E-13
 -1      3581 1.79357E+01-1.83188E-01 4.23946E-02 3.90674E+00 1.21617E-13 8.47204E-14
 -1      3582 1.78744E+01 3.37524E-01 3.53001E-02 3.09093E+00 1.02884E-13 9.37558E-14
 -1      3583 1.94858E+01 4.60332E-01 5.09578E-04-2.08174E-01 9.84745E-14 1.93275E-13
 -1      3584 1.93182E+01 5.43214E-01-1.00638E-02-2.75839E-01 7.27908E-14 1.68297E-13
 -1      3585 2.06709E+01 7.23174E-02 4.31146E-03 1.21640E-02 7.32797E-14-6.02272E-14
 -1      3586 2.07287E+01-1.11340E-01-1.00916E-03 4.43652E-02 5.13851E-14-2.71467E-14
 -1      3587 2.08327E+01-2.80813E-01 5.66946E-03 6.84083E-02 2.48800E-14-1.58827E-14
 -1      3588 2.09125E+01-4.46818E-01-1.06030E-03 6.59570E-02 1.80458E-14-1.55295E-14
 -1      3589 2.08207E+01-1.85172E-01-4.61628E-03 1.30165E-01 5.14157E-14-6.85875E-14
 -1      3590 2.10550E+01-5.99660E-01 7.26766E-03 5.69708E-02 1.63520E-14 1.76775E-14
 -1      3591 2.11614E+01-7.50325E-01-1.92152E-03 1.53914E-02 1.24477E-14 1.36551E-14
 -1      3592 2.10468E+01-5.46992E-01-6.75565E-03 1.63589E-01 2.52704E-14-6.73859E-15
 -1      3593 2.13526E+01-8.83032E-01 8.63220E-03-3.80468E-02 2.64607E-14 2.70643E-14
 -1      3594 2.14824E+01-1.00704E+00-3.78477E-03-1.25510E-01 4.98368E-14 4.59651E-14
 -1      3595 2.13584E+01-8.79791E-01-8.20746E-03 1.23738E-01 2.16863E-14 1.92394E-14
 -1      3596 2.17204E+01-1.09939E+00 9.07802E-03-2.38345E-01 4.80729E-14 3.06305E-14
 -1      3597 2.18588E+01-1.16632E+00-6.14533E-03-3.75867E-01 1.16436E-14 4.26031E-14
 -1      3598 2.17664E+01-1.15990E+00-8.14471E-03-1.85460E-02 1.68235E-14 2.32066E-14
 -1      3599 2.21207E+01-1.17878E+00 7.28176E-03-5.58898E-01-1.84412E-14 4.67515E-14
 -1      3600 2.22408E+01-1.13683E+00-7.59183E-03-7.39217E-01-5.43144E-14 2.04386E-14
 -1      3601 2.22516E+01-1.32045E+00-5.63526E-03-2.94948E-01-1.31108E-14 1.68657E-14
 -1      3602 2.24744E+01-1.01291E+00 1.58731E-03-9.82419E-01-9.26516E-14 4.33865E-14
 -1      3603 2.25460E+01-7.96416E-01-3.89949E-03-1.17375E+00-1.21461E-13 3.43837E-14
 -1      3604 2.27487E+01-1.24384E+00 2.17955E-04-7.15972E-01-6.35236E-14 1.98752E-14
 -1      3605 2.26692E+01-4.87709E-01-9.13256E-03-1.41238E+00-1.06380E-13 1.01734E-13
 -1      3606 2.26733E+01-6.89447E-02 2.65203E-03-1.54401E+00-1.02080E-13 1.33197E-13
 -1      3607 2.31324E+01-7.71954E-01 1.03012E-02-1.22577E+00-9.09627E-14 1.59898E-13
 -1      3608 2.26305E+01 4.43369E-01-1.86895E-02-1.69160E+00-3.69435E-14 1.69847E-13
 -1      3609 2.25478E+01 1.02403E+00 8.75610E-03-1.66034E+00-1.30321E-14 1.69367E-13
 -1      3610 2.32800E+01 9.83405E-02 4.46637E-03-1.64778E+00-3.08206E-14 3.12948E-13
 -1      3611 2.23840E+01 1.59813E+00-2.39965E-02-1.55413E+00-4.24291E-14 9.93277E-14
 -1      3612 2.22580E+01 2.16478E+00 7.01259E-03-1.32385E+00-2.91754E-14 1.81848E-13
 -1      3613 2.31314E+01 1.44361E+00 3.51854E-03-1.73660E+00-5.56222E-14 2.81572E-13
 -1      3614 2.20893E+01 2.62449E+00-1.23561E-02-9.04135E-01-5.40502E-16 1.20101E-13
 -1      3615 2.20092E+01 2.91644E+00 1.32450E-02-4.83847E-01-3.28874E-14 1.36925E-13
 -1      3616 2.28015E+01 2.68823E+00 2.80498E-03-1.23003E+00-3.59350E-14 1.56233E-13
 -1      3617 2.24552E+01 3.41044E+00-8.04076E-03 1.05606E-03 2.49822E-14 9.68435E-14
 -1      3618 2.24682E+01 3.32597E+00-1.43763E-02 4.94171E-01 3.55026E-14 1.52282E-13
 -1      3619 2.23905E+01 1.59109E+00 1.55935E-02 1.63805E+00-5.46893E-14 2.78738E-13
 -1      3620 2.24648E+01 1.00303E+00-2.55464E-02 1.76014E+00-6.63042E-14 1.94918E-13
 -1      3621 2.25613E+01 4.61778E-01 5.46568E-03 1.73096E+00-5.82115E-14 1.84738E-13
 -1      3622 2.25943E+01-3.49599E-02-1.16360E-02 1.66707E+00-3.54187E-15 1.68240E-13
 -1      3623 2.31556E+01 7.98912E-01 1.57904E-02 1.84235E+00-5.46327E-14 1.27542E-13
 -1      3624 2.25081E+01-4.35172E-01-5.23771E-03 1.45542E+00-9.88597E-15 1.47004E-13
 -1      3625 2.24624E+01-7.32325E-01-1.95310E-03 1.29268E+00-4.10833E-14 8.74309E-14
 -1      3626 2.31215E+01-3.30534E-01 9.53807E-03 1.53462E+00-2.77598E-14 7.46087E-14
 -1      3627 2.22454E+01-9.38742E-01-8.29249E-03 1.04425E+00 2.34306E-14 8.16066E-14
 -1      3628 2.21299E+01-1.05122E+00 5.00230E-03 8.61011E-01 5.46763E-14 8.27924E-14
 -1      3629 2.27854E+01-9.98470E-01 1.36789E-03 1.03962E+00-1.20449E-14 4.23949E-14
 -1      3630 2.18530E+01-1.10004E+00-7.27937E-03 6.54454E-01-4.11466E-14 1.06312E-13
 -1      3631 2.17020E+01-1.08619E+00 8.10596E-03 4.99180E-01-1.32012E-13 1.02994E-13
 -1      3632 2.22827E+01-1.23281E+00-3.46387E-03 5.76726E-01 1.39712E-14 8.93077E-14
 -1      3633 2.14290E+01-1.04018E+00-4.78620E-03 3.57913E-01-1.18662E-13 9.60073E-14
 -1      3634 2.12737E+01-9.60364E-01 8.25898E-03 2.46284E-01-1.35646E-13 1.66600E-13
 -1      3635 2.17416E+01-1.18885E+00-7.14370E-03 2.41322E-01-1.19135E-13 1.62132E-13
 -1      3636 2.10413E+01-8.72805E-01-2.23418E-03 1.64921E-01-1.11880E-13 1.93587E-13
 -1      3637 2.09028E+01-7.72204E-01 6.92097E-03 9.30840E-02-2.82161E-14 2.01336E-13
 -1      3638 2.12533E+01-1.00380E+00-7.92908E-03 3.95367E-02-6.42810E-14 2.63616E-13
 -1      3639 2.07225E+01-6.76640E-01-4.88290E-04 5.38985E-02 2.33527E-14 2.01750E-13
 -1      3640 2.06102E+01-5.80349E-01 5.14893E-03 1.17988E-02 1.49424E-13 1.73497E-13
 -1      3641 2.08590E+01-7.79496E-01-7.27584E-03-5.97766E-02-9.62511E-15 2.98705E-13
 -1      3642 2.04795E+01-4.94291E-01 4.67468E-04-1.75195E-03 1.00001E-13 2.16386E-14
 -1      3643 2.03946E+01-4.13658E-01 3.54041E-03-2.42097E-02-1.74046E-14 4.52854E-14
 -1      3644 2.05637E+01-5.69111E-01-5.90896E-03-9.45440E-02-1.55594E-15 7.97346E-14
 -1      3645 2.03048E+01-3.44115E-01 8.52247E-04-2.44618E-02-6.53686E-14 1.62689E-13
 -1      3646 2.02443E+01-2.81961E-01 2.30590E-03-3.52412E-02 1.67073E-14 1.28031E-13
 -1      3647 2.03548E+01-3.95652E-01-4.40500E-03-9.46089E-02 2.01309E-14 6.62736E-14
 -1      3648 2.01852E+01-2.29519E-01 8.86812E-04-2.99617E-02 9.52036E-14 9.91170E-14
 -1      3649 2.01442E+01-1.84270E-01 1.43919E-03-3.43229E-02 1.11144E-13 2.39275E-13
 -1      3650 2.02138E+01-2.63750E-01-3.11378E-03-7.99522E-02 5.51081E-14 1.48251E-13
 -1      3651 2.01068E+01-1.46762E-01 7.63820E-04-2.76338E-02-1.42038E-14 2.98156E-13
 -1      3652 2.00803E+01-1.15324E-01 8.61554E-04-2.87760E-02 1.25550E-14 2.75736E-13
 -1      3653 2.01226E+01-1.68743E-01-2.09407E-03-6.15325E-02 1.07665E-13 2.65962E-13
 -1      3654 2.00576E+01-8.96587E-02 5.88056E-04-2.26194E-02 5.50871E-14 1.66649E-13
 -1      3655 2.00412E+01-6.86935E-02 4.94051E-04-2.23278E-02 1.16408E-13 1.15733E-13
 -1      3656 2.00658E+01-1.03328E-01-1.35069E-03-4.45796E-02 3.10863E-14 2.05872E-13
 -1      3657 2.00281E+01-5.18273E-02 4.18832E-04-1.73859E-02 1.79386E-13 1.05409E-13
 -1      3658 2.00185E+01-3.83856E-02 2.69406E-04-1.65764E-02 2.80981E-13 1.31667E-13
 -1      3659 2.00320E+01-6.00313E-02-8.37763E-04-3.09891E-02 8.94581E-14 2.89510E-13
 -1      3660 2.00113E+01-2.77419E-02 2.80834E-04-1.29048E-02 2.82404E-13 5.94297E-14
 -1      3661 2.00060E+01-1.94775E-02 1.36971E-04-1.20026E-02 1.60150E-13 1.05185E-13
 -1      3662 2.00128E+01-3.24449E-02-4.98397E-04-2.09387E-02 2.01002E-13 1.42013E-13
 -1      3663 2.00024E+01-1.30567E-02 1.78853E-04-9.40421E-03 1.20173E-13-1.56394E-14
 -1      3664 1.99997E+01-8.22253E-03 6.17641E-05-8.58073E-03 1.20503E-13 1.29804E-14
 -1      3665 2.00027E+01-1.55735E-02-2.82235E-04-1.38899E-02 1.54872E-13-6.19712E-15
 -1      3666 1.99982E+01-4.56082E-03 1.08567E-04-6.79821E-03 2.45140E-13 6.53609E-15
 -1      3667 1.99970E+01-1.91680E-03 2.09907E-05-6.10455E-03 1.42688E-14 1.92329E-13
 -1      3668 1.99979E+01-5.75237E-03-1.49631E-04-9.12304E-03 1.83623E-13-4.38475E-14
 -1      3669 1.99966E+01 9.98349E-06 6.27983E-05-4.90365E-03-2.48367E-13 3.10473E-13
 -1      3670 1.99963E+01 1.30984E-03 3.12124E-07-4.34026E-03-2.85926E-13 3.59877E-13
 -1      3671 1.99961E+01-4.09180E-04-7.15833E-05-5.97635E-03-1.74176E-14 2.78818E-14
 -1      3672 1.99964E+01 2.19129E-03 3.44740E-05-3.53710E-03-2.45563E-13 3.76311E-13
 -1      3673 1.99964E+01 2.70412E-03-9.01335E-06-3.08720E-03 4.32822E-14 3.31165E-13
 -1      3674 1.99958E+01 2.19673E-03-2.79107E-05-3.92732E-03-1.74082E-13 1.35970E-13
 -1      3675 1.99968E+01 2.98836E-03 1.78018E-05-2.54902E-03 1.76752E-13 2.67980E-13
 -1      3676 1.99970E+01 3.06852E-03-1.21811E-05-2.19273E-03 1.27599E-13 1.29712E-13
 -1      3677 1.99963E+01 3.20500E-03-5.10638E-06-2.59796E-03 1.61048E-14 4.04403E-14
 -1      3678 1.99974E+01 3.03629E-03 8.52136E-06-1.82868E-03 2.31851E-13 2.32685E-13
 -1      3679 1.99976E+01 2.90071E-03-1.22451E-05-1.54819E-03 3.66680E-13 1.63405E-13
 -1      3680 1.99969E+01 3.33756E-03 5.53342E-06-1.73040E-03 1.92169E-13 2.48724E-13
 -1      3681 1.99980E+01 2.72076E-03 3.66665E-06-1.29855E-03 3.07272E-13 3.50718E-13
 -1      3682 1.99982E+01 2.49636E-03-1.10298E-05-1.07928E-03 2.50699E-13 3.71549E-13
 -1      3683 1.99977E+01 3.03504E-03 9.34917E-06-1.15609E-03 3.25117E-13 3.08233E-13
 -1      3684 1.99985E+01 2.26682E-03 1.66708E-06-9.06124E-04 2.71902E-13 3.21864E-13
 -1      3685 1.99987E+01 2.02287E-03-9.10555E-06-7.34918E-04 2.43732E-13 3.47117E-13
 -1      3686 1.99983E+01 2.55500E-03 9.40929E-06-7.69234E-04 2.75988E-13 4.56794E-13
 -1      3687 1.99990E+01 1.79490E-03 1.04428E-06-6.14769E-04 1.73089E-13 2.55841E-13
 -1      3688 1.99991E+01 1.56667E-03-8.36227E-06-4.76379E-04 1.56566E-13 1.67418E-13
 -1      3689 1.99988E+01 2.03702E-03 6.13534E-06-5.06317E-04 2.12137E-13 3.23083E-13
 -1      3690 1.98090E+01 2.12340E-01-3.87257E-04-4.42956E-02-9.93671E-17 1.02572E-13
 -1      3691 1.97448E+01 2.58871E-01-3.75947E-03-6.03242E-02 8.45820E-15 1.81030E-13
 -1      3692 1.98878E+01 1.39256E-01-3.97080E-04-1.50535E-02-6.34468E-14 1.80372E-13
 -1      3693 1.98495E+01 1.71623E-01-2.21093E-03-2.17524E-02-6.26223E-14 1.58455E-13
 -1      3694 1.98357E+01 1.82505E-01 2.38533E-03-7.22370E-02-6.28383E-14 2.29258E-13
 -1      3695 1.96827E+01 3.17011E-01-1.68333E-04-1.01417E-01 5.31324E-15 2.01559E-13
 -1      3696 1.95777E+01 3.81091E-01-6.24048E-03-1.35517E-01 3.85830E-14 1.92013E-13
 -1      3697 1.95747E+01 3.77056E-01 5.08136E-03-2.69834E-01 5.31548E-14 1.95337E-13
 -1      3698 1.97322E+01 2.66663E-01 3.55995E-03-1.43687E-01 2.51198E-14 1.77898E-13
 -1      3699 1.99359E+01 8.98765E-02-3.29133E-04-1.01878E-03-8.82785E-14 3.53945E-13
 -1      3700 1.99135E+01 1.11688E-01-1.27004E-03-3.14180E-03-2.52544E-14 2.76649E-13
 -1      3701 1.99016E+01 1.21926E-01 1.54285E-03-3.29820E-02-1.06295E-13 4.20501E-13
 -1      3702 1.91881E+01 6.43718E-01 2.07870E-03-4.00463E-01-1.23354E-13 6.40431E-14
 -1      3703 1.89279E+01 7.40021E-01-1.57081E-02-5.28329E-01-1.88141E-13 2.87240E-14
 -1      3704 1.93432E+01 5.09320E-01 6.82598E-03-4.86287E-01-3.48221E-14 1.58571E-13
 -1      3705 1.99644E+01 5.73386E-02-2.48821E-04 4.97398E-03 9.90936E-14 3.86412E-13
 -1      3706 1.99517E+01 7.16893E-02-7.10369E-04 4.93794E-03-1.40680E-14 2.94885E-13
 -1      3707 1.99425E+01 8.00399E-02 9.69130E-04-1.22413E-02-1.34935E-14 2.95538E-13
 -1      3708 1.99810E+01 3.63275E-02-1.80986E-04 6.90026E-03 2.16617E-13 2.50938E-13
 -1      3709 1.99740E+01 4.56033E-02-3.76415E-04 7.69026E-03 2.41084E-13 4.10782E-13
 -1      3710 1.99672E+01 5.18994E-02 5.87960E-04-1.90285E-03 1.68455E-13 2.31583E-13
 -1      3711 1.99900E+01 2.34842E-02-1.25665E-04 6.90800E-03 1.19621E-13 1.70235E-13
 -1      3712 1.99864E+01 2.91841E-02-1.93462E-04 7.88916E-03 1.69842E-13 2.37681E-13
 -1      3713 1.99816E+01 3.38290E-02 3.65380E-04 2.70623E-03 1.80687E-13 2.10878E-13
 -1      3714 1.99952E+01 1.48734E-02-8.12001E-05 6.09295E-03 1.32983E-13 2.48665E-13
 -1      3715 1.99933E+01 1.86864E-02-9.51610E-05 7.08410E-03 4.64531E-14 2.12696E-13
 -1      3716 1.99900E+01 2.19896E-02 2.07115E-04 4.38060E-03 5.78109E-14 2.50728E-13
 -1      3717 1.99980E+01 9.49229E-03-5.27456E-05 5.01047E-03 6.68374E-14 3.61937E-13
 -1      3718 1.99971E+01 1.18708E-02-4.29696E-05 5.86955E-03 1.39945E-13 2.98900E-13
 -1      3719 1.99948E+01 1.42072E-02 1.18971E-04 4.60656E-03 7.81209E-14 1.50967E-13
 -1      3720 1.99994E+01 6.13366E-03-3.45503E-05 3.93481E-03 7.72199E-14 2.20026E-13
 -1      3721 1.99990E+01 7.62367E-03-1.36581E-05 4.63651E-03 6.01714E-14 2.86281E-13
 -1      3722 1.99975E+01 9.25412E-03 6.52397E-05 4.14088E-03 1.11194E-13 5.49909E-13
 -1      3723 2.00000E+01 4.02917E-03-2.27071E-05 2.98484E-03 5.81363E-14 2.80626E-13
 -1      3724 1.99999E+01 4.96848E-03 4.21084E-07 3.53794E-03 2.31506E-14 1.85347E-13
 -1      3725 1.99989E+01 6.10673E-03 3.43030E-05 3.42687E-03-6.89700E-15 3.13515E-13
 -1      3726 2.00002E+01 2.69598E-03-1.50432E-05 2.19765E-03 3.53175E-13 1.69125E-13
 -1      3727 2.00003E+01 3.29584E-03 6.29494E-06 2.62337E-03 2.95998E-13 3.27708E-13
 -1      3728 1.99996E+01 4.09380E-03 1.71055E-05 2.68719E-03 1.08146E-13 1.59387E-13
 -1      3729 2.00003E+01 1.83542E-03-1.01356E-05 1.57117E-03 2.26186E-13-4.33138E-14
 -1      3730 2.00003E+01 2.22674E-03 7.95754E-06 1.89310E-03 3.12364E-13 1.30724E-13
 -1      3731 1.99999E+01 2.79002E-03 8.00591E-06 2.02221E-03 3.76797E-13 2.68051E-14
 -1      3732 2.00002E+01 1.26580E-03-6.69506E-06 1.08865E-03 4.61978E-13-3.61603E-13
 -1      3733 2.00003E+01 1.52753E-03 7.74203E-06 1.32786E-03 3.49433E-13-2.18204E-13
 -1      3734 2.00000E+01 1.92745E-03 3.35058E-06 1.46827E-03 3.73384E-13-1.49818E-13
 -1      3735 2.00002E+01 8.79495E-04-2.49102E-06 7.27025E-04 2.44591E-13-3.33634E-13
 -1      3736 2.00002E+01 1.05715E-03 6.58806E-06 9.00385E-04 1.85048E-13-4.07022E-13
 -1      3737 2.00001E+01 1.34116E-03 9.00332E-08 1.03040E-03 3.75988E-13-1.27749E-13
 -1      3738 2.00001E+01 7.06437E-04 1.06752E-06 5.45154E-04 1.90122E-14-2.66229E-13
 -1      3739 2.00001E+01 7.89443E-04 4.84977E-06 6.37478E-04 6.57190E-14-2.11760E-13
 -1      3740 2.00000E+01 9.88191E-04-2.82175E-06 7.38452E-04 1.59479E-13-1.09545E-13
 -1      3741 2.00000E+01 7.92912E-04-1.12904E-06 5.66744E-04 1.24525E-13 1.32363E-14
 -1      3742 1.99995E+01 1.29449E-03-8.73815E-06 4.34116E-04 2.89095E-13 1.54318E-13
 -1      3743 1.99996E+01 1.23833E-03 8.16318E-08 5.05538E-04 4.59697E-13 1.15201E-13
 -1      3744 2.05434E+01 4.78000E-01 3.19620E-03-1.02501E-01 8.98991E-14-1.00477E-13
 -1      3745 2.05894E+01 2.65375E-01-1.52805E-03-3.78441E-02 7.67642E-14-8.25650E-14
 -1      3746 2.06535E+01 2.10086E-01-2.59504E-03 4.36379E-02 9.74774E-14-6.65175E-14
 -1      3747 1.40534E+01 1.88735E+00 4.76159E-02-2.88019E+00-1.42548E-13 1.23148E-13
 -1      3748 1.56507E+01 1.51374E+00 3.51420E-02-2.75701E+00 9.44904E-15-2.89525E-14
 -1      3749 2.01085E+01 1.04090E+00-8.43397E-04 2.60201E-01 1.65726E-13 1.71446E-13
 -1      3750 1.99993E+01 1.29846E-03 1.46264E-07-3.09256E-04 5.34280E-14 4.37467E-14
 -1      3751 1.99721E+01 8.98634E-01-7.64883E-03 2.51588E-01 1.26357E-13 1.19524E-13
 -1      3752 2.00616E+01 1.00338E+00-5.41670E-04 2.78392E-01 1.43873E-13 1.49304E-13
 -1      3753 1.87537E+01 8.47341E-01 3.43896E-03-7.36933E-01-6.95005E-14 5.67615E-14
 -1      3754 1.83746E+01 9.45271E-01-2.04294E-02-9.65079E-01 8.03914E-14 6.77882E-14
 -1      3755 1.90216E+01 6.41815E-01 9.06803E-03-8.45174E-01-1.19794E-13 1.17642E-13
 -1      3756 1.75674E+01 1.52663E+00 3.96964E-02-9.99873E-01 8.51183E-14 1.75794E-13
 -1      3757 2.60489E+01-1.26196E+00-4.51475E-02-9.86329E-01-2.69958E-14 1.37170E-13
 -1      3758 2.63773E+01-2.31073E+00 4.34372E-02 7.07517E-02 2.41413E-14 7.15140E-14
 -1      3759 2.36532E+01 3.38684E+00-1.89522E-02-1.33050E+00-1.15128E-13 1.58712E-13
 -1      3760 2.41077E+01 2.51876E+00-1.19094E-02-1.88026E+00-1.30700E-13 2.28566E-13
 -1      3761 1.93878E+01-1.24998E+00-3.13834E-02 4.19427E+00 1.09434E-13 1.14353E-14
 -1      3762 2.53051E+01-2.52109E+00 5.20384E-02-8.64063E-01 1.29922E-13-9.61271E-14
 -1      3763 2.54351E+01-1.96849E+00-3.80128E-02 1.82424E-01 1.11960E-13-6.68832E-14
 -1      3764 2.50166E+01 1.62644E+00-2.68410E-02-2.01149E+00-1.50584E-13 2.25041E-13
 -1      3765 2.57892E+01 8.42951E-02 3.65379E-02-1.78883E+00-8.24132E-14 2.23878E-13
 -1      3766 2.52181E+01-8.30350E-01-2.29640E-02-1.22320E+00-1.12865E-14 2.29703E-13
 -1      3767 2.38357E+01 1.31821E+00-1.09028E-02-1.78359E+00-6.33929E-14 2.91712E-13
 -1      3768 1.99992E+01 1.48316E-03 1.28409E-06-2.27136E-04 4.30764E-15 1.23197E-13
 -1      3769 1.99201E+01-1.38283E+00 3.02100E-02-4.18985E+00 1.65325E-13 1.13348E-13
 -1      3770 2.17940E+01-2.48064E+00-6.31243E-02-3.83141E+00 1.21556E-13 2.37275E-14
 -1      3771 2.03330E+01 1.29499E+00-5.33834E-04-2.40457E-01 1.56557E-13-1.22931E-13
 -1      3772 2.03517E+01 1.19726E+00-2.14927E-03-3.26419E-01 1.48121E-13-1.18004E-13
 -1      3773 2.25696E+01-2.75977E+00-3.91338E-02 3.50549E+00 3.87756E-14-7.13587E-14
 -1      3774 2.11545E+01-2.09376E+00 4.70783E-02 4.12877E+00 9.36304E-14-4.13046E-14
 -1      3775 2.04044E+01 1.07421E+00 1.86039E-03-1.22485E-01 1.36350E-13-1.15019E-13
 -1      3776 2.34002E+01-2.69892E+00 6.59011E-02-2.98829E+00 8.42004E-14 8.13672E-15
 -1      3777 2.44155E+01-2.93203E+00-6.87504E-02-1.90875E+00 1.13282E-13-4.05977E-14
 -1      3778 1.72685E+01 3.19534E-01-3.96146E-03-3.62036E+00 1.13937E-13 1.75086E-14
 -1      3779 1.84835E+01-6.08564E-01-2.12870E-02-4.11023E+00 1.29581E-13 4.66641E-15
 -1      3780 1.62309E+01 1.49101E+00-2.36494E-02-2.15238E+00 1.54174E-14-6.34198E-14
 -1      3781 1.67240E+01 9.34318E-01 3.35277E-02-3.12288E+00 5.77528E-14 6.18290E-14
 -1      3782 1.78953E+01 4.92360E-01 2.49502E-02-2.90190E+00 4.96271E-14 1.54802E-15
 -1      3783 1.70476E+01 1.36369E+00-2.33737E-03-1.80995E+00 1.50265E-15-6.84405E-14
 -1      3784 2.05116E+01 6.62174E-01-1.00420E-03-8.57313E-02 1.09108E-13-1.19306E-13
 -1      3785 2.00891E+01 1.08945E+00-4.56790E-03 2.87509E-01 1.68666E-13 2.00820E-13
 -1      3786 2.04355E+01 9.65132E-01-1.54767E-04-1.20702E-02 1.35194E-13-8.50685E-14
 -1      3787 2.04853E+01 8.03014E-01 7.01682E-04-5.17215E-02 1.18614E-13-1.01561E-13
 -1      3788 2.05534E+01 5.59663E-01-2.90545E-04 2.48671E-02 1.16278E-13-8.70958E-14
 -1      3789 2.00973E+01 1.19848E+00-4.25972E-04 3.20880E-01 1.38558E-13 1.46680E-13
 -1      3790 1.94185E+01 7.47752E-01-1.41522E-02 5.15096E-01 5.32973E-14 1.04269E-13
 -1      3791 1.96515E+01 7.56922E-01 4.90830E-03 4.07975E-01 4.18527E-14 9.15152E-14
 -1      3792 2.55005E+01-1.40905E+00 1.61510E-02 8.00699E-01 1.20686E-13 6.48882E-14
 -1      3793 2.51075E+01-6.44025E-01 3.14819E-03 1.34662E+00 6.25099E-14 7.79177E-14
 -1      3794 2.47269E+01-1.76741E+00-1.57016E-02 3.40314E-01 9.48600E-14 1.09023E-13
 -1      3795 1.89280E+01-1.65258E-01-2.51412E-02 2.83377E+00 1.03061E-13-4.71411E-15
 -1      3796 1.79056E+01 5.97164E-01 4.09144E-04 2.49123E+00 1.00746E-13 8.59357E-14
 -1      3797 1.84338E+01 6.89565E-01 2.83602E-02 1.91111E+00 8.93504E-14 8.13503E-14
 -1      3798 1.81902E+01 1.11719E+00 1.36999E-02 1.15944E+00 7.30705E-14 9.69259E-14
 -1      3799 2.31053E+01 3.81371E+00-1.12424E-02-3.70546E-01 5.10286E-14 4.89747E-14
 -1      3800 2.33575E+01 3.68977E+00-1.19274E-02 8.87159E-01 5.74939E-14-1.24900E-16
 -1      3801 2.22678E+01 2.71568E+00 1.36197E-02 1.09845E+00-1.45027E-14 2.72890E-13
 -1      3802 2.23765E+01 2.23300E+00-1.81361E-02 1.43007E+00-1.25486E-15 2.94514E-13
 -1      3803 2.40504E+01 3.78375E+00-4.64115E-02 1.34604E+00-2.95926E-14-1.98425E-13
 -1      3804 2.31285E+01 2.14103E+00 4.41602E-03 1.68881E+00-3.81834E-14 2.04152E-13
 -1      3805 2.24111E+01-2.20465E+00 2.01613E-02-2.86911E+00 6.94288E-14 2.33730E-14
 -1      3806 1.89647E+01 7.73608E-01-1.59215E-02 9.14594E-01 6.38162E-14 1.07071E-13
 -1      3807 1.92875E+01 7.65641E-01 8.09120E-03 6.96300E-01 8.19973E-14 1.25638E-13
 -1      3808 1.95690E+01 6.14269E-01 4.49781E-03 7.85653E-01 4.51421E-14 1.34436E-13
 -1      3809 1.99991E+01 1.52708E-03-4.84412E-06-5.35701E-05-1.45443E-13 2.00415E-13
 -1      3810 1.99992E+01 1.54260E-03-2.51751E-06 6.70052E-05-2.38065E-13 2.66032E-13
 -1      3811 1.99990E+01 1.84703E-03 5.67281E-06-2.07753E-04-2.20851E-15 3.95378E-13
 -1      3812 1.97507E+01 7.71857E-01-1.06553E-02 3.12963E-01 7.14732E-14 6.74010E-14
 -1      3813 1.99098E+01 8.22296E-01 3.70467E-03 2.83171E-01 9.26634E-14 9.51561E-14
 -1      3814 1.98311E+01 7.04232E-01 4.78040E-03 4.89558E-01 6.04676E-14 5.76964E-14
 -1      3815 1.99993E+01 1.45707E-03-7.87039E-06 2.26589E-04-1.60175E-13 2.32381E-13
 -1      3816 1.99993E+01 1.43758E-03 1.01630E-07 3.31461E-04 7.88672E-14 1.74860E-13
 -1      3817 1.99993E+01 1.62070E-03 8.24996E-06 4.42616E-04 8.35976E-14-3.16475E-14
 -1      3818 1.99990E+01 1.83443E-03 6.85353E-06 1.57863E-04-1.39941E-13 1.16223E-13
 -1      3819 2.35248E+01 3.88416E+00-3.04879E-02-8.84133E-01-6.00457E-14 9.25961E-14
 -1      3820 2.04068E+01 1.02369E+00-8.27898E-04 6.90023E-02 1.42635E-13-6.68913E-14
 -1      3821 2.53551E+01-2.59487E+00-1.57207E-02 6.98987E-01 4.83415E-14 6.94132E-14
 -1      3822 1.80567E+01 1.08654E+00-2.68335E-03-1.22863E+00 6.24765E-14-1.99139E-14
 -1      3823 1.75191E+01 1.22492E+00-2.31355E-02-1.46040E+00-3.34316E-14-8.19327E-14
 -1      3824 1.77967E+01 9.64729E-01 2.85244E-02-2.04734E+00-3.97763E-14-1.01633E-13
 -1      3825 2.00143E+01 8.59099E-01 3.08224E-03 3.47892E-01 1.28214E-13 4.75155E-14
 -1      3826 1.85444E+01 7.98844E-01 1.87643E-02-1.36208E+00 1.21996E-14-9.00534E-14
 -1      3827 2.01918E+01 1.23632E+00-6.44267E-03 3.31002E-01 1.69834E-13 2.13116E-14
 -1      3828 2.02410E+01 1.23621E+00 8.34166E-04 2.86291E-01 1.65970E-13 1.89460E-14
 -1      3829 2.02002E+01 1.07518E+00 4.64191E-03 3.36457E-01 1.34902E-13 5.69109E-15
 -1      3830 2.42508E+01-2.45352E+00-9.94670E-04-1.17489E+00-1.22029E-14-3.81670E-14
 -1      3831 1.99997E+01 1.14718E-03-7.44829E-06 5.58289E-04 5.52951E-13 1.61122E-13
 -1      3832 1.99998E+01 1.08159E-03 3.61528E-07 5.80264E-04 3.70919E-13 3.61992E-13
 -1      3833 1.99996E+01 1.40368E-03 7.03039E-06 6.04464E-04 1.79370E-13 1.50826E-13
 -1      3834 2.00976E+01 1.07156E+00 3.52775E-03 2.94332E-01 1.36848E-13 1.12517E-13
 -1      3835 2.42466E+01 7.93474E-01-8.29887E-03 1.83542E+00-4.35329E-15 8.21396E-14
 -1      3836 2.45185E+01 1.75726E+00-2.46197E-02 2.01937E+00 4.76121E-14-2.05573E-14
 -1      3837 2.03852E+01-1.27890E+00 3.42253E-02 3.49668E+00 1.09069E-13-2.34817E-14
 -1      3838 2.34748E+01-2.81297E+00 3.89105E-02 2.90562E+00 5.54487E-14 1.33599E-14
 -1      3839 2.25439E+01-2.36128E+00 1.49381E-03 2.89211E+00 9.20950E-14 3.12946E-14
 -1      3840 2.39860E+01-2.85236E+00-3.19369E-02 2.13040E+00 7.83518E-14 8.93339E-15
 -1      3841 1.98177E+01-8.84254E-01 3.91649E-02-3.49995E+00 1.54119E-13 2.33565E-14
 -1      3842 2.37994E+01 3.03816E+00 3.84305E-03 1.65042E+00-1.64738E-14-9.87873E-14
 -1      3843 1.99711E+01 4.11733E-02 1.87039E-05-7.66341E-03 3.02889E-13 7.46775E-14
 -1      3844 1.99606E+01 5.03479E-02-7.18762E-04-1.17413E-02 2.36432E-13 4.05632E-14
 -1      3845 1.99512E+01 6.21392E-02 1.24451E-04-2.07494E-02 6.40483E-14 9.83596E-14
 -1      3846 1.99336E+01 7.54914E-02-1.21964E-03-2.90253E-02-3.50518E-14 1.43027E-13
 -1      3847 1.99589E+01 5.09071E-02 5.42288E-04-2.62156E-02 2.08931E-13-1.47375E-13
 -1      3848 2.10191E+01-4.24108E-01 5.86995E-03 2.82732E-01 3.76627E-14-3.24297E-14
 -1      3849 2.11493E+01-6.11684E-01 8.26934E-04 2.95423E-01 2.97779E-14-9.35198E-15
 -1      3850 2.13408E+01-7.91363E-01 8.80770E-03 3.12604E-01 9.03650E-15-1.21167E-14
 -1      3851 2.15140E+01-9.73651E-01-7.24627E-04 2.85596E-01 1.19674E-14-7.79956E-15
 -1      3852 2.12351E+01-7.13856E-01-9.88860E-03 4.53360E-01 3.79752E-14-3.42791E-14
 -1      3853 2.17850E+01-1.13963E+00 1.17798E-02 2.52940E-01 1.66781E-14 9.40627E-15
 -1      3854 2.19978E+01-1.29894E+00-4.03593E-03 1.68379E-01-4.95968E-15-8.87934E-15
 -1      3855 2.16694E+01-1.11527E+00-1.26165E-02 4.71687E-01 1.71230E-14-3.84458E-15
 -1      3856 2.23517E+01-1.41938E+00 1.38285E-02 5.45328E-02-1.50903E-14 1.90993E-15
 -1      3857 2.25830E+01-1.50981E+00-8.90831E-03-1.03800E-01-1.81983E-16-2.94941E-15
 -1      3858 2.22619E+01-1.48032E+00-1.43010E-02 3.63560E-01-9.51333E-15 4.15427E-14
 -1      3859 2.29941E+01-1.51786E+00 1.37174E-02-3.32803E-01 1.52841E-14-1.43813E-14
 -1      3860 2.31961E+01-1.45504E+00-1.32628E-02-5.62914E-01-4.99687E-14 3.19029E-14
 -1      3861 2.30005E+01-1.71006E+00-1.37219E-02 5.71832E-02-2.68028E-14-1.08800E-15
 -1      3862 2.39574E+01 6.07603E-01 1.01838E-04-1.83180E+00-3.67172E-14 3.24186E-13
 -1      3863 2.35841E+01-2.24040E+00 4.76684E-02-1.38353E+00-1.21948E-13-8.55110E-14
 -1      3864 2.39937E+01-2.19167E+00-3.60831E-02-5.23302E-01 7.77026E-15 2.06764E-14
 -1      3865 1.99194E+01 9.27573E-02 3.16985E-04-4.51444E-02-1.69350E-13 1.80138E-13
 -1      3866 1.98905E+01 1.11704E-01-1.99208E-03-6.08760E-02-1.42727E-13 6.83033E-14
 -1      3867 1.99340E+01 7.36934E-02 7.93673E-04-5.30887E-02-7.36813E-14-2.07724E-13
 -1      3868 2.39334E+01-5.63026E-01-1.38424E-02 1.38685E+00 8.90781E-15 1.60403E-13
 -1      3869 2.38277E+01-9.99746E-01 5.04721E-04 1.14428E+00 1.37733E-14 1.42566E-13
 -1      3870 2.26583E+01-1.42483E+00-9.53599E-03 3.78547E-01 6.24806E-14 1.22003E-13
 -1      3871 2.24114E+01-1.40284E+00 1.47695E-02 1.90398E-01 1.00668E-14 1.66298E-13
 -1      3872 2.20018E+01-1.33928E+00-6.58686E-03 2.85568E-02-1.10526E-13 1.36566E-13
 -1      3873 2.17551E+01-1.22275E+00 1.21311E-02-8.64924E-02-1.66117E-13 1.24445E-13
 -1      3874 2.23253E+01-1.53141E+00-1.60591E-02-1.80377E-01-7.73335E-14 7.32014E-14
 -1      3875 2.14269E+01-1.09975E+00-1.46037E-03-1.49973E-01-1.17247E-13 1.89501E-13
 -1      3876 2.12125E+01-9.62200E-01 9.49051E-03-2.06285E-01-1.51495E-14 2.30126E-13
 -1      3877 2.16171E+01-1.24568E+00-1.26841E-02-3.61781E-01-1.15187E-13-4.19094E-14
 -1      3878 2.09688E+01-8.33560E-01 9.42431E-04-2.13321E-01-5.47498E-14 1.66652E-13
 -1      3879 2.07996E+01-7.07255E-01 6.42440E-03-2.31197E-01 4.94454E-14 1.27442E-13
 -1      3880 2.10724E+01-9.37364E-01-1.08359E-02-3.99407E-01-7.59435E-14 4.88669E-14
 -1      3881 2.06313E+01-5.95580E-01 2.13996E-03-2.10173E-01 3.63829E-14 1.34664E-13
 -1      3882 2.05059E+01-4.93530E-01 3.96051E-03-2.07479E-01-7.04813E-15 7.20506E-14
 -1      3883 2.06814E+01-6.62781E-01-8.38658E-03-3.57958E-01 2.44228E-14-4.07660E-15
 -1      3884 2.03954E+01-4.06068E-01 2.43681E-03-1.76864E-01 4.31491E-15 3.83274E-14
 -1      3885 2.03074E+01-3.30249E-01 2.27809E-03-1.65649E-01 1.97512E-14 1.31019E-13
 -1      3886 2.04165E+01-4.46469E-01-5.87789E-03-2.85793E-01-6.70669E-14 5.78788E-14
 -1      3887 2.02374E+01-2.66061E-01 2.14703E-03-1.35942E-01 1.02142E-13 8.63023E-14
 -1      3888 2.01783E+01-2.12362E-01 1.22021E-03-1.22858E-01 1.55186E-13 1.12661E-13
 -1      3889 2.02440E+01-2.89258E-01-4.02000E-03-2.12461E-01 9.54462E-14 3.99706E-14
 -1      3890 2.01359E+01-1.67481E-01 1.71615E-03-9.80608E-02 8.11991E-14 2.53284E-13
 -1      3891 2.00978E+01-1.31067E-01 5.97977E-04-8.63196E-02 6.78705E-14 2.11324E-13
 -1      3892 2.01359E+01-1.80010E-01-2.59747E-03-1.49438E-01 2.00159E-13 6.84273E-14
 -1      3893 2.00730E+01-1.00924E-01 1.26511E-03-6.74845E-02 4.26562E-14 2.35953E-13
 -1      3894 2.00495E+01-7.71172E-02 2.56590E-04-5.81945E-02 1.73153E-14 2.95875E-13
 -1      3895 2.00707E+01-1.07299E-01-1.61610E-03-1.00600E-01 7.08607E-14 3.72457E-13
 -1      3896 2.00357E+01-5.75925E-02 8.79015E-04-4.47704E-02 5.22972E-14 2.75060E-13
 -1      3897 2.00217E+01-4.25691E-02 8.28479E-05-3.79673E-02 1.33189E-13 2.77095E-13
 -1      3898 2.00329E+01-6.05742E-02-9.73156E-04-6.52916E-02 1.11951E-14 3.07563E-13
 -1      3899 2.00145E+01-3.03794E-02 5.82205E-04-2.88462E-02 1.66353E-13 2.58479E-13
 -1      3900 2.00067E+01-2.12564E-02 2.63881E-06-2.41240E-02 1.48563E-13 1.58528E-13
 -1      3901 2.00121E+01-3.15589E-02-5.65164E-04-4.10407E-02 4.14988E-14 2.56716E-13
 -1      3902 2.00033E+01-1.39572E-02 3.69543E-04-1.81594E-02 9.28268E-14 6.59809E-14
 -1      3903 1.99992E+01-8.67482E-03-2.89952E-05-1.50067E-02 4.86238E-14 8.65346E-14
 -1      3904 2.00014E+01-1.42190E-02-3.14383E-04-2.50564E-02 2.60915E-15 2.09157E-13
 -1      3905 1.99979E+01-4.53256E-03 2.24950E-04-1.12318E-02 3.97211E-14 6.53484E-14
 -1      3906 1.99960E+01-1.67121E-03-3.71819E-05-9.18583E-03 1.70063E-13 1.04521E-13
 -1      3907 1.99965E+01-4.35070E-03-1.64246E-04-1.48850E-02-3.72630E-14 9.00033E-14
 -1      3908 1.99958E+01 5.01017E-04 1.30960E-04-6.86413E-03 1.16880E-13-9.96659E-14
 -1      3909 1.99952E+01 1.88916E-03-3.52332E-05-5.56169E-03-5.12491E-14-1.01655E-13
 -1      3910 1.99948E+01 8.76116E-04-7.75236E-05-8.61427E-03 3.74158E-14 1.72853E-15
 -1      3911 1.99954E+01 2.87854E-03 7.23726E-05-4.16945E-03-1.65658E-13-4.40882E-14
 -1      3912 1.99954E+01 3.40830E-03-2.97415E-05-3.34858E-03-1.95879E-13-2.30561E-14
 -1      3913 1.99947E+01 3.31719E-03-2.95646E-05-4.85968E-03-6.56928E-14-1.99631E-13
 -1      3914 1.99959E+01 3.72163E-03 3.73544E-05-2.53215E-03 3.15732E-14 9.57058E-14
 -1      3915 1.99961E+01 3.78074E-03-2.36683E-05-2.01488E-03 1.19576E-13 9.96659E-14
 -1      3916 1.99953E+01 4.15786E-03-4.67090E-06-2.67307E-03 8.27446E-15 8.79490E-14
 -1      3917 1.99966E+01 3.73450E-03 1.74056E-05-1.54479E-03 2.46333E-13 2.88369E-13
 -1      3918 1.99969E+01 3.55942E-03-1.81652E-05-1.21544E-03 3.46335E-13 4.20522E-13
 -1      3919 1.99962E+01 4.13584E-03 6.88665E-06-1.43260E-03 2.87289E-13 2.77125E-13
 -1      3920 1.99974E+01 3.34419E-03 6.79167E-06-9.48002E-04 3.18867E-13 3.67802E-13
 -1      3921 1.99977E+01 3.07260E-03-1.38871E-05-7.33830E-04 3.08095E-13 3.80324E-13
 -1      3922 1.99971E+01 3.69629E-03 1.10665E-05-7.45478E-04 3.29321E-13 4.01381E-13
 -1      3923 1.99981E+01 2.79814E-03 1.88097E-06-5.82959E-04 3.18533E-13 3.34825E-13
 -1      3924 1.99983E+01 2.50731E-03-1.02382E-05-4.41615E-04 2.72095E-13 4.01707E-13
 -1      3925 1.99979E+01 3.09267E-03 1.00285E-05-3.72594E-04 3.13190E-13 4.96921E-13
 -1      3926 1.99985E+01 2.30818E-03 4.59508E-07-3.61105E-04 2.14816E-13 5.13965E-13
 -1      3927 1.99988E+01 2.03660E-03-6.66557E-06-2.66567E-04 1.91273E-13 5.35063E-13
 -1      3928 1.99988E+01 2.10405E-03 2.15405E-06-6.58869E-05 8.30505E-14 4.59884E-13
 -1      3929 1.99984E+01 2.54929E-03 7.39632E-06-1.80642E-04 3.61837E-13 5.88746E-13
 -1      3930 1.98696E+01 1.36093E-01 6.99937E-04-8.87171E-02-8.98589E-14 3.15004E-13
 -1      3931 1.98235E+01 1.61794E-01-3.16868E-03-1.17387E-01 1.29681E-14 2.62890E-13
 -1      3932 1.98960E+01 1.04580E-01 1.13791E-03-9.97867E-02 1.11634E-15 7.89542E-15
 -1      3933 1.99074E+01 5.47437E-01-8.88349E-03 6.08473E-01 2.80760E-14 6.14183E-14
 -1      3934 2.00351E+01 6.39158E-01 7.06714E-03 5.01782E-01 5.19666E-14 3.55537E-14
 -1      3935 1.95316E+01 3.50394E-01 5.05032E-03-5.01081E-01-1.13781E-13 3.84718E-13
 -1      3936 1.93778E+01 3.83212E-01-1.05412E-02-6.46106E-01-1.64478E-13 2.40373E-13
 -1      3937 1.99827E+01 2.77569E-02-1.53268E-05-1.28483E-03 1.08877E-13 3.52751E-14
 -1      3938 1.99768E+01 3.36452E-02-4.15658E-04-3.01136E-03 1.38948E-13-7.25754E-14
 -1      3939 1.99745E+01 3.50761E-02 3.59260E-04-1.15460E-02 2.46880E-13-1.79062E-13
 -1      3940 1.99902E+01 1.83584E-02-1.85411E-05 1.84441E-03-5.80832E-15 1.59064E-13
 -1      3941 1.99866E+01 2.24921E-02-2.36838E-04 1.22357E-03 6.15566E-14 1.28685E-13
 -1      3942 1.99844E+01 2.40247E-02 2.12029E-04-3.75011E-03 9.33726E-14-1.16295E-13
 -1      3943 1.99945E+01 1.22171E-02-2.13912E-05 2.96746E-03 1.00017E-13 1.56976E-13
 -1      3944 1.99925E+01 1.49107E-02-1.31900E-04 2.95314E-03 1.34355E-15 4.27675E-14
 -1      3945 1.99907E+01 1.63703E-02 1.35140E-04 2.24328E-04 5.88936E-14 8.42337E-14
 -1      3946 1.99970E+01 8.21805E-03-2.03818E-05 3.08032E-03 1.36400E-14 3.31031E-13
 -1      3947 1.99959E+01 9.98204E-03-6.73149E-05 3.33404E-03-2.14750E-14 9.92614E-14
 -1      3948 1.99945E+01 1.12153E-02 8.19026E-05 1.90466E-03 1.05906E-13 7.29123E-14
 -1      3949 1.99984E+01 5.60317E-03-1.75021E-05 2.73804E-03-3.62293E-14 2.38457E-13
 -1      3950 1.99978E+01 6.76563E-03-3.12252E-05 3.07889E-03 9.63338E-14 2.91768E-13
 -1      3951 1.99967E+01 7.75956E-03 4.86179E-05 2.37992E-03 7.27978E-14 2.09476E-13
 -1      3952 1.99992E+01 3.87477E-03-1.43453E-05 2.23709E-03 1.34573E-13 6.44861E-14
 -1      3953 1.99989E+01 4.65055E-03-1.19572E-05 2.57611E-03 5.69487E-14 5.99307E-14
 -1      3954 1.99981E+01 5.42957E-03 2.84364E-05 2.27314E-03 8.44363E-14 1.88860E-13
 -1      3955 1.99996E+01 2.71517E-03-1.05987E-05 1.72766E-03 3.28683E-13 1.74509E-15
 -1      3956 1.99995E+01 3.24032E-03-2.28755E-06 2.02551E-03 3.72156E-13 1.32206E-14
 -1      3957 1.99989E+01 3.83966E-03 1.64720E-05 1.92648E-03 2.18160E-13 1.34682E-13
 -1      3958 1.99998E+01 1.91595E-03-7.44608E-06 1.27391E-03 3.82782E-13 1.12399E-13
 -1      3959 1.99998E+01 2.28096E-03 1.06697E-06 1.51696E-03 2.41262E-13 1.12800E-13
 -1      3960 1.99994E+01 2.74411E-03 1.11036E-05 1.51976E-03 2.33307E-13 6.93213E-14
 -1      3961 1.99999E+01 1.36272E-03-2.98538E-06 9.04700E-04 1.87410E-13 3.11651E-13
 -1      3962 1.99999E+01 1.61658E-03 3.72496E-06 1.09458E-03 3.44066E-13 1.64479E-13
 -1      3963 1.99996E+01 1.95146E-03 3.58661E-06 1.13346E-03 2.21999E-13 2.45206E-13
 -1      3964 2.06359E+01 3.34515E-01 2.08869E-03 8.84814E-02 1.16515E-13-8.17233E-14
 -1      3965 2.07098E+01 1.23368E-01 4.37073E-04 1.47792E-01 1.05217E-13-8.21911E-14
 -1      3966 2.05912E+01 4.68239E-01-1.37442E-03 1.28597E-01 1.16157E-13-7.81257E-14
 -1      3967 1.84615E+01 7.61591E-01-1.09565E-02 1.54910E+00 7.33682E-14 1.11066E-13
 -1      3968 1.88817E+01 7.74261E-01 1.54025E-02 1.16843E+00 5.68158E-14 9.18727E-14
 -1      3969 1.92874E+01 5.01011E-01-3.06789E-03 1.24900E+00 8.42509E-14 9.24676E-14
 -1      3970 1.90729E+01 2.74347E-01-1.52394E-02 1.88539E+00 1.10007E-13 4.18318E-14
 -1      3971 1.93326E+01 4.20652E-01 8.31357E-03-8.36594E-01-9.05980E-14 2.34526E-13
 -1      3972 1.91204E+01 4.27587E-01-1.62895E-02-1.06683E+00-1.45499E-13 2.37490E-13
 -1      3973 1.95422E+01 2.37687E-01 1.80742E-03-8.38651E-01-1.34213E-13 2.45356E-13
 -1      3974 2.43057E+01 4.48400E-02-1.59290E-02 1.74340E+00 2.79293E-14 1.00683E-13
 -1      3975 1.90342E+01 4.44902E-01 6.87560E-03-1.39607E+00-1.95363E-13 1.40734E-13
 -1      3976 1.86998E+01 4.64065E-01-2.04880E-02-1.70465E+00-1.23342E-13-1.20184E-14
 -1      3977 2.12515E+01-1.68840E+00-1.92640E-02 3.00564E+00 1.30278E-13-3.32486E-14
 -1      3978 1.99150E+01-8.08541E-01 4.55355E-03 3.02963E+00 1.19183E-13-9.75608E-15
 -1      3979 2.48687E+01-2.17848E+00-1.98990E-02 1.08595E-01 9.22626E-14 2.02520E-13
 -1      3980 2.47202E+01-2.65348E+00 4.23009E-02 1.21751E+00 8.22654E-14 1.10801E-13
 -1      3981 2.16119E+01-1.71833E+00 3.06256E-02-2.79753E+00 2.07694E-14 9.88196E-14
 -1      3982 2.26423E+01-2.26705E+00-5.49600E-02-2.15463E+00-5.42001E-14 8.71620E-14
 -1      3983 1.99999E+01 8.85405E-04 1.28295E-06 5.73189E-04 3.30333E-13 2.87535E-13
 -1      3984 1.93751E+01-4.75172E-01-2.13469E-03-2.98422E+00 1.90835E-13 7.51234E-14
 -1      3985 2.05185E+01-1.27865E+00-2.89745E-02-3.06776E+00 1.12218E-13 2.35608E-13
 -1      3986 2.11427E+01-1.27139E+00 2.59828E-02-2.38916E+00 3.02037E-14 2.18666E-13
 -1      3987 2.08001E+01-5.93333E-02 3.59824E-03 2.01162E-01 8.84317E-14-8.33821E-14
 -1      3988 2.08961E+01-2.53067E-01 1.11076E-03 2.40248E-01 5.31122E-14-8.01109E-14
 -1      3989 2.09450E+01-3.29498E-01-7.38640E-03 3.67683E-01 8.51155E-14-5.58998E-14
 -1      3990 2.07485E+01 4.58926E-02-4.80315E-03 2.55005E-01 1.02951E-13-7.88107E-14
 -1      3991 2.03676E+01 1.07194E+00-2.71924E-04 1.60777E-01 1.50293E-13-2.64867E-14
 -1      3992 2.04857E+01 7.52253E-01 1.80775E-03 1.45233E-01 1.41434E-13-5.79364E-14
 -1      3993 2.03211E+01 1.10972E+00-3.76309E-03 2.28781E-01 1.56942E-13 1.39792E-15
 -1      3994 2.41943E+01-1.81030E+00 2.70695E-02 1.52630E-01 9.20744E-14 1.79022E-13
 -1      3995 2.40681E+01-1.43015E+00-1.00677E-02 6.92325E-01 4.10034E-14 2.30311E-13
 -1      3996 2.32800E+01-1.19509E+00-1.02717E-02 8.82887E-01 2.07865E-14 1.55761E-13
 -1      3997 2.34871E+01-1.85250E+00-1.02123E-02-1.46498E-01 3.74312E-14 1.09058E-13
 -1      3998 1.99483E+01-4.63178E-01 2.67623E-02 2.47961E+00 1.19751E-13 1.14032E-14
 -1      3999 2.39722E+01-1.17698E-01-9.46839E-03-1.63860E+00-2.14590E-14 2.91143E-13
 -1      4000 2.35898E+01-1.26331E+00 4.48625E-03-9.11032E-01-5.07240E-14 1.20170E-13
 -1      4001 2.37118E+01-9.17125E-01-1.42431E-03-1.17035E+00-2.17971E-14 2.30432E-13
 -1      4002 2.45077E+01-6.10643E-01-4.03658E-03-1.37859E+00 2.34274E-15 2.57543E-13
 -1      4003 2.27466E+01-1.97184E+00 3.99674E-03-1.47570E+00-1.35596E-13 3.67904E-14
 -1      4004 2.30769E+01-1.35916E+00 1.15379E-02 6.32780E-01 5.14371E-14 1.51274E-13
 -1      4005 1.98403E+01 1.43662E-01 1.52750E-03-1.78600E-01 9.34668E-14 2.78374E-13
 -1      4006 1.97941E+01 1.94631E-01 1.43316E-03-1.64175E-01 9.93867E-14 3.33241E-13
 -1      4007 1.97228E+01 2.27207E-01-4.90068E-03-2.14783E-01 1.00349E-13 4.46218E-13
 -1      4008 1.95772E+01 3.05145E-01-7.32671E-03-3.78413E-01 8.19217E-14 4.00438E-13
 -1      4009 1.96606E+01 2.26356E-01 1.88344E-03-5.15833E-01-1.02891E-13 4.04382E-13
 -1      4010 1.96841E+01 2.68292E-01 2.77418E-03-2.91493E-01 2.71894E-14 4.08890E-13
 -1      4011 1.98878E+01 4.73742E-01 9.45513E-03 7.62741E-01 3.03454E-14 3.96634E-14
 -1      4012 2.00863E+01 3.75589E-01-6.62685E-04 7.58300E-01 2.98136E-14-1.13617E-14
 -1      4013 1.97284E+01 3.94616E-01-7.56541E-03 9.63205E-01 5.42627E-14 6.30013E-14
 -1      4014 2.36985E+01 2.17690E+00-2.32721E-02 1.85493E+00-3.29663E-14 1.26995E-14
 -1      4015 2.05643E+01 5.18280E-01 1.63961E-03 2.16598E-01 1.33094E-13-6.59776E-14
 -1      4016 1.99999E+01 1.22733E-03 3.86211E-06 7.59556E-04 1.75915E-13 3.36271E-13
 -1      4017 1.99997E+01 1.46069E-03-5.47853E-06 8.04305E-04 1.92570E-13 3.90940E-13
 -1      4018 2.00502E+01 7.44964E-01-7.22158E-03 4.06464E-01 9.48433E-14 2.38050E-14
 -1      4019 2.01315E+01 8.84290E-01 5.08853E-03 3.65260E-01 1.14427E-13 1.06350E-14
 -1      4020 2.03497E+01 9.36388E-01 4.22968E-03 2.86791E-01 1.34596E-13 2.03138E-14
 -1      4021 2.49322E+01-1.62858E+00 2.66859E-02-6.68078E-01 5.11696E-14 2.20517E-13
 -1      4022 2.42463E+01-1.93297E+00-1.92868E-02-1.13628E-01 1.22175E-13 1.99233E-13
 -1      4023 1.85450E+01 5.01941E-01 7.33483E-03-2.04274E+00 4.03829E-14-8.19622E-14
 -1      4024 1.80872E+01 4.89495E-01-2.19233E-02-2.45494E+00 4.22084E-14-2.52962E-14
 -1      4025 1.87534E+01-1.64379E-02 4.05511E-03-2.87788E+00 1.06055E-13-6.70740E-14
 -1      4026 1.91516E+01 1.20589E-01 8.61327E-03-2.04710E+00-8.43314E-14-4.70056E-14
 -1      4027 1.93922E+01 1.93370E-01 2.68927E-03-1.35994E+00-2.17625E-13 1.62541E-13
 -1      4028 2.19194E+01-1.85488E+00 2.35437E-02 2.66332E+00 1.18501E-13 6.11598E-15
 -1      4029 2.14330E+01-1.43229E+00 7.14932E-03 2.34433E+00 1.35354E-13 1.51916E-14
 -1      4030 2.24797E+01-2.13059E+00-3.54661E-02 2.20015E+00 1.10121E-13 6.25155E-14
 -1      4031 1.99994E+01 1.63964E-03-1.10638E-05 6.79129E-04 2.42636E-13 1.47869E-13
 -1      4032 1.99995E+01 1.57674E-03 1.80072E-06 7.37815E-04 2.25686E-13 3.09231E-13
 -1      4033 1.99995E+01 1.75696E-03 3.29379E-06 8.94589E-04 3.05657E-13 3.05342E-13
 -1      4034 2.31169E+01-1.61405E+00-1.40184E-02 2.08587E-01 7.69008E-14 2.22547E-13
 -1      4035 2.38317E+01-2.48705E+00-2.08846E-03 1.47855E+00 9.06328E-14 9.73280E-14
 -1      4036 2.01060E+01 1.02858E+00 5.21207E-04 3.31600E-01 1.45656E-13 3.60403E-14
 -1      4037 1.96179E+01-3.21570E-01 2.42439E-02-2.49519E+00 1.20154E-13 1.58326E-13
 -1      4038 1.99990E+01 1.95715E-03-1.03458E-05 4.33111E-04 1.21391E-14-1.13751E-13
 -1      4039 1.99992E+01 1.84512E-03 3.41858E-06 5.62145E-04 1.59708E-13-2.88552E-13
 -1      4040 1.99992E+01 2.05744E-03 8.69864E-06 7.10098E-04 1.78086E-13-1.14135E-13
 -1      4041 2.01555E+01 6.21360E-01-1.94597E-03 5.04057E-01 4.73105E-14 4.94862E-14
 -1      4042 2.37923E+01-1.60587E+00-8.35526E-03-4.88851E-01 4.01842E-14 1.15270E-13
 -1      4043 2.01484E+01 9.26967E-01-3.03998E-03 3.70422E-01 1.09409E-13-9.54918E-15
 -1      4044 2.02238E+01 9.02876E-01 9.93822E-04 3.72460E-01 1.16192E-13 3.99605E-14
 -1      4045 2.31265E+01-1.78555E+00 2.99229E-02-3.67711E-01-1.53605E-14 3.90350E-14
 -1      4046 2.15174E+01-9.60175E-01 1.03521E-02 7.07670E-01 3.93480E-14 7.83417E-16
 -1      4047 2.17719E+01-1.18526E+00 2.07344E-03 7.13663E-01 4.57533E-14 5.76457E-15
 -1      4048 2.21317E+01-1.39997E+00 1.70346E-02 7.28418E-01 2.43720E-14 5.60198E-14
 -1      4049 2.24614E+01-1.61354E+00-6.59674E-05 6.58182E-01-8.07329E-15 4.89586E-14
 -1      4050 2.18331E+01-1.33974E+00-2.16578E-02 1.00634E+00 5.06196E-14-2.68357E-14
 -1      4051 1.99524E+01 5.14437E-02 8.43854E-04-5.42691E-02 7.86574E-14-2.77362E-13
 -1      4052 1.99338E+01 5.88733E-02-1.67874E-03-7.22440E-02-7.77154E-15-2.00707E-13
 -1      4053 2.39065E+01-1.98178E+00 2.91488E-02 1.92991E-01 5.62480E-14 1.50001E-13
 -1      4054 1.97773E+01 9.56740E-02 9.50861E-03-7.51914E-01-1.84572E-13 2.44720E-13
 -1      4055 1.97028E+01 5.27019E-02-7.35916E-03-9.46038E-01-1.70418E-13 1.38550E-13
 -1      4056 2.17652E+01-1.32310E+00 4.01535E-03-6.43571E-01-1.28488E-13-2.49439E-14
 -1      4057 2.14458E+01-1.13868E+00 1.13565E-02-6.74056E-01-8.70012E-14-7.89787E-14
 -1      4058 2.11412E+01-9.58502E-01 4.21003E-03-6.20775E-01-9.42202E-14-1.96018E-14
 -1      4059 2.09075E+01-7.95233E-01 7.78033E-03-5.97028E-01-7.53838E-14-7.03634E-14
 -1      4060 2.11632E+01-1.05048E+00-1.41113E-02-9.01181E-01-9.39160E-14 1.24803E-14
 -1      4061 2.07084E+01-6.54644E-01 3.84408E-03-5.16714E-01-1.41139E-14-9.99362E-14
 -1      4062 2.05464E+01-5.30510E-01 4.17892E-03-4.72671E-01-2.33296E-14-5.89472E-14
 -1      4063 2.06847E+01-6.96767E-01-1.20396E-02-7.32706E-01-7.74257E-14-1.24699E-13
 -1      4064 2.04287E+01-4.25413E-01 5.35574E-03-3.98213E-01-4.97206E-14-1.44077E-13
 -1      4065 2.03146E+01-3.39804E-01 1.66968E-03-3.51398E-01-8.78610E-15-8.66528E-14
 -1      4066 2.03937E+01-4.52247E-01-1.02366E-02-5.51776E-01-8.28422E-14-1.68416E-13
 -1      4067 2.02473E+01-2.66024E-01 4.60296E-03-2.87303E-01-3.23325E-14-4.26785E-14
 -1      4068 2.01719E+01-2.08816E-01 4.39035E-04-2.46734E-01 1.34897E-13-3.46776E-14
 -1      4069 2.02075E+01-2.76625E-01-8.58841E-03-3.89944E-01 5.39495E-14-1.79108E-13
 -1      4070 2.01354E+01-1.59850E-01 3.47546E-03-1.97411E-01 2.62328E-13-6.80593E-14
 -1      4071 2.00878E+01-1.23149E-01-1.38685E-04-1.65809E-01 2.33591E-13-8.20131E-17
 -1      4072 2.01032E+01-1.60748E-01-5.47208E-03-2.64198E-01 1.32072E-13-1.94317E-13
 -1      4073 2.00691E+01-9.16570E-02 2.46859E-03-1.30336E-01 1.54159E-13-3.25969E-14
 -1      4074 2.00401E+01-6.88789E-02-3.41174E-04-1.07390E-01 8.64477E-14 6.30520E-14
 -1      4075 2.00457E+01-8.85109E-02-3.26900E-03-1.72501E-01 2.10600E-13-4.28063E-13
 -1      4076 2.00312E+01-4.92528E-02 1.67415E-03-8.30797E-02-2.22048E-14 1.62134E-13
 -1      4077 2.00142E+01-3.55712E-02-3.59975E-04-6.72597E-02-2.68881E-14 1.24284E-13
 -1      4078 2.00153E+01-4.50858E-02-1.88522E-03-1.08840E-01 1.15849E-13-2.60789E-13
 -1      4079 2.00107E+01-2.37563E-02 1.09017E-03-5.12396E-02 7.65968E-14 3.22461E-13
 -1      4080 2.00012E+01-1.58547E-02-3.05207E-04-4.07803E-02 1.73409E-13 3.39007E-13
 -1      4081 2.00003E+01-1.98928E-02-1.05150E-03-6.64067E-02 1.27833E-13 1.25704E-13
 -1      4082 2.00003E+01-9.02705E-03 6.85891E-04-3.05975E-02-1.00706E-13 2.42839E-13
 -1      4083 1.99954E+01-4.70081E-03-2.31158E-04-2.39212E-02-1.98770E-13 1.46990E-13
 -1      4084 1.99938E+01-5.95602E-03-5.75733E-04-3.91228E-02-6.34912E-14 2.83933E-13
 -1      4085 1.99957E+01-9.87580E-04 4.16108E-04-1.76626E-02-6.17066E-14 1.01977E-13
 -1      4086 1.99934E+01 1.18375E-03-1.64647E-04-1.35404E-02 1.41469E-14 5.98656E-14
 -1      4087 1.99917E+01 1.28872E-03-3.03876E-04-2.21604E-02-1.44693E-13 1.64470E-13
 -1      4088 1.99942E+01 3.01660E-03 2.42575E-04-9.82061E-03-2.32031E-14 9.47790E-14
 -1      4089 1.99934E+01 3.93040E-03-1.12581E-04-7.35450E-03-1.04589E-13 2.19726E-14
 -1      4090 1.99919E+01 4.65118E-03-1.48205E-04-1.19703E-02-4.06744E-14 1.29953E-13
 -1      4091 1.99943E+01 4.66767E-03 1.34918E-04-5.22315E-03-1.25218E-13-1.94173E-14
 -1      4092 1.99942E+01 4.88023E-03-7.50574E-05-3.79381E-03-1.58235E-13-4.33396E-14
 -1      4093 1.99929E+01 5.82859E-03-6.13495E-05-6.06711E-03-1.09412E-13 1.53034E-13
 -1      4094 1.99950E+01 5.01107E-03 7.03018E-05-2.62192E-03-1.78668E-14 1.11265E-14
 -1      4095 1.99953E+01 4.85942E-03-4.92971E-05-1.82049E-03 1.28980E-13 9.85666E-14
 -1      4096 1.99943E+01 5.84539E-03-1.37410E-05-2.78754E-03-6.11033E-14 9.72722E-14
 -1      4097 1.99960E+01 4.68218E-03 3.32525E-05-1.20971E-03 3.21205E-13 9.82939E-14
 -1      4098 1.99963E+01 4.36593E-03-3.19725E-05-7.75214E-04 4.00391E-13 1.11743E-13
 -1      4099 1.99956E+01 5.28917E-03 9.19019E-06-1.05994E-03 2.19769E-13-1.98242E-14
 -1      4100 1.99969E+01 4.05532E-03 1.31543E-05-4.79978E-04 4.01471E-13 7.90456E-14
 -1      4101 1.99973E+01 3.68773E-03-2.03645E-05-2.52352E-04 2.65522E-13 1.89101E-13
 -1      4102 1.99967E+01 4.50398E-03 1.80435E-05-2.14635E-04 4.31643E-13-5.39485E-14
 -1      4103 1.99977E+01 3.34656E-03 4.87051E-06-1.24433E-04 2.92752E-13 3.33560E-13
 -1      4104 1.99980E+01 2.98308E-03-1.02352E-05-6.80637E-06 4.36902E-13 3.11896E-13
 -1      4105 1.99976E+01 3.67844E-03 1.85447E-05 1.50709E-04 4.49898E-13 6.69889E-14
 -1      4106 1.99288E+01 7.00486E-02 1.47175E-03-9.87865E-02 3.69444E-14 3.83092E-14
 -1      4107 1.99008E+01 7.84701E-02-2.53400E-03-1.29404E-01 1.21467E-13 2.31448E-13
 -1      4108 1.99478E+01 4.06590E-02-6.14391E-04-9.85472E-02 1.83427E-13-8.20866E-14
 -1      4109 1.99988E+01 2.09056E-03-6.65352E-06 1.11720E-04-1.03578E-13 5.62919E-14
 -1      4110 1.99989E+01 2.01974E-03 2.32007E-06 2.90715E-04-2.64122E-14 5.18713E-14
 -1      4111 1.99988E+01 2.27092E-03 5.08723E-06 4.10707E-04-3.58586E-15-1.63222E-13
 -1      4112 1.99986E+01 2.32238E-03 1.24116E-06 6.96794E-05 1.45595E-13 2.79352E-13
 -1      4113 1.97229E+01-1.46887E-01 1.53951E-02-1.79249E+00-8.96888E-14 7.19033E-14
 -1      4114 1.95452E+01-2.34224E-01-9.96341E-03-2.14786E+00 1.52677E-15 1.02385E-13
 -1      4115 2.01322E+01-6.55441E-01-1.21187E-02-2.22261E+00 8.86917E-14 3.06391E-13
 -1      4116 2.05305E+01-8.15127E-01-1.31007E-02 2.22283E+00 1.50202E-13 7.02815E-14
 -1      4117 1.96893E+01-1.70465E-01-2.58515E-03 2.07328E+00 1.41192E-13 2.22535E-14
 -1      4118 1.99795E+01 2.65592E-02 2.56769E-04-1.35220E-02 2.34747E-13-2.00372E-13
 -1      4119 1.99722E+01 3.07391E-02-6.64149E-04-1.88838E-02 3.36501E-13-1.64302E-13
 -1      4120 1.99946E+01 9.52013E-03 2.72361E-05 9.41646E-04 1.09315E-13 1.42510E-13
 -1      4121 1.99929E+01 1.11662E-02-1.36731E-04 4.10537E-04 7.40339E-14 1.59227E-13
 -1      4122 1.99966E+01 6.83463E-03 6.38844E-06 1.65206E-03 3.76728E-14 2.93750E-13
 -1      4123 1.99956E+01 8.00572E-03-7.43740E-05 1.55865E-03 1.27107E-13 1.86395E-13
 -1      4124 1.99947E+01 8.43236E-03 3.88922E-05 2.45216E-04 5.90737E-14 3.33785E-13
 -1      4125 1.99978E+01 4.94242E-03-3.56226E-06 1.73202E-03 2.45373E-13 1.60245E-13
 -1      4126 1.99973E+01 5.78227E-03-3.82062E-05 1.84023E-03 1.23016E-13 2.62975E-13
 -1      4127 1.99965E+01 6.30199E-03 3.47822E-05 1.11903E-03 1.89490E-13 2.27293E-13
 -1      4128 1.99986E+01 3.59391E-03-6.94282E-06 1.53005E-03 3.18604E-13 1.40923E-13
 -1      4129 1.99983E+01 4.20276E-03-1.79732E-05 1.71235E-03 2.62030E-13 1.68868E-13
 -1      4130 1.99977E+01 4.70673E-03 2.83328E-05 1.33273E-03 2.43587E-13 4.94644E-14
 -1      4131 1.99991E+01 2.62434E-03-9.41049E-07 1.23295E-03 2.18723E-13 1.36131E-13
 -1      4132 1.99989E+01 3.05865E-03-9.05113E-06 1.42389E-03 2.93511E-13 1.18293E-13
 -1      4133 1.99985E+01 3.50559E-03 1.93919E-05 1.23868E-03 3.65480E-13-1.63176E-14
 -1      4134 1.99994E+01 2.04584E-03-7.38697E-06 1.05852E-03 2.10599E-13 2.37624E-13
 -1      4135 1.99999E+01 9.86884E-04-2.48541E-06 6.61442E-04 2.14498E-13 2.50648E-13
 -1      4136 2.02943E+01 6.82313E-01 7.39807E-03 4.29326E-01 7.12101E-14 3.78946E-14
 -1      4137 2.03033E+01 8.00352E-01-4.68415E-03 3.78358E-01 1.07564E-13 3.62564E-14
 -1      4138 2.04184E+01 6.75951E-01 2.92732E-05 3.37103E-01 1.06598E-13 6.00590E-15
 -1      4139 2.02568E+01 5.13141E-01-4.06238E-03 5.21752E-01 4.92154E-14 4.42754E-14
 -1      4140 2.27131E+01-1.91192E+00-3.33080E-02-9.39041E-01-9.27236E-14-1.28981E-13
 -1      4141 2.25015E+01-1.66318E+00-4.61384E-03-5.60236E-01-9.17790E-14-2.68391E-14
 -1      4142 2.21261E+01-1.47892E+00 1.88149E-02-6.67000E-01-1.70572E-13-8.50685E-14
 -1      4143 2.21609E+01-1.67141E+00 2.66490E-02-1.57369E+00-3.66820E-14 8.53084E-14
 -1      4144 1.99916E+01 1.33590E-02 6.73504E-05-1.01875E-03-1.17339E-13-3.21395E-14
 -1      4145 1.99887E+01 1.56815E-02-2.39213E-04-2.41178E-03-1.40597E-13-1.28116E-15
 -1      4146 1.99921E+01 1.12809E-02 3.70953E-05-1.90663E-03-1.76606E-13 5.40890E-14
 -1      4147 1.97398E+01 2.62764E-02 1.10292E-02-1.15765E+00-2.44882E-13 1.40540E-13
 -1      4148 1.96315E+01-5.75093E-02-9.44222E-03-1.48548E+00-2.52225E-13 5.65426E-14
 -1      4149 2.00250E+01-3.53790E-01-5.92415E-03-1.56977E+00-1.83750E-13 1.34810E-13
 -1      4150 1.99511E+01-1.46644E-01-5.54275E-05-1.05567E+00-2.10400E-13 4.65351E-14
 -1      4151 2.36334E+01-2.24340E+00-3.18477E-02 8.35318E-01 6.63499E-14 2.02422E-13
 -1      4152 2.32868E+01-2.24004E+00 3.15427E-02 1.62699E+00 5.86332E-14 1.04290E-13
 -1      4153 2.26167E+01-1.88909E+00 1.15911E-02 1.55401E+00 4.40932E-14 6.71394E-14
 -1      4154 2.33180E+01-1.93243E+00-6.67035E-03 4.24936E-01-1.19435E-14 1.01125E-13
 -1      4155 2.11060E+01-5.37883E-01 6.76654E-03 5.88395E-01 6.76130E-14-4.38588E-14
 -1      4156 2.12849E+01-7.47553E-01 3.82612E-03 6.34046E-01 3.66924E-14-3.62921E-14
 -1      4157 2.12757E+01-8.33525E-01-1.42716E-02 8.65693E-01 7.29796E-14-1.65107E-14
 -1      4158 1.99687E+01 3.69655E-02 4.60708E-04-2.81789E-02 2.96798E-13-3.17383E-13
 -1      4159 1.99567E+01 4.29007E-02-1.07272E-03-3.84172E-02 1.31097E-13-3.94465E-13
 -1      4160 1.99631E+01 3.33274E-02-2.54035E-04-5.54066E-02 1.81861E-13-2.52981E-13
 -1      4161 1.99744E+01 2.61130E-02-8.06102E-05-2.96801E-02 2.63073E-13-1.04866E-13
 -1      4162 1.99868E+01 1.88189E-02 1.40884E-04-5.25325E-03-4.13105E-14-4.55090E-14
 -1      4163 1.99821E+01 2.20931E-02-3.97777E-04-8.22114E-03 3.34197E-14-8.36043E-14
 -1      4164 1.99826E+01 1.99042E-02-1.89768E-05-1.47165E-02 8.71182E-14 2.18818E-14
 -1      4165 1.99882E+01 1.50413E-02 2.29757E-05-6.34370E-03-1.41363E-13 1.51717E-13
 -1      4166 1.99991E+01 2.38912E-03 6.86924E-06 9.81499E-04 1.35056E-13 1.85638E-13
 -1      4167 2.05252E+01 4.94055E-01-3.79505E-03 3.26620E-01 1.25164E-13-2.24413E-14
 -1      4168 2.06610E+01 2.24984E-01 1.40375E-03 3.06408E-01 1.07776E-13-5.58529E-14
 -1      4169 2.07521E+01 3.92021E-02 4.42235E-03 3.75050E-01 1.15967E-13-5.24673E-14
 -1      4170 2.05200E+01 3.96517E-01 6.69110E-03 4.33353E-01 8.34419E-14-1.87649E-14
 -1      4171 2.26113E+01-1.85304E+00-3.20756E-02 1.03965E+00-3.72608E-15 7.37641E-14
 -1      4172 2.29386E+01-1.79493E+00 2.21215E-02 6.08419E-01-1.40272E-14 8.79852E-14
 -1      4173 1.97414E+01 1.08887E-01-6.44634E-03-6.01443E-01-1.62193E-13 2.63408E-13
 -1      4174 1.99058E+01-5.20248E-02-7.57973E-03-6.95953E-01-1.61492E-13 1.92773E-13
 -1      4175 1.98114E+01 1.21012E-01 6.49150E-03-4.73215E-01-9.53065E-14 3.01946E-13
 -1      4176 1.98966E+01 9.16751E-02 2.47710E-03-1.72184E-01 1.19425E-13 1.62038E-13
 -1      4177 1.98561E+01 9.92900E-02-3.65267E-03-2.22867E-01 1.43240E-13 2.36230E-13
 -1      4178 1.99287E+01 4.53584E-02-1.31732E-03-1.68826E-01 1.47905E-13 2.26350E-13
 -1      4179 1.97624E+01 1.87706E-01 1.85285E-03-3.08171E-01 7.77283E-14 5.18342E-13
 -1      4180 1.99983E+01 2.75790E-03-2.76831E-06-6.61628E-07 4.08636E-13 3.30208E-13
 -1      4181 1.99985E+01 2.52555E-03-5.66734E-06 6.39843E-05 3.94490E-13 4.11957E-13
 -1      4182 1.99986E+01 2.53702E-03 3.45617E-06 2.54330E-04 1.61650E-13-9.45639E-14
 -1      4183 1.99982E+01 2.98265E-03-4.56987E-06 2.63141E-04 3.74506E-13 1.36594E-13
 -1      4184 1.97546E+01 3.13484E-01 1.41156E-02 1.15987E+00 7.47507E-14 6.92788E-14
 -1      4185 2.00368E+01 1.26526E-01-8.22774E-03 1.11356E+00 3.88438E-14-2.46010E-14
 -1      4186 1.96291E+01 2.08987E-01-2.78116E-03 1.42264E+00 9.61099E-14 3.51102E-14
 -1      4187 2.02610E+01 1.72189E-01-3.38942E-03 8.31945E-01 6.84049E-14-2.55733E-14
 -1      4188 2.03074E+01 3.14746E-01 9.11890E-03 6.73772E-01 5.81780E-14 4.93101E-15
 -1      4189 2.10157E+01-1.02596E+00 1.39430E-02 2.08797E+00 1.36594E-13-3.78994E-15
 -1      4190 2.07785E+01-7.02322E-01 1.48707E-02 1.75285E+00 1.27714E-13-1.78885E-14
 -1      4191 2.14580E+01-1.34041E+00-2.78325E-02 1.85845E+00 1.13388E-13-3.37447E-14
 -1      4192 2.04072E+01 3.31788E-01-4.57567E-03 5.78548E-01 8.04924E-14-1.38098E-15
 -1      4193 2.06667E+01-9.56342E-01 4.29068E-03-2.14681E+00 7.48765E-14 1.93246E-13
 -1      4194 2.14395E+01-1.47217E+00-2.97425E-02-1.93919E+00 2.09982E-14 1.00571E-13
 -1      4195 2.16821E+01-1.37485E+00 1.54034E-02-1.41358E+00 3.15706E-14 1.15779E-13
 -1      4196 1.97779E+01 1.45063E-02 1.88780E-02 1.72166E+00 1.46307E-13 4.30738E-14
 -1      4197 2.17974E+01-1.47063E+00-2.28333E-02-1.02188E+00-9.47771E-14 5.97051E-14
 -1      4198 1.99988E+01 2.55646E-03-1.32949E-05 8.38592E-04 1.57512E-13-2.30486E-13
 -1      4199 2.08437E+01-1.58571E-01 3.28728E-03 4.49260E-01 1.16030E-13-6.53515E-14
 -1      4200 2.09608E+01-3.40990E-01 4.27689E-03 5.11796E-01 9.32883E-14-4.32690E-14
 -1      4201 2.09284E+01-4.00850E-01-1.10185E-02 6.82561E-01 8.43960E-14-4.39508E-14
 -1      4202 2.07052E+01-3.36620E-03-9.15639E-03 5.05621E-01 9.66975E-14-4.79036E-14
 -1      4203 2.06309E+01-7.69641E-01 2.11905E-02-1.80158E+00 1.05669E-14 1.83004E-13
 -1      4204 2.13832E+01-9.97139E-01 1.11850E-02 1.29545E+00 7.46334E-14-6.77058E-14
 -1      4205 2.17258E+01-1.26837E+00 1.11569E-02 1.37561E+00 6.59774E-14-5.29711E-14
 -1      4206 1.98559E+01 1.12193E-01 4.07435E-03-2.89836E-01 7.38531E-14 2.61629E-13
 -1      4207 1.98006E+01 1.14552E-01-4.96861E-03-3.71563E-01 4.37218E-14 2.49710E-13
 -1      4208 1.98939E+01 1.62043E-02-4.79968E-03-4.48117E-01-3.91825E-14 6.11600E-14
 -1      4209 1.99082E+01 4.12714E-02-2.60428E-03-2.79471E-01 1.26192E-13 2.19815E-13
 -1      4210 2.06534E+01-6.35981E-01 9.45115E-03-9.28405E-01-1.33594E-13 1.09859E-13
 -1      4211 2.04676E+01-4.85381E-01 9.68011E-03-8.31487E-01-1.47808E-13 4.34837E-14
 -1      4212 2.02608E+01-3.17204E-01 6.36296E-03-7.61187E-01-1.05958E-13 9.07707E-14
 -1      4213 2.01483E+01-2.20873E-01 3.36871E-03-6.58108E-01-8.80629E-14 4.19567E-14
 -1      4214 2.01251E+01-1.58146E-01 8.98135E-03-5.20505E-01-2.88496E-14-5.49379E-14
 -1      4215 2.00490E+01-1.03319E-01 2.54054E-03-4.42148E-01 1.82114E-14-9.39635E-15
 -1      4216 2.00464E+01-7.16638E-02 6.46382E-03-3.43174E-01 4.23256E-14-1.02497E-13
 -1      4217 2.00016E+01-4.07118E-02 1.18355E-03-2.85946E-01 1.02880E-13-9.02019E-14
 -1      4218 2.00076E+01-2.55135E-02 4.25226E-03-2.18775E-01 1.40410E-13-1.25629E-13
 -1      4219 1.99825E+01-8.84838E-03 3.88656E-04-1.78878E-01 1.31769E-13-2.27380E-13
 -1      4220 1.99908E+01-2.42448E-03 2.68237E-03-1.35022E-01 1.52619E-13-2.18482E-13
 -1      4221 1.99774E+01 6.01131E-03 1.57252E-05-1.08295E-01 1.99883E-13-1.10020E-13
 -1      4222 1.99852E+01 7.98277E-03 1.63799E-03-8.05707E-02 2.28283E-13-1.91187E-13
 -1      4223 1.99786E+01 1.18760E-02-1.14219E-04-6.33023E-02 2.50821E-13-5.31117E-14
 -1      4224 1.99849E+01 1.17659E-02 9.75458E-04-4.64496E-02 1.27931E-13-1.02512E-13
 -1      4225 1.99820E+01 1.32440E-02-1.34481E-04-3.56441E-02-3.93694E-14-2.59265E-14
 -1      4226 1.99867E+01 1.22875E-02 5.69805E-04-2.55660E-02 1.72903E-14 1.38415E-13
 -1      4227 1.99857E+01 1.25165E-02-1.18340E-04-1.90302E-02 1.32014E-13 2.64931E-13
 -1      4228 1.99891E+01 1.13082E-02 3.21171E-04-1.32244E-02-2.93343E-14 3.26151E-13
 -1      4229 1.99891E+01 1.09522E-02-9.35530E-05-9.41123E-03-8.60356E-14 2.63642E-13
 -1      4230 1.99915E+01 9.77020E-03 1.71920E-04-6.19895E-03-1.02268E-13 1.65617E-13
 -1      4231 1.99919E+01 9.17019E-03-7.15244E-05-4.06866E-03-1.84504E-13 2.25655E-13
 -1      4232 1.99936E+01 8.11345E-03 8.40528E-05-2.38380E-03-1.44315E-13 2.42117E-13
 -1      4233 1.99941E+01 7.45172E-03-5.40328E-05-1.25722E-03 6.84261E-14 2.69609E-13
 -1      4234 1.99953E+01 6.56733E-03 3.44324E-05-4.69912E-04 1.68717E-13 2.52043E-13
 -1      4235 1.99958E+01 5.93580E-03-3.97679E-05 8.38005E-05 2.40786E-13 1.53988E-13
 -1      4236 1.99966E+01 5.21392E-03 8.65871E-06 3.84125E-04 2.99914E-13 3.15638E-14
 -1      4237 1.99971E+01 4.65272E-03-2.85166E-05 6.23966E-04 3.58300E-13-4.86164E-14
 -1      4238 1.99976E+01 4.07235E-03-2.88514E-06 6.78561E-04 4.18444E-13-4.98292E-14
 -1      4239 1.99980E+01 3.59333E-03-1.93211E-05 7.54638E-04 4.42943E-13 3.36373E-14
 -1      4240 2.03422E+01 4.37278E-02 1.08746E-02 9.70796E-01 3.61794E-14-2.94446E-14
 -1      4241 2.05042E+01-6.25685E-02-1.08776E-02 8.62927E-01 8.11105E-14-1.83408E-14
 -1      4242 2.03470E+01-9.78938E-02 3.83360E-03 1.15658E+00 4.03168E-14-4.06206E-14
 -1      4243 1.99983E+01 3.14370E-03 1.31024E-06 7.10307E-04 2.77617E-13-1.16408E-13
 -1      4244 2.13225E+01-1.17043E+00 8.39310E-03-1.34094E+00-4.90467E-14 1.82590E-13
 -1      4245 2.01577E+01-2.40568E-01-1.38367E-02 1.58359E+00 1.17225E-13 2.22240E-14
 -1      4246 2.05615E+01 1.49862E-01 5.14027E-04 5.75711E-01 9.38984E-14-3.37303E-14
 -1      4247 2.21646E+01-1.59546E+00 2.27225E-02 1.53074E+00 5.53106E-14 2.03487E-14
 -1      4248 2.08377E+01-9.51647E-01-1.69804E-02-1.52570E+00-6.18576E-14 1.59800E-13
 -1      4249 2.11199E+01-9.88120E-01 1.20168E-02-1.16331E+00-1.17520E-13 1.73997E-13
 -1      4250 2.08182E+01-7.91389E-01 6.32530E-03-1.07209E+00-9.68521E-14 1.29862E-13
 -1      4251 2.03989E+01-6.27544E-01-2.94241E-03-1.59592E+00-8.81743E-14 1.87137E-13
 -1      4252 2.04849E+01-6.06204E-01-9.20290E-03-1.17455E+00-1.71910E-13 1.26441E-13
 -1      4253 2.10228E+01-5.75034E-01 1.02472E-02 9.90719E-01 9.66922E-14-7.42353E-14
 -1      4254 2.12473E+01-8.08605E-01 1.14104E-02 1.09566E+00 9.09700E-14-5.86567E-14
 -1      4255 2.06407E+01-5.19381E-01 5.41700E-03 1.52578E+00 9.97515E-14-4.79575E-14
 -1      4256 2.04965E+01-2.75633E-01 9.34965E-03 1.28629E+00 5.67237E-14-8.23872E-14
 -1      4257 2.09650E+01-7.96428E-01-2.26288E-02 1.43165E+00 7.72365E-14-1.06186E-13
 -1      4258 2.01232E+01-2.68916E-01-5.17699E-03-9.38295E-01-1.46658E-13 9.30872E-14
 -1      4259 2.07287E+01-1.93343E-01 4.97111E-03 7.89288E-01 7.49845E-14-4.69644E-14
 -1      4260 2.06637E+01-3.06275E-02 8.13582E-03 6.71976E-01 8.75444E-14-3.93493E-14
 -1      4261 1.99985E+01 2.73198E-03 3.79060E-06 4.32394E-04 2.48786E-13-1.88433E-13
 -1      4262 2.01434E+01-3.34333E-01-5.59598E-03-1.14554E+00-2.25619E-13 7.15501E-14
 -1      4263 2.03320E+01-4.63323E-01 1.02876E-02-1.31537E+00-1.84993E-13 1.08350E-13
 -1      4264 2.08684E+01-3.95717E-01 6.25707E-03 8.95264E-01 6.56537E-14-5.78698E-14
 -1      4265 2.07045E+01-4.16929E-01-1.71822E-02 1.11270E+00 5.25302E-14-1.07243E-13
 -1      4266 1.99987E+01 2.50034E-03 8.53087E-06 4.27241E-04 1.81429E-13-2.01619E-13
 -3
    1PSTEP                         3           1           1          
  100CL  101 1.000000000        4266                     0    1           1
 -4  TOSTRAIN    6    1
 -5  EXX         1    4    1    1
 -5  EYY         1    4    2    2
 -5  EZZ         1    4    3    3
 -5  EXY         1    4    1    2
 -5  EYZ         1    4    2    3
 -5  EZX         1    4    3    1
 -1         1 3.27069E-04-9.42938E-05-8.72676E-05-6.39465E-05-2.42220E-18 1.37639E-17
 -1         2 4.19965E-05-1.28694E-04 2.49204E-05-1.11598E-06 8.62576E-18 7.27654E-19
 -1         3 9.52372E-05-2.85711E-05-2.85711E-05 5.85748E-11 8.33742E-18 6.22270E-18
 -1         4 9.52371E-05-2.85712E-05-2.85711E-05-1.03643E-11-3.64400E-19 9.28679E-19
 -1         5 1.46265E-04 2.58410E-10-4.41218E-05 5.41656E-05-2.90956E-19 7.97016E-18
 -1         6 1.45553E-04 2.57927E-10-4.42351E-05-5.35584E-05-6.63227E-19-8.05528E-19
 -1         7 9.06938E-05-5.13095E-07-3.91029E-05-2.92491E-05-9.96323E-20-4.16952E-18
 -1         8 8.51685E-05 8.70910E-08-3.63580E-05-2.02549E-05 2.56227E-20-4.06981E-18
 -1         9 8.28304E-05 7.70701E-08-3.53577E-05-1.56147E-05 6.59759E-20-3.57758E-18
 -1        10 8.17673E-05 4.05393E-08-3.48794E-05-1.20395E-05 8.62319E-20-2.94631E-18
 -1        11 8.12347E-05 1.99105E-08-3.46441E-05-8.95660E-06 9.44243E-20-2.35001E-18
 -1        12 8.09516E-05 9.62301E-09-3.45236E-05-6.20797E-06 9.57677E-20-1.84765E-18
 -1        13 8.07937E-05 5.22661E-09-3.44600E-05-3.59874E-06 9.56130E-20-1.33853E-18
 -1        14 8.07182E-05 3.77271E-09-3.44316E-05-1.10464E-06 9.84833E-20-8.85730E-19
 -1        15 8.07100E-05 4.19262E-09-3.44303E-05 1.33619E-06 1.23300E-19-4.28685E-19
 -1        16 8.07766E-05 6.20858E-09-3.44587E-05 3.78786E-06 9.79101E-20 2.95849E-20
 -1        17 8.09449E-05 9.96098E-09-3.45278E-05 6.32657E-06 1.27321E-19 5.89249E-19
 -1        18 8.12589E-05 1.91452E-08-3.46596E-05 8.99883E-06 1.14922E-19 1.27219E-18
 -1        19 8.18382E-05 3.78787E-08-3.49102E-05 1.20282E-05 1.44095E-19 2.04149E-18
 -1        20 8.29330E-05 7.53838E-08-3.54002E-05 1.55871E-05 1.38635E-19 3.09065E-18
 -1        21 8.52883E-05 9.02497E-08-3.64073E-05 2.02491E-05 1.20914E-19 4.52424E-18
 -1        22 9.05915E-05-3.89552E-07-3.91108E-05 2.92214E-05-3.93870E-20 6.26466E-18
 -1        23 1.13138E-04-3.81807E-05-3.54462E-05-4.39821E-06-4.36169E-19-2.79817E-18
 -1        24 9.29773E-05-2.77479E-05-2.90512E-05 3.95312E-07-9.89341E-20-4.39159E-18
 -1        25 8.92883E-05-2.69009E-05-2.69794E-05 3.80151E-07-6.83582E-20-5.62537E-18
 -1        26 8.81458E-05-2.65245E-05-2.64289E-05 2.08876E-07 1.07612E-19-6.61177E-18
 -1        27 8.80667E-05-2.64699E-05-2.63873E-05 1.44371E-07 2.71642E-20-6.90043E-18
 -1        28 8.83831E-05-2.65394E-05-2.64884E-05 1.03597E-07 3.03622E-20-6.83688E-18
 -1        29 8.87444E-05-2.66322E-05-2.65984E-05 7.34657E-08 4.11147E-20-7.35808E-18
 -1        30 8.89145E-05-2.66737E-05-2.66461E-05 4.65415E-08 7.06458E-20-7.75648E-18
 -1        31 8.87061E-05-2.66054E-05-2.65780E-05 1.83996E-08-1.48990E-19-8.51912E-18
 -1        32 8.79635E-05-2.63794E-05-2.63495E-05-1.35875E-08-1.17066E-19-9.24333E-18
 -1        33 8.65704E-05-2.59609E-05-2.59282E-05-5.01684E-08 3.51587E-19-8.80162E-18
 -1        34 8.44763E-05-2.53346E-05-2.53018E-05-8.94757E-08 1.81732E-20-8.33751E-18
 -1        35 8.17334E-05-2.45161E-05-2.44887E-05-1.26311E-07 7.93368E-20-8.75680E-18
 -1        36 7.85316E-05-2.35620E-05-2.35475E-05-1.52323E-07 4.83692E-20-8.84946E-18
 -1        37 7.52106E-05-2.25731E-05-2.25784E-05-1.57901E-07-3.64845E-19-9.47963E-18
 -1        38 7.22278E-05-2.16854E-05-2.17138E-05-1.35868E-07-2.22772E-19-1.02471E-17
 -1        39 7.00741E-05-2.10447E-05-2.10930E-05-8.57060E-08-3.26265E-20-1.08636E-17
 -1        40 6.91517E-05-2.07706E-05-2.08288E-05-1.57887E-08 1.33490E-19-1.11035E-17
 -1        41 6.96595E-05-2.09222E-05-2.09769E-05 5.83889E-08 6.21328E-20-1.15743E-17
 -1        42 7.15322E-05-2.14801E-05-2.15193E-05 1.19832E-07-2.84749E-19-1.16797E-17
 -1        43 7.44644E-05-2.23536E-05-2.23709E-05 1.56549E-07-4.74483E-20-1.12392E-17
 -1        44 7.80065E-05-2.34090E-05-2.34051E-05 1.65272E-07 2.37394E-19-9.94693E-18
 -1        45 8.16895E-05-2.45069E-05-2.44879E-05 1.50807E-07-1.88073E-19-9.69723E-18
 -1        46 8.51284E-05-2.55329E-05-2.55066E-05 1.22344E-07 1.96310E-19-1.01286E-17
 -1        47 8.80760E-05-2.64134E-05-2.63868E-05 8.93141E-08 5.03331E-20-7.86675E-18
 -1        48 9.04263E-05-2.71167E-05-2.70943E-05 5.86910E-08-1.92431E-19-7.98299E-18
 -1        49 9.21848E-05-2.76442E-05-2.76277E-05 3.41777E-08 1.67813E-19-8.85987E-18
 -1        50 9.34253E-05-2.80174E-05-2.80068E-05 1.67340E-08-1.75866E-19-9.25887E-18
 -1        51 9.42519E-05-2.82670E-05-2.82612E-05 5.61981E-09 7.95471E-20-9.80057E-18
 -1        52 9.47707E-05-2.84245E-05-2.84220E-05-6.33827E-10 1.01611E-20-9.63842E-18
 -1        53 9.50747E-05-2.85174E-05-2.85170E-05-3.57019E-09 1.17522E-19-8.51133E-18
 -1        54 9.52374E-05-2.85677E-05-2.85684E-05-4.47787E-09-1.47375E-19-8.29921E-18
 -1        55 9.53126E-05-2.85914E-05-2.85925E-05-4.29184E-09 8.40459E-20-8.92365E-18
 -1        56 9.53372E-05-2.85996E-05-2.86008E-05-3.61975E-09 1.91616E-19-8.51707E-18
 -1        57 9.53352E-05-2.85996E-05-2.86007E-05-2.81682E-09 7.23129E-20-8.86161E-18
 -1        58 9.53213E-05-2.85958E-05-2.85967E-05-2.06561E-09-1.16163E-20-1.02248E-17
 -1        59 9.53036E-05-2.85908E-05-2.85914E-05-1.44178E-09-2.91836E-19-9.26648E-18
 -1        60 9.52866E-05-2.85859E-05-2.85863E-05-9.61375E-10-3.37256E-19-7.83177E-18
 -1        61 9.52721E-05-2.85816E-05-2.85819E-05-6.11322E-10 3.45135E-19-9.10669E-18
 -1        62 9.52606E-05-2.85782E-05-2.85784E-05-3.67546E-10-4.21270E-19-1.07952E-17
 -1        63 9.52520E-05-2.85756E-05-2.85758E-05-2.04559E-10-5.74920E-19-9.92109E-18
 -1        64 9.52460E-05-2.85738E-05-2.85739E-05-9.98753E-11 1.98718E-19-7.68878E-18
 -1        65 9.52419E-05-2.85726E-05-2.85726E-05-3.54949E-11 3.60106E-19-5.68150E-18
 -1        66 9.52393E-05-2.85718E-05-2.85718E-05 2.13735E-12-7.85621E-19-8.08185E-18
 -1        67 9.52377E-05-2.85713E-05-2.85714E-05 2.28533E-11 3.69191E-19-5.77910E-18
 -1        68 9.52370E-05-2.85711E-05-2.85711E-05 3.36335E-11 9.69593E-20-4.22481E-18
 -1        69 9.52367E-05-2.85710E-05-2.85710E-05 3.92334E-11-1.55213E-19-3.74324E-18
 -1        70 9.52368E-05-2.85711E-05-2.85710E-05 4.28695E-11 8.14317E-19 8.25041E-19
 -1        71 9.52370E-05-2.85711E-05-2.85711E-05 4.03036E-11 4.30376E-19 3.16233E-18
 -1        72 1.13991E-04-3.82785E-05-3.57387E-05 4.94949E-06-2.28699E-19 8.62174E-18
 -1        73 9.32644E-05-2.78400E-05-2.92019E-05-4.06410E-07-3.05858E-20 9.01415E-18
 -1        74 8.94583E-05-2.69540E-05-2.70540E-05-3.77111E-07-1.38735E-20 8.85087E-18
 -1        75 8.84421E-05-2.66234E-05-2.65277E-05-2.01940E-07 3.74630E-20 8.76565E-18
 -1        76 8.87306E-05-2.66843E-05-2.65974E-05-1.34872E-07-5.41224E-21 8.66878E-18
 -1        77 8.97844E-05-2.69818E-05-2.69300E-05-9.60285E-08 1.06610E-19 8.20212E-18
 -1        78 9.14915E-05-2.74873E-05-2.74633E-05-7.62557E-08 3.07753E-20 7.88863E-18
 -1        79 9.40115E-05-2.82448E-05-2.82522E-05-7.68243E-08-7.35347E-20 7.98534E-18
 -1        80 9.77981E-05-2.93845E-05-2.94500E-05-1.11787E-07 8.14806E-20 8.31839E-18
 -1        81 1.03715E-04-3.11595E-05-3.13412E-05-2.13666E-07-1.50630E-20 8.55215E-18
 -1        82 1.13188E-04-3.39624E-05-3.43813E-05-4.95196E-07 1.01045E-19 8.51358E-18
 -1        83 1.27522E-04-3.82234E-05-3.89079E-05-9.39266E-07-4.12631E-20 8.38700E-18
 -1        84 1.50503E-04-4.50694E-05-4.58025E-05-1.87663E-06 1.74787E-19 8.27001E-18
 -1        85 1.82354E-04-5.47891E-05-5.43159E-05-3.08025E-06-4.44246E-20 7.63336E-18
 -1        86 2.15092E-04-6.52928E-05-6.13655E-05-2.68069E-06 3.02153E-20 9.12382E-18
 -1        87 2.23055E-04-6.84204E-05-6.22500E-05 4.27547E-06-2.56697E-19 1.26619E-17
 -1        88 1.85588E-04-5.54277E-05-5.62240E-05 1.38615E-05-1.14909E-19 1.58332E-17
 -1        89 1.08313E-04-2.61323E-05-4.79909E-05 1.31831E-05-4.76827E-19 1.94885E-17
 -1        90 7.27402E-05-1.25239E-05-4.43930E-05-2.38933E-06 6.16852E-19 2.01324E-17
 -1        91 1.09877E-04-2.73326E-05-4.78017E-05-1.23906E-05 4.29605E-19 1.48328E-17
 -1        92 1.75685E-04-5.16017E-05-5.50264E-05-1.08409E-05 3.89106E-21 8.77653E-18
 -1        93 2.20741E-04-6.77851E-05-6.13898E-05-3.67609E-06-1.95307E-19 5.70943E-18
 -1        94 2.23958E-04-6.85629E-05-6.27864E-05 9.99703E-07 6.76435E-20 5.02809E-18
 -1        95 1.98120E-04-5.99153E-05-5.80386E-05 2.24832E-06-5.80132E-19 4.32919E-18
 -1        96 1.63818E-04-4.90202E-05-4.96436E-05 1.66999E-06 1.23300E-19 5.69037E-18
 -1        97 1.37292E-04-4.09989E-05-4.19941E-05 9.04151E-07-2.81079E-19 5.12873E-18
 -1        98 1.19959E-04-3.58767E-05-3.65752E-05 4.35377E-07 3.59711E-19 7.43578E-18
 -1        99 1.09435E-04-3.27863E-05-3.31724E-05 1.96143E-07 1.63840E-20 7.88173E-18
 -1       100 1.03286E-04-3.09749E-05-3.11660E-05 7.45169E-08-1.33102E-20 8.51951E-18
 -1       101 9.98673E-05-2.99628E-05-3.00584E-05 3.56115E-08-9.28676E-20 8.89222E-18
 -1       102 9.77945E-05-2.93436E-05-2.93884E-05 9.95265E-09-1.64578E-19 1.00775E-17
 -1       103 9.66313E-05-2.89946E-05-2.90149E-05 5.58591E-10-4.80404E-19 7.88748E-18
 -1       104 9.59842E-05-2.87994E-05-2.88082E-05-2.63018E-09 2.07453E-19 5.52730E-18
 -1       105 9.56287E-05-2.86915E-05-2.86951E-05-3.26011E-09-3.09794E-19 4.51141E-18
 -1       106 9.54364E-05-2.86329E-05-2.86340E-05-2.92275E-09-3.71845E-19 8.08338E-18
 -1       107 9.53342E-05-2.86016E-05-2.86017E-05-2.31253E-09-3.26883E-19 1.10872E-17
 -1       108 9.52813E-05-2.85852E-05-2.85849E-05-1.71097E-09-3.31506E-20 1.07449E-17
 -1       109 9.52546E-05-2.85769E-05-2.85765E-05-1.21368E-09 8.05379E-19 7.57392E-18
 -1       110 9.52417E-05-2.85729E-05-2.85725E-05-8.36899E-10-4.09575E-19 4.98626E-18
 -1       111 9.52357E-05-2.85709E-05-2.85707E-05-5.85629E-10-4.26567E-19 4.77018E-18
 -1       112 9.52334E-05-2.85702E-05-2.85699E-05-3.78015E-10-4.86203E-19 6.87987E-18
 -1       113 9.52325E-05-2.85698E-05-2.85697E-05-2.57410E-10 2.64340E-19 4.36178E-18
 -1       114 9.52325E-05-2.85698E-05-2.85697E-05-1.72263E-10 4.05194E-19-2.14465E-18
 -1       115 9.52328E-05-2.85699E-05-2.85698E-05-1.17219E-10-5.95101E-19 3.02571E-18
 -1       116 9.52333E-05-2.85700E-05-2.85700E-05-8.21918E-11-6.52551E-19 6.08439E-18
 -1       117 9.52339E-05-2.85702E-05-2.85701E-05-6.04084E-11 8.23270E-19 1.50566E-18
 -1       118 9.52345E-05-2.85704E-05-2.85703E-05-4.74704E-11-3.80710E-19-2.12782E-18
 -1       119 9.52352E-05-2.85706E-05-2.85706E-05-4.06022E-11-6.33138E-19-2.99260E-18
 -1       120 9.52359E-05-2.85708E-05-2.85708E-05-3.74885E-11-1.24650E-19-1.81713E-18
 -1       121 9.52366E-05-2.85710E-05-2.85710E-05-3.66203E-11-1.06172E-18 6.09801E-19
 -1       122 9.52370E-05-2.85711E-05-2.85711E-05-1.61811E-11-1.27173E-18 1.03292E-17
 -1       123 9.52372E-05-2.85713E-05-2.85711E-05-8.00247E-12 5.01957E-18-3.75152E-18
 -1       124 9.52373E-05-2.85717E-05-2.85710E-05-3.64493E-11-3.77459E-18 1.88970E-18
 -1       125 9.52375E-05-2.85722E-05-2.85708E-05-3.65054E-11-6.77507E-18-7.73915E-19
 -1       126 9.52376E-05-2.85726E-05-2.85707E-05-2.64254E-11-1.62245E-17-2.43229E-18
 -1       127 9.52376E-05-2.85727E-05-2.85707E-05-1.26567E-11-1.40026E-17-8.03313E-19
 -1       128 9.52376E-05-2.85726E-05-2.85707E-05-5.35174E-15-1.31612E-17 2.52577E-19
 -1       129 9.52375E-05-2.85723E-05-2.85708E-05 1.01745E-11-1.10748E-17 4.27169E-19
 -1       130 9.52374E-05-2.85719E-05-2.85709E-05 1.54421E-11-1.42559E-17-2.23379E-19
 -1       131 9.52373E-05-2.85716E-05-2.85710E-05 1.54784E-11-4.11523E-18 3.08726E-18
 -1       132 9.52372E-05-2.85714E-05-2.85711E-05 1.11097E-11-9.33648E-18-3.81693E-18
 -1       133 9.52372E-05-2.85713E-05-2.85711E-05 4.18923E-12-1.15646E-17 1.26064E-18
 -1       134 9.52372E-05-2.85714E-05-2.85711E-05-2.05121E-12-1.23083E-17-2.26615E-18
 -1       135 9.52372E-05-2.85715E-05-2.85711E-05-4.73587E-12-8.02317E-18 1.87740E-18
 -1       136 9.52373E-05-2.85715E-05-2.85710E-05 2.57103E-13-1.50936E-18-1.26945E-18
 -1       137 9.52372E-05-2.85714E-05-2.85711E-05 2.12960E-11-9.34664E-18-1.62233E-18
 -1       138 9.52372E-05-2.85713E-05-2.85711E-05 6.09728E-11-6.70123E-18 9.15040E-19
 -1       139 3.47997E-05-1.24707E-04 2.52841E-05-3.71005E-05 1.06650E-17 1.68562E-18
 -1       140 1.17520E-05-7.88022E-05 1.54959E-05-4.85336E-05 1.24353E-17 7.07961E-18
 -1       141 1.57058E-06-2.00244E-05-3.85121E-06-1.97382E-05 1.43653E-17 1.02728E-17
 -1       142 3.96185E-05 1.13985E-05-2.86906E-05 4.29330E-05 9.85523E-18 1.17001E-17
 -1       143 1.57348E-04-1.10406E-05-5.83975E-05 1.09761E-04 5.30327E-18 8.12559E-18
 -1       144 3.21097E-04-7.84707E-05-8.37842E-05 1.21933E-04 4.72221E-19 1.95326E-18
 -1       145 4.49301E-04-1.41625E-04-9.88844E-05 4.83003E-05-8.68526E-19-5.14064E-18
 -1       146 4.35589E-04-1.33933E-04-9.75393E-05-6.42059E-05 9.11063E-19-6.93551E-18
 -1       147 2.83976E-04-6.18625E-05-7.84989E-05-1.23204E-04 2.19297E-18-6.80760E-18
 -1       148 1.20414E-04 6.16002E-07-5.11489E-05-9.85142E-05 2.89177E-18-4.56043E-18
 -1       149 2.51737E-05 7.91611E-06-2.29858E-05-2.72349E-05 2.09048E-18-2.18111E-18
 -1       150 1.11638E-06-3.35100E-05 1.50783E-06 3.00462E-05-1.22777E-18 5.01655E-19
 -1       151 1.70353E-05-9.12748E-05 1.84980E-05 4.99362E-05-7.96020E-18 2.97335E-18
 -1       152 3.91562E-05-1.30195E-04 2.59369E-05 3.00550E-05-1.15126E-17 2.16801E-18
 -1       153 4.08933E-05-1.25424E-04 2.42514E-05-4.85436E-06-8.83477E-18 6.88479E-20
 -1       154 2.32416E-05-8.00240E-05 1.44874E-05-2.31465E-05-7.01470E-18-1.91133E-18
 -1       155 6.38248E-06-1.81235E-05-1.55471E-06-7.23530E-06-5.69460E-18-2.20821E-18
 -1       156 1.85026E-05 2.96632E-05-2.27265E-05 4.37168E-05-2.98876E-18-2.22854E-18
 -1       157 7.92952E-05 3.33450E-05-4.53250E-05 1.02914E-04-2.01763E-18-2.59277E-18
 -1       158 1.82861E-04-8.97411E-06-6.67782E-05 1.33157E-04-6.85461E-19-1.14604E-18
 -1       159 2.87585E-04-6.94636E-05-8.21763E-05 1.04363E-04 1.16006E-18 4.54221E-18
 -1       160 3.43416E-04-1.04870E-04-8.92508E-05 2.60357E-05 4.12558E-19 1.02127E-17
 -1       161 2.50172E-04-4.63123E-05-7.72542E-05-1.23221E-04-4.05009E-18 1.17170E-17
 -1       162 1.46151E-04 9.37539E-06-6.03816E-05-1.29601E-04-6.46456E-18 1.00484E-17
 -1       163 5.96064E-05 3.85822E-05-4.03454E-05-9.10098E-05-7.27051E-18 7.49158E-18
 -1       164 1.13200E-05 2.34863E-05-1.79646E-05-3.08280E-05-5.05425E-18 3.74727E-18
 -1       165 7.92817E-06-2.77487E-05 1.39414E-06 1.25538E-05 1.06896E-18 3.82859E-19
 -1       166 2.64821E-05-8.78281E-05 1.61172E-05 2.15382E-05 4.79039E-18-1.27336E-18
 -1       167 9.49427E-05-1.23650E-05-3.55938E-05-2.23453E-05-5.31182E-19-3.56858E-18
 -1       168 8.92880E-05-8.47401E-06-3.47969E-05-1.73843E-05 1.57125E-19-3.28057E-18
 -1       169 8.65725E-05-6.53400E-06-3.44145E-05-1.35654E-05 5.95477E-19-2.83569E-18
 -1       170 8.52037E-05-5.55108E-06-3.42214E-05-1.03328E-05 8.86574E-19-2.35095E-18
 -1       171 8.44486E-05-4.98239E-06-3.41263E-05-7.48183E-06 1.06678E-18-1.79004E-18
 -1       172 8.39953E-05-4.62132E-06-3.40792E-05-4.81471E-06 1.16325E-18-1.31251E-18
 -1       173 8.37384E-05-4.40589E-06-3.40576E-05-2.29723E-06 1.30687E-18-8.68004E-19
 -1       174 8.36312E-05-4.30930E-06-3.40518E-05 1.34714E-07 1.35143E-18-4.90320E-19
 -1       175 8.36725E-05-4.33267E-06-3.40603E-05 2.54134E-06 1.41389E-18-8.92098E-20
 -1       176 8.38938E-05-4.49779E-06-3.40879E-05 4.99062E-06 1.44486E-18 3.41467E-19
 -1       177 8.43492E-05-4.83887E-06-3.41442E-05 7.52221E-06 1.42683E-18 8.86599E-19
 -1       178 8.51765E-05-5.44607E-06-3.42529E-05 1.03316E-05 1.45804E-18 1.57534E-18
 -1       179 8.66416E-05-6.49885E-06-3.44574E-05 1.35281E-05 1.34283E-18 2.40478E-18
 -1       180 8.94328E-05-8.50914E-06-3.48430E-05 1.73295E-05 1.03721E-18 3.46024E-18
 -1       181 9.51289E-05-1.24981E-05-3.56038E-05 2.23583E-05 4.01282E-19 4.76207E-18
 -1       182 1.03508E-04-2.73364E-05-3.26430E-05-1.21254E-05-6.85223E-19-3.01112E-18
 -1       183 9.72031E-05-2.83246E-05-2.95553E-05-4.74628E-06-5.83050E-19-3.01230E-18
 -1       184 9.35643E-05-2.76666E-05-2.81949E-05-1.82237E-06-4.32165E-19-2.99899E-18
 -1       185 9.19472E-05-2.74210E-05-2.76202E-05-5.45273E-07-1.68889E-19-3.21193E-18
 -1       186 9.12169E-05-2.73139E-05-2.73709E-05 2.18748E-09-9.45410E-20-3.31176E-18
 -1       187 9.09096E-05-2.72930E-05-2.72586E-05 1.47377E-07-3.35496E-19-3.23588E-18
 -1       188 9.07250E-05-2.72925E-05-2.71851E-05 2.20692E-08-2.01201E-19-3.31458E-18
 -1       189 9.04550E-05-2.72577E-05-2.70872E-05-3.10552E-07-9.74597E-20-3.39626E-18
 -1       190 8.99436E-05-2.71423E-05-2.69191E-05-8.09368E-07-3.09983E-19-2.94925E-18
 -1       191 8.90750E-05-2.69066E-05-2.66484E-05-1.42889E-06 1.21926E-21-2.72049E-18
 -1       192 8.77791E-05-2.65208E-05-2.62579E-05-2.10058E-06-1.11257E-19-3.71751E-18
 -1       193 8.60484E-05-2.59717E-05-2.57500E-05-2.72169E-06-3.16728E-19-4.15449E-18
 -1       194 8.39595E-05-2.52745E-05-2.51510E-05-3.15726E-06 7.50890E-20-4.26640E-18
 -1       195 8.16884E-05-2.44834E-05-2.45137E-05-3.26180E-06-4.66617E-19-4.24135E-18
 -1       196 7.95040E-05-2.36945E-05-2.39126E-05-2.92129E-06-5.41899E-19-3.91467E-18
 -1       197 7.77302E-05-2.30345E-05-2.34326E-05-2.10390E-06-3.33822E-19-4.47761E-18
 -1       198 7.66746E-05-2.26309E-05-2.31515E-05-8.95343E-07-2.96265E-19-4.61816E-18
 -1       199 7.65461E-05-2.25732E-05-2.31208E-05 5.06420E-07-2.36726E-19-4.84304E-18
 -1       200 7.73910E-05-2.28807E-05-2.33520E-05 1.84485E-06-4.60268E-19-5.32024E-18
 -1       201 7.90800E-05-2.34964E-05-2.38140E-05 2.88645E-06 1.58296E-19-5.62112E-18
 -1       202 8.13510E-05-2.43085E-05-2.44421E-05 3.49100E-06 4.09370E-19-5.34772E-18
 -1       203 8.38876E-05-2.51886E-05-2.51551E-05 3.63880E-06 5.29031E-20-5.16940E-18
 -1       204 8.63976E-05-2.60273E-05-2.58742E-05 3.41022E-06 3.19268E-19-3.97963E-18
 -1       205 8.86650E-05-2.67531E-05-2.65369E-05 2.93798E-06 6.88545E-19-3.81912E-18
 -1       206 9.05678E-05-2.73344E-05-2.71045E-05 2.35847E-06 3.43942E-21-4.01442E-18
 -1       207 9.20680E-05-2.77710E-05-2.75608E-05 1.77961E-06-3.29583E-19-3.44055E-18
 -1       208 9.31875E-05-2.80809E-05-2.79075E-05 1.26899E-06-2.59074E-19-3.91573E-18
 -1       209 9.39816E-05-2.82899E-05-2.81577E-05 8.57082E-07-1.81586E-19-4.17934E-18
 -1       210 9.45182E-05-2.84238E-05-2.83295E-05 5.47606E-07-5.46158E-20-3.46069E-18
 -1       211 9.48632E-05-2.85050E-05-2.84417E-05 3.28843E-07 5.28670E-19-3.54045E-18
 -1       212 9.50729E-05-2.85512E-05-2.85111E-05 1.82663E-07-4.46367E-21-3.07817E-18
 -1       213 9.51920E-05-2.85751E-05-2.85513E-05 9.03407E-08-5.26046E-19-3.36736E-18
 -1       214 9.52532E-05-2.85856E-05-2.85726E-05 3.55698E-08 5.00122E-19-4.12432E-18
 -1       215 9.52796E-05-2.85886E-05-2.85823E-05 5.55000E-09-1.56326E-19-3.63893E-18
 -1       216 9.52863E-05-2.85877E-05-2.85854E-05-9.04299E-09-8.29027E-19-4.03850E-18
 -1       217 9.52830E-05-2.85852E-05-2.85849E-05-1.46008E-08 7.79358E-19-3.53174E-18
 -1       218 9.52756E-05-2.85822E-05-2.85829E-05-1.52711E-08-1.16651E-19-3.80999E-18
 -1       219 9.52671E-05-2.85794E-05-2.85805E-05-1.36026E-08-2.22110E-19-2.58565E-18
 -1       220 9.52592E-05-2.85770E-05-2.85781E-05-1.10678E-08-1.33930E-18-4.49636E-18
 -1       221 9.52526E-05-2.85751E-05-2.85761E-05-8.45251E-09-3.48798E-21-4.06509E-18
 -1       222 9.52474E-05-2.85736E-05-2.85745E-05-6.12666E-09 9.79404E-19-3.20168E-18
 -1       223 9.52436E-05-2.85726E-05-2.85733E-05-4.22341E-09 1.29106E-18-2.33630E-18
 -1       224 9.52410E-05-2.85720E-05-2.85724E-05-2.75149E-09-9.74329E-19-1.97264E-18
 -1       225 9.52392E-05-2.85715E-05-2.85718E-05-1.66220E-09 1.76696E-18-4.40662E-19
 -1       226 9.52381E-05-2.85713E-05-2.85715E-05-8.87415E-10 7.76878E-19 9.49368E-19
 -1       227 9.52375E-05-2.85711E-05-2.85713E-05-3.60676E-10 5.84618E-19-8.63669E-19
 -1       228 9.52372E-05-2.85711E-05-2.85712E-05-2.85296E-11 1.94722E-18-7.55148E-19
 -1       229 9.52371E-05-2.85711E-05-2.85711E-05 1.38635E-10 1.65619E-18 1.58328E-18
 -1       230 1.03777E-04-2.71528E-05-3.28371E-05 1.25167E-05 1.46748E-19 5.24393E-18
 -1       231 9.75323E-05-2.83312E-05-2.96967E-05 4.83366E-06 2.23670E-19 4.83576E-18
 -1       232 9.39758E-05-2.77321E-05-2.83417E-05 1.67325E-06 2.14084E-19 4.41802E-18
 -1       233 9.25975E-05-2.75395E-05-2.78422E-05 1.37473E-07 1.76987E-19 4.12038E-18
 -1       234 9.23516E-05-2.75331E-05-2.77545E-05-7.96027E-07 3.50179E-19 3.93290E-18
 -1       235 9.28937E-05-2.76886E-05-2.79264E-05-1.55955E-06 2.50771E-19 3.91985E-18
 -1       236 9.41168E-05-2.79828E-05-2.83239E-05-2.42923E-06 2.00247E-19 3.57845E-18
 -1       237 9.61006E-05-2.84200E-05-2.89821E-05-3.68411E-06-2.55192E-19 3.22331E-18
 -1       238 9.90951E-05-2.90351E-05-2.99965E-05-5.68058E-06-2.36388E-19 3.49079E-18
 -1       239 1.03517E-04-2.99016E-05-3.15207E-05-8.90149E-06 4.55049E-20 3.61010E-18
 -1       240 1.09570E-04-3.11026E-05-3.36095E-05-1.35899E-05 1.44499E-19 3.74357E-18
 -1       241 1.18480E-04-3.31301E-05-3.65627E-05-2.03861E-05 2.07066E-19 3.57363E-18
 -1       242 1.30534E-04-3.70043E-05-3.99833E-05-2.77919E-05 2.15176E-19 3.15938E-18
 -1       243 1.46355E-04-4.53756E-05-4.29129E-05-2.99227E-05-7.46845E-19 3.47895E-18
 -1       244 1.66873E-04-6.07329E-05-4.48600E-05-1.60705E-05-2.15025E-18 4.11728E-18
 -1       245 1.87220E-04-7.29086E-05-4.87016E-05 1.49010E-05-2.38366E-18 4.84937E-18
 -1       246 2.05750E-04-4.43214E-05-6.84511E-05 2.05462E-05 2.19382E-19 5.91102E-18
 -1       247 2.03684E-04-4.39620E-05-6.80576E-05-2.22540E-05 3.06329E-18 5.46093E-18
 -1       248 1.98049E-04-5.99864E-05-6.01920E-05-4.60700E-05 3.32842E-18 4.54105E-18
 -1       249 1.94808E-04-7.16961E-05-5.28196E-05-2.96592E-05 2.40547E-18 1.85732E-18
 -1       250 1.82350E-04-6.43907E-05-4.96919E-05 3.42410E-06 5.06632E-19 6.80101E-19
 -1       251 1.64455E-04-5.21916E-05-4.74726E-05 2.29136E-05 1.06170E-19 9.52012E-19
 -1       252 1.44761E-04-4.23717E-05-4.37687E-05 2.49621E-05-6.07872E-19 4.42231E-19
 -1       253 1.28647E-04-3.68728E-05-3.94002E-05 1.89975E-05-2.10924E-19 2.28860E-18
 -1       254 1.16759E-04-3.36680E-05-3.56709E-05 1.25537E-05-5.80932E-19 2.29541E-18
 -1       255 1.08665E-04-3.17144E-05-3.29995E-05 7.76708E-06-4.54479E-19 2.86958E-18
 -1       256 1.03439E-04-3.04987E-05-3.12573E-05 4.64632E-06-3.23825E-19 3.04891E-18
 -1       257 1.00289E-04-2.97666E-05-3.02162E-05 2.79806E-06 3.68959E-19 3.14534E-18
 -1       258 9.82290E-05-2.92845E-05-2.95389E-05 1.62331E-06-6.42605E-19 2.10450E-18
 -1       259 9.69921E-05-2.89926E-05-2.91360E-05 9.31232E-07 1.90677E-19 1.98955E-18
 -1       260 9.62565E-05-2.88175E-05-2.88979E-05 5.28925E-07 3.27374E-19 2.41395E-18
 -1       261 9.58236E-05-2.87137E-05-2.87584E-05 2.97172E-07 1.61486E-19 5.43929E-18
 -1       262 9.55714E-05-2.86529E-05-2.86775E-05 1.64923E-07-1.16851E-18 4.46232E-18
 -1       263 9.54259E-05-2.86176E-05-2.86310E-05 9.02655E-08-8.33184E-19 4.14046E-18
 -1       264 9.53426E-05-2.85973E-05-2.86044E-05 4.86425E-08 1.87863E-19 4.26989E-18
 -1       265 9.52953E-05-2.85857E-05-2.85894E-05 2.57661E-08 1.54382E-18 4.34135E-18
 -1       266 9.52687E-05-2.85791E-05-2.85810E-05 1.33884E-08 1.04315E-18 3.86177E-18
 -1       267 9.52537E-05-2.85754E-05-2.85763E-05 6.79954E-09 6.07197E-19 1.97576E-18
 -1       268 9.52456E-05-2.85733E-05-2.85737E-05 3.47260E-09-3.39770E-19 9.29252E-19
 -1       269 9.52408E-05-2.85721E-05-2.85722E-05 1.62514E-09 1.46547E-18-1.06060E-18
 -1       270 9.52381E-05-2.85714E-05-2.85714E-05 6.62712E-10 1.87235E-18-1.40651E-18
 -1       271 9.52367E-05-2.85710E-05-2.85710E-05 1.55437E-10-3.07279E-18-1.84562E-18
 -1       272 9.52360E-05-2.85708E-05-2.85708E-05-1.25822E-10 3.87138E-19-2.28635E-18
 -1       273 9.52357E-05-2.85707E-05-2.85707E-05-2.93648E-10 6.94833E-19-4.11702E-18
 -1       274 9.52358E-05-2.85707E-05-2.85707E-05-4.01116E-10 1.31264E-18-3.26799E-18
 -1       275 9.52359E-05-2.85708E-05-2.85708E-05-4.69408E-10-1.83721E-20-2.35339E-18
 -1       276 9.52363E-05-2.85709E-05-2.85709E-05-4.98873E-10-9.45893E-19-2.72834E-18
 -1       277 9.52366E-05-2.85710E-05-2.85710E-05-4.73233E-10-8.69337E-19-1.00774E-18
 -1       278 9.52369E-05-2.85711E-05-2.85711E-05-3.49175E-10-4.53156E-18-2.48259E-18
 -1       279 9.52371E-05-2.85712E-05-2.85711E-05-2.19562E-10-1.27726E-18-5.62698E-18
 -1       280 9.52372E-05-2.85715E-05-2.85710E-05-3.80110E-10 1.79546E-18-4.26798E-19
 -1       281 9.52374E-05-2.85718E-05-2.85710E-05-3.58147E-10-9.98517E-19-2.20567E-18
 -1       282 9.52374E-05-2.85720E-05-2.85709E-05-2.08577E-10-2.81816E-18-3.90235E-18
 -1       283 9.52374E-05-2.85720E-05-2.85709E-05-1.39397E-11-5.11880E-18 5.73991E-19
 -1       284 9.52374E-05-2.85719E-05-2.85709E-05 1.58672E-10-7.04777E-18 1.65519E-18
 -1       285 9.52373E-05-2.85717E-05-2.85710E-05 2.71282E-10-7.74653E-18 1.00476E-18
 -1       286 9.52372E-05-2.85714E-05-2.85711E-05 3.00325E-10-5.29918E-18-1.31236E-19
 -1       287 9.52371E-05-2.85711E-05-2.85711E-05 2.49913E-10-6.49057E-18 3.90791E-18
 -1       288 9.52371E-05-2.85709E-05-2.85712E-05 1.45009E-10-4.90147E-18-2.45425E-18
 -1       289 9.52370E-05-2.85709E-05-2.85712E-05 2.44960E-11-3.90618E-18-2.81296E-19
 -1       290 9.52371E-05-2.85709E-05-2.85712E-05-6.69318E-11-5.47906E-18-9.29442E-19
 -1       291 9.52371E-05-2.85710E-05-2.85712E-05-9.69011E-11-3.24455E-18 3.40105E-18
 -1       292 9.52372E-05-2.85711E-05-2.85712E-05-4.60506E-11-3.82313E-18 3.59380E-19
 -1       293 9.52372E-05-2.85712E-05-2.85711E-05 5.89823E-11-3.35487E-18-2.91124E-18
 -1       294 9.46384E-06-5.73044E-05 1.68241E-05-1.00203E-05 5.00852E-18 2.23892E-18
 -1       295 1.87164E-05-4.72126E-05 9.48564E-06 9.40569E-06 4.11383E-18 2.72268E-18
 -1       296 4.91079E-05-5.06796E-05-2.75034E-06 2.04536E-05 4.71226E-18 4.40357E-18
 -1       297 9.66304E-05-5.38030E-05-2.14396E-05 2.77079E-05 6.50437E-18 3.94760E-18
 -1       298 1.72818E-04-6.97143E-05-4.45579E-05 1.93996E-05 5.67533E-18 2.81935E-18
 -1       299 2.32022E-04-7.03448E-05-6.56367E-05 5.67483E-06 4.90678E-18 2.58260E-18
 -1       300 2.71379E-04-6.40870E-05-8.05080E-05-3.57988E-06 3.44912E-18 2.65968E-18
 -1       301 2.74699E-04-5.75171E-05-8.41899E-05 1.29367E-06 7.12778E-19 1.73896E-18
 -1       302 2.51921E-04-6.07806E-05-7.61278E-05 1.16629E-05 1.96088E-19 2.32468E-18
 -1       303 2.19073E-04-6.82548E-05-6.15914E-05-1.25933E-05-3.72906E-19-3.14249E-19
 -1       304 1.55374E-04-6.59081E-05-3.96859E-05-2.59194E-05-1.37918E-18-1.72795E-19
 -1       305 8.84887E-05-5.53989E-05-1.71926E-05-2.80622E-05-2.22600E-18-5.64653E-19
 -1       306 4.10384E-05-4.95618E-05 5.65197E-07-1.99454E-05-3.59714E-18-1.57707E-18
 -1       307 1.47394E-05-5.41570E-05 1.31767E-05-1.09578E-06-4.25348E-18-2.38969E-19
 -1       308 1.03885E-05-5.86495E-05 1.69477E-05 1.11143E-05-4.49727E-18 1.56563E-18
 -1       309 1.61163E-05-5.04666E-05 1.18260E-05 2.24171E-05-3.46860E-18 4.83973E-19
 -1       310 3.47082E-05-4.19995E-05 9.66502E-07 3.51996E-05-2.65926E-18 2.03288E-20
 -1       311 6.54686E-05-3.35240E-05-1.48628E-05 4.75149E-05-2.02801E-18-4.36222E-20
 -1       312 1.07790E-04-2.87203E-05-3.37599E-05 5.65337E-05-1.18394E-18-5.96099E-19
 -1       313 1.56447E-04-3.07141E-05-5.25645E-05 5.34983E-05-6.42792E-19 2.26158E-19
 -1       314 2.01307E-04-3.31553E-05-6.91845E-05 4.77295E-05-1.94092E-18 2.59192E-18
 -1       315 2.32048E-04-3.92052E-05-7.89830E-05 2.39005E-05-1.76945E-18 3.95247E-18
 -1       316 2.29522E-04-3.51644E-05-8.01310E-05-6.10515E-06-1.86961E-18 4.35976E-18
 -1       317 2.21280E-04-3.66088E-05-7.58416E-05-3.48870E-05-1.03666E-18 5.48729E-18
 -1       318 1.84971E-04-3.08206E-05-6.38058E-05-5.05152E-05-1.35654E-18 4.16296E-18
 -1       319 1.40107E-04-2.53593E-05-4.79918E-05-6.07621E-05-1.85045E-18 3.49041E-18
 -1       320 9.66039E-05-2.81310E-05-2.95212E-05-5.56760E-05-1.30252E-18 3.38368E-18
 -1       321 5.57493E-05-3.25690E-05-1.14018E-05-4.46064E-05 1.07107E-18 4.42458E-18
 -1       322 2.99371E-05-4.35016E-05 3.29316E-06-3.15940E-05 2.25607E-18 1.82731E-18
 -1       323 1.39606E-05-5.07853E-05 1.27795E-05-2.16612E-05 4.11139E-18 1.53588E-18
 -1       324 2.08266E-04-6.78660E-05-5.98422E-05 4.13975E-05-1.58109E-18 6.51665E-18
 -1       325 9.52372E-05-2.85712E-05-2.85711E-05 1.10384E-10 3.58985E-19 1.95082E-18
 -1       326 9.16960E-05-1.44531E-05-3.31676E-05-1.30771E-05 2.77772E-19-2.34038E-18
 -1       327 9.57664E-05-1.91462E-05-3.29007E-05-1.46441E-05-2.33639E-19-2.65050E-18
 -1       328 8.80517E-05-1.04681E-05-3.33040E-05-8.10553E-06 1.13374E-18-1.67807E-18
 -1       329 8.72147E-05-9.53252E-06-3.33406E-05-5.62169E-06 1.32769E-18-1.26525E-18
 -1       330 8.67053E-05-8.95571E-06-3.33661E-05-3.23161E-06 1.54035E-18-8.35760E-19
 -1       331 8.64299E-05-8.64218E-06-3.33808E-05-9.23490E-07 1.65396E-18-4.87765E-19
 -1       332 8.63649E-05-8.56626E-06-3.33853E-05 1.32867E-06 1.68342E-18-1.05376E-19
 -1       333 8.65361E-05-8.75096E-06-3.33808E-05 3.56168E-06 1.74988E-18 2.38321E-19
 -1       334 8.69969E-05-9.24822E-06-3.33686E-05 5.78561E-06 1.74242E-18 6.59802E-19
 -1       335 8.78742E-05-1.01908E-05-3.33470E-05 8.12433E-06 1.74154E-18 1.22745E-18
 -1       336 8.93621E-05-1.17949E-05-3.33080E-05 1.05577E-05 1.58025E-18 1.85232E-18
 -1       337 9.18221E-05-1.45100E-05-3.32096E-05 1.28944E-05 1.37817E-18 2.46620E-18
 -1       338 9.60051E-05-1.93317E-05-3.29234E-05 1.44350E-05 7.87125E-19 3.46005E-18
 -1       339 5.18821E-05-3.84921E-05-6.04021E-06 3.34700E-05-3.63801E-19 2.29525E-18
 -1       340 9.64853E-05-2.60834E-05-3.01292E-05-6.42108E-06-3.17508E-19-2.15695E-18
 -1       341 9.49387E-05-2.71118E-05-2.90444E-05-3.00301E-06-3.65192E-19-1.90887E-18
 -1       342 9.38974E-05-2.75374E-05-2.84268E-05-1.24902E-06-1.63391E-19-1.97893E-18
 -1       343 9.32670E-05-2.77851E-05-2.80590E-05-4.37372E-07-3.83745E-20-1.89502E-18
 -1       344 9.28897E-05-2.79718E-05-2.78220E-05-2.40751E-07 8.54948E-21-1.56367E-18
 -1       345 9.26123E-05-2.81195E-05-2.76425E-05-4.89359E-07-8.79479E-20-1.39264E-18
 -1       346 9.23025E-05-2.82119E-05-2.74718E-05-1.08403E-06-1.17117E-19-1.34832E-18
 -1       347 9.18470E-05-2.82110E-05-2.72779E-05-1.94455E-06-2.23778E-19-1.51579E-18
 -1       348 9.11515E-05-2.80646E-05-2.70428E-05-2.97309E-06-4.33208E-19-1.48198E-18
 -1       349 9.01491E-05-2.77157E-05-2.67619E-05-4.02742E-06-6.83114E-19-1.36957E-18
 -1       350 8.88197E-05-2.71222E-05-2.64445E-05-4.90916E-06-6.08019E-19-1.99374E-18
 -1       351 8.72167E-05-2.62865E-05-2.61128E-05-5.37864E-06-7.21260E-21-2.03247E-18
 -1       352 8.54896E-05-2.52853E-05-2.57981E-05-5.20530E-06-5.27407E-19-1.75872E-18
 -1       353 8.38825E-05-2.42810E-05-2.55362E-05-4.24887E-06-6.23169E-19-2.01373E-18
 -1       354 8.26901E-05-2.34923E-05-2.53606E-05-2.54139E-06-4.56546E-19-2.14248E-18
 -1       355 8.21732E-05-2.31238E-05-2.52957E-05-3.22495E-07-4.88813E-19-2.32027E-18
 -1       356 8.24648E-05-2.32818E-05-2.53534E-05 2.00968E-06-4.79475E-19-2.43098E-18
 -1       357 8.35175E-05-2.39260E-05-2.55303E-05 4.02328E-06-2.59774E-19-2.48175E-18
 -1       358 8.51237E-05-2.48886E-05-2.58092E-05 5.39516E-06 8.11803E-20-2.59825E-18
 -1       359 8.69976E-05-2.59493E-05-2.61612E-05 5.99798E-06 8.37486E-19-2.46573E-18
 -1       360 8.88687E-05-2.69174E-05-2.65514E-05 5.89863E-06 4.66585E-19-1.92175E-18
 -1       361 9.05440E-05-2.76798E-05-2.69450E-05 5.28987E-06 3.97457E-19-1.63635E-18
 -1       362 9.19252E-05-2.82057E-05-2.73129E-05 4.40288E-06-1.40521E-19-2.78640E-18
 -1       363 9.29923E-05-2.85216E-05-2.76353E-05 3.43990E-06 2.40068E-19-2.86572E-18
 -1       364 9.37745E-05-2.86808E-05-2.79021E-05 2.54148E-06-8.40469E-20-2.21640E-18
 -1       365 9.43232E-05-2.87385E-05-2.81118E-05 1.78344E-06-9.91148E-20-1.48868E-18
 -1       366 9.46931E-05-2.87394E-05-2.82691E-05 1.19045E-06-1.08242E-19-1.57544E-18
 -1       367 9.49333E-05-2.87145E-05-2.83819E-05 7.54394E-07 1.31450E-19-2.71972E-18
 -1       368 9.50833E-05-2.86820E-05-2.84594E-05 4.50675E-07 2.60880E-19-2.99458E-18
 -1       369 9.51725E-05-2.86513E-05-2.85102E-05 2.49680E-07-2.85563E-19-1.77955E-18
 -1       370 9.52225E-05-2.86261E-05-2.85420E-05 1.23447E-07-2.31925E-20-1.04402E-18
 -1       371 9.52479E-05-2.86072E-05-2.85607E-05 4.87238E-08 3.02970E-19-1.76868E-18
 -1       372 9.52587E-05-2.85939E-05-2.85709E-05 7.72761E-09-1.00092E-18-1.49427E-18
 -1       373 9.52612E-05-2.85848E-05-2.85757E-05-1.22968E-08 1.21172E-18-6.30407E-19
 -1       374 9.52595E-05-2.85790E-05-2.85774E-05-2.00217E-08 4.48378E-19-2.40116E-19
 -1       375 9.52560E-05-2.85753E-05-2.85775E-05-2.10580E-08 6.31590E-19 1.34375E-18
 -1       376 9.52520E-05-2.85731E-05-2.85767E-05-1.88569E-08-1.20144E-18 7.04273E-19
 -1       377 9.52483E-05-2.85718E-05-2.85756E-05-1.54234E-08 5.64458E-19 2.13423E-18
 -1       378 9.52451E-05-2.85711E-05-2.85746E-05-1.18381E-08 3.11382E-19 1.89123E-18
 -1       379 9.52426E-05-2.85708E-05-2.85736E-05-8.61986E-09 1.21075E-18 8.87414E-19
 -1       380 9.52407E-05-2.85706E-05-2.85729E-05-5.96458E-09 8.21226E-19-3.44740E-19
 -1       381 9.52393E-05-2.85706E-05-2.85723E-05-3.89652E-09 1.36377E-18 2.00049E-18
 -1       382 9.52384E-05-2.85707E-05-2.85719E-05-2.35874E-09 1.78650E-18 1.03163E-18
 -1       383 9.52378E-05-2.85708E-05-2.85716E-05-1.26536E-09-4.92140E-19 1.95718E-18
 -1       384 9.52375E-05-2.85709E-05-2.85714E-05-5.33305E-10 8.22030E-19 2.23463E-18
 -1       385 9.52373E-05-2.85710E-05-2.85713E-05-8.78030E-11 3.32690E-18 2.07597E-18
 -1       386 9.52687E-05-2.69111E-05-2.92655E-05 2.50947E-06 4.61908E-19 2.44348E-18
 -1       387 9.66800E-05-2.58953E-05-3.02894E-05 6.25144E-06 6.45916E-19 2.89376E-18
 -1       388 9.44186E-05-2.72740E-05-2.87563E-05 2.25074E-07 2.97702E-19 2.11586E-18
 -1       389 9.40744E-05-2.73795E-05-2.85709E-05-1.38984E-06 3.11034E-19 2.06512E-18
 -1       390 9.41207E-05-2.73104E-05-2.86204E-05-2.82311E-06 2.94824E-19 2.25153E-18
 -1       391 9.44355E-05-2.70426E-05-2.88660E-05-4.47519E-06 3.71292E-19 2.10878E-18
 -1       392 9.48818E-05-2.64676E-05-2.92962E-05-6.74869E-06-4.70087E-20 1.44435E-18
 -1       393 9.52579E-05-2.54185E-05-2.98964E-05-1.01038E-05-1.82421E-19 9.72728E-19
 -1       394 9.52752E-05-2.38374E-05-3.05713E-05-1.47544E-05 1.30102E-19 1.13087E-18
 -1       395 9.45893E-05-2.17018E-05-3.11691E-05-2.15254E-05 2.32431E-19 1.13324E-18
 -1       396 9.30939E-05-2.02592E-05-3.10646E-05-3.00377E-05 6.57703E-19 9.05743E-19
 -1       397 9.26356E-05-2.38065E-05-2.91316E-05-3.86382E-05-1.41560E-19 3.12873E-19
 -1       398 9.93003E-05-3.91748E-05-2.52094E-05-4.18183E-05-1.64489E-18-3.97047E-21
 -1       399 1.56580E-04-7.38193E-05-3.59952E-05 1.50837E-05 1.91525E-18-8.52645E-19
 -1       400 1.30159E-04-5.24976E-05-3.27330E-05 3.33752E-05-4.69786E-19-8.96928E-19
 -1       401 1.14065E-04-3.32972E-05-3.42473E-05 3.75381E-05-1.43487E-18 1.10641E-18
 -1       402 1.07612E-04-2.69203E-05-3.44489E-05 3.06360E-05-7.84650E-19 1.10847E-18
 -1       403 1.04332E-04-2.62046E-05-3.34222E-05 2.17152E-05-1.18896E-19 8.57836E-19
 -1       404 1.01934E-04-2.69052E-05-3.21082E-05 1.42977E-05-1.43331E-18 1.29906E-18
 -1       405 9.99988E-05-2.76170E-05-3.09813E-05 9.02475E-06-9.72367E-20 2.13307E-18
 -1       406 9.85557E-05-2.80576E-05-3.01844E-05 5.68034E-06 2.27915E-19-6.80100E-20
 -1       407 9.74376E-05-2.83245E-05-2.95998E-05 3.42791E-06 2.14415E-19-2.29973E-20
 -1       408 9.66643E-05-2.84624E-05-2.92167E-05 2.04225E-06-3.02530E-19 4.47913E-19
 -1       409 9.61469E-05-2.85296E-05-2.89711E-05 1.20323E-06-2.12731E-19 2.13492E-18
 -1       410 9.58097E-05-2.85605E-05-2.88165E-05 7.01745E-07-1.91632E-18 3.64314E-18
 -1       411 9.55943E-05-2.85735E-05-2.87205E-05 4.05282E-07-1.64170E-19 3.82081E-18
 -1       412 9.54586E-05-2.85780E-05-2.86616E-05 2.31829E-07-6.15505E-19 3.14112E-18
 -1       413 9.53739E-05-2.85787E-05-2.86256E-05 1.31400E-07 6.18223E-19 1.83478E-18
 -1       414 9.53214E-05-2.85779E-05-2.86039E-05 7.38612E-08 8.41678E-19 1.90350E-18
 -1       415 9.52890E-05-2.85765E-05-2.85907E-05 4.12378E-08 6.91235E-19 2.47972E-18
 -1       416 9.52689E-05-2.85752E-05-2.85829E-05 2.29028E-08 1.13632E-18 2.69588E-18
 -1       417 9.52569E-05-2.85741E-05-2.85783E-05 1.30615E-08 2.02837E-18 2.37142E-18
 -1       418 9.52490E-05-2.85731E-05-2.85753E-05 7.18626E-09 2.79701E-18-1.43065E-18
 -1       419 9.52440E-05-2.85723E-05-2.85735E-05 3.89528E-09 1.83205E-18-2.48915E-18
 -1       420 9.52409E-05-2.85718E-05-2.85725E-05 2.01943E-09-5.36056E-19-2.11830E-18
 -1       421 9.52390E-05-2.85714E-05-2.85718E-05 9.17108E-10-1.71705E-18-3.42065E-18
 -1       422 9.52379E-05-2.85712E-05-2.85714E-05 2.42544E-10 9.13509E-19-1.77520E-18
 -1       423 9.52372E-05-2.85711E-05-2.85712E-05-1.86709E-10 7.79447E-19-2.14844E-18
 -1       424 9.52369E-05-2.85710E-05-2.85711E-05-4.62946E-10 1.07326E-19-1.35759E-18
 -1       425 9.52368E-05-2.85710E-05-2.85711E-05-6.26645E-10-8.78986E-19 4.29486E-19
 -1       426 9.52369E-05-2.85711E-05-2.85711E-05-6.76233E-10-3.13129E-18 2.73941E-18
 -1       427 9.52370E-05-2.85712E-05-2.85711E-05-6.01089E-10-1.25549E-18 1.42787E-18
 -1       428 9.52371E-05-2.85713E-05-2.85711E-05-5.25475E-10-7.38952E-19 1.42414E-18
 -1       429 9.52374E-05-2.85715E-05-2.85711E-05-3.91127E-10-2.21553E-18-5.24160E-18
 -1       430 9.52373E-05-2.85715E-05-2.85711E-05-5.54493E-10-1.36959E-18-1.21484E-18
 -1       431 9.52374E-05-2.85714E-05-2.85711E-05-6.42641E-11-8.78519E-19-1.64536E-18
 -1       432 9.52374E-05-2.85713E-05-2.85712E-05 2.64717E-10-1.66973E-18-4.76814E-19
 -1       433 9.52372E-05-2.85710E-05-2.85712E-05 5.11627E-10-5.08192E-18-2.87967E-19
 -1       434 9.52370E-05-2.85707E-05-2.85713E-05 6.12645E-10-4.53950E-18 2.23563E-18
 -1       435 9.52369E-05-2.85704E-05-2.85713E-05 5.55895E-10-3.73978E-18 2.88052E-18
 -1       436 9.52367E-05-2.85702E-05-2.85714E-05 3.71371E-10-4.71264E-18 1.69490E-18
 -1       437 9.52367E-05-2.85701E-05-2.85714E-05 1.21213E-10-3.61559E-18-4.19832E-19
 -1       438 9.52367E-05-2.85702E-05-2.85714E-05-1.12105E-10-3.09365E-19 5.36779E-19
 -1       439 9.52369E-05-2.85704E-05-2.85714E-05-2.60829E-10 3.46529E-19 5.78843E-19
 -1       440 9.52370E-05-2.85706E-05-2.85713E-05-2.75706E-10-7.74032E-19 2.03294E-18
 -1       441 9.52372E-05-2.85709E-05-2.85713E-05-1.55845E-10 6.15313E-19-1.70759E-19
 -1       442 1.10575E-04-5.99859E-05-2.20675E-05 3.46148E-05 3.86035E-19-2.24272E-19
 -1       443 8.83613E-06-1.56329E-05 3.22590E-06-1.71566E-05 1.56561E-18 2.59234E-18
 -1       444 8.93900E-05-1.19397E-05-3.32666E-05-1.06769E-05 7.94305E-19-2.00423E-18
 -1       445 1.52687E-04-7.23707E-05-3.46552E-05-1.82037E-05-2.31939E-18 1.74351E-18
 -1       446 9.80641E-05-5.40844E-05-1.88945E-05-3.87351E-05-2.87335E-18-9.40445E-19
 -1       447 3.58905E-05-3.26803E-05-1.76698E-06-2.97065E-05-2.13039E-18-1.87872E-18
 -1       448 9.44486E-06-2.20053E-05 5.13365E-06-5.41717E-06-1.28712E-18 4.60151E-19
 -1       449 9.24425E-06-2.35244E-05 5.90201E-06 2.10858E-05-1.54271E-18 1.66315E-18
 -1       450 3.30303E-05-2.98920E-05-1.28855E-06 4.54954E-05-9.02090E-19 8.28292E-19
 -1       451 7.14769E-05-4.38791E-05-1.18129E-05 5.54903E-05-8.53703E-19 1.20006E-18
 -1       452 1.11790E-04-5.21256E-05-2.55973E-05 5.05707E-05-6.17699E-19 6.80591E-19
 -1       453 1.47993E-04-5.34863E-05-4.05363E-05 3.22719E-05-2.11811E-19 3.82965E-19
 -1       454 1.68381E-04-3.81523E-05-5.57710E-05 1.21886E-05-1.69475E-18 9.21572E-19
 -1       455 1.78427E-04-2.26214E-05-6.65359E-05 5.08438E-06-2.61108E-18 1.53281E-18
 -1       456 1.78653E-04-1.24694E-05-7.10217E-05 2.58707E-07-2.53009E-18 1.17227E-18
 -1       457 1.71430E-04-1.31435E-05-6.79444E-05 1.20034E-07-6.49145E-19 1.29278E-18
 -1       458 1.72880E-04-2.59901E-05-6.29160E-05-4.50648E-06 6.40569E-20 1.36722E-18
 -1       459 1.62967E-04-4.33276E-05-5.12103E-05-2.30108E-05-5.13084E-19 1.64335E-18
 -1       460 1.39693E-04-5.09347E-05-3.79513E-05-4.02387E-05-3.33202E-19 1.57580E-18
 -1       461 1.02637E-04-5.07737E-05-2.22637E-05-5.34722E-05 8.52539E-19 3.43218E-18
 -1       462 6.09525E-05-4.04196E-05-8.93164E-06-5.42545E-05 1.27584E-18 4.83698E-18
 -1       463 2.91133E-05-2.72131E-05-6.94831E-07-4.40228E-05 5.66665E-19 2.45237E-18
 -1       464 1.44350E-05-1.61965E-05 1.12439E-06 1.07758E-05 1.26451E-18-4.18540E-19
 -1       465 2.80435E-05-9.70913E-06-7.14049E-06-3.21927E-05-2.22902E-19 3.31624E-18
 -1       466 8.95992E-05-1.35287E-05-3.26205E-05-3.75414E-06 1.43874E-18-9.72596E-19
 -1       467 9.03516E-05-1.45368E-05-3.25123E-05-5.79713E-06 1.25315E-18-1.25867E-18
 -1       468 8.88909E-05-1.26179E-05-3.27060E-05 3.02053E-07 1.61002E-18-2.26749E-19
 -1       469 8.89115E-05-1.26617E-05-3.26962E-05 2.24440E-06 1.58456E-18 4.56157E-20
 -1       470 8.92349E-05-1.30897E-05-3.26524E-05 4.09131E-06 1.63545E-18 4.65040E-19
 -1       471 8.99577E-05-1.40230E-05-3.25642E-05 5.90415E-06 1.65437E-18 9.27900E-19
 -1       472 9.11910E-05-1.56246E-05-3.24088E-05 7.59068E-06 1.50179E-18 1.31891E-18
 -1       473 9.30329E-05-1.81367E-05-3.21223E-05 8.92954E-06 1.34894E-18 1.96227E-18
 -1       474 9.52947E-05-2.20903E-05-3.13843E-05 8.36466E-06 1.01062E-18 2.29575E-18
 -1       475 2.34514E-05-1.66585E-06-8.44561E-06-7.94353E-08-9.93272E-19 7.19131E-19
 -1       476 9.55642E-05-2.45869E-05-3.04107E-05-5.97707E-06 9.89060E-21-1.59437E-18
 -1       477 9.53711E-05-2.64625E-05-2.95255E-05-3.18527E-06-1.59608E-19-1.17878E-18
 -1       478 9.50413E-05-2.75214E-05-2.89339E-05-1.55577E-06-4.40956E-20-8.75006E-19
 -1       479 9.47941E-05-2.82206E-05-2.85309E-05-7.90978E-07-6.00011E-20-1.02066E-18
 -1       480 9.46585E-05-2.87525E-05-2.82463E-05-6.75638E-07 4.53678E-20-1.03311E-18
 -1       481 9.45925E-05-2.91869E-05-2.80327E-05-1.07344E-06-1.07918E-19-1.16407E-18
 -1       482 9.45245E-05-2.95229E-05-2.78601E-05-1.88675E-06-3.60392E-20-1.13655E-18
 -1       483 9.43629E-05-2.97069E-05-2.77123E-05-3.01778E-06-2.34424E-19-7.55313E-19
 -1       484 9.40020E-05-2.96447E-05-2.75841E-05-4.33036E-06-5.55127E-19-6.17827E-19
 -1       485 9.33379E-05-2.92250E-05-2.74787E-05-5.61804E-06-4.23945E-19-1.30908E-19
 -1       486 9.23046E-05-2.83652E-05-2.74031E-05-6.59297E-06-5.84137E-19 3.74043E-19
 -1       487 9.09273E-05-2.70787E-05-2.73627E-05-6.91707E-06-2.11398E-19-3.67477E-19
 -1       488 8.93707E-05-2.55342E-05-2.73559E-05-6.29056E-06-6.66467E-19-1.54219E-19
 -1       489 8.79412E-05-2.40626E-05-2.73725E-05-4.58499E-06-9.13089E-19-2.60334E-19
 -1       490 8.70061E-05-2.30682E-05-2.73974E-05-1.95869E-06-9.82394E-19-7.35271E-19
 -1       491 8.68472E-05-2.28626E-05-2.74173E-05 1.13056E-06-5.17335E-19-9.25499E-19
 -1       492 8.75249E-05-2.35129E-05-2.74294E-05 4.06133E-06-5.33063E-19-8.07182E-19
 -1       493 8.88469E-05-2.48045E-05-2.74432E-05 6.27612E-06 2.06106E-19-2.10207E-19
 -1       494 9.04662E-05-2.63539E-05-2.74745E-05 7.47322E-06 3.78433E-19-6.03460E-19
 -1       495 9.20368E-05-2.77849E-05-2.75360E-05 7.65791E-06 6.89724E-19-1.13482E-18
 -1       496 9.33272E-05-2.88570E-05-2.76310E-05 7.06039E-06 6.18425E-20-1.01676E-18
 -1       497 9.42511E-05-2.94976E-05-2.77534E-05 5.99985E-06-1.12548E-19-1.34613E-18
 -1       498 9.48332E-05-2.97599E-05-2.78908E-05 4.77105E-06-2.16730E-19-1.64885E-18
 -1       499 9.51532E-05-2.97561E-05-2.80296E-05 3.58571E-06 2.94133E-19-1.76995E-18
 -1       500 9.53004E-05-2.96025E-05-2.81582E-05 2.56314E-06-2.58343E-19-1.63030E-18
 -1       501 9.53483E-05-2.93904E-05-2.82693E-05 1.74835E-06-4.05341E-19-1.98535E-18
 -1       502 9.53473E-05-2.91779E-05-2.83595E-05 1.13826E-06 6.68248E-20-2.05453E-18
 -1       503 9.53277E-05-2.89951E-05-2.84291E-05 7.04762E-07 5.39313E-19-2.25133E-18
 -1       504 9.53047E-05-2.88520E-05-2.84803E-05 4.11033E-07 7.73151E-19-8.08139E-19
 -1       505 9.52849E-05-2.87478E-05-2.85163E-05 2.21059E-07 2.43616E-19-8.72620E-19
 -1       506 9.52699E-05-2.86761E-05-2.85404E-05 1.04162E-07 3.34108E-19-4.02769E-19
 -1       507 9.52594E-05-2.86293E-05-2.85559E-05 3.63737E-08 3.82982E-20-3.51759E-19
 -1       508 9.52523E-05-2.86003E-05-2.85652E-05 1.13461E-10 5.18992E-19 5.86544E-19
 -1       509 9.52477E-05-2.85832E-05-2.85705E-05-1.68674E-08 9.55817E-19 9.39841E-19
 -1       510 9.52445E-05-2.85739E-05-2.85731E-05-2.27235E-08 1.05652E-18 9.68550E-19
 -1       511 9.52424E-05-2.85693E-05-2.85742E-05-2.26482E-08-8.20024E-19 1.52795E-18
 -1       512 9.52409E-05-2.85675E-05-2.85743E-05-1.97971E-08 3.63629E-19 1.42716E-18
 -1       513 9.52398E-05-2.85671E-05-2.85740E-05-1.59820E-08 1.47559E-19 1.76668E-18
 -1       514 9.52390E-05-2.85674E-05-2.85736E-05-1.21667E-08 3.49040E-19 2.54020E-18
 -1       515 9.52384E-05-2.85680E-05-2.85730E-05-8.80347E-09-7.23836E-19 1.18909E-18
 -1       516 9.52380E-05-2.85687E-05-2.85726E-05-6.05328E-09 2.07456E-18 1.63327E-18
 -1       517 9.52377E-05-2.85693E-05-2.85722E-05-3.92381E-09 8.50362E-19 1.76257E-18
 -1       518 9.52375E-05-2.85698E-05-2.85718E-05-2.35215E-09 2.18629E-18 1.46172E-18
 -1       519 9.52373E-05-2.85702E-05-2.85716E-05-1.25593E-09 6.86428E-20 2.16710E-18
 -1       520 9.52372E-05-2.85706E-05-2.85714E-05-5.67308E-10 7.78874E-19 2.36048E-18
 -1       521 9.48204E-05-2.64201E-05-2.93087E-05 2.98439E-09 4.16010E-19 1.42044E-18
 -1       522 4.53489E-05-1.77051E-05-1.11743E-05 3.31850E-05-1.27193E-18-7.81388E-19
 -1       523 9.42928E-05-2.64786E-05-2.90588E-05-1.80554E-06 3.17079E-19 1.31375E-18
 -1       524 9.36127E-05-2.59795E-05-2.89801E-05-3.45808E-06 4.39779E-19 1.11531E-18
 -1       525 9.25435E-05-2.48373E-05-2.90090E-05-5.27984E-06 4.19914E-19 1.14170E-18
 -1       526 9.06579E-05-2.28219E-05-2.90601E-05-7.55281E-06 2.38847E-19 8.17481E-19
 -1       527 8.75163E-05-1.98304E-05-2.89913E-05-1.03618E-05 6.12469E-20 1.58187E-19
 -1       528 8.19230E-05-1.53974E-05-2.84746E-05-1.41363E-05 8.44254E-20 3.32161E-19
 -1       529 7.28996E-05-1.00885E-05-2.68132E-05-1.88015E-05 5.68465E-19 6.39090E-19
 -1       530 5.99237E-05-6.47002E-06-2.25587E-05-2.44195E-05 8.78095E-19 6.27916E-19
 -1       531 4.53680E-05-9.41986E-06-1.45258E-05-3.04295E-05 6.08434E-19-5.98376E-19
 -1       532 7.96672E-05-1.31953E-05-2.83549E-05 2.34132E-05-5.88560E-19 1.09767E-18
 -1       533 8.65662E-05-1.73291E-05-2.96194E-05 1.66844E-05-1.16873E-18 2.22093E-18
 -1       534 9.08614E-05-2.11893E-05-2.98296E-05 1.13782E-05-4.34885E-19 1.74945E-18
 -1       535 9.31639E-05-2.38855E-05-2.96701E-05 7.65229E-06 1.44246E-18 9.05207E-19
 -1       536 9.44187E-05-2.57592E-05-2.94117E-05 4.91794E-06 2.05088E-19 9.50822E-19
 -1       537 9.50127E-05-2.69213E-05-2.91731E-05 3.09908E-06-6.86644E-19 1.32317E-18
 -1       538 9.52638E-05-2.76188E-05-2.89854E-05 1.92183E-06-1.00914E-18-2.56363E-20
 -1       539 9.53509E-05-2.80296E-05-2.88488E-05 1.17626E-06-1.96434E-18 1.18147E-18
 -1       540 9.53651E-05-2.82682E-05-2.87540E-05 7.12158E-07-1.41742E-19 1.04068E-18
 -1       541 9.53508E-05-2.84049E-05-2.86900E-05 4.27323E-07-1.97055E-19 1.14316E-18
 -1       542 9.53285E-05-2.84822E-05-2.86478E-05 2.54615E-07 6.20549E-19 6.32667E-19
 -1       543 9.53067E-05-2.85251E-05-2.86203E-05 1.50983E-07 1.00794E-18 2.81153E-19
 -1       544 9.52882E-05-2.85484E-05-2.86026E-05 8.93420E-08 5.06328E-19-1.09604E-18
 -1       545 9.52738E-05-2.85607E-05-2.85912E-05 5.29326E-08 9.75732E-19 8.00670E-20
 -1       546 9.52633E-05-2.85666E-05-2.85843E-05 3.22752E-08 2.09335E-18 2.06771E-20
 -1       547 9.52552E-05-2.85696E-05-2.85795E-05 1.92634E-08 3.12608E-18 5.73603E-19
 -1       548 9.52494E-05-2.85709E-05-2.85765E-05 1.15346E-08 2.13693E-18 1.21753E-18
 -1       549 9.52452E-05-2.85713E-05-2.85745E-05 6.87858E-09 7.16411E-19 1.08086E-18
 -1       550 9.52424E-05-2.85714E-05-2.85733E-05 4.01188E-09-1.15858E-18 1.97653E-19
 -1       551 9.52404E-05-2.85713E-05-2.85725E-05 2.20025E-09 1.00782E-18-1.84343E-18
 -1       552 9.52391E-05-2.85712E-05-2.85720E-05 1.02595E-09-2.68491E-19-3.45145E-19
 -1       553 9.52382E-05-2.85711E-05-2.85716E-05 2.53912E-10 4.89308E-19 1.39095E-18
 -1       554 9.52377E-05-2.85711E-05-2.85714E-05-2.45543E-10-1.91542E-18 2.95908E-18
 -1       555 9.52374E-05-2.85711E-05-2.85713E-05-5.35247E-10-1.80336E-18 7.48567E-19
 -1       556 9.52373E-05-2.85713E-05-2.85711E-05-6.38940E-10 1.35340E-19-6.12408E-19
 -1       557 9.52375E-05-2.85709E-05-2.85714E-05 3.86079E-10 1.22644E-19-2.97713E-18
 -1       558 9.52373E-05-2.85705E-05-2.85715E-05 7.64478E-10-1.63804E-18-3.46303E-18
 -1       559 9.52376E-05-2.85712E-05-2.85713E-05-7.85908E-11 1.38020E-18-1.56685E-18
 -1       560 9.52369E-05-2.85700E-05-2.85715E-05 9.56389E-10-1.93747E-18 1.13389E-18
 -1       561 9.52366E-05-2.85696E-05-2.85716E-05 9.21748E-10-1.54572E-18 2.89861E-18
 -1       562 9.52363E-05-2.85693E-05-2.85716E-05 6.78779E-10-9.97109E-19 2.37419E-18
 -1       563 9.52362E-05-2.85692E-05-2.85716E-05 2.96392E-10-2.78337E-19 1.52811E-19
 -1       564 9.52362E-05-2.85692E-05-2.85716E-05-1.15925E-10-7.06248E-19 2.07760E-18
 -1       565 9.52364E-05-2.85695E-05-2.85716E-05-4.63813E-10 2.86913E-19 2.22018E-18
 -1       566 9.52368E-05-2.85699E-05-2.85715E-05-6.43203E-10 1.27515E-18 1.48956E-18
 -1       567 6.24542E-05-3.30764E-05-1.20744E-05 5.29207E-05-1.57178E-19 1.46886E-18
 -1       568 1.50952E-04-5.62517E-05-4.08400E-05-1.50115E-05 1.18721E-18 6.12140E-19
 -1       569 9.46542E-05-2.07842E-05-3.16765E-05-9.65368E-06 1.88930E-19-1.93837E-18
 -1       570 2.75031E-05-1.24060E-05-5.71940E-06 3.30451E-05-3.68645E-19 1.45721E-18
 -1       571 1.45955E-04-3.26290E-06-6.18430E-05 1.22592E-06-1.31470E-18-2.92855E-19
 -1       572 7.05136E-05-1.21932E-05-2.46268E-05 3.14445E-05-4.73200E-19-2.10858E-19
 -1       573 7.49482E-05-2.68532E-05-1.99688E-05 4.06398E-05-2.39959E-18 6.95891E-19
 -1       574 9.54947E-05-2.47941E-05-3.02906E-05 4.42669E-06 8.02417E-19 1.93980E-18
 -1       575 8.91256E-05-1.29097E-05-3.26820E-05-1.70391E-06 1.57517E-18-6.13363E-19
 -1       576 9.52244E-05-2.59255E-05-2.96924E-05 1.92069E-06 6.00807E-19 1.65380E-18
 -1       577 5.77338E-05-3.14168E-05-1.07695E-05-5.32413E-05 6.58145E-19 3.89010E-18
 -1       578 1.56283E-05-5.87558E-06-3.38215E-06 5.47472E-06 1.08725E-19 5.20396E-19
 -1       579 1.05827E-04-5.38776E-05-2.19624E-05 5.08078E-05-3.59354E-19 6.92665E-19
 -1       580 1.36205E-04-6.14832E-05-3.20644E-05 3.42987E-05-7.10608E-19-2.13399E-19
 -1       581 1.55186E-04-5.17785E-05-4.46151E-05 6.49274E-06-1.21203E-18-3.62318E-19
 -1       582 1.54361E-04-2.69439E-05-5.50826E-05-7.96990E-06-2.87356E-18 1.54906E-18
 -1       583 1.50059E-04-1.06104E-05-6.04127E-05-7.40505E-06-2.48604E-18 9.16357E-19
 -1       584 1.43897E-04-1.59403E-05-5.55627E-05 1.09458E-05 6.44221E-19-9.07119E-19
 -1       585 1.55446E-04-3.87213E-05-5.05066E-05 2.75949E-06 7.30725E-19-3.76665E-19
 -1       586 1.33068E-04-6.03091E-05-3.10807E-05-3.66711E-05 1.53054E-18 1.73430E-19
 -1       587 9.26565E-05-4.81597E-05-1.87989E-05-5.45138E-05 1.33069E-18 4.05346E-18
 -1       588 9.14397E-05-1.59995E-05-3.23529E-05-7.76479E-06 9.16448E-19-1.57665E-18
 -1       589 4.24589E-05-4.15997E-06-1.56338E-05 2.08063E-05-7.43735E-19-1.31385E-18
 -1       590 9.52374E-05-2.85713E-05-2.85712E-05-4.52503E-10-9.30094E-19-4.55985E-18
 -1       591 9.11310E-05-1.64325E-05-3.20191E-05 2.73798E-06 1.45752E-18 2.80842E-19
 -1       592 9.10428E-05-1.62394E-05-3.20639E-05 1.24049E-06 1.36468E-18-1.22998E-19
 -1       593 9.24252E-05-1.84003E-05-3.17301E-05 5.16381E-06 1.35909E-18 9.77527E-19
 -1       594 9.36508E-05-2.03557E-05-3.14111E-05 5.88294E-06 1.27788E-18 1.48049E-18
 -1       595 9.47832E-05-2.26360E-05-3.09168E-05 5.40439E-06 9.87942E-19 1.64745E-18
 -1       596 9.15674E-05-1.71139E-05-3.19140E-05 4.05740E-06 1.46373E-18 6.89937E-19
 -1       597 5.69869E-05-3.71857E-06-2.25564E-05 1.45333E-05-1.48029E-18 7.75512E-19
 -1       598 9.52214E-05-2.39587E-05-3.05403E-05-4.91973E-06 2.70266E-19-1.10703E-18
 -1       599 9.57258E-05-2.61980E-05-2.97958E-05-2.78676E-06 1.01458E-19-8.02779E-19
 -1       600 9.59699E-05-2.77048E-05-2.92560E-05-1.48779E-06-1.11859E-19-5.63330E-19
 -1       601 9.61731E-05-2.88233E-05-2.88644E-05-9.01226E-07 9.13440E-22-3.28233E-19
 -1       602 9.64324E-05-2.97367E-05-2.85844E-05-9.18311E-07 7.62429E-20-4.14961E-19
 -1       603 9.67634E-05-3.05173E-05-2.83919E-05-1.45619E-06-5.81216E-21-2.67968E-19
 -1       604 9.71217E-05-3.11472E-05-2.82757E-05-2.44479E-06 1.60154E-19-7.09955E-20
 -1       605 9.74045E-05-3.15254E-05-2.82348E-05-3.79395E-06-2.21770E-19 2.86935E-19
 -1       606 9.74563E-05-3.14818E-05-2.82755E-05-5.34810E-06-1.86120E-19 6.71503E-19
 -1       607 9.70972E-05-3.08223E-05-2.84037E-05-6.84083E-06-6.24889E-19 2.27545E-19
 -1       608 9.61938E-05-2.94221E-05-2.86161E-05-7.87725E-06-9.95994E-19 2.70496E-19
 -1       609 9.47639E-05-2.73540E-05-2.88890E-05-7.98841E-06-5.50624E-19-1.89365E-19
 -1       610 9.30666E-05-2.49892E-05-2.91747E-05-6.78505E-06-6.86649E-19-2.35577E-19
 -1       611 9.15849E-05-2.29633E-05-2.94075E-05-4.18681E-06-9.52143E-19 3.91532E-19
 -1       612 9.08428E-05-2.19455E-05-2.95267E-05-5.78841E-07-9.96385E-19 7.66319E-19
 -1       613 9.11325E-05-2.23038E-05-2.94971E-05 3.25159E-06-4.75562E-19 9.09164E-19
 -1       614 9.23371E-05-2.38937E-05-2.93310E-05 6.42144E-06-1.23799E-19 3.83879E-19
 -1       615 9.40010E-05-2.61397E-05-2.90815E-05 8.33931E-06-3.94982E-20 1.63725E-19
 -1       616 9.55925E-05-2.83569E-05-2.88142E-05 8.88492E-06 2.70669E-19-3.23085E-19
 -1       617 9.67435E-05-3.00498E-05-2.85828E-05 8.32735E-06 3.02782E-19-7.26808E-19
 -1       618 9.73342E-05-3.10279E-05-2.84175E-05 7.10743E-06 1.34236E-19-6.41295E-20
 -1       619 9.74403E-05-3.13531E-05-2.83238E-05 5.64170E-06-4.42788E-19 4.78024E-19
 -1       620 9.72265E-05-3.12155E-05-2.82913E-05 4.22286E-06-4.08512E-19 4.42639E-19
 -1       621 9.68588E-05-3.08233E-05-2.83017E-05 3.00758E-06-2.90768E-19 8.04061E-20
 -1       622 9.64600E-05-3.03424E-05-2.83367E-05 2.04876E-06-9.08181E-20 1.75030E-19
 -1       623 9.61021E-05-2.98787E-05-2.83819E-05 1.33714E-06-5.54023E-19 4.20286E-21
 -1       624 9.58152E-05-2.94855E-05-2.84273E-05 8.34407E-07 4.92032E-20-4.50468E-19
 -1       625 9.56031E-05-2.91794E-05-2.84675E-05 4.94211E-07 1.60839E-18-1.07486E-18
 -1       626 9.54563E-05-2.89562E-05-2.85002E-05 2.73283E-07 1.33385E-18-9.17484E-19
 -1       627 9.53604E-05-2.88020E-05-2.85251E-05 1.35881E-07 7.31340E-19-2.37478E-19
 -1       628 9.53009E-05-2.87007E-05-2.85430E-05 5.46295E-08-5.55786E-19 1.01581E-19
 -1       629 9.52662E-05-2.86372E-05-2.85553E-05 9.67671E-09 5.32482E-19 1.02764E-18
 -1       630 9.52473E-05-2.85996E-05-2.85633E-05-1.27577E-08 3.24848E-19 4.24217E-19
 -1       631 9.52379E-05-2.85787E-05-2.85682E-05-2.18791E-08 1.02337E-18-3.34379E-19
 -1       632 9.52339E-05-2.85682E-05-2.85710E-05-2.36139E-08-1.40580E-19-1.72913E-18
 -1       633 9.52328E-05-2.85637E-05-2.85725E-05-2.16307E-08-1.10578E-18-1.40715E-18
 -1       634 9.52330E-05-2.85626E-05-2.85730E-05-1.80995E-08 2.95286E-19-1.32268E-18
 -1       635 9.52338E-05-2.85631E-05-2.85731E-05-1.42287E-08 1.51108E-18-9.71171E-20
 -1       636 9.52346E-05-2.85644E-05-2.85730E-05-1.06333E-08-9.71409E-19 1.07633E-18
 -1       637 9.52354E-05-2.85658E-05-2.85727E-05-7.57739E-09 1.34622E-18 2.35662E-18
 -1       638 9.52359E-05-2.85671E-05-2.85724E-05-5.13262E-09 1.58185E-18 5.95064E-19
 -1       639 9.52364E-05-2.85682E-05-2.85721E-05-3.26990E-09 1.97876E-19 1.25772E-18
 -1       640 9.52367E-05-2.85691E-05-2.85718E-05-1.92362E-09 1.19887E-18-6.37212E-19
 -1       641 9.52367E-05-2.85695E-05-2.85717E-05-1.17972E-09 1.61241E-18-6.74552E-19
 -1       642 1.30346E-04-4.50852E-06-5.45547E-05-5.25691E-06-1.97904E-18-6.68428E-19
 -1       643 9.44514E-05-2.54019E-05-2.95922E-05-1.35593E-07 4.14285E-19 8.61964E-19
 -1       644 8.94495E-05-2.22574E-05-2.87936E-05-3.93704E-06 4.88481E-19 8.61387E-19
 -1       645 8.55401E-05-1.92610E-05-2.84028E-05-4.75879E-06 5.41265E-19 9.51452E-19
 -1       646 7.90481E-05-1.47510E-05-2.75439E-05-5.20972E-06 4.22611E-19 6.26925E-19
 -1       647 6.89281E-05-8.90597E-06-2.56622E-05-4.82565E-06 2.42945E-19-1.73469E-19
 -1       648 5.38037E-05-2.85787E-06-2.16160E-05-2.91871E-06 8.80243E-19-5.54079E-19
 -1       649 3.59276E-05 1.73636E-07-1.49012E-05 8.53506E-07 1.04997E-18-5.14678E-19
 -1       650 8.59371E-05-1.90605E-05-2.86586E-05 5.76140E-06 9.79224E-19 6.01586E-19
 -1       651 9.52364E-05-2.85688E-05-2.85718E-05 1.43265E-09-1.02644E-19 3.86639E-18
 -1       652 7.93669E-05-1.42511E-05-2.78968E-05 7.48423E-06-5.39322E-19 1.17699E-18
 -1       653 9.20078E-05-2.42422E-05-2.90411E-05-2.88169E-06 4.83338E-19 8.78781E-19
 -1       654 1.44633E-04-4.75840E-05-4.18481E-05 2.79904E-06 1.01365E-18-1.27563E-18
 -1       655 5.61190E-05-1.91122E-05-1.53450E-05-4.18200E-05 3.81509E-19 2.59859E-18
 -1       656 6.89071E-05-8.16922E-06-2.59557E-05 9.18821E-06-1.58748E-18 1.01141E-18
 -1       657 8.99365E-05-2.24815E-05-2.89040E-05 4.20620E-06 1.17804E-18 1.10098E-19
 -1       658 9.23035E-05-2.47877E-05-2.89320E-05 2.92841E-06-5.45284E-19-2.02070E-19
 -1       659 9.36586E-05-2.62653E-05-2.88808E-05 1.97052E-06-9.12184E-21 1.84283E-20
 -1       660 9.44170E-05-2.71882E-05-2.88111E-05 1.29392E-06-1.43632E-18-2.08543E-19
 -1       661 9.48317E-05-2.77538E-05-2.87470E-05 8.34276E-07-1.02302E-18-2.59462E-18
 -1       662 9.50522E-05-2.80950E-05-2.86955E-05 5.30757E-07-4.24660E-19-1.16875E-18
 -1       663 9.51653E-05-2.82979E-05-2.86572E-05 3.34554E-07 4.26864E-20-1.07341E-18
 -1       664 9.52201E-05-2.84170E-05-2.86298E-05 2.09746E-07 1.78832E-18-2.02274E-19
 -1       665 9.52442E-05-2.84857E-05-2.86107E-05 1.31277E-07 1.44858E-18-7.36442E-19
 -1       666 9.52528E-05-2.85247E-05-2.85977E-05 8.23599E-08 4.47696E-19-1.45029E-18
 -1       667 9.52540E-05-2.85457E-05-2.85893E-05 5.30718E-08-1.30758E-19-1.26432E-18
 -1       668 9.52522E-05-2.85579E-05-2.85833E-05 3.35969E-08 1.90073E-18-7.32132E-19
 -1       669 9.52493E-05-2.85643E-05-2.85792E-05 2.13992E-08 2.19103E-18 3.68921E-19
 -1       670 9.52463E-05-2.85677E-05-2.85766E-05 1.36564E-08 1.62405E-19 3.56042E-19
 -1       671 9.52438E-05-2.85693E-05-2.85748E-05 8.66137E-09 8.05129E-20 1.35286E-18
 -1       672 9.52418E-05-2.85701E-05-2.85736E-05 5.38029E-09 8.76835E-19 2.12943E-18
 -1       673 9.52403E-05-2.85705E-05-2.85728E-05 3.18874E-09 1.00854E-18 2.28311E-18
 -1       674 9.52392E-05-2.85707E-05-2.85722E-05 1.70983E-09 8.39584E-20-2.22239E-18
 -1       675 9.52385E-05-2.85709E-05-2.85718E-05 7.16974E-10-1.84376E-18-2.40505E-18
 -1       676 9.52379E-05-2.85710E-05-2.85715E-05 6.11746E-11 2.64695E-19-7.63851E-19
 -1       677 9.52375E-05-2.85701E-05-2.85717E-05 1.10623E-09 9.59501E-20-3.52923E-18
 -1       678 9.52378E-05-2.85707E-05-2.85716E-05 5.75771E-10 3.18505E-19-4.67158E-18
 -1       679 9.52370E-05-2.85695E-05-2.85718E-05 1.41832E-09-1.73245E-19-1.28918E-18
 -1       680 9.52359E-05-2.85683E-05-2.85718E-05 1.14243E-09 5.81735E-20 2.80470E-18
 -1       681 9.52356E-05-2.85680E-05-2.85718E-05 6.14476E-10 6.96397E-19 3.14374E-18
 -1       682 9.52355E-05-2.85680E-05-2.85718E-05-1.89136E-11 1.31077E-18 5.92907E-19
 -1       683 9.52357E-05-2.85683E-05-2.85718E-05-6.41932E-10 1.19190E-18 2.24997E-18
 -1       684 9.52362E-05-2.85688E-05-2.85717E-05-1.02631E-09 1.60173E-18 3.55552E-18
 -1       685 1.14679E-04-5.41518E-05-2.57924E-05-4.17349E-05 2.53477E-18-3.18865E-19
 -1       686 1.40150E-04-5.92415E-05-3.47248E-05-1.87754E-05 1.93215E-18-6.09996E-20
 -1       687 1.25622E-04-6.54581E-06-5.16129E-05 6.79984E-06-1.28325E-19-1.32684E-18
 -1       688 1.42903E-04-5.85635E-05-3.62439E-05 1.32145E-05-4.69499E-19-7.44714E-19
 -1       689 5.48378E-05-1.77142E-05-1.54047E-05 3.88077E-05 7.62488E-19 1.26097E-18
 -1       690 3.84515E-05-1.77242E-06-1.51507E-05-1.46850E-05-1.76366E-18 1.66871E-18
 -1       691 9.35542E-05-2.52456E-05-2.92742E-05-1.64552E-06 4.14376E-19 7.68081E-19
 -1       692 9.22357E-05-1.79068E-05-3.18608E-05-3.72052E-06 1.16756E-18-8.88134E-19
 -1       693 1.23126E-04-5.75510E-05-2.80205E-05 3.51888E-05-2.38307E-19-1.10882E-19
 -1       694 1.36703E-04-2.87407E-05-4.66687E-05 1.31907E-05 8.26784E-19-1.13635E-18
 -1       695 1.35098E-04-1.72112E-05-5.10422E-05-1.30396E-05-3.20824E-18-3.96372E-19
 -1       696 9.26767E-05-4.29214E-05-2.09795E-05 4.70862E-05-2.59933E-20 6.72068E-19
 -1       697 8.42128E-05-3.83024E-05-1.93194E-05-4.92003E-05 1.68679E-18 2.26573E-18
 -1       698 1.44332E-04-3.82885E-05-4.58665E-05-9.06645E-06-2.45290E-18-1.34678E-19
 -1       699 9.49929E-05-2.43894E-05-3.02554E-05 2.91258E-06 8.53518E-19 1.35114E-18
 -1       700 9.12300E-05-1.64473E-05-3.20550E-05-3.82724E-07 1.31979E-18-4.35132E-19
 -1       701 9.16364E-05-1.70043E-05-3.19907E-05-2.06544E-06 1.29878E-18-6.54567E-19
 -1       702 4.48025E-05-4.70914E-07-1.85756E-05 1.76358E-06-1.99859E-18 1.44054E-18
 -1       703 9.48564E-05-2.51422E-05-2.98779E-05 1.22657E-06 6.88621E-19 9.62509E-19
 -1       704 1.40243E-04-4.97573E-05-3.89831E-05-2.69565E-06-8.89911E-19 2.27190E-19
 -1       705 9.42116E-05-2.11073E-05-3.13375E-05-7.08091E-06 5.12668E-19-1.48776E-18
 -1       706 3.90049E-05-5.19382E-06-1.38576E-05 2.21790E-05 5.74672E-19 1.44160E-18
 -1       707 1.22490E-04-1.64624E-05-4.57173E-05 1.25972E-05 7.29600E-19-1.14758E-18
 -1       708 9.30696E-05-1.92183E-05-3.16570E-05-5.25510E-06 9.53055E-19-1.23580E-18
 -1       709 9.44565E-05-2.27574E-05-3.07262E-05 3.66920E-06 1.07773E-18 1.22496E-18
 -1       710 1.20108E-04-1.10199E-05-4.70683E-05-9.66193E-06-2.05633E-18-1.13169E-18
 -1       711 9.53049E-05-2.39384E-05-3.05851E-05-3.65213E-06 4.08069E-19-9.31574E-19
 -1       712 7.96902E-05-2.92810E-05-2.13995E-05 3.81869E-05 5.83315E-19 6.84853E-19
 -1       713 1.37069E-04-5.29590E-05-3.61199E-05-4.34165E-06 1.67313E-18-1.66411E-18
 -1       714 1.25712E-04-5.54278E-05-3.01034E-05-2.54654E-05 2.18939E-18-2.21208E-19
 -1       715 9.62134E-05-2.63398E-05-2.99461E-05-2.07675E-06 3.78839E-19-5.80527E-19
 -1       716 9.69059E-05-2.81619E-05-2.94618E-05-1.09739E-06 2.07682E-19-9.60696E-20
 -1       717 9.75574E-05-2.96430E-05-2.91063E-05-6.86588E-07-2.07291E-19 8.89921E-20
 -1       718 9.82865E-05-3.09344E-05-2.88654E-05-8.07700E-07-1.38708E-20-8.45237E-20
 -1       719 9.91336E-05-3.20862E-05-2.87349E-05-1.43903E-06 1.53450E-19 3.50607E-20
 -1       720 1.00054E-04-3.30371E-05-2.87217E-05-2.56264E-06 1.44080E-19 6.07678E-20
 -1       721 1.00899E-04-3.36033E-05-2.88415E-05-4.12570E-06 1.09250E-19 1.97799E-19
 -1       722 1.01420E-04-3.34936E-05-2.91117E-05-5.97233E-06-4.90179E-19 2.47998E-19
 -1       723 1.01312E-04-3.23878E-05-2.95385E-05-7.76225E-06-3.96419E-19 4.17400E-19
 -1       724 1.00350E-04-3.01167E-05-3.00998E-05-8.93256E-06-7.64016E-19-1.66987E-19
 -1       725 9.85830E-05-2.68901E-05-3.07251E-05-8.79516E-06-7.86748E-19 9.99445E-20
 -1       726 9.65007E-05-2.34753E-05-3.12964E-05-6.82760E-06-4.54466E-19 2.74358E-19
 -1       727 9.49184E-05-2.10065E-05-3.16744E-05-3.08286E-06-6.62862E-19 6.09109E-19
 -1       728 9.45447E-05-2.04408E-05-3.17597E-05 1.60002E-06-2.81366E-19 1.27165E-18
 -1       729 9.55905E-05-2.20570E-05-3.15131E-05 5.93384E-06-4.19329E-19 1.11210E-18
 -1       730 9.74846E-05-2.51023E-05-3.10180E-05 8.80177E-06-1.00388E-19 1.52934E-18
 -1       731 9.93946E-05-2.84420E-05-3.04063E-05 9.80273E-06-2.85222E-19 9.46582E-19
 -1       732 1.00665E-04-3.11227E-05-2.98034E-05 9.24276E-06-1.25948E-20 9.21344E-19
 -1       733 1.01060E-04-3.27043E-05-2.92957E-05 7.76419E-06 5.85911E-19 7.16433E-19
 -1       734 1.00705E-04-3.32273E-05-2.89193E-05 5.98620E-06 3.07609E-20 3.40443E-19
 -1       735 9.98900E-05-3.29885E-05-2.86725E-05 4.31928E-06-5.17052E-19-2.78428E-19
 -1       736 9.89036E-05-3.23319E-05-2.85311E-05 2.95498E-06-7.56699E-19-7.19234E-19
 -1       737 9.79499E-05-3.15325E-05-2.84648E-05 1.93184E-06 2.90423E-19 3.70874E-19
 -1       738 9.71379E-05-3.07640E-05-2.84462E-05 1.21076E-06-1.30244E-20 7.23860E-19
 -1       739 9.65045E-05-3.01127E-05-2.84538E-05 7.26166E-07 9.79650E-20 1.55872E-18
 -1       740 9.60422E-05-2.96049E-05-2.84732E-05 4.13000E-07-4.31228E-19 1.94245E-18
 -1       741 9.57230E-05-2.92330E-05-2.84958E-05 2.17873E-07 3.04686E-19 4.12895E-19
 -1       742 9.55133E-05-2.89743E-05-2.85167E-05 1.00938E-07 1.27659E-18-5.31840E-19
 -1       743 9.53822E-05-2.88026E-05-2.85341E-05 3.41247E-08 2.53129E-20-2.29084E-19
 -1       744 9.53043E-05-2.86936E-05-2.85475E-05-1.53833E-09 8.37277E-19 3.62212E-19
 -1       745 9.52610E-05-2.86278E-05-2.85571E-05-1.84790E-08 6.47765E-19 5.77646E-19
 -1       746 9.52388E-05-2.85903E-05-2.85636E-05-2.46275E-08-1.09927E-18 1.33780E-18
 -1       747 9.52289E-05-2.85706E-05-2.85678E-05-2.49173E-08-8.38858E-19-5.35999E-19
 -1       748 9.52259E-05-2.85616E-05-2.85704E-05-2.23320E-08 1.53483E-19-1.04427E-18
 -1       749 9.52262E-05-2.85586E-05-2.85718E-05-1.86116E-08 4.48112E-19 6.52359E-20
 -1       750 9.52279E-05-2.85588E-05-2.85725E-05-1.47188E-08 1.76583E-18 9.88877E-19
 -1       751 9.52299E-05-2.85603E-05-2.85727E-05-1.11434E-08 7.08665E-19 1.83071E-18
 -1       752 9.52319E-05-2.85624E-05-2.85726E-05-8.09520E-09 9.10180E-19 2.04496E-18
 -1       753 9.52335E-05-2.85644E-05-2.85725E-05-5.62400E-09 1.35832E-18 1.85173E-18
 -1       754 9.52347E-05-2.85662E-05-2.85722E-05-3.71911E-09 1.01846E-18 2.73624E-18
 -1       755 9.52356E-05-2.85676E-05-2.85720E-05-2.29970E-09 3.69903E-19 2.39798E-18
 -1       756 9.52359E-05-2.85683E-05-2.85718E-05-1.57774E-09-6.04021E-19 3.35062E-18
 -1       757 8.70059E-05-2.07630E-05-2.83911E-05-2.18509E-07 5.11866E-19 5.69580E-19
 -1       758 6.38187E-05-9.24296E-06-2.32417E-05 1.12143E-05 6.20892E-19 8.93037E-19
 -1       759 5.32210E-05-6.56582E-06-1.96543E-05 1.61917E-05 7.99904E-19 7.29123E-19
 -1       760 8.94366E-05-2.28244E-05-2.85471E-05 1.05213E-06-1.92000E-19 2.05562E-18
 -1       761 9.52349E-05-2.85667E-05-2.85721E-05 1.16692E-09 1.82895E-18 2.88209E-18
 -1       762 9.52355E-05-2.85672E-05-2.85721E-05 1.84898E-09 1.57433E-18 3.17238E-18
 -1       763 8.56403E-05-1.98348E-05-2.81955E-05 7.50962E-07 9.03679E-19-1.64778E-19
 -1       764 9.04352E-05-2.29943E-05-2.89036E-05-7.75452E-07 4.50411E-19 6.57467E-19
 -1       765 9.17984E-05-2.48830E-05-2.86776E-05 9.88359E-07-4.84278E-19 1.76563E-18
 -1       766 9.32411E-05-2.62532E-05-2.87089E-05 8.02809E-07-4.97424E-19 9.03541E-19
 -1       767 9.41045E-05-2.71398E-05-2.86990E-05 6.04087E-07-4.95052E-19 3.10648E-19
 -1       768 9.46112E-05-2.77009E-05-2.86758E-05 4.34264E-07-5.08301E-19 5.41205E-19
 -1       769 9.49027E-05-2.80496E-05-2.86512E-05 3.03441E-07 2.97125E-19-7.48997E-19
 -1       770 9.50665E-05-2.82628E-05-2.86301E-05 2.08392E-07 1.26545E-19-9.07653E-19
 -1       771 9.51560E-05-2.83912E-05-2.86135E-05 1.41749E-07 1.23242E-18-7.02516E-19
 -1       772 9.52031E-05-2.84673E-05-2.86011E-05 9.61028E-08 1.06469E-18 3.31447E-19
 -1       773 9.52259E-05-2.85101E-05-2.85925E-05 6.63339E-08 2.30529E-19 4.42595E-19
 -1       774 9.52371E-05-2.85365E-05-2.85860E-05 4.49285E-08 5.46064E-19-8.97432E-19
 -1       775 9.52415E-05-2.85515E-05-2.85815E-05 3.04852E-08 9.61164E-19-1.71677E-19
 -1       776 9.52426E-05-2.85599E-05-2.85783E-05 2.06600E-08 1.05890E-18 1.03051E-18
 -1       777 9.52422E-05-2.85646E-05-2.85761E-05 1.39208E-08-9.28602E-20-8.93452E-19
 -1       778 9.52413E-05-2.85672E-05-2.85746E-05 9.25640E-09-6.56757E-20-1.00872E-18
 -1       779 9.52403E-05-2.85687E-05-2.85736E-05 6.00468E-09 1.59169E-18-1.60394E-19
 -1       780 9.52395E-05-2.85695E-05-2.85728E-05 3.73263E-09 1.92655E-18-7.78362E-19
 -1       781 9.52388E-05-2.85701E-05-2.85723E-05 2.15409E-09-3.27382E-19-5.52709E-19
 -1       782 9.52382E-05-2.85704E-05-2.85719E-05 1.21076E-09-1.66196E-18-2.66103E-18
 -1       783 1.30706E-04-5.63211E-05-3.18517E-05 1.81578E-05 3.59347E-19-5.43254E-19
 -1       784 9.52377E-05-2.85695E-05-2.85721E-05 1.89297E-09 7.18759E-19-1.96770E-18
 -1       785 1.08773E-04-4.82024E-05-2.58452E-05 3.58833E-05 1.55000E-19 7.63554E-20
 -1       786 1.29442E-04-2.85684E-05-4.34757E-05-1.43465E-05-2.09021E-18 2.87813E-19
 -1       787 9.52363E-05-2.85681E-05-2.85721E-05 2.16427E-09 2.41022E-18 7.68369E-19
 -1       788 9.52346E-05-2.85665E-05-2.85720E-05 2.68955E-10 1.16238E-18 2.32933E-18
 -1       789 9.52347E-05-2.85667E-05-2.85720E-05-6.86747E-10 5.63757E-19 4.05989E-19
 -1       790 5.78209E-05-1.10079E-05-1.98115E-05-2.58168E-05-1.42229E-18 1.61585E-18
 -1       791 9.38346E-05-2.45750E-05-2.96827E-05 1.83959E-07 3.66630E-19 5.67128E-19
 -1       792 1.32040E-04-3.87325E-05-4.01431E-05 1.03483E-05 1.23532E-18-1.87845E-18
 -1       793 9.25852E-05-2.42372E-05-2.92920E-05-5.78488E-07 2.88933E-19 5.59333E-19
 -1       794 6.15117E-05-5.56950E-06-2.38490E-05 1.00109E-07-8.94448E-19 1.69754E-18
 -1       795 9.52371E-05-2.85688E-05-2.85721E-05 2.16921E-09 2.12541E-18-2.32549E-18
 -1       796 1.14925E-04-7.29029E-06-4.64349E-05 8.19859E-07-1.21134E-18-1.71937E-18
 -1       797 7.38007E-05-1.15442E-05-2.66654E-05 2.17052E-06-8.93781E-19 1.13852E-18
 -1       798 8.08026E-05-1.62076E-05-2.76720E-05 1.24953E-06 1.00554E-18-4.34576E-19
 -1       799 7.44524E-05-1.35425E-05-2.60778E-05 4.89121E-06 7.20204E-19 9.16211E-19
 -1       800 8.18877E-05-1.75585E-05-2.75672E-05 1.42588E-06 6.48882E-19 7.27428E-19
 -1       801 9.27657E-05-1.93819E-05-3.14513E-05 1.84558E-06 1.25660E-18 1.73882E-19
 -1       802 9.29592E-05-1.95188E-05-3.14757E-05 6.80506E-07 1.10916E-18-1.56307E-19
 -1       803 6.28673E-05-1.43385E-05-2.05673E-05 2.67825E-05 4.07436E-19 1.13877E-18
 -1       804 1.32574E-04-5.24130E-05-3.44225E-05 4.21340E-06-7.18808E-20 1.92260E-19
 -1       805 9.43264E-05-2.43234E-05-2.99998E-05 1.04004E-06 8.05288E-19 7.33919E-19
 -1       806 1.12469E-04-1.26684E-05-4.29088E-05 7.67401E-06-2.38506E-19-2.17826E-18
 -1       807 7.63556E-05-2.56567E-05-2.14843E-05-3.68149E-05 2.02666E-19 1.09958E-18
 -1       808 5.49017E-05-5.52015E-06-2.08652E-05-1.30076E-05-1.60315E-18 2.12843E-18
 -1       809 9.52352E-05-2.85674E-05-2.85719E-05-1.25481E-09 7.19679E-19 1.66446E-18
 -1       810 9.28405E-05-1.96719E-05-3.13589E-05 2.76740E-06 1.28243E-18 3.80904E-19
 -1       811 1.21464E-04-2.69074E-05-4.06321E-05 1.37242E-05 1.36981E-18-1.19277E-18
 -1       812 9.38301E-05-2.07680E-05-3.13131E-05-1.96747E-06 1.07358E-18-7.24095E-19
 -1       813 1.01393E-04-4.31529E-05-2.48327E-05-3.77568E-05 1.76955E-18 5.98859E-19
 -1       814 9.43761E-05-2.18037E-05-3.11058E-05-3.14344E-06 9.85353E-19-7.72686E-19
 -1       815 9.32505E-05-2.04740E-05-3.11921E-05 3.40454E-06 1.12014E-18 7.55950E-19
 -1       816 7.98120E-05-2.41176E-05-2.37929E-05 2.75878E-05 7.05211E-19 7.90738E-19
 -1       817 9.33382E-05-1.99976E-05-3.14329E-05-6.33881E-07 1.12766E-18-5.78644E-19
 -1       818 9.42168E-05-2.31971E-05-3.04385E-05 2.14729E-06 1.16530E-18 1.23382E-18
 -1       819 6.99035E-05-1.17304E-05-2.48760E-05-1.07349E-05-2.49914E-19 3.87456E-19
 -1       820 1.27419E-04-4.52185E-05-3.52685E-05 4.06750E-06 9.11388E-19-5.65467E-19
 -1       821 9.04810E-05-2.41498E-05-2.84280E-05-1.11793E-06 8.92105E-20 2.01431E-18
 -1       822 9.68222E-05-2.67914E-05-3.00130E-05-1.15682E-06 6.01546E-19-4.85240E-19
 -1       823 9.78658E-05-2.88363E-05-2.95842E-05-4.03715E-07 2.79787E-19-3.78057E-19
 -1       824 9.89406E-05-3.06255E-05-2.92780E-05-7.94243E-08 1.10552E-19 2.31999E-19
 -1       825 1.00180E-04-3.22856E-05-2.90977E-05-2.12396E-07 3.41446E-20 2.65935E-19
 -1       826 1.01639E-04-3.38382E-05-2.90579E-05-8.54317E-07 3.31380E-20 1.52816E-19
 -1       827 1.03259E-04-3.51588E-05-2.91863E-05-2.07404E-06 2.87369E-19 6.38514E-20
 -1       828 1.04816E-04-3.59383E-05-2.95197E-05-3.89739E-06-3.27278E-20 3.10871E-19
 -1       829 1.05904E-04-3.56904E-05-3.00919E-05-6.19083E-06-5.71021E-19 2.53586E-19
 -1       830 1.06015E-04-3.38893E-05-3.09096E-05-8.49376E-06-9.03459E-19-3.35273E-19
 -1       831 1.04782E-04-3.03061E-05-3.19217E-05-9.96135E-06-5.02239E-19-1.09660E-19
 -1       832 1.02379E-04-2.54518E-05-3.29729E-05-9.45733E-06-2.13419E-19 3.16589E-19
 -1       833 9.97220E-05-2.07871E-05-3.38287E-05-6.36438E-06-7.51543E-20 8.25219E-19
 -1       834 9.82505E-05-1.84426E-05-3.41923E-05-1.05047E-06-2.80614E-19 1.02719E-18
 -1       835 9.87003E-05-1.92628E-05-3.40370E-05 4.68599E-06-5.39430E-19 1.80303E-18
 -1       836 1.00919E-04-2.30121E-05-3.33774E-05 8.92464E-06-8.64974E-20 2.04300E-18
 -1       837 1.03443E-04-2.78575E-05-3.23926E-05 1.06086E-05-4.35525E-19 1.38996E-18
 -1       838 1.05113E-04-3.20071E-05-3.13320E-05 9.99298E-06 1.55952E-20 1.07443E-18
 -1       839 1.05439E-04-3.45288E-05-3.03922E-05 8.04411E-06-1.41264E-19 7.10100E-19
 -1       840 1.04592E-04-3.53876E-05-2.96599E-05 5.75885E-06-1.19886E-20 8.79184E-19
 -1       841 1.03059E-04-3.50484E-05-2.91478E-05 3.75145E-06-9.37878E-19 1.75779E-19
 -1       842 1.01317E-04-3.40660E-05-2.88223E-05 2.25111E-06-1.00652E-18 6.25596E-19
 -1       843 9.96926E-05-3.28788E-05-2.86347E-05 1.24600E-06 1.61542E-19 4.31207E-19
 -1       844 9.83411E-05-3.17493E-05-2.85395E-05 6.27104E-07 1.13257E-18 5.33912E-19
 -1       845 9.73030E-05-3.08012E-05-2.85008E-05 2.73786E-07-2.39596E-19 8.66644E-19
 -1       846 9.65527E-05-3.00678E-05-2.84936E-05 8.64629E-08 2.06341E-19 4.24294E-19
 -1       847 9.60369E-05-2.95331E-05-2.85016E-05-4.29548E-09-3.87061E-19 1.31076E-18
 -1       848 9.56978E-05-2.91617E-05-2.85155E-05-4.23230E-08 2.33968E-19 1.10713E-18
 -1       849 9.54845E-05-2.89146E-05-2.85300E-05-5.35280E-08 9.00418E-19-2.44469E-19
 -1       850 9.53564E-05-2.87570E-05-2.85426E-05-5.22537E-08 1.72637E-18-7.61752E-20
 -1       851 9.52837E-05-2.86608E-05-2.85526E-05-4.59568E-08 7.88771E-19 9.10486E-19
 -1       852 9.52453E-05-2.86052E-05-2.85601E-05-3.82666E-08 8.52879E-19 3.41658E-19
 -1       853 9.52273E-05-2.85752E-05-2.85652E-05-3.08067E-08-1.37776E-18 2.05194E-18
 -1       854 9.52207E-05-2.85607E-05-2.85686E-05-2.42070E-08-2.18295E-18 2.98021E-18
 -1       855 9.52201E-05-2.85552E-05-2.85706E-05-1.86353E-08 1.51406E-18 2.15812E-18
 -1       856 9.52221E-05-2.85546E-05-2.85718E-05-1.40612E-08 1.23591E-18 1.41165E-18
 -1       857 9.52251E-05-2.85562E-05-2.85724E-05-1.03800E-08 2.28679E-18 1.60457E-18
 -1       858 9.52280E-05-2.85588E-05-2.85726E-05-7.46828E-09 1.60100E-18 2.19430E-18
 -1       859 9.52306E-05-2.85614E-05-2.85725E-05-5.20294E-09 8.13067E-19 3.14646E-18
 -1       860 9.52327E-05-2.85638E-05-2.85724E-05-3.45261E-09 1.58387E-18 1.70284E-18
 -1       861 9.22789E-05-2.56304E-05-2.85638E-05-4.22787E-07 7.70649E-19 1.13617E-18
 -1       862 9.52333E-05-2.85648E-05-2.85722E-05-4.92583E-10-9.65191E-19-4.74467E-19
 -1       863 9.52341E-05-2.85652E-05-2.85724E-05 2.06208E-09 2.08431E-18 2.23568E-18
 -1       864 9.52335E-05-2.85648E-05-2.85723E-05 8.65157E-10-1.03270E-18 2.06762E-18
 -1       865 8.77748E-05-2.21350E-05-2.81324E-05-2.49212E-06-1.09567E-18 1.35350E-18
 -1       866 8.99909E-05-2.30588E-05-2.86855E-05 2.54009E-06 4.50085E-19 6.10222E-19
 -1       867 9.34377E-05-2.66633E-05-2.86177E-05-9.21231E-08-4.94542E-19 9.48386E-19
 -1       868 9.41660E-05-2.73583E-05-2.86320E-05 4.92025E-08-2.68173E-19 4.29057E-19
 -1       869 9.46136E-05-2.78131E-05-2.86288E-05 9.74100E-08-5.84486E-20 8.82086E-19
 -1       870 9.48830E-05-2.81042E-05-2.86195E-05 1.03114E-07-1.67304E-19 2.16086E-18
 -1       871 9.50415E-05-2.82870E-05-2.86091E-05 9.17076E-08 7.88934E-19 2.79908E-18
 -1       872 9.51327E-05-2.83997E-05-2.85999E-05 7.53484E-08 7.79482E-19 1.14073E-18
 -1       873 9.51820E-05-2.84656E-05-2.85927E-05 5.98487E-08 6.14645E-19 8.35665E-19
 -1       874 9.52108E-05-2.85080E-05-2.85869E-05 4.56098E-08 1.42536E-18 1.39106E-18
 -1       875 9.52258E-05-2.85332E-05-2.85825E-05 3.40563E-08-1.48451E-19 5.41605E-19
 -1       876 9.52333E-05-2.85481E-05-2.85794E-05 2.49755E-08 1.50151E-19 4.15728E-19
 -1       877 9.52368E-05-2.85569E-05-2.85771E-05 1.80016E-08 1.19728E-18 1.99045E-18
 -1       878 9.52382E-05-2.85622E-05-2.85754E-05 1.27284E-08 1.17919E-18 5.24360E-19
 -1       879 9.52386E-05-2.85653E-05-2.85742E-05 8.79125E-09 1.13507E-18-7.59656E-19
 -1       880 9.52385E-05-2.85673E-05-2.85734E-05 5.89023E-09 1.88854E-18-2.62133E-18
 -1       881 9.52383E-05-2.85686E-05-2.85727E-05 3.79216E-09 9.70786E-19-1.80154E-18
 -1       882 9.52380E-05-2.85691E-05-2.85724E-05 2.72138E-09 7.67988E-20-1.05518E-18
 -1       883 1.26540E-04-5.13364E-05-3.22343E-05-9.96260E-06 1.26035E-18-3.02780E-19
 -1       884 7.51661E-05-1.90674E-05-2.39542E-05-2.37895E-05 5.26127E-19 4.63181E-19
 -1       885 1.09720E-04-1.23581E-05-4.18496E-05-5.71830E-06-8.35108E-19 5.06301E-19
 -1       886 9.52352E-05-2.85662E-05-2.85724E-05 2.88319E-09 5.00641E-18 9.71647E-19
 -1       887 9.95356E-05-3.90477E-05-2.58534E-05 3.04936E-05 5.87454E-19-9.39876E-20
 -1       888 1.27760E-04-4.02006E-05-3.75968E-05-1.00080E-05-6.10856E-19 6.97710E-19
 -1       889 1.16554E-04-2.21557E-05-4.05567E-05-1.30354E-05-1.48152E-18 1.06306E-18
 -1       890 7.80713E-05-1.87558E-05-2.53883E-05 1.65989E-05 5.71369E-19 9.65294E-19
 -1       891 1.13497E-04-4.72687E-05-2.83476E-05-2.50197E-05 8.87424E-19-1.87743E-19
 -1       892 1.17011E-04-4.91561E-05-2.90393E-05 2.21116E-05 2.92739E-21-3.39247E-19
 -1       893 9.00777E-05-3.16570E-05-2.49686E-05-3.01503E-05 8.41901E-19 3.49805E-19
 -1       894 9.51641E-05-2.31978E-05-3.08428E-05-5.17828E-07 8.98719E-19-6.37174E-19
 -1       895 1.21462E-04-3.64485E-05-3.64773E-05 1.07663E-05 4.42436E-19-4.27057E-20
 -1       896 9.39143E-05-2.18918E-05-3.08667E-05 2.10085E-06 1.08882E-18 1.82524E-19
 -1       897 9.21443E-05-2.40321E-05-2.91909E-05 1.35529E-06 3.11322E-19 4.79507E-19
 -1       898 9.52342E-05-2.85659E-05-2.85721E-05-2.17219E-09-1.01200E-18 1.58099E-18
 -1       899 8.68937E-05-2.15347E-05-2.80119E-05 5.02867E-06 3.66298E-19 5.49553E-19
 -1       900 9.40518E-05-2.37681E-05-3.01224E-05 1.49835E-06 8.23599E-19 1.27466E-18
 -1       901 9.52371E-05-2.85681E-05-2.85724E-05 3.02610E-09 9.09335E-19-1.16707E-18
 -1       902 1.06071E-04-1.27950E-05-4.00413E-05 1.17813E-06 4.96050E-19-3.20346E-19
 -1       903 1.12227E-04-2.04755E-05-3.94015E-05 1.14433E-05 1.51793E-19-1.80154E-18
 -1       904 7.81742E-05-1.61281E-05-2.65768E-05-7.44144E-06 3.42879E-19 3.07545E-19
 -1       905 8.28045E-05-1.98353E-05-2.69800E-05 9.54327E-06 4.89954E-19 8.49987E-19
 -1       906 1.23330E-04-5.05782E-05-3.11966E-05 1.17054E-05 3.42567E-19-9.88191E-20
 -1       907 9.42378E-05-2.20565E-05-3.09334E-05 1.45670E-06 1.10835E-18 4.20362E-20
 -1       908 8.38607E-05-1.95995E-05-2.75371E-05-5.04834E-06 7.17584E-19 1.49967E-18
 -1       909 9.52361E-05-2.85671E-05-2.85725E-05 3.08671E-09 3.36107E-18 1.66865E-18
 -1       910 9.34744E-05-2.43012E-05-2.96455E-05 1.09443E-06 5.16168E-19 9.30130E-19
 -1       911 9.56060E-05-2.42782E-05-3.05685E-05-2.33666E-06 6.39665E-19-5.06886E-19
 -1       912 9.38490E-05-2.21490E-05-3.07289E-05 2.37523E-06 8.89607E-19 5.42925E-19
 -1       913 9.46963E-05-2.25299E-05-3.09279E-05 5.38850E-07 9.36947E-19-2.51990E-19
 -1       914 9.43270E-05-2.35924E-05-3.03154E-05 2.09227E-06 8.24770E-19 1.90769E-20
 -1       915 9.60759E-05-2.49043E-05-3.05007E-05-9.89938E-07 7.74760E-19-7.83360E-19
 -1       916 9.06671E-05-2.89867E-05-2.63968E-05 2.12970E-05 6.66105E-19 9.12959E-20
 -1       917 9.20654E-05-2.57453E-05-2.84229E-05-2.19542E-06 5.91110E-19 1.70442E-18
 -1       918 9.87418E-05-2.95951E-05-2.96341E-05 6.00139E-07 5.66689E-19-4.10405E-19
 -1       919 1.00199E-04-3.16435E-05-2.93805E-05 9.88335E-07 1.62441E-19-3.17463E-19
 -1       920 1.01973E-04-3.36776E-05-2.92695E-05 9.99863E-07 9.66958E-20 5.59372E-20
 -1       921 1.04151E-04-3.56975E-05-2.93375E-05 4.78120E-07 2.11664E-19 2.69843E-19
 -1       922 1.06663E-04-3.75053E-05-2.96397E-05-7.83127E-07 2.94229E-20 5.58862E-20
 -1       923 1.09182E-04-3.86098E-05-3.02467E-05-2.95930E-06-6.86507E-20 6.45201E-23
 -1       924 1.11059E-04-3.82007E-05-3.12256E-05-5.99072E-06-7.13192E-19 3.89142E-19
 -1       925 1.11404E-04-3.54423E-05-3.25610E-05-9.09617E-06-4.03506E-19 1.62308E-18
 -1       926 1.09640E-04-2.97177E-05-3.42440E-05-1.11459E-05-8.72824E-20 2.07896E-18
 -1       927 1.06168E-04-2.26096E-05-3.58262E-05-1.01925E-05-4.00039E-19 1.48537E-18
 -1       928 1.03190E-04-1.71132E-05-3.69178E-05-5.10719E-06-4.46678E-21 6.03107E-19
 -1       929 1.07636E-04-2.62145E-05-3.49142E-05 1.16053E-05-4.61555E-19 1.18714E-18
 -1       930 1.10284E-04-3.25998E-05-3.32935E-05 1.08872E-05-1.90183E-19 7.99918E-19
 -1       931 1.10660E-04-3.65993E-05-3.17416E-05 8.04475E-06-1.62472E-19 4.50572E-19
 -1       932 1.09171E-04-3.79474E-05-3.05269E-05 4.87214E-06 3.15848E-19 3.41891E-19
 -1       933 1.06671E-04-3.74264E-05-2.96783E-05 2.35467E-06-4.88385E-19 9.38211E-19
 -1       934 1.03956E-04-3.59758E-05-2.91351E-05 7.13167E-07-7.73547E-19 1.38508E-18
 -1       935 1.01511E-04-3.42808E-05-2.88129E-05-1.68282E-07-2.09536E-19 1.82556E-18
 -1       936 9.95389E-05-3.27179E-05-2.86376E-05-5.38864E-07 3.33199E-19 1.61122E-18
 -1       937 9.80628E-05-3.14397E-05-2.85528E-05-6.14840E-07 1.09928E-19-1.44127E-19
 -1       938 9.70196E-05-3.04747E-05-2.85192E-05-5.50502E-07-4.35214E-20 1.05687E-18
 -1       939 9.63142E-05-2.97843E-05-2.85128E-05-4.38411E-07 8.40094E-19 1.36646E-18
 -1       940 9.58562E-05-2.93117E-05-2.85191E-05-3.24793E-07 2.03951E-19 1.43995E-18
 -1       941 9.55704E-05-2.90008E-05-2.85298E-05-2.29216E-07 1.12106E-19 1.56864E-18
 -1       942 9.53994E-05-2.88038E-05-2.85410E-05-1.56438E-07 1.26367E-18 1.81031E-18
 -1       943 9.53020E-05-2.86840E-05-2.85506E-05-1.04400E-07 1.31523E-18 2.29083E-19
 -1       944 9.52503E-05-2.86146E-05-2.85581E-05-6.87464E-08 6.26302E-19-2.34533E-19
 -1       945 9.52255E-05-2.85770E-05-2.85637E-05-4.50202E-08 1.64415E-18 5.61643E-20
 -1       946 9.52160E-05-2.85586E-05-2.85675E-05-2.95137E-08-1.12002E-18 8.50600E-19
 -1       947 9.52145E-05-2.85514E-05-2.85699E-05-1.94591E-08-8.90786E-19 8.04308E-19
 -1       948 9.52168E-05-2.85503E-05-2.85714E-05-1.29270E-08 7.08555E-19 4.67033E-19
 -1       949 9.52205E-05-2.85521E-05-2.85722E-05-8.63568E-09 2.05897E-18 1.82628E-18
 -1       950 9.52244E-05-2.85552E-05-2.85725E-05-5.76546E-09 1.66260E-18 2.25075E-18
 -1       951 9.52278E-05-2.85584E-05-2.85726E-05-3.81551E-09 1.42642E-18 2.59334E-18
 -1       952 9.52306E-05-2.85615E-05-2.85725E-05-2.45942E-09 8.24855E-19 1.82053E-18
 -1       953 9.39184E-05-2.72428E-05-2.85752E-05-6.15107E-07 1.87934E-19 1.08435E-18
 -1       954 9.44177E-05-2.76967E-05-2.85947E-05-2.94728E-07-9.66120E-19 2.01814E-18
 -1       955 9.31642E-05-2.66023E-05-2.85265E-05-1.19062E-06 1.65856E-19 1.38554E-18
 -1       956 9.47386E-05-2.80063E-05-2.85996E-05-1.22386E-07-6.28863E-19 2.58394E-18
 -1       957 9.05389E-05-2.46893E-05-2.82218E-05-3.89952E-06-8.81910E-19 2.81314E-19
 -1       958 9.49398E-05-2.82114E-05-2.85979E-05-3.40546E-08 5.71365E-19 1.59539E-18
 -1       959 9.50630E-05-2.83441E-05-2.85938E-05 7.90183E-09 1.60007E-18 1.48586E-18
 -1       960 9.51342E-05-2.84252E-05-2.85896E-05 2.44110E-08 8.11702E-19 1.25478E-18
 -1       961 9.51790E-05-2.84796E-05-2.85855E-05 2.91188E-08-1.13749E-19 1.18941E-18
 -1       962 9.52050E-05-2.85134E-05-2.85821E-05 2.76185E-08 4.99859E-19 2.06447E-18
 -1       963 9.52197E-05-2.85343E-05-2.85795E-05 2.35660E-08 7.48360E-19 2.87521E-18
 -1       964 9.52279E-05-2.85473E-05-2.85774E-05 1.88748E-08-4.07065E-19 1.40022E-18
 -1       965 9.52324E-05-2.85554E-05-2.85759E-05 1.44491E-08 1.95351E-18 7.78914E-19
 -1       966 9.52349E-05-2.85606E-05-2.85747E-05 1.06518E-08 1.98995E-18 1.72420E-19
 -1       967 9.52362E-05-2.85640E-05-2.85738E-05 7.59135E-09 3.38062E-18-1.22227E-18
 -1       968 9.52368E-05-2.85662E-05-2.85731E-05 5.20608E-09 9.95333E-19-2.76701E-19
 -1       969 9.52370E-05-2.85672E-05-2.85727E-05 4.02150E-09 6.89077E-19 1.78820E-19
 -1       970 9.52334E-05-2.85637E-05-2.85727E-05 3.37853E-09 1.36129E-18-2.33700E-20
 -1       971 9.74320E-05-2.74059E-05-3.00112E-05-7.70760E-08 6.47427E-19-6.00984E-19
 -1       972 9.42266E-05-2.40811E-05-3.00618E-05 1.97101E-06 9.52330E-19 4.23944E-19
 -1       973 8.85710E-05-2.35738E-05-2.78555E-05-6.69599E-06-3.62325E-19 6.23673E-19
 -1       974 1.24666E-04-4.58076E-05-3.38153E-05-2.89073E-06 3.00066E-19 1.02744E-18
 -1       975 1.21145E-04-4.58599E-05-3.22699E-05-1.41469E-06 4.81871E-19 6.75997E-20
 -1       976 1.17337E-04-3.35448E-05-3.59208E-05-1.17390E-05-2.65414E-19 1.83437E-18
 -1       977 1.02766E-04-3.84102E-05-2.75720E-05-2.19478E-05 6.91889E-19 5.84608E-19
 -1       978 1.06956E-04-4.14646E-05-2.80385E-05 2.10798E-05 6.12802E-19-3.49014E-19
 -1       979 1.16010E-04-4.60435E-05-2.99806E-05-1.30336E-05-5.41092E-20-6.96525E-20
 -1       980 8.82691E-05-2.69654E-05-2.62568E-05-2.09409E-05 9.01553E-19-5.29196E-19
 -1       981 8.08043E-05-1.98908E-05-2.60865E-05-1.52154E-05-4.92520E-20-2.13358E-19
 -1       982 9.67158E-05-2.59921E-05-3.03106E-05 3.59785E-07 7.60009E-19-4.63755E-19
 -1       983 9.29227E-05-2.50833E-05-2.90733E-05 3.71502E-06 1.52420E-19 6.14324E-19
 -1       984 1.19342E-04-4.12887E-05-3.34609E-05 5.92919E-06 3.79568E-19 1.21031E-18
 -1       985 9.03577E-05-2.64047E-05-2.74072E-05 1.40472E-05 6.87334E-19 8.04746E-21
 -1       986 1.05859E-04-1.91285E-05-3.71973E-05 9.06370E-06 4.67358E-20 7.39415E-19
 -1       987 9.16055E-05-2.50079E-05-2.85410E-05 6.14282E-06 4.88779E-19 8.54962E-19
 -1       988 9.52303E-05-2.85609E-05-2.85726E-05-1.05397E-10-9.47984E-19 1.46641E-18
 -1       989 9.38417E-05-2.48900E-05-2.95506E-05 2.42633E-06 5.90886E-19 2.49647E-19
 -1       990 9.52316E-05-2.85619E-05-2.85727E-05 2.00085E-09-5.07049E-19 5.18914E-19
 -1       991 8.53065E-05-2.18392E-05-2.71980E-05-1.03262E-05-6.76625E-20-1.03832E-18
 -1       992 9.49321E-05-2.39480E-05-3.04227E-05 2.04631E-06 9.16548E-19 2.05568E-19
 -1       993 9.52346E-05-2.85647E-05-2.85728E-05 4.08169E-09 1.07063E-18 2.16377E-18
 -1       994 1.14338E-04-4.52939E-05-2.95896E-05 1.43852E-05 5.95082E-19 4.17199E-19
 -1       995 9.50250E-05-2.83299E-05-2.85836E-05-1.04700E-07 2.42886E-18-8.06028E-19
 -1       996 9.49021E-05-2.82115E-05-2.85817E-05-2.26043E-07 2.82619E-19-1.39258E-18
 -1       997 1.01107E-04-3.25135E-05-2.93971E-05 2.59527E-06 3.96932E-19-2.33171E-19
 -1       998 1.03416E-04-3.49375E-05-2.93475E-05 2.98230E-06 5.35279E-20-1.65966E-19
 -1       999 1.06445E-04-3.75569E-05-2.95238E-05 2.79250E-06 9.01406E-20 1.87400E-19
 -1      1000 1.10154E-04-4.00972E-05-3.00256E-05 1.59689E-06-1.28944E-19 1.05646E-19
 -1      1001 1.14090E-04-4.17867E-05-3.09862E-05-1.04359E-06-4.04371E-20 1.00666E-19
 -1      1002 1.14374E-04-4.33027E-05-3.04569E-05-4.72056E-06-6.03439E-19-6.06251E-19
 -1      1003 9.47163E-05-2.80420E-05-2.85747E-05-4.41337E-07-8.25769E-19-1.09321E-18
 -1      1004 1.10690E-04-4.02213E-05-3.02005E-05-1.57221E-07 1.52814E-19 9.09353E-19
 -1      1005 1.06613E-04-3.80003E-05-2.94055E-05-1.91324E-06-9.91451E-19-1.22978E-19
 -1      1006 1.03145E-04-3.56022E-05-2.89460E-05-2.50001E-06-4.99665E-19 3.14020E-19
 -1      1007 1.00478E-04-3.35065E-05-2.87017E-05-2.40663E-06-1.50341E-19-6.27913E-20
 -1      1008 9.85688E-05-3.18723E-05-2.85839E-05-2.00923E-06-1.48431E-19 2.49864E-19
 -1      1009 9.72800E-05-3.06988E-05-2.85345E-05-1.53454E-06-1.96036E-19 3.80223E-19
 -1      1010 9.64359E-05-2.98883E-05-2.85202E-05-1.10324E-06 1.45357E-18 1.16036E-20
 -1      1011 9.59061E-05-2.93529E-05-2.85227E-05-7.55637E-07 6.99166E-19 1.51451E-18
 -1      1012 9.55854E-05-2.90115E-05-2.85316E-05-4.97616E-07 6.28703E-20 2.48601E-18
 -1      1013 9.53987E-05-2.88011E-05-2.85417E-05-3.16822E-07 5.84589E-21 1.61885E-18
 -1      1014 9.52951E-05-2.86763E-05-2.85509E-05-1.95709E-07 6.22436E-19 1.68917E-18
 -1      1015 9.52415E-05-2.86057E-05-2.85582E-05-1.17542E-07-4.22383E-19 7.85932E-19
 -1      1016 9.52170E-05-2.85685E-05-2.85636E-05-6.87383E-08 1.97044E-19 7.18440E-19
 -1      1017 9.52085E-05-2.85511E-05-2.85674E-05-3.91734E-08-1.20704E-19-1.02165E-18
 -1      1018 9.52082E-05-2.85450E-05-2.85699E-05-2.17640E-08-1.05599E-18-6.09235E-19
 -1      1019 9.52117E-05-2.85450E-05-2.85715E-05-1.17870E-08 1.16603E-18 1.26258E-18
 -1      1020 9.52165E-05-2.85478E-05-2.85723E-05-6.21174E-09 2.57373E-18 2.20127E-18
 -1      1021 9.52212E-05-2.85516E-05-2.85727E-05-3.16291E-09 1.49381E-18 2.89984E-18
 -1      1022 9.52254E-05-2.85557E-05-2.85728E-05-1.54907E-09 2.35940E-18 2.72119E-18
 -1      1023 9.52280E-05-2.85584E-05-2.85727E-05-6.98990E-10 1.91375E-18 4.28625E-18
 -1      1024 9.44447E-05-2.78099E-05-2.85577E-05-8.10659E-07 3.55527E-19 1.52923E-18
 -1      1025 9.51565E-05-2.64342E-05-2.94517E-05 3.75474E-06 1.18924E-19 2.29867E-19
 -1      1026 9.29838E-05-2.68555E-05-2.83401E-05-4.01827E-06-1.35988E-18 1.96320E-18
 -1      1027 9.51012E-05-2.84072E-05-2.85831E-05-4.15133E-08 8.66814E-19-1.37074E-18
 -1      1028 9.51527E-05-2.84621E-05-2.85817E-05-7.03562E-09 2.28264E-19 4.58402E-21
 -1      1029 9.51849E-05-2.84983E-05-2.85800E-05 8.68797E-09 6.48058E-19 7.46838E-19
 -1      1030 9.52048E-05-2.85220E-05-2.85783E-05 1.43190E-08 3.09268E-19 2.95488E-19
 -1      1031 9.52172E-05-2.85377E-05-2.85769E-05 1.48786E-08 2.48704E-19 1.85852E-18
 -1      1032 9.52248E-05-2.85481E-05-2.85757E-05 1.31631E-08 8.70106E-19 6.10452E-19
 -1      1033 9.52295E-05-2.85551E-05-2.85748E-05 1.06807E-08 2.00277E-18 5.13196E-19
 -1      1034 9.52325E-05-2.85599E-05-2.85740E-05 8.12296E-09 1.29774E-18 1.24179E-18
 -1      1035 9.52343E-05-2.85632E-05-2.85733E-05 5.94155E-09 1.28449E-18 2.17164E-18
 -1      1036 9.81174E-05-2.83986E-05-2.98809E-05 1.20587E-06 6.74130E-19-5.34457E-19
 -1      1037 9.06937E-05-2.53112E-05-2.80214E-05 9.46317E-06 6.01448E-19 4.50659E-19
 -1      1038 9.24288E-05-2.67449E-05-2.81512E-05-6.43398E-06-8.76978E-19 1.54079E-18
 -1      1039 9.16486E-05-2.68604E-05-2.77636E-05-1.05511E-05-1.35523E-18 3.44748E-19
 -1      1040 1.00901E-04-3.53215E-05-2.80985E-05 1.61750E-05 8.78174E-19 1.53905E-19
 -1      1041 1.19009E-04-4.58725E-05-3.13391E-05 3.81678E-06 7.73737E-19 1.36290E-18
 -1      1042 1.07274E-04-3.99402E-05-2.88578E-05-1.32303E-05-3.75413E-19 8.67068E-19
 -1      1043 9.73236E-05-3.26413E-05-2.77134E-05-1.60326E-05 9.08312E-19 2.04304E-18
 -1      1044 9.94766E-05-3.04445E-05-2.95857E-05 1.94913E-06 6.41719E-19-4.90912E-19
 -1      1045 9.62073E-05-2.54148E-05-3.03394E-05 1.45056E-06 8.97161E-19-1.02199E-19
 -1      1046 1.14394E-04-4.11213E-05-3.14087E-05 2.91269E-06 4.69598E-19 1.59648E-18
 -1      1047 1.17283E-04-4.13552E-05-3.25308E-05-5.27096E-06 2.86130E-19 1.30100E-18
 -1      1048 9.40650E-05-2.75121E-05-2.85226E-05-1.42697E-06 8.30526E-19 2.63771E-18
 -1      1049 9.35686E-05-2.71698E-05-2.84563E-05-2.42966E-06 2.09212E-19 3.06240E-18
 -1      1050 9.51217E-05-2.74109E-05-2.90182E-05 5.72778E-06 1.98448E-19-2.27568E-19
 -1      1051 9.50078E-05-2.51589E-05-2.99327E-05 2.56117E-06 5.16300E-19 1.24233E-19
 -1      1052 9.02069E-05-2.67164E-05-2.72012E-05-1.49376E-05 3.71077E-19-2.03634E-19
 -1      1053 1.06935E-04-3.93540E-05-2.89640E-05 1.27104E-05 6.78402E-19 1.60312E-19
 -1      1054 9.52326E-05-2.85617E-05-2.85732E-05 5.11428E-09 1.52159E-18 1.75869E-18
 -1      1055 9.52299E-05-2.85594E-05-2.85731E-05 3.51709E-09 8.02133E-19-2.61858E-18
 -1      1056 1.04105E-04-3.58026E-05-2.92726E-05 5.90962E-06 4.14824E-19-8.65363E-20
 -1      1057 1.08149E-04-3.92577E-05-2.95271E-05 6.45738E-06 1.60499E-19 1.11974E-19
 -1      1058 9.49783E-05-2.83295E-05-2.85639E-05-4.51166E-07 1.27549E-18-1.38193E-18
 -1      1059 9.50974E-05-2.89249E-05-2.83596E-05-5.26910E-06-1.02288E-18 9.81637E-19
 -1      1060 1.04178E-04-3.66349E-05-2.89481E-05-6.00693E-06-6.64671E-19 4.39074E-19
 -1      1061 1.00778E-04-3.38600E-05-2.86755E-05-5.10019E-06-4.90357E-19-9.74987E-20
 -1      1062 9.85417E-05-3.19008E-05-2.85588E-05-3.96914E-06-4.38889E-19-7.83740E-19
 -1      1063 9.71513E-05-3.06019E-05-2.85203E-05-2.88115E-06 7.52977E-20-1.41355E-18
 -1      1064 9.62713E-05-2.97399E-05-2.85130E-05-1.98780E-06 2.90413E-19-1.06583E-18
 -1      1065 9.57586E-05-2.92098E-05-2.85206E-05-1.31870E-06 1.41056E-18-1.78603E-18
 -1      1066 9.54708E-05-2.88948E-05-2.85323E-05-8.44510E-07 8.86031E-19-2.80517E-18
 -1      1067 9.53166E-05-2.87141E-05-2.85438E-05-5.22969E-07 4.75853E-19-5.19473E-19
 -1      1068 9.52394E-05-2.86151E-05-2.85532E-05-3.12984E-07 1.17123E-18 1.73168E-18
 -1      1069 9.52052E-05-2.85644E-05-2.85603E-05-1.80499E-07-1.74143E-18 1.16026E-18
 -1      1070 9.51938E-05-2.85412E-05-2.85654E-05-9.97045E-08-1.36169E-21 1.33546E-18
 -1      1071 9.51938E-05-2.85333E-05-2.85688E-05-5.21172E-08-5.71424E-19 7.58805E-19
 -1      1072 9.51990E-05-2.85334E-05-2.85710E-05-2.51638E-08-1.16700E-18 8.80094E-19
 -1      1073 9.52058E-05-2.85372E-05-2.85722E-05-1.06018E-08 8.06499E-19 5.07681E-19
 -1      1074 9.52126E-05-2.85425E-05-2.85729E-05-3.21305E-09 2.36064E-18-2.59424E-19
 -1      1075 9.52187E-05-2.85480E-05-2.85732E-05 1.93910E-10 2.86880E-18-5.81023E-19
 -1      1076 9.52237E-05-2.85530E-05-2.85732E-05 1.58081E-09 2.64567E-18 7.45212E-19
 -1      1077 9.48888E-05-2.82698E-05-2.85513E-05-7.89595E-07 9.96326E-19 8.41786E-19
 -1      1078 9.52287E-05-2.85586E-05-2.85729E-05 1.56687E-09-2.36113E-19-6.36801E-19
 -1      1079 9.64789E-05-3.10482E-05-2.80366E-05-1.16169E-05-1.42974E-19 1.37974E-18
 -1      1080 9.75292E-05-3.12851E-05-2.83826E-05 1.15274E-05 1.01196E-18 2.96304E-19
 -1      1081 9.51055E-05-2.84325E-05-2.85742E-05-1.27786E-07 1.75745E-18-5.39020E-20
 -1      1082 9.51935E-05-2.85162E-05-2.85760E-05-3.14494E-09-6.50611E-20 1.57822E-18
 -1      1083 9.52073E-05-2.85310E-05-2.85755E-05 5.29207E-09 7.11333E-19 1.94656E-18
 -1      1084 9.52168E-05-2.85417E-05-2.85750E-05 8.11659E-09 1.52578E-18 6.70131E-19
 -1      1085 9.52233E-05-2.85496E-05-2.85744E-05 8.18631E-09 2.24785E-18 2.35184E-19
 -1      1086 9.52280E-05-2.85556E-05-2.85739E-05 7.06490E-09 1.34881E-18 1.83730E-19
 -1      1087 9.62458E-05-2.64177E-05-2.99251E-05 2.70299E-06 4.44813E-19 1.29575E-19
 -1      1088 1.08084E-04-3.95600E-05-2.93688E-05-6.60126E-06-4.58136E-19-4.79085E-19
 -1      1089 9.51736E-05-2.84960E-05-2.85761E-05-2.21324E-08-1.50842E-18 9.32845E-20
 -1      1090 9.53965E-05-2.95383E-05-2.82250E-05-7.90677E-06-1.77320E-18 5.00907E-19
 -1      1091 1.13222E-04-4.28966E-05-3.01446E-05 6.24356E-06 6.92565E-20 9.14517E-19
 -1      1092 1.01313E-04-3.29512E-05-2.92942E-05 4.78992E-06 4.68291E-19-2.90573E-19
 -1      1093 9.50506E-05-2.83858E-05-2.85707E-05-2.47880E-07 1.15641E-18-2.20865E-18
 -1      1094 9.51453E-05-2.84688E-05-2.85757E-05-5.93270E-08-6.52209E-19 8.93274E-19
 -1      1095 9.79689E-05-2.85021E-05-2.97709E-05 2.61973E-06 6.35401E-19-2.20578E-19
 -1      1096 9.47753E-05-2.84216E-05-2.84381E-05-3.43619E-06-8.64583E-19 9.30646E-19
 -1      1097 9.47944E-05-2.82269E-05-2.85293E-05-1.33164E-06 9.63094E-19 1.09039E-18
 -1      1098 9.52264E-05-2.85560E-05-2.85730E-05 1.58343E-09 2.25084E-18 2.31469E-19
 -1      1099 9.55211E-05-2.86135E-05-2.86727E-05 8.14361E-06 3.67429E-19-3.20946E-20
 -1      1100 9.72965E-05-2.87296E-05-2.93867E-05 4.55375E-06 5.79334E-19-9.58567E-20
 -1      1101 1.02020E-04-3.47479E-05-2.88277E-05 1.02211E-05 6.21462E-19-5.65294E-19
 -1      1102 1.01948E-04-3.53973E-05-2.85181E-05-1.06878E-05 2.47092E-19 7.70727E-19
 -1      1103 9.94054E-05-3.06266E-05-2.94754E-05 3.66666E-06 5.99674E-19-3.05043E-19
 -1      1104 9.47296E-05-2.82461E-05-2.84934E-05-2.17346E-06 2.89999E-19 4.81542E-19
 -1      1105 9.75229E-05-3.11942E-05-2.84276E-05-6.30141E-06-1.29437E-18 8.33649E-19
 -1      1106 9.83786E-05-3.04172E-05-2.91299E-05 6.17977E-06 2.82487E-19-3.62720E-19
 -1      1107 9.95480E-05-3.31346E-05-2.84657E-05-8.25727E-06-7.54334E-19 1.11198E-18
 -1      1108 1.00313E-04-3.26231E-05-2.90161E-05 7.57843E-06 4.69371E-19-7.78705E-19
 -1      1109 1.16971E-04 2.57927E-10-4.18974E-05-4.14809E-05-2.49028E-19-2.50828E-18
 -1      1110 8.87164E-05 7.20203E-11-3.72781E-05-2.41562E-05-5.08220E-20-4.02944E-18
 -1      1111 8.41073E-05 4.15382E-11-3.57793E-05-1.78573E-05-6.88214E-21-3.79358E-18
 -1      1112 8.23391E-05 3.21598E-11-3.50746E-05-1.38043E-05 2.12023E-20-3.24285E-18
 -1      1113 8.15192E-05 2.75090E-11-3.47325E-05-1.04857E-05 3.58004E-20-2.61211E-18
 -1      1114 8.11032E-05 2.47893E-11-3.45610E-05-7.57363E-06 3.88709E-20-2.08461E-18
 -1      1115 8.08793E-05 2.30556E-11-3.44719E-05-4.89748E-06 3.68526E-20-1.57388E-18
 -1      1116 8.07614E-05 2.20039E-11-3.44274E-05-2.34813E-06 4.36156E-20-1.09341E-18
 -1      1117 8.07196E-05 2.15269E-11-3.44130E-05 1.16912E-07 4.83057E-20-6.22649E-19
 -1      1118 8.07498E-05 2.16357E-11-3.44262E-05 2.56033E-06 4.60756E-20-2.07278E-19
 -1      1119 8.08687E-05 2.24361E-11-3.44735E-05 5.05194E-06 4.45222E-20 3.37979E-19
 -1      1120 8.11147E-05 2.40949E-11-3.45711E-05 7.65387E-06 5.12455E-20 9.45097E-19
 -1      1121 8.15685E-05 2.70032E-11-3.47560E-05 1.04992E-05 5.42630E-20 1.68775E-18
 -1      1122 8.24264E-05 3.19810E-11-3.51115E-05 1.37835E-05 5.88953E-20 2.57374E-18
 -1      1123 8.42201E-05 4.17336E-11-3.58245E-05 1.78402E-05 5.05573E-20 3.82585E-18
 -1      1124 8.88409E-05 7.25053E-11-3.73237E-05 2.41724E-05 1.05879E-20 5.46098E-18
 -1      1125 1.17121E-04 2.58410E-10-4.18317E-05 4.16758E-05-1.48654E-19 7.07738E-18
 -1      1126 1.30379E-04-2.57926E-05-4.03222E-05-2.61179E-05-7.02720E-19-1.85119E-18
 -1      1127 9.76212E-05-2.89113E-05-3.16277E-05-6.75897E-07-2.43998E-19-3.47654E-18
 -1      1128 9.03301E-05-2.70758E-05-2.79429E-05 3.90834E-07-7.97137E-20-5.12710E-18
 -1      1129 8.83995E-05-2.66143E-05-2.66855E-05 2.55001E-07-3.13237E-20-6.23707E-18
 -1      1130 8.79727E-05-2.64653E-05-2.64055E-05 1.69981E-07 1.02570E-20-6.96097E-18
 -1      1131 8.81770E-05-2.64931E-05-2.64392E-05 1.20864E-07 4.42393E-20-6.96105E-18
 -1      1132 8.85673E-05-2.65856E-05-2.65465E-05 8.68391E-08-2.29712E-20-7.19183E-18
 -1      1133 8.88700E-05-2.66602E-05-2.66268E-05 5.87228E-08 5.50538E-20-7.65932E-18
 -1      1134 8.88801E-05-2.66522E-05-2.66182E-05 3.11600E-08-1.38644E-20-8.17708E-18
 -1      1135 8.84273E-05-2.65088E-05-2.64713E-05 9.13907E-10-9.40264E-20-9.10287E-18
 -1      1136 8.73733E-05-2.61884E-05-2.61475E-05-3.35187E-08 2.67585E-20-9.45841E-18
 -1      1137 8.56298E-05-2.56651E-05-2.56237E-05-7.14552E-08 1.71590E-19-8.36253E-18
 -1      1138 8.31920E-05-2.49385E-05-2.49026E-05-1.09307E-07 8.34137E-20-8.73634E-18
 -1      1139 8.01775E-05-2.40445E-05-2.40222E-05-1.40329E-07-4.77167E-20-8.94546E-18
 -1      1140 7.68526E-05-2.30624E-05-2.30622E-05-1.55645E-07-1.04624E-19-9.30254E-18
 -1      1141 7.36253E-05-2.21123E-05-2.21394E-05-1.47003E-07-1.31998E-19-1.00213E-17
 -1      1142 7.09860E-05-2.13376E-05-2.13909E-05-1.10664E-07-1.95542E-19-1.06564E-17
 -1      1143 6.94001E-05-2.08733E-05-2.09445E-05-5.05682E-08 8.80947E-20-1.11303E-17
 -1      1144 6.91822E-05-2.08105E-05-2.08856E-05 2.14411E-08 3.39392E-20-1.14545E-17
 -1      1145 7.04019E-05-2.11694E-05-2.12332E-05 8.92623E-08-2.19759E-19-1.16930E-17
 -1      1146 7.28644E-05-2.18937E-05-2.19351E-05 1.38523E-07-1.69043E-20-1.15495E-17
 -1      1147 7.61747E-05-2.28691E-05-2.28839E-05 1.61627E-07 4.66331E-20-1.08008E-17
 -1      1148 7.98554E-05-2.39568E-05-2.39477E-05 1.59272E-07 4.02966E-22-9.78667E-18
 -1      1149 8.34669E-05-2.50276E-05-2.50022E-05 1.38316E-07-2.06820E-19-1.02148E-17
 -1      1150 8.66885E-05-2.59865E-05-2.59537E-05 1.07934E-07 2.12451E-19-9.09969E-18
 -1      1151 8.93458E-05-2.67808E-05-2.67479E-05 7.62489E-08-2.28909E-19-7.65723E-18
 -1      1152 9.13943E-05-2.73960E-05-2.73676E-05 4.85979E-08 1.11503E-19-8.71049E-18
 -1      1153 9.28799E-05-2.78444E-05-2.78227E-05 2.73674E-08-1.57641E-19-9.63660E-18
 -1      1154 9.38969E-05-2.81531E-05-2.81381E-05 1.27450E-08-1.57577E-19-9.64725E-18
 -1      1155 9.45538E-05-2.83539E-05-2.83444E-05 3.69812E-09 2.04026E-19-1.00875E-17
 -1      1156 9.49519E-05-2.84767E-05-2.84714E-05-1.22903E-09-9.99515E-20-9.11741E-18
 -1      1157 9.51750E-05-2.85464E-05-2.85438E-05-3.42606E-09 2.73133E-20-8.29408E-18
 -1      1158 9.52866E-05-2.85819E-05-2.85811E-05-3.99753E-09 7.21238E-20-9.44798E-18
 -1      1159 9.53315E-05-2.85969E-05-2.85970E-05-3.71962E-09-7.73232E-20-8.89006E-18
 -1      1160 9.53396E-05-2.86004E-05-2.86009E-05-3.08437E-09 1.74948E-20-8.55543E-18
 -1      1161 9.53297E-05-2.85981E-05-2.85987E-05-2.37261E-09-2.19752E-20-1.02245E-17
 -1      1162 9.53128E-05-2.85935E-05-2.85940E-05-1.72431E-09-1.62274E-19-9.98246E-18
 -1      1163 9.52949E-05-2.85883E-05-2.85888E-05-1.19402E-09-2.06752E-19-8.56102E-18
 -1      1164 9.52789E-05-2.85837E-05-2.85840E-05-7.89698E-10 1.96443E-19-8.54758E-18
 -1      1165 9.52659E-05-2.85798E-05-2.85801E-05-4.97237E-10-1.58223E-19-1.00315E-17
 -1      1166 9.52559E-05-2.85768E-05-2.85770E-05-2.94781E-10-2.28594E-19-1.12577E-17
 -1      1167 9.52486E-05-2.85747E-05-2.85748E-05-1.60150E-10-6.50513E-20-8.41436E-18
 -1      1168 9.52436E-05-2.85732E-05-2.85732E-05-7.41515E-11-4.97199E-20-6.59136E-18
 -1      1169 9.52403E-05-2.85722E-05-2.85722E-05-2.15719E-11-2.17535E-19-6.85853E-18
 -1      1170 9.52383E-05-2.85715E-05-2.85716E-05 9.00665E-12 1.34320E-19-6.88538E-18
 -1      1171 9.52373E-05-2.85712E-05-2.85712E-05 2.58788E-11-1.79392E-20-5.43291E-18
 -1      1172 9.52368E-05-2.85711E-05-2.85711E-05 3.48827E-11-2.38195E-19-3.92460E-18
 -1      1173 9.52367E-05-2.85710E-05-2.85710E-05 3.97468E-11 7.88559E-19-1.56239E-18
 -1      1174 9.52369E-05-2.85711E-05-2.85711E-05 4.43374E-11-2.69916E-19 2.36414E-18
 -1      1175 9.52371E-05-2.85711E-05-2.85711E-05 1.54726E-11 8.10621E-19 2.51160E-18
 -1      1176 1.31362E-04-2.58409E-05-4.04142E-05 2.68306E-05-2.82062E-19 8.42544E-18
 -1      1177 9.82391E-05-2.90665E-05-3.18711E-05 8.55335E-07-1.22026E-19 9.00714E-18
 -1      1178 9.05008E-05-2.71163E-05-2.80499E-05-3.86786E-07-1.97994E-20 9.05187E-18
 -1      1179 8.85956E-05-2.66820E-05-2.67698E-05-2.50324E-07-7.24610E-21 8.90123E-18
 -1      1180 8.84019E-05-2.66104E-05-2.65571E-05-1.63063E-07 2.79058E-20 8.84602E-18
 -1      1181 8.91295E-05-2.68040E-05-2.67603E-05-1.15218E-07 1.94123E-20 8.50299E-18
 -1      1182 9.05115E-05-2.72061E-05-2.71915E-05-8.93662E-08 6.64160E-20 8.14082E-18
 -1      1183 9.25818E-05-2.78276E-05-2.78479E-05-8.31567E-08-1.66942E-20 8.15276E-18
 -1      1184 9.56385E-05-2.87544E-05-2.88322E-05-1.05292E-07 1.10147E-20 8.20501E-18
 -1      1185 1.00321E-04-3.01735E-05-3.03602E-05-1.80941E-07 1.24640E-20 8.68458E-18
 -1      1186 1.07762E-04-3.24083E-05-3.28002E-05-3.67884E-07 5.76843E-20 8.62772E-18
 -1      1187 1.19394E-04-3.59214E-05-3.65534E-05-7.48297E-07-5.65725E-20 8.54497E-18
 -1      1188 1.37740E-04-4.14454E-05-4.22220E-05-1.43159E-06 6.49304E-20 8.56202E-18
 -1      1189 1.65582E-04-4.99558E-05-4.99754E-05-2.48244E-06 1.73417E-19 8.33692E-18
 -1      1190 2.00173E-04-6.06888E-05-5.80188E-05-2.95653E-06-9.21678E-20 8.11839E-18
 -1      1191 2.24251E-04-6.79937E-05-6.22926E-05 4.29620E-07 3.04667E-20 1.08668E-17
 -1      1192 2.09482E-04-6.21952E-05-5.96958E-05 8.84965E-06-2.82036E-19 1.46977E-17
 -1      1193 1.46470E-04-3.93353E-05-5.21100E-05 1.45318E-05-3.12026E-19 1.75514E-17
 -1      1194 8.13509E-05-1.79657E-05-4.55066E-05 6.24040E-06-5.93982E-20 2.06274E-17
 -1      1195 8.55233E-05-1.98286E-05-4.57578E-05-8.07147E-06 2.46063E-19 1.82857E-17
 -1      1196 1.43255E-04-3.94329E-05-5.14749E-05-1.20773E-05 1.13185E-19 1.18983E-17
 -1      1197 2.03292E-04-6.02839E-05-5.86140E-05-7.40244E-06-9.94205E-20 6.57636E-18
 -1      1198 2.26978E-04-6.89572E-05-6.25009E-05-1.14587E-06-1.26684E-19 5.47310E-18
 -1      1199 2.13280E-04-6.49960E-05-6.06782E-05 1.63422E-06 7.11905E-20 4.17905E-18
 -1      1200 1.81014E-04-5.47651E-05-5.38724E-05 1.99683E-06-3.18924E-19 5.43372E-18
 -1      1201 1.49750E-04-4.49178E-05-4.57289E-05 1.38409E-06-3.75143E-20 5.04239E-18
 -1      1202 1.27865E-04-3.82682E-05-3.91946E-05 7.85818E-07 1.14938E-19 6.62528E-18
 -1      1203 1.14157E-04-3.41867E-05-3.48130E-05 4.07658E-07 3.40501E-20 7.89466E-18
 -1      1204 1.06008E-04-3.17770E-05-3.21313E-05 1.99787E-07-2.36309E-20 8.14348E-18
 -1      1205 1.01372E-04-3.04133E-05-3.05953E-05 8.53866E-08-6.83317E-20 8.92050E-18
 -1      1206 9.87016E-05-2.96125E-05-2.97115E-05 4.51512E-08-3.22447E-19 1.01514E-17
 -1      1207 9.71380E-05-2.91455E-05-2.91955E-05 1.88516E-08-1.42373E-19 8.65241E-18
 -1      1208 9.62643E-05-2.88831E-05-2.89082E-05 6.80174E-09 1.85733E-19 7.13361E-18
 -1      1209 9.57814E-05-2.87374E-05-2.87499E-05 1.50353E-09 1.76876E-20 4.51928E-18
 -1      1210 9.55183E-05-2.86576E-05-2.86636E-05-5.96324E-10-3.12605E-19 6.45909E-18
 -1      1211 9.53772E-05-2.86146E-05-2.86174E-05-1.23738E-09-3.92935E-19 9.41985E-18
 -1      1212 9.53033E-05-2.85919E-05-2.85931E-05-1.26098E-09 4.54158E-20 1.17147E-17
 -1      1213 9.52655E-05-2.85803E-05-2.85806E-05-1.06250E-09 2.81307E-19 8.90221E-18
 -1      1214 9.52468E-05-2.85744E-05-2.85745E-05-8.18679E-10-4.10695E-19 6.78206E-18
 -1      1215 9.52380E-05-2.85716E-05-2.85716E-05-5.96511E-10-1.74042E-19 4.82932E-18
 -1      1216 9.52342E-05-2.85704E-05-2.85703E-05-4.41988E-10-3.91801E-19 5.91717E-18
 -1      1217 9.52327E-05-2.85699E-05-2.85698E-05-3.01364E-10-3.35042E-19 6.06271E-18
 -1      1218 9.52324E-05-2.85698E-05-2.85697E-05-2.06208E-10 5.62238E-19 3.77344E-19
 -1      1219 9.52326E-05-2.85698E-05-2.85698E-05-1.42432E-10-7.98496E-20-2.39246E-19
 -1      1220 9.52330E-05-2.85699E-05-2.85699E-05-1.00084E-10-3.70278E-19 5.81227E-18
 -1      1221 9.52335E-05-2.85701E-05-2.85701E-05-7.26638E-11-4.86841E-20 5.03113E-18
 -1      1222 9.52342E-05-2.85703E-05-2.85702E-05-5.55603E-11-7.48760E-20-1.16315E-18
 -1      1223 9.52349E-05-2.85705E-05-2.85705E-05-4.56373E-11 1.14369E-19-2.39943E-18
 -1      1224 9.52356E-05-2.85707E-05-2.85707E-05-4.05176E-11-9.54885E-19-2.15507E-18
 -1      1225 9.52362E-05-2.85709E-05-2.85709E-05-3.79045E-11 1.74139E-19 2.27393E-19
 -1      1226 9.52368E-05-2.85711E-05-2.85710E-05-3.13579E-11-1.08972E-18 5.12743E-18
 -1      1227 9.52371E-05-2.85711E-05-2.85711E-05 1.78345E-11 2.78376E-18 8.51214E-18
 -1      1228 9.52371E-05-2.85712E-05-2.85711E-05 2.29255E-11 1.05626E-17 1.06683E-18
 -1      1229 9.52372E-05-2.85715E-05-2.85710E-05-1.51552E-11-1.47428E-18-1.27119E-19
 -1      1230 9.52374E-05-2.85720E-05-2.85709E-05-3.14567E-11-4.17034E-18 5.80633E-19
 -1      1231 9.52375E-05-2.85724E-05-2.85708E-05-3.18857E-11-1.30459E-17-1.91499E-18
 -1      1232 9.52376E-05-2.85727E-05-2.85707E-05-2.38819E-11-1.59014E-17-7.23172E-19
 -1      1233 9.52376E-05-2.85727E-05-2.85707E-05-1.18285E-11-1.31714E-17 3.70815E-20
 -1      1234 9.52375E-05-2.85725E-05-2.85708E-05-4.22528E-14-1.14583E-17 5.89816E-19
 -1      1235 9.52374E-05-2.85721E-05-2.85708E-05 9.59711E-12-1.32758E-17-5.53067E-19
 -1      1236 9.52373E-05-2.85718E-05-2.85709E-05 1.48578E-11-9.83620E-18 1.44974E-18
 -1      1237 9.52373E-05-2.85715E-05-2.85710E-05 1.51370E-11-3.50009E-18-7.11560E-20
 -1      1238 9.52372E-05-2.85713E-05-2.85711E-05 1.10652E-11-1.41946E-17-8.07887E-19
 -1      1239 9.52372E-05-2.85713E-05-2.85711E-05 4.40620E-12-9.05577E-18-8.39504E-19
 -1      1240 9.52372E-05-2.85714E-05-2.85711E-05-1.51542E-12-1.36950E-17 1.14541E-19
 -1      1241 9.52373E-05-2.85715E-05-2.85710E-05-3.15061E-12-2.58822E-18 9.20265E-19
 -1      1242 9.52373E-05-2.85715E-05-2.85711E-05 3.61117E-12-4.80063E-18-8.01834E-19
 -1      1243 9.52372E-05-2.85714E-05-2.85711E-05 3.94718E-11-1.04540E-17 4.05272E-19
 -1      1244 9.52372E-05-2.85712E-05-2.85711E-05 2.26772E-11-3.71491E-18 3.26524E-19
 -1      1245 4.28314E-05-1.36511E-04 2.53441E-05-2.04669E-05 9.75316E-18 1.34022E-18
 -1      1246 2.43335E-05-1.08251E-04 2.07428E-05-4.73449E-05 1.10267E-17 4.31394E-18
 -1      1247 4.49466E-06-5.26081E-05 6.09707E-06-4.08735E-05 1.43132E-17 8.88283E-18
 -1      1248 1.51113E-05-2.72438E-06-1.60512E-05 6.75658E-06 1.25107E-17 1.11182E-17
 -1      1249 9.28592E-05 4.86293E-06-4.34315E-05 7.66286E-05 7.77576E-18 1.09657E-17
 -1      1250 2.41239E-04-4.26813E-05-7.12683E-05 1.23308E-04 2.79351E-18 4.76710E-18
 -1      1251 4.02391E-04-1.15412E-04-9.18058E-05 9.30994E-05-1.37219E-19-1.58734E-18
 -1      1252 4.68179E-04-1.46785E-04-9.88851E-05-8.76117E-06-1.04185E-19-6.88426E-18
 -1      1253 3.74585E-04-1.01116E-04-8.85564E-05-1.02086E-04 1.49925E-18-7.27940E-18
 -1      1254 2.01397E-04-2.73197E-05-6.47919E-05-1.18270E-04 2.48858E-18-5.67512E-18
 -1      1255 6.66448E-05 7.52163E-06-3.69682E-05-6.11343E-05 2.75625E-18-4.01663E-18
 -1      1256 8.16868E-06-1.24392E-05-1.05097E-05 7.06067E-06 8.55503E-19-9.50371E-19
 -1      1257 7.78445E-06-6.62049E-05 1.03123E-05 4.60764E-05-5.14827E-18 1.93759E-18
 -1      1258 3.05011E-05-1.18318E-04 2.25070E-05 4.41293E-05-1.05375E-17 2.69780E-18
 -1      1259 4.36031E-05-1.36243E-04 2.53299E-05 1.30227E-05-1.06536E-17 1.18685E-18
 -1      1260 3.41517E-05-1.09088E-04 1.95908E-05-1.67185E-05-7.78423E-18-1.11660E-18
 -1      1261 1.46192E-05-5.21514E-05 6.62090E-06-1.93317E-05-6.57975E-18-2.18153E-18
 -1      1262 9.79784E-06 7.00607E-06-1.20373E-05 1.52515E-05-4.61802E-18-2.27682E-18
 -1      1263 4.60592E-05 3.55177E-05-3.40143E-05 7.40539E-05-2.26666E-18-2.31748E-18
 -1      1264 1.30971E-04 1.56584E-05-5.61881E-05 1.22265E-04-1.70592E-18-2.41574E-18
 -1      1265 2.40858E-04-3.97234E-05-7.47219E-05 1.24791E-04 3.15520E-19 1.56701E-18
 -1      1266 3.25851E-04-9.08962E-05-8.59626E-05 6.86365E-05 1.02740E-18 7.28999E-18
 -1      1267 3.45450E-04-1.02827E-04-8.85735E-05-1.99838E-05-1.12883E-18 1.26877E-17
 -1      1268 2.97397E-04-7.27044E-05-8.24609E-05-9.84641E-05-3.11496E-18 1.33882E-17
 -1      1269 2.01323E-04-1.69937E-05-6.89938E-05-1.31490E-04-5.36849E-18 1.09013E-17
 -1      1270 1.02167E-04 2.74325E-05-5.04374E-05-1.13782E-04-7.16759E-18 9.26315E-18
 -1      1271 3.25484E-05 3.44020E-05-2.91456E-05-6.07727E-05-6.52554E-18 5.73441E-18
 -1      1272 7.68813E-06-1.73156E-06-8.16986E-06-5.92097E-06-2.56482E-18 2.15062E-18
 -1      1273 1.74184E-05-6.12945E-05 8.88638E-06 2.08948E-05 3.31359E-18-8.97008E-19
 -1      1274 3.64048E-05-1.14744E-04 2.07451E-05 1.25023E-05 7.15065E-18-3.97576E-19
 -1      1275 1.04569E-04-2.20510E-05-3.79342E-05-1.72726E-05-2.93285E-19-3.44869E-18
 -1      1276 9.03778E-05-6.69012E-06-3.60388E-05-2.04617E-05-1.61519E-19-3.97327E-18
 -1      1277 9.27366E-05-6.75072E-06-3.72519E-05-2.57556E-05-4.30504E-19-4.09969E-18
 -1      1278 8.59308E-05-4.10464E-06-3.51377E-05-1.64172E-05 1.62842E-19-3.57813E-18
 -1      1279 8.71968E-05-4.09766E-06-3.56134E-05-1.88424E-05 6.64391E-20-3.84267E-18
 -1      1280 9.21894E-05-1.04809E-05-3.51098E-05-1.90307E-05-1.65277E-19-3.41397E-18
 -1      1281 8.41050E-05-3.20368E-06-3.46845E-05-1.27877E-05 3.91647E-19-3.03143E-18
 -1      1282 8.47253E-05-3.17409E-06-3.49135E-05-1.46101E-05 3.55939E-19-3.34578E-18
 -1      1283 8.78964E-05-7.41879E-06-3.45769E-05-1.54006E-05 3.62080E-19-3.05099E-18
 -1      1284 8.31819E-05-2.74563E-06-3.44606E-05-9.63852E-06 5.43292E-19-2.46039E-18
 -1      1285 8.35016E-05-2.72700E-06-3.45732E-05-1.11960E-05 5.25266E-19-2.77967E-18
 -1      1286 8.58837E-05-6.01603E-06-3.42991E-05-1.19275E-05 6.98849E-19-2.58827E-18
 -1      1287 8.26766E-05-2.47570E-06-3.43483E-05-6.84451E-06 6.44301E-19-1.91705E-18
 -1      1288 8.28534E-05-2.46717E-06-3.44057E-05-8.22586E-06 6.28313E-19-2.18843E-18
 -1      1289 8.48270E-05-5.25545E-06-3.41599E-05-8.89355E-06 9.05611E-19-2.05760E-18
 -1      1290 8.23792E-05-2.30229E-06-3.42901E-05-4.20752E-06 6.91751E-19-1.39186E-18
 -1      1291 8.24806E-05-2.29852E-06-3.43202E-05-5.51491E-06 6.80052E-19-1.68505E-18
 -1      1292 8.42218E-05-4.79277E-06-3.40913E-05-6.14000E-06 1.04667E-18-1.56561E-18
 -1      1293 8.22187E-05-2.19693E-06-3.42636E-05-1.70183E-06 7.67672E-19-9.46268E-19
 -1      1294 8.22691E-05-2.19572E-06-3.42770E-05-2.95004E-06 7.57646E-19-1.18619E-18
 -1      1295 8.38670E-05-4.50571E-06-3.40583E-05-3.55096E-06 1.16380E-18-1.06234E-18
 -1      1296 8.21659E-05-2.14848E-06-3.42592E-05 7.35150E-07 8.08497E-19-4.93833E-19
 -1      1297 8.21734E-05-2.14892E-06-3.42597E-05-4.86006E-07 7.63049E-19-7.58968E-19
 -1      1298 8.36850E-05-4.34990E-06-3.40451E-05-1.07882E-06 1.24398E-18-6.86150E-19
 -1      1299 8.22248E-05-2.15797E-06-3.42775E-05 3.16551E-06 8.28517E-19-6.63465E-20
 -1      1300 8.21847E-05-2.15982E-06-3.42640E-05 1.93845E-06 8.29921E-19-3.26994E-19
 -1      1301 8.36520E-05-4.31285E-06-3.40465E-05 1.33775E-06 1.31499E-18-2.82777E-19
 -1      1302 8.24250E-05-2.23602E-06-3.43264E-05 5.66123E-06 8.46656E-19 4.31788E-19
 -1      1303 8.23216E-05-2.23924E-06-3.42933E-05 4.38929E-06 8.29765E-19 1.41269E-19
 -1      1304 8.37830E-05-4.40584E-06-3.40640E-05 3.76239E-06 1.36865E-18 1.48363E-19
 -1      1305 8.28164E-05-2.39621E-06-3.44218E-05 8.26604E-06 8.42308E-19 1.07212E-18
 -1      1306 8.26241E-05-2.40440E-06-3.43588E-05 6.92407E-06 8.36968E-19 7.12739E-19
 -1      1307 8.41224E-05-4.65757E-06-3.41047E-05 6.24882E-06 1.34105E-18 6.11875E-19
 -1      1308 8.35273E-05-2.67747E-06-3.46041E-05 1.11902E-05 8.80425E-19 1.81340E-18
 -1      1309 8.31785E-05-2.69357E-06-3.44838E-05 9.66147E-06 8.44121E-19 1.39223E-18
 -1      1310 8.47621E-05-5.12714E-06-3.41847E-05 8.91282E-06 1.36693E-18 1.24493E-18
 -1      1311 8.48103E-05-3.15553E-06-3.49557E-05 1.45754E-05 8.22045E-19 2.77017E-18
 -1      1312 8.41693E-05-3.18614E-06-3.47211E-05 1.27623E-05 8.09856E-19 2.22414E-18
 -1      1313 8.59033E-05-5.94239E-06-3.43364E-05 1.19037E-05 1.32052E-18 2.00620E-18
 -1      1314 8.73329E-05-4.11401E-06-3.56603E-05 1.88147E-05 6.26328E-19 4.03675E-18
 -1      1315 8.60490E-05-4.12286E-06-3.51819E-05 1.63785E-05 6.62830E-19 3.29197E-18
 -1      1316 8.80039E-05-7.41140E-06-3.46217E-05 1.53563E-05 1.15404E-18 2.94781E-18
 -1      1317 9.28462E-05-6.69814E-06-3.72677E-05 2.58128E-05 1.82112E-19 5.60238E-18
 -1      1318 9.05366E-05-6.74810E-06-3.60798E-05 2.04687E-05 3.42413E-19 4.74656E-18
 -1      1319 9.23784E-05-1.05710E-05-3.51477E-05 1.90022E-05 6.97214E-19 4.19620E-18
 -1      1320 1.04931E-04-2.20246E-05-3.80669E-05 1.75890E-05-1.45266E-19 7.37893E-18
 -1      1321 1.05286E-04-3.02730E-05-3.35671E-05-7.95692E-06-4.98902E-19-2.97076E-18
 -1      1322 9.84018E-05-2.78868E-05-3.08043E-05-4.98619E-06-3.75077E-19-3.64071E-18
 -1      1323 9.56365E-05-2.78917E-05-2.92943E-05-2.49455E-06-3.04455E-19-3.71312E-18
 -1      1324 9.33995E-05-2.76007E-05-2.82531E-05-2.05020E-06-2.79547E-19-4.21042E-18
 -1      1325 9.95913E-05-2.80882E-05-3.10128E-05-7.89281E-06-6.68256E-19-3.07542E-18
 -1      1326 9.16910E-05-2.72385E-05-2.76125E-05-8.61398E-07-2.92663E-19-4.26140E-18
 -1      1327 9.09515E-05-2.71384E-05-2.73029E-05-7.55635E-07-1.52148E-19-4.63499E-18
 -1      1328 9.48010E-05-2.78029E-05-2.88368E-05-3.15392E-06-5.53960E-19-3.06274E-18
 -1      1329 9.01603E-05-2.69457E-05-2.70460E-05-2.30794E-07-2.86105E-20-4.82338E-18
 -1      1330 9.00313E-05-2.69583E-05-2.69936E-05-1.80752E-07-5.54939E-20-4.98299E-18
 -1      1331 9.25454E-05-2.75227E-05-2.78950E-05-1.14038E-06-3.05038E-19-3.13167E-18
 -1      1332 8.96939E-05-2.68712E-05-2.68938E-05 4.08018E-08 2.01236E-20-4.95940E-18
 -1      1333 8.97956E-05-2.69311E-05-2.69209E-05 5.62776E-08 2.82565E-21-4.92433E-18
 -1      1334 9.14742E-05-2.73561E-05-2.74883E-05-2.50254E-07-1.18843E-19-3.37805E-18
 -1      1335 8.96644E-05-2.68994E-05-2.68834E-05 1.11991E-07-1.70652E-19-4.97187E-18
 -1      1336 8.98059E-05-2.69631E-05-2.69218E-05 1.03245E-07-1.53072E-19-5.20479E-18
 -1      1337 9.10184E-05-2.72983E-05-2.73113E-05 8.89347E-08-2.58530E-19-3.38399E-18
 -1      1338 8.97293E-05-2.69471E-05-2.68982E-05 4.75783E-08-4.45983E-20-5.31206E-18
 -1      1339 8.97871E-05-2.69808E-05-2.69111E-05 1.93988E-08-8.57637E-20-5.47929E-18
 -1      1340 9.08133E-05-2.72904E-05-2.72211E-05 9.53576E-08-2.26666E-19-3.35586E-18
 -1      1341 8.96603E-05-2.69508E-05-2.68700E-05-1.21773E-07-4.52468E-21-5.45129E-18
 -1      1342 8.95394E-05-2.69263E-05-2.68307E-05-1.66809E-07-1.67727E-19-5.82804E-18
 -1      1343 9.06150E-05-2.72738E-05-2.71374E-05-1.35733E-07-1.43220E-19-3.37408E-18
 -1      1344 8.92842E-05-2.68591E-05-2.67489E-05-3.76621E-07-2.49074E-19-5.69434E-18
 -1      1345 8.89077E-05-2.67523E-05-2.66354E-05-4.35921E-07-2.19259E-19-5.97320E-18
 -1      1346 9.02456E-05-2.71989E-05-2.70059E-05-5.53490E-07-2.33679E-19-3.37477E-18
 -1      1347 8.84657E-05-2.66293E-05-2.64960E-05-6.95542E-07-1.48722E-19-5.84959E-18
 -1      1348 8.77775E-05-2.64215E-05-2.62929E-05-7.64629E-07 1.73369E-19-5.80097E-18
 -1      1349 8.95698E-05-2.70229E-05-2.67875E-05-1.11554E-06-2.18376E-19-2.87122E-18
 -1      1350 8.71136E-05-2.62301E-05-2.60866E-05-1.04551E-06 2.10388E-19-6.00756E-18
 -1      1351 8.60908E-05-2.59117E-05-2.57881E-05-1.11642E-06-5.62334E-20-5.89255E-18
 -1      1352 8.84930E-05-2.67113E-05-2.64572E-05-1.76558E-06 6.93227E-20-3.36970E-18
 -1      1353 8.52021E-05-2.56480E-05-2.55160E-05-1.37570E-06-1.71762E-19-6.17360E-18
 -1      1354 8.38717E-05-2.52254E-05-2.51311E-05-1.43619E-06-1.22962E-19-6.32300E-18
 -1      1355 8.69735E-05-2.62429E-05-2.60076E-05-2.41821E-06-3.30773E-19-4.08361E-18
 -1      1356 8.27984E-05-2.48988E-05-2.48072E-05-1.61764E-06 1.32838E-19-6.45317E-18
 -1      1357 8.12537E-05-2.43998E-05-2.43635E-05-1.65216E-06 2.64508E-20-6.38789E-18
 -1      1358 8.50434E-05-2.56193E-05-2.54528E-05-2.95403E-06-4.30911E-20-4.36736E-18
 -1      1359 8.00869E-05-2.40365E-05-2.40164E-05-1.69531E-06-2.06014E-19-6.46049E-18
 -1      1360 7.84914E-05-2.35139E-05-2.35611E-05-1.68846E-06-4.84595E-19-6.80250E-18
 -1      1361 8.28289E-05-2.48757E-05-2.48326E-05-3.23114E-06-2.37515E-19-4.30367E-18
 -1      1362 7.73696E-05-2.31574E-05-2.32318E-05-1.54612E-06-4.58390E-19-6.53499E-18
 -1      1363 7.59415E-05-2.26842E-05-2.28265E-05-1.48820E-06-4.36106E-19-7.14115E-18
 -1      1364 8.05561E-05-2.40876E-05-2.42105E-05-3.11722E-06-4.59105E-19-4.03493E-18
 -1      1365 7.50309E-05-2.23898E-05-2.25624E-05-1.14748E-06-2.64810E-19-7.26392E-18
 -1      1366 7.40027E-05-2.20457E-05-2.22720E-05-1.04025E-06-1.48803E-19-7.58526E-18
 -1      1367 7.85297E-05-2.33661E-05-2.36670E-05-2.53685E-06-5.73716E-19-4.48660E-18
 -1      1368 7.34609E-05-2.18678E-05-2.21165E-05-5.37021E-07-1.17655E-19-7.54870E-18
 -1      1369 7.30225E-05-2.17192E-05-2.19934E-05-3.96111E-07-1.88597E-20-7.76048E-18
 -1      1370 7.70768E-05-2.28373E-05-2.32841E-05-1.51596E-06-2.54891E-19-4.66234E-18
 -1      1371 7.29562E-05-2.16955E-05-2.19754E-05 1.87337E-07-7.93002E-20-7.95407E-18
 -1      1372 7.32011E-05-2.17752E-05-2.20455E-05 3.35665E-07-1.08778E-19-8.12615E-18
 -1      1373 7.64659E-05-2.26082E-05-2.31271E-05-1.97975E-07-3.27749E-19-4.88794E-18
 -1      1374 7.36340E-05-2.19140E-05-2.21716E-05 8.92860E-07-1.52893E-19-8.46097E-18
 -1      1375 7.45318E-05-2.22111E-05-2.24264E-05 1.02011E-06-4.44342E-19-8.46406E-18
 -1      1376 7.68301E-05-2.27325E-05-2.32277E-05 1.18598E-06-3.20622E-19-5.22059E-18
 -1      1377 7.53979E-05-2.24885E-05-2.26790E-05 1.45409E-06 1.79581E-20-8.55601E-18
 -1      1378 7.68049E-05-2.29523E-05-2.30792E-05 1.53908E-06 3.08075E-20-8.37557E-18
 -1      1379 7.81258E-05-2.31917E-05-2.35761E-05 2.38650E-06-1.83032E-19-5.49759E-18
 -1      1380 7.79701E-05-2.33213E-05-2.34218E-05 1.79143E-06 2.16494E-19-8.13088E-18
 -1      1381 7.96740E-05-2.38779E-05-2.39086E-05 1.82616E-06 4.29566E-19-7.54664E-18
 -1      1382 8.01488E-05-2.39024E-05-2.41238E-05 3.21399E-06 2.38883E-19-5.55960E-18
 -1      1383 8.09765E-05-2.42831E-05-2.42959E-05 1.88838E-06 1.45936E-19-7.52262E-18
 -1      1384 8.27543E-05-2.48569E-05-2.48068E-05 1.87787E-06-1.53426E-19-7.41471E-18
 -1      1385 8.25986E-05-2.47461E-05-2.47972E-05 3.58843E-06 2.94494E-19-5.29857E-18
 -1      1386 8.40438E-05-2.52499E-05-2.51954E-05 1.78313E-06 9.35607E-20-6.89375E-18
 -1      1387 8.57109E-05-2.57803E-05-2.56775E-05 1.74068E-06 2.65486E-19-6.94485E-18
 -1      1388 8.51609E-05-2.56044E-05-2.55157E-05 3.54221E-06 1.40863E-19-4.85616E-18
 -1      1389 8.68762E-05-2.61274E-05-2.60335E-05 1.54408E-06 5.87920E-19-6.81202E-18
 -1      1390 8.83121E-05-2.65771E-05-2.64516E-05 1.48528E-06 4.66833E-19-6.01418E-18
 -1      1391 8.75763E-05-2.63867E-05-2.62083E-05 3.18459E-06 4.59486E-19-3.76156E-18
 -1      1392 8.92901E-05-2.68617E-05-2.67543E-05 1.24367E-06 7.94424E-20-5.78174E-18
 -1      1393 9.04414E-05-2.72162E-05-2.70919E-05 1.18177E-06-1.07014E-19-5.66574E-18
 -1      1394 8.96748E-05-2.70412E-05-2.68244E-05 2.65227E-06 3.53764E-19-4.37553E-18
 -1      1395 9.12122E-05-2.74355E-05-2.73333E-05 9.40246E-07-9.54831E-20-5.68958E-18
 -1      1396 9.20788E-05-2.76975E-05-2.75891E-05 8.84107E-07 2.12255E-20-6.04333E-18
 -1      1397 9.13784E-05-2.75513E-05-2.73365E-05 2.06850E-06-1.65097E-19-3.64106E-18
 -1      1398 9.26534E-05-2.78574E-05-2.77710E-05 6.70984E-07-7.40260E-20-6.16158E-18
 -1      1399 9.32690E-05-2.80400E-05-2.79540E-05 6.24992E-07-2.38028E-19-6.44002E-18
 -1      1400 9.26830E-05-2.79255E-05-2.77376E-05 1.52117E-06-3.28930E-19-3.80211E-18
 -1      1401 9.36760E-05-2.81510E-05-2.80840E-05 4.53072E-07-2.98108E-19-6.36132E-18
 -1      1402 9.40893E-05-2.82710E-05-2.82077E-05 4.18235E-07-1.50347E-19-6.71167E-18
 -1      1403 9.36306E-05-2.81857E-05-2.80355E-05 1.05893E-06-3.29268E-19-4.38988E-18
 -1      1404 9.43637E-05-2.83444E-05-2.82960E-05 2.89111E-07-1.80921E-19-6.56405E-18
 -1      1405 9.46256E-05-2.84186E-05-2.83749E-05 2.64406E-07 9.81442E-20-6.61782E-18
 -1      1406 9.42857E-05-2.83575E-05-2.82459E-05 6.98299E-07-3.40385E-19-4.06871E-18
 -1      1407 9.48014E-05-2.84647E-05-2.84319E-05 1.73191E-07 2.18274E-19-6.34103E-18
 -1      1408 9.49567E-05-2.85074E-05-2.84791E-05 1.56690E-07 3.44429E-19-5.75475E-18
 -1      1409 9.47169E-05-2.84652E-05-2.83873E-05 4.34774E-07 4.37303E-19-3.77195E-18
 -1      1410 9.50631E-05-2.85347E-05-2.85138E-05 9.58035E-08 3.73898E-19-5.46288E-18
 -1      1411 9.51477E-05-2.85570E-05-2.85397E-05 8.54176E-08 2.92756E-19-5.00983E-18
 -1      1412 9.49863E-05-2.85288E-05-2.84776E-05 2.53074E-07 2.63170E-19-3.27983E-18
 -1      1413 9.52077E-05-2.85720E-05-2.85594E-05 4.70217E-08-4.60246E-19-5.63465E-18
 -1      1414 9.52481E-05-2.85817E-05-2.85721E-05 4.09003E-08-5.85210E-21-5.90254E-18
 -1      1415 9.51445E-05-2.85637E-05-2.85320E-05 1.34564E-07-3.92075E-19-3.14897E-18
 -1      1416 9.52786E-05-2.85891E-05-2.85822E-05 1.81718E-08 2.28611E-19-5.97990E-18
 -1      1417 9.52931E-05-2.85918E-05-2.85869E-05 1.48529E-08 3.70605E-19-6.41276E-18
 -1      1418 9.52302E-05-2.85808E-05-2.85625E-05 6.16351E-08 6.67971E-20-3.70482E-18
 -1      1419 9.53059E-05-2.85946E-05-2.85912E-05 2.43799E-09-1.00491E-19-5.76636E-18
 -1      1420 9.53065E-05-2.85937E-05-2.85917E-05 8.55672E-10-2.59422E-19-5.96694E-18
 -1      1421 9.52709E-05-2.85874E-05-2.85778E-05 1.97087E-08 1.70644E-19-4.14819E-18
 -1      1422 9.53095E-05-2.85941E-05-2.85928E-05-5.14238E-09-4.50614E-19-6.18570E-18
 -1      1423 9.53036E-05-2.85916E-05-2.85912E-05-5.71659E-09-2.88549E-19-7.01656E-18
 -1      1424 9.52854E-05-2.85884E-05-2.85840E-05-2.26501E-09-7.41988E-19-3.99761E-18
 -1      1425 9.53016E-05-2.85908E-05-2.85906E-05-7.96575E-09 4.53092E-19-6.59249E-18
 -1      1426 9.52935E-05-2.85880E-05-2.85883E-05-8.00202E-09 2.94609E-19-6.25445E-18
 -1      1427 9.52859E-05-2.85866E-05-2.85852E-05-1.21176E-08 7.93113E-20-4.09383E-18
 -1      1428 9.52894E-05-2.85867E-05-2.85870E-05-8.23103E-09 2.31004E-19-6.45564E-18
 -1      1429 9.52814E-05-2.85841E-05-2.85847E-05-8.01594E-09-1.55301E-19-5.84811E-18
 -1      1430 9.52798E-05-2.85838E-05-2.85840E-05-1.50901E-08 5.01020E-19-4.06243E-18
 -1      1431 9.52769E-05-2.85827E-05-2.85833E-05-7.28484E-09-4.63127E-19-4.89099E-18
 -1      1432 9.52699E-05-2.85805E-05-2.85812E-05-6.98215E-09 3.11725E-20-6.04942E-18
 -1      1433 9.52714E-05-2.85808E-05-2.85817E-05-1.45060E-08-4.50223E-19-2.77369E-18
 -1      1434 9.52657E-05-2.85794E-05-2.85799E-05-5.90174E-09-7.31747E-19-6.41014E-18
 -1      1435 9.52602E-05-2.85776E-05-2.85783E-05-5.59737E-09-1.30061E-18-7.57600E-18
 -1      1436 9.52630E-05-2.85782E-05-2.85793E-05-1.23564E-08-6.87596E-19-3.73541E-18
 -1      1437 9.52567E-05-2.85767E-05-2.85772E-05-4.49220E-09-1.81929E-19-7.41204E-18
 -1      1438 9.52525E-05-2.85754E-05-2.85759E-05-4.22545E-09-2.01607E-19-7.34647E-18
 -1      1439 9.52557E-05-2.85760E-05-2.85771E-05-9.75660E-09-8.07610E-19-4.52359E-18
 -1      1440 9.52499E-05-2.85747E-05-2.85751E-05-3.24711E-09-1.67683E-19-6.17057E-18
 -1      1441 9.52469E-05-2.85738E-05-2.85742E-05-3.03106E-09 6.95684E-19-5.48636E-18
 -1      1442 9.52498E-05-2.85744E-05-2.85752E-05-7.27508E-09 3.53202E-19-3.83486E-18
 -1      1443 9.52449E-05-2.85732E-05-2.85736E-05-2.23299E-09 7.04290E-19-4.97556E-18
 -1      1444 9.52429E-05-2.85727E-05-2.85730E-05-2.06722E-09 7.28975E-19-4.36110E-18
 -1      1445 9.52453E-05-2.85731E-05-2.85738E-05-5.15723E-09 1.40741E-18-2.64177E-18
 -1      1446 9.52415E-05-2.85723E-05-2.85725E-05-1.45153E-09-2.70957E-19-3.85970E-18
 -1      1447 9.52402E-05-2.85719E-05-2.85721E-05-1.32958E-09-9.40241E-19-4.88806E-18
 -1      1448 9.52421E-05-2.85723E-05-2.85728E-05-3.47023E-09 3.18430E-20-2.56929E-18
 -1      1449 9.52393E-05-2.85717E-05-2.85718E-05-8.74889E-10 3.27634E-19-4.22560E-18
 -1      1450 9.52385E-05-2.85715E-05-2.85716E-05-7.88388E-10 9.93997E-19-3.03145E-18
 -1      1451 9.52399E-05-2.85717E-05-2.85721E-05-2.19191E-09 2.13449E-19-1.38874E-18
 -1      1452 9.52380E-05-2.85713E-05-2.85714E-05-4.65540E-10 6.56756E-19-2.57763E-18
 -1      1453 9.52376E-05-2.85712E-05-2.85713E-05-4.06347E-10 6.91224E-19-1.63176E-18
 -1      1454 9.52386E-05-2.85714E-05-2.85717E-05-1.26262E-09 1.24024E-18-2.83455E-19
 -1      1455 9.52373E-05-2.85711E-05-2.85712E-05-1.87175E-10 3.63748E-19-2.35733E-18
 -1      1456 9.52371E-05-2.85711E-05-2.85712E-05-1.48578E-10 1.33263E-19-2.31951E-18
 -1      1457 9.52377E-05-2.85712E-05-2.85714E-05-6.14313E-10 4.88508E-19 2.21219E-19
 -1      1458 9.52370E-05-2.85711E-05-2.85711E-05-1.07345E-11 1.02866E-18-2.26171E-18
 -1      1459 9.52370E-05-2.85711E-05-2.85711E-05 1.24623E-11 1.86930E-18-2.06697E-19
 -1      1460 9.52373E-05-2.85711E-05-2.85712E-05-1.87046E-10 1.18011E-18-9.78495E-19
 -1      1461 9.52370E-05-2.85711E-05-2.85711E-05 7.79237E-11 1.00580E-18 7.45899E-19
 -1      1462 9.52371E-05-2.85711E-05-2.85711E-05 8.95965E-11 5.91941E-19 2.25384E-18
 -1      1463 9.52371E-05-2.85711E-05-2.85712E-05 5.92395E-11 2.07988E-18-1.28918E-19
 -1      1464 9.52371E-05-2.85712E-05-2.85711E-05 4.92792E-11-2.34783E-18 1.98070E-18
 -1      1465 9.52371E-05-2.85712E-05-2.85711E-05 1.09517E-10-1.67316E-18 1.85548E-18
 -1      1466 9.87221E-05-2.78719E-05-3.09856E-05 5.20845E-06 9.94205E-20 7.04086E-18
 -1      1467 1.05797E-04-3.01838E-05-3.38222E-05 8.37687E-06-1.77877E-20 6.91984E-18
 -1      1468 9.36931E-05-2.76610E-05-2.83624E-05 2.08162E-06 1.32746E-19 6.75582E-18
 -1      1469 9.59745E-05-2.79450E-05-2.94382E-05 2.53804E-06 8.54974E-20 6.83474E-18
 -1      1470 9.98898E-05-2.79792E-05-3.11824E-05 8.15866E-06 1.91165E-19 5.12730E-18
 -1      1471 9.13276E-05-2.72219E-05-2.74264E-05 6.73525E-07 1.62273E-19 6.46347E-18
 -1      1472 9.20001E-05-2.73006E-05-2.77227E-05 7.97373E-07 1.10630E-19 6.54150E-18
 -1      1473 9.51641E-05-2.78572E-05-2.89787E-05 3.12992E-06 2.11679E-19 4.74668E-18
 -1      1474 9.07178E-05-2.71241E-05-2.72106E-05-3.50873E-08 9.87521E-20 6.31511E-18
 -1      1475 9.06555E-05-2.70606E-05-2.72067E-05 4.08341E-08 1.08950E-19 6.36225E-18
 -1      1476 9.30423E-05-2.76127E-05-2.80767E-05 8.66410E-07 1.95995E-19 4.30618E-18
 -1      1477 9.11084E-05-2.72604E-05-2.73339E-05-4.74789E-07 2.41176E-19 5.93678E-18
 -1      1478 9.06266E-05-2.70990E-05-2.71916E-05-4.17543E-07 1.49713E-19 6.18693E-18
 -1      1479 9.23176E-05-2.75224E-05-2.77878E-05-3.43550E-07 2.32841E-19 4.05813E-18
 -1      1480 9.22420E-05-2.75880E-05-2.76871E-05-8.49882E-07 1.25152E-19 5.74209E-18
 -1      1481 9.14129E-05-2.73373E-05-2.74406E-05-7.89368E-07 2.07861E-19 5.93930E-18
 -1      1482 9.25021E-05-2.76012E-05-2.78321E-05-1.17997E-06 3.25228E-19 4.00429E-18
 -1      1483 9.41417E-05-2.81146E-05-2.82792E-05-1.29805E-06 5.22315E-20 5.61006E-18
 -1      1484 9.28928E-05-2.77525E-05-2.79055E-05-1.21221E-06 7.39830E-20 5.65938E-18
 -1      1485 9.33860E-05-2.78269E-05-2.81170E-05-1.98579E-06 1.48376E-19 3.88671E-18
 -1      1486 9.70777E-05-2.89089E-05-2.92023E-05-1.96703E-06-5.62748E-20 5.54696E-18
 -1      1487 9.51887E-05-2.83732E-05-2.86320E-05-1.82601E-06-1.38877E-19 5.49624E-18
 -1      1488 9.49614E-05-2.81914E-05-2.86435E-05-3.03521E-06 2.00112E-20 3.51065E-18
 -1      1489 1.01612E-04-3.01182E-05-3.06425E-05-3.05417E-06-1.19835E-19 5.84409E-18
 -1      1490 9.86649E-05-2.92886E-05-2.97461E-05-2.81315E-06-5.11528E-20 5.85489E-18
 -1      1491 9.73943E-05-2.87160E-05-2.94770E-05-4.64342E-06-2.64393E-19 3.47510E-18
 -1      1492 1.08654E-04-3.19864E-05-3.28981E-05-4.83619E-06 9.33986E-20 5.92489E-18
 -1      1493 1.03984E-04-3.06755E-05-3.14708E-05-4.42226E-06 2.85609E-20 5.92894E-18
 -1      1494 1.01023E-04-2.94570E-05-3.07424E-05-7.22734E-06-7.89858E-20 3.55953E-18
 -1      1495 1.18925E-04-3.47875E-05-3.61527E-05-7.45824E-06 4.08693E-20 5.85639E-18
 -1      1496 1.11941E-04-3.27522E-05-3.40618E-05-6.86366E-06 8.81973E-20 5.99149E-18
 -1      1497 1.06201E-04-3.05077E-05-3.25485E-05-1.11654E-05 6.92582E-20 3.83525E-18
 -1      1498 1.34818E-04-3.93821E-05-4.09962E-05-1.13183E-05 1.28431E-19 5.83574E-18
 -1      1499 1.23793E-04-3.59456E-05-3.78519E-05-1.03781E-05 8.82238E-20 5.92669E-18
 -1      1500 1.13604E-04-3.21285E-05-3.50650E-05-1.68977E-05 2.36282E-19 3.74993E-18
 -1      1501 1.56261E-04-4.63726E-05-4.68957E-05-1.54348E-05 7.44032E-20 5.50571E-18
 -1      1502 1.41346E-04-4.11669E-05-4.30885E-05-1.44880E-05 1.94065E-19 5.54023E-18
 -1      1503 1.24169E-04-3.51201E-05-3.82605E-05-2.41443E-05 1.89262E-19 3.34763E-18
 -1      1504 1.79534E-04-5.58384E-05-5.20008E-05-1.57595E-05-6.21563E-19 6.06116E-18
 -1      1505 1.64438E-04-4.95070E-05-4.89011E-05-1.62616E-05-3.81694E-19 5.29692E-18
 -1      1506 1.38334E-04-4.11376E-05-4.14562E-05-2.94364E-05-4.54221E-20 3.46331E-18
 -1      1507 1.93207E-04-6.41816E-05-5.38842E-05-4.49536E-06-1.15387E-18 8.00192E-18
 -1      1508 1.88600E-04-6.07988E-05-5.33311E-05-9.21717E-06-9.81394E-19 6.50315E-18
 -1      1509 1.56342E-04-5.24310E-05-4.38077E-05-2.43396E-05-1.47955E-18 3.82136E-18
 -1      1510 1.86598E-04-6.27939E-05-5.33680E-05 1.53346E-05-1.14402E-18 1.01381E-17
 -1      1511 2.00883E-04-6.80489E-05-5.52982E-05 9.33171E-06-1.29623E-18 8.74032E-18
 -1      1512 1.75375E-04-6.58245E-05-4.63822E-05-8.52620E-07-2.43607E-18 4.48986E-18
 -1      1513 1.41072E-04-2.86957E-05-5.59219E-05 7.76601E-06 6.09017E-19 1.27015E-17
 -1      1514 1.57210E-04-3.81884E-05-5.70657E-05 1.78762E-05-2.80368E-19 1.26318E-17
 -1      1515 1.57268E-04-3.78087E-05-5.68580E-05-1.84199E-05 1.85627E-18 1.01275E-17
 -1      1516 1.42063E-04-3.03524E-05-5.58396E-05-1.20260E-05 1.82281E-18 1.23580E-17
 -1      1517 2.05124E-04-4.36194E-05-6.87443E-05-1.29995E-06 1.59581E-18 5.85850E-18
 -1      1518 1.85654E-04-5.69762E-05-5.67508E-05-2.76947E-05 1.74828E-18 6.99649E-18
 -1      1519 1.57039E-04-4.31500E-05-5.44680E-05-2.91695E-05 2.01763E-18 9.51684E-18
 -1      1520 2.01968E-04-5.14961E-05-6.43594E-05-3.62607E-05 3.21195E-18 5.38925E-18
 -1      1521 2.03922E-04-6.76282E-05-5.68529E-05-1.50247E-05 7.31161E-19 4.23262E-18
 -1      1522 1.84307E-04-5.90860E-05-5.46162E-05-2.03057E-05 1.32847E-18 5.61159E-18
 -1      1523 1.97549E-04-6.59517E-05-5.61140E-05-3.96768E-05 3.16684E-18 3.44107E-18
 -1      1524 2.00898E-04-6.46147E-05-5.62992E-05 2.76933E-06 1.40290E-19 3.39448E-18
 -1      1525 1.99726E-04-6.52055E-05-5.58573E-05-1.00119E-06 2.68298E-19 3.63250E-18
 -1      1526 1.88292E-04-6.72096E-05-5.12524E-05-1.19771E-05 1.26303E-18 1.33842E-18
 -1      1527 1.80898E-04-5.51122E-05-5.29609E-05 1.25763E-05-3.55119E-19 2.79479E-18
 -1      1528 1.93001E-04-6.06628E-05-5.51339E-05 1.12870E-05 4.30504E-19 2.97019E-18
 -1      1529 1.73776E-04-5.81284E-05-4.85649E-05 1.43732E-05 6.38451E-19 7.57618E-19
 -1      1530 1.54665E-04-4.54779E-05-4.68685E-05 1.30356E-05-1.38563E-19 3.09040E-18
 -1      1531 1.70919E-04-5.16346E-05-5.07059E-05 1.34360E-05-6.16653E-19 2.55635E-18
 -1      1532 1.54873E-04-4.74408E-05-4.56419E-05 2.46862E-05-6.12775E-19 8.45233E-19
 -1      1533 1.33477E-04-3.90300E-05-4.08043E-05 9.64411E-06-1.17870E-19 3.62234E-18
 -1      1534 1.46247E-04-4.32751E-05-4.43268E-05 1.04019E-05 1.98828E-19 3.80974E-18
 -1      1535 1.36614E-04-3.97054E-05-4.15801E-05 2.21340E-05-3.42313E-19 1.40703E-18
 -1      1536 1.18759E-04-3.49157E-05-3.61878E-05 6.26691E-06-1.49488E-19 4.61363E-18
 -1      1537 1.27220E-04-3.74854E-05-3.87114E-05 6.87939E-06-5.39851E-19 3.66638E-18
 -1      1538 1.22445E-04-3.52936E-05-3.75190E-05 1.57551E-05-3.36643E-19 2.56317E-18
 -1      1539 1.09314E-04-3.23634E-05-3.31227E-05 3.83271E-06-3.45934E-19 5.32585E-18
 -1      1540 1.14504E-04-3.38528E-05-3.47249E-05 4.23999E-06-1.18624E-19 4.95048E-18
 -1      1541 1.12448E-04-3.26839E-05-3.43188E-05 1.01184E-05-5.89072E-19 2.60399E-18
 -1      1542 1.03521E-04-3.08095E-05-3.12300E-05 2.27308E-06 3.63099E-20 5.74205E-18
 -1      1543 1.06574E-04-3.16577E-05-3.21846E-05 2.52407E-06 3.49533E-20 5.53414E-18
 -1      1544 1.05837E-04-3.10894E-05-3.21146E-05 6.17402E-06-5.17061E-19 3.32050E-18
 -1      1545 1.00177E-04-2.99099E-05-3.01478E-05 1.36149E-06 1.31634E-19 5.89278E-18
 -1      1546 1.01891E-04-3.03746E-05-3.06811E-05 1.50310E-06 4.48961E-20 5.65522E-18
 -1      1547 1.01719E-04-3.01253E-05-3.07304E-05 3.70150E-06-4.65206E-21 3.01614E-18
 -1      1548 9.80685E-05-2.93429E-05-2.94690E-05 7.83418E-07-7.15015E-19 6.22971E-18
 -1      1549 9.91073E-05-2.96196E-05-2.97928E-05 8.74303E-07-6.11114E-19 5.31877E-18
 -1      1550 9.91549E-05-2.95125E-05-2.98697E-05 2.19880E-06-2.33212E-19 2.81374E-18
 -1      1551 9.68442E-05-2.90108E-05-2.90780E-05 4.46622E-07-2.84749E-19 4.95447E-18
 -1      1552 9.74309E-05-2.91636E-05-2.92605E-05 4.99023E-07 1.28072E-19 5.69446E-18
 -1      1553 9.75463E-05-2.91314E-05-2.93332E-05 1.27019E-06-1.48545E-19 2.21664E-18
 -1      1554 9.61388E-05-2.88185E-05-2.88542E-05 2.52035E-07 2.50316E-19 4.42356E-18
 -1      1555 9.64666E-05-2.89022E-05-2.89561E-05 2.82234E-07 2.73373E-19 5.13676E-18
 -1      1556 9.65842E-05-2.89005E-05-2.90142E-05 7.26054E-07 4.29239E-19 2.19878E-18
 -1      1557 9.57365E-05-2.87085E-05-2.87272E-05 1.40604E-07-4.27128E-19 4.92445E-18
 -1      1558 9.59176E-05-2.87536E-05-2.87836E-05 1.57880E-07 2.31104E-19 5.20570E-18
 -1      1559 9.60155E-05-2.87628E-05-2.88264E-05 4.10737E-07 2.52252E-19 4.07416E-18
 -1      1560 9.55096E-05-2.86463E-05-2.86559E-05 7.74069E-08-8.90692E-19 6.47988E-18
 -1      1561 9.56082E-05-2.86702E-05-2.86867E-05 8.71978E-08-6.07598E-19 4.56689E-18
 -1      1562 9.56826E-05-2.86816E-05-2.87169E-05 2.29714E-07-5.34288E-19 5.01257E-18
 -1      1563 9.53832E-05-2.86115E-05-2.86163E-05 4.19679E-08-5.48456E-19 7.28009E-18
 -1      1564 9.54359E-05-2.86239E-05-2.86328E-05 4.74549E-08-5.83710E-19 6.30877E-18
 -1      1565 9.54898E-05-2.86342E-05-2.86536E-05 1.26826E-07-1.24313E-18 4.76822E-18
 -1      1566 9.53136E-05-2.85924E-05-2.85946E-05 2.23583E-08 1.10560E-19 7.67544E-18
 -1      1567 9.53412E-05-2.85985E-05-2.86033E-05 2.53932E-08-2.08201E-19 7.77945E-18
 -1      1568 9.53790E-05-2.86068E-05-2.86173E-05 6.90137E-08-3.36625E-19 3.99927E-18
 -1      1569 9.52758E-05-2.85819E-05-2.85829E-05 1.16744E-08 1.45338E-18 5.76367E-18
 -1      1570 9.52899E-05-2.85849E-05-2.85874E-05 1.33285E-08 6.08984E-19 7.56557E-18
 -1      1571 9.53159E-05-2.85912E-05-2.85967E-05 3.69540E-08 8.10199E-19 5.06115E-18
 -1      1572 9.52556E-05-2.85763E-05-2.85767E-05 5.95413E-09 3.10364E-19 4.67742E-18
 -1      1573 9.52626E-05-2.85776E-05-2.85789E-05 6.84140E-09 6.72939E-19 6.09841E-18
 -1      1574 9.52802E-05-2.85822E-05-2.85850E-05 1.94364E-08 1.05841E-18 4.20787E-18
 -1      1575 9.52449E-05-2.85733E-05-2.85734E-05 2.95425E-09-9.92394E-20 3.37675E-18
 -1      1576 9.52482E-05-2.85739E-05-2.85745E-05 3.41468E-09 1.07968E-19 3.09829E-18
 -1      1577 9.52601E-05-2.85771E-05-2.85785E-05 1.00177E-08 1.39492E-18 2.84813E-18
 -1      1578 9.52396E-05-2.85718E-05-2.85718E-05 1.45890E-09-5.04547E-19 4.22960E-18
 -1      1579 9.52410E-05-2.85720E-05-2.85723E-05 1.68241E-09-4.79141E-19 2.97746E-18
 -1      1580 9.52491E-05-2.85743E-05-2.85750E-05 5.08932E-09-2.05763E-19 1.69915E-18
 -1      1581 9.52367E-05-2.85710E-05-2.85710E-05 6.33547E-10 7.29275E-19 1.79486E-18
 -1      1582 9.52373E-05-2.85710E-05-2.85711E-05 7.66947E-10 6.10104E-19 2.96452E-18
 -1      1583 9.52428E-05-2.85726E-05-2.85730E-05 2.52574E-09 5.38497E-19 5.32621E-19
 -1      1584 9.52353E-05-2.85706E-05-2.85705E-05 2.18803E-10 1.43127E-18-1.67550E-18
 -1      1585 9.52354E-05-2.85705E-05-2.85706E-05 2.90185E-10 1.38024E-18 1.14806E-18
 -1      1586 9.52392E-05-2.85717E-05-2.85718E-05 1.13009E-09 1.71040E-18-1.53532E-18
 -1      1587 9.52347E-05-2.85704E-05-2.85704E-05 4.11428E-12-2.00508E-18-7.07374E-21
 -1      1588 9.52346E-05-2.85703E-05-2.85704E-05 4.45411E-11-1.07401E-18-1.57418E-18
 -1      1589 9.52373E-05-2.85711E-05-2.85712E-05 4.02328E-10-1.77431E-19-1.37655E-18
 -1      1590 9.52346E-05-2.85704E-05-2.85704E-05-1.13056E-10-1.62881E-19 1.81950E-18
 -1      1591 9.52344E-05-2.85703E-05-2.85703E-05-8.81602E-11-6.24452E-19 1.28067E-18
 -1      1592 9.52363E-05-2.85709E-05-2.85709E-05 1.09158E-11-2.28898E-18-1.78557E-18
 -1      1593 9.52348E-05-2.85704E-05-2.85704E-05-1.82744E-10 1.15269E-18-7.88361E-19
 -1      1594 9.52345E-05-2.85703E-05-2.85704E-05-1.65784E-10-1.88732E-20 6.97620E-19
 -1      1595 9.52358E-05-2.85707E-05-2.85708E-05-2.12272E-10 7.20103E-19-3.38937E-18
 -1      1596 9.52351E-05-2.85705E-05-2.85705E-05-2.27739E-10 1.48296E-19-3.13172E-18
 -1      1597 9.52348E-05-2.85704E-05-2.85704E-05-2.15251E-10 1.24577E-18-1.42504E-18
 -1      1598 9.52357E-05-2.85707E-05-2.85707E-05-3.49395E-10 1.56641E-18-3.27181E-18
 -1      1599 9.52356E-05-2.85707E-05-2.85707E-05-2.56267E-10-2.47991E-19-2.52864E-18
 -1      1600 9.52352E-05-2.85706E-05-2.85706E-05-2.47136E-10-4.84340E-20-2.29906E-18
 -1      1601 9.52358E-05-2.85707E-05-2.85708E-05-4.37316E-10 1.16184E-19-3.14039E-18
 -1      1602 9.52361E-05-2.85708E-05-2.85708E-05-2.66451E-10-7.17866E-19-2.90533E-18
 -1      1603 9.52357E-05-2.85707E-05-2.85707E-05-2.61726E-10-5.53723E-19-2.59691E-18
 -1      1604 9.52361E-05-2.85708E-05-2.85708E-05-4.86932E-10-6.88328E-20-1.58692E-18
 -1      1605 9.52366E-05-2.85710E-05-2.85710E-05-2.48178E-10-9.09767E-19-6.17901E-19
 -1      1606 9.52363E-05-2.85709E-05-2.85709E-05-2.50671E-10-5.67949E-19-2.12067E-18
 -1      1607 9.52364E-05-2.85709E-05-2.85709E-05-4.90180E-10-1.67863E-18-2.36403E-18
 -1      1608 9.52370E-05-2.85711E-05-2.85711E-05-1.72038E-10-2.73797E-18 3.18817E-18
 -1      1609 9.52367E-05-2.85710E-05-2.85710E-05-1.93126E-10-2.74810E-18-1.23179E-18
 -1      1610 9.52368E-05-2.85711E-05-2.85710E-05-4.18703E-10-2.44966E-18-8.14264E-19
 -1      1611 9.52371E-05-2.85712E-05-2.85711E-05-7.17147E-11 2.75503E-18 4.59922E-19
 -1      1612 9.52371E-05-2.85712E-05-2.85711E-05-1.17257E-10-1.31906E-18 2.40395E-18
 -1      1613 9.52370E-05-2.85712E-05-2.85711E-05-2.85870E-10-2.80000E-18-4.78035E-18
 -1      1614 9.52371E-05-2.85713E-05-2.85711E-05-1.19811E-10 2.33447E-18-4.98445E-18
 -1      1615 9.52373E-05-2.85716E-05-2.85710E-05-2.11470E-10-1.22621E-18 5.62853E-19
 -1      1616 9.52372E-05-2.85714E-05-2.85711E-05-1.85476E-10 1.66038E-18-1.94922E-18
 -1      1617 9.52372E-05-2.85714E-05-2.85711E-05-3.03484E-10 7.31514E-19-2.22064E-18
 -1      1618 9.52374E-05-2.85720E-05-2.85709E-05-1.91471E-10-3.67068E-18-1.42728E-18
 -1      1619 9.52373E-05-2.85718E-05-2.85710E-05-1.93929E-10-2.24784E-18 3.00668E-19
 -1      1620 9.52373E-05-2.85717E-05-2.85710E-05-3.75072E-10 2.17659E-19-1.62557E-18
 -1      1621 9.52375E-05-2.85723E-05-2.85708E-05-1.08414E-10-9.75703E-18-3.59050E-18
 -1      1622 9.52375E-05-2.85721E-05-2.85709E-05-1.27118E-10-5.33686E-18-3.10909E-18
 -1      1623 9.52374E-05-2.85719E-05-2.85709E-05-2.87534E-10-2.06410E-18-3.60947E-18
 -1      1624 9.52375E-05-2.85724E-05-2.85708E-05-4.48419E-12-1.01233E-17-4.73636E-19
 -1      1625 9.52375E-05-2.85723E-05-2.85708E-05-2.91653E-11-9.61151E-18-7.78237E-19
 -1      1626 9.52374E-05-2.85720E-05-2.85709E-05-1.12827E-10-3.65817E-18-9.97828E-19
 -1      1627 9.52375E-05-2.85722E-05-2.85708E-05 8.56363E-11-1.03585E-17 6.39214E-19
 -1      1628 9.52375E-05-2.85723E-05-2.85708E-05 6.35796E-11-9.93079E-18 1.01395E-19
 -1      1629 9.52374E-05-2.85720E-05-2.85709E-05 7.32571E-11-6.75930E-18 1.00978E-18
 -1      1630 9.52374E-05-2.85720E-05-2.85709E-05 1.42985E-10-9.54313E-18 1.22598E-18
 -1      1631 9.52375E-05-2.85721E-05-2.85709E-05 1.28502E-10-1.02068E-17 7.83242E-19
 -1      1632 9.52374E-05-2.85718E-05-2.85710E-05 2.17582E-10-7.19565E-18 1.13913E-18
 -1      1633 9.52373E-05-2.85717E-05-2.85710E-05 1.55958E-10-9.55469E-18 4.09584E-20
 -1      1634 9.52374E-05-2.85718E-05-2.85709E-05 1.52341E-10-8.63905E-18-7.48367E-19
 -1      1635 9.52373E-05-2.85715E-05-2.85710E-05 2.89334E-10-7.16274E-18-6.19040E-19
 -1      1636 9.52372E-05-2.85714E-05-2.85711E-05 1.27622E-10-5.68227E-18 3.35440E-18
 -1      1637 9.52373E-05-2.85715E-05-2.85710E-05 1.34412E-10-9.47767E-18 2.48041E-18
 -1      1638 9.52372E-05-2.85712E-05-2.85711E-05 2.78546E-10-5.57204E-18 2.64943E-18
 -1      1639 9.52371E-05-2.85712E-05-2.85711E-05 7.17269E-11-6.51781E-18-4.00444E-18
 -1      1640 9.52372E-05-2.85713E-05-2.85711E-05 8.55903E-11-4.81850E-18 4.14949E-19
 -1      1641 9.52371E-05-2.85710E-05-2.85712E-05 1.99802E-10-6.38499E-18 1.29537E-18
 -1      1642 9.52371E-05-2.85711E-05-2.85711E-05 9.07653E-12-8.17758E-18 1.39458E-18
 -1      1643 9.52371E-05-2.85711E-05-2.85711E-05 2.45932E-11-7.10819E-18-1.61368E-18
 -1      1644 9.52370E-05-2.85709E-05-2.85712E-05 8.52545E-11-3.57686E-18-2.75056E-18
 -1      1645 9.52371E-05-2.85711E-05-2.85711E-05-3.68641E-11-8.13154E-18-2.34614E-18
 -1      1646 9.52371E-05-2.85711E-05-2.85711E-05-2.59891E-11-7.59159E-18 9.90535E-20
 -1      1647 9.52371E-05-2.85709E-05-2.85712E-05-2.29906E-11-5.66870E-18 6.49620E-19
 -1      1648 9.52372E-05-2.85712E-05-2.85711E-05-4.89364E-11-6.36985E-18 2.74485E-18
 -1      1649 9.52372E-05-2.85712E-05-2.85711E-05-4.79150E-11-8.60416E-18 7.93619E-19
 -1      1650 9.52371E-05-2.85710E-05-2.85712E-05-8.56839E-11-4.49762E-18 2.54070E-19
 -1      1651 9.52372E-05-2.85713E-05-2.85711E-05-1.83208E-11-2.66643E-18-1.45479E-18
 -1      1652 9.52372E-05-2.85713E-05-2.85711E-05-2.97630E-11-4.88135E-18 1.84879E-18
 -1      1653 9.52371E-05-2.85711E-05-2.85712E-05-7.61352E-11-3.27566E-18 3.56880E-18
 -1      1654 9.52372E-05-2.85713E-05-2.85711E-05 3.51230E-11-5.70251E-18-2.56434E-18
 -1      1655 9.52372E-05-2.85714E-05-2.85711E-05 1.78132E-11-2.96865E-18-1.91314E-18
 -1      1656 9.52372E-05-2.85712E-05-2.85711E-05 3.73399E-12-3.48989E-18-1.95944E-18
 -1      1657 2.31504E-05-8.88655E-05 2.10806E-05-2.10339E-05 7.79270E-18 1.83446E-18
 -1      1658 2.57244E-05-9.05272E-05 2.09591E-05-7.52247E-06 6.41543E-18 1.59073E-18
 -1      1659 1.85923E-05-6.24391E-05 1.26343E-05-1.69866E-05 7.98244E-18 4.88187E-18
 -1      1660 2.45123E-05-8.07648E-05 1.73260E-05-1.39078E-05 7.35076E-18 2.12563E-18
 -1      1661 2.94572E-05-3.60004E-05-3.03525E-06 6.95889E-07 9.58926E-18 7.19936E-18
 -1      1662 2.82494E-05-5.99689E-05 6.21658E-06-1.17496E-05 8.52369E-18 5.93304E-18
 -1      1663 6.92914E-05-2.05228E-05-2.47487E-05 3.34541E-05 8.20097E-18 7.92484E-18
 -1      1664 4.69229E-05-3.38551E-05-1.28726E-05 7.76761E-06 1.02474E-17 7.19809E-18
 -1      1665 1.62728E-04-3.86862E-05-5.10008E-05 6.18511E-05 5.65479E-18 5.89366E-18
 -1      1666 1.08180E-04-3.08285E-05-3.71006E-05 3.66814E-05 7.58603E-18 7.59280E-18
 -1      1667 2.69529E-04-7.06416E-05-7.45564E-05 6.39134E-05 2.55973E-18 2.68001E-18
 -1      1668 1.96299E-04-4.39835E-05-6.26870E-05 5.95661E-05 4.88569E-18 4.97039E-18
 -1      1669 3.50056E-04-9.94399E-05-8.96612E-05 2.52318E-05 1.39083E-18-8.07222E-19
 -1      1670 2.95733E-04-7.45299E-05-8.26703E-05 5.49647E-05 2.06994E-18 2.51230E-18
 -1      1671 3.47922E-04-9.47811E-05-9.11529E-05-2.52042E-05 6.13252E-19-2.37847E-18
 -1      1672 3.53647E-04-9.77101E-05-9.17831E-05 1.85066E-05-2.33781E-19-1.68390E-18
 -1      1673 2.69910E-04-6.61813E-05-7.79814E-05-5.07449E-05 7.81388E-19-2.23278E-18
 -1      1674 3.30806E-04-9.32274E-05-8.66095E-05-2.65821E-05 4.98055E-19-2.11589E-18
 -1      1675 1.68038E-04-3.43687E-05-5.66139E-05-5.86692E-05 1.09437E-18-2.16163E-18
 -1      1676 2.42837E-04-6.11136E-05-6.94978E-05-6.62464E-05 9.65618E-19-3.26616E-18
 -1      1677 8.90149E-05-2.68642E-05-3.14166E-05-3.10003E-05 2.74439E-19-9.85946E-19
 -1      1678 1.36937E-04-3.14770E-05-4.47217E-05-5.83216E-05 9.55453E-19-1.94818E-18
 -1      1679 4.33415E-05-4.11167E-05-8.09140E-06-3.07372E-06-1.57463E-18-6.18334E-20
 -1      1680 6.01987E-05-2.44174E-05-1.97141E-05-2.63365E-05-1.76183E-19-1.15874E-18
 -1      1681 2.69507E-05-6.58403E-05 9.39360E-06 1.28311E-05-5.38459E-18 7.15213E-19
 -1      1682 2.54188E-05-4.22835E-05 1.29818E-06 3.95781E-06-2.63004E-18-3.78624E-19
 -1      1683 2.52055E-05-8.80102E-05 1.95447E-05 1.52836E-05-7.62330E-18 1.12020E-18
 -1      1684 1.82579E-05-7.16508E-05 1.59347E-05 2.22096E-05-6.02960E-18 1.09172E-18
 -1      1685 2.58139E-05-8.96015E-05 2.06664E-05 4.95389E-06-6.68140E-18 9.01455E-19
 -1      1686 2.50639E-05-9.18667E-05 2.14282E-05 1.81167E-05-7.82283E-18 1.63859E-18
 -1      1687 2.15256E-05-6.45824E-05 1.33233E-05 1.52752E-06-5.12286E-18-6.69580E-19
 -1      1688 2.68559E-05-8.39335E-05 1.79346E-05 7.71027E-06-5.99403E-18 1.78300E-19
 -1      1689 2.32394E-05-3.08320E-05-6.21559E-08 1.42304E-05-4.17503E-18-1.12698E-18
 -1      1690 2.67217E-05-5.70412E-05 7.54381E-06 6.70376E-06-4.73068E-18-1.07213E-18
 -1      1691 4.37391E-05-2.91719E-06-1.85206E-05 4.37176E-05-2.65460E-18-1.17822E-18
 -1      1692 3.42668E-05-2.34881E-05-8.45493E-06 2.24098E-05-3.76676E-18-9.32160E-19
 -1      1693 9.23478E-05 2.82743E-06-3.92504E-05 7.66337E-05-1.62207E-18-1.64833E-18
 -1      1694 6.27659E-05 1.36372E-07-2.85016E-05 5.27388E-05-2.01594E-18-1.44250E-18
 -1      1695 1.66006E-04-1.79122E-05-5.94020E-05 9.05004E-05-9.26654E-19-4.08270E-19
 -1      1696 1.19440E-04-2.09962E-06-4.92504E-05 7.93919E-05-1.42979E-18-1.15535E-18
 -1      1697 2.39382E-04-4.85967E-05-7.55573E-05 7.62146E-05-5.14361E-19 3.41439E-18
 -1      1698 1.92425E-04-2.43574E-05-6.81927E-05 8.95581E-05-1.11597E-18 9.29195E-19
 -1      1699 2.82689E-04-7.07330E-05-8.40654E-05 2.71763E-05-5.73018E-19 6.84720E-18
 -1      1700 2.58452E-04-5.63686E-05-8.06891E-05 6.13329E-05-3.61471E-19 4.35036E-18
 -1      1701 2.75250E-04-6.55242E-05-8.37712E-05-3.13396E-05-2.07163E-18 8.57070E-18
 -1      1702 2.82352E-04-6.96587E-05-8.47107E-05 6.92766E-06-1.04460E-18 7.31053E-18
 -1      1703 2.34846E-04-4.39464E-05-7.66960E-05-7.71171E-05-2.32812E-18 8.74816E-18
 -1      1704 2.68673E-04-6.33321E-05-8.14781E-05-5.09226E-05-1.80683E-18 9.46813E-18
 -1      1705 1.66628E-04-1.43632E-05-6.23153E-05-8.97138E-05-3.68290E-18 6.78050E-18
 -1      1706 2.12577E-04-3.61164E-05-7.03276E-05-8.57169E-05-2.82591E-18 7.81811E-18
 -1      1707 1.00165E-04 4.69855E-06-4.44027E-05-7.74454E-05-4.22161E-18 5.40238E-18
 -1      1708 1.40109E-04-6.34321E-06-5.39644E-05-9.26309E-05-4.11912E-18 6.48997E-18
 -1      1709 5.37900E-05-2.45026E-06-2.40281E-05-4.59807E-05-2.82062E-18 3.63801E-18
 -1      1710 7.83563E-05 4.78620E-06-3.46590E-05-7.04486E-05-4.24448E-18 5.17368E-18
 -1      1711 2.99018E-05-2.76353E-05-5.20176E-06-1.77888E-05 1.07573E-18 2.45936E-18
 -1      1712 3.52729E-05-5.32456E-06-1.44316E-05-3.62768E-05-1.91599E-18 3.88619E-18
 -1      1713 2.59387E-05-6.16502E-05 9.53605E-06-4.98844E-06 3.30597E-18-5.41572E-20
 -1      1714 2.13243E-05-3.60722E-05 2.53063E-06-9.80486E-06 1.77369E-18 8.73503E-19
 -1      1715 2.67723E-05-8.60732E-05 1.87579E-05-9.59209E-06 6.27863E-18 8.80067E-19
 -1      1716 2.20970E-05-6.86633E-05 1.46114E-05-1.88858E-06 4.48843E-18 3.06414E-19
 -1      1717 1.06534E-04-2.33039E-05-3.57653E-05 1.70853E-05 2.71845E-20 6.45397E-18
 -1      1718 1.94230E-04-6.21658E-05-5.68774E-05 2.86920E-05-8.22045E-19 1.09801E-17
 -1      1719 1.97383E-04-7.19062E-05-5.39744E-05 2.93868E-05-1.96808E-18 5.94384E-18
 -1      1720 1.61006E-04-4.48843E-05-5.45752E-05 2.89337E-05-8.82608E-19 1.24446E-17
 -1      1721 3.27225E-05-5.21153E-05 3.67951E-06 1.33136E-05 4.26820E-18 4.17227E-18
 -1      1722 1.12466E-05-5.79434E-05 1.50331E-05-1.59313E-05 4.48525E-18 1.87999E-18
 -1      1723 1.30260E-05-5.55263E-05 1.33955E-05-1.14695E-06 4.85096E-18 2.21626E-18
 -1      1724 9.52372E-05-2.85712E-05-2.85711E-05 8.11135E-11-3.16373E-18 1.71005E-18
 -1      1725 9.52372E-05-2.85713E-05-2.85711E-05 6.36387E-11-4.61656E-18-4.09995E-19
 -1      1726 9.52372E-05-2.85712E-05-2.85711E-05 8.74340E-11-1.66266E-18-9.87524E-19
 -1      1727 7.08300E-05-5.37659E-05-1.18334E-05 2.25131E-05 6.17487E-18 3.98783E-18
 -1      1728 1.35073E-04-6.17144E-05-3.31376E-05 2.62511E-05 5.98852E-18 3.88534E-18
 -1      1729 2.03956E-04-6.95675E-05-5.50406E-05 1.15635E-05 5.59381E-18 2.49705E-18
 -1      1730 2.59014E-04-6.73134E-05-7.35200E-05 2.17393E-06 4.05686E-18 2.93073E-18
 -1      1731 2.80579E-04-5.90471E-05-8.27783E-05-1.98659E-06 2.10488E-18 1.90159E-18
 -1      1732 2.68580E-04-5.61363E-05-8.03954E-05 8.16822E-06 4.16740E-19 1.83933E-18
 -1      1733 2.45495E-04-6.76355E-05-6.92168E-05-1.06003E-06-2.29546E-19 8.89385E-19
 -1      1734 1.85226E-04-6.75532E-05-5.08412E-05-2.07891E-05-6.81014E-19-4.08270E-19
 -1      1735 1.19187E-04-5.99959E-05-2.80285E-05-2.72951E-05-1.78300E-18-2.69356E-19
 -1      1736 6.29391E-05-5.41193E-05-8.09512E-06-2.26879E-05-3.03661E-18-1.08420E-18
 -1      1737 2.65722E-05-5.43052E-05 7.08146E-06-9.41117E-06-3.96496E-18-1.13227E-18
 -1      1738 1.19416E-05-5.99260E-05 1.53120E-05 5.74491E-06-4.63878E-18 8.99973E-19
 -1      1739 1.28598E-05-5.78901E-05 1.45933E-05 1.66026E-05-4.23982E-18 1.17611E-18
 -1      1740 2.48934E-05-4.87635E-05 6.56756E-06 2.82724E-05-3.06711E-18 3.66342E-20
 -1      1741 4.95393E-05-3.90758E-05-6.83451E-06 4.08919E-05-2.46148E-18 1.82641E-19
 -1      1742 8.65194E-05-3.10463E-05-2.42541E-05 5.21738E-05-1.78385E-18-4.60362E-19
 -1      1743 1.33765E-04-2.91292E-05-4.32623E-05 5.61770E-05-8.73291E-19-5.92923E-19
 -1      1744 1.80682E-04-3.06012E-05-6.09487E-05 5.13207E-05-1.33514E-18 1.46876E-18
 -1      1745 2.21272E-04-3.56905E-05-7.43211E-05 3.71931E-05-1.92234E-18 3.09718E-18
 -1      1746 2.36148E-04-3.68928E-05-7.98110E-05 8.81152E-06-1.76733E-18 4.69849E-18
 -1      1747 2.30658E-04-3.53564E-05-7.82354E-05-2.09304E-05-1.54118E-18 5.13789E-18
 -1      1748 2.06656E-04-3.27019E-05-6.99595E-05-4.37838E-05-1.09723E-18 5.52435E-18
 -1      1749 1.65113E-04-2.73247E-05-5.60387E-05-5.72504E-05-1.83129E-18 3.55839E-18
 -1      1750 1.18772E-04-2.60552E-05-3.87299E-05-5.84742E-05-1.77369E-18 3.49147E-18
 -1      1751 7.60557E-05-3.03132E-05-2.04596E-05-5.05245E-05-4.16740E-19 4.11065E-18
 -1      1752 4.22606E-05-3.94962E-05-3.93081E-06-3.73954E-05 1.80757E-18 3.08108E-18
 -1      1753 2.16400E-05-5.03049E-05 8.23248E-06-2.60640E-05 3.14588E-18 1.48146E-18
 -1      1754 1.06172E-04-2.32037E-05-3.56412E-05-1.68503E-05-5.48163E-19-3.14694E-18
 -1      1755 2.06537E-04-5.49973E-05-6.44465E-05 3.48796E-05-9.76629E-19 6.20663E-18
 -1      1756 8.91885E-05-1.06298E-05-3.37931E-05-1.33253E-05 4.59674E-19-2.44343E-18
 -1      1757 9.05240E-05-1.16688E-05-3.39383E-05-1.51406E-05 2.21843E-19-2.66834E-18
 -1      1758 9.25392E-05-1.39024E-05-3.38636E-05-1.60049E-05-1.03331E-20-2.78319E-18
 -1      1759 9.42737E-05-1.58489E-05-3.41153E-05-1.76677E-05-3.56310E-19-3.00644E-18
 -1      1760 9.34685E-05-1.63951E-05-3.30471E-05-1.37845E-05 1.02537E-20-2.52273E-18
 -1      1761 8.62347E-05-7.73797E-06-3.37123E-05-7.80760E-06 1.10423E-18-1.58539E-18
 -1      1762 8.66446E-05-8.03635E-06-3.37492E-05-9.21148E-06 1.00412E-18-1.88507E-18
 -1      1763 8.55933E-05-7.08559E-06-3.37056E-05-5.22829E-06 1.23707E-18-1.18555E-18
 -1      1764 8.58419E-05-7.27199E-06-3.37227E-05-6.54687E-06 1.20128E-18-1.42520E-18
 -1      1765 8.76296E-05-9.95655E-06-3.33217E-05-6.85927E-06 1.20514E-18-1.46362E-18
 -1      1766 8.52138E-05-6.68827E-06-3.37066E-05-2.77256E-06 1.42516E-18-7.52403E-19
 -1      1767 8.53569E-05-6.79819E-06-3.37140E-05-4.01904E-06 1.36344E-18-9.90049E-19
 -1      1768 8.69583E-05-9.21395E-06-3.33527E-05-4.42233E-06 1.39839E-18-1.07328E-18
 -1      1769 8.50261E-05-6.48332E-06-3.37102E-05-4.01457E-07 1.50162E-18-4.28652E-19
 -1      1770 8.50874E-05-6.53184E-06-3.37119E-05-1.60569E-06 1.48514E-18-6.36095E-19
 -1      1771 8.65665E-05-8.77413E-06-3.33728E-05-2.07433E-06 1.57207E-18-6.49641E-19
 -1      1772 8.50183E-05-6.45814E-06-3.37159E-05 1.92854E-06 1.56077E-18-4.37545E-20
 -1      1773 8.49976E-05-6.44515E-06-3.37123E-05 7.37800E-07 1.54386E-18-2.55897E-19
 -1      1774 8.63965E-05-8.57986E-06-3.33824E-05 2.04329E-07 1.62180E-18-3.02351E-19
 -1      1775 8.52193E-05-6.63560E-06-3.37261E-05 4.27017E-06 1.63220E-18 3.37940E-19
 -1      1776 8.50991E-05-6.54954E-06-3.37153E-05 3.06013E-06 1.60171E-18 8.22284E-20
 -1      1777 8.64492E-05-8.63059E-06-3.33824E-05 2.44500E-06 1.66956E-18 7.00854E-20
 -1      1778 8.56831E-05-7.05942E-06-3.37463E-05 6.64754E-06 1.57556E-18 7.65744E-19
 -1      1779 8.54348E-05-6.88313E-06-3.37240E-05 5.39983E-06 1.60402E-18 5.00954E-19
 -1      1780 8.67656E-05-8.96482E-06-3.33740E-05 4.67078E-06 1.72379E-18 4.68317E-19
 -1      1781 8.65421E-05-7.84612E-06-3.37864E-05 9.22000E-06 1.61364E-18 1.41415E-18
 -1      1782 8.60941E-05-7.52792E-06-3.37430E-05 7.83997E-06 1.57251E-18 1.07184E-18
 -1      1783 8.74315E-05-9.66886E-06-3.33573E-05 6.94943E-06 1.66713E-18 9.58517E-19
 -1      1784 8.80202E-05-9.20974E-06-3.38615E-05 1.20242E-05 1.47286E-18 2.10885E-18
 -1      1785 8.72486E-05-8.64538E-06-3.37805E-05 1.04672E-05 1.51484E-18 1.69519E-18
 -1      1786 8.86100E-05-1.09121E-05-3.33279E-05 9.33242E-06 1.62045E-18 1.52829E-18
 -1      1787 9.06342E-05-1.16828E-05-3.39881E-05 1.50090E-05 1.22680E-18 2.91451E-18
 -1      1788 8.92392E-05-1.05673E-05-3.38417E-05 1.32447E-05 1.35215E-18 2.40669E-18
 -1      1789 9.05584E-05-1.29778E-05-3.32656E-05 1.17352E-05 1.45669E-18 2.19371E-18
 -1      1790 9.44954E-05-1.59760E-05-3.41376E-05 1.76055E-05 6.21100E-19 4.11695E-18
 -1      1791 9.27368E-05-1.40063E-05-3.39040E-05 1.59230E-05 9.10215E-19 3.43435E-18
 -1      1792 9.37559E-05-1.65080E-05-3.30887E-05 1.36695E-05 1.08327E-18 3.01284E-18
 -1      1793 5.24268E-05-4.53134E-05-4.43613E-06 2.82643E-05 2.00916E-18 3.20983E-18
 -1      1794 3.38697E-05-4.11819E-05 1.57664E-06 2.09648E-05 1.86390E-18 2.70839E-18
 -1      1795 1.00247E-04-1.95897E-05-3.42465E-05-1.88676E-05-6.04967E-19-3.02126E-18
 -1      1796 1.00428E-04-1.95766E-05-3.43348E-05 1.90075E-05 2.28500E-19 4.88569E-18
 -1      1797 9.70288E-05-2.70217E-05-2.98890E-05-5.74765E-06-4.64915E-19-2.58299E-18
 -1      1798 9.52015E-05-2.70803E-05-2.91709E-05-3.96417E-06-3.10702E-19-2.65254E-18
 -1      1799 9.43654E-05-2.72875E-05-2.86517E-05-2.53083E-06-3.77988E-19-2.48722E-18
 -1      1800 9.35518E-05-2.73684E-05-2.83318E-05-1.72048E-06-2.73870E-19-2.62502E-18
 -1      1801 9.55462E-05-2.66147E-05-2.95617E-05-4.59164E-06-3.25909E-19-1.99819E-18
 -1      1802 9.29927E-05-2.74243E-05-2.80432E-05-9.64854E-07-1.80251E-19-2.63858E-18
 -1      1803 9.26132E-05-2.74824E-05-2.78948E-05-5.96342E-07-1.04392E-19-2.71791E-18
 -1      1804 9.42904E-05-2.73184E-05-2.87213E-05-2.07539E-06-3.11252E-19-2.03615E-18
 -1      1805 9.22787E-05-2.75145E-05-2.77272E-05-2.52406E-07-1.29945E-19-2.64155E-18
 -1      1806 9.21133E-05-2.75748E-05-2.76538E-05-1.35618E-07-1.47495E-19-2.54129E-18
 -1      1807 9.35046E-05-2.76565E-05-2.82347E-05-8.11974E-07-1.35385E-19-1.98842E-18
 -1      1808 9.19133E-05-2.76065E-05-2.75476E-05-6.13206E-08-1.78346E-19-2.26705E-18
 -1      1809 9.18126E-05-2.76573E-05-2.74987E-05-1.13029E-07-1.09049E-19-2.35327E-18
 -1      1810 9.30390E-05-2.78752E-05-2.79362E-05-3.17362E-07-4.01989E-21-1.71722E-18
 -1      1811 9.16659E-05-2.76851E-05-2.74171E-05-2.34457E-07-1.89172E-19-2.26206E-18
 -1      1812 9.15253E-05-2.77074E-05-2.73610E-05-4.13703E-07-3.06206E-20-2.30428E-18
 -1      1813 9.27400E-05-2.80434E-05-2.77306E-05-3.48373E-07-9.91372E-20-1.53768E-18
 -1      1814 9.13641E-05-2.77180E-05-2.72792E-05-6.87857E-07-6.11650E-20-2.27351E-18
 -1      1815 9.11051E-05-2.76904E-05-2.71933E-05-9.67938E-07-1.12298E-19-2.11155E-18
 -1      1816 9.24675E-05-2.81639E-05-2.75573E-05-7.73364E-07-1.08442E-19-1.34439E-18
 -1      1817 9.08728E-05-2.76652E-05-2.70946E-05-1.35974E-06-2.40729E-19-2.15492E-18
 -1      1818 9.04371E-05-2.75652E-05-2.69634E-05-1.71241E-06-9.48164E-20-2.01611E-18
 -1      1819 9.21002E-05-2.82097E-05-2.73761E-05-1.50450E-06-1.73274E-19-1.50972E-18
 -1      1820 9.00871E-05-2.74824E-05-2.68382E-05-2.17838E-06-1.61214E-19-2.15250E-18
 -1      1821 8.94395E-05-2.72894E-05-2.66538E-05-2.56282E-06-2.20447E-19-2.47901E-18
 -1      1822 9.15345E-05-2.81358E-05-2.71622E-05-2.45419E-06-3.69873E-19-1.64379E-18
 -1      1823 8.89395E-05-2.71270E-05-2.64994E-05-3.03911E-06-4.87095E-19-2.56415E-18
 -1      1824 8.80761E-05-2.68274E-05-2.62632E-05-3.39528E-06-4.55207E-19-2.70048E-18
 -1      1825 9.06885E-05-2.78876E-05-2.69041E-05-3.50339E-06-5.22821E-19-1.40599E-18
 -1      1826 8.74171E-05-2.65706E-05-2.60845E-05-3.79268E-06-3.92539E-19-2.97501E-18
 -1      1827 8.63759E-05-2.61676E-05-2.58091E-05-4.04225E-06-2.86511E-19-3.12814E-18
 -1      1828 8.95170E-05-2.74158E-05-2.66044E-05-4.48191E-06-6.24535E-19-1.64831E-18
 -1      1829 8.55850E-05-2.58193E-05-2.56183E-05-4.25312E-06-3.28713E-20-3.24511E-18
 -1      1830 8.44537E-05-2.53416E-05-2.53277E-05-4.31168E-06-2.04736E-19-3.12403E-18
 -1      1831 8.80350E-05-2.67012E-05-2.62787E-05-5.16928E-06-2.98862E-19-2.22367E-18
 -1      1832 8.36045E-05-2.49337E-05-2.51435E-05-4.23301E-06-4.50047E-19-3.04209E-18
 -1      1833 8.25169E-05-2.44412E-05-2.48714E-05-4.03405E-06-4.28667E-19-2.69516E-18
 -1      1834 8.63441E-05-2.57838E-05-2.59540E-05-5.32714E-06-2.12657E-19-1.79708E-18
 -1      1835 8.17287E-05-2.40378E-05-2.47155E-05-3.60383E-06-5.39572E-19-3.02385E-18
 -1      1836 8.08459E-05-2.36150E-05-2.44996E-05-3.12825E-06-5.01128E-19-3.04027E-18
 -1      1837 8.46447E-05-2.47833E-05-2.56642E-05-4.76568E-06-7.13279E-19-2.13300E-18
 -1      1838 8.02623E-05-2.33014E-05-2.43932E-05-2.36178E-06-3.38767E-19-3.24890E-18
 -1      1839 7.97372E-05-2.30371E-05-2.42677E-05-1.65886E-06-3.48991E-19-3.27944E-18
 -1      1840 8.32134E-05-2.38896E-05-2.54441E-05-3.42735E-06-4.58663E-19-2.18950E-18
 -1      1841 7.94850E-05-2.28926E-05-2.42269E-05-6.63844E-07-4.52408E-19-3.42057E-18
 -1      1842 7.94213E-05-2.28500E-05-2.42142E-05 1.51529E-07-3.04412E-19-3.44543E-18
 -1      1843 8.23371E-05-2.33133E-05-2.53230E-05-1.44796E-06-5.01576E-19-2.14774E-18
 -1      1844 7.95652E-05-2.29158E-05-2.42468E-05 1.19716E-06-2.92243E-19-3.61774E-18
 -1      1845 7.99859E-05-2.31085E-05-2.43520E-05 1.97563E-06-4.21581E-19-3.72787E-18
 -1      1846 8.22197E-05-2.32085E-05-2.53192E-05 8.49026E-07-4.81353E-19-2.41869E-18
 -1      1847 8.05029E-05-2.33691E-05-2.44557E-05 2.87908E-06-3.29876E-19-3.63074E-18
 -1      1848 8.13437E-05-2.37559E-05-2.46652E-05 3.48480E-06-9.00105E-20-3.80197E-18
 -1      1849 8.29055E-05-2.36081E-05-2.54370E-05 3.04131E-06-3.35829E-19-2.58382E-18
 -1      1850 8.21329E-05-2.41465E-05-2.48285E-05 4.10138E-06 1.96967E-19-3.98417E-18
 -1      1851 8.32638E-05-2.46483E-05-2.51141E-05 4.45318E-06 3.04808E-19-4.10512E-18
 -1      1852 8.42622E-05-2.44087E-05-2.56660E-05 4.74516E-06-2.44295E-19-2.55596E-18
 -1      1853 8.41863E-05-2.50834E-05-2.53182E-05 4.72512E-06 5.43741E-19-4.02881E-18
 -1      1854 8.54498E-05-2.56124E-05-2.56441E-05 4.81205E-06 4.55865E-19-3.71769E-18
 -1      1855 8.60345E-05-2.54179E-05-2.59829E-05 5.73333E-06 5.99695E-19-2.46118E-18
 -1      1856 8.63735E-05-2.60171E-05-2.58675E-05 4.76844E-06 2.21538E-19-3.24942E-18
 -1      1857 8.76241E-05-2.65026E-05-2.61984E-05 4.63738E-06 4.16949E-19-2.91000E-18
 -1      1858 8.79361E-05-2.64308E-05-2.63555E-05 5.97786E-06 5.61236E-19-2.05653E-18
 -1      1859 8.84544E-05-2.68311E-05-2.64205E-05 4.36419E-06 2.90480E-19-2.55417E-18
 -1      1860 8.95845E-05-2.72320E-05-2.67278E-05 4.09194E-06 4.26823E-19-2.43147E-18
 -1      1861 8.97303E-05-2.72958E-05-2.67488E-05 5.61289E-06 4.61891E-19-1.88930E-18
 -1      1862 9.02723E-05-2.74698E-05-2.69324E-05 3.69299E-06 2.73846E-19-3.09390E-18
 -1      1863 9.12211E-05-2.77731E-05-2.71977E-05 3.35818E-06 5.00742E-20-3.23841E-18
 -1      1864 9.12701E-05-2.79404E-05-2.71306E-05 4.85435E-06 8.25088E-20-2.30118E-18
 -1      1865 9.17555E-05-2.79282E-05-2.73743E-05 2.92469E-06 1.31477E-19-3.41904E-18
 -1      1866 9.25039E-05-2.81410E-05-2.75895E-05 2.58946E-06 3.27084E-20-3.02356E-18
 -1      1867 9.24979E-05-2.83620E-05-2.74763E-05 3.92126E-06-2.57501E-20-3.01787E-18
 -1      1868 9.28982E-05-2.82319E-05-2.77335E-05 2.18504E-06-2.36655E-19-2.93584E-18
 -1      1869 9.34570E-05-2.83713E-05-2.78985E-05 1.88842E-06 9.50464E-20-2.71951E-18
 -1      1870 9.34206E-05-2.86003E-05-2.77711E-05 2.98567E-06 1.52486E-19-2.75649E-18
 -1      1871 9.37355E-05-2.84181E-05-2.80102E-05 1.54742E-06-3.81875E-19-2.86077E-18
 -1      1872 9.41323E-05-2.85034E-05-2.81304E-05 1.30720E-06-7.53959E-20-2.75996E-18
 -1      1873 9.40811E-05-2.87093E-05-2.80092E-05 2.15534E-06-1.61851E-19-1.77364E-18
 -1      1874 9.43214E-05-2.85233E-05-2.82130E-05 1.04076E-06-1.00362E-19-2.96622E-18
 -1      1875 9.45899E-05-2.85716E-05-2.82965E-05 8.59390E-07 6.54043E-20-2.25284E-18
 -1      1876 9.45342E-05-2.87390E-05-2.81925E-05 1.47964E-06-1.96727E-19-1.74698E-18
 -1      1877 9.47137E-05-2.85767E-05-2.83549E-05 6.63810E-07 7.48168E-20-2.72644E-18
 -1      1878 9.48866E-05-2.86014E-05-2.84101E-05 5.34822E-07 3.69307E-19-3.41357E-18
 -1      1879 9.48333E-05-2.87272E-05-2.83272E-05 9.65990E-07 1.67345E-19-1.77943E-18
 -1      1880 9.49645E-05-2.85995E-05-2.84497E-05 3.98916E-07 2.18158E-19-3.31214E-18
 -1      1881 9.50699E-05-2.86102E-05-2.84843E-05 3.12078E-07-1.66315E-19-3.24696E-18
 -1      1882 9.50230E-05-2.86986E-05-2.84219E-05 5.97395E-07 3.26609E-19-3.20043E-18
 -1      1883 9.51167E-05-2.86057E-05-2.85098E-05 2.22407E-07-5.36854E-19-2.95849E-18
 -1      1884 9.51767E-05-2.86086E-05-2.85303E-05 1.67041E-07-4.49372E-19-2.62280E-18
 -1      1885 9.51382E-05-2.86670E-05-2.84858E-05 3.46357E-07 1.09314E-19-2.39082E-18
 -1      1886 9.52032E-05-2.86037E-05-2.85460E-05 1.10941E-07-3.93913E-19-2.61860E-18
 -1      1887 9.52343E-05-2.86028E-05-2.85571E-05 7.76785E-08 6.03075E-19-2.61430E-18
 -1      1888 9.52045E-05-2.86390E-05-2.85268E-05 1.83886E-07-4.52273E-19-1.24217E-18
 -1      1889 9.52480E-05-2.85984E-05-2.85661E-05 4.46411E-08 5.59639E-19-2.92962E-18
 -1      1890 9.52616E-05-2.85959E-05-2.85715E-05 2.60724E-08 3.35793E-19-2.51648E-18
 -1      1891 9.52397E-05-2.86169E-05-2.85518E-05 8.43045E-08 4.44021E-19-1.38269E-18
 -1      1892 9.52676E-05-2.85925E-05-2.85762E-05 8.08474E-09-4.60938E-19-2.91599E-18
 -1      1893 9.52713E-05-2.85896E-05-2.85782E-05-1.22903E-09-8.30501E-19-2.82934E-18
 -1      1894 9.52561E-05-2.86007E-05-2.85661E-05 2.71008E-08-5.86999E-19-2.05252E-18
 -1      1895 9.52729E-05-2.85870E-05-2.85803E-05-9.89901E-09 2.07075E-19-2.81652E-18
 -1      1896 9.52715E-05-2.85843E-05-2.85804E-05-1.37172E-08 1.08765E-18-1.90673E-18
 -1      1897 9.52616E-05-2.85895E-05-2.85735E-05-2.95637E-09 2.54591E-19-8.85991E-19
 -1      1898 9.52709E-05-2.85825E-05-2.85810E-05-1.69534E-08 5.77621E-19-1.98148E-18
 -1      1899 9.52673E-05-2.85802E-05-2.85803E-05-1.77389E-08 1.85362E-19-1.93289E-18
 -1      1900 9.52612E-05-2.85820E-05-2.85767E-05-1.65336E-08 6.88326E-19-8.29529E-19
 -1      1901 9.52656E-05-2.85789E-05-2.85801E-05-1.80447E-08 2.26134E-19-9.02074E-19
 -1      1902 9.52615E-05-2.85771E-05-2.85790E-05-1.73283E-08 5.94912E-19-4.03274E-19
 -1      1903 9.52582E-05-2.85772E-05-2.85775E-05-2.07285E-08 6.50209E-19 7.93699E-19
 -1      1904 9.52595E-05-2.85763E-05-2.85785E-05-1.62361E-08-6.18142E-19-7.95623E-19
 -1      1905 9.52556E-05-2.85750E-05-2.85774E-05-1.49158E-08-1.02060E-18-1.65959E-18
 -1      1906 9.52542E-05-2.85742E-05-2.85771E-05-2.00364E-08-3.22631E-19 8.59922E-19
 -1      1907 9.52538E-05-2.85744E-05-2.85768E-05-1.33103E-08-7.85958E-20-1.05378E-18
 -1      1908 9.52505E-05-2.85734E-05-2.85759E-05-1.18757E-08 1.52696E-19-6.63880E-19
 -1      1909 9.52502E-05-2.85725E-05-2.85762E-05-1.71585E-08-2.87429E-19 1.62259E-18
 -1      1910 9.52489E-05-2.85731E-05-2.85753E-05-1.02295E-08 2.32323E-19-1.02020E-18
 -1      1911 9.52464E-05-2.85724E-05-2.85745E-05-8.91991E-09 8.13844E-19-5.92531E-19
 -1      1912 9.52466E-05-2.85715E-05-2.85751E-05-1.36189E-08 2.62436E-19 1.69749E-18
 -1      1913 9.52451E-05-2.85722E-05-2.85740E-05-7.45639E-09 1.17781E-18-7.73260E-19
 -1      1914 9.52432E-05-2.85717E-05-2.85735E-05-6.36638E-09 1.25747E-18-7.10553E-20
 -1      1915 9.52437E-05-2.85709E-05-2.85741E-05-1.02046E-08 9.58790E-19 1.54339E-18
 -1      1916 9.52422E-05-2.85716E-05-2.85731E-05-5.16662E-09 8.31860E-19-1.21197E-18
 -1      1917 9.52409E-05-2.85713E-05-2.85727E-05-4.31276E-09 2.44542E-19-9.58536E-19
 -1      1918 9.52415E-05-2.85707E-05-2.85732E-05-7.26490E-09 6.31670E-19-1.74034E-19
 -1      1919 9.52402E-05-2.85713E-05-2.85724E-05-3.38286E-09 2.67552E-19 4.35431E-19
 -1      1920 9.52393E-05-2.85711E-05-2.85721E-05-2.74434E-09 1.77314E-18 1.60899E-18
 -1      1921 9.52399E-05-2.85706E-05-2.85726E-05-4.90508E-09 1.66054E-18 9.02471E-19
 -1      1922 9.52388E-05-2.85711E-05-2.85719E-05-2.05556E-09 2.26224E-18 8.99509E-19
 -1      1923 9.52383E-05-2.85710E-05-2.85717E-05-1.59745E-09 1.48144E-18 1.33018E-18
 -1      1924 9.52388E-05-2.85707E-05-2.85721E-05-3.10594E-09 1.06424E-18 1.61108E-18
 -1      1925 9.52380E-05-2.85710E-05-2.85715E-05-1.10918E-09-4.75081E-19 1.70914E-18
 -1      1926 9.52377E-05-2.85710E-05-2.85714E-05-7.95537E-10-4.65544E-19 4.09212E-19
 -1      1927 9.52381E-05-2.85707E-05-2.85717E-05-1.79445E-09 7.61277E-19 1.34521E-18
 -1      1928 9.52375E-05-2.85710E-05-2.85713E-05-4.69433E-10 4.14040E-19 9.96825E-19
 -1      1929 9.52374E-05-2.85710E-05-2.85713E-05-2.71399E-10 8.57536E-19 8.01812E-19
 -1      1930 9.52376E-05-2.85708E-05-2.85715E-05-8.85186E-10 1.86513E-19 2.50263E-18
 -1      1931 9.52373E-05-2.85710E-05-2.85712E-05-7.61614E-11 2.15862E-18 8.55562E-19
 -1      1932 9.52372E-05-2.85711E-05-2.85712E-05 2.78634E-11 2.19726E-18 2.04529E-18
 -1      1933 9.52373E-05-2.85709E-05-2.85713E-05-3.02590E-10 1.88099E-18 1.44723E-18
 -1      1934 9.40764E-05-2.73375E-05-2.85550E-05 1.24936E-06 3.32063E-19 3.29935E-18
 -1      1935 9.47523E-05-2.72453E-05-2.88369E-05 2.21003E-06 3.01372E-19 3.41528E-18
 -1      1936 9.55453E-05-2.70233E-05-2.93320E-05 3.81960E-06 4.28466E-19 3.68836E-18
 -1      1937 9.72820E-05-2.69327E-05-3.00446E-05 5.75042E-06 4.24893E-19 3.84384E-18
 -1      1938 9.58237E-05-2.64326E-05-2.97530E-05 4.27903E-06 5.36734E-19 2.67197E-18
 -1      1939 9.34689E-05-2.74513E-05-2.82531E-05-3.39348E-07 3.55774E-19 3.01754E-18
 -1      1940 9.36004E-05-2.73755E-05-2.83209E-05 2.56085E-07 2.65320E-19 3.11102E-18
 -1      1941 9.47091E-05-2.70993E-05-2.89927E-05 1.33279E-06 3.83722E-19 2.31963E-18
 -1      1942 9.35422E-05-2.75421E-05-2.82464E-05-1.52031E-06 2.97226E-19 3.03912E-18
 -1      1943 9.32831E-05-2.74494E-05-2.81797E-05-1.04133E-06 3.21462E-19 3.04612E-18
 -1      1944 9.41394E-05-2.73287E-05-2.86508E-05-5.98818E-07 2.76331E-19 2.05276E-18
 -1      1945 9.41693E-05-2.76282E-05-2.84696E-05-2.67615E-06 3.01679E-19 2.92329E-18
 -1      1946 9.35700E-05-2.75172E-05-2.82891E-05-2.15262E-06 3.05561E-19 3.12420E-18
 -1      1947 9.40120E-05-2.73413E-05-2.85864E-05-2.10476E-06 3.10658E-19 2.26104E-18
 -1      1948 9.53189E-05-2.76840E-05-2.89203E-05-4.14288E-06 6.70645E-20 2.63789E-18
 -1      1949 9.43443E-05-2.75572E-05-2.86128E-05-3.41782E-06 3.69654E-19 2.89556E-18
 -1      1950 9.42090E-05-2.71754E-05-2.87353E-05-3.63048E-06 3.76351E-19 2.27261E-18
 -1      1951 9.70407E-05-2.76677E-05-2.96380E-05-6.29894E-06-2.10997E-19 2.44524E-18
 -1      1952 9.55744E-05-2.75213E-05-2.91637E-05-5.18148E-06-2.45745E-19 2.36222E-18
 -1      1953 9.46045E-05-2.67583E-05-2.90742E-05-5.57381E-06 1.47953E-19 1.75866E-18
 -1      1954 9.94203E-05-2.75295E-05-3.06867E-05-9.60894E-06-1.14323E-19 2.35165E-18
 -1      1955 9.72830E-05-2.73453E-05-2.99851E-05-7.85497E-06-1.91833E-19 2.31675E-18
 -1      1956 9.50469E-05-2.59563E-05-2.95927E-05-8.36445E-06-6.68494E-20 1.17324E-18
 -1      1957 1.02442E-04-2.73196E-05-3.20420E-05-1.42706E-05 1.05892E-19 2.51848E-18
 -1      1958 9.94849E-05-2.70058E-05-3.11016E-05-1.18165E-05 5.00411E-20 2.36988E-18
 -1      1959 9.53061E-05-2.46400E-05-3.02360E-05-1.23469E-05-6.53274E-20 1.07196E-18
 -1      1960 1.06515E-04-2.73040E-05-3.37551E-05-2.10286E-05 2.68536E-19 2.34778E-18
 -1      1961 1.02181E-04-2.65461E-05-3.24852E-05-1.75421E-05 2.43985E-19 2.48327E-18
 -1      1962 9.50828E-05-2.28019E-05-3.08901E-05-1.80342E-05 1.98702E-19 1.17308E-18
 -1      1963 1.11856E-04-2.88400E-05-3.53110E-05-2.88860E-05 3.43118E-19 2.05408E-18
 -1      1964 1.05846E-04-2.67011E-05-3.39658E-05-2.52380E-05 4.17237E-19 2.21229E-18
 -1      1965 9.41364E-05-2.09887E-05-3.11728E-05-2.57054E-05 3.92525E-19 9.53302E-19
 -1      1966 1.20046E-04-3.56656E-05-3.57293E-05-3.42205E-05-4.22934E-19 1.92153E-18
 -1      1967 1.11738E-04-3.00652E-05-3.48196E-05-3.31784E-05 1.02756E-19 1.69596E-18
 -1      1968 9.31476E-05-2.18235E-05-3.02243E-05-3.43869E-05 3.71847E-19 6.67462E-19
 -1      1969 1.34507E-04-5.21108E-05-3.49225E-05-2.94054E-05-1.85860E-18 2.27397E-18
 -1      1970 1.23544E-04-4.19537E-05-3.43896E-05-3.53892E-05-1.10781E-18 1.97949E-18
 -1      1971 9.59786E-05-3.13289E-05-2.71896E-05-4.07420E-05-9.27183E-19 1.90582E-19
 -1      1972 2.31385E-04-6.25107E-05-6.96641E-05-2.23239E-05 3.11115E-18 3.39279E-18
 -1      1973 2.35145E-04-5.23242E-05-7.45506E-05-1.51260E-05 3.03577E-18 3.82478E-18
 -1      1974 2.37571E-04-5.05379E-05-7.61858E-05-7.29513E-06 2.02441E-18 3.59491E-18
 -1      1975 2.40102E-04-5.29794E-05-7.62403E-05 7.47405E-06 5.60736E-19 4.00070E-18
 -1      1976 1.72099E-04-7.01142E-05-4.29283E-05 8.55553E-06 1.03317E-18-6.95096E-19
 -1      1977 1.81208E-04-7.39551E-05-4.54077E-05-5.75265E-06 2.32913E-18 2.50934E-19
 -1      1978 1.47725E-04-5.12774E-05-4.03929E-05 2.78870E-05 9.58206E-20-7.03434E-20
 -1      1979 1.57771E-04-6.02226E-05-4.12237E-05 1.86672E-05 3.56389E-19-3.59433E-19
 -1      1980 1.41570E-04-6.28243E-05-3.38772E-05 2.47883E-05 5.32784E-19-1.23876E-18
 -1      1981 1.29387E-04-3.71095E-05-3.92085E-05 3.11716E-05-1.02269E-18 5.16902E-19
 -1      1982 1.39511E-04-4.39962E-05-4.05792E-05 3.02712E-05-7.95682E-19 1.04019E-18
 -1      1983 1.21550E-04-4.27562E-05-3.35442E-05 3.65081E-05-1.10030E-18 1.69989E-19
 -1      1984 1.18110E-04-3.17157E-05-3.70552E-05 2.47032E-05-9.69656E-19 1.20898E-18
 -1      1985 1.26269E-04-3.51158E-05-3.88912E-05 2.76213E-05-8.89530E-19 4.17005E-19
 -1      1986 1.10946E-04-3.00960E-05-3.44285E-05 3.43206E-05-7.88535E-19 1.10442E-18
 -1      1987 1.10564E-04-2.99705E-05-3.46301E-05 1.69951E-05-1.88518E-19 1.63882E-18
 -1      1988 1.16545E-04-3.15936E-05-3.62898E-05 2.02999E-05-2.10911E-19 1.51987E-18
 -1      1989 1.06137E-04-2.65777E-05-3.39679E-05 2.61631E-05-4.48741E-19 1.04593E-18
 -1      1990 1.05337E-04-2.93920E-05-3.26041E-05 1.09054E-05-6.88982E-19 2.04120E-18
 -1      1991 1.09413E-04-3.02162E-05-3.38328E-05 1.34536E-05-8.98543E-19 1.89367E-18
 -1      1992 1.03185E-04-2.65633E-05-3.27718E-05 1.79290E-05-9.44323E-19 1.13258E-18
 -1      1993 1.01755E-04-2.91282E-05-3.11471E-05 6.73623E-06-4.96282E-19 2.37308E-18
 -1      1994 1.04390E-04-2.95790E-05-3.19658E-05 8.44937E-06-2.81519E-19 2.57983E-18
 -1      1995 1.00933E-04-2.72599E-05-3.15398E-05 1.15830E-05-6.83622E-19 1.99863E-18
 -1      1996 9.94565E-05-2.89667E-05-3.02161E-05 4.17373E-06 5.12475E-19 1.49476E-18
 -1      1997 1.01060E-04-2.92132E-05-3.07150E-05 5.21963E-06-2.52594E-19 1.24140E-18
 -1      1998 9.92130E-05-2.78346E-05-3.05775E-05 7.29677E-06-1.70353E-19 1.00030E-18
 -1      1999 9.78539E-05-2.88396E-05-2.95781E-05 2.48124E-06-2.75782E-20 1.17490E-18
 -1      2000 9.88970E-05-2.89972E-05-2.99037E-05 3.15537E-06 4.22841E-19 1.72208E-18
 -1      2001 9.79344E-05-2.81829E-05-2.98845E-05 4.51379E-06 3.30872E-19-1.92991E-19
 -1      2002 9.68422E-05-2.87498E-05-2.91810E-05 1.45850E-06-6.85203E-20 9.92476E-19
 -1      2003 9.74719E-05-2.88414E-05-2.93775E-05 1.86257E-06-2.11202E-19 1.15122E-18
 -1      2004 9.70018E-05-2.83870E-05-2.94032E-05 2.71003E-06 2.22015E-20-1.13560E-19
 -1      2005 9.62107E-05-2.86873E-05-2.89369E-05 8.48542E-07 2.16213E-19 1.55150E-18
 -1      2006 9.65861E-05-2.87406E-05-2.90541E-05 1.08743E-06 1.34562E-19 1.55416E-18
 -1      2007 9.63696E-05-2.84914E-05-2.90903E-05 1.60717E-06-2.96915E-19 1.43077E-18
 -1      2008 9.58224E-05-2.86454E-05-2.87887E-05 4.88751E-07-8.68188E-19 3.86475E-18
 -1      2009 9.60437E-05-2.86761E-05-2.88579E-05 6.28570E-07-8.84715E-19 2.54571E-18
 -1      2010 9.59534E-05-2.85419E-05-2.88914E-05 9.43001E-07-8.87762E-19 3.05341E-18
 -1      2011 9.55865E-05-2.86182E-05-2.86996E-05 2.78646E-07-3.25499E-19 4.12607E-18
 -1      2012 9.57156E-05-2.86356E-05-2.87401E-05 3.59701E-07 3.95975E-19 4.85695E-18
 -1      2013 9.56854E-05-2.85649E-05-2.87669E-05 5.47806E-07-1.00983E-18 3.62977E-18
 -1      2014 9.54445E-05-2.86008E-05-2.86465E-05 1.57196E-07-7.83780E-19 3.20428E-18
 -1      2015 9.55191E-05-2.86106E-05-2.86700E-05 2.03713E-07-9.41131E-19 3.77668E-18
 -1      2016 9.55157E-05-2.85744E-05-2.86900E-05 3.15154E-07-6.51180E-19 4.11161E-18
 -1      2017 9.53596E-05-2.85898E-05-2.86151E-05 8.77464E-08 1.92850E-19 2.45407E-18
 -1      2018 9.54024E-05-2.85952E-05-2.86287E-05 1.14151E-07-1.52493E-19 2.56475E-18
 -1      2019 9.54094E-05-2.85775E-05-2.86429E-05 1.79607E-07 8.01166E-21 2.27882E-18
 -1      2020 9.53092E-05-2.85828E-05-2.85967E-05 4.84815E-08 1.46746E-18 2.88792E-18
 -1      2021 9.53335E-05-2.85858E-05-2.86044E-05 6.32941E-08 8.44148E-19 2.87506E-18
 -1      2022 9.53433E-05-2.85778E-05-2.86143E-05 1.01458E-07 6.33088E-19 1.94947E-18
 -1      2023 9.52793E-05-2.85784E-05-2.85858E-05 2.65390E-08 9.13900E-19 2.69509E-18
 -1      2024 9.52930E-05-2.85801E-05-2.85903E-05 3.47484E-08 9.58400E-19 2.92943E-18
 -1      2025 9.53025E-05-2.85769E-05-2.85970E-05 5.68707E-08 5.48589E-19 2.47616E-18
 -1      2026 9.52616E-05-2.85756E-05-2.85795E-05 1.44164E-08 8.88814E-19 2.68094E-18
 -1      2027 9.52693E-05-2.85766E-05-2.85820E-05 1.88969E-08 1.14421E-18 2.76133E-18
 -1      2028 9.52772E-05-2.85757E-05-2.85866E-05 3.16816E-08 1.25606E-18 2.04665E-18
 -1      2029 9.52515E-05-2.85739E-05-2.85760E-05 8.01354E-09 7.63459E-19 1.46511E-18
 -1      2030 9.52556E-05-2.85744E-05-2.85774E-05 1.03812E-08 7.44348E-19 2.66905E-18
 -1      2031 9.52619E-05-2.85746E-05-2.85805E-05 1.77654E-08 1.31187E-18 3.22327E-18
 -1      2032 9.52450E-05-2.85727E-05-2.85738E-05 4.25023E-09 1.87170E-18-1.21406E-18
 -1      2033 9.52475E-05-2.85730E-05-2.85746E-05 5.61417E-09 1.25390E-18-3.92553E-19
 -1      2034 9.52523E-05-2.85735E-05-2.85767E-05 9.99446E-09 2.57538E-18 5.95434E-19
 -1      2035 9.52411E-05-2.85719E-05-2.85725E-05 2.18713E-09 1.55766E-18-2.08607E-18
 -1      2036 9.52425E-05-2.85721E-05-2.85729E-05 2.93632E-09 1.96963E-18-2.31474E-18
 -1      2037 9.52461E-05-2.85727E-05-2.85744E-05 5.47148E-09 2.51330E-18-2.13556E-18
 -1      2038 9.52389E-05-2.85714E-05-2.85717E-05 1.03219E-09-1.29843E-18-2.10492E-18
 -1      2039 9.52396E-05-2.85715E-05-2.85720E-05 1.45157E-09 5.77547E-19-2.07342E-18
 -1      2040 9.52422E-05-2.85721E-05-2.85730E-05 2.91963E-09 3.87238E-19-2.21916E-18
 -1      2041 9.52375E-05-2.85711E-05-2.85713E-05 3.61528E-10-4.60726E-19-3.02041E-18
 -1      2042 9.52379E-05-2.85712E-05-2.85714E-05 6.06855E-10-2.75487E-18-2.56518E-18
 -1      2043 9.52398E-05-2.85716E-05-2.85721E-05 1.44740E-09-1.51751E-18-2.87715E-18
 -1      2044 9.52368E-05-2.85710E-05-2.85711E-05-4.71029E-11 4.58993E-19-3.18392E-18
 -1      2045 9.52370E-05-2.85710E-05-2.85711E-05 1.04711E-10 1.36076E-18-2.53773E-18
 -1      2046 9.52383E-05-2.85713E-05-2.85716E-05 5.67918E-10-1.73698E-19-2.50047E-18
 -1      2047 9.52365E-05-2.85709E-05-2.85710E-05-3.07547E-10 1.22296E-18-2.76071E-18
 -1      2048 9.52365E-05-2.85709E-05-2.85710E-05-2.08879E-10 6.13245E-19-3.36759E-18
 -1      2049 9.52375E-05-2.85711E-05-2.85713E-05 2.06253E-11 8.48976E-19-2.10581E-18
 -1      2050 9.52364E-05-2.85709E-05-2.85709E-05-4.74301E-10-2.26012E-19-2.18818E-18
 -1      2051 9.52363E-05-2.85709E-05-2.85709E-05-4.10485E-10 4.09292E-19-2.31585E-18
 -1      2052 9.52370E-05-2.85710E-05-2.85712E-05-3.29932E-10 3.31552E-19-1.66684E-18
 -1      2053 9.52366E-05-2.85710E-05-2.85710E-05-5.66546E-10-3.43093E-19-1.09781E-18
 -1      2054 9.52364E-05-2.85709E-05-2.85709E-05-5.33140E-10-1.29989E-20-1.15183E-18
 -1      2055 9.52369E-05-2.85710E-05-2.85711E-05-5.49016E-10-3.95988E-19-8.07078E-19
 -1      2056 9.52367E-05-2.85710E-05-2.85710E-05-5.74637E-10-1.77947E-18 1.19294E-18
 -1      2057 9.52366E-05-2.85710E-05-2.85710E-05-5.78894E-10-2.77429E-18-3.78893E-19
 -1      2058 9.52368E-05-2.85711E-05-2.85711E-05-6.59018E-10-2.19663E-18 1.66459E-18
 -1      2059 9.52370E-05-2.85712E-05-2.85711E-05-4.68559E-10-2.93025E-18-1.22798E-21
 -1      2060 9.52368E-05-2.85711E-05-2.85710E-05-5.34409E-10-1.21333E-18 1.02053E-18
 -1      2061 9.52369E-05-2.85711E-05-2.85711E-05-6.46912E-10-1.95313E-18 2.50412E-18
 -1      2062 9.52371E-05-2.85713E-05-2.85711E-05-3.67668E-10-1.13908E-19-1.88051E-18
 -1      2063 9.52370E-05-2.85712E-05-2.85711E-05-4.42693E-10-2.09860E-18-3.17677E-19
 -1      2064 9.52371E-05-2.85713E-05-2.85711E-05-5.60530E-10-7.29313E-19 1.13257E-18
 -1      2065 9.52372E-05-2.85714E-05-2.85710E-05-4.51447E-10 4.37816E-19 1.11401E-18
 -1      2066 9.52374E-05-2.85717E-05-2.85710E-05-2.92569E-10-2.10161E-18-4.51293E-18
 -1      2067 9.52374E-05-2.85716E-05-2.85710E-05-3.80347E-10-1.17772E-18-4.16768E-18
 -1      2068 9.52373E-05-2.85716E-05-2.85710E-05-4.51350E-10-9.01333E-19-2.20618E-18
 -1      2069 9.52373E-05-2.85715E-05-2.85710E-05-4.66522E-10 1.98246E-19-1.02036E-18
 -1      2070 9.52372E-05-2.85714E-05-2.85711E-05-5.47479E-10-1.90218E-18 1.97932E-19
 -1      2071 9.52374E-05-2.85715E-05-2.85711E-05-4.81713E-10-1.43051E-18-3.39559E-18
 -1      2072 9.52374E-05-2.85717E-05-2.85710E-05-3.10024E-11-2.63797E-18-3.70638E-19
 -1      2073 9.52374E-05-2.85717E-05-2.85710E-05-1.43079E-10-1.79752E-18-2.10808E-18
 -1      2074 9.52374E-05-2.85715E-05-2.85711E-05-2.30740E-10-1.91538E-18-3.27176E-18
 -1      2075 9.52374E-05-2.85716E-05-2.85711E-05 2.17427E-10-3.97393E-18 1.13942E-18
 -1      2076 9.52374E-05-2.85716E-05-2.85710E-05 1.19096E-10-3.38519E-18 1.19123E-19
 -1      2077 9.52374E-05-2.85714E-05-2.85712E-05 1.02256E-10-1.42052E-18-1.87538E-18
 -1      2078 9.52373E-05-2.85713E-05-2.85711E-05 3.93032E-10-5.80736E-18 1.04261E-18
 -1      2079 9.52373E-05-2.85714E-05-2.85711E-05 3.30743E-10-5.65307E-18 1.77865E-18
 -1      2080 9.52373E-05-2.85711E-05-2.85712E-05 3.94131E-10-3.45307E-18-3.83007E-19
 -1      2081 9.52371E-05-2.85710E-05-2.85712E-05 4.53393E-10-4.90133E-18 1.02911E-18
 -1      2082 9.52372E-05-2.85712E-05-2.85711E-05 4.40655E-10-6.51223E-18 9.06058E-19
 -1      2083 9.52371E-05-2.85708E-05-2.85713E-05 5.69697E-10-5.16871E-18 3.25469E-19
 -1      2084 9.52370E-05-2.85708E-05-2.85712E-05 3.96006E-10-5.33612E-18 2.90187E-18
 -1      2085 9.52370E-05-2.85709E-05-2.85712E-05 4.30055E-10-4.30185E-18 1.89423E-18
 -1      2086 9.52369E-05-2.85705E-05-2.85713E-05 5.91347E-10-3.70436E-18 2.25487E-18
 -1      2087 9.52369E-05-2.85706E-05-2.85713E-05 2.49471E-10-5.54728E-18 3.51778E-19
 -1      2088 9.52369E-05-2.85707E-05-2.85713E-05 3.15283E-10-6.20202E-18 2.20471E-18
 -1      2089 9.52368E-05-2.85703E-05-2.85714E-05 4.68434E-10-3.95233E-18 1.71927E-18
 -1      2090 9.52369E-05-2.85705E-05-2.85713E-05 6.49873E-11-3.16918E-18-1.73301E-18
 -1      2091 9.52369E-05-2.85705E-05-2.85713E-05 1.39326E-10-3.41403E-18-1.29410E-18
 -1      2092 9.52367E-05-2.85701E-05-2.85714E-05 2.47647E-10-4.47733E-18 1.09745E-18
 -1      2093 9.52369E-05-2.85706E-05-2.85713E-05-9.41763E-11-2.96115E-18 1.21160E-19
 -1      2094 9.52369E-05-2.85705E-05-2.85713E-05-3.75377E-11-2.42090E-18 9.21314E-21
 -1      2095 9.52367E-05-2.85701E-05-2.85714E-05 2.07983E-12-1.93246E-18-1.19247E-19
 -1      2096 9.52370E-05-2.85707E-05-2.85713E-05-1.78740E-10-1.44356E-18 1.05484E-18
 -1      2097 9.52370E-05-2.85707E-05-2.85713E-05-1.59114E-10-1.75930E-18-8.21327E-21
 -1      2098 9.52368E-05-2.85703E-05-2.85714E-05-1.92452E-10 3.61965E-19 7.64644E-19
 -1      2099 9.52371E-05-2.85709E-05-2.85712E-05-1.52330E-10-2.35904E-18 1.63935E-18
 -1      2100 9.52371E-05-2.85708E-05-2.85712E-05-1.83493E-10-1.72332E-18 3.05198E-18
 -1      2101 9.52370E-05-2.85705E-05-2.85713E-05-2.76272E-10-9.20166E-19 1.46176E-18
 -1      2102 9.52372E-05-2.85711E-05-2.85712E-05-4.09123E-11-1.38694E-18-1.59421E-18
 -1      2103 9.52372E-05-2.85710E-05-2.85712E-05-1.03263E-10-1.93615E-18-7.18232E-19
 -1      2104 9.52371E-05-2.85708E-05-2.85713E-05-2.15611E-10-2.24194E-20 4.72845E-19
 -1      2105 1.06478E-04-5.84877E-05-2.16503E-05 3.05781E-05 3.47284E-18 1.75632E-18
 -1      2106 7.93569E-05-5.39277E-05-1.28694E-05 2.79508E-05 2.26200E-18 1.71924E-18
 -1      2107 9.52371E-05-2.85711E-05-2.85711E-05 1.24346E-10 9.54024E-19 2.71127E-18
 -1      2108 9.14857E-06-3.44060E-05 9.75043E-06-1.19004E-05 3.32434E-18 2.46232E-18
 -1      2109 1.08864E-05-3.12098E-05 8.02066E-06-2.10185E-05 2.68975E-18 2.61903E-18
 -1      2110 8.72798E-05-8.78155E-06-3.37375E-05-1.05161E-05 8.49127E-19-2.05143E-18
 -1      2111 8.79888E-05-9.29565E-06-3.38134E-05-1.20845E-05 6.72928E-19-2.26551E-18
 -1      2112 9.05358E-05-1.31216E-05-3.32262E-05-1.18795E-05 5.43567E-19-2.16073E-18
 -1      2113 8.87337E-05-1.11458E-05-3.32784E-05-9.38636E-06 9.25509E-19-1.87369E-18
 -1      2114 1.62598E-04-7.17590E-05-3.98574E-05 1.56057E-05 3.66003E-18 1.32984E-18
 -1      2115 1.27204E-04-6.47757E-05-2.89862E-05 2.04542E-05 3.99080E-18 1.64451E-18
 -1      2116 2.13164E-04-6.48736E-05-6.31768E-05-2.31896E-05 3.94040E-18 2.98749E-18
 -1      2117 2.26472E-04-4.90270E-05-7.26930E-05 1.79247E-05 5.79371E-19 4.14496E-18
 -1      2118 1.19383E-04-6.35608E-05-2.62413E-05-2.25461E-05-2.21499E-18 7.40730E-19
 -1      2119 1.52131E-04-6.95312E-05-3.64453E-05-2.06393E-05-1.95749E-18 9.28772E-19
 -1      2120 6.84830E-05-5.07447E-05-9.42413E-06-2.89655E-05-3.24498E-18-1.08590E-18
 -1      2121 9.50551E-05-5.53882E-05-1.78385E-05-3.35893E-05-2.52585E-18-8.45868E-19
 -1      2122 2.42918E-05-4.22038E-05 5.55958E-06-1.36522E-05-3.18421E-18-1.00373E-18
 -1      2123 3.93095E-05-4.07151E-05-5.10971E-07-2.51811E-05-2.83290E-18-1.77517E-18
 -1      2124 9.63424E-06-3.90459E-05 1.09602E-05 4.19755E-06-2.84600E-18 1.08081E-18
 -1      2125 1.32746E-05-3.76558E-05 9.09667E-06-5.07771E-06-2.87292E-18 1.26631E-19
 -1      2126 1.26686E-05-3.59765E-05 8.88638E-06 2.28989E-05-2.53093E-18 1.22185E-18
 -1      2127 9.94375E-06-3.99961E-05 1.12419E-05 1.46185E-05-2.93603E-18 1.50560E-18
 -1      2128 3.45686E-05-3.57350E-05-7.84311E-08 4.15982E-05-1.74023E-18 4.94879E-19
 -1      2129 2.42440E-05-3.88770E-05 4.98042E-06 3.32197E-05-2.06549E-18 5.61795E-19
 -1      2130 6.93168E-05-3.90257E-05-1.31388E-05 5.21624E-05-1.36372E-18 6.92291E-19
 -1      2131 5.28357E-05-4.20424E-05-5.75057E-06 4.53647E-05-1.75844E-18 7.97587E-19
 -1      2132 1.09391E-04-4.02793E-05-2.94370E-05 5.33595E-05-8.58468E-19 1.45266E-19
 -1      2133 8.82724E-05-4.26625E-05-2.04805E-05 4.88365E-05-1.14773E-18 1.73006E-19
 -1      2134 1.50737E-04-4.17388E-05-4.61867E-05 4.26751E-05-2.06676E-19 2.00323E-19
 -1      2135 1.29063E-04-4.27466E-05-3.74200E-05 4.38698E-05-5.53960E-19 1.88465E-19
 -1      2136 1.82811E-04-3.47714E-05-6.21352E-05 2.97936E-05-1.81953E-18 1.83764E-18
 -1      2137 1.62641E-04-3.57618E-05-5.44005E-05 3.14782E-05-1.00037E-18 7.56400E-19
 -1      2138 2.02514E-04-2.98823E-05-7.25607E-05 1.57528E-05-2.06930E-18 2.50934E-18
 -1      2139 1.89313E-04-2.91310E-05-6.79469E-05 2.42567E-05-2.17476E-18 2.06422E-18
 -1      2140 2.01751E-04-2.36136E-05-7.54763E-05-1.16489E-06-1.88380E-18 2.52805E-18
 -1      2141 2.04046E-04-2.61320E-05-7.48932E-05 9.42147E-06-2.11885E-18 2.41193E-18
 -1      2142 1.95103E-04-2.56281E-05-7.18129E-05-1.43499E-05-8.41951E-19 3.04720E-18
 -1      2143 1.97613E-04-2.33543E-05-7.38732E-05-4.69732E-06-1.34085E-18 2.74714E-18
 -1      2144 1.78934E-04-2.97730E-05-6.35802E-05-2.54585E-05-4.29446E-19 2.87144E-18
 -1      2145 1.94148E-04-3.04144E-05-6.90750E-05-2.00715E-05-5.84453E-19 3.23609E-18
 -1      2146 1.73935E-04-1.87926E-05-6.54255E-05-2.05581E-06-3.18908E-19 1.48125E-18
 -1      2147 1.52171E-04-3.60962E-05-4.97780E-05-4.08236E-05-1.15302E-18 2.49663E-18
 -1      2148 1.71803E-04-3.61865E-05-5.72540E-05-3.68360E-05-9.97646E-19 2.57498E-18
 -1      2149 1.17813E-04-3.98485E-05-3.39767E-05-4.77035E-05-6.94567E-19 2.52839E-18
 -1      2150 1.39082E-04-3.76683E-05-4.27227E-05-5.02858E-05-1.09521E-18 2.67281E-18
 -1      2151 7.96270E-05-4.19899E-05-1.71405E-05-4.94388E-05 1.16001E-18 4.30716E-18
 -1      2152 9.96718E-05-3.95885E-05-2.55901E-05-5.46144E-05-1.92276E-19 3.33435E-18
 -1      2153 4.47812E-05-4.07575E-05-3.06011E-06-4.28369E-05 1.94733E-18 3.48078E-18
 -1      2154 5.89401E-05-3.64633E-05-1.00087E-05-4.99592E-05 1.12317E-18 4.62189E-18
 -1      2155 2.08785E-05-3.68335E-05 5.74294E-06-3.22416E-05 2.43691E-18 1.94818E-18
 -1      2156 3.04016E-05-3.49855E-05 1.34224E-06-3.95380E-05 1.20660E-18 2.56863E-18
 -1      2157 1.00110E-04-2.25709E-05-3.29557E-05 1.45033E-05 4.09090E-19 4.35195E-18
 -1      2158 1.71812E-05-3.07278E-05 5.33636E-06 1.14070E-05 2.47122E-18 6.63650E-19
 -1      2159 1.09150E-05-3.44141E-05 8.79483E-06-9.50693E-07 2.95350E-18 8.25010E-19
 -1      2160 1.11608E-05-1.75727E-05 2.31876E-06-3.37356E-06 1.60163E-18 9.44865E-19
 -1      2161 9.98975E-05-2.25756E-05-3.28572E-05-1.44739E-05-4.91809E-19-2.84471E-18
 -1      2162 9.52372E-05-2.85711E-05-2.85712E-05 2.71876E-11 1.55764E-18 2.75754E-18
 -1      2163 2.10195E-04-7.37614E-05-5.75471E-05-1.53163E-05 4.00980E-18 1.81265E-18
 -1      2164 3.13122E-05-2.84634E-05-1.74580E-06 2.20178E-05 8.96161E-19 1.25446E-18
 -1      2165 8.03953E-05-5.04464E-05-1.39141E-05 3.55647E-05-1.49925E-19 9.26019E-19
 -1      2166 1.89432E-04-6.76425E-05-5.17647E-05 5.43603E-06-1.21613E-18 2.51992E-18
 -1      2167 1.77996E-04-7.42759E-05-4.42690E-05-3.99675E-06-1.97105E-18 2.00535E-18
 -1      2168 9.72638E-05-2.43525E-05-3.13225E-05-1.00209E-05-4.01758E-19-2.85342E-18
 -1      2169 9.64071E-05-2.31537E-05-3.14595E-05-1.04279E-05-3.14924E-19-2.37335E-18
 -1      2170 9.65698E-05-2.31331E-05-3.15532E-05 1.02060E-05 6.92820E-19 3.19081E-18
 -1      2171 9.74866E-05-2.43912E-05-3.14067E-05 9.91920E-06 5.00491E-19 4.12452E-18
 -1      2172 1.34412E-04-5.84334E-05-3.22599E-05-2.78428E-05-2.42611E-18 1.85286E-18
 -1      2173 9.93789E-05-4.66773E-05-2.21799E-05-4.05427E-05-2.19720E-18-4.44798E-19
 -1      2174 1.34257E-04-6.79406E-05-2.90393E-05 2.51786E-05 1.67374E-18-4.41410E-19
 -1      2175 1.72707E-04-7.36708E-05-4.18112E-05-3.45522E-06-2.28508E-18 2.98452E-18
 -1      2176 5.23493E-05-3.79899E-05-6.41314E-06 5.07778E-05-9.71547E-19 9.52700E-19
 -1      2177 1.62132E-04-6.76843E-05-3.96880E-05-1.71971E-05-2.29292E-18 2.94947E-18
 -1      2178 9.52372E-05-2.85711E-05-2.85712E-05 5.41001E-13 4.25036E-19 7.61879E-20
 -1      2179 1.84523E-05-2.31720E-05 1.60695E-06-3.07949E-05 1.33408E-18 2.48985E-18
 -1      2180 2.05094E-05-2.76843E-05 2.51053E-06 3.37104E-05-1.33471E-18 1.34255E-18
 -1      2181 4.48765E-05-3.52866E-05-4.58409E-06-4.88913E-05 6.04782E-19 3.58655E-18
 -1      2182 8.20170E-05-4.59039E-05-1.55977E-05-5.45694E-05 1.39676E-18 4.63896E-18
 -1      2183 1.21971E-04-5.15220E-05-2.99856E-05-4.68731E-05-6.05629E-20 2.35073E-18
 -1      2184 1.70797E-04-3.47934E-05-5.74187E-05-1.45838E-05-1.02915E-19 1.73430E-18
 -1      2185 1.78031E-04-1.26235E-05-6.98941E-05 8.53094E-08-1.57590E-18 1.49226E-18
 -1      2186 1.80975E-04-1.69221E-05-6.89759E-05 2.84988E-06-2.59700E-18 1.51449E-18
 -1      2187 1.74813E-04-2.96598E-05-6.12425E-05 8.51217E-06-2.13728E-18 1.37897E-18
 -1      2188 1.60235E-04-4.63390E-05-4.82775E-05 2.23957E-05-8.58627E-19 4.29869E-19
 -1      2189 1.31239E-04-5.29673E-05-3.31963E-05 4.24556E-05-6.32945E-19 6.76356E-19
 -1      2190 9.19196E-05-4.88859E-05-1.85193E-05 5.29438E-05-7.10661E-19 1.10411E-18
 -1      2191 9.18651E-06-2.47968E-05 5.78777E-06 8.04020E-06-1.56945E-18 1.10326E-18
 -1      2192 2.21327E-05-2.87993E-05 1.91540E-06-1.66597E-05-1.88740E-18-7.38613E-19
 -1      2193 1.86175E-04-7.38289E-05-4.89501E-05-1.00814E-05 4.09371E-18 1.16509E-18
 -1      2194 6.59706E-05-4.38704E-05-1.00258E-05-3.43664E-05-2.40896E-18-1.46261E-18
 -1      2195 1.24890E-04-6.36642E-05-2.66204E-05-2.84075E-05-2.66604E-18 4.59939E-19
 -1      2196 2.19377E-04-7.00153E-05-6.10649E-05 1.61994E-05-8.32580E-19 3.04762E-18
 -1      2197 2.25823E-04-6.71615E-05-6.69455E-05 2.19781E-05-6.15793E-19 4.73661E-18
 -1      2198 9.52372E-05-2.85709E-05-2.85713E-05-1.26207E-10 2.17545E-18 5.27289E-19
 -1      2199 1.52767E-04-4.69322E-05-4.46619E-05-3.20467E-05-4.89056E-19 1.29554E-18
 -1      2200 1.85372E-05-1.22295E-05-2.15053E-06-2.42163E-05 7.15319E-19 2.90193E-18
 -1      2201 2.84344E-05-1.82543E-05-3.90907E-06-3.87517E-05 2.45851E-19 2.89135E-18
 -1      2202 8.81508E-05-1.12608E-05-3.29922E-05-3.50783E-06 1.48654E-18-9.16569E-19
 -1      2203 8.84122E-05-1.15543E-05-3.29748E-05-4.67255E-06 1.40502E-18-1.15428E-18
 -1      2204 8.87854E-05-1.20605E-05-3.29264E-05-5.72835E-06 1.32037E-18-1.24151E-18
 -1      2205 8.92034E-05-1.25399E-05-3.28995E-05-6.92854E-06 1.19627E-18-1.46383E-18
 -1      2206 8.99713E-05-1.39780E-05-3.25695E-05-4.77650E-06 1.34444E-18-1.13839E-18
 -1      2207 8.76265E-05-1.06092E-05-3.30427E-05 8.01433E-07 1.65307E-18-1.68573E-19
 -1      2208 8.76661E-05-1.06464E-05-3.30403E-05-2.99488E-07 1.64626E-18-3.67348E-19
 -1      2209 8.77243E-05-1.07271E-05-3.30345E-05 2.88717E-06 1.67897E-18 1.66462E-19
 -1      2210 8.76425E-05-1.06315E-05-3.30386E-05 1.79968E-06 1.65368E-18-4.93661E-20
 -1      2211 8.88993E-05-1.25991E-05-3.27031E-05 1.27616E-06 1.56910E-18-1.00413E-19
 -1      2212 8.81188E-05-1.11966E-05-3.30050E-05 4.91827E-06 1.71552E-18 5.68002E-19
 -1      2213 8.78887E-05-1.09428E-05-3.30152E-05 3.84247E-06 1.70175E-18 3.41745E-19
 -1      2214 8.90722E-05-1.28277E-05-3.26765E-05 3.17013E-06 1.57647E-18 2.68655E-19
 -1      2215 8.89181E-05-1.21476E-05-3.29473E-05 6.98522E-06 1.70903E-18 1.06425E-18
 -1      2216 8.84806E-05-1.16658E-05-3.29661E-05 5.86687E-06 1.70547E-18 7.92049E-19
 -1      2217 8.95931E-05-1.34916E-05-3.26114E-05 4.99960E-06 1.62450E-18 7.10164E-19
 -1      2218 9.02696E-05-1.37781E-05-3.28449E-05 9.02754E-06 1.55311E-18 1.61135E-18
 -1      2219 8.95448E-05-1.29557E-05-3.28787E-05 7.88957E-06 1.63145E-18 1.25361E-18
 -1      2220 9.05686E-05-1.47323E-05-3.24913E-05 6.75178E-06 1.53141E-18 1.11632E-18
 -1      2221 9.23994E-05-1.64610E-05-3.26414E-05 1.08466E-05 1.35806E-18 2.20041E-18
 -1      2222 9.12609E-05-1.50534E-05-3.27202E-05 9.80553E-06 1.47573E-18 1.88675E-18
 -1      2223 9.21020E-05-1.67437E-05-3.22781E-05 8.28516E-06 1.41017E-18 1.66452E-18
 -1      2224 9.55951E-05-2.09045E-05-3.20767E-05 1.10696E-05 9.40365E-19 2.87959E-18
 -1      2225 9.37617E-05-1.85033E-05-3.22877E-05 1.07445E-05 1.18885E-18 2.37151E-18
 -1      2226 9.42068E-05-1.99871E-05-3.17801E-05 8.73973E-06 1.14629E-18 2.16870E-18
 -1      2227 9.58456E-05-2.38395E-05-3.08524E-05 7.34500E-06 8.52327E-19 2.63736E-18
 -1      2228 1.89826E-05-8.20376E-06-3.90661E-06 5.83370E-06 1.68083E-19 5.25160E-20
 -1      2229 1.60287E-05-8.13087E-06-2.71743E-06-9.14161E-06 2.03076E-19 1.72795E-18
 -1      2230 9.59720E-05-2.51923E-05-3.02879E-05-6.29996E-06-1.31561E-19-1.82295E-18
 -1      2231 9.52969E-05-2.59701E-05-2.97316E-05-4.43973E-06-1.43473E-19-1.73746E-18
 -1      2232 6.72312E-05-3.49272E-05-1.37431E-05-3.71676E-05-1.77708E-18-1.04926E-18
 -1      2233 9.51910E-05-2.66885E-05-2.92999E-05-3.17100E-06-2.90579E-19-1.48797E-18
 -1      2234 9.46877E-05-2.70858E-05-2.89768E-05-2.19299E-06-1.86648E-19-1.55594E-18
 -1      2235 9.54241E-05-2.55524E-05-2.99512E-05-4.50991E-06-1.04794E-19-1.44751E-18
 -1      2236 9.45043E-05-2.74645E-05-2.86915E-05-1.45375E-06-1.45692E-19-1.35282E-18
 -1      2237 9.41903E-05-2.77124E-05-2.84948E-05-9.83568E-07-3.55125E-20-1.42761E-18
 -1      2238 9.51433E-05-2.69945E-05-2.92192E-05-2.32500E-06-1.02654E-19-1.02934E-18
 -1      2239 9.40540E-05-2.79574E-05-2.83028E-05-6.47206E-07-2.89675E-20-1.42886E-18
 -1      2240 9.38631E-05-2.81393E-05-2.81743E-05-5.11464E-07 4.03856E-20-1.34734E-18
 -1      2241 9.48682E-05-2.78705E-05-2.87256E-05-1.14177E-06-5.84556E-20-9.85682E-19
 -1      2242 9.37862E-05-2.83276E-05-2.80390E-05-4.77809E-07 4.16539E-20-1.40890E-18
 -1      2243 9.36450E-05-2.84694E-05-2.79426E-05-5.85164E-07 2.94929E-20-1.23447E-18
 -1      2244 9.46936E-05-2.84854E-05-2.83844E-05-7.09015E-07-6.13213E-20-1.09985E-18
 -1      2245 9.36052E-05-2.86260E-05-2.78396E-05-7.90941E-07-3.96931E-20-1.29952E-18
 -1      2246 9.34481E-05-2.87255E-05-2.77517E-05-1.08690E-06-1.01888E-19-1.35079E-18
 -1      2247 9.46081E-05-2.89686E-05-2.81370E-05-8.54843E-07 4.23620E-21-1.04320E-18
 -1      2248 9.34091E-05-2.88469E-05-2.76651E-05-1.48680E-06-6.54531E-20-1.38795E-18
 -1      2249 9.31795E-05-2.88852E-05-2.75703E-05-1.92756E-06-3.03972E-20-1.35781E-18
 -1      2250 9.45541E-05-2.93540E-05-2.79450E-05-1.46412E-06-1.02981E-19-1.29450E-18
 -1      2251 9.30956E-05-2.89475E-05-2.74913E-05-2.47538E-06-3.07844E-19-1.25286E-18
 -1      2252 9.27460E-05-2.88929E-05-2.73814E-05-3.00878E-06-4.57363E-19-1.20210E-18
 -1      2253 9.44503E-05-2.96141E-05-2.77853E-05-2.44092E-06-1.44374E-19-9.52475E-19
 -1      2254 9.25648E-05-2.88564E-05-2.73068E-05-3.63928E-06-4.43695E-19-9.98508E-19
 -1      2255 9.20617E-05-2.86714E-05-2.71799E-05-4.19048E-06-4.94881E-19-1.00824E-18
 -1      2256 9.41979E-05-2.96749E-05-2.76475E-05-3.66994E-06-4.28333E-19-6.78186E-19
 -1      2257 9.17322E-05-2.84902E-05-2.71110E-05-4.80457E-06-6.02412E-19-7.87609E-19
 -1      2258 9.10655E-05-2.81443E-05-2.69717E-05-5.26922E-06-5.76262E-19-9.43810E-19
 -1      2259 9.36910E-05-2.94334E-05-2.75305E-05-4.98112E-06-4.34103E-19-6.15441E-19
 -1      2260 9.05554E-05-2.77849E-05-2.69125E-05-5.72973E-06-5.85759E-19-8.38110E-19
 -1      2261 8.97524E-05-2.72748E-05-2.67706E-05-5.98074E-06-2.62076E-19-8.88574E-19
 -1      2262 9.28423E-05-2.87929E-05-2.74398E-05-6.12720E-06-5.28726E-19 2.43387E-19
 -1      2263 8.90741E-05-2.67432E-05-2.67255E-05-6.12836E-06-1.99463E-19-1.09142E-18
 -1      2264 8.82099E-05-2.61147E-05-2.65943E-05-6.04167E-06-4.12644E-19-1.09226E-18
 -1      2265 9.16285E-05-2.77193E-05-2.73817E-05-6.79267E-06-4.16617E-19 3.58759E-20
 -1      2266 8.74445E-05-2.54803E-05-2.65657E-05-5.73750E-06-7.49515E-19-9.86692E-19
 -1      2267 8.66413E-05-2.48376E-05-2.64591E-05-5.23533E-06-7.83836E-19-9.90229E-19
 -1      2268 9.01435E-05-2.63044E-05-2.73581E-05-6.65312E-06-4.76462E-19-4.30658E-19
 -1      2269 8.59389E-05-2.42353E-05-2.64461E-05-4.42262E-06-7.09067E-19-1.03755E-18
 -1      2270 8.53437E-05-2.37237E-05-2.63765E-05-3.51886E-06-6.84474E-19-1.33472E-18
 -1      2271 8.86258E-05-2.47986E-05-2.73633E-05-5.48757E-06-7.52265E-19-1.41903E-19
 -1      2272 8.48846E-05-2.33180E-05-2.63756E-05-2.27485E-06-7.94302E-19-1.33929E-18
 -1      2273 8.46269E-05-2.30754E-05-2.63514E-05-1.09627E-06-7.52810E-19-1.58781E-18
 -1      2274 8.74202E-05-2.35684E-05-2.73843E-05-3.30686E-06-1.00547E-18-5.71356E-19
 -1      2275 8.45493E-05-2.29927E-05-2.63590E-05 3.63952E-07-4.87433E-19-1.77551E-18
 -1      2276 8.46947E-05-2.30914E-05-2.63841E-05 1.60344E-06-4.57343E-19-1.67009E-18
 -1      2277 8.68611E-05-2.29703E-05-2.74069E-05-4.21761E-07-7.27947E-19-8.65897E-19
 -1      2278 8.50283E-05-2.33589E-05-2.63997E-05 2.98999E-06-6.06155E-19-1.69190E-18
 -1      2279 8.55535E-05-2.37714E-05-2.64731E-05 4.05757E-06-4.43279E-19-1.79679E-18
 -1      2280 8.71250E-05-2.31919E-05-2.74228E-05 2.61844E-06-5.27766E-19-1.00048E-18
 -1      2281 8.62039E-05-2.43021E-05-2.64994E-05 5.10985E-06-5.44616E-21-1.60401E-18
 -1      2282 8.70060E-05-2.49143E-05-2.66154E-05 5.83290E-06 4.06129E-20-1.61390E-18
 -1      2283 8.81440E-05-2.41602E-05-2.74355E-05 5.21252E-06-2.52842E-19-5.81923E-19
 -1      2284 8.78030E-05-2.55524E-05-2.66565E-05 6.40743E-06 1.65595E-19-1.44794E-18
 -1      2285 8.87398E-05-2.62168E-05-2.68051E-05 6.72044E-06 6.34062E-19-1.53215E-18
 -1      2286 8.96398E-05-2.55781E-05-2.74578E-05 6.92472E-06 2.67533E-19-2.96316E-19
 -1      2287 8.95137E-05-2.68088E-05-2.68631E-05 6.81617E-06 7.80644E-19-1.88211E-18
 -1      2288 9.04499E-05-2.74008E-05-2.70308E-05 6.75794E-06 6.84842E-19-1.75919E-18
 -1      2289 9.12567E-05-2.70671E-05-2.75041E-05 7.60846E-06 5.26323E-19-9.26084E-19
 -1      2290 9.10869E-05-2.78482E-05-2.71038E-05 6.48033E-06 4.64353E-19-1.73814E-18
 -1      2291 9.19257E-05-2.82978E-05-2.72762E-05 6.15533E-06 3.81356E-19-1.34869E-18
 -1      2292 9.27007E-05-2.83188E-05-2.75825E-05 7.38776E-06 5.61919E-19-1.04511E-18
 -1      2293 9.23831E-05-2.85699E-05-2.73592E-05 5.65403E-06 5.99450E-20-1.69521E-18
 -1      2294 9.30748E-05-2.88626E-05-2.75232E-05 5.18509E-06-2.88212E-19-2.14479E-18
 -1      2295 9.38129E-05-2.91759E-05-2.76915E-05 6.54376E-06-2.14396E-19-1.06660E-18
 -1      2296 9.33646E-05-2.89802E-05-2.76090E-05 4.60032E-06-2.65092E-19-2.34882E-18
 -1      2297 9.38987E-05-2.91383E-05-2.77552E-05 4.09345E-06-1.14806E-19-2.05647E-18
 -1      2298 9.45651E-05-2.96280E-05-2.78219E-05 5.38738E-06-1.53786E-19-1.73739E-18
 -1      2299 9.40597E-05-2.91465E-05-2.78371E-05 3.52720E-06 3.59477E-19-2.16480E-18
 -1      2300 9.44508E-05-2.92084E-05-2.79600E-05 3.05528E-06 1.66612E-19-1.97858E-18
 -1      2301 9.50126E-05-2.97578E-05-2.79605E-05 4.17305E-06 1.24648E-20-1.75040E-18
 -1      2302 9.45266E-05-2.91543E-05-2.80329E-05 2.56577E-06-3.02744E-19-2.04378E-18
 -1      2303 9.48006E-05-2.91574E-05-2.81309E-05 2.16777E-06 1.79590E-19-1.56876E-18
 -1      2304 9.52420E-05-2.96794E-05-2.80946E-05 3.06576E-06-1.36946E-19-1.71578E-18
 -1      2305 9.48271E-05-2.90780E-05-2.81919E-05 1.77744E-06-1.11245E-19-1.69394E-18
 -1      2306 9.50116E-05-2.90519E-05-2.82664E-05 1.46579E-06-3.27658E-19-1.91479E-18
 -1      2307 9.53358E-05-2.94966E-05-2.82146E-05 2.14646E-06-3.44462E-19-1.52828E-18
 -1      2308 9.50137E-05-2.89710E-05-2.83148E-05 1.17364E-06-2.45419E-19-1.75413E-18
 -1      2309 9.51333E-05-2.89349E-05-2.83689E-05 9.43960E-07-1.07249E-19-2.39866E-18
 -1      2310 9.53563E-05-2.92843E-05-2.83153E-05 1.43493E-06-1.00336E-19-1.88709E-18
 -1      2311 9.51257E-05-2.88649E-05-2.84055E-05 7.36677E-07 1.69373E-19-2.72789E-18
 -1      2312 9.52002E-05-2.88295E-05-2.84432E-05 5.76158E-07 6.20816E-19-2.63727E-18
 -1      2313 9.53438E-05-2.90866E-05-2.83952E-05 9.14692E-07 3.29921E-21-2.41865E-18
 -1      2314 9.51905E-05-2.87747E-05-2.84696E-05 4.36052E-07 5.80055E-19-2.07333E-18
 -1      2315 9.52349E-05-2.87450E-05-2.84947E-05 3.29322E-07 4.71670E-19-1.25706E-18
 -1      2316 9.53208E-05-2.89236E-05-2.84555E-05 5.52727E-07 8.62274E-19-1.59497E-18
 -1      2317 9.52262E-05-2.87050E-05-2.85129E-05 2.39026E-07-4.83732E-20-1.39261E-18
 -1      2318 9.52511E-05-2.86822E-05-2.85288E-05 1.71570E-07-9.58489E-20-6.16250E-19
 -1      2319 9.52981E-05-2.88000E-05-2.84989E-05 3.12342E-07 4.84100E-19-9.81298E-19
 -1      2320 9.52445E-05-2.86548E-05-2.85409E-05 1.16278E-07 2.25398E-19-8.21838E-19
 -1      2321 9.52571E-05-2.86385E-05-2.85504E-05 7.59983E-08 4.26513E-19-1.13371E-18
 -1      2322 9.52798E-05-2.87120E-05-2.85288E-05 1.60084E-07 2.22521E-19-4.97338E-19
 -1      2323 9.52525E-05-2.86207E-05-2.85580E-05 4.41540E-08 8.46157E-20-1.43743E-18
 -1      2324 9.52579E-05-2.86095E-05-2.85633E-05 2.17700E-08-4.55225E-19-1.32753E-18
 -1      2325 9.52663E-05-2.86528E-05-2.85485E-05 6.86220E-08 7.42263E-21-5.37712E-19
 -1      2326 9.52548E-05-2.85985E-05-2.85678E-05 4.91543E-09-1.48918E-19-5.18731E-20
 -1      2327 9.52561E-05-2.85913E-05-2.85705E-05-6.26009E-09 8.33860E-19 1.67306E-19
 -1      2328 9.52570E-05-2.86148E-05-2.85608E-05 1.72211E-08 5.17297E-19 4.85797E-20
 -1      2329 9.52540E-05-2.85849E-05-2.85729E-05-1.39999E-08 6.58564E-19 2.44878E-19
 -1      2330 9.52532E-05-2.85804E-05-2.85740E-05-1.85376E-08 5.34108E-19 1.05474E-19
 -1      2331 9.52507E-05-2.85918E-05-2.85680E-05-8.97856E-09 4.97265E-19 7.39285E-19
 -1      2332 9.52518E-05-2.85769E-05-2.85752E-05-2.10582E-08 8.01609E-19 6.35111E-19
 -1      2333 9.52501E-05-2.85742E-05-2.85753E-05-2.19347E-08 4.67045E-19 1.23859E-18
 -1      2334 9.52465E-05-2.85786E-05-2.85719E-05-2.01253E-08 1.13985E-18 5.62986E-19
 -1      2335 9.52491E-05-2.85725E-05-2.85757E-05-2.17048E-08-1.37261E-19 1.10062E-18
 -1      2336 9.52471E-05-2.85710E-05-2.85755E-05-2.07662E-08-7.35354E-19 8.72666E-19
 -1      2337 9.52437E-05-2.85716E-05-2.85737E-05-2.28480E-08 1.13308E-20 1.41360E-18
 -1      2338 9.52464E-05-2.85703E-05-2.85755E-05-1.92763E-08-4.14703E-19 1.11668E-18
 -1      2339 9.52446E-05-2.85696E-05-2.85750E-05-1.76065E-08 7.18057E-19 1.83782E-18
 -1      2340 9.52418E-05-2.85684E-05-2.85743E-05-2.12868E-08-5.39218E-19 1.85811E-18
 -1      2341 9.52440E-05-2.85694E-05-2.85748E-05-1.57051E-08 1.35327E-19 1.61256E-18
 -1      2342 9.52425E-05-2.85691E-05-2.85743E-05-1.38975E-08 1.38104E-19 1.58397E-18
 -1      2343 9.52404E-05-2.85673E-05-2.85742E-05-1.79001E-08 2.05372E-19 1.58780E-18
 -1      2344 9.52421E-05-2.85692E-05-2.85740E-05-1.20303E-08 3.85110E-19 1.98984E-18
 -1      2345 9.52408E-05-2.85691E-05-2.85736E-05-1.03774E-08 9.22745E-19 1.34313E-18
 -1      2346 9.52394E-05-2.85672E-05-2.85738E-05-1.40586E-08 6.41689E-19 2.34438E-18
 -1      2347 9.52405E-05-2.85693E-05-2.85733E-05-8.74875E-09 3.32197E-19 1.05698E-18
 -1      2348 9.52396E-05-2.85694E-05-2.85730E-05-7.36812E-09-6.93743E-20 3.82438E-19
 -1      2349 9.52387E-05-2.85677E-05-2.85733E-05-1.04589E-08-2.26162E-19 2.07988E-18
 -1      2350 9.52394E-05-2.85696E-05-2.85727E-05-6.04625E-09 1.24613E-18 9.46723E-19
 -1      2351 9.52387E-05-2.85697E-05-2.85724E-05-4.96090E-09 1.87942E-18 1.34045E-18
 -1      2352 9.52382E-05-2.85683E-05-2.85728E-05-7.40009E-09 5.79487E-19 1.51833E-18
 -1      2353 9.52385E-05-2.85699E-05-2.85722E-05-3.94324E-09 8.06603E-19 7.24834E-19
 -1      2354 9.52381E-05-2.85700E-05-2.85720E-05-3.13002E-09 1.09465E-18 8.12184E-19
 -1      2355 9.52378E-05-2.85690E-05-2.85724E-05-4.96249E-09 1.29847E-18 1.63754E-18
 -1      2356 9.52379E-05-2.85702E-05-2.85719E-05-2.38225E-09 2.10390E-18 7.25873E-19
 -1      2357 9.52377E-05-2.85703E-05-2.85717E-05-1.80069E-09 1.41568E-18 1.93178E-18
 -1      2358 9.52375E-05-2.85695E-05-2.85720E-05-3.11521E-09 1.73013E-18 1.58636E-18
 -1      2359 9.52376E-05-2.85705E-05-2.85716E-05-1.27639E-09 4.14273E-19 2.36770E-18
 -1      2360 9.52374E-05-2.85706E-05-2.85715E-05-8.83938E-10 9.11114E-19 2.70907E-18
 -1      2361 9.52374E-05-2.85700E-05-2.85717E-05-1.78523E-09 1.24338E-18 1.91564E-18
 -1      2362 9.52374E-05-2.85707E-05-2.85714E-05-5.60973E-10 1.17871E-18 1.80392E-18
 -1      2363 9.52373E-05-2.85708E-05-2.85713E-05-3.26048E-10 2.47587E-18 1.80505E-18
 -1      2364 9.52372E-05-2.85707E-05-2.85713E-05-3.45023E-10 1.29952E-18 1.81833E-18
 -1      2365 9.52373E-05-2.85704E-05-2.85715E-05-8.90985E-10 3.15884E-20 2.66101E-18
 -1      2366 9.44928E-05-2.69350E-05-2.89366E-05-7.26589E-07 3.59031E-19 1.67399E-18
 -1      2367 9.46619E-05-2.68167E-05-2.90465E-05 1.67214E-07 3.07907E-19 1.76854E-18
 -1      2368 4.84493E-05-2.74908E-05-8.61099E-06 3.29656E-05-9.17125E-19 6.20452E-19
 -1      2369 2.98934E-05-1.71604E-05-5.02207E-06 2.23270E-05 2.80897E-19-2.18535E-19
 -1      2370 9.42312E-05-2.68935E-05-2.88356E-05-2.33788E-06 2.16427E-19 1.88129E-18
 -1      2371 9.42190E-05-2.69194E-05-2.88278E-05-1.56374E-06 3.07667E-19 1.71213E-18
 -1      2372 9.45159E-05-2.64617E-05-2.91734E-05-9.18277E-07 3.62140E-19 1.31446E-18
 -1      2373 9.40275E-05-2.64805E-05-2.89160E-05-3.98446E-06 3.94774E-19 1.69166E-18
 -1      2374 9.38903E-05-2.66609E-05-2.88136E-05-3.12437E-06 3.41702E-19 1.67308E-18
 -1      2375 9.39358E-05-2.62326E-05-2.90134E-05-2.63066E-06 3.77874E-19 1.27238E-18
 -1      2376 9.36852E-05-2.55902E-05-2.91397E-05-6.02106E-06 2.32487E-19 1.36036E-18
 -1      2377 9.34962E-05-2.59800E-05-2.89531E-05-4.88055E-06 3.64593E-19 1.52381E-18
 -1      2378 9.31061E-05-2.54164E-05-2.89918E-05-4.35374E-06 4.52043E-19 1.11913E-18
 -1      2379 9.28708E-05-2.40207E-05-2.94537E-05-8.81247E-06 3.88179E-20 7.94961E-19
 -1      2380 9.27497E-05-2.47068E-05-2.91996E-05-7.18354E-06 1.30810E-19 1.19744E-18
 -1      2381 9.17061E-05-2.38490E-05-2.90382E-05-6.38968E-06 3.36117E-19 1.13141E-18
 -1      2382 9.12334E-05-2.17089E-05-2.97361E-05-1.24803E-05 2.03553E-20 7.53790E-19
 -1      2383 9.12909E-05-2.26935E-05-2.94680E-05-1.03155E-05-1.44250E-19 5.45847E-19
 -1      2384 8.93038E-05-2.13411E-05-2.90371E-05-8.91876E-06 1.50716E-19 4.46846E-19
 -1      2385 8.79656E-05-1.83985E-05-2.97343E-05-1.76525E-05 1.66455E-19 9.51757E-19
 -1      2386 8.84421E-05-1.96995E-05-2.95630E-05-1.46008E-05 2.03801E-19 8.54269E-19
 -1      2387 8.51483E-05-1.76637E-05-2.87682E-05-1.22061E-05 6.29881E-20 2.41067E-19
 -1      2388 8.25580E-05-1.50507E-05-2.87807E-05-2.40879E-05 6.00765E-19 8.60612E-19
 -1      2389 8.34639E-05-1.59461E-05-2.90463E-05-2.04491E-05 3.98546E-19 8.79670E-19
 -1      2390 7.81367E-05-1.27947E-05-2.77226E-05-1.64253E-05 3.24448E-19 4.84306E-19
 -1      2391 7.56671E-05-1.50139E-05-2.55969E-05-3.11009E-05 3.04535E-19 6.84720E-19
 -1      2392 7.61980E-05-1.33193E-05-2.69308E-05-2.76450E-05 7.91949E-19 7.86047E-19
 -1      2393 6.75732E-05-8.28324E-06-2.48847E-05-2.15698E-05 7.01634E-19 6.36307E-19
 -1      2394 7.12337E-05-2.49578E-05-1.93361E-05-3.64900E-05-7.27919E-19-4.58668E-19
 -1      2395 6.87814E-05-1.68731E-05-2.19497E-05-3.50281E-05 7.39036E-20-1.27796E-19
 -1      2396 5.44295E-05-8.25597E-06-1.88270E-05-2.70434E-05 7.88164E-19 2.81321E-19
 -1      2397 4.21932E-05-2.05696E-05-8.50298E-06-3.14679E-05-7.73765E-19-1.17949E-18
 -1      2398 1.20931E-04-5.57808E-05-2.74513E-05 3.24345E-05-2.70627E-19-6.14152E-19
 -1      2399 9.19051E-05-1.97524E-05-3.09800E-05 2.29360E-05-2.97844E-19 9.46837E-19
 -1      2400 9.33586E-05-2.00435E-05-3.12222E-05 2.70044E-05-5.49322E-19 1.33950E-18
 -1      2401 9.42527E-05-2.22651E-05-3.09262E-05 1.56757E-05-1.57273E-18 1.69227E-18
 -1      2402 9.52699E-05-2.16586E-05-3.14301E-05 1.91586E-05-7.09443E-19 1.38848E-18
 -1      2403 8.36307E-05-1.52762E-05-2.90574E-05 1.99860E-05-7.53318E-19 1.56563E-18
 -1      2404 9.54750E-05-2.45447E-05-3.04452E-05 1.02952E-05-8.77738E-20 2.04474E-18
 -1      2405 9.63161E-05-2.39367E-05-3.09266E-05 1.28488E-05-1.21512E-18 1.71528E-18
 -1      2406 8.90581E-05-1.93027E-05-2.97548E-05 1.39693E-05-9.98824E-19 2.48920E-18
 -1      2407 9.59187E-05-2.60865E-05-2.99533E-05 6.71650E-06 6.34514E-19 4.66791E-19
 -1      2408 9.65738E-05-2.56651E-05-3.03119E-05 8.38307E-06 6.94646E-19 1.47169E-18
 -1      2409 9.21759E-05-2.25552E-05-2.97595E-05 9.45723E-06 6.87963E-19 1.20119E-18
 -1      2410 9.59738E-05-2.71235E-05-2.95212E-05 4.19399E-06-4.55777E-20 6.34917E-19
 -1      2411 9.64892E-05-2.68429E-05-2.97908E-05 5.33198E-06 2.65462E-19 4.12508E-19
 -1      2412 9.38735E-05-2.48367E-05-2.95430E-05 6.23822E-06 6.47414E-19 5.35679E-19
 -1      2413 9.58730E-05-2.77464E-05-2.92039E-05 2.57815E-06-4.67379E-19 5.88374E-19
 -1      2414 9.62388E-05-2.75796E-05-2.93851E-05 3.29134E-06-3.87319E-20 7.45668E-19
 -1      2415 9.47474E-05-2.63476E-05-2.92914E-05 3.97560E-06-3.09877E-19 1.78625E-18
 -1      2416 9.57298E-05-2.81095E-05-2.89834E-05 1.56422E-06-7.61926E-19 1.44221E-18
 -1      2417 9.59786E-05-2.80128E-05-2.91015E-05 2.00243E-06-7.84452E-19 1.11230E-18
 -1      2418 9.51455E-05-2.72732E-05-2.90773E-05 2.48830E-06-7.20984E-19 5.80008E-19
 -1      2419 9.55968E-05-2.83173E-05-2.88356E-05 9.38462E-07-2.32605E-18 2.92486E-18
 -1      2420 9.57610E-05-2.82621E-05-2.89109E-05 1.20385E-06-1.34377E-18 1.94037E-18
 -1      2421 9.53050E-05-2.78254E-05-2.89152E-05 1.53464E-06-1.24635E-18 4.25448E-20
 -1      2422 9.54904E-05-2.84346E-05-2.87388E-05 5.57522E-07-3.93197E-19 2.57095E-18
 -1      2423 9.55964E-05-2.84035E-05-2.87862E-05 7.16349E-07-1.29671E-18 2.83642E-18
 -1      2424 9.53528E-05-2.81492E-05-2.87999E-05 9.35065E-07-1.51697E-18 1.17000E-18
 -1      2425 9.54116E-05-2.84999E-05-2.86767E-05 3.28363E-07-1.75294E-19 2.02649E-18
 -1      2426 9.54789E-05-2.84826E-05-2.87061E-05 4.22401E-07-3.83776E-19 2.31705E-18
 -1      2427 9.53527E-05-2.83365E-05-2.87209E-05 5.64040E-07-2.07894E-19 1.47659E-18
 -1      2428 9.53556E-05-2.85355E-05-2.86372E-05 1.91994E-07 9.18982E-19 8.99678E-19
 -1      2429 9.53979E-05-2.85261E-05-2.86553E-05 2.47106E-07 3.60507E-19 1.42189E-18
 -1      2430 9.53354E-05-2.84434E-05-2.86681E-05 3.37467E-07 2.20791E-19 1.01541E-18
 -1      2431 9.53167E-05-2.85545E-05-2.86123E-05 1.11647E-07 5.36122E-19 9.02690E-19
 -1      2432 9.53431E-05-2.85495E-05-2.86234E-05 1.43629E-07 1.15019E-18 1.12362E-18
 -1      2433 9.53143E-05-2.85035E-05-2.86335E-05 2.00676E-07 1.02784E-18 3.78269E-19
 -1      2434 9.52902E-05-2.85643E-05-2.85968E-05 6.47220E-08 7.28460E-19 1.01930E-18
 -1      2435 9.53067E-05-2.85617E-05-2.86035E-05 8.31145E-08 5.24438E-19 1.20359E-18
 -1      2436 9.52951E-05-2.85366E-05-2.86111E-05 1.18890E-07 5.20169E-19-2.08294E-19
 -1      2437 9.52724E-05-2.85689E-05-2.85871E-05 3.75209E-08 1.13825E-18 1.38305E-18
 -1      2438 9.52826E-05-2.85678E-05-2.85912E-05 4.80018E-08 1.08360E-18 1.64688E-18
 -1      2439 9.52793E-05-2.85544E-05-2.85967E-05 7.03686E-08 8.14006E-19-1.15349E-18
 -1      2440 9.52608E-05-2.85709E-05-2.85813E-05 2.23976E-08 2.18466E-18 4.75435E-19
 -1      2441 9.52669E-05-2.85704E-05-2.85837E-05 2.81694E-08 1.81303E-18 1.11202E-18
 -1      2442 9.52675E-05-2.85636E-05-2.85876E-05 4.21753E-08 1.25288E-18 2.11942E-19
 -1      2443 9.52525E-05-2.85717E-05-2.85774E-05 1.30264E-08 3.21487E-18 3.42316E-20
 -1      2444 9.52566E-05-2.85716E-05-2.85790E-05 1.65161E-08 2.97900E-18 8.34249E-19
 -1      2445 9.52585E-05-2.85680E-05-2.85818E-05 2.54964E-08 2.61313E-18 3.83145E-19
 -1      2446 9.52469E-05-2.85718E-05-2.85750E-05 7.57898E-09 1.97320E-18-5.65203E-19
 -1      2447 9.52495E-05-2.85718E-05-2.85760E-05 9.58119E-09 2.72553E-18 1.23899E-19
 -1      2448 9.52518E-05-2.85702E-05-2.85779E-05 1.52453E-08 2.60531E-18 1.17248E-18
 -1      2449 9.52432E-05-2.85717E-05-2.85735E-05 4.35521E-09 2.68419E-21-1.10399E-18
 -1      2450 9.52448E-05-2.85717E-05-2.85741E-05 5.52400E-09 1.43006E-18-6.69442E-19
 -1      2451 9.52470E-05-2.85711E-05-2.85755E-05 9.11883E-09 1.58773E-18 1.46382E-18
 -1      2452 9.52408E-05-2.85715E-05-2.85725E-05 2.39977E-09-1.31906E-18-1.70884E-18
 -1      2453 9.52418E-05-2.85715E-05-2.85729E-05 3.10151E-09-9.01582E-19-5.97244E-19
 -1      2454 9.52436E-05-2.85713E-05-2.85739E-05 5.39402E-09-5.34090E-19 5.06197E-19
 -1      2455 9.52392E-05-2.85713E-05-2.85719E-05 1.17670E-09 9.18919E-19-1.55439E-18
 -1      2456 9.52398E-05-2.85713E-05-2.85722E-05 1.61314E-09-6.67937E-20-2.41888E-18
 -1      2457 9.52412E-05-2.85713E-05-2.85729E-05 3.07556E-09 1.05117E-19-7.24423E-19
 -1      2458 9.52382E-05-2.85711E-05-2.85716E-05 3.88897E-10 2.21582E-19-7.27963E-19
 -1      2459 9.52385E-05-2.85712E-05-2.85717E-05 6.69135E-10 2.85080E-19-8.72917E-19
 -1      2460 9.52396E-05-2.85712E-05-2.85722E-05 1.59420E-09 1.88840E-19-1.82805E-18
 -1      2461 9.52376E-05-2.85711E-05-2.85714E-05-1.25115E-10 7.09852E-19-2.82303E-19
 -1      2462 9.52378E-05-2.85711E-05-2.85714E-05 5.59256E-11 6.78005E-19 4.04912E-20
 -1      2463 9.52386E-05-2.85712E-05-2.85718E-05 6.27298E-10 1.24653E-19 1.51916E-18
 -1      2464 9.52373E-05-2.85711E-05-2.85712E-05-4.49256E-10-1.90045E-18 1.82840E-18
 -1      2465 9.52373E-05-2.85710E-05-2.85713E-05-3.40208E-10-8.78254E-19 1.14671E-18
 -1      2466 9.52379E-05-2.85711E-05-2.85715E-05-4.44272E-12-4.50740E-19 1.57722E-18
 -1      2467 9.52371E-05-2.85711E-05-2.85712E-05-6.16668E-10-2.67444E-18 1.86574E-18
 -1      2468 9.52371E-05-2.85711E-05-2.85712E-05-5.71717E-10-2.12555E-18 1.65961E-18
 -1      2469 9.52375E-05-2.85711E-05-2.85713E-05-3.99935E-10-1.84084E-18 2.20422E-18
 -1      2470 9.52372E-05-2.85713E-05-2.85711E-05-5.78399E-10-4.69435E-19 1.85117E-19
 -1      2471 9.52371E-05-2.85713E-05-2.85711E-05-6.27159E-10-8.25682E-20 2.30974E-20
 -1      2472 9.52373E-05-2.85714E-05-2.85711E-05-5.83247E-10-8.48487E-19-5.52995E-19
 -1      2473 9.52374E-05-2.85711E-05-2.85713E-05 3.27604E-10-7.25394E-19-1.43066E-18
 -1      2474 9.52375E-05-2.85712E-05-2.85713E-05 1.54776E-10-5.12429E-19-2.23531E-18
 -1      2475 9.52372E-05-2.85707E-05-2.85714E-05 6.35785E-10-3.48162E-18-2.56039E-18
 -1      2476 9.52373E-05-2.85709E-05-2.85713E-05 5.09159E-10-1.50503E-18-2.02461E-18
 -1      2477 9.52374E-05-2.85707E-05-2.85715E-05 5.82955E-10-3.80379E-19-3.01884E-18
 -1      2478 9.52375E-05-2.85713E-05-2.85712E-05-6.60298E-11 2.82345E-19-1.47790E-18
 -1      2479 9.52375E-05-2.85713E-05-2.85712E-05-2.41971E-10-7.43409E-19-3.08498E-18
 -1      2480 9.52375E-05-2.85710E-05-2.85714E-05 1.54840E-10 3.60022E-19-2.91319E-18
 -1      2481 9.52370E-05-2.85704E-05-2.85714E-05 7.78188E-10-3.54118E-18 2.26798E-18
 -1      2482 9.52371E-05-2.85705E-05-2.85714E-05 7.30777E-10-4.27063E-18-5.00906E-19
 -1      2483 9.52371E-05-2.85702E-05-2.85715E-05 8.70732E-10-2.09460E-18-1.30401E-18
 -1      2484 9.52367E-05-2.85700E-05-2.85715E-05 7.29730E-10-2.41107E-18 2.83497E-18
 -1      2485 9.52368E-05-2.85701E-05-2.85714E-05 7.67479E-10-2.94131E-18 3.17553E-18
 -1      2486 9.52368E-05-2.85698E-05-2.85716E-05 9.49696E-10-1.93383E-18 2.98136E-18
 -1      2487 9.52365E-05-2.85698E-05-2.85715E-05 5.15031E-10-2.23588E-18 1.87762E-18
 -1      2488 9.52366E-05-2.85699E-05-2.85715E-05 6.21638E-10-2.86141E-18 3.29410E-18
 -1      2489 9.52365E-05-2.85694E-05-2.85716E-05 8.08807E-10-1.33873E-18 2.84375E-18
 -1      2490 9.52365E-05-2.85697E-05-2.85715E-05 1.99909E-10-2.31024E-18-8.15714E-20
 -1      2491 9.52365E-05-2.85697E-05-2.85715E-05 3.41679E-10-2.18960E-18 1.23182E-18
 -1      2492 9.52363E-05-2.85692E-05-2.85716E-05 4.91994E-10-2.77093E-19 8.28991E-19
 -1      2493 9.52365E-05-2.85697E-05-2.85715E-05-1.20354E-10-3.37118E-19 1.44114E-18
 -1      2494 9.52365E-05-2.85697E-05-2.85715E-05 1.23300E-11-2.58447E-18 1.23294E-18
 -1      2495 9.52362E-05-2.85692E-05-2.85716E-05 8.95051E-11-4.59491E-19 6.78053E-19
 -1      2496 9.52367E-05-2.85699E-05-2.85715E-05-3.65268E-10 8.66862E-19 1.84042E-18
 -1      2497 9.52366E-05-2.85699E-05-2.85715E-05-2.77033E-10 1.42929E-19 1.77239E-18
 -1      2498 9.52363E-05-2.85693E-05-2.85716E-05-2.95035E-10-7.31554E-19 2.51495E-18
 -1      2499 9.52369E-05-2.85703E-05-2.85714E-05-4.63670E-10 1.15492E-19 1.76829E-18
 -1      2500 9.52368E-05-2.85701E-05-2.85714E-05-4.40254E-10 2.74982E-19 9.77392E-19
 -1      2501 9.52366E-05-2.85697E-05-2.85715E-05-5.60263E-10 1.41774E-18 1.76650E-18
 -1      2502 9.52371E-05-2.85706E-05-2.85714E-05-4.20932E-10 3.02921E-20 1.21780E-18
 -1      2503 6.63265E-05-3.83992E-05-1.18491E-05 5.47033E-05-5.83817E-19 1.11057E-18
 -1      2504 4.82640E-05-3.10797E-05-6.92627E-06 4.85684E-05-5.41889E-19 1.12740E-18
 -1      2505 1.45971E-04-5.40098E-05-3.96037E-05-2.67003E-05 4.99644E-19 9.51430E-19
 -1      2506 1.55560E-04-4.99779E-05-4.56683E-05-1.91700E-05 2.83915E-19 1.38659E-18
 -1      2507 9.51294E-05-2.00875E-05-3.22098E-05-1.17879E-05-3.33519E-21-2.27420E-18
 -1      2508 9.55235E-05-2.34437E-05-3.09184E-05-8.03940E-06-9.00833E-20-2.09019E-18
 -1      2509 9.51558E-05-2.26810E-05-3.10322E-05-7.75256E-06 9.17492E-20-1.72695E-18
 -1      2510 9.32713E-05-1.76993E-05-3.24061E-05-1.14462E-05 2.32684E-19-2.11348E-18
 -1      2511 2.94061E-05-2.06862E-05-3.36911E-06 3.96737E-05-6.72756E-19 1.16192E-18
 -1      2512 1.88041E-05-1.75867E-05-1.35869E-07 2.62535E-05-9.93676E-19 1.58565E-18
 -1      2513 1.58068E-04-7.99977E-06-6.49370E-05 1.24579E-06-8.95737E-19 6.28287E-19
 -1      2514 1.61772E-04-7.92831E-06-6.63472E-05-3.82528E-07-2.10827E-18 5.23572E-19
 -1      2515 8.90958E-05-1.93612E-05-2.97118E-05 3.15252E-05-3.92732E-19 8.03040E-19
 -1      2516 9.21299E-05-2.32220E-05-2.91273E-05 3.47710E-05-7.84988E-19 2.61892E-19
 -1      2517 7.58250E-05-1.27181E-05-2.66823E-05 2.73006E-05-5.07770E-19 7.53859E-19
 -1      2518 9.47914E-05-2.90206E-05-2.74804E-05 3.86422E-05-2.09895E-18 8.63656E-19
 -1      2519 1.02712E-04-4.10878E-05-2.60208E-05 3.80638E-05-1.65531E-18 8.44915E-20
 -1      2520 9.53871E-05-2.58717E-05-2.97916E-05 3.43686E-06 6.57870E-19 2.22531E-18
 -1      2521 9.60297E-05-2.52715E-05-3.02961E-05 5.38648E-06 7.48658E-19 2.45645E-18
 -1      2522 9.53641E-05-2.33891E-05-3.08270E-05 6.39245E-06 8.72517E-19 2.09470E-18
 -1      2523 8.77755E-05-1.07922E-05-3.30293E-05-1.32722E-06 1.62292E-18-5.48910E-19
 -1      2524 8.79216E-05-1.09506E-05-3.30198E-05-2.45602E-06 1.56168E-18-7.33722E-19
 -1      2525 8.93601E-05-1.31775E-05-3.26536E-05-2.72749E-06 1.49703E-18-7.62968E-19
 -1      2526 8.90065E-05-1.27259E-05-3.26960E-05-6.98226E-07 1.54529E-18-4.53795E-19
 -1      2527 9.48789E-05-2.66491E-05-2.92286E-05 1.03882E-06 4.45485E-19 1.91583E-18
 -1      2528 9.52761E-05-2.63676E-05-2.94935E-05 2.28424E-06 5.73206E-19 2.03654E-18
 -1      2529 9.53124E-05-2.53419E-05-2.99846E-05 3.16097E-06 7.10411E-19 1.76544E-18
 -1      2530 9.49690E-05-2.61775E-05-2.94920E-05 9.47922E-07 4.78531E-19 1.54237E-18
 -1      2531 2.73915E-05-1.37395E-05-5.15938E-06-1.80713E-05-1.28749E-19-2.52416E-19
 -1      2532 4.33191E-05-2.87436E-05-5.88880E-06-4.81147E-05 7.15108E-19 3.16134E-18
 -1      2533 5.94057E-05-3.61298E-05-9.79538E-06-5.42888E-05 8.97431E-19 4.51776E-18
 -1      2534 1.23418E-05-1.41722E-05 1.23137E-06 1.40932E-05-7.00549E-19 1.14773E-18
 -1      2535 1.23342E-05-1.34096E-05 8.16752E-07-9.32979E-07-5.67459E-19 6.42898E-19
 -1      2536 1.08217E-04-5.32902E-05-2.35789E-05 5.11035E-05-5.03985E-19 6.23469E-19
 -1      2537 8.90011E-05-4.84182E-05-1.71333E-05 5.26798E-05-5.41042E-19 9.58510E-19
 -1      2538 1.40625E-04-5.75605E-05-3.60497E-05 3.38579E-05-5.84664E-19 1.06938E-19
 -1      2539 1.24879E-04-5.68687E-05-2.90709E-05 4.17818E-05-6.36334E-19 4.26905E-19
 -1      2540 1.21767E-04-5.80548E-05-2.69944E-05 4.27913E-05-5.51207E-19 3.10491E-19
 -1      2541 1.60480E-04-4.51395E-05-4.99433E-05 1.02524E-05-1.30454E-18 1.02703E-19
 -1      2542 1.52176E-04-5.22624E-05-4.28311E-05 1.83902E-05-5.87788E-19-1.83594E-19
 -1      2543 1.65242E-04-2.48938E-05-6.05294E-05-7.13583E-07-2.85344E-18 1.55918E-18
 -1      2544 1.60958E-04-3.21346E-05-5.55524E-05 1.09176E-06-2.35221E-18 1.32137E-18
 -1      2545 1.62947E-04-1.13032E-05-6.55477E-05-2.72714E-06-2.53856E-18 1.01496E-18
 -1      2546 1.63736E-04-1.68149E-05-6.34199E-05-2.30421E-06-2.52861E-18 1.19453E-18
 -1      2547 1.53068E-04-1.85631E-05-5.77925E-05-7.78544E-06-2.62877E-18 1.50475E-18
 -1      2548 1.57937E-04-2.10320E-05-5.91436E-05 4.57911E-06 2.82062E-19 3.57871E-20
 -1      2549 1.56340E-04-1.47463E-05-6.14602E-05 4.69608E-06 8.17387E-20 5.00808E-20
 -1      2550 1.59473E-04-4.12389E-05-5.09731E-05-8.94953E-06 2.58980E-19 1.00204E-18
 -1      2551 1.62532E-04-3.22172E-05-5.64965E-05-1.31190E-06 3.69306E-19 5.74924E-19
 -1      2552 1.54594E-04-4.78203E-05-4.57134E-05-6.09302E-06 1.11856E-18 3.29072E-19
 -1      2553 1.18661E-04-5.54018E-05-2.69857E-05-4.45326E-05 1.04016E-18 1.59052E-18
 -1      2554 1.35699E-04-5.61885E-05-3.42243E-05-3.85503E-05 5.00173E-19 1.12274E-18
 -1      2555 1.43053E-04-5.87422E-05-3.59772E-05-2.58953E-05 1.17526E-18 3.60518E-19
 -1      2556 7.73134E-05-4.40120E-05-1.41147E-05-5.39001E-05 1.47130E-18 4.42569E-18
 -1      2557 9.66787E-05-4.93370E-05-2.03818E-05-5.43734E-05 1.17483E-18 3.62055E-18
 -1      2558 7.54637E-05-4.01695E-05-1.47258E-05-5.40350E-05 8.20987E-19 4.41717E-18
 -1      2559 9.09107E-05-1.52280E-05-3.24300E-05-6.75816E-06 1.03776E-18-1.44119E-18
 -1      2560 8.97793E-05-1.33200E-05-3.28217E-05-7.93079E-06 1.03798E-18-1.67321E-18
 -1      2561 9.04086E-05-1.40247E-05-3.27969E-05-9.17412E-06 8.61289E-19-1.82632E-18
 -1      2562 2.98475E-05-9.58414E-06-7.95377E-06 1.57856E-05 8.74562E-20-1.09903E-18
 -1      2563 3.29640E-05-3.40108E-06-1.20889E-05 1.12520E-05-7.22149E-19-6.42263E-19
 -1      2564 4.37540E-05-1.06815E-05-1.33766E-05 2.64997E-05-8.56668E-19-1.34636E-18
 -1      2565 1.49265E-04-6.53920E-06-6.14272E-05-3.22707E-06-2.09831E-18 1.38384E-19
 -1      2566 1.45656E-04-9.10733E-06-5.89412E-05 6.59300E-06-2.30816E-20-5.28443E-19
 -1      2567 2.12002E-05-9.82843E-06-4.38657E-06 1.94975E-05-2.98367E-19 9.59688E-19
 -1      2568 9.21154E-05-1.63345E-05-3.25191E-05-1.04206E-05 5.14303E-19-1.97216E-18
 -1      2569 2.52166E-05-6.16635E-06-7.48698E-06-1.59929E-05-4.54804E-19 2.54195E-18
 -1      2570 6.47547E-05-3.20752E-05-1.34398E-05 3.62006E-05-1.86326E-18 1.24874E-18
 -1      2571 6.04529E-05-2.27387E-05-1.56564E-05 3.68380E-05-1.86728E-18-3.55754E-20
 -1      2572 9.52371E-05-2.85712E-05-2.85711E-05-6.53709E-10-1.34297E-18 1.06555E-18
 -1      2573 9.52373E-05-2.85712E-05-2.85712E-05-5.97353E-10-1.21057E-18-4.79494E-19
 -1      2574 9.52374E-05-2.85714E-05-2.85712E-05-4.07231E-10-2.13454E-18-5.03885E-18
 -1      2575 9.52374E-05-2.85714E-05-2.85711E-05-5.03085E-10-1.15069E-18-2.61214E-18
 -1      2576 9.52374E-05-2.85713E-05-2.85712E-05-5.54877E-10-5.70542E-19-2.16720E-18
 -1      2577 9.52375E-05-2.85712E-05-2.85713E-05-2.80143E-10 1.26853E-19-3.51545E-18
 -1      2578 9.52370E-05-2.85702E-05-2.85715E-05-6.30900E-10 2.57131E-19 1.51617E-18
 -1      2579 1.13776E-04-5.49198E-05-2.49850E-05-4.66522E-05 1.54753E-18 1.77919E-18
 -1      2580 8.46261E-05-4.42165E-05-1.68613E-05 5.23935E-05-2.47545E-19 1.11994E-18
 -1      2581 7.23273E-05-1.89184E-05-2.24294E-05 3.61127E-05-1.07393E-18-1.03867E-19
 -1      2582 1.47419E-04-5.72815E-05-3.85003E-05 2.07588E-05-9.77794E-19-5.75347E-19
 -1      2583 4.43689E-05-2.29854E-05-8.60722E-06 4.37838E-05-2.18111E-19 1.38257E-18
 -1      2584 9.08490E-05-4.30084E-05-2.04446E-05 3.83241E-05-1.32349E-18 2.20864E-19
 -1      2585 4.23452E-05-2.10317E-05-8.60278E-06-4.29632E-05 2.21499E-19 3.12280E-18
 -1      2586 2.88295E-05-7.91885E-06-8.60275E-06-1.37444E-05 4.76244E-19-1.74065E-19
 -1      2587 1.55918E-04-3.96819E-05-5.00532E-05-9.93741E-07-2.09365E-18 6.27863E-19
 -1      2588 1.51186E-04-2.71555E-05-5.33499E-05 6.76466E-06 5.76829E-19-7.04837E-19
 -1      2589 9.01766E-05-1.47922E-05-3.23324E-05 3.38858E-06 1.54589E-18 3.60022E-19
 -1      2590 9.00314E-05-1.45742E-05-3.23569E-05 2.50952E-06 1.51518E-18 1.40346E-19
 -1      2591 8.99713E-05-1.44752E-05-3.23778E-05 1.72076E-06 1.49151E-18-6.59296E-20
 -1      2592 8.99752E-05-1.44517E-05-3.23835E-05 7.86910E-07 1.51122E-18-1.36893E-19
 -1      2593 9.10848E-05-1.62823E-05-3.20446E-05 1.99562E-06 1.40978E-18 2.81200E-20
 -1      2594 9.17751E-05-1.70620E-05-3.20598E-05 6.31178E-06 1.45531E-18 1.10874E-18
 -1      2595 9.12008E-05-1.62555E-05-3.21457E-05 5.56280E-06 1.48460E-18 9.34928E-19
 -1      2596 9.33133E-05-1.93149E-05-3.17525E-05 7.32927E-06 1.34061E-18 1.73043E-18
 -1      2597 9.24900E-05-1.80735E-05-3.19112E-05 6.78661E-06 1.38827E-18 1.40318E-18
 -1      2598 9.30590E-05-1.93021E-05-3.15805E-05 5.55492E-06 1.31217E-18 1.25391E-18
 -1      2599 9.49786E-05-2.23706E-05-3.11473E-05 6.82507E-06 9.79157E-19 1.96616E-18
 -1      2600 9.39816E-05-2.04443E-05-3.15088E-05 7.19353E-06 1.18224E-18 1.82571E-18
 -1      2601 9.42065E-05-2.14507E-05-3.11696E-05 5.65111E-06 1.17134E-18 1.57670E-18
 -1      2602 9.51030E-05-2.36727E-05-3.06099E-05 4.92032E-06 8.69114E-19 1.78587E-18
 -1      2603 9.07548E-05-1.56098E-05-3.22340E-05 4.94462E-06 1.58902E-18 8.34443E-19
 -1      2604 9.04143E-05-1.51366E-05-3.22830E-05 4.09935E-06 1.56374E-18 5.82420E-19
 -1      2605 9.13476E-05-1.67077E-05-3.19703E-05 3.40659E-06 1.42285E-18 4.60677E-19
 -1      2606 9.19954E-05-1.76730E-05-3.18259E-05 4.62155E-06 1.37011E-18 8.54225E-19
 -1      2607 6.77968E-05-8.34294E-06-2.54893E-05 1.93452E-05-1.03849E-18 5.57136E-19
 -1      2608 6.35585E-05-7.95925E-06-2.34718E-05 2.22850E-05-1.08840E-18 3.55224E-20
 -1      2609 9.53773E-05-2.42111E-05-3.04766E-05-5.47032E-06 1.63011E-19-1.35811E-18
 -1      2610 9.53048E-05-2.52787E-05-3.00332E-05-4.03581E-06 1.19561E-19-1.16080E-18
 -1      2611 9.55629E-05-2.62588E-05-2.96681E-05-3.02618E-06-3.39247E-21-9.67381E-19
 -1      2612 9.54101E-05-2.69256E-05-2.93663E-05-2.16360E-06 5.11148E-20-8.45891E-19
 -1      2613 9.54558E-05-2.50868E-05-3.01545E-05-3.80726E-06 1.60399E-19-9.36046E-19
 -1      2614 9.55247E-05-2.75560E-05-2.91016E-05-1.55852E-06-6.42513E-20-6.85001E-19
 -1      2615 9.54054E-05-2.80155E-05-2.88935E-05-1.13360E-06-5.71106E-20-8.28572E-19
 -1      2616 9.58139E-05-2.69545E-05-2.95185E-05-2.10270E-06-2.37052E-20-6.99074E-19
 -1      2617 9.55005E-05-2.84766E-05-2.87028E-05-8.75164E-07-7.36156E-20-6.86924E-19
 -1      2618 9.54340E-05-2.88309E-05-2.85552E-05-7.85270E-07-2.41006E-20-6.41556E-19
 -1      2619 9.60355E-05-2.82647E-05-2.90545E-05-1.16638E-06-4.81322E-20-5.17812E-19
 -1      2620 9.55580E-05-2.92074E-05-2.84187E-05-8.19183E-07 8.44276E-20-6.26612E-19
 -1      2621 9.55251E-05-2.94975E-05-2.83091E-05-9.95555E-07-5.33345E-21-7.14075E-19
 -1      2622 9.62708E-05-2.92800E-05-2.87200E-05-8.85965E-07 5.61287E-20-3.72010E-19
 -1      2623 9.56858E-05-2.98212E-05-2.82136E-05-1.28100E-06-1.45232E-19-6.49962E-19
 -1      2624 9.56510E-05-3.00490E-05-2.81280E-05-1.67381E-06-6.27495E-20-6.56180E-19
 -1      2625 9.65720E-05-3.01270E-05-2.84846E-05-1.16647E-06-2.95850E-20-3.06122E-19
 -1      2626 9.58261E-05-3.03113E-05-2.80669E-05-2.17580E-06-9.48921E-21-5.47596E-19
 -1      2627 9.57437E-05-3.04468E-05-2.79980E-05-2.73585E-06 4.68151E-20-3.28998E-19
 -1      2628 9.69242E-05-3.08326E-05-2.83305E-05-1.93263E-06 7.06492E-20-2.91243E-19
 -1      2629 9.58821E-05-3.06033E-05-2.79701E-05-3.40839E-06-1.11443E-19-2.12053E-19
 -1      2630 9.56988E-05-3.05903E-05-2.79162E-05-4.06798E-06-4.76544E-19-1.34231E-19
 -1      2631 9.72545E-05-3.13369E-05-2.82519E-05-3.10615E-06-5.82888E-21 1.43140E-19
 -1      2632 9.57234E-05-3.05677E-05-2.79236E-05-4.83211E-06-4.63843E-19 4.26360E-20
 -1      2633 9.53873E-05-3.03368E-05-2.78867E-05-5.48813E-06-2.45618E-19 1.91066E-19
 -1      2634 9.74339E-05-3.15041E-05-2.82517E-05-4.56645E-06-2.09073E-19 5.21589E-19
 -1      2635 9.52093E-05-3.00528E-05-2.79323E-05-6.21114E-06-4.05377E-19 2.12848E-19
 -1      2636 9.46881E-05-2.95488E-05-2.79157E-05-6.71748E-06-5.48107E-19 4.62508E-19
 -1      2637 9.72929E-05-3.11516E-05-2.83363E-05-6.10455E-06-3.87189E-19 3.98113E-19
 -1      2638 9.42419E-05-2.89521E-05-2.79983E-05-7.20716E-06-8.78036E-19 2.44675E-19
 -1      2639 9.35496E-05-2.81768E-05-2.80032E-05-7.38843E-06-4.97458E-19-5.34156E-20
 -1      2640 9.66701E-05-3.01201E-05-2.85073E-05-7.38972E-06-8.85788E-19 2.28681E-19
 -1      2641 9.28441E-05-2.73001E-05-2.81131E-05-7.42171E-06-2.91869E-19-3.56482E-19
 -1      2642 9.20641E-05-2.63525E-05-2.81358E-05-7.11708E-06-5.21196E-19-4.18457E-19
 -1      2643 9.55020E-05-2.83846E-05-2.87515E-05-7.98569E-06-7.15689E-19 1.92008E-19
 -1      2644 9.12273E-05-2.53541E-05-2.82530E-05-6.51526E-06-6.74168E-19-2.74851E-19
 -1      2645 9.05131E-05-2.44400E-05-2.82840E-05-5.64980E-06-9.34108E-19-1.66805E-19
 -1      2646 9.39230E-05-2.61687E-05-2.90328E-05-7.45356E-06-6.10073E-19-4.65121E-19
 -1      2647 8.97830E-05-2.35870E-05-2.83807E-05-4.38305E-06-9.87542E-19 7.53938E-20
 -1      2648 8.93165E-05-2.29639E-05-2.84076E-05-3.03309E-06-9.62315E-19-1.01604E-19
 -1      2649 9.23092E-05-2.39767E-05-2.92943E-05-5.54715E-06-8.79357E-19 9.41811E-20
 -1      2650 8.89510E-05-2.25362E-05-2.84580E-05-1.28902E-06-8.93898E-19 6.80701E-20
 -1      2651 8.88720E-05-2.24058E-05-2.84704E-05 3.05753E-07-7.58458E-19 8.50538E-20
 -1      2652 9.11760E-05-2.24578E-05-2.94718E-05-2.41465E-06-9.29157E-19 5.99767E-19
 -1      2653 8.90146E-05-2.25563E-05-2.84598E-05 2.15446E-06-5.09077E-19 1.15984E-19
 -1      2654 8.93522E-05-2.29626E-05-2.84555E-05 3.66471E-06-3.26953E-19 1.33804E-19
 -1      2655 9.09457E-05-2.21305E-05-2.95171E-05 1.34787E-06-7.77503E-19 8.56635E-19
 -1      2656 8.99460E-05-2.36315E-05-2.83890E-05 5.20330E-06-1.39202E-19 2.93864E-20
 -1      2657 9.06057E-05-2.44348E-05-2.83753E-05 6.33445E-06 1.55179E-19 2.11713E-19
 -1      2658 9.17077E-05-2.31006E-05-2.94181E-05 4.88607E-06-2.82648E-19 6.00078E-19
 -1      2659 9.14259E-05-2.53816E-05-2.82754E-05 7.27967E-06 3.82021E-20 8.45031E-20
 -1      2660 9.22360E-05-2.63353E-05-2.82646E-05 7.87793E-06 1.59227E-19-4.63206E-19
 -1      2661 9.31671E-05-2.50148E-05-2.92083E-05 7.44636E-06-1.06127E-19 1.90832E-19
 -1      2662 9.30209E-05-2.72731E-05-2.81590E-05 8.16503E-06 3.80741E-19-5.83985E-19
 -1      2663 9.38087E-05-2.81407E-05-2.81620E-05 8.24095E-06 4.32531E-19-8.63162E-19
 -1      2664 9.48157E-05-2.72449E-05-2.89478E-05 8.67179E-06 1.38421E-19-4.43352E-20
 -1      2665 9.43768E-05-2.88595E-05-2.80734E-05 7.99022E-06 2.95677E-19-6.42933E-19
 -1      2666 9.50257E-05-2.94955E-05-2.80955E-05 7.66997E-06 1.43220E-20-8.94557E-19
 -1      2667 9.61955E-05-2.92007E-05-2.86968E-05 8.64648E-06 2.79426E-19-5.38365E-19
 -1      2668 9.53176E-05-2.99126E-05-2.80362E-05 7.08832E-06-3.39132E-20-5.61619E-19
 -1      2669 9.57832E-05-3.02791E-05-2.80762E-05 6.53945E-06 2.60236E-19-1.90566E-19
 -1      2670 9.70631E-05-3.05380E-05-2.84977E-05 7.73648E-06 2.84982E-19-7.52539E-19
 -1      2671 9.58359E-05-3.04184E-05-2.80479E-05 5.82784E-06-2.38092E-19-3.68271E-19
 -1      2672 9.61294E-05-3.05545E-05-2.81003E-05 5.20080E-06-3.46167E-19-5.96330E-19
 -1      2673 9.74023E-05-3.11910E-05-2.83681E-05 6.37732E-06-2.58044E-19 5.19348E-19
 -1      2674 9.60239E-05-3.04955E-05-2.80978E-05 4.50424E-06-3.21809E-19-8.26508E-19
 -1      2675 9.61850E-05-3.04736E-05-2.81553E-05 3.90444E-06-2.10542E-20-9.32256E-19
 -1      2676 9.73388E-05-3.12853E-05-2.83055E-05 4.92543E-06-5.20445E-19 3.44786E-19
 -1      2677 9.60031E-05-3.03046E-05-2.81701E-05 3.30309E-06-1.00261E-19-1.04401E-18
 -1      2678 9.60766E-05-3.01968E-05-2.82263E-05 2.78837E-06-1.87420E-19-8.71435E-19
 -1      2679 9.70410E-05-3.10203E-05-2.82951E-05 3.60437E-06-2.90006E-19 2.26466E-19
 -1      2680 9.58793E-05-2.99891E-05-2.82503E-05 2.31129E-06-2.56895E-19-1.03626E-18
 -1      2681 9.59024E-05-2.98504E-05-2.83005E-05 1.90239E-06-3.67357E-19-1.04011E-18
 -1      2682 9.66543E-05-3.05834E-05-2.83184E-05 2.51689E-06-1.33739E-20 1.41138E-23
 -1      2683 9.57252E-05-2.96499E-05-2.83272E-05 1.54705E-06-2.34173E-19-1.29702E-18
 -1      2684 9.57236E-05-2.95145E-05-2.83691E-05 1.24123E-06 1.79568E-19-1.07666E-18
 -1      2685 9.62751E-05-3.01108E-05-2.83591E-05 1.68304E-06-3.70026E-19 6.69752E-20
 -1      2686 9.55815E-05-2.93443E-05-2.83942E-05 9.89739E-07 1.74669E-19-1.65881E-18
 -1      2687 9.55706E-05-2.92293E-05-2.84272E-05 7.72348E-07 3.89658E-19-1.65269E-18
 -1      2688 9.59533E-05-2.96821E-05-2.84047E-05 1.07787E-06-5.84665E-19-1.08048E-19
 -1      2689 9.54657E-05-2.90969E-05-2.84486E-05 6.02136E-07 1.31773E-18-1.55629E-18
 -1      2690 9.54533E-05-2.90075E-05-2.84733E-05 4.54565E-07 1.21213E-18-8.72970E-19
 -1      2691 9.57052E-05-2.93323E-05-2.84477E-05 6.58407E-07 1.08590E-18-1.10575E-18
 -1      2692 9.53806E-05-2.89111E-05-2.84903E-05 3.44178E-07 5.43138E-19-6.54182E-19
 -1      2693 9.53700E-05-2.88462E-05-2.85078E-05 2.48421E-07 6.69859E-19-1.00910E-18
 -1      2694 9.55271E-05-2.90677E-05-2.84842E-05 3.79552E-07 1.18486E-18-7.93196E-19
 -1      2695 9.53226E-05-2.87797E-05-2.85206E-05 1.79971E-07 7.05495E-19-4.96915E-19
 -1      2696 9.53146E-05-2.87351E-05-2.85325E-05 1.20760E-07 4.07699E-19-2.56610E-19
 -1      2697 9.54068E-05-2.88790E-05-2.85129E-05 2.01723E-07 1.18849E-18-7.49560E-19
 -1      2698 9.52853E-05-2.86916E-05-2.85416E-05 8.04795E-08-1.14021E-19-9.35446E-20
 -1      2699 9.52797E-05-2.86624E-05-2.85493E-05 4.58961E-08-1.28904E-19 1.61186E-19
 -1      2700 9.53298E-05-2.87513E-05-2.85343E-05 9.33823E-08-1.40211E-19-1.00621E-19
 -1      2701 9.52627E-05-2.86353E-05-2.85554E-05 2.37815E-08 2.74660E-19 7.75205E-19
 -1      2702 9.52589E-05-2.86171E-05-2.85602E-05 5.07807E-09 5.89560E-19 7.33601E-19
 -1      2703 9.52833E-05-2.86689E-05-2.85494E-05 3.09740E-08 1.46095E-19 6.66614E-19
 -1      2704 9.52497E-05-2.86011E-05-2.85641E-05-5.81425E-09 5.39271E-19 9.16516E-19
 -1      2705 9.52472E-05-2.85905E-05-2.85669E-05-1.47488E-08 9.99673E-19 8.90825E-19
 -1      2706 9.52567E-05-2.86184E-05-2.85595E-05-2.25010E-09 5.61119E-19 9.31429E-19
 -1      2707 9.52426E-05-2.85816E-05-2.85693E-05-1.90476E-08 1.08659E-18 4.76161E-19
 -1      2708 9.52411E-05-2.85758E-05-2.85707E-05-2.22975E-08 9.58577E-19 1.64758E-19
 -1      2709 9.52427E-05-2.85891E-05-2.85659E-05-1.77219E-08 7.47293E-19-3.01047E-19
 -1      2710 9.52391E-05-2.85714E-05-2.85720E-05-2.29718E-08 5.11802E-19 1.96042E-19
 -1      2711 9.52381E-05-2.85685E-05-2.85726E-05-2.31524E-08-7.01971E-19 1.43043E-19
 -1      2712 9.52361E-05-2.85734E-05-2.85697E-05-2.29579E-08 4.11261E-19-8.78896E-19
 -1      2713 9.52375E-05-2.85667E-05-2.85733E-05-2.20300E-08-9.56177E-19-7.42305E-20
 -1      2714 9.52368E-05-2.85655E-05-2.85734E-05-2.07417E-08-1.44754E-19 1.41995E-19
 -1      2715 9.52335E-05-2.85659E-05-2.85718E-05-2.27181E-08-8.18873E-19-2.00344E-18
 -1      2716 9.52369E-05-2.85651E-05-2.85737E-05-1.88956E-08 8.45936E-20-3.34822E-19
 -1      2717 9.52364E-05-2.85648E-05-2.85736E-05-1.70661E-08 1.26875E-19-1.74505E-19
 -1      2718 9.52330E-05-2.85632E-05-2.85728E-05-1.98950E-08-4.64210E-19-7.49761E-19
 -1      2719 9.52368E-05-2.85651E-05-2.85736E-05-1.50875E-08 1.19353E-18 8.22523E-19
 -1      2720 9.52364E-05-2.85653E-05-2.85734E-05-1.32176E-08 1.16694E-18 1.45910E-18
 -1      2721 9.52335E-05-2.85629E-05-2.85731E-05-1.61592E-08 1.10935E-18-7.24524E-19
 -1      2722 9.52368E-05-2.85658E-05-2.85732E-05-1.14020E-08-7.16828E-19 2.06821E-18
 -1      2723 9.52365E-05-2.85662E-05-2.85730E-05-9.73248E-09-1.10518E-18 1.01537E-18
 -1      2724 9.52343E-05-2.85638E-05-2.85730E-05-1.24100E-08 2.55598E-19 6.98522E-19
 -1      2725 9.52369E-05-2.85668E-05-2.85728E-05-8.20244E-09 2.67041E-19 1.23369E-18
 -1      2726 9.52367E-05-2.85673E-05-2.85726E-05-6.82455E-09 2.33711E-18 1.44540E-18
 -1      2727 9.52350E-05-2.85651E-05-2.85728E-05-9.07900E-09-7.33501E-20 1.71616E-18
 -1      2728 9.52370E-05-2.85678E-05-2.85725E-05-5.60870E-09 1.98783E-18 1.01316E-18
 -1      2729 9.52368E-05-2.85682E-05-2.85723E-05-4.53424E-09 1.37161E-18 1.55379E-18
 -1      2730 9.52357E-05-2.85665E-05-2.85725E-05-6.32836E-09 1.75725E-18 1.60663E-18
 -1      2731 9.52370E-05-2.85687E-05-2.85721E-05-3.61259E-09 5.26245E-19 2.17254E-18
 -1      2732 9.52369E-05-2.85691E-05-2.85720E-05-2.81437E-09 8.25101E-19 1.22563E-18
 -1      2733 9.52362E-05-2.85677E-05-2.85722E-05-4.17757E-09 8.64811E-19 5.80175E-19
 -1      2734 9.52371E-05-2.85694E-05-2.85718E-05-2.14325E-09 1.31339E-18 6.05333E-19
 -1      2735 9.52370E-05-2.85697E-05-2.85717E-05-1.59242E-09 6.46786E-19 4.34909E-19
 -1      2736 9.52365E-05-2.85687E-05-2.85719E-05-2.57282E-09 6.42924E-19 3.64406E-19
 -1      2737 9.52370E-05-2.85698E-05-2.85716E-05-1.24015E-09 8.57414E-19 5.02026E-19
 -1      2738 9.52370E-05-2.85701E-05-2.85715E-05-8.84820E-10 6.07753E-19 8.43175E-19
 -1      2739 9.52367E-05-2.85697E-05-2.85716E-05-9.01494E-10 1.10067E-18 9.17746E-19
 -1      2740 9.52367E-05-2.85693E-05-2.85717E-05-1.53261E-09 1.94899E-18-7.38132E-19
 -1      2741 1.37607E-04-3.71680E-06-5.81426E-05-1.68526E-06-1.73028E-18-4.30200E-19
 -1      2742 1.40058E-04-7.40520E-06-5.75088E-05-6.78412E-06-2.28974E-18 1.06779E-19
 -1      2743 9.43815E-05-2.59657E-05-2.93213E-05-9.75863E-07 3.97432E-19 1.00544E-18
 -1      2744 9.46452E-05-2.58869E-05-2.94591E-05-4.24254E-08 4.57469E-19 1.18994E-18
 -1      2745 8.99427E-05-2.25133E-05-2.89068E-05-5.67993E-06 3.83977E-19 8.53316E-19
 -1      2746 9.09317E-05-2.35516E-05-2.89123E-05-4.65957E-06 4.60138E-19 9.96733E-19
 -1      2747 8.63312E-05-1.95138E-05-2.86633E-05-7.42623E-06 3.96941E-19 5.38945E-19
 -1      2748 8.79494E-05-2.10341E-05-2.87388E-05-6.24847E-06 3.89982E-19 7.95473E-19
 -1      2749 8.77240E-05-2.07680E-05-2.86104E-05-4.35483E-06 5.28798E-19 8.96285E-19
 -1      2750 8.01336E-05-1.50320E-05-2.79484E-05-9.42175E-06 1.57535E-19 1.78683E-19
 -1      2751 8.30353E-05-1.72628E-05-2.82767E-05-7.96783E-06 2.99586E-19 3.34611E-19
 -1      2752 8.27212E-05-1.70488E-05-2.80059E-05-5.01074E-06 4.72564E-19 9.04605E-19
 -1      2753 7.03016E-05-9.42749E-06-2.61326E-05-1.13731E-05 3.45742E-19 1.41203E-19
 -1      2754 7.49740E-05-1.20714E-05-2.70679E-05-9.79669E-06 1.24726E-19-2.98050E-20
 -1      2755 7.47005E-05-1.18905E-05-2.66702E-05-5.06253E-06 3.40196E-19 2.55629E-19
 -1      2756 5.56439E-05-4.32059E-06-2.18912E-05-1.31689E-05 9.62104E-19 1.92700E-20
 -1      2757 6.25167E-05-6.19449E-06-2.42045E-05-1.14864E-05 7.35304E-19 1.89206E-19
 -1      2758 6.24926E-05-5.90941E-06-2.37950E-05-3.96468E-06 4.34111E-19-3.73429E-19
 -1      2759 3.85699E-05-4.01767E-06-1.42911E-05-1.38000E-05 8.80094E-19-3.71636E-19
 -1      2760 4.63095E-05-2.79307E-06-1.85410E-05-1.27817E-05 1.02684E-18-6.67038E-20
 -1      2761 4.64596E-05-1.40529E-06-1.84664E-05-9.25425E-07 1.04136E-18-5.55336E-19
 -1      2762 2.72866E-05-2.61640E-06-9.43712E-06 3.43959E-06 5.82706E-19-2.43522E-20
 -1      2763 8.93833E-05-2.14777E-05-2.91738E-05 6.83578E-06 1.30722E-18 5.68181E-19
 -1      2764 8.81840E-05-2.00205E-05-2.92058E-05 8.49790E-06 4.92550E-19 8.21721E-19
 -1      2765 9.52365E-05-2.85692E-05-2.85717E-05 1.16437E-09-9.19378E-19 3.86798E-18
 -1      2766 9.52367E-05-2.85694E-05-2.85717E-05 1.19445E-09-5.07244E-19 3.02314E-18
 -1      2767 8.48209E-05-1.76770E-05-2.88747E-05 9.67633E-06-1.58456E-19 1.43108E-18
 -1      2768 8.25754E-05-1.56365E-05-2.86807E-05 1.19389E-05-4.82875E-19 2.07749E-18
 -1      2769 8.30287E-05-1.66937E-05-2.83135E-05 6.60156E-06 5.21653E-19 9.23074E-19
 -1      2770 9.22244E-05-2.45253E-05-2.90138E-05-4.05294E-06 4.78372E-19 1.01097E-18
 -1      2771 9.27850E-05-2.51083E-05-2.90206E-05-3.18495E-06 4.60529E-19 9.73640E-19
 -1      2772 9.08593E-05-2.32677E-05-2.89224E-05-3.41577E-06 4.87134E-19 8.47274E-19
 -1      2773 1.47961E-04-5.12698E-05-4.14986E-05-5.35380E-06 1.15350E-18-5.63595E-19
 -1      2774 1.49018E-04-4.35006E-05-4.58942E-05 2.15453E-06 8.58997E-19-6.47768E-19
 -1      2775 4.18894E-05-1.41077E-05-1.13517E-05-3.71882E-05-8.88326E-20 2.65862E-18
 -1      2776 5.69019E-05-2.53956E-05-1.30688E-05-4.78671E-05 4.43845E-19 3.11666E-18
 -1      2777 7.72805E-05-1.26530E-05-2.77958E-05 1.33471E-05-1.46119E-18 1.37796E-18
 -1      2778 7.37753E-05-1.04865E-05-2.70107E-05 1.59572E-05-1.33065E-18 1.35429E-18
 -1      2779 7.47092E-05-1.12979E-05-2.70064E-05 8.30278E-06-1.18704E-18 1.04821E-18
 -1      2780 9.21027E-05-2.41541E-05-2.91661E-05 4.61947E-06 6.43610E-19 4.65143E-19
 -1      2781 9.14248E-05-2.31129E-05-2.92647E-05 5.86961E-06 1.24561E-18 6.42905E-19
 -1      2782 8.81673E-05-2.07751E-05-2.87974E-05 4.97182E-06 1.05556E-18 3.53653E-19
 -1      2783 9.36230E-05-2.58854E-05-2.90583E-05 3.04258E-06-6.96343E-19 8.10787E-19
 -1      2784 9.32976E-05-2.52240E-05-2.91608E-05 3.89917E-06 5.90392E-20 6.96474E-19
 -1      2785 9.12669E-05-2.36503E-05-2.89250E-05 3.55258E-06 1.80798E-19-7.25462E-20
 -1      2786 9.44458E-05-2.69662E-05-2.89368E-05 1.96067E-06-5.50005E-19-3.18248E-19
 -1      2787 9.43040E-05-2.65578E-05-2.90216E-05 2.52748E-06-3.24556E-19 4.53174E-19
 -1      2788 9.30588E-05-2.55345E-05-2.89089E-05 2.43523E-06-6.84819E-20-2.43656E-19
 -1      2789 9.48779E-05-2.76264E-05-2.88323E-05 1.24209E-06-1.31093E-18 2.08296E-19
 -1      2790 9.48255E-05-2.73791E-05-2.88957E-05 1.60759E-06-1.28039E-18-3.58573E-19
 -1      2791 9.40776E-05-2.67310E-05-2.88465E-05 1.62113E-06-7.81414E-19 9.02477E-20
 -1      2792 9.50967E-05-2.80230E-05-2.87519E-05 7.76400E-07-6.82716E-19-1.66528E-18
 -1      2793 9.50847E-05-2.78755E-05-2.87968E-05 1.00745E-06-1.56095E-18-5.34497E-19
 -1      2794 9.46438E-05-2.74732E-05-2.87788E-05 1.05609E-06-1.17313E-18-9.36731E-19
 -1      2795 9.52016E-05-2.82579E-05-2.86937E-05 4.80335E-07-3.33417E-19 4.07224E-19
 -1      2796 9.52062E-05-2.81711E-05-2.87244E-05 6.24098E-07 1.89432E-19-1.12887E-19
 -1      2797 9.49508E-05-2.79254E-05-2.87208E-05 6.77004E-07-7.41996E-19-2.47590E-18
 -1      2798 9.52476E-05-2.83952E-05-2.86530E-05 2.94987E-07 1.52477E-20 1.89862E-19
 -1      2799 9.52575E-05-2.83448E-05-2.86736E-05 3.83279E-07-1.67019E-19 3.70591E-19
 -1      2800 9.51124E-05-2.81969E-05-2.86759E-05 4.28989E-07-7.84145E-20-8.50764E-19
 -1      2801 9.52642E-05-2.84743E-05-2.86253E-05 1.80374E-07 1.49866E-18 7.86907E-21
 -1      2802 9.52745E-05-2.84455E-05-2.86389E-05 2.34018E-07 1.17044E-18 1.76246E-19
 -1      2803 9.51938E-05-2.83577E-05-2.86431E-05 2.69773E-07 8.12164E-19-7.12846E-19
 -1      2804 9.52669E-05-2.85191E-05-2.86068E-05 1.10166E-07 9.25827E-19-1.08827E-18
 -1      2805 9.52759E-05-2.85029E-05-2.86156E-05 1.42482E-07 1.48802E-18-4.77278E-20
 -1      2806 9.52322E-05-2.84514E-05-2.86199E-05 1.69000E-07 2.01913E-18-1.86594E-19
 -1      2807 9.52639E-05-2.85439E-05-2.85946E-05 6.74547E-08 6.50960E-19-1.16449E-18
 -1      2808 9.52710E-05-2.85350E-05-2.86002E-05 8.67818E-08 3.43088E-19-1.23183E-18
 -1      2809 9.52481E-05-2.85053E-05-2.86040E-05 1.05846E-07 7.74138E-19-1.10250E-18
 -1      2810 9.52591E-05-2.85569E-05-2.85868E-05 4.25288E-08 1.39173E-18-7.26567E-19
 -1      2811 9.52643E-05-2.85522E-05-2.85903E-05 5.37188E-08 1.12916E-18-3.62196E-19
 -1      2812 9.52529E-05-2.85352E-05-2.85933E-05 6.71461E-08 1.35736E-19-1.00021E-18
 -1      2813 9.52540E-05-2.85642E-05-2.85814E-05 2.62913E-08 2.53241E-18 1.86805E-19
 -1      2814 9.52581E-05-2.85617E-05-2.85838E-05 3.33822E-08 2.00892E-18 3.61090E-19
 -1      2815 9.52526E-05-2.85517E-05-2.85861E-05 4.29535E-08 6.13456E-19-1.63628E-18
 -1      2816 9.52495E-05-2.85679E-05-2.85779E-05 1.63578E-08 1.78195E-18 2.00618E-19
 -1      2817 9.52525E-05-2.85666E-05-2.85794E-05 2.06425E-08 2.66214E-18 9.53555E-20
 -1      2818 9.52503E-05-2.85611E-05-2.85812E-05 2.72730E-08 2.45300E-18 4.10694E-20
 -1      2819 9.52460E-05-2.85697E-05-2.85756E-05 1.01852E-08 5.03474E-19 6.95512E-19
 -1      2820 9.52480E-05-2.85691E-05-2.85766E-05 1.28062E-08 1.33391E-18 6.75342E-19
 -1      2821 9.52475E-05-2.85660E-05-2.85779E-05 1.73905E-08 1.22161E-18 3.36372E-19
 -1      2822 9.52432E-05-2.85705E-05-2.85740E-05 6.27634E-09-8.79913E-19 4.31562E-19
 -1      2823 9.52447E-05-2.85702E-05-2.85747E-05 7.91222E-09 1.16143E-19 1.55847E-18
 -1      2824 9.52449E-05-2.85685E-05-2.85756E-05 1.10741E-08 6.22767E-20 8.73173E-19
 -1      2825 9.52412E-05-2.85708E-05-2.85730E-05 3.74714E-09 1.30985E-18 2.21355E-19
 -1      2826 9.52422E-05-2.85707E-05-2.85734E-05 4.79242E-09 9.85508E-20 4.39218E-19
 -1      2827 9.52427E-05-2.85697E-05-2.85742E-05 6.96760E-09 4.08601E-19 1.14501E-18
 -1      2828 9.52398E-05-2.85709E-05-2.85724E-05 2.07727E-09 2.00377E-19 3.01630E-19
 -1      2829 9.52404E-05-2.85709E-05-2.85726E-05 2.75998E-09 1.06176E-18 2.58628E-19
 -1      2830 9.52410E-05-2.85703E-05-2.85732E-05 4.25019E-09 1.00804E-18 3.14612E-18
 -1      2831 9.52388E-05-2.85710E-05-2.85719E-05 9.61451E-10 1.11739E-19-2.55584E-19
 -1      2832 9.52392E-05-2.85709E-05-2.85721E-05 1.41239E-09-9.71989E-20-8.45650E-19
 -1      2833 9.52397E-05-2.85706E-05-2.85725E-05 2.42615E-09 2.75496E-19 4.35585E-19
 -1      2834 9.52381E-05-2.85710E-05-2.85716E-05 2.20715E-10-1.64740E-18 2.45738E-20
 -1      2835 9.52384E-05-2.85710E-05-2.85717E-05 5.13984E-10-7.90230E-19-2.61301E-19
 -1      2836 9.52388E-05-2.85708E-05-2.85720E-05 1.19786E-09-4.78397E-19-2.27368E-18
 -1      2837 9.52377E-05-2.85711E-05-2.85714E-05-2.54282E-10-1.99242E-20-2.57772E-19
 -1      2838 9.52378E-05-2.85710E-05-2.85715E-05-6.51884E-11-7.20701E-19 2.52746E-19
 -1      2839 9.52382E-05-2.85709E-05-2.85717E-05 3.82012E-10-1.53290E-18-2.55168E-18
 -1      2840 9.52374E-05-2.85712E-05-2.85712E-05-4.77638E-10-1.05588E-18-2.06052E-18
 -1      2841 9.52374E-05-2.85703E-05-2.85716E-05 9.30269E-10-1.09262E-18-3.63947E-18
 -1      2842 9.52375E-05-2.85705E-05-2.85716E-05 7.48795E-10 3.30423E-19-2.97274E-18
 -1      2843 9.52376E-05-2.85708E-05-2.85715E-05 4.80148E-10 3.75836E-21-4.72350E-18
 -1      2844 9.52377E-05-2.85709E-05-2.85715E-05 2.58656E-10 9.84354E-19-3.47317E-18
 -1      2845 9.52377E-05-2.85704E-05-2.85717E-05 8.52342E-10 2.28707E-19-3.41709E-18
 -1      2846 9.52369E-05-2.85697E-05-2.85717E-05 1.17873E-09-8.79950E-19-7.76519E-19
 -1      2847 9.52371E-05-2.85700E-05-2.85716E-05 1.09134E-09-9.66189E-19-2.26840E-18
 -1      2848 9.52367E-05-2.85691E-05-2.85718E-05 1.43932E-09-5.05181E-19 1.15876E-18
 -1      2849 9.52361E-05-2.85688E-05-2.85717E-05 8.96802E-10-4.49555E-19 2.23660E-18
 -1      2850 9.52363E-05-2.85690E-05-2.85717E-05 1.03596E-09-2.84694E-19 2.37934E-18
 -1      2851 9.52362E-05-2.85685E-05-2.85718E-05 1.30064E-09 3.12042E-19 3.57241E-18
 -1      2852 9.52359E-05-2.85686E-05-2.85717E-05 4.42831E-10-2.39734E-19 1.68044E-18
 -1      2853 9.52360E-05-2.85687E-05-2.85717E-05 6.54519E-10-3.41146E-19 2.42542E-18
 -1      2854 9.52358E-05-2.85681E-05-2.85718E-05 8.87180E-10 1.62880E-19 2.89515E-18
 -1      2855 9.52359E-05-2.85686E-05-2.85717E-05-7.66297E-11 3.06731E-19 7.56753E-19
 -1      2856 9.52359E-05-2.85686E-05-2.85717E-05 1.49340E-10 4.04552E-19 4.95565E-19
 -1      2857 9.52356E-05-2.85680E-05-2.85718E-05 2.99750E-10 1.20818E-18 1.90223E-18
 -1      2858 9.52361E-05-2.85689E-05-2.85717E-05-5.54521E-10 2.15691E-19 2.09854E-18
 -1      2859 9.52360E-05-2.85688E-05-2.85717E-05-3.63445E-10-5.14246E-20 2.45169E-18
 -1      2860 9.52356E-05-2.85681E-05-2.85718E-05-3.34466E-10 1.10972E-18 1.07374E-18
 -1      2861 9.52365E-05-2.85694E-05-2.85716E-05-8.32685E-10 1.99768E-18 2.43686E-18
 -1      2862 9.52363E-05-2.85692E-05-2.85716E-05-7.31908E-10 1.00926E-18 2.31347E-18
 -1      2863 9.52359E-05-2.85685E-05-2.85717E-05-8.43137E-10 1.77828E-18 2.95949E-18
 -1      2864 9.52364E-05-2.85692E-05-2.85717E-05-1.11303E-09 1.31784E-18 1.51312E-18
 -1      2865 1.04595E-04-5.09370E-05-2.25148E-05-4.75779E-05 1.99159E-18 1.77485E-18
 -1      2866 1.22492E-04-5.74264E-05-2.82229E-05-3.97465E-05 2.10265E-18-1.27320E-20
 -1      2867 1.37177E-04-5.93050E-05-3.30263E-05-2.67476E-05 1.69396E-18-1.34784E-19
 -1      2868 1.44363E-04-5.78157E-05-3.76228E-05-1.75204E-05 1.49141E-18 1.15408E-19
 -1      2869 1.34425E-04-1.04674E-05-5.37268E-05 8.80663E-06 3.27590E-19-8.45551E-19
 -1      2870 1.35640E-04-5.27209E-06-5.65597E-05 3.67715E-06-5.97158E-19-9.10534E-19
 -1      2871 1.47895E-04-5.54530E-05-4.01550E-05 1.01882E-05-9.48272E-19-6.49780E-19
 -1      2872 1.40415E-04-5.98010E-05-3.43981E-05 2.29379E-05-6.31516E-19-7.39036E-19
 -1      2873 5.74850E-05-2.49931E-05-1.36345E-05 4.62668E-05 3.76189E-19 1.39887E-18
 -1      2874 4.14255E-05-1.45788E-05-1.08084E-05 3.56588E-05 3.38919E-19 1.27690E-18
 -1      2875 9.29403E-05-1.81417E-05-3.20563E-05-8.85673E-06 5.60015E-19-1.76854E-18
 -1      2876 3.07345E-05-1.46796E-06-1.18764E-05-7.59227E-06-1.60923E-18 1.29427E-18
 -1      2877 3.32038E-05-5.40287E-06-1.12380E-05-2.34542E-05-8.30939E-19 2.83078E-18
 -1      2878 9.35679E-05-2.56157E-05-2.91209E-05-2.54495E-06 4.01428E-19 9.31408E-19
 -1      2879 9.39223E-05-2.58470E-05-2.91761E-05-1.71694E-06 4.06388E-19 9.97447E-19
 -1      2880 9.28371E-05-2.47532E-05-2.91565E-05-2.27187E-06 4.34785E-19 8.54875E-19
 -1      2881 9.09268E-05-1.57469E-05-3.22407E-05-3.75689E-06 1.32421E-18-9.58697E-19
 -1      2882 9.12850E-05-1.62560E-05-3.21812E-05-4.73003E-06 1.22273E-18-1.10718E-18
 -1      2883 1.28326E-04-5.95691E-05-2.98274E-05 3.53292E-05-4.11552E-19-3.75606E-20
 -1      2884 1.15119E-04-5.53509E-05-2.52312E-05 4.21468E-05-3.74177E-19 2.64195E-19
 -1      2885 1.46201E-04-3.34034E-05-4.86796E-05 8.71545E-06 7.00814E-19-7.96211E-19
 -1      2886 1.39653E-04-2.24261E-05-5.09666E-05 1.19319E-05 5.90594E-19-6.65980E-19
 -1      2887 1.41519E-04-3.83651E-05-4.43931E-05 8.25825E-06 9.09184E-19-1.18023E-18
 -1      2888 1.42008E-04-1.43166E-05-5.54971E-05-9.66236E-06-2.81850E-18 4.40457E-19
 -1      2889 1.44402E-04-2.15356E-05-5.30597E-05-1.10919E-05-2.87674E-18 5.05996E-19
 -1      2890 9.82670E-05-4.84687E-05-2.13548E-05 4.92864E-05-1.46113E-19 6.97055E-19
 -1      2891 7.83432E-05-3.77918E-05-1.67776E-05 4.96035E-05-3.46225E-20 1.21443E-18
 -1      2892 1.08571E-04-5.06885E-05-2.44944E-05 4.15183E-05-2.38652E-19 1.29305E-19
 -1      2893 7.14125E-05-3.45227E-05-1.53037E-05-5.08554E-05 8.34751E-19 3.38697E-18
 -1      2894 8.75392E-05-4.31039E-05-1.89704E-05-5.21524E-05 1.31820E-18 3.64589E-18
 -1      2895 1.00076E-04-4.66122E-05-2.25128E-05-4.57960E-05 2.28635E-18 8.76679E-19
 -1      2896 7.05126E-05-2.91763E-05-1.72334E-05-4.58058E-05 9.96005E-19 2.54989E-18
 -1      2897 1.49025E-04-3.31744E-05-5.02963E-05-7.97058E-06-2.62654E-18 5.77253E-19
 -1      2898 1.49672E-04-4.43805E-05-4.53801E-05-1.57341E-06-1.88121E-18-6.28922E-20
 -1      2899 9.50986E-05-2.51531E-05-2.99775E-05 2.39867E-06 6.85739E-19 1.56271E-18
 -1      2900 9.52369E-05-2.45829E-05-3.02762E-05 3.66861E-06 8.17843E-19 1.60292E-18
 -1      2901 9.48828E-05-2.34922E-05-3.05820E-05 4.16425E-06 9.10767E-19 1.41947E-18
 -1      2902 9.11344E-05-1.62966E-05-3.20624E-05 4.33425E-07 1.32637E-18-1.90073E-19
 -1      2903 9.00567E-05-1.45548E-05-3.23791E-05-5.91872E-08 1.47822E-18-3.11129E-19
 -1      2904 9.01833E-05-1.47011E-05-3.23662E-05-1.02770E-06 1.44259E-18-5.61103E-19
 -1      2905 9.03812E-05-1.49797E-05-3.23356E-05-1.90266E-06 1.46280E-18-6.08057E-19
 -1      2906 9.06176E-05-1.52919E-05-3.23020E-05-2.89048E-06 1.38199E-18-7.83070E-19
 -1      2907 9.19343E-05-1.74035E-05-3.19296E-05-2.89720E-06 1.21856E-18-7.58929E-19
 -1      2908 9.14309E-05-1.66792E-05-3.20260E-05-1.22228E-06 1.28448E-18-6.04014E-19
 -1      2909 1.33290E-04-1.07854E-05-5.29208E-05-9.48155E-06-2.55995E-18-2.65386E-19
 -1      2910 5.06597E-05-4.14521E-06-1.93057E-05 1.75885E-05-1.16586E-18 1.79889E-19
 -1      2911 5.60266E-05-8.04443E-06-2.01454E-05 2.63638E-05-6.14946E-19-6.83132E-19
 -1      2912 1.28292E-04-5.74635E-05-3.02515E-05-3.08800E-05 2.24506E-18-2.05617E-19
 -1      2913 9.40216E-05-2.53407E-05-2.94269E-05-9.07819E-07 4.07579E-19 7.58585E-19
 -1      2914 9.52372E-05-2.85698E-05-2.85718E-05 1.27572E-09 1.59763E-19-2.71938E-18
 -1      2915 1.40818E-04-2.82863E-05-4.86101E-05-1.13952E-05-3.01639E-18-4.65339E-19
 -1      2916 4.61755E-05-1.00865E-05-1.49018E-05-2.85367E-05-4.50939E-19 2.40886E-18
 -1      2917 4.31287E-05-2.11319E-06-1.70378E-05 1.07021E-05-1.41943E-18 7.33954E-19
 -1      2918 3.53797E-05-1.22437E-06-1.38146E-05 5.50559E-07-1.74157E-18 9.10878E-19
 -1      2919 4.13611E-05-1.34910E-06-1.68742E-05-5.69596E-06-2.11139E-18 1.02004E-18
 -1      2920 5.03268E-05-2.08750E-06-2.05232E-05 8.65790E-06-1.46571E-18 1.51481E-18
 -1      2921 1.43293E-04-5.38351E-05-3.84128E-05-7.84615E-06 1.56019E-18-7.38877E-19
 -1      2922 9.48395E-05-2.57771E-05-2.95950E-05 5.99958E-07 5.91526E-19 1.23555E-18
 -1      2923 9.50413E-05-2.55057E-05-2.97893E-05 1.59244E-06 6.16010E-19 1.34535E-18
 -1      2924 9.49137E-05-2.48064E-05-3.00597E-05 2.06132E-06 7.95034E-19 1.22356E-18
 -1      2925 9.46348E-05-2.52534E-05-2.97315E-05 5.25529E-07 5.60736E-19 9.49631E-19
 -1      2926 1.42078E-04-4.45103E-05-4.22886E-05-5.91672E-06-1.55134E-18 1.27584E-20
 -1      2927 1.47495E-04-5.10191E-05-4.15209E-05 1.58853E-06-1.17071E-18-2.12711E-19
 -1      2928 1.41488E-04-5.37285E-05-3.76679E-05 5.71070E-06-7.61463E-19-2.94662E-19
 -1      2929 6.35079E-05-5.90667E-06-2.43476E-05 1.16950E-05-1.53623E-18 1.23005E-18
 -1      2930 9.52377E-05-2.85711E-05-2.85714E-05-2.16191E-10 2.38911E-19-2.13352E-18
 -1      2931 9.52378E-05-2.85710E-05-2.85714E-05-4.71148E-12 9.94838E-19-6.43560E-19
 -1      2932 1.28441E-04-5.24065E-06-5.32798E-05 1.12303E-06-9.84358E-19-1.16094E-18
 -1      2933 9.52379E-05-2.85708E-05-2.85716E-05 3.34671E-10 3.74395E-19-1.90494E-18
 -1      2934 1.34332E-04-5.88774E-05-3.21382E-05 2.42481E-05-2.43734E-19-4.04141E-19
 -1      2935 9.43083E-05-2.08996E-05-3.14951E-05-8.26973E-06 3.58020E-19-1.73728E-18
 -1      2936 9.48201E-05-2.28270E-05-3.08799E-05-6.55039E-06 2.55146E-19-1.53533E-18
 -1      2937 3.33604E-05-8.26718E-06-9.95812E-06 2.78496E-05 1.67501E-19 1.58078E-18
 -1      2938 2.68584E-05-4.77945E-06-8.81265E-06 1.45448E-05 1.89947E-19 8.59315E-19
 -1      2939 3.71001E-05-2.91794E-06-1.43137E-05 1.09333E-05 6.74940E-19 2.00959E-19
 -1      2940 4.71128E-05-1.18831E-05-1.45801E-05 3.00463E-05 8.11775E-19 1.47363E-18
 -1      2941 9.46988E-05-2.25016E-05-3.09348E-05-5.97142E-06 3.71340E-19-1.30226E-18
 -1      2942 7.33839E-05-3.04126E-05-1.79193E-05 4.39882E-05 3.79683E-19 9.84041E-19
 -1      2943 1.32843E-04-1.64516E-05-5.03462E-05 1.18519E-05 5.17537E-19-8.52486E-19
 -1      2944 1.23948E-04-1.14278E-05-4.86312E-05 1.01343E-05 2.53686E-19-1.18436E-18
 -1      2945 1.29673E-04-2.22515E-05-4.62931E-05 1.25932E-05 6.73709E-19-9.18025E-19
 -1      2946 5.76363E-05-1.56881E-05-1.73399E-05 3.07508E-05-1.12761E-18-4.58033E-19
 -1      2947 9.26381E-05-1.84930E-05-3.17588E-05-4.46975E-06 1.01465E-18-1.03714E-18
 -1      2948 9.17228E-05-1.69166E-05-3.20800E-05-5.51790E-06 1.09284E-18-1.24144E-18
 -1      2949 9.21803E-05-1.76360E-05-3.19900E-05-6.43133E-06 9.12558E-19-1.39138E-18
 -1      2950 9.46075E-05-2.27108E-05-3.08211E-05 4.49263E-06 1.00969E-18 1.36790E-18
 -1      2951 9.40398E-05-2.15792E-05-3.10627E-05 4.75588E-06 1.16043E-18 1.32997E-18
 -1      2952 9.47316E-05-2.35537E-05-3.04901E-05 3.29040E-06 9.65616E-19 1.27047E-18
 -1      2953 9.34839E-05-2.06075E-05-3.12368E-05 4.51922E-06 1.23552E-18 1.17150E-18
 -1      2954 1.24933E-04-8.05706E-06-5.06618E-05-7.10472E-06-2.03267E-18-1.08253E-18
 -1      2955 1.27286E-04-1.34591E-05-4.90847E-05-1.15796E-05-2.63946E-18-6.33157E-19
 -1      2956 9.52450E-05-2.39188E-05-3.05648E-05-4.30209E-06 2.97871E-19-1.03976E-18
 -1      2957 9.55038E-05-2.51049E-05-3.01912E-05-3.20309E-06 2.43083E-19-9.02319E-19
 -1      2958 8.50490E-05-3.59327E-05-2.10642E-05 4.29169E-05 2.62104E-19 6.91708E-19
 -1      2959 6.75742E-05-2.34677E-05-1.84970E-05 3.85000E-05 6.17487E-19 9.86052E-19
 -1      2960 1.39186E-04-5.55805E-05-3.55254E-05-1.07839E-05 1.76132E-18-5.66824E-19
 -1      2961 1.40038E-04-5.04939E-05-3.88579E-05-1.27253E-06 1.39235E-18-1.36325E-18
 -1      2962 1.20853E-04-5.43832E-05-2.80948E-05-3.30274E-05 2.09349E-18-3.78194E-19
 -1      2963 1.31848E-04-5.76551E-05-3.22483E-05-2.27484E-05 1.96583E-18 3.38813E-20
 -1      2964 9.59752E-05-2.62188E-05-2.98755E-05-2.45856E-06 2.04432E-19-7.06482E-19
 -1      2965 9.61073E-05-2.70709E-05-2.96027E-05-1.77979E-06 1.00377E-19-6.09579E-19
 -1      2966 9.57446E-05-2.51450E-05-3.02568E-05-2.82338E-06 3.70736E-19-7.45469E-19
 -1      2967 9.64517E-05-2.78868E-05-2.93634E-05-1.32087E-06-2.99088E-21-2.76233E-19
 -1      2968 9.65583E-05-2.85372E-05-2.91642E-05-9.94953E-07 7.87910E-20-2.47718E-19
 -1      2969 9.65331E-05-2.72518E-05-2.96980E-05-1.56038E-06 3.44817E-19-3.60307E-19
 -1      2970 9.68812E-05-2.91921E-05-2.89891E-05-8.21313E-07-8.35070E-20-6.99591E-20
 -1      2971 9.70139E-05-2.97300E-05-2.88467E-05-7.97035E-07-3.48174E-20-2.40312E-19
 -1      2972 9.71972E-05-2.89033E-05-2.92788E-05-8.68511E-07-4.84632E-20 6.03253E-20
 -1      2973 9.73752E-05-3.02986E-05-2.87275E-05-8.88781E-07 4.42727E-20-2.03433E-19
 -1      2974 9.75423E-05-3.07623E-05-2.86310E-05-1.12670E-06 7.81882E-20-1.68796E-19
 -1      2975 9.78835E-05-3.02892E-05-2.89809E-05-7.25054E-07-7.87157E-20-3.20353E-20
 -1      2976 9.79622E-05-3.12683E-05-2.85646E-05-1.47093E-06 1.03839E-19-1.86820E-19
 -1      2977 9.81415E-05-3.16486E-05-2.85092E-05-1.93798E-06 1.40854E-19 2.22319E-20
 -1      2978 9.86714E-05-3.15112E-05-2.87952E-05-1.10183E-06 4.73991E-20-1.29280E-19
 -1      2979 9.85973E-05-3.20641E-05-2.84980E-05-2.52232E-06 1.42185E-19 1.03509E-19
 -1      2980 9.87368E-05-3.23043E-05-2.84845E-05-3.17693E-06-1.06878E-19 2.72302E-19
 -1      2981 9.95596E-05-3.25634E-05-2.87229E-05-1.98000E-06 1.36408E-19 5.41609E-20
 -1      2982 9.91553E-05-3.25475E-05-2.85351E-05-3.96942E-06-1.26345E-19 2.66878E-19
 -1      2983 9.91766E-05-3.25483E-05-2.85676E-05-4.73890E-06-3.53495E-20 3.71033E-19
 -1      2984 1.00454E-04-3.33227E-05-2.87756E-05-3.32662E-06 1.41590E-19 2.14850E-19
 -1      2985 9.94338E-05-3.24924E-05-2.86876E-05-5.65494E-06-3.86822E-19 4.65239E-19
 -1      2986 9.92475E-05-3.21343E-05-2.87699E-05-6.41102E-06-6.73398E-19 1.00650E-19
 -1      2987 1.01157E-04-3.35508E-05-2.89703E-05-5.04106E-06-2.20532E-19 2.06245E-19
 -1      2988 9.91929E-05-3.16438E-05-2.89616E-05-7.27669E-06-6.55172E-19 2.26117E-19
 -1      2989 9.87334E-05-3.08414E-05-2.90921E-05-7.82198E-06-6.51819E-19 3.48425E-19
 -1      2990 1.01387E-04-3.29412E-05-2.93195E-05-6.87938E-06-4.71476E-19 3.59727E-19
 -1      2991 9.82575E-05-2.98500E-05-2.93448E-05-8.36180E-06-8.55907E-19 3.04185E-19
 -1      2992 9.75368E-05-2.86321E-05-2.95101E-05-8.45366E-06-7.59460E-19 8.44049E-20
 -1      2993 1.00872E-04-3.12490E-05-2.98157E-05-8.38991E-06-4.66417E-19 2.30903E-19
 -1      2994 9.66645E-05-2.72373E-05-2.97913E-05-8.34216E-06-6.92414E-19-9.55493E-20
 -1      2995 9.58132E-05-2.58176E-05-2.99635E-05-7.76625E-06-6.03444E-19-1.23003E-19
 -1      2996 9.95120E-05-2.84979E-05-3.04131E-05-8.94030E-06-8.20796E-19-3.15879E-19
 -1      2997 9.47864E-05-2.43512E-05-3.02200E-05-6.76967E-06-5.14740E-19-7.28568E-20
 -1      2998 9.40462E-05-2.31190E-05-3.03598E-05-5.46975E-06-6.25148E-19 1.19148E-19
 -1      2999 9.75682E-05-2.51779E-05-3.10162E-05-7.90288E-06-7.11363E-19 2.23331E-19
 -1      3000 9.32659E-05-2.20631E-05-3.05298E-05-3.63098E-06-7.81942E-19 2.33986E-19
 -1      3001 9.28965E-05-2.14403E-05-3.06005E-05-1.79807E-06-9.02947E-19 4.02641E-19
 -1      3002 9.57050E-05-2.22433E-05-3.14953E-05-5.02760E-06-4.27125E-19 2.78820E-19
 -1      3003 9.27155E-05-2.12023E-05-3.06387E-05 4.84606E-07-6.44565E-19 7.01400E-19
 -1      3004 9.28605E-05-2.14235E-05-3.06191E-05 2.43788E-06-4.52306E-19 9.42247E-19
 -1      3005 9.47126E-05-2.07267E-05-3.17287E-05-7.63252E-07-5.16888E-19 8.81271E-19
 -1      3006 9.33721E-05-2.21074E-05-3.05102E-05 4.55548E-06-4.38604E-19 9.15818E-19
 -1      3007 9.39714E-05-2.30800E-05-3.04073E-05 6.15455E-06-3.22976E-19 7.51552E-19
 -1      3008 9.50594E-05-2.12573E-05-3.16478E-05 3.82123E-06-3.59062E-19 1.20861E-18
 -1      3009 9.49049E-05-2.43817E-05-3.01867E-05 7.58194E-06-1.77056E-19 1.07200E-18
 -1      3010 9.57374E-05-2.57404E-05-3.00332E-05 8.52404E-06 1.45935E-19 9.87205E-19
 -1      3011 9.65513E-05-2.35757E-05-3.12732E-05 7.45615E-06-3.22443E-19 1.53662E-18
 -1      3012 9.66795E-05-2.71771E-05-2.97596E-05 9.05800E-06-1.25022E-19 8.89282E-19
 -1      3013 9.74793E-05-2.84962E-05-2.95950E-05 9.29532E-06-7.79295E-20 5.80117E-19
 -1      3014 9.84806E-05-2.67663E-05-3.07151E-05 9.38708E-06-1.74863E-19 1.01384E-18
 -1      3015 9.81067E-05-2.96582E-05-2.93248E-05 9.06424E-06 1.68205E-20 2.54853E-19
 -1      3016 9.86891E-05-3.06433E-05-2.91808E-05 8.75011E-06 2.29560E-19 1.40445E-20
 -1      3017 1.00078E-04-2.97777E-05-3.01035E-05 9.58002E-06-2.31994E-19 6.96658E-19
 -1      3018 9.88842E-05-3.13357E-05-2.89534E-05 8.05152E-06 4.49113E-19 5.88812E-20
 -1      3019 9.91865E-05-3.18861E-05-2.88475E-05 7.41964E-06 1.97662E-19 1.01844E-20
 -1      3020 1.00898E-04-3.19130E-05-2.95455E-05 8.52830E-06 2.66891E-19 1.01070E-18
 -1      3021 9.90106E-05-3.21188E-05-2.86798E-05 6.55191E-06-1.15471E-19 2.63358E-19
 -1      3022 9.90688E-05-3.22852E-05-2.86153E-05 5.81346E-06-2.06827E-19 5.61343E-19
 -1      3023 1.00896E-04-3.29678E-05-2.91023E-05 6.87610E-06 3.16990E-19 4.28066E-19
 -1      3024 9.86648E-05-3.21819E-05-2.85066E-05 4.98277E-06-3.14778E-19 1.48426E-19
 -1      3025 9.85603E-05-3.20846E-05-2.84777E-05 4.28006E-06-4.47222E-19 4.36634E-19
 -1      3026 1.00291E-04-3.31107E-05-2.87910E-05 5.14117E-06-2.48642E-19-7.38548E-21
 -1      3027 9.80703E-05-3.17932E-05-2.84171E-05 3.58859E-06-6.31946E-19 5.85092E-20
 -1      3028 9.78866E-05-3.15568E-05-2.84136E-05 2.99394E-06-6.42058E-19-1.51460E-19
 -1      3029 9.93777E-05-3.26625E-05-2.85979E-05 3.62179E-06-6.87175E-19-4.75908E-19
 -1      3030 9.74121E-05-3.11985E-05-2.83872E-05 2.46795E-06-5.96526E-20 1.18577E-19
 -1      3031 9.72115E-05-3.09182E-05-2.83989E-05 2.00287E-06 2.21027E-19 6.68599E-19
 -1      3032 9.84028E-05-3.19335E-05-2.84952E-05 2.42907E-06-2.01847E-19-2.61766E-19
 -1      3033 9.68070E-05-3.05713E-05-2.83939E-05 1.62761E-06-1.38521E-19 6.96407E-19
 -1      3034 9.66261E-05-3.03056E-05-2.84128E-05 1.28455E-06-4.16171E-19 5.03402E-19
 -1      3035 9.75207E-05-3.11487E-05-2.84538E-05 1.55975E-06 7.00898E-20 5.24748E-19
 -1      3036 9.63102E-05-3.00100E-05-2.84193E-05 1.02975E-06-6.22558E-19 7.76359E-19
 -1      3037 9.61648E-05-2.97872E-05-2.84397E-05 7.88330E-07-5.01357E-21 1.02619E-18
 -1      3038 9.68017E-05-3.04383E-05-2.84490E-05 9.59957E-07-2.05293E-19 8.64248E-19
 -1      3039 9.59340E-05-2.95558E-05-2.84510E-05 6.22316E-07-2.94969E-19 9.81000E-19
 -1      3040 9.58263E-05-2.93836E-05-2.84698E-05 4.59265E-07 5.16309E-19 3.38141E-19
 -1      3041 9.62584E-05-2.98585E-05-2.84631E-05 5.63662E-07-4.23398E-21 2.00563E-18
 -1      3042 9.56668E-05-2.92136E-05-2.84820E-05 3.55181E-07 8.36037E-19-1.03211E-19
 -1      3043 9.55921E-05-2.90887E-05-2.84976E-05 2.49315E-07 1.19696E-18-1.37382E-20
 -1      3044 9.58720E-05-2.94186E-05-2.84844E-05 3.11474E-07 3.07778E-20 1.14618E-18
 -1      3045 9.54873E-05-2.89703E-05-2.85086E-05 1.86672E-07 1.54650E-18-6.49608E-19
 -1      3046 9.54383E-05-2.88843E-05-2.85207E-05 1.20732E-07 8.74392E-19-2.91393E-19
 -1      3047 9.56112E-05-2.91033E-05-2.85063E-05 1.56839E-07 8.10540E-19 1.26968E-19
 -1      3048 9.53728E-05-2.88056E-05-2.85296E-05 8.48523E-08 3.44514E-19-2.54930E-19
 -1      3049 9.53424E-05-2.87491E-05-2.85384E-05 4.57317E-08-4.63943E-19-1.49131E-19
 -1      3050 9.54434E-05-2.88882E-05-2.85256E-05 6.59183E-08 7.57891E-19-7.85671E-19
 -1      3051 9.53035E-05-2.86992E-05-2.85452E-05 2.65633E-08-1.52173E-19-1.06885E-19
 -1      3052 9.52857E-05-2.86639E-05-2.85513E-05 4.80071E-09 5.82092E-19 6.81970E-20
 -1      3053 9.53407E-05-2.87479E-05-2.85409E-05 1.53101E-08 1.04057E-19 6.10878E-19
 -1      3054 9.52640E-05-2.86338E-05-2.85561E-05-4.30356E-09 4.12026E-19 9.22606E-19
 -1      3055 9.52543E-05-2.86128E-05-2.85601E-05-1.52649E-08 2.10812E-19 5.01833E-19
 -1      3056 9.52813E-05-2.86606E-05-2.85524E-05-1.05863E-08 9.16936E-19 3.02686E-19
 -1      3057 9.52432E-05-2.85957E-05-2.85634E-05-1.85717E-08-4.58668E-19 4.49764E-19
 -1      3058 9.52384E-05-2.85840E-05-2.85659E-05-2.31148E-08 3.12906E-19 2.69909E-19
 -1      3059 9.52492E-05-2.86090E-05-2.85604E-05-2.18759E-08-1.29469E-19 1.03240E-18
 -1      3060 9.52335E-05-2.85750E-05-2.85680E-05-2.32854E-08 3.29320E-19-7.30343E-19
 -1      3061 9.52314E-05-2.85691E-05-2.85694E-05-2.42395E-08-1.09317E-19-1.97921E-18
 -1      3062 9.52336E-05-2.85804E-05-2.85658E-05-2.49387E-08-1.11646E-18 5.93585E-19
 -1      3063 9.52299E-05-2.85651E-05-2.85707E-05-2.28819E-08-1.28464E-19-1.80505E-18
 -1      3064 9.52293E-05-2.85625E-05-2.85714E-05-2.20072E-08-9.35346E-19-1.52300E-18
 -1      3065 9.52274E-05-2.85661E-05-2.85692E-05-2.36983E-08-3.15777E-19-8.94197E-19
 -1      3066 9.52295E-05-2.85612E-05-2.85721E-05-2.00550E-08-6.39488E-19-5.16518E-19
 -1      3067 9.52296E-05-2.85606E-05-2.85724E-05-1.83996E-08 2.64415E-19-6.86421E-19
 -1      3068 9.52261E-05-2.85601E-05-2.85711E-05-2.04927E-08 4.12710E-19-3.55374E-19
 -1      3069 9.52304E-05-2.85607E-05-2.85727E-05-1.63656E-08 9.60673E-19 1.45823E-19
 -1      3070 9.52308E-05-2.85610E-05-2.85728E-05-1.45192E-08 1.37236E-18 2.57326E-19
 -1      3071 9.52271E-05-2.85587E-05-2.85722E-05-1.66582E-08 7.47949E-19 6.44953E-19
 -1      3072 9.52318E-05-2.85617E-05-2.85729E-05-1.26605E-08 6.80936E-19 1.44042E-19
 -1      3073 9.52322E-05-2.85624E-05-2.85728E-05-1.09277E-08 2.08713E-19 1.22540E-18
 -1      3074 9.52290E-05-2.85595E-05-2.85726E-05-1.29110E-08 1.42892E-18 8.82170E-19
 -1      3075 9.52332E-05-2.85633E-05-2.85728E-05-9.35180E-09 5.60769E-19 1.20496E-18
 -1      3076 9.52336E-05-2.85641E-05-2.85727E-05-7.86749E-09 1.07029E-18 2.14366E-18
 -1      3077 9.52310E-05-2.85614E-05-2.85727E-05-9.59466E-09 8.38522E-19 2.17143E-18
 -1      3078 9.52344E-05-2.85650E-05-2.85726E-05-6.59792E-09 7.42676E-19 2.12023E-18
 -1      3079 9.52347E-05-2.85658E-05-2.85724E-05-5.40176E-09 1.19217E-18 1.37625E-18
 -1      3080 9.52327E-05-2.85634E-05-2.85726E-05-6.83627E-09 8.31230E-19 1.74333E-18
 -1      3081 9.52353E-05-2.85666E-05-2.85723E-05-4.42644E-09 1.08687E-18 1.48064E-18
 -1      3082 9.52355E-05-2.85672E-05-2.85721E-05-3.50992E-09 7.67742E-19 1.71308E-18
 -1      3083 9.52341E-05-2.85653E-05-2.85723E-05-4.64705E-09 1.14849E-18 1.83540E-18
 -1      3084 9.52360E-05-2.85679E-05-2.85720E-05-2.78209E-09 3.21647E-19 1.99596E-18
 -1      3085 9.52361E-05-2.85684E-05-2.85719E-05-2.12764E-09 2.93356E-19 8.99145E-19
 -1      3086 9.52352E-05-2.85669E-05-2.85721E-05-2.98596E-09 1.11828E-18 2.68304E-18
 -1      3087 9.52363E-05-2.85687E-05-2.85718E-05-1.77008E-09-1.48112E-19 1.35838E-18
 -1      3088 9.52363E-05-2.85689E-05-2.85717E-05-1.38489E-09 3.27443E-19 9.66546E-19
 -1      3089 9.52360E-05-2.85686E-05-2.85718E-05-1.29835E-09 4.65160E-19 3.33416E-18
 -1      3090 9.52357E-05-2.85679E-05-2.85719E-05-1.92711E-09-2.21443E-19 2.91632E-18
 -1      3091 8.61207E-05-2.00563E-05-2.83769E-05-2.36462E-06 5.64202E-19 8.11127E-19
 -1      3092 8.81029E-05-2.14486E-05-2.85940E-05-2.14897E-06 4.93659E-19 7.32189E-19
 -1      3093 5.83613E-05-6.27899E-06-2.23560E-05 4.77114E-06 6.80392E-19 6.23893E-20
 -1      3094 6.58124E-05-8.87319E-06-2.44008E-05 2.78923E-06 4.96381E-19 3.03450E-19
 -1      3095 4.42120E-05-3.22964E-06-1.73324E-05 9.22285E-06 9.92670E-19 1.11173E-19
 -1      3096 5.27031E-05-4.53949E-06-2.05327E-05 6.30124E-06 8.90476E-19-9.14266E-20
 -1      3097 5.91930E-05-7.86140E-06-2.14747E-05 1.35456E-05 6.92363E-19 7.35728E-19
 -1      3098 4.70488E-05-6.16307E-06-1.68645E-05 1.95653E-05 6.40410E-19 1.07700E-18
 -1      3099 9.07931E-05-2.38009E-05-2.87425E-05 2.04926E-06-4.93384E-19 4.85661E-19
 -1      3100 8.95848E-05-2.26509E-05-2.87116E-05 2.55029E-06 7.02657E-19 5.43292E-19
 -1      3101 9.52352E-05-2.85674E-05-2.85719E-05 8.73314E-10 1.96167E-18 2.90338E-18
 -1      3102 9.52354E-05-2.85675E-05-2.85720E-05 1.16303E-09 1.06715E-18 2.88577E-18
 -1      3103 9.52357E-05-2.85678E-05-2.85720E-05 1.47686E-09 7.67968E-19 3.26507E-18
 -1      3104 9.52360E-05-2.85680E-05-2.85720E-05 1.64435E-09 7.95093E-19 2.99873E-18
 -1      3105 9.52352E-05-2.85669E-05-2.85721E-05 1.52266E-09 1.98083E-18 3.07334E-18
 -1      3106 8.76813E-05-2.11511E-05-2.85556E-05 2.59751E-06 1.37821E-18-8.50859E-20
 -1      3107 8.56854E-05-1.94623E-05-2.84038E-05 3.09801E-06 1.02394E-18 2.73417E-19
 -1      3108 8.77704E-05-2.13530E-05-2.83889E-05 9.39041E-07 5.31436E-19 7.70102E-19
 -1      3109 8.98560E-05-2.26606E-05-2.88357E-05-2.27897E-06 4.55671E-19 7.55462E-19
 -1      3110 9.11524E-05-2.35755E-05-2.89770E-05-1.86389E-06 4.27298E-19 7.91015E-19
 -1      3111 8.89018E-05-2.18951E-05-2.86576E-05-5.34399E-07 5.18306E-19 5.22467E-19
 -1      3112 9.26857E-05-2.55781E-05-2.87817E-05 1.51305E-06-2.67937E-19 6.25534E-19
 -1      3113 9.19895E-05-2.48254E-05-2.87970E-05 1.91682E-06-6.11265E-19 6.77939E-19
 -1      3114 9.07524E-05-2.38650E-05-2.86197E-05 1.02855E-06-5.04107E-19 1.98937E-18
 -1      3115 9.38062E-05-2.67276E-05-2.87619E-05 1.06741E-06-9.55102E-19 2.39071E-19
 -1      3116 9.34153E-05-2.62482E-05-2.87906E-05 1.36559E-06-2.03999E-20 6.85092E-19
 -1      3117 9.25983E-05-2.55749E-05-2.86966E-05 8.96951E-07-2.89634E-19 1.06268E-18
 -1      3118 9.44563E-05-2.74535E-05-2.87243E-05 7.29795E-07-4.81808E-19-6.33873E-19
 -1      3119 9.42419E-05-2.71545E-05-2.87529E-05 9.38834E-07-1.12686E-18-2.70788E-19
 -1      3120 9.37175E-05-2.67005E-05-2.87053E-05 7.02263E-07-8.47897E-19 5.22381E-19
 -1      3121 9.48259E-05-2.79035E-05-2.86866E-05 4.88300E-07-1.09408E-18-7.30125E-19
 -1      3122 9.47114E-05-2.77200E-05-2.87103E-05 6.29724E-07-7.89007E-19-1.01255E-18
 -1      3123 9.43828E-05-2.74227E-05-2.86878E-05 5.17301E-07-3.12838E-19 9.21045E-19
 -1      3124 9.50313E-05-2.81779E-05-2.86548E-05 3.22070E-07 7.47292E-20-1.17566E-18
 -1      3125 9.49723E-05-2.80670E-05-2.86729E-05 4.15335E-07-3.29156E-19-1.29589E-18
 -1      3126 9.47705E-05-2.78766E-05-2.86635E-05 3.67069E-07-2.41354E-19-3.04101E-19
 -1      3127 9.51422E-05-2.83428E-05-2.86303E-05 2.10636E-07 5.76081E-19-7.24674E-19
 -1      3128 9.51134E-05-2.82768E-05-2.86434E-05 2.71010E-07 9.65742E-21-1.07987E-18
 -1      3129 9.49917E-05-2.81570E-05-2.86405E-05 2.54480E-07 3.24519E-19-5.12910E-19
 -1      3130 9.51998E-05-2.84405E-05-2.86123E-05 1.37260E-07 1.35101E-18-6.65776E-19
 -1      3131 9.51870E-05-2.84017E-05-2.86216E-05 1.75839E-07 1.67888E-18-5.59658E-19
 -1      3132 9.51148E-05-2.83275E-05-2.86216E-05 1.74009E-07 4.69903E-19-1.08374E-18
 -1      3133 9.52280E-05-2.84973E-05-2.85995E-05 8.95219E-08 1.01768E-18-2.29236E-19
 -1      3134 9.52233E-05-2.84749E-05-2.86059E-05 1.13941E-07 8.77507E-19-8.93752E-20
 -1      3135 9.51812E-05-2.84296E-05-2.86071E-05 1.18143E-07 9.40117E-19 4.38148E-20
 -1      3136 9.52401E-05-2.85288E-05-2.85910E-05 5.98331E-08-5.59708E-19 3.91645E-20
 -1      3137 9.52393E-05-2.85164E-05-2.85951E-05 7.47665E-08 4.05691E-19-6.90410E-19
 -1      3138 9.52151E-05-2.84888E-05-2.85966E-05 8.07124E-08 9.49849E-19 2.89853E-19
 -1      3139 9.52448E-05-2.85477E-05-2.85847E-05 3.92757E-08 7.91553E-19-1.31287E-18
 -1      3140 9.52456E-05-2.85404E-05-2.85876E-05 4.92597E-08-2.47706E-19-1.09220E-18
 -1      3141 9.52317E-05-2.85234E-05-2.85891E-05 5.52673E-08 3.86871E-19 2.28618E-19
 -1      3142 9.52456E-05-2.85583E-05-2.85804E-05 2.59107E-08 1.72534E-18 3.94254E-19
 -1      3143 9.52470E-05-2.85543E-05-2.85824E-05 3.22730E-08 1.59018E-18-7.91365E-19
 -1      3144 9.52393E-05-2.85440E-05-2.85836E-05 3.74739E-08 6.45761E-19-9.09464E-19
 -1      3145 9.52446E-05-2.85640E-05-2.85775E-05 1.71142E-08 6.52073E-19 9.65544E-19
 -1      3146 9.52460E-05-2.85619E-05-2.85788E-05 2.12089E-08 1.82183E-18 1.07048E-18
 -1      3147 9.52420E-05-2.85557E-05-2.85798E-05 2.54175E-08 6.90752E-19 4.08164E-19
 -1      3148 9.52431E-05-2.85671E-05-2.85755E-05 1.12486E-08-2.94519E-19-2.69431E-19
 -1      3149 9.52444E-05-2.85660E-05-2.85764E-05 1.39227E-08-4.98919E-19-2.70188E-19
 -1      3150 9.52423E-05-2.85622E-05-2.85772E-05 1.71869E-08 6.53502E-19 2.93293E-19
 -1      3151 9.52417E-05-2.85688E-05-2.85741E-05 7.28276E-09 2.45129E-19 2.09976E-19
 -1      3152 9.52426E-05-2.85682E-05-2.85747E-05 9.05724E-09 3.41843E-19-9.35788E-20
 -1      3153 9.52417E-05-2.85659E-05-2.85754E-05 1.15187E-08-1.36003E-19-9.01992E-19
 -1      3154 9.52404E-05-2.85697E-05-2.85732E-05 4.56925E-09 1.52668E-18 5.72515E-19
 -1      3155 9.52411E-05-2.85693E-05-2.85736E-05 5.76358E-09 1.16561E-18 1.43122E-18
 -1      3156 9.52407E-05-2.85679E-05-2.85741E-05 7.58259E-09 5.77730E-19-5.53708E-19
 -1      3157 9.52394E-05-2.85702E-05-2.85725E-05 2.70143E-09 1.13420E-18-2.33924E-18
 -1      3158 9.52399E-05-2.85700E-05-2.85728E-05 3.51117E-09 1.95953E-18-2.32237E-19
 -1      3159 9.52398E-05-2.85691E-05-2.85732E-05 4.83445E-09 1.89489E-18-3.20679E-19
 -1      3160 9.52386E-05-2.85705E-05-2.85721E-05 1.42255E-09-5.76312E-19-1.65926E-18
 -1      3161 9.52390E-05-2.85704E-05-2.85723E-05 1.96268E-09 7.39359E-21-1.86945E-18
 -1      3162 9.52390E-05-2.85698E-05-2.85725E-05 2.91849E-09 4.04471E-19-8.68380E-19
 -1      3163 9.52381E-05-2.85707E-05-2.85717E-05 6.33375E-10-9.89085E-19-1.49951E-18
 -1      3164 9.52383E-05-2.85706E-05-2.85719E-05 9.92171E-10-1.58862E-18-2.17495E-18
 -1      3165 9.52384E-05-2.85702E-05-2.85721E-05 1.66174E-09-8.84561E-19-1.23292E-18
 -1      3166 9.52380E-05-2.85705E-05-2.85718E-05 8.73447E-10-8.72019E-19-4.28866E-18
 -1      3167 1.35900E-04-5.75679E-05-3.38870E-05 1.60294E-05 1.83833E-20-6.62181E-19
 -1      3168 1.27762E-04-5.66885E-05-3.01054E-05 2.59356E-05 1.79915E-19-2.35105E-19
 -1      3169 9.52376E-05-2.85698E-05-2.85719E-05 1.47765E-09 4.35042E-19-2.89999E-18
 -1      3170 9.52378E-05-2.85701E-05-2.85718E-05 1.21747E-09 5.23448E-19-2.57854E-18
 -1      3171 9.52380E-05-2.85699E-05-2.85720E-05 1.57347E-09-3.06088E-19-1.89844E-18
 -1      3172 1.14807E-04-5.29764E-05-2.68337E-05 3.60002E-05-1.13926E-19-1.61241E-19
 -1      3173 1.01421E-04-4.53045E-05-2.35487E-05 4.07196E-05 1.16202E-19 2.27164E-19
 -1      3174 1.31836E-04-2.33210E-05-4.70974E-05-1.33068E-05-2.75492E-18-1.95373E-19
 -1      3175 1.37213E-04-3.30489E-05-4.47312E-05-1.22682E-05-2.18122E-18 1.59454E-19
 -1      3176 9.52364E-05-2.85684E-05-2.85720E-05 1.78394E-09 1.02817E-18 2.18279E-18
 -1      3177 9.52367E-05-2.85688E-05-2.85720E-05 1.78756E-09 8.34933E-19 2.60026E-19
 -1      3178 9.52359E-05-2.85676E-05-2.85721E-05 2.02689E-09 1.82647E-18 2.24466E-18
 -1      3179 9.52351E-05-2.85673E-05-2.85719E-05 1.10083E-10 1.51079E-18 1.71895E-18
 -1      3180 9.52351E-05-2.85673E-05-2.85719E-05 4.54004E-10 1.60861E-18 2.97616E-18
 -1      3181 9.52347E-05-2.85666E-05-2.85721E-05 7.26792E-10 1.39104E-18 2.89770E-18
 -1      3182 9.52352E-05-2.85675E-05-2.85719E-05-6.71036E-10 9.86724E-19 1.67182E-18
 -1      3183 9.52351E-05-2.85674E-05-2.85719E-05-3.36219E-10 5.26579E-19 8.37328E-19
 -1      3184 9.52347E-05-2.85666E-05-2.85720E-05-2.15997E-10 3.32497E-19 6.08551E-19
 -1      3185 4.80076E-05-6.46776E-06-1.74346E-05-2.07811E-05-1.75293E-18 1.59083E-18
 -1      3186 5.64889E-05-1.47456E-05-1.75499E-05-3.37410E-05-4.08640E-19 2.00556E-18
 -1      3187 9.36729E-05-2.49371E-05-2.94739E-05-7.08148E-07 4.24065E-19 6.57484E-19
 -1      3188 9.41280E-05-2.49584E-05-2.96432E-05 2.59549E-08 4.05650E-19 6.66297E-19
 -1      3189 1.38485E-04-4.26575E-05-4.10588E-05 7.13551E-06 1.08142E-18-1.78946E-18
 -1      3190 1.33847E-04-3.38494E-05-4.32772E-05 1.14632E-05 1.07256E-18-1.76514E-18
 -1      3191 9.29154E-05-1.85739E-05-3.18597E-05-7.52994E-06 7.46336E-19-1.50526E-18
 -1      3192 9.22497E-05-2.42671E-05-2.91587E-05-1.68862E-06 4.28193E-19 7.02507E-19
 -1      3193 9.30361E-05-2.47073E-05-2.92892E-05-1.12393E-06 4.03350E-19 6.91813E-19
 -1      3194 9.32643E-05-2.44140E-05-2.94855E-05-2.21953E-07 3.62384E-19 5.64329E-19
 -1      3195 9.16123E-05-2.36231E-05-2.91008E-05-7.03263E-07 3.12534E-19 6.28104E-19
 -1      3196 6.49798E-05-6.94171E-06-2.48832E-05 4.96914E-06-1.19778E-18 1.15519E-18
 -1      3197 5.91210E-05-4.67734E-06-2.31494E-05 6.71988E-06-1.26281E-18 1.44708E-18
 -1      3198 5.40621E-05-3.10020E-06-2.13434E-05 8.47443E-07-1.27294E-18 1.55044E-18
 -1      3199 9.52370E-05-2.85691E-05-2.85720E-05 1.77541E-09 9.51471E-19-1.65223E-18
 -1      3200 9.52373E-05-2.85695E-05-2.85719E-05 1.62865E-09 1.12171E-18-3.20936E-18
 -1      3201 9.52374E-05-2.85691E-05-2.85721E-05 2.05113E-09 1.24296E-18-2.65273E-18
 -1      3202 9.52367E-05-2.85684E-05-2.85721E-05 2.18252E-09 2.12585E-18-8.15407E-19
 -1      3203 1.20010E-04-6.69955E-06-4.90149E-05 3.84917E-06-6.87685E-19-1.44176E-18
 -1      3204 1.22293E-04-5.85356E-06-5.03806E-05-2.28154E-06-1.41772E-18-1.34940E-18
 -1      3205 1.17775E-04-9.01104E-06-4.68808E-05-4.26060E-06-1.55722E-18-1.67442E-18
 -1      3206 7.64874E-05-1.29624E-05-2.72897E-05 4.99736E-06-1.53038E-18 8.93863E-19
 -1      3207 7.14736E-05-1.00594E-05-2.63353E-05 5.30039E-06-1.29316E-18 4.96547E-19
 -1      3208 6.83405E-05-8.64802E-06-2.53351E-05 1.21480E-06-8.78545E-19 1.27103E-18
 -1      3209 8.32248E-05-1.76483E-05-2.81746E-05 3.63306E-06 8.25852E-19 4.24507E-19
 -1      3210 8.00987E-05-1.53460E-05-2.77688E-05 4.10089E-06 1.33414E-19 3.75869E-19
 -1      3211 7.77512E-05-1.38998E-05-2.71861E-05 1.69848E-06 2.78940E-19 8.49991E-19
 -1      3212 8.34917E-05-1.79909E-05-2.79496E-05 1.00870E-06 7.95008E-19-5.46182E-19
 -1      3213 7.12920E-05-1.13331E-05-2.58214E-05 4.09542E-07 5.20786E-19 4.81922E-19
 -1      3214 7.63952E-05-1.39690E-05-2.67947E-05-3.86039E-07 5.98472E-19 7.31572E-19
 -1      3215 6.97954E-05-1.14166E-05-2.47425E-05 7.90982E-06 6.67737E-19 1.00097E-18
 -1      3216 8.02200E-05-1.62365E-05-2.75230E-05-1.67189E-06 5.09679E-19 7.85702E-19
 -1      3217 8.35120E-05-1.83094E-05-2.79837E-05-1.79863E-06 5.58019E-19 8.38172E-19
 -1      3218 8.47369E-05-1.91808E-05-2.80014E-05 5.40931E-07 5.77897E-19 7.04379E-19
 -1      3219 7.86223E-05-1.55785E-05-2.68638E-05 3.04118E-06 7.00906E-19 7.33974E-19
 -1      3220 9.19345E-05-1.79372E-05-3.17327E-05 2.26322E-06 1.38006E-18 2.20220E-19
 -1      3221 9.19184E-05-1.78381E-05-3.17565E-05 1.56100E-06 1.29371E-18-2.05819E-20
 -1      3222 9.36579E-05-2.00866E-05-3.15122E-05-6.23734E-06 7.46047E-19-1.42093E-18
 -1      3223 9.19921E-05-1.79051E-05-3.17680E-05 9.37277E-07 1.21540E-18-9.77678E-20
 -1      3224 9.21035E-05-1.80078E-05-3.17637E-05 1.65756E-07 1.23187E-18-2.47499E-19
 -1      3225 9.28607E-05-1.93990E-05-3.14669E-05 1.27171E-06 1.13330E-18 1.13811E-20
 -1      3226 7.12471E-05-2.17779E-05-2.08603E-05 3.23087E-05 4.73452E-19 9.09396E-19
 -1      3227 5.90458E-05-1.59977E-05-1.81031E-05 3.27851E-05 4.94879E-19 1.18600E-18
 -1      3228 1.35075E-04-4.60877E-05-3.82706E-05 3.32835E-06 1.48764E-18-1.87266E-18
 -1      3229 1.32264E-04-5.48629E-05-3.31507E-05-1.50502E-05 2.01624E-18-6.89167E-19
 -1      3230 1.35757E-04-5.10837E-05-3.66091E-05 9.99309E-07-4.38889E-19 4.75080E-19
 -1      3231 1.37695E-04-5.52325E-05-3.53012E-05 8.36803E-06-1.71301E-19-2.74756E-20
 -1      3232 1.31468E-04-5.41509E-05-3.31783E-05 1.13346E-05 8.16129E-20-3.18206E-19
 -1      3233 5.11779E-05-9.86187E-06-1.73295E-05 2.49329E-05 5.19072E-19 1.30454E-18
 -1      3234 9.43704E-05-2.48710E-05-2.97964E-05 4.52862E-07 5.66609E-19 8.10118E-19
 -1      3235 9.45770E-05-2.47174E-05-2.99465E-05 1.13074E-06 7.15391E-19 8.31215E-19
 -1      3236 9.40946E-05-2.44464E-05-2.98391E-05 5.87795E-07 5.60175E-19 5.98245E-19
 -1      3237 9.44221E-05-3.88659E-05-2.34971E-05 3.76506E-05 4.51760E-19 3.41460E-19
 -1      3238 1.18999E-04-1.01396E-05-4.70157E-05 7.23423E-06-1.33937E-19-1.50703E-18
 -1      3239 1.13832E-04-9.93450E-06-4.46824E-05 4.62768E-06-6.73021E-19-1.49342E-18
 -1      3240 1.17417E-04-1.42628E-05-4.43650E-05 9.80966E-06 3.60307E-19-1.62278E-18
 -1      3241 1.20719E-04-5.29753E-05-2.88899E-05 2.72580E-05 1.76500E-19-1.15342E-19
 -1      3242 1.35652E-04-3.94049E-05-4.14665E-05-8.83999E-06-1.34615E-18 2.61945E-19
 -1      3243 6.73300E-05-1.84756E-05-2.05471E-05-3.15166E-05-3.54139E-19 1.37558E-18
 -1      3244 6.67549E-05-2.23050E-05-1.86208E-05-3.88716E-05 3.83944E-19 1.58067E-18
 -1      3245 4.78149E-05-4.08278E-06-1.81636E-05-1.40468E-05-1.64269E-18 1.62053E-18
 -1      3246 5.63114E-05-8.35848E-06-2.03241E-05-1.90195E-05-1.78793E-18 2.11674E-18
 -1      3247 4.95512E-05-3.01128E-06-1.96254E-05-6.24683E-06-1.79011E-18 1.60597E-18
 -1      3248 9.52357E-05-2.85682E-05-2.85718E-05-1.14648E-09 1.13643E-18 2.65863E-18
 -1      3249 9.52355E-05-2.85679E-05-2.85718E-05-9.48706E-10 8.22114E-19 2.01635E-18
 -1      3250 9.52350E-05-2.85671E-05-2.85719E-05-9.84171E-10 1.07780E-18 1.20446E-18
 -1      3251 9.52356E-05-2.85678E-05-2.85719E-05-1.42198E-09 4.93623E-19 2.55736E-18
 -1      3252 9.20049E-05-1.80858E-05-3.16882E-05 2.77433E-06 1.39464E-18 3.40748E-19
 -1      3253 9.28022E-05-1.94659E-05-3.14088E-05 2.31873E-06 1.30564E-18 2.70919E-19
 -1      3254 9.21863E-05-1.84292E-05-3.16330E-05 3.37717E-06 1.35602E-18 5.29080E-19
 -1      3255 1.26698E-04-3.26028E-05-4.04719E-05 1.18555E-05 1.36536E-18-1.40716E-18
 -1      3256 1.28957E-04-2.78652E-05-4.35385E-05 1.34065E-05 1.11157E-18-1.22687E-18
 -1      3257 1.21873E-04-2.16655E-05-4.31785E-05 1.33610E-05 1.07658E-18-1.15662E-18
 -1      3258 1.24986E-04-1.97255E-05-4.53935E-05-1.23751E-05-2.26724E-18-4.13061E-19
 -1      3259 9.42087E-05-2.15968E-05-3.11243E-05-5.20944E-06 6.31864E-19-1.28217E-18
 -1      3260 9.27408E-05-1.89087E-05-3.16521E-05-2.03299E-06 1.20543E-18-6.43166E-19
 -1      3261 9.30235E-05-1.93668E-05-3.15843E-05-2.81718E-06 1.09868E-18-7.60310E-19
 -1      3262 9.33828E-05-4.04905E-05-2.22599E-05-4.29688E-05 1.75256E-18 9.26125E-19
 -1      3263 1.06838E-04-4.85000E-05-2.52182E-05-4.00725E-05 2.10895E-18-7.07802E-20
 -1      3264 1.14203E-04-4.96815E-05-2.73962E-05-3.19649E-05 2.08783E-18 4.26627E-20
 -1      3265 9.33363E-05-1.98939E-05-3.14830E-05-3.46504E-06 1.06880E-18-8.06799E-19
 -1      3266 9.36968E-05-2.05524E-05-3.13711E-05-4.14950E-06 9.44499E-19-9.54326E-19
 -1      3267 9.41110E-05-2.12460E-05-3.12135E-05-2.56479E-06 9.71782E-19-7.92994E-19
 -1      3268 9.28159E-05-1.94761E-05-3.14573E-05 4.23204E-06 1.25594E-18 8.75290E-19
 -1      3269 9.24342E-05-1.88444E-05-3.15495E-05 3.74900E-06 1.29352E-18 7.22549E-19
 -1      3270 9.30528E-05-2.00091E-05-3.12776E-05 3.09181E-06 1.13845E-18 5.47261E-19
 -1      3271 7.94409E-05-3.17993E-05-2.03362E-05-4.31796E-05 1.15133E-18 1.12624E-18
 -1      3272 9.42596E-05-2.16354E-05-3.11194E-05-4.48660E-06 7.01963E-19-1.08289E-18
 -1      3273 9.38173E-05-2.14763E-05-3.09790E-05 3.59341E-06 1.13093E-18 1.03074E-18
 -1      3274 7.96493E-05-2.67219E-05-2.26229E-05 3.27734E-05 6.32654E-19 6.74662E-19
 -1      3275 7.15423E-05-1.94524E-05-2.21915E-05 2.73743E-05 5.43200E-19 1.01943E-18
 -1      3276 9.22816E-05-1.82468E-05-3.17427E-05-5.27568E-07 1.24476E-18-5.07292E-19
 -1      3277 9.24874E-05-1.85261E-05-3.17093E-05-1.33021E-06 1.21532E-18-6.28506E-19
 -1      3278 9.35782E-05-2.03273E-05-3.13780E-05-1.30422E-06 1.10545E-18-6.46519E-19
 -1      3279 9.43006E-05-2.29955E-05-3.05810E-05 2.84708E-06 1.13968E-18 1.20431E-18
 -1      3280 9.37852E-05-2.18821E-05-3.08144E-05 2.83928E-06 1.11788E-18 9.71254E-19
 -1      3281 7.12368E-05-1.14513E-05-2.56822E-05-4.03017E-06-4.24033E-19 1.40791E-18
 -1      3282 6.53452E-05-8.78874E-06-2.42784E-05-5.68709E-06-6.03683E-19 1.82548E-18
 -1      3283 1.32341E-04-4.85999E-05-3.57475E-05 3.83266E-07 1.20383E-18-1.36547E-18
 -1      3284 1.29495E-04-4.21992E-05-3.76076E-05 7.07825E-06 1.03813E-18-1.26192E-18
 -1      3285 9.10744E-05-2.44825E-05-2.85523E-05-2.52155E-08-8.69367E-21 2.64411E-18
 -1      3286 8.98792E-05-2.35206E-05-2.84789E-05-1.02670E-07-1.19036E-19 3.24931E-18
 -1      3287 9.65253E-05-2.65280E-05-2.99831E-05-1.63480E-06 5.36309E-19-4.64357E-19
 -1      3288 9.68778E-05-2.75129E-05-2.97393E-05-1.12463E-06 4.99436E-19-3.49663E-19
 -1      3289 9.74007E-05-2.84633E-05-2.95266E-05-7.75601E-07 2.17890E-19-2.44370E-19
 -1      3290 9.77318E-05-2.92764E-05-2.93470E-05-5.37533E-07-1.91502E-20-1.46174E-19
 -1      3291 9.73157E-05-2.78145E-05-2.97932E-05-7.62920E-07 4.44795E-19-4.72748E-19
 -1      3292 9.82685E-05-3.00989E-05-2.91955E-05-4.11811E-07-7.11500E-20 7.45807E-20
 -1      3293 9.86374E-05-3.08171E-05-2.90740E-05-4.32624E-07 4.91039E-20 1.24236E-19
 -1      3294 9.83620E-05-2.97313E-05-2.94256E-05-2.22927E-07 1.40647E-19-1.08586E-19
 -1      3295 9.92552E-05-3.15737E-05-2.89843E-05-5.41718E-07-3.25779E-20 6.60498E-20
 -1      3296 9.96818E-05-3.22241E-05-2.89197E-05-8.13293E-07 9.19406E-20 1.83522E-19
 -1      3297 9.95086E-05-3.14563E-05-2.91819E-05-1.25624E-07 1.00749E-19 3.26055E-19
 -1      3298 1.00408E-04-3.29242E-05-2.88982E-05-1.17956E-06 5.83795E-20 1.43395E-19
 -1      3299 1.00869E-04-3.34758E-05-2.88952E-05-1.69729E-06 1.10262E-19 2.07662E-20
 -1      3300 1.00852E-04-3.30636E-05-2.90709E-05-5.09958E-07 1.95159E-20 3.46730E-19
 -1      3301 1.01673E-04-3.40609E-05-2.89543E-05-2.34799E-06 1.97076E-19 2.77622E-21
 -1      3302 1.02094E-04-3.44128E-05-2.90221E-05-3.09325E-06 1.86186E-19 6.37175E-20
 -1      3303 1.02394E-04-3.45018E-05-2.91139E-05-1.43741E-06 1.67744E-19 8.22790E-20
 -1      3304 1.02865E-04-3.47436E-05-2.91783E-05-4.02962E-06 2.37297E-22 1.78788E-19
 -1      3305 1.03119E-04-3.47272E-05-2.93274E-05-4.93609E-06-2.50908E-19 2.70156E-19
 -1      3306 1.03998E-04-3.55537E-05-2.93435E-05-2.95881E-06 1.19324E-19 1.38929E-19
 -1      3307 1.03656E-04-3.45927E-05-2.95956E-05-6.07632E-06-4.65541E-19 3.04661E-19
 -1      3308 1.03590E-04-3.40087E-05-2.98309E-05-6.98618E-06-4.99696E-19 3.52830E-19
 -1      3309 1.05353E-04-3.58200E-05-2.97958E-05-5.02740E-06-2.59403E-19 4.08945E-19
 -1      3310 1.03641E-04-3.31879E-05-3.02125E-05-8.09027E-06-6.77708E-19-6.02233E-20
 -1      3311 1.03148E-04-3.19117E-05-3.05237E-05-8.72237E-06-7.70675E-19-3.17186E-19
 -1      3312 1.05993E-04-3.47890E-05-3.04924E-05-7.35544E-06-8.06755E-19-3.85789E-20
 -1      3313 1.02541E-04-3.03277E-05-3.09925E-05-9.37357E-06-5.52303E-19-4.45879E-19
 -1      3314 1.01647E-04-2.84479E-05-3.13428E-05-9.37368E-06-5.28450E-19 1.84689E-20
 -1      3315 1.05472E-04-3.20923E-05-3.14116E-05-9.29048E-06-7.09467E-19-2.99506E-19
 -1      3316 1.00462E-04-2.63310E-05-3.18267E-05-9.05370E-06-5.23840E-19 4.26049E-19
 -1      3317 9.94158E-05-2.42981E-05-3.21492E-05-8.12024E-06-4.78837E-19 6.03599E-19
 -1      3318 1.03660E-04-2.78789E-05-3.24524E-05-9.82291E-06-2.06629E-19 1.53676E-19
 -1      3319 9.81175E-05-2.22942E-05-3.25407E-05-6.55036E-06-3.21907E-19 6.65877E-19
 -1      3320 9.73206E-05-2.07959E-05-3.27546E-05-4.68118E-06-3.13852E-19 9.69897E-19
 -1      3321 1.01110E-04-2.31183E-05-3.34149E-05-8.04431E-06-2.80443E-19 5.20740E-19
 -1      3322 9.66092E-05-1.97743E-05-3.29414E-05-2.07341E-06-4.16694E-19 9.87210E-19
 -1      3323 9.64220E-05-1.94218E-05-3.29910E-05 2.56498E-07-3.26265E-19 1.40355E-18
 -1      3324 9.90026E-05-1.95632E-05-3.40503E-05-3.76840E-06-9.08923E-20 7.66153E-19
 -1      3325 9.66509E-05-1.97836E-05-3.29219E-05 3.12939E-06-5.36908E-19 1.41318E-18
 -1      3326 9.71829E-05-2.07832E-05-3.27785E-05 5.28122E-06-6.05063E-19 1.17151E-18
 -1      3327 9.85155E-05-1.88914E-05-3.41267E-05 1.81913E-06-4.69260E-19 1.35089E-18
 -1      3328 9.82444E-05-2.23810E-05-3.24622E-05 7.40325E-06-2.88781E-19 1.36721E-18
 -1      3329 9.91898E-05-2.42188E-05-3.21806E-05 8.80085E-06-6.52282E-20 1.55681E-18
 -1      3330 9.98765E-05-2.11382E-05-3.37405E-05 6.92635E-06-2.93710E-19 2.15327E-18
 -1      3331 1.00429E-04-2.63149E-05-3.17237E-05 9.69600E-06-3.87376E-19 1.37269E-18
 -1      3332 1.01389E-04-2.82839E-05-3.13789E-05 1.01301E-05-2.81605E-19 1.09911E-18
 -1      3333 1.02252E-04-2.54156E-05-3.28995E-05 9.90332E-06-3.14582E-19 1.62571E-18
 -1      3334 1.02214E-04-3.01043E-05-3.08891E-05 9.90676E-06-1.53187E-19 7.78894E-19
 -1      3335 1.02863E-04-3.16422E-05-3.05523E-05 9.56246E-06-2.63168E-20 1.04918E-18
 -1      3336 1.04353E-04-2.99181E-05-3.18632E-05 1.03848E-05-1.71967E-19 1.07995E-18
 -1      3337 1.03023E-04-3.27692E-05-3.01154E-05 8.65587E-06-5.47858E-20 9.39272E-19
 -1      3338 1.03234E-04-3.36376E-05-2.98340E-05 7.88167E-06 3.66079E-19 7.60982E-19
 -1      3339 1.05334E-04-3.32702E-05-3.08564E-05 9.04862E-06-1.86118E-19 8.72551E-19
 -1      3340 1.02815E-04-3.40391E-05-2.94918E-05 6.76835E-06 3.55241E-19 8.25503E-19
 -1      3341 1.02646E-04-3.42930E-05-2.92841E-05 5.87771E-06 3.97640E-20 6.45006E-19
 -1      3342 1.05033E-04-3.49635E-05-3.00175E-05 6.89552E-06 1.24508E-19 8.79522E-19
 -1      3343 1.01886E-04-3.41582E-05-2.90438E-05 4.86776E-06-2.75776E-19-6.89748E-20
 -1      3344 1.01483E-04-3.39897E-05-2.89074E-05 4.05568E-06-6.20778E-19-2.68533E-19
 -1      3345 1.03805E-04-3.52237E-05-2.93953E-05 4.73332E-06-5.52933E-19 5.97232E-19
 -1      3346 1.00618E-04-3.35563E-05-2.87545E-05 3.27791E-06-8.01685E-19-2.19039E-19
 -1      3347 1.00125E-04-3.31695E-05-2.86754E-05 2.62798E-06-6.87005E-19-1.28359E-19
 -1      3348 1.02147E-04-3.45615E-05-2.89780E-05 2.97716E-06-1.03835E-18 3.03672E-19
 -1      3349 9.93165E-05-3.26327E-05-2.85876E-05 2.09053E-06-1.64105E-19-4.19784E-19
 -1      3350 9.88375E-05-3.21815E-05-2.85491E-05 1.61218E-06 3.51307E-19 3.61432E-19
 -1      3351 1.00457E-04-3.34746E-05-2.87233E-05 1.72906E-06-3.81426E-19 8.12785E-19
 -1      3352 9.81633E-05-3.16626E-05-2.85052E-05 1.26945E-06 5.73381E-19 4.55063E-19
 -1      3353 9.77543E-05-3.12391E-05-2.84924E-05 9.37872E-07 5.87790E-19 9.28998E-19
 -1      3354 9.89724E-05-3.23148E-05-2.85836E-05 9.22823E-07 7.29165E-19 2.74654E-19
 -1      3355 9.72354E-05-3.07981E-05-2.84753E-05 7.33625E-07-1.08178E-19 8.02445E-19
 -1      3356 9.69157E-05-3.04451E-05-2.84770E-05 5.14036E-07-3.39496E-21 1.18820E-18
 -1      3357 9.77854E-05-3.12751E-05-2.85180E-05 4.41725E-07 3.11747E-19 6.26416E-19
 -1      3358 9.65401E-05-3.01006E-05-2.84748E-05 3.99630E-07 1.87205E-19 1.08937E-18
 -1      3359 9.63064E-05-2.98288E-05-2.84831E-05 2.59501E-07-5.54955E-20 1.03660E-18
 -1      3360 9.69001E-05-3.04340E-05-2.84960E-05 1.75027E-07 1.05960E-19 1.00752E-18
 -1      3361 9.60477E-05-2.95756E-05-2.84880E-05 1.99568E-07-5.99108E-19 1.09386E-18
 -1      3362 9.58861E-05-2.93784E-05-2.84985E-05 1.13216E-07-2.72282E-19 4.42926E-19
 -1      3363 9.62751E-05-2.97998E-05-2.84970E-05 3.82611E-08-1.96485E-19 7.15857E-19
 -1      3364 9.57159E-05-2.92014E-05-2.85059E-05 8.45779E-08 1.14472E-20 6.44031E-19
 -1      3365 9.56096E-05-2.90652E-05-2.85159E-05 3.33229E-08 7.91890E-19 1.76305E-19
 -1      3366 9.58541E-05-2.93468E-05-2.85083E-05-2.47694E-08-6.46687E-20 1.74372E-18
 -1      3367 9.55024E-05-2.89469E-05-2.85235E-05 2.17038E-08 1.12486E-18-2.36731E-19
 -1      3368 9.54358E-05-2.88570E-05-2.85319E-05-7.32363E-09 4.75026E-19-5.55761E-19
 -1      3369 9.55827E-05-2.90377E-05-2.85227E-05-4.86237E-08 7.09593E-19 5.78234E-19
 -1      3370 9.53714E-05-2.87812E-05-2.85384E-05-1.02327E-08 7.28141E-19-8.33779E-20
 -1      3371 9.53318E-05-2.87244E-05-2.85449E-05-2.55730E-08 1.03577E-18 7.62062E-19
 -1      3372 9.54153E-05-2.88355E-05-2.85363E-05-5.31892E-08 1.31952E-18-8.49401E-19
 -1      3373 9.52952E-05-2.86780E-05-2.85500E-05-2.43743E-08 1.05920E-18 8.60794E-19
 -1      3374 9.52731E-05-2.86438E-05-2.85548E-05-3.15416E-08 8.42317E-19 5.31356E-19
 -1      3375 9.53171E-05-2.87087E-05-2.85477E-05-4.92062E-08 1.07398E-18 9.30463E-19
 -1      3376 9.52538E-05-2.86169E-05-2.85585E-05-2.86704E-08 7.39513E-19 3.06385E-19
 -1      3377 9.52424E-05-2.85975E-05-2.85618E-05-3.11470E-08-2.26718E-19 9.38307E-19
 -1      3378 9.52629E-05-2.86328E-05-2.85564E-05-4.21219E-08 7.41614E-19 7.36271E-19
 -1      3379 9.52333E-05-2.85829E-05-2.85644E-05-2.78287E-08-1.21662E-18 1.48418E-18
 -1      3380 9.52283E-05-2.85728E-05-2.85665E-05-2.77671E-08-1.11552E-18 1.37031E-18
 -1      3381 9.52355E-05-2.85901E-05-2.85627E-05-3.45093E-08-1.49329E-19 5.66454E-19
 -1      3382 9.52249E-05-2.85657E-05-2.85682E-05-2.45784E-08-1.61467E-18 1.40320E-18
 -1      3383 9.52233E-05-2.85611E-05-2.85695E-05-2.32768E-08-6.02832E-19 1.10340E-18
 -1      3384 9.52237E-05-2.85679E-05-2.85669E-05-2.74670E-08-1.88498E-18 2.76058E-18
 -1      3385 9.52230E-05-2.85584E-05-2.85705E-05-2.04582E-08 1.10534E-18 4.52300E-19
 -1      3386 9.52231E-05-2.85569E-05-2.85712E-05-1.86740E-08 1.33315E-18 1.07707E-18
 -1      3387 9.52203E-05-2.85579E-05-2.85697E-05-2.13800E-08-1.19718E-19 2.61055E-18
 -1      3388 9.52241E-05-2.85566E-05-2.85718E-05-1.62983E-08 1.04679E-18 6.25576E-19
 -1      3389 9.52249E-05-2.85567E-05-2.85721E-05-1.44523E-08 1.86829E-18 1.47340E-18
 -1      3390 9.52211E-05-2.85549E-05-2.85713E-05-1.63102E-08 1.24704E-18 1.53265E-18
 -1      3391 9.52264E-05-2.85574E-05-2.85724E-05-1.25130E-08 2.15493E-18 1.28942E-18
 -1      3392 9.52275E-05-2.85583E-05-2.85725E-05-1.08206E-08 1.72419E-18 2.20559E-18
 -1      3393 9.52237E-05-2.85554E-05-2.85721E-05-1.21871E-08 1.71841E-18 1.43179E-18
 -1      3394 9.52289E-05-2.85595E-05-2.85726E-05-9.27643E-09 1.10769E-18 2.81147E-18
 -1      3395 9.52299E-05-2.85606E-05-2.85726E-05-7.83069E-09 1.00732E-18 2.59951E-18
 -1      3396 9.52267E-05-2.85575E-05-2.85725E-05-8.89530E-09 1.96861E-18 2.16375E-18
 -1      3397 9.52312E-05-2.85619E-05-2.85726E-05-6.62708E-09 1.96805E-19 3.30147E-18
 -1      3398 9.52320E-05-2.85629E-05-2.85725E-05-5.45339E-09 1.20368E-18 3.16373E-18
 -1      3399 9.52294E-05-2.85601E-05-2.85725E-05-6.30931E-09 1.57184E-18 2.46605E-18
 -1      3400 9.52330E-05-2.85641E-05-2.85724E-05-4.53352E-09 2.02615E-18 1.96962E-18
 -1      3401 9.52337E-05-2.85650E-05-2.85723E-05-3.63559E-09 1.37960E-18 2.66396E-18
 -1      3402 9.52317E-05-2.85626E-05-2.85724E-05-4.30524E-09 1.22511E-18 2.06062E-18
 -1      3403 9.27213E-05-2.59256E-05-2.86368E-05 2.14351E-07 1.75740E-19 9.12384E-19
 -1      3404 9.19899E-05-2.52726E-05-2.86155E-05 2.41520E-07 5.15303E-19 1.78581E-18
 -1      3405 9.14744E-05-2.48957E-05-2.85016E-05-7.50641E-07 7.78246E-19 1.17330E-18
 -1      3406 9.52340E-05-2.85658E-05-2.85721E-05-6.16423E-10-5.43580E-19-6.12210E-19
 -1      3407 9.52340E-05-2.85657E-05-2.85721E-05-1.07270E-10-2.95568E-19 4.29623E-19
 -1      3408 9.52345E-05-2.85660E-05-2.85722E-05 1.58328E-09 1.81196E-18 3.10369E-18
 -1      3409 9.52348E-05-2.85662E-05-2.85723E-05 1.95764E-09 2.12907E-18 2.47202E-18
 -1      3410 9.52340E-05-2.85657E-05-2.85722E-05 5.40188E-10-2.54200E-20 2.23619E-18
 -1      3411 9.52342E-05-2.85657E-05-2.85722E-05 1.02152E-09 5.48356E-19 2.20744E-18
 -1      3412 9.52338E-05-2.85649E-05-2.85723E-05 1.48200E-09 6.65261E-19 2.13750E-18
 -1      3413 9.52334E-05-2.85648E-05-2.85723E-05 1.76648E-10-1.32906E-18 1.33829E-18
 -1      3414 8.84953E-05-2.24136E-05-2.83366E-05-6.55486E-07-7.75922E-19 2.68061E-18
 -1      3415 8.65681E-05-2.10320E-05-2.81521E-05-9.80488E-07-2.50919E-19 1.21110E-18
 -1      3416 8.92738E-05-2.31490E-05-2.82906E-05-1.76559E-06-8.66985E-19 1.86283E-18
 -1      3417 8.84125E-05-2.19982E-05-2.85286E-05 1.25709E-06 4.36148E-19 5.81578E-19
 -1      3418 9.01326E-05-2.29423E-05-2.87947E-05 8.43678E-07 4.87658E-19 5.14316E-19
 -1      3419 9.37485E-05-2.68945E-05-2.86590E-05 2.70659E-07-6.95087E-19 3.50241E-19
 -1      3420 9.33099E-05-2.64646E-05-2.86602E-05 3.31779E-07-8.17655E-19 8.24709E-19
 -1      3421 9.29176E-05-2.61508E-05-2.85937E-05-2.47226E-07-6.49573E-20 1.07703E-18
 -1      3422 9.43757E-05-2.75271E-05-2.86545E-05 2.50411E-07-2.64050E-19 8.16008E-19
 -1      3423 9.41178E-05-2.72508E-05-2.86637E-05 3.13554E-07-3.02642E-19 5.37545E-19
 -1      3424 9.38381E-05-2.70133E-05-2.86262E-05-1.64316E-08-4.26359E-19 6.53315E-19
 -1      3425 9.47510E-05-2.79310E-05-2.86405E-05 2.05449E-07 1.53196E-19 3.88118E-19
 -1      3426 9.46023E-05-2.77569E-05-2.86513E-05 2.58773E-07 4.16788E-20 8.31464E-19
 -1      3427 9.44115E-05-2.75873E-05-2.86310E-05 7.56041E-08-1.95654E-19 5.02149E-19
 -1      3428 9.49708E-05-2.81839E-05-2.86251E-05 1.58589E-07 3.52416E-19 5.60952E-19
 -1      3429 9.48871E-05-2.80761E-05-2.86348E-05 1.99601E-07 4.30060E-19 1.01227E-18
 -1      3430 9.47610E-05-2.79597E-05-2.86244E-05 1.01195E-07-1.06030E-19 2.09201E-18
 -1      3431 9.50967E-05-2.83397E-05-2.86115E-05 1.18280E-07 8.35650E-19 7.74628E-19
 -1      3432 9.50509E-05-2.82740E-05-2.86193E-05 1.48235E-07 5.16543E-19 8.27543E-19
 -1      3433 9.49694E-05-2.81962E-05-2.86143E-05 9.77030E-08 1.98712E-19 2.22881E-18
 -1      3434 9.51669E-05-2.84341E-05-2.86006E-05 8.65000E-08 7.05593E-19 2.93138E-19
 -1      3435 9.51428E-05-2.83947E-05-2.86065E-05 1.07698E-07 8.50694E-19 3.53202E-19
 -1      3436 9.50911E-05-2.83438E-05-2.86045E-05 8.35088E-08 7.26902E-19 2.02760E-18
 -1      3437 9.52035E-05-2.84884E-05-2.85927E-05 6.35168E-08 5.70004E-19 5.17254E-19
 -1      3438 9.51918E-05-2.84658E-05-2.85968E-05 7.77965E-08 1.02258E-18 2.84727E-19
 -1      3439 9.51593E-05-2.84327E-05-2.85963E-05 6.74747E-08 8.56148E-19 1.03177E-18
 -1      3440 9.52238E-05-2.85227E-05-2.85865E-05 4.54678E-08 1.28292E-18 2.01396E-19
 -1      3441 9.52179E-05-2.85086E-05-2.85896E-05 5.58639E-08 7.85305E-19 1.01808E-18
 -1      3442 9.51975E-05-2.84870E-05-2.85897E-05 5.25994E-08 9.46615E-19 1.16136E-18
 -1      3443 9.52336E-05-2.85426E-05-2.85820E-05 3.23476E-08 1.68445E-19 2.21730E-19
 -1      3444 9.52313E-05-2.85345E-05-2.85843E-05 3.95289E-08 3.98608E-19-3.03619E-19
 -1      3445 9.52188E-05-2.85207E-05-2.85847E-05 3.97161E-08 8.94482E-19 7.91257E-19
 -1      3446 9.52380E-05-2.85542E-05-2.85789E-05 2.28372E-08 2.21409E-19 5.57506E-19
 -1      3447 9.52374E-05-2.85496E-05-2.85804E-05 2.78073E-08 3.54027E-19 2.90001E-19
 -1      3448 9.52298E-05-2.85407E-05-2.85809E-05 2.94136E-08-2.63839E-19 1.03141E-19
 -1      3449 9.52396E-05-2.85609E-05-2.85766E-05 1.59556E-08 9.14945E-19 5.80651E-19
 -1      3450 9.52397E-05-2.85582E-05-2.85777E-05 1.94143E-08 9.95662E-19 1.24435E-18
 -1      3451 9.52351E-05-2.85526E-05-2.85782E-05 2.14061E-08 4.80630E-19 1.03363E-18
 -1      3452 9.52398E-05-2.85648E-05-2.85750E-05 1.09782E-08 1.77556E-19-4.52794E-19
 -1      3453 9.52402E-05-2.85633E-05-2.85758E-05 1.33997E-08 7.87076E-19-1.25860E-19
 -1      3454 9.52375E-05-2.85596E-05-2.85762E-05 1.53005E-08 1.61521E-18 1.40202E-18
 -1      3455 9.52395E-05-2.85671E-05-2.85739E-05 7.38309E-09 1.23481E-18-4.84141E-19
 -1      3456 9.52400E-05-2.85662E-05-2.85744E-05 9.08585E-09 7.26517E-19-6.29188E-19
 -1      3457 9.52383E-05-2.85638E-05-2.85748E-05 1.07099E-08 8.88279E-19-2.58117E-19
 -1      3458 9.52390E-05-2.85685E-05-2.85731E-05 4.79809E-09 1.76463E-18-6.74256E-19
 -1      3459 9.52395E-05-2.85679E-05-2.85735E-05 5.99551E-09 1.69542E-18-7.33134E-19
 -1      3460 9.52385E-05-2.85663E-05-2.85738E-05 7.30211E-09 1.73999E-18-1.44583E-18
 -1      3461 9.52386E-05-2.85694E-05-2.85725E-05 2.96657E-09 1.22575E-19-8.94435E-19
 -1      3462 9.52389E-05-2.85690E-05-2.85728E-05 3.79031E-09 1.30010E-18-3.67145E-19
 -1      3463 9.52383E-05-2.85679E-05-2.85730E-05 4.80660E-09 1.48429E-18-2.37380E-18
 -1      3464 9.52381E-05-2.85698E-05-2.85721E-05 1.96366E-09-3.70137E-19-1.03178E-18
 -1      3465 9.52384E-05-2.85696E-05-2.85723E-05 2.47209E-09-2.71466E-19-4.27530E-19
 -1      3466 9.52381E-05-2.85688E-05-2.85725E-05 3.23577E-09-7.34376E-20-1.60694E-18
 -1      3467 9.52378E-05-2.85693E-05-2.85722E-05 2.28801E-09 5.34020E-19-6.42583E-19
 -1      3468 5.77993E-05-1.06702E-05-2.00659E-05 2.14937E-05 5.40195E-19 9.40048E-19
 -1      3469 1.26613E-04-5.29200E-05-3.13108E-05-1.70450E-05 1.97603E-18-1.34387E-19
 -1      3470 1.31061E-04-5.23591E-05-3.40420E-05-7.56158E-06 1.45372E-18-1.21195E-18
 -1      3471 1.27459E-04-4.86807E-05-3.38050E-05-2.86462E-06 9.74617E-19-5.07869E-19
 -1      3472 6.67536E-05-1.51252E-05-2.19871E-05-2.46831E-05-2.19620E-19 9.44548E-19
 -1      3473 7.53159E-05-2.22637E-05-2.27231E-05-3.02394E-05 1.23455E-19 1.16136E-18
 -1      3474 1.12210E-04-9.67239E-06-4.41658E-05-2.42436E-06-1.10813E-18-7.52814E-19
 -1      3475 1.14837E-04-1.16688E-05-4.44143E-05-7.77224E-06-1.30702E-18-2.71686E-19
 -1      3476 9.52353E-05-2.85667E-05-2.85723E-05 2.34376E-09 2.91286E-18 2.34641E-18
 -1      3477 9.52358E-05-2.85671E-05-2.85723E-05 2.52464E-09 3.82709E-18 5.36173E-19
 -1      3478 9.52347E-05-2.85656E-05-2.85724E-05 2.49750E-09 3.42007E-18 1.76129E-18
 -1      3479 8.90266E-05-3.45860E-05-2.30569E-05-3.77919E-05 7.97111E-19 8.74191E-19
 -1      3480 1.03465E-04-4.36521E-05-2.58107E-05 3.32968E-05 3.62318E-19 2.33993E-20
 -1      3481 9.01315E-05-3.42571E-05-2.37447E-05 3.43298E-05 5.83394E-19 2.92650E-19
 -1      3482 8.98323E-05-3.16431E-05-2.47434E-05 2.93508E-05 6.99887E-19 3.10186E-19
 -1      3483 9.46956E-05-2.40063E-05-3.02900E-05 2.44765E-06 8.99791E-19 1.12279E-18
 -1      3484 1.28341E-04-3.47966E-05-4.04145E-05-1.19173E-05-1.29392E-18 4.66953E-19
 -1      3485 1.34124E-04-4.43361E-05-3.83771E-05-6.79271E-06-7.23379E-19 4.96520E-19
 -1      3486 5.74639E-05-5.30700E-06-2.23221E-05-6.21313E-06-1.32005E-18 1.77475E-18
 -1      3487 1.18097E-04-1.67358E-05-4.37005E-05-1.11642E-05-1.88237E-18 1.35605E-19
 -1      3488 1.22911E-04-2.48189E-05-4.20227E-05-1.39236E-05-1.95437E-18 6.55273E-19
 -1      3489 1.13197E-04-1.71887E-05-4.12746E-05-9.27502E-06-1.08689E-18 8.64404E-19
 -1      3490 7.09387E-05-1.42969E-05-2.43416E-05 1.43340E-05 4.84622E-19 1.02408E-18
 -1      3491 7.58648E-05-1.58825E-05-2.56534E-05 1.06535E-05 6.33501E-19 9.62269E-19
 -1      3492 1.07990E-04-4.50280E-05-2.66898E-05-3.09674E-05 1.64749E-18 2.56770E-19
 -1      3493 1.18639E-04-5.13944E-05-2.91402E-05-2.55973E-05 1.58901E-18-5.69246E-19
 -1      3494 1.23249E-04-5.28952E-05-3.03221E-05 2.04176E-05 1.49687E-19-4.18275E-19
 -1      3495 1.13579E-04-4.85738E-05-2.75868E-05 2.85566E-05 8.06997E-21-3.84110E-20
 -1      3496 9.48475E-05-2.28312E-05-3.08550E-05-3.43847E-06 7.01726E-19-8.50813E-19
 -1      3497 8.34864E-05-2.85393E-05-2.33085E-05-3.30242E-05 2.35462E-19 6.94263E-19
 -1      3498 9.48036E-05-3.73191E-05-2.48189E-05-3.42291E-05 1.11931E-18 7.43616E-19
 -1      3499 8.26804E-05-2.52714E-05-2.43996E-05-2.70709E-05 5.11869E-19 3.22415E-19
 -1      3500 9.42610E-05-2.16261E-05-3.11368E-05-5.97198E-07 1.02073E-18-6.00084E-19
 -1      3501 9.44990E-05-2.20152E-05-3.10746E-05-1.23047E-06 1.01950E-18-6.88087E-19
 -1      3502 9.31469E-05-1.97122E-05-3.14577E-05 2.83405E-08 1.12202E-18-3.81602E-19
 -1      3503 6.29522E-05-8.72448E-06-2.30072E-05-1.16102E-05-1.01058E-18 1.30701E-18
 -1      3504 1.24441E-04-4.09050E-05-3.59015E-05 7.20814E-06 6.04881E-19-3.92593E-19
 -1      3505 1.26803E-04-3.77445E-05-3.82281E-05 1.04758E-05 8.61512E-19-1.00416E-18
 -1      3506 1.21510E-04-3.16877E-05-3.85440E-05 1.24246E-05 9.42271E-19-6.40383E-19
 -1      3507 9.33552E-05-2.08144E-05-3.11102E-05 2.40016E-06 1.20646E-18 2.99557E-19
 -1      3508 9.33641E-05-2.06668E-05-3.11579E-05 1.99211E-06 1.16830E-18 2.29139E-19
 -1      3509 9.11684E-05-2.35485E-05-2.89435E-05 1.90144E-06 4.35487E-19 4.70217E-19
 -1      3510 9.12329E-05-2.35722E-05-2.90409E-05 3.49392E-07 3.50620E-19 5.53348E-19
 -1      3511 9.23158E-05-2.40758E-05-2.92442E-05 3.68359E-07 2.17510E-19 5.12913E-19
 -1      3512 1.30719E-04-4.66316E-05-3.61226E-05-2.87236E-06-3.31279E-19 4.76350E-19
 -1      3513 9.52344E-05-2.85660E-05-2.85722E-05-2.93702E-09-7.26907E-20 2.29302E-18
 -1      3514 9.52349E-05-2.85668E-05-2.85721E-05-2.25477E-09-1.18796E-19 1.67480E-18
 -1      3515 9.52354E-05-2.85675E-05-2.85719E-05-1.77583E-09 7.88130E-19 2.35058E-18
 -1      3516 9.52344E-05-2.85663E-05-2.85721E-05-1.42019E-09 2.81396E-19 1.33458E-18
 -1      3517 9.52337E-05-2.85653E-05-2.85722E-05-1.36043E-09-1.15654E-18 6.62959E-19
 -1      3518 8.42522E-05-1.96702E-05-2.77757E-05 3.35942E-06 5.87457E-19 6.76169E-19
 -1      3519 8.68093E-05-2.10038E-05-2.81957E-05 2.33954E-06 4.32652E-19 5.90531E-19
 -1      3520 8.85824E-05-2.22957E-05-2.83604E-05 3.71590E-06 3.36439E-19 6.34001E-19
 -1      3521 6.29368E-05-1.15324E-05-2.18786E-05 1.85643E-05 5.69689E-19 9.79911E-19
 -1      3522 9.39277E-05-2.42083E-05-2.98998E-05 8.69949E-07 5.55505E-19 1.00377E-18
 -1      3523 9.41739E-05-2.39918E-05-3.00626E-05 1.27313E-06 8.51225E-19 1.00840E-18
 -1      3524 7.14051E-05-1.68196E-05-2.31765E-05 2.11879E-05 5.38372E-19 1.01488E-18
 -1      3525 9.52335E-05-2.85648E-05-2.85722E-05-2.80424E-09 1.97256E-19 1.95911E-18
 -1      3526 9.52348E-05-2.85667E-05-2.85720E-05-1.69668E-09 2.75544E-19 1.38379E-18
 -1      3527 7.84958E-05-2.11812E-05-2.46140E-05 2.17924E-05 6.86133E-19 8.97312E-19
 -1      3528 9.52370E-05-2.85685E-05-2.85723E-05 2.58420E-09 1.65900E-18-1.73295E-18
 -1      3529 9.52374E-05-2.85688E-05-2.85722E-05 2.46469E-09 7.09108E-19-2.35167E-18
 -1      3530 9.52375E-05-2.85686E-05-2.85724E-05 2.89422E-09 1.52140E-19-1.49461E-18
 -1      3531 1.10650E-04-1.05755E-05-4.31351E-05 9.45978E-07-5.20899E-19-9.90946E-19
 -1      3532 1.07977E-04-1.23940E-05-4.10123E-05-1.96491E-06-2.69356E-19 1.81119E-20
 -1      3533 1.09160E-04-1.22822E-05-4.15649E-05 4.29368E-06-7.19978E-21-1.34118E-18
 -1      3534 1.20704E-04-4.97586E-05-3.03198E-05-1.75669E-05 8.92085E-19 4.84198E-20
 -1      3535 1.17497E-04-1.88657E-05-4.24585E-05 1.18884E-05 5.80720E-19-1.65244E-18
 -1      3536 1.12519E-04-1.67087E-05-4.11857E-05 9.88334E-06-7.02905E-20-2.36490E-18
 -1      3537 1.16883E-04-2.36103E-05-4.00517E-05 1.22873E-05 7.66750E-19-1.57701E-18
 -1      3538 1.22390E-04-3.12935E-05-3.92051E-05-1.19148E-05-1.04683E-18 6.66337E-19
 -1      3539 7.90413E-05-1.60248E-05-2.70941E-05-2.97094E-06 9.59715E-19 9.52714E-20
 -1      3540 7.55239E-05-1.37939E-05-2.65406E-05-2.91119E-06 3.04488E-19 1.17908E-18
 -1      3541 7.45801E-05-1.40032E-05-2.57381E-05-9.02737E-06 2.29038E-19 3.34260E-19
 -1      3542 8.05013E-05-1.92919E-05-2.61867E-05 1.29344E-05 5.33144E-19 9.18171E-19
 -1      3543 7.84065E-05-1.68551E-05-2.65063E-05 7.38551E-06 6.57579E-19 9.70084E-19
 -1      3544 8.20992E-05-1.84589E-05-2.72514E-05 5.37713E-06 6.76942E-19 7.55060E-19
 -1      3545 1.27028E-04-5.32217E-05-3.14933E-05 1.46934E-05 2.93457E-19-3.30887E-19
 -1      3546 1.20004E-04-4.98195E-05-3.01221E-05 1.71573E-05 2.47704E-19-2.35303E-19
 -1      3547 1.27536E-04-5.14908E-05-3.27304E-05 8.19040E-06 5.26484E-20-1.39059E-19
 -1      3548 1.09023E-04-4.45736E-05-2.74539E-05 2.64327E-05 2.41007E-19-2.80566E-19
 -1      3549 1.01972E-04-3.96082E-05-2.65580E-05-2.82674E-05 1.15493E-18 2.83385E-19
 -1      3550 9.40773E-05-2.19213E-05-3.09038E-05 1.79769E-06 1.08748E-18 1.55828E-19
 -1      3551 9.34821E-05-2.07457E-05-3.11903E-05 1.62881E-06 1.18221E-18 1.45953E-19
 -1      3552 9.36132E-05-2.08120E-05-3.12034E-05 1.08765E-06 1.10358E-18-8.52574E-20
 -1      3553 8.60579E-05-2.08830E-05-2.78557E-05-3.69703E-06-3.22021E-21 9.66696E-19
 -1      3554 8.45038E-05-1.96170E-05-2.78518E-05-2.08333E-06 4.88506E-19 8.93825E-19
 -1      3555 8.20596E-05-1.78976E-05-2.75662E-05-2.09159E-06 8.18019E-19 5.44435E-19
 -1      3556 9.52362E-05-2.85676E-05-2.85723E-05 2.61081E-09 3.33248E-18 2.75659E-19
 -1      3557 9.52366E-05-2.85680E-05-2.85723E-05 2.63308E-09 3.14606E-18-7.55170E-19
 -1      3558 9.52366E-05-2.85676E-05-2.85724E-05 3.07101E-09 2.26556E-18 6.80693E-19
 -1      3559 9.52357E-05-2.85666E-05-2.85725E-05 3.00862E-09 4.77290E-18 7.37258E-19
 -1      3560 9.29953E-05-2.43138E-05-2.94652E-05 2.98425E-07 3.48901E-19 7.76986E-19
 -1      3561 9.36319E-05-2.43960E-05-2.96674E-05 6.29244E-07 4.06436E-19 7.88984E-19
 -1      3562 9.28746E-05-2.41688E-05-2.94194E-05 1.19154E-06 4.00645E-19 6.73532E-19
 -1      3563 9.54463E-05-2.40927E-05-3.05794E-05-2.99878E-06 5.46342E-19-6.81329E-19
 -1      3564 9.59146E-05-2.53413E-05-3.02600E-05-2.20786E-06 5.25673E-19-5.20873E-19
 -1      3565 9.49904E-05-2.30411E-05-3.08363E-05-2.74558E-06 8.57283E-19-6.56180E-19
 -1      3566 9.45309E-05-2.41097E-05-3.01696E-05 1.70214E-06 9.02944E-19 1.07189E-18
 -1      3567 9.35190E-05-2.13536E-05-3.09555E-05 2.83908E-06 9.96288E-19 6.60483E-19
 -1      3568 9.33727E-05-2.09528E-05-3.10413E-05 2.58797E-06 1.08136E-18 4.25196E-19
 -1      3569 9.38906E-05-2.19666E-05-3.08007E-05 2.24987E-06 9.78069E-19 2.82696E-19
 -1      3570 9.62018E-05-2.55341E-05-3.02855E-05-1.72222E-06 6.07543E-19-4.01230E-19
 -1      3571 9.38089E-05-2.40586E-05-2.98807E-05 1.26054E-06 6.56396E-19 1.14279E-18
 -1      3572 9.40401E-05-2.25983E-05-3.05901E-05 2.29078E-06 1.00971E-18 9.19904E-19
 -1      3573 9.38164E-05-2.10472E-05-3.12002E-05 5.92742E-07 1.05110E-18-1.89956E-19
 -1      3574 9.40239E-05-2.12874E-05-3.11788E-05-2.89540E-08 1.01643E-18-4.21011E-19
 -1      3575 9.49319E-05-2.28300E-05-3.08900E-05 5.47294E-09 8.99087E-19-4.76899E-19
 -1      3576 9.44556E-05-2.22492E-05-3.09333E-05 1.00245E-06 9.99953E-19-8.93711E-20
 -1      3577 9.40662E-05-2.29039E-05-3.05193E-05 2.19910E-06 8.66306E-19 3.26113E-19
 -1      3578 9.41670E-05-2.27901E-05-3.05889E-05 2.11245E-06 9.49561E-19 1.06383E-19
 -1      3579 9.58340E-05-2.45518E-05-3.05363E-05-1.66171E-06 7.01135E-19-6.59330E-19
 -1      3580 9.64545E-05-2.58649E-05-3.02611E-05-1.08105E-06 6.77441E-19-6.58286E-19
 -1      3581 8.56094E-05-2.65554E-05-2.51589E-05 2.41846E-05 7.52880E-19 5.24459E-19
 -1      3582 8.45837E-05-2.39781E-05-2.58490E-05 1.91344E-05 6.36896E-19 5.80392E-19
 -1      3583 9.21311E-05-2.56455E-05-2.84920E-05-1.28870E-06 6.09604E-19 1.19647E-18
 -1      3584 9.12299E-05-2.49964E-05-2.84214E-05-1.70758E-06 4.50608E-19 1.04184E-18
 -1      3585 9.83233E-05-2.91916E-05-2.96126E-05 7.53011E-08 4.53637E-19-3.72835E-19
 -1      3586 9.88685E-05-3.01411E-05-2.94581E-05 2.74641E-07 3.18098E-19-1.68051E-19
 -1      3587 9.95964E-05-3.11063E-05-2.93328E-05 4.23480E-07 1.54019E-19-9.83220E-20
 -1      3588 1.00223E-04-3.20012E-05-2.92417E-05 4.08305E-07 1.11712E-19-9.61359E-20
 -1      3589 9.94172E-05-3.06190E-05-2.95013E-05 8.05781E-07 3.18288E-19-4.24589E-19
 -1      3590 1.01108E-04-3.29445E-05-2.91873E-05 3.52677E-07 1.01227E-19 1.09432E-19
 -1      3591 1.01843E-04-3.38009E-05-2.91679E-05 9.52802E-08 7.70577E-20 8.45319E-20
 -1      3592 1.01014E-04-3.26620E-05-2.93176E-05 1.01269E-06 1.56435E-19-4.17153E-20
 -1      3593 1.02928E-04-3.47210E-05-2.92012E-05-2.35528E-07 1.63805E-19 1.67541E-19
 -1      3594 1.03741E-04-3.54791E-05-2.92685E-05-7.76967E-07 3.08513E-19 2.84547E-19
 -1      3595 1.02975E-04-3.46897E-05-2.92942E-05 7.65995E-07 1.34249E-19 1.19101E-19
 -1      3596 1.04988E-04-3.62772E-05-2.94153E-05-1.47547E-06 2.97594E-19 1.89619E-19
 -1      3597 1.05764E-04-3.67720E-05-2.95899E-05-2.32680E-06 7.20797E-20 2.63734E-19
 -1      3598 1.05318E-04-3.66065E-05-2.94767E-05-1.14809E-07 1.04145E-19 1.43660E-19
 -1      3599 1.07010E-04-3.72247E-05-2.98824E-05-3.45985E-06-1.14160E-19 2.89414E-19
 -1      3600 1.07543E-04-3.71751E-05-3.01846E-05-4.57610E-06-3.36232E-19 1.26525E-19
 -1      3601 1.07854E-04-3.80678E-05-2.99285E-05-1.82587E-06-8.11615E-20 1.04407E-19
 -1      3602 1.08466E-04-3.69320E-05-3.06518E-05-6.08164E-06-5.73558E-19 2.68583E-19
 -1      3603 1.08505E-04-3.59954E-05-3.10893E-05-7.26606E-06-7.51901E-19 2.12851E-19
 -1      3604 1.10104E-04-3.84215E-05-3.07202E-05-4.43221E-06-3.93241E-19 1.23037E-19
 -1      3605 1.08658E-04-3.46939E-05-3.17313E-05-8.74333E-06-6.58543E-19 6.29781E-19
 -1      3606 1.08063E-04-3.27225E-05-3.22793E-05-9.55817E-06-6.31925E-19 8.24554E-19
 -1      3607 1.11242E-04-3.67369E-05-3.18944E-05-7.58811E-06-5.63101E-19 9.89844E-19
 -1      3608 1.07158E-04-3.01913E-05-3.30517E-05-1.04718E-05-2.28700E-19 1.05144E-18
 -1      3609 1.05895E-04-2.73473E-05-3.36323E-05-1.02783E-05-8.06766E-20 1.04846E-18
 -1      3610 1.10710E-04-3.27952E-05-3.33763E-05-1.02005E-05-1.90797E-19 1.93731E-18
 -1      3611 1.04342E-04-2.43328E-05-3.43745E-05-9.62081E-06-2.62656E-19 6.14883E-19
 -1      3612 1.02888E-04-2.14987E-05-3.48563E-05-8.19527E-06-1.80607E-19 1.12573E-18
 -1      3613 1.08082E-04-2.61755E-05-3.50903E-05-1.07504E-05-3.44326E-19 1.74306E-18
 -1      3614 1.01455E-04-1.90409E-05-3.53642E-05-5.59703E-06-3.34677E-21 7.43486E-19
 -1      3615 1.00621E-04-1.75729E-05-3.55450E-05-2.99525E-06-2.03587E-19 8.47637E-19
 -1      3616 1.04734E-04-1.97765E-05-3.64006E-05-7.61445E-06-2.22456E-19 9.67153E-19
 -1      3617 1.02069E-04-1.58271E-05-3.69891E-05 6.53751E-09 1.54651E-19 5.99506E-19
 -1      3618 1.02261E-04-1.62389E-05-3.69173E-05 3.05915E-06 2.19782E-19 9.42715E-19
 -1      3619 1.04326E-04-2.44321E-05-3.41851E-05 1.01403E-05-3.38553E-19 1.72552E-18
 -1      3620 1.05579E-04-2.72797E-05-3.36471E-05 1.08961E-05-4.10455E-19 1.20663E-18
 -1      3621 1.06767E-04-3.00392E-05-3.28640E-05 1.07154E-05-3.60356E-19 1.14362E-18
 -1      3622 1.07658E-04-3.24274E-05-3.22830E-05 1.03200E-05-2.19269E-20 1.04148E-18
 -1      3623 1.09101E-04-2.92977E-05-3.41456E-05 1.14050E-05-3.38199E-19 7.89554E-19
 -1      3624 1.07811E-04-3.42192E-05-3.15577E-05 9.00971E-06-6.11998E-20 9.10026E-19
 -1      3625 1.08013E-04-3.55736E-05-3.10522E-05 8.00233E-06-2.54326E-19 5.41239E-19
 -1      3626 1.10561E-04-3.46184E-05-3.25132E-05 9.50001E-06-1.71845E-19 4.61858E-19
 -1      3627 1.07283E-04-3.62375E-05-3.04775E-05 6.46441E-06 1.45046E-19 5.05184E-19
 -1      3628 1.06875E-04-3.66271E-05-3.00886E-05 5.33007E-06 3.38472E-19 5.12524E-19
 -1      3629 1.09926E-04-3.73071E-05-3.11177E-05 6.43572E-06-7.45635E-20 2.62445E-19
 -1      3630 1.05644E-04-3.64464E-05-2.96818E-05 4.05138E-06-2.54717E-19 6.58124E-19
 -1      3631 1.04883E-04-3.61868E-05-2.94126E-05 3.09016E-06-8.17214E-19 6.37579E-19
 -1      3632 1.07874E-04-3.76979E-05-3.00877E-05 3.57021E-06 8.64869E-20 5.52856E-19
 -1      3633 1.03536E-04-3.55592E-05-2.91496E-05 2.21565E-06-7.34577E-19 5.94330E-19
 -1      3634 1.02664E-04-3.49760E-05-2.89798E-05 1.52462E-06-8.39711E-19 1.03133E-18
 -1      3635 1.05240E-04-3.67104E-05-2.93950E-05 1.49390E-06-7.37502E-19 1.00368E-18
 -1      3636 1.01447E-04-3.42121E-05-2.88228E-05 1.02094E-06-6.92591E-19 1.19839E-18
 -1      3637 1.00630E-04-3.35482E-05-2.87250E-05 5.76234E-07-1.74672E-19 1.24636E-18
 -1      3638 1.02652E-04-3.51306E-05-2.89657E-05 2.44751E-07-3.97929E-19 1.63191E-18
 -1      3639 9.96461E-05-3.28250E-05-2.86393E-05 3.33657E-07 1.44565E-19 1.24893E-18
 -1      3640 9.89654E-05-3.22140E-05-2.85895E-05 7.30403E-08 9.25004E-19 1.07403E-18
 -1      3641 1.00453E-04-3.35001E-05-2.87197E-05-3.70046E-07-5.95843E-20 1.84913E-18
 -1      3642 9.82268E-05-3.16108E-05-2.85480E-05-1.08454E-08 6.19052E-19 1.33953E-19
 -1      3643 9.77031E-05-3.11100E-05-2.85274E-05-1.49870E-07-1.07742E-19 2.80338E-19
 -1      3644 9.87436E-05-3.20783E-05-2.85918E-05-5.85273E-07-9.63210E-21 4.93595E-19
 -1      3645 9.71799E-05-3.06467E-05-2.85112E-05-1.51430E-07-4.04662E-19 1.00712E-18
 -1      3646 9.68011E-05-3.02664E-05-2.85067E-05-2.18160E-07 1.03426E-19 7.92571E-19
 -1      3647 9.74991E-05-3.09560E-05-2.85340E-05-5.85674E-07 1.24621E-19 4.10265E-19
 -1      3648 9.64466E-05-2.99302E-05-2.85039E-05-1.85477E-07 5.89356E-19 6.13581E-19
 -1      3649 9.61859E-05-2.96569E-05-2.85073E-05-2.12475E-07 6.88035E-19 1.48123E-18
 -1      3650 9.66376E-05-3.01284E-05-2.85150E-05-4.94942E-07 3.41146E-19 9.17746E-19
 -1      3651 9.59554E-05-2.94240E-05-2.85107E-05-1.71067E-07-8.79285E-20 1.84573E-18
 -1      3652 9.57838E-05-2.92365E-05-2.85172E-05-1.78137E-07 7.77215E-20 1.70694E-18
 -1      3653 9.60658E-05-2.95471E-05-2.85154E-05-3.80915E-07 6.66498E-19 1.64643E-18
 -1      3654 9.56398E-05-2.90815E-05-2.85229E-05-1.40025E-07 3.41015E-19 1.03163E-18
 -1      3655 9.55317E-05-2.89581E-05-2.85298E-05-1.38220E-07 7.20621E-19 7.16443E-19
 -1      3656 9.57009E-05-2.91555E-05-2.85242E-05-2.75969E-07 1.92439E-19 1.27444E-18
 -1      3657 9.54454E-05-2.88590E-05-2.85356E-05-1.07627E-07 1.11049E-18 6.52533E-19
 -1      3658 9.53805E-05-2.87810E-05-2.85417E-05-1.02616E-07 1.73941E-18 8.15079E-19
 -1      3659 9.54774E-05-2.89018E-05-2.85354E-05-1.91837E-07 5.53788E-19 1.79221E-18
 -1      3660 9.53313E-05-2.87201E-05-2.85466E-05-7.98868E-08 1.74821E-18 3.67898E-19
 -1      3661 9.52943E-05-2.86730E-05-2.85515E-05-7.43017E-08 9.91405E-19 6.51148E-19
 -1      3662 9.53463E-05-2.87436E-05-2.85458E-05-1.29621E-07 1.24430E-18 8.79127E-19
 -1      3663 9.52681E-05-2.86373E-05-2.85554E-05-5.82165E-08 7.43925E-19-9.68153E-20
 -1      3664 9.52485E-05-2.86103E-05-2.85590E-05-5.31188E-08 7.45972E-19 8.03546E-20
 -1      3665 9.52737E-05-2.86491E-05-2.85544E-05-8.59853E-08 9.58731E-19-3.83631E-20
 -1      3666 9.52360E-05-2.85908E-05-2.85618E-05-4.20842E-08 1.51754E-18 4.04615E-20
 -1      3667 9.52268E-05-2.85764E-05-2.85644E-05-3.77901E-08 8.83305E-20 1.19061E-18
 -1      3668 9.52367E-05-2.85956E-05-2.85610E-05-5.64759E-08 1.13671E-18-2.71437E-19
 -1      3669 9.52219E-05-2.85666E-05-2.85663E-05-3.03559E-08-1.53751E-18 1.92198E-18
 -1      3670 9.52185E-05-2.85599E-05-2.85680E-05-2.68683E-08-1.77002E-18 2.22781E-18
 -1      3671 9.52202E-05-2.85677E-05-2.85656E-05-3.69964E-08-1.07824E-19 1.72602E-19
 -1      3672 9.52177E-05-2.85559E-05-2.85692E-05-2.18963E-08-1.52015E-18 2.32954E-18
 -1      3673 9.52173E-05-2.85535E-05-2.85703E-05-1.91112E-08 2.67937E-19 2.05007E-18
 -1      3674 9.52151E-05-2.85550E-05-2.85687E-05-2.43120E-08-1.07765E-18 8.41717E-19
 -1      3675 9.52184E-05-2.85526E-05-2.85710E-05-1.57797E-08 1.09418E-18 1.65893E-18
 -1      3676 9.52194E-05-2.85525E-05-2.85716E-05-1.35741E-08 7.89898E-19 8.02976E-19
 -1      3677 9.52157E-05-2.85508E-05-2.85707E-05-1.60826E-08 9.96962E-20 2.50344E-19
 -1      3678 9.52213E-05-2.85532E-05-2.85720E-05-1.13204E-08 1.43527E-18 1.44043E-18
 -1      3679 9.52228E-05-2.85542E-05-2.85723E-05-9.58402E-09 2.26992E-18 1.01155E-18
 -1      3680 9.52188E-05-2.85512E-05-2.85718E-05-1.07120E-08 1.18962E-18 1.53972E-18
 -1      3681 9.52247E-05-2.85556E-05-2.85724E-05-8.03867E-09 1.90216E-18 2.17111E-18
 -1      3682 9.52262E-05-2.85570E-05-2.85725E-05-6.68127E-09 1.55195E-18 2.30007E-18
 -1      3683 9.52226E-05-2.85536E-05-2.85724E-05-7.15676E-09 2.01263E-18 1.90811E-18
 -1      3684 9.52279E-05-2.85585E-05-2.85726E-05-5.60934E-09 1.68320E-18 1.99249E-18
 -1      3685 9.52292E-05-2.85600E-05-2.85725E-05-4.54949E-09 1.50882E-18 2.14882E-18
 -1      3686 9.52262E-05-2.85568E-05-2.85726E-05-4.76193E-09 1.70850E-18 2.82777E-18
 -1      3687 9.52306E-05-2.85614E-05-2.85725E-05-3.80571E-09 1.07151E-18 1.58378E-18
 -1      3688 9.52316E-05-2.85627E-05-2.85724E-05-2.94902E-09 9.69219E-19 1.03640E-18
 -1      3689 9.52293E-05-2.85600E-05-2.85725E-05-3.13434E-09 1.31323E-18 2.00004E-18
 -1      3690 9.40256E-05-2.72868E-05-2.86037E-05-2.74211E-07-6.15319E-22 6.34968E-19
 -1      3691 9.36585E-05-2.69688E-05-2.85946E-05-3.73436E-07 5.23601E-20 1.12066E-18
 -1      3692 9.45056E-05-2.77475E-05-2.86120E-05-9.31882E-08-3.92766E-19 1.11659E-18
 -1      3693 9.42795E-05-2.75360E-05-2.86121E-05-1.34658E-07-3.87661E-19 9.80910E-19
 -1      3694 9.41915E-05-2.74710E-05-2.85860E-05-4.47182E-07-3.88999E-19 1.41922E-18
 -1      3695 9.32745E-05-2.66083E-05-2.85718E-05-6.27818E-07 3.28914E-20 1.24775E-18
 -1      3696 9.26918E-05-2.61446E-05-2.85423E-05-8.38913E-07 2.38847E-19 1.18865E-18
 -1      3697 9.26667E-05-2.61756E-05-2.84783E-05-1.67040E-06 3.29053E-19 1.20923E-18
 -1      3698 9.35769E-05-2.69241E-05-2.85529E-05-8.89492E-07 1.55503E-19 1.10127E-18
 -1      3699 9.48048E-05-2.80514E-05-2.86098E-05-6.30672E-09-5.46486E-19 2.19109E-18
 -1      3700 9.46685E-05-2.79142E-05-2.86135E-05-1.94493E-08-1.56337E-19 1.71259E-18
 -1      3701 9.45931E-05-2.78524E-05-2.85977E-05-2.04174E-07-6.58019E-19 2.60310E-18
 -1      3702 9.04492E-05-2.43492E-05-2.83212E-05-2.47906E-06-7.63621E-19 3.96458E-19
 -1      3703 8.90981E-05-2.34935E-05-2.81718E-05-3.27061E-06-1.16469E-18 1.77816E-19
 -1      3704 9.13733E-05-2.52176E-05-2.83283E-05-3.01035E-06-2.15567E-19 9.81632E-19
 -1      3705 9.49872E-05-2.82472E-05-2.86037E-05 3.07913E-08 6.13436E-19 2.39207E-18
 -1      3706 9.49068E-05-2.81601E-05-2.86083E-05 3.05682E-08-8.70876E-20 1.82548E-18
 -1      3707 9.48484E-05-2.81095E-05-2.85990E-05-7.57798E-08-8.35315E-20 1.82952E-18
 -1      3708 9.50959E-05-2.83710E-05-2.85970E-05 4.27159E-08 1.34096E-18 1.55342E-18
 -1      3709 9.50497E-05-2.83166E-05-2.86012E-05 4.76064E-08 1.49243E-18 2.54293E-18
 -1      3710 9.50070E-05-2.82783E-05-2.85959E-05-1.17795E-08 1.04282E-18 1.43361E-18
 -1      3711 9.51570E-05-2.84451E-05-2.85913E-05 4.27638E-08 7.40511E-19 1.05383E-18
 -1      3712 9.51319E-05-2.84127E-05-2.85946E-05 4.88377E-08 1.05140E-18 1.47136E-18
 -1      3713 9.51016E-05-2.83846E-05-2.85917E-05 1.67529E-08 1.11854E-18 1.30544E-18
 -1      3714 9.51943E-05-2.84937E-05-2.85863E-05 3.77183E-08 8.23227E-19 1.53935E-18
 -1      3715 9.51797E-05-2.84728E-05-2.85890E-05 4.38540E-08 2.87567E-19 1.31669E-18
 -1      3716 9.51586E-05-2.84527E-05-2.85875E-05 2.71180E-08 3.57877E-19 1.55213E-18
 -1      3717 9.52151E-05-2.85233E-05-2.85824E-05 3.10172E-08 4.13756E-19 2.24056E-18
 -1      3718 9.52074E-05-2.85107E-05-2.85845E-05 3.63353E-08 8.66326E-19 1.85033E-18
 -1      3719 9.51930E-05-2.84966E-05-2.85838E-05 2.85168E-08 4.83606E-19 9.34558E-19
 -1      3720 9.52264E-05-2.85413E-05-2.85795E-05 2.43583E-08 4.78028E-19 1.36206E-18
 -1      3721 9.52225E-05-2.85337E-05-2.85810E-05 2.87022E-08 3.72490E-19 1.77222E-18
 -1      3722 9.52129E-05-2.85239E-05-2.85808E-05 2.56340E-08 6.88345E-19 3.40420E-18
 -1      3723 9.52323E-05-2.85522E-05-2.85773E-05 1.84776E-08 3.59892E-19 1.73721E-18
 -1      3724 9.52305E-05-2.85476E-05-2.85784E-05 2.19015E-08 1.43313E-19 1.14739E-18
 -1      3725 9.52241E-05-2.85408E-05-2.85784E-05 2.12139E-08-4.26957E-20 1.94080E-18
 -1      3726 9.52353E-05-2.85589E-05-2.85757E-05 1.36045E-08 2.18632E-18 1.04696E-18
 -1      3727 9.52346E-05-2.85561E-05-2.85765E-05 1.62399E-08 1.83237E-18 2.02867E-18
 -1      3728 9.52303E-05-2.85514E-05-2.85766E-05 1.66350E-08 6.69473E-19 9.86679E-19
 -1      3729 9.52367E-05-2.85630E-05-2.85745E-05 9.72629E-09 1.40020E-18-2.68133E-19
 -1      3730 9.52365E-05-2.85613E-05-2.85751E-05 1.17192E-08 1.93368E-18 8.09246E-19
 -1      3731 9.52337E-05-2.85580E-05-2.85753E-05 1.25185E-08 2.33255E-18 1.65936E-19
 -1      3732 9.52373E-05-2.85657E-05-2.85736E-05 6.73927E-09 2.85986E-18-2.23850E-18
 -1      3733 9.52374E-05-2.85646E-05-2.85740E-05 8.22008E-09 2.16315E-18-1.35079E-18
 -1      3734 9.52355E-05-2.85623E-05-2.85742E-05 9.08931E-09 2.31142E-18-9.27446E-19
 -1      3735 9.52376E-05-2.85675E-05-2.85729E-05 4.50063E-09 1.51413E-18-2.06535E-18
 -1      3736 9.52377E-05-2.85667E-05-2.85732E-05 5.57381E-09 1.14554E-18-2.51966E-18
 -1      3737 9.52365E-05-2.85651E-05-2.85734E-05 6.37867E-09 2.32755E-18-7.90829E-19
 -1      3738 9.52375E-05-2.85682E-05-2.85726E-05 3.37476E-09 1.17695E-19-1.64808E-18
 -1      3739 9.52376E-05-2.85679E-05-2.85727E-05 3.94629E-09 4.06832E-19-1.31089E-18
 -1      3740 9.52369E-05-2.85668E-05-2.85729E-05 4.57137E-09 9.87249E-19-6.78133E-19
 -1      3741 9.52370E-05-2.85677E-05-2.85726E-05 3.50842E-09 7.70866E-19 8.19391E-20
 -1      3742 9.52337E-05-2.85645E-05-2.85726E-05 2.68739E-09 1.78964E-18 9.55304E-19
 -1      3743 9.52343E-05-2.85649E-05-2.85726E-05 3.12952E-09 2.84575E-18 7.13151E-19
 -1      3744 9.71381E-05-2.70760E-05-3.00153E-05-6.34527E-07 5.56518E-19-6.22001E-19
 -1      3745 9.76680E-05-2.81476E-05-2.97999E-05-2.34273E-07 4.75207E-19-5.11117E-19
 -1      3746 9.80538E-05-2.85010E-05-2.98175E-05 2.70139E-07 6.03432E-19-4.11775E-19
 -1      3747 6.41569E-05-1.11570E-05-2.25458E-05-1.78298E-05-8.82430E-19 7.62356E-19
 -1      3748 7.23143E-05-1.52000E-05-2.43532E-05-1.70672E-05 5.84916E-20-1.79227E-19
 -1      3749 9.42689E-05-2.37686E-05-3.02174E-05 1.61077E-06 1.02592E-18 1.06133E-18
 -1      3750 9.52329E-05-2.85642E-05-2.85723E-05-1.91444E-09 3.30745E-19 2.70813E-19
 -1      3751 9.38324E-05-2.42414E-05-2.98518E-05 1.55745E-06 7.82210E-19 7.39913E-19
 -1      3752 9.40987E-05-2.38806E-05-3.00954E-05 1.72338E-06 8.90643E-19 9.24265E-19
 -1      3753 8.80878E-05-2.27609E-05-2.79851E-05-4.56197E-06-4.30239E-19 3.51380E-19
 -1      3754 8.61768E-05-2.17189E-05-2.76971E-05-5.97430E-06 4.97661E-19 4.19642E-19
 -1      3755 8.96491E-05-2.41304E-05-2.80474E-05-5.23203E-06-7.41581E-19 7.28258E-19
 -1      3756 8.14165E-05-1.78833E-05-2.70881E-05-6.18969E-06 5.26924E-19 1.08825E-18
 -1      3757 1.25910E-04-4.31575E-05-3.56249E-05-6.10585E-06-1.67117E-19 8.49144E-19
 -1      3758 1.28845E-04-4.87473E-05-3.41739E-05 4.37986E-07 1.49448E-19 4.42707E-19
 -1      3759 1.07823E-04-1.76354E-05-3.87189E-05-8.23645E-06-7.12699E-19 9.82505E-19
 -1      3760 1.11217E-04-2.24284E-05-3.80945E-05-1.16397E-05-8.09102E-19 1.41495E-18
 -1      3761 9.41532E-05-3.36043E-05-2.60606E-05 2.59645E-05 6.77454E-19 7.07802E-20
 -1      3762 1.24028E-04-4.82297E-05-3.23008E-05-5.34896E-06 8.04284E-19-5.95047E-19
 -1      3763 1.23986E-04-4.56553E-05-3.37047E-05 1.12929E-06 6.93088E-19-4.14036E-19
 -1      3764 1.16841E-04-2.79546E-05-3.81893E-05-1.24521E-05-9.32186E-19 1.39312E-18
 -1      3765 1.22633E-04-3.64926E-05-3.67882E-05-1.10737E-05-5.10165E-19 1.38592E-18
 -1      3766 1.21305E-04-3.99471E-05-3.49490E-05-7.57218E-06-6.98703E-20 1.42198E-18
 -1      3767 1.11636E-04-2.77582E-05-3.59861E-05-1.10413E-05-3.92421E-19 1.80583E-18
 -1      3768 9.52320E-05-2.85632E-05-2.85724E-05-1.40608E-09 2.66663E-20 7.62647E-19
 -1      3769 9.67901E-05-3.50854E-05-2.63380E-05-2.59372E-05 1.02345E-18 7.01687E-19
 -1      3770 1.07415E-04-4.28568E-05-2.78912E-05-2.37183E-05 7.52496E-19 1.46881E-19
 -1      3771 9.49747E-05-2.28798E-05-3.08997E-05-1.48854E-06 9.69165E-19-7.61003E-19
 -1      3772 9.52055E-05-2.33695E-05-3.07944E-05-2.02069E-06 9.16937E-19-7.30501E-19
 -1      3773 1.11473E-04-4.53281E-05-2.84861E-05 2.17006E-05 2.40042E-19-4.41748E-19
 -1      3774 1.03660E-04-4.02583E-05-2.70054E-05 2.55591E-05 5.79613E-19-2.55698E-19
 -1      3775 9.56266E-05-2.40365E-05-3.06749E-05-7.58241E-07 8.44071E-19-7.12025E-19
 -1      3776 1.15191E-04-4.63750E-05-2.92595E-05-1.84990E-05 5.21236E-19 5.03687E-20
 -1      3777 1.20551E-04-4.87431E-05-3.10180E-05-1.18161E-05 7.01257E-19-2.51317E-19
 -1      3778 8.17801E-05-2.31420E-05-2.51446E-05-2.24118E-05 7.05323E-19 1.08394E-19
 -1      3779 8.89165E-05-2.92725E-05-2.56370E-05-2.54443E-05 8.02173E-19 2.88918E-20
 -1      3780 7.51937E-05-1.60531E-05-2.54296E-05-1.33242E-05 9.54368E-20-3.92600E-19
 -1      3781 7.82554E-05-1.94902E-05-2.50665E-05-1.93321E-05 3.57512E-19 3.82753E-19
 -1      3782 8.44766E-05-2.32558E-05-2.61493E-05-1.79641E-05 3.07212E-19 9.58371E-21
 -1      3783 7.92343E-05-1.78566E-05-2.63130E-05-1.12045E-05 9.30950E-21-4.23675E-19
 -1      3784 9.67299E-05-2.61477E-05-3.02531E-05-5.30718E-07 6.75429E-19-7.38560E-19
 -1      3785 9.41127E-05-2.35044E-05-3.02769E-05 1.77982E-06 1.04412E-18 1.24317E-18
 -1      3786 9.59333E-05-2.45975E-05-3.05731E-05-7.47205E-08 8.36914E-19-5.26614E-19
 -1      3787 9.64010E-05-2.54419E-05-3.04086E-05-3.20181E-07 7.34277E-19-6.28713E-19
 -1      3788 9.70741E-05-2.66965E-05-3.01629E-05 1.53939E-07 7.19816E-19-5.39165E-19
 -1      3789 9.39900E-05-2.30028E-05-3.04246E-05 1.98640E-06 8.57740E-19 9.08021E-19
 -1      3790 9.14212E-05-2.41598E-05-2.88764E-05 3.18869E-06 3.29935E-19 6.45473E-19
 -1      3791 9.24903E-05-2.44762E-05-2.91315E-05 2.52556E-06 2.59088E-19 5.66523E-19
 -1      3792 1.23421E-04-4.31621E-05-3.43395E-05 4.95671E-06 7.47103E-19 4.01686E-19
 -1      3793 1.20475E-04-3.89392E-05-3.49329E-05 8.33623E-06 3.86972E-19 4.82352E-19
 -1      3794 1.20294E-04-4.37179E-05-3.28740E-05 2.10671E-06 5.87229E-19 6.74907E-19
 -1      3795 9.04052E-05-2.77910E-05-2.69236E-05 1.75424E-05 6.37998E-19-2.91796E-20
 -1      3796 8.44109E-05-2.27363E-05-2.64305E-05 1.54219E-05 6.23665E-19 5.31983E-19
 -1      3797 8.67546E-05-2.30909E-05-2.71841E-05 1.18307E-05 5.53120E-19 5.03594E-19
 -1      3798 8.50045E-05-2.06856E-05-2.75167E-05 7.17748E-06 4.52340E-19 6.00017E-19
 -1      3799 1.04593E-04-1.48310E-05-3.85093E-05-2.29386E-06 3.15884E-19 3.03185E-19
 -1      3800 1.05972E-04-1.57804E-05-3.86957E-05 5.49194E-06 3.55919E-19-7.54389E-22
 -1      3801 1.02138E-04-1.88988E-05-3.56258E-05 6.79995E-06-8.97822E-20 1.68933E-18
 -1      3802 1.03391E-04-2.13071E-05-3.52427E-05 8.85283E-06-7.76888E-21 1.82318E-18
 -1      3803 1.09187E-04-1.62736E-05-3.99841E-05 8.33260E-06-1.83191E-19-1.22833E-18
 -1      3804 1.07071E-04-2.28516E-05-3.60782E-05 1.04546E-05-2.36368E-19 1.26381E-18
 -1      3805 1.09840E-04-4.25430E-05-2.87703E-05-1.77611E-05 4.29796E-19 1.44686E-19
 -1      3806 8.92257E-05-2.33859E-05-2.82734E-05 5.66177E-06 3.95054E-19 6.62819E-19
 -1      3807 9.07401E-05-2.39193E-05-2.86089E-05 4.31043E-06 5.07604E-19 7.77758E-19
 -1      3808 9.23018E-05-2.50371E-05-2.88118E-05 4.86356E-06 2.79451E-19 8.32219E-19
 -1      3809 9.52319E-05-2.85629E-05-2.85724E-05-3.31624E-10-9.00361E-19 1.24066E-18
 -1      3810 9.52319E-05-2.85629E-05-2.85725E-05 4.14794E-10-1.47374E-18 1.64686E-18
 -1      3811 9.52304E-05-2.85611E-05-2.85725E-05-1.28609E-09-1.36717E-20 2.44758E-18
 -1      3812 9.29633E-05-2.45245E-05-2.93686E-05 1.93739E-06 4.42452E-19 4.17243E-19
 -1      3813 9.36287E-05-2.45322E-05-2.95997E-05 1.75296E-06 5.73630E-19 5.89060E-19
 -1      3814 9.34209E-05-2.49835E-05-2.93134E-05 3.03060E-06 3.74322E-19 3.57168E-19
 -1      3815 9.52325E-05-2.85634E-05-2.85725E-05 1.40270E-09-9.91560E-19 1.43855E-18
 -1      3816 9.52329E-05-2.85636E-05-2.85725E-05 2.05190E-09 4.88225E-19 1.08247E-18
 -1      3817 9.52325E-05-2.85627E-05-2.85727E-05 2.74000E-09 5.17509E-19-1.95913E-19
 -1      3818 9.52309E-05-2.85613E-05-2.85727E-05 9.77248E-10-8.66304E-19 7.19478E-19
 -1      3819 1.06518E-04-1.50673E-05-3.93008E-05-5.47320E-06-3.71715E-19 5.73216E-19
 -1      3820 9.57141E-05-2.42767E-05-3.06190E-05 4.27157E-07 8.82978E-19-4.14089E-19
 -1      3821 1.24468E-04-4.85557E-05-3.25895E-05 4.32706E-06 2.99264E-19 4.29704E-19
 -1      3822 8.44358E-05-2.06174E-05-2.73602E-05-7.60582E-06 3.86761E-19-1.23276E-19
 -1      3823 8.17074E-05-1.91613E-05-2.68873E-05-9.04058E-06-2.06954E-19-5.07204E-19
 -1      3824 8.33273E-05-2.08707E-05-2.66662E-05-1.26740E-05-2.46235E-19-6.29155E-19
 -1      3825 9.40746E-05-2.45054E-05-2.98045E-05 2.15362E-06 7.93705E-19 2.94144E-19
 -1      3826 8.71388E-05-2.27148E-05-2.75439E-05-8.43193E-06 7.55199E-20-5.57473E-19
 -1      3827 9.43943E-05-2.29489E-05-3.06423E-05 2.04906E-06 1.05135E-18 1.31929E-19
 -1      3828 9.46187E-05-2.30302E-05-3.06778E-05 1.77228E-06 1.02743E-18 1.17285E-19
 -1      3829 9.46488E-05-2.37441E-05-3.03713E-05 2.08283E-06 8.35106E-19 3.52304E-20
 -1      3830 1.18986E-04-4.63260E-05-3.11437E-05-7.27314E-06-7.55381E-20-2.36259E-19
 -1      3831 9.52349E-05-2.85655E-05-2.85726E-05 3.45608E-09 3.42303E-18 9.97425E-19
 -1      3832 9.52354E-05-2.85659E-05-2.85726E-05 3.59211E-09 2.29617E-18 2.24090E-18
 -1      3833 9.52340E-05-2.85641E-05-2.85728E-05 3.74192E-09 1.11039E-18 9.33688E-19
 -1      3834 9.41668E-05-2.36132E-05-3.02248E-05 1.82206E-06 8.47157E-19 6.96536E-19
 -1      3835 1.14338E-04-3.08477E-05-3.58110E-05 1.13622E-05-2.69529E-20 5.08484E-19
 -1      3836 1.14280E-04-2.66233E-05-3.76540E-05 1.25009E-05 2.94741E-19-1.27247E-19
 -1      3837 9.88503E-05-3.52606E-05-2.71317E-05 2.16461E-05 6.75185E-19-1.45367E-19
 -1      3838 1.15748E-04-4.69861E-05-2.93316E-05 1.79872E-05 3.43252E-19 8.26999E-20
 -1      3839 1.10723E-04-4.34518E-05-2.88252E-05 1.79035E-05 5.70109E-19 1.93727E-19
 -1      3840 1.18340E-04-4.78028E-05-3.03431E-05 1.31882E-05 4.85037E-19 5.53020E-20
 -1      3841 9.55771E-05-3.25776E-05-2.68612E-05-2.16664E-05 9.54072E-19 1.44585E-19
 -1      3842 1.08985E-04-1.95372E-05-3.83211E-05 1.02169E-05-1.01975E-19-6.11540E-19
 -1      3843 9.50415E-05-2.83341E-05-2.85888E-05-4.74402E-08 1.87503E-18 4.62289E-19
 -1      3844 9.49794E-05-2.82743E-05-2.85904E-05-7.26844E-08 1.46363E-18 2.51106E-19
 -1      3845 9.49170E-05-2.82061E-05-2.85900E-05-1.28449E-07 3.96489E-19 6.08893E-19
 -1      3846 9.48156E-05-2.81153E-05-2.85902E-05-1.79681E-07-2.16988E-19 8.85405E-19
 -1      3847 9.49689E-05-2.82711E-05-2.85829E-05-1.62287E-07 1.29338E-18-9.12321E-19
 -1      3848 1.00688E-04-3.20552E-05-2.93934E-05 1.75024E-06 2.33150E-19-2.00755E-19
 -1      3849 1.01583E-04-3.31272E-05-2.93355E-05 1.82881E-06 1.84340E-19-5.78934E-20
 -1      3850 1.02741E-04-3.42679E-05-2.93144E-05 1.93517E-06 5.59410E-20-7.50081E-20
 -1      3851 1.03839E-04-3.53696E-05-2.93468E-05 1.76797E-06 7.40835E-20-4.82836E-20
 -1      3852 1.02153E-04-3.37210E-05-2.93631E-05 2.80652E-06 2.35085E-19-2.12203E-19
 -1      3853 1.05349E-04-3.65650E-05-2.94372E-05 1.56582E-06 1.03246E-19 5.82298E-20
 -1      3854 1.06613E-04-3.76051E-05-2.95890E-05 1.04235E-06-3.07029E-20-5.49678E-20
 -1      3855 1.04799E-04-3.62490E-05-2.94231E-05 2.91997E-06 1.05999E-19-2.38001E-20
 -1      3856 1.08445E-04-3.87097E-05-2.98375E-05 3.37584E-07-9.34160E-20 1.18229E-20
 -1      3857 1.09708E-04-3.94383E-05-3.01470E-05-6.42570E-07-1.12559E-21-1.82588E-20
 -1      3858 1.08144E-04-3.88315E-05-2.97561E-05 2.25061E-06-5.88936E-20 2.57170E-19
 -1      3859 1.11645E-04-4.00963E-05-3.06151E-05-2.06021E-06 9.46137E-20-8.90278E-20
 -1      3860 1.12555E-04-4.00472E-05-3.11219E-05-3.48471E-06-3.09330E-19 1.97496E-19
 -1      3861 1.11989E-04-4.09814E-05-3.04802E-05 3.53991E-07-1.65923E-19-6.73532E-21
 -1      3862 1.13215E-04-3.13316E-05-3.50923E-05-1.13397E-05-2.27296E-19 2.00687E-18
 -1      3863 1.15437E-04-4.44282E-05-3.02639E-05-8.56472E-06-7.54915E-19-5.29356E-19
 -1      3864 1.17438E-04-4.46616E-05-3.13175E-05-3.23949E-06 4.81006E-20 1.27998E-19
 -1      3865 9.47212E-05-2.80150E-05-2.85872E-05-2.79466E-07-1.04836E-18 1.11514E-18
 -1      3866 9.45597E-05-2.78802E-05-2.85840E-05-3.76852E-07-8.83545E-19 4.22830E-19
 -1      3867 9.48173E-05-2.81273E-05-2.85786E-05-3.28644E-07-4.56122E-19-1.28591E-18
 -1      3868 1.14793E-04-3.68519E-05-3.34522E-05 8.58528E-06 5.51448E-20 9.92977E-19
 -1      3869 1.14893E-04-3.88010E-05-3.26090E-05 7.08366E-06 8.52633E-20 8.82551E-19
 -1      3870 1.09946E-04-3.91403E-05-3.03790E-05 2.34339E-06 3.86784E-19 7.55256E-19
 -1      3871 1.08704E-04-3.87177E-05-2.99419E-05 1.17865E-06 6.23198E-20 1.02947E-18
 -1      3872 1.06693E-04-3.77992E-05-2.95492E-05 1.76780E-07-6.84208E-19 8.45409E-19
 -1      3873 1.05325E-04-3.69186E-05-2.92741E-05-5.35429E-07-1.02835E-18 7.70376E-19
 -1      3874 1.08522E-04-3.91628E-05-2.97820E-05-1.11662E-06-4.78733E-19 4.53152E-19
 -1      3875 1.03606E-04-3.58447E-05-2.90458E-05-9.28405E-07-7.25814E-19 1.17310E-18
 -1      3876 1.02373E-04-3.48990E-05-2.88838E-05-1.27700E-06-9.37820E-20 1.42459E-18
 -1      3877 1.04736E-04-3.67953E-05-2.91624E-05-2.23960E-06-7.13059E-19-2.59440E-19
 -1      3878 1.01041E-04-3.39262E-05-2.87602E-05-1.32056E-06-3.38928E-19 1.03166E-18
 -1      3879 1.00047E-04-3.30908E-05-2.86728E-05-1.43122E-06 3.06091E-19 7.88924E-19
 -1      3880 1.01699E-04-3.45516E-05-2.88159E-05-2.47252E-06-4.70126E-19 3.02508E-19
 -1      3881 9.90920E-05-3.23124E-05-2.86123E-05-1.30107E-06 2.25228E-19 8.33633E-19
 -1      3882 9.83466E-05-3.16500E-05-2.85702E-05-1.28439E-06-4.36311E-20 4.46027E-19
 -1      3883 9.94418E-05-3.26890E-05-2.86380E-05-2.21593E-06 1.51189E-19-2.52365E-20
 -1      3884 9.76975E-05-3.10734E-05-2.85446E-05-1.09488E-06 2.67114E-20 2.37265E-19
 -1      3885 9.71703E-05-3.05864E-05-2.85279E-05-1.02544E-06 1.22269E-19 8.11070E-19
 -1      3886 9.78678E-05-3.12841E-05-2.85567E-05-1.76920E-06-4.15176E-19 3.58298E-19
 -1      3887 9.67457E-05-3.01806E-05-2.85203E-05-8.41544E-07 6.32310E-19 5.34252E-19
 -1      3888 9.63890E-05-2.98392E-05-2.85170E-05-7.60547E-07 9.60674E-19 6.97428E-19
 -1      3889 9.68189E-05-3.02917E-05-2.85259E-05-1.31524E-06 5.90857E-19 2.47437E-19
 -1      3890 9.61219E-05-2.95655E-05-2.85181E-05-6.07043E-07 5.02661E-19 1.56795E-18
 -1      3891 9.58902E-05-2.93361E-05-2.85210E-05-5.34359E-07 4.20151E-19 1.30819E-18
 -1      3892 9.61460E-05-2.96190E-05-2.85207E-05-9.25094E-07 1.23908E-18 4.23598E-19
 -1      3893 9.57281E-05-2.91581E-05-2.85255E-05-4.17761E-07 2.64062E-19 1.46066E-18
 -1      3894 9.55835E-05-2.90097E-05-2.85307E-05-3.60252E-07 1.07190E-19 1.83161E-18
 -1      3895 9.57304E-05-2.91811E-05-2.85268E-05-6.22760E-07 4.38661E-19 2.30568E-18
 -1      3896 9.54889E-05-2.88979E-05-2.85359E-05-2.77150E-07 3.23744E-19 1.70275E-18
 -1      3897 9.54023E-05-2.88053E-05-2.85413E-05-2.35036E-07 8.24504E-19 1.71535E-18
 -1      3898 9.54829E-05-2.89055E-05-2.85366E-05-4.04186E-07 6.93032E-20 1.90396E-18
 -1      3899 9.53498E-05-2.87377E-05-2.85460E-05-1.78571E-07 1.02981E-18 1.60011E-18
 -1      3900 9.53004E-05-2.86822E-05-2.85506E-05-1.49339E-07 9.19675E-19 9.81366E-19
 -1      3901 9.53416E-05-2.87382E-05-2.85463E-05-2.54061E-07 2.56897E-19 1.58919E-18
 -1      3902 9.52732E-05-2.86431E-05-2.85544E-05-1.12415E-07 5.74642E-19 4.08453E-19
 -1      3903 9.52469E-05-2.86116E-05-2.85581E-05-9.28983E-08 3.01004E-19 5.35691E-19
 -1      3904 9.52655E-05-2.86407E-05-2.85546E-05-1.55111E-07 1.61518E-20 1.29478E-18
 -1      3905 9.52343E-05-2.85904E-05-2.85609E-05-6.95301E-08 2.45892E-19 4.04538E-19
 -1      3906 9.52217E-05-2.85737E-05-2.85636E-05-5.68646E-08 1.05277E-18 6.47032E-19
 -1      3907 9.52278E-05-2.85869E-05-2.85610E-05-9.21450E-08-2.30676E-19 5.57164E-19
 -1      3908 9.52173E-05-2.85633E-05-2.85656E-05-4.24922E-08 7.23540E-19-6.16979E-19
 -1      3909 9.52124E-05-2.85555E-05-2.85674E-05-3.44295E-08-3.17257E-19-6.29294E-19
 -1      3910 9.52121E-05-2.85597E-05-2.85656E-05-5.33264E-08 2.31622E-19 1.07004E-20
 -1      3911 9.52122E-05-2.85513E-05-2.85687E-05-2.58109E-08-1.02550E-18-2.72927E-19
 -1      3912 9.52114E-05-2.85486E-05-2.85699E-05-2.07293E-08-1.21258E-18-1.42728E-19
 -1      3913 9.52081E-05-2.85480E-05-2.85687E-05-3.00838E-08-4.06670E-19-1.23581E-18
 -1      3914 9.52131E-05-2.85479E-05-2.85707E-05-1.56752E-08 1.95453E-19 5.92464E-19
 -1      3915 9.52142E-05-2.85478E-05-2.85714E-05-1.24731E-08 7.40234E-19 6.16979E-19
 -1      3916 9.52100E-05-2.85450E-05-2.85707E-05-1.65476E-08 5.12229E-20 5.44446E-19
 -1      3917 9.52166E-05-2.85488E-05-2.85718E-05-9.56299E-09 1.52492E-18 1.78514E-18
 -1      3918 9.52184E-05-2.85501E-05-2.85722E-05-7.52417E-09 2.14398E-18 2.60323E-18
 -1      3919 9.52142E-05-2.85463E-05-2.85719E-05-8.86845E-09 1.77846E-18 1.71553E-18
 -1      3920 9.52208E-05-2.85518E-05-2.85724E-05-5.86859E-09 1.97394E-18 2.27687E-18
 -1      3921 9.52228E-05-2.85535E-05-2.85726E-05-4.54276E-09 1.90725E-18 2.35439E-18
 -1      3922 9.52190E-05-2.85497E-05-2.85725E-05-4.61487E-09 2.03866E-18 2.48474E-18
 -1      3923 9.52249E-05-2.85553E-05-2.85726E-05-3.60879E-09 1.97187E-18 2.07273E-18
 -1      3924 9.52266E-05-2.85571E-05-2.85727E-05-2.73381E-09 1.68440E-18 2.48676E-18
 -1      3925 9.52235E-05-2.85537E-05-2.85727E-05-2.30653E-09 1.93880E-18 3.07618E-18
 -1      3926 9.52279E-05-2.85584E-05-2.85726E-05-2.23541E-09 1.32981E-18 3.18169E-18
 -1      3927 9.52293E-05-2.85599E-05-2.85726E-05-1.65017E-09 1.18407E-18 3.31229E-18
 -1      3928 9.52292E-05-2.85597E-05-2.85727E-05-4.07872E-10 5.14122E-19 2.84690E-18
 -1      3929 9.52268E-05-2.85570E-05-2.85727E-05-1.11826E-09 2.23994E-18 3.64462E-18
 -1      3930 9.44215E-05-2.77380E-05-2.85762E-05-5.49201E-07-5.56269E-19 1.95002E-18
 -1      3931 9.41710E-05-2.75443E-05-2.85655E-05-7.26680E-07 8.02791E-20 1.62742E-18
 -1      3932 9.45920E-05-2.79265E-05-2.85669E-05-6.17727E-07 6.91068E-21 4.88763E-20
 -1      3933 9.40278E-05-2.58196E-05-2.92635E-05 3.76674E-06 1.73804E-19 3.80209E-19
 -1      3934 9.44819E-05-2.55880E-05-2.95010E-05 3.10627E-06 3.21698E-19 2.20094E-19
 -1      3935 9.24996E-05-2.62409E-05-2.83787E-05-3.10193E-06-7.04361E-19 2.38159E-18
 -1      3936 9.17426E-05-2.58426E-05-2.82802E-05-3.99971E-06-1.01819E-18 1.48802E-18
 -1      3937 9.51162E-05-2.84145E-05-2.85865E-05-7.95370E-09 6.73999E-19 2.18369E-19
 -1      3938 9.50800E-05-2.83774E-05-2.85883E-05-1.86418E-08 8.60155E-19-4.49276E-19
 -1      3939 9.50663E-05-2.83685E-05-2.85835E-05-7.14754E-08 1.52830E-18-1.10848E-18
 -1      3940 9.51650E-05-2.84699E-05-2.85837E-05 1.14178E-08-3.59563E-20 9.84682E-19
 -1      3941 9.51423E-05-2.84448E-05-2.85855E-05 7.57450E-09 3.81065E-19 7.96621E-19
 -1      3942 9.51292E-05-2.84350E-05-2.85824E-05-2.32150E-08 5.78021E-19-7.19920E-19
 -1      3943 9.51944E-05-2.85054E-05-2.85811E-05 1.83700E-08 6.19154E-19 9.71756E-19
 -1      3944 9.51813E-05-2.84895E-05-2.85827E-05 1.82814E-08 8.31720E-21 2.64751E-19
 -1      3945 9.51701E-05-2.84803E-05-2.85808E-05 1.38870E-09 3.64579E-19 5.21447E-19
 -1      3946 9.52120E-05-2.85279E-05-2.85789E-05 1.90686E-08 8.44383E-20 2.04924E-18
 -1      3947 9.52045E-05-2.85180E-05-2.85802E-05 2.06393E-08-1.32941E-19 6.14475E-19
 -1      3948 9.51956E-05-2.85102E-05-2.85792E-05 1.17908E-08 6.55609E-19 4.51362E-19
 -1      3949 9.52224E-05-2.85424E-05-2.85772E-05 1.69498E-08-2.24277E-19 1.47616E-18
 -1      3950 9.52182E-05-2.85361E-05-2.85782E-05 1.90598E-08 5.96352E-19 1.80618E-18
 -1      3951 9.52114E-05-2.85299E-05-2.85776E-05 1.47328E-08 4.50653E-19 1.29676E-18
 -1      3952 9.52285E-05-2.85517E-05-2.85758E-05 1.38486E-08 8.33069E-19 3.99200E-19
 -1      3953 9.52262E-05-2.85477E-05-2.85766E-05 1.59473E-08 3.52540E-19 3.71000E-19
 -1      3954 9.52212E-05-2.85429E-05-2.85763E-05 1.40718E-08 5.22701E-19 1.16913E-18
 -1      3955 9.52322E-05-2.85579E-05-2.85747E-05 1.06950E-08 2.03470E-18 1.08029E-20
 -1      3956 9.52309E-05-2.85552E-05-2.85753E-05 1.25389E-08 2.30382E-18 8.18417E-20
 -1      3957 9.52273E-05-2.85516E-05-2.85753E-05 1.19259E-08 1.35051E-18 8.33743E-19
 -1      3958 9.52343E-05-2.85620E-05-2.85739E-05 7.88613E-09 2.36960E-18 6.95806E-19
 -1      3959 9.52336E-05-2.85602E-05-2.85743E-05 9.39068E-09 1.49352E-18 6.98284E-19
 -1      3960 9.52311E-05-2.85574E-05-2.85744E-05 9.40806E-09 1.44428E-18 4.29132E-19
 -1      3961 9.52356E-05-2.85648E-05-2.85732E-05 5.60052E-09 1.16016E-18 1.92927E-18
 -1      3962 9.52352E-05-2.85636E-05-2.85736E-05 6.77600E-09 2.12993E-18 1.01821E-18
 -1      3963 9.52335E-05-2.85616E-05-2.85736E-05 7.01668E-09 1.37428E-18 1.51794E-18
 -1      3964 9.77853E-05-2.78899E-05-2.99478E-05 5.47742E-07 7.21284E-19-5.05906E-19
 -1      3965 9.84413E-05-2.89986E-05-2.97596E-05 9.14903E-07 6.51341E-19-5.08802E-19
 -1      3966 9.73865E-05-2.71844E-05-3.00915E-05 7.96076E-07 7.19067E-19-4.83635E-19
 -1      3967 8.68396E-05-2.27313E-05-2.75137E-05 9.58968E-06 4.54183E-19 6.87553E-19
 -1      3968 8.87847E-05-2.33089E-05-2.80066E-05 7.23312E-06 3.51718E-19 5.68734E-19
 -1      3969 9.11333E-05-2.51632E-05-2.82837E-05 7.73193E-06 5.21555E-19 5.72418E-19
 -1      3970 9.04530E-05-2.59188E-05-2.77115E-05 1.16714E-05 6.80995E-19 2.58960E-19
 -1      3971 9.14472E-05-2.56268E-05-2.81794E-05-5.17892E-06-5.60845E-19 1.45183E-18
 -1      3972 9.04619E-05-2.52554E-05-2.80032E-05-6.60421E-06-9.00708E-19 1.47018E-18
 -1      3973 9.27161E-05-2.67882E-05-2.82484E-05-5.19165E-06-8.30840E-19 1.51887E-18
 -1      3974 1.15700E-04-3.44862E-05-3.48624E-05 1.07925E-05 1.72895E-19 6.23283E-19
 -1      3975 8.99935E-05-2.50829E-05-2.77945E-05-8.64235E-06-1.20939E-18 8.71211E-19
 -1      3976 8.84131E-05-2.44749E-05-2.74746E-05-1.05526E-05-7.63541E-19-7.43983E-20
 -1      3977 1.03637E-04-3.83718E-05-2.80391E-05 1.86064E-05 8.06485E-19-2.05822E-19
 -1      3978 9.59821E-05-3.23068E-05-2.72733E-05 1.87549E-05 7.37804E-19-6.03941E-20
 -1      3979 1.21563E-04-4.58720E-05-3.25094E-05 6.72253E-07 5.71151E-19 1.25369E-18
 -1      3980 1.21445E-04-4.80106E-05-3.13224E-05 7.53699E-06 5.09264E-19 6.85918E-19
 -1      3981 1.05325E-04-3.91005E-05-2.82736E-05-1.73181E-05 1.28577E-19 6.11743E-19
 -1      3982 1.11138E-04-4.30631E-05-2.93692E-05-1.33382E-05-3.35524E-19 5.39580E-19
 -1      3983 9.52365E-05-2.85671E-05-2.85726E-05 3.54831E-09 2.04492E-18 1.77998E-18
 -1      3984 9.29445E-05-2.99385E-05-2.70101E-05-1.84738E-05 1.18136E-18 4.65048E-19
 -1      3985 9.95754E-05-3.53596E-05-2.76235E-05-1.89909E-05 6.94689E-19 1.45852E-18
 -1      3986 1.02459E-04-3.62952E-05-2.82638E-05-1.47900E-05 1.86978E-19 1.35365E-18
 -1      3987 9.91275E-05-3.00020E-05-2.96125E-05 1.24529E-06 5.47434E-19-5.16175E-19
 -1      3988 9.98652E-05-3.10583E-05-2.94848E-05 1.48725E-06 3.28790E-19-4.95925E-19
 -1      3989 1.00219E-04-3.14799E-05-2.94858E-05 2.27613E-06 5.26906E-19-3.46047E-19
 -1      3990 9.87435E-05-2.94153E-05-2.97291E-05 1.57860E-06 6.37315E-19-4.87876E-19
 -1      3991 9.54577E-05-2.39917E-05-3.06292E-05 9.95287E-07 9.30387E-19-1.63965E-19
 -1      3992 9.64736E-05-2.56857E-05-3.03313E-05 8.99059E-07 8.75542E-19-3.58654E-19
 -1      3993 9.51870E-05-2.37403E-05-3.06333E-05 1.41626E-06 9.71543E-19 8.65303E-21
 -1      3994 1.17759E-04-4.32225E-05-3.18483E-05 9.44853E-07 5.69987E-19 1.10823E-18
 -1      3995 1.16667E-04-4.11788E-05-3.23878E-05 4.28582E-06 2.53830E-19 1.42574E-18
 -1      3996 1.12579E-04-3.89334E-05-3.15988E-05 5.46549E-06 1.28679E-19 9.64236E-19
 -1      3997 1.14504E-04-4.23598E-05-3.09552E-05-9.06895E-07 2.31718E-19 6.75123E-19
 -1      3998 9.56155E-05-3.07415E-05-2.77085E-05 1.53500E-05 7.41314E-19 7.05932E-20
 -1      3999 1.14335E-04-3.47929E-05-3.41229E-05-1.01437E-05-1.32842E-19 1.80231E-18
 -1      4000 1.14131E-04-3.97219E-05-3.18736E-05-5.63972E-06-3.14006E-19 7.43907E-19
 -1      4001 1.14226E-04-3.82393E-05-3.25706E-05-7.24500E-06-1.34931E-19 1.42649E-18
 -1      4002 1.17581E-04-3.79130E-05-3.41578E-05-8.53411E-06 1.45054E-20 1.59431E-18
 -1      4003 1.11128E-04-4.18905E-05-2.96591E-05-9.13530E-06-8.39400E-19 2.27749E-19
 -1      4004 1.11815E-04-3.94557E-05-3.09704E-05 3.91721E-06 3.18420E-19 9.36460E-19
 -1      4005 9.42704E-05-2.76614E-05-2.85413E-05-1.10562E-06 5.78604E-19 1.72327E-18
 -1      4006 9.39775E-05-2.73525E-05-2.85485E-05-1.01632E-06 6.15251E-19 2.06292E-18
 -1      4007 9.36003E-05-2.70864E-05-2.85233E-05-1.32961E-06 6.21208E-19 2.76230E-18
 -1      4008 9.27993E-05-2.65039E-05-2.84382E-05-2.34256E-06 5.07134E-19 2.47890E-18
 -1      4009 9.32958E-05-2.70114E-05-2.84010E-05-3.19325E-06-6.36945E-19 2.50331E-18
 -1      4010 9.33466E-05-2.68465E-05-2.84902E-05-1.80448E-06 1.68315E-19 2.53122E-18
 -1      4011 9.40135E-05-2.61687E-05-2.90429E-05 4.72173E-06 1.87852E-19 2.45536E-19
 -1      4012 9.51135E-05-2.69053E-05-2.92345E-05 4.69424E-06 1.84561E-19-7.03339E-20
 -1      4013 9.33918E-05-2.62935E-05-2.87832E-05 5.96270E-06 3.35912E-19 3.90007E-19
 -1      4014 1.09773E-04-2.34556E-05-3.70757E-05 1.14829E-05-2.04074E-19 7.86169E-20
 -1      4015 9.71826E-05-2.69119E-05-3.01102E-05 1.34084E-06 8.23918E-19-4.08433E-19
 -1      4016 9.52357E-05-2.85654E-05-2.85730E-05 4.70201E-09 1.08900E-18 2.08168E-18
 -1      4017 9.52344E-05-2.85640E-05-2.85731E-05 4.97903E-09 1.19210E-18 2.42011E-18
 -1      4018 9.44232E-05-2.50854E-05-2.97418E-05 2.51621E-06 5.87125E-19 1.47364E-19
 -1      4019 9.45937E-05-2.45556E-05-2.99983E-05 2.26113E-06 7.08356E-19 6.58357E-20
 -1      4020 9.55597E-05-2.46181E-05-3.03886E-05 1.77537E-06 8.33211E-19 1.25752E-19
 -1      4021 1.21013E-04-4.34107E-05-3.31638E-05-4.13572E-06 3.16764E-19 1.36511E-18
 -1      4022 1.18247E-04-4.38146E-05-3.19680E-05-7.03413E-07 7.56322E-19 1.23335E-18
 -1      4023 8.75822E-05-2.41132E-05-2.71750E-05-1.26455E-05 2.49990E-19-5.07382E-19
 -1      4024 8.54615E-05-2.34766E-05-2.66425E-05-1.51973E-05 2.61293E-19-1.56592E-19
 -1      4025 8.93195E-05-2.68746E-05-2.67478E-05-1.78155E-05 6.56531E-19-4.15222E-19
 -1      4026 9.10134E-05-2.67974E-05-2.74906E-05-1.26725E-05-5.22052E-19-2.90986E-19
 -1      4027 9.20637E-05-2.67862E-05-2.79666E-05-8.41870E-06-1.34720E-18 1.00621E-18
 -1      4028 1.06994E-04-4.01799E-05-2.85515E-05 1.64872E-05 7.33577E-19 3.78584E-20
 -1      4029 1.04098E-04-3.74492E-05-2.85384E-05 1.45125E-05 8.37901E-19 9.40405E-20
 -1      4030 1.10141E-04-4.22088E-05-2.92391E-05 1.36200E-05 6.81703E-19 3.87005E-19
 -1      4031 9.52329E-05-2.85628E-05-2.85730E-05 4.20413E-09 1.50203E-18 9.15381E-19
 -1      4032 9.52336E-05-2.85633E-05-2.85730E-05 4.56743E-09 1.39710E-18 1.91429E-18
 -1      4033 9.52334E-05-2.85624E-05-2.85733E-05 5.53793E-09 1.89216E-18 1.89021E-18
 -1      4034 1.12406E-04-4.06901E-05-3.07851E-05 1.29126E-06 4.76054E-19 1.37767E-18
 -1      4035 1.17040E-04-4.58854E-05-3.05022E-05 9.15290E-06 5.61060E-19 6.02508E-19
 -1      4036 9.42729E-05-2.38257E-05-3.01898E-05 2.05276E-06 9.01680E-19 2.23106E-19
 -1      4037 9.38435E-05-2.95915E-05-2.74508E-05-1.54464E-05 7.43812E-19 9.80116E-19
 -1      4038 9.52307E-05-2.85607E-05-2.85729E-05 2.68117E-09 7.51470E-20-7.04172E-19
 -1      4039 9.52317E-05-2.85615E-05-2.85729E-05 3.47994E-09 9.88666E-19-1.78628E-18
 -1      4040 9.52312E-05-2.85605E-05-2.85731E-05 4.39584E-09 1.10244E-18-7.06550E-19
 -1      4041 9.50938E-05-2.58320E-05-2.96905E-05 3.12036E-06 2.92874E-19 3.06343E-19
 -1      4042 1.15602E-04-4.16240E-05-3.17346E-05-3.02622E-06 2.48756E-19 7.13574E-19
 -1      4043 9.46250E-05-2.43650E-05-3.01222E-05 2.29309E-06 6.77291E-19-5.91144E-20
 -1      4044 9.50127E-05-2.45932E-05-3.01763E-05 2.30570E-06 7.19284E-19 2.47375E-19
 -1      4045 1.12634E-04-4.15833E-05-3.03446E-05-2.27631E-06-9.50894E-20 2.41649E-19
 -1      4046 1.03821E-04-3.53262E-05-2.93181E-05 4.38081E-06 2.43583E-19 4.85121E-21
 -1      4047 1.05366E-04-3.67497E-05-2.93996E-05 4.41792E-06 2.83237E-19 3.56880E-20
 -1      4048 1.07365E-04-3.83076E-05-2.95357E-05 4.50925E-06 1.50874E-19 3.46789E-19
 -1      4049 1.09264E-04-3.97712E-05-2.97830E-05 4.07446E-06-4.99799E-20 3.03076E-19
 -1      4050 1.05912E-04-3.75389E-05-2.93793E-05 6.22974E-06 3.13361E-19-1.66128E-19
 -1      4051 9.49367E-05-2.82596E-05-2.85729E-05-3.35951E-07 4.86927E-19-1.71700E-18
 -1      4052 9.48409E-05-2.81940E-05-2.85689E-05-4.47225E-07-4.81094E-20-1.24247E-18
 -1      4053 1.16630E-04-4.36308E-05-3.11822E-05 1.19471E-06 3.48197E-19 9.28570E-19
 -1      4054 9.40273E-05-2.78113E-05-2.83447E-05-4.65471E-06-1.14259E-18 1.51493E-18
 -1      4055 9.37579E-05-2.78853E-05-2.82571E-05-5.85642E-06-1.05497E-18 8.57690E-19
 -1      4056 1.05528E-04-3.73994E-05-2.91839E-05-3.98401E-06-7.95404E-19-1.54415E-19
 -1      4057 1.03733E-04-3.60754E-05-2.89561E-05-4.17273E-06-5.38578E-19-4.88916E-19
 -1      4058 1.02035E-04-3.47720E-05-2.88123E-05-3.84290E-06-5.83268E-19-1.21344E-19
 -1      4059 1.00685E-04-3.36659E-05-2.86948E-05-3.69589E-06-4.66661E-19-4.35584E-19
 -1      4060 1.02298E-04-3.52153E-05-2.87997E-05-5.57874E-06-5.81384E-19 7.72587E-20
 -1      4061 9.95413E-05-3.27063E-05-2.86300E-05-3.19871E-06-8.73722E-20-6.18653E-19
 -1      4062 9.85921E-05-3.18843E-05-2.85743E-05-2.92606E-06-1.44421E-19-3.64911E-19
 -1      4063 9.95114E-05-3.28504E-05-2.86116E-05-4.53580E-06-4.79302E-19-7.71949E-19
 -1      4064 9.78795E-05-3.12172E-05-2.85506E-05-2.46513E-06-3.07794E-19-8.91904E-19
 -1      4065 9.72194E-05-3.06414E-05-2.85275E-05-2.17532E-06-5.43900E-20-5.36422E-19
 -1      4066 9.77735E-05-3.12728E-05-2.85365E-05-3.41575E-06-5.12832E-19-1.04257E-18
 -1      4067 9.67892E-05-3.01981E-05-2.85228E-05-1.77854E-06-2.00154E-19-2.64200E-19
 -1      4068 9.63543E-05-2.98120E-05-2.85166E-05-1.52740E-06 8.35075E-19-2.14671E-19
 -1      4069 9.66335E-05-3.01728E-05-2.85135E-05-2.41394E-06 3.33972E-19-1.10877E-18
 -1      4070 9.61063E-05-2.95310E-05-2.85200E-05-1.22207E-06 1.62393E-18-4.21320E-19
 -1      4071 9.58322E-05-2.92831E-05-2.85216E-05-1.02643E-06 1.44604E-18-5.07605E-22
 -1      4072 9.59670E-05-2.94765E-05-2.85153E-05-1.63551E-06 8.17590E-19-1.20292E-18
 -1      4073 9.56944E-05-2.91101E-05-2.85274E-05-8.06840E-07 9.54317E-19-2.01790E-19
 -1      4074 9.55278E-05-2.89562E-05-2.85319E-05-6.64796E-07 5.35152E-19 3.90322E-19
 -1      4075 9.55868E-05-2.90535E-05-2.85258E-05-1.06787E-06 1.30371E-18-2.64991E-18
 -1      4076 9.54548E-05-2.88530E-05-2.85377E-05-5.14303E-07-1.37458E-19 1.00369E-18
 -1      4077 9.53573E-05-2.87607E-05-2.85427E-05-4.16369E-07-1.66450E-19 7.69375E-19
 -1      4078 9.53780E-05-2.88053E-05-2.85378E-05-6.73771E-07 7.17162E-19-1.61441E-18
 -1      4079 9.53214E-05-2.87014E-05-2.85476E-05-3.17197E-07 4.74171E-19 1.99618E-18
 -1      4080 9.52669E-05-2.86482E-05-2.85520E-05-2.52449E-07 1.07348E-18 2.09862E-18
 -1      4081 9.52695E-05-2.86651E-05-2.85485E-05-4.11089E-07 7.91349E-19 7.78167E-19
 -1      4082 9.52515E-05-2.86158E-05-2.85557E-05-1.89413E-07-6.23416E-19 1.50329E-18
 -1      4083 9.52231E-05-2.85869E-05-2.85592E-05-1.48083E-07-1.23048E-18 9.09936E-19
 -1      4084 9.52179E-05-2.85901E-05-2.85568E-05-2.42189E-07-3.93041E-19 1.75768E-18
 -1      4085 9.52184E-05-2.85706E-05-2.85619E-05-1.09340E-07-3.81993E-19 6.31289E-19
 -1      4086 9.52052E-05-2.85561E-05-2.85645E-05-8.38213E-08 8.75763E-20 3.70596E-19
 -1      4087 9.51974E-05-2.85531E-05-2.85629E-05-1.37184E-07-8.95717E-19 1.01815E-18
 -1      4088 9.52058E-05-2.85491E-05-2.85663E-05-6.07943E-08-1.43638E-19 5.86727E-19
 -1      4089 9.52010E-05-2.85431E-05-2.85681E-05-4.55279E-08-6.47453E-19 1.36021E-19
 -1      4090 9.51929E-05-2.85375E-05-2.85672E-05-7.41021E-08-2.51794E-19 8.04473E-19
 -1      4091 9.52039E-05-2.85412E-05-2.85693E-05-3.23338E-08-7.75157E-19-1.20203E-19
 -1      4092 9.52035E-05-2.85398E-05-2.85704E-05-2.34855E-08-9.79549E-19-2.68293E-19
 -1      4093 9.51962E-05-2.85335E-05-2.85699E-05-3.75583E-08-6.77315E-19 9.47355E-19
 -1      4094 9.52071E-05-2.85405E-05-2.85711E-05-1.62309E-08-1.10604E-19 6.88784E-20
 -1      4095 9.52087E-05-2.85414E-05-2.85718E-05-1.12697E-08 7.98445E-19 6.10174E-19
 -1      4096 9.52025E-05-2.85354E-05-2.85717E-05-1.72562E-08-3.78259E-19 6.02161E-19
 -1      4097 9.52122E-05-2.85434E-05-2.85722E-05-7.48869E-09 1.98841E-18 6.08486E-19
 -1      4098 9.52145E-05-2.85454E-05-2.85726E-05-4.79895E-09 2.47861E-18 6.91741E-19
 -1      4099 9.52094E-05-2.85399E-05-2.85726E-05-6.56153E-09 1.36047E-18-1.22721E-19
 -1      4100 9.52176E-05-2.85477E-05-2.85727E-05-2.97129E-09 2.48530E-18 4.89330E-19
 -1      4101 9.52199E-05-2.85500E-05-2.85729E-05-1.56218E-09 1.64371E-18 1.17063E-18
 -1      4102 9.52159E-05-2.85453E-05-2.85731E-05-1.32869E-09 2.67208E-18-3.33967E-19
 -1      4103 9.52224E-05-2.85522E-05-2.85729E-05-7.70302E-10 1.81228E-18 2.06490E-18
 -1      4104 9.52245E-05-2.85544E-05-2.85729E-05-4.21347E-11 2.70463E-18 1.93079E-18
 -1      4105 9.52214E-05-2.85505E-05-2.85732E-05 9.32962E-10 2.78508E-18 4.14693E-19
 -1      4106 9.47971E-05-2.81383E-05-2.85628E-05-6.11535E-07 2.28704E-19 2.37153E-19
 -1      4107 9.46572E-05-2.80524E-05-2.85539E-05-8.01072E-07 7.51935E-19 1.43277E-18
 -1      4108 9.49323E-05-2.83024E-05-2.85579E-05-6.10054E-07 1.13550E-18-5.08155E-19
 -1      4109 9.52294E-05-2.85598E-05-2.85727E-05 6.91601E-10-6.41199E-19 3.48474E-19
 -1      4110 9.52302E-05-2.85603E-05-2.85728E-05 1.79966E-09-1.63504E-19 3.21108E-19
 -1      4111 9.52293E-05-2.85590E-05-2.85730E-05 2.54247E-09-2.21982E-20-1.01042E-18
 -1      4112 9.52283E-05-2.85584E-05-2.85728E-05 4.31349E-10 9.01300E-19 1.72932E-18
 -1      4113 9.41064E-05-2.88970E-05-2.78924E-05-1.10963E-05-5.55216E-19 4.45117E-19
 -1      4114 9.34214E-05-2.90229E-05-2.76346E-05-1.32963E-05 9.45137E-21 6.33813E-19
 -1      4115 9.68214E-05-3.18642E-05-2.78817E-05-1.37590E-05 5.49045E-19 1.89671E-18
 -1      4116 9.89476E-05-3.31922E-05-2.82272E-05 1.37604E-05 9.29822E-19 4.35074E-19
 -1      4117 9.40060E-05-2.89357E-05-2.78964E-05 1.28346E-05 8.74043E-19 1.37761E-19
 -1      4118 9.51020E-05-2.84160E-05-2.85788E-05-8.37077E-08 1.45320E-18-1.24040E-18
 -1      4119 9.50625E-05-2.83843E-05-2.85787E-05-1.16900E-07 2.08310E-18-1.01711E-18
 -1      4120 9.51989E-05-2.85185E-05-2.85772E-05 5.82924E-09 6.76712E-19 8.82207E-19
 -1      4121 9.51887E-05-2.85080E-05-2.85779E-05 2.54142E-09 4.58305E-19 9.85692E-19
 -1      4122 9.52121E-05-2.85340E-05-2.85763E-05 1.02270E-08 2.33213E-19 1.81845E-18
 -1      4123 9.52058E-05-2.85269E-05-2.85769E-05 9.64877E-09 7.86854E-19 1.15388E-18
 -1      4124 9.52010E-05-2.85238E-05-2.85758E-05 1.51801E-09 3.65694E-19 2.06629E-18
 -1      4125 9.52207E-05-2.85448E-05-2.85754E-05 1.07220E-08 1.51898E-18 9.91992E-19
 -1      4126 9.52168E-05-2.85399E-05-2.85760E-05 1.13919E-08 7.61531E-19 1.62794E-18
 -1      4127 9.52125E-05-2.85365E-05-2.85753E-05 6.92733E-09 1.17303E-18 1.40705E-18
 -1      4128 9.52264E-05-2.85523E-05-2.85746E-05 9.47176E-09 1.97231E-18 8.72382E-19
 -1      4129 9.52240E-05-2.85490E-05-2.85751E-05 1.06003E-08 1.62209E-18 1.04537E-18
 -1      4130 9.52204E-05-2.85458E-05-2.85747E-05 8.25023E-09 1.50792E-18 3.06208E-19
 -1      4131 9.52302E-05-2.85577E-05-2.85740E-05 7.63253E-09 1.35400E-18 8.42714E-19
 -1      4132 9.52287E-05-2.85553E-05-2.85743E-05 8.81457E-09 1.81697E-18 7.32292E-19
 -1      4133 9.52258E-05-2.85526E-05-2.85742E-05 7.66804E-09 2.26249E-18-1.01014E-19
 -1      4134 9.52325E-05-2.85609E-05-2.85736E-05 6.55274E-09 1.30371E-18 1.47100E-18
 -1      4135 9.52364E-05-2.85666E-05-2.85728E-05 4.09464E-09 1.32784E-18 1.55163E-18
 -1      4136 9.56543E-05-2.57533E-05-2.99314E-05 2.65774E-06 4.40824E-19 2.34586E-19
 -1      4137 9.55455E-05-2.51868E-05-3.01703E-05 2.34222E-06 6.65872E-19 2.24444E-19
 -1      4138 9.62649E-05-2.59504E-05-3.01347E-05 2.08683E-06 6.59891E-19 3.71800E-20
 -1      4139 9.57339E-05-2.64890E-05-2.96908E-05 3.22989E-06 3.04667E-19 2.74086E-19
 -1      4140 1.10937E-04-4.15041E-05-2.98746E-05-5.81311E-06-5.74000E-19-7.98451E-19
 -1      4141 1.09533E-04-4.00584E-05-2.97911E-05-3.46813E-06-5.68156E-19-1.66145E-19
 -1      4142 1.07448E-04-3.86780E-05-2.94064E-05-4.12905E-06-1.05592E-18-5.26613E-19
 -1      4143 1.07878E-04-3.96556E-05-2.91438E-05-9.74192E-06-2.27078E-19 5.28099E-19
 -1      4144 9.51788E-05-2.84959E-05-2.85782E-05-6.30655E-09-7.26383E-19-1.98959E-19
 -1      4145 9.51622E-05-2.84803E-05-2.85788E-05-1.49301E-08-8.70361E-19-7.93099E-21
 -1      4146 9.51843E-05-2.85065E-05-2.85761E-05-1.18030E-08-1.09327E-18 3.34836E-19
 -1      4147 9.39457E-05-2.80903E-05-2.81847E-05-7.16643E-06-1.51594E-18 8.70011E-19
 -1      4148 9.35790E-05-2.83054E-05-2.80078E-05-9.19582E-06-1.56140E-18 3.50026E-19
 -1      4149 9.58711E-05-3.02834E-05-2.81300E-05-9.71759E-06-1.13750E-18 8.34540E-19
 -1      4150 9.52146E-05-2.91997E-05-2.82923E-05-6.53507E-06-1.30248E-18 2.88074E-19
 -1      4151 1.15790E-04-4.43993E-05-3.07087E-05 5.17102E-06 4.10740E-19 1.25309E-18
 -1      4152 1.14044E-04-4.39788E-05-2.99166E-05 1.00719E-05 3.62970E-19 6.45614E-19
 -1      4153 1.10381E-04-4.13218E-05-2.95557E-05 9.62003E-06 2.72958E-19 4.15628E-19
 -1      4154 1.13808E-04-4.25040E-05-3.05826E-05 2.63056E-06-7.39367E-20 6.26007E-19
 -1      4155 1.01263E-04-3.27224E-05-2.93508E-05 3.64245E-06 4.18556E-19-2.71506E-19
 -1      4156 1.02419E-04-3.39722E-05-2.93208E-05 3.92504E-06 2.27144E-19-2.24665E-19
 -1      4157 1.02524E-04-3.43427E-05-2.92711E-05 5.35905E-06 4.51780E-19-1.02208E-19
 -1      4158 9.50355E-05-2.83513E-05-2.85773E-05-1.74441E-07 1.83732E-18-1.96475E-18
 -1      4159 9.49721E-05-2.83037E-05-2.85760E-05-2.37821E-07 8.11553E-19-2.44192E-18
 -1      4160 9.50151E-05-2.83596E-05-2.85675E-05-3.42994E-07 1.12581E-18-1.56608E-18
 -1      4161 9.50792E-05-2.84105E-05-2.85726E-05-1.83734E-07 1.62855E-18-6.49173E-19
 -1      4162 9.51483E-05-2.84632E-05-2.85788E-05-3.25201E-08-2.55731E-19-2.81723E-19
 -1      4163 9.51218E-05-2.84401E-05-2.85793E-05-5.08928E-08 2.06884E-19-5.17550E-19
 -1      4164 9.51266E-05-2.84517E-05-2.85750E-05-9.11022E-08 5.39303E-19 1.35459E-19
 -1      4165 9.51604E-05-2.84830E-05-2.85760E-05-3.92705E-08-8.75102E-19 9.39198E-19
 -1      4166 9.52305E-05-2.85588E-05-2.85736E-05 6.07594E-09 8.36062E-19 1.14919E-18
 -1      4167 9.70384E-05-2.69636E-05-3.00455E-05 2.02193E-06 7.74827E-19-1.38922E-19
 -1      4168 9.80624E-05-2.84464E-05-2.98305E-05 1.89681E-06 6.67186E-19-3.45756E-19
 -1      4169 9.87574E-05-2.94656E-05-2.96809E-05 2.32174E-06 7.17891E-19-3.24798E-19
 -1      4170 9.71381E-05-2.74356E-05-2.98488E-05 2.68266E-06 5.16546E-19-1.16163E-19
 -1      4171 1.10366E-04-4.10800E-05-2.98074E-05 6.43592E-06-2.30651E-20 4.56633E-19
 -1      4172 1.11764E-04-4.13483E-05-3.00999E-05 3.76640E-06-8.68358E-20 5.44669E-19
 -1      4173 9.38601E-05-2.76742E-05-2.83882E-05-3.72322E-06-1.00405E-18 1.63062E-18
 -1      4174 9.48747E-05-2.86738E-05-2.83986E-05-4.30828E-06-9.99714E-19 1.19336E-18
 -1      4175 9.41578E-05-2.77350E-05-2.84439E-05-2.92943E-06-5.89993E-19 1.86919E-18
 -1      4176 9.46113E-05-2.79907E-05-2.85429E-05-1.06590E-06 7.39299E-19 1.00309E-18
 -1      4177 9.44163E-05-2.78878E-05-2.85251E-05-1.37965E-06 8.86723E-19 1.46237E-18
 -1      4178 9.48357E-05-2.82517E-05-2.85406E-05-1.04511E-06 9.15603E-19 1.40122E-18
 -1      4179 9.38357E-05-2.73408E-05-2.84913E-05-1.90772E-06 4.81175E-19 3.20878E-18
 -1      4180 9.52259E-05-2.85558E-05-2.85729E-05-4.09579E-12 2.52965E-18 2.04414E-18
 -1      4181 9.52272E-05-2.85572E-05-2.85729E-05 3.96093E-10 2.44208E-18 2.55021E-18
 -1      4182 9.52276E-05-2.85573E-05-2.85730E-05 1.57442E-09 1.00069E-18-5.85396E-19
 -1      4183 9.52252E-05-2.85546E-05-2.85731E-05 1.62897E-09 2.31837E-18 8.45583E-19
 -1      4184 9.36017E-05-2.67483E-05-2.86015E-05 7.18013E-06 4.62743E-19 4.28868E-19
 -1      4185 9.52444E-05-2.80098E-05-2.88440E-05 6.89345E-06 2.40463E-19-1.52292E-19
 -1      4186 9.31773E-05-2.70424E-05-2.83534E-05 8.80683E-06 5.94965E-19 2.17349E-19
 -1      4187 9.62398E-05-2.81195E-05-2.92064E-05 5.15014E-06 4.23459E-19-1.58310E-19
 -1      4188 9.62390E-05-2.75247E-05-2.94167E-05 4.17097E-06 3.60149E-19 3.05252E-20
 -1      4189 1.01521E-04-3.49279E-05-2.84904E-05 1.29255E-05 8.45582E-19-2.34626E-20
 -1      4190 9.99271E-05-3.30491E-05-2.86094E-05 1.08510E-05 7.90610E-19-1.10741E-19
 -1      4191 1.04136E-04-3.69974E-05-2.88720E-05 1.15047E-05 7.01927E-19-2.08895E-19
 -1      4192 9.67095E-05-2.75666E-05-2.96489E-05 3.58149E-06 4.98287E-19-8.54829E-21
 -1      4193 9.97728E-05-3.40840E-05-2.81372E-05-1.32898E-05 4.63522E-19 1.19629E-18
 -1      4194 1.04238E-04-3.75957E-05-2.86663E-05-1.20045E-05 1.29990E-19 6.22579E-19
 -1      4195 1.05190E-04-3.75433E-05-2.89369E-05-8.75073E-06 1.95436E-19 7.16726E-19
 -1      4196 9.41326E-05-2.82120E-05-2.81849E-05 1.06579E-05 9.05713E-19 2.66648E-19
 -1      4197 1.05931E-04-3.81095E-05-2.91470E-05-6.32591E-06-5.86717E-19 3.69604E-19
 -1      4198 9.52289E-05-2.85576E-05-2.85735E-05 5.19128E-09 9.75075E-19-1.42682E-18
 -1      4199 9.94777E-05-3.05366E-05-2.95346E-05 2.78113E-06 7.18279E-19-4.04557E-19
 -1      4200 1.00295E-04-3.15739E-05-2.94366E-05 3.16826E-06 5.77499E-19-2.67855E-19
 -1      4201 1.00247E-04-3.17907E-05-2.93775E-05 4.22538E-06 5.22453E-19-2.72077E-19
 -1      4202 9.86142E-05-2.95818E-05-2.96177E-05 3.13003E-06 5.98602E-19-2.96547E-19
 -1      4203 9.93115E-05-3.31679E-05-2.82723E-05-1.11526E-05 6.54151E-20 1.13288E-18
 -1      4204 1.03233E-04-3.53116E-05-2.90696E-05 8.01945E-06 4.62018E-19-4.19132E-19
 -1      4205 1.05252E-04-3.70927E-05-2.91718E-05 8.51569E-06 4.08432E-19-3.27914E-19
 -1      4206 9.43857E-05-2.78371E-05-2.85064E-05-1.79422E-06 4.57186E-19 1.61961E-18
 -1      4207 9.41319E-05-2.77339E-05-2.84738E-05-2.30015E-06 2.70659E-19 1.54583E-18
 -1      4208 9.47164E-05-2.83358E-05-2.84658E-05-2.77406E-06-2.42559E-19 3.78610E-19
 -1      4209 9.47459E-05-2.82401E-05-2.85117E-05-1.73006E-06 7.81186E-19 1.36076E-18
 -1      4210 9.92446E-05-3.25469E-05-2.85513E-05-5.74727E-06-8.27013E-19 6.80076E-19
 -1      4211 9.81445E-05-3.15646E-05-2.85000E-05-5.14730E-06-9.15002E-19 2.69185E-19
 -1      4212 9.69240E-05-3.04636E-05-2.84605E-05-4.71211E-06-6.55930E-19 5.61914E-19
 -1      4213 9.62551E-05-2.98399E-05-2.84517E-05-4.07400E-06-5.45152E-19 2.59731E-19
 -1      4214 9.60469E-05-2.95160E-05-2.84814E-05-3.22217E-06-1.78593E-19-3.40091E-19
 -1      4215 9.56155E-05-2.91371E-05-2.84818E-05-2.73711E-06 1.12736E-19-5.81678E-20
 -1      4216 9.55521E-05-2.89882E-05-2.85045E-05-2.12441E-06 2.62015E-19-6.34503E-19
 -1      4217 9.53020E-05-2.87692E-05-2.85099E-05-1.77014E-06 6.36877E-19-5.58393E-19
 -1      4218 9.53046E-05-2.87098E-05-2.85256E-05-1.35432E-06 8.69204E-19-7.77703E-19
 -1      4219 9.51667E-05-2.85891E-05-2.85319E-05-1.10734E-06 8.15715E-19-1.40759E-18
 -1      4220 9.51939E-05-2.85737E-05-2.85420E-05-8.35849E-07 9.44781E-19-1.35250E-18
 -1      4221 9.51219E-05-2.85106E-05-2.85477E-05-6.70397E-07 1.23737E-18-6.81078E-19
 -1      4222 9.51540E-05-2.85146E-05-2.85539E-05-4.98771E-07 1.41318E-18-1.18354E-18
 -1      4223 9.51193E-05-2.84841E-05-2.85583E-05-3.91872E-07 1.55270E-18-3.28787E-19
 -1      4224 9.51478E-05-2.84952E-05-2.85620E-05-2.87545E-07 7.91955E-19-6.34596E-19
 -1      4225 9.51334E-05-2.84824E-05-2.85652E-05-2.20654E-07-2.43715E-19-1.60497E-19
 -1      4226 9.51562E-05-2.84947E-05-2.85672E-05-1.58266E-07 1.07035E-19 8.56855E-19
 -1      4227 9.51524E-05-2.84912E-05-2.85695E-05-1.17806E-07 8.17230E-19 1.64005E-18
 -1      4228 9.51696E-05-2.85025E-05-2.85705E-05-8.18652E-08-1.81593E-19 2.01903E-18
 -1      4229 9.51708E-05-2.85036E-05-2.85720E-05-5.82600E-08-5.32601E-19 1.63207E-18
 -1      4230 9.51834E-05-2.85130E-05-2.85724E-05-3.83745E-08-6.33086E-19 1.02525E-18
 -1      4231 9.51866E-05-2.85161E-05-2.85733E-05-2.51869E-08-1.14217E-18 1.39691E-18
 -1      4232 9.51958E-05-2.85237E-05-2.85734E-05-1.47568E-08-8.93376E-19 1.49882E-18
 -1      4233 9.51996E-05-2.85275E-05-2.85739E-05-7.78279E-09 4.23590E-19 1.66901E-18
 -1      4234 9.52061E-05-2.85334E-05-2.85739E-05-2.90898E-09 1.04444E-18 1.56027E-18
 -1      4235 9.52097E-05-2.85371E-05-2.85741E-05 5.18765E-10 1.49058E-18 9.53257E-19
 -1      4236 9.52143E-05-2.85417E-05-2.85739E-05 2.37791E-09 1.85661E-18 1.95395E-19
 -1      4237 9.52175E-05-2.85450E-05-2.85740E-05 3.86264E-09 2.21805E-18-3.00959E-19
 -1      4238 9.52207E-05-2.85486E-05-2.85738E-05 4.20062E-09 2.59037E-18-3.08467E-19
 -1      4239 9.52233E-05-2.85514E-05-2.85737E-05 4.67157E-09 2.74203E-18 2.08231E-19
 -1      4240 9.67896E-05-2.88676E-05-2.90710E-05 6.00969E-06 2.23968E-19-1.82277E-19
 -1      4241 9.77439E-05-2.95741E-05-2.92541E-05 5.34193E-06 5.02113E-19-1.13538E-19
 -1      4242 9.70250E-05-2.95388E-05-2.89091E-05 7.15981E-06 2.49580E-19-2.51460E-19
 -1      4243 9.52256E-05-2.85541E-05-2.85735E-05 4.39714E-09 1.71858E-18-7.20622E-19
 -1      4244 1.03196E-04-3.60462E-05-2.87487E-05-8.30109E-06-3.03625E-19 1.13032E-18
 -1      4245 9.63523E-05-2.99225E-05-2.85189E-05 9.80318E-06 7.25682E-19 1.37580E-19
 -1      4246 9.76970E-05-2.86607E-05-2.95852E-05 3.56392E-06 5.81276E-19-2.08806E-19
 -1      4247 1.07793E-04-3.92936E-05-2.92763E-05 9.47599E-06 3.42400E-19 1.25968E-19
 -1      4248 1.00611E-04-3.42756E-05-2.84895E-05-9.44478E-06-3.82930E-19 9.89239E-19
 -1      4249 1.01965E-04-3.48938E-05-2.87025E-05-7.20141E-06-7.27507E-19 1.07712E-18
 -1      4250 1.00256E-04-3.35178E-05-2.85796E-05-6.63672E-06-5.99562E-19 8.03907E-19
 -1      4251 9.80381E-05-3.21253E-05-2.82587E-05-9.87951E-06-5.45841E-19 1.15847E-18
 -1      4252 9.84263E-05-3.21377E-05-2.84420E-05-7.27105E-06-1.06420E-18 7.82729E-19
 -1      4253 1.00915E-04-3.27854E-05-2.91622E-05 6.13302E-06 5.98572E-19-4.59552E-19
 -1      4254 1.02316E-04-3.42200E-05-2.91437E-05 6.78268E-06 5.63147E-19-3.63112E-19
 -1      4255 9.90235E-05-3.19678E-05-2.87190E-05 9.44529E-06 6.17510E-19-2.96880E-19
 -1      4256 9.79829E-05-3.06066E-05-2.88425E-05 7.96274E-06 3.51147E-19-5.10014E-19
 -1      4257 1.01004E-04-3.37102E-05-2.89200E-05 8.86261E-06 4.78132E-19-6.57342E-19
 -1      4258 9.62161E-05-3.00205E-05-2.83879E-05-5.80850E-06-9.07882E-19 5.76255E-19
 -1      4259 9.89774E-05-3.05403E-05-2.93126E-05 4.88607E-06 4.64191E-19-2.90732E-19
 -1      4260 9.84308E-05-2.96771E-05-2.94371E-05 4.15985E-06 5.41942E-19-2.43591E-19
 -1      4261 9.52270E-05-2.85563E-05-2.85731E-05 2.67673E-09 1.54010E-18-1.16649E-18
 -1      4262 9.64067E-05-3.03604E-05-2.83254E-05-7.09143E-06-1.39669E-18 4.42930E-19
 -1      4263 9.74663E-05-3.12667E-05-2.83348E-05-8.14278E-06-1.14519E-18 6.70737E-19
 -1      4264 9.99299E-05-3.17054E-05-2.92170E-05 5.54211E-06 4.06428E-19-3.58241E-19
 -1      4265 9.92128E-05-3.15386E-05-2.90640E-05 6.88811E-06 3.25187E-19-6.63886E-19
 -1      4266 9.52282E-05-2.85577E-05-2.85731E-05 2.64482E-09 1.12313E-18-1.24811E-18
 -3
    1PSTEP                         4           1           1          
  100CL  101 1.000000000        4266                     0    1           1
 -4  ERROR       1    1
 -5  STR(%)      1    1    0    0
 -1         1 1.20831E+01
 -1         2 2.44856E+01
 -1         3 4.72335E-05
 -1         4 2.53139E-05
 -1         5 1.32693E+01
 -1         6 1.31350E+01
 -1         7 1.31350E+01
 -1         8 3.67454E+00
 -1         9 1.83397E+00
 -1        10 1.30087E+00
 -1        11 1.05581E+00
 -1        12 9.09207E-01
 -1        13 8.16817E-01
 -1        14 7.55203E-01
 -1        15 7.44535E-01
 -1        16 7.98230E-01
 -1        17 8.86469E-01
 -1        18 1.04127E+00
 -1        19 1.29487E+00
 -1        20 1.84334E+00
 -1        21 3.69135E+00
 -1        22 1.32693E+01
 -1        23 1.31350E+01
 -1        24 4.29750E+00
 -1        25 3.31297E+00
 -1        26 2.07743E+00
 -1        27 1.32455E+00
 -1        28 9.23751E-01
 -1        29 6.54748E-01
 -1        30 5.01471E-01
 -1        31 5.23044E-01
 -1        32 6.10958E-01
 -1        33 8.12709E-01
 -1        34 1.11420E+00
 -1        35 1.47975E+00
 -1        36 1.91181E+00
 -1        37 2.35153E+00
 -1        38 2.66237E+00
 -1        39 2.75499E+00
 -1        40 2.75499E+00
 -1        41 2.75462E+00
 -1        42 2.75462E+00
 -1        43 2.52386E+00
 -1        44 2.12080E+00
 -1        45 1.64326E+00
 -1        46 1.23185E+00
 -1        47 8.74633E-01
 -1        48 6.29895E-01
 -1        49 4.74361E-01
 -1        50 3.39126E-01
 -1        51 2.30582E-01
 -1        52 1.48890E-01
 -1        53 1.00098E-01
 -1        54 7.23986E-02
 -1        55 4.97702E-02
 -1        56 3.25671E-02
 -1        57 2.04692E-02
 -1        58 1.48298E-02
 -1        59 1.02159E-02
 -1        60 6.69786E-03
 -1        61 4.33066E-03
 -1        62 2.81289E-03
 -1        63 2.17920E-03
 -1        64 1.59912E-03
 -1        65 1.11613E-03
 -1        66 7.46602E-04
 -1        67 5.99951E-04
 -1        68 4.47112E-04
 -1        69 3.01253E-04
 -1        70 1.79018E-04
 -1        71 9.29134E-05
 -1        72 1.32693E+01
 -1        73 4.29347E+00
 -1        74 3.40432E+00
 -1        75 2.16927E+00
 -1        76 1.46353E+00
 -1        77 1.17515E+00
 -1        78 1.01245E+00
 -1        79 1.01684E+00
 -1        80 1.48768E+00
 -1        81 2.15359E+00
 -1        82 2.81992E+00
 -1        83 4.29167E+00
 -1        84 6.22663E+00
 -1        85 8.27936E+00
 -1        86 8.27936E+00
 -1        87 8.17867E+00
 -1        88 1.21675E+01
 -1        89 2.31325E+01
 -1        90 2.31325E+01
 -1        91 2.23160E+01
 -1        92 1.16584E+01
 -1        93 6.21196E+00
 -1        94 7.24809E+00
 -1        95 7.24809E+00
 -1        96 6.37214E+00
 -1        97 4.72382E+00
 -1        98 3.22771E+00
 -1        99 2.28458E+00
 -1       100 1.51538E+00
 -1       101 9.21156E-01
 -1       102 5.88076E-01
 -1       103 3.45452E-01
 -1       104 1.99181E-01
 -1       105 1.13029E-01
 -1       106 6.40974E-02
 -1       107 4.04995E-02
 -1       108 2.54189E-02
 -1       109 1.59008E-02
 -1       110 9.95105E-03
 -1       111 6.25936E-03
 -1       112 4.03806E-03
 -1       113 2.62247E-03
 -1       114 1.72231E-03
 -1       115 1.18339E-03
 -1       116 8.68500E-04
 -1       117 6.49401E-04
 -1       118 4.90007E-04
 -1       119 3.65000E-04
 -1       120 2.56050E-04
 -1       121 1.61202E-04
 -1       122 1.21640E-04
 -1       123 3.14317E-05
 -1       124 1.31877E-05
 -1       125 1.89837E-05
 -1       126 2.27591E-05
 -1       127 2.27591E-05
 -1       128 1.97328E-05
 -1       129 1.16979E-05
 -1       130 9.82814E-06
 -1       131 1.30413E-05
 -1       132 1.30413E-05
 -1       133 1.29457E-05
 -1       134 7.88133E-06
 -1       135 1.20089E-05
 -1       136 1.35506E-05
 -1       137 1.35506E-05
 -1       138 3.48983E-05
 -1       139 2.78550E+01
 -1       140 2.78550E+01
 -1       141 4.43751E+01
 -1       142 4.43751E+01
 -1       143 1.80053E+01
 -1       144 1.45791E+01
 -1       145 1.46326E+01
 -1       146 1.56606E+01
 -1       147 1.56606E+01
 -1       148 2.07246E+01
 -1       149 4.76681E+01
 -1       150 4.76681E+01
 -1       151 2.72226E+01
 -1       152 2.53538E+01
 -1       153 2.45125E+01
 -1       154 2.45125E+01
 -1       155 4.13422E+01
 -1       156 4.13422E+01
 -1       157 1.55505E+01
 -1       158 1.16809E+01
 -1       159 1.17488E+01
 -1       160 1.20831E+01
 -1       161 1.18730E+01
 -1       162 1.16765E+01
 -1       163 1.85831E+01
 -1       164 4.56866E+01
 -1       165 4.56866E+01
 -1       166 2.44856E+01
 -1       167 6.09078E+00
 -1       168 2.30812E+00
 -1       169 1.51639E+00
 -1       170 1.16600E+00
 -1       171 9.81821E-01
 -1       172 8.71605E-01
 -1       173 8.00146E-01
 -1       174 7.52325E-01
 -1       175 7.85002E-01
 -1       176 8.52138E-01
 -1       177 9.68013E-01
 -1       178 1.16017E+00
 -1       179 1.51605E+00
 -1       180 2.32001E+00
 -1       181 6.16831E+00
 -1       182 4.29750E+00
 -1       183 3.31297E+00
 -1       184 2.07743E+00
 -1       185 1.42835E+00
 -1       186 1.01354E+00
 -1       187 7.33730E-01
 -1       188 5.58225E-01
 -1       189 5.69830E-01
 -1       190 6.66299E-01
 -1       191 8.20314E-01
 -1       192 1.02309E+00
 -1       193 1.25673E+00
 -1       194 1.55849E+00
 -1       195 1.91181E+00
 -1       196 2.35153E+00
 -1       197 2.66237E+00
 -1       198 2.75499E+00
 -1       199 2.74218E+00
 -1       200 2.75462E+00
 -1       201 2.52386E+00
 -1       202 2.12080E+00
 -1       203 1.69163E+00
 -1       204 1.33137E+00
 -1       205 1.04434E+00
 -1       206 7.91410E-01
 -1       207 5.70138E-01
 -1       208 3.90298E-01
 -1       209 2.53122E-01
 -1       210 1.62802E-01
 -1       211 1.07518E-01
 -1       212 7.23986E-02
 -1       213 4.97702E-02
 -1       214 3.25671E-02
 -1       215 2.05446E-02
 -1       216 1.48298E-02
 -1       217 1.02159E-02
 -1       218 7.17100E-03
 -1       219 4.95407E-03
 -1       220 3.59081E-03
 -1       221 2.54073E-03
 -1       222 1.70142E-03
 -1       223 1.11613E-03
 -1       224 7.99615E-04
 -1       225 5.99951E-04
 -1       226 4.47112E-04
 -1       227 3.01253E-04
 -1       228 1.79018E-04
 -1       229 9.29134E-05
 -1       230 4.29347E+00
 -1       231 3.40432E+00
 -1       232 2.16927E+00
 -1       233 1.46353E+00
 -1       234 1.17515E+00
 -1       235 1.01245E+00
 -1       236 9.39250E-01
 -1       237 1.01684E+00
 -1       238 1.83940E+00
 -1       239 3.06351E+00
 -1       240 4.69867E+00
 -1       241 6.55594E+00
 -1       242 8.11212E+00
 -1       243 9.07353E+00
 -1       244 1.40141E+01
 -1       245 9.46148E+00
 -1       246 2.31325E+01
 -1       247 2.23160E+01
 -1       248 1.30891E+01
 -1       249 9.44072E+00
 -1       250 9.49202E+00
 -1       251 7.59832E+00
 -1       252 6.70567E+00
 -1       253 5.87828E+00
 -1       254 4.51480E+00
 -1       255 3.11167E+00
 -1       256 1.98040E+00
 -1       257 1.16580E+00
 -1       258 7.06386E-01
 -1       259 4.06547E-01
 -1       260 2.43333E-01
 -1       261 1.43661E-01
 -1       262 8.38516E-02
 -1       263 4.84408E-02
 -1       264 2.77148E-02
 -1       265 1.63855E-02
 -1       266 1.07600E-02
 -1       267 7.05595E-03
 -1       268 4.67366E-03
 -1       269 3.13816E-03
 -1       270 2.10285E-03
 -1       271 1.42644E-03
 -1       272 9.78870E-04
 -1       273 6.74869E-04
 -1       274 4.90007E-04
 -1       275 3.65000E-04
 -1       276 2.56050E-04
 -1       277 1.64430E-04
 -1       278 1.21640E-04
 -1       279 5.60163E-05
 -1       280 3.36220E-05
 -1       281 5.34735E-05
 -1       282 5.87364E-05
 -1       283 5.87364E-05
 -1       284 5.54918E-05
 -1       285 3.82295E-05
 -1       286 2.76652E-05
 -1       287 3.92723E-05
 -1       288 4.09913E-05
 -1       289 4.09913E-05
 -1       290 3.71670E-05
 -1       291 2.28132E-05
 -1       292 3.50557E-05
 -1       293 4.69005E-05
 -1       294 3.47372E+01
 -1       295 3.47372E+01
 -1       296 3.63713E+01
 -1       297 4.43751E+01
 -1       298 1.82254E+01
 -1       299 1.24846E+01
 -1       300 1.45791E+01
 -1       301 1.46326E+01
 -1       302 1.56606E+01
 -1       303 1.37612E+01
 -1       304 2.12709E+01
 -1       305 4.76681E+01
 -1       306 3.83438E+01
 -1       307 3.12319E+01
 -1       308 3.12319E+01
 -1       309 2.59638E+01
 -1       310 3.61628E+01
 -1       311 4.13422E+01
 -1       312 1.58361E+01
 -1       313 1.09533E+01
 -1       314 1.16809E+01
 -1       315 1.17488E+01
 -1       316 1.20831E+01
 -1       317 1.18730E+01
 -1       318 1.16765E+01
 -1       319 1.02520E+01
 -1       320 1.99505E+01
 -1       321 4.56866E+01
 -1       322 2.68826E+01
 -1       323 3.11015E+01
 -1       324 1.33805E+01
 -1       325 4.69005E-05
 -1       326 1.05379E+00
 -1       327 2.49045E+00
 -1       328 8.00081E-01
 -1       329 7.03103E-01
 -1       330 6.39807E-01
 -1       331 5.92749E-01
 -1       332 5.79747E-01
 -1       333 6.22664E-01
 -1       334 6.91024E-01
 -1       335 7.89322E-01
 -1       336 9.21894E-01
 -1       337 1.09177E+00
 -1       338 2.47169E+00
 -1       339 2.80538E+01
 -1       340 1.71697E+00
 -1       341 1.25994E+00
 -1       342 9.10802E-01
 -1       343 6.85334E-01
 -1       344 5.92355E-01
 -1       345 5.53398E-01
 -1       346 6.27336E-01
 -1       347 7.40802E-01
 -1       348 8.89100E-01
 -1       349 1.07731E+00
 -1       350 1.31112E+00
 -1       351 1.52909E+00
 -1       352 1.77725E+00
 -1       353 1.97585E+00
 -1       354 2.05521E+00
 -1       355 1.99893E+00
 -1       356 2.06516E+00
 -1       357 2.03520E+00
 -1       358 1.87392E+00
 -1       359 1.61285E+00
 -1       360 1.36085E+00
 -1       361 1.10306E+00
 -1       362 8.51482E-01
 -1       363 6.54608E-01
 -1       364 4.80838E-01
 -1       365 3.37490E-01
 -1       366 2.26030E-01
 -1       367 1.43923E-01
 -1       368 8.64578E-02
 -1       369 4.82281E-02
 -1       370 2.41584E-02
 -1       371 1.74276E-02
 -1       372 1.19309E-02
 -1       373 8.47254E-03
 -1       374 6.54568E-03
 -1       375 4.89691E-03
 -1       376 3.69330E-03
 -1       377 2.63012E-03
 -1       378 1.92086E-03
 -1       379 1.36252E-03
 -1       380 9.15975E-04
 -1       381 5.81962E-04
 -1       382 3.48669E-04
 -1       383 2.22720E-04
 -1       384 1.51438E-04
 -1       385 8.36080E-05
 -1       386 1.25292E+00
 -1       387 1.71818E+00
 -1       388 8.61469E-01
 -1       389 6.93765E-01
 -1       390 5.81730E-01
 -1       391 6.61003E-01
 -1       392 1.28075E+00
 -1       393 2.21969E+00
 -1       394 3.67110E+00
 -1       395 5.86591E+00
 -1       396 9.10303E+00
 -1       397 1.39733E+01
 -1       398 2.26597E+01
 -1       399 1.46953E+01
 -1       400 1.24283E+01
 -1       401 9.64219E+00
 -1       402 8.82037E+00
 -1       403 6.39438E+00
 -1       404 4.28885E+00
 -1       405 2.71810E+00
 -1       406 1.65618E+00
 -1       407 1.00951E+00
 -1       408 5.85923E-01
 -1       409 3.33851E-01
 -1       410 1.86770E-01
 -1       411 1.02473E-01
 -1       412 5.49206E-02
 -1       413 3.03965E-02
 -1       414 1.84820E-02
 -1       415 1.11950E-02
 -1       416 6.77176E-03
 -1       417 4.14802E-03
 -1       418 3.06426E-03
 -1       419 2.22918E-03
 -1       420 1.61242E-03
 -1       421 1.16290E-03
 -1       422 8.35137E-04
 -1       423 5.93369E-04
 -1       424 4.11229E-04
 -1       425 2.70635E-04
 -1       426 1.63035E-04
 -1       427 9.72270E-05
 -1       428 6.16966E-05
 -1       429 8.99256E-05
 -1       430 7.53277E-05
 -1       431 8.99256E-05
 -1       432 8.60359E-05
 -1       433 7.17549E-05
 -1       434 4.79348E-05
 -1       435 6.79846E-05
 -1       436 7.17589E-05
 -1       437 7.24462E-05
 -1       438 7.24462E-05
 -1       439 6.18032E-05
 -1       440 7.29152E-05
 -1       441 7.29152E-05
 -1       442 2.51735E+01
 -1       443 5.20202E+01
 -1       444 9.26112E-01
 -1       445 1.63759E+01
 -1       446 2.72617E+01
 -1       447 3.47009E+01
 -1       448 4.32497E+01
 -1       449 4.32497E+01
 -1       450 2.32110E+01
 -1       451 2.40657E+01
 -1       452 1.43377E+01
 -1       453 8.10814E+00
 -1       454 8.03622E+00
 -1       455 9.96755E+00
 -1       456 1.02217E+01
 -1       457 1.05786E+01
 -1       458 9.70458E+00
 -1       459 6.88927E+00
 -1       460 9.16569E+00
 -1       461 1.57871E+01
 -1       462 2.68826E+01
 -1       463 2.85258E+01
 -1       464 5.20202E+01
 -1       465 2.85258E+01
 -1       466 4.99337E-01
 -1       467 5.21356E-01
 -1       468 4.37858E-01
 -1       469 4.43299E-01
 -1       470 4.74042E-01
 -1       471 5.03509E-01
 -1       472 5.12202E-01
 -1       473 5.12202E-01
 -1       474 8.20324E-01
 -1       475 5.20202E+01
 -1       476 8.09768E-01
 -1       477 7.20227E-01
 -1       478 6.31373E-01
 -1       479 5.58975E-01
 -1       480 5.21675E-01
 -1       481 5.53398E-01
 -1       482 6.37567E-01
 -1       483 7.71156E-01
 -1       484 9.42225E-01
 -1       485 1.13254E+00
 -1       486 1.31157E+00
 -1       487 1.44001E+00
 -1       488 1.56811E+00
 -1       489 1.62135E+00
 -1       490 1.58744E+00
 -1       491 1.56673E+00
 -1       492 1.62008E+00
 -1       493 1.59287E+00
 -1       494 1.47538E+00
 -1       495 1.32412E+00
 -1       496 1.13865E+00
 -1       497 9.19984E-01
 -1       498 7.02321E-01
 -1       499 5.08879E-01
 -1       500 3.66401E-01
 -1       501 2.55206E-01
 -1       502 1.70480E-01
 -1       503 1.08919E-01
 -1       504 6.61644E-02
 -1       505 3.77626E-02
 -1       506 1.97495E-02
 -1       507 8.90316E-03
 -1       508 6.33096E-03
 -1       509 4.95743E-03
 -1       510 4.21946E-03
 -1       511 3.39155E-03
 -1       512 2.67289E-03
 -1       513 1.97878E-03
 -1       514 1.38896E-03
 -1       515 9.78560E-04
 -1       516 6.82284E-04
 -1       517 4.53139E-04
 -1       518 2.86423E-04
 -1       519 1.67269E-04
 -1       520 1.06686E-04
 -1       521 4.56924E-01
 -1       522 2.80538E+01
 -1       523 2.80948E-01
 -1       524 3.77593E-01
 -1       525 7.80333E-01
 -1       526 1.50085E+00
 -1       527 2.71038E+00
 -1       528 4.86954E+00
 -1       529 8.74064E+00
 -1       530 1.48577E+01
 -1       531 3.47009E+01
 -1       532 7.38001E+00
 -1       533 5.32305E+00
 -1       534 3.10930E+00
 -1       535 1.83008E+00
 -1       536 1.08791E+00
 -1       537 6.35036E-01
 -1       538 3.87741E-01
 -1       539 2.34878E-01
 -1       540 1.40376E-01
 -1       541 8.27613E-02
 -1       542 4.81069E-02
 -1       543 2.75446E-02
 -1       544 1.55105E-02
 -1       545 8.56039E-03
 -1       546 4.64071E-03
 -1       547 3.25220E-03
 -1       548 2.22918E-03
 -1       549 1.61242E-03
 -1       550 1.16290E-03
 -1       551 8.52781E-04
 -1       552 6.36049E-04
 -1       553 4.63427E-04
 -1       554 3.26120E-04
 -1       555 2.15882E-04
 -1       556 1.17184E-04
 -1       557 1.08120E-04
 -1       558 1.07471E-04
 -1       559 1.76183E-04
 -1       560 8.74273E-05
 -1       561 1.03818E-04
 -1       562 1.14948E-04
 -1       563 1.14948E-04
 -1       564 1.09435E-04
 -1       565 1.09435E-04
 -1       566 1.06686E-04
 -1       567 1.71061E+01
 -1       568 4.83938E+00
 -1       569 8.74068E-01
 -1       570 2.32110E+01
 -1       571 8.27028E+00
 -1       572 1.17027E+01
 -1       573 1.51826E+01
 -1       574 7.72195E-01
 -1       575 4.69790E-01
 -1       576 5.80710E-01
 -1       577 1.84529E+01
 -1       578 4.32497E+01
 -1       579 1.14165E+01
 -1       580 7.30377E+00
 -1       581 5.42959E+00
 -1       582 6.06331E+00
 -1       583 7.65351E+00
 -1       584 7.26885E+00
 -1       585 5.19603E+00
 -1       586 9.32582E+00
 -1       587 1.23725E+01
 -1       588 7.29285E-01
 -1       589 2.13538E+01
 -1       590 1.76183E-04
 -1       591 3.33436E-01
 -1       592 3.30848E-01
 -1       593 3.40422E-01
 -1       594 3.34550E-01
 -1       595 4.10317E-01
 -1       596 3.40422E-01
 -1       597 8.91894E+00
 -1       598 4.04924E-01
 -1       599 4.31803E-01
 -1       600 4.50675E-01
 -1       601 4.58921E-01
 -1       602 4.89717E-01
 -1       603 5.87694E-01
 -1       604 7.03057E-01
 -1       605 8.27124E-01
 -1       606 9.60597E-01
 -1       607 1.14415E+00
 -1       608 1.29473E+00
 -1       609 1.36459E+00
 -1       610 1.39488E+00
 -1       611 1.39248E+00
 -1       612 1.32424E+00
 -1       613 1.35833E+00
 -1       614 1.38405E+00
 -1       615 1.35782E+00
 -1       616 1.28884E+00
 -1       617 1.14722E+00
 -1       618 9.48176E-01
 -1       619 7.61254E-01
 -1       620 6.12896E-01
 -1       621 4.65608E-01
 -1       622 3.35290E-01
 -1       623 2.29517E-01
 -1       624 1.49393E-01
 -1       625 9.32004E-02
 -1       626 5.63938E-02
 -1       627 3.20624E-02
 -1       628 1.67619E-02
 -1       629 7.81767E-03
 -1       630 3.91647E-03
 -1       631 3.12683E-03
 -1       632 2.83262E-03
 -1       633 2.37581E-03
 -1       634 1.96491E-03
 -1       635 1.52304E-03
 -1       636 1.10565E-03
 -1       637 7.58459E-04
 -1       638 4.92214E-04
 -1       639 3.04476E-04
 -1       640 1.91327E-04
 -1       641 1.43294E-04
 -1       642 5.95878E+00
 -1       643 2.68625E-01
 -1       644 1.02613E+00
 -1       645 1.89012E+00
 -1       646 3.30108E+00
 -1       647 5.89511E+00
 -1       648 9.41770E+00
 -1       649 1.83947E+01
 -1       650 2.57591E+00
 -1       651 1.49612E-04
 -1       652 4.39161E+00
 -1       653 5.59048E-01
 -1       654 3.02965E+00
 -1       655 1.46550E+01
 -1       656 6.69669E+00
 -1       657 1.50175E+00
 -1       658 8.79500E-01
 -1       659 5.17767E-01
 -1       660 3.00692E-01
 -1       661 1.71899E-01
 -1       662 1.01814E-01
 -1       663 5.92549E-02
 -1       664 3.38250E-02
 -1       665 1.94879E-02
 -1       666 1.19713E-02
 -1       667 7.30284E-03
 -1       668 4.51060E-03
 -1       669 2.70417E-03
 -1       670 1.59878E-03
 -1       671 1.08749E-03
 -1       672 7.78112E-04
 -1       673 5.48971E-04
 -1       674 4.04150E-04
 -1       675 2.88862E-04
 -1       676 1.99203E-04
 -1       677 1.30090E-04
 -1       678 1.45382E-04
 -1       679 1.44719E-04
 -1       680 1.73032E-04
 -1       681 1.73032E-04
 -1       682 1.64032E-04
 -1       683 1.62055E-04
 -1       684 1.42375E-04
 -1       685 7.20924E+00
 -1       686 6.15916E+00
 -1       687 5.73260E+00
 -1       688 5.06699E+00
 -1       689 1.51428E+01
 -1       690 1.48433E+01
 -1       691 3.38233E-01
 -1       692 3.79244E-01
 -1       693 6.91090E+00
 -1       694 4.30263E+00
 -1       695 4.73393E+00
 -1       696 1.03427E+01
 -1       697 9.80223E+00
 -1       698 3.21521E+00
 -1       699 3.32614E-01
 -1       700 3.59792E-01
 -1       701 3.77550E-01
 -1       702 1.32127E+01
 -1       703 2.57634E-01
 -1       704 3.32165E+00
 -1       705 4.26904E-01
 -1       706 2.19487E+01
 -1       707 4.89473E+00
 -1       708 4.26904E-01
 -1       709 2.54365E-01
 -1       710 4.20674E+00
 -1       711 2.88857E-01
 -1       712 8.97466E+00
 -1       713 3.78833E+00
 -1       714 5.21257E+00
 -1       715 2.70744E-01
 -1       716 3.24681E-01
 -1       717 4.02399E-01
 -1       718 5.10034E-01
 -1       719 6.39039E-01
 -1       720 7.84495E-01
 -1       721 9.29452E-01
 -1       722 1.04457E+00
 -1       723 1.16204E+00
 -1       724 1.30749E+00
 -1       725 1.39338E+00
 -1       726 1.51545E+00
 -1       727 1.45292E+00
 -1       728 1.43319E+00
 -1       729 1.49932E+00
 -1       730 1.40905E+00
 -1       731 1.29231E+00
 -1       732 1.17536E+00
 -1       733 1.04823E+00
 -1       734 9.03471E-01
 -1       735 7.49253E-01
 -1       736 5.82603E-01
 -1       737 4.28419E-01
 -1       738 2.99759E-01
 -1       739 2.00164E-01
 -1       740 1.27651E-01
 -1       741 7.75123E-02
 -1       742 4.47652E-02
 -1       743 2.51665E-02
 -1       744 1.36911E-02
 -1       745 7.62704E-03
 -1       746 3.91647E-03
 -1       747 2.52173E-03
 -1       748 2.08783E-03
 -1       749 1.89130E-03
 -1       750 1.62189E-03
 -1       751 1.27598E-03
 -1       752 9.42791E-04
 -1       753 6.60678E-04
 -1       754 4.41078E-04
 -1       755 2.79777E-04
 -1       756 1.84176E-04
 -1       757 1.36545E+00
 -1       758 6.01239E+00
 -1       759 1.05454E+01
 -1       760 8.92030E-01
 -1       761 2.53604E-04
 -1       762 2.48839E-04
 -1       763 1.35447E+00
 -1       764 8.45171E-01
 -1       765 5.48530E-01
 -1       766 3.44222E-01
 -1       767 2.12365E-01
 -1       768 1.28775E-01
 -1       769 7.67047E-02
 -1       770 4.54442E-02
 -1       771 2.74560E-02
 -1       772 1.64519E-02
 -1       773 9.87865E-03
 -1       774 5.80098E-03
 -1       775 3.56627E-03
 -1       776 2.37123E-03
 -1       777 1.55920E-03
 -1       778 1.01302E-03
 -1       779 6.49171E-04
 -1       780 4.09543E-04
 -1       781 3.02732E-04
 -1       782 2.06461E-04
 -1       783 5.14289E+00
 -1       784 1.71084E-04
 -1       785 6.47647E+00
 -1       786 3.21521E+00
 -1       787 2.08099E-04
 -1       788 2.53604E-04
 -1       789 2.41581E-04
 -1       790 1.01966E+01
 -1       791 3.30686E-01
 -1       792 2.67510E+00
 -1       793 5.04198E-01
 -1       794 7.31979E+00
 -1       795 1.74754E-04
 -1       796 4.96335E+00
 -1       797 4.24681E+00
 -1       798 2.21647E+00
 -1       799 3.80993E+00
 -1       800 2.17472E+00
 -1       801 2.72343E-01
 -1       802 3.06645E-01
 -1       803 9.39802E+00
 -1       804 2.99472E+00
 -1       805 1.92182E-01
 -1       806 3.59355E+00
 -1       807 7.56707E+00
 -1       808 7.67685E+00
 -1       809 2.06614E-04
 -1       810 2.49672E-01
 -1       811 3.35359E+00
 -1       812 3.21942E-01
 -1       813 6.00378E+00
 -1       814 3.12323E-01
 -1       815 2.54365E-01
 -1       816 5.42740E+00
 -1       817 3.21942E-01
 -1       818 1.77265E-01
 -1       819 5.59304E+00
 -1       820 2.56269E+00
 -1       821 6.66522E-01
 -1       822 2.12075E-01
 -1       823 2.88938E-01
 -1       824 3.87439E-01
 -1       825 5.15112E-01
 -1       826 6.74311E-01
 -1       827 8.56140E-01
 -1       828 1.03414E+00
 -1       829 1.17344E+00
 -1       830 1.31506E+00
 -1       831 1.37888E+00
 -1       832 1.52584E+00
 -1       833 1.79648E+00
 -1       834 2.50321E+00
 -1       835 2.49799E+00
 -1       836 1.72210E+00
 -1       837 1.40905E+00
 -1       838 1.36030E+00
 -1       839 1.22233E+00
 -1       840 1.04823E+00
 -1       841 8.73249E-01
 -1       842 6.75259E-01
 -1       843 4.91147E-01
 -1       844 3.39674E-01
 -1       845 2.24338E-01
 -1       846 1.50439E-01
 -1       847 9.88836E-02
 -1       848 6.19808E-02
 -1       849 3.69450E-02
 -1       850 2.17371E-02
 -1       851 1.21494E-02
 -1       852 6.38798E-03
 -1       853 3.00686E-03
 -1       854 2.05491E-03
 -1       855 1.70363E-03
 -1       856 1.55162E-03
 -1       857 1.27837E-03
 -1       858 9.85011E-04
 -1       859 7.20083E-04
 -1       860 5.18240E-04
 -1       861 4.12778E-01
 -1       862 5.93887E-04
 -1       863 4.71585E-04
 -1       864 5.93887E-04
 -1       865 1.01578E+00
 -1       866 1.04994E+00
 -1       867 2.49457E-01
 -1       868 1.47548E-01
 -1       869 8.54026E-02
 -1       870 4.82501E-02
 -1       871 2.97845E-02
 -1       872 1.85639E-02
 -1       873 1.22009E-02
 -1       874 7.85503E-03
 -1       875 4.96817E-03
 -1       876 3.10898E-03
 -1       877 1.92562E-03
 -1       878 1.29042E-03
 -1       879 9.03527E-04
 -1       880 6.19752E-04
 -1       881 4.13207E-04
 -1       882 2.39740E-04
 -1       883 3.32247E+00
 -1       884 5.28531E+00
 -1       885 3.44480E+00
 -1       886 3.29333E-04
 -1       887 5.37209E+00
 -1       888 2.19838E+00
 -1       889 2.95865E+00
 -1       890 4.89719E+00
 -1       891 4.92254E+00
 -1       892 3.78159E+00
 -1       893 4.92254E+00
 -1       894 3.14717E-01
 -1       895 3.09575E+00
 -1       896 2.03381E-01
 -1       897 6.18427E-01
 -1       898 3.45262E-04
 -1       899 1.91244E+00
 -1       900 2.33676E-01
 -1       901 2.51897E-04
 -1       902 2.95840E+00
 -1       903 3.24885E+00
 -1       904 2.61035E+00
 -1       905 3.10139E+00
 -1       906 3.13862E+00
 -1       907 2.83097E-01
 -1       908 1.56108E+00
 -1       909 4.11874E-04
 -1       910 3.57714E-01
 -1       911 2.40086E-01
 -1       912 1.49518E-01
 -1       913 2.93962E-01
 -1       914 1.88151E-01
 -1       915 3.14717E-01
 -1       916 3.77312E+00
 -1       917 5.03715E-01
 -1       918 2.60968E-01
 -1       919 3.53149E-01
 -1       920 4.91950E-01
 -1       921 6.90853E-01
 -1       922 9.30112E-01
 -1       923 1.17344E+00
 -1       924 1.39742E+00
 -1       925 1.74886E+00
 -1       926 1.60750E+00
 -1       927 2.85210E+00
 -1       928 2.50321E+00
 -1       929 3.24885E+00
 -1       930 2.45013E+00
 -1       931 1.71120E+00
 -1       932 1.22233E+00
 -1       933 1.00319E+00
 -1       934 7.67356E-01
 -1       935 5.69394E-01
 -1       936 4.29245E-01
 -1       937 3.07147E-01
 -1       938 2.08227E-01
 -1       939 1.35093E-01
 -1       940 8.47282E-02
 -1       941 5.13397E-02
 -1       942 3.00329E-02
 -1       943 1.71692E-02
 -1       944 9.18529E-03
 -1       945 4.84795E-03
 -1       946 2.62032E-03
 -1       947 1.71561E-03
 -1       948 1.47796E-03
 -1       949 1.18991E-03
 -1       950 9.26433E-04
 -1       951 7.37460E-04
 -1       952 5.52106E-04
 -1       953 1.72047E-01
 -1       954 1.08335E-01
 -1       955 2.89358E-01
 -1       956 6.63240E-02
 -1       957 8.32804E-01
 -1       958 3.95670E-02
 -1       959 2.29953E-02
 -1       960 1.28913E-02
 -1       961 7.96525E-03
 -1       962 5.43685E-03
 -1       963 3.76516E-03
 -1       964 2.56739E-03
 -1       965 1.72671E-03
 -1       966 1.14491E-03
 -1       967 7.45359E-04
 -1       968 5.30082E-04
 -1       969 3.21275E-04
 -1       970 6.90393E-04
 -1       971 2.08677E-01
 -1       972 2.93263E-01
 -1       973 1.28651E+00
 -1       974 2.22829E+00
 -1       975 2.30337E+00
 -1       976 2.43585E+00
 -1       977 3.82576E+00
 -1       978 3.62027E+00
 -1       979 2.97118E+00
 -1       980 3.54794E+00
 -1       981 3.25332E+00
 -1       982 2.93962E-01
 -1       983 7.88846E-01
 -1       984 2.45013E+00
 -1       985 3.10139E+00
 -1       986 2.49799E+00
 -1       987 1.15424E+00
 -1       988 5.93887E-04
 -1       989 4.88903E-01
 -1       990 6.90393E-04
 -1       991 2.08467E+00
 -1       992 2.79942E-01
 -1       993 5.30082E-04
 -1       994 2.25182E+00
 -1       995 2.65809E-02
 -1       996 4.51968E-02
 -1       997 4.58111E-01
 -1       998 6.42907E-01
 -1       999 8.42183E-01
 -1      1000 1.06839E+00
 -1      1001 1.39742E+00
 -1      1002 1.87675E+00
 -1      1003 8.12071E-02
 -1      1004 1.43079E+00
 -1      1005 9.86714E-01
 -1      1006 7.67356E-01
 -1      1007 5.69394E-01
 -1      1008 3.90197E-01
 -1      1009 2.59954E-01
 -1      1010 1.68202E-01
 -1      1011 1.09948E-01
 -1      1012 6.97270E-02
 -1      1013 4.21417E-02
 -1      1014 2.48938E-02
 -1      1015 1.41828E-02
 -1      1016 7.60909E-03
 -1      1017 3.75023E-03
 -1      1018 2.31339E-03
 -1      1019 1.84725E-03
 -1      1020 1.41496E-03
 -1      1021 1.12828E-03
 -1      1022 8.96331E-04
 -1      1023 5.34266E-04
 -1      1024 1.40345E-01
 -1      1025 4.94980E-01
 -1      1026 5.73215E-01
 -1      1027 1.57091E-02
 -1      1028 1.00939E-02
 -1      1029 6.13593E-03
 -1      1030 3.76516E-03
 -1      1031 2.61685E-03
 -1      1032 1.94976E-03
 -1      1033 1.41228E-03
 -1      1034 9.91225E-04
 -1      1035 6.43440E-04
 -1      1036 3.17775E-01
 -1      1037 1.91244E+00
 -1      1038 8.43293E-01
 -1      1039 1.46451E+00
 -1      1040 3.04814E+00
 -1      1041 1.98038E+00
 -1      1042 2.12150E+00
 -1      1043 2.76644E+00
 -1      1044 3.19452E-01
 -1      1045 3.17775E-01
 -1      1046 1.71120E+00
 -1      1047 1.74886E+00
 -1      1048 2.34013E-01
 -1      1049 3.76049E-01
 -1      1050 7.88846E-01
 -1      1051 3.36419E-01
 -1      1052 2.15727E+00
 -1      1053 1.61959E+00
 -1      1054 7.76827E-04
 -1      1055 1.26403E-03
 -1      1056 9.38390E-01
 -1      1057 1.45063E+00
 -1      1058 9.47263E-02
 -1      1059 8.12671E-01
 -1      1060 1.01118E+00
 -1      1061 7.68364E-01
 -1      1062 8.12671E-01
 -1      1063 5.65856E-01
 -1      1064 3.71581E-01
 -1      1065 2.47219E-01
 -1      1066 1.56272E-01
 -1      1067 9.47263E-02
 -1      1068 5.52781E-02
 -1      1069 3.11500E-02
 -1      1070 1.67322E-02
 -1      1071 8.42339E-03
 -1      1072 4.00584E-03
 -1      1073 2.62926E-03
 -1      1074 1.84725E-03
 -1      1075 1.48746E-03
 -1      1076 1.26403E-03
 -1      1077 1.56272E-01
 -1      1078 6.88382E-04
 -1      1079 1.48448E+00
 -1      1080 2.04763E+00
 -1      1081 3.11500E-02
 -1      1082 4.00584E-03
 -1      1083 2.62926E-03
 -1      1084 1.94976E-03
 -1      1085 1.48746E-03
 -1      1086 1.19631E-03
 -1      1087 3.82782E-01
 -1      1088 1.43079E+00
 -1      1089 8.42339E-03
 -1      1090 9.77773E-01
 -1      1091 1.61959E+00
 -1      1092 7.00440E-01
 -1      1093 5.52781E-02
 -1      1094 1.67322E-02
 -1      1095 3.44291E-01
 -1      1096 5.65856E-01
 -1      1097 2.47219E-01
 -1      1098 1.26403E-03
 -1      1099 1.28893E+00
 -1      1100 5.73914E-01
 -1      1101 1.45063E+00
 -1      1102 1.67787E+00
 -1      1103 5.00791E-01
 -1      1104 3.71581E-01
 -1      1105 8.12671E-01
 -1      1106 7.89966E-01
 -1      1107 1.01408E+00
 -1      1108 1.06122E+00
 -1      1109 1.31350E+01
 -1      1110 8.40475E+00
 -1      1111 2.75425E+00
 -1      1112 1.56742E+00
 -1      1113 1.17834E+00
 -1      1114 9.82508E-01
 -1      1115 8.63012E-01
 -1      1116 7.86010E-01
 -1      1117 7.49869E-01
 -1      1118 7.71383E-01
 -1      1119 8.42350E-01
 -1      1120 9.63868E-01
 -1      1121 1.16807E+00
 -1      1122 1.56911E+00
 -1      1123 2.76734E+00
 -1      1124 8.48035E+00
 -1      1125 1.32693E+01
 -1      1126 1.31350E+01
 -1      1127 8.71624E+00
 -1      1128 3.80524E+00
 -1      1129 2.69520E+00
 -1      1130 1.70099E+00
 -1      1131 1.12415E+00
 -1      1132 7.89250E-01
 -1      1133 5.78110E-01
 -1      1134 5.12258E-01
 -1      1135 5.67001E-01
 -1      1136 7.11833E-01
 -1      1137 9.63454E-01
 -1      1138 1.29697E+00
 -1      1139 1.69578E+00
 -1      1140 2.13167E+00
 -1      1141 2.50695E+00
 -1      1142 2.70868E+00
 -1      1143 2.75499E+00
 -1      1144 2.75480E+00
 -1      1145 2.75462E+00
 -1      1146 2.63924E+00
 -1      1147 2.32233E+00
 -1      1148 1.88203E+00
 -1      1149 1.43755E+00
 -1      1150 1.05324E+00
 -1      1151 7.52264E-01
 -1      1152 5.52128E-01
 -1      1153 4.06743E-01
 -1      1154 2.84854E-01
 -1      1155 1.89736E-01
 -1      1156 1.24494E-01
 -1      1157 8.62483E-02
 -1      1158 6.10844E-02
 -1      1159 4.11686E-02
 -1      1160 2.65181E-02
 -1      1161 1.76495E-02
 -1      1162 1.25228E-02
 -1      1163 8.45690E-03
 -1      1164 5.51426E-03
 -1      1165 3.57177E-03
 -1      1166 2.49604E-03
 -1      1167 1.88916E-03
 -1      1168 1.35762E-03
 -1      1169 9.31364E-04
 -1      1170 6.73277E-04
 -1      1171 5.23532E-04
 -1      1172 3.74182E-04
 -1      1173 2.40135E-04
 -1      1174 1.35966E-04
 -1      1175 5.91137E-05
 -1      1176 1.32693E+01
 -1      1177 8.78141E+00
 -1      1178 3.84890E+00
 -1      1179 2.78679E+00
 -1      1180 1.81640E+00
 -1      1181 1.31934E+00
 -1      1182 1.09380E+00
 -1      1183 1.01464E+00
 -1      1184 1.25226E+00
 -1      1185 1.82064E+00
 -1      1186 2.48675E+00
 -1      1187 3.55579E+00
 -1      1188 5.25915E+00
 -1      1189 7.25299E+00
 -1      1190 8.27936E+00
 -1      1191 8.22901E+00
 -1      1192 1.01731E+01
 -1      1193 1.76500E+01
 -1      1194 2.31325E+01
 -1      1195 2.27243E+01
 -1      1196 1.69872E+01
 -1      1197 8.93519E+00
 -1      1198 6.73002E+00
 -1      1199 7.24809E+00
 -1      1200 6.81011E+00
 -1      1201 5.54798E+00
 -1      1202 3.97576E+00
 -1      1203 2.75615E+00
 -1      1204 1.89998E+00
 -1      1205 1.21827E+00
 -1      1206 7.54616E-01
 -1      1207 4.66764E-01
 -1      1208 2.72317E-01
 -1      1209 1.56105E-01
 -1      1210 8.85633E-02
 -1      1211 5.22984E-02
 -1      1212 3.29592E-02
 -1      1213 2.06598E-02
 -1      1214 1.29259E-02
 -1      1215 8.10521E-03
 -1      1216 5.14871E-03
 -1      1217 3.33026E-03
 -1      1218 2.17239E-03
 -1      1219 1.45285E-03
 -1      1220 1.02594E-03
 -1      1221 7.58950E-04
 -1      1222 5.69704E-04
 -1      1223 4.27504E-04
 -1      1224 3.10525E-04
 -1      1225 2.08626E-04
 -1      1226 1.41421E-04
 -1      1227 8.44367E-05
 -1      1228 3.93326E-05
 -1      1229 2.23097E-05
 -1      1230 1.60857E-05
 -1      1231 2.08714E-05
 -1      1232 2.27591E-05
 -1      1233 2.12459E-05
 -1      1234 1.57153E-05
 -1      1235 1.07630E-05
 -1      1236 1.14347E-05
 -1      1237 1.30413E-05
 -1      1238 1.29935E-05
 -1      1239 1.04135E-05
 -1      1240 9.94510E-06
 -1      1241 1.27798E-05
 -1      1242 1.35506E-05
 -1      1243 2.42245E-05
 -1      1244 3.01061E-05
 -1      1245 2.61703E+01
 -1      1246 2.78550E+01
 -1      1247 3.61150E+01
 -1      1248 4.43751E+01
 -1      1249 3.11902E+01
 -1      1250 1.62922E+01
 -1      1251 1.46059E+01
 -1      1252 1.51466E+01
 -1      1253 1.56606E+01
 -1      1254 1.81926E+01
 -1      1255 3.41963E+01
 -1      1256 4.76681E+01
 -1      1257 3.74454E+01
 -1      1258 2.62882E+01
 -1      1259 2.49331E+01
 -1      1260 2.45125E+01
 -1      1261 3.29274E+01
 -1      1262 4.13422E+01
 -1      1263 2.84464E+01
 -1      1264 1.36157E+01
 -1      1265 1.17148E+01
 -1      1266 1.19160E+01
 -1      1267 1.20831E+01
 -1      1268 1.19781E+01
 -1      1269 1.17747E+01
 -1      1270 1.51298E+01
 -1      1271 3.21348E+01
 -1      1272 4.56866E+01
 -1      1273 3.50861E+01
 -1      1274 2.44856E+01
 -1      1275 1.31350E+01
 -1      1276 4.88266E+00
 -1      1277 9.61287E+00
 -1      1278 2.07104E+00
 -1      1279 2.99133E+00
 -1      1280 4.19945E+00
 -1      1281 1.40863E+00
 -1      1282 1.67518E+00
 -1      1283 1.91226E+00
 -1      1284 1.11090E+00
 -1      1285 1.23343E+00
 -1      1286 1.34119E+00
 -1      1287 9.45514E-01
 -1      1288 1.01881E+00
 -1      1289 1.07391E+00
 -1      1290 8.44211E-01
 -1      1291 8.90406E-01
 -1      1292 9.26713E-01
 -1      1293 7.77675E-01
 -1      1294 8.08482E-01
 -1      1295 8.35876E-01
 -1      1296 7.48430E-01
 -1      1297 7.53764E-01
 -1      1298 7.76235E-01
 -1      1299 7.91616E-01
 -1      1300 7.64768E-01
 -1      1301 7.68663E-01
 -1      1302 8.69304E-01
 -1      1303 8.25184E-01
 -1      1304 8.18570E-01
 -1      1305 1.00464E+00
 -1      1306 9.27241E-01
 -1      1307 9.10076E-01
 -1      1308 1.22752E+00
 -1      1309 1.10072E+00
 -1      1310 1.06409E+00
 -1      1311 1.67969E+00
 -1      1312 1.40546E+00
 -1      1313 1.33811E+00
 -1      1314 3.00568E+00
 -1      1315 2.08167E+00
 -1      1316 1.91803E+00
 -1      1317 9.71883E+00
 -1      1318 4.92983E+00
 -1      1319 4.24416E+00
 -1      1320 1.32693E+01
 -1      1321 8.71624E+00
 -1      1322 4.29750E+00
 -1      1323 3.80524E+00
 -1      1324 3.31297E+00
 -1      1325 3.80524E+00
 -1      1326 2.69520E+00
 -1      1327 2.07743E+00
 -1      1328 2.69520E+00
 -1      1329 1.75289E+00
 -1      1330 1.37645E+00
 -1      1331 1.75289E+00
 -1      1332 1.16904E+00
 -1      1333 9.68644E-01
 -1      1334 1.22094E+00
 -1      1335 8.28741E-01
 -1      1336 6.94239E-01
 -1      1337 8.73633E-01
 -1      1338 6.06487E-01
 -1      1339 5.29848E-01
 -1      1340 6.45977E-01
 -1      1341 5.35650E-01
 -1      1342 5.46437E-01
 -1      1343 5.64027E-01
 -1      1344 5.94672E-01
 -1      1345 6.38628E-01
 -1      1346 6.18065E-01
 -1      1347 7.15636E-01
 -1      1348 8.16511E-01
 -1      1349 7.43306E-01
 -1      1350 9.17898E-01
 -1      1351 1.06864E+00
 -1      1352 9.21701E-01
 -1      1353 1.18547E+00
 -1      1354 1.36824E+00
 -1      1355 1.13991E+00
 -1      1356 1.51912E+00
 -1      1357 1.73515E+00
 -1      1358 1.40761E+00
 -1      1359 1.91181E+00
 -1      1360 2.13167E+00
 -1      1361 1.73515E+00
 -1      1362 2.35153E+00
 -1      1363 2.50695E+00
 -1      1364 2.13167E+00
 -1      1365 2.66237E+00
 -1      1366 2.70868E+00
 -1      1367 2.50695E+00
 -1      1368 2.75499E+00
 -1      1369 2.75499E+00
 -1      1370 2.70868E+00
 -1      1371 2.74859E+00
 -1      1372 2.74840E+00
 -1      1373 2.74859E+00
 -1      1374 2.75462E+00
 -1      1375 2.75462E+00
 -1      1376 2.74840E+00
 -1      1377 2.63924E+00
 -1      1378 2.52386E+00
 -1      1379 2.63924E+00
 -1      1380 2.32233E+00
 -1      1381 2.12080E+00
 -1      1382 2.32233E+00
 -1      1383 1.90621E+00
 -1      1384 1.66744E+00
 -1      1385 1.90621E+00
 -1      1386 1.48732E+00
 -1      1387 1.28161E+00
 -1      1388 1.51150E+00
 -1      1389 1.13809E+00
 -1      1390 9.59486E-01
 -1      1391 1.18786E+00
 -1      1392 8.33021E-01
 -1      1393 7.10653E-01
 -1      1394 9.17874E-01
 -1      1395 6.00017E-01
 -1      1396 5.22249E-01
 -1      1397 6.80774E-01
 -1      1398 4.32329E-01
 -1      1399 3.64712E-01
 -1      1400 4.80218E-01
 -1      1401 2.96124E-01
 -1      1402 2.41852E-01
 -1      1403 3.21710E-01
 -1      1404 1.96692E-01
 -1      1405 1.55846E-01
 -1      1406 2.07962E-01
 -1      1407 1.28204E-01
 -1      1408 1.03808E-01
 -1      1409 1.35160E-01
 -1      1410 8.62483E-02
 -1      1411 7.23986E-02
 -1      1412 8.99584E-02
 -1      1413 6.10844E-02
 -1      1414 4.97702E-02
 -1      1415 6.10844E-02
 -1      1416 4.11686E-02
 -1      1417 3.25671E-02
 -1      1418 4.11686E-02
 -1      1419 2.65559E-02
 -1      1420 2.05069E-02
 -1      1421 2.65559E-02
 -1      1422 1.76495E-02
 -1      1423 1.48298E-02
 -1      1424 1.76872E-02
 -1      1425 1.25228E-02
 -1      1426 1.02159E-02
 -1      1427 1.25228E-02
 -1      1428 8.69346E-03
 -1      1429 6.93443E-03
 -1      1430 8.69346E-03
 -1      1431 5.82597E-03
 -1      1432 4.64237E-03
 -1      1433 6.06253E-03
 -1      1434 3.96074E-03
 -1      1435 3.20185E-03
 -1      1436 4.27244E-03
 -1      1437 2.67681E-03
 -1      1438 2.35997E-03
 -1      1439 3.06577E-03
 -1      1440 1.94031E-03
 -1      1441 1.65027E-03
 -1      1442 2.12107E-03
 -1      1443 1.35762E-03
 -1      1444 1.11613E-03
 -1      1445 1.40877E-03
 -1      1446 9.57871E-04
 -1      1447 7.73109E-04
 -1      1448 9.57871E-04
 -1      1449 6.73277E-04
 -1      1450 5.99951E-04
 -1      1451 6.99783E-04
 -1      1452 5.23532E-04
 -1      1453 4.47112E-04
 -1      1454 5.23532E-04
 -1      1455 3.74182E-04
 -1      1456 3.01253E-04
 -1      1457 3.74182E-04
 -1      1458 2.40135E-04
 -1      1459 1.79018E-04
 -1      1460 2.40135E-04
 -1      1461 1.35966E-04
 -1      1462 9.29134E-05
 -1      1463 1.35966E-04
 -1      1464 6.39059E-05
 -1      1465 6.39059E-05
 -1      1466 4.29347E+00
 -1      1467 8.78141E+00
 -1      1468 3.40432E+00
 -1      1469 3.84890E+00
 -1      1470 3.84890E+00
 -1      1471 2.16927E+00
 -1      1472 2.78679E+00
 -1      1473 2.78679E+00
 -1      1474 1.46353E+00
 -1      1475 1.81640E+00
 -1      1476 1.81640E+00
 -1      1477 1.17515E+00
 -1      1478 1.31934E+00
 -1      1479 1.31934E+00
 -1      1480 1.01245E+00
 -1      1481 1.09380E+00
 -1      1482 1.09380E+00
 -1      1483 9.78044E-01
 -1      1484 9.75849E-01
 -1      1485 9.75849E-01
 -1      1486 1.25226E+00
 -1      1487 1.01684E+00
 -1      1488 9.78044E-01
 -1      1489 1.99649E+00
 -1      1490 1.66354E+00
 -1      1491 1.42812E+00
 -1      1492 2.94171E+00
 -1      1493 2.60855E+00
 -1      1494 2.45145E+00
 -1      1495 4.49517E+00
 -1      1496 3.75929E+00
 -1      1497 3.88109E+00
 -1      1498 6.39129E+00
 -1      1499 5.42380E+00
 -1      1500 5.62730E+00
 -1      1501 8.19574E+00
 -1      1502 7.16938E+00
 -1      1503 7.33403E+00
 -1      1504 8.67644E+00
 -1      1505 8.67644E+00
 -1      1506 8.59282E+00
 -1      1507 1.10964E+01
 -1      1508 1.11467E+01
 -1      1509 1.15438E+01
 -1      1510 1.08145E+01
 -1      1511 8.82007E+00
 -1      1512 1.17378E+01
 -1      1513 2.31325E+01
 -1      1514 2.31325E+01
 -1      1515 2.23160E+01
 -1      1516 2.27243E+01
 -1      1517 2.27243E+01
 -1      1518 1.23737E+01
 -1      1519 1.77025E+01
 -1      1520 1.77025E+01
 -1      1521 7.82634E+00
 -1      1522 1.05496E+01
 -1      1523 1.12649E+01
 -1      1524 8.37006E+00
 -1      1525 7.85199E+00
 -1      1526 9.46637E+00
 -1      1527 7.42321E+00
 -1      1528 7.42321E+00
 -1      1529 8.54517E+00
 -1      1530 6.53890E+00
 -1      1531 6.97688E+00
 -1      1532 7.15200E+00
 -1      1533 5.30105E+00
 -1      1534 6.12521E+00
 -1      1535 6.29198E+00
 -1      1536 3.87125E+00
 -1      1537 4.61931E+00
 -1      1538 5.19654E+00
 -1      1539 2.69813E+00
 -1      1540 3.16969E+00
 -1      1541 3.81323E+00
 -1      1542 1.74789E+00
 -1      1543 2.13249E+00
 -1      1544 2.54604E+00
 -1      1545 1.04348E+00
 -1      1546 1.34059E+00
 -1      1547 1.57310E+00
 -1      1548 6.47231E-01
 -1      1549 8.13771E-01
 -1      1550 9.36092E-01
 -1      1551 3.76000E-01
 -1      1552 4.97312E-01
 -1      1553 5.56467E-01
 -1      1554 2.21257E-01
 -1      1555 2.94392E-01
 -1      1556 3.24940E-01
 -1      1557 1.28345E-01
 -1      1558 1.71421E-01
 -1      1559 1.93497E-01
 -1      1560 7.39745E-02
 -1      1561 9.84404E-02
 -1      1562 1.13756E-01
 -1      1563 4.44701E-02
 -1      1564 5.62691E-02
 -1      1565 6.61462E-02
 -1      1566 2.65669E-02
 -1      1567 3.41072E-02
 -1      1568 3.80778E-02
 -1      1569 1.61432E-02
 -1      1570 2.09022E-02
 -1      1571 2.20502E-02
 -1      1572 1.03555E-02
 -1      1573 1.33304E-02
 -1      1574 1.35728E-02
 -1      1575 6.65766E-03
 -1      1576 8.50350E-03
 -1      1577 8.90799E-03
 -1      1578 4.35586E-03
 -1      1579 5.46651E-03
 -1      1580 5.86480E-03
 -1      1581 2.88031E-03
 -1      1582 3.58811E-03
 -1      1583 3.90591E-03
 -1      1584 1.91258E-03
 -1      1585 2.36266E-03
 -1      1586 2.62051E-03
 -1      1587 1.30492E-03
 -1      1588 1.57438E-03
 -1      1589 1.76465E-03
 -1      1590 9.23685E-04
 -1      1591 1.08113E-03
 -1      1592 1.20266E-03
 -1      1593 6.62135E-04
 -1      1594 7.71684E-04
 -1      1595 8.26870E-04
 -1      1596 4.90007E-04
 -1      1597 5.69704E-04
 -1      1598 5.82438E-04
 -1      1599 3.65000E-04
 -1      1600 4.27504E-04
 -1      1601 4.27504E-04
 -1      1602 2.56050E-04
 -1      1603 3.10525E-04
 -1      1604 3.10525E-04
 -1      1605 1.62816E-04
 -1      1606 2.10240E-04
 -1      1607 2.10240E-04
 -1      1608 1.21640E-04
 -1      1609 1.41421E-04
 -1      1610 1.43035E-04
 -1      1611 5.16249E-05
 -1      1612 8.88280E-05
 -1      1613 8.88280E-05
 -1      1614 4.37240E-05
 -1      1615 2.34048E-05
 -1      1616 3.25268E-05
 -1      1617 4.48191E-05
 -1      1618 3.62286E-05
 -1      1619 3.33306E-05
 -1      1620 4.35477E-05
 -1      1621 4.07478E-05
 -1      1622 3.88600E-05
 -1      1623 5.61049E-05
 -1      1624 4.07478E-05
 -1      1625 4.07478E-05
 -1      1626 5.87364E-05
 -1      1627 3.76123E-05
 -1      1628 3.91255E-05
 -1      1629 5.71141E-05
 -1      1630 2.49637E-05
 -1      1631 2.89811E-05
 -1      1632 4.68607E-05
 -1      1633 1.87467E-05
 -1      1634 1.96816E-05
 -1      1635 3.29474E-05
 -1      1636 2.61568E-05
 -1      1637 2.45502E-05
 -1      1638 3.34688E-05
 -1      1639 2.70163E-05
 -1      1640 2.70163E-05
 -1      1641 4.01318E-05
 -1      1642 2.69685E-05
 -1      1643 2.70163E-05
 -1      1644 4.09913E-05
 -1      1645 2.25242E-05
 -1      1646 2.50563E-05
 -1      1647 3.90791E-05
 -1      1648 1.74110E-05
 -1      1649 1.53473E-05
 -1      1650 2.99901E-05
 -1      1651 2.43032E-05
 -1      1652 2.35323E-05
 -1      1653 2.89344E-05
 -1      1654 3.02255E-05
 -1      1655 3.02255E-05
 -1      1656 4.09781E-05
 -1      1657 3.12961E+01
 -1      1658 2.96114E+01
 -1      1659 3.12961E+01
 -1      1660 3.12961E+01
 -1      1661 4.03732E+01
 -1      1662 3.21132E+01
 -1      1663 4.43751E+01
 -1      1664 4.43751E+01
 -1      1665 1.81153E+01
 -1      1666 3.13002E+01
 -1      1667 1.35319E+01
 -1      1668 1.52450E+01
 -1      1669 1.46059E+01
 -1      1670 1.45791E+01
 -1      1671 1.51466E+01
 -1      1672 1.46326E+01
 -1      1673 1.56606E+01
 -1      1674 1.56606E+01
 -1      1675 1.72429E+01
 -1      1676 1.47109E+01
 -1      1677 3.44695E+01
 -1      1678 2.09977E+01
 -1      1679 4.76681E+01
 -1      1680 4.76681E+01
 -1      1681 3.27832E+01
 -1      1682 4.30060E+01
 -1      1683 2.82928E+01
 -1      1684 2.92273E+01
 -1      1685 2.78722E+01
 -1      1686 2.82928E+01
 -1      1687 2.52381E+01
 -1      1688 2.52381E+01
 -1      1689 3.87525E+01
 -1      1690 3.03376E+01
 -1      1691 4.13422E+01
 -1      1692 4.13422E+01
 -1      1693 1.56933E+01
 -1      1694 2.85891E+01
 -1      1695 1.13171E+01
 -1      1696 1.32519E+01
 -1      1697 1.17148E+01
 -1      1698 1.16809E+01
 -1      1699 1.19160E+01
 -1      1700 1.17488E+01
 -1      1701 1.20831E+01
 -1      1702 1.20831E+01
 -1      1703 1.18730E+01
 -1      1704 1.19781E+01
 -1      1705 1.16765E+01
 -1      1706 1.17747E+01
 -1      1707 1.44176E+01
 -1      1708 1.09643E+01
 -1      1709 3.28185E+01
 -1      1710 1.92668E+01
 -1      1711 4.56866E+01
 -1      1712 4.56866E+01
 -1      1713 2.56841E+01
 -1      1714 3.62846E+01
 -1      1715 2.77935E+01
 -1      1716 2.77935E+01
 -1      1717 9.71883E+00
 -1      1718 1.27740E+01
 -1      1719 1.14210E+01
 -1      1720 1.82565E+01
 -1      1721 3.55543E+01
 -1      1722 3.29193E+01
 -1      1723 3.47372E+01
 -1      1724 4.08994E-05
 -1      1725 3.02255E-05
 -1      1726 4.69005E-05
 -1      1727 4.03732E+01
 -1      1728 3.13002E+01
 -1      1729 1.53550E+01
 -1      1730 1.35319E+01
 -1      1731 1.46059E+01
 -1      1732 1.51466E+01
 -1      1733 1.47109E+01
 -1      1734 1.75161E+01
 -1      1735 3.44695E+01
 -1      1736 4.30060E+01
 -1      1737 3.47878E+01
 -1      1738 3.12319E+01
 -1      1739 2.85978E+01
 -1      1740 3.10633E+01
 -1      1741 3.87525E+01
 -1      1742 2.85891E+01
 -1      1743 1.33947E+01
 -1      1744 1.13171E+01
 -1      1745 1.17148E+01
 -1      1746 1.19160E+01
 -1      1747 1.19781E+01
 -1      1748 1.17747E+01
 -1      1749 1.09643E+01
 -1      1750 1.51012E+01
 -1      1751 3.28185E+01
 -1      1752 3.62846E+01
 -1      1753 2.89920E+01
 -1      1754 9.61287E+00
 -1      1755 1.82565E+01
 -1      1756 1.28509E+00
 -1      1757 1.68096E+00
 -1      1758 2.39929E+00
 -1      1759 4.29062E+00
 -1      1760 1.77212E+00
 -1      1761 8.90951E-01
 -1      1762 9.83039E-01
 -1      1763 7.87354E-01
 -1      1764 8.42462E-01
 -1      1765 7.51592E-01
 -1      1766 7.19976E-01
 -1      1767 7.55706E-01
 -1      1768 6.71455E-01
 -1      1769 6.72537E-01
 -1      1770 6.96447E-01
 -1      1771 6.16278E-01
 -1      1772 6.82375E-01
 -1      1773 6.66036E-01
 -1      1774 5.86248E-01
 -1      1775 7.37401E-01
 -1      1776 7.03833E-01
 -1      1777 6.01206E-01
 -1      1778 8.29519E-01
 -1      1779 7.71581E-01
 -1      1780 6.56844E-01
 -1      1781 9.74747E-01
 -1      1782 8.78668E-01
 -1      1783 7.40173E-01
 -1      1784 1.21897E+00
 -1      1785 1.04103E+00
 -1      1786 8.55608E-01
 -1      1787 1.70589E+00
 -1      1788 1.30391E+00
 -1      1789 1.00683E+00
 -1      1790 4.32000E+00
 -1      1791 2.39585E+00
 -1      1792 1.78173E+00
 -1      1793 3.22126E+01
 -1      1794 3.13955E+01
 -1      1795 5.19414E+00
 -1      1796 5.23089E+00
 -1      1797 2.51497E+00
 -1      1798 1.89720E+00
 -1      1799 1.66868E+00
 -1      1800 1.34414E+00
 -1      1801 1.48845E+00
 -1      1802 1.16957E+00
 -1      1803 9.62169E-01
 -1      1804 1.08537E+00
 -1      1805 8.49435E-01
 -1      1806 7.09532E-01
 -1      1807 7.98068E-01
 -1      1808 6.63043E-01
 -1      1809 5.75290E-01
 -1      1810 6.38844E-01
 -1      1811 5.55812E-01
 -1      1812 5.61614E-01
 -1      1813 5.72877E-01
 -1      1814 5.98583E-01
 -1      1815 6.46817E-01
 -1      1816 5.90367E-01
 -1      1817 7.03550E-01
 -1      1818 7.80558E-01
 -1      1819 6.84069E-01
 -1      1820 8.54707E-01
 -1      1821 9.56094E-01
 -1      1822 8.14951E-01
 -1      1823 1.05020E+00
 -1      1824 1.16702E+00
 -1      1825 9.83204E-01
 -1      1826 1.28393E+00
 -1      1827 1.43480E+00
 -1      1828 1.19421E+00
 -1      1829 1.54379E+00
 -1      1830 1.72045E+00
 -1      1831 1.42011E+00
 -1      1832 1.84453E+00
 -1      1833 2.06439E+00
 -1      1834 1.65317E+00
 -1      1835 2.16369E+00
 -1      1836 2.31911E+00
 -1      1837 1.87655E+00
 -1      1838 2.35879E+00
 -1      1839 2.40510E+00
 -1      1840 2.01553E+00
 -1      1841 2.37696E+00
 -1      1842 2.37056E+00
 -1      1843 2.02707E+00
 -1      1844 2.40367E+00
 -1      1845 2.40989E+00
 -1      1846 2.03205E+00
 -1      1847 2.39491E+00
 -1      1848 2.27953E+00
 -1      1849 2.05018E+00
 -1      1850 2.19889E+00
 -1      1851 1.99736E+00
 -1      1852 1.95456E+00
 -1      1853 1.86683E+00
 -1      1854 1.65224E+00
 -1      1855 1.74338E+00
 -1      1856 1.52624E+00
 -1      1857 1.34611E+00
 -1      1858 1.48685E+00
 -1      1859 1.21722E+00
 -1      1860 1.07370E+00
 -1      1861 1.23196E+00
 -1      1862 9.47910E-01
 -1      1863 8.21446E-01
 -1      1864 9.77273E-01
 -1      1865 7.23009E-01
 -1      1866 6.12373E-01
 -1      1867 7.53045E-01
 -1      1868 5.25488E-01
 -1      1869 4.35568E-01
 -1      1870 5.67723E-01
 -1      1871 3.63894E-01
 -1      1872 2.95306E-01
 -1      1873 4.09164E-01
 -1      1874 2.39576E-01
 -1      1875 1.94416E-01
 -1      1876 2.81760E-01
 -1      1877 1.53362E-01
 -1      1878 1.25721E-01
 -1      1879 1.84976E-01
 -1      1880 9.69879E-02
 -1      1881 7.94282E-02
 -1      1882 1.15190E-01
 -1      1883 6.03134E-02
 -1      1884 4.89991E-02
 -1      1885 6.73430E-02
 -1      1886 3.69643E-02
 -1      1887 2.83627E-02
 -1      1888 3.61933E-02
 -1      1889 2.49973E-02
 -1      1890 1.89861E-02
 -1      1891 2.07930E-02
 -1      1892 1.62378E-02
 -1      1893 1.33803E-02
 -1      1894 1.46793E-02
 -1      1895 1.16511E-02
 -1      1896 9.34423E-03
 -1      1897 1.02017E-02
 -1      1898 8.38080E-03
 -1      1899 6.85834E-03
 -1      1900 7.50911E-03
 -1      1901 6.03395E-03
 -1      1902 4.92549E-03
 -1      1903 5.72129E-03
 -1      1904 4.32369E-03
 -1      1905 3.64206E-03
 -1      1906 4.29511E-03
 -1      1907 3.11046E-03
 -1      1908 2.58542E-03
 -1      1909 3.16171E-03
 -1      1910 2.23079E-03
 -1      1911 1.81114E-03
 -1      1912 2.27549E-03
 -1      1913 1.53197E-03
 -1      1914 1.23932E-03
 -1      1915 1.64169E-03
 -1      1916 1.01605E-03
 -1      1917 8.57795E-04
 -1      1918 1.13925E-03
 -1      1919 6.90789E-04
 -1      1920 5.90957E-04
 -1      1921 7.48969E-04
 -1      1922 4.74310E-04
 -1      1923 3.97890E-04
 -1      1924 4.65316E-04
 -1      1925 3.34916E-04
 -1      1926 2.61986E-04
 -1      1927 2.85694E-04
 -1      1928 2.26345E-04
 -1      1929 1.65228E-04
 -1      1930 1.87079E-04
 -1      1931 1.31313E-04
 -1      1932 8.82607E-05
 -1      1933 1.17523E-04
 -1      1934 1.35822E+00
 -1      1935 1.71109E+00
 -1      1936 1.94372E+00
 -1      1937 2.56125E+00
 -1      1938 1.48555E+00
 -1      1939 1.01831E+00
 -1      1940 1.16250E+00
 -1      1941 1.05719E+00
 -1      1942 8.53106E-01
 -1      1943 9.34459E-01
 -1      1944 7.77617E-01
 -1      1945 7.60490E-01
 -1      1946 7.97089E-01
 -1      1947 6.37747E-01
 -1      1948 8.38920E-01
 -1      1949 8.00126E-01
 -1      1950 6.21366E-01
 -1      1951 1.56007E+00
 -1      1952 1.14879E+00
 -1      1953 9.70874E-01
 -1      1954 2.64160E+00
 -1      1955 2.02955E+00
 -1      1956 1.75022E+00
 -1      1957 4.18488E+00
 -1      1958 3.36730E+00
 -1      1959 2.94540E+00
 -1      1960 6.21093E+00
 -1      1961 5.28229E+00
 -1      1962 4.76851E+00
 -1      1963 8.60757E+00
 -1      1964 7.82948E+00
 -1      1965 7.48447E+00
 -1      1966 1.15234E+01
 -1      1967 1.10427E+01
 -1      1968 1.15382E+01
 -1      1969 1.83369E+01
 -1      1970 1.58666E+01
 -1      1971 1.83165E+01
 -1      1972 1.38341E+01
 -1      1973 1.84476E+01
 -1      1974 1.84743E+01
 -1      1975 1.88826E+01
 -1      1976 1.20937E+01
 -1      1977 1.20680E+01
 -1      1978 1.00133E+01
 -1      1979 1.09601E+01
 -1      1980 1.35618E+01
 -1      1981 8.17393E+00
 -1      1982 8.62025E+00
 -1      1983 1.10352E+01
 -1      1984 7.34933E+00
 -1      1985 7.76302E+00
 -1      1986 9.23128E+00
 -1      1987 5.45459E+00
 -1      1988 6.13633E+00
 -1      1989 7.60738E+00
 -1      1990 3.70026E+00
 -1      1991 4.40182E+00
 -1      1992 5.34162E+00
 -1      1993 2.34925E+00
 -1      1994 2.91489E+00
 -1      1995 3.50348E+00
 -1      1996 1.41099E+00
 -1      1997 1.81829E+00
 -1      1998 2.18714E+00
 -1      1999 8.57950E-01
 -1      2000 1.08766E+00
 -1      2001 1.33285E+00
 -1      2002 4.96235E-01
 -1      2003 6.46154E-01
 -1      2004 7.97719E-01
 -1      2005 2.88592E-01
 -1      2006 3.70199E-01
 -1      2007 4.59887E-01
 -1      2008 1.65215E-01
 -1      2009 2.15051E-01
 -1      2010 2.60310E-01
 -1      2011 9.31622E-02
 -1      2012 1.23067E-01
 -1      2013 1.44621E-01
 -1      2014 5.16807E-02
 -1      2015 6.93861E-02
 -1      2016 7.86967E-02
 -1      2017 2.90557E-02
 -1      2018 3.94186E-02
 -1      2019 4.26586E-02
 -1      2020 1.74338E-02
 -1      2021 2.30984E-02
 -1      2022 2.44392E-02
 -1      2023 1.09775E-02
 -1      2024 1.37903E-02
 -1      2025 1.48385E-02
 -1      2026 6.91385E-03
 -1      2027 8.76590E-03
 -1      2028 8.98339E-03
 -1      2029 4.41084E-03
 -1      2030 5.60199E-03
 -1      2031 5.45989E-03
 -1      2032 3.10121E-03
 -1      2033 3.86896E-03
 -1      2034 3.60614E-03
 -1      2035 2.16602E-03
 -1      2036 2.68367E-03
 -1      2037 2.64672E-03
 -1      2038 1.51943E-03
 -1      2039 1.85764E-03
 -1      2040 1.92080E-03
 -1      2041 1.07088E-03
 -1      2042 1.29467E-03
 -1      2043 1.38766E-03
 -1      2044 7.55003E-04
 -1      2045 9.07004E-04
 -1      2046 9.99017E-04
 -1      2047 5.41688E-04
 -1      2048 6.34119E-04
 -1      2049 7.14253E-04
 -1      2050 3.88115E-04
 -1      2051 4.50618E-04
 -1      2052 5.02299E-04
 -1      2053 2.63342E-04
 -1      2054 3.17818E-04
 -1      2055 3.40932E-04
 -1      2056 1.63732E-04
 -1      2057 2.09542E-04
 -1      2058 2.16835E-04
 -1      2059 1.09433E-04
 -1      2060 1.30828E-04
 -1      2061 1.30131E-04
 -1      2062 5.88565E-05
 -1      2063 9.16682E-05
 -1      2064 7.94618E-05
 -1      2065 4.76593E-05
 -1      2066 7.43310E-05
 -1      2067 7.16995E-05
 -1      2068 6.44006E-05
 -1      2069 5.44748E-05
 -1      2070 6.85122E-05
 -1      2071 8.26267E-05
 -1      2072 7.43310E-05
 -1      2073 7.43310E-05
 -1      2074 8.99256E-05
 -1      2075 7.07638E-05
 -1      2076 7.23861E-05
 -1      2077 8.79807E-05
 -1      2078 5.49922E-05
 -1      2079 6.36233E-05
 -1      2080 7.88954E-05
 -1      2081 3.78000E-05
 -1      2082 4.30822E-05
 -1      2083 5.98448E-05
 -1      2084 5.36285E-05
 -1      2085 4.78249E-05
 -1      2086 5.79597E-05
 -1      2087 5.63751E-05
 -1      2088 5.55156E-05
 -1      2089 6.98717E-05
 -1      2090 5.67188E-05
 -1      2091 5.67188E-05
 -1      2092 7.21026E-05
 -1      2093 5.48066E-05
 -1      2094 5.67188E-05
 -1      2095 7.24462E-05
 -1      2096 4.23082E-05
 -1      2097 4.94851E-05
 -1      2098 6.71247E-05
 -1      2099 5.39855E-05
 -1      2100 4.78642E-05
 -1      2101 6.73592E-05
 -1      2102 5.99078E-05
 -1      2103 5.39855E-05
 -1      2104 7.29152E-05
 -1      2105 3.47743E+01
 -1      2106 3.07724E+01
 -1      2107 6.99069E-05
 -1      2108 4.33787E+01
 -1      2109 4.15608E+01
 -1      2110 1.04605E+00
 -1      2111 1.22125E+00
 -1      2112 9.89951E-01
 -1      2113 8.63097E-01
 -1      2114 1.64603E+01
 -1      2115 2.95352E+01
 -1      2116 1.27869E+01
 -1      2117 1.93966E+01
 -1      2118 3.20220E+01
 -1      2119 1.88234E+01
 -1      2120 3.28028E+01
 -1      2121 3.74649E+01
 -1      2122 3.29664E+01
 -1      2123 3.65223E+01
 -1      2124 3.72408E+01
 -1      2125 3.72408E+01
 -1      2126 3.46068E+01
 -1      2127 3.72408E+01
 -1      2128 2.96869E+01
 -1      2129 2.45874E+01
 -1      2130 3.27040E+01
 -1      2131 3.01142E+01
 -1      2132 1.50869E+01
 -1      2133 2.78400E+01
 -1      2134 9.53073E+00
 -1      2135 1.19721E+01
 -1      2136 9.85854E+00
 -1      2137 9.49476E+00
 -1      2138 1.08582E+01
 -1      2139 1.08242E+01
 -1      2140 1.11524E+01
 -1      2141 1.09853E+01
 -1      2142 1.12258E+01
 -1      2143 1.13309E+01
 -1      2144 1.06905E+01
 -1      2145 1.07888E+01
 -1      2146 1.01416E+01
 -1      2147 8.57065E+00
 -1      2148 9.28288E+00
 -1      2149 1.45581E+01
 -1      2150 9.70886E+00
 -1      2151 3.07368E+01
 -1      2152 1.78688E+01
 -1      2153 2.68826E+01
 -1      2154 3.62846E+01
 -1      2155 2.98136E+01
 -1      2156 2.77042E+01
 -1      2157 3.38258E+00
 -1      2158 4.33787E+01
 -1      2159 4.33787E+01
 -1      2160 5.20202E+01
 -1      2161 3.39398E+00
 -1      2162 6.52542E-05
 -1      2163 1.09627E+01
 -1      2164 4.00370E+01
 -1      2165 2.66136E+01
 -1      2166 1.73257E+01
 -1      2167 1.53662E+01
 -1      2168 2.90171E+00
 -1      2169 2.10371E+00
 -1      2170 2.09493E+00
 -1      2171 2.93801E+00
 -1      2172 2.06379E+01
 -1      2173 2.49607E+01
 -1      2174 1.99344E+01
 -1      2175 1.29187E+01
 -1      2176 2.36383E+01
 -1      2177 1.51950E+01
 -1      2178 6.52542E-05
 -1      2179 4.02730E+01
 -1      2180 3.32304E+01
 -1      2181 2.77042E+01
 -1      2182 2.13349E+01
 -1      2183 1.24764E+01
 -1      2184 8.29693E+00
 -1      2185 1.04001E+01
 -1      2186 1.00946E+01
 -1      2187 9.00188E+00
 -1      2188 8.07218E+00
 -1      2189 1.12229E+01
 -1      2190 1.92017E+01
 -1      2191 4.32497E+01
 -1      2192 3.89753E+01
 -1      2193 1.38331E+01
 -1      2194 3.09813E+01
 -1      2195 2.18188E+01
 -1      2196 1.35708E+01
 -1      2197 1.45206E+01
 -1      2198 7.82616E-05
 -1      2199 8.02748E+00
 -1      2200 4.02730E+01
 -1      2201 2.85258E+01
 -1      2202 5.69572E-01
 -1      2203 6.01220E-01
 -1      2204 6.12230E-01
 -1      2205 6.60719E-01
 -1      2206 5.10347E-01
 -1      2207 5.08803E-01
 -1      2208 5.15303E-01
 -1      2209 5.32982E-01
 -1      2210 5.11523E-01
 -1      2211 4.40579E-01
 -1      2212 5.82533E-01
 -1      2213 5.48353E-01
 -1      2214 4.58671E-01
 -1      2215 6.46416E-01
 -1      2216 5.97267E-01
 -1      2217 4.88776E-01
 -1      2218 7.17048E-01
 -1      2219 6.50762E-01
 -1      2220 5.07856E-01
 -1      2221 8.01986E-01
 -1      2222 7.17048E-01
 -1      2223 5.12202E-01
 -1      2224 1.64601E+00
 -1      2225 9.56047E-01
 -1      2226 6.66263E-01
 -1      2227 1.26925E+00
 -1      2228 5.20202E+01
 -1      2229 5.20202E+01
 -1      2230 1.26337E+00
 -1      2231 1.03485E+00
 -1      2232 2.86803E+01
 -1      2233 9.90082E-01
 -1      2234 8.15515E-01
 -1      2235 7.64998E-01
 -1      2236 7.71088E-01
 -1      2237 6.58353E-01
 -1      2238 6.75800E-01
 -1      2239 6.22154E-01
 -1      2240 5.75665E-01
 -1      2241 5.95174E-01
 -1      2242 5.57015E-01
 -1      2243 5.37537E-01
 -1      2244 5.40325E-01
 -1      2245 5.53398E-01
 -1      2246 5.90367E-01
 -1      2247 5.37537E-01
 -1      2248 6.32451E-01
 -1      2249 6.89184E-01
 -1      2250 5.95482E-01
 -1      2251 7.55979E-01
 -1      2252 8.30128E-01
 -1      2253 7.04361E-01
 -1      2254 9.15662E-01
 -1      2255 1.00977E+00
 -1      2256 8.56690E-01
 -1      2257 1.10492E+00
 -1      2258 1.22183E+00
 -1      2259 1.03738E+00
 -1      2260 1.31134E+00
 -1      2261 1.42033E+00
 -1      2262 1.22205E+00
 -1      2263 1.48455E+00
 -1      2264 1.60863E+00
 -1      2265 1.37579E+00
 -1      2266 1.67268E+00
 -1      2267 1.77198E+00
 -1      2268 1.50406E+00
 -1      2269 1.79860E+00
 -1      2270 1.83828E+00
 -1      2271 1.59473E+00
 -1      2272 1.82132E+00
 -1      2273 1.79319E+00
 -1      2274 1.60440E+00
 -1      2275 1.78283E+00
 -1      2276 1.81595E+00
 -1      2277 1.57709E+00
 -1      2278 1.84262E+00
 -1      2279 1.82764E+00
 -1      2280 1.59341E+00
 -1      2281 1.81404E+00
 -1      2282 1.73339E+00
 -1      2283 1.60647E+00
 -1      2284 1.67465E+00
 -1      2285 1.54412E+00
 -1      2286 1.53413E+00
 -1      2287 1.46849E+00
 -1      2288 1.34249E+00
 -1      2289 1.39975E+00
 -1      2290 1.24975E+00
 -1      2291 1.12086E+00
 -1      2292 1.23139E+00
 -1      2293 1.01152E+00
 -1      2294 8.85733E-01
 -1      2295 1.02932E+00
 -1      2296 7.76901E-01
 -1      2297 6.78465E-01
 -1      2298 8.11153E-01
 -1      2299 5.81744E-01
 -1      2300 4.94858E-01
 -1      2301 6.05600E-01
 -1      2302 4.23619E-01
 -1      2303 3.51945E-01
 -1      2304 4.37640E-01
 -1      2305 2.96348E-01
 -1      2306 2.40618E-01
 -1      2307 3.10803E-01
 -1      2308 1.98255E-01
 -1      2309 1.57202E-01
 -1      2310 2.12843E-01
 -1      2311 1.26421E-01
 -1      2312 9.76886E-02
 -1      2313 1.39700E-01
 -1      2314 7.63111E-02
 -1      2315 5.71962E-02
 -1      2316 8.75419E-02
 -1      2317 4.29954E-02
 -1      2318 3.09605E-02
 -1      2319 5.19635E-02
 -1      2320 2.19540E-02
 -1      2321 1.85886E-02
 -1      2322 2.87561E-02
 -1      2323 1.31654E-02
 -1      2324 1.04170E-02
 -1      2325 1.43263E-02
 -1      2326 9.13093E-03
 -1      2327 7.40175E-03
 -1      2328 7.61706E-03
 -1      2329 6.71498E-03
 -1      2330 5.75155E-03
 -1      2331 5.64419E-03
 -1      2332 5.38257E-03
 -1      2333 4.55818E-03
 -1      2334 4.58844E-03
 -1      2335 4.14423E-03
 -1      2336 3.54242E-03
 -1      2337 3.80550E-03
 -1      2338 3.18309E-03
 -1      2339 2.65150E-03
 -1      2340 3.03222E-03
 -1      2341 2.30445E-03
 -1      2342 1.94982E-03
 -1      2343 2.32583E-03
 -1      2344 1.65491E-03
 -1      2345 1.37574E-03
 -1      2346 1.68387E-03
 -1      2347 1.17054E-03
 -1      2348 9.47268E-04
 -1      2349 1.18376E-03
 -1      2350 7.99130E-04
 -1      2351 6.32123E-04
 -1      2352 8.30422E-04
 -1      2353 5.17551E-04
 -1      2354 4.00904E-04
 -1      2355 5.67711E-04
 -1      2356 3.17546E-04
 -1      2357 2.54572E-04
 -1      2358 3.69781E-04
 -1      2359 1.94995E-04
 -1      2360 1.59354E-04
 -1      2361 2.26846E-04
 -1      2362 1.29062E-04
 -1      2363 9.51468E-05
 -1      2364 8.98005E-05
 -1      2365 1.36978E-04
 -1      2366 5.75344E-01
 -1      2367 6.59196E-01
 -1      2368 2.80538E+01
 -1      2369 4.00370E+01
 -1      2370 4.31339E-01
 -1      2371 4.87356E-01
 -1      2372 3.68936E-01
 -1      2373 5.19298E-01
 -1      2374 4.79662E-01
 -1      2375 3.29270E-01
 -1      2376 1.03054E+00
 -1      2377 7.20668E-01
 -1      2378 5.78963E-01
 -1      2379 1.86027E+00
 -1      2380 1.39080E+00
 -1      2381 1.14059E+00
 -1      2382 3.19074E+00
 -1      2383 2.46504E+00
 -1      2384 2.10561E+00
 -1      2385 5.36773E+00
 -1      2386 4.27032E+00
 -1      2387 3.78996E+00
 -1      2388 8.92183E+00
 -1      2389 7.30328E+00
 -1      2390 6.80509E+00
 -1      2391 1.44155E+01
 -1      2392 1.19804E+01
 -1      2393 1.17992E+01
 -1      2394 2.86803E+01
 -1      2395 2.43371E+01
 -1      2396 2.47793E+01
 -1      2397 3.47009E+01
 -1      2398 1.88009E+01
 -1      2399 6.88720E+00
 -1      2400 8.10019E+00
 -1      2401 4.80595E+00
 -1      2402 5.85872E+00
 -1      2403 6.35153E+00
 -1      2404 2.91370E+00
 -1      2405 3.69907E+00
 -1      2406 4.21617E+00
 -1      2407 1.74313E+00
 -1      2408 2.27409E+00
 -1      2409 2.46969E+00
 -1      2410 1.04871E+00
 -1      2411 1.37205E+00
 -1      2412 1.45899E+00
 -1      2413 6.10480E-01
 -1      2414 8.22276E-01
 -1      2415 8.61473E-01
 -1      2416 3.60796E-01
 -1      2417 4.86832E-01
 -1      2418 5.11389E-01
 -1      2419 2.10824E-01
 -1      2420 2.84365E-01
 -1      2421 3.11310E-01
 -1      2422 1.21424E-01
 -1      2423 1.63573E-01
 -1      2424 1.87627E-01
 -1      2425 6.88409E-02
 -1      2426 9.26170E-02
 -1      2427 1.11569E-01
 -1      2428 3.92517E-02
 -1      2429 5.15138E-02
 -1      2430 6.54341E-02
 -1      2431 2.30133E-02
 -1      2432 2.89706E-02
 -1      2433 3.78258E-02
 -1      2434 1.33528E-02
 -1      2435 1.69963E-02
 -1      2436 2.15276E-02
 -1      2437 7.66607E-03
 -1      2438 9.87770E-03
 -1      2439 1.20355E-02
 -1      2440 4.39437E-03
 -1      2441 5.70623E-03
 -1      2442 6.60055E-03
 -1      2443 3.15823E-03
 -1      2444 3.70011E-03
 -1      2445 3.94645E-03
 -1      2446 2.22918E-03
 -1      2447 2.64672E-03
 -1      2448 2.74069E-03
 -1      2449 1.61242E-03
 -1      2450 1.92080E-03
 -1      2451 1.92080E-03
 -1      2452 1.16290E-03
 -1      2453 1.38766E-03
 -1      2454 1.38766E-03
 -1      2455 8.43959E-04
 -1      2456 1.00784E-03
 -1      2457 1.00784E-03
 -1      2458 6.14709E-04
 -1      2459 7.35593E-04
 -1      2460 7.44415E-04
 -1      2461 4.37328E-04
 -1      2462 5.28398E-04
 -1      2463 5.49738E-04
 -1      2464 2.98378E-04
 -1      2465 3.68674E-04
 -1      2466 3.94774E-04
 -1      2467 1.89458E-04
 -1      2468 2.43258E-04
 -1      2469 2.71001E-04
 -1      2470 8.94404E-05
 -1      2471 1.07206E-04
 -1      2472 9.62560E-05
 -1      2473 9.70778E-05
 -1      2474 9.90227E-05
 -1      2475 8.96132E-05
 -1      2476 9.67537E-05
 -1      2477 1.07796E-04
 -1      2478 1.33054E-04
 -1      2479 1.33054E-04
 -1      2480 1.42151E-04
 -1      2481 6.76811E-05
 -1      2482 7.95911E-05
 -1      2483 9.74494E-05
 -1      2484 8.59013E-05
 -1      2485 7.58764E-05
 -1      2486 9.56227E-05
 -1      2487 9.33533E-05
 -1      2488 9.14662E-05
 -1      2489 1.09383E-04
 -1      2490 9.36970E-05
 -1      2491 9.33533E-05
 -1      2492 1.14948E-04
 -1      2493 9.09407E-05
 -1      2494 9.09407E-05
 -1      2495 1.12191E-04
 -1      2496 8.56192E-05
 -1      2497 9.09407E-05
 -1      2498 1.09435E-04
 -1      2499 8.98005E-05
 -1      2500 8.42445E-05
 -1      2501 1.08060E-04
 -1      2502 8.98005E-05
 -1      2503 2.05859E+01
 -1      2504 2.01585E+01
 -1      2505 7.00254E+00
 -1      2506 5.86433E+00
 -1      2507 1.68226E+00
 -1      2508 1.29552E+00
 -1      2509 8.41918E-01
 -1      2510 9.63930E-01
 -1      2511 2.32110E+01
 -1      2512 3.32304E+01
 -1      2513 9.42442E+00
 -1      2514 9.24599E+00
 -1      2515 1.02615E+01
 -1      2516 1.06724E+01
 -1      2517 9.54136E+00
 -1      2518 1.24124E+01
 -1      2519 1.38054E+01
 -1      2520 1.01256E+00
 -1      2521 1.24519E+00
 -1      2522 7.96260E-01
 -1      2523 5.31269E-01
 -1      2524 5.54798E-01
 -1      2525 4.84564E-01
 -1      2526 4.53824E-01
 -1      2527 7.21089E-01
 -1      2528 9.16812E-01
 -1      2529 6.76452E-01
 -1      2530 5.18817E-01
 -1      2531 3.89753E+01
 -1      2532 2.34893E+01
 -1      2533 2.26677E+01
 -1      2534 4.32497E+01
 -1      2535 4.32497E+01
 -1      2536 1.28771E+01
 -1      2537 1.77411E+01
 -1      2538 7.70596E+00
 -1      2539 1.08207E+01
 -1      2540 9.36016E+00
 -1      2541 6.73290E+00
 -1      2542 6.76887E+00
 -1      2543 8.01543E+00
 -1      2544 7.04976E+00
 -1      2545 8.93760E+00
 -1      2546 8.81053E+00
 -1      2547 6.85841E+00
 -1      2548 8.48672E+00
 -1      2549 8.92371E+00
 -1      2550 6.04265E+00
 -1      2551 7.45031E+00
 -1      2552 5.01771E+00
 -1      2553 1.25565E+01
 -1      2554 9.24575E+00
 -1      2555 7.08260E+00
 -1      2556 1.96275E+01
 -1      2557 1.40798E+01
 -1      2558 1.54127E+01
 -1      2559 6.25321E-01
 -1      2560 7.64683E-01
 -1      2561 8.27699E-01
 -1      2562 3.66870E+01
 -1      2563 3.66870E+01
 -1      2564 2.47038E+01
 -1      2565 7.96189E+00
 -1      2566 7.76957E+00
 -1      2567 3.32304E+01
 -1      2568 9.00090E-01
 -1      2569 4.02730E+01
 -1      2570 2.16182E+01
 -1      2571 2.16182E+01
 -1      2572 1.40109E-04
 -1      2573 1.66533E-04
 -1      2574 1.33054E-04
 -1      2575 1.25755E-04
 -1      2576 1.46684E-04
 -1      2577 1.76183E-04
 -1      2578 1.06686E-04
 -1      2579 1.08492E+01
 -1      2580 1.42613E+01
 -1      2581 1.34426E+01
 -1      2582 6.36668E+00
 -1      2583 2.01585E+01
 -1      2584 2.01780E+01
 -1      2585 2.34893E+01
 -1      2586 3.89753E+01
 -1      2587 5.74645E+00
 -1      2588 6.23244E+00
 -1      2589 4.03739E-01
 -1      2590 3.88368E-01
 -1      2591 3.87074E-01
 -1      2592 3.84353E-01
 -1      2593 3.32142E-01
 -1      2594 4.26312E-01
 -1      2595 4.21965E-01
 -1      2596 4.23376E-01
 -1      2597 4.23376E-01
 -1      2598 3.37486E-01
 -1      2599 6.15320E-01
 -1      2600 4.61259E-01
 -1      2601 3.72433E-01
 -1      2602 5.91256E-01
 -1      2603 4.21965E-01
 -1      2604 4.07232E-01
 -1      2605 3.36929E-01
 -1      2606 3.40422E-01
 -1      2607 8.14948E+00
 -1      2608 1.03108E+01
 -1      2609 6.07346E-01
 -1      2610 5.62576E-01
 -1      2611 5.76015E-01
 -1      2612 5.31588E-01
 -1      2613 4.18364E-01
 -1      2614 5.41024E-01
 -1      2615 5.04825E-01
 -1      2616 4.41239E-01
 -1      2617 5.08948E-01
 -1      2618 4.90298E-01
 -1      2619 4.54798E-01
 -1      2620 5.05696E-01
 -1      2621 5.21557E-01
 -1      2622 4.74319E-01
 -1      2623 5.70546E-01
 -1      2624 6.12630E-01
 -1      2625 5.38705E-01
 -1      2626 6.70312E-01
 -1      2627 7.37106E-01
 -1      2628 6.45375E-01
 -1      2629 7.99140E-01
 -1      2630 8.84674E-01
 -1      2631 7.65090E-01
 -1      2632 9.51411E-01
 -1      2633 1.04657E+00
 -1      2634 8.93860E-01
 -1      2635 1.13835E+00
 -1      2636 1.22786E+00
 -1      2637 1.05238E+00
 -1      2638 1.30315E+00
 -1      2639 1.36737E+00
 -1      2640 1.21944E+00
 -1      2641 1.40230E+00
 -1      2642 1.46635E+00
 -1      2643 1.32966E+00
 -1      2644 1.48150E+00
 -1      2645 1.50811E+00
 -1      2646 1.37974E+00
 -1      2647 1.50692E+00
 -1      2648 1.48996E+00
 -1      2649 1.39368E+00
 -1      2650 1.45584E+00
 -1      2651 1.44549E+00
 -1      2652 1.35836E+00
 -1      2653 1.46253E+00
 -1      2654 1.48920E+00
 -1      2655 1.34128E+00
 -1      2656 1.50206E+00
 -1      2657 1.48846E+00
 -1      2658 1.37119E+00
 -1      2659 1.47535E+00
 -1      2660 1.41660E+00
 -1      2661 1.37094E+00
 -1      2662 1.38211E+00
 -1      2663 1.30648E+00
 -1      2664 1.32333E+00
 -1      2665 1.23567E+00
 -1      2666 1.14294E+00
 -1      2667 1.21803E+00
 -1      2668 1.04341E+00
 -1      2669 9.34080E-01
 -1      2670 1.04770E+00
 -1      2671 8.40619E-01
 -1      2672 7.31788E-01
 -1      2673 8.54715E-01
 -1      2674 6.57609E-01
 -1      2675 5.60887E-01
 -1      2676 6.87075E-01
 -1      2677 4.87243E-01
 -1      2678 4.16004E-01
 -1      2679 5.39252E-01
 -1      2680 3.50845E-01
 -1      2681 2.95248E-01
 -1      2682 4.00449E-01
 -1      2683 2.42361E-01
 -1      2684 1.99998E-01
 -1      2685 2.82403E-01
 -1      2686 1.59937E-01
 -1      2687 1.29156E-01
 -1      2688 1.89455E-01
 -1      2689 1.01060E-01
 -1      2690 7.96824E-02
 -1      2691 1.21297E-01
 -1      2692 6.12791E-02
 -1      2693 4.70782E-02
 -1      2694 7.47971E-02
 -1      2695 3.49125E-02
 -1      2696 2.59060E-02
 -1      2697 4.42281E-02
 -1      2698 1.82557E-02
 -1      2699 1.28325E-02
 -1      2700 2.44122E-02
 -1      2701 8.36041E-03
 -1      2702 7.07432E-03
 -1      2703 1.22898E-02
 -1      2704 5.12372E-03
 -1      2705 4.43695E-03
 -1      2706 5.86707E-03
 -1      2707 4.04213E-03
 -1      2708 3.67315E-03
 -1      2709 3.52165E-03
 -1      2710 3.52604E-03
 -1      2711 3.11208E-03
 -1      2712 2.97973E-03
 -1      2713 2.88368E-03
 -1      2714 2.52435E-03
 -1      2715 2.60421E-03
 -1      2716 2.31890E-03
 -1      2717 1.97184E-03
 -1      2718 2.17036E-03
 -1      2719 1.75091E-03
 -1      2720 1.45600E-03
 -1      2721 1.74397E-03
 -1      2722 1.24731E-03
 -1      2723 1.04211E-03
 -1      2724 1.31435E-03
 -1      2725 8.68509E-04
 -1      2726 7.20371E-04
 -1      2727 9.32056E-04
 -1      2728 5.87249E-04
 -1      2729 4.72677E-04
 -1      2730 6.25337E-04
 -1      2731 3.78807E-04
 -1      2732 2.95450E-04
 -1      2733 3.98345E-04
 -1      2734 2.38875E-04
 -1      2735 1.79298E-04
 -1      2736 2.47901E-04
 -1      2737 1.55282E-04
 -1      2738 1.24990E-04
 -1      2739 1.24990E-04
 -1      2740 1.67310E-04
 -1      2741 7.11453E+00
 -1      2742 6.80614E+00
 -1      2743 2.74786E-01
 -1      2744 3.62774E-01
 -1      2745 1.26349E+00
 -1      2746 9.03233E-01
 -1      2747 2.30025E+00
 -1      2748 1.69549E+00
 -1      2749 1.45813E+00
 -1      2750 4.08531E+00
 -1      2751 3.00573E+00
 -1      2752 2.59560E+00
 -1      2753 7.31788E+00
 -1      2754 5.38233E+00
 -1      2755 4.59810E+00
 -1      2756 1.21377E+01
 -1      2757 9.07917E+00
 -1      2758 7.65640E+00
 -1      2759 2.65478E+01
 -1      2760 1.66262E+01
 -1      2761 1.39062E+01
 -1      2762 3.08222E+01
 -1      2763 2.20299E+00
 -1      2764 2.84260E+00
 -1      2765 1.26715E-04
 -1      2766 1.18520E-04
 -1      2767 3.75045E+00
 -1      2768 4.85733E+00
 -1      2769 3.48376E+00
 -1      2770 6.69691E-01
 -1      2771 4.68321E-01
 -1      2772 7.92591E-01
 -1      2773 3.93452E+00
 -1      2774 4.11284E+00
 -1      2775 2.15904E+01
 -1      2776 1.65539E+01
 -1      2777 6.00987E+00
 -1      2778 7.03835E+00
 -1      2779 5.54415E+00
 -1      2780 1.29483E+00
 -1      2781 1.66591E+00
 -1      2782 2.03883E+00
 -1      2783 7.57268E-01
 -1      2784 9.83704E-01
 -1      2785 1.19062E+00
 -1      2786 4.52754E-01
 -1      2787 5.76402E-01
 -1      2788 6.98633E-01
 -1      2789 2.67785E-01
 -1      2790 3.44216E-01
 -1      2791 4.09229E-01
 -1      2792 1.56138E-01
 -1      2793 2.03389E-01
 -1      2794 2.36296E-01
 -1      2795 9.22874E-02
 -1      2796 1.21095E-01
 -1      2797 1.36856E-01
 -1      2798 5.36809E-02
 -1      2799 7.10081E-02
 -1      2800 8.05342E-02
 -1      2801 3.06848E-02
 -1      2802 4.09659E-02
 -1      2803 4.65400E-02
 -1      2804 1.74992E-02
 -1      2805 2.35163E-02
 -1      2806 2.66565E-02
 -1      2807 1.02659E-02
 -1      2808 1.37409E-02
 -1      2809 1.57296E-02
 -1      2810 5.97178E-03
 -1      2811 7.93162E-03
 -1      2812 9.63708E-03
 -1      2813 3.88140E-03
 -1      2814 4.57565E-03
 -1      2815 5.90672E-03
 -1      2816 2.46668E-03
 -1      2817 2.97818E-03
 -1      2818 3.60738E-03
 -1      2819 1.60560E-03
 -1      2820 1.91398E-03
 -1      2821 2.15148E-03
 -1      2822 1.12519E-03
 -1      2823 1.34995E-03
 -1      2824 1.34313E-03
 -1      2825 8.15446E-04
 -1      2826 9.70504E-04
 -1      2827 9.32800E-04
 -1      2828 5.92510E-04
 -1      2829 7.00876E-04
 -1      2830 6.63542E-04
 -1      2831 4.33788E-04
 -1      2832 5.20099E-04
 -1      2833 4.76561E-04
 -1      2834 3.07491E-04
 -1      2835 3.76144E-04
 -1      2836 3.46506E-04
 -1      2837 2.07543E-04
 -1      2838 2.62662E-04
 -1      2839 2.44032E-04
 -1      2840 1.96032E-04
 -1      2841 1.18781E-04
 -1      2842 1.19105E-04
 -1      2843 1.26751E-04
 -1      2844 1.60783E-04
 -1      2845 1.37736E-04
 -1      2846 1.16073E-04
 -1      2847 1.26095E-04
 -1      2848 1.47166E-04
 -1      2849 1.43990E-04
 -1      2850 1.38425E-04
 -1      2851 1.61322E-04
 -1      2852 1.43990E-04
 -1      2853 1.43990E-04
 -1      2854 1.73032E-04
 -1      2855 1.36734E-04
 -1      2856 1.39490E-04
 -1      2857 1.68532E-04
 -1      2858 1.35745E-04
 -1      2859 1.35745E-04
 -1      2860 1.63043E-04
 -1      2861 1.24530E-04
 -1      2862 1.25905E-04
 -1      2863 1.52215E-04
 -1      2864 1.42835E-04
 -1      2865 9.79087E+00
 -1      2866 8.26753E+00
 -1      2867 7.74249E+00
 -1      2868 5.49927E+00
 -1      2869 6.50073E+00
 -1      2870 7.00144E+00
 -1      2871 5.24829E+00
 -1      2872 6.18538E+00
 -1      2873 1.61245E+01
 -1      2874 1.91769E+01
 -1      2875 8.01677E-01
 -1      2876 3.34317E+01
 -1      2877 2.16845E+01
 -1      2878 3.57913E-01
 -1      2879 3.09591E-01
 -1      2880 4.48641E-01
 -1      2881 4.39290E-01
 -1      2882 4.50300E-01
 -1      2883 7.10733E+00
 -1      2884 9.16372E+00
 -1      2885 4.74933E+00
 -1      2886 5.78574E+00
 -1      2887 3.66614E+00
 -1      2888 6.19372E+00
 -1      2889 5.39862E+00
 -1      2890 1.08796E+01
 -1      2891 1.37244E+01
 -1      2892 8.62680E+00
 -1      2893 1.41275E+01
 -1      2894 1.10874E+01
 -1      2895 8.50573E+00
 -1      2896 1.22286E+01
 -1      2897 4.63926E+00
 -1      2898 4.32240E+00
 -1      2899 4.56662E-01
 -1      2900 5.52405E-01
 -1      2901 3.71465E-01
 -1      2902 3.45320E-01
 -1      2903 3.98825E-01
 -1      2904 4.14791E-01
 -1      2905 4.23670E-01
 -1      2906 4.38443E-01
 -1      2907 3.78397E-01
 -1      2908 3.68671E-01
 -1      2909 5.34635E+00
 -1      2910 1.51364E+01
 -1      2911 1.65282E+01
 -1      2912 6.68420E+00
 -1      2913 3.03429E-01
 -1      2914 1.37405E-04
 -1      2915 3.97457E+00
 -1      2916 1.47491E+01
 -1      2917 1.72832E+01
 -1      2918 3.26164E+01
 -1      2919 1.40280E+01
 -1      2920 1.10658E+01
 -1      2921 4.59440E+00
 -1      2922 3.57279E-01
 -1      2923 4.19172E-01
 -1      2924 2.95124E-01
 -1      2925 2.63129E-01
 -1      2926 3.26843E+00
 -1      2927 4.37562E+00
 -1      2928 4.19432E+00
 -1      2929 7.80781E+00
 -1      2930 1.87693E-04
 -1      2931 1.87693E-04
 -1      2932 5.84569E+00
 -1      2933 1.72293E-04
 -1      2934 5.98894E+00
 -1      2935 6.50486E-01
 -1      2936 6.18336E-01
 -1      2937 2.25798E+01
 -1      2938 3.25992E+01
 -1      2939 2.01717E+01
 -1      2940 1.85458E+01
 -1      2941 4.15914E-01
 -1      2942 1.27428E+01
 -1      2943 6.08179E+00
 -1      2944 5.31367E+00
 -1      2945 4.59868E+00
 -1      2946 1.82682E+01
 -1      2947 4.03074E-01
 -1      2948 4.74130E-01
 -1      2949 5.78095E-01
 -1      2950 3.32341E-01
 -1      2951 2.94457E-01
 -1      2952 2.93489E-01
 -1      2953 2.97393E-01
 -1      2954 5.08276E+00
 -1      2955 4.47034E+00
 -1      2956 3.46890E-01
 -1      2957 3.60330E-01
 -1      2958 9.65868E+00
 -1      2959 1.20587E+01
 -1      2960 4.97374E+00
 -1      2961 3.40899E+00
 -1      2962 6.21090E+00
 -1      2963 5.68586E+00
 -1      2964 3.51274E-01
 -1      2965 3.60709E-01
 -1      2966 2.79800E-01
 -1      2967 3.87678E-01
 -1      2968 3.91801E-01
 -1      2969 2.97713E-01
 -1      2970 4.30660E-01
 -1      2971 4.46058E-01
 -1      2972 3.63540E-01
 -1      2973 4.99875E-01
 -1      2974 5.48864E-01
 -1      2975 4.56216E-01
 -1      2976 6.13366E-01
 -1      2977 6.71048E-01
 -1      2978 5.74537E-01
 -1      2979 7.43776E-01
 -1      2980 8.05809E-01
 -1      2981 7.11767E-01
 -1      2982 8.78288E-01
 -1      2983 9.45025E-01
 -1      2984 8.56974E-01
 -1      2985 1.00258E+00
 -1      2986 1.09436E+00
 -1      2987 9.87011E-01
 -1      2988 1.15310E+00
 -1      2989 1.22838E+00
 -1      2990 1.10330E+00
 -1      2991 1.30111E+00
 -1      2992 1.33604E+00
 -1      2993 1.23476E+00
 -1      2994 1.37899E+00
 -1      2995 1.39413E+00
 -1      2996 1.35044E+00
 -1      2997 1.45517E+00
 -1      2998 1.45397E+00
 -1      2999 1.45442E+00
 -1      3000 1.42270E+00
 -1      3001 1.38858E+00
 -1      3002 1.48418E+00
 -1      3003 1.37871E+00
 -1      3004 1.39576E+00
 -1      3005 1.44305E+00
 -1      3006 1.42882E+00
 -1      3007 1.44168E+00
 -1      3008 1.46625E+00
 -1      3009 1.39655E+00
 -1      3010 1.38344E+00
 -1      3011 1.45418E+00
 -1      3012 1.32507E+00
 -1      3013 1.29058E+00
 -1      3014 1.35068E+00
 -1      3015 1.23210E+00
 -1      3016 1.16129E+00
 -1      3017 1.23383E+00
 -1      3018 1.09773E+00
 -1      3019 9.98205E-01
 -1      3020 1.11179E+00
 -1      3021 9.25824E-01
 -1      3022 8.32362E-01
 -1      3023 9.75853E-01
 -1      3024 7.55253E-01
 -1      3025 6.81075E-01
 -1      3026 8.26362E-01
 -1      3027 5.97749E-01
 -1      3028 5.24105E-01
 -1      3029 6.65928E-01
 -1      3030 4.47014E-01
 -1      3031 3.81855E-01
 -1      3032 5.05511E-01
 -1      3033 3.17525E-01
 -1      3034 2.64638E-01
 -1      3035 3.64089E-01
 -1      3036 2.14840E-01
 -1      3037 1.74779E-01
 -1      3038 2.49962E-01
 -1      3039 1.38522E-01
 -1      3040 1.10426E-01
 -1      3041 1.63908E-01
 -1      3042 8.53563E-02
 -1      3043 6.69530E-02
 -1      3044 1.02582E-01
 -1      3045 5.05795E-02
 -1      3046 3.84138E-02
 -1      3047 6.11388E-02
 -1      3048 2.86145E-02
 -1      3049 2.09642E-02
 -1      3050 3.49659E-02
 -1      3051 1.52265E-02
 -1      3052 1.07544E-02
 -1      3053 1.94288E-02
 -1      3054 7.72236E-03
 -1      3055 5.77176E-03
 -1      3056 1.06591E-02
 -1      3057 3.91647E-03
 -1      3058 3.52165E-03
 -1      3059 5.77176E-03
 -1      3060 2.82428E-03
 -1      3061 2.67717E-03
 -1      3062 3.21910E-03
 -1      3063 2.46023E-03
 -1      3064 2.23182E-03
 -1      3065 2.30478E-03
 -1      3066 2.13355E-03
 -1      3067 1.92810E-03
 -1      3068 1.98957E-03
 -1      3069 1.79340E-03
 -1      3070 1.57247E-03
 -1      3071 1.75659E-03
 -1      3072 1.39951E-03
 -1      3073 1.19082E-03
 -1      3074 1.44893E-03
 -1      3075 1.02422E-03
 -1      3076 8.50625E-04
 -1      3077 1.10938E-03
 -1      3078 7.09568E-04
 -1      3079 5.76446E-04
 -1      3080 8.01734E-04
 -1      3081 4.66646E-04
 -1      3082 3.72777E-04
 -1      3083 5.50878E-04
 -1      3084 2.92126E-04
 -1      3085 2.35552E-04
 -1      3086 3.60427E-04
 -1      3087 1.87752E-04
 -1      3088 1.63735E-04
 -1      3089 1.63276E-04
 -1      3090 2.31977E-04
 -1      3091 1.62778E+00
 -1      3092 1.19579E+00
 -1      3093 7.71504E+00
 -1      3094 5.95375E+00
 -1      3095 1.44700E+01
 -1      3096 9.98153E+00
 -1      3097 8.27888E+00
 -1      3098 1.62470E+01
 -1      3099 8.85765E-01
 -1      3100 1.19689E+00
 -1      3101 2.13318E-04
 -1      3102 2.13318E-04
 -1      3103 2.10936E-04
 -1      3104 1.99226E-04
 -1      3105 2.51222E-04
 -1      3106 1.42811E+00
 -1      3107 1.96519E+00
 -1      3108 1.12325E+00
 -1      3109 9.35652E-01
 -1      3110 7.02110E-01
 -1      3111 1.10531E+00
 -1      3112 5.33148E-01
 -1      3113 7.14015E-01
 -1      3114 7.20280E-01
 -1      3115 3.22457E-01
 -1      3116 4.30994E-01
 -1      3117 4.46376E-01
 -1      3118 1.92132E-01
 -1      3119 2.56528E-01
 -1      3120 2.78294E-01
 -1      3121 1.15294E-01
 -1      3122 1.50337E-01
 -1      3123 1.70570E-01
 -1      3124 6.79798E-02
 -1      3125 8.92591E-02
 -1      3126 1.02740E-01
 -1      3127 3.96346E-02
 -1      3128 5.23495E-02
 -1      3129 6.10744E-02
 -1      3130 2.34719E-02
 -1      3131 3.06405E-02
 -1      3132 3.64501E-02
 -1      3133 1.42116E-02
 -1      3134 1.79699E-02
 -1      3135 2.19539E-02
 -1      3136 8.59075E-03
 -1      3137 1.09250E-02
 -1      3138 1.31653E-02
 -1      3139 5.15579E-03
 -1      3140 6.55191E-03
 -1      3141 7.83982E-03
 -1      3142 3.13522E-03
 -1      3143 4.03843E-03
 -1      3144 4.68362E-03
 -1      3145 1.98500E-03
 -1      3146 2.53770E-03
 -1      3147 2.96875E-03
 -1      3148 1.32334E-03
 -1      3149 1.57899E-03
 -1      3150 1.96521E-03
 -1      3151 8.95567E-04
 -1      3152 1.05026E-03
 -1      3153 1.28611E-03
 -1      3154 5.99071E-04
 -1      3155 7.13641E-04
 -1      3156 8.31096E-04
 -1      3157 4.06846E-04
 -1      3158 4.79257E-04
 -1      3159 5.29357E-04
 -1      3160 2.95797E-04
 -1      3161 3.53441E-04
 -1      3162 3.56138E-04
 -1      3163 2.02832E-04
 -1      3164 2.47661E-04
 -1      3165 2.54596E-04
 -1      3166 1.75921E-04
 -1      3167 5.10494E+00
 -1      3168 6.02689E+00
 -1      3169 1.50587E-04
 -1      3170 1.58233E-04
 -1      3171 1.88772E-04
 -1      3172 6.69368E+00
 -1      3173 8.40959E+00
 -1      3174 3.97457E+00
 -1      3175 3.21521E+00
 -1      3176 1.78856E-04
 -1      3177 1.76409E-04
 -1      3178 2.28469E-04
 -1      3179 2.08818E-04
 -1      3180 2.13318E-04
 -1      3181 2.53604E-04
 -1      3182 2.01818E-04
 -1      3183 2.02806E-04
 -1      3184 2.47592E-04
 -1      3185 1.25199E+01
 -1      3186 1.24258E+01
 -1      3187 3.34459E-01
 -1      3188 2.99655E-01
 -1      3189 2.85237E+00
 -1      3190 3.48886E+00
 -1      3191 5.78095E-01
 -1      3192 5.31623E-01
 -1      3193 4.21216E-01
 -1      3194 4.17442E-01
 -1      3195 6.74685E-01
 -1      3196 7.00824E+00
 -1      3197 8.11937E+00
 -1      3198 1.02662E+01
 -1      3199 1.59737E-04
 -1      3200 1.52422E-04
 -1      3201 1.72919E-04
 -1      3202 1.91427E-04
 -1      3203 5.34798E+00
 -1      3204 5.46106E+00
 -1      3205 4.58505E+00
 -1      3206 4.31921E+00
 -1      3207 5.47175E+00
 -1      3208 5.78330E+00
 -1      3209 2.39619E+00
 -1      3210 3.30404E+00
 -1      3211 3.23164E+00
 -1      3212 1.78547E+00
 -1      3213 4.85252E+00
 -1      3214 3.55551E+00
 -1      3215 4.91116E+00
 -1      3216 2.73790E+00
 -1      3217 2.03242E+00
 -1      3218 1.77008E+00
 -1      3219 2.99232E+00
 -1      3220 3.02890E-01
 -1      3221 3.01595E-01
 -1      3222 4.26904E-01
 -1      3223 3.18747E-01
 -1      3224 3.33219E-01
 -1      3225 2.89494E-01
 -1      3226 9.18634E+00
 -1      3227 1.22704E+01
 -1      3228 3.23171E+00
 -1      3229 4.50045E+00
 -1      3230 3.15819E+00
 -1      3231 4.03085E+00
 -1      3232 4.06881E+00
 -1      3233 1.56734E+01
 -1      3234 2.30403E-01
 -1      3235 2.24908E-01
 -1      3236 2.61434E-01
 -1      3237 7.72556E+00
 -1      3238 4.66308E+00
 -1      3239 4.27845E+00
 -1      3240 4.24414E+00
 -1      3241 5.80968E+00
 -1      3242 3.26843E+00
 -1      3243 8.88183E+00
 -1      3244 1.11110E+01
 -1      3245 1.12601E+01
 -1      3246 8.93673E+00
 -1      3247 1.04448E+01
 -1      3248 1.74495E-04
 -1      3249 1.84334E-04
 -1      3250 2.24097E-04
 -1      3251 1.95395E-04
 -1      3252 2.91554E-01
 -1      3253 2.61007E-01
 -1      3254 2.95047E-01
 -1      3255 3.01434E+00
 -1      3256 3.82811E+00
 -1      3257 4.12416E+00
 -1      3258 3.71098E+00
 -1      3259 4.15914E-01
 -1      3260 3.49746E-01
 -1      3261 3.50593E-01
 -1      3262 7.90301E+00
 -1      3263 6.60651E+00
 -1      3264 5.60817E+00
 -1      3265 3.45783E-01
 -1      3266 3.69613E-01
 -1      3267 3.17132E-01
 -1      3268 2.97393E-01
 -1      3269 2.97393E-01
 -1      3270 2.52018E-01
 -1      3271 8.68465E+00
 -1      3272 3.57880E-01
 -1      3273 2.54365E-01
 -1      3274 7.20103E+00
 -1      3275 7.41271E+00
 -1      3276 3.40867E-01
 -1      3277 3.49746E-01
 -1      3278 3.21942E-01
 -1      3279 2.15815E-01
 -1      3280 2.15815E-01
 -1      3281 4.91992E+00
 -1      3282 6.45642E+00
 -1      3283 3.17551E+00
 -1      3284 2.61889E+00
 -1      3285 6.07526E-01
 -1      3286 7.79276E-01
 -1      3287 2.41410E-01
 -1      3288 2.68378E-01
 -1      3289 3.06810E-01
 -1      3290 3.45668E-01
 -1      3291 2.50507E-01
 -1      3292 3.94919E-01
 -1      3293 4.48736E-01
 -1      3294 3.38188E-01
 -1      3295 5.12573E-01
 -1      3296 5.77075E-01
 -1      3297 4.51275E-01
 -1      3298 6.56675E-01
 -1      3299 7.29403E-01
 -1      3300 5.94711E-01
 -1      3301 8.20317E-01
 -1      3302 8.92796E-01
 -1      3303 7.65225E-01
 -1      3304 9.81795E-01
 -1      3305 1.03935E+00
 -1      3306 9.45139E-01
 -1      3307 1.10901E+00
 -1      3308 1.16774E+00
 -1      3309 1.10379E+00
 -1      3310 1.23855E+00
 -1      3311 1.31128E+00
 -1      3312 1.24425E+00
 -1      3313 1.34318E+00
 -1      3314 1.38613E+00
 -1      3315 1.34697E+00
 -1      3316 1.45961E+00
 -1      3317 1.52064E+00
 -1      3318 1.45236E+00
 -1      3319 1.65597E+00
 -1      3320 1.62470E+00
 -1      3321 1.66116E+00
 -1      3322 1.97806E+00
 -1      3323 1.96820E+00
 -1      3324 2.14985E+00
 -1      3325 1.96559E+00
 -1      3326 1.99865E+00
 -1      3327 2.50060E+00
 -1      3328 1.61071E+00
 -1      3329 1.56558E+00
 -1      3330 2.11004E+00
 -1      3331 1.40905E+00
 -1      3332 1.35068E+00
 -1      3333 1.56558E+00
 -1      3334 1.32631E+00
 -1      3335 1.26783E+00
 -1      3336 1.38468E+00
 -1      3337 1.19884E+00
 -1      3338 1.13528E+00
 -1      3339 1.29131E+00
 -1      3340 1.04823E+00
 -1      3341 9.75853E-01
 -1      3342 1.13528E+00
 -1      3343 8.88360E-01
 -1      3344 8.11251E-01
 -1      3345 9.60741E-01
 -1      3346 7.12256E-01
 -1      3347 6.28931E-01
 -1      3348 7.74254E-01
 -1      3349 5.36875E-01
 -1      3350 4.59783E-01
 -1      3351 5.83203E-01
 -1      3352 3.84047E-01
 -1      3353 3.19717E-01
 -1      3354 4.15411E-01
 -1      3355 2.62049E-01
 -1      3356 2.12251E-01
 -1      3357 2.82006E-01
 -1      3358 1.75302E-01
 -1      3359 1.39045E-01
 -1      3360 1.87389E-01
 -1      3361 1.13267E-01
 -1      3362 8.81980E-02
 -1      3363 1.24661E-01
 -1      3364 6.97465E-02
 -1      3365 5.33730E-02
 -1      3366 8.04322E-02
 -1      3367 4.08551E-02
 -1      3368 3.10557E-02
 -1      3369 4.94629E-02
 -1      3370 2.34518E-02
 -1      3371 1.77141E-02
 -1      3372 2.93410E-02
 -1      3373 1.29202E-02
 -1      3374 9.88823E-03
 -1      3375 1.69432E-02
 -1      3376 7.00751E-03
 -1      3377 5.15223E-03
 -1      3378 9.26870E-03
 -1      3379 3.46167E-03
 -1      3380 2.76430E-03
 -1      3381 4.69742E-03
 -1      3382 2.28832E-03
 -1      3383 2.07137E-03
 -1      3384 2.53088E-03
 -1      3385 1.89573E-03
 -1      3386 1.79746E-03
 -1      3387 1.87927E-03
 -1      3388 1.72146E-03
 -1      3389 1.58676E-03
 -1      3390 1.62762E-03
 -1      3391 1.45013E-03
 -1      3392 1.27717E-03
 -1      3393 1.41500E-03
 -1      3394 1.13049E-03
 -1      3395 9.63901E-04
 -1      3396 1.13169E-03
 -1      3397 8.31437E-04
 -1      3398 6.90380E-04
 -1      3399 8.52547E-04
 -1      3400 5.89459E-04
 -1      3401 4.79659E-04
 -1      3402 6.19161E-04
 -1      3403 3.78500E-01
 -1      3404 4.80654E-01
 -1      3405 5.39650E-01
 -1      3406 4.17734E-04
 -1      3407 4.23746E-04
 -1      3408 3.62595E-04
 -1      3409 3.60212E-04
 -1      3410 4.23746E-04
 -1      3411 4.23746E-04
 -1      3412 5.32736E-04
 -1      3413 5.93887E-04
 -1      3414 9.53904E-01
 -1      3415 1.18512E+00
 -1      3416 8.41150E-01
 -1      3417 1.20769E+00
 -1      3418 9.47554E-01
 -1      3419 2.30911E-01
 -1      3420 2.96840E-01
 -1      3421 3.31117E-01
 -1      3422 1.38161E-01
 -1      3423 1.79957E-01
 -1      3424 1.98503E-01
 -1      3425 8.10536E-02
 -1      3426 1.07089E-01
 -1      3427 1.16475E-01
 -1      3428 4.68471E-02
 -1      3429 6.24774E-02
 -1      3430 6.68263E-02
 -1      3431 2.86202E-02
 -1      3432 3.76143E-02
 -1      3433 3.90173E-02
 -1      3434 1.75079E-02
 -1      3435 2.30099E-02
 -1      3436 2.41742E-02
 -1      3437 1.10398E-02
 -1      3438 1.43264E-02
 -1      3439 1.53824E-02
 -1      3440 6.82801E-03
 -1      3441 8.86684E-03
 -1      3442 1.00280E-02
 -1      3443 4.26722E-03
 -1      3444 5.38458E-03
 -1      3445 6.41160E-03
 -1      3446 2.74010E-03
 -1      3447 3.33762E-03
 -1      3448 4.03858E-03
 -1      3449 1.74241E-03
 -1      3450 2.14842E-03
 -1      3451 2.51730E-03
 -1      3452 1.15172E-03
 -1      3453 1.42481E-03
 -1      3454 1.60802E-03
 -1      3455 7.76349E-04
 -1      3456 9.58274E-04
 -1      3457 1.09698E-03
 -1      3458 5.14648E-04
 -1      3459 6.34462E-04
 -1      3460 7.61640E-04
 -1      3461 3.57969E-04
 -1      3462 4.11375E-04
 -1      3463 5.16480E-04
 -1      3464 2.23100E-04
 -1      3465 2.71236E-04
 -1      3466 3.26474E-04
 -1      3467 2.05412E-04
 -1      3468 9.97170E+00
 -1      3469 4.26752E+00
 -1      3470 3.55540E+00
 -1      3471 2.94258E+00
 -1      3472 7.74096E+00
 -1      3473 6.42619E+00
 -1      3474 4.20407E+00
 -1      3475 3.82577E+00
 -1      3476 2.89086E-04
 -1      3477 2.68716E-04
 -1      3478 4.00459E-04
 -1      3479 6.78542E+00
 -1      3480 5.92428E+00
 -1      3481 7.17337E+00
 -1      3482 5.39975E+00
 -1      3483 2.55999E-01
 -1      3484 2.70679E+00
 -1      3485 2.76002E+00
 -1      3486 7.49832E+00
 -1      3487 3.58270E+00
 -1      3488 3.08693E+00
 -1      3489 3.20173E+00
 -1      3490 5.45479E+00
 -1      3491 4.35356E+00
 -1      3492 5.46316E+00
 -1      3493 5.06755E+00
 -1      3494 4.46224E+00
 -1      3495 5.12903E+00
 -1      3496 3.00590E-01
 -1      3497 6.24480E+00
 -1      3498 5.46316E+00
 -1      3499 5.10392E+00
 -1      3500 3.18329E-01
 -1      3501 3.18329E-01
 -1      3502 3.14294E-01
 -1      3503 6.63495E+00
 -1      3504 2.82922E+00
 -1      3505 2.88543E+00
 -1      3506 3.22467E+00
 -1      3507 2.26527E-01
 -1      3508 2.37862E-01
 -1      3509 8.34182E-01
 -1      3510 7.31799E-01
 -1      3511 5.61312E-01
 -1      3512 2.59655E+00
 -1      3513 3.93170E-04
 -1      3514 3.12519E-04
 -1      3515 2.43196E-04
 -1      3516 2.93421E-04
 -1      3517 4.69575E-04
 -1      3518 2.04358E+00
 -1      3519 1.63894E+00
 -1      3520 1.48119E+00
 -1      3521 7.70521E+00
 -1      3522 2.82181E-01
 -1      3523 2.12929E-01
 -1      3524 7.14761E+00
 -1      3525 4.31751E-04
 -1      3526 2.75938E-04
 -1      3527 5.16230E+00
 -1      3528 2.13326E-04
 -1      3529 2.11490E-04
 -1      3530 2.45819E-04
 -1      3531 3.96088E+00
 -1      3532 3.20160E+00
 -1      3533 3.27598E+00
 -1      3534 4.12250E+00
 -1      3535 4.07179E+00
 -1      3536 3.42120E+00
 -1      3537 3.30122E+00
 -1      3538 2.57852E+00
 -1      3539 2.41341E+00
 -1      3540 3.42858E+00
 -1      3541 4.10170E+00
 -1      3542 3.99929E+00
 -1      3543 3.45566E+00
 -1      3544 2.63805E+00
 -1      3545 4.14076E+00
 -1      3546 3.46011E+00
 -1      3547 3.06667E+00
 -1      3548 4.57684E+00
 -1      3549 4.92254E+00
 -1      3550 2.43239E-01
 -1      3551 2.77720E-01
 -1      3552 2.94871E-01
 -1      3553 1.28843E+00
 -1      3554 1.45777E+00
 -1      3555 1.88877E+00
 -1      3556 3.09986E-04
 -1      3557 2.93314E-04
 -1      3558 3.31885E-04
 -1      3559 3.70603E-04
 -1      3560 4.30956E-01
 -1      3561 3.44200E-01
 -1      3562 4.88070E-01
 -1      3563 2.64471E-01
 -1      3564 2.55415E-01
 -1      3565 2.76204E-01
 -1      3566 2.17449E-01
 -1      3567 2.01941E-01
 -1      3568 1.99595E-01
 -1      3569 1.76450E-01
 -1      3570 2.26080E-01
 -1      3571 2.95695E-01
 -1      3572 1.63392E-01
 -1      3573 3.00304E-01
 -1      3574 3.07952E-01
 -1      3575 3.04339E-01
 -1      3576 2.88529E-01
 -1      3577 1.68834E-01
 -1      3578 1.95766E-01
 -1      3579 2.77401E-01
 -1      3580 2.63396E-01
 -1      3581 4.60026E+00
 -1      3582 4.33516E+00
 -1      3583 4.58247E-01
 -1      3584 5.85118E-01
 -1      3585 2.74953E-01
 -1      3586 3.24203E-01
 -1      3587 3.70294E-01
 -1      3588 4.34130E-01
 -1      3589 3.07058E-01
 -1      3590 5.03531E-01
 -1      3591 5.83130E-01
 -1      3592 4.22549E-01
 -1      3593 6.82582E-01
 -1      3594 7.73497E-01
 -1      3595 5.91402E-01
 -1      3596 8.93126E-01
 -1      3597 9.82125E-01
 -1      3598 8.10483E-01
 -1      3599 1.10379E+00
 -1      3600 1.17344E+00
 -1      3601 1.05178E+00
 -1      3602 1.28543E+00
 -1      3603 1.35624E+00
 -1      3604 1.28543E+00
 -1      3605 1.53196E+00
 -1      3606 1.56387E+00
 -1      3607 1.57314E+00
 -1      3608 1.49319E+00
 -1      3609 1.56667E+00
 -1      3610 1.67818E+00
 -1      3611 2.18897E+00
 -1      3612 2.32429E+00
 -1      3613 2.22980E+00
 -1      3614 2.14985E+00
 -1      3615 2.50321E+00
 -1      3616 2.67766E+00
 -1      3617 2.73081E+00
 -1      3618 2.72819E+00
 -1      3619 2.48548E+00
 -1      3620 2.32895E+00
 -1      3621 1.92959E+00
 -1      3622 1.90522E+00
 -1      3623 2.84949E+00
 -1      3624 1.53575E+00
 -1      3625 1.46676E+00
 -1      3626 2.08067E+00
 -1      3627 1.22233E+00
 -1      3628 1.13528E+00
 -1      3629 1.46676E+00
 -1      3630 1.02571E+00
 -1      3631 9.38220E-01
 -1      3632 1.11276E+00
 -1      3633 8.20302E-01
 -1      3634 7.21308E-01
 -1      3635 8.85274E-01
 -1      3636 6.22327E-01
 -1      3637 5.30271E-01
 -1      3638 6.68375E-01
 -1      3639 4.60196E-01
 -1      3640 3.84460E-01
 -1      3641 4.99320E-01
 -1      3642 3.23411E-01
 -1      3643 2.65743E-01
 -1      3644 3.68196E-01
 -1      3645 2.16283E-01
 -1      3646 1.79333E-01
 -1      3647 2.57687E-01
 -1      3648 1.42766E-01
 -1      3649 1.16988E-01
 -1      3650 1.71660E-01
 -1      3651 9.18059E-02
 -1      3652 7.33545E-02
 -1      3653 1.09911E-01
 -1      3654 5.66602E-02
 -1      3655 4.41423E-02
 -1      3656 6.80339E-02
 -1      3657 3.34890E-02
 -1      3658 2.58850E-02
 -1      3659 4.06863E-02
 -1      3660 1.94531E-02
 -1      3661 1.46593E-02
 -1      3662 2.36011E-02
 -1      3663 1.06674E-02
 -1      3664 7.78664E-03
 -1      3665 1.31773E-02
 -1      3666 5.61797E-03
 -1      3667 3.92741E-03
 -1      3668 7.01662E-03
 -1      3669 2.81359E-03
 -1      3670 2.33761E-03
 -1      3671 3.73414E-03
 -1      3672 1.88526E-03
 -1      3673 1.70962E-03
 -1      3674 2.16796E-03
 -1      3675 1.59079E-03
 -1      3676 1.51479E-03
 -1      3677 1.59678E-03
 -1      3678 1.37077E-03
 -1      3679 1.23414E-03
 -1      3680 1.33394E-03
 -1      3681 1.10240E-03
 -1      3682 9.55722E-04
 -1      3683 1.05817E-03
 -1      3684 8.61236E-04
 -1      3685 7.28771E-04
 -1      3686 8.31947E-04
 -1      3687 6.36094E-04
 -1      3688 5.35173E-04
 -1      3689 6.44783E-04
 -1      3690 1.59798E-01
 -1      3691 2.10752E-01
 -1      3692 9.68689E-02
 -1      3693 1.27942E-01
 -1      3694 1.40191E-01
 -1      3695 2.69408E-01
 -1      3696 3.51068E-01
 -1      3697 3.96537E-01
 -1      3698 2.30703E-01
 -1      3699 5.72870E-02
 -1      3700 7.58633E-02
 -1      3701 8.73296E-02
 -1      3702 7.49663E-01
 -1      3703 9.24291E-01
 -1      3704 6.68260E-01
 -1      3705 3.46758E-02
 -1      3706 4.39085E-02
 -1      3707 5.29455E-02
 -1      3708 2.07796E-02
 -1      3709 2.63899E-02
 -1      3710 3.12812E-02
 -1      3711 1.25461E-02
 -1      3712 1.57276E-02
 -1      3713 1.79433E-02
 -1      3714 7.91014E-03
 -1      3715 1.00831E-02
 -1      3716 1.04283E-02
 -1      3717 5.20251E-03
 -1      3718 6.64594E-03
 -1      3719 6.70105E-03
 -1      3720 3.43707E-03
 -1      3721 4.36667E-03
 -1      3722 4.60101E-03
 -1      3723 2.24650E-03
 -1      3724 2.83819E-03
 -1      3725 3.16628E-03
 -1      3726 1.50857E-03
 -1      3727 1.82617E-03
 -1      3728 2.14705E-03
 -1      3729 1.02422E-03
 -1      3730 1.21767E-03
 -1      3731 1.43581E-03
 -1      3732 6.82556E-04
 -1      3733 8.24443E-04
 -1      3734 9.45135E-04
 -1      3735 4.71644E-04
 -1      3736 5.74917E-04
 -1      3737 6.37720E-04
 -1      3738 2.80508E-04
 -1      3739 3.67241E-04
 -1      3740 4.25679E-04
 -1      3741 2.86586E-04
 -1      3742 5.80989E-04
 -1      3743 5.09863E-04
 -1      3744 2.10376E-01
 -1      3745 2.48808E-01
 -1      3746 2.34822E-01
 -1      3747 7.89482E+00
 -1      3748 5.43918E+00
 -1      3749 1.84723E-01
 -1      3750 5.56064E-04
 -1      3751 3.25489E-01
 -1      3752 2.63470E-01
 -1      3753 1.15114E+00
 -1      3754 1.42379E+00
 -1      3755 1.05966E+00
 -1      3756 2.08571E+00
 -1      3757 2.21333E+00
 -1      3758 2.61150E+00
 -1      3759 3.14845E+00
 -1      3760 2.90538E+00
 -1      3761 4.57261E+00
 -1      3762 2.81292E+00
 -1      3763 2.43303E+00
 -1      3764 2.69725E+00
 -1      3765 2.31712E+00
 -1      3766 2.33207E+00
 -1      3767 2.64398E+00
 -1      3768 5.72996E-04
 -1      3769 4.37415E+00
 -1      3770 4.37415E+00
 -1      3771 3.18329E-01
 -1      3772 3.13520E-01
 -1      3773 3.70093E+00
 -1      3774 4.49618E+00
 -1      3775 3.14717E-01
 -1      3776 3.94686E+00
 -1      3777 3.14683E+00
 -1      3778 4.41663E+00
 -1      3779 4.23524E+00
 -1      3780 4.42318E+00
 -1      3781 4.26931E+00
 -1      3782 3.40063E+00
 -1      3783 2.93183E+00
 -1      3784 2.61697E-01
 -1      3785 2.05471E-01
 -1      3786 3.04339E-01
 -1      3787 3.04339E-01
 -1      3788 2.51319E-01
 -1      3789 1.91597E-01
 -1      3790 9.19392E-01
 -1      3791 7.03637E-01
 -1      3792 2.50641E+00
 -1      3793 2.77294E+00
 -1      3794 2.37675E+00
 -1      3795 3.43725E+00
 -1      3796 3.99929E+00
 -1      3797 3.10139E+00
 -1      3798 2.50691E+00
 -1      3799 2.73081E+00
 -1      3800 2.72819E+00
 -1      3801 2.49799E+00
 -1      3802 2.11004E+00
 -1      3803 3.04577E+00
 -1      3804 2.87342E+00
 -1      3805 3.39847E+00
 -1      3806 1.53334E+00
 -1      3807 1.10209E+00
 -1      3808 9.71543E-01
 -1      3809 5.93887E-04
 -1      3810 5.93887E-04
 -1      3811 5.72996E-04
 -1      3812 5.53665E-01
 -1      3813 4.23309E-01
 -1      3814 6.38875E-01
 -1      3815 6.42140E-04
 -1      3816 5.80989E-04
 -1      3817 6.90393E-04
 -1      3818 6.42140E-04
 -1      3819 2.97400E+00
 -1      3820 2.93962E-01
 -1      3821 2.68345E+00
 -1      3822 1.82288E+00
 -1      3823 2.34751E+00
 -1      3824 2.66900E+00
 -1      3825 3.91083E-01
 -1      3826 1.68559E+00
 -1      3827 2.41662E-01
 -1      3828 2.81519E-01
 -1      3829 2.34046E-01
 -1      3830 2.63727E+00
 -1      3831 4.29707E-04
 -1      3832 4.70978E-04
 -1      3833 6.10237E-04
 -1      3834 2.10913E-01
 -1      3835 3.17230E+00
 -1      3836 3.30122E+00
 -1      3837 3.69669E+00
 -1      3838 3.01671E+00
 -1      3839 2.93604E+00
 -1      3840 2.69522E+00
 -1      3841 3.68685E+00
 -1      3842 2.87342E+00
 -1      3843 2.47881E-02
 -1      3844 3.30739E-02
 -1      3845 4.23819E-02
 -1      3846 5.57604E-02
 -1      3847 3.58888E-02
 -1      3848 4.05630E-01
 -1      3849 4.75030E-01
 -1      3850 5.67428E-01
 -1      3851 6.66880E-01
 -1      3852 5.50509E-01
 -1      3853 7.66518E-01
 -1      3854 8.86148E-01
 -1      3855 7.42545E-01
 -1      3856 9.99251E-01
 -1      3857 1.12092E+00
 -1      3858 9.55287E-01
 -1      3859 1.28543E+00
 -1      3860 1.39742E+00
 -1      3861 1.23290E+00
 -1      3862 2.02167E+00
 -1      3863 2.42397E+00
 -1      3864 2.09006E+00
 -1      3865 7.37655E-02
 -1      3866 9.47711E-02
 -1      3867 6.32020E-02
 -1      3868 2.45013E+00
 -1      3869 2.08067E+00
 -1      3870 1.32656E+00
 -1      3871 1.21699E+00
 -1      3872 9.94953E-01
 -1      3873 8.77035E-01
 -1      3874 1.20875E+00
 -1      3875 7.67356E-01
 -1      3876 6.68375E-01
 -1      3877 8.77035E-01
 -1      3878 5.69394E-01
 -1      3879 4.99320E-01
 -1      3880 6.68375E-01
 -1      3881 4.09721E-01
 -1      3882 3.48672E-01
 -1      3883 4.79796E-01
 -1      3884 2.83551E-01
 -1      3885 2.34091E-01
 -1      3886 3.25076E-01
 -1      3887 1.88215E-01
 -1      3888 1.51647E-01
 -1      3889 2.14078E-01
 -1      3890 1.22520E-01
 -1      3891 9.73380E-02
 -1      3892 1.39075E-01
 -1      3893 7.72276E-02
 -1      3894 6.05333E-02
 -1      3895 8.98374E-02
 -1      3896 4.67407E-02
 -1      3897 3.60873E-02
 -1      3898 5.59343E-02
 -1      3899 2.74634E-02
 -1      3900 2.10315E-02
 -1      3901 3.35177E-02
 -1      3902 1.56760E-02
 -1      3903 1.16841E-02
 -1      3904 1.95383E-02
 -1      3905 8.39719E-03
 -1      3906 6.22852E-03
 -1      3907 1.08960E-02
 -1      3908 4.29909E-03
 -1      3909 3.18528E-03
 -1      3910 5.67966E-03
 -1      3911 2.46686E-03
 -1      3912 2.01450E-03
 -1      3913 3.03181E-03
 -1      3914 1.78143E-03
 -1      3915 1.66260E-03
 -1      3916 2.08032E-03
 -1      3917 1.44646E-03
 -1      3918 1.30244E-03
 -1      3919 1.63110E-03
 -1      3920 1.15910E-03
 -1      3921 1.02735E-03
 -1      3922 1.27162E-03
 -1      3923 9.11382E-04
 -1      3924 8.16896E-04
 -1      3925 1.01230E-03
 -1      3926 6.35863E-04
 -1      3927 5.43186E-04
 -1      3928 5.64077E-04
 -1      3929 7.15299E-04
 -1      3930 1.24340E-01
 -1      3931 1.56196E-01
 -1      3932 1.10776E-01
 -1      3933 6.41913E-01
 -1      3934 4.91941E-01
 -1      3935 5.38465E-01
 -1      3936 7.03009E-01
 -1      3937 1.43002E-02
 -1      3938 1.93522E-02
 -1      3939 2.11450E-02
 -1      3940 9.02956E-03
 -1      3941 1.14926E-02
 -1      3942 1.29015E-02
 -1      3943 5.78639E-03
 -1      3944 7.05059E-03
 -1      3945 8.11490E-03
 -1      3946 3.76516E-03
 -1      3947 4.60101E-03
 -1      3948 4.95055E-03
 -1      3949 2.59212E-03
 -1      3950 3.19100E-03
 -1      3951 3.19100E-03
 -1      3952 1.83824E-03
 -1      3953 2.25857E-03
 -1      3954 2.28330E-03
 -1      3955 1.27860E-03
 -1      3956 1.56950E-03
 -1      3957 1.68102E-03
 -1      3958 8.68292E-04
 -1      3959 1.06807E-03
 -1      3960 1.20175E-03
 -1      3961 5.86761E-04
 -1      3962 6.94400E-04
 -1      3963 8.17333E-04
 -1      3964 2.63226E-01
 -1      3965 2.89371E-01
 -1      3966 3.05868E-01
 -1      3967 2.50691E+00
 -1      3968 1.91244E+00
 -1      3969 1.53334E+00
 -1      3970 2.50691E+00
 -1      3971 8.38049E-01
 -1      3972 1.06490E+00
 -1      3973 7.08254E-01
 -1      3974 2.77294E+00
 -1      3975 1.37551E+00
 -1      3976 1.77459E+00
 -1      3977 3.33420E+00
 -1      3978 3.41063E+00
 -1      3979 2.10433E+00
 -1      3980 2.55950E+00
 -1      3981 2.97363E+00
 -1      3982 2.54634E+00
 -1      3983 3.66574E-04
 -1      3984 3.15719E+00
 -1      3985 3.29610E+00
 -1      3986 2.44397E+00
 -1      3987 2.90210E-01
 -1      3988 3.36300E-01
 -1      3989 3.88782E-01
 -1      3990 3.18614E-01
 -1      3991 3.05868E-01
 -1      3992 3.05868E-01
 -1      3993 3.00436E-01
 -1      3994 2.00728E+00
 -1      3995 2.08067E+00
 -1      3996 1.71120E+00
 -1      3997 1.79397E+00
 -1      3998 3.07476E+00
 -1      3999 2.09236E+00
 -1      4000 1.57314E+00
 -1      4001 1.74886E+00
 -1      4002 2.09236E+00
 -1      4003 1.99912E+00
 -1      4004 1.46676E+00
 -1      4005 1.87179E-01
 -1      4006 2.03030E-01
 -1      4007 2.61686E-01
 -1      4008 4.39882E-01
 -1      4009 4.74632E-01
 -1      4010 3.32704E-01
 -1      4011 7.88846E-01
 -1      4012 6.41913E-01
 -1      4013 9.71543E-01
 -1      4014 3.24885E+00
 -1      4015 3.17775E-01
 -1      4016 5.30082E-04
 -1      4017 5.86761E-04
 -1      4018 4.12661E-01
 -1      4019 3.14841E-01
 -1      4020 2.98859E-01
 -1      4021 1.98857E+00
 -1      4022 1.86462E+00
 -1      4023 2.12097E+00
 -1      4024 2.70529E+00
 -1      4025 2.85260E+00
 -1      4026 1.81089E+00
 -1      4027 1.15390E+00
 -1      4028 2.61993E+00
 -1      4029 2.33386E+00
 -1      4030 1.93571E+00
 -1      4031 7.33610E-04
 -1      4032 6.53455E-04
 -1      4033 7.10134E-04
 -1      4034 1.57099E+00
 -1      4035 2.11610E+00
 -1      4036 2.40707E-01
 -1      4037 2.46185E+00
 -1      4038 9.77213E-04
 -1      4039 9.77213E-04
 -1      4040 1.02043E-03
 -1      4041 4.15700E-01
 -1      4042 1.57314E+00
 -1      4043 2.62285E-01
 -1      4044 3.08181E-01
 -1      4045 1.65377E+00
 -1      4046 7.90648E-01
 -1      4047 8.90287E-01
 -1      4048 1.14641E+00
 -1      4049 1.25951E+00
 -1      4050 1.19451E+00
 -1      4051 6.99616E-02
 -1      4052 8.79667E-02
 -1      4053 1.68890E+00
 -1      4054 6.92943E-01
 -1      4055 8.27982E-01
 -1      4056 9.98949E-01
 -1      4057 8.89270E-01
 -1      4058 7.67860E-01
 -1      4059 6.68879E-01
 -1      4060 8.89774E-01
 -1      4061 6.91033E-01
 -1      4062 6.01434E-01
 -1      4063 7.90518E-01
 -1      4064 4.78026E-01
 -1      4065 4.12905E-01
 -1      4066 6.89264E-01
 -1      4067 3.15768E-01
 -1      4068 2.69892E-01
 -1      4069 4.68719E-01
 -1      4070 2.07710E-01
 -1      4071 1.78583E-01
 -1      4072 3.09400E-01
 -1      4073 1.33110E-01
 -1      4074 1.13000E-01
 -1      4075 2.01745E-01
 -1      4076 8.22266E-02
 -1      4077 6.84340E-02
 -1      4078 1.25499E-01
 -1      4079 4.87099E-02
 -1      4080 4.00859E-02
 -1      4081 7.50022E-02
 -1      4082 2.80219E-02
 -1      4083 2.26664E-02
 -1      4084 4.32140E-02
 -1      4085 1.54575E-02
 -1      4086 1.21707E-02
 -1      4087 2.39411E-02
 -1      4088 8.01624E-03
 -1      4089 6.08681E-03
 -1      4090 1.25778E-02
 -1      4091 3.87804E-03
 -1      4092 3.15962E-03
 -1      4093 6.21462E-03
 -1      4094 2.47133E-03
 -1      4095 2.23826E-03
 -1      4096 3.31755E-03
 -1      4097 1.84725E-03
 -1      4098 1.63110E-03
 -1      4099 2.23826E-03
 -1      4100 1.45121E-03
 -1      4101 1.30787E-03
 -1      4102 1.66735E-03
 -1      4103 1.19615E-03
 -1      4104 1.08018E-03
 -1      4105 1.37574E-03
 -1      4106 1.18740E-01
 -1      4107 1.48309E-01
 -1      4108 1.25499E-01
 -1      4109 6.41135E-04
 -1      4110 6.89388E-04
 -1      4111 9.76207E-04
 -1      4112 6.11324E-04
 -1      4113 1.47449E+00
 -1      4114 1.82087E+00
 -1      4115 2.12546E+00
 -1      4116 2.54788E+00
 -1      4117 2.57451E+00
 -1      4118 2.34295E-02
 -1      4119 2.88654E-02
 -1      4120 3.88550E-03
 -1      4121 5.07089E-03
 -1      4122 2.62305E-03
 -1      4123 3.19721E-03
 -1      4124 3.31755E-03
 -1      4125 1.94976E-03
 -1      4126 2.28330E-03
 -1      4127 2.28951E-03
 -1      4128 1.44987E-03
 -1      4129 1.71861E-03
 -1      4130 1.71861E-03
 -1      4131 1.09377E-03
 -1      4132 1.30429E-03
 -1      4133 1.34188E-03
 -1      4134 8.84026E-04
 -1      4135 4.70978E-04
 -1      4136 3.59601E-01
 -1      4137 3.31362E-01
 -1      4138 3.50279E-01
 -1      4139 4.38881E-01
 -1      4140 1.65377E+00
 -1      4141 1.43079E+00
 -1      4142 1.20875E+00
 -1      4143 1.77614E+00
 -1      4144 7.27966E-03
 -1      4145 9.25863E-03
 -1      4146 6.21462E-03
 -1      4147 9.10533E-01
 -1      4148 1.22114E+00
 -1      4149 1.23113E+00
 -1      4150 8.95222E-01
 -1      4151 1.79998E+00
 -1      4152 1.93571E+00
 -1      4153 1.61959E+00
 -1      4154 1.50851E+00
 -1      4155 5.79275E-01
 -1      4156 6.71673E-01
 -1      4157 8.19415E-01
 -1      4158 4.09295E-02
 -1      4159 5.02375E-02
 -1      4160 7.50022E-02
 -1      4161 4.32140E-02
 -1      4162 1.34130E-02
 -1      4163 1.62207E-02
 -1      4164 2.39411E-02
 -1      4165 1.25778E-02
 -1      4166 9.86568E-04
 -1      4167 3.31033E-01
 -1      4168 3.31033E-01
 -1      4169 3.31871E-01
 -1      4170 3.63536E-01
 -1      4171 1.53511E+00
 -1      4172 1.34399E+00
 -1      4173 5.69535E-01
 -1      4174 6.89264E-01
 -1      4175 4.70952E-01
 -1      4176 1.93782E-01
 -1      4177 2.40616E-01
 -1      4178 2.01745E-01
 -1      4179 3.05031E-01
 -1      4180 1.08018E-03
 -1      4181 8.99149E-04
 -1      4182 9.76207E-04
 -1      4183 1.26403E-03
 -1      4184 1.22158E+00
 -1      4185 1.03889E+00
 -1      4186 1.60068E+00
 -1      4187 6.81380E-01
 -1      4188 5.34447E-01
 -1      4189 2.24938E+00
 -1      4190 1.74913E+00
 -1      4191 1.53511E+00
 -1      4192 4.78348E-01
 -1      4193 2.22216E+00
 -1      4194 1.89968E+00
 -1      4195 1.55433E+00
 -1      4196 1.98003E+00
 -1      4197 1.22099E+00
 -1      4198 1.23017E-03
 -1      4199 4.10122E-01
 -1      4200 4.79451E-01
 -1      4201 6.00616E-01
 -1      4202 4.22541E-01
 -1      4203 1.58118E+00
 -1      4204 1.19451E+00
 -1      4205 1.45063E+00
 -1      4206 3.02797E-01
 -1      4207 3.73815E-01
 -1      4208 4.68719E-01
 -1      4209 3.09400E-01
 -1      4210 7.90518E-01
 -1      4211 8.12671E-01
 -1      4212 8.12671E-01
 -1      4213 6.89264E-01
 -1      4214 5.65856E-01
 -1      4215 4.68719E-01
 -1      4216 3.71581E-01
 -1      4217 3.09400E-01
 -1      4218 2.47219E-01
 -1      4219 2.01745E-01
 -1      4220 1.56272E-01
 -1      4221 1.25499E-01
 -1      4222 9.47263E-02
 -1      4223 7.50022E-02
 -1      4224 5.52781E-02
 -1      4225 4.32140E-02
 -1      4226 3.11500E-02
 -1      4227 2.39411E-02
 -1      4228 1.67322E-02
 -1      4229 1.25778E-02
 -1      4230 8.42339E-03
 -1      4231 6.21462E-03
 -1      4232 4.00584E-03
 -1      4233 3.31755E-03
 -1      4234 2.62926E-03
 -1      4235 2.23826E-03
 -1      4236 1.89851E-03
 -1      4237 1.71861E-03
 -1      4238 1.48746E-03
 -1      4239 1.37574E-03
 -1      4240 7.89406E-01
 -1      4241 6.81940E-01
 -1      4242 1.03945E+00
 -1      4243 1.23017E-03
 -1      4244 1.34453E+00
 -1      4245 1.66828E+00
 -1      4246 4.59102E-01
 -1      4247 1.53511E+00
 -1      4248 1.34598E+00
 -1      4249 1.01263E+00
 -1      4250 8.91222E-01
 -1      4251 1.24928E+00
 -1      4252 9.13376E-01
 -1      4253 8.80832E-01
 -1      4254 9.99807E-01
 -1      4255 1.55443E+00
 -1      4256 1.17508E+00
 -1      4257 1.25593E+00
 -1      4258 8.12671E-01
 -1      4259 6.45379E-01
 -1      4260 5.37353E-01
 -1      4261 1.26403E-03
 -1      4262 8.95222E-01
 -1      4263 9.95927E-01
 -1      4264 7.45203E-01
 -1      4265 9.25595E-01
 -1      4266 1.26403E-03
 -3
 9999
