    1C
    1UUSER                                                              
    1UDATE              27.october.2022                                 
    1UTIME              00:44:55                                        
    1UHOST                                                              
    1UPGM               CalculiX                                        
    1UVERSION           Version 2.17                             
    1UCOMPILETIME       Thu Jul 23 21:43:50 CEST 2020                    
    1UDIR                                                               
    1UDBN                                                               
    1UMAT    1SOLIDMATERIAL                                             
    2C                          4328                                     1
 -1         1 3.76313E+01 3.18196E+01 0.00000E+00
 -1         2 4.19041E+01 2.53726E+01 0.00000E+00
 -1         3 1.50000E+02 0.00000E+00 0.00000E+00
 -1         4 1.50000E+02 5.00000E+01 0.00000E+00
 -1         5 0.00000E+00 0.00000E+00 0.00000E+00
 -1         6 0.00000E+00 5.00000E+01 0.00000E+00
 -1         7 0.00000E+00 4.70500E+01 0.00000E+00
 -1         8 0.00000E+00 4.41000E+01 0.00000E+00
 -1         9 0.00000E+00 4.11500E+01 0.00000E+00
 -1        10 0.00000E+00 3.82000E+01 0.00000E+00
 -1        11 0.00000E+00 3.52500E+01 0.00000E+00
 -1        12 0.00000E+00 3.23500E+01 0.00000E+00
 -1        13 0.00000E+00 2.94000E+01 0.00000E+00
 -1        14 0.00000E+00 2.64500E+01 0.00000E+00
 -1        15 0.00000E+00 2.35000E+01 0.00000E+00
 -1        16 0.00000E+00 2.05500E+01 0.00000E+00
 -1        17 0.00000E+00 1.76000E+01 0.00000E+00
 -1        18 0.00000E+00 1.47000E+01 0.00000E+00
 -1        19 0.00000E+00 1.17500E+01 0.00000E+00
 -1        20 0.00000E+00 8.80000E+00 0.00000E+00
 -1        21 0.00000E+00 5.85000E+00 0.00000E+00
 -1        22 0.00000E+00 2.90000E+00 0.00000E+00
 -1        23 3.15000E+00 5.00000E+01 0.00000E+00
 -1        24 6.15000E+00 5.00000E+01 0.00000E+00
 -1        25 9.15000E+00 5.00000E+01 0.00000E+00
 -1        26 1.21500E+01 5.00000E+01 0.00000E+00
 -1        27 1.51500E+01 5.00000E+01 0.00000E+00
 -1        28 1.81500E+01 5.00000E+01 0.00000E+00
 -1        29 2.11500E+01 5.00000E+01 0.00000E+00
 -1        30 2.41500E+01 5.00000E+01 0.00000E+00
 -1        31 2.71500E+01 5.00000E+01 0.00000E+00
 -1        32 3.01500E+01 5.00000E+01 0.00000E+00
 -1        33 3.31500E+01 5.00000E+01 0.00000E+00
 -1        34 3.61500E+01 5.00000E+01 0.00000E+00
 -1        35 3.91500E+01 5.00000E+01 0.00000E+00
 -1        36 4.21500E+01 5.00000E+01 0.00000E+00
 -1        37 4.51500E+01 5.00000E+01 0.00000E+00
 -1        38 4.81500E+01 5.00000E+01 0.00000E+00
 -1        39 5.11500E+01 5.00000E+01 0.00000E+00
 -1        40 5.41500E+01 5.00000E+01 0.00000E+00
 -1        41 5.71500E+01 5.00000E+01 0.00000E+00
 -1        42 6.01500E+01 5.00000E+01 0.00000E+00
 -1        43 6.31500E+01 5.00000E+01 0.00000E+00
 -1        44 6.61500E+01 5.00000E+01 0.00000E+00
 -1        45 6.91500E+01 5.00000E+01 0.00000E+00
 -1        46 7.21500E+01 5.00000E+01 0.00000E+00
 -1        47 7.51500E+01 5.00000E+01 0.00000E+00
 -1        48 7.81500E+01 5.00000E+01 0.00000E+00
 -1        49 8.11500E+01 5.00000E+01 0.00000E+00
 -1        50 8.41500E+01 5.00000E+01 0.00000E+00
 -1        51 8.71500E+01 5.00000E+01 0.00000E+00
 -1        52 9.01500E+01 5.00000E+01 0.00000E+00
 -1        53 9.31500E+01 5.00000E+01 0.00000E+00
 -1        54 9.61500E+01 5.00000E+01 0.00000E+00
 -1        55 9.91500E+01 5.00000E+01 0.00000E+00
 -1        56 1.02150E+02 5.00000E+01 0.00000E+00
 -1        57 1.05150E+02 5.00000E+01 0.00000E+00
 -1        58 1.08150E+02 5.00000E+01 0.00000E+00
 -1        59 1.11150E+02 5.00000E+01 0.00000E+00
 -1        60 1.14150E+02 5.00000E+01 0.00000E+00
 -1        61 1.17150E+02 5.00000E+01 0.00000E+00
 -1        62 1.20150E+02 5.00000E+01 0.00000E+00
 -1        63 1.23150E+02 5.00000E+01 0.00000E+00
 -1        64 1.26150E+02 5.00000E+01 0.00000E+00
 -1        65 1.29150E+02 5.00000E+01 0.00000E+00
 -1        66 1.32150E+02 5.00000E+01 0.00000E+00
 -1        67 1.35150E+02 5.00000E+01 0.00000E+00
 -1        68 1.38150E+02 5.00000E+01 0.00000E+00
 -1        69 1.41150E+02 5.00000E+01 0.00000E+00
 -1        70 1.44150E+02 5.00000E+01 0.00000E+00
 -1        71 1.47150E+02 5.00000E+01 0.00000E+00
 -1        72 3.15000E+00 0.00000E+00 0.00000E+00
 -1        73 6.15000E+00 0.00000E+00 0.00000E+00
 -1        74 9.15000E+00 0.00000E+00 0.00000E+00
 -1        75 1.21500E+01 0.00000E+00 0.00000E+00
 -1        76 1.51500E+01 0.00000E+00 0.00000E+00
 -1        77 1.81500E+01 0.00000E+00 0.00000E+00
 -1        78 2.11500E+01 0.00000E+00 0.00000E+00
 -1        79 2.41500E+01 0.00000E+00 0.00000E+00
 -1        80 2.71500E+01 0.00000E+00 0.00000E+00
 -1        81 3.01500E+01 0.00000E+00 0.00000E+00
 -1        82 3.31500E+01 0.00000E+00 0.00000E+00
 -1        83 3.61500E+01 0.00000E+00 0.00000E+00
 -1        84 3.91500E+01 0.00000E+00 0.00000E+00
 -1        85 4.21500E+01 0.00000E+00 0.00000E+00
 -1        86 4.51500E+01 0.00000E+00 0.00000E+00
 -1        87 4.81500E+01 0.00000E+00 0.00000E+00
 -1        88 5.11500E+01 0.00000E+00 0.00000E+00
 -1        89 5.41500E+01 0.00000E+00 0.00000E+00
 -1        90 5.71500E+01 0.00000E+00 0.00000E+00
 -1        91 6.01500E+01 0.00000E+00 0.00000E+00
 -1        92 6.31500E+01 0.00000E+00 0.00000E+00
 -1        93 6.61500E+01 0.00000E+00 0.00000E+00
 -1        94 6.91500E+01 0.00000E+00 0.00000E+00
 -1        95 7.21500E+01 0.00000E+00 0.00000E+00
 -1        96 7.51500E+01 0.00000E+00 0.00000E+00
 -1        97 7.81500E+01 0.00000E+00 0.00000E+00
 -1        98 8.11500E+01 0.00000E+00 0.00000E+00
 -1        99 8.41500E+01 0.00000E+00 0.00000E+00
 -1       100 8.71500E+01 0.00000E+00 0.00000E+00
 -1       101 9.01500E+01 0.00000E+00 0.00000E+00
 -1       102 9.31500E+01 0.00000E+00 0.00000E+00
 -1       103 9.61500E+01 0.00000E+00 0.00000E+00
 -1       104 9.91500E+01 0.00000E+00 0.00000E+00
 -1       105 1.02150E+02 0.00000E+00 0.00000E+00
 -1       106 1.05150E+02 0.00000E+00 0.00000E+00
 -1       107 1.08150E+02 0.00000E+00 0.00000E+00
 -1       108 1.11150E+02 0.00000E+00 0.00000E+00
 -1       109 1.14150E+02 0.00000E+00 0.00000E+00
 -1       110 1.17150E+02 0.00000E+00 0.00000E+00
 -1       111 1.20150E+02 0.00000E+00 0.00000E+00
 -1       112 1.23150E+02 0.00000E+00 0.00000E+00
 -1       113 1.26150E+02 0.00000E+00 0.00000E+00
 -1       114 1.29150E+02 0.00000E+00 0.00000E+00
 -1       115 1.32150E+02 0.00000E+00 0.00000E+00
 -1       116 1.35150E+02 0.00000E+00 0.00000E+00
 -1       117 1.38150E+02 0.00000E+00 0.00000E+00
 -1       118 1.41150E+02 0.00000E+00 0.00000E+00
 -1       119 1.44150E+02 0.00000E+00 0.00000E+00
 -1       120 1.47150E+02 0.00000E+00 0.00000E+00
 -1       121 1.50000E+02 2.95000E+00 0.00000E+00
 -1       122 1.50000E+02 5.90000E+00 0.00000E+00
 -1       123 1.50000E+02 8.85000E+00 0.00000E+00
 -1       124 1.50000E+02 1.18000E+01 0.00000E+00
 -1       125 1.50000E+02 1.47500E+01 0.00000E+00
 -1       126 1.50000E+02 1.76500E+01 0.00000E+00
 -1       127 1.50000E+02 2.06000E+01 0.00000E+00
 -1       128 1.50000E+02 2.35500E+01 0.00000E+00
 -1       129 1.50000E+02 2.65000E+01 0.00000E+00
 -1       130 1.50000E+02 2.94500E+01 0.00000E+00
 -1       131 1.50000E+02 3.24000E+01 0.00000E+00
 -1       132 1.50000E+02 3.53000E+01 0.00000E+00
 -1       133 1.50000E+02 3.82500E+01 0.00000E+00
 -1       134 1.50000E+02 4.12000E+01 0.00000E+00
 -1       135 1.50000E+02 4.41500E+01 0.00000E+00
 -1       136 1.50000E+02 4.71000E+01 0.00000E+00
 -1       137 4.17312E+01 2.38265E+01 0.00000E+00
 -1       138 4.12983E+01 2.25241E+01 0.00000E+00
 -1       139 4.05077E+01 2.11774E+01 0.00000E+00
 -1       140 3.95742E+01 2.01582E+01 0.00000E+00
 -1       141 3.83734E+01 1.92928E+01 0.00000E+00
 -1       142 3.69888E+01 1.86903E+01 0.00000E+00
 -1       143 3.55069E+01 1.83987E+01 0.00000E+00
 -1       144 3.39281E+01 1.84410E+01 0.00000E+00
 -1       145 3.25550E+01 1.87786E+01 0.00000E+00
 -1       146 3.11148E+01 1.94870E+01 0.00000E+00
 -1       147 2.99308E+01 2.04466E+01 0.00000E+00
 -1       148 2.90552E+01 2.15269E+01 0.00000E+00
 -1       149 2.84012E+01 2.27819E+01 0.00000E+00
 -1       150 2.79861E+01 2.43047E+01 0.00000E+00
 -1       151 2.79119E+01 2.57031E+01 0.00000E+00
 -1       152 2.81193E+01 2.70947E+01 0.00000E+00
 -1       153 2.86736E+01 2.85633E+01 0.00000E+00
 -1       154 2.95071E+01 2.98304E+01 0.00000E+00
 -1       155 3.05625E+01 3.08636E+01 0.00000E+00
 -1       156 3.18437E+01 3.16682E+01 0.00000E+00
 -1       157 3.32541E+01 3.21754E+01 0.00000E+00
 -1       158 3.46408E+01 3.23677E+01 0.00000E+00
 -1       159 3.60468E+01 3.22788E+01 0.00000E+00
 -1       160 3.88105E+01 3.11813E+01 0.00000E+00
 -1       161 3.98545E+01 3.03217E+01 0.00000E+00
 -1       162 4.06960E+01 2.93039E+01 0.00000E+00
 -1       163 4.13868E+01 2.80136E+01 0.00000E+00
 -1       164 4.17716E+01 2.67281E+01 0.00000E+00
 -1       165 2.59800E+00 4.55750E+01 0.00000E+00
 -1       166 2.59800E+00 4.26250E+01 0.00000E+00
 -1       167 2.59800E+00 3.96750E+01 0.00000E+00
 -1       168 2.59800E+00 3.67250E+01 0.00000E+00
 -1       169 2.59800E+00 3.38250E+01 0.00000E+00
 -1       170 2.59800E+00 3.08750E+01 0.00000E+00
 -1       171 2.59800E+00 2.79250E+01 0.00000E+00
 -1       172 2.59800E+00 2.49750E+01 0.00000E+00
 -1       173 2.59800E+00 2.20250E+01 0.00000E+00
 -1       174 2.59800E+00 1.90750E+01 0.00000E+00
 -1       175 2.59800E+00 1.61750E+01 0.00000E+00
 -1       176 2.59800E+00 1.32250E+01 0.00000E+00
 -1       177 2.59800E+00 1.02750E+01 0.00000E+00
 -1       178 2.59800E+00 7.32500E+00 0.00000E+00
 -1       179 2.59800E+00 4.37500E+00 0.00000E+00
 -1       180 2.87400E+00 2.18750E+00 0.00000E+00
 -1       181 4.65000E+00 4.74020E+01 0.00000E+00
 -1       182 7.65000E+00 4.74020E+01 0.00000E+00
 -1       183 1.06500E+01 4.74020E+01 0.00000E+00
 -1       184 1.36500E+01 4.74020E+01 0.00000E+00
 -1       185 1.66500E+01 4.74020E+01 0.00000E+00
 -1       186 1.96500E+01 4.74020E+01 0.00000E+00
 -1       187 2.26500E+01 4.74020E+01 0.00000E+00
 -1       188 2.56500E+01 4.74020E+01 0.00000E+00
 -1       189 2.86500E+01 4.74020E+01 0.00000E+00
 -1       190 3.16500E+01 4.74020E+01 0.00000E+00
 -1       191 3.46500E+01 4.74020E+01 0.00000E+00
 -1       192 3.76500E+01 4.74020E+01 0.00000E+00
 -1       193 4.06500E+01 4.74020E+01 0.00000E+00
 -1       194 4.36500E+01 4.74020E+01 0.00000E+00
 -1       195 4.66500E+01 4.74020E+01 0.00000E+00
 -1       196 4.96500E+01 4.74020E+01 0.00000E+00
 -1       197 5.26500E+01 4.74020E+01 0.00000E+00
 -1       198 5.56500E+01 4.74020E+01 0.00000E+00
 -1       199 5.86500E+01 4.74020E+01 0.00000E+00
 -1       200 6.16500E+01 4.74020E+01 0.00000E+00
 -1       201 6.46500E+01 4.74020E+01 0.00000E+00
 -1       202 6.76500E+01 4.74020E+01 0.00000E+00
 -1       203 7.06500E+01 4.74020E+01 0.00000E+00
 -1       204 7.36500E+01 4.74020E+01 0.00000E+00
 -1       205 7.66500E+01 4.74020E+01 0.00000E+00
 -1       206 7.96500E+01 4.74020E+01 0.00000E+00
 -1       207 8.26500E+01 4.74020E+01 0.00000E+00
 -1       208 8.56500E+01 4.74020E+01 0.00000E+00
 -1       209 8.86500E+01 4.74020E+01 0.00000E+00
 -1       210 9.16500E+01 4.74020E+01 0.00000E+00
 -1       211 9.46500E+01 4.74020E+01 0.00000E+00
 -1       212 9.76500E+01 4.74020E+01 0.00000E+00
 -1       213 1.00650E+02 4.74020E+01 0.00000E+00
 -1       214 1.03650E+02 4.74020E+01 0.00000E+00
 -1       215 1.06650E+02 4.74020E+01 0.00000E+00
 -1       216 1.09650E+02 4.74020E+01 0.00000E+00
 -1       217 1.12650E+02 4.74020E+01 0.00000E+00
 -1       218 1.15650E+02 4.74020E+01 0.00000E+00
 -1       219 1.18650E+02 4.74020E+01 0.00000E+00
 -1       220 1.21650E+02 4.74020E+01 0.00000E+00
 -1       221 1.24650E+02 4.74020E+01 0.00000E+00
 -1       222 1.27650E+02 4.74020E+01 0.00000E+00
 -1       223 1.30650E+02 4.74020E+01 0.00000E+00
 -1       224 1.33650E+02 4.74020E+01 0.00000E+00
 -1       225 1.36650E+02 4.74020E+01 0.00000E+00
 -1       226 1.39650E+02 4.74020E+01 0.00000E+00
 -1       227 1.42650E+02 4.74020E+01 0.00000E+00
 -1       228 1.45650E+02 4.74020E+01 0.00000E+00
 -1       229 5.87400E+00 2.18750E+00 0.00000E+00
 -1       230 8.87400E+00 2.18750E+00 0.00000E+00
 -1       231 1.18740E+01 2.18750E+00 0.00000E+00
 -1       232 1.48740E+01 2.18750E+00 0.00000E+00
 -1       233 1.78740E+01 2.18750E+00 0.00000E+00
 -1       234 2.08740E+01 2.18750E+00 0.00000E+00
 -1       235 2.38740E+01 2.18750E+00 0.00000E+00
 -1       236 2.68740E+01 2.18750E+00 0.00000E+00
 -1       237 2.98740E+01 2.18750E+00 0.00000E+00
 -1       238 3.28740E+01 2.18750E+00 0.00000E+00
 -1       239 3.58740E+01 2.18750E+00 0.00000E+00
 -1       240 3.88740E+01 2.18750E+00 0.00000E+00
 -1       241 4.18740E+01 2.18750E+00 0.00000E+00
 -1       242 4.48740E+01 2.18750E+00 0.00000E+00
 -1       243 4.78740E+01 2.18750E+00 0.00000E+00
 -1       244 5.08740E+01 2.18750E+00 0.00000E+00
 -1       245 5.38740E+01 2.18750E+00 0.00000E+00
 -1       246 5.68740E+01 2.18750E+00 0.00000E+00
 -1       247 5.98740E+01 2.18750E+00 0.00000E+00
 -1       248 6.28740E+01 2.18750E+00 0.00000E+00
 -1       249 6.58740E+01 2.18750E+00 0.00000E+00
 -1       250 6.88740E+01 2.18750E+00 0.00000E+00
 -1       251 7.18740E+01 2.18750E+00 0.00000E+00
 -1       252 7.48740E+01 2.18750E+00 0.00000E+00
 -1       253 7.78740E+01 2.18750E+00 0.00000E+00
 -1       254 8.08740E+01 2.18750E+00 0.00000E+00
 -1       255 8.38740E+01 2.18750E+00 0.00000E+00
 -1       256 8.68740E+01 2.18750E+00 0.00000E+00
 -1       257 8.98740E+01 2.18750E+00 0.00000E+00
 -1       258 9.28740E+01 2.18750E+00 0.00000E+00
 -1       259 9.58740E+01 2.18750E+00 0.00000E+00
 -1       260 9.88740E+01 2.18750E+00 0.00000E+00
 -1       261 1.01874E+02 2.18750E+00 0.00000E+00
 -1       262 1.04874E+02 2.18750E+00 0.00000E+00
 -1       263 1.07874E+02 2.18750E+00 0.00000E+00
 -1       264 1.10874E+02 2.18750E+00 0.00000E+00
 -1       265 1.13874E+02 2.18750E+00 0.00000E+00
 -1       266 1.16874E+02 2.18750E+00 0.00000E+00
 -1       267 1.19874E+02 2.18750E+00 0.00000E+00
 -1       268 1.22874E+02 2.18750E+00 0.00000E+00
 -1       269 1.25874E+02 2.18750E+00 0.00000E+00
 -1       270 1.28874E+02 2.18750E+00 0.00000E+00
 -1       271 1.31874E+02 2.18750E+00 0.00000E+00
 -1       272 1.34874E+02 2.18750E+00 0.00000E+00
 -1       273 1.37874E+02 2.18750E+00 0.00000E+00
 -1       274 1.40874E+02 2.18750E+00 0.00000E+00
 -1       275 1.43874E+02 2.18750E+00 0.00000E+00
 -1       276 1.46874E+02 2.18750E+00 0.00000E+00
 -1       277 1.47402E+02 4.42500E+00 0.00000E+00
 -1       278 1.47402E+02 7.37500E+00 0.00000E+00
 -1       279 1.47402E+02 1.03250E+01 0.00000E+00
 -1       280 1.47402E+02 1.32750E+01 0.00000E+00
 -1       281 1.47402E+02 1.61750E+01 0.00000E+00
 -1       282 1.47402E+02 1.91250E+01 0.00000E+00
 -1       283 1.47402E+02 2.20750E+01 0.00000E+00
 -1       284 1.47402E+02 2.50250E+01 0.00000E+00
 -1       285 1.47402E+02 2.79750E+01 0.00000E+00
 -1       286 1.47402E+02 3.09250E+01 0.00000E+00
 -1       287 1.47402E+02 3.38250E+01 0.00000E+00
 -1       288 1.47402E+02 3.67750E+01 0.00000E+00
 -1       289 1.47402E+02 3.97250E+01 0.00000E+00
 -1       290 1.47402E+02 4.26750E+01 0.00000E+00
 -1       291 1.46526E+02 4.50385E+01 0.00000E+00
 -1       292 4.31891E+01 2.44462E+01 0.00000E+00
 -1       293 4.26653E+01 2.27929E+01 0.00000E+00
 -1       294 4.22375E+01 2.10672E+01 0.00000E+00
 -1       295 4.09350E+01 1.98489E+01 0.00000E+00
 -1       296 3.96826E+01 1.87419E+01 0.00000E+00
 -1       297 3.81649E+01 1.78799E+01 0.00000E+00
 -1       298 3.64981E+01 1.72727E+01 0.00000E+00
 -1       299 3.46783E+01 1.69566E+01 0.00000E+00
 -1       300 3.29521E+01 1.74325E+01 0.00000E+00
 -1       301 3.12258E+01 1.78945E+01 0.00000E+00
 -1       302 2.96539E+01 1.88947E+01 0.00000E+00
 -1       303 2.85511E+01 2.02233E+01 0.00000E+00
 -1       304 2.76530E+01 2.15942E+01 0.00000E+00
 -1       305 2.67814E+01 2.31583E+01 0.00000E+00
 -1       306 2.67383E+01 2.49397E+01 0.00000E+00
 -1       307 2.68164E+01 2.65775E+01 0.00000E+00
 -1       308 2.71054E+01 2.83163E+01 0.00000E+00
 -1       309 2.80774E+01 2.98632E+01 0.00000E+00
 -1       310 2.91867E+01 3.12134E+01 0.00000E+00
 -1       311 3.05583E+01 3.22926E+01 0.00000E+00
 -1       312 3.20819E+01 3.32203E+01 0.00000E+00
 -1       313 3.37809E+01 3.34724E+01 0.00000E+00
 -1       314 3.54203E+01 3.35332E+01 0.00000E+00
 -1       315 3.72465E+01 3.34551E+01 0.00000E+00
 -1       316 3.87980E+01 3.25667E+01 0.00000E+00
 -1       317 4.01031E+01 3.16875E+01 0.00000E+00
 -1       318 4.12097E+01 3.05853E+01 0.00000E+00
 -1       319 4.22579E+01 2.93101E+01 0.00000E+00
 -1       320 4.27407E+01 2.77186E+01 0.00000E+00
 -1       321 4.31279E+01 2.61765E+01 0.00000E+00
 -1       322 5.19600E+00 4.11500E+01 0.00000E+00
 -1       323 5.19600E+00 4.41000E+01 0.00000E+00
 -1       324 5.19600E+00 3.52750E+01 0.00000E+00
 -1       325 5.19600E+00 3.23250E+01 0.00000E+00
 -1       326 5.19600E+00 2.93750E+01 0.00000E+00
 -1       327 5.19600E+00 2.64250E+01 0.00000E+00
 -1       328 5.19600E+00 2.34750E+01 0.00000E+00
 -1       329 5.19600E+00 2.05250E+01 0.00000E+00
 -1       330 5.19600E+00 1.76250E+01 0.00000E+00
 -1       331 5.19600E+00 1.46750E+01 0.00000E+00
 -1       332 5.19600E+00 1.17250E+01 0.00000E+00
 -1       333 5.19600E+00 8.77500E+00 0.00000E+00
 -1       334 5.19600E+00 5.82500E+00 0.00000E+00
 -1       335 5.53500E+00 4.00625E+00 0.00000E+00
 -1       336 8.53500E+00 4.00625E+00 0.00000E+00
 -1       337 9.15000E+00 4.48040E+01 0.00000E+00
 -1       338 1.21500E+01 4.48040E+01 0.00000E+00
 -1       339 1.51500E+01 4.48040E+01 0.00000E+00
 -1       340 1.81500E+01 4.48040E+01 0.00000E+00
 -1       341 2.11500E+01 4.48040E+01 0.00000E+00
 -1       342 2.41500E+01 4.48040E+01 0.00000E+00
 -1       343 2.71500E+01 4.48040E+01 0.00000E+00
 -1       344 3.01500E+01 4.48040E+01 0.00000E+00
 -1       345 3.31500E+01 4.48040E+01 0.00000E+00
 -1       346 3.61500E+01 4.48040E+01 0.00000E+00
 -1       347 3.91500E+01 4.48040E+01 0.00000E+00
 -1       348 4.21500E+01 4.48040E+01 0.00000E+00
 -1       349 4.51500E+01 4.48040E+01 0.00000E+00
 -1       350 4.81500E+01 4.48040E+01 0.00000E+00
 -1       351 5.11500E+01 4.48040E+01 0.00000E+00
 -1       352 5.41500E+01 4.48040E+01 0.00000E+00
 -1       353 5.71500E+01 4.48040E+01 0.00000E+00
 -1       354 6.01500E+01 4.48040E+01 0.00000E+00
 -1       355 6.31500E+01 4.48040E+01 0.00000E+00
 -1       356 6.61500E+01 4.48040E+01 0.00000E+00
 -1       357 6.91500E+01 4.48040E+01 0.00000E+00
 -1       358 7.21500E+01 4.48040E+01 0.00000E+00
 -1       359 7.51500E+01 4.48040E+01 0.00000E+00
 -1       360 7.81500E+01 4.48040E+01 0.00000E+00
 -1       361 8.11500E+01 4.48040E+01 0.00000E+00
 -1       362 8.41500E+01 4.48040E+01 0.00000E+00
 -1       363 8.71500E+01 4.48040E+01 0.00000E+00
 -1       364 9.01500E+01 4.48040E+01 0.00000E+00
 -1       365 9.31500E+01 4.48040E+01 0.00000E+00
 -1       366 9.61500E+01 4.48040E+01 0.00000E+00
 -1       367 9.91500E+01 4.48040E+01 0.00000E+00
 -1       368 1.02150E+02 4.48040E+01 0.00000E+00
 -1       369 1.05150E+02 4.48040E+01 0.00000E+00
 -1       370 1.08150E+02 4.48040E+01 0.00000E+00
 -1       371 1.11150E+02 4.48040E+01 0.00000E+00
 -1       372 1.14150E+02 4.48040E+01 0.00000E+00
 -1       373 1.17150E+02 4.48040E+01 0.00000E+00
 -1       374 1.20150E+02 4.48040E+01 0.00000E+00
 -1       375 1.23150E+02 4.48040E+01 0.00000E+00
 -1       376 1.26150E+02 4.48040E+01 0.00000E+00
 -1       377 1.29150E+02 4.48040E+01 0.00000E+00
 -1       378 1.32150E+02 4.48040E+01 0.00000E+00
 -1       379 1.35150E+02 4.48040E+01 0.00000E+00
 -1       380 1.38150E+02 4.48040E+01 0.00000E+00
 -1       381 1.41150E+02 4.48040E+01 0.00000E+00
 -1       382 1.43838E+02 4.49212E+01 0.00000E+00
 -1       383 1.15350E+01 4.00625E+00 0.00000E+00
 -1       384 1.45350E+01 4.00625E+00 0.00000E+00
 -1       385 1.75350E+01 4.00625E+00 0.00000E+00
 -1       386 2.05350E+01 4.00625E+00 0.00000E+00
 -1       387 2.35350E+01 4.00625E+00 0.00000E+00
 -1       388 2.65350E+01 4.00625E+00 0.00000E+00
 -1       389 2.95350E+01 4.00625E+00 0.00000E+00
 -1       390 3.25350E+01 4.00625E+00 0.00000E+00
 -1       391 3.55350E+01 4.00625E+00 0.00000E+00
 -1       392 3.85350E+01 4.00625E+00 0.00000E+00
 -1       393 4.15350E+01 4.00625E+00 0.00000E+00
 -1       394 4.45350E+01 4.00625E+00 0.00000E+00
 -1       395 4.75350E+01 4.00625E+00 0.00000E+00
 -1       396 5.05350E+01 4.00625E+00 0.00000E+00
 -1       397 5.35350E+01 4.00625E+00 0.00000E+00
 -1       398 5.65350E+01 4.00625E+00 0.00000E+00
 -1       399 5.95350E+01 4.00625E+00 0.00000E+00
 -1       400 6.25350E+01 4.00625E+00 0.00000E+00
 -1       401 6.55350E+01 4.00625E+00 0.00000E+00
 -1       402 6.85350E+01 4.00625E+00 0.00000E+00
 -1       403 7.15350E+01 4.00625E+00 0.00000E+00
 -1       404 7.45350E+01 4.00625E+00 0.00000E+00
 -1       405 7.75350E+01 4.00625E+00 0.00000E+00
 -1       406 8.05350E+01 4.00625E+00 0.00000E+00
 -1       407 8.35350E+01 4.00625E+00 0.00000E+00
 -1       408 8.65350E+01 4.00625E+00 0.00000E+00
 -1       409 8.95350E+01 4.00625E+00 0.00000E+00
 -1       410 9.25350E+01 4.00625E+00 0.00000E+00
 -1       411 9.55350E+01 4.00625E+00 0.00000E+00
 -1       412 9.85350E+01 4.00625E+00 0.00000E+00
 -1       413 1.01535E+02 4.00625E+00 0.00000E+00
 -1       414 1.04535E+02 4.00625E+00 0.00000E+00
 -1       415 1.07535E+02 4.00625E+00 0.00000E+00
 -1       416 1.10535E+02 4.00625E+00 0.00000E+00
 -1       417 1.13535E+02 4.00625E+00 0.00000E+00
 -1       418 1.16535E+02 4.00625E+00 0.00000E+00
 -1       419 1.19535E+02 4.00625E+00 0.00000E+00
 -1       420 1.22535E+02 4.00625E+00 0.00000E+00
 -1       421 1.25535E+02 4.00625E+00 0.00000E+00
 -1       422 1.28535E+02 4.00625E+00 0.00000E+00
 -1       423 1.31535E+02 4.00625E+00 0.00000E+00
 -1       424 1.34535E+02 4.00625E+00 0.00000E+00
 -1       425 1.37535E+02 4.00625E+00 0.00000E+00
 -1       426 1.40535E+02 4.00625E+00 0.00000E+00
 -1       427 1.43535E+02 4.00625E+00 0.00000E+00
 -1       428 1.45469E+02 4.21562E+00 0.00000E+00
 -1       429 1.44804E+02 1.18000E+01 0.00000E+00
 -1       430 1.44804E+02 8.85000E+00 0.00000E+00
 -1       431 1.45136E+02 6.53281E+00 0.00000E+00
 -1       432 1.44804E+02 1.47000E+01 0.00000E+00
 -1       433 1.44804E+02 1.76500E+01 0.00000E+00
 -1       434 1.44804E+02 2.06000E+01 0.00000E+00
 -1       435 1.44804E+02 2.35500E+01 0.00000E+00
 -1       436 1.44804E+02 2.65000E+01 0.00000E+00
 -1       437 1.44804E+02 2.94500E+01 0.00000E+00
 -1       438 1.44804E+02 3.23500E+01 0.00000E+00
 -1       439 1.44804E+02 3.53000E+01 0.00000E+00
 -1       440 1.44804E+02 3.82500E+01 0.00000E+00
 -1       441 1.44804E+02 4.12000E+01 0.00000E+00
 -1       442 4.41161E+01 2.15174E+01 0.00000E+00
 -1       443 4.47051E+01 2.53660E+01 0.00000E+00
 -1       444 4.46400E+01 2.31707E+01 0.00000E+00
 -1       445 4.24717E+01 1.95114E+01 0.00000E+00
 -1       446 4.12227E+01 1.82615E+01 0.00000E+00
 -1       447 5.19600E+00 3.82125E+01 0.00000E+00
 -1       448 3.77752E+01 1.63584E+01 0.00000E+00
 -1       449 3.58817E+01 1.54248E+01 0.00000E+00
 -1       450 3.34484E+01 1.58642E+01 0.00000E+00
 -1       451 3.17221E+01 1.63262E+01 0.00000E+00
 -1       452 2.95191E+01 1.69476E+01 0.00000E+00
 -1       453 2.79117E+01 1.85706E+01 0.00000E+00
 -1       454 2.69478E+01 2.01525E+01 0.00000E+00
 -1       455 2.59386E+01 2.16638E+01 0.00000E+00
 -1       456 2.52128E+01 2.40116E+01 0.00000E+00
 -1       457 2.52909E+01 2.56494E+01 0.00000E+00
 -1       458 2.54343E+01 2.77006E+01 0.00000E+00
 -1       459 2.64939E+01 2.97794E+01 0.00000E+00
 -1       460 2.76305E+01 3.13611E+01 0.00000E+00
 -1       461 2.90710E+01 3.27717E+01 0.00000E+00
 -1       462 3.05588E+01 3.40067E+01 0.00000E+00
 -1       463 3.27289E+01 3.47114E+01 0.00000E+00
 -1       464 3.45495E+01 3.48819E+01 0.00000E+00
 -1       465 3.63996E+01 3.50403E+01 0.00000E+00
 -1       466 3.87080E+01 3.42084E+01 0.00000E+00
 -1       467 4.02215E+01 3.32716E+01 0.00000E+00
 -1       468 4.16303E+01 3.21141E+01 0.00000E+00
 -1       469 4.27351E+01 3.07708E+01 0.00000E+00
 -1       470 4.40604E+01 2.89879E+01 0.00000E+00
 -1       471 4.43827E+01 2.71770E+01 0.00000E+00
 -1       472 3.96881E+01 1.69653E+01 0.00000E+00
 -1       473 4.43503E+01 1.99616E+01 0.00000E+00
 -1       474 3.78611E+01 3.57936E+01 0.00000E+00
 -1       475 1.00350E+01 6.60425E+00 0.00000E+00
 -1       476 7.79400E+00 3.08500E+01 0.00000E+00
 -1       477 7.79400E+00 3.38000E+01 0.00000E+00
 -1       478 7.79400E+00 2.49500E+01 0.00000E+00
 -1       479 7.79400E+00 2.20000E+01 0.00000E+00
 -1       480 7.79400E+00 1.91000E+01 0.00000E+00
 -1       481 7.79400E+00 1.61500E+01 0.00000E+00
 -1       482 7.79400E+00 1.32000E+01 0.00000E+00
 -1       483 7.79400E+00 1.02500E+01 0.00000E+00
 -1       484 1.30350E+01 6.60425E+00 0.00000E+00
 -1       485 1.06500E+01 4.22060E+01 0.00000E+00
 -1       486 3.91743E+01 1.52666E+01 0.00000E+00
 -1       487 1.36500E+01 4.22060E+01 0.00000E+00
 -1       488 1.66500E+01 4.22060E+01 0.00000E+00
 -1       489 1.96500E+01 4.22060E+01 0.00000E+00
 -1       490 2.26500E+01 4.22060E+01 0.00000E+00
 -1       491 2.56500E+01 4.22060E+01 0.00000E+00
 -1       492 2.86500E+01 4.22060E+01 0.00000E+00
 -1       493 3.16500E+01 4.22060E+01 0.00000E+00
 -1       494 3.46500E+01 4.22060E+01 0.00000E+00
 -1       495 3.76500E+01 4.22060E+01 0.00000E+00
 -1       496 4.06500E+01 4.22060E+01 0.00000E+00
 -1       497 4.36500E+01 4.22060E+01 0.00000E+00
 -1       498 4.66500E+01 4.22060E+01 0.00000E+00
 -1       499 4.96500E+01 4.22060E+01 0.00000E+00
 -1       500 5.26500E+01 4.22060E+01 0.00000E+00
 -1       501 5.56500E+01 4.22060E+01 0.00000E+00
 -1       502 5.86500E+01 4.22060E+01 0.00000E+00
 -1       503 6.16500E+01 4.22060E+01 0.00000E+00
 -1       504 6.46500E+01 4.22060E+01 0.00000E+00
 -1       505 6.76500E+01 4.22060E+01 0.00000E+00
 -1       506 7.06500E+01 4.22060E+01 0.00000E+00
 -1       507 7.36500E+01 4.22060E+01 0.00000E+00
 -1       508 7.66500E+01 4.22060E+01 0.00000E+00
 -1       509 7.96500E+01 4.22060E+01 0.00000E+00
 -1       510 8.26500E+01 4.22060E+01 0.00000E+00
 -1       511 8.56500E+01 4.22060E+01 0.00000E+00
 -1       512 8.86500E+01 4.22060E+01 0.00000E+00
 -1       513 9.16500E+01 4.22060E+01 0.00000E+00
 -1       514 9.46500E+01 4.22060E+01 0.00000E+00
 -1       515 9.76500E+01 4.22060E+01 0.00000E+00
 -1       516 1.00650E+02 4.22060E+01 0.00000E+00
 -1       517 1.03650E+02 4.22060E+01 0.00000E+00
 -1       518 1.06650E+02 4.22060E+01 0.00000E+00
 -1       519 1.09650E+02 4.22060E+01 0.00000E+00
 -1       520 1.12650E+02 4.22060E+01 0.00000E+00
 -1       521 1.15650E+02 4.22060E+01 0.00000E+00
 -1       522 1.18650E+02 4.22060E+01 0.00000E+00
 -1       523 1.21650E+02 4.22060E+01 0.00000E+00
 -1       524 1.24650E+02 4.22060E+01 0.00000E+00
 -1       525 1.27650E+02 4.22060E+01 0.00000E+00
 -1       526 1.30650E+02 4.22060E+01 0.00000E+00
 -1       527 1.33650E+02 4.22060E+01 0.00000E+00
 -1       528 1.36650E+02 4.22060E+01 0.00000E+00
 -1       529 1.39650E+02 4.22060E+01 0.00000E+00
 -1       530 4.60131E+01 2.18260E+01 0.00000E+00
 -1       531 1.90350E+01 6.60425E+00 0.00000E+00
 -1       532 2.20350E+01 6.60425E+00 0.00000E+00
 -1       533 2.50350E+01 6.60425E+00 0.00000E+00
 -1       534 2.80350E+01 6.60425E+00 0.00000E+00
 -1       535 3.10350E+01 6.60425E+00 0.00000E+00
 -1       536 3.40350E+01 6.60425E+00 0.00000E+00
 -1       537 3.70350E+01 6.60425E+00 0.00000E+00
 -1       538 4.00350E+01 6.60425E+00 0.00000E+00
 -1       539 4.30350E+01 6.60425E+00 0.00000E+00
 -1       540 4.60350E+01 6.60425E+00 0.00000E+00
 -1       541 4.90350E+01 6.60425E+00 0.00000E+00
 -1       542 5.20350E+01 6.60425E+00 0.00000E+00
 -1       543 5.50350E+01 6.60425E+00 0.00000E+00
 -1       544 5.80350E+01 6.60425E+00 0.00000E+00
 -1       545 6.10350E+01 6.60425E+00 0.00000E+00
 -1       546 6.40350E+01 6.60425E+00 0.00000E+00
 -1       547 6.70350E+01 6.60425E+00 0.00000E+00
 -1       548 7.00350E+01 6.60425E+00 0.00000E+00
 -1       549 7.30350E+01 6.60425E+00 0.00000E+00
 -1       550 7.60350E+01 6.60425E+00 0.00000E+00
 -1       551 7.90350E+01 6.60425E+00 0.00000E+00
 -1       552 8.20350E+01 6.60425E+00 0.00000E+00
 -1       553 8.50350E+01 6.60425E+00 0.00000E+00
 -1       554 8.80350E+01 6.60425E+00 0.00000E+00
 -1       555 9.10350E+01 6.60425E+00 0.00000E+00
 -1       556 9.40350E+01 6.60425E+00 0.00000E+00
 -1       557 9.70350E+01 6.60425E+00 0.00000E+00
 -1       558 1.00035E+02 6.60425E+00 0.00000E+00
 -1       559 1.03035E+02 6.60425E+00 0.00000E+00
 -1       560 1.06035E+02 6.60425E+00 0.00000E+00
 -1       561 1.09035E+02 6.60425E+00 0.00000E+00
 -1       562 1.12035E+02 6.60425E+00 0.00000E+00
 -1       563 1.15035E+02 6.60425E+00 0.00000E+00
 -1       564 1.18035E+02 6.60425E+00 0.00000E+00
 -1       565 1.21035E+02 6.60425E+00 0.00000E+00
 -1       566 1.24035E+02 6.60425E+00 0.00000E+00
 -1       567 1.27035E+02 6.60425E+00 0.00000E+00
 -1       568 1.30035E+02 6.60425E+00 0.00000E+00
 -1       569 1.33035E+02 6.60425E+00 0.00000E+00
 -1       570 1.36035E+02 6.60425E+00 0.00000E+00
 -1       571 1.39035E+02 6.60425E+00 0.00000E+00
 -1       572 1.42035E+02 6.60425E+00 0.00000E+00
 -1       573 1.42206E+02 1.61750E+01 0.00000E+00
 -1       574 1.42206E+02 1.91250E+01 0.00000E+00
 -1       575 1.42206E+02 1.03250E+01 0.00000E+00
 -1       576 1.42206E+02 1.32500E+01 0.00000E+00
 -1       577 1.42206E+02 2.20750E+01 0.00000E+00
 -1       578 1.42206E+02 2.50250E+01 0.00000E+00
 -1       579 1.42206E+02 2.79750E+01 0.00000E+00
 -1       580 1.42206E+02 3.08750E+01 0.00000E+00
 -1       581 1.42206E+02 3.38250E+01 0.00000E+00
 -1       582 1.42206E+02 3.67750E+01 0.00000E+00
 -1       583 1.42206E+02 3.97250E+01 0.00000E+00
 -1       584 4.30605E+01 1.76742E+01 0.00000E+00
 -1       585 1.60350E+01 6.60425E+00 0.00000E+00
 -1       586 4.67219E+01 2.42076E+01 0.00000E+00
 -1       587 4.45725E+01 3.07525E+01 0.00000E+00
 -1       588 7.92300E+00 4.16780E+01 0.00000E+00
 -1       589 2.40972E+01 2.23806E+01 0.00000E+00
 -1       590 3.72808E+01 1.43330E+01 0.00000E+00
 -1       591 7.79400E+00 2.79000E+01 0.00000E+00
 -1       592 3.43900E+01 1.41216E+01 0.00000E+00
 -1       593 2.72587E+01 1.63164E+01 0.00000E+00
 -1       594 3.21852E+01 1.46003E+01 0.00000E+00
 -1       595 2.45854E+01 2.94428E+01 0.00000E+00
 -1       596 2.99822E+01 1.52217E+01 0.00000E+00
 -1       597 2.60367E+01 1.85126E+01 0.00000E+00
 -1       598 2.50275E+01 2.00239E+01 0.00000E+00
 -1       599 2.35387E+01 2.49122E+01 0.00000E+00
 -1       600 2.36821E+01 2.69634E+01 0.00000E+00
 -1       601 2.58736E+01 3.14244E+01 0.00000E+00
 -1       602 2.73266E+01 3.31122E+01 0.00000E+00
 -1       603 2.87730E+01 3.46444E+01 0.00000E+00
 -1       604 3.11400E+01 3.59106E+01 0.00000E+00
 -1       605 3.35106E+01 3.61706E+01 0.00000E+00
 -1       606 3.53606E+01 3.63290E+01 0.00000E+00
 -1       607 4.03674E+01 3.51984E+01 0.00000E+00
 -1       608 4.17761E+01 3.40409E+01 0.00000E+00
 -1       609 4.33779E+01 3.24255E+01 0.00000E+00
 -1       610 7.61550E+00 6.21462E+00 0.00000E+00
 -1       611 4.15258E+01 1.63780E+01 0.00000E+00
 -1       612 3.57891E+01 1.30298E+01 0.00000E+00
 -1       613 7.79400E+00 3.67375E+01 0.00000E+00
 -1       614 4.62472E+01 2.02703E+01 0.00000E+00
 -1       615 4.66512E+01 2.64193E+01 0.00000E+00
 -1       616 4.58027E+01 2.94389E+01 0.00000E+00
 -1       617 1.41678E+02 4.22645E+01 0.00000E+00
 -1       618 3.68221E+01 3.70824E+01 0.00000E+00
 -1       619 4.62269E+01 2.79291E+01 0.00000E+00
 -1       620 1.03920E+01 2.05500E+01 0.00000E+00
 -1       621 1.03920E+01 2.35000E+01 0.00000E+00
 -1       622 1.03920E+01 1.46750E+01 0.00000E+00
 -1       623 1.03920E+01 1.17250E+01 0.00000E+00
 -1       624 1.15350E+01 9.20225E+00 0.00000E+00
 -1       625 4.81719E+01 2.24798E+01 0.00000E+00
 -1       626 1.45350E+01 9.20225E+00 0.00000E+00
 -1       627 2.21431E+01 2.32769E+01 0.00000E+00
 -1       628 1.51500E+01 3.96080E+01 0.00000E+00
 -1       629 1.81500E+01 3.96080E+01 0.00000E+00
 -1       630 2.11500E+01 3.96080E+01 0.00000E+00
 -1       631 2.41500E+01 3.96080E+01 0.00000E+00
 -1       632 2.71500E+01 3.96080E+01 0.00000E+00
 -1       633 3.01500E+01 3.96080E+01 0.00000E+00
 -1       634 3.31500E+01 3.96080E+01 0.00000E+00
 -1       635 3.91500E+01 3.96080E+01 0.00000E+00
 -1       636 4.21500E+01 3.96080E+01 0.00000E+00
 -1       637 4.51500E+01 3.96080E+01 0.00000E+00
 -1       638 4.81500E+01 3.96080E+01 0.00000E+00
 -1       639 5.11500E+01 3.96080E+01 0.00000E+00
 -1       640 5.41500E+01 3.96080E+01 0.00000E+00
 -1       641 5.71500E+01 3.96080E+01 0.00000E+00
 -1       642 6.01500E+01 3.96080E+01 0.00000E+00
 -1       643 6.31500E+01 3.96080E+01 0.00000E+00
 -1       644 6.61500E+01 3.96080E+01 0.00000E+00
 -1       645 6.91500E+01 3.96080E+01 0.00000E+00
 -1       646 7.21500E+01 3.96080E+01 0.00000E+00
 -1       647 7.51500E+01 3.96080E+01 0.00000E+00
 -1       648 7.81500E+01 3.96080E+01 0.00000E+00
 -1       649 8.11500E+01 3.96080E+01 0.00000E+00
 -1       650 8.41500E+01 3.96080E+01 0.00000E+00
 -1       651 8.71500E+01 3.96080E+01 0.00000E+00
 -1       652 9.01500E+01 3.96080E+01 0.00000E+00
 -1       653 9.31500E+01 3.96080E+01 0.00000E+00
 -1       654 9.61500E+01 3.96080E+01 0.00000E+00
 -1       655 9.91500E+01 3.96080E+01 0.00000E+00
 -1       656 1.02150E+02 3.96080E+01 0.00000E+00
 -1       657 1.05150E+02 3.96080E+01 0.00000E+00
 -1       658 1.08150E+02 3.96080E+01 0.00000E+00
 -1       659 1.11150E+02 3.96080E+01 0.00000E+00
 -1       660 1.14150E+02 3.96080E+01 0.00000E+00
 -1       661 1.17150E+02 3.96080E+01 0.00000E+00
 -1       662 1.20150E+02 3.96080E+01 0.00000E+00
 -1       663 1.23150E+02 3.96080E+01 0.00000E+00
 -1       664 1.26150E+02 3.96080E+01 0.00000E+00
 -1       665 1.29150E+02 3.96080E+01 0.00000E+00
 -1       666 1.32150E+02 3.96080E+01 0.00000E+00
 -1       667 1.35150E+02 3.96080E+01 0.00000E+00
 -1       668 1.38150E+02 3.96080E+01 0.00000E+00
 -1       669 4.85683E+01 2.53736E+01 0.00000E+00
 -1       670 4.40329E+01 3.46768E+01 0.00000E+00
 -1       671 1.40178E+02 3.96665E+01 0.00000E+00
 -1       672 2.05350E+01 9.20225E+00 0.00000E+00
 -1       673 2.95350E+01 9.20225E+00 0.00000E+00
 -1       674 3.25350E+01 9.20225E+00 0.00000E+00
 -1       675 3.55350E+01 9.20225E+00 0.00000E+00
 -1       676 3.85350E+01 9.20225E+00 0.00000E+00
 -1       677 4.15350E+01 9.20225E+00 0.00000E+00
 -1       678 4.45350E+01 9.20225E+00 0.00000E+00
 -1       679 4.75350E+01 9.20225E+00 0.00000E+00
 -1       680 5.05350E+01 9.20225E+00 0.00000E+00
 -1       681 5.35350E+01 9.20225E+00 0.00000E+00
 -1       682 5.65350E+01 9.20225E+00 0.00000E+00
 -1       683 5.95350E+01 9.20225E+00 0.00000E+00
 -1       684 6.25350E+01 9.20225E+00 0.00000E+00
 -1       685 6.55350E+01 9.20225E+00 0.00000E+00
 -1       686 6.85350E+01 9.20225E+00 0.00000E+00
 -1       687 7.15350E+01 9.20225E+00 0.00000E+00
 -1       688 7.45350E+01 9.20225E+00 0.00000E+00
 -1       689 7.75350E+01 9.20225E+00 0.00000E+00
 -1       690 8.05350E+01 9.20225E+00 0.00000E+00
 -1       691 8.35350E+01 9.20225E+00 0.00000E+00
 -1       692 8.65350E+01 9.20225E+00 0.00000E+00
 -1       693 8.95350E+01 9.20225E+00 0.00000E+00
 -1       694 9.25350E+01 9.20225E+00 0.00000E+00
 -1       695 9.55350E+01 9.20225E+00 0.00000E+00
 -1       696 9.85350E+01 9.20225E+00 0.00000E+00
 -1       697 1.01535E+02 9.20225E+00 0.00000E+00
 -1       698 1.04535E+02 9.20225E+00 0.00000E+00
 -1       699 1.07535E+02 9.20225E+00 0.00000E+00
 -1       700 1.10535E+02 9.20225E+00 0.00000E+00
 -1       701 1.13535E+02 9.20225E+00 0.00000E+00
 -1       702 1.16535E+02 9.20225E+00 0.00000E+00
 -1       703 1.19535E+02 9.20225E+00 0.00000E+00
 -1       704 1.22535E+02 9.20225E+00 0.00000E+00
 -1       705 1.25535E+02 9.20225E+00 0.00000E+00
 -1       706 1.28535E+02 9.20225E+00 0.00000E+00
 -1       707 1.31535E+02 9.20225E+00 0.00000E+00
 -1       708 1.34535E+02 9.20225E+00 0.00000E+00
 -1       709 1.37535E+02 9.20225E+00 0.00000E+00
 -1       710 1.39870E+02 9.76363E+00 0.00000E+00
 -1       711 4.64395E+01 3.12681E+01 0.00000E+00
 -1       712 1.39608E+02 2.35500E+01 0.00000E+00
 -1       713 1.39608E+02 1.76500E+01 0.00000E+00
 -1       714 1.39608E+02 2.65000E+01 0.00000E+00
 -1       715 1.39608E+02 2.06000E+01 0.00000E+00
 -1       716 1.39608E+02 2.94000E+01 0.00000E+00
 -1       717 1.39608E+02 3.23500E+01 0.00000E+00
 -1       718 1.39608E+02 3.53000E+01 0.00000E+00
 -1       719 1.75350E+01 9.20225E+00 0.00000E+00
 -1       720 9.78035E+00 3.93914E+01 0.00000E+00
 -1       721 3.21017E+01 3.80786E+01 0.00000E+00
 -1       722 3.89859E+01 1.32615E+01 0.00000E+00
 -1       723 2.65350E+01 9.20225E+00 0.00000E+00
 -1       724 2.35350E+01 9.20225E+00 0.00000E+00
 -1       725 1.24652E+01 3.94997E+01 0.00000E+00
 -1       726 2.78558E+01 1.38667E+01 0.00000E+00
 -1       727 3.29237E+01 1.26849E+01 0.00000E+00
 -1       728 1.03920E+01 1.76125E+01 0.00000E+00
 -1       729 1.03920E+01 3.23250E+01 0.00000E+00
 -1       730 2.38617E+01 3.13227E+01 0.00000E+00
 -1       731 2.28112E+01 2.05110E+01 0.00000E+00
 -1       732 2.53638E+01 3.33327E+01 0.00000E+00
 -1       733 3.05271E+01 1.29377E+01 0.00000E+00
 -1       734 4.54913E+01 1.78108E+01 0.00000E+00
 -1       735 2.41058E+01 1.83158E+01 0.00000E+00
 -1       736 2.53278E+01 1.61195E+01 0.00000E+00
 -1       737 2.17323E+01 2.60691E+01 0.00000E+00
 -1       738 4.52449E+01 3.29410E+01 0.00000E+00
 -1       739 4.35079E+01 1.55877E+01 0.00000E+00
 -1       740 2.22073E+01 2.89049E+01 0.00000E+00
 -1       741 2.66808E+01 3.51706E+01 0.00000E+00
 -1       742 2.91475E+01 3.67898E+01 0.00000E+00
 -1       743 3.44619E+01 3.75805E+01 0.00000E+00
 -1       744 3.95493E+01 3.73277E+01 0.00000E+00
 -1       745 4.26242E+01 3.58343E+01 0.00000E+00
 -1       746 4.13374E+01 1.43729E+01 0.00000E+00
 -1       747 1.03920E+01 3.52625E+01 0.00000E+00
 -1       748 1.03920E+01 2.64500E+01 0.00000E+00
 -1       749 4.87521E+01 2.79905E+01 0.00000E+00
 -1       750 3.61500E+01 3.96080E+01 0.00000E+00
 -1       751 4.78991E+01 2.97345E+01 0.00000E+00
 -1       752 1.39870E+02 1.26886E+01 0.00000E+00
 -1       753 4.84061E+01 2.09240E+01 0.00000E+00
 -1       754 1.38879E+02 3.74540E+01 0.00000E+00
 -1       755 3.74943E+01 1.19583E+01 0.00000E+00
 -1       756 1.39739E+02 1.51693E+01 0.00000E+00
 -1       757 1.03920E+01 2.93875E+01 0.00000E+00
 -1       758 2.59248E+01 1.36699E+01 0.00000E+00
 -1       759 1.29900E+01 1.32000E+01 0.00000E+00
 -1       760 2.66051E+01 3.79744E+01 0.00000E+00
 -1       761 5.05382E+01 2.65502E+01 0.00000E+00
 -1       762 1.96500E+01 3.70100E+01 0.00000E+00
 -1       763 2.26500E+01 3.70100E+01 0.00000E+00
 -1       764 4.36500E+01 3.70550E+01 0.00000E+00
 -1       765 4.66500E+01 3.70550E+01 0.00000E+00
 -1       766 4.96500E+01 3.70550E+01 0.00000E+00
 -1       767 5.26500E+01 3.70550E+01 0.00000E+00
 -1       768 5.56500E+01 3.70550E+01 0.00000E+00
 -1       769 5.86500E+01 3.70550E+01 0.00000E+00
 -1       770 6.16500E+01 3.70550E+01 0.00000E+00
 -1       771 6.46500E+01 3.70550E+01 0.00000E+00
 -1       772 6.76500E+01 3.70550E+01 0.00000E+00
 -1       773 7.06500E+01 3.70550E+01 0.00000E+00
 -1       774 7.36500E+01 3.70550E+01 0.00000E+00
 -1       775 7.66500E+01 3.70550E+01 0.00000E+00
 -1       776 7.96500E+01 3.70550E+01 0.00000E+00
 -1       777 8.26500E+01 3.70550E+01 0.00000E+00
 -1       778 8.56500E+01 3.70550E+01 0.00000E+00
 -1       779 8.86500E+01 3.70550E+01 0.00000E+00
 -1       780 9.16500E+01 3.70550E+01 0.00000E+00
 -1       781 9.46500E+01 3.70550E+01 0.00000E+00
 -1       782 9.76500E+01 3.70550E+01 0.00000E+00
 -1       783 1.00650E+02 3.70550E+01 0.00000E+00
 -1       784 1.03650E+02 3.70550E+01 0.00000E+00
 -1       785 1.06650E+02 3.70550E+01 0.00000E+00
 -1       786 1.09650E+02 3.70550E+01 0.00000E+00
 -1       787 1.12650E+02 3.70550E+01 0.00000E+00
 -1       788 1.15650E+02 3.70550E+01 0.00000E+00
 -1       789 1.18650E+02 3.70550E+01 0.00000E+00
 -1       790 1.21650E+02 3.70550E+01 0.00000E+00
 -1       791 1.24650E+02 3.70550E+01 0.00000E+00
 -1       792 1.27650E+02 3.70550E+01 0.00000E+00
 -1       793 1.30650E+02 3.70550E+01 0.00000E+00
 -1       794 1.33650E+02 3.70550E+01 0.00000E+00
 -1       795 1.36264E+02 3.72545E+01 0.00000E+00
 -1       796 1.99093E+01 2.43746E+01 0.00000E+00
 -1       797 4.85330E+01 3.17993E+01 0.00000E+00
 -1       798 4.00350E+01 1.15876E+01 0.00000E+00
 -1       799 4.30350E+01 1.15876E+01 0.00000E+00
 -1       800 4.60350E+01 1.15876E+01 0.00000E+00
 -1       801 4.90350E+01 1.15876E+01 0.00000E+00
 -1       802 5.20350E+01 1.15876E+01 0.00000E+00
 -1       803 5.50350E+01 1.15876E+01 0.00000E+00
 -1       804 5.80350E+01 1.15876E+01 0.00000E+00
 -1       805 6.10350E+01 1.15876E+01 0.00000E+00
 -1       806 6.40350E+01 1.15876E+01 0.00000E+00
 -1       807 6.70350E+01 1.15876E+01 0.00000E+00
 -1       808 7.00350E+01 1.15876E+01 0.00000E+00
 -1       809 7.30350E+01 1.15876E+01 0.00000E+00
 -1       810 7.60350E+01 1.15876E+01 0.00000E+00
 -1       811 7.90350E+01 1.15876E+01 0.00000E+00
 -1       812 8.20350E+01 1.15876E+01 0.00000E+00
 -1       813 8.50350E+01 1.15876E+01 0.00000E+00
 -1       814 8.80350E+01 1.15876E+01 0.00000E+00
 -1       815 9.10350E+01 1.15876E+01 0.00000E+00
 -1       816 9.40350E+01 1.15876E+01 0.00000E+00
 -1       817 9.70350E+01 1.15876E+01 0.00000E+00
 -1       818 1.00035E+02 1.15876E+01 0.00000E+00
 -1       819 1.03035E+02 1.15876E+01 0.00000E+00
 -1       820 1.06035E+02 1.15876E+01 0.00000E+00
 -1       821 1.09035E+02 1.15876E+01 0.00000E+00
 -1       822 1.12035E+02 1.15876E+01 0.00000E+00
 -1       823 1.15035E+02 1.15876E+01 0.00000E+00
 -1       824 1.18035E+02 1.15876E+01 0.00000E+00
 -1       825 1.21035E+02 1.15876E+01 0.00000E+00
 -1       826 1.24035E+02 1.15876E+01 0.00000E+00
 -1       827 1.27035E+02 1.15876E+01 0.00000E+00
 -1       828 1.30035E+02 1.15876E+01 0.00000E+00
 -1       829 1.33035E+02 1.15876E+01 0.00000E+00
 -1       830 1.36035E+02 1.15876E+01 0.00000E+00
 -1       831 1.37953E+02 1.21381E+01 0.00000E+00
 -1       832 1.37010E+02 2.79500E+01 0.00000E+00
 -1       833 1.37010E+02 2.50000E+01 0.00000E+00
 -1       834 1.37625E+01 1.12011E+01 0.00000E+00
 -1       835 5.04014E+01 2.36485E+01 0.00000E+00
 -1       836 1.29900E+01 2.20250E+01 0.00000E+00
 -1       837 4.73384E+01 3.34722E+01 0.00000E+00
 -1       838 2.27788E+01 1.61394E+01 0.00000E+00
 -1       839 2.14841E+01 1.83345E+01 0.00000E+00
 -1       840 4.76501E+01 1.84646E+01 0.00000E+00
 -1       841 1.37010E+02 3.09000E+01 0.00000E+00
 -1       842 1.37010E+02 3.38500E+01 0.00000E+00
 -1       843 4.34241E+01 1.31912E+01 0.00000E+00
 -1       844 1.66500E+01 3.70100E+01 0.00000E+00
 -1       845 2.04842E+01 2.14126E+01 0.00000E+00
 -1       846 4.61545E+01 1.52228E+01 0.00000E+00
 -1       847 2.20350E+01 1.18003E+01 0.00000E+00
 -1       848 1.97825E+01 2.78534E+01 0.00000E+00
 -1       849 2.16191E+01 3.10824E+01 0.00000E+00
 -1       850 2.44919E+01 3.53482E+01 0.00000E+00
 -1       851 2.29898E+01 3.33382E+01 0.00000E+00
 -1       852 5.03179E+01 2.98370E+01 0.00000E+00
 -1       853 1.29900E+01 2.49750E+01 0.00000E+00
 -1       854 1.67625E+01 1.12011E+01 0.00000E+00
 -1       855 1.29900E+01 1.61375E+01 0.00000E+00
 -1       856 5.06355E+01 2.20927E+01 0.00000E+00
 -1       857 1.37010E+02 1.91250E+01 0.00000E+00
 -1       858 1.29900E+01 3.08563E+01 0.00000E+00
 -1       859 1.37010E+02 2.20625E+01 0.00000E+00
 -1       860 1.29900E+01 1.90875E+01 0.00000E+00
 -1       861 1.93988E+01 1.15007E+01 0.00000E+00
 -1       862 1.39652E+01 3.69017E+01 0.00000E+00
 -1       863 4.83134E+01 1.58766E+01 0.00000E+00
 -1       864 1.37141E+02 1.66443E+01 0.00000E+00
 -1       865 1.29900E+01 3.37938E+01 0.00000E+00
 -1       866 4.74474E+01 3.49980E+01 0.00000E+00
 -1       867 1.91942E+01 3.00309E+01 0.00000E+00
 -1       868 1.36637E+02 3.55523E+01 0.00000E+00
 -1       869 2.11479E+01 3.50001E+01 0.00000E+00
 -1       870 5.11500E+01 3.44570E+01 0.00000E+00
 -1       871 5.41500E+01 3.44570E+01 0.00000E+00
 -1       872 5.71500E+01 3.44570E+01 0.00000E+00
 -1       873 6.01500E+01 3.44570E+01 0.00000E+00
 -1       874 6.31500E+01 3.44570E+01 0.00000E+00
 -1       875 6.61500E+01 3.44570E+01 0.00000E+00
 -1       876 6.91500E+01 3.44570E+01 0.00000E+00
 -1       877 7.21500E+01 3.44570E+01 0.00000E+00
 -1       878 7.51500E+01 3.44570E+01 0.00000E+00
 -1       879 7.81500E+01 3.44570E+01 0.00000E+00
 -1       880 8.11500E+01 3.44570E+01 0.00000E+00
 -1       881 8.41500E+01 3.44570E+01 0.00000E+00
 -1       882 8.71500E+01 3.44570E+01 0.00000E+00
 -1       883 9.01500E+01 3.44570E+01 0.00000E+00
 -1       884 9.31500E+01 3.44570E+01 0.00000E+00
 -1       885 9.61500E+01 3.44570E+01 0.00000E+00
 -1       886 9.91500E+01 3.44570E+01 0.00000E+00
 -1       887 1.02150E+02 3.44570E+01 0.00000E+00
 -1       888 1.05150E+02 3.44570E+01 0.00000E+00
 -1       889 1.08150E+02 3.44570E+01 0.00000E+00
 -1       890 1.11150E+02 3.44570E+01 0.00000E+00
 -1       891 1.14150E+02 3.44570E+01 0.00000E+00
 -1       892 1.17150E+02 3.44570E+01 0.00000E+00
 -1       893 1.20150E+02 3.44570E+01 0.00000E+00
 -1       894 1.23150E+02 3.44570E+01 0.00000E+00
 -1       895 1.26150E+02 3.44570E+01 0.00000E+00
 -1       896 1.29150E+02 3.44570E+01 0.00000E+00
 -1       897 1.32150E+02 3.44570E+01 0.00000E+00
 -1       898 1.29900E+01 2.79188E+01 0.00000E+00
 -1       899 2.40360E+01 1.39117E+01 0.00000E+00
 -1       900 5.05350E+01 1.41856E+01 0.00000E+00
 -1       901 5.35350E+01 1.41856E+01 0.00000E+00
 -1       902 5.65350E+01 1.41856E+01 0.00000E+00
 -1       903 5.95350E+01 1.41856E+01 0.00000E+00
 -1       904 6.25350E+01 1.41856E+01 0.00000E+00
 -1       905 6.55350E+01 1.41856E+01 0.00000E+00
 -1       906 6.85350E+01 1.41856E+01 0.00000E+00
 -1       907 7.15350E+01 1.41856E+01 0.00000E+00
 -1       908 7.45350E+01 1.41856E+01 0.00000E+00
 -1       909 7.75350E+01 1.41856E+01 0.00000E+00
 -1       910 8.05350E+01 1.41856E+01 0.00000E+00
 -1       911 8.35350E+01 1.41856E+01 0.00000E+00
 -1       912 8.65350E+01 1.41856E+01 0.00000E+00
 -1       913 8.95350E+01 1.41856E+01 0.00000E+00
 -1       914 9.25350E+01 1.41856E+01 0.00000E+00
 -1       915 9.55350E+01 1.41856E+01 0.00000E+00
 -1       916 9.85350E+01 1.41856E+01 0.00000E+00
 -1       917 1.01535E+02 1.41856E+01 0.00000E+00
 -1       918 1.04535E+02 1.41856E+01 0.00000E+00
 -1       919 1.07535E+02 1.41856E+01 0.00000E+00
 -1       920 1.10535E+02 1.41856E+01 0.00000E+00
 -1       921 1.13535E+02 1.41856E+01 0.00000E+00
 -1       922 1.16535E+02 1.41856E+01 0.00000E+00
 -1       923 1.19535E+02 1.41856E+01 0.00000E+00
 -1       924 1.22535E+02 1.41856E+01 0.00000E+00
 -1       925 1.25535E+02 1.41856E+01 0.00000E+00
 -1       926 1.28535E+02 1.41856E+01 0.00000E+00
 -1       927 1.31535E+02 1.41856E+01 0.00000E+00
 -1       928 1.34535E+02 1.41856E+01 0.00000E+00
 -1       929 1.34412E+02 3.23750E+01 0.00000E+00
 -1       930 1.34412E+02 2.64750E+01 0.00000E+00
 -1       931 1.59900E+01 1.32000E+01 0.00000E+00
 -1       932 2.02211E+01 1.61103E+01 0.00000E+00
 -1       933 5.26852E+01 2.49948E+01 0.00000E+00
 -1       934 5.03082E+01 1.89934E+01 0.00000E+00
 -1       935 1.34412E+02 2.94250E+01 0.00000E+00
 -1       936 1.81500E+01 3.44120E+01 0.00000E+00
 -1       937 2.01711E+01 3.25155E+01 0.00000E+00
 -1       938 1.81840E+01 2.25029E+01 0.00000E+00
 -1       939 1.72496E+01 2.60194E+01 0.00000E+00
 -1       940 1.90342E+01 1.92401E+01 0.00000E+00
 -1       941 1.37547E+02 1.43912E+01 0.00000E+00
 -1       942 5.26409E+01 2.83419E+01 0.00000E+00
 -1       943 5.29193E+01 2.34390E+01 0.00000E+00
 -1       944 1.55880E+01 3.23250E+01 0.00000E+00
 -1       945 1.34412E+02 2.35375E+01 0.00000E+00
 -1       946 1.34394E+02 3.50046E+01 0.00000E+00
 -1       947 2.14759E+01 1.39355E+01 0.00000E+00
 -1       948 1.55880E+01 2.05562E+01 0.00000E+00
 -1       949 1.34412E+02 2.06000E+01 0.00000E+00
 -1       950 1.55880E+01 2.93875E+01 0.00000E+00
 -1       951 1.34543E+02 1.81193E+01 0.00000E+00
 -1       952 5.22339E+01 3.21470E+01 0.00000E+00
 -1       953 5.56500E+01 3.18590E+01 0.00000E+00
 -1       954 5.86500E+01 3.18590E+01 0.00000E+00
 -1       955 6.16500E+01 3.18590E+01 0.00000E+00
 -1       956 6.46500E+01 3.18590E+01 0.00000E+00
 -1       957 6.76500E+01 3.18590E+01 0.00000E+00
 -1       958 7.06500E+01 3.18590E+01 0.00000E+00
 -1       959 7.36500E+01 3.18590E+01 0.00000E+00
 -1       960 7.66500E+01 3.18590E+01 0.00000E+00
 -1       961 7.96500E+01 3.18590E+01 0.00000E+00
 -1       962 8.26500E+01 3.18590E+01 0.00000E+00
 -1       963 8.56500E+01 3.18590E+01 0.00000E+00
 -1       964 8.86500E+01 3.18590E+01 0.00000E+00
 -1       965 9.16500E+01 3.18590E+01 0.00000E+00
 -1       966 9.46500E+01 3.18590E+01 0.00000E+00
 -1       967 9.76500E+01 3.18590E+01 0.00000E+00
 -1       968 1.00650E+02 3.18590E+01 0.00000E+00
 -1       969 1.03650E+02 3.18590E+01 0.00000E+00
 -1       970 1.06650E+02 3.18590E+01 0.00000E+00
 -1       971 1.09650E+02 3.18590E+01 0.00000E+00
 -1       972 1.12650E+02 3.18590E+01 0.00000E+00
 -1       973 1.15650E+02 3.18590E+01 0.00000E+00
 -1       974 1.18650E+02 3.18590E+01 0.00000E+00
 -1       975 1.21650E+02 3.18590E+01 0.00000E+00
 -1       976 1.24650E+02 3.18590E+01 0.00000E+00
 -1       977 1.27650E+02 3.18590E+01 0.00000E+00
 -1       978 1.30650E+02 3.18590E+01 0.00000E+00
 -1       979 5.50350E+01 1.67836E+01 0.00000E+00
 -1       980 1.73973E+01 1.68294E+01 0.00000E+00
 -1       981 5.20350E+01 1.67836E+01 0.00000E+00
 -1       982 6.10350E+01 1.67836E+01 0.00000E+00
 -1       983 6.40350E+01 1.67836E+01 0.00000E+00
 -1       984 6.70350E+01 1.67836E+01 0.00000E+00
 -1       985 7.00350E+01 1.67836E+01 0.00000E+00
 -1       986 7.30350E+01 1.67836E+01 0.00000E+00
 -1       987 7.60350E+01 1.67836E+01 0.00000E+00
 -1       988 7.90350E+01 1.67836E+01 0.00000E+00
 -1       989 8.20350E+01 1.67836E+01 0.00000E+00
 -1       990 8.50350E+01 1.67836E+01 0.00000E+00
 -1       991 8.80350E+01 1.67836E+01 0.00000E+00
 -1       992 9.10350E+01 1.67836E+01 0.00000E+00
 -1       993 9.40350E+01 1.67836E+01 0.00000E+00
 -1       994 9.70350E+01 1.67836E+01 0.00000E+00
 -1       995 1.00035E+02 1.67836E+01 0.00000E+00
 -1       996 1.03035E+02 1.67836E+01 0.00000E+00
 -1       997 1.06035E+02 1.67836E+01 0.00000E+00
 -1       998 1.09035E+02 1.67836E+01 0.00000E+00
 -1       999 1.12035E+02 1.67836E+01 0.00000E+00
 -1      1000 1.15035E+02 1.67836E+01 0.00000E+00
 -1      1001 1.18035E+02 1.67836E+01 0.00000E+00
 -1      1002 1.21035E+02 1.67836E+01 0.00000E+00
 -1      1003 1.24035E+02 1.67836E+01 0.00000E+00
 -1      1004 1.27035E+02 1.67836E+01 0.00000E+00
 -1      1005 1.30035E+02 1.67836E+01 0.00000E+00
 -1      1006 1.54114E+01 2.36485E+01 0.00000E+00
 -1      1007 5.28441E+01 2.02925E+01 0.00000E+00
 -1      1008 1.84918E+01 1.36557E+01 0.00000E+00
 -1      1009 5.48093E+01 3.04981E+01 0.00000E+00
 -1      1010 5.48807E+01 2.66977E+01 0.00000E+00
 -1      1011 5.80350E+01 1.67836E+01 0.00000E+00
 -1      1012 1.31883E+02 1.92224E+01 0.00000E+00
 -1      1013 1.31814E+02 2.50063E+01 0.00000E+00
 -1      1014 1.33035E+02 1.67836E+01 0.00000E+00
 -1      1015 1.31849E+02 2.21143E+01 0.00000E+00
 -1      1016 1.31814E+02 2.79562E+01 0.00000E+00
 -1      1017 5.51148E+01 2.51419E+01 0.00000E+00
 -1      1018 6.01500E+01 2.92610E+01 0.00000E+00
 -1      1019 6.31500E+01 2.92610E+01 0.00000E+00
 -1      1020 6.61500E+01 2.92610E+01 0.00000E+00
 -1      1021 6.91500E+01 2.92610E+01 0.00000E+00
 -1      1022 7.21500E+01 2.92610E+01 0.00000E+00
 -1      1023 7.51500E+01 2.92610E+01 0.00000E+00
 -1      1024 7.81500E+01 2.92610E+01 0.00000E+00
 -1      1025 8.11500E+01 2.92610E+01 0.00000E+00
 -1      1026 8.41500E+01 2.92610E+01 0.00000E+00
 -1      1027 8.71500E+01 2.92610E+01 0.00000E+00
 -1      1028 9.01500E+01 2.92610E+01 0.00000E+00
 -1      1029 9.31500E+01 2.92610E+01 0.00000E+00
 -1      1030 9.61500E+01 2.92610E+01 0.00000E+00
 -1      1031 9.91500E+01 2.92610E+01 0.00000E+00
 -1      1032 1.02150E+02 2.92610E+01 0.00000E+00
 -1      1033 1.05150E+02 2.92610E+01 0.00000E+00
 -1      1034 1.08150E+02 2.92610E+01 0.00000E+00
 -1      1035 1.11150E+02 2.92610E+01 0.00000E+00
 -1      1036 1.14150E+02 2.92610E+01 0.00000E+00
 -1      1037 1.17150E+02 2.92610E+01 0.00000E+00
 -1      1038 1.20150E+02 2.92610E+01 0.00000E+00
 -1      1039 1.23150E+02 2.92610E+01 0.00000E+00
 -1      1040 1.26150E+02 2.92610E+01 0.00000E+00
 -1      1041 1.29150E+02 2.92610E+01 0.00000E+00
 -1      1042 6.85350E+01 1.93816E+01 0.00000E+00
 -1      1043 6.55350E+01 1.93816E+01 0.00000E+00
 -1      1044 6.25350E+01 1.93816E+01 0.00000E+00
 -1      1045 7.15350E+01 1.93816E+01 0.00000E+00
 -1      1046 7.45350E+01 1.93816E+01 0.00000E+00
 -1      1047 7.75350E+01 1.93816E+01 0.00000E+00
 -1      1048 8.05350E+01 1.93816E+01 0.00000E+00
 -1      1049 8.35350E+01 1.93816E+01 0.00000E+00
 -1      1050 8.65350E+01 1.93816E+01 0.00000E+00
 -1      1051 8.95350E+01 1.93816E+01 0.00000E+00
 -1      1052 9.25350E+01 1.93816E+01 0.00000E+00
 -1      1053 9.55350E+01 1.93816E+01 0.00000E+00
 -1      1054 9.85350E+01 1.93816E+01 0.00000E+00
 -1      1055 1.01535E+02 1.93816E+01 0.00000E+00
 -1      1056 1.04535E+02 1.93816E+01 0.00000E+00
 -1      1057 1.07535E+02 1.93816E+01 0.00000E+00
 -1      1058 1.10535E+02 1.93816E+01 0.00000E+00
 -1      1059 1.13535E+02 1.93816E+01 0.00000E+00
 -1      1060 1.16535E+02 1.93816E+01 0.00000E+00
 -1      1061 1.19535E+02 1.93816E+01 0.00000E+00
 -1      1062 1.22535E+02 1.93816E+01 0.00000E+00
 -1      1063 1.25535E+02 1.93816E+01 0.00000E+00
 -1      1064 1.28535E+02 1.93816E+01 0.00000E+00
 -1      1065 5.67653E+01 2.92784E+01 0.00000E+00
 -1      1066 5.58441E+01 2.02925E+01 0.00000E+00
 -1      1067 5.54794E+01 2.27172E+01 0.00000E+00
 -1      1068 5.95350E+01 1.93816E+01 0.00000E+00
 -1      1069 1.29234E+02 2.35292E+01 0.00000E+00
 -1      1070 5.79211E+01 2.64558E+01 0.00000E+00
 -1      1071 1.29192E+02 2.63951E+01 0.00000E+00
 -1      1072 5.91704E+01 2.18063E+01 0.00000E+00
 -1      1073 6.46500E+01 2.66630E+01 0.00000E+00
 -1      1074 6.76500E+01 2.66630E+01 0.00000E+00
 -1      1075 7.06500E+01 2.66630E+01 0.00000E+00
 -1      1076 7.36500E+01 2.66630E+01 0.00000E+00
 -1      1077 7.66500E+01 2.66630E+01 0.00000E+00
 -1      1078 7.96500E+01 2.66630E+01 0.00000E+00
 -1      1079 8.26500E+01 2.66630E+01 0.00000E+00
 -1      1080 8.56500E+01 2.66630E+01 0.00000E+00
 -1      1081 8.86500E+01 2.66630E+01 0.00000E+00
 -1      1082 9.16500E+01 2.66630E+01 0.00000E+00
 -1      1083 9.46500E+01 2.66630E+01 0.00000E+00
 -1      1084 9.76500E+01 2.66630E+01 0.00000E+00
 -1      1085 1.00650E+02 2.66630E+01 0.00000E+00
 -1      1086 1.03650E+02 2.66630E+01 0.00000E+00
 -1      1087 1.06650E+02 2.66630E+01 0.00000E+00
 -1      1088 1.09650E+02 2.66630E+01 0.00000E+00
 -1      1089 1.12650E+02 2.66630E+01 0.00000E+00
 -1      1090 1.15650E+02 2.66630E+01 0.00000E+00
 -1      1091 1.18650E+02 2.66630E+01 0.00000E+00
 -1      1092 1.21650E+02 2.66630E+01 0.00000E+00
 -1      1093 1.24650E+02 2.66630E+01 0.00000E+00
 -1      1094 1.26921E+02 2.65291E+01 0.00000E+00
 -1      1095 7.30350E+01 2.19796E+01 0.00000E+00
 -1      1096 7.00350E+01 2.19796E+01 0.00000E+00
 -1      1097 6.40350E+01 2.19796E+01 0.00000E+00
 -1      1098 7.60350E+01 2.19796E+01 0.00000E+00
 -1      1099 7.90350E+01 2.19796E+01 0.00000E+00
 -1      1100 8.20350E+01 2.19796E+01 0.00000E+00
 -1      1101 8.50350E+01 2.19796E+01 0.00000E+00
 -1      1102 8.80350E+01 2.19796E+01 0.00000E+00
 -1      1103 9.10350E+01 2.19796E+01 0.00000E+00
 -1      1104 9.40350E+01 2.19796E+01 0.00000E+00
 -1      1105 9.70350E+01 2.19796E+01 0.00000E+00
 -1      1106 1.00035E+02 2.19796E+01 0.00000E+00
 -1      1107 1.03035E+02 2.19796E+01 0.00000E+00
 -1      1108 1.06035E+02 2.19796E+01 0.00000E+00
 -1      1109 1.09035E+02 2.19796E+01 0.00000E+00
 -1      1110 1.12035E+02 2.19796E+01 0.00000E+00
 -1      1111 1.15035E+02 2.19796E+01 0.00000E+00
 -1      1112 1.18035E+02 2.19796E+01 0.00000E+00
 -1      1113 1.21035E+02 2.19796E+01 0.00000E+00
 -1      1114 1.24035E+02 2.19796E+01 0.00000E+00
 -1      1115 1.27035E+02 2.19796E+01 0.00000E+00
 -1      1116 6.16027E+01 2.18930E+01 0.00000E+00
 -1      1117 6.70350E+01 2.19796E+01 0.00000E+00
 -1      1118 6.16500E+01 2.66630E+01 0.00000E+00
 -1      1119 5.76196E+01 2.34460E+01 0.00000E+00
 -1      1120 1.26978E+02 2.42544E+01 0.00000E+00
 -1      1121 6.43425E+01 2.43213E+01 0.00000E+00
 -1      1122 6.91500E+01 2.40650E+01 0.00000E+00
 -1      1123 6.67462E+01 2.41932E+01 0.00000E+00
 -1      1124 0.00000E+00 4.85250E+01 0.00000E+00
 -1      1125 0.00000E+00 4.55750E+01 0.00000E+00
 -1      1126 0.00000E+00 4.26250E+01 0.00000E+00
 -1      1127 0.00000E+00 3.96750E+01 0.00000E+00
 -1      1128 0.00000E+00 3.67250E+01 0.00000E+00
 -1      1129 0.00000E+00 3.38000E+01 0.00000E+00
 -1      1130 0.00000E+00 3.08750E+01 0.00000E+00
 -1      1131 0.00000E+00 2.79250E+01 0.00000E+00
 -1      1132 0.00000E+00 2.49750E+01 0.00000E+00
 -1      1133 0.00000E+00 2.20250E+01 0.00000E+00
 -1      1134 0.00000E+00 1.90750E+01 0.00000E+00
 -1      1135 0.00000E+00 1.61500E+01 0.00000E+00
 -1      1136 0.00000E+00 1.32250E+01 0.00000E+00
 -1      1137 0.00000E+00 1.02750E+01 0.00000E+00
 -1      1138 0.00000E+00 7.32500E+00 0.00000E+00
 -1      1139 0.00000E+00 4.37500E+00 0.00000E+00
 -1      1140 0.00000E+00 1.45000E+00 0.00000E+00
 -1      1141 1.57500E+00 5.00000E+01 0.00000E+00
 -1      1142 4.65000E+00 5.00000E+01 0.00000E+00
 -1      1143 7.65000E+00 5.00000E+01 0.00000E+00
 -1      1144 1.06500E+01 5.00000E+01 0.00000E+00
 -1      1145 1.36500E+01 5.00000E+01 0.00000E+00
 -1      1146 1.66500E+01 5.00000E+01 0.00000E+00
 -1      1147 1.96500E+01 5.00000E+01 0.00000E+00
 -1      1148 2.26500E+01 5.00000E+01 0.00000E+00
 -1      1149 2.56500E+01 5.00000E+01 0.00000E+00
 -1      1150 2.86500E+01 5.00000E+01 0.00000E+00
 -1      1151 3.16500E+01 5.00000E+01 0.00000E+00
 -1      1152 3.46500E+01 5.00000E+01 0.00000E+00
 -1      1153 3.76500E+01 5.00000E+01 0.00000E+00
 -1      1154 4.06500E+01 5.00000E+01 0.00000E+00
 -1      1155 4.36500E+01 5.00000E+01 0.00000E+00
 -1      1156 4.66500E+01 5.00000E+01 0.00000E+00
 -1      1157 4.96500E+01 5.00000E+01 0.00000E+00
 -1      1158 5.26500E+01 5.00000E+01 0.00000E+00
 -1      1159 5.56500E+01 5.00000E+01 0.00000E+00
 -1      1160 5.86500E+01 5.00000E+01 0.00000E+00
 -1      1161 6.16500E+01 5.00000E+01 0.00000E+00
 -1      1162 6.46500E+01 5.00000E+01 0.00000E+00
 -1      1163 6.76500E+01 5.00000E+01 0.00000E+00
 -1      1164 7.06500E+01 5.00000E+01 0.00000E+00
 -1      1165 7.36500E+01 5.00000E+01 0.00000E+00
 -1      1166 7.66500E+01 5.00000E+01 0.00000E+00
 -1      1167 7.96500E+01 5.00000E+01 0.00000E+00
 -1      1168 8.26500E+01 5.00000E+01 0.00000E+00
 -1      1169 8.56500E+01 5.00000E+01 0.00000E+00
 -1      1170 8.86500E+01 5.00000E+01 0.00000E+00
 -1      1171 9.16500E+01 5.00000E+01 0.00000E+00
 -1      1172 9.46500E+01 5.00000E+01 0.00000E+00
 -1      1173 9.76500E+01 5.00000E+01 0.00000E+00
 -1      1174 1.00650E+02 5.00000E+01 0.00000E+00
 -1      1175 1.03650E+02 5.00000E+01 0.00000E+00
 -1      1176 1.06650E+02 5.00000E+01 0.00000E+00
 -1      1177 1.09650E+02 5.00000E+01 0.00000E+00
 -1      1178 1.12650E+02 5.00000E+01 0.00000E+00
 -1      1179 1.15650E+02 5.00000E+01 0.00000E+00
 -1      1180 1.18650E+02 5.00000E+01 0.00000E+00
 -1      1181 1.21650E+02 5.00000E+01 0.00000E+00
 -1      1182 1.24650E+02 5.00000E+01 0.00000E+00
 -1      1183 1.27650E+02 5.00000E+01 0.00000E+00
 -1      1184 1.30650E+02 5.00000E+01 0.00000E+00
 -1      1185 1.33650E+02 5.00000E+01 0.00000E+00
 -1      1186 1.36650E+02 5.00000E+01 0.00000E+00
 -1      1187 1.39650E+02 5.00000E+01 0.00000E+00
 -1      1188 1.42650E+02 5.00000E+01 0.00000E+00
 -1      1189 1.45650E+02 5.00000E+01 0.00000E+00
 -1      1190 1.48575E+02 5.00000E+01 0.00000E+00
 -1      1191 1.57500E+00 0.00000E+00 0.00000E+00
 -1      1192 4.65000E+00 0.00000E+00 0.00000E+00
 -1      1193 7.65000E+00 0.00000E+00 0.00000E+00
 -1      1194 1.06500E+01 0.00000E+00 0.00000E+00
 -1      1195 1.36500E+01 0.00000E+00 0.00000E+00
 -1      1196 1.66500E+01 0.00000E+00 0.00000E+00
 -1      1197 1.96500E+01 0.00000E+00 0.00000E+00
 -1      1198 2.26500E+01 0.00000E+00 0.00000E+00
 -1      1199 2.56500E+01 0.00000E+00 0.00000E+00
 -1      1200 2.86500E+01 0.00000E+00 0.00000E+00
 -1      1201 3.16500E+01 0.00000E+00 0.00000E+00
 -1      1202 3.46500E+01 0.00000E+00 0.00000E+00
 -1      1203 3.76500E+01 0.00000E+00 0.00000E+00
 -1      1204 4.06500E+01 0.00000E+00 0.00000E+00
 -1      1205 4.36500E+01 0.00000E+00 0.00000E+00
 -1      1206 4.66500E+01 0.00000E+00 0.00000E+00
 -1      1207 4.96500E+01 0.00000E+00 0.00000E+00
 -1      1208 5.26500E+01 0.00000E+00 0.00000E+00
 -1      1209 5.56500E+01 0.00000E+00 0.00000E+00
 -1      1210 5.86500E+01 0.00000E+00 0.00000E+00
 -1      1211 6.16500E+01 0.00000E+00 0.00000E+00
 -1      1212 6.46500E+01 0.00000E+00 0.00000E+00
 -1      1213 6.76500E+01 0.00000E+00 0.00000E+00
 -1      1214 7.06500E+01 0.00000E+00 0.00000E+00
 -1      1215 7.36500E+01 0.00000E+00 0.00000E+00
 -1      1216 7.66500E+01 0.00000E+00 0.00000E+00
 -1      1217 7.96500E+01 0.00000E+00 0.00000E+00
 -1      1218 8.26500E+01 0.00000E+00 0.00000E+00
 -1      1219 8.56500E+01 0.00000E+00 0.00000E+00
 -1      1220 8.86500E+01 0.00000E+00 0.00000E+00
 -1      1221 9.16500E+01 0.00000E+00 0.00000E+00
 -1      1222 9.46500E+01 0.00000E+00 0.00000E+00
 -1      1223 9.76500E+01 0.00000E+00 0.00000E+00
 -1      1224 1.00650E+02 0.00000E+00 0.00000E+00
 -1      1225 1.03650E+02 0.00000E+00 0.00000E+00
 -1      1226 1.06650E+02 0.00000E+00 0.00000E+00
 -1      1227 1.09650E+02 0.00000E+00 0.00000E+00
 -1      1228 1.12650E+02 0.00000E+00 0.00000E+00
 -1      1229 1.15650E+02 0.00000E+00 0.00000E+00
 -1      1230 1.18650E+02 0.00000E+00 0.00000E+00
 -1      1231 1.21650E+02 0.00000E+00 0.00000E+00
 -1      1232 1.24650E+02 0.00000E+00 0.00000E+00
 -1      1233 1.27650E+02 0.00000E+00 0.00000E+00
 -1      1234 1.30650E+02 0.00000E+00 0.00000E+00
 -1      1235 1.33650E+02 0.00000E+00 0.00000E+00
 -1      1236 1.36650E+02 0.00000E+00 0.00000E+00
 -1      1237 1.39650E+02 0.00000E+00 0.00000E+00
 -1      1238 1.42650E+02 0.00000E+00 0.00000E+00
 -1      1239 1.45650E+02 0.00000E+00 0.00000E+00
 -1      1240 1.48575E+02 0.00000E+00 0.00000E+00
 -1      1241 1.50000E+02 1.47500E+00 0.00000E+00
 -1      1242 1.50000E+02 4.42500E+00 0.00000E+00
 -1      1243 1.50000E+02 7.37500E+00 0.00000E+00
 -1      1244 1.50000E+02 1.03250E+01 0.00000E+00
 -1      1245 1.50000E+02 1.32750E+01 0.00000E+00
 -1      1246 1.50000E+02 1.62000E+01 0.00000E+00
 -1      1247 1.50000E+02 1.91250E+01 0.00000E+00
 -1      1248 1.50000E+02 2.20750E+01 0.00000E+00
 -1      1249 1.50000E+02 2.50250E+01 0.00000E+00
 -1      1250 1.50000E+02 2.79750E+01 0.00000E+00
 -1      1251 1.50000E+02 3.09250E+01 0.00000E+00
 -1      1252 1.50000E+02 3.38500E+01 0.00000E+00
 -1      1253 1.50000E+02 3.67750E+01 0.00000E+00
 -1      1254 1.50000E+02 3.97250E+01 0.00000E+00
 -1      1255 1.50000E+02 4.26750E+01 0.00000E+00
 -1      1256 1.50000E+02 4.56250E+01 0.00000E+00
 -1      1257 1.50000E+02 4.85500E+01 0.00000E+00
 -1      1258 4.18608E+01 2.45948E+01 0.00000E+00
 -1      1259 4.15468E+01 2.31646E+01 0.00000E+00
 -1      1260 4.09407E+01 2.18286E+01 0.00000E+00
 -1      1261 4.00661E+01 2.06447E+01 0.00000E+00
 -1      1262 3.89967E+01 1.96937E+01 0.00000E+00
 -1      1263 3.76974E+01 1.89541E+01 0.00000E+00
 -1      1264 3.62557E+01 1.85044E+01 0.00000E+00
 -1      1265 3.47163E+01 1.83752E+01 0.00000E+00
 -1      1266 3.32330E+01 1.85751E+01 0.00000E+00
 -1      1267 3.18145E+01 1.90914E+01 0.00000E+00
 -1      1268 3.04966E+01 1.99345E+01 0.00000E+00
 -1      1269 2.94661E+01 2.09649E+01 0.00000E+00
 -1      1270 2.86964E+01 2.21379E+01 0.00000E+00
 -1      1271 2.81506E+01 2.35316E+01 0.00000E+00
 -1      1272 2.79139E+01 2.50020E+01 0.00000E+00
 -1      1273 2.79805E+01 2.64041E+01 0.00000E+00
 -1      1274 2.83551E+01 2.78446E+01 0.00000E+00
 -1      1275 2.90559E+01 2.92195E+01 0.00000E+00
 -1      1276 3.00075E+01 3.03749E+01 0.00000E+00
 -1      1277 3.11813E+01 3.13006E+01 0.00000E+00
 -1      1278 3.25353E+01 3.19597E+01 0.00000E+00
 -1      1279 3.39426E+01 3.23063E+01 0.00000E+00
 -1      1280 3.53460E+01 3.23587E+01 0.00000E+00
 -1      1281 3.68526E+01 3.20960E+01 0.00000E+00
 -1      1282 3.82362E+01 3.15287E+01 0.00000E+00
 -1      1283 3.93533E+01 3.07768E+01 0.00000E+00
 -1      1284 4.02993E+01 2.98327E+01 0.00000E+00
 -1      1285 4.10752E+01 2.86768E+01 0.00000E+00
 -1      1286 4.16101E+01 2.73801E+01 0.00000E+00
 -1      1287 4.18709E+01 2.60536E+01 0.00000E+00
 -1      1288 1.57500E+00 4.85250E+01 0.00000E+00
 -1      1289 1.29900E+00 4.48375E+01 0.00000E+00
 -1      1290 1.29900E+00 4.63125E+01 0.00000E+00
 -1      1291 1.29900E+00 4.18875E+01 0.00000E+00
 -1      1292 1.29900E+00 4.33625E+01 0.00000E+00
 -1      1293 2.59800E+00 4.41000E+01 0.00000E+00
 -1      1294 1.29900E+00 3.89375E+01 0.00000E+00
 -1      1295 1.29900E+00 4.04125E+01 0.00000E+00
 -1      1296 2.59800E+00 4.11500E+01 0.00000E+00
 -1      1297 1.29900E+00 3.59875E+01 0.00000E+00
 -1      1298 1.29900E+00 3.74625E+01 0.00000E+00
 -1      1299 2.59800E+00 3.82000E+01 0.00000E+00
 -1      1300 1.29900E+00 3.30875E+01 0.00000E+00
 -1      1301 1.29900E+00 3.45375E+01 0.00000E+00
 -1      1302 2.59800E+00 3.52750E+01 0.00000E+00
 -1      1303 1.29900E+00 3.01375E+01 0.00000E+00
 -1      1304 1.29900E+00 3.16125E+01 0.00000E+00
 -1      1305 2.59800E+00 3.23500E+01 0.00000E+00
 -1      1306 1.29900E+00 2.71875E+01 0.00000E+00
 -1      1307 1.29900E+00 2.86625E+01 0.00000E+00
 -1      1308 2.59800E+00 2.94000E+01 0.00000E+00
 -1      1309 1.29900E+00 2.42375E+01 0.00000E+00
 -1      1310 1.29900E+00 2.57125E+01 0.00000E+00
 -1      1311 2.59800E+00 2.64500E+01 0.00000E+00
 -1      1312 1.29900E+00 2.12875E+01 0.00000E+00
 -1      1313 1.29900E+00 2.27625E+01 0.00000E+00
 -1      1314 2.59800E+00 2.35000E+01 0.00000E+00
 -1      1315 1.29900E+00 1.83375E+01 0.00000E+00
 -1      1316 1.29900E+00 1.98125E+01 0.00000E+00
 -1      1317 2.59800E+00 2.05500E+01 0.00000E+00
 -1      1318 1.29900E+00 1.54375E+01 0.00000E+00
 -1      1319 1.29900E+00 1.68875E+01 0.00000E+00
 -1      1320 2.59800E+00 1.76250E+01 0.00000E+00
 -1      1321 1.29900E+00 1.24875E+01 0.00000E+00
 -1      1322 1.29900E+00 1.39625E+01 0.00000E+00
 -1      1323 2.59800E+00 1.47000E+01 0.00000E+00
 -1      1324 1.29900E+00 9.53750E+00 0.00000E+00
 -1      1325 1.29900E+00 1.10125E+01 0.00000E+00
 -1      1326 2.59800E+00 1.17500E+01 0.00000E+00
 -1      1327 1.29900E+00 6.58750E+00 0.00000E+00
 -1      1328 1.29900E+00 8.06250E+00 0.00000E+00
 -1      1329 2.59800E+00 8.80000E+00 0.00000E+00
 -1      1330 1.29900E+00 3.63750E+00 0.00000E+00
 -1      1331 1.29900E+00 5.11250E+00 0.00000E+00
 -1      1332 2.59800E+00 5.85000E+00 0.00000E+00
 -1      1333 1.43700E+00 1.09375E+00 0.00000E+00
 -1      1334 1.43700E+00 2.54375E+00 0.00000E+00
 -1      1335 2.73600E+00 3.28125E+00 0.00000E+00
 -1      1336 3.01200E+00 1.09375E+00 0.00000E+00
 -1      1337 3.90000E+00 4.87010E+01 0.00000E+00
 -1      1338 5.40000E+00 4.87010E+01 0.00000E+00
 -1      1339 6.90000E+00 4.87010E+01 0.00000E+00
 -1      1340 8.40000E+00 4.87010E+01 0.00000E+00
 -1      1341 6.15000E+00 4.74020E+01 0.00000E+00
 -1      1342 9.90000E+00 4.87010E+01 0.00000E+00
 -1      1343 1.14000E+01 4.87010E+01 0.00000E+00
 -1      1344 9.15000E+00 4.74020E+01 0.00000E+00
 -1      1345 1.29000E+01 4.87010E+01 0.00000E+00
 -1      1346 1.44000E+01 4.87010E+01 0.00000E+00
 -1      1347 1.21500E+01 4.74020E+01 0.00000E+00
 -1      1348 1.59000E+01 4.87010E+01 0.00000E+00
 -1      1349 1.74000E+01 4.87010E+01 0.00000E+00
 -1      1350 1.51500E+01 4.74020E+01 0.00000E+00
 -1      1351 1.89000E+01 4.87010E+01 0.00000E+00
 -1      1352 2.04000E+01 4.87010E+01 0.00000E+00
 -1      1353 1.81500E+01 4.74020E+01 0.00000E+00
 -1      1354 2.19000E+01 4.87010E+01 0.00000E+00
 -1      1355 2.34000E+01 4.87010E+01 0.00000E+00
 -1      1356 2.11500E+01 4.74020E+01 0.00000E+00
 -1      1357 2.49000E+01 4.87010E+01 0.00000E+00
 -1      1358 2.64000E+01 4.87010E+01 0.00000E+00
 -1      1359 2.41500E+01 4.74020E+01 0.00000E+00
 -1      1360 2.79000E+01 4.87010E+01 0.00000E+00
 -1      1361 2.94000E+01 4.87010E+01 0.00000E+00
 -1      1362 2.71500E+01 4.74020E+01 0.00000E+00
 -1      1363 3.09000E+01 4.87010E+01 0.00000E+00
 -1      1364 3.24000E+01 4.87010E+01 0.00000E+00
 -1      1365 3.01500E+01 4.74020E+01 0.00000E+00
 -1      1366 3.39000E+01 4.87010E+01 0.00000E+00
 -1      1367 3.54000E+01 4.87010E+01 0.00000E+00
 -1      1368 3.31500E+01 4.74020E+01 0.00000E+00
 -1      1369 3.69000E+01 4.87010E+01 0.00000E+00
 -1      1370 3.84000E+01 4.87010E+01 0.00000E+00
 -1      1371 3.61500E+01 4.74020E+01 0.00000E+00
 -1      1372 3.99000E+01 4.87010E+01 0.00000E+00
 -1      1373 4.14000E+01 4.87010E+01 0.00000E+00
 -1      1374 3.91500E+01 4.74020E+01 0.00000E+00
 -1      1375 4.29000E+01 4.87010E+01 0.00000E+00
 -1      1376 4.44000E+01 4.87010E+01 0.00000E+00
 -1      1377 4.21500E+01 4.74020E+01 0.00000E+00
 -1      1378 4.59000E+01 4.87010E+01 0.00000E+00
 -1      1379 4.74000E+01 4.87010E+01 0.00000E+00
 -1      1380 4.51500E+01 4.74020E+01 0.00000E+00
 -1      1381 4.89000E+01 4.87010E+01 0.00000E+00
 -1      1382 5.04000E+01 4.87010E+01 0.00000E+00
 -1      1383 4.81500E+01 4.74020E+01 0.00000E+00
 -1      1384 5.19000E+01 4.87010E+01 0.00000E+00
 -1      1385 5.34000E+01 4.87010E+01 0.00000E+00
 -1      1386 5.11500E+01 4.74020E+01 0.00000E+00
 -1      1387 5.49000E+01 4.87010E+01 0.00000E+00
 -1      1388 5.64000E+01 4.87010E+01 0.00000E+00
 -1      1389 5.41500E+01 4.74020E+01 0.00000E+00
 -1      1390 5.79000E+01 4.87010E+01 0.00000E+00
 -1      1391 5.94000E+01 4.87010E+01 0.00000E+00
 -1      1392 5.71500E+01 4.74020E+01 0.00000E+00
 -1      1393 6.09000E+01 4.87010E+01 0.00000E+00
 -1      1394 6.24000E+01 4.87010E+01 0.00000E+00
 -1      1395 6.01500E+01 4.74020E+01 0.00000E+00
 -1      1396 6.39000E+01 4.87010E+01 0.00000E+00
 -1      1397 6.54000E+01 4.87010E+01 0.00000E+00
 -1      1398 6.31500E+01 4.74020E+01 0.00000E+00
 -1      1399 6.69000E+01 4.87010E+01 0.00000E+00
 -1      1400 6.84000E+01 4.87010E+01 0.00000E+00
 -1      1401 6.61500E+01 4.74020E+01 0.00000E+00
 -1      1402 6.99000E+01 4.87010E+01 0.00000E+00
 -1      1403 7.14000E+01 4.87010E+01 0.00000E+00
 -1      1404 6.91500E+01 4.74020E+01 0.00000E+00
 -1      1405 7.29000E+01 4.87010E+01 0.00000E+00
 -1      1406 7.44000E+01 4.87010E+01 0.00000E+00
 -1      1407 7.21500E+01 4.74020E+01 0.00000E+00
 -1      1408 7.59000E+01 4.87010E+01 0.00000E+00
 -1      1409 7.74000E+01 4.87010E+01 0.00000E+00
 -1      1410 7.51500E+01 4.74020E+01 0.00000E+00
 -1      1411 7.89000E+01 4.87010E+01 0.00000E+00
 -1      1412 8.04000E+01 4.87010E+01 0.00000E+00
 -1      1413 7.81500E+01 4.74020E+01 0.00000E+00
 -1      1414 8.19000E+01 4.87010E+01 0.00000E+00
 -1      1415 8.34000E+01 4.87010E+01 0.00000E+00
 -1      1416 8.11500E+01 4.74020E+01 0.00000E+00
 -1      1417 8.49000E+01 4.87010E+01 0.00000E+00
 -1      1418 8.64000E+01 4.87010E+01 0.00000E+00
 -1      1419 8.41500E+01 4.74020E+01 0.00000E+00
 -1      1420 8.79000E+01 4.87010E+01 0.00000E+00
 -1      1421 8.94000E+01 4.87010E+01 0.00000E+00
 -1      1422 8.71500E+01 4.74020E+01 0.00000E+00
 -1      1423 9.09000E+01 4.87010E+01 0.00000E+00
 -1      1424 9.24000E+01 4.87010E+01 0.00000E+00
 -1      1425 9.01500E+01 4.74020E+01 0.00000E+00
 -1      1426 9.39000E+01 4.87010E+01 0.00000E+00
 -1      1427 9.54000E+01 4.87010E+01 0.00000E+00
 -1      1428 9.31500E+01 4.74020E+01 0.00000E+00
 -1      1429 9.69000E+01 4.87010E+01 0.00000E+00
 -1      1430 9.84000E+01 4.87010E+01 0.00000E+00
 -1      1431 9.61500E+01 4.74020E+01 0.00000E+00
 -1      1432 9.99000E+01 4.87010E+01 0.00000E+00
 -1      1433 1.01400E+02 4.87010E+01 0.00000E+00
 -1      1434 9.91500E+01 4.74020E+01 0.00000E+00
 -1      1435 1.02900E+02 4.87010E+01 0.00000E+00
 -1      1436 1.04400E+02 4.87010E+01 0.00000E+00
 -1      1437 1.02150E+02 4.74020E+01 0.00000E+00
 -1      1438 1.05900E+02 4.87010E+01 0.00000E+00
 -1      1439 1.07400E+02 4.87010E+01 0.00000E+00
 -1      1440 1.05150E+02 4.74020E+01 0.00000E+00
 -1      1441 1.08900E+02 4.87010E+01 0.00000E+00
 -1      1442 1.10400E+02 4.87010E+01 0.00000E+00
 -1      1443 1.08150E+02 4.74020E+01 0.00000E+00
 -1      1444 1.11900E+02 4.87010E+01 0.00000E+00
 -1      1445 1.13400E+02 4.87010E+01 0.00000E+00
 -1      1446 1.11150E+02 4.74020E+01 0.00000E+00
 -1      1447 1.14900E+02 4.87010E+01 0.00000E+00
 -1      1448 1.16400E+02 4.87010E+01 0.00000E+00
 -1      1449 1.14150E+02 4.74020E+01 0.00000E+00
 -1      1450 1.17900E+02 4.87010E+01 0.00000E+00
 -1      1451 1.19400E+02 4.87010E+01 0.00000E+00
 -1      1452 1.17150E+02 4.74020E+01 0.00000E+00
 -1      1453 1.20900E+02 4.87010E+01 0.00000E+00
 -1      1454 1.22400E+02 4.87010E+01 0.00000E+00
 -1      1455 1.20150E+02 4.74020E+01 0.00000E+00
 -1      1456 1.23900E+02 4.87010E+01 0.00000E+00
 -1      1457 1.25400E+02 4.87010E+01 0.00000E+00
 -1      1458 1.23150E+02 4.74020E+01 0.00000E+00
 -1      1459 1.26900E+02 4.87010E+01 0.00000E+00
 -1      1460 1.28400E+02 4.87010E+01 0.00000E+00
 -1      1461 1.26150E+02 4.74020E+01 0.00000E+00
 -1      1462 1.29900E+02 4.87010E+01 0.00000E+00
 -1      1463 1.31400E+02 4.87010E+01 0.00000E+00
 -1      1464 1.29150E+02 4.74020E+01 0.00000E+00
 -1      1465 1.32900E+02 4.87010E+01 0.00000E+00
 -1      1466 1.34400E+02 4.87010E+01 0.00000E+00
 -1      1467 1.32150E+02 4.74020E+01 0.00000E+00
 -1      1468 1.35900E+02 4.87010E+01 0.00000E+00
 -1      1469 1.37400E+02 4.87010E+01 0.00000E+00
 -1      1470 1.35150E+02 4.74020E+01 0.00000E+00
 -1      1471 1.38900E+02 4.87010E+01 0.00000E+00
 -1      1472 1.40400E+02 4.87010E+01 0.00000E+00
 -1      1473 1.38150E+02 4.74020E+01 0.00000E+00
 -1      1474 1.41900E+02 4.87010E+01 0.00000E+00
 -1      1475 1.43400E+02 4.87010E+01 0.00000E+00
 -1      1476 1.41150E+02 4.74020E+01 0.00000E+00
 -1      1477 1.44900E+02 4.87010E+01 0.00000E+00
 -1      1478 1.46400E+02 4.87010E+01 0.00000E+00
 -1      1479 1.44150E+02 4.74020E+01 0.00000E+00
 -1      1480 1.48575E+02 4.85500E+01 0.00000E+00
 -1      1481 1.47825E+02 4.72510E+01 0.00000E+00
 -1      1482 6.01200E+00 1.09375E+00 0.00000E+00
 -1      1483 4.51200E+00 1.09375E+00 0.00000E+00
 -1      1484 4.37400E+00 2.18750E+00 0.00000E+00
 -1      1485 9.01200E+00 1.09375E+00 0.00000E+00
 -1      1486 7.51200E+00 1.09375E+00 0.00000E+00
 -1      1487 7.37400E+00 2.18750E+00 0.00000E+00
 -1      1488 1.20120E+01 1.09375E+00 0.00000E+00
 -1      1489 1.05120E+01 1.09375E+00 0.00000E+00
 -1      1490 1.03740E+01 2.18750E+00 0.00000E+00
 -1      1491 1.50120E+01 1.09375E+00 0.00000E+00
 -1      1492 1.35120E+01 1.09375E+00 0.00000E+00
 -1      1493 1.33740E+01 2.18750E+00 0.00000E+00
 -1      1494 1.80120E+01 1.09375E+00 0.00000E+00
 -1      1495 1.65120E+01 1.09375E+00 0.00000E+00
 -1      1496 1.63740E+01 2.18750E+00 0.00000E+00
 -1      1497 2.10120E+01 1.09375E+00 0.00000E+00
 -1      1498 1.95120E+01 1.09375E+00 0.00000E+00
 -1      1499 1.93740E+01 2.18750E+00 0.00000E+00
 -1      1500 2.40120E+01 1.09375E+00 0.00000E+00
 -1      1501 2.25120E+01 1.09375E+00 0.00000E+00
 -1      1502 2.23740E+01 2.18750E+00 0.00000E+00
 -1      1503 2.70120E+01 1.09375E+00 0.00000E+00
 -1      1504 2.55120E+01 1.09375E+00 0.00000E+00
 -1      1505 2.53740E+01 2.18750E+00 0.00000E+00
 -1      1506 3.00120E+01 1.09375E+00 0.00000E+00
 -1      1507 2.85120E+01 1.09375E+00 0.00000E+00
 -1      1508 2.83740E+01 2.18750E+00 0.00000E+00
 -1      1509 3.30120E+01 1.09375E+00 0.00000E+00
 -1      1510 3.15120E+01 1.09375E+00 0.00000E+00
 -1      1511 3.13740E+01 2.18750E+00 0.00000E+00
 -1      1512 3.60120E+01 1.09375E+00 0.00000E+00
 -1      1513 3.45120E+01 1.09375E+00 0.00000E+00
 -1      1514 3.43740E+01 2.18750E+00 0.00000E+00
 -1      1515 3.90120E+01 1.09375E+00 0.00000E+00
 -1      1516 3.75120E+01 1.09375E+00 0.00000E+00
 -1      1517 3.73740E+01 2.18750E+00 0.00000E+00
 -1      1518 4.20120E+01 1.09375E+00 0.00000E+00
 -1      1519 4.05120E+01 1.09375E+00 0.00000E+00
 -1      1520 4.03740E+01 2.18750E+00 0.00000E+00
 -1      1521 4.50120E+01 1.09375E+00 0.00000E+00
 -1      1522 4.35120E+01 1.09375E+00 0.00000E+00
 -1      1523 4.33740E+01 2.18750E+00 0.00000E+00
 -1      1524 4.80120E+01 1.09375E+00 0.00000E+00
 -1      1525 4.65120E+01 1.09375E+00 0.00000E+00
 -1      1526 4.63740E+01 2.18750E+00 0.00000E+00
 -1      1527 5.10120E+01 1.09375E+00 0.00000E+00
 -1      1528 4.95120E+01 1.09375E+00 0.00000E+00
 -1      1529 4.93740E+01 2.18750E+00 0.00000E+00
 -1      1530 5.40120E+01 1.09375E+00 0.00000E+00
 -1      1531 5.25120E+01 1.09375E+00 0.00000E+00
 -1      1532 5.23740E+01 2.18750E+00 0.00000E+00
 -1      1533 5.70120E+01 1.09375E+00 0.00000E+00
 -1      1534 5.55120E+01 1.09375E+00 0.00000E+00
 -1      1535 5.53740E+01 2.18750E+00 0.00000E+00
 -1      1536 6.00120E+01 1.09375E+00 0.00000E+00
 -1      1537 5.85120E+01 1.09375E+00 0.00000E+00
 -1      1538 5.83740E+01 2.18750E+00 0.00000E+00
 -1      1539 6.30120E+01 1.09375E+00 0.00000E+00
 -1      1540 6.15120E+01 1.09375E+00 0.00000E+00
 -1      1541 6.13740E+01 2.18750E+00 0.00000E+00
 -1      1542 6.60120E+01 1.09375E+00 0.00000E+00
 -1      1543 6.45120E+01 1.09375E+00 0.00000E+00
 -1      1544 6.43740E+01 2.18750E+00 0.00000E+00
 -1      1545 6.90120E+01 1.09375E+00 0.00000E+00
 -1      1546 6.75120E+01 1.09375E+00 0.00000E+00
 -1      1547 6.73740E+01 2.18750E+00 0.00000E+00
 -1      1548 7.20120E+01 1.09375E+00 0.00000E+00
 -1      1549 7.05120E+01 1.09375E+00 0.00000E+00
 -1      1550 7.03740E+01 2.18750E+00 0.00000E+00
 -1      1551 7.50120E+01 1.09375E+00 0.00000E+00
 -1      1552 7.35120E+01 1.09375E+00 0.00000E+00
 -1      1553 7.33740E+01 2.18750E+00 0.00000E+00
 -1      1554 7.80120E+01 1.09375E+00 0.00000E+00
 -1      1555 7.65120E+01 1.09375E+00 0.00000E+00
 -1      1556 7.63740E+01 2.18750E+00 0.00000E+00
 -1      1557 8.10120E+01 1.09375E+00 0.00000E+00
 -1      1558 7.95120E+01 1.09375E+00 0.00000E+00
 -1      1559 7.93740E+01 2.18750E+00 0.00000E+00
 -1      1560 8.40120E+01 1.09375E+00 0.00000E+00
 -1      1561 8.25120E+01 1.09375E+00 0.00000E+00
 -1      1562 8.23740E+01 2.18750E+00 0.00000E+00
 -1      1563 8.70120E+01 1.09375E+00 0.00000E+00
 -1      1564 8.55120E+01 1.09375E+00 0.00000E+00
 -1      1565 8.53740E+01 2.18750E+00 0.00000E+00
 -1      1566 9.00120E+01 1.09375E+00 0.00000E+00
 -1      1567 8.85120E+01 1.09375E+00 0.00000E+00
 -1      1568 8.83740E+01 2.18750E+00 0.00000E+00
 -1      1569 9.30120E+01 1.09375E+00 0.00000E+00
 -1      1570 9.15120E+01 1.09375E+00 0.00000E+00
 -1      1571 9.13740E+01 2.18750E+00 0.00000E+00
 -1      1572 9.60120E+01 1.09375E+00 0.00000E+00
 -1      1573 9.45120E+01 1.09375E+00 0.00000E+00
 -1      1574 9.43740E+01 2.18750E+00 0.00000E+00
 -1      1575 9.90120E+01 1.09375E+00 0.00000E+00
 -1      1576 9.75120E+01 1.09375E+00 0.00000E+00
 -1      1577 9.73740E+01 2.18750E+00 0.00000E+00
 -1      1578 1.02012E+02 1.09375E+00 0.00000E+00
 -1      1579 1.00512E+02 1.09375E+00 0.00000E+00
 -1      1580 1.00374E+02 2.18750E+00 0.00000E+00
 -1      1581 1.05012E+02 1.09375E+00 0.00000E+00
 -1      1582 1.03512E+02 1.09375E+00 0.00000E+00
 -1      1583 1.03374E+02 2.18750E+00 0.00000E+00
 -1      1584 1.08012E+02 1.09375E+00 0.00000E+00
 -1      1585 1.06512E+02 1.09375E+00 0.00000E+00
 -1      1586 1.06374E+02 2.18750E+00 0.00000E+00
 -1      1587 1.11012E+02 1.09375E+00 0.00000E+00
 -1      1588 1.09512E+02 1.09375E+00 0.00000E+00
 -1      1589 1.09374E+02 2.18750E+00 0.00000E+00
 -1      1590 1.14012E+02 1.09375E+00 0.00000E+00
 -1      1591 1.12512E+02 1.09375E+00 0.00000E+00
 -1      1592 1.12374E+02 2.18750E+00 0.00000E+00
 -1      1593 1.17012E+02 1.09375E+00 0.00000E+00
 -1      1594 1.15512E+02 1.09375E+00 0.00000E+00
 -1      1595 1.15374E+02 2.18750E+00 0.00000E+00
 -1      1596 1.20012E+02 1.09375E+00 0.00000E+00
 -1      1597 1.18512E+02 1.09375E+00 0.00000E+00
 -1      1598 1.18374E+02 2.18750E+00 0.00000E+00
 -1      1599 1.23012E+02 1.09375E+00 0.00000E+00
 -1      1600 1.21512E+02 1.09375E+00 0.00000E+00
 -1      1601 1.21374E+02 2.18750E+00 0.00000E+00
 -1      1602 1.26012E+02 1.09375E+00 0.00000E+00
 -1      1603 1.24512E+02 1.09375E+00 0.00000E+00
 -1      1604 1.24374E+02 2.18750E+00 0.00000E+00
 -1      1605 1.29012E+02 1.09375E+00 0.00000E+00
 -1      1606 1.27512E+02 1.09375E+00 0.00000E+00
 -1      1607 1.27374E+02 2.18750E+00 0.00000E+00
 -1      1608 1.32012E+02 1.09375E+00 0.00000E+00
 -1      1609 1.30512E+02 1.09375E+00 0.00000E+00
 -1      1610 1.30374E+02 2.18750E+00 0.00000E+00
 -1      1611 1.35012E+02 1.09375E+00 0.00000E+00
 -1      1612 1.33512E+02 1.09375E+00 0.00000E+00
 -1      1613 1.33374E+02 2.18750E+00 0.00000E+00
 -1      1614 1.38012E+02 1.09375E+00 0.00000E+00
 -1      1615 1.36512E+02 1.09375E+00 0.00000E+00
 -1      1616 1.36374E+02 2.18750E+00 0.00000E+00
 -1      1617 1.41012E+02 1.09375E+00 0.00000E+00
 -1      1618 1.39512E+02 1.09375E+00 0.00000E+00
 -1      1619 1.39374E+02 2.18750E+00 0.00000E+00
 -1      1620 1.44012E+02 1.09375E+00 0.00000E+00
 -1      1621 1.42512E+02 1.09375E+00 0.00000E+00
 -1      1622 1.42374E+02 2.18750E+00 0.00000E+00
 -1      1623 1.47012E+02 1.09375E+00 0.00000E+00
 -1      1624 1.45512E+02 1.09375E+00 0.00000E+00
 -1      1625 1.45374E+02 2.18750E+00 0.00000E+00
 -1      1626 1.48575E+02 1.47500E+00 0.00000E+00
 -1      1627 1.48701E+02 5.16250E+00 0.00000E+00
 -1      1628 1.48701E+02 3.68750E+00 0.00000E+00
 -1      1629 1.48701E+02 8.11250E+00 0.00000E+00
 -1      1630 1.48701E+02 6.63750E+00 0.00000E+00
 -1      1631 1.47402E+02 5.90000E+00 0.00000E+00
 -1      1632 1.48701E+02 1.10625E+01 0.00000E+00
 -1      1633 1.48701E+02 9.58750E+00 0.00000E+00
 -1      1634 1.47402E+02 8.85000E+00 0.00000E+00
 -1      1635 1.48701E+02 1.40125E+01 0.00000E+00
 -1      1636 1.48701E+02 1.25375E+01 0.00000E+00
 -1      1637 1.47402E+02 1.18000E+01 0.00000E+00
 -1      1638 1.48701E+02 1.69125E+01 0.00000E+00
 -1      1639 1.48701E+02 1.54625E+01 0.00000E+00
 -1      1640 1.47402E+02 1.47250E+01 0.00000E+00
 -1      1641 1.48701E+02 1.98625E+01 0.00000E+00
 -1      1642 1.48701E+02 1.83875E+01 0.00000E+00
 -1      1643 1.47402E+02 1.76500E+01 0.00000E+00
 -1      1644 1.48701E+02 2.28125E+01 0.00000E+00
 -1      1645 1.48701E+02 2.13375E+01 0.00000E+00
 -1      1646 1.47402E+02 2.06000E+01 0.00000E+00
 -1      1647 1.48701E+02 2.57625E+01 0.00000E+00
 -1      1648 1.48701E+02 2.42875E+01 0.00000E+00
 -1      1649 1.47402E+02 2.35500E+01 0.00000E+00
 -1      1650 1.48701E+02 2.87125E+01 0.00000E+00
 -1      1651 1.48701E+02 2.72375E+01 0.00000E+00
 -1      1652 1.47402E+02 2.65000E+01 0.00000E+00
 -1      1653 1.48701E+02 3.16625E+01 0.00000E+00
 -1      1654 1.48701E+02 3.01875E+01 0.00000E+00
 -1      1655 1.47402E+02 2.94500E+01 0.00000E+00
 -1      1656 1.48701E+02 3.45625E+01 0.00000E+00
 -1      1657 1.48701E+02 3.31125E+01 0.00000E+00
 -1      1658 1.47402E+02 3.23750E+01 0.00000E+00
 -1      1659 1.48701E+02 3.75125E+01 0.00000E+00
 -1      1660 1.48701E+02 3.60375E+01 0.00000E+00
 -1      1661 1.47402E+02 3.53000E+01 0.00000E+00
 -1      1662 1.48701E+02 4.04625E+01 0.00000E+00
 -1      1663 1.48701E+02 3.89875E+01 0.00000E+00
 -1      1664 1.47402E+02 3.82500E+01 0.00000E+00
 -1      1665 1.48701E+02 4.34125E+01 0.00000E+00
 -1      1666 1.48701E+02 4.19375E+01 0.00000E+00
 -1      1667 1.47402E+02 4.12000E+01 0.00000E+00
 -1      1668 1.48263E+02 4.60692E+01 0.00000E+00
 -1      1669 1.48263E+02 4.45942E+01 0.00000E+00
 -1      1670 1.46964E+02 4.38568E+01 0.00000E+00
 -1      1671 1.46088E+02 4.62202E+01 0.00000E+00
 -1      1672 4.24602E+01 2.41364E+01 0.00000E+00
 -1      1673 4.25466E+01 2.49094E+01 0.00000E+00
 -1      1674 4.19818E+01 2.26585E+01 0.00000E+00
 -1      1675 4.21983E+01 2.33097E+01 0.00000E+00
 -1      1676 4.13726E+01 2.11223E+01 0.00000E+00
 -1      1677 4.17679E+01 2.17956E+01 0.00000E+00
 -1      1678 4.02546E+01 2.00035E+01 0.00000E+00
 -1      1679 4.07213E+01 2.05131E+01 0.00000E+00
 -1      1680 3.90280E+01 1.90174E+01 0.00000E+00
 -1      1681 3.96284E+01 1.94500E+01 0.00000E+00
 -1      1682 3.75768E+01 1.82851E+01 0.00000E+00
 -1      1683 3.82692E+01 1.85864E+01 0.00000E+00
 -1      1684 3.60025E+01 1.78357E+01 0.00000E+00
 -1      1685 3.67435E+01 1.79815E+01 0.00000E+00
 -1      1686 3.43032E+01 1.76988E+01 0.00000E+00
 -1      1687 3.50926E+01 1.76776E+01 0.00000E+00
 -1      1688 3.27535E+01 1.81055E+01 0.00000E+00
 -1      1689 3.34401E+01 1.79367E+01 0.00000E+00
 -1      1690 3.11703E+01 1.86908E+01 0.00000E+00
 -1      1691 3.18904E+01 1.83366E+01 0.00000E+00
 -1      1692 2.97924E+01 1.96706E+01 0.00000E+00
 -1      1693 3.03844E+01 1.91908E+01 0.00000E+00
 -1      1694 2.88032E+01 2.08751E+01 0.00000E+00
 -1      1695 2.92410E+01 2.03349E+01 0.00000E+00
 -1      1696 2.80271E+01 2.21881E+01 0.00000E+00
 -1      1697 2.83541E+01 2.15605E+01 0.00000E+00
 -1      1698 2.73837E+01 2.37315E+01 0.00000E+00
 -1      1699 2.75913E+01 2.29701E+01 0.00000E+00
 -1      1700 2.73251E+01 2.53214E+01 0.00000E+00
 -1      1701 2.73622E+01 2.46222E+01 0.00000E+00
 -1      1702 2.74678E+01 2.68361E+01 0.00000E+00
 -1      1703 2.73642E+01 2.61403E+01 0.00000E+00
 -1      1704 2.78895E+01 2.84398E+01 0.00000E+00
 -1      1705 2.76123E+01 2.77055E+01 0.00000E+00
 -1      1706 2.87923E+01 2.98468E+01 0.00000E+00
 -1      1707 2.83755E+01 2.92132E+01 0.00000E+00
 -1      1708 2.98746E+01 3.10385E+01 0.00000E+00
 -1      1709 2.93469E+01 3.05219E+01 0.00000E+00
 -1      1710 3.12010E+01 3.19804E+01 0.00000E+00
 -1      1711 3.05604E+01 3.15781E+01 0.00000E+00
 -1      1712 3.26680E+01 3.26979E+01 0.00000E+00
 -1      1713 3.19628E+01 3.24443E+01 0.00000E+00
 -1      1714 3.42108E+01 3.29201E+01 0.00000E+00
 -1      1715 3.35175E+01 3.28239E+01 0.00000E+00
 -1      1716 3.57336E+01 3.29060E+01 0.00000E+00
 -1      1717 3.50306E+01 3.29504E+01 0.00000E+00
 -1      1718 3.74389E+01 3.26373E+01 0.00000E+00
 -1      1719 3.66467E+01 3.28669E+01 0.00000E+00
 -1      1720 3.88042E+01 3.18740E+01 0.00000E+00
 -1      1721 3.82146E+01 3.21931E+01 0.00000E+00
 -1      1722 3.99788E+01 3.10046E+01 0.00000E+00
 -1      1723 3.94568E+01 3.14344E+01 0.00000E+00
 -1      1724 4.09528E+01 2.99446E+01 0.00000E+00
 -1      1725 4.05321E+01 3.04535E+01 0.00000E+00
 -1      1726 4.18224E+01 2.86619E+01 0.00000E+00
 -1      1727 4.14770E+01 2.93070E+01 0.00000E+00
 -1      1728 4.22562E+01 2.72233E+01 0.00000E+00
 -1      1729 4.20638E+01 2.78661E+01 0.00000E+00
 -1      1730 4.25160E+01 2.57746E+01 0.00000E+00
 -1      1731 4.24498E+01 2.64523E+01 0.00000E+00
 -1      1732 4.03088E+01 1.92954E+01 0.00000E+00
 -1      1733 4.15863E+01 2.04580E+01 0.00000E+00
 -1      1734 1.48437E+02 2.56875E+00 0.00000E+00
 -1      1735 1.47138E+02 3.30625E+00 0.00000E+00
 -1      1736 4.29272E+01 2.36195E+01 0.00000E+00
 -1      1737 4.24514E+01 2.19300E+01 0.00000E+00
 -1      1738 4.31585E+01 2.53114E+01 0.00000E+00
 -1      1739 3.89238E+01 1.83109E+01 0.00000E+00
 -1      1740 3.73315E+01 1.75763E+01 0.00000E+00
 -1      1741 3.55882E+01 1.71146E+01 0.00000E+00
 -1      1742 3.38152E+01 1.71945E+01 0.00000E+00
 -1      1743 3.20890E+01 1.76635E+01 0.00000E+00
 -1      1744 3.04399E+01 1.83946E+01 0.00000E+00
 -1      1745 2.91025E+01 1.95590E+01 0.00000E+00
 -1      1746 2.81021E+01 2.09087E+01 0.00000E+00
 -1      1747 2.72172E+01 2.23762E+01 0.00000E+00
 -1      1748 2.67599E+01 2.40490E+01 0.00000E+00
 -1      1749 2.67774E+01 2.57586E+01 0.00000E+00
 -1      1750 2.69609E+01 2.74469E+01 0.00000E+00
 -1      1751 2.75914E+01 2.90897E+01 0.00000E+00
 -1      1752 2.86321E+01 3.05383E+01 0.00000E+00
 -1      1753 2.98725E+01 3.17530E+01 0.00000E+00
 -1      1754 3.13201E+01 3.27565E+01 0.00000E+00
 -1      1755 3.29314E+01 3.33464E+01 0.00000E+00
 -1      1756 3.46006E+01 3.35028E+01 0.00000E+00
 -1      1757 3.63334E+01 3.34941E+01 0.00000E+00
 -1      1758 3.80223E+01 3.30109E+01 0.00000E+00
 -1      1759 3.94506E+01 3.21271E+01 0.00000E+00
 -1      1760 4.06564E+01 3.11364E+01 0.00000E+00
 -1      1761 4.17338E+01 2.99477E+01 0.00000E+00
 -1      1762 4.24993E+01 2.85143E+01 0.00000E+00
 -1      1763 4.29343E+01 2.69475E+01 0.00000E+00
 -1      1764 2.87400E+00 4.77875E+01 0.00000E+00
 -1      1765 3.89700E+00 4.04125E+01 0.00000E+00
 -1      1766 3.89700E+00 4.18875E+01 0.00000E+00
 -1      1767 3.89700E+00 4.33625E+01 0.00000E+00
 -1      1768 3.89700E+00 4.48375E+01 0.00000E+00
 -1      1769 5.19600E+00 4.26250E+01 0.00000E+00
 -1      1770 3.89700E+00 3.45500E+01 0.00000E+00
 -1      1771 3.89700E+00 3.60000E+01 0.00000E+00
 -1      1772 3.89700E+00 3.16000E+01 0.00000E+00
 -1      1773 3.89700E+00 3.30750E+01 0.00000E+00
 -1      1774 5.19600E+00 3.38000E+01 0.00000E+00
 -1      1775 3.89700E+00 2.86500E+01 0.00000E+00
 -1      1776 3.89700E+00 3.01250E+01 0.00000E+00
 -1      1777 5.19600E+00 3.08500E+01 0.00000E+00
 -1      1778 3.89700E+00 2.57000E+01 0.00000E+00
 -1      1779 3.89700E+00 2.71750E+01 0.00000E+00
 -1      1780 5.19600E+00 2.79000E+01 0.00000E+00
 -1      1781 3.89700E+00 2.27500E+01 0.00000E+00
 -1      1782 3.89700E+00 2.42250E+01 0.00000E+00
 -1      1783 5.19600E+00 2.49500E+01 0.00000E+00
 -1      1784 3.89700E+00 1.98000E+01 0.00000E+00
 -1      1785 3.89700E+00 2.12750E+01 0.00000E+00
 -1      1786 5.19600E+00 2.20000E+01 0.00000E+00
 -1      1787 3.89700E+00 1.69000E+01 0.00000E+00
 -1      1788 3.89700E+00 1.83500E+01 0.00000E+00
 -1      1789 5.19600E+00 1.90750E+01 0.00000E+00
 -1      1790 3.89700E+00 1.39500E+01 0.00000E+00
 -1      1791 3.89700E+00 1.54250E+01 0.00000E+00
 -1      1792 5.19600E+00 1.61500E+01 0.00000E+00
 -1      1793 3.89700E+00 1.10000E+01 0.00000E+00
 -1      1794 3.89700E+00 1.24750E+01 0.00000E+00
 -1      1795 5.19600E+00 1.32000E+01 0.00000E+00
 -1      1796 3.89700E+00 8.05000E+00 0.00000E+00
 -1      1797 3.89700E+00 9.52500E+00 0.00000E+00
 -1      1798 5.19600E+00 1.02500E+01 0.00000E+00
 -1      1799 3.89700E+00 5.10000E+00 0.00000E+00
 -1      1800 3.89700E+00 6.57500E+00 0.00000E+00
 -1      1801 5.19600E+00 7.30000E+00 0.00000E+00
 -1      1802 4.20450E+00 3.09687E+00 0.00000E+00
 -1      1803 4.06650E+00 4.19063E+00 0.00000E+00
 -1      1804 5.36550E+00 4.91563E+00 0.00000E+00
 -1      1805 5.70450E+00 3.09687E+00 0.00000E+00
 -1      1806 3.62400E+00 4.64885E+01 0.00000E+00
 -1      1807 8.70450E+00 3.09687E+00 0.00000E+00
 -1      1808 7.20450E+00 3.09687E+00 0.00000E+00
 -1      1809 7.03500E+00 4.00625E+00 0.00000E+00
 -1      1810 4.92300E+00 4.57510E+01 0.00000E+00
 -1      1811 8.40000E+00 4.61030E+01 0.00000E+00
 -1      1812 9.90000E+00 4.61030E+01 0.00000E+00
 -1      1813 1.14000E+01 4.61030E+01 0.00000E+00
 -1      1814 1.29000E+01 4.61030E+01 0.00000E+00
 -1      1815 1.06500E+01 4.48040E+01 0.00000E+00
 -1      1816 1.44000E+01 4.61030E+01 0.00000E+00
 -1      1817 1.59000E+01 4.61030E+01 0.00000E+00
 -1      1818 1.36500E+01 4.48040E+01 0.00000E+00
 -1      1819 1.74000E+01 4.61030E+01 0.00000E+00
 -1      1820 1.89000E+01 4.61030E+01 0.00000E+00
 -1      1821 1.66500E+01 4.48040E+01 0.00000E+00
 -1      1822 2.04000E+01 4.61030E+01 0.00000E+00
 -1      1823 2.19000E+01 4.61030E+01 0.00000E+00
 -1      1824 1.96500E+01 4.48040E+01 0.00000E+00
 -1      1825 2.34000E+01 4.61030E+01 0.00000E+00
 -1      1826 2.49000E+01 4.61030E+01 0.00000E+00
 -1      1827 2.26500E+01 4.48040E+01 0.00000E+00
 -1      1828 2.64000E+01 4.61030E+01 0.00000E+00
 -1      1829 2.79000E+01 4.61030E+01 0.00000E+00
 -1      1830 2.56500E+01 4.48040E+01 0.00000E+00
 -1      1831 2.94000E+01 4.61030E+01 0.00000E+00
 -1      1832 3.09000E+01 4.61030E+01 0.00000E+00
 -1      1833 2.86500E+01 4.48040E+01 0.00000E+00
 -1      1834 3.24000E+01 4.61030E+01 0.00000E+00
 -1      1835 3.39000E+01 4.61030E+01 0.00000E+00
 -1      1836 3.16500E+01 4.48040E+01 0.00000E+00
 -1      1837 3.54000E+01 4.61030E+01 0.00000E+00
 -1      1838 3.69000E+01 4.61030E+01 0.00000E+00
 -1      1839 3.46500E+01 4.48040E+01 0.00000E+00
 -1      1840 3.84000E+01 4.61030E+01 0.00000E+00
 -1      1841 3.99000E+01 4.61030E+01 0.00000E+00
 -1      1842 3.76500E+01 4.48040E+01 0.00000E+00
 -1      1843 4.14000E+01 4.61030E+01 0.00000E+00
 -1      1844 4.29000E+01 4.61030E+01 0.00000E+00
 -1      1845 4.06500E+01 4.48040E+01 0.00000E+00
 -1      1846 4.44000E+01 4.61030E+01 0.00000E+00
 -1      1847 4.59000E+01 4.61030E+01 0.00000E+00
 -1      1848 4.36500E+01 4.48040E+01 0.00000E+00
 -1      1849 4.74000E+01 4.61030E+01 0.00000E+00
 -1      1850 4.89000E+01 4.61030E+01 0.00000E+00
 -1      1851 4.66500E+01 4.48040E+01 0.00000E+00
 -1      1852 5.04000E+01 4.61030E+01 0.00000E+00
 -1      1853 5.19000E+01 4.61030E+01 0.00000E+00
 -1      1854 4.96500E+01 4.48040E+01 0.00000E+00
 -1      1855 5.34000E+01 4.61030E+01 0.00000E+00
 -1      1856 5.49000E+01 4.61030E+01 0.00000E+00
 -1      1857 5.26500E+01 4.48040E+01 0.00000E+00
 -1      1858 5.64000E+01 4.61030E+01 0.00000E+00
 -1      1859 5.79000E+01 4.61030E+01 0.00000E+00
 -1      1860 5.56500E+01 4.48040E+01 0.00000E+00
 -1      1861 5.94000E+01 4.61030E+01 0.00000E+00
 -1      1862 6.09000E+01 4.61030E+01 0.00000E+00
 -1      1863 5.86500E+01 4.48040E+01 0.00000E+00
 -1      1864 6.24000E+01 4.61030E+01 0.00000E+00
 -1      1865 6.39000E+01 4.61030E+01 0.00000E+00
 -1      1866 6.16500E+01 4.48040E+01 0.00000E+00
 -1      1867 6.54000E+01 4.61030E+01 0.00000E+00
 -1      1868 6.69000E+01 4.61030E+01 0.00000E+00
 -1      1869 6.46500E+01 4.48040E+01 0.00000E+00
 -1      1870 6.84000E+01 4.61030E+01 0.00000E+00
 -1      1871 6.99000E+01 4.61030E+01 0.00000E+00
 -1      1872 6.76500E+01 4.48040E+01 0.00000E+00
 -1      1873 7.14000E+01 4.61030E+01 0.00000E+00
 -1      1874 7.29000E+01 4.61030E+01 0.00000E+00
 -1      1875 7.06500E+01 4.48040E+01 0.00000E+00
 -1      1876 7.44000E+01 4.61030E+01 0.00000E+00
 -1      1877 7.59000E+01 4.61030E+01 0.00000E+00
 -1      1878 7.36500E+01 4.48040E+01 0.00000E+00
 -1      1879 7.74000E+01 4.61030E+01 0.00000E+00
 -1      1880 7.89000E+01 4.61030E+01 0.00000E+00
 -1      1881 7.66500E+01 4.48040E+01 0.00000E+00
 -1      1882 8.04000E+01 4.61030E+01 0.00000E+00
 -1      1883 8.19000E+01 4.61030E+01 0.00000E+00
 -1      1884 7.96500E+01 4.48040E+01 0.00000E+00
 -1      1885 8.34000E+01 4.61030E+01 0.00000E+00
 -1      1886 8.49000E+01 4.61030E+01 0.00000E+00
 -1      1887 8.26500E+01 4.48040E+01 0.00000E+00
 -1      1888 8.64000E+01 4.61030E+01 0.00000E+00
 -1      1889 8.79000E+01 4.61030E+01 0.00000E+00
 -1      1890 8.56500E+01 4.48040E+01 0.00000E+00
 -1      1891 8.94000E+01 4.61030E+01 0.00000E+00
 -1      1892 9.09000E+01 4.61030E+01 0.00000E+00
 -1      1893 8.86500E+01 4.48040E+01 0.00000E+00
 -1      1894 9.24000E+01 4.61030E+01 0.00000E+00
 -1      1895 9.39000E+01 4.61030E+01 0.00000E+00
 -1      1896 9.16500E+01 4.48040E+01 0.00000E+00
 -1      1897 9.54000E+01 4.61030E+01 0.00000E+00
 -1      1898 9.69000E+01 4.61030E+01 0.00000E+00
 -1      1899 9.46500E+01 4.48040E+01 0.00000E+00
 -1      1900 9.84000E+01 4.61030E+01 0.00000E+00
 -1      1901 9.99000E+01 4.61030E+01 0.00000E+00
 -1      1902 9.76500E+01 4.48040E+01 0.00000E+00
 -1      1903 1.01400E+02 4.61030E+01 0.00000E+00
 -1      1904 1.02900E+02 4.61030E+01 0.00000E+00
 -1      1905 1.00650E+02 4.48040E+01 0.00000E+00
 -1      1906 1.04400E+02 4.61030E+01 0.00000E+00
 -1      1907 1.05900E+02 4.61030E+01 0.00000E+00
 -1      1908 1.03650E+02 4.48040E+01 0.00000E+00
 -1      1909 1.07400E+02 4.61030E+01 0.00000E+00
 -1      1910 1.08900E+02 4.61030E+01 0.00000E+00
 -1      1911 1.06650E+02 4.48040E+01 0.00000E+00
 -1      1912 1.10400E+02 4.61030E+01 0.00000E+00
 -1      1913 1.11900E+02 4.61030E+01 0.00000E+00
 -1      1914 1.09650E+02 4.48040E+01 0.00000E+00
 -1      1915 1.13400E+02 4.61030E+01 0.00000E+00
 -1      1916 1.14900E+02 4.61030E+01 0.00000E+00
 -1      1917 1.12650E+02 4.48040E+01 0.00000E+00
 -1      1918 1.16400E+02 4.61030E+01 0.00000E+00
 -1      1919 1.17900E+02 4.61030E+01 0.00000E+00
 -1      1920 1.15650E+02 4.48040E+01 0.00000E+00
 -1      1921 1.19400E+02 4.61030E+01 0.00000E+00
 -1      1922 1.20900E+02 4.61030E+01 0.00000E+00
 -1      1923 1.18650E+02 4.48040E+01 0.00000E+00
 -1      1924 1.22400E+02 4.61030E+01 0.00000E+00
 -1      1925 1.23900E+02 4.61030E+01 0.00000E+00
 -1      1926 1.21650E+02 4.48040E+01 0.00000E+00
 -1      1927 1.25400E+02 4.61030E+01 0.00000E+00
 -1      1928 1.26900E+02 4.61030E+01 0.00000E+00
 -1      1929 1.24650E+02 4.48040E+01 0.00000E+00
 -1      1930 1.28400E+02 4.61030E+01 0.00000E+00
 -1      1931 1.29900E+02 4.61030E+01 0.00000E+00
 -1      1932 1.27650E+02 4.48040E+01 0.00000E+00
 -1      1933 1.31400E+02 4.61030E+01 0.00000E+00
 -1      1934 1.32900E+02 4.61030E+01 0.00000E+00
 -1      1935 1.30650E+02 4.48040E+01 0.00000E+00
 -1      1936 1.34400E+02 4.61030E+01 0.00000E+00
 -1      1937 1.35900E+02 4.61030E+01 0.00000E+00
 -1      1938 1.33650E+02 4.48040E+01 0.00000E+00
 -1      1939 1.37400E+02 4.61030E+01 0.00000E+00
 -1      1940 1.38900E+02 4.61030E+01 0.00000E+00
 -1      1941 1.36650E+02 4.48040E+01 0.00000E+00
 -1      1942 1.40400E+02 4.61030E+01 0.00000E+00
 -1      1943 1.41900E+02 4.61030E+01 0.00000E+00
 -1      1944 1.39650E+02 4.48040E+01 0.00000E+00
 -1      1945 1.43244E+02 4.61616E+01 0.00000E+00
 -1      1946 1.44744E+02 4.61616E+01 0.00000E+00
 -1      1947 1.45182E+02 4.49799E+01 0.00000E+00
 -1      1948 1.42494E+02 4.48626E+01 0.00000E+00
 -1      1949 1.17045E+01 3.09687E+00 0.00000E+00
 -1      1950 1.02045E+01 3.09687E+00 0.00000E+00
 -1      1951 1.00350E+01 4.00625E+00 0.00000E+00
 -1      1952 1.47045E+01 3.09687E+00 0.00000E+00
 -1      1953 1.32045E+01 3.09687E+00 0.00000E+00
 -1      1954 1.30350E+01 4.00625E+00 0.00000E+00
 -1      1955 1.77045E+01 3.09687E+00 0.00000E+00
 -1      1956 1.62045E+01 3.09687E+00 0.00000E+00
 -1      1957 1.60350E+01 4.00625E+00 0.00000E+00
 -1      1958 2.07045E+01 3.09687E+00 0.00000E+00
 -1      1959 1.92045E+01 3.09687E+00 0.00000E+00
 -1      1960 1.90350E+01 4.00625E+00 0.00000E+00
 -1      1961 2.37045E+01 3.09687E+00 0.00000E+00
 -1      1962 2.22045E+01 3.09687E+00 0.00000E+00
 -1      1963 2.20350E+01 4.00625E+00 0.00000E+00
 -1      1964 2.67045E+01 3.09687E+00 0.00000E+00
 -1      1965 2.52045E+01 3.09687E+00 0.00000E+00
 -1      1966 2.50350E+01 4.00625E+00 0.00000E+00
 -1      1967 2.97045E+01 3.09687E+00 0.00000E+00
 -1      1968 2.82045E+01 3.09687E+00 0.00000E+00
 -1      1969 2.80350E+01 4.00625E+00 0.00000E+00
 -1      1970 3.27045E+01 3.09687E+00 0.00000E+00
 -1      1971 3.12045E+01 3.09687E+00 0.00000E+00
 -1      1972 3.10350E+01 4.00625E+00 0.00000E+00
 -1      1973 3.57045E+01 3.09687E+00 0.00000E+00
 -1      1974 3.42045E+01 3.09687E+00 0.00000E+00
 -1      1975 3.40350E+01 4.00625E+00 0.00000E+00
 -1      1976 3.87045E+01 3.09687E+00 0.00000E+00
 -1      1977 3.72045E+01 3.09687E+00 0.00000E+00
 -1      1978 3.70350E+01 4.00625E+00 0.00000E+00
 -1      1979 4.17045E+01 3.09687E+00 0.00000E+00
 -1      1980 4.02045E+01 3.09687E+00 0.00000E+00
 -1      1981 4.00350E+01 4.00625E+00 0.00000E+00
 -1      1982 4.47045E+01 3.09687E+00 0.00000E+00
 -1      1983 4.32045E+01 3.09687E+00 0.00000E+00
 -1      1984 4.30350E+01 4.00625E+00 0.00000E+00
 -1      1985 4.77045E+01 3.09687E+00 0.00000E+00
 -1      1986 4.62045E+01 3.09687E+00 0.00000E+00
 -1      1987 4.60350E+01 4.00625E+00 0.00000E+00
 -1      1988 5.07045E+01 3.09687E+00 0.00000E+00
 -1      1989 4.92045E+01 3.09687E+00 0.00000E+00
 -1      1990 4.90350E+01 4.00625E+00 0.00000E+00
 -1      1991 5.37045E+01 3.09687E+00 0.00000E+00
 -1      1992 5.22045E+01 3.09687E+00 0.00000E+00
 -1      1993 5.20350E+01 4.00625E+00 0.00000E+00
 -1      1994 5.67045E+01 3.09687E+00 0.00000E+00
 -1      1995 5.52045E+01 3.09687E+00 0.00000E+00
 -1      1996 5.50350E+01 4.00625E+00 0.00000E+00
 -1      1997 5.97045E+01 3.09687E+00 0.00000E+00
 -1      1998 5.82045E+01 3.09687E+00 0.00000E+00
 -1      1999 5.80350E+01 4.00625E+00 0.00000E+00
 -1      2000 6.27045E+01 3.09687E+00 0.00000E+00
 -1      2001 6.12045E+01 3.09687E+00 0.00000E+00
 -1      2002 6.10350E+01 4.00625E+00 0.00000E+00
 -1      2003 6.57045E+01 3.09687E+00 0.00000E+00
 -1      2004 6.42045E+01 3.09687E+00 0.00000E+00
 -1      2005 6.40350E+01 4.00625E+00 0.00000E+00
 -1      2006 6.87045E+01 3.09687E+00 0.00000E+00
 -1      2007 6.72045E+01 3.09687E+00 0.00000E+00
 -1      2008 6.70350E+01 4.00625E+00 0.00000E+00
 -1      2009 7.17045E+01 3.09687E+00 0.00000E+00
 -1      2010 7.02045E+01 3.09687E+00 0.00000E+00
 -1      2011 7.00350E+01 4.00625E+00 0.00000E+00
 -1      2012 7.47045E+01 3.09687E+00 0.00000E+00
 -1      2013 7.32045E+01 3.09687E+00 0.00000E+00
 -1      2014 7.30350E+01 4.00625E+00 0.00000E+00
 -1      2015 7.77045E+01 3.09687E+00 0.00000E+00
 -1      2016 7.62045E+01 3.09687E+00 0.00000E+00
 -1      2017 7.60350E+01 4.00625E+00 0.00000E+00
 -1      2018 8.07045E+01 3.09687E+00 0.00000E+00
 -1      2019 7.92045E+01 3.09687E+00 0.00000E+00
 -1      2020 7.90350E+01 4.00625E+00 0.00000E+00
 -1      2021 8.37045E+01 3.09687E+00 0.00000E+00
 -1      2022 8.22045E+01 3.09687E+00 0.00000E+00
 -1      2023 8.20350E+01 4.00625E+00 0.00000E+00
 -1      2024 8.67045E+01 3.09687E+00 0.00000E+00
 -1      2025 8.52045E+01 3.09687E+00 0.00000E+00
 -1      2026 8.50350E+01 4.00625E+00 0.00000E+00
 -1      2027 8.97045E+01 3.09687E+00 0.00000E+00
 -1      2028 8.82045E+01 3.09687E+00 0.00000E+00
 -1      2029 8.80350E+01 4.00625E+00 0.00000E+00
 -1      2030 9.27045E+01 3.09687E+00 0.00000E+00
 -1      2031 9.12045E+01 3.09687E+00 0.00000E+00
 -1      2032 9.10350E+01 4.00625E+00 0.00000E+00
 -1      2033 9.57045E+01 3.09687E+00 0.00000E+00
 -1      2034 9.42045E+01 3.09687E+00 0.00000E+00
 -1      2035 9.40350E+01 4.00625E+00 0.00000E+00
 -1      2036 9.87045E+01 3.09687E+00 0.00000E+00
 -1      2037 9.72045E+01 3.09687E+00 0.00000E+00
 -1      2038 9.70350E+01 4.00625E+00 0.00000E+00
 -1      2039 1.01704E+02 3.09687E+00 0.00000E+00
 -1      2040 1.00204E+02 3.09687E+00 0.00000E+00
 -1      2041 1.00035E+02 4.00625E+00 0.00000E+00
 -1      2042 1.04704E+02 3.09687E+00 0.00000E+00
 -1      2043 1.03204E+02 3.09687E+00 0.00000E+00
 -1      2044 1.03035E+02 4.00625E+00 0.00000E+00
 -1      2045 1.07704E+02 3.09687E+00 0.00000E+00
 -1      2046 1.06204E+02 3.09687E+00 0.00000E+00
 -1      2047 1.06035E+02 4.00625E+00 0.00000E+00
 -1      2048 1.10704E+02 3.09687E+00 0.00000E+00
 -1      2049 1.09204E+02 3.09687E+00 0.00000E+00
 -1      2050 1.09035E+02 4.00625E+00 0.00000E+00
 -1      2051 1.13704E+02 3.09687E+00 0.00000E+00
 -1      2052 1.12204E+02 3.09687E+00 0.00000E+00
 -1      2053 1.12035E+02 4.00625E+00 0.00000E+00
 -1      2054 1.16704E+02 3.09687E+00 0.00000E+00
 -1      2055 1.15204E+02 3.09687E+00 0.00000E+00
 -1      2056 1.15035E+02 4.00625E+00 0.00000E+00
 -1      2057 1.19704E+02 3.09687E+00 0.00000E+00
 -1      2058 1.18204E+02 3.09687E+00 0.00000E+00
 -1      2059 1.18035E+02 4.00625E+00 0.00000E+00
 -1      2060 1.22704E+02 3.09687E+00 0.00000E+00
 -1      2061 1.21204E+02 3.09687E+00 0.00000E+00
 -1      2062 1.21035E+02 4.00625E+00 0.00000E+00
 -1      2063 1.25704E+02 3.09687E+00 0.00000E+00
 -1      2064 1.24204E+02 3.09687E+00 0.00000E+00
 -1      2065 1.24035E+02 4.00625E+00 0.00000E+00
 -1      2066 1.28704E+02 3.09687E+00 0.00000E+00
 -1      2067 1.27204E+02 3.09687E+00 0.00000E+00
 -1      2068 1.27035E+02 4.00625E+00 0.00000E+00
 -1      2069 1.31704E+02 3.09687E+00 0.00000E+00
 -1      2070 1.30204E+02 3.09687E+00 0.00000E+00
 -1      2071 1.30035E+02 4.00625E+00 0.00000E+00
 -1      2072 1.34704E+02 3.09687E+00 0.00000E+00
 -1      2073 1.33204E+02 3.09687E+00 0.00000E+00
 -1      2074 1.33035E+02 4.00625E+00 0.00000E+00
 -1      2075 1.37704E+02 3.09687E+00 0.00000E+00
 -1      2076 1.36204E+02 3.09687E+00 0.00000E+00
 -1      2077 1.36035E+02 4.00625E+00 0.00000E+00
 -1      2078 1.40704E+02 3.09687E+00 0.00000E+00
 -1      2079 1.39204E+02 3.09687E+00 0.00000E+00
 -1      2080 1.39035E+02 4.00625E+00 0.00000E+00
 -1      2081 1.43704E+02 3.09687E+00 0.00000E+00
 -1      2082 1.42204E+02 3.09687E+00 0.00000E+00
 -1      2083 1.42035E+02 4.00625E+00 0.00000E+00
 -1      2084 1.46171E+02 3.20156E+00 0.00000E+00
 -1      2085 1.44671E+02 3.20156E+00 0.00000E+00
 -1      2086 1.44502E+02 4.11094E+00 0.00000E+00
 -1      2087 1.46435E+02 4.32031E+00 0.00000E+00
 -1      2088 1.46103E+02 1.25375E+01 0.00000E+00
 -1      2089 1.46103E+02 1.10625E+01 0.00000E+00
 -1      2090 1.46103E+02 9.58750E+00 0.00000E+00
 -1      2091 1.46103E+02 8.11250E+00 0.00000E+00
 -1      2092 1.44804E+02 1.03250E+01 0.00000E+00
 -1      2093 1.46269E+02 6.95391E+00 0.00000E+00
 -1      2094 1.46269E+02 5.47891E+00 0.00000E+00
 -1      2095 1.45302E+02 5.37422E+00 0.00000E+00
 -1      2096 1.44970E+02 7.69141E+00 0.00000E+00
 -1      2097 1.46103E+02 1.54375E+01 0.00000E+00
 -1      2098 1.46103E+02 1.39875E+01 0.00000E+00
 -1      2099 1.44804E+02 1.32500E+01 0.00000E+00
 -1      2100 1.46103E+02 1.83875E+01 0.00000E+00
 -1      2101 1.46103E+02 1.69125E+01 0.00000E+00
 -1      2102 1.44804E+02 1.61750E+01 0.00000E+00
 -1      2103 1.46103E+02 2.13375E+01 0.00000E+00
 -1      2104 1.46103E+02 1.98625E+01 0.00000E+00
 -1      2105 1.44804E+02 1.91250E+01 0.00000E+00
 -1      2106 1.46103E+02 2.42875E+01 0.00000E+00
 -1      2107 1.46103E+02 2.28125E+01 0.00000E+00
 -1      2108 1.44804E+02 2.20750E+01 0.00000E+00
 -1      2109 1.46103E+02 2.72375E+01 0.00000E+00
 -1      2110 1.46103E+02 2.57625E+01 0.00000E+00
 -1      2111 1.44804E+02 2.50250E+01 0.00000E+00
 -1      2112 1.46103E+02 3.01875E+01 0.00000E+00
 -1      2113 1.46103E+02 2.87125E+01 0.00000E+00
 -1      2114 1.44804E+02 2.79750E+01 0.00000E+00
 -1      2115 1.46103E+02 3.30875E+01 0.00000E+00
 -1      2116 1.46103E+02 3.16375E+01 0.00000E+00
 -1      2117 1.44804E+02 3.09000E+01 0.00000E+00
 -1      2118 1.46103E+02 3.60375E+01 0.00000E+00
 -1      2119 1.46103E+02 3.45625E+01 0.00000E+00
 -1      2120 1.44804E+02 3.38250E+01 0.00000E+00
 -1      2121 1.46103E+02 3.89875E+01 0.00000E+00
 -1      2122 1.46103E+02 3.75125E+01 0.00000E+00
 -1      2123 1.44804E+02 3.67750E+01 0.00000E+00
 -1      2124 1.46103E+02 4.19375E+01 0.00000E+00
 -1      2125 1.46103E+02 4.04625E+01 0.00000E+00
 -1      2126 1.44804E+02 3.97250E+01 0.00000E+00
 -1      2127 4.31768E+01 2.12923E+01 0.00000E+00
 -1      2128 4.33907E+01 2.21551E+01 0.00000E+00
 -1      2129 4.39471E+01 2.49061E+01 0.00000E+00
 -1      2130 4.39165E+01 2.57713E+01 0.00000E+00
 -1      2131 4.36526E+01 2.29818E+01 0.00000E+00
 -1      2132 4.39145E+01 2.38085E+01 0.00000E+00
 -1      2133 4.43780E+01 2.23441E+01 0.00000E+00
 -1      2134 4.17033E+01 1.96801E+01 0.00000E+00
 -1      2135 4.23546E+01 2.02893E+01 0.00000E+00
 -1      2136 4.04527E+01 1.85017E+01 0.00000E+00
 -1      2137 4.10789E+01 1.90552E+01 0.00000E+00
 -1      2138 3.89700E+00 3.74688E+01 0.00000E+00
 -1      2139 3.89700E+00 3.89437E+01 0.00000E+00
 -1      2140 5.19600E+00 3.96813E+01 0.00000E+00
 -1      2141 5.19600E+00 3.67438E+01 0.00000E+00
 -1      2142 3.71367E+01 1.68155E+01 0.00000E+00
 -1      2143 3.79700E+01 1.71191E+01 0.00000E+00
 -1      2144 3.52800E+01 1.61907E+01 0.00000E+00
 -1      2145 3.61899E+01 1.63487E+01 0.00000E+00
 -1      2146 3.32003E+01 1.66483E+01 0.00000E+00
 -1      2147 3.40633E+01 1.64104E+01 0.00000E+00
 -1      2148 3.14740E+01 1.71104E+01 0.00000E+00
 -1      2149 3.23371E+01 1.68794E+01 0.00000E+00
 -1      2150 3.25853E+01 1.60952E+01 0.00000E+00
 -1      2151 2.95865E+01 1.79211E+01 0.00000E+00
 -1      2152 3.03725E+01 1.74211E+01 0.00000E+00
 -1      2153 2.82314E+01 1.93970E+01 0.00000E+00
 -1      2154 2.87828E+01 1.87327E+01 0.00000E+00
 -1      2155 2.73004E+01 2.08733E+01 0.00000E+00
 -1      2156 2.77495E+01 2.01879E+01 0.00000E+00
 -1      2157 2.63600E+01 2.24110E+01 0.00000E+00
 -1      2158 2.67958E+01 2.16290E+01 0.00000E+00
 -1      2159 2.59755E+01 2.44756E+01 0.00000E+00
 -1      2160 2.59971E+01 2.35849E+01 0.00000E+00
 -1      2161 2.60537E+01 2.61135E+01 0.00000E+00
 -1      2162 2.60146E+01 2.52945E+01 0.00000E+00
 -1      2163 2.52518E+01 2.48305E+01 0.00000E+00
 -1      2164 2.62698E+01 2.80085E+01 0.00000E+00
 -1      2165 2.61254E+01 2.71391E+01 0.00000E+00
 -1      2166 2.72857E+01 2.98213E+01 0.00000E+00
 -1      2167 2.67997E+01 2.90479E+01 0.00000E+00
 -1      2168 2.84086E+01 3.12872E+01 0.00000E+00
 -1      2169 2.78540E+01 3.06121E+01 0.00000E+00
 -1      2170 2.98147E+01 3.25321E+01 0.00000E+00
 -1      2171 2.91288E+01 3.19925E+01 0.00000E+00
 -1      2172 3.13204E+01 3.36135E+01 0.00000E+00
 -1      2173 3.05586E+01 3.31496E+01 0.00000E+00
 -1      2174 3.32549E+01 3.40919E+01 0.00000E+00
 -1      2175 3.24054E+01 3.39659E+01 0.00000E+00
 -1      2176 3.49849E+01 3.42075E+01 0.00000E+00
 -1      2177 3.41652E+01 3.41771E+01 0.00000E+00
 -1      2178 3.68230E+01 3.42477E+01 0.00000E+00
 -1      2179 3.59100E+01 3.42867E+01 0.00000E+00
 -1      2180 3.87530E+01 3.33875E+01 0.00000E+00
 -1      2181 3.79772E+01 3.38317E+01 0.00000E+00
 -1      2182 4.01623E+01 3.24795E+01 0.00000E+00
 -1      2183 3.95098E+01 3.29191E+01 0.00000E+00
 -1      2184 4.14200E+01 3.13497E+01 0.00000E+00
 -1      2185 4.08667E+01 3.19008E+01 0.00000E+00
 -1      2186 4.24965E+01 3.00405E+01 0.00000E+00
 -1      2187 4.19724E+01 3.06780E+01 0.00000E+00
 -1      2188 4.34006E+01 2.83532E+01 0.00000E+00
 -1      2189 4.31592E+01 2.91490E+01 0.00000E+00
 -1      2190 4.37553E+01 2.66767E+01 0.00000E+00
 -1      2191 4.35617E+01 2.74478E+01 0.00000E+00
 -1      2192 4.42216E+01 2.80824E+01 0.00000E+00
 -1      2193 4.45439E+01 2.62715E+01 0.00000E+00
 -1      2194 3.89265E+01 1.74226E+01 0.00000E+00
 -1      2195 3.96853E+01 1.78536E+01 0.00000E+00
 -1      2196 4.04554E+01 1.76134E+01 0.00000E+00
 -1      2197 6.42300E+00 4.57510E+01 0.00000E+00
 -1      2198 3.87316E+01 1.66618E+01 0.00000E+00
 -1      2199 7.17300E+00 4.44520E+01 0.00000E+00
 -1      2200 4.46725E+01 2.42684E+01 0.00000E+00
 -1      2201 4.34110E+01 1.97365E+01 0.00000E+00
 -1      2202 4.32939E+01 2.05144E+01 0.00000E+00
 -1      2203 4.42332E+01 2.07395E+01 0.00000E+00
 -1      2204 1.45665E+02 4.31193E+01 0.00000E+00
 -1      2205 4.18472E+01 1.88864E+01 0.00000E+00
 -1      2206 4.33978E+01 2.98793E+01 0.00000E+00
 -1      2207 4.21827E+01 3.14424E+01 0.00000E+00
 -1      2208 4.09259E+01 3.26928E+01 0.00000E+00
 -1      2209 3.94648E+01 3.37400E+01 0.00000E+00
 -1      2210 3.75538E+01 3.46243E+01 0.00000E+00
 -1      2211 3.71303E+01 3.54169E+01 0.00000E+00
 -1      2212 3.82845E+01 3.50010E+01 0.00000E+00
 -1      2213 3.54745E+01 3.49611E+01 0.00000E+00
 -1      2214 3.36392E+01 3.47966E+01 0.00000E+00
 -1      2215 3.16438E+01 3.43591E+01 0.00000E+00
 -1      2216 2.98149E+01 3.33892E+01 0.00000E+00
 -1      2217 2.83508E+01 3.20664E+01 0.00000E+00
 -1      2218 2.70622E+01 3.05702E+01 0.00000E+00
 -1      2219 2.53626E+01 2.66750E+01 0.00000E+00
 -1      2220 2.55757E+01 2.28377E+01 0.00000E+00
 -1      2221 2.64432E+01 2.09081E+01 0.00000E+00
 -1      2222 2.74298E+01 1.93616E+01 0.00000E+00
 -1      2223 3.06206E+01 1.66369E+01 0.00000E+00
 -1      2224 3.68284E+01 1.58916E+01 0.00000E+00
 -1      2225 3.46650E+01 1.56445E+01 0.00000E+00
 -1      2226 2.87154E+01 1.77591E+01 0.00000E+00
 -1      2227 2.59641E+01 2.87400E+01 0.00000E+00
 -1      2228 1.07850E+01 5.30525E+00 0.00000E+00
 -1      2229 9.28500E+00 5.30525E+00 0.00000E+00
 -1      2230 6.49500E+00 3.01125E+01 0.00000E+00
 -1      2231 6.49500E+00 3.15875E+01 0.00000E+00
 -1      2232 6.49500E+00 3.30625E+01 0.00000E+00
 -1      2233 6.49500E+00 3.45375E+01 0.00000E+00
 -1      2234 7.79400E+00 3.23250E+01 0.00000E+00
 -1      2235 6.49500E+00 2.42125E+01 0.00000E+00
 -1      2236 6.49500E+00 2.56875E+01 0.00000E+00
 -1      2237 6.49500E+00 2.12625E+01 0.00000E+00
 -1      2238 6.49500E+00 2.27375E+01 0.00000E+00
 -1      2239 7.79400E+00 2.34750E+01 0.00000E+00
 -1      2240 6.49500E+00 1.83625E+01 0.00000E+00
 -1      2241 6.49500E+00 1.98125E+01 0.00000E+00
 -1      2242 7.79400E+00 2.05500E+01 0.00000E+00
 -1      2243 6.49500E+00 1.54125E+01 0.00000E+00
 -1      2244 6.49500E+00 1.68875E+01 0.00000E+00
 -1      2245 7.79400E+00 1.76250E+01 0.00000E+00
 -1      2246 6.49500E+00 1.24625E+01 0.00000E+00
 -1      2247 6.49500E+00 1.39375E+01 0.00000E+00
 -1      2248 7.79400E+00 1.46750E+01 0.00000E+00
 -1      2249 6.49500E+00 9.51250E+00 0.00000E+00
 -1      2250 6.49500E+00 1.09875E+01 0.00000E+00
 -1      2251 7.79400E+00 1.17250E+01 0.00000E+00
 -1      2252 1.37850E+01 5.30525E+00 0.00000E+00
 -1      2253 1.22850E+01 5.30525E+00 0.00000E+00
 -1      2254 1.15350E+01 6.60425E+00 0.00000E+00
 -1      2255 9.90000E+00 4.35050E+01 0.00000E+00
 -1      2256 1.14000E+01 4.35050E+01 0.00000E+00
 -1      2257 3.84747E+01 1.58125E+01 0.00000E+00
 -1      2258 3.94312E+01 1.61159E+01 0.00000E+00
 -1      2259 1.29000E+01 4.35050E+01 0.00000E+00
 -1      2260 1.44000E+01 4.35050E+01 0.00000E+00
 -1      2261 1.21500E+01 4.22060E+01 0.00000E+00
 -1      2262 1.59000E+01 4.35050E+01 0.00000E+00
 -1      2263 1.74000E+01 4.35050E+01 0.00000E+00
 -1      2264 1.51500E+01 4.22060E+01 0.00000E+00
 -1      2265 1.89000E+01 4.35050E+01 0.00000E+00
 -1      2266 2.04000E+01 4.35050E+01 0.00000E+00
 -1      2267 1.81500E+01 4.22060E+01 0.00000E+00
 -1      2268 2.19000E+01 4.35050E+01 0.00000E+00
 -1      2269 2.34000E+01 4.35050E+01 0.00000E+00
 -1      2270 2.11500E+01 4.22060E+01 0.00000E+00
 -1      2271 2.49000E+01 4.35050E+01 0.00000E+00
 -1      2272 2.64000E+01 4.35050E+01 0.00000E+00
 -1      2273 2.41500E+01 4.22060E+01 0.00000E+00
 -1      2274 2.79000E+01 4.35050E+01 0.00000E+00
 -1      2275 2.94000E+01 4.35050E+01 0.00000E+00
 -1      2276 2.71500E+01 4.22060E+01 0.00000E+00
 -1      2277 3.09000E+01 4.35050E+01 0.00000E+00
 -1      2278 3.24000E+01 4.35050E+01 0.00000E+00
 -1      2279 3.01500E+01 4.22060E+01 0.00000E+00
 -1      2280 3.39000E+01 4.35050E+01 0.00000E+00
 -1      2281 3.54000E+01 4.35050E+01 0.00000E+00
 -1      2282 3.31500E+01 4.22060E+01 0.00000E+00
 -1      2283 3.69000E+01 4.35050E+01 0.00000E+00
 -1      2284 3.84000E+01 4.35050E+01 0.00000E+00
 -1      2285 3.61500E+01 4.22060E+01 0.00000E+00
 -1      2286 3.99000E+01 4.35050E+01 0.00000E+00
 -1      2287 4.14000E+01 4.35050E+01 0.00000E+00
 -1      2288 3.91500E+01 4.22060E+01 0.00000E+00
 -1      2289 4.29000E+01 4.35050E+01 0.00000E+00
 -1      2290 4.44000E+01 4.35050E+01 0.00000E+00
 -1      2291 4.21500E+01 4.22060E+01 0.00000E+00
 -1      2292 4.59000E+01 4.35050E+01 0.00000E+00
 -1      2293 4.74000E+01 4.35050E+01 0.00000E+00
 -1      2294 4.51500E+01 4.22060E+01 0.00000E+00
 -1      2295 4.89000E+01 4.35050E+01 0.00000E+00
 -1      2296 5.04000E+01 4.35050E+01 0.00000E+00
 -1      2297 4.81500E+01 4.22060E+01 0.00000E+00
 -1      2298 5.19000E+01 4.35050E+01 0.00000E+00
 -1      2299 5.34000E+01 4.35050E+01 0.00000E+00
 -1      2300 5.11500E+01 4.22060E+01 0.00000E+00
 -1      2301 5.49000E+01 4.35050E+01 0.00000E+00
 -1      2302 5.64000E+01 4.35050E+01 0.00000E+00
 -1      2303 5.41500E+01 4.22060E+01 0.00000E+00
 -1      2304 5.79000E+01 4.35050E+01 0.00000E+00
 -1      2305 5.94000E+01 4.35050E+01 0.00000E+00
 -1      2306 5.71500E+01 4.22060E+01 0.00000E+00
 -1      2307 6.09000E+01 4.35050E+01 0.00000E+00
 -1      2308 6.24000E+01 4.35050E+01 0.00000E+00
 -1      2309 6.01500E+01 4.22060E+01 0.00000E+00
 -1      2310 6.39000E+01 4.35050E+01 0.00000E+00
 -1      2311 6.54000E+01 4.35050E+01 0.00000E+00
 -1      2312 6.31500E+01 4.22060E+01 0.00000E+00
 -1      2313 6.69000E+01 4.35050E+01 0.00000E+00
 -1      2314 6.84000E+01 4.35050E+01 0.00000E+00
 -1      2315 6.61500E+01 4.22060E+01 0.00000E+00
 -1      2316 6.99000E+01 4.35050E+01 0.00000E+00
 -1      2317 7.14000E+01 4.35050E+01 0.00000E+00
 -1      2318 6.91500E+01 4.22060E+01 0.00000E+00
 -1      2319 7.29000E+01 4.35050E+01 0.00000E+00
 -1      2320 7.44000E+01 4.35050E+01 0.00000E+00
 -1      2321 7.21500E+01 4.22060E+01 0.00000E+00
 -1      2322 7.59000E+01 4.35050E+01 0.00000E+00
 -1      2323 7.74000E+01 4.35050E+01 0.00000E+00
 -1      2324 7.51500E+01 4.22060E+01 0.00000E+00
 -1      2325 7.89000E+01 4.35050E+01 0.00000E+00
 -1      2326 8.04000E+01 4.35050E+01 0.00000E+00
 -1      2327 7.81500E+01 4.22060E+01 0.00000E+00
 -1      2328 8.19000E+01 4.35050E+01 0.00000E+00
 -1      2329 8.34000E+01 4.35050E+01 0.00000E+00
 -1      2330 8.11500E+01 4.22060E+01 0.00000E+00
 -1      2331 8.49000E+01 4.35050E+01 0.00000E+00
 -1      2332 8.64000E+01 4.35050E+01 0.00000E+00
 -1      2333 8.41500E+01 4.22060E+01 0.00000E+00
 -1      2334 8.79000E+01 4.35050E+01 0.00000E+00
 -1      2335 8.94000E+01 4.35050E+01 0.00000E+00
 -1      2336 8.71500E+01 4.22060E+01 0.00000E+00
 -1      2337 9.09000E+01 4.35050E+01 0.00000E+00
 -1      2338 9.24000E+01 4.35050E+01 0.00000E+00
 -1      2339 9.01500E+01 4.22060E+01 0.00000E+00
 -1      2340 9.39000E+01 4.35050E+01 0.00000E+00
 -1      2341 9.54000E+01 4.35050E+01 0.00000E+00
 -1      2342 9.31500E+01 4.22060E+01 0.00000E+00
 -1      2343 9.69000E+01 4.35050E+01 0.00000E+00
 -1      2344 9.84000E+01 4.35050E+01 0.00000E+00
 -1      2345 9.61500E+01 4.22060E+01 0.00000E+00
 -1      2346 9.99000E+01 4.35050E+01 0.00000E+00
 -1      2347 1.01400E+02 4.35050E+01 0.00000E+00
 -1      2348 9.91500E+01 4.22060E+01 0.00000E+00
 -1      2349 1.02900E+02 4.35050E+01 0.00000E+00
 -1      2350 1.04400E+02 4.35050E+01 0.00000E+00
 -1      2351 1.02150E+02 4.22060E+01 0.00000E+00
 -1      2352 1.05900E+02 4.35050E+01 0.00000E+00
 -1      2353 1.07400E+02 4.35050E+01 0.00000E+00
 -1      2354 1.05150E+02 4.22060E+01 0.00000E+00
 -1      2355 1.08900E+02 4.35050E+01 0.00000E+00
 -1      2356 1.10400E+02 4.35050E+01 0.00000E+00
 -1      2357 1.08150E+02 4.22060E+01 0.00000E+00
 -1      2358 1.11900E+02 4.35050E+01 0.00000E+00
 -1      2359 1.13400E+02 4.35050E+01 0.00000E+00
 -1      2360 1.11150E+02 4.22060E+01 0.00000E+00
 -1      2361 1.14900E+02 4.35050E+01 0.00000E+00
 -1      2362 1.16400E+02 4.35050E+01 0.00000E+00
 -1      2363 1.14150E+02 4.22060E+01 0.00000E+00
 -1      2364 1.17900E+02 4.35050E+01 0.00000E+00
 -1      2365 1.19400E+02 4.35050E+01 0.00000E+00
 -1      2366 1.17150E+02 4.22060E+01 0.00000E+00
 -1      2367 1.20900E+02 4.35050E+01 0.00000E+00
 -1      2368 1.22400E+02 4.35050E+01 0.00000E+00
 -1      2369 1.20150E+02 4.22060E+01 0.00000E+00
 -1      2370 1.23900E+02 4.35050E+01 0.00000E+00
 -1      2371 1.25400E+02 4.35050E+01 0.00000E+00
 -1      2372 1.23150E+02 4.22060E+01 0.00000E+00
 -1      2373 1.26900E+02 4.35050E+01 0.00000E+00
 -1      2374 1.28400E+02 4.35050E+01 0.00000E+00
 -1      2375 1.26150E+02 4.22060E+01 0.00000E+00
 -1      2376 1.29900E+02 4.35050E+01 0.00000E+00
 -1      2377 1.31400E+02 4.35050E+01 0.00000E+00
 -1      2378 1.29150E+02 4.22060E+01 0.00000E+00
 -1      2379 1.32900E+02 4.35050E+01 0.00000E+00
 -1      2380 1.34400E+02 4.35050E+01 0.00000E+00
 -1      2381 1.32150E+02 4.22060E+01 0.00000E+00
 -1      2382 1.35900E+02 4.35050E+01 0.00000E+00
 -1      2383 1.37400E+02 4.35050E+01 0.00000E+00
 -1      2384 1.35150E+02 4.22060E+01 0.00000E+00
 -1      2385 1.38900E+02 4.35050E+01 0.00000E+00
 -1      2386 1.40400E+02 4.35050E+01 0.00000E+00
 -1      2387 1.38150E+02 4.22060E+01 0.00000E+00
 -1      2388 4.50646E+01 2.16717E+01 0.00000E+00
 -1      2389 4.53265E+01 2.24984E+01 0.00000E+00
 -1      2390 1.97850E+01 5.30525E+00 0.00000E+00
 -1      2391 1.82850E+01 5.30525E+00 0.00000E+00
 -1      2392 2.27850E+01 5.30525E+00 0.00000E+00
 -1      2393 2.12850E+01 5.30525E+00 0.00000E+00
 -1      2394 2.05350E+01 6.60425E+00 0.00000E+00
 -1      2395 2.57850E+01 5.30525E+00 0.00000E+00
 -1      2396 2.42850E+01 5.30525E+00 0.00000E+00
 -1      2397 2.35350E+01 6.60425E+00 0.00000E+00
 -1      2398 2.87850E+01 5.30525E+00 0.00000E+00
 -1      2399 2.72850E+01 5.30525E+00 0.00000E+00
 -1      2400 2.65350E+01 6.60425E+00 0.00000E+00
 -1      2401 3.17850E+01 5.30525E+00 0.00000E+00
 -1      2402 3.02850E+01 5.30525E+00 0.00000E+00
 -1      2403 2.95350E+01 6.60425E+00 0.00000E+00
 -1      2404 3.47850E+01 5.30525E+00 0.00000E+00
 -1      2405 3.32850E+01 5.30525E+00 0.00000E+00
 -1      2406 3.25350E+01 6.60425E+00 0.00000E+00
 -1      2407 3.77850E+01 5.30525E+00 0.00000E+00
 -1      2408 3.62850E+01 5.30525E+00 0.00000E+00
 -1      2409 3.55350E+01 6.60425E+00 0.00000E+00
 -1      2410 4.07850E+01 5.30525E+00 0.00000E+00
 -1      2411 3.92850E+01 5.30525E+00 0.00000E+00
 -1      2412 3.85350E+01 6.60425E+00 0.00000E+00
 -1      2413 4.37850E+01 5.30525E+00 0.00000E+00
 -1      2414 4.22850E+01 5.30525E+00 0.00000E+00
 -1      2415 4.15350E+01 6.60425E+00 0.00000E+00
 -1      2416 4.67850E+01 5.30525E+00 0.00000E+00
 -1      2417 4.52850E+01 5.30525E+00 0.00000E+00
 -1      2418 4.45350E+01 6.60425E+00 0.00000E+00
 -1      2419 4.97850E+01 5.30525E+00 0.00000E+00
 -1      2420 4.82850E+01 5.30525E+00 0.00000E+00
 -1      2421 4.75350E+01 6.60425E+00 0.00000E+00
 -1      2422 5.27850E+01 5.30525E+00 0.00000E+00
 -1      2423 5.12850E+01 5.30525E+00 0.00000E+00
 -1      2424 5.05350E+01 6.60425E+00 0.00000E+00
 -1      2425 5.57850E+01 5.30525E+00 0.00000E+00
 -1      2426 5.42850E+01 5.30525E+00 0.00000E+00
 -1      2427 5.35350E+01 6.60425E+00 0.00000E+00
 -1      2428 5.87850E+01 5.30525E+00 0.00000E+00
 -1      2429 5.72850E+01 5.30525E+00 0.00000E+00
 -1      2430 5.65350E+01 6.60425E+00 0.00000E+00
 -1      2431 6.17850E+01 5.30525E+00 0.00000E+00
 -1      2432 6.02850E+01 5.30525E+00 0.00000E+00
 -1      2433 5.95350E+01 6.60425E+00 0.00000E+00
 -1      2434 6.47850E+01 5.30525E+00 0.00000E+00
 -1      2435 6.32850E+01 5.30525E+00 0.00000E+00
 -1      2436 6.25350E+01 6.60425E+00 0.00000E+00
 -1      2437 6.77850E+01 5.30525E+00 0.00000E+00
 -1      2438 6.62850E+01 5.30525E+00 0.00000E+00
 -1      2439 6.55350E+01 6.60425E+00 0.00000E+00
 -1      2440 7.07850E+01 5.30525E+00 0.00000E+00
 -1      2441 6.92850E+01 5.30525E+00 0.00000E+00
 -1      2442 6.85350E+01 6.60425E+00 0.00000E+00
 -1      2443 7.37850E+01 5.30525E+00 0.00000E+00
 -1      2444 7.22850E+01 5.30525E+00 0.00000E+00
 -1      2445 7.15350E+01 6.60425E+00 0.00000E+00
 -1      2446 7.67850E+01 5.30525E+00 0.00000E+00
 -1      2447 7.52850E+01 5.30525E+00 0.00000E+00
 -1      2448 7.45350E+01 6.60425E+00 0.00000E+00
 -1      2449 7.97850E+01 5.30525E+00 0.00000E+00
 -1      2450 7.82850E+01 5.30525E+00 0.00000E+00
 -1      2451 7.75350E+01 6.60425E+00 0.00000E+00
 -1      2452 8.27850E+01 5.30525E+00 0.00000E+00
 -1      2453 8.12850E+01 5.30525E+00 0.00000E+00
 -1      2454 8.05350E+01 6.60425E+00 0.00000E+00
 -1      2455 8.57850E+01 5.30525E+00 0.00000E+00
 -1      2456 8.42850E+01 5.30525E+00 0.00000E+00
 -1      2457 8.35350E+01 6.60425E+00 0.00000E+00
 -1      2458 8.87850E+01 5.30525E+00 0.00000E+00
 -1      2459 8.72850E+01 5.30525E+00 0.00000E+00
 -1      2460 8.65350E+01 6.60425E+00 0.00000E+00
 -1      2461 9.17850E+01 5.30525E+00 0.00000E+00
 -1      2462 9.02850E+01 5.30525E+00 0.00000E+00
 -1      2463 8.95350E+01 6.60425E+00 0.00000E+00
 -1      2464 9.47850E+01 5.30525E+00 0.00000E+00
 -1      2465 9.32850E+01 5.30525E+00 0.00000E+00
 -1      2466 9.25350E+01 6.60425E+00 0.00000E+00
 -1      2467 9.77850E+01 5.30525E+00 0.00000E+00
 -1      2468 9.62850E+01 5.30525E+00 0.00000E+00
 -1      2469 9.55350E+01 6.60425E+00 0.00000E+00
 -1      2470 1.00785E+02 5.30525E+00 0.00000E+00
 -1      2471 9.92850E+01 5.30525E+00 0.00000E+00
 -1      2472 9.85350E+01 6.60425E+00 0.00000E+00
 -1      2473 1.03785E+02 5.30525E+00 0.00000E+00
 -1      2474 1.02285E+02 5.30525E+00 0.00000E+00
 -1      2475 1.01535E+02 6.60425E+00 0.00000E+00
 -1      2476 1.06785E+02 5.30525E+00 0.00000E+00
 -1      2477 1.05285E+02 5.30525E+00 0.00000E+00
 -1      2478 1.04535E+02 6.60425E+00 0.00000E+00
 -1      2479 1.09785E+02 5.30525E+00 0.00000E+00
 -1      2480 1.08285E+02 5.30525E+00 0.00000E+00
 -1      2481 1.07535E+02 6.60425E+00 0.00000E+00
 -1      2482 1.12785E+02 5.30525E+00 0.00000E+00
 -1      2483 1.11285E+02 5.30525E+00 0.00000E+00
 -1      2484 1.10535E+02 6.60425E+00 0.00000E+00
 -1      2485 1.15785E+02 5.30525E+00 0.00000E+00
 -1      2486 1.14285E+02 5.30525E+00 0.00000E+00
 -1      2487 1.13535E+02 6.60425E+00 0.00000E+00
 -1      2488 1.18785E+02 5.30525E+00 0.00000E+00
 -1      2489 1.17285E+02 5.30525E+00 0.00000E+00
 -1      2490 1.16535E+02 6.60425E+00 0.00000E+00
 -1      2491 1.21785E+02 5.30525E+00 0.00000E+00
 -1      2492 1.20285E+02 5.30525E+00 0.00000E+00
 -1      2493 1.19535E+02 6.60425E+00 0.00000E+00
 -1      2494 1.24785E+02 5.30525E+00 0.00000E+00
 -1      2495 1.23285E+02 5.30525E+00 0.00000E+00
 -1      2496 1.22535E+02 6.60425E+00 0.00000E+00
 -1      2497 1.27785E+02 5.30525E+00 0.00000E+00
 -1      2498 1.26285E+02 5.30525E+00 0.00000E+00
 -1      2499 1.25535E+02 6.60425E+00 0.00000E+00
 -1      2500 1.30785E+02 5.30525E+00 0.00000E+00
 -1      2501 1.29285E+02 5.30525E+00 0.00000E+00
 -1      2502 1.28535E+02 6.60425E+00 0.00000E+00
 -1      2503 1.33785E+02 5.30525E+00 0.00000E+00
 -1      2504 1.32285E+02 5.30525E+00 0.00000E+00
 -1      2505 1.31535E+02 6.60425E+00 0.00000E+00
 -1      2506 1.36785E+02 5.30525E+00 0.00000E+00
 -1      2507 1.35285E+02 5.30525E+00 0.00000E+00
 -1      2508 1.34535E+02 6.60425E+00 0.00000E+00
 -1      2509 1.39785E+02 5.30525E+00 0.00000E+00
 -1      2510 1.38285E+02 5.30525E+00 0.00000E+00
 -1      2511 1.37535E+02 6.60425E+00 0.00000E+00
 -1      2512 1.42785E+02 5.30525E+00 0.00000E+00
 -1      2513 1.41285E+02 5.30525E+00 0.00000E+00
 -1      2514 1.40535E+02 6.60425E+00 0.00000E+00
 -1      2515 1.44336E+02 5.26953E+00 0.00000E+00
 -1      2516 1.43505E+02 1.69125E+01 0.00000E+00
 -1      2517 1.43505E+02 1.54375E+01 0.00000E+00
 -1      2518 1.43505E+02 1.98625E+01 0.00000E+00
 -1      2519 1.43505E+02 1.83875E+01 0.00000E+00
 -1      2520 1.42206E+02 1.76500E+01 0.00000E+00
 -1      2521 1.43505E+02 1.10625E+01 0.00000E+00
 -1      2522 1.43505E+02 9.58750E+00 0.00000E+00
 -1      2523 1.43505E+02 1.39750E+01 0.00000E+00
 -1      2524 1.43505E+02 1.25250E+01 0.00000E+00
 -1      2525 1.42206E+02 1.17875E+01 0.00000E+00
 -1      2526 1.42206E+02 1.47125E+01 0.00000E+00
 -1      2527 1.43505E+02 2.28125E+01 0.00000E+00
 -1      2528 1.43505E+02 2.13375E+01 0.00000E+00
 -1      2529 1.42206E+02 2.06000E+01 0.00000E+00
 -1      2530 1.43505E+02 2.57625E+01 0.00000E+00
 -1      2531 1.43505E+02 2.42875E+01 0.00000E+00
 -1      2532 1.42206E+02 2.35500E+01 0.00000E+00
 -1      2533 1.43505E+02 2.87125E+01 0.00000E+00
 -1      2534 1.43505E+02 2.72375E+01 0.00000E+00
 -1      2535 1.42206E+02 2.65000E+01 0.00000E+00
 -1      2536 1.43505E+02 3.16125E+01 0.00000E+00
 -1      2537 1.43505E+02 3.01625E+01 0.00000E+00
 -1      2538 1.42206E+02 2.94250E+01 0.00000E+00
 -1      2539 1.43505E+02 3.45625E+01 0.00000E+00
 -1      2540 1.43505E+02 3.30875E+01 0.00000E+00
 -1      2541 1.42206E+02 3.23500E+01 0.00000E+00
 -1      2542 1.43505E+02 3.75125E+01 0.00000E+00
 -1      2543 1.43505E+02 3.60375E+01 0.00000E+00
 -1      2544 1.42206E+02 3.53000E+01 0.00000E+00
 -1      2545 1.43505E+02 4.04625E+01 0.00000E+00
 -1      2546 1.43505E+02 3.89875E+01 0.00000E+00
 -1      2547 1.42206E+02 3.82500E+01 0.00000E+00
 -1      2548 1.44321E+02 4.30606E+01 0.00000E+00
 -1      2549 4.21416E+01 1.79678E+01 0.00000E+00
 -1      2550 4.27661E+01 1.85928E+01 0.00000E+00
 -1      2551 1.67850E+01 5.30525E+00 0.00000E+00
 -1      2552 1.52850E+01 5.30525E+00 0.00000E+00
 -1      2553 1.75350E+01 6.60425E+00 0.00000E+00
 -1      2554 4.56809E+01 2.36892E+01 0.00000E+00
 -1      2555 4.57135E+01 2.47868E+01 0.00000E+00
 -1      2556 4.43165E+01 2.98702E+01 0.00000E+00
 -1      2557 4.36538E+01 3.07617E+01 0.00000E+00
 -1      2558 6.55950E+00 4.28890E+01 0.00000E+00
 -1      2559 8.53650E+00 4.32410E+01 0.00000E+00
 -1      2560 9.28650E+00 4.19420E+01 0.00000E+00
 -1      2561 6.55950E+00 4.14140E+01 0.00000E+00
 -1      2562 2.46550E+01 2.31961E+01 0.00000E+00
 -1      2563 2.50179E+01 2.20222E+01 0.00000E+00
 -1      2564 3.65812E+01 1.48789E+01 0.00000E+00
 -1      2565 3.75280E+01 1.53457E+01 0.00000E+00
 -1      2566 3.82275E+01 1.47998E+01 0.00000E+00
 -1      2567 6.49500E+00 2.71625E+01 0.00000E+00
 -1      2568 6.49500E+00 2.86375E+01 0.00000E+00
 -1      2569 7.79400E+00 2.93750E+01 0.00000E+00
 -1      2570 7.79400E+00 2.64250E+01 0.00000E+00
 -1      2571 3.39192E+01 1.49929E+01 0.00000E+00
 -1      2572 3.51358E+01 1.47732E+01 0.00000E+00
 -1      2573 2.75852E+01 1.74435E+01 0.00000E+00
 -1      2574 2.83889E+01 1.66320E+01 0.00000E+00
 -1      2575 3.19536E+01 1.54633E+01 0.00000E+00
 -1      2576 3.28168E+01 1.52323E+01 0.00000E+00
 -1      2577 2.55397E+01 2.96111E+01 0.00000E+00
 -1      2578 2.50098E+01 2.85717E+01 0.00000E+00
 -1      2579 2.97507E+01 1.60846E+01 0.00000E+00
 -1      2580 3.08522E+01 1.57739E+01 0.00000E+00
 -1      2581 3.10837E+01 1.49110E+01 0.00000E+00
 -1      2582 2.64922E+01 1.93326E+01 0.00000E+00
 -1      2583 2.69742E+01 1.85416E+01 0.00000E+00
 -1      2584 2.54830E+01 2.08438E+01 0.00000E+00
 -1      2585 2.59876E+01 2.00882E+01 0.00000E+00
 -1      2586 2.55321E+01 1.92683E+01 0.00000E+00
 -1      2587 2.44148E+01 2.52808E+01 0.00000E+00
 -1      2588 2.43757E+01 2.44619E+01 0.00000E+00
 -1      2589 2.45582E+01 2.73320E+01 0.00000E+00
 -1      2590 2.44865E+01 2.63064E+01 0.00000E+00
 -1      2591 2.36104E+01 2.59378E+01 0.00000E+00
 -1      2592 2.67520E+01 3.13927E+01 0.00000E+00
 -1      2593 2.61838E+01 3.06019E+01 0.00000E+00
 -1      2594 2.81988E+01 3.29419E+01 0.00000E+00
 -1      2595 2.74786E+01 3.22366E+01 0.00000E+00
 -1      2596 2.96659E+01 3.43255E+01 0.00000E+00
 -1      2597 2.89220E+01 3.37080E+01 0.00000E+00
 -1      2598 3.19344E+01 3.53110E+01 0.00000E+00
 -1      2599 3.08494E+01 3.49586E+01 0.00000E+00
 -1      2600 3.40300E+01 3.55262E+01 0.00000E+00
 -1      2601 3.31197E+01 3.54410E+01 0.00000E+00
 -1      2602 3.58801E+01 3.56846E+01 0.00000E+00
 -1      2603 3.49551E+01 3.56054E+01 0.00000E+00
 -1      2604 3.44356E+01 3.62498E+01 0.00000E+00
 -1      2605 4.02945E+01 3.42350E+01 0.00000E+00
 -1      2606 3.95377E+01 3.47034E+01 0.00000E+00
 -1      2607 4.17032E+01 3.30775E+01 0.00000E+00
 -1      2608 4.09988E+01 3.36562E+01 0.00000E+00
 -1      2609 4.10718E+01 3.46196E+01 0.00000E+00
 -1      2610 4.30565E+01 3.15981E+01 0.00000E+00
 -1      2611 4.25041E+01 3.22698E+01 0.00000E+00
 -1      2612 8.07525E+00 5.11044E+00 0.00000E+00
 -1      2613 6.57525E+00 5.11044E+00 0.00000E+00
 -1      2614 6.40575E+00 6.01981E+00 0.00000E+00
 -1      2615 8.82525E+00 6.40944E+00 0.00000E+00
 -1      2616 4.06069E+01 1.66716E+01 0.00000E+00
 -1      2617 4.13743E+01 1.73197E+01 0.00000E+00
 -1      2618 4.22931E+01 1.70261E+01 0.00000E+00
 -1      2619 3.50896E+01 1.35757E+01 0.00000E+00
 -1      2620 3.58354E+01 1.42273E+01 0.00000E+00
 -1      2621 3.65349E+01 1.36814E+01 0.00000E+00
 -1      2622 7.79400E+00 3.52687E+01 0.00000E+00
 -1      2623 6.49500E+00 3.60062E+01 0.00000E+00
 -1      2624 6.49500E+00 3.74750E+01 0.00000E+00
 -1      2625 1.45350E+01 6.60425E+00 0.00000E+00
 -1      2626 6.40575E+00 7.49481E+00 0.00000E+00
 -1      2627 4.03500E+01 1.58223E+01 0.00000E+00
 -1      2628 2.38179E+01 2.36464E+01 0.00000E+00
 -1      2629 4.37054E+01 1.88179E+01 0.00000E+00
 -1      2630 4.51817E+01 2.08938E+01 0.00000E+00
 -1      2631 4.61301E+01 2.10482E+01 0.00000E+00
 -1      2632 4.52987E+01 2.01159E+01 0.00000E+00
 -1      2633 4.66865E+01 2.53135E+01 0.00000E+00
 -1      2634 4.56782E+01 2.58927E+01 0.00000E+00
 -1      2635 1.43586E+02 6.56853E+00 0.00000E+00
 -1      2636 4.49315E+01 2.92134E+01 0.00000E+00
 -1      2637 4.51876E+01 3.00957E+01 0.00000E+00
 -1      2638 1.43419E+02 7.72713E+00 0.00000E+00
 -1      2639 1.42758E+02 4.35929E+01 0.00000E+00
 -1      2640 1.43241E+02 4.17323E+01 0.00000E+00
 -1      2641 1.41942E+02 4.09948E+01 0.00000E+00
 -1      2642 1.41414E+02 4.35342E+01 0.00000E+00
 -1      2643 4.25770E+01 3.32332E+01 0.00000E+00
 -1      2644 7.70475E+00 8.23231E+00 0.00000E+00
 -1      2645 4.63675E+01 2.30168E+01 0.00000E+00
 -1      2646 4.39752E+01 3.15890E+01 0.00000E+00
 -1      2647 4.55170E+01 2.67981E+01 0.00000E+00
 -1      2648 3.66108E+01 3.60613E+01 0.00000E+00
 -1      2649 3.60914E+01 3.67057E+01 0.00000E+00
 -1      2650 3.73416E+01 3.64380E+01 0.00000E+00
 -1      2651 3.91142E+01 3.54960E+01 0.00000E+00
 -1      2652 3.23253E+01 3.60406E+01 0.00000E+00
 -1      2653 2.99565E+01 3.52775E+01 0.00000E+00
 -1      2654 2.80498E+01 3.38783E+01 0.00000E+00
 -1      2655 2.41337E+01 2.82031E+01 0.00000E+00
 -1      2656 2.45623E+01 2.12023E+01 0.00000E+00
 -1      2657 2.86204E+01 1.57690E+01 0.00000E+00
 -1      2658 2.52295E+01 3.04336E+01 0.00000E+00
 -1      2659 2.66477E+01 1.74145E+01 0.00000E+00
 -1      2660 6.55950E+00 3.99453E+01 0.00000E+00
 -1      2661 3.32876E+01 1.43610E+01 0.00000E+00
 -1      2662 2.66001E+01 3.22683E+01 0.00000E+00
 -1      2663 4.53048E+01 2.75530E+01 0.00000E+00
 -1      2664 4.51437E+01 2.84585E+01 0.00000E+00
 -1      2665 4.60148E+01 2.86840E+01 0.00000E+00
 -1      2666 4.64391E+01 2.71742E+01 0.00000E+00
 -1      2667 1.42120E+02 8.46463E+00 0.00000E+00
 -1      2668 1.40664E+02 4.22352E+01 0.00000E+00
 -1      2669 9.09300E+00 1.98250E+01 0.00000E+00
 -1      2670 9.09300E+00 2.12750E+01 0.00000E+00
 -1      2671 9.09300E+00 2.27500E+01 0.00000E+00
 -1      2672 9.09300E+00 2.42250E+01 0.00000E+00
 -1      2673 1.03920E+01 2.20250E+01 0.00000E+00
 -1      2674 9.09300E+00 1.39375E+01 0.00000E+00
 -1      2675 9.09300E+00 1.54125E+01 0.00000E+00
 -1      2676 9.09300E+00 1.09875E+01 0.00000E+00
 -1      2677 9.09300E+00 1.24625E+01 0.00000E+00
 -1      2678 1.03920E+01 1.32000E+01 0.00000E+00
 -1      2679 1.22850E+01 7.90325E+00 0.00000E+00
 -1      2680 1.07850E+01 7.90325E+00 0.00000E+00
 -1      2681 4.70925E+01 2.21529E+01 0.00000E+00
 -1      2682 4.74469E+01 2.33437E+01 0.00000E+00
 -1      2683 1.52850E+01 7.90325E+00 0.00000E+00
 -1      2684 1.37850E+01 7.90325E+00 0.00000E+00
 -1      2685 1.30350E+01 9.20225E+00 0.00000E+00
 -1      2686 2.28409E+01 2.40946E+01 0.00000E+00
 -1      2687 2.31201E+01 2.28288E+01 0.00000E+00
 -1      2688 1.44000E+01 4.09070E+01 0.00000E+00
 -1      2689 1.59000E+01 4.09070E+01 0.00000E+00
 -1      2690 1.74000E+01 4.09070E+01 0.00000E+00
 -1      2691 1.89000E+01 4.09070E+01 0.00000E+00
 -1      2692 1.66500E+01 3.96080E+01 0.00000E+00
 -1      2693 2.04000E+01 4.09070E+01 0.00000E+00
 -1      2694 2.19000E+01 4.09070E+01 0.00000E+00
 -1      2695 1.96500E+01 3.96080E+01 0.00000E+00
 -1      2696 2.34000E+01 4.09070E+01 0.00000E+00
 -1      2697 2.49000E+01 4.09070E+01 0.00000E+00
 -1      2698 2.26500E+01 3.96080E+01 0.00000E+00
 -1      2699 2.64000E+01 4.09070E+01 0.00000E+00
 -1      2700 2.79000E+01 4.09070E+01 0.00000E+00
 -1      2701 2.56500E+01 3.96080E+01 0.00000E+00
 -1      2702 2.94000E+01 4.09070E+01 0.00000E+00
 -1      2703 3.09000E+01 4.09070E+01 0.00000E+00
 -1      2704 2.86500E+01 3.96080E+01 0.00000E+00
 -1      2705 3.24000E+01 4.09070E+01 0.00000E+00
 -1      2706 3.39000E+01 4.09070E+01 0.00000E+00
 -1      2707 3.16500E+01 3.96080E+01 0.00000E+00
 -1      2708 3.84000E+01 4.09070E+01 0.00000E+00
 -1      2709 3.99000E+01 4.09070E+01 0.00000E+00
 -1      2710 4.14000E+01 4.09070E+01 0.00000E+00
 -1      2711 4.29000E+01 4.09070E+01 0.00000E+00
 -1      2712 4.06500E+01 3.96080E+01 0.00000E+00
 -1      2713 4.44000E+01 4.09070E+01 0.00000E+00
 -1      2714 4.59000E+01 4.09070E+01 0.00000E+00
 -1      2715 4.36500E+01 3.96080E+01 0.00000E+00
 -1      2716 4.74000E+01 4.09070E+01 0.00000E+00
 -1      2717 4.89000E+01 4.09070E+01 0.00000E+00
 -1      2718 4.66500E+01 3.96080E+01 0.00000E+00
 -1      2719 5.04000E+01 4.09070E+01 0.00000E+00
 -1      2720 5.19000E+01 4.09070E+01 0.00000E+00
 -1      2721 4.96500E+01 3.96080E+01 0.00000E+00
 -1      2722 5.34000E+01 4.09070E+01 0.00000E+00
 -1      2723 5.49000E+01 4.09070E+01 0.00000E+00
 -1      2724 5.26500E+01 3.96080E+01 0.00000E+00
 -1      2725 5.64000E+01 4.09070E+01 0.00000E+00
 -1      2726 5.79000E+01 4.09070E+01 0.00000E+00
 -1      2727 5.56500E+01 3.96080E+01 0.00000E+00
 -1      2728 5.94000E+01 4.09070E+01 0.00000E+00
 -1      2729 6.09000E+01 4.09070E+01 0.00000E+00
 -1      2730 5.86500E+01 3.96080E+01 0.00000E+00
 -1      2731 6.24000E+01 4.09070E+01 0.00000E+00
 -1      2732 6.39000E+01 4.09070E+01 0.00000E+00
 -1      2733 6.16500E+01 3.96080E+01 0.00000E+00
 -1      2734 6.54000E+01 4.09070E+01 0.00000E+00
 -1      2735 6.69000E+01 4.09070E+01 0.00000E+00
 -1      2736 6.46500E+01 3.96080E+01 0.00000E+00
 -1      2737 6.84000E+01 4.09070E+01 0.00000E+00
 -1      2738 6.99000E+01 4.09070E+01 0.00000E+00
 -1      2739 6.76500E+01 3.96080E+01 0.00000E+00
 -1      2740 7.14000E+01 4.09070E+01 0.00000E+00
 -1      2741 7.29000E+01 4.09070E+01 0.00000E+00
 -1      2742 7.06500E+01 3.96080E+01 0.00000E+00
 -1      2743 7.44000E+01 4.09070E+01 0.00000E+00
 -1      2744 7.59000E+01 4.09070E+01 0.00000E+00
 -1      2745 7.36500E+01 3.96080E+01 0.00000E+00
 -1      2746 7.74000E+01 4.09070E+01 0.00000E+00
 -1      2747 7.89000E+01 4.09070E+01 0.00000E+00
 -1      2748 7.66500E+01 3.96080E+01 0.00000E+00
 -1      2749 8.04000E+01 4.09070E+01 0.00000E+00
 -1      2750 8.19000E+01 4.09070E+01 0.00000E+00
 -1      2751 7.96500E+01 3.96080E+01 0.00000E+00
 -1      2752 8.34000E+01 4.09070E+01 0.00000E+00
 -1      2753 8.49000E+01 4.09070E+01 0.00000E+00
 -1      2754 8.26500E+01 3.96080E+01 0.00000E+00
 -1      2755 8.64000E+01 4.09070E+01 0.00000E+00
 -1      2756 8.79000E+01 4.09070E+01 0.00000E+00
 -1      2757 8.56500E+01 3.96080E+01 0.00000E+00
 -1      2758 8.94000E+01 4.09070E+01 0.00000E+00
 -1      2759 9.09000E+01 4.09070E+01 0.00000E+00
 -1      2760 8.86500E+01 3.96080E+01 0.00000E+00
 -1      2761 9.24000E+01 4.09070E+01 0.00000E+00
 -1      2762 9.39000E+01 4.09070E+01 0.00000E+00
 -1      2763 9.16500E+01 3.96080E+01 0.00000E+00
 -1      2764 9.54000E+01 4.09070E+01 0.00000E+00
 -1      2765 9.69000E+01 4.09070E+01 0.00000E+00
 -1      2766 9.46500E+01 3.96080E+01 0.00000E+00
 -1      2767 9.84000E+01 4.09070E+01 0.00000E+00
 -1      2768 9.99000E+01 4.09070E+01 0.00000E+00
 -1      2769 9.76500E+01 3.96080E+01 0.00000E+00
 -1      2770 1.01400E+02 4.09070E+01 0.00000E+00
 -1      2771 1.02900E+02 4.09070E+01 0.00000E+00
 -1      2772 1.00650E+02 3.96080E+01 0.00000E+00
 -1      2773 1.04400E+02 4.09070E+01 0.00000E+00
 -1      2774 1.05900E+02 4.09070E+01 0.00000E+00
 -1      2775 1.03650E+02 3.96080E+01 0.00000E+00
 -1      2776 1.07400E+02 4.09070E+01 0.00000E+00
 -1      2777 1.08900E+02 4.09070E+01 0.00000E+00
 -1      2778 1.06650E+02 3.96080E+01 0.00000E+00
 -1      2779 1.10400E+02 4.09070E+01 0.00000E+00
 -1      2780 1.11900E+02 4.09070E+01 0.00000E+00
 -1      2781 1.09650E+02 3.96080E+01 0.00000E+00
 -1      2782 1.13400E+02 4.09070E+01 0.00000E+00
 -1      2783 1.14900E+02 4.09070E+01 0.00000E+00
 -1      2784 1.12650E+02 3.96080E+01 0.00000E+00
 -1      2785 1.16400E+02 4.09070E+01 0.00000E+00
 -1      2786 1.17900E+02 4.09070E+01 0.00000E+00
 -1      2787 1.15650E+02 3.96080E+01 0.00000E+00
 -1      2788 1.19400E+02 4.09070E+01 0.00000E+00
 -1      2789 1.20900E+02 4.09070E+01 0.00000E+00
 -1      2790 1.18650E+02 3.96080E+01 0.00000E+00
 -1      2791 1.22400E+02 4.09070E+01 0.00000E+00
 -1      2792 1.23900E+02 4.09070E+01 0.00000E+00
 -1      2793 1.21650E+02 3.96080E+01 0.00000E+00
 -1      2794 1.25400E+02 4.09070E+01 0.00000E+00
 -1      2795 1.26900E+02 4.09070E+01 0.00000E+00
 -1      2796 1.24650E+02 3.96080E+01 0.00000E+00
 -1      2797 1.28400E+02 4.09070E+01 0.00000E+00
 -1      2798 1.29900E+02 4.09070E+01 0.00000E+00
 -1      2799 1.27650E+02 3.96080E+01 0.00000E+00
 -1      2800 1.31400E+02 4.09070E+01 0.00000E+00
 -1      2801 1.32900E+02 4.09070E+01 0.00000E+00
 -1      2802 1.30650E+02 3.96080E+01 0.00000E+00
 -1      2803 1.34400E+02 4.09070E+01 0.00000E+00
 -1      2804 1.35900E+02 4.09070E+01 0.00000E+00
 -1      2805 1.33650E+02 3.96080E+01 0.00000E+00
 -1      2806 1.37400E+02 4.09070E+01 0.00000E+00
 -1      2807 1.38900E+02 4.09070E+01 0.00000E+00
 -1      2808 1.36650E+02 3.96080E+01 0.00000E+00
 -1      2809 4.76451E+01 2.47906E+01 0.00000E+00
 -1      2810 4.76097E+01 2.58965E+01 0.00000E+00
 -1      2811 4.37054E+01 3.35511E+01 0.00000E+00
 -1      2812 4.29045E+01 3.43588E+01 0.00000E+00
 -1      2813 1.40928E+02 4.09655E+01 0.00000E+00
 -1      2814 1.41192E+02 3.96958E+01 0.00000E+00
 -1      2815 1.39914E+02 4.09362E+01 0.00000E+00
 -1      2816 2.12850E+01 7.90325E+00 0.00000E+00
 -1      2817 1.97850E+01 7.90325E+00 0.00000E+00
 -1      2818 3.02850E+01 7.90325E+00 0.00000E+00
 -1      2819 2.87850E+01 7.90325E+00 0.00000E+00
 -1      2820 3.32850E+01 7.90325E+00 0.00000E+00
 -1      2821 3.17850E+01 7.90325E+00 0.00000E+00
 -1      2822 3.10350E+01 9.20225E+00 0.00000E+00
 -1      2823 3.62850E+01 7.90325E+00 0.00000E+00
 -1      2824 3.47850E+01 7.90325E+00 0.00000E+00
 -1      2825 3.40350E+01 9.20225E+00 0.00000E+00
 -1      2826 3.92850E+01 7.90325E+00 0.00000E+00
 -1      2827 3.77850E+01 7.90325E+00 0.00000E+00
 -1      2828 3.70350E+01 9.20225E+00 0.00000E+00
 -1      2829 4.22850E+01 7.90325E+00 0.00000E+00
 -1      2830 4.07850E+01 7.90325E+00 0.00000E+00
 -1      2831 4.00350E+01 9.20225E+00 0.00000E+00
 -1      2832 4.52850E+01 7.90325E+00 0.00000E+00
 -1      2833 4.37850E+01 7.90325E+00 0.00000E+00
 -1      2834 4.30350E+01 9.20225E+00 0.00000E+00
 -1      2835 4.82850E+01 7.90325E+00 0.00000E+00
 -1      2836 4.67850E+01 7.90325E+00 0.00000E+00
 -1      2837 4.60350E+01 9.20225E+00 0.00000E+00
 -1      2838 5.12850E+01 7.90325E+00 0.00000E+00
 -1      2839 4.97850E+01 7.90325E+00 0.00000E+00
 -1      2840 4.90350E+01 9.20225E+00 0.00000E+00
 -1      2841 5.42850E+01 7.90325E+00 0.00000E+00
 -1      2842 5.27850E+01 7.90325E+00 0.00000E+00
 -1      2843 5.20350E+01 9.20225E+00 0.00000E+00
 -1      2844 5.72850E+01 7.90325E+00 0.00000E+00
 -1      2845 5.57850E+01 7.90325E+00 0.00000E+00
 -1      2846 5.50350E+01 9.20225E+00 0.00000E+00
 -1      2847 6.02850E+01 7.90325E+00 0.00000E+00
 -1      2848 5.87850E+01 7.90325E+00 0.00000E+00
 -1      2849 5.80350E+01 9.20225E+00 0.00000E+00
 -1      2850 6.32850E+01 7.90325E+00 0.00000E+00
 -1      2851 6.17850E+01 7.90325E+00 0.00000E+00
 -1      2852 6.10350E+01 9.20225E+00 0.00000E+00
 -1      2853 6.62850E+01 7.90325E+00 0.00000E+00
 -1      2854 6.47850E+01 7.90325E+00 0.00000E+00
 -1      2855 6.40350E+01 9.20225E+00 0.00000E+00
 -1      2856 6.92850E+01 7.90325E+00 0.00000E+00
 -1      2857 6.77850E+01 7.90325E+00 0.00000E+00
 -1      2858 6.70350E+01 9.20225E+00 0.00000E+00
 -1      2859 7.22850E+01 7.90325E+00 0.00000E+00
 -1      2860 7.07850E+01 7.90325E+00 0.00000E+00
 -1      2861 7.00350E+01 9.20225E+00 0.00000E+00
 -1      2862 7.52850E+01 7.90325E+00 0.00000E+00
 -1      2863 7.37850E+01 7.90325E+00 0.00000E+00
 -1      2864 7.30350E+01 9.20225E+00 0.00000E+00
 -1      2865 7.82850E+01 7.90325E+00 0.00000E+00
 -1      2866 7.67850E+01 7.90325E+00 0.00000E+00
 -1      2867 7.60350E+01 9.20225E+00 0.00000E+00
 -1      2868 8.12850E+01 7.90325E+00 0.00000E+00
 -1      2869 7.97850E+01 7.90325E+00 0.00000E+00
 -1      2870 7.90350E+01 9.20225E+00 0.00000E+00
 -1      2871 8.42850E+01 7.90325E+00 0.00000E+00
 -1      2872 8.27850E+01 7.90325E+00 0.00000E+00
 -1      2873 8.20350E+01 9.20225E+00 0.00000E+00
 -1      2874 8.72850E+01 7.90325E+00 0.00000E+00
 -1      2875 8.57850E+01 7.90325E+00 0.00000E+00
 -1      2876 8.50350E+01 9.20225E+00 0.00000E+00
 -1      2877 9.02850E+01 7.90325E+00 0.00000E+00
 -1      2878 8.87850E+01 7.90325E+00 0.00000E+00
 -1      2879 8.80350E+01 9.20225E+00 0.00000E+00
 -1      2880 9.32850E+01 7.90325E+00 0.00000E+00
 -1      2881 9.17850E+01 7.90325E+00 0.00000E+00
 -1      2882 9.10350E+01 9.20225E+00 0.00000E+00
 -1      2883 9.62850E+01 7.90325E+00 0.00000E+00
 -1      2884 9.47850E+01 7.90325E+00 0.00000E+00
 -1      2885 9.40350E+01 9.20225E+00 0.00000E+00
 -1      2886 9.92850E+01 7.90325E+00 0.00000E+00
 -1      2887 9.77850E+01 7.90325E+00 0.00000E+00
 -1      2888 9.70350E+01 9.20225E+00 0.00000E+00
 -1      2889 1.02285E+02 7.90325E+00 0.00000E+00
 -1      2890 1.00785E+02 7.90325E+00 0.00000E+00
 -1      2891 1.00035E+02 9.20225E+00 0.00000E+00
 -1      2892 1.05285E+02 7.90325E+00 0.00000E+00
 -1      2893 1.03785E+02 7.90325E+00 0.00000E+00
 -1      2894 1.03035E+02 9.20225E+00 0.00000E+00
 -1      2895 1.08285E+02 7.90325E+00 0.00000E+00
 -1      2896 1.06785E+02 7.90325E+00 0.00000E+00
 -1      2897 1.06035E+02 9.20225E+00 0.00000E+00
 -1      2898 1.11285E+02 7.90325E+00 0.00000E+00
 -1      2899 1.09785E+02 7.90325E+00 0.00000E+00
 -1      2900 1.09035E+02 9.20225E+00 0.00000E+00
 -1      2901 1.14285E+02 7.90325E+00 0.00000E+00
 -1      2902 1.12785E+02 7.90325E+00 0.00000E+00
 -1      2903 1.12035E+02 9.20225E+00 0.00000E+00
 -1      2904 1.17285E+02 7.90325E+00 0.00000E+00
 -1      2905 1.15785E+02 7.90325E+00 0.00000E+00
 -1      2906 1.15035E+02 9.20225E+00 0.00000E+00
 -1      2907 1.20285E+02 7.90325E+00 0.00000E+00
 -1      2908 1.18785E+02 7.90325E+00 0.00000E+00
 -1      2909 1.18035E+02 9.20225E+00 0.00000E+00
 -1      2910 1.23285E+02 7.90325E+00 0.00000E+00
 -1      2911 1.21785E+02 7.90325E+00 0.00000E+00
 -1      2912 1.21035E+02 9.20225E+00 0.00000E+00
 -1      2913 1.26285E+02 7.90325E+00 0.00000E+00
 -1      2914 1.24785E+02 7.90325E+00 0.00000E+00
 -1      2915 1.24035E+02 9.20225E+00 0.00000E+00
 -1      2916 1.29285E+02 7.90325E+00 0.00000E+00
 -1      2917 1.27785E+02 7.90325E+00 0.00000E+00
 -1      2918 1.27035E+02 9.20225E+00 0.00000E+00
 -1      2919 1.32285E+02 7.90325E+00 0.00000E+00
 -1      2920 1.30785E+02 7.90325E+00 0.00000E+00
 -1      2921 1.30035E+02 9.20225E+00 0.00000E+00
 -1      2922 1.35285E+02 7.90325E+00 0.00000E+00
 -1      2923 1.33785E+02 7.90325E+00 0.00000E+00
 -1      2924 1.33035E+02 9.20225E+00 0.00000E+00
 -1      2925 1.38285E+02 7.90325E+00 0.00000E+00
 -1      2926 1.36785E+02 7.90325E+00 0.00000E+00
 -1      2927 1.36035E+02 9.20225E+00 0.00000E+00
 -1      2928 1.40953E+02 8.18394E+00 0.00000E+00
 -1      2929 1.39453E+02 8.18394E+00 0.00000E+00
 -1      2930 1.38703E+02 9.48294E+00 0.00000E+00
 -1      2931 1.41038E+02 1.00443E+01 0.00000E+00
 -1      2932 4.61211E+01 3.03535E+01 0.00000E+00
 -1      2933 4.55060E+01 3.10103E+01 0.00000E+00
 -1      2934 1.40907E+02 2.42875E+01 0.00000E+00
 -1      2935 1.40907E+02 2.28125E+01 0.00000E+00
 -1      2936 1.40907E+02 1.83875E+01 0.00000E+00
 -1      2937 1.40907E+02 1.69125E+01 0.00000E+00
 -1      2938 1.40907E+02 2.72375E+01 0.00000E+00
 -1      2939 1.40907E+02 2.57625E+01 0.00000E+00
 -1      2940 1.39608E+02 2.50250E+01 0.00000E+00
 -1      2941 1.40907E+02 2.13375E+01 0.00000E+00
 -1      2942 1.40907E+02 1.98625E+01 0.00000E+00
 -1      2943 1.39608E+02 1.91250E+01 0.00000E+00
 -1      2944 1.39608E+02 2.20750E+01 0.00000E+00
 -1      2945 1.40907E+02 3.01375E+01 0.00000E+00
 -1      2946 1.40907E+02 2.86875E+01 0.00000E+00
 -1      2947 1.39608E+02 2.79500E+01 0.00000E+00
 -1      2948 1.40907E+02 3.30875E+01 0.00000E+00
 -1      2949 1.40907E+02 3.16125E+01 0.00000E+00
 -1      2950 1.39608E+02 3.08750E+01 0.00000E+00
 -1      2951 1.40907E+02 3.60375E+01 0.00000E+00
 -1      2952 1.40907E+02 3.45625E+01 0.00000E+00
 -1      2953 1.39608E+02 3.38250E+01 0.00000E+00
 -1      2954 1.41192E+02 3.82207E+01 0.00000E+00
 -1      2955 1.82850E+01 7.90325E+00 0.00000E+00
 -1      2956 1.67850E+01 7.90325E+00 0.00000E+00
 -1      2957 1.60350E+01 9.20225E+00 0.00000E+00
 -1      2958 1.90350E+01 9.20225E+00 0.00000E+00
 -1      2959 8.91450E+00 8.42712E+00 0.00000E+00
 -1      2960 8.85168E+00 4.05347E+01 0.00000E+00
 -1      2961 1.02152E+01 4.07987E+01 0.00000E+00
 -1      2962 3.28062E+01 3.71246E+01 0.00000E+00
 -1      2963 3.16209E+01 3.69946E+01 0.00000E+00
 -1      2964 3.81333E+01 1.37973E+01 0.00000E+00
 -1      2965 3.90801E+01 1.42640E+01 0.00000E+00
 -1      2966 2.72850E+01 7.90325E+00 0.00000E+00
 -1      2967 2.57850E+01 7.90325E+00 0.00000E+00
 -1      2968 2.80350E+01 9.20225E+00 0.00000E+00
 -1      2969 2.42850E+01 7.90325E+00 0.00000E+00
 -1      2970 2.27850E+01 7.90325E+00 0.00000E+00
 -1      2971 2.50350E+01 9.20225E+00 0.00000E+00
 -1      2972 1.15576E+01 4.08528E+01 0.00000E+00
 -1      2973 1.30576E+01 4.08528E+01 0.00000E+00
 -1      2974 1.38076E+01 3.95538E+01 0.00000E+00
 -1      2975 1.11228E+01 3.94455E+01 0.00000E+00
 -1      2976 7.48818E+00 3.88019E+01 0.00000E+00
 -1      2977 2.75572E+01 1.50916E+01 0.00000E+00
 -1      2978 2.89190E+01 1.45442E+01 0.00000E+00
 -1      2979 3.25544E+01 1.36426E+01 0.00000E+00
 -1      2980 3.36569E+01 1.34033E+01 0.00000E+00
 -1      2981 9.09300E+00 1.68813E+01 0.00000E+00
 -1      2982 9.09300E+00 1.83563E+01 0.00000E+00
 -1      2983 1.03920E+01 1.90812E+01 0.00000E+00
 -1      2984 1.03920E+01 1.61437E+01 0.00000E+00
 -1      2985 9.09300E+00 3.15875E+01 0.00000E+00
 -1      2986 9.09300E+00 3.30625E+01 0.00000E+00
 -1      2987 2.48677E+01 3.13736E+01 0.00000E+00
 -1      2988 2.42236E+01 3.03828E+01 0.00000E+00
 -1      2989 2.34542E+01 2.14458E+01 0.00000E+00
 -1      2990 2.39193E+01 2.02674E+01 0.00000E+00
 -1      2991 2.63452E+01 3.32224E+01 0.00000E+00
 -1      2992 2.56187E+01 3.23785E+01 0.00000E+00
 -1      2993 3.02547E+01 1.40797E+01 0.00000E+00
 -1      2994 3.13561E+01 1.37690E+01 0.00000E+00
 -1      2995 4.42759E+01 1.77425E+01 0.00000E+00
 -1      2996 4.49208E+01 1.88862E+01 0.00000E+00
 -1      2997 2.45666E+01 1.91699E+01 0.00000E+00
 -1      2998 2.50713E+01 1.84142E+01 0.00000E+00
 -1      2999 2.56822E+01 1.73161E+01 0.00000E+00
 -1      3000 2.62932E+01 1.62180E+01 0.00000E+00
 -1      3001 2.47168E+01 1.72177E+01 0.00000E+00
 -1      3002 2.27072E+01 2.65162E+01 0.00000E+00
 -1      3003 2.26355E+01 2.54906E+01 0.00000E+00
 -1      3004 4.49087E+01 3.18468E+01 0.00000E+00
 -1      3005 4.43114E+01 3.26833E+01 0.00000E+00
 -1      3006 4.58422E+01 3.21045E+01 0.00000E+00
 -1      3007 4.25169E+01 1.59829E+01 0.00000E+00
 -1      3008 4.32842E+01 1.66310E+01 0.00000E+00
 -1      3009 2.33964E+01 2.91739E+01 0.00000E+00
 -1      3010 2.29447E+01 2.79342E+01 0.00000E+00
 -1      3011 2.77269E+01 3.49075E+01 0.00000E+00
 -1      3012 2.70037E+01 3.41414E+01 0.00000E+00
 -1      3013 3.01437E+01 3.63502E+01 0.00000E+00
 -1      3014 2.89602E+01 3.57171E+01 0.00000E+00
 -1      3015 3.49113E+01 3.69548E+01 0.00000E+00
 -1      3016 3.39862E+01 3.68755E+01 0.00000E+00
 -1      3017 3.32818E+01 3.78296E+01 0.00000E+00
 -1      3018 3.56420E+01 3.73314E+01 0.00000E+00
 -1      3019 3.99583E+01 3.62631E+01 0.00000E+00
 -1      3020 3.87052E+01 3.65607E+01 0.00000E+00
 -1      3021 4.22002E+01 3.49376E+01 0.00000E+00
 -1      3022 4.14958E+01 3.55163E+01 0.00000E+00
 -1      3023 4.33285E+01 3.52555E+01 0.00000E+00
 -1      3024 4.02559E+01 1.48197E+01 0.00000E+00
 -1      3025 4.14316E+01 1.53754E+01 0.00000E+00
 -1      3026 4.01617E+01 1.38172E+01 0.00000E+00
 -1      3027 9.09300E+00 3.45313E+01 0.00000E+00
 -1      3028 9.09300E+00 3.60000E+01 0.00000E+00
 -1      3029 1.03920E+01 3.37938E+01 0.00000E+00
 -1      3030 1.03920E+01 2.49750E+01 0.00000E+00
 -1      3031 9.09300E+00 2.57000E+01 0.00000E+00
 -1      3032 9.09300E+00 2.71750E+01 0.00000E+00
 -1      3033 2.24771E+01 2.18939E+01 0.00000E+00
 -1      3034 4.83701E+01 2.39267E+01 0.00000E+00
 -1      3035 2.19377E+01 2.46730E+01 0.00000E+00
 -1      3036 3.06246E+01 3.74342E+01 0.00000E+00
 -1      3037 4.58692E+01 1.90405E+01 0.00000E+00
 -1      3038 4.86602E+01 2.66821E+01 0.00000E+00
 -1      3039 4.77016E+01 2.72049E+01 0.00000E+00
 -1      3040 3.54000E+01 4.09070E+01 0.00000E+00
 -1      3041 3.69000E+01 4.09070E+01 0.00000E+00
 -1      3042 3.76500E+01 3.96080E+01 0.00000E+00
 -1      3043 3.46500E+01 3.96080E+01 0.00000E+00
 -1      3044 1.39164E+02 3.96372E+01 0.00000E+00
 -1      3045 4.24227E+01 1.49803E+01 0.00000E+00
 -1      3046 2.20350E+01 9.20225E+00 0.00000E+00
 -1      3047 4.68509E+01 2.95867E+01 0.00000E+00
 -1      3048 4.71693E+01 3.05013E+01 0.00000E+00
 -1      3049 1.41038E+02 1.15068E+01 0.00000E+00
 -1      3050 1.39870E+02 1.12261E+01 0.00000E+00
 -1      3051 1.41038E+02 1.29693E+01 0.00000E+00
 -1      3052 9.66450E+00 9.72612E+00 0.00000E+00
 -1      3053 1.09635E+01 1.04636E+01 0.00000E+00
 -1      3054 4.73266E+01 2.05971E+01 0.00000E+00
 -1      3055 4.72096E+01 2.13750E+01 0.00000E+00
 -1      3056 4.82890E+01 2.17019E+01 0.00000E+00
 -1      3057 1.39529E+02 3.85602E+01 0.00000E+00
 -1      3058 1.40542E+02 3.71145E+01 0.00000E+00
 -1      3059 1.39243E+02 3.63770E+01 0.00000E+00
 -1      3060 1.38514E+02 3.85310E+01 0.00000E+00
 -1      3061 2.79141E+01 3.59802E+01 0.00000E+00
 -1      3062 2.30345E+01 3.01138E+01 0.00000E+00
 -1      3063 3.73875E+01 1.31457E+01 0.00000E+00
 -1      3064 3.82401E+01 1.26099E+01 0.00000E+00
 -1      3065 3.66417E+01 1.24941E+01 0.00000E+00
 -1      3066 2.91914E+01 1.34022E+01 0.00000E+00
 -1      3067 2.34585E+01 1.94134E+01 0.00000E+00
 -1      3068 4.44996E+01 1.66993E+01 0.00000E+00
 -1      3069 3.81857E+01 3.72051E+01 0.00000E+00
 -1      3070 8.78718E+00 3.80644E+01 0.00000E+00
 -1      3071 2.60223E+01 3.42516E+01 0.00000E+00
 -1      3072 4.46389E+01 3.38089E+01 0.00000E+00
 -1      3073 3.17254E+01 1.28113E+01 0.00000E+00
 -1      3074 1.40973E+02 1.56722E+01 0.00000E+00
 -1      3075 1.40973E+02 1.42097E+01 0.00000E+00
 -1      3076 1.39805E+02 1.39290E+01 0.00000E+00
 -1      3077 1.39674E+02 1.64097E+01 0.00000E+00
 -1      3078 9.09300E+00 2.86437E+01 0.00000E+00
 -1      3079 9.09300E+00 3.01187E+01 0.00000E+00
 -1      3080 1.03920E+01 3.08563E+01 0.00000E+00
 -1      3081 1.03920E+01 2.79188E+01 0.00000E+00
 -1      3082 2.65918E+01 1.49931E+01 0.00000E+00
 -1      3083 2.68903E+01 1.37683E+01 0.00000E+00
 -1      3084 2.56263E+01 1.48947E+01 0.00000E+00
 -1      3085 3.43564E+01 1.28574E+01 0.00000E+00
 -1      3086 2.46128E+01 3.23277E+01 0.00000E+00
 -1      3087 4.10867E+01 3.65810E+01 0.00000E+00
 -1      3088 4.74895E+01 2.79598E+01 0.00000E+00
 -1      3089 2.19698E+01 2.74870E+01 0.00000E+00
 -1      3090 4.70630E+01 2.88318E+01 0.00000E+00
 -1      3091 1.16910E+01 1.24625E+01 0.00000E+00
 -1      3092 1.16910E+01 1.39375E+01 0.00000E+00
 -1      3093 2.78763E+01 3.73821E+01 0.00000E+00
 -1      3094 2.66429E+01 3.65725E+01 0.00000E+00
 -1      3095 4.95532E+01 2.59619E+01 0.00000E+00
 -1      3096 4.96451E+01 2.72704E+01 0.00000E+00
 -1      3097 1.89000E+01 3.83090E+01 0.00000E+00
 -1      3098 2.04000E+01 3.83090E+01 0.00000E+00
 -1      3099 2.19000E+01 3.83090E+01 0.00000E+00
 -1      3100 2.34000E+01 3.83090E+01 0.00000E+00
 -1      3101 2.11500E+01 3.70100E+01 0.00000E+00
 -1      3102 2.53776E+01 3.87912E+01 0.00000E+00
 -1      3103 2.68776E+01 3.87912E+01 0.00000E+00
 -1      3104 3.11259E+01 3.88433E+01 0.00000E+00
 -1      3105 3.26259E+01 3.88433E+01 0.00000E+00
 -1      3106 4.29000E+01 3.83315E+01 0.00000E+00
 -1      3107 4.44000E+01 3.83315E+01 0.00000E+00
 -1      3108 4.59000E+01 3.83315E+01 0.00000E+00
 -1      3109 4.74000E+01 3.83315E+01 0.00000E+00
 -1      3110 4.51500E+01 3.70550E+01 0.00000E+00
 -1      3111 4.89000E+01 3.83315E+01 0.00000E+00
 -1      3112 5.04000E+01 3.83315E+01 0.00000E+00
 -1      3113 4.81500E+01 3.70550E+01 0.00000E+00
 -1      3114 5.19000E+01 3.83315E+01 0.00000E+00
 -1      3115 5.34000E+01 3.83315E+01 0.00000E+00
 -1      3116 5.11500E+01 3.70550E+01 0.00000E+00
 -1      3117 5.49000E+01 3.83315E+01 0.00000E+00
 -1      3118 5.64000E+01 3.83315E+01 0.00000E+00
 -1      3119 5.41500E+01 3.70550E+01 0.00000E+00
 -1      3120 5.79000E+01 3.83315E+01 0.00000E+00
 -1      3121 5.94000E+01 3.83315E+01 0.00000E+00
 -1      3122 5.71500E+01 3.70550E+01 0.00000E+00
 -1      3123 6.09000E+01 3.83315E+01 0.00000E+00
 -1      3124 6.24000E+01 3.83315E+01 0.00000E+00
 -1      3125 6.01500E+01 3.70550E+01 0.00000E+00
 -1      3126 6.39000E+01 3.83315E+01 0.00000E+00
 -1      3127 6.54000E+01 3.83315E+01 0.00000E+00
 -1      3128 6.31500E+01 3.70550E+01 0.00000E+00
 -1      3129 6.69000E+01 3.83315E+01 0.00000E+00
 -1      3130 6.84000E+01 3.83315E+01 0.00000E+00
 -1      3131 6.61500E+01 3.70550E+01 0.00000E+00
 -1      3132 6.99000E+01 3.83315E+01 0.00000E+00
 -1      3133 7.14000E+01 3.83315E+01 0.00000E+00
 -1      3134 6.91500E+01 3.70550E+01 0.00000E+00
 -1      3135 7.29000E+01 3.83315E+01 0.00000E+00
 -1      3136 7.44000E+01 3.83315E+01 0.00000E+00
 -1      3137 7.21500E+01 3.70550E+01 0.00000E+00
 -1      3138 7.59000E+01 3.83315E+01 0.00000E+00
 -1      3139 7.74000E+01 3.83315E+01 0.00000E+00
 -1      3140 7.51500E+01 3.70550E+01 0.00000E+00
 -1      3141 7.89000E+01 3.83315E+01 0.00000E+00
 -1      3142 8.04000E+01 3.83315E+01 0.00000E+00
 -1      3143 7.81500E+01 3.70550E+01 0.00000E+00
 -1      3144 8.19000E+01 3.83315E+01 0.00000E+00
 -1      3145 8.34000E+01 3.83315E+01 0.00000E+00
 -1      3146 8.11500E+01 3.70550E+01 0.00000E+00
 -1      3147 8.49000E+01 3.83315E+01 0.00000E+00
 -1      3148 8.64000E+01 3.83315E+01 0.00000E+00
 -1      3149 8.41500E+01 3.70550E+01 0.00000E+00
 -1      3150 8.79000E+01 3.83315E+01 0.00000E+00
 -1      3151 8.94000E+01 3.83315E+01 0.00000E+00
 -1      3152 8.71500E+01 3.70550E+01 0.00000E+00
 -1      3153 9.09000E+01 3.83315E+01 0.00000E+00
 -1      3154 9.24000E+01 3.83315E+01 0.00000E+00
 -1      3155 9.01500E+01 3.70550E+01 0.00000E+00
 -1      3156 9.39000E+01 3.83315E+01 0.00000E+00
 -1      3157 9.54000E+01 3.83315E+01 0.00000E+00
 -1      3158 9.31500E+01 3.70550E+01 0.00000E+00
 -1      3159 9.69000E+01 3.83315E+01 0.00000E+00
 -1      3160 9.84000E+01 3.83315E+01 0.00000E+00
 -1      3161 9.61500E+01 3.70550E+01 0.00000E+00
 -1      3162 9.99000E+01 3.83315E+01 0.00000E+00
 -1      3163 1.01400E+02 3.83315E+01 0.00000E+00
 -1      3164 9.91500E+01 3.70550E+01 0.00000E+00
 -1      3165 1.02900E+02 3.83315E+01 0.00000E+00
 -1      3166 1.04400E+02 3.83315E+01 0.00000E+00
 -1      3167 1.02150E+02 3.70550E+01 0.00000E+00
 -1      3168 1.05900E+02 3.83315E+01 0.00000E+00
 -1      3169 1.07400E+02 3.83315E+01 0.00000E+00
 -1      3170 1.05150E+02 3.70550E+01 0.00000E+00
 -1      3171 1.08900E+02 3.83315E+01 0.00000E+00
 -1      3172 1.10400E+02 3.83315E+01 0.00000E+00
 -1      3173 1.08150E+02 3.70550E+01 0.00000E+00
 -1      3174 1.11900E+02 3.83315E+01 0.00000E+00
 -1      3175 1.13400E+02 3.83315E+01 0.00000E+00
 -1      3176 1.11150E+02 3.70550E+01 0.00000E+00
 -1      3177 1.14900E+02 3.83315E+01 0.00000E+00
 -1      3178 1.16400E+02 3.83315E+01 0.00000E+00
 -1      3179 1.14150E+02 3.70550E+01 0.00000E+00
 -1      3180 1.17900E+02 3.83315E+01 0.00000E+00
 -1      3181 1.19400E+02 3.83315E+01 0.00000E+00
 -1      3182 1.17150E+02 3.70550E+01 0.00000E+00
 -1      3183 1.20900E+02 3.83315E+01 0.00000E+00
 -1      3184 1.22400E+02 3.83315E+01 0.00000E+00
 -1      3185 1.20150E+02 3.70550E+01 0.00000E+00
 -1      3186 1.23900E+02 3.83315E+01 0.00000E+00
 -1      3187 1.25400E+02 3.83315E+01 0.00000E+00
 -1      3188 1.23150E+02 3.70550E+01 0.00000E+00
 -1      3189 1.26900E+02 3.83315E+01 0.00000E+00
 -1      3190 1.28400E+02 3.83315E+01 0.00000E+00
 -1      3191 1.26150E+02 3.70550E+01 0.00000E+00
 -1      3192 1.29900E+02 3.83315E+01 0.00000E+00
 -1      3193 1.31400E+02 3.83315E+01 0.00000E+00
 -1      3194 1.29150E+02 3.70550E+01 0.00000E+00
 -1      3195 1.32900E+02 3.83315E+01 0.00000E+00
 -1      3196 1.34400E+02 3.83315E+01 0.00000E+00
 -1      3197 1.32150E+02 3.70550E+01 0.00000E+00
 -1      3198 1.35707E+02 3.84313E+01 0.00000E+00
 -1      3199 1.37207E+02 3.84313E+01 0.00000E+00
 -1      3200 1.37572E+02 3.73543E+01 0.00000E+00
 -1      3201 1.34957E+02 3.71548E+01 0.00000E+00
 -1      3202 2.08208E+01 2.52218E+01 0.00000E+00
 -1      3203 2.10262E+01 2.38257E+01 0.00000E+00
 -1      3204 4.82161E+01 3.07669E+01 0.00000E+00
 -1      3205 4.74863E+01 3.15337E+01 0.00000E+00
 -1      3206 3.15311E+01 1.10700E+01 0.00000E+00
 -1      3207 3.00311E+01 1.10700E+01 0.00000E+00
 -1      3208 4.07850E+01 1.03949E+01 0.00000E+00
 -1      3209 3.92850E+01 1.03949E+01 0.00000E+00
 -1      3210 4.37850E+01 1.03949E+01 0.00000E+00
 -1      3211 4.22850E+01 1.03949E+01 0.00000E+00
 -1      3212 4.15350E+01 1.15876E+01 0.00000E+00
 -1      3213 4.67850E+01 1.03949E+01 0.00000E+00
 -1      3214 4.52850E+01 1.03949E+01 0.00000E+00
 -1      3215 4.45350E+01 1.15876E+01 0.00000E+00
 -1      3216 4.97850E+01 1.03949E+01 0.00000E+00
 -1      3217 4.82850E+01 1.03949E+01 0.00000E+00
 -1      3218 4.75350E+01 1.15876E+01 0.00000E+00
 -1      3219 5.27850E+01 1.03949E+01 0.00000E+00
 -1      3220 5.12850E+01 1.03949E+01 0.00000E+00
 -1      3221 5.05350E+01 1.15876E+01 0.00000E+00
 -1      3222 5.57850E+01 1.03949E+01 0.00000E+00
 -1      3223 5.42850E+01 1.03949E+01 0.00000E+00
 -1      3224 5.35350E+01 1.15876E+01 0.00000E+00
 -1      3225 5.87850E+01 1.03949E+01 0.00000E+00
 -1      3226 5.72850E+01 1.03949E+01 0.00000E+00
 -1      3227 5.65350E+01 1.15876E+01 0.00000E+00
 -1      3228 6.17850E+01 1.03949E+01 0.00000E+00
 -1      3229 6.02850E+01 1.03949E+01 0.00000E+00
 -1      3230 5.95350E+01 1.15876E+01 0.00000E+00
 -1      3231 6.47850E+01 1.03949E+01 0.00000E+00
 -1      3232 6.32850E+01 1.03949E+01 0.00000E+00
 -1      3233 6.25350E+01 1.15876E+01 0.00000E+00
 -1      3234 6.77850E+01 1.03949E+01 0.00000E+00
 -1      3235 6.62850E+01 1.03949E+01 0.00000E+00
 -1      3236 6.55350E+01 1.15876E+01 0.00000E+00
 -1      3237 7.07850E+01 1.03949E+01 0.00000E+00
 -1      3238 6.92850E+01 1.03949E+01 0.00000E+00
 -1      3239 6.85350E+01 1.15876E+01 0.00000E+00
 -1      3240 7.37850E+01 1.03949E+01 0.00000E+00
 -1      3241 7.22850E+01 1.03949E+01 0.00000E+00
 -1      3242 7.15350E+01 1.15876E+01 0.00000E+00
 -1      3243 7.67850E+01 1.03949E+01 0.00000E+00
 -1      3244 7.52850E+01 1.03949E+01 0.00000E+00
 -1      3245 7.45350E+01 1.15876E+01 0.00000E+00
 -1      3246 7.97850E+01 1.03949E+01 0.00000E+00
 -1      3247 7.82850E+01 1.03949E+01 0.00000E+00
 -1      3248 7.75350E+01 1.15876E+01 0.00000E+00
 -1      3249 8.27850E+01 1.03949E+01 0.00000E+00
 -1      3250 8.12850E+01 1.03949E+01 0.00000E+00
 -1      3251 8.05350E+01 1.15876E+01 0.00000E+00
 -1      3252 8.57850E+01 1.03949E+01 0.00000E+00
 -1      3253 8.42850E+01 1.03949E+01 0.00000E+00
 -1      3254 8.35350E+01 1.15876E+01 0.00000E+00
 -1      3255 8.87850E+01 1.03949E+01 0.00000E+00
 -1      3256 8.72850E+01 1.03949E+01 0.00000E+00
 -1      3257 8.65350E+01 1.15876E+01 0.00000E+00
 -1      3258 9.17850E+01 1.03949E+01 0.00000E+00
 -1      3259 9.02850E+01 1.03949E+01 0.00000E+00
 -1      3260 8.95350E+01 1.15876E+01 0.00000E+00
 -1      3261 9.47850E+01 1.03949E+01 0.00000E+00
 -1      3262 9.32850E+01 1.03949E+01 0.00000E+00
 -1      3263 9.25350E+01 1.15876E+01 0.00000E+00
 -1      3264 9.77850E+01 1.03949E+01 0.00000E+00
 -1      3265 9.62850E+01 1.03949E+01 0.00000E+00
 -1      3266 9.55350E+01 1.15876E+01 0.00000E+00
 -1      3267 1.00785E+02 1.03949E+01 0.00000E+00
 -1      3268 9.92850E+01 1.03949E+01 0.00000E+00
 -1      3269 9.85350E+01 1.15876E+01 0.00000E+00
 -1      3270 1.03785E+02 1.03949E+01 0.00000E+00
 -1      3271 1.02285E+02 1.03949E+01 0.00000E+00
 -1      3272 1.01535E+02 1.15876E+01 0.00000E+00
 -1      3273 1.06785E+02 1.03949E+01 0.00000E+00
 -1      3274 1.05285E+02 1.03949E+01 0.00000E+00
 -1      3275 1.04535E+02 1.15876E+01 0.00000E+00
 -1      3276 1.09785E+02 1.03949E+01 0.00000E+00
 -1      3277 1.08285E+02 1.03949E+01 0.00000E+00
 -1      3278 1.07535E+02 1.15876E+01 0.00000E+00
 -1      3279 1.12785E+02 1.03949E+01 0.00000E+00
 -1      3280 1.11285E+02 1.03949E+01 0.00000E+00
 -1      3281 1.10535E+02 1.15876E+01 0.00000E+00
 -1      3282 1.15785E+02 1.03949E+01 0.00000E+00
 -1      3283 1.14285E+02 1.03949E+01 0.00000E+00
 -1      3284 1.13535E+02 1.15876E+01 0.00000E+00
 -1      3285 1.18785E+02 1.03949E+01 0.00000E+00
 -1      3286 1.17285E+02 1.03949E+01 0.00000E+00
 -1      3287 1.16535E+02 1.15876E+01 0.00000E+00
 -1      3288 1.21785E+02 1.03949E+01 0.00000E+00
 -1      3289 1.20285E+02 1.03949E+01 0.00000E+00
 -1      3290 1.19535E+02 1.15876E+01 0.00000E+00
 -1      3291 1.24785E+02 1.03949E+01 0.00000E+00
 -1      3292 1.23285E+02 1.03949E+01 0.00000E+00
 -1      3293 1.22535E+02 1.15876E+01 0.00000E+00
 -1      3294 1.27785E+02 1.03949E+01 0.00000E+00
 -1      3295 1.26285E+02 1.03949E+01 0.00000E+00
 -1      3296 1.25535E+02 1.15876E+01 0.00000E+00
 -1      3297 1.30785E+02 1.03949E+01 0.00000E+00
 -1      3298 1.29285E+02 1.03949E+01 0.00000E+00
 -1      3299 1.28535E+02 1.15876E+01 0.00000E+00
 -1      3300 1.33785E+02 1.03949E+01 0.00000E+00
 -1      3301 1.32285E+02 1.03949E+01 0.00000E+00
 -1      3302 1.31535E+02 1.15876E+01 0.00000E+00
 -1      3303 1.36785E+02 1.03949E+01 0.00000E+00
 -1      3304 1.35285E+02 1.03949E+01 0.00000E+00
 -1      3305 1.34535E+02 1.15876E+01 0.00000E+00
 -1      3306 1.38912E+02 1.09509E+01 0.00000E+00
 -1      3307 1.37744E+02 1.06702E+01 0.00000E+00
 -1      3308 1.36994E+02 1.18629E+01 0.00000E+00
 -1      3309 1.38912E+02 1.24134E+01 0.00000E+00
 -1      3310 1.38309E+02 2.86750E+01 0.00000E+00
 -1      3311 1.38309E+02 2.72250E+01 0.00000E+00
 -1      3312 1.38309E+02 2.57500E+01 0.00000E+00
 -1      3313 1.38309E+02 2.42750E+01 0.00000E+00
 -1      3314 1.37010E+02 2.64750E+01 0.00000E+00
 -1      3315 1.26488E+01 1.02017E+01 0.00000E+00
 -1      3316 1.20772E+01 1.14631E+01 0.00000E+00
 -1      3317 1.33763E+01 1.22006E+01 0.00000E+00
 -1      3318 1.41488E+01 1.02017E+01 0.00000E+00
 -1      3319 4.92866E+01 2.30641E+01 0.00000E+00
 -1      3320 4.94848E+01 2.45110E+01 0.00000E+00
 -1      3321 1.16910E+01 2.12875E+01 0.00000E+00
 -1      3322 1.16910E+01 2.27625E+01 0.00000E+00
 -1      3323 2.86954E+01 1.15345E+01 0.00000E+00
 -1      3324 2.71954E+01 1.15345E+01 0.00000E+00
 -1      3325 4.68890E+01 3.23701E+01 0.00000E+00
 -1      3326 4.62917E+01 3.32066E+01 0.00000E+00
 -1      3327 4.79357E+01 3.26357E+01 0.00000E+00
 -1      3328 2.34423E+01 1.72276E+01 0.00000E+00
 -1      3329 2.40533E+01 1.61295E+01 0.00000E+00
 -1      3330 2.21476E+01 1.94227E+01 0.00000E+00
 -1      3331 2.27950E+01 1.83252E+01 0.00000E+00
 -1      3332 2.21314E+01 1.72369E+01 0.00000E+00
 -1      3333 4.65707E+01 1.81377E+01 0.00000E+00
 -1      3334 4.69487E+01 1.93674E+01 0.00000E+00
 -1      3335 4.80281E+01 1.96943E+01 0.00000E+00
 -1      3336 1.00862E+01 3.73269E+01 0.00000E+00
 -1      3337 1.38309E+02 3.16250E+01 0.00000E+00
 -1      3338 1.38309E+02 3.01500E+01 0.00000E+00
 -1      3339 1.37010E+02 2.94250E+01 0.00000E+00
 -1      3340 1.38309E+02 3.45750E+01 0.00000E+00
 -1      3341 1.38309E+02 3.31000E+01 0.00000E+00
 -1      3342 1.37010E+02 3.23750E+01 0.00000E+00
 -1      3343 3.80147E+01 1.05803E+01 0.00000E+00
 -1      3344 3.65147E+01 1.05803E+01 0.00000E+00
 -1      3345 3.42294E+01 1.09436E+01 0.00000E+00
 -1      3346 3.27294E+01 1.09436E+01 0.00000E+00
 -1      3347 4.23808E+01 1.37821E+01 0.00000E+00
 -1      3348 4.34660E+01 1.43895E+01 0.00000E+00
 -1      3349 3.93496E+01 3.84679E+01 0.00000E+00
 -1      3350 4.08496E+01 3.84679E+01 0.00000E+00
 -1      3351 1.59000E+01 3.83090E+01 0.00000E+00
 -1      3352 1.74000E+01 3.83090E+01 0.00000E+00
 -1      3353 1.81500E+01 3.70100E+01 0.00000E+00
 -1      3354 2.13136E+01 2.23447E+01 0.00000E+00
 -1      3355 2.16477E+01 2.09618E+01 0.00000E+00
 -1      3356 2.96487E+01 3.81989E+01 0.00000E+00
 -1      3357 4.48312E+01 1.54053E+01 0.00000E+00
 -1      3358 4.58229E+01 1.65168E+01 0.00000E+00
 -1      3359 2.27850E+01 1.05013E+01 0.00000E+00
 -1      3360 2.12850E+01 1.05013E+01 0.00000E+00
 -1      3361 4.83256E+01 2.88625E+01 0.00000E+00
 -1      3362 2.09949E+01 2.83792E+01 0.00000E+00
 -1      3363 2.07574E+01 2.69613E+01 0.00000E+00
 -1      3364 2.27404E+01 3.12026E+01 0.00000E+00
 -1      3365 2.19132E+01 2.99937E+01 0.00000E+00
 -1      3366 4.38414E+01 3.58659E+01 0.00000E+00
 -1      3367 4.31371E+01 3.64447E+01 0.00000E+00
 -1      3368 2.55863E+01 3.52594E+01 0.00000E+00
 -1      3369 2.49279E+01 3.43404E+01 0.00000E+00
 -1      3370 3.95105E+01 1.24246E+01 0.00000E+00
 -1      3371 4.06862E+01 1.29803E+01 0.00000E+00
 -1      3372 3.79861E+01 3.83452E+01 0.00000E+00
 -1      3373 2.41768E+01 3.33355E+01 0.00000E+00
 -1      3374 2.34258E+01 3.23305E+01 0.00000E+00
 -1      3375 2.37409E+01 3.43432E+01 0.00000E+00
 -1      3376 3.38060E+01 3.85942E+01 0.00000E+00
 -1      3377 4.95350E+01 2.89138E+01 0.00000E+00
 -1      3378 4.91085E+01 2.97857E+01 0.00000E+00
 -1      3379 3.64861E+01 3.83452E+01 0.00000E+00
 -1      3380 1.16910E+01 2.42375E+01 0.00000E+00
 -1      3381 1.16910E+01 2.57125E+01 0.00000E+00
 -1      3382 1.29900E+01 2.35000E+01 0.00000E+00
 -1      3383 1.14286E+01 3.73811E+01 0.00000E+00
 -1      3384 2.55485E+01 3.66613E+01 0.00000E+00
 -1      3385 5.04698E+01 2.50993E+01 0.00000E+00
 -1      3386 3.53060E+01 3.85942E+01 0.00000E+00
 -1      3387 5.04280E+01 2.81936E+01 0.00000E+00
 -1      3388 2.46276E+01 3.74922E+01 0.00000E+00
 -1      3389 2.81487E+01 3.81989E+01 0.00000E+00
 -1      3390 2.01967E+01 2.28936E+01 0.00000E+00
 -1      3391 4.94255E+01 3.08181E+01 0.00000E+00
 -1      3392 1.71488E+01 1.02017E+01 0.00000E+00
 -1      3393 1.56488E+01 1.02017E+01 0.00000E+00
 -1      3394 1.52625E+01 1.12011E+01 0.00000E+00
 -1      3395 1.29900E+01 1.46687E+01 0.00000E+00
 -1      3396 1.16910E+01 1.54063E+01 0.00000E+00
 -1      3397 1.16910E+01 1.68750E+01 0.00000E+00
 -1      3398 3.87647E+01 1.17730E+01 0.00000E+00
 -1      3399 4.95208E+01 2.15083E+01 0.00000E+00
 -1      3400 4.94037E+01 2.22862E+01 0.00000E+00
 -1      3401 5.05184E+01 2.28706E+01 0.00000E+00
 -1      3402 1.38309E+02 1.98625E+01 0.00000E+00
 -1      3403 1.38309E+02 1.83875E+01 0.00000E+00
 -1      3404 1.16910E+01 3.01219E+01 0.00000E+00
 -1      3405 1.16910E+01 3.15906E+01 0.00000E+00
 -1      3406 1.38309E+02 2.28062E+01 0.00000E+00
 -1      3407 1.38309E+02 2.13312E+01 0.00000E+00
 -1      3408 1.37010E+02 2.05938E+01 0.00000E+00
 -1      3409 1.37010E+02 2.35313E+01 0.00000E+00
 -1      3410 1.16910E+01 1.98188E+01 0.00000E+00
 -1      3411 1.29900E+01 2.05562E+01 0.00000E+00
 -1      3412 1.16910E+01 1.83500E+01 0.00000E+00
 -1      3413 1.98459E+01 2.61140E+01 0.00000E+00
 -1      3414 1.99669E+01 1.03515E+01 0.00000E+00
 -1      3415 1.84669E+01 1.03515E+01 0.00000E+00
 -1      3416 1.80806E+01 1.13509E+01 0.00000E+00
 -1      3417 2.07169E+01 1.16505E+01 0.00000E+00
 -1      3418 3.56621E+01 1.11160E+01 0.00000E+00
 -1      3419 2.23045E+01 3.22103E+01 0.00000E+00
 -1      3420 2.09841E+01 1.98735E+01 0.00000E+00
 -1      3421 1.45576E+01 3.82548E+01 0.00000E+00
 -1      3422 1.53076E+01 3.69558E+01 0.00000E+00
 -1      3423 1.32152E+01 3.82007E+01 0.00000E+00
 -1      3424 4.69023E+01 1.68437E+01 0.00000E+00
 -1      3425 4.79818E+01 1.71706E+01 0.00000E+00
 -1      3426 4.72340E+01 1.55497E+01 0.00000E+00
 -1      3427 4.47893E+01 1.42070E+01 0.00000E+00
 -1      3428 4.23871E+01 3.77211E+01 0.00000E+00
 -1      3429 4.53414E+01 3.58659E+01 0.00000E+00
 -1      3430 1.38375E+02 1.71472E+01 0.00000E+00
 -1      3431 1.38440E+02 1.59068E+01 0.00000E+00
 -1      3432 1.37076E+02 1.78847E+01 0.00000E+00
 -1      3433 2.47299E+01 1.14361E+01 0.00000E+00
 -1      3434 2.39799E+01 1.27351E+01 0.00000E+00
 -1      3435 2.62299E+01 1.14361E+01 0.00000E+00
 -1      3436 1.29900E+01 3.23250E+01 0.00000E+00
 -1      3437 1.16910E+01 3.30594E+01 0.00000E+00
 -1      3438 1.16910E+01 3.45281E+01 0.00000E+00
 -1      3439 4.57402E+01 3.48374E+01 0.00000E+00
 -1      3440 4.70487E+01 3.60265E+01 0.00000E+00
 -1      3441 4.85487E+01 3.60265E+01 0.00000E+00
 -1      3442 4.63462E+01 3.39695E+01 0.00000E+00
 -1      3443 2.07008E+01 2.94679E+01 0.00000E+00
 -1      3444 1.94883E+01 2.89422E+01 0.00000E+00
 -1      3445 2.04066E+01 3.05566E+01 0.00000E+00
 -1      3446 1.37758E+02 3.65031E+01 0.00000E+00
 -1      3447 1.38123E+02 3.54261E+01 0.00000E+00
 -1      3448 1.36824E+02 3.47011E+01 0.00000E+00
 -1      3449 1.36451E+02 3.64034E+01 0.00000E+00
 -1      3450 2.35710E+01 3.61791E+01 0.00000E+00
 -1      3451 2.18990E+01 3.60050E+01 0.00000E+00
 -1      3452 2.28199E+01 3.51741E+01 0.00000E+00
 -1      3453 2.20689E+01 3.41692E+01 0.00000E+00
 -1      3454 5.04000E+01 3.57560E+01 0.00000E+00
 -1      3455 5.19000E+01 3.57560E+01 0.00000E+00
 -1      3456 5.34000E+01 3.57560E+01 0.00000E+00
 -1      3457 5.49000E+01 3.57560E+01 0.00000E+00
 -1      3458 5.26500E+01 3.44570E+01 0.00000E+00
 -1      3459 5.64000E+01 3.57560E+01 0.00000E+00
 -1      3460 5.79000E+01 3.57560E+01 0.00000E+00
 -1      3461 5.56500E+01 3.44570E+01 0.00000E+00
 -1      3462 5.94000E+01 3.57560E+01 0.00000E+00
 -1      3463 6.09000E+01 3.57560E+01 0.00000E+00
 -1      3464 5.86500E+01 3.44570E+01 0.00000E+00
 -1      3465 6.24000E+01 3.57560E+01 0.00000E+00
 -1      3466 6.39000E+01 3.57560E+01 0.00000E+00
 -1      3467 6.16500E+01 3.44570E+01 0.00000E+00
 -1      3468 6.54000E+01 3.57560E+01 0.00000E+00
 -1      3469 6.69000E+01 3.57560E+01 0.00000E+00
 -1      3470 6.46500E+01 3.44570E+01 0.00000E+00
 -1      3471 6.84000E+01 3.57560E+01 0.00000E+00
 -1      3472 6.99000E+01 3.57560E+01 0.00000E+00
 -1      3473 6.76500E+01 3.44570E+01 0.00000E+00
 -1      3474 7.14000E+01 3.57560E+01 0.00000E+00
 -1      3475 7.29000E+01 3.57560E+01 0.00000E+00
 -1      3476 7.06500E+01 3.44570E+01 0.00000E+00
 -1      3477 7.44000E+01 3.57560E+01 0.00000E+00
 -1      3478 7.59000E+01 3.57560E+01 0.00000E+00
 -1      3479 7.36500E+01 3.44570E+01 0.00000E+00
 -1      3480 7.74000E+01 3.57560E+01 0.00000E+00
 -1      3481 7.89000E+01 3.57560E+01 0.00000E+00
 -1      3482 7.66500E+01 3.44570E+01 0.00000E+00
 -1      3483 8.04000E+01 3.57560E+01 0.00000E+00
 -1      3484 8.19000E+01 3.57560E+01 0.00000E+00
 -1      3485 7.96500E+01 3.44570E+01 0.00000E+00
 -1      3486 8.34000E+01 3.57560E+01 0.00000E+00
 -1      3487 8.49000E+01 3.57560E+01 0.00000E+00
 -1      3488 8.26500E+01 3.44570E+01 0.00000E+00
 -1      3489 8.64000E+01 3.57560E+01 0.00000E+00
 -1      3490 8.79000E+01 3.57560E+01 0.00000E+00
 -1      3491 8.56500E+01 3.44570E+01 0.00000E+00
 -1      3492 8.94000E+01 3.57560E+01 0.00000E+00
 -1      3493 9.09000E+01 3.57560E+01 0.00000E+00
 -1      3494 8.86500E+01 3.44570E+01 0.00000E+00
 -1      3495 9.24000E+01 3.57560E+01 0.00000E+00
 -1      3496 9.39000E+01 3.57560E+01 0.00000E+00
 -1      3497 9.16500E+01 3.44570E+01 0.00000E+00
 -1      3498 9.54000E+01 3.57560E+01 0.00000E+00
 -1      3499 9.69000E+01 3.57560E+01 0.00000E+00
 -1      3500 9.46500E+01 3.44570E+01 0.00000E+00
 -1      3501 9.84000E+01 3.57560E+01 0.00000E+00
 -1      3502 9.99000E+01 3.57560E+01 0.00000E+00
 -1      3503 9.76500E+01 3.44570E+01 0.00000E+00
 -1      3504 1.01400E+02 3.57560E+01 0.00000E+00
 -1      3505 1.02900E+02 3.57560E+01 0.00000E+00
 -1      3506 1.00650E+02 3.44570E+01 0.00000E+00
 -1      3507 1.04400E+02 3.57560E+01 0.00000E+00
 -1      3508 1.05900E+02 3.57560E+01 0.00000E+00
 -1      3509 1.03650E+02 3.44570E+01 0.00000E+00
 -1      3510 1.07400E+02 3.57560E+01 0.00000E+00
 -1      3511 1.08900E+02 3.57560E+01 0.00000E+00
 -1      3512 1.06650E+02 3.44570E+01 0.00000E+00
 -1      3513 1.10400E+02 3.57560E+01 0.00000E+00
 -1      3514 1.11900E+02 3.57560E+01 0.00000E+00
 -1      3515 1.09650E+02 3.44570E+01 0.00000E+00
 -1      3516 1.13400E+02 3.57560E+01 0.00000E+00
 -1      3517 1.14900E+02 3.57560E+01 0.00000E+00
 -1      3518 1.12650E+02 3.44570E+01 0.00000E+00
 -1      3519 1.16400E+02 3.57560E+01 0.00000E+00
 -1      3520 1.17900E+02 3.57560E+01 0.00000E+00
 -1      3521 1.15650E+02 3.44570E+01 0.00000E+00
 -1      3522 1.19400E+02 3.57560E+01 0.00000E+00
 -1      3523 1.20900E+02 3.57560E+01 0.00000E+00
 -1      3524 1.18650E+02 3.44570E+01 0.00000E+00
 -1      3525 1.22400E+02 3.57560E+01 0.00000E+00
 -1      3526 1.23900E+02 3.57560E+01 0.00000E+00
 -1      3527 1.21650E+02 3.44570E+01 0.00000E+00
 -1      3528 1.25400E+02 3.57560E+01 0.00000E+00
 -1      3529 1.26900E+02 3.57560E+01 0.00000E+00
 -1      3530 1.24650E+02 3.44570E+01 0.00000E+00
 -1      3531 1.28400E+02 3.57560E+01 0.00000E+00
 -1      3532 1.29900E+02 3.57560E+01 0.00000E+00
 -1      3533 1.27650E+02 3.44570E+01 0.00000E+00
 -1      3534 1.31400E+02 3.57560E+01 0.00000E+00
 -1      3535 1.32900E+02 3.57560E+01 0.00000E+00
 -1      3536 1.30650E+02 3.44570E+01 0.00000E+00
 -1      3537 4.17295E+01 1.23894E+01 0.00000E+00
 -1      3538 1.16910E+01 2.71844E+01 0.00000E+00
 -1      3539 1.16910E+01 2.86531E+01 0.00000E+00
 -1      3540 1.29900E+01 2.93875E+01 0.00000E+00
 -1      3541 2.34074E+01 1.50255E+01 0.00000E+00
 -1      3542 2.46819E+01 1.50156E+01 0.00000E+00
 -1      3543 5.12850E+01 1.28866E+01 0.00000E+00
 -1      3544 4.97850E+01 1.28866E+01 0.00000E+00
 -1      3545 5.42850E+01 1.28866E+01 0.00000E+00
 -1      3546 5.27850E+01 1.28866E+01 0.00000E+00
 -1      3547 5.20350E+01 1.41856E+01 0.00000E+00
 -1      3548 5.72850E+01 1.28866E+01 0.00000E+00
 -1      3549 5.57850E+01 1.28866E+01 0.00000E+00
 -1      3550 5.50350E+01 1.41856E+01 0.00000E+00
 -1      3551 6.02850E+01 1.28866E+01 0.00000E+00
 -1      3552 5.87850E+01 1.28866E+01 0.00000E+00
 -1      3553 5.80350E+01 1.41856E+01 0.00000E+00
 -1      3554 6.32850E+01 1.28866E+01 0.00000E+00
 -1      3555 6.17850E+01 1.28866E+01 0.00000E+00
 -1      3556 6.10350E+01 1.41856E+01 0.00000E+00
 -1      3557 6.62850E+01 1.28866E+01 0.00000E+00
 -1      3558 6.47850E+01 1.28866E+01 0.00000E+00
 -1      3559 6.40350E+01 1.41856E+01 0.00000E+00
 -1      3560 6.92850E+01 1.28866E+01 0.00000E+00
 -1      3561 6.77850E+01 1.28866E+01 0.00000E+00
 -1      3562 6.70350E+01 1.41856E+01 0.00000E+00
 -1      3563 7.22850E+01 1.28866E+01 0.00000E+00
 -1      3564 7.07850E+01 1.28866E+01 0.00000E+00
 -1      3565 7.00350E+01 1.41856E+01 0.00000E+00
 -1      3566 7.52850E+01 1.28866E+01 0.00000E+00
 -1      3567 7.37850E+01 1.28866E+01 0.00000E+00
 -1      3568 7.30350E+01 1.41856E+01 0.00000E+00
 -1      3569 7.82850E+01 1.28866E+01 0.00000E+00
 -1      3570 7.67850E+01 1.28866E+01 0.00000E+00
 -1      3571 7.60350E+01 1.41856E+01 0.00000E+00
 -1      3572 8.12850E+01 1.28866E+01 0.00000E+00
 -1      3573 7.97850E+01 1.28866E+01 0.00000E+00
 -1      3574 7.90350E+01 1.41856E+01 0.00000E+00
 -1      3575 8.42850E+01 1.28866E+01 0.00000E+00
 -1      3576 8.27850E+01 1.28866E+01 0.00000E+00
 -1      3577 8.20350E+01 1.41856E+01 0.00000E+00
 -1      3578 8.72850E+01 1.28866E+01 0.00000E+00
 -1      3579 8.57850E+01 1.28866E+01 0.00000E+00
 -1      3580 8.50350E+01 1.41856E+01 0.00000E+00
 -1      3581 9.02850E+01 1.28866E+01 0.00000E+00
 -1      3582 8.87850E+01 1.28866E+01 0.00000E+00
 -1      3583 8.80350E+01 1.41856E+01 0.00000E+00
 -1      3584 9.32850E+01 1.28866E+01 0.00000E+00
 -1      3585 9.17850E+01 1.28866E+01 0.00000E+00
 -1      3586 9.10350E+01 1.41856E+01 0.00000E+00
 -1      3587 9.62850E+01 1.28866E+01 0.00000E+00
 -1      3588 9.47850E+01 1.28866E+01 0.00000E+00
 -1      3589 9.40350E+01 1.41856E+01 0.00000E+00
 -1      3590 9.92850E+01 1.28866E+01 0.00000E+00
 -1      3591 9.77850E+01 1.28866E+01 0.00000E+00
 -1      3592 9.70350E+01 1.41856E+01 0.00000E+00
 -1      3593 1.02285E+02 1.28866E+01 0.00000E+00
 -1      3594 1.00785E+02 1.28866E+01 0.00000E+00
 -1      3595 1.00035E+02 1.41856E+01 0.00000E+00
 -1      3596 1.05285E+02 1.28866E+01 0.00000E+00
 -1      3597 1.03785E+02 1.28866E+01 0.00000E+00
 -1      3598 1.03035E+02 1.41856E+01 0.00000E+00
 -1      3599 1.08285E+02 1.28866E+01 0.00000E+00
 -1      3600 1.06785E+02 1.28866E+01 0.00000E+00
 -1      3601 1.06035E+02 1.41856E+01 0.00000E+00
 -1      3602 1.11285E+02 1.28866E+01 0.00000E+00
 -1      3603 1.09785E+02 1.28866E+01 0.00000E+00
 -1      3604 1.09035E+02 1.41856E+01 0.00000E+00
 -1      3605 1.14285E+02 1.28866E+01 0.00000E+00
 -1      3606 1.12785E+02 1.28866E+01 0.00000E+00
 -1      3607 1.12035E+02 1.41856E+01 0.00000E+00
 -1      3608 1.17285E+02 1.28866E+01 0.00000E+00
 -1      3609 1.15785E+02 1.28866E+01 0.00000E+00
 -1      3610 1.15035E+02 1.41856E+01 0.00000E+00
 -1      3611 1.20285E+02 1.28866E+01 0.00000E+00
 -1      3612 1.18785E+02 1.28866E+01 0.00000E+00
 -1      3613 1.18035E+02 1.41856E+01 0.00000E+00
 -1      3614 1.23285E+02 1.28866E+01 0.00000E+00
 -1      3615 1.21785E+02 1.28866E+01 0.00000E+00
 -1      3616 1.21035E+02 1.41856E+01 0.00000E+00
 -1      3617 1.26285E+02 1.28866E+01 0.00000E+00
 -1      3618 1.24785E+02 1.28866E+01 0.00000E+00
 -1      3619 1.24035E+02 1.41856E+01 0.00000E+00
 -1      3620 1.29285E+02 1.28866E+01 0.00000E+00
 -1      3621 1.27785E+02 1.28866E+01 0.00000E+00
 -1      3622 1.27035E+02 1.41856E+01 0.00000E+00
 -1      3623 1.32285E+02 1.28866E+01 0.00000E+00
 -1      3624 1.30785E+02 1.28866E+01 0.00000E+00
 -1      3625 1.30035E+02 1.41856E+01 0.00000E+00
 -1      3626 1.35285E+02 1.28866E+01 0.00000E+00
 -1      3627 1.33785E+02 1.28866E+01 0.00000E+00
 -1      3628 1.33035E+02 1.41856E+01 0.00000E+00
 -1      3629 1.35711E+02 3.31125E+01 0.00000E+00
 -1      3630 1.35711E+02 3.16375E+01 0.00000E+00
 -1      3631 1.35711E+02 2.72125E+01 0.00000E+00
 -1      3632 1.35711E+02 2.57375E+01 0.00000E+00
 -1      3633 1.48763E+01 1.22006E+01 0.00000E+00
 -1      3634 1.44900E+01 1.32000E+01 0.00000E+00
 -1      3635 1.63762E+01 1.22006E+01 0.00000E+00
 -1      3636 1.21786E+01 3.60821E+01 0.00000E+00
 -1      3637 2.49804E+01 1.37908E+01 0.00000E+00
 -1      3638 2.08526E+01 1.72224E+01 0.00000E+00
 -1      3639 2.14999E+01 1.61248E+01 0.00000E+00
 -1      3640 5.15433E+01 2.43217E+01 0.00000E+00
 -1      3641 5.16117E+01 2.57725E+01 0.00000E+00
 -1      3642 4.98415E+01 3.31281E+01 0.00000E+00
 -1      3643 4.92442E+01 3.39646E+01 0.00000E+00
 -1      3644 4.89792E+01 1.87290E+01 0.00000E+00
 -1      3645 4.93571E+01 1.99587E+01 0.00000E+00
 -1      3646 4.86742E+01 1.37321E+01 0.00000E+00
 -1      3647 4.71742E+01 1.37321E+01 0.00000E+00
 -1      3648 1.35711E+02 3.01625E+01 0.00000E+00
 -1      3649 1.35711E+02 2.86875E+01 0.00000E+00
 -1      3650 1.34412E+02 2.79500E+01 0.00000E+00
 -1      3651 1.34412E+02 3.09000E+01 0.00000E+00
 -1      3652 1.74000E+01 3.57110E+01 0.00000E+00
 -1      3653 1.89000E+01 3.57110E+01 0.00000E+00
 -1      3654 2.15804E+01 3.29269E+01 0.00000E+00
 -1      3655 2.08951E+01 3.17989E+01 0.00000E+00
 -1      3656 1.96826E+01 3.12732E+01 0.00000E+00
 -1      3657 2.06595E+01 3.37578E+01 0.00000E+00
 -1      3658 1.90466E+01 2.34387E+01 0.00000E+00
 -1      3659 1.93341E+01 2.19577E+01 0.00000E+00
 -1      3660 1.85160E+01 2.69364E+01 0.00000E+00
 -1      3661 1.85794E+01 2.51970E+01 0.00000E+00
 -1      3662 2.03990E+01 3.60050E+01 0.00000E+00
 -1      3663 1.97592E+01 2.03263E+01 0.00000E+00
 -1      3664 2.02592E+01 1.87873E+01 0.00000E+00
 -1      3665 1.38643E+02 1.47803E+01 0.00000E+00
 -1      3666 1.38709E+02 1.35399E+01 0.00000E+00
 -1      3667 1.37750E+02 1.32647E+01 0.00000E+00
 -1      3668 1.37344E+02 1.55178E+01 0.00000E+00
 -1      3669 5.15896E+01 2.74460E+01 0.00000E+00
 -1      3670 5.14794E+01 2.90894E+01 0.00000E+00
 -1      3671 5.16603E+01 2.35438E+01 0.00000E+00
 -1      3672 5.28022E+01 2.42169E+01 0.00000E+00
 -1      3673 5.17774E+01 2.27659E+01 0.00000E+00
 -1      3674 1.42890E+01 3.15906E+01 0.00000E+00
 -1      3675 1.42890E+01 3.30594E+01 0.00000E+00
 -1      3676 1.29900E+01 2.64469E+01 0.00000E+00
 -1      3677 1.96277E+01 1.76752E+01 0.00000E+00
 -1      3678 1.35711E+02 2.42687E+01 0.00000E+00
 -1      3679 1.35711E+02 2.28000E+01 0.00000E+00
 -1      3680 1.34412E+02 2.50063E+01 0.00000E+00
 -1      3681 1.77168E+01 2.42611E+01 0.00000E+00
 -1      3682 1.34022E+02 3.60298E+01 0.00000E+00
 -1      3683 1.35329E+02 3.61296E+01 0.00000E+00
 -1      3684 1.35515E+02 3.52785E+01 0.00000E+00
 -1      3685 1.33272E+02 3.47308E+01 0.00000E+00
 -1      3686 2.21273E+01 1.50374E+01 0.00000E+00
 -1      3687 2.27560E+01 1.39236E+01 0.00000E+00
 -1      3688 1.44900E+01 1.46687E+01 0.00000E+00
 -1      3689 2.08485E+01 1.50229E+01 0.00000E+00
 -1      3690 4.94242E+01 1.50311E+01 0.00000E+00
 -1      3691 5.04719E+01 2.05431E+01 0.00000E+00
 -1      3692 1.96490E+01 3.47060E+01 0.00000E+00
 -1      3693 1.36791E+02 1.29894E+01 0.00000E+00
 -1      3694 5.26630E+01 2.66684E+01 0.00000E+00
 -1      3695 1.29900E+01 1.76125E+01 0.00000E+00
 -1      3696 4.73929E+01 3.42351E+01 0.00000E+00
 -1      3697 1.42890E+01 1.98219E+01 0.00000E+00
 -1      3698 1.42890E+01 2.12906E+01 0.00000E+00
 -1      3699 1.35711E+02 2.13312E+01 0.00000E+00
 -1      3700 1.35711E+02 1.98625E+01 0.00000E+00
 -1      3701 1.34412E+02 2.20688E+01 0.00000E+00
 -1      3702 1.42890E+01 3.01219E+01 0.00000E+00
 -1      3703 1.55880E+01 3.08563E+01 0.00000E+00
 -1      3704 1.42890E+01 2.86531E+01 0.00000E+00
 -1      3705 1.34478E+02 1.93597E+01 0.00000E+00
 -1      3706 1.35777E+02 1.86222E+01 0.00000E+00
 -1      3707 1.35842E+02 1.73818E+01 0.00000E+00
 -1      3708 5.03835E+01 3.19731E+01 0.00000E+00
 -1      3709 5.16920E+01 3.33020E+01 0.00000E+00
 -1      3710 5.31920E+01 3.33020E+01 0.00000E+00
 -1      3711 5.12759E+01 3.09920E+01 0.00000E+00
 -1      3712 2.17555E+01 1.28679E+01 0.00000E+00
 -1      3713 2.04373E+01 1.27181E+01 0.00000E+00
 -1      3714 4.93108E+01 1.74350E+01 0.00000E+00
 -1      3715 4.47295E+01 1.23894E+01 0.00000E+00
 -1      3716 4.32295E+01 1.23894E+01 0.00000E+00
 -1      3717 5.24374E+01 3.02444E+01 0.00000E+00
 -1      3718 4.60948E+01 1.34052E+01 0.00000E+00
 -1      3719 1.86091E+01 2.08715E+01 0.00000E+00
 -1      3720 1.36041E+02 1.42884E+01 0.00000E+00
 -1      3721 1.61190E+01 3.46675E+01 0.00000E+00
 -1      3722 1.68690E+01 3.33685E+01 0.00000E+00
 -1      3723 1.34776E+01 3.53477E+01 0.00000E+00
 -1      3724 1.47766E+01 3.46133E+01 0.00000E+00
 -1      3725 1.35702E+02 3.44273E+01 0.00000E+00
 -1      3726 1.76852E+01 2.86205E+01 0.00000E+00
 -1      3727 1.64188E+01 2.77034E+01 0.00000E+00
 -1      3728 4.92987E+01 3.47275E+01 0.00000E+00
 -1      3729 1.34403E+02 3.36898E+01 0.00000E+00
 -1      3730 1.33281E+02 3.34160E+01 0.00000E+00
 -1      3731 2.30355E+01 1.28560E+01 0.00000E+00
 -1      3732 5.49000E+01 3.31580E+01 0.00000E+00
 -1      3733 5.64000E+01 3.31580E+01 0.00000E+00
 -1      3734 5.79000E+01 3.31580E+01 0.00000E+00
 -1      3735 5.94000E+01 3.31580E+01 0.00000E+00
 -1      3736 5.71500E+01 3.18590E+01 0.00000E+00
 -1      3737 6.09000E+01 3.31580E+01 0.00000E+00
 -1      3738 6.24000E+01 3.31580E+01 0.00000E+00
 -1      3739 6.01500E+01 3.18590E+01 0.00000E+00
 -1      3740 6.39000E+01 3.31580E+01 0.00000E+00
 -1      3741 6.54000E+01 3.31580E+01 0.00000E+00
 -1      3742 6.31500E+01 3.18590E+01 0.00000E+00
 -1      3743 6.69000E+01 3.31580E+01 0.00000E+00
 -1      3744 6.84000E+01 3.31580E+01 0.00000E+00
 -1      3745 6.61500E+01 3.18590E+01 0.00000E+00
 -1      3746 6.99000E+01 3.31580E+01 0.00000E+00
 -1      3747 7.14000E+01 3.31580E+01 0.00000E+00
 -1      3748 6.91500E+01 3.18590E+01 0.00000E+00
 -1      3749 7.29000E+01 3.31580E+01 0.00000E+00
 -1      3750 7.44000E+01 3.31580E+01 0.00000E+00
 -1      3751 7.21500E+01 3.18590E+01 0.00000E+00
 -1      3752 7.59000E+01 3.31580E+01 0.00000E+00
 -1      3753 7.74000E+01 3.31580E+01 0.00000E+00
 -1      3754 7.51500E+01 3.18590E+01 0.00000E+00
 -1      3755 7.89000E+01 3.31580E+01 0.00000E+00
 -1      3756 8.04000E+01 3.31580E+01 0.00000E+00
 -1      3757 7.81500E+01 3.18590E+01 0.00000E+00
 -1      3758 8.19000E+01 3.31580E+01 0.00000E+00
 -1      3759 8.34000E+01 3.31580E+01 0.00000E+00
 -1      3760 8.11500E+01 3.18590E+01 0.00000E+00
 -1      3761 8.49000E+01 3.31580E+01 0.00000E+00
 -1      3762 8.64000E+01 3.31580E+01 0.00000E+00
 -1      3763 8.41500E+01 3.18590E+01 0.00000E+00
 -1      3764 8.79000E+01 3.31580E+01 0.00000E+00
 -1      3765 8.94000E+01 3.31580E+01 0.00000E+00
 -1      3766 8.71500E+01 3.18590E+01 0.00000E+00
 -1      3767 9.09000E+01 3.31580E+01 0.00000E+00
 -1      3768 9.24000E+01 3.31580E+01 0.00000E+00
 -1      3769 9.01500E+01 3.18590E+01 0.00000E+00
 -1      3770 9.39000E+01 3.31580E+01 0.00000E+00
 -1      3771 9.54000E+01 3.31580E+01 0.00000E+00
 -1      3772 9.31500E+01 3.18590E+01 0.00000E+00
 -1      3773 9.69000E+01 3.31580E+01 0.00000E+00
 -1      3774 9.84000E+01 3.31580E+01 0.00000E+00
 -1      3775 9.61500E+01 3.18590E+01 0.00000E+00
 -1      3776 9.99000E+01 3.31580E+01 0.00000E+00
 -1      3777 1.01400E+02 3.31580E+01 0.00000E+00
 -1      3778 9.91500E+01 3.18590E+01 0.00000E+00
 -1      3779 1.02900E+02 3.31580E+01 0.00000E+00
 -1      3780 1.04400E+02 3.31580E+01 0.00000E+00
 -1      3781 1.02150E+02 3.18590E+01 0.00000E+00
 -1      3782 1.05900E+02 3.31580E+01 0.00000E+00
 -1      3783 1.07400E+02 3.31580E+01 0.00000E+00
 -1      3784 1.05150E+02 3.18590E+01 0.00000E+00
 -1      3785 1.08900E+02 3.31580E+01 0.00000E+00
 -1      3786 1.10400E+02 3.31580E+01 0.00000E+00
 -1      3787 1.08150E+02 3.18590E+01 0.00000E+00
 -1      3788 1.11900E+02 3.31580E+01 0.00000E+00
 -1      3789 1.13400E+02 3.31580E+01 0.00000E+00
 -1      3790 1.11150E+02 3.18590E+01 0.00000E+00
 -1      3791 1.14900E+02 3.31580E+01 0.00000E+00
 -1      3792 1.16400E+02 3.31580E+01 0.00000E+00
 -1      3793 1.14150E+02 3.18590E+01 0.00000E+00
 -1      3794 1.17900E+02 3.31580E+01 0.00000E+00
 -1      3795 1.19400E+02 3.31580E+01 0.00000E+00
 -1      3796 1.17150E+02 3.18590E+01 0.00000E+00
 -1      3797 1.20900E+02 3.31580E+01 0.00000E+00
 -1      3798 1.22400E+02 3.31580E+01 0.00000E+00
 -1      3799 1.20150E+02 3.18590E+01 0.00000E+00
 -1      3800 1.23900E+02 3.31580E+01 0.00000E+00
 -1      3801 1.25400E+02 3.31580E+01 0.00000E+00
 -1      3802 1.23150E+02 3.18590E+01 0.00000E+00
 -1      3803 1.26900E+02 3.31580E+01 0.00000E+00
 -1      3804 1.28400E+02 3.31580E+01 0.00000E+00
 -1      3805 1.26150E+02 3.18590E+01 0.00000E+00
 -1      3806 1.29900E+02 3.31580E+01 0.00000E+00
 -1      3807 1.31400E+02 3.31580E+01 0.00000E+00
 -1      3808 1.29150E+02 3.18590E+01 0.00000E+00
 -1      3809 5.57850E+01 1.54846E+01 0.00000E+00
 -1      3810 5.42850E+01 1.54846E+01 0.00000E+00
 -1      3811 1.82157E+01 1.80347E+01 0.00000E+00
 -1      3812 1.88092E+01 1.64698E+01 0.00000E+00
 -1      3813 1.66936E+01 1.50147E+01 0.00000E+00
 -1      3814 1.51936E+01 1.64834E+01 0.00000E+00
 -1      3815 5.27850E+01 1.54846E+01 0.00000E+00
 -1      3816 5.12850E+01 1.54846E+01 0.00000E+00
 -1      3817 5.35350E+01 1.67836E+01 0.00000E+00
 -1      3818 6.17850E+01 1.54846E+01 0.00000E+00
 -1      3819 6.02850E+01 1.54846E+01 0.00000E+00
 -1      3820 6.47850E+01 1.54846E+01 0.00000E+00
 -1      3821 6.32850E+01 1.54846E+01 0.00000E+00
 -1      3822 6.25350E+01 1.67836E+01 0.00000E+00
 -1      3823 6.77850E+01 1.54846E+01 0.00000E+00
 -1      3824 6.62850E+01 1.54846E+01 0.00000E+00
 -1      3825 6.55350E+01 1.67836E+01 0.00000E+00
 -1      3826 7.07850E+01 1.54846E+01 0.00000E+00
 -1      3827 6.92850E+01 1.54846E+01 0.00000E+00
 -1      3828 6.85350E+01 1.67836E+01 0.00000E+00
 -1      3829 7.37850E+01 1.54846E+01 0.00000E+00
 -1      3830 7.22850E+01 1.54846E+01 0.00000E+00
 -1      3831 7.15350E+01 1.67836E+01 0.00000E+00
 -1      3832 7.67850E+01 1.54846E+01 0.00000E+00
 -1      3833 7.52850E+01 1.54846E+01 0.00000E+00
 -1      3834 7.45350E+01 1.67836E+01 0.00000E+00
 -1      3835 7.97850E+01 1.54846E+01 0.00000E+00
 -1      3836 7.82850E+01 1.54846E+01 0.00000E+00
 -1      3837 7.75350E+01 1.67836E+01 0.00000E+00
 -1      3838 8.27850E+01 1.54846E+01 0.00000E+00
 -1      3839 8.12850E+01 1.54846E+01 0.00000E+00
 -1      3840 8.05350E+01 1.67836E+01 0.00000E+00
 -1      3841 8.57850E+01 1.54846E+01 0.00000E+00
 -1      3842 8.42850E+01 1.54846E+01 0.00000E+00
 -1      3843 8.35350E+01 1.67836E+01 0.00000E+00
 -1      3844 8.87850E+01 1.54846E+01 0.00000E+00
 -1      3845 8.72850E+01 1.54846E+01 0.00000E+00
 -1      3846 8.65350E+01 1.67836E+01 0.00000E+00
 -1      3847 9.17850E+01 1.54846E+01 0.00000E+00
 -1      3848 9.02850E+01 1.54846E+01 0.00000E+00
 -1      3849 8.95350E+01 1.67836E+01 0.00000E+00
 -1      3850 9.47850E+01 1.54846E+01 0.00000E+00
 -1      3851 9.32850E+01 1.54846E+01 0.00000E+00
 -1      3852 9.25350E+01 1.67836E+01 0.00000E+00
 -1      3853 9.77850E+01 1.54846E+01 0.00000E+00
 -1      3854 9.62850E+01 1.54846E+01 0.00000E+00
 -1      3855 9.55350E+01 1.67836E+01 0.00000E+00
 -1      3856 1.00785E+02 1.54846E+01 0.00000E+00
 -1      3857 9.92850E+01 1.54846E+01 0.00000E+00
 -1      3858 9.85350E+01 1.67836E+01 0.00000E+00
 -1      3859 1.03785E+02 1.54846E+01 0.00000E+00
 -1      3860 1.02285E+02 1.54846E+01 0.00000E+00
 -1      3861 1.01535E+02 1.67836E+01 0.00000E+00
 -1      3862 1.06785E+02 1.54846E+01 0.00000E+00
 -1      3863 1.05285E+02 1.54846E+01 0.00000E+00
 -1      3864 1.04535E+02 1.67836E+01 0.00000E+00
 -1      3865 1.09785E+02 1.54846E+01 0.00000E+00
 -1      3866 1.08285E+02 1.54846E+01 0.00000E+00
 -1      3867 1.07535E+02 1.67836E+01 0.00000E+00
 -1      3868 1.12785E+02 1.54846E+01 0.00000E+00
 -1      3869 1.11285E+02 1.54846E+01 0.00000E+00
 -1      3870 1.10535E+02 1.67836E+01 0.00000E+00
 -1      3871 1.15785E+02 1.54846E+01 0.00000E+00
 -1      3872 1.14285E+02 1.54846E+01 0.00000E+00
 -1      3873 1.13535E+02 1.67836E+01 0.00000E+00
 -1      3874 1.18785E+02 1.54846E+01 0.00000E+00
 -1      3875 1.17285E+02 1.54846E+01 0.00000E+00
 -1      3876 1.16535E+02 1.67836E+01 0.00000E+00
 -1      3877 1.21785E+02 1.54846E+01 0.00000E+00
 -1      3878 1.20285E+02 1.54846E+01 0.00000E+00
 -1      3879 1.19535E+02 1.67836E+01 0.00000E+00
 -1      3880 1.24785E+02 1.54846E+01 0.00000E+00
 -1      3881 1.23285E+02 1.54846E+01 0.00000E+00
 -1      3882 1.22535E+02 1.67836E+01 0.00000E+00
 -1      3883 1.27785E+02 1.54846E+01 0.00000E+00
 -1      3884 1.26285E+02 1.54846E+01 0.00000E+00
 -1      3885 1.25535E+02 1.67836E+01 0.00000E+00
 -1      3886 1.30785E+02 1.54846E+01 0.00000E+00
 -1      3887 1.29285E+02 1.54846E+01 0.00000E+00
 -1      3888 1.28535E+02 1.67836E+01 0.00000E+00
 -1      3889 1.32531E+02 3.21170E+01 0.00000E+00
 -1      3890 1.63305E+01 2.48340E+01 0.00000E+00
 -1      3891 1.67977E+01 2.30757E+01 0.00000E+00
 -1      3892 1.51198E+01 2.69691E+01 0.00000E+00
 -1      3893 5.15761E+01 1.96430E+01 0.00000E+00
 -1      3894 5.17398E+01 2.11926E+01 0.00000E+00
 -1      3895 5.01742E+01 1.63301E+01 0.00000E+00
 -1      3896 5.11716E+01 1.78885E+01 0.00000E+00
 -1      3897 1.54997E+01 2.21024E+01 0.00000E+00
 -1      3898 1.42007E+01 2.28368E+01 0.00000E+00
 -1      3899 1.51936E+01 1.79584E+01 0.00000E+00
 -1      3900 1.91605E+01 3.34637E+01 0.00000E+00
 -1      3901 1.99839E+01 1.37956E+01 0.00000E+00
 -1      3902 1.89453E+01 1.25782E+01 0.00000E+00
 -1      3903 1.76271E+01 1.24284E+01 0.00000E+00
 -1      3904 1.93564E+01 1.48830E+01 0.00000E+00
 -1      3905 5.37251E+01 2.94200E+01 0.00000E+00
 -1      3906 5.35216E+01 3.13226E+01 0.00000E+00
 -1      3907 1.68860E+01 2.15296E+01 0.00000E+00
 -1      3908 1.35838E+02 1.54150E+01 0.00000E+00
 -1      3909 5.37829E+01 2.58463E+01 0.00000E+00
 -1      3910 5.37608E+01 2.75198E+01 0.00000E+00
 -1      3911 1.73111E+01 1.98982E+01 0.00000E+00
 -1      3912 1.73911E+01 2.97092E+01 0.00000E+00
 -1      3913 1.42007E+01 2.43118E+01 0.00000E+00
 -1      3914 5.87850E+01 1.54846E+01 0.00000E+00
 -1      3915 5.72850E+01 1.54846E+01 0.00000E+00
 -1      3916 5.95350E+01 1.67836E+01 0.00000E+00
 -1      3917 1.34539E+02 1.61525E+01 0.00000E+00
 -1      3918 1.51198E+01 2.54972E+01 0.00000E+00
 -1      3919 1.73911E+01 3.11779E+01 0.00000E+00
 -1      3920 1.64926E+01 1.86928E+01 0.00000E+00
 -1      3921 1.78795E+01 3.24202E+01 0.00000E+00
 -1      3922 1.33148E+02 1.99112E+01 0.00000E+00
 -1      3923 1.33213E+02 1.86709E+01 0.00000E+00
 -1      3924 1.72409E+01 1.34279E+01 0.00000E+00
 -1      3925 1.33113E+02 2.57406E+01 0.00000E+00
 -1      3926 1.33113E+02 2.42719E+01 0.00000E+00
 -1      3927 5.65350E+01 1.67836E+01 0.00000E+00
 -1      3928 1.79445E+01 1.52425E+01 0.00000E+00
 -1      3929 1.32531E+02 3.06420E+01 0.00000E+00
 -1      3930 1.33785E+02 1.54846E+01 0.00000E+00
 -1      3931 1.32285E+02 1.54846E+01 0.00000E+00
 -1      3932 1.31535E+02 1.67836E+01 0.00000E+00
 -1      3933 1.33130E+02 2.28259E+01 0.00000E+00
 -1      3934 1.33130E+02 2.13572E+01 0.00000E+00
 -1      3935 1.31866E+02 2.06684E+01 0.00000E+00
 -1      3936 1.31831E+02 2.35603E+01 0.00000E+00
 -1      3937 5.24395E+01 1.85381E+01 0.00000E+00
 -1      3938 1.33113E+02 2.86906E+01 0.00000E+00
 -1      3939 1.33113E+02 2.72156E+01 0.00000E+00
 -1      3940 1.31814E+02 2.64813E+01 0.00000E+00
 -1      3941 5.39420E+01 3.20030E+01 0.00000E+00
 -1      3942 5.39000E+01 2.50684E+01 0.00000E+00
 -1      3943 5.49977E+01 2.59198E+01 0.00000E+00
 -1      3944 5.40170E+01 2.42905E+01 0.00000E+00
 -1      3945 5.48450E+01 2.85979E+01 0.00000E+00
 -1      3946 5.28817E+01 2.18658E+01 0.00000E+00
 -1      3947 5.94000E+01 3.05600E+01 0.00000E+00
 -1      3948 6.09000E+01 3.05600E+01 0.00000E+00
 -1      3949 6.24000E+01 3.05600E+01 0.00000E+00
 -1      3950 6.39000E+01 3.05600E+01 0.00000E+00
 -1      3951 6.16500E+01 2.92610E+01 0.00000E+00
 -1      3952 6.54000E+01 3.05600E+01 0.00000E+00
 -1      3953 6.69000E+01 3.05600E+01 0.00000E+00
 -1      3954 6.46500E+01 2.92610E+01 0.00000E+00
 -1      3955 6.84000E+01 3.05600E+01 0.00000E+00
 -1      3956 6.99000E+01 3.05600E+01 0.00000E+00
 -1      3957 6.76500E+01 2.92610E+01 0.00000E+00
 -1      3958 7.14000E+01 3.05600E+01 0.00000E+00
 -1      3959 7.29000E+01 3.05600E+01 0.00000E+00
 -1      3960 7.06500E+01 2.92610E+01 0.00000E+00
 -1      3961 7.44000E+01 3.05600E+01 0.00000E+00
 -1      3962 7.59000E+01 3.05600E+01 0.00000E+00
 -1      3963 7.36500E+01 2.92610E+01 0.00000E+00
 -1      3964 7.74000E+01 3.05600E+01 0.00000E+00
 -1      3965 7.89000E+01 3.05600E+01 0.00000E+00
 -1      3966 7.66500E+01 2.92610E+01 0.00000E+00
 -1      3967 8.04000E+01 3.05600E+01 0.00000E+00
 -1      3968 8.19000E+01 3.05600E+01 0.00000E+00
 -1      3969 7.96500E+01 2.92610E+01 0.00000E+00
 -1      3970 8.34000E+01 3.05600E+01 0.00000E+00
 -1      3971 8.49000E+01 3.05600E+01 0.00000E+00
 -1      3972 8.26500E+01 2.92610E+01 0.00000E+00
 -1      3973 8.64000E+01 3.05600E+01 0.00000E+00
 -1      3974 8.79000E+01 3.05600E+01 0.00000E+00
 -1      3975 8.56500E+01 2.92610E+01 0.00000E+00
 -1      3976 8.94000E+01 3.05600E+01 0.00000E+00
 -1      3977 9.09000E+01 3.05600E+01 0.00000E+00
 -1      3978 8.86500E+01 2.92610E+01 0.00000E+00
 -1      3979 9.24000E+01 3.05600E+01 0.00000E+00
 -1      3980 9.39000E+01 3.05600E+01 0.00000E+00
 -1      3981 9.16500E+01 2.92610E+01 0.00000E+00
 -1      3982 9.54000E+01 3.05600E+01 0.00000E+00
 -1      3983 9.69000E+01 3.05600E+01 0.00000E+00
 -1      3984 9.46500E+01 2.92610E+01 0.00000E+00
 -1      3985 9.84000E+01 3.05600E+01 0.00000E+00
 -1      3986 9.99000E+01 3.05600E+01 0.00000E+00
 -1      3987 9.76500E+01 2.92610E+01 0.00000E+00
 -1      3988 1.01400E+02 3.05600E+01 0.00000E+00
 -1      3989 1.02900E+02 3.05600E+01 0.00000E+00
 -1      3990 1.00650E+02 2.92610E+01 0.00000E+00
 -1      3991 1.04400E+02 3.05600E+01 0.00000E+00
 -1      3992 1.05900E+02 3.05600E+01 0.00000E+00
 -1      3993 1.03650E+02 2.92610E+01 0.00000E+00
 -1      3994 1.07400E+02 3.05600E+01 0.00000E+00
 -1      3995 1.08900E+02 3.05600E+01 0.00000E+00
 -1      3996 1.06650E+02 2.92610E+01 0.00000E+00
 -1      3997 1.10400E+02 3.05600E+01 0.00000E+00
 -1      3998 1.11900E+02 3.05600E+01 0.00000E+00
 -1      3999 1.09650E+02 2.92610E+01 0.00000E+00
 -1      4000 1.13400E+02 3.05600E+01 0.00000E+00
 -1      4001 1.14900E+02 3.05600E+01 0.00000E+00
 -1      4002 1.12650E+02 2.92610E+01 0.00000E+00
 -1      4003 1.16400E+02 3.05600E+01 0.00000E+00
 -1      4004 1.17900E+02 3.05600E+01 0.00000E+00
 -1      4005 1.15650E+02 2.92610E+01 0.00000E+00
 -1      4006 1.19400E+02 3.05600E+01 0.00000E+00
 -1      4007 1.20900E+02 3.05600E+01 0.00000E+00
 -1      4008 1.18650E+02 2.92610E+01 0.00000E+00
 -1      4009 1.22400E+02 3.05600E+01 0.00000E+00
 -1      4010 1.23900E+02 3.05600E+01 0.00000E+00
 -1      4011 1.21650E+02 2.92610E+01 0.00000E+00
 -1      4012 1.25400E+02 3.05600E+01 0.00000E+00
 -1      4013 1.26900E+02 3.05600E+01 0.00000E+00
 -1      4014 1.24650E+02 2.92610E+01 0.00000E+00
 -1      4015 1.28400E+02 3.05600E+01 0.00000E+00
 -1      4016 1.29900E+02 3.05600E+01 0.00000E+00
 -1      4017 1.27650E+02 2.92610E+01 0.00000E+00
 -1      4018 6.92850E+01 1.80826E+01 0.00000E+00
 -1      4019 6.77850E+01 1.80826E+01 0.00000E+00
 -1      4020 6.62850E+01 1.80826E+01 0.00000E+00
 -1      4021 6.47850E+01 1.80826E+01 0.00000E+00
 -1      4022 6.70350E+01 1.93816E+01 0.00000E+00
 -1      4023 6.32850E+01 1.80826E+01 0.00000E+00
 -1      4024 6.17850E+01 1.80826E+01 0.00000E+00
 -1      4025 6.40350E+01 1.93816E+01 0.00000E+00
 -1      4026 7.22850E+01 1.80826E+01 0.00000E+00
 -1      4027 7.07850E+01 1.80826E+01 0.00000E+00
 -1      4028 7.00350E+01 1.93816E+01 0.00000E+00
 -1      4029 7.52850E+01 1.80826E+01 0.00000E+00
 -1      4030 7.37850E+01 1.80826E+01 0.00000E+00
 -1      4031 7.30350E+01 1.93816E+01 0.00000E+00
 -1      4032 7.82850E+01 1.80826E+01 0.00000E+00
 -1      4033 7.67850E+01 1.80826E+01 0.00000E+00
 -1      4034 7.60350E+01 1.93816E+01 0.00000E+00
 -1      4035 8.12850E+01 1.80826E+01 0.00000E+00
 -1      4036 7.97850E+01 1.80826E+01 0.00000E+00
 -1      4037 7.90350E+01 1.93816E+01 0.00000E+00
 -1      4038 8.42850E+01 1.80826E+01 0.00000E+00
 -1      4039 8.27850E+01 1.80826E+01 0.00000E+00
 -1      4040 8.20350E+01 1.93816E+01 0.00000E+00
 -1      4041 8.72850E+01 1.80826E+01 0.00000E+00
 -1      4042 8.57850E+01 1.80826E+01 0.00000E+00
 -1      4043 8.50350E+01 1.93816E+01 0.00000E+00
 -1      4044 9.02850E+01 1.80826E+01 0.00000E+00
 -1      4045 8.87850E+01 1.80826E+01 0.00000E+00
 -1      4046 8.80350E+01 1.93816E+01 0.00000E+00
 -1      4047 9.32850E+01 1.80826E+01 0.00000E+00
 -1      4048 9.17850E+01 1.80826E+01 0.00000E+00
 -1      4049 9.10350E+01 1.93816E+01 0.00000E+00
 -1      4050 9.62850E+01 1.80826E+01 0.00000E+00
 -1      4051 9.47850E+01 1.80826E+01 0.00000E+00
 -1      4052 9.40350E+01 1.93816E+01 0.00000E+00
 -1      4053 9.92850E+01 1.80826E+01 0.00000E+00
 -1      4054 9.77850E+01 1.80826E+01 0.00000E+00
 -1      4055 9.70350E+01 1.93816E+01 0.00000E+00
 -1      4056 1.02285E+02 1.80826E+01 0.00000E+00
 -1      4057 1.00785E+02 1.80826E+01 0.00000E+00
 -1      4058 1.00035E+02 1.93816E+01 0.00000E+00
 -1      4059 1.05285E+02 1.80826E+01 0.00000E+00
 -1      4060 1.03785E+02 1.80826E+01 0.00000E+00
 -1      4061 1.03035E+02 1.93816E+01 0.00000E+00
 -1      4062 1.08285E+02 1.80826E+01 0.00000E+00
 -1      4063 1.06785E+02 1.80826E+01 0.00000E+00
 -1      4064 1.06035E+02 1.93816E+01 0.00000E+00
 -1      4065 1.11285E+02 1.80826E+01 0.00000E+00
 -1      4066 1.09785E+02 1.80826E+01 0.00000E+00
 -1      4067 1.09035E+02 1.93816E+01 0.00000E+00
 -1      4068 1.14285E+02 1.80826E+01 0.00000E+00
 -1      4069 1.12785E+02 1.80826E+01 0.00000E+00
 -1      4070 1.12035E+02 1.93816E+01 0.00000E+00
 -1      4071 1.17285E+02 1.80826E+01 0.00000E+00
 -1      4072 1.15785E+02 1.80826E+01 0.00000E+00
 -1      4073 1.15035E+02 1.93816E+01 0.00000E+00
 -1      4074 1.20285E+02 1.80826E+01 0.00000E+00
 -1      4075 1.18785E+02 1.80826E+01 0.00000E+00
 -1      4076 1.18035E+02 1.93816E+01 0.00000E+00
 -1      4077 1.23285E+02 1.80826E+01 0.00000E+00
 -1      4078 1.21785E+02 1.80826E+01 0.00000E+00
 -1      4079 1.21035E+02 1.93816E+01 0.00000E+00
 -1      4080 1.26285E+02 1.80826E+01 0.00000E+00
 -1      4081 1.24785E+02 1.80826E+01 0.00000E+00
 -1      4082 1.24035E+02 1.93816E+01 0.00000E+00
 -1      4083 1.29285E+02 1.80826E+01 0.00000E+00
 -1      4084 1.27785E+02 1.80826E+01 0.00000E+00
 -1      4085 1.27035E+02 1.93816E+01 0.00000E+00
 -1      4086 1.33789E+02 1.74515E+01 0.00000E+00
 -1      4087 5.52296E+01 3.11786E+01 0.00000E+00
 -1      4088 5.39395E+01 1.85381E+01 0.00000E+00
 -1      4089 5.57873E+01 2.98882E+01 0.00000E+00
 -1      4090 5.62077E+01 3.05687E+01 0.00000E+00
 -1      4091 5.77077E+01 3.05687E+01 0.00000E+00
 -1      4092 5.58230E+01 2.79880E+01 0.00000E+00
 -1      4093 1.32459E+02 1.80030E+01 0.00000E+00
 -1      4094 5.69395E+01 1.85381E+01 0.00000E+00
 -1      4095 5.54395E+01 1.85381E+01 0.00000E+00
 -1      4096 5.43441E+01 2.02925E+01 0.00000E+00
 -1      4097 1.30959E+02 1.80030E+01 0.00000E+00
 -1      4098 5.41617E+01 2.15049E+01 0.00000E+00
 -1      4099 5.41994E+01 2.30781E+01 0.00000E+00
 -1      4100 5.52971E+01 2.39296E+01 0.00000E+00
 -1      4101 5.56617E+01 2.15049E+01 0.00000E+00
 -1      4102 6.02850E+01 1.80826E+01 0.00000E+00
 -1      4103 5.87850E+01 1.80826E+01 0.00000E+00
 -1      4104 6.10350E+01 1.93816E+01 0.00000E+00
 -1      4105 1.30209E+02 1.93020E+01 0.00000E+00
 -1      4106 5.84577E+01 2.92697E+01 0.00000E+00
 -1      4107 1.30482E+02 2.86086E+01 0.00000E+00
 -1      4108 1.31232E+02 2.99076E+01 0.00000E+00
 -1      4109 5.76895E+01 1.98371E+01 0.00000E+00
 -1      4110 1.30192E+02 2.07480E+01 0.00000E+00
 -1      4111 1.30524E+02 2.42677E+01 0.00000E+00
 -1      4112 1.30541E+02 2.28218E+01 0.00000E+00
 -1      4113 5.64009E+01 2.65767E+01 0.00000E+00
 -1      4114 5.73432E+01 2.78671E+01 0.00000E+00
 -1      4115 1.30503E+02 2.71757E+01 0.00000E+00
 -1      4116 1.30503E+02 2.57007E+01 0.00000E+00
 -1      4117 1.29213E+02 2.49621E+01 0.00000E+00
 -1      4118 1.29171E+02 2.78281E+01 0.00000E+00
 -1      4119 5.65179E+01 2.57988E+01 0.00000E+00
 -1      4120 5.93527E+01 2.05940E+01 0.00000E+00
 -1      4121 5.75072E+01 2.10494E+01 0.00000E+00
 -1      4122 5.73249E+01 2.22618E+01 0.00000E+00
 -1      4123 6.39000E+01 2.79620E+01 0.00000E+00
 -1      4124 6.54000E+01 2.79620E+01 0.00000E+00
 -1      4125 6.69000E+01 2.79620E+01 0.00000E+00
 -1      4126 6.84000E+01 2.79620E+01 0.00000E+00
 -1      4127 6.61500E+01 2.66630E+01 0.00000E+00
 -1      4128 6.99000E+01 2.79620E+01 0.00000E+00
 -1      4129 7.14000E+01 2.79620E+01 0.00000E+00
 -1      4130 6.91500E+01 2.66630E+01 0.00000E+00
 -1      4131 7.29000E+01 2.79620E+01 0.00000E+00
 -1      4132 7.44000E+01 2.79620E+01 0.00000E+00
 -1      4133 7.21500E+01 2.66630E+01 0.00000E+00
 -1      4134 7.59000E+01 2.79620E+01 0.00000E+00
 -1      4135 7.74000E+01 2.79620E+01 0.00000E+00
 -1      4136 7.51500E+01 2.66630E+01 0.00000E+00
 -1      4137 7.89000E+01 2.79620E+01 0.00000E+00
 -1      4138 8.04000E+01 2.79620E+01 0.00000E+00
 -1      4139 7.81500E+01 2.66630E+01 0.00000E+00
 -1      4140 8.19000E+01 2.79620E+01 0.00000E+00
 -1      4141 8.34000E+01 2.79620E+01 0.00000E+00
 -1      4142 8.11500E+01 2.66630E+01 0.00000E+00
 -1      4143 8.49000E+01 2.79620E+01 0.00000E+00
 -1      4144 8.64000E+01 2.79620E+01 0.00000E+00
 -1      4145 8.41500E+01 2.66630E+01 0.00000E+00
 -1      4146 8.79000E+01 2.79620E+01 0.00000E+00
 -1      4147 8.94000E+01 2.79620E+01 0.00000E+00
 -1      4148 8.71500E+01 2.66630E+01 0.00000E+00
 -1      4149 9.09000E+01 2.79620E+01 0.00000E+00
 -1      4150 9.24000E+01 2.79620E+01 0.00000E+00
 -1      4151 9.01500E+01 2.66630E+01 0.00000E+00
 -1      4152 9.39000E+01 2.79620E+01 0.00000E+00
 -1      4153 9.54000E+01 2.79620E+01 0.00000E+00
 -1      4154 9.31500E+01 2.66630E+01 0.00000E+00
 -1      4155 9.69000E+01 2.79620E+01 0.00000E+00
 -1      4156 9.84000E+01 2.79620E+01 0.00000E+00
 -1      4157 9.61500E+01 2.66630E+01 0.00000E+00
 -1      4158 9.99000E+01 2.79620E+01 0.00000E+00
 -1      4159 1.01400E+02 2.79620E+01 0.00000E+00
 -1      4160 9.91500E+01 2.66630E+01 0.00000E+00
 -1      4161 1.02900E+02 2.79620E+01 0.00000E+00
 -1      4162 1.04400E+02 2.79620E+01 0.00000E+00
 -1      4163 1.02150E+02 2.66630E+01 0.00000E+00
 -1      4164 1.05900E+02 2.79620E+01 0.00000E+00
 -1      4165 1.07400E+02 2.79620E+01 0.00000E+00
 -1      4166 1.05150E+02 2.66630E+01 0.00000E+00
 -1      4167 1.08900E+02 2.79620E+01 0.00000E+00
 -1      4168 1.10400E+02 2.79620E+01 0.00000E+00
 -1      4169 1.08150E+02 2.66630E+01 0.00000E+00
 -1      4170 1.11900E+02 2.79620E+01 0.00000E+00
 -1      4171 1.13400E+02 2.79620E+01 0.00000E+00
 -1      4172 1.11150E+02 2.66630E+01 0.00000E+00
 -1      4173 1.14900E+02 2.79620E+01 0.00000E+00
 -1      4174 1.16400E+02 2.79620E+01 0.00000E+00
 -1      4175 1.14150E+02 2.66630E+01 0.00000E+00
 -1      4176 1.17900E+02 2.79620E+01 0.00000E+00
 -1      4177 1.19400E+02 2.79620E+01 0.00000E+00
 -1      4178 1.17150E+02 2.66630E+01 0.00000E+00
 -1      4179 1.20900E+02 2.79620E+01 0.00000E+00
 -1      4180 1.22400E+02 2.79620E+01 0.00000E+00
 -1      4181 1.20150E+02 2.66630E+01 0.00000E+00
 -1      4182 1.23900E+02 2.79620E+01 0.00000E+00
 -1      4183 1.25400E+02 2.79620E+01 0.00000E+00
 -1      4184 1.23150E+02 2.66630E+01 0.00000E+00
 -1      4185 1.26535E+02 2.78951E+01 0.00000E+00
 -1      4186 1.28035E+02 2.78951E+01 0.00000E+00
 -1      4187 1.28056E+02 2.64621E+01 0.00000E+00
 -1      4188 1.25785E+02 2.65961E+01 0.00000E+00
 -1      4189 7.37850E+01 2.06806E+01 0.00000E+00
 -1      4190 7.22850E+01 2.06806E+01 0.00000E+00
 -1      4191 7.07850E+01 2.06806E+01 0.00000E+00
 -1      4192 6.92850E+01 2.06806E+01 0.00000E+00
 -1      4193 7.15350E+01 2.19796E+01 0.00000E+00
 -1      4194 6.47850E+01 2.06806E+01 0.00000E+00
 -1      4195 6.32850E+01 2.06806E+01 0.00000E+00
 -1      4196 7.67850E+01 2.06806E+01 0.00000E+00
 -1      4197 7.52850E+01 2.06806E+01 0.00000E+00
 -1      4198 7.45350E+01 2.19796E+01 0.00000E+00
 -1      4199 7.97850E+01 2.06806E+01 0.00000E+00
 -1      4200 7.82850E+01 2.06806E+01 0.00000E+00
 -1      4201 7.75350E+01 2.19796E+01 0.00000E+00
 -1      4202 8.27850E+01 2.06806E+01 0.00000E+00
 -1      4203 8.12850E+01 2.06806E+01 0.00000E+00
 -1      4204 8.05350E+01 2.19796E+01 0.00000E+00
 -1      4205 8.57850E+01 2.06806E+01 0.00000E+00
 -1      4206 8.42850E+01 2.06806E+01 0.00000E+00
 -1      4207 8.35350E+01 2.19796E+01 0.00000E+00
 -1      4208 8.87850E+01 2.06806E+01 0.00000E+00
 -1      4209 8.72850E+01 2.06806E+01 0.00000E+00
 -1      4210 8.65350E+01 2.19796E+01 0.00000E+00
 -1      4211 9.17850E+01 2.06806E+01 0.00000E+00
 -1      4212 9.02850E+01 2.06806E+01 0.00000E+00
 -1      4213 8.95350E+01 2.19796E+01 0.00000E+00
 -1      4214 9.47850E+01 2.06806E+01 0.00000E+00
 -1      4215 9.32850E+01 2.06806E+01 0.00000E+00
 -1      4216 9.25350E+01 2.19796E+01 0.00000E+00
 -1      4217 9.77850E+01 2.06806E+01 0.00000E+00
 -1      4218 9.62850E+01 2.06806E+01 0.00000E+00
 -1      4219 9.55350E+01 2.19796E+01 0.00000E+00
 -1      4220 1.00785E+02 2.06806E+01 0.00000E+00
 -1      4221 9.92850E+01 2.06806E+01 0.00000E+00
 -1      4222 9.85350E+01 2.19796E+01 0.00000E+00
 -1      4223 1.03785E+02 2.06806E+01 0.00000E+00
 -1      4224 1.02285E+02 2.06806E+01 0.00000E+00
 -1      4225 1.01535E+02 2.19796E+01 0.00000E+00
 -1      4226 1.06785E+02 2.06806E+01 0.00000E+00
 -1      4227 1.05285E+02 2.06806E+01 0.00000E+00
 -1      4228 1.04535E+02 2.19796E+01 0.00000E+00
 -1      4229 1.09785E+02 2.06806E+01 0.00000E+00
 -1      4230 1.08285E+02 2.06806E+01 0.00000E+00
 -1      4231 1.07535E+02 2.19796E+01 0.00000E+00
 -1      4232 1.12785E+02 2.06806E+01 0.00000E+00
 -1      4233 1.11285E+02 2.06806E+01 0.00000E+00
 -1      4234 1.10535E+02 2.19796E+01 0.00000E+00
 -1      4235 1.15785E+02 2.06806E+01 0.00000E+00
 -1      4236 1.14285E+02 2.06806E+01 0.00000E+00
 -1      4237 1.13535E+02 2.19796E+01 0.00000E+00
 -1      4238 1.18785E+02 2.06806E+01 0.00000E+00
 -1      4239 1.17285E+02 2.06806E+01 0.00000E+00
 -1      4240 1.16535E+02 2.19796E+01 0.00000E+00
 -1      4241 1.21785E+02 2.06806E+01 0.00000E+00
 -1      4242 1.20285E+02 2.06806E+01 0.00000E+00
 -1      4243 1.19535E+02 2.19796E+01 0.00000E+00
 -1      4244 1.24785E+02 2.06806E+01 0.00000E+00
 -1      4245 1.23285E+02 2.06806E+01 0.00000E+00
 -1      4246 1.22535E+02 2.19796E+01 0.00000E+00
 -1      4247 1.27785E+02 2.06806E+01 0.00000E+00
 -1      4248 1.26285E+02 2.06806E+01 0.00000E+00
 -1      4249 1.25535E+02 2.19796E+01 0.00000E+00
 -1      4250 5.90355E+01 2.78584E+01 0.00000E+00
 -1      4251 6.20688E+01 2.06373E+01 0.00000E+00
 -1      4252 6.05688E+01 2.06373E+01 0.00000E+00
 -1      4253 6.03865E+01 2.18497E+01 0.00000E+00
 -1      4254 6.28188E+01 2.19363E+01 0.00000E+00
 -1      4255 6.77850E+01 2.06806E+01 0.00000E+00
 -1      4256 6.62850E+01 2.06806E+01 0.00000E+00
 -1      4257 6.55350E+01 2.19796E+01 0.00000E+00
 -1      4258 6.85350E+01 2.19796E+01 0.00000E+00
 -1      4259 6.09000E+01 2.79620E+01 0.00000E+00
 -1      4260 6.24000E+01 2.79620E+01 0.00000E+00
 -1      4261 6.31500E+01 2.66630E+01 0.00000E+00
 -1      4262 5.97855E+01 2.65594E+01 0.00000E+00
 -1      4263 5.63672E+01 2.42939E+01 0.00000E+00
 -1      4264 5.77703E+01 2.49509E+01 0.00000E+00
 -1      4265 5.97619E+01 2.41744E+01 0.00000E+00
 -1      4266 6.16263E+01 2.42780E+01 0.00000E+00
 -1      4267 1.28884E+02 2.14554E+01 0.00000E+00
 -1      4268 1.28134E+02 2.27544E+01 0.00000E+00
 -1      4269 1.28085E+02 2.53247E+01 0.00000E+00
 -1      4270 1.28106E+02 2.38918E+01 0.00000E+00
 -1      4271 1.27006E+02 2.31170E+01 0.00000E+00
 -1      4272 1.26949E+02 2.53917E+01 0.00000E+00
 -1      4273 6.29726E+01 2.31072E+01 0.00000E+00
 -1      4274 6.29963E+01 2.54922E+01 0.00000E+00
 -1      4275 6.44962E+01 2.54922E+01 0.00000E+00
 -1      4276 6.41888E+01 2.31505E+01 0.00000E+00
 -1      4277 6.84000E+01 2.53640E+01 0.00000E+00
 -1      4278 6.99000E+01 2.53640E+01 0.00000E+00
 -1      4279 7.18425E+01 2.43213E+01 0.00000E+00
 -1      4280 7.33425E+01 2.43213E+01 0.00000E+00
 -1      4281 7.48425E+01 2.43213E+01 0.00000E+00
 -1      4282 7.63425E+01 2.43213E+01 0.00000E+00
 -1      4283 7.78425E+01 2.43213E+01 0.00000E+00
 -1      4284 7.93425E+01 2.43213E+01 0.00000E+00
 -1      4285 8.08425E+01 2.43213E+01 0.00000E+00
 -1      4286 8.23425E+01 2.43213E+01 0.00000E+00
 -1      4287 8.38425E+01 2.43213E+01 0.00000E+00
 -1      4288 8.53425E+01 2.43213E+01 0.00000E+00
 -1      4289 8.68425E+01 2.43213E+01 0.00000E+00
 -1      4290 8.83425E+01 2.43213E+01 0.00000E+00
 -1      4291 8.98425E+01 2.43213E+01 0.00000E+00
 -1      4292 9.13425E+01 2.43213E+01 0.00000E+00
 -1      4293 9.28425E+01 2.43213E+01 0.00000E+00
 -1      4294 9.43425E+01 2.43213E+01 0.00000E+00
 -1      4295 9.58425E+01 2.43213E+01 0.00000E+00
 -1      4296 9.73425E+01 2.43213E+01 0.00000E+00
 -1      4297 9.88425E+01 2.43213E+01 0.00000E+00
 -1      4298 1.00342E+02 2.43213E+01 0.00000E+00
 -1      4299 1.01842E+02 2.43213E+01 0.00000E+00
 -1      4300 1.03342E+02 2.43213E+01 0.00000E+00
 -1      4301 1.04842E+02 2.43213E+01 0.00000E+00
 -1      4302 1.06342E+02 2.43213E+01 0.00000E+00
 -1      4303 1.07842E+02 2.43213E+01 0.00000E+00
 -1      4304 1.09342E+02 2.43213E+01 0.00000E+00
 -1      4305 1.10842E+02 2.43213E+01 0.00000E+00
 -1      4306 1.12342E+02 2.43213E+01 0.00000E+00
 -1      4307 1.13842E+02 2.43213E+01 0.00000E+00
 -1      4308 1.15342E+02 2.43213E+01 0.00000E+00
 -1      4309 1.16842E+02 2.43213E+01 0.00000E+00
 -1      4310 1.18342E+02 2.43213E+01 0.00000E+00
 -1      4311 1.19842E+02 2.43213E+01 0.00000E+00
 -1      4312 1.21342E+02 2.43213E+01 0.00000E+00
 -1      4313 1.22842E+02 2.43213E+01 0.00000E+00
 -1      4314 1.24342E+02 2.43213E+01 0.00000E+00
 -1      4315 1.25506E+02 2.31170E+01 0.00000E+00
 -1      4316 5.65495E+01 2.30816E+01 0.00000E+00
 -1      4317 6.56981E+01 2.54281E+01 0.00000E+00
 -1      4318 6.71981E+01 2.54281E+01 0.00000E+00
 -1      4319 6.79481E+01 2.41291E+01 0.00000E+00
 -1      4320 6.55444E+01 2.42573E+01 0.00000E+00
 -1      4321 7.03425E+01 2.43213E+01 0.00000E+00
 -1      4322 6.83906E+01 2.30864E+01 0.00000E+00
 -1      4323 6.68906E+01 2.30864E+01 0.00000E+00
 -1      4324 1.25814E+02 2.54587E+01 0.00000E+00
 -1      4325 5.96111E+01 2.26695E+01 0.00000E+00
 -1      4326 6.56888E+01 2.31505E+01 0.00000E+00
 -1      4327 5.83950E+01 2.26261E+01 0.00000E+00
 -1      4328 6.95925E+01 2.30223E+01 0.00000E+00
 -3
    3C                          2082                                     1
 -1       165    8    0    1
 -2         6         7        23      1124      1288      1141
 -1       166    8    0    1
 -2         7         8       165      1125      1289      1290
 -1       167    8    0    1
 -2         8         9       166      1126      1291      1292
 -1       168    8    0    1
 -2         8       166       165      1292      1293      1289
 -1       169    8    0    1
 -2         9        10       167      1127      1294      1295
 -1       170    8    0    1
 -2         9       167       166      1295      1296      1291
 -1       171    8    0    1
 -2        10        11       168      1128      1297      1298
 -1       172    8    0    1
 -2        10       168       167      1298      1299      1294
 -1       173    8    0    1
 -2        11        12       169      1129      1300      1301
 -1       174    8    0    1
 -2        11       169       168      1301      1302      1297
 -1       175    8    0    1
 -2        12        13       170      1130      1303      1304
 -1       176    8    0    1
 -2        12       170       169      1304      1305      1300
 -1       177    8    0    1
 -2        13        14       171      1131      1306      1307
 -1       178    8    0    1
 -2        13       171       170      1307      1308      1303
 -1       179    8    0    1
 -2        14        15       172      1132      1309      1310
 -1       180    8    0    1
 -2        14       172       171      1310      1311      1306
 -1       181    8    0    1
 -2        15        16       173      1133      1312      1313
 -1       182    8    0    1
 -2        15       173       172      1313      1314      1309
 -1       183    8    0    1
 -2        16        17       174      1134      1315      1316
 -1       184    8    0    1
 -2        16       174       173      1316      1317      1312
 -1       185    8    0    1
 -2        17        18       175      1135      1318      1319
 -1       186    8    0    1
 -2        17       175       174      1319      1320      1315
 -1       187    8    0    1
 -2        18        19       176      1136      1321      1322
 -1       188    8    0    1
 -2        18       176       175      1322      1323      1318
 -1       189    8    0    1
 -2        19        20       177      1137      1324      1325
 -1       190    8    0    1
 -2        19       177       176      1325      1326      1321
 -1       191    8    0    1
 -2        20        21       178      1138      1327      1328
 -1       192    8    0    1
 -2        20       178       177      1328      1329      1324
 -1       193    8    0    1
 -2        21        22       179      1139      1330      1331
 -1       194    8    0    1
 -2        21       179       178      1331      1332      1327
 -1       195    8    0    1
 -2        22         5       180      1140      1333      1334
 -1       196    8    0    1
 -2       179        22       180      1330      1334      1335
 -1       197    8    0    1
 -2         5        72       180      1191      1336      1333
 -1       198    8    0    1
 -2        24        23       181      1142      1337      1338
 -1       199    8    0    1
 -2        25        24       182      1143      1339      1340
 -1       200    8    0    1
 -2        24       181       182      1338      1341      1339
 -1       201    8    0    1
 -2        26        25       183      1144      1342      1343
 -1       202    8    0    1
 -2        25       182       183      1340      1344      1342
 -1       203    8    0    1
 -2        27        26       184      1145      1345      1346
 -1       204    8    0    1
 -2        26       183       184      1343      1347      1345
 -1       205    8    0    1
 -2        28        27       185      1146      1348      1349
 -1       206    8    0    1
 -2        27       184       185      1346      1350      1348
 -1       207    8    0    1
 -2        29        28       186      1147      1351      1352
 -1       208    8    0    1
 -2        28       185       186      1349      1353      1351
 -1       209    8    0    1
 -2        30        29       187      1148      1354      1355
 -1       210    8    0    1
 -2        29       186       187      1352      1356      1354
 -1       211    8    0    1
 -2        31        30       188      1149      1357      1358
 -1       212    8    0    1
 -2        30       187       188      1355      1359      1357
 -1       213    8    0    1
 -2        32        31       189      1150      1360      1361
 -1       214    8    0    1
 -2        31       188       189      1358      1362      1360
 -1       215    8    0    1
 -2        33        32       190      1151      1363      1364
 -1       216    8    0    1
 -2        32       189       190      1361      1365      1363
 -1       217    8    0    1
 -2        34        33       191      1152      1366      1367
 -1       218    8    0    1
 -2        33       190       191      1364      1368      1366
 -1       219    8    0    1
 -2        35        34       192      1153      1369      1370
 -1       220    8    0    1
 -2        34       191       192      1367      1371      1369
 -1       221    8    0    1
 -2        36        35       193      1154      1372      1373
 -1       222    8    0    1
 -2        35       192       193      1370      1374      1372
 -1       223    8    0    1
 -2        37        36       194      1155      1375      1376
 -1       224    8    0    1
 -2        36       193       194      1373      1377      1375
 -1       225    8    0    1
 -2        38        37       195      1156      1378      1379
 -1       226    8    0    1
 -2        37       194       195      1376      1380      1378
 -1       227    8    0    1
 -2        39        38       196      1157      1381      1382
 -1       228    8    0    1
 -2        38       195       196      1379      1383      1381
 -1       229    8    0    1
 -2        40        39       197      1158      1384      1385
 -1       230    8    0    1
 -2        39       196       197      1382      1386      1384
 -1       231    8    0    1
 -2        41        40       198      1159      1387      1388
 -1       232    8    0    1
 -2        40       197       198      1385      1389      1387
 -1       233    8    0    1
 -2        42        41       199      1160      1390      1391
 -1       234    8    0    1
 -2        41       198       199      1388      1392      1390
 -1       235    8    0    1
 -2        43        42       200      1161      1393      1394
 -1       236    8    0    1
 -2        42       199       200      1391      1395      1393
 -1       237    8    0    1
 -2        44        43       201      1162      1396      1397
 -1       238    8    0    1
 -2        43       200       201      1394      1398      1396
 -1       239    8    0    1
 -2        45        44       202      1163      1399      1400
 -1       240    8    0    1
 -2        44       201       202      1397      1401      1399
 -1       241    8    0    1
 -2        46        45       203      1164      1402      1403
 -1       242    8    0    1
 -2        45       202       203      1400      1404      1402
 -1       243    8    0    1
 -2        47        46       204      1165      1405      1406
 -1       244    8    0    1
 -2        46       203       204      1403      1407      1405
 -1       245    8    0    1
 -2        48        47       205      1166      1408      1409
 -1       246    8    0    1
 -2        47       204       205      1406      1410      1408
 -1       247    8    0    1
 -2        49        48       206      1167      1411      1412
 -1       248    8    0    1
 -2        48       205       206      1409      1413      1411
 -1       249    8    0    1
 -2        50        49       207      1168      1414      1415
 -1       250    8    0    1
 -2        49       206       207      1412      1416      1414
 -1       251    8    0    1
 -2        51        50       208      1169      1417      1418
 -1       252    8    0    1
 -2        50       207       208      1415      1419      1417
 -1       253    8    0    1
 -2        52        51       209      1170      1420      1421
 -1       254    8    0    1
 -2        51       208       209      1418      1422      1420
 -1       255    8    0    1
 -2        53        52       210      1171      1423      1424
 -1       256    8    0    1
 -2        52       209       210      1421      1425      1423
 -1       257    8    0    1
 -2        54        53       211      1172      1426      1427
 -1       258    8    0    1
 -2        53       210       211      1424      1428      1426
 -1       259    8    0    1
 -2        55        54       212      1173      1429      1430
 -1       260    8    0    1
 -2        54       211       212      1427      1431      1429
 -1       261    8    0    1
 -2        56        55       213      1174      1432      1433
 -1       262    8    0    1
 -2        55       212       213      1430      1434      1432
 -1       263    8    0    1
 -2        57        56       214      1175      1435      1436
 -1       264    8    0    1
 -2        56       213       214      1433      1437      1435
 -1       265    8    0    1
 -2        58        57       215      1176      1438      1439
 -1       266    8    0    1
 -2        57       214       215      1436      1440      1438
 -1       267    8    0    1
 -2        59        58       216      1177      1441      1442
 -1       268    8    0    1
 -2        58       215       216      1439      1443      1441
 -1       269    8    0    1
 -2        60        59       217      1178      1444      1445
 -1       270    8    0    1
 -2        59       216       217      1442      1446      1444
 -1       271    8    0    1
 -2        61        60       218      1179      1447      1448
 -1       272    8    0    1
 -2        60       217       218      1445      1449      1447
 -1       273    8    0    1
 -2        62        61       219      1180      1450      1451
 -1       274    8    0    1
 -2        61       218       219      1448      1452      1450
 -1       275    8    0    1
 -2        63        62       220      1181      1453      1454
 -1       276    8    0    1
 -2        62       219       220      1451      1455      1453
 -1       277    8    0    1
 -2        64        63       221      1182      1456      1457
 -1       278    8    0    1
 -2        63       220       221      1454      1458      1456
 -1       279    8    0    1
 -2        65        64       222      1183      1459      1460
 -1       280    8    0    1
 -2        64       221       222      1457      1461      1459
 -1       281    8    0    1
 -2        66        65       223      1184      1462      1463
 -1       282    8    0    1
 -2        65       222       223      1460      1464      1462
 -1       283    8    0    1
 -2        67        66       224      1185      1465      1466
 -1       284    8    0    1
 -2        66       223       224      1463      1467      1465
 -1       285    8    0    1
 -2        68        67       225      1186      1468      1469
 -1       286    8    0    1
 -2        67       224       225      1466      1470      1468
 -1       287    8    0    1
 -2        69        68       226      1187      1471      1472
 -1       288    8    0    1
 -2        68       225       226      1469      1473      1471
 -1       289    8    0    1
 -2        70        69       227      1188      1474      1475
 -1       290    8    0    1
 -2        69       226       227      1472      1476      1474
 -1       291    8    0    1
 -2        71        70       228      1189      1477      1478
 -1       292    8    0    1
 -2        70       227       228      1475      1479      1477
 -1       293    8    0    1
 -2         4        71       136      1190      1480      1257
 -1       294    8    0    1
 -2       136        71       228      1480      1478      1481
 -1       295    8    0    1
 -2        72        73       229      1192      1482      1483
 -1       296    8    0    1
 -2        72       229       180      1483      1484      1336
 -1       297    8    0    1
 -2        73        74       230      1193      1485      1486
 -1       298    8    0    1
 -2        73       230       229      1486      1487      1482
 -1       299    8    0    1
 -2        74        75       231      1194      1488      1489
 -1       300    8    0    1
 -2        74       231       230      1489      1490      1485
 -1       301    8    0    1
 -2        75        76       232      1195      1491      1492
 -1       302    8    0    1
 -2        75       232       231      1492      1493      1488
 -1       303    8    0    1
 -2        76        77       233      1196      1494      1495
 -1       304    8    0    1
 -2        76       233       232      1495      1496      1491
 -1       305    8    0    1
 -2        77        78       234      1197      1497      1498
 -1       306    8    0    1
 -2        77       234       233      1498      1499      1494
 -1       307    8    0    1
 -2        78        79       235      1198      1500      1501
 -1       308    8    0    1
 -2        78       235       234      1501      1502      1497
 -1       309    8    0    1
 -2        79        80       236      1199      1503      1504
 -1       310    8    0    1
 -2        79       236       235      1504      1505      1500
 -1       311    8    0    1
 -2        80        81       237      1200      1506      1507
 -1       312    8    0    1
 -2        80       237       236      1507      1508      1503
 -1       313    8    0    1
 -2        81        82       238      1201      1509      1510
 -1       314    8    0    1
 -2        81       238       237      1510      1511      1506
 -1       315    8    0    1
 -2        82        83       239      1202      1512      1513
 -1       316    8    0    1
 -2        82       239       238      1513      1514      1509
 -1       317    8    0    1
 -2        83        84       240      1203      1515      1516
 -1       318    8    0    1
 -2        83       240       239      1516      1517      1512
 -1       319    8    0    1
 -2        84        85       241      1204      1518      1519
 -1       320    8    0    1
 -2        84       241       240      1519      1520      1515
 -1       321    8    0    1
 -2        85        86       242      1205      1521      1522
 -1       322    8    0    1
 -2        85       242       241      1522      1523      1518
 -1       323    8    0    1
 -2        86        87       243      1206      1524      1525
 -1       324    8    0    1
 -2        86       243       242      1525      1526      1521
 -1       325    8    0    1
 -2        87        88       244      1207      1527      1528
 -1       326    8    0    1
 -2        87       244       243      1528      1529      1524
 -1       327    8    0    1
 -2        88        89       245      1208      1530      1531
 -1       328    8    0    1
 -2        88       245       244      1531      1532      1527
 -1       329    8    0    1
 -2        89        90       246      1209      1533      1534
 -1       330    8    0    1
 -2        89       246       245      1534      1535      1530
 -1       331    8    0    1
 -2        90        91       247      1210      1536      1537
 -1       332    8    0    1
 -2        90       247       246      1537      1538      1533
 -1       333    8    0    1
 -2        91        92       248      1211      1539      1540
 -1       334    8    0    1
 -2        91       248       247      1540      1541      1536
 -1       335    8    0    1
 -2        92        93       249      1212      1542      1543
 -1       336    8    0    1
 -2        92       249       248      1543      1544      1539
 -1       337    8    0    1
 -2        93        94       250      1213      1545      1546
 -1       338    8    0    1
 -2        93       250       249      1546      1547      1542
 -1       339    8    0    1
 -2        94        95       251      1214      1548      1549
 -1       340    8    0    1
 -2        94       251       250      1549      1550      1545
 -1       341    8    0    1
 -2        95        96       252      1215      1551      1552
 -1       342    8    0    1
 -2        95       252       251      1552      1553      1548
 -1       343    8    0    1
 -2        96        97       253      1216      1554      1555
 -1       344    8    0    1
 -2        96       253       252      1555      1556      1551
 -1       345    8    0    1
 -2        97        98       254      1217      1557      1558
 -1       346    8    0    1
 -2        97       254       253      1558      1559      1554
 -1       347    8    0    1
 -2        98        99       255      1218      1560      1561
 -1       348    8    0    1
 -2        98       255       254      1561      1562      1557
 -1       349    8    0    1
 -2        99       100       256      1219      1563      1564
 -1       350    8    0    1
 -2        99       256       255      1564      1565      1560
 -1       351    8    0    1
 -2       100       101       257      1220      1566      1567
 -1       352    8    0    1
 -2       100       257       256      1567      1568      1563
 -1       353    8    0    1
 -2       101       102       258      1221      1569      1570
 -1       354    8    0    1
 -2       101       258       257      1570      1571      1566
 -1       355    8    0    1
 -2       102       103       259      1222      1572      1573
 -1       356    8    0    1
 -2       102       259       258      1573      1574      1569
 -1       357    8    0    1
 -2       103       104       260      1223      1575      1576
 -1       358    8    0    1
 -2       103       260       259      1576      1577      1572
 -1       359    8    0    1
 -2       104       105       261      1224      1578      1579
 -1       360    8    0    1
 -2       104       261       260      1579      1580      1575
 -1       361    8    0    1
 -2       105       106       262      1225      1581      1582
 -1       362    8    0    1
 -2       105       262       261      1582      1583      1578
 -1       363    8    0    1
 -2       106       107       263      1226      1584      1585
 -1       364    8    0    1
 -2       106       263       262      1585      1586      1581
 -1       365    8    0    1
 -2       107       108       264      1227      1587      1588
 -1       366    8    0    1
 -2       107       264       263      1588      1589      1584
 -1       367    8    0    1
 -2       108       109       265      1228      1590      1591
 -1       368    8    0    1
 -2       108       265       264      1591      1592      1587
 -1       369    8    0    1
 -2       109       110       266      1229      1593      1594
 -1       370    8    0    1
 -2       109       266       265      1594      1595      1590
 -1       371    8    0    1
 -2       110       111       267      1230      1596      1597
 -1       372    8    0    1
 -2       110       267       266      1597      1598      1593
 -1       373    8    0    1
 -2       111       112       268      1231      1599      1600
 -1       374    8    0    1
 -2       111       268       267      1600      1601      1596
 -1       375    8    0    1
 -2       112       113       269      1232      1602      1603
 -1       376    8    0    1
 -2       112       269       268      1603      1604      1599
 -1       377    8    0    1
 -2       113       114       270      1233      1605      1606
 -1       378    8    0    1
 -2       113       270       269      1606      1607      1602
 -1       379    8    0    1
 -2       114       115       271      1234      1608      1609
 -1       380    8    0    1
 -2       114       271       270      1609      1610      1605
 -1       381    8    0    1
 -2       115       116       272      1235      1611      1612
 -1       382    8    0    1
 -2       115       272       271      1612      1613      1608
 -1       383    8    0    1
 -2       116       117       273      1236      1614      1615
 -1       384    8    0    1
 -2       116       273       272      1615      1616      1611
 -1       385    8    0    1
 -2       117       118       274      1237      1617      1618
 -1       386    8    0    1
 -2       117       274       273      1618      1619      1614
 -1       387    8    0    1
 -2       118       119       275      1238      1620      1621
 -1       388    8    0    1
 -2       118       275       274      1621      1622      1617
 -1       389    8    0    1
 -2       119       120       276      1239      1623      1624
 -1       390    8    0    1
 -2       119       276       275      1624      1625      1620
 -1       391    8    0    1
 -2       120         3       121      1240      1241      1626
 -1       392    8    0    1
 -2       121       122       277      1242      1627      1628
 -1       393    8    0    1
 -2       122       123       278      1243      1629      1630
 -1       394    8    0    1
 -2       122       278       277      1630      1631      1627
 -1       395    8    0    1
 -2       123       124       279      1244      1632      1633
 -1       396    8    0    1
 -2       123       279       278      1633      1634      1629
 -1       397    8    0    1
 -2       124       125       280      1245      1635      1636
 -1       398    8    0    1
 -2       124       280       279      1636      1637      1632
 -1       399    8    0    1
 -2       125       126       281      1246      1638      1639
 -1       400    8    0    1
 -2       125       281       280      1639      1640      1635
 -1       401    8    0    1
 -2       126       127       282      1247      1641      1642
 -1       402    8    0    1
 -2       126       282       281      1642      1643      1638
 -1       403    8    0    1
 -2       127       128       283      1248      1644      1645
 -1       404    8    0    1
 -2       127       283       282      1645      1646      1641
 -1       405    8    0    1
 -2       128       129       284      1249      1647      1648
 -1       406    8    0    1
 -2       128       284       283      1648      1649      1644
 -1       407    8    0    1
 -2       129       130       285      1250      1650      1651
 -1       408    8    0    1
 -2       129       285       284      1651      1652      1647
 -1       409    8    0    1
 -2       130       131       286      1251      1653      1654
 -1       410    8    0    1
 -2       130       286       285      1654      1655      1650
 -1       411    8    0    1
 -2       131       132       287      1252      1656      1657
 -1       412    8    0    1
 -2       131       287       286      1657      1658      1653
 -1       413    8    0    1
 -2       132       133       288      1253      1659      1660
 -1       414    8    0    1
 -2       132       288       287      1660      1661      1656
 -1       415    8    0    1
 -2       133       134       289      1254      1662      1663
 -1       416    8    0    1
 -2       133       289       288      1663      1664      1659
 -1       417    8    0    1
 -2       134       135       290      1255      1665      1666
 -1       418    8    0    1
 -2       134       290       289      1666      1667      1662
 -1       419    8    0    1
 -2       135       136       291      1256      1668      1669
 -1       420    8    0    1
 -2       290       135       291      1665      1669      1670
 -1       421    8    0    1
 -2       136       228       291      1481      1671      1668
 -1       422    8    0    1
 -2         2       137       292      1258      1672      1673
 -1       423    8    0    1
 -2       137       138       293      1259      1674      1675
 -1       424    8    0    1
 -2       138       139       294      1260      1676      1677
 -1       425    8    0    1
 -2       139       140       295      1261      1678      1679
 -1       426    8    0    1
 -2       140       141       296      1262      1680      1681
 -1       427    8    0    1
 -2       141       142       297      1263      1682      1683
 -1       428    8    0    1
 -2       142       143       298      1264      1684      1685
 -1       429    8    0    1
 -2       143       144       299      1265      1686      1687
 -1       430    8    0    1
 -2       144       145       300      1266      1688      1689
 -1       431    8    0    1
 -2       145       146       301      1267      1690      1691
 -1       432    8    0    1
 -2       146       147       302      1268      1692      1693
 -1       433    8    0    1
 -2       147       148       303      1269      1694      1695
 -1       434    8    0    1
 -2       148       149       304      1270      1696      1697
 -1       435    8    0    1
 -2       149       150       305      1271      1698      1699
 -1       436    8    0    1
 -2       150       151       306      1272      1700      1701
 -1       437    8    0    1
 -2       151       152       307      1273      1702      1703
 -1       438    8    0    1
 -2       152       153       308      1274      1704      1705
 -1       439    8    0    1
 -2       153       154       309      1275      1706      1707
 -1       440    8    0    1
 -2       154       155       310      1276      1708      1709
 -1       441    8    0    1
 -2       155       156       311      1277      1710      1711
 -1       442    8    0    1
 -2       156       157       312      1278      1712      1713
 -1       443    8    0    1
 -2       157       158       313      1279      1714      1715
 -1       444    8    0    1
 -2       158       159       314      1280      1716      1717
 -1       445    8    0    1
 -2       159         1       315      1281      1718      1719
 -1       446    8    0    1
 -2         1       160       316      1282      1720      1721
 -1       447    8    0    1
 -2       160       161       317      1283      1722      1723
 -1       448    8    0    1
 -2       161       162       318      1284      1724      1725
 -1       449    8    0    1
 -2       162       163       319      1285      1726      1727
 -1       450    8    0    1
 -2       163       164       320      1286      1728      1729
 -1       451    8    0    1
 -2       164         2       321      1287      1730      1731
 -1       452    8    0    1
 -2       295       140       296      1678      1681      1732
 -1       453    8    0    1
 -2       294       139       295      1676      1679      1733
 -1       454    8    0    1
 -2       120       121       276      1626      1734      1623
 -1       455    8    0    1
 -2       121       277       276      1628      1735      1734
 -1       456    8    0    1
 -2       292       137       293      1672      1675      1736
 -1       457    8    0    1
 -2       293       138       294      1674      1677      1737
 -1       458    8    0    1
 -2         2       292       321      1673      1738      1730
 -1       459    8    0    1
 -2       141       297       296      1683      1739      1680
 -1       460    8    0    1
 -2       142       298       297      1685      1740      1682
 -1       461    8    0    1
 -2       143       299       298      1687      1741      1684
 -1       462    8    0    1
 -2       144       300       299      1689      1742      1686
 -1       463    8    0    1
 -2       145       301       300      1691      1743      1688
 -1       464    8    0    1
 -2       146       302       301      1693      1744      1690
 -1       465    8    0    1
 -2       147       303       302      1695      1745      1692
 -1       466    8    0    1
 -2       148       304       303      1697      1746      1694
 -1       467    8    0    1
 -2       149       305       304      1699      1747      1696
 -1       468    8    0    1
 -2       150       306       305      1701      1748      1698
 -1       469    8    0    1
 -2       151       307       306      1703      1749      1700
 -1       470    8    0    1
 -2       152       308       307      1705      1750      1702
 -1       471    8    0    1
 -2       153       309       308      1707      1751      1704
 -1       472    8    0    1
 -2       154       310       309      1709      1752      1706
 -1       473    8    0    1
 -2       155       311       310      1711      1753      1708
 -1       474    8    0    1
 -2       156       312       311      1713      1754      1710
 -1       475    8    0    1
 -2       157       313       312      1715      1755      1712
 -1       476    8    0    1
 -2       158       314       313      1717      1756      1714
 -1       477    8    0    1
 -2       159       315       314      1719      1757      1716
 -1       478    8    0    1
 -2         1       316       315      1721      1758      1718
 -1       479    8    0    1
 -2       160       317       316      1723      1759      1720
 -1       480    8    0    1
 -2       161       318       317      1725      1760      1722
 -1       481    8    0    1
 -2       162       319       318      1727      1761      1724
 -1       482    8    0    1
 -2       163       320       319      1729      1762      1726
 -1       483    8    0    1
 -2       164       321       320      1731      1763      1728
 -1       484    8    0    1
 -2        23         7       165      1288      1290      1764
 -1       485    8    0    1
 -2       166       167       322      1296      1765      1766
 -1       486    8    0    1
 -2       165       166       323      1293      1767      1768
 -1       487    8    0    1
 -2       166       322       323      1766      1769      1767
 -1       488    8    0    1
 -2       168       169       324      1302      1770      1771
 -1       489    8    0    1
 -2       169       170       325      1305      1772      1773
 -1       490    8    0    1
 -2       169       325       324      1773      1774      1770
 -1       491    8    0    1
 -2       170       171       326      1308      1775      1776
 -1       492    8    0    1
 -2       170       326       325      1776      1777      1772
 -1       493    8    0    1
 -2       171       172       327      1311      1778      1779
 -1       494    8    0    1
 -2       171       327       326      1779      1780      1775
 -1       495    8    0    1
 -2       172       173       328      1314      1781      1782
 -1       496    8    0    1
 -2       172       328       327      1782      1783      1778
 -1       497    8    0    1
 -2       173       174       329      1317      1784      1785
 -1       498    8    0    1
 -2       173       329       328      1785      1786      1781
 -1       499    8    0    1
 -2       174       175       330      1320      1787      1788
 -1       500    8    0    1
 -2       174       330       329      1788      1789      1784
 -1       501    8    0    1
 -2       175       176       331      1323      1790      1791
 -1       502    8    0    1
 -2       175       331       330      1791      1792      1787
 -1       503    8    0    1
 -2       176       177       332      1326      1793      1794
 -1       504    8    0    1
 -2       176       332       331      1794      1795      1790
 -1       505    8    0    1
 -2       177       178       333      1329      1796      1797
 -1       506    8    0    1
 -2       177       333       332      1797      1798      1793
 -1       507    8    0    1
 -2       178       179       334      1332      1799      1800
 -1       508    8    0    1
 -2       178       334       333      1800      1801      1796
 -1       509    8    0    1
 -2       179       180       335      1335      1802      1803
 -1       510    8    0    1
 -2       334       179       335      1799      1803      1804
 -1       511    8    0    1
 -2       180       229       335      1484      1805      1802
 -1       512    8    0    1
 -2       181        23       165      1337      1764      1806
 -1       513    8    0    1
 -2       229       230       336      1487      1807      1808
 -1       514    8    0    1
 -2       229       336       335      1808      1809      1805
 -1       515    8    0    1
 -2       181       165       323      1806      1768      1810
 -1       516    8    0    1
 -2       183       182       337      1344      1811      1812
 -1       517    8    0    1
 -2       184       183       338      1347      1813      1814
 -1       518    8    0    1
 -2       183       337       338      1812      1815      1813
 -1       519    8    0    1
 -2       185       184       339      1350      1816      1817
 -1       520    8    0    1
 -2       184       338       339      1814      1818      1816
 -1       521    8    0    1
 -2       186       185       340      1353      1819      1820
 -1       522    8    0    1
 -2       185       339       340      1817      1821      1819
 -1       523    8    0    1
 -2       187       186       341      1356      1822      1823
 -1       524    8    0    1
 -2       186       340       341      1820      1824      1822
 -1       525    8    0    1
 -2       188       187       342      1359      1825      1826
 -1       526    8    0    1
 -2       187       341       342      1823      1827      1825
 -1       527    8    0    1
 -2       189       188       343      1362      1828      1829
 -1       528    8    0    1
 -2       188       342       343      1826      1830      1828
 -1       529    8    0    1
 -2       190       189       344      1365      1831      1832
 -1       530    8    0    1
 -2       189       343       344      1829      1833      1831
 -1       531    8    0    1
 -2       191       190       345      1368      1834      1835
 -1       532    8    0    1
 -2       190       344       345      1832      1836      1834
 -1       533    8    0    1
 -2       192       191       346      1371      1837      1838
 -1       534    8    0    1
 -2       191       345       346      1835      1839      1837
 -1       535    8    0    1
 -2       193       192       347      1374      1840      1841
 -1       536    8    0    1
 -2       192       346       347      1838      1842      1840
 -1       537    8    0    1
 -2       194       193       348      1377      1843      1844
 -1       538    8    0    1
 -2       193       347       348      1841      1845      1843
 -1       539    8    0    1
 -2       195       194       349      1380      1846      1847
 -1       540    8    0    1
 -2       194       348       349      1844      1848      1846
 -1       541    8    0    1
 -2       196       195       350      1383      1849      1850
 -1       542    8    0    1
 -2       195       349       350      1847      1851      1849
 -1       543    8    0    1
 -2       197       196       351      1386      1852      1853
 -1       544    8    0    1
 -2       196       350       351      1850      1854      1852
 -1       545    8    0    1
 -2       198       197       352      1389      1855      1856
 -1       546    8    0    1
 -2       197       351       352      1853      1857      1855
 -1       547    8    0    1
 -2       199       198       353      1392      1858      1859
 -1       548    8    0    1
 -2       198       352       353      1856      1860      1858
 -1       549    8    0    1
 -2       200       199       354      1395      1861      1862
 -1       550    8    0    1
 -2       199       353       354      1859      1863      1861
 -1       551    8    0    1
 -2       201       200       355      1398      1864      1865
 -1       552    8    0    1
 -2       200       354       355      1862      1866      1864
 -1       553    8    0    1
 -2       202       201       356      1401      1867      1868
 -1       554    8    0    1
 -2       201       355       356      1865      1869      1867
 -1       555    8    0    1
 -2       203       202       357      1404      1870      1871
 -1       556    8    0    1
 -2       202       356       357      1868      1872      1870
 -1       557    8    0    1
 -2       204       203       358      1407      1873      1874
 -1       558    8    0    1
 -2       203       357       358      1871      1875      1873
 -1       559    8    0    1
 -2       205       204       359      1410      1876      1877
 -1       560    8    0    1
 -2       204       358       359      1874      1878      1876
 -1       561    8    0    1
 -2       206       205       360      1413      1879      1880
 -1       562    8    0    1
 -2       205       359       360      1877      1881      1879
 -1       563    8    0    1
 -2       207       206       361      1416      1882      1883
 -1       564    8    0    1
 -2       206       360       361      1880      1884      1882
 -1       565    8    0    1
 -2       208       207       362      1419      1885      1886
 -1       566    8    0    1
 -2       207       361       362      1883      1887      1885
 -1       567    8    0    1
 -2       209       208       363      1422      1888      1889
 -1       568    8    0    1
 -2       208       362       363      1886      1890      1888
 -1       569    8    0    1
 -2       210       209       364      1425      1891      1892
 -1       570    8    0    1
 -2       209       363       364      1889      1893      1891
 -1       571    8    0    1
 -2       211       210       365      1428      1894      1895
 -1       572    8    0    1
 -2       210       364       365      1892      1896      1894
 -1       573    8    0    1
 -2       212       211       366      1431      1897      1898
 -1       574    8    0    1
 -2       211       365       366      1895      1899      1897
 -1       575    8    0    1
 -2       213       212       367      1434      1900      1901
 -1       576    8    0    1
 -2       212       366       367      1898      1902      1900
 -1       577    8    0    1
 -2       214       213       368      1437      1903      1904
 -1       578    8    0    1
 -2       213       367       368      1901      1905      1903
 -1       579    8    0    1
 -2       215       214       369      1440      1906      1907
 -1       580    8    0    1
 -2       214       368       369      1904      1908      1906
 -1       581    8    0    1
 -2       216       215       370      1443      1909      1910
 -1       582    8    0    1
 -2       215       369       370      1907      1911      1909
 -1       583    8    0    1
 -2       217       216       371      1446      1912      1913
 -1       584    8    0    1
 -2       216       370       371      1910      1914      1912
 -1       585    8    0    1
 -2       218       217       372      1449      1915      1916
 -1       586    8    0    1
 -2       217       371       372      1913      1917      1915
 -1       587    8    0    1
 -2       219       218       373      1452      1918      1919
 -1       588    8    0    1
 -2       218       372       373      1916      1920      1918
 -1       589    8    0    1
 -2       220       219       374      1455      1921      1922
 -1       590    8    0    1
 -2       219       373       374      1919      1923      1921
 -1       591    8    0    1
 -2       221       220       375      1458      1924      1925
 -1       592    8    0    1
 -2       220       374       375      1922      1926      1924
 -1       593    8    0    1
 -2       222       221       376      1461      1927      1928
 -1       594    8    0    1
 -2       221       375       376      1925      1929      1927
 -1       595    8    0    1
 -2       223       222       377      1464      1930      1931
 -1       596    8    0    1
 -2       222       376       377      1928      1932      1930
 -1       597    8    0    1
 -2       224       223       378      1467      1933      1934
 -1       598    8    0    1
 -2       223       377       378      1931      1935      1933
 -1       599    8    0    1
 -2       225       224       379      1470      1936      1937
 -1       600    8    0    1
 -2       224       378       379      1934      1938      1936
 -1       601    8    0    1
 -2       226       225       380      1473      1939      1940
 -1       602    8    0    1
 -2       225       379       380      1937      1941      1939
 -1       603    8    0    1
 -2       227       226       381      1476      1942      1943
 -1       604    8    0    1
 -2       226       380       381      1940      1944      1942
 -1       605    8    0    1
 -2       228       227       382      1479      1945      1946
 -1       606    8    0    1
 -2       291       228       382      1671      1946      1947
 -1       607    8    0    1
 -2       227       381       382      1943      1948      1945
 -1       608    8    0    1
 -2       230       231       383      1490      1949      1950
 -1       609    8    0    1
 -2       230       383       336      1950      1951      1807
 -1       610    8    0    1
 -2       231       232       384      1493      1952      1953
 -1       611    8    0    1
 -2       231       384       383      1953      1954      1949
 -1       612    8    0    1
 -2       232       233       385      1496      1955      1956
 -1       613    8    0    1
 -2       232       385       384      1956      1957      1952
 -1       614    8    0    1
 -2       233       234       386      1499      1958      1959
 -1       615    8    0    1
 -2       233       386       385      1959      1960      1955
 -1       616    8    0    1
 -2       234       235       387      1502      1961      1962
 -1       617    8    0    1
 -2       234       387       386      1962      1963      1958
 -1       618    8    0    1
 -2       235       236       388      1505      1964      1965
 -1       619    8    0    1
 -2       235       388       387      1965      1966      1961
 -1       620    8    0    1
 -2       236       237       389      1508      1967      1968
 -1       621    8    0    1
 -2       236       389       388      1968      1969      1964
 -1       622    8    0    1
 -2       237       238       390      1511      1970      1971
 -1       623    8    0    1
 -2       237       390       389      1971      1972      1967
 -1       624    8    0    1
 -2       238       239       391      1514      1973      1974
 -1       625    8    0    1
 -2       238       391       390      1974      1975      1970
 -1       626    8    0    1
 -2       239       240       392      1517      1976      1977
 -1       627    8    0    1
 -2       239       392       391      1977      1978      1973
 -1       628    8    0    1
 -2       240       241       393      1520      1979      1980
 -1       629    8    0    1
 -2       240       393       392      1980      1981      1976
 -1       630    8    0    1
 -2       241       242       394      1523      1982      1983
 -1       631    8    0    1
 -2       241       394       393      1983      1984      1979
 -1       632    8    0    1
 -2       242       243       395      1526      1985      1986
 -1       633    8    0    1
 -2       242       395       394      1986      1987      1982
 -1       634    8    0    1
 -2       243       244       396      1529      1988      1989
 -1       635    8    0    1
 -2       243       396       395      1989      1990      1985
 -1       636    8    0    1
 -2       244       245       397      1532      1991      1992
 -1       637    8    0    1
 -2       244       397       396      1992      1993      1988
 -1       638    8    0    1
 -2       245       246       398      1535      1994      1995
 -1       639    8    0    1
 -2       245       398       397      1995      1996      1991
 -1       640    8    0    1
 -2       246       247       399      1538      1997      1998
 -1       641    8    0    1
 -2       246       399       398      1998      1999      1994
 -1       642    8    0    1
 -2       247       248       400      1541      2000      2001
 -1       643    8    0    1
 -2       247       400       399      2001      2002      1997
 -1       644    8    0    1
 -2       248       249       401      1544      2003      2004
 -1       645    8    0    1
 -2       248       401       400      2004      2005      2000
 -1       646    8    0    1
 -2       249       250       402      1547      2006      2007
 -1       647    8    0    1
 -2       249       402       401      2007      2008      2003
 -1       648    8    0    1
 -2       250       251       403      1550      2009      2010
 -1       649    8    0    1
 -2       250       403       402      2010      2011      2006
 -1       650    8    0    1
 -2       251       252       404      1553      2012      2013
 -1       651    8    0    1
 -2       251       404       403      2013      2014      2009
 -1       652    8    0    1
 -2       252       253       405      1556      2015      2016
 -1       653    8    0    1
 -2       252       405       404      2016      2017      2012
 -1       654    8    0    1
 -2       253       254       406      1559      2018      2019
 -1       655    8    0    1
 -2       253       406       405      2019      2020      2015
 -1       656    8    0    1
 -2       254       255       407      1562      2021      2022
 -1       657    8    0    1
 -2       254       407       406      2022      2023      2018
 -1       658    8    0    1
 -2       255       256       408      1565      2024      2025
 -1       659    8    0    1
 -2       255       408       407      2025      2026      2021
 -1       660    8    0    1
 -2       256       257       409      1568      2027      2028
 -1       661    8    0    1
 -2       256       409       408      2028      2029      2024
 -1       662    8    0    1
 -2       257       258       410      1571      2030      2031
 -1       663    8    0    1
 -2       257       410       409      2031      2032      2027
 -1       664    8    0    1
 -2       258       259       411      1574      2033      2034
 -1       665    8    0    1
 -2       258       411       410      2034      2035      2030
 -1       666    8    0    1
 -2       259       260       412      1577      2036      2037
 -1       667    8    0    1
 -2       259       412       411      2037      2038      2033
 -1       668    8    0    1
 -2       260       261       413      1580      2039      2040
 -1       669    8    0    1
 -2       260       413       412      2040      2041      2036
 -1       670    8    0    1
 -2       261       262       414      1583      2042      2043
 -1       671    8    0    1
 -2       261       414       413      2043      2044      2039
 -1       672    8    0    1
 -2       262       263       415      1586      2045      2046
 -1       673    8    0    1
 -2       262       415       414      2046      2047      2042
 -1       674    8    0    1
 -2       263       264       416      1589      2048      2049
 -1       675    8    0    1
 -2       263       416       415      2049      2050      2045
 -1       676    8    0    1
 -2       264       265       417      1592      2051      2052
 -1       677    8    0    1
 -2       264       417       416      2052      2053      2048
 -1       678    8    0    1
 -2       265       266       418      1595      2054      2055
 -1       679    8    0    1
 -2       265       418       417      2055      2056      2051
 -1       680    8    0    1
 -2       266       267       419      1598      2057      2058
 -1       681    8    0    1
 -2       266       419       418      2058      2059      2054
 -1       682    8    0    1
 -2       267       268       420      1601      2060      2061
 -1       683    8    0    1
 -2       267       420       419      2061      2062      2057
 -1       684    8    0    1
 -2       268       269       421      1604      2063      2064
 -1       685    8    0    1
 -2       268       421       420      2064      2065      2060
 -1       686    8    0    1
 -2       269       270       422      1607      2066      2067
 -1       687    8    0    1
 -2       269       422       421      2067      2068      2063
 -1       688    8    0    1
 -2       270       271       423      1610      2069      2070
 -1       689    8    0    1
 -2       270       423       422      2070      2071      2066
 -1       690    8    0    1
 -2       271       272       424      1613      2072      2073
 -1       691    8    0    1
 -2       271       424       423      2073      2074      2069
 -1       692    8    0    1
 -2       272       273       425      1616      2075      2076
 -1       693    8    0    1
 -2       272       425       424      2076      2077      2072
 -1       694    8    0    1
 -2       273       274       426      1619      2078      2079
 -1       695    8    0    1
 -2       273       426       425      2079      2080      2075
 -1       696    8    0    1
 -2       274       275       427      1622      2081      2082
 -1       697    8    0    1
 -2       274       427       426      2082      2083      2078
 -1       698    8    0    1
 -2       275       276       428      1625      2084      2085
 -1       699    8    0    1
 -2       427       275       428      2081      2085      2086
 -1       700    8    0    1
 -2       276       277       428      1735      2087      2084
 -1       701    8    0    1
 -2       279       280       429      1637      2088      2089
 -1       702    8    0    1
 -2       278       279       430      1634      2090      2091
 -1       703    8    0    1
 -2       279       429       430      2089      2092      2090
 -1       704    8    0    1
 -2       277       278       431      1631      2093      2094
 -1       705    8    0    1
 -2       428       277       431      2087      2094      2095
 -1       706    8    0    1
 -2       278       430       431      2091      2096      2093
 -1       707    8    0    1
 -2       280       281       432      1640      2097      2098
 -1       708    8    0    1
 -2       280       432       429      2098      2099      2088
 -1       709    8    0    1
 -2       281       282       433      1643      2100      2101
 -1       710    8    0    1
 -2       281       433       432      2101      2102      2097
 -1       711    8    0    1
 -2       282       283       434      1646      2103      2104
 -1       712    8    0    1
 -2       282       434       433      2104      2105      2100
 -1       713    8    0    1
 -2       283       284       435      1649      2106      2107
 -1       714    8    0    1
 -2       283       435       434      2107      2108      2103
 -1       715    8    0    1
 -2       284       285       436      1652      2109      2110
 -1       716    8    0    1
 -2       284       436       435      2110      2111      2106
 -1       717    8    0    1
 -2       285       286       437      1655      2112      2113
 -1       718    8    0    1
 -2       285       437       436      2113      2114      2109
 -1       719    8    0    1
 -2       286       287       438      1658      2115      2116
 -1       720    8    0    1
 -2       286       438       437      2116      2117      2112
 -1       721    8    0    1
 -2       287       288       439      1661      2118      2119
 -1       722    8    0    1
 -2       287       439       438      2119      2120      2115
 -1       723    8    0    1
 -2       288       289       440      1664      2121      2122
 -1       724    8    0    1
 -2       288       440       439      2122      2123      2118
 -1       725    8    0    1
 -2       289       290       441      1667      2124      2125
 -1       726    8    0    1
 -2       289       441       440      2125      2126      2121
 -1       727    8    0    1
 -2       293       294       442      1737      2127      2128
 -1       728    8    0    1
 -2       321       292       443      1738      2129      2130
 -1       729    8    0    1
 -2       292       293       444      1736      2131      2132
 -1       730    8    0    1
 -2       293       442       444      2128      2133      2131
 -1       731    8    0    1
 -2       294       295       445      1733      2134      2135
 -1       732    8    0    1
 -2       295       296       446      1732      2136      2137
 -1       733    8    0    1
 -2       167       168       447      1299      2138      2139
 -1       734    8    0    1
 -2       322       167       447      1765      2139      2140
 -1       735    8    0    1
 -2       168       324       447      1771      2141      2138
 -1       736    8    0    1
 -2       297       298       448      1740      2142      2143
 -1       737    8    0    1
 -2       298       299       449      1741      2144      2145
 -1       738    8    0    1
 -2       299       300       450      1742      2146      2147
 -1       739    8    0    1
 -2       300       301       451      1743      2148      2149
 -1       740    8    0    1
 -2       300       451       450      2149      2150      2146
 -1       741    8    0    1
 -2       301       302       452      1744      2151      2152
 -1       742    8    0    1
 -2       302       303       453      1745      2153      2154
 -1       743    8    0    1
 -2       303       304       454      1746      2155      2156
 -1       744    8    0    1
 -2       304       305       455      1747      2157      2158
 -1       745    8    0    1
 -2       305       306       456      1748      2159      2160
 -1       746    8    0    1
 -2       306       307       457      1749      2161      2162
 -1       747    8    0    1
 -2       306       457       456      2162      2163      2159
 -1       748    8    0    1
 -2       307       308       458      1750      2164      2165
 -1       749    8    0    1
 -2       308       309       459      1751      2166      2167
 -1       750    8    0    1
 -2       309       310       460      1752      2168      2169
 -1       751    8    0    1
 -2       310       311       461      1753      2170      2171
 -1       752    8    0    1
 -2       311       312       462      1754      2172      2173
 -1       753    8    0    1
 -2       312       313       463      1755      2174      2175
 -1       754    8    0    1
 -2       313       314       464      1756      2176      2177
 -1       755    8    0    1
 -2       314       315       465      1757      2178      2179
 -1       756    8    0    1
 -2       315       316       466      1758      2180      2181
 -1       757    8    0    1
 -2       316       317       467      1759      2182      2183
 -1       758    8    0    1
 -2       317       318       468      1760      2184      2185
 -1       759    8    0    1
 -2       318       319       469      1761      2186      2187
 -1       760    8    0    1
 -2       319       320       470      1762      2188      2189
 -1       761    8    0    1
 -2       320       321       471      1763      2190      2191
 -1       762    8    0    1
 -2       470       320       471      2188      2191      2192
 -1       763    8    0    1
 -2       321       443       471      2130      2193      2190
 -1       764    8    0    1
 -2       296       297       472      1739      2194      2195
 -1       765    8    0    1
 -2       446       296       472      2136      2195      2196
 -1       766    8    0    1
 -2       181       323       182      1810      2197      1341
 -1       767    8    0    1
 -2       297       448       472      2143      2198      2194
 -1       768    8    0    1
 -2       337       182       323      1811      2197      2199
 -1       769    8    0    1
 -2       443       292       444      2129      2132      2200
 -1       770    8    0    1
 -2       294       445       473      2135      2201      2202
 -1       771    8    0    1
 -2       294       473       442      2202      2203      2127
 -1       772    8    0    1
 -2       441       290       291      2124      1670      2204
 -1       773    8    0    1
 -2       445       295       446      2134      2137      2205
 -1       774    8    0    1
 -2       469       319       470      2186      2189      2206
 -1       775    8    0    1
 -2       468       318       469      2184      2187      2207
 -1       776    8    0    1
 -2       467       317       468      2182      2185      2208
 -1       777    8    0    1
 -2       466       316       467      2180      2183      2209
 -1       778    8    0    1
 -2       465       315       474      2178      2210      2211
 -1       779    8    0    1
 -2       315       466       474      2181      2212      2210
 -1       780    8    0    1
 -2       464       314       465      2176      2179      2213
 -1       781    8    0    1
 -2       463       313       464      2174      2177      2214
 -1       782    8    0    1
 -2       462       312       463      2172      2175      2215
 -1       783    8    0    1
 -2       461       311       462      2170      2173      2216
 -1       784    8    0    1
 -2       460       310       461      2168      2171      2217
 -1       785    8    0    1
 -2       459       309       460      2166      2169      2218
 -1       786    8    0    1
 -2       457       307       458      2161      2165      2219
 -1       787    8    0    1
 -2       455       305       456      2157      2160      2220
 -1       788    8    0    1
 -2       454       304       455      2155      2158      2221
 -1       789    8    0    1
 -2       453       303       454      2153      2156      2222
 -1       790    8    0    1
 -2       451       301       452      2148      2152      2223
 -1       791    8    0    1
 -2       448       298       449      2142      2145      2224
 -1       792    8    0    1
 -2       449       299       450      2144      2147      2225
 -1       793    8    0    1
 -2       452       302       453      2151      2154      2226
 -1       794    8    0    1
 -2       458       308       459      2164      2167      2227
 -1       795    8    0    1
 -2       336       383       475      1951      2228      2229
 -1       796    8    0    1
 -2       325       326       476      1777      2230      2231
 -1       797    8    0    1
 -2       324       325       477      1774      2232      2233
 -1       798    8    0    1
 -2       325       476       477      2231      2234      2232
 -1       799    8    0    1
 -2       327       328       478      1783      2235      2236
 -1       800    8    0    1
 -2       328       329       479      1786      2237      2238
 -1       801    8    0    1
 -2       328       479       478      2238      2239      2235
 -1       802    8    0    1
 -2       329       330       480      1789      2240      2241
 -1       803    8    0    1
 -2       329       480       479      2241      2242      2237
 -1       804    8    0    1
 -2       330       331       481      1792      2243      2244
 -1       805    8    0    1
 -2       330       481       480      2244      2245      2240
 -1       806    8    0    1
 -2       331       332       482      1795      2246      2247
 -1       807    8    0    1
 -2       331       482       481      2247      2248      2243
 -1       808    8    0    1
 -2       332       333       483      1798      2249      2250
 -1       809    8    0    1
 -2       332       483       482      2250      2251      2246
 -1       810    8    0    1
 -2       383       384       484      1954      2252      2253
 -1       811    8    0    1
 -2       383       484       475      2253      2254      2228
 -1       812    8    0    1
 -2       338       337       485      1815      2255      2256
 -1       813    8    0    1
 -2       472       448       486      2198      2257      2258
 -1       814    8    0    1
 -2       339       338       487      1818      2259      2260
 -1       815    8    0    1
 -2       338       485       487      2256      2261      2259
 -1       816    8    0    1
 -2       340       339       488      1821      2262      2263
 -1       817    8    0    1
 -2       339       487       488      2260      2264      2262
 -1       818    8    0    1
 -2       341       340       489      1824      2265      2266
 -1       819    8    0    1
 -2       340       488       489      2263      2267      2265
 -1       820    8    0    1
 -2       342       341       490      1827      2268      2269
 -1       821    8    0    1
 -2       341       489       490      2266      2270      2268
 -1       822    8    0    1
 -2       343       342       491      1830      2271      2272
 -1       823    8    0    1
 -2       342       490       491      2269      2273      2271
 -1       824    8    0    1
 -2       344       343       492      1833      2274      2275
 -1       825    8    0    1
 -2       343       491       492      2272      2276      2274
 -1       826    8    0    1
 -2       345       344       493      1836      2277      2278
 -1       827    8    0    1
 -2       344       492       493      2275      2279      2277
 -1       828    8    0    1
 -2       346       345       494      1839      2280      2281
 -1       829    8    0    1
 -2       345       493       494      2278      2282      2280
 -1       830    8    0    1
 -2       347       346       495      1842      2283      2284
 -1       831    8    0    1
 -2       346       494       495      2281      2285      2283
 -1       832    8    0    1
 -2       348       347       496      1845      2286      2287
 -1       833    8    0    1
 -2       347       495       496      2284      2288      2286
 -1       834    8    0    1
 -2       349       348       497      1848      2289      2290
 -1       835    8    0    1
 -2       348       496       497      2287      2291      2289
 -1       836    8    0    1
 -2       350       349       498      1851      2292      2293
 -1       837    8    0    1
 -2       349       497       498      2290      2294      2292
 -1       838    8    0    1
 -2       351       350       499      1854      2295      2296
 -1       839    8    0    1
 -2       350       498       499      2293      2297      2295
 -1       840    8    0    1
 -2       352       351       500      1857      2298      2299
 -1       841    8    0    1
 -2       351       499       500      2296      2300      2298
 -1       842    8    0    1
 -2       353       352       501      1860      2301      2302
 -1       843    8    0    1
 -2       352       500       501      2299      2303      2301
 -1       844    8    0    1
 -2       354       353       502      1863      2304      2305
 -1       845    8    0    1
 -2       353       501       502      2302      2306      2304
 -1       846    8    0    1
 -2       355       354       503      1866      2307      2308
 -1       847    8    0    1
 -2       354       502       503      2305      2309      2307
 -1       848    8    0    1
 -2       356       355       504      1869      2310      2311
 -1       849    8    0    1
 -2       355       503       504      2308      2312      2310
 -1       850    8    0    1
 -2       357       356       505      1872      2313      2314
 -1       851    8    0    1
 -2       356       504       505      2311      2315      2313
 -1       852    8    0    1
 -2       358       357       506      1875      2316      2317
 -1       853    8    0    1
 -2       357       505       506      2314      2318      2316
 -1       854    8    0    1
 -2       359       358       507      1878      2319      2320
 -1       855    8    0    1
 -2       358       506       507      2317      2321      2319
 -1       856    8    0    1
 -2       360       359       508      1881      2322      2323
 -1       857    8    0    1
 -2       359       507       508      2320      2324      2322
 -1       858    8    0    1
 -2       361       360       509      1884      2325      2326
 -1       859    8    0    1
 -2       360       508       509      2323      2327      2325
 -1       860    8    0    1
 -2       362       361       510      1887      2328      2329
 -1       861    8    0    1
 -2       361       509       510      2326      2330      2328
 -1       862    8    0    1
 -2       363       362       511      1890      2331      2332
 -1       863    8    0    1
 -2       362       510       511      2329      2333      2331
 -1       864    8    0    1
 -2       364       363       512      1893      2334      2335
 -1       865    8    0    1
 -2       363       511       512      2332      2336      2334
 -1       866    8    0    1
 -2       365       364       513      1896      2337      2338
 -1       867    8    0    1
 -2       364       512       513      2335      2339      2337
 -1       868    8    0    1
 -2       366       365       514      1899      2340      2341
 -1       869    8    0    1
 -2       365       513       514      2338      2342      2340
 -1       870    8    0    1
 -2       367       366       515      1902      2343      2344
 -1       871    8    0    1
 -2       366       514       515      2341      2345      2343
 -1       872    8    0    1
 -2       368       367       516      1905      2346      2347
 -1       873    8    0    1
 -2       367       515       516      2344      2348      2346
 -1       874    8    0    1
 -2       369       368       517      1908      2349      2350
 -1       875    8    0    1
 -2       368       516       517      2347      2351      2349
 -1       876    8    0    1
 -2       370       369       518      1911      2352      2353
 -1       877    8    0    1
 -2       369       517       518      2350      2354      2352
 -1       878    8    0    1
 -2       371       370       519      1914      2355      2356
 -1       879    8    0    1
 -2       370       518       519      2353      2357      2355
 -1       880    8    0    1
 -2       372       371       520      1917      2358      2359
 -1       881    8    0    1
 -2       371       519       520      2356      2360      2358
 -1       882    8    0    1
 -2       373       372       521      1920      2361      2362
 -1       883    8    0    1
 -2       372       520       521      2359      2363      2361
 -1       884    8    0    1
 -2       374       373       522      1923      2364      2365
 -1       885    8    0    1
 -2       373       521       522      2362      2366      2364
 -1       886    8    0    1
 -2       375       374       523      1926      2367      2368
 -1       887    8    0    1
 -2       374       522       523      2365      2369      2367
 -1       888    8    0    1
 -2       376       375       524      1929      2370      2371
 -1       889    8    0    1
 -2       375       523       524      2368      2372      2370
 -1       890    8    0    1
 -2       377       376       525      1932      2373      2374
 -1       891    8    0    1
 -2       376       524       525      2371      2375      2373
 -1       892    8    0    1
 -2       378       377       526      1935      2376      2377
 -1       893    8    0    1
 -2       377       525       526      2374      2378      2376
 -1       894    8    0    1
 -2       379       378       527      1938      2379      2380
 -1       895    8    0    1
 -2       378       526       527      2377      2381      2379
 -1       896    8    0    1
 -2       380       379       528      1941      2382      2383
 -1       897    8    0    1
 -2       379       527       528      2380      2384      2382
 -1       898    8    0    1
 -2       381       380       529      1944      2385      2386
 -1       899    8    0    1
 -2       380       528       529      2383      2387      2385
 -1       900    8    0    1
 -2       444       442       530      2133      2388      2389
 -1       901    8    0    1
 -2       385       386       531      1960      2390      2391
 -1       902    8    0    1
 -2       386       387       532      1963      2392      2393
 -1       903    8    0    1
 -2       386       532       531      2393      2394      2390
 -1       904    8    0    1
 -2       387       388       533      1966      2395      2396
 -1       905    8    0    1
 -2       387       533       532      2396      2397      2392
 -1       906    8    0    1
 -2       388       389       534      1969      2398      2399
 -1       907    8    0    1
 -2       388       534       533      2399      2400      2395
 -1       908    8    0    1
 -2       389       390       535      1972      2401      2402
 -1       909    8    0    1
 -2       389       535       534      2402      2403      2398
 -1       910    8    0    1
 -2       390       391       536      1975      2404      2405
 -1       911    8    0    1
 -2       390       536       535      2405      2406      2401
 -1       912    8    0    1
 -2       391       392       537      1978      2407      2408
 -1       913    8    0    1
 -2       391       537       536      2408      2409      2404
 -1       914    8    0    1
 -2       392       393       538      1981      2410      2411
 -1       915    8    0    1
 -2       392       538       537      2411      2412      2407
 -1       916    8    0    1
 -2       393       394       539      1984      2413      2414
 -1       917    8    0    1
 -2       393       539       538      2414      2415      2410
 -1       918    8    0    1
 -2       394       395       540      1987      2416      2417
 -1       919    8    0    1
 -2       394       540       539      2417      2418      2413
 -1       920    8    0    1
 -2       395       396       541      1990      2419      2420
 -1       921    8    0    1
 -2       395       541       540      2420      2421      2416
 -1       922    8    0    1
 -2       396       397       542      1993      2422      2423
 -1       923    8    0    1
 -2       396       542       541      2423      2424      2419
 -1       924    8    0    1
 -2       397       398       543      1996      2425      2426
 -1       925    8    0    1
 -2       397       543       542      2426      2427      2422
 -1       926    8    0    1
 -2       398       399       544      1999      2428      2429
 -1       927    8    0    1
 -2       398       544       543      2429      2430      2425
 -1       928    8    0    1
 -2       399       400       545      2002      2431      2432
 -1       929    8    0    1
 -2       399       545       544      2432      2433      2428
 -1       930    8    0    1
 -2       400       401       546      2005      2434      2435
 -1       931    8    0    1
 -2       400       546       545      2435      2436      2431
 -1       932    8    0    1
 -2       401       402       547      2008      2437      2438
 -1       933    8    0    1
 -2       401       547       546      2438      2439      2434
 -1       934    8    0    1
 -2       402       403       548      2011      2440      2441
 -1       935    8    0    1
 -2       402       548       547      2441      2442      2437
 -1       936    8    0    1
 -2       403       404       549      2014      2443      2444
 -1       937    8    0    1
 -2       403       549       548      2444      2445      2440
 -1       938    8    0    1
 -2       404       405       550      2017      2446      2447
 -1       939    8    0    1
 -2       404       550       549      2447      2448      2443
 -1       940    8    0    1
 -2       405       406       551      2020      2449      2450
 -1       941    8    0    1
 -2       405       551       550      2450      2451      2446
 -1       942    8    0    1
 -2       406       407       552      2023      2452      2453
 -1       943    8    0    1
 -2       406       552       551      2453      2454      2449
 -1       944    8    0    1
 -2       407       408       553      2026      2455      2456
 -1       945    8    0    1
 -2       407       553       552      2456      2457      2452
 -1       946    8    0    1
 -2       408       409       554      2029      2458      2459
 -1       947    8    0    1
 -2       408       554       553      2459      2460      2455
 -1       948    8    0    1
 -2       409       410       555      2032      2461      2462
 -1       949    8    0    1
 -2       409       555       554      2462      2463      2458
 -1       950    8    0    1
 -2       410       411       556      2035      2464      2465
 -1       951    8    0    1
 -2       410       556       555      2465      2466      2461
 -1       952    8    0    1
 -2       411       412       557      2038      2467      2468
 -1       953    8    0    1
 -2       411       557       556      2468      2469      2464
 -1       954    8    0    1
 -2       412       413       558      2041      2470      2471
 -1       955    8    0    1
 -2       412       558       557      2471      2472      2467
 -1       956    8    0    1
 -2       413       414       559      2044      2473      2474
 -1       957    8    0    1
 -2       413       559       558      2474      2475      2470
 -1       958    8    0    1
 -2       414       415       560      2047      2476      2477
 -1       959    8    0    1
 -2       414       560       559      2477      2478      2473
 -1       960    8    0    1
 -2       415       416       561      2050      2479      2480
 -1       961    8    0    1
 -2       415       561       560      2480      2481      2476
 -1       962    8    0    1
 -2       416       417       562      2053      2482      2483
 -1       963    8    0    1
 -2       416       562       561      2483      2484      2479
 -1       964    8    0    1
 -2       417       418       563      2056      2485      2486
 -1       965    8    0    1
 -2       417       563       562      2486      2487      2482
 -1       966    8    0    1
 -2       418       419       564      2059      2488      2489
 -1       967    8    0    1
 -2       418       564       563      2489      2490      2485
 -1       968    8    0    1
 -2       419       420       565      2062      2491      2492
 -1       969    8    0    1
 -2       419       565       564      2492      2493      2488
 -1       970    8    0    1
 -2       420       421       566      2065      2494      2495
 -1       971    8    0    1
 -2       420       566       565      2495      2496      2491
 -1       972    8    0    1
 -2       421       422       567      2068      2497      2498
 -1       973    8    0    1
 -2       421       567       566      2498      2499      2494
 -1       974    8    0    1
 -2       422       423       568      2071      2500      2501
 -1       975    8    0    1
 -2       422       568       567      2501      2502      2497
 -1       976    8    0    1
 -2       423       424       569      2074      2503      2504
 -1       977    8    0    1
 -2       423       569       568      2504      2505      2500
 -1       978    8    0    1
 -2       424       425       570      2077      2506      2507
 -1       979    8    0    1
 -2       424       570       569      2507      2508      2503
 -1       980    8    0    1
 -2       425       426       571      2080      2509      2510
 -1       981    8    0    1
 -2       425       571       570      2510      2511      2506
 -1       982    8    0    1
 -2       426       427       572      2083      2512      2513
 -1       983    8    0    1
 -2       426       572       571      2513      2514      2509
 -1       984    8    0    1
 -2       427       428       431      2086      2095      2515
 -1       985    8    0    1
 -2       432       433       573      2102      2516      2517
 -1       986    8    0    1
 -2       433       434       574      2105      2518      2519
 -1       987    8    0    1
 -2       433       574       573      2519      2520      2516
 -1       988    8    0    1
 -2       430       429       575      2092      2521      2522
 -1       989    8    0    1
 -2       429       432       576      2099      2523      2524
 -1       990    8    0    1
 -2       575       429       576      2521      2524      2525
 -1       991    8    0    1
 -2       432       573       576      2517      2526      2523
 -1       992    8    0    1
 -2       434       435       577      2108      2527      2528
 -1       993    8    0    1
 -2       434       577       574      2528      2529      2518
 -1       994    8    0    1
 -2       435       436       578      2111      2530      2531
 -1       995    8    0    1
 -2       435       578       577      2531      2532      2527
 -1       996    8    0    1
 -2       436       437       579      2114      2533      2534
 -1       997    8    0    1
 -2       436       579       578      2534      2535      2530
 -1       998    8    0    1
 -2       437       438       580      2117      2536      2537
 -1       999    8    0    1
 -2       437       580       579      2537      2538      2533
 -1      1000    8    0    1
 -2       438       439       581      2120      2539      2540
 -1      1001    8    0    1
 -2       438       581       580      2540      2541      2536
 -1      1002    8    0    1
 -2       439       440       582      2123      2542      2543
 -1      1003    8    0    1
 -2       439       582       581      2543      2544      2539
 -1      1004    8    0    1
 -2       440       441       583      2126      2545      2546
 -1      1005    8    0    1
 -2       440       583       582      2546      2547      2542
 -1      1006    8    0    1
 -2       441       291       382      2204      1947      2548
 -1      1007    8    0    1
 -2       445       446       584      2205      2549      2550
 -1      1008    8    0    1
 -2       384       385       585      1957      2551      2552
 -1      1009    8    0    1
 -2       385       531       585      2391      2553      2551
 -1      1010    8    0    1
 -2       443       444       586      2200      2554      2555
 -1      1011    8    0    1
 -2       469       470       587      2206      2556      2557
 -1      1012    8    0    1
 -2       337       323       588      2199      2558      2559
 -1      1013    8    0    1
 -2       485       337       588      2255      2559      2560
 -1      1014    8    0    1
 -2       323       322       588      1769      2561      2558
 -1      1015    8    0    1
 -2       455       456       589      2220      2562      2563
 -1      1016    8    0    1
 -2       448       449       590      2224      2564      2565
 -1      1017    8    0    1
 -2       448       590       486      2565      2566      2257
 -1      1018    8    0    1
 -2       326       327       591      1780      2567      2568
 -1      1019    8    0    1
 -2       476       326       591      2230      2568      2569
 -1      1020    8    0    1
 -2       327       478       591      2236      2570      2567
 -1      1021    8    0    1
 -2       449       450       592      2225      2571      2572
 -1      1022    8    0    1
 -2       452       453       593      2226      2573      2574
 -1      1023    8    0    1
 -2       450       451       594      2150      2575      2576
 -1      1024    8    0    1
 -2       458       459       595      2227      2577      2578
 -1      1025    8    0    1
 -2       451       452       596      2223      2579      2580
 -1      1026    8    0    1
 -2       451       596       594      2580      2581      2575
 -1      1027    8    0    1
 -2       453       454       597      2222      2582      2583
 -1      1028    8    0    1
 -2       454       455       598      2221      2584      2585
 -1      1029    8    0    1
 -2       454       598       597      2585      2586      2582
 -1      1030    8    0    1
 -2       456       457       599      2163      2587      2588
 -1      1031    8    0    1
 -2       457       458       600      2219      2589      2590
 -1      1032    8    0    1
 -2       457       600       599      2590      2591      2587
 -1      1033    8    0    1
 -2       459       460       601      2218      2592      2593
 -1      1034    8    0    1
 -2       460       461       602      2217      2594      2595
 -1      1035    8    0    1
 -2       461       462       603      2216      2596      2597
 -1      1036    8    0    1
 -2       462       463       604      2215      2598      2599
 -1      1037    8    0    1
 -2       463       464       605      2214      2600      2601
 -1      1038    8    0    1
 -2       464       465       606      2213      2602      2603
 -1      1039    8    0    1
 -2       464       606       605      2603      2604      2600
 -1      1040    8    0    1
 -2       466       467       607      2209      2605      2606
 -1      1041    8    0    1
 -2       467       468       608      2208      2607      2608
 -1      1042    8    0    1
 -2       467       608       607      2608      2609      2605
 -1      1043    8    0    1
 -2       468       469       609      2207      2610      2611
 -1      1044    8    0    1
 -2       335       336       610      1809      2612      2613
 -1      1045    8    0    1
 -2       334       335       610      1804      2613      2614
 -1      1046    8    0    1
 -2       336       475       610      2229      2615      2612
 -1      1047    8    0    1
 -2       446       472       611      2196      2616      2617
 -1      1048    8    0    1
 -2       446       611       584      2617      2618      2549
 -1      1049    8    0    1
 -2       449       592       612      2572      2619      2620
 -1      1050    8    0    1
 -2       449       612       590      2620      2621      2564
 -1      1051    8    0    1
 -2       324       477       613      2233      2622      2623
 -1      1052    8    0    1
 -2       324       613       447      2623      2624      2141
 -1      1053    8    0    1
 -2       484       384       585      2252      2552      2625
 -1      1054    8    0    1
 -2       333       334       610      1801      2614      2626
 -1      1055    8    0    1
 -2       611       472       486      2616      2258      2627
 -1      1056    8    0    1
 -2       589       456       599      2562      2588      2628
 -1      1057    8    0    1
 -2       445       584       473      2550      2629      2201
 -1      1058    8    0    1
 -2       530       442       614      2388      2630      2631
 -1      1059    8    0    1
 -2       442       473       614      2203      2632      2630
 -1      1060    8    0    1
 -2       443       586       615      2555      2633      2634
 -1      1061    8    0    1
 -2       427       431       572      2515      2635      2512
 -1      1062    8    0    1
 -2       587       470       616      2556      2636      2637
 -1      1063    8    0    1
 -2       431       430       572      2096      2638      2635
 -1      1064    8    0    1
 -2       441       382       617      2548      2639      2640
 -1      1065    8    0    1
 -2       583       441       617      2545      2640      2641
 -1      1066    8    0    1
 -2       382       381       617      1948      2642      2639
 -1      1067    8    0    1
 -2       608       468       609      2607      2611      2643
 -1      1068    8    0    1
 -2       333       610       483      2626      2644      2249
 -1      1069    8    0    1
 -2       586       444       530      2554      2389      2645
 -1      1070    8    0    1
 -2       469       587       609      2557      2646      2610
 -1      1071    8    0    1
 -2       443       615       471      2634      2647      2193
 -1      1072    8    0    1
 -2       606       465       618      2602      2648      2649
 -1      1073    8    0    1
 -2       465       474       618      2211      2650      2648
 -1      1074    8    0    1
 -2       466       607       474      2606      2651      2212
 -1      1075    8    0    1
 -2       604       463       605      2598      2601      2652
 -1      1076    8    0    1
 -2       603       462       604      2596      2599      2653
 -1      1077    8    0    1
 -2       602       461       603      2594      2597      2654
 -1      1078    8    0    1
 -2       600       458       595      2589      2578      2655
 -1      1079    8    0    1
 -2       598       455       589      2584      2563      2656
 -1      1080    8    0    1
 -2       596       452       593      2579      2574      2657
 -1      1081    8    0    1
 -2       595       459       601      2577      2593      2658
 -1      1082    8    0    1
 -2       453       597       593      2583      2659      2573
 -1      1083    8    0    1
 -2       588       322       447      2561      2140      2660
 -1      1084    8    0    1
 -2       450       594       592      2576      2661      2571
 -1      1085    8    0    1
 -2       601       460       602      2592      2595      2662
 -1      1086    8    0    1
 -2       470       471       619      2192      2663      2664
 -1      1087    8    0    1
 -2       616       470       619      2636      2664      2665
 -1      1088    8    0    1
 -2       471       615       619      2647      2666      2663
 -1      1089    8    0    1
 -2       572       430       575      2638      2522      2667
 -1      1090    8    0    1
 -2       617       381       529      2642      2386      2668
 -1      1091    8    0    1
 -2       479       480       620      2242      2669      2670
 -1      1092    8    0    1
 -2       478       479       621      2239      2671      2672
 -1      1093    8    0    1
 -2       479       620       621      2670      2673      2671
 -1      1094    8    0    1
 -2       481       482       622      2248      2674      2675
 -1      1095    8    0    1
 -2       482       483       623      2251      2676      2677
 -1      1096    8    0    1
 -2       482       623       622      2677      2678      2674
 -1      1097    8    0    1
 -2       475       484       624      2254      2679      2680
 -1      1098    8    0    1
 -2       586       530       625      2645      2681      2682
 -1      1099    8    0    1
 -2       484       585       626      2625      2683      2684
 -1      1100    8    0    1
 -2       484       626       624      2684      2685      2679
 -1      1101    8    0    1
 -2       589       599       627      2628      2686      2687
 -1      1102    8    0    1
 -2       488       487       628      2264      2688      2689
 -1      1103    8    0    1
 -2       489       488       629      2267      2690      2691
 -1      1104    8    0    1
 -2       488       628       629      2689      2692      2690
 -1      1105    8    0    1
 -2       490       489       630      2270      2693      2694
 -1      1106    8    0    1
 -2       489       629       630      2691      2695      2693
 -1      1107    8    0    1
 -2       491       490       631      2273      2696      2697
 -1      1108    8    0    1
 -2       490       630       631      2694      2698      2696
 -1      1109    8    0    1
 -2       492       491       632      2276      2699      2700
 -1      1110    8    0    1
 -2       491       631       632      2697      2701      2699
 -1      1111    8    0    1
 -2       493       492       633      2279      2702      2703
 -1      1112    8    0    1
 -2       492       632       633      2700      2704      2702
 -1      1113    8    0    1
 -2       494       493       634      2282      2705      2706
 -1      1114    8    0    1
 -2       493       633       634      2703      2707      2705
 -1      1115    8    0    1
 -2       496       495       635      2288      2708      2709
 -1      1116    8    0    1
 -2       497       496       636      2291      2710      2711
 -1      1117    8    0    1
 -2       496       635       636      2709      2712      2710
 -1      1118    8    0    1
 -2       498       497       637      2294      2713      2714
 -1      1119    8    0    1
 -2       497       636       637      2711      2715      2713
 -1      1120    8    0    1
 -2       499       498       638      2297      2716      2717
 -1      1121    8    0    1
 -2       498       637       638      2714      2718      2716
 -1      1122    8    0    1
 -2       500       499       639      2300      2719      2720
 -1      1123    8    0    1
 -2       499       638       639      2717      2721      2719
 -1      1124    8    0    1
 -2       501       500       640      2303      2722      2723
 -1      1125    8    0    1
 -2       500       639       640      2720      2724      2722
 -1      1126    8    0    1
 -2       502       501       641      2306      2725      2726
 -1      1127    8    0    1
 -2       501       640       641      2723      2727      2725
 -1      1128    8    0    1
 -2       503       502       642      2309      2728      2729
 -1      1129    8    0    1
 -2       502       641       642      2726      2730      2728
 -1      1130    8    0    1
 -2       504       503       643      2312      2731      2732
 -1      1131    8    0    1
 -2       503       642       643      2729      2733      2731
 -1      1132    8    0    1
 -2       505       504       644      2315      2734      2735
 -1      1133    8    0    1
 -2       504       643       644      2732      2736      2734
 -1      1134    8    0    1
 -2       506       505       645      2318      2737      2738
 -1      1135    8    0    1
 -2       505       644       645      2735      2739      2737
 -1      1136    8    0    1
 -2       507       506       646      2321      2740      2741
 -1      1137    8    0    1
 -2       506       645       646      2738      2742      2740
 -1      1138    8    0    1
 -2       508       507       647      2324      2743      2744
 -1      1139    8    0    1
 -2       507       646       647      2741      2745      2743
 -1      1140    8    0    1
 -2       509       508       648      2327      2746      2747
 -1      1141    8    0    1
 -2       508       647       648      2744      2748      2746
 -1      1142    8    0    1
 -2       510       509       649      2330      2749      2750
 -1      1143    8    0    1
 -2       509       648       649      2747      2751      2749
 -1      1144    8    0    1
 -2       511       510       650      2333      2752      2753
 -1      1145    8    0    1
 -2       510       649       650      2750      2754      2752
 -1      1146    8    0    1
 -2       512       511       651      2336      2755      2756
 -1      1147    8    0    1
 -2       511       650       651      2753      2757      2755
 -1      1148    8    0    1
 -2       513       512       652      2339      2758      2759
 -1      1149    8    0    1
 -2       512       651       652      2756      2760      2758
 -1      1150    8    0    1
 -2       514       513       653      2342      2761      2762
 -1      1151    8    0    1
 -2       513       652       653      2759      2763      2761
 -1      1152    8    0    1
 -2       515       514       654      2345      2764      2765
 -1      1153    8    0    1
 -2       514       653       654      2762      2766      2764
 -1      1154    8    0    1
 -2       516       515       655      2348      2767      2768
 -1      1155    8    0    1
 -2       515       654       655      2765      2769      2767
 -1      1156    8    0    1
 -2       517       516       656      2351      2770      2771
 -1      1157    8    0    1
 -2       516       655       656      2768      2772      2770
 -1      1158    8    0    1
 -2       518       517       657      2354      2773      2774
 -1      1159    8    0    1
 -2       517       656       657      2771      2775      2773
 -1      1160    8    0    1
 -2       519       518       658      2357      2776      2777
 -1      1161    8    0    1
 -2       518       657       658      2774      2778      2776
 -1      1162    8    0    1
 -2       520       519       659      2360      2779      2780
 -1      1163    8    0    1
 -2       519       658       659      2777      2781      2779
 -1      1164    8    0    1
 -2       521       520       660      2363      2782      2783
 -1      1165    8    0    1
 -2       520       659       660      2780      2784      2782
 -1      1166    8    0    1
 -2       522       521       661      2366      2785      2786
 -1      1167    8    0    1
 -2       521       660       661      2783      2787      2785
 -1      1168    8    0    1
 -2       523       522       662      2369      2788      2789
 -1      1169    8    0    1
 -2       522       661       662      2786      2790      2788
 -1      1170    8    0    1
 -2       524       523       663      2372      2791      2792
 -1      1171    8    0    1
 -2       523       662       663      2789      2793      2791
 -1      1172    8    0    1
 -2       525       524       664      2375      2794      2795
 -1      1173    8    0    1
 -2       524       663       664      2792      2796      2794
 -1      1174    8    0    1
 -2       526       525       665      2378      2797      2798
 -1      1175    8    0    1
 -2       525       664       665      2795      2799      2797
 -1      1176    8    0    1
 -2       527       526       666      2381      2800      2801
 -1      1177    8    0    1
 -2       526       665       666      2798      2802      2800
 -1      1178    8    0    1
 -2       528       527       667      2384      2803      2804
 -1      1179    8    0    1
 -2       527       666       667      2801      2805      2803
 -1      1180    8    0    1
 -2       529       528       668      2387      2806      2807
 -1      1181    8    0    1
 -2       528       667       668      2804      2808      2806
 -1      1182    8    0    1
 -2       615       586       669      2633      2809      2810
 -1      1183    8    0    1
 -2       608       609       670      2643      2811      2812
 -1      1184    8    0    1
 -2       583       617       671      2641      2813      2814
 -1      1185    8    0    1
 -2       617       529       671      2668      2815      2813
 -1      1186    8    0    1
 -2       531       532       672      2394      2816      2817
 -1      1187    8    0    1
 -2       534       535       673      2403      2818      2819
 -1      1188    8    0    1
 -2       535       536       674      2406      2820      2821
 -1      1189    8    0    1
 -2       535       674       673      2821      2822      2818
 -1      1190    8    0    1
 -2       536       537       675      2409      2823      2824
 -1      1191    8    0    1
 -2       536       675       674      2824      2825      2820
 -1      1192    8    0    1
 -2       537       538       676      2412      2826      2827
 -1      1193    8    0    1
 -2       537       676       675      2827      2828      2823
 -1      1194    8    0    1
 -2       538       539       677      2415      2829      2830
 -1      1195    8    0    1
 -2       538       677       676      2830      2831      2826
 -1      1196    8    0    1
 -2       539       540       678      2418      2832      2833
 -1      1197    8    0    1
 -2       539       678       677      2833      2834      2829
 -1      1198    8    0    1
 -2       540       541       679      2421      2835      2836
 -1      1199    8    0    1
 -2       540       679       678      2836      2837      2832
 -1      1200    8    0    1
 -2       541       542       680      2424      2838      2839
 -1      1201    8    0    1
 -2       541       680       679      2839      2840      2835
 -1      1202    8    0    1
 -2       542       543       681      2427      2841      2842
 -1      1203    8    0    1
 -2       542       681       680      2842      2843      2838
 -1      1204    8    0    1
 -2       543       544       682      2430      2844      2845
 -1      1205    8    0    1
 -2       543       682       681      2845      2846      2841
 -1      1206    8    0    1
 -2       544       545       683      2433      2847      2848
 -1      1207    8    0    1
 -2       544       683       682      2848      2849      2844
 -1      1208    8    0    1
 -2       545       546       684      2436      2850      2851
 -1      1209    8    0    1
 -2       545       684       683      2851      2852      2847
 -1      1210    8    0    1
 -2       546       547       685      2439      2853      2854
 -1      1211    8    0    1
 -2       546       685       684      2854      2855      2850
 -1      1212    8    0    1
 -2       547       548       686      2442      2856      2857
 -1      1213    8    0    1
 -2       547       686       685      2857      2858      2853
 -1      1214    8    0    1
 -2       548       549       687      2445      2859      2860
 -1      1215    8    0    1
 -2       548       687       686      2860      2861      2856
 -1      1216    8    0    1
 -2       549       550       688      2448      2862      2863
 -1      1217    8    0    1
 -2       549       688       687      2863      2864      2859
 -1      1218    8    0    1
 -2       550       551       689      2451      2865      2866
 -1      1219    8    0    1
 -2       550       689       688      2866      2867      2862
 -1      1220    8    0    1
 -2       551       552       690      2454      2868      2869
 -1      1221    8    0    1
 -2       551       690       689      2869      2870      2865
 -1      1222    8    0    1
 -2       552       553       691      2457      2871      2872
 -1      1223    8    0    1
 -2       552       691       690      2872      2873      2868
 -1      1224    8    0    1
 -2       553       554       692      2460      2874      2875
 -1      1225    8    0    1
 -2       553       692       691      2875      2876      2871
 -1      1226    8    0    1
 -2       554       555       693      2463      2877      2878
 -1      1227    8    0    1
 -2       554       693       692      2878      2879      2874
 -1      1228    8    0    1
 -2       555       556       694      2466      2880      2881
 -1      1229    8    0    1
 -2       555       694       693      2881      2882      2877
 -1      1230    8    0    1
 -2       556       557       695      2469      2883      2884
 -1      1231    8    0    1
 -2       556       695       694      2884      2885      2880
 -1      1232    8    0    1
 -2       557       558       696      2472      2886      2887
 -1      1233    8    0    1
 -2       557       696       695      2887      2888      2883
 -1      1234    8    0    1
 -2       558       559       697      2475      2889      2890
 -1      1235    8    0    1
 -2       558       697       696      2890      2891      2886
 -1      1236    8    0    1
 -2       559       560       698      2478      2892      2893
 -1      1237    8    0    1
 -2       559       698       697      2893      2894      2889
 -1      1238    8    0    1
 -2       560       561       699      2481      2895      2896
 -1      1239    8    0    1
 -2       560       699       698      2896      2897      2892
 -1      1240    8    0    1
 -2       561       562       700      2484      2898      2899
 -1      1241    8    0    1
 -2       561       700       699      2899      2900      2895
 -1      1242    8    0    1
 -2       562       563       701      2487      2901      2902
 -1      1243    8    0    1
 -2       562       701       700      2902      2903      2898
 -1      1244    8    0    1
 -2       563       564       702      2490      2904      2905
 -1      1245    8    0    1
 -2       563       702       701      2905      2906      2901
 -1      1246    8    0    1
 -2       564       565       703      2493      2907      2908
 -1      1247    8    0    1
 -2       564       703       702      2908      2909      2904
 -1      1248    8    0    1
 -2       565       566       704      2496      2910      2911
 -1      1249    8    0    1
 -2       565       704       703      2911      2912      2907
 -1      1250    8    0    1
 -2       566       567       705      2499      2913      2914
 -1      1251    8    0    1
 -2       566       705       704      2914      2915      2910
 -1      1252    8    0    1
 -2       567       568       706      2502      2916      2917
 -1      1253    8    0    1
 -2       567       706       705      2917      2918      2913
 -1      1254    8    0    1
 -2       568       569       707      2505      2919      2920
 -1      1255    8    0    1
 -2       568       707       706      2920      2921      2916
 -1      1256    8    0    1
 -2       569       570       708      2508      2922      2923
 -1      1257    8    0    1
 -2       569       708       707      2923      2924      2919
 -1      1258    8    0    1
 -2       570       571       709      2511      2925      2926
 -1      1259    8    0    1
 -2       570       709       708      2926      2927      2922
 -1      1260    8    0    1
 -2       571       572       710      2514      2928      2929
 -1      1261    8    0    1
 -2       709       571       710      2925      2929      2930
 -1      1262    8    0    1
 -2       572       575       710      2667      2931      2928
 -1      1263    8    0    1
 -2       587       616       711      2637      2932      2933
 -1      1264    8    0    1
 -2       577       578       712      2532      2934      2935
 -1      1265    8    0    1
 -2       573       574       713      2520      2936      2937
 -1      1266    8    0    1
 -2       578       579       714      2535      2938      2939
 -1      1267    8    0    1
 -2       578       714       712      2939      2940      2934
 -1      1268    8    0    1
 -2       574       577       715      2529      2941      2942
 -1      1269    8    0    1
 -2       713       574       715      2936      2942      2943
 -1      1270    8    0    1
 -2       577       712       715      2935      2944      2941
 -1      1271    8    0    1
 -2       579       580       716      2538      2945      2946
 -1      1272    8    0    1
 -2       579       716       714      2946      2947      2938
 -1      1273    8    0    1
 -2       580       581       717      2541      2948      2949
 -1      1274    8    0    1
 -2       580       717       716      2949      2950      2945
 -1      1275    8    0    1
 -2       581       582       718      2544      2951      2952
 -1      1276    8    0    1
 -2       581       718       717      2952      2953      2948
 -1      1277    8    0    1
 -2       582       583       671      2547      2814      2954
 -1      1278    8    0    1
 -2       585       531       719      2553      2955      2956
 -1      1279    8    0    1
 -2       626       585       719      2683      2956      2957
 -1      1280    8    0    1
 -2       531       672       719      2817      2958      2955
 -1      1281    8    0    1
 -2       610       475       483      2615      2959      2644
 -1      1282    8    0    1
 -2       485       588       720      2560      2960      2961
 -1      1283    8    0    1
 -2       604       605       721      2652      2962      2963
 -1      1284    8    0    1
 -2       486       590       722      2566      2964      2965
 -1      1285    8    0    1
 -2       533       534       723      2400      2966      2967
 -1      1286    8    0    1
 -2       534       673       723      2819      2968      2966
 -1      1287    8    0    1
 -2       532       533       724      2397      2969      2970
 -1      1288    8    0    1
 -2       533       723       724      2967      2971      2969
 -1      1289    8    0    1
 -2       487       485       725      2261      2972      2973
 -1      1290    8    0    1
 -2       628       487       725      2688      2973      2974
 -1      1291    8    0    1
 -2       485       720       725      2961      2975      2972
 -1      1292    8    0    1
 -2       588       447       720      2660      2976      2960
 -1      1293    8    0    1
 -2       596       593       726      2657      2977      2978
 -1      1294    8    0    1
 -2       592       594       727      2661      2979      2980
 -1      1295    8    0    1
 -2       480       481       728      2245      2981      2982
 -1      1296    8    0    1
 -2       620       480       728      2669      2982      2983
 -1      1297    8    0    1
 -2       481       622       728      2675      2984      2981
 -1      1298    8    0    1
 -2       477       476       729      2234      2985      2986
 -1      1299    8    0    1
 -2       595       601       730      2658      2987      2988
 -1      1300    8    0    1
 -2       598       589       731      2656      2989      2990
 -1      1301    8    0    1
 -2       601       602       732      2662      2991      2992
 -1      1302    8    0    1
 -2       594       596       733      2581      2993      2994
 -1      1303    8    0    1
 -2       473       584       734      2629      2995      2996
 -1      1304    8    0    1
 -2       597       598       735      2586      2997      2998
 -1      1305    8    0    1
 -2       593       597       736      2659      2999      3000
 -1      1306    8    0    1
 -2       597       735       736      2998      3001      2999
 -1      1307    8    0    1
 -2       599       600       737      2591      3002      3003
 -1      1308    8    0    1
 -2       609       587       738      2646      3004      3005
 -1      1309    8    0    1
 -2       587       711       738      2933      3006      3004
 -1      1310    8    0    1
 -2       584       611       739      2618      3007      3008
 -1      1311    8    0    1
 -2       600       595       740      2655      3009      3010
 -1      1312    8    0    1
 -2       602       603       741      2654      3011      3012
 -1      1313    8    0    1
 -2       603       604       742      2653      3013      3014
 -1      1314    8    0    1
 -2       605       606       743      2604      3015      3016
 -1      1315    8    0    1
 -2       721       605       743      2962      3016      3017
 -1      1316    8    0    1
 -2       606       618       743      2649      3018      3015
 -1      1317    8    0    1
 -2       474       607       744      2651      3019      3020
 -1      1318    8    0    1
 -2       607       608       745      2609      3021      3022
 -1      1319    8    0    1
 -2       608       670       745      2812      3023      3021
 -1      1320    8    0    1
 -2       611       486       746      2627      3024      3025
 -1      1321    8    0    1
 -2       486       722       746      2965      3026      3024
 -1      1322    8    0    1
 -2       613       477       747      2622      3027      3028
 -1      1323    8    0    1
 -2       477       729       747      2986      3029      3027
 -1      1324    8    0    1
 -2       478       621       748      2672      3030      3031
 -1      1325    8    0    1
 -2       478       748       591      3031      3032      2570
 -1      1326    8    0    1
 -2       589       627       731      2687      3033      2989
 -1      1327    8    0    1
 -2       586       625       669      2682      3034      2809
 -1      1328    8    0    1
 -2       627       599       737      2686      3003      3035
 -1      1329    8    0    1
 -2       742       604       721      3013      2963      3036
 -1      1330    8    0    1
 -2       614       473       734      2632      2996      3037
 -1      1331    8    0    1
 -2       615       669       749      2810      3038      3039
 -1      1332    8    0    1
 -2       495       494       750      2285      3040      3041
 -1      1333    8    0    1
 -2       635       495       750      2708      3041      3042
 -1      1334    8    0    1
 -2       494       634       750      2706      3043      3040
 -1      1335    8    0    1
 -2       529       668       671      2807      3044      2815
 -1      1336    8    0    1
 -2       611       746       739      3025      3045      3007
 -1      1337    8    0    1
 -2       672       532       724      2816      2970      3046
 -1      1338    8    0    1
 -2       711       616       751      2932      3047      3048
 -1      1339    8    0    1
 -2       710       575       752      2931      3049      3050
 -1      1340    8    0    1
 -2       575       576       752      2525      3051      3049
 -1      1341    8    0    1
 -2       623       483       624      2676      3052      3053
 -1      1342    8    0    1
 -2       483       475       624      2959      2680      3052
 -1      1343    8    0    1
 -2       530       614       753      2631      3054      3055
 -1      1344    8    0    1
 -2       530       753       625      3055      3056      2681
 -1      1345    8    0    1
 -2       582       671       754      2954      3057      3058
 -1      1346    8    0    1
 -2       718       582       754      2951      3058      3059
 -1      1347    8    0    1
 -2       671       668       754      3044      3060      3057
 -1      1348    8    0    1
 -2       741       603       742      3011      3014      3061
 -1      1349    8    0    1
 -2       740       595       730      3009      2988      3062
 -1      1350    8    0    1
 -2       722       590       755      2964      3063      3064
 -1      1351    8    0    1
 -2       590       612       755      2621      3065      3063
 -1      1352    8    0    1
 -2       596       726       733      2978      3066      2993
 -1      1353    8    0    1
 -2       735       598       731      2997      2990      3067
 -1      1354    8    0    1
 -2       734       584       739      2995      3008      3068
 -1      1355    8    0    1
 -2       618       474       744      2650      3020      3069
 -1      1356    8    0    1
 -2       447       613       720      2624      3070      2976
 -1      1357    8    0    1
 -2       732       602       741      2991      3012      3071
 -1      1358    8    0    1
 -2       670       609       738      2811      3005      3072
 -1      1359    8    0    1
 -2       727       594       733      2979      2994      3073
 -1      1360    8    0    1
 -2       576       573       756      2526      3074      3075
 -1      1361    8    0    1
 -2       752       576       756      3051      3075      3076
 -1      1362    8    0    1
 -2       573       713       756      2937      3077      3074
 -1      1363    8    0    1
 -2       476       591       757      2569      3078      3079
 -1      1364    8    0    1
 -2       729       476       757      2985      3079      3080
 -1      1365    8    0    1
 -2       591       748       757      3032      3081      3078
 -1      1366    8    0    1
 -2       726       593       758      2977      3082      3083
 -1      1367    8    0    1
 -2       593       736       758      3000      3084      3082
 -1      1368    8    0    1
 -2       592       727       612      2980      3085      2619
 -1      1369    8    0    1
 -2       730       601       732      2987      2992      3086
 -1      1370    8    0    1
 -2       744       607       745      3019      3022      3087
 -1      1371    8    0    1
 -2       615       749       619      3039      3088      2666
 -1      1372    8    0    1
 -2       737       600       740      3002      3010      3089
 -1      1373    8    0    1
 -2       616       619       751      2665      3090      3047
 -1      1374    8    0    1
 -2       622       623       759      2678      3091      3092
 -1      1375    8    0    1
 -2       741       742       760      3061      3093      3094
 -1      1376    8    0    1
 -2       749       669       761      3038      3095      3096
 -1      1377    8    0    1
 -2       630       629       762      2695      3097      3098
 -1      1378    8    0    1
 -2       631       630       763      2698      3099      3100
 -1      1379    8    0    1
 -2       630       762       763      3098      3101      3099
 -1      1380    8    0    1
 -2       632       631       760      2701      3102      3103
 -1      1381    8    0    1
 -2       634       633       721      2707      3104      3105
 -1      1382    8    0    1
 -2       637       636       764      2715      3106      3107
 -1      1383    8    0    1
 -2       638       637       765      2718      3108      3109
 -1      1384    8    0    1
 -2       637       764       765      3107      3110      3108
 -1      1385    8    0    1
 -2       639       638       766      2721      3111      3112
 -1      1386    8    0    1
 -2       638       765       766      3109      3113      3111
 -1      1387    8    0    1
 -2       640       639       767      2724      3114      3115
 -1      1388    8    0    1
 -2       639       766       767      3112      3116      3114
 -1      1389    8    0    1
 -2       641       640       768      2727      3117      3118
 -1      1390    8    0    1
 -2       640       767       768      3115      3119      3117
 -1      1391    8    0    1
 -2       642       641       769      2730      3120      3121
 -1      1392    8    0    1
 -2       641       768       769      3118      3122      3120
 -1      1393    8    0    1
 -2       643       642       770      2733      3123      3124
 -1      1394    8    0    1
 -2       642       769       770      3121      3125      3123
 -1      1395    8    0    1
 -2       644       643       771      2736      3126      3127
 -1      1396    8    0    1
 -2       643       770       771      3124      3128      3126
 -1      1397    8    0    1
 -2       645       644       772      2739      3129      3130
 -1      1398    8    0    1
 -2       644       771       772      3127      3131      3129
 -1      1399    8    0    1
 -2       646       645       773      2742      3132      3133
 -1      1400    8    0    1
 -2       645       772       773      3130      3134      3132
 -1      1401    8    0    1
 -2       647       646       774      2745      3135      3136
 -1      1402    8    0    1
 -2       646       773       774      3133      3137      3135
 -1      1403    8    0    1
 -2       648       647       775      2748      3138      3139
 -1      1404    8    0    1
 -2       647       774       775      3136      3140      3138
 -1      1405    8    0    1
 -2       649       648       776      2751      3141      3142
 -1      1406    8    0    1
 -2       648       775       776      3139      3143      3141
 -1      1407    8    0    1
 -2       650       649       777      2754      3144      3145
 -1      1408    8    0    1
 -2       649       776       777      3142      3146      3144
 -1      1409    8    0    1
 -2       651       650       778      2757      3147      3148
 -1      1410    8    0    1
 -2       650       777       778      3145      3149      3147
 -1      1411    8    0    1
 -2       652       651       779      2760      3150      3151
 -1      1412    8    0    1
 -2       651       778       779      3148      3152      3150
 -1      1413    8    0    1
 -2       653       652       780      2763      3153      3154
 -1      1414    8    0    1
 -2       652       779       780      3151      3155      3153
 -1      1415    8    0    1
 -2       654       653       781      2766      3156      3157
 -1      1416    8    0    1
 -2       653       780       781      3154      3158      3156
 -1      1417    8    0    1
 -2       655       654       782      2769      3159      3160
 -1      1418    8    0    1
 -2       654       781       782      3157      3161      3159
 -1      1419    8    0    1
 -2       656       655       783      2772      3162      3163
 -1      1420    8    0    1
 -2       655       782       783      3160      3164      3162
 -1      1421    8    0    1
 -2       657       656       784      2775      3165      3166
 -1      1422    8    0    1
 -2       656       783       784      3163      3167      3165
 -1      1423    8    0    1
 -2       658       657       785      2778      3168      3169
 -1      1424    8    0    1
 -2       657       784       785      3166      3170      3168
 -1      1425    8    0    1
 -2       659       658       786      2781      3171      3172
 -1      1426    8    0    1
 -2       658       785       786      3169      3173      3171
 -1      1427    8    0    1
 -2       660       659       787      2784      3174      3175
 -1      1428    8    0    1
 -2       659       786       787      3172      3176      3174
 -1      1429    8    0    1
 -2       661       660       788      2787      3177      3178
 -1      1430    8    0    1
 -2       660       787       788      3175      3179      3177
 -1      1431    8    0    1
 -2       662       661       789      2790      3180      3181
 -1      1432    8    0    1
 -2       661       788       789      3178      3182      3180
 -1      1433    8    0    1
 -2       663       662       790      2793      3183      3184
 -1      1434    8    0    1
 -2       662       789       790      3181      3185      3183
 -1      1435    8    0    1
 -2       664       663       791      2796      3186      3187
 -1      1436    8    0    1
 -2       663       790       791      3184      3188      3186
 -1      1437    8    0    1
 -2       665       664       792      2799      3189      3190
 -1      1438    8    0    1
 -2       664       791       792      3187      3191      3189
 -1      1439    8    0    1
 -2       666       665       793      2802      3192      3193
 -1      1440    8    0    1
 -2       665       792       793      3190      3194      3192
 -1      1441    8    0    1
 -2       667       666       794      2805      3195      3196
 -1      1442    8    0    1
 -2       666       793       794      3193      3197      3195
 -1      1443    8    0    1
 -2       668       667       795      2808      3198      3199
 -1      1444    8    0    1
 -2       754       668       795      3060      3199      3200
 -1      1445    8    0    1
 -2       667       794       795      3196      3201      3198
 -1      1446    8    0    1
 -2       627       737       796      3035      3202      3203
 -1      1447    8    0    1
 -2       711       751       797      3048      3204      3205
 -1      1448    8    0    1
 -2       673       674       733      2822      3206      3207
 -1      1449    8    0    1
 -2       676       677       798      2831      3208      3209
 -1      1450    8    0    1
 -2       677       678       799      2834      3210      3211
 -1      1451    8    0    1
 -2       677       799       798      3211      3212      3208
 -1      1452    8    0    1
 -2       678       679       800      2837      3213      3214
 -1      1453    8    0    1
 -2       678       800       799      3214      3215      3210
 -1      1454    8    0    1
 -2       679       680       801      2840      3216      3217
 -1      1455    8    0    1
 -2       679       801       800      3217      3218      3213
 -1      1456    8    0    1
 -2       680       681       802      2843      3219      3220
 -1      1457    8    0    1
 -2       680       802       801      3220      3221      3216
 -1      1458    8    0    1
 -2       681       682       803      2846      3222      3223
 -1      1459    8    0    1
 -2       681       803       802      3223      3224      3219
 -1      1460    8    0    1
 -2       682       683       804      2849      3225      3226
 -1      1461    8    0    1
 -2       682       804       803      3226      3227      3222
 -1      1462    8    0    1
 -2       683       684       805      2852      3228      3229
 -1      1463    8    0    1
 -2       683       805       804      3229      3230      3225
 -1      1464    8    0    1
 -2       684       685       806      2855      3231      3232
 -1      1465    8    0    1
 -2       684       806       805      3232      3233      3228
 -1      1466    8    0    1
 -2       685       686       807      2858      3234      3235
 -1      1467    8    0    1
 -2       685       807       806      3235      3236      3231
 -1      1468    8    0    1
 -2       686       687       808      2861      3237      3238
 -1      1469    8    0    1
 -2       686       808       807      3238      3239      3234
 -1      1470    8    0    1
 -2       687       688       809      2864      3240      3241
 -1      1471    8    0    1
 -2       687       809       808      3241      3242      3237
 -1      1472    8    0    1
 -2       688       689       810      2867      3243      3244
 -1      1473    8    0    1
 -2       688       810       809      3244      3245      3240
 -1      1474    8    0    1
 -2       689       690       811      2870      3246      3247
 -1      1475    8    0    1
 -2       689       811       810      3247      3248      3243
 -1      1476    8    0    1
 -2       690       691       812      2873      3249      3250
 -1      1477    8    0    1
 -2       690       812       811      3250      3251      3246
 -1      1478    8    0    1
 -2       691       692       813      2876      3252      3253
 -1      1479    8    0    1
 -2       691       813       812      3253      3254      3249
 -1      1480    8    0    1
 -2       692       693       814      2879      3255      3256
 -1      1481    8    0    1
 -2       692       814       813      3256      3257      3252
 -1      1482    8    0    1
 -2       693       694       815      2882      3258      3259
 -1      1483    8    0    1
 -2       693       815       814      3259      3260      3255
 -1      1484    8    0    1
 -2       694       695       816      2885      3261      3262
 -1      1485    8    0    1
 -2       694       816       815      3262      3263      3258
 -1      1486    8    0    1
 -2       695       696       817      2888      3264      3265
 -1      1487    8    0    1
 -2       695       817       816      3265      3266      3261
 -1      1488    8    0    1
 -2       696       697       818      2891      3267      3268
 -1      1489    8    0    1
 -2       696       818       817      3268      3269      3264
 -1      1490    8    0    1
 -2       697       698       819      2894      3270      3271
 -1      1491    8    0    1
 -2       697       819       818      3271      3272      3267
 -1      1492    8    0    1
 -2       698       699       820      2897      3273      3274
 -1      1493    8    0    1
 -2       698       820       819      3274      3275      3270
 -1      1494    8    0    1
 -2       699       700       821      2900      3276      3277
 -1      1495    8    0    1
 -2       699       821       820      3277      3278      3273
 -1      1496    8    0    1
 -2       700       701       822      2903      3279      3280
 -1      1497    8    0    1
 -2       700       822       821      3280      3281      3276
 -1      1498    8    0    1
 -2       701       702       823      2906      3282      3283
 -1      1499    8    0    1
 -2       701       823       822      3283      3284      3279
 -1      1500    8    0    1
 -2       702       703       824      2909      3285      3286
 -1      1501    8    0    1
 -2       702       824       823      3286      3287      3282
 -1      1502    8    0    1
 -2       703       704       825      2912      3288      3289
 -1      1503    8    0    1
 -2       703       825       824      3289      3290      3285
 -1      1504    8    0    1
 -2       704       705       826      2915      3291      3292
 -1      1505    8    0    1
 -2       704       826       825      3292      3293      3288
 -1      1506    8    0    1
 -2       705       706       827      2918      3294      3295
 -1      1507    8    0    1
 -2       705       827       826      3295      3296      3291
 -1      1508    8    0    1
 -2       706       707       828      2921      3297      3298
 -1      1509    8    0    1
 -2       706       828       827      3298      3299      3294
 -1      1510    8    0    1
 -2       707       708       829      2924      3300      3301
 -1      1511    8    0    1
 -2       707       829       828      3301      3302      3297
 -1      1512    8    0    1
 -2       708       709       830      2927      3303      3304
 -1      1513    8    0    1
 -2       708       830       829      3304      3305      3300
 -1      1514    8    0    1
 -2       709       710       831      2930      3306      3307
 -1      1515    8    0    1
 -2       830       709       831      3303      3307      3308
 -1      1516    8    0    1
 -2       710       752       831      3050      3309      3306
 -1      1517    8    0    1
 -2       714       716       832      2947      3310      3311
 -1      1518    8    0    1
 -2       712       714       833      2940      3312      3313
 -1      1519    8    0    1
 -2       714       832       833      3311      3314      3312
 -1      1520    8    0    1
 -2       623       624       834      3053      3315      3316
 -1      1521    8    0    1
 -2       759       623       834      3091      3316      3317
 -1      1522    8    0    1
 -2       624       626       834      2685      3318      3315
 -1      1523    8    0    1
 -2       669       625       835      3034      3319      3320
 -1      1524    8    0    1
 -2       621       620       836      2673      3321      3322
 -1      1525    8    0    1
 -2       723       673       726      2968      3323      3324
 -1      1526    8    0    1
 -2       738       711       837      3006      3325      3326
 -1      1527    8    0    1
 -2       711       797       837      3205      3327      3325
 -1      1528    8    0    1
 -2       733       726       673      3066      3323      3207
 -1      1529    8    0    1
 -2       736       735       838      3001      3328      3329
 -1      1530    8    0    1
 -2       735       731       839      3067      3330      3331
 -1      1531    8    0    1
 -2       735       839       838      3331      3332      3328
 -1      1532    8    0    1
 -2       614       734       840      3037      3333      3334
 -1      1533    8    0    1
 -2       614       840       753      3334      3335      3054
 -1      1534    8    0    1
 -2       720       613       747      3070      3028      3336
 -1      1535    8    0    1
 -2       716       717       841      2950      3337      3338
 -1      1536    8    0    1
 -2       716       841       832      3338      3339      3310
 -1      1537    8    0    1
 -2       717       718       842      2953      3340      3341
 -1      1538    8    0    1
 -2       717       842       841      3341      3342      3337
 -1      1539    8    0    1
 -2       675       676       755      2828      3343      3344
 -1      1540    8    0    1
 -2       674       675       727      2825      3345      3346
 -1      1541    8    0    1
 -2       739       746       843      3045      3347      3348
 -1      1542    8    0    1
 -2       636       635       744      2712      3349      3350
 -1      1543    8    0    1
 -2       629       628       844      2692      3351      3352
 -1      1544    8    0    1
 -2       629       844       762      3352      3353      3097
 -1      1545    8    0    1
 -2       733       674       727      3206      3346      3073
 -1      1546    8    0    1
 -2       731       627       845      3033      3354      3355
 -1      1547    8    0    1
 -2       721       633       742      3104      3356      3036
 -1      1548    8    0    1
 -2       734       739       846      3068      3357      3358
 -1      1549    8    0    1
 -2       672       724       847      3046      3359      3360
 -1      1550    8    0    1
 -2       751       619       749      3090      3088      3361
 -1      1551    8    0    1
 -2       737       740       848      3089      3362      3363
 -1      1552    8    0    1
 -2       740       730       849      3062      3364      3365
 -1      1553    8    0    1
 -2       745       670       764      3023      3366      3367
 -1      1554    8    0    1
 -2       732       741       850      3071      3368      3369
 -1      1555    8    0    1
 -2       746       722       798      3026      3370      3371
 -1      1556    8    0    1
 -2       618       744       635      3069      3349      3372
 -1      1557    8    0    1
 -2       730       732       851      3086      3373      3374
 -1      1558    8    0    1
 -2       732       850       851      3369      3375      3373
 -1      1559    8    0    1
 -2       634       721       743      3105      3017      3376
 -1      1560    8    0    1
 -2       751       749       852      3361      3377      3378
 -1      1561    8    0    1
 -2       618       635       750      3372      3042      3379
 -1      1562    8    0    1
 -2       748       621       853      3030      3380      3381
 -1      1563    8    0    1
 -2       621       836       853      3322      3382      3380
 -1      1564    8    0    1
 -2       720       747       725      3336      3383      2975
 -1      1565    8    0    1
 -2       741       760       850      3094      3384      3368
 -1      1566    8    0    1
 -2       669       835       761      3320      3385      3095
 -1      1567    8    0    1
 -2       743       618       750      3018      3379      3386
 -1      1568    8    0    1
 -2       750       634       743      3043      3376      3386
 -1      1569    8    0    1
 -2       749       761       852      3096      3387      3377
 -1      1570    8    0    1
 -2       631       763       760      3100      3388      3102
 -1      1571    8    0    1
 -2       633       632       742      2704      3389      3356
 -1      1572    8    0    1
 -2       627       796       845      3203      3390      3354
 -1      1573    8    0    1
 -2       797       751       852      3204      3378      3391
 -1      1574    8    0    1
 -2       626       719       854      2957      3392      3393
 -1      1575    8    0    1
 -2       626       854       834      3393      3394      3318
 -1      1576    8    0    1
 -2       622       759       855      3092      3395      3396
 -1      1577    8    0    1
 -2       622       855       728      3396      3397      2984
 -1      1578    8    0    1
 -2       676       798       755      3209      3398      3343
 -1      1579    8    0    1
 -2       625       753       856      3056      3399      3400
 -1      1580    8    0    1
 -2       625       856       835      3400      3401      3319
 -1      1581    8    0    1
 -2       713       715       857      2943      3402      3403
 -1      1582    8    0    1
 -2       729       757       858      3080      3404      3405
 -1      1583    8    0    1
 -2       715       712       859      2944      3406      3407
 -1      1584    8    0    1
 -2       857       715       859      3402      3407      3408
 -1      1585    8    0    1
 -2       712       833       859      3313      3409      3406
 -1      1586    8    0    1
 -2       836       620       860      3321      3410      3411
 -1      1587    8    0    1
 -2       620       728       860      2983      3412      3410
 -1      1588    8    0    1
 -2       796       737       848      3202      3363      3413
 -1      1589    8    0    1
 -2       719       672       861      2958      3414      3415
 -1      1590    8    0    1
 -2       854       719       861      3392      3415      3416
 -1      1591    8    0    1
 -2       672       847       861      3360      3417      3414
 -1      1592    8    0    1
 -2       755       612       675      3065      3418      3344
 -1      1593    8    0    1
 -2       798       722       755      3370      3064      3398
 -1      1594    8    0    1
 -2       730       851       849      3374      3419      3364
 -1      1595    8    0    1
 -2       839       731       845      3330      3355      3420
 -1      1596    8    0    1
 -2       844       628       862      3351      3421      3422
 -1      1597    8    0    1
 -2       628       725       862      2974      3423      3421
 -1      1598    8    0    1
 -2       840       734       863      3333      3424      3425
 -1      1599    8    0    1
 -2       734       846       863      3358      3426      3424
 -1      1600    8    0    1
 -2       727       675       612      3345      3418      3085
 -1      1601    8    0    1
 -2       739       843       846      3348      3427      3357
 -1      1602    8    0    1
 -2       636       744       745      3350      3087      3428
 -1      1603    8    0    1
 -2       764       670       765      3366      3429      3110
 -1      1604    8    0    1
 -2       756       713       864      3077      3430      3431
 -1      1605    8    0    1
 -2       713       857       864      3403      3432      3430
 -1      1606    8    0    1
 -2       847       724       758      3359      3433      3434
 -1      1607    8    0    1
 -2       724       723       758      2971      3435      3433
 -1      1608    8    0    1
 -2       742       632       760      3389      3103      3093
 -1      1609    8    0    1
 -2       729       858       865      3405      3436      3437
 -1      1610    8    0    1
 -2       729       865       747      3437      3438      3029
 -1      1611    8    0    1
 -2       765       670       866      3429      3439      3440
 -1      1612    8    0    1
 -2       766       765       866      3113      3440      3441
 -1      1613    8    0    1
 -2       670       738       866      3072      3442      3439
 -1      1614    8    0    1
 -2       848       740       867      3362      3443      3444
 -1      1615    8    0    1
 -2       740       849       867      3365      3445      3443
 -1      1616    8    0    1
 -2       718       754       868      3059      3446      3447
 -1      1617    8    0    1
 -2       842       718       868      3340      3447      3448
 -1      1618    8    0    1
 -2       754       795       868      3200      3449      3446
 -1      1619    8    0    1
 -2       760       763       850      3388      3450      3384
 -1      1620    8    0    1
 -2       850       763       869      3450      3451      3452
 -1      1621    8    0    1
 -2       850       869       851      3452      3453      3375
 -1      1622    8    0    1
 -2       767       766       870      3116      3454      3455
 -1      1623    8    0    1
 -2       768       767       871      3119      3456      3457
 -1      1624    8    0    1
 -2       767       870       871      3455      3458      3456
 -1      1625    8    0    1
 -2       769       768       872      3122      3459      3460
 -1      1626    8    0    1
 -2       768       871       872      3457      3461      3459
 -1      1627    8    0    1
 -2       770       769       873      3125      3462      3463
 -1      1628    8    0    1
 -2       769       872       873      3460      3464      3462
 -1      1629    8    0    1
 -2       771       770       874      3128      3465      3466
 -1      1630    8    0    1
 -2       770       873       874      3463      3467      3465
 -1      1631    8    0    1
 -2       772       771       875      3131      3468      3469
 -1      1632    8    0    1
 -2       771       874       875      3466      3470      3468
 -1      1633    8    0    1
 -2       773       772       876      3134      3471      3472
 -1      1634    8    0    1
 -2       772       875       876      3469      3473      3471
 -1      1635    8    0    1
 -2       774       773       877      3137      3474      3475
 -1      1636    8    0    1
 -2       773       876       877      3472      3476      3474
 -1      1637    8    0    1
 -2       775       774       878      3140      3477      3478
 -1      1638    8    0    1
 -2       774       877       878      3475      3479      3477
 -1      1639    8    0    1
 -2       776       775       879      3143      3480      3481
 -1      1640    8    0    1
 -2       775       878       879      3478      3482      3480
 -1      1641    8    0    1
 -2       777       776       880      3146      3483      3484
 -1      1642    8    0    1
 -2       776       879       880      3481      3485      3483
 -1      1643    8    0    1
 -2       778       777       881      3149      3486      3487
 -1      1644    8    0    1
 -2       777       880       881      3484      3488      3486
 -1      1645    8    0    1
 -2       779       778       882      3152      3489      3490
 -1      1646    8    0    1
 -2       778       881       882      3487      3491      3489
 -1      1647    8    0    1
 -2       780       779       883      3155      3492      3493
 -1      1648    8    0    1
 -2       779       882       883      3490      3494      3492
 -1      1649    8    0    1
 -2       781       780       884      3158      3495      3496
 -1      1650    8    0    1
 -2       780       883       884      3493      3497      3495
 -1      1651    8    0    1
 -2       782       781       885      3161      3498      3499
 -1      1652    8    0    1
 -2       781       884       885      3496      3500      3498
 -1      1653    8    0    1
 -2       783       782       886      3164      3501      3502
 -1      1654    8    0    1
 -2       782       885       886      3499      3503      3501
 -1      1655    8    0    1
 -2       784       783       887      3167      3504      3505
 -1      1656    8    0    1
 -2       783       886       887      3502      3506      3504
 -1      1657    8    0    1
 -2       785       784       888      3170      3507      3508
 -1      1658    8    0    1
 -2       784       887       888      3505      3509      3507
 -1      1659    8    0    1
 -2       786       785       889      3173      3510      3511
 -1      1660    8    0    1
 -2       785       888       889      3508      3512      3510
 -1      1661    8    0    1
 -2       787       786       890      3176      3513      3514
 -1      1662    8    0    1
 -2       786       889       890      3511      3515      3513
 -1      1663    8    0    1
 -2       788       787       891      3179      3516      3517
 -1      1664    8    0    1
 -2       787       890       891      3514      3518      3516
 -1      1665    8    0    1
 -2       789       788       892      3182      3519      3520
 -1      1666    8    0    1
 -2       788       891       892      3517      3521      3519
 -1      1667    8    0    1
 -2       790       789       893      3185      3522      3523
 -1      1668    8    0    1
 -2       789       892       893      3520      3524      3522
 -1      1669    8    0    1
 -2       791       790       894      3188      3525      3526
 -1      1670    8    0    1
 -2       790       893       894      3523      3527      3525
 -1      1671    8    0    1
 -2       792       791       895      3191      3528      3529
 -1      1672    8    0    1
 -2       791       894       895      3526      3530      3528
 -1      1673    8    0    1
 -2       793       792       896      3194      3531      3532
 -1      1674    8    0    1
 -2       792       895       896      3529      3533      3531
 -1      1675    8    0    1
 -2       794       793       897      3197      3534      3535
 -1      1676    8    0    1
 -2       793       896       897      3532      3536      3534
 -1      1677    8    0    1
 -2       843       746       798      3347      3371      3537
 -1      1678    8    0    1
 -2       757       748       898      3081      3538      3539
 -1      1679    8    0    1
 -2       757       898       858      3539      3540      3404
 -1      1680    8    0    1
 -2       736       838       899      3329      3541      3542
 -1      1681    8    0    1
 -2       801       802       900      3221      3543      3544
 -1      1682    8    0    1
 -2       802       803       901      3224      3545      3546
 -1      1683    8    0    1
 -2       802       901       900      3546      3547      3543
 -1      1684    8    0    1
 -2       803       804       902      3227      3548      3549
 -1      1685    8    0    1
 -2       803       902       901      3549      3550      3545
 -1      1686    8    0    1
 -2       804       805       903      3230      3551      3552
 -1      1687    8    0    1
 -2       804       903       902      3552      3553      3548
 -1      1688    8    0    1
 -2       805       806       904      3233      3554      3555
 -1      1689    8    0    1
 -2       805       904       903      3555      3556      3551
 -1      1690    8    0    1
 -2       806       807       905      3236      3557      3558
 -1      1691    8    0    1
 -2       806       905       904      3558      3559      3554
 -1      1692    8    0    1
 -2       807       808       906      3239      3560      3561
 -1      1693    8    0    1
 -2       807       906       905      3561      3562      3557
 -1      1694    8    0    1
 -2       808       809       907      3242      3563      3564
 -1      1695    8    0    1
 -2       808       907       906      3564      3565      3560
 -1      1696    8    0    1
 -2       809       810       908      3245      3566      3567
 -1      1697    8    0    1
 -2       809       908       907      3567      3568      3563
 -1      1698    8    0    1
 -2       810       811       909      3248      3569      3570
 -1      1699    8    0    1
 -2       810       909       908      3570      3571      3566
 -1      1700    8    0    1
 -2       811       812       910      3251      3572      3573
 -1      1701    8    0    1
 -2       811       910       909      3573      3574      3569
 -1      1702    8    0    1
 -2       812       813       911      3254      3575      3576
 -1      1703    8    0    1
 -2       812       911       910      3576      3577      3572
 -1      1704    8    0    1
 -2       813       814       912      3257      3578      3579
 -1      1705    8    0    1
 -2       813       912       911      3579      3580      3575
 -1      1706    8    0    1
 -2       814       815       913      3260      3581      3582
 -1      1707    8    0    1
 -2       814       913       912      3582      3583      3578
 -1      1708    8    0    1
 -2       815       816       914      3263      3584      3585
 -1      1709    8    0    1
 -2       815       914       913      3585      3586      3581
 -1      1710    8    0    1
 -2       816       817       915      3266      3587      3588
 -1      1711    8    0    1
 -2       816       915       914      3588      3589      3584
 -1      1712    8    0    1
 -2       817       818       916      3269      3590      3591
 -1      1713    8    0    1
 -2       817       916       915      3591      3592      3587
 -1      1714    8    0    1
 -2       818       819       917      3272      3593      3594
 -1      1715    8    0    1
 -2       818       917       916      3594      3595      3590
 -1      1716    8    0    1
 -2       819       820       918      3275      3596      3597
 -1      1717    8    0    1
 -2       819       918       917      3597      3598      3593
 -1      1718    8    0    1
 -2       820       821       919      3278      3599      3600
 -1      1719    8    0    1
 -2       820       919       918      3600      3601      3596
 -1      1720    8    0    1
 -2       821       822       920      3281      3602      3603
 -1      1721    8    0    1
 -2       821       920       919      3603      3604      3599
 -1      1722    8    0    1
 -2       822       823       921      3284      3605      3606
 -1      1723    8    0    1
 -2       822       921       920      3606      3607      3602
 -1      1724    8    0    1
 -2       823       824       922      3287      3608      3609
 -1      1725    8    0    1
 -2       823       922       921      3609      3610      3605
 -1      1726    8    0    1
 -2       824       825       923      3290      3611      3612
 -1      1727    8    0    1
 -2       824       923       922      3612      3613      3608
 -1      1728    8    0    1
 -2       825       826       924      3293      3614      3615
 -1      1729    8    0    1
 -2       825       924       923      3615      3616      3611
 -1      1730    8    0    1
 -2       826       827       925      3296      3617      3618
 -1      1731    8    0    1
 -2       826       925       924      3618      3619      3614
 -1      1732    8    0    1
 -2       827       828       926      3299      3620      3621
 -1      1733    8    0    1
 -2       827       926       925      3621      3622      3617
 -1      1734    8    0    1
 -2       828       829       927      3302      3623      3624
 -1      1735    8    0    1
 -2       828       927       926      3624      3625      3620
 -1      1736    8    0    1
 -2       829       830       928      3305      3626      3627
 -1      1737    8    0    1
 -2       829       928       927      3627      3628      3623
 -1      1738    8    0    1
 -2       841       842       929      3342      3629      3630
 -1      1739    8    0    1
 -2       833       832       930      3314      3631      3632
 -1      1740    8    0    1
 -2       759       834       931      3317      3633      3634
 -1      1741    8    0    1
 -2       834       854       931      3394      3635      3633
 -1      1742    8    0    1
 -2       725       747       862      3383      3636      3423
 -1      1743    8    0    1
 -2       723       726       758      3324      3083      3435
 -1      1744    8    0    1
 -2       758       736       899      3084      3542      3637
 -1      1745    8    0    1
 -2       838       839       932      3332      3638      3639
 -1      1746    8    0    1
 -2       761       835       933      3385      3640      3641
 -1      1747    8    0    1
 -2       837       797       870      3327      3642      3643
 -1      1748    8    0    1
 -2       753       840       934      3335      3644      3645
 -1      1749    8    0    1
 -2       800       801       863      3218      3646      3647
 -1      1750    8    0    1
 -2       832       841       935      3339      3648      3649
 -1      1751    8    0    1
 -2       930       832       935      3631      3649      3650
 -1      1752    8    0    1
 -2       841       929       935      3630      3651      3648
 -1      1753    8    0    1
 -2       762       844       936      3353      3652      3653
 -1      1754    8    0    1
 -2       849       851       937      3419      3654      3655
 -1      1755    8    0    1
 -2       867       849       937      3445      3655      3656
 -1      1756    8    0    1
 -2       851       869       937      3453      3657      3654
 -1      1757    8    0    1
 -2       845       796       938      3390      3658      3659
 -1      1758    8    0    1
 -2       636       745       764      3428      3367      3106
 -1      1759    8    0    1
 -2       796       848       939      3413      3660      3661
 -1      1760    8    0    1
 -2       763       762       869      3101      3662      3451
 -1      1761    8    0    1
 -2       839       845       940      3420      3663      3664
 -1      1762    8    0    1
 -2       752       756       941      3076      3665      3666
 -1      1763    8    0    1
 -2       831       752       941      3309      3666      3667
 -1      1764    8    0    1
 -2       756       864       941      3431      3668      3665
 -1      1765    8    0    1
 -2       852       761       942      3387      3669      3670
 -1      1766    8    0    1
 -2       933       835       943      3640      3671      3672
 -1      1767    8    0    1
 -2       835       856       943      3401      3673      3671
 -1      1768    8    0    1
 -2       865       858       944      3436      3674      3675
 -1      1769    8    0    1
 -2       748       853       898      3381      3676      3538
 -1      1770    8    0    1
 -2       839       940       932      3664      3677      3638
 -1      1771    8    0    1
 -2       859       833       945      3409      3678      3679
 -1      1772    8    0    1
 -2       833       930       945      3632      3680      3678
 -1      1773    8    0    1
 -2       938       796       939      3658      3661      3681
 -1      1774    8    0    1
 -2       795       794       946      3201      3682      3683
 -1      1775    8    0    1
 -2       868       795       946      3449      3683      3684
 -1      1776    8    0    1
 -2       794       897       946      3535      3685      3682
 -1      1777    8    0    1
 -2       899       838       947      3541      3686      3687
 -1      1778    8    0    1
 -2       855       759       931      3395      3634      3688
 -1      1779    8    0    1
 -2       838       932       947      3639      3689      3686
 -1      1780    8    0    1
 -2       801       900       863      3544      3690      3646
 -1      1781    8    0    1
 -2       856       753       934      3399      3645      3691
 -1      1782    8    0    1
 -2       762       936       869      3653      3692      3662
 -1      1783    8    0    1
 -2       830       831       941      3308      3667      3693
 -1      1784    8    0    1
 -2       942       761       933      3669      3641      3694
 -1      1785    8    0    1
 -2       860       728       855      3412      3397      3695
 -1      1786    8    0    1
 -2       866       738       837      3442      3326      3696
 -1      1787    8    0    1
 -2       836       860       948      3411      3697      3698
 -1      1788    8    0    1
 -2       857       859       949      3408      3699      3700
 -1      1789    8    0    1
 -2       859       945       949      3679      3701      3699
 -1      1790    8    0    1
 -2       944       858       950      3674      3702      3703
 -1      1791    8    0    1
 -2       858       898       950      3540      3704      3702
 -1      1792    8    0    1
 -2       857       949       951      3700      3705      3706
 -1      1793    8    0    1
 -2       857       951       864      3706      3707      3432
 -1      1794    8    0    1
 -2       870       797       952      3642      3708      3709
 -1      1795    8    0    1
 -2       871       870       952      3458      3709      3710
 -1      1796    8    0    1
 -2       797       852       952      3391      3711      3708
 -1      1797    8    0    1
 -2       861       847       947      3417      3712      3713
 -1      1798    8    0    1
 -2       934       840       863      3644      3425      3714
 -1      1799    8    0    1
 -2       799       800       843      3215      3715      3716
 -1      1800    8    0    1
 -2       952       852       942      3711      3670      3717
 -1      1801    8    0    1
 -2       843       800       846      3715      3718      3427
 -1      1802    8    0    1
 -2       845       938       940      3659      3719      3663
 -1      1803    8    0    1
 -2       830       941       928      3693      3720      3626
 -1      1804    8    0    1
 -2       936       844       944      3652      3721      3722
 -1      1805    8    0    1
 -2       747       865       862      3438      3723      3636
 -1      1806    8    0    1
 -2       844       862       944      3422      3724      3721
 -1      1807    8    0    1
 -2       842       868       946      3448      3684      3725
 -1      1808    8    0    1
 -2       939       848       950      3660      3726      3727
 -1      1809    8    0    1
 -2       766       866       870      3441      3728      3454
 -1      1810    8    0    1
 -2       842       946       929      3725      3729      3629
 -1      1811    8    0    1
 -2       929       946       897      3729      3685      3730
 -1      1812    8    0    1
 -2       899       947       847      3687      3712      3731
 -1      1813    8    0    1
 -2       872       871       953      3461      3732      3733
 -1      1814    8    0    1
 -2       873       872       954      3464      3734      3735
 -1      1815    8    0    1
 -2       872       953       954      3733      3736      3734
 -1      1816    8    0    1
 -2       874       873       955      3467      3737      3738
 -1      1817    8    0    1
 -2       873       954       955      3735      3739      3737
 -1      1818    8    0    1
 -2       875       874       956      3470      3740      3741
 -1      1819    8    0    1
 -2       874       955       956      3738      3742      3740
 -1      1820    8    0    1
 -2       876       875       957      3473      3743      3744
 -1      1821    8    0    1
 -2       875       956       957      3741      3745      3743
 -1      1822    8    0    1
 -2       877       876       958      3476      3746      3747
 -1      1823    8    0    1
 -2       876       957       958      3744      3748      3746
 -1      1824    8    0    1
 -2       878       877       959      3479      3749      3750
 -1      1825    8    0    1
 -2       877       958       959      3747      3751      3749
 -1      1826    8    0    1
 -2       879       878       960      3482      3752      3753
 -1      1827    8    0    1
 -2       878       959       960      3750      3754      3752
 -1      1828    8    0    1
 -2       880       879       961      3485      3755      3756
 -1      1829    8    0    1
 -2       879       960       961      3753      3757      3755
 -1      1830    8    0    1
 -2       881       880       962      3488      3758      3759
 -1      1831    8    0    1
 -2       880       961       962      3756      3760      3758
 -1      1832    8    0    1
 -2       882       881       963      3491      3761      3762
 -1      1833    8    0    1
 -2       881       962       963      3759      3763      3761
 -1      1834    8    0    1
 -2       883       882       964      3494      3764      3765
 -1      1835    8    0    1
 -2       882       963       964      3762      3766      3764
 -1      1836    8    0    1
 -2       884       883       965      3497      3767      3768
 -1      1837    8    0    1
 -2       883       964       965      3765      3769      3767
 -1      1838    8    0    1
 -2       885       884       966      3500      3770      3771
 -1      1839    8    0    1
 -2       884       965       966      3768      3772      3770
 -1      1840    8    0    1
 -2       886       885       967      3503      3773      3774
 -1      1841    8    0    1
 -2       885       966       967      3771      3775      3773
 -1      1842    8    0    1
 -2       887       886       968      3506      3776      3777
 -1      1843    8    0    1
 -2       886       967       968      3774      3778      3776
 -1      1844    8    0    1
 -2       888       887       969      3509      3779      3780
 -1      1845    8    0    1
 -2       887       968       969      3777      3781      3779
 -1      1846    8    0    1
 -2       889       888       970      3512      3782      3783
 -1      1847    8    0    1
 -2       888       969       970      3780      3784      3782
 -1      1848    8    0    1
 -2       890       889       971      3515      3785      3786
 -1      1849    8    0    1
 -2       889       970       971      3783      3787      3785
 -1      1850    8    0    1
 -2       891       890       972      3518      3788      3789
 -1      1851    8    0    1
 -2       890       971       972      3786      3790      3788
 -1      1852    8    0    1
 -2       892       891       973      3521      3791      3792
 -1      1853    8    0    1
 -2       891       972       973      3789      3793      3791
 -1      1854    8    0    1
 -2       893       892       974      3524      3794      3795
 -1      1855    8    0    1
 -2       892       973       974      3792      3796      3794
 -1      1856    8    0    1
 -2       894       893       975      3527      3797      3798
 -1      1857    8    0    1
 -2       893       974       975      3795      3799      3797
 -1      1858    8    0    1
 -2       895       894       976      3530      3800      3801
 -1      1859    8    0    1
 -2       894       975       976      3798      3802      3800
 -1      1860    8    0    1
 -2       896       895       977      3533      3803      3804
 -1      1861    8    0    1
 -2       895       976       977      3801      3805      3803
 -1      1862    8    0    1
 -2       897       896       978      3536      3806      3807
 -1      1863    8    0    1
 -2       896       977       978      3804      3808      3806
 -1      1864    8    0    1
 -2       901       902       979      3550      3809      3810
 -1      1865    8    0    1
 -2       932       940       980      3677      3811      3812
 -1      1866    8    0    1
 -2       855       931       980      3688      3813      3814
 -1      1867    8    0    1
 -2       798       799       843      3212      3716      3537
 -1      1868    8    0    1
 -2       900       901       981      3547      3815      3816
 -1      1869    8    0    1
 -2       901       979       981      3810      3817      3815
 -1      1870    8    0    1
 -2       903       904       982      3556      3818      3819
 -1      1871    8    0    1
 -2       904       905       983      3559      3820      3821
 -1      1872    8    0    1
 -2       904       983       982      3821      3822      3818
 -1      1873    8    0    1
 -2       905       906       984      3562      3823      3824
 -1      1874    8    0    1
 -2       905       984       983      3824      3825      3820
 -1      1875    8    0    1
 -2       906       907       985      3565      3826      3827
 -1      1876    8    0    1
 -2       906       985       984      3827      3828      3823
 -1      1877    8    0    1
 -2       907       908       986      3568      3829      3830
 -1      1878    8    0    1
 -2       907       986       985      3830      3831      3826
 -1      1879    8    0    1
 -2       908       909       987      3571      3832      3833
 -1      1880    8    0    1
 -2       908       987       986      3833      3834      3829
 -1      1881    8    0    1
 -2       909       910       988      3574      3835      3836
 -1      1882    8    0    1
 -2       909       988       987      3836      3837      3832
 -1      1883    8    0    1
 -2       910       911       989      3577      3838      3839
 -1      1884    8    0    1
 -2       910       989       988      3839      3840      3835
 -1      1885    8    0    1
 -2       911       912       990      3580      3841      3842
 -1      1886    8    0    1
 -2       911       990       989      3842      3843      3838
 -1      1887    8    0    1
 -2       912       913       991      3583      3844      3845
 -1      1888    8    0    1
 -2       912       991       990      3845      3846      3841
 -1      1889    8    0    1
 -2       913       914       992      3586      3847      3848
 -1      1890    8    0    1
 -2       913       992       991      3848      3849      3844
 -1      1891    8    0    1
 -2       914       915       993      3589      3850      3851
 -1      1892    8    0    1
 -2       914       993       992      3851      3852      3847
 -1      1893    8    0    1
 -2       915       916       994      3592      3853      3854
 -1      1894    8    0    1
 -2       915       994       993      3854      3855      3850
 -1      1895    8    0    1
 -2       916       917       995      3595      3856      3857
 -1      1896    8    0    1
 -2       916       995       994      3857      3858      3853
 -1      1897    8    0    1
 -2       917       918       996      3598      3859      3860
 -1      1898    8    0    1
 -2       917       996       995      3860      3861      3856
 -1      1899    8    0    1
 -2       918       919       997      3601      3862      3863
 -1      1900    8    0    1
 -2       918       997       996      3863      3864      3859
 -1      1901    8    0    1
 -2       919       920       998      3604      3865      3866
 -1      1902    8    0    1
 -2       919       998       997      3866      3867      3862
 -1      1903    8    0    1
 -2       920       921       999      3607      3868      3869
 -1      1904    8    0    1
 -2       920       999       998      3869      3870      3865
 -1      1905    8    0    1
 -2       921       922      1000      3610      3871      3872
 -1      1906    8    0    1
 -2       921      1000       999      3872      3873      3868
 -1      1907    8    0    1
 -2       922       923      1001      3613      3874      3875
 -1      1908    8    0    1
 -2       922      1001      1000      3875      3876      3871
 -1      1909    8    0    1
 -2       923       924      1002      3616      3877      3878
 -1      1910    8    0    1
 -2       923      1002      1001      3878      3879      3874
 -1      1911    8    0    1
 -2       924       925      1003      3619      3880      3881
 -1      1912    8    0    1
 -2       924      1003      1002      3881      3882      3877
 -1      1913    8    0    1
 -2       925       926      1004      3622      3883      3884
 -1      1914    8    0    1
 -2       925      1004      1003      3884      3885      3880
 -1      1915    8    0    1
 -2       926       927      1005      3625      3886      3887
 -1      1916    8    0    1
 -2       926      1005      1004      3887      3888      3883
 -1      1917    8    0    1
 -2       929       897       978      3730      3807      3889
 -1      1918    8    0    1
 -2       938       939      1006      3681      3890      3891
 -1      1919    8    0    1
 -2       950       898       939      3704      3892      3727
 -1      1920    8    0    1
 -2       866       837       870      3696      3643      3728
 -1      1921    8    0    1
 -2       856       934      1007      3691      3893      3894
 -1      1922    8    0    1
 -2       934       863       981      3714      3895      3896
 -1      1923    8    0    1
 -2       836       948      1006      3698      3897      3898
 -1      1924    8    0    1
 -2       860       855       980      3695      3814      3899
 -1      1925    8    0    1
 -2       869       936       937      3692      3900      3657
 -1      1926    8    0    1
 -2       861       947      1008      3713      3901      3902
 -1      1927    8    0    1
 -2       854       861      1008      3416      3902      3903
 -1      1928    8    0    1
 -2       947       932      1008      3689      3904      3901
 -1      1929    8    0    1
 -2       952       942      1009      3717      3905      3906
 -1      1930    8    0    1
 -2       846       800       863      3718      3647      3426
 -1      1931    8    0    1
 -2      1006       948       938      3897      3907      3891
 -1      1932    8    0    1
 -2       941       864       928      3668      3908      3720
 -1      1933    8    0    1
 -2       942       933      1010      3694      3909      3910
 -1      1934    8    0    1
 -2       940       938       948      3719      3907      3911
 -1      1935    8    0    1
 -2       863       900       981      3690      3816      3895
 -1      1936    8    0    1
 -2       950       848       867      3726      3444      3912
 -1      1937    8    0    1
 -2       853       836      1006      3382      3898      3913
 -1      1938    8    0    1
 -2       902       903      1011      3553      3914      3915
 -1      1939    8    0    1
 -2       903       982      1011      3819      3916      3914
 -1      1940    8    0    1
 -2       928       864       951      3908      3707      3917
 -1      1941    8    0    1
 -2      1006       939       853      3890      3918      3913
 -1      1942    8    0    1
 -2       939       898       853      3892      3676      3918
 -1      1943    8    0    1
 -2       950       867       944      3912      3919      3703
 -1      1944    8    0    1
 -2       940       948       980      3911      3920      3811
 -1      1945    8    0    1
 -2       944       867       937      3919      3656      3921
 -1      1946    8    0    1
 -2       951       949      1012      3705      3922      3923
 -1      1947    8    0    1
 -2       931       854      1008      3635      3903      3924
 -1      1948    8    0    1
 -2       945       930      1013      3680      3925      3926
 -1      1949    8    0    1
 -2       899       847       758      3731      3434      3637
 -1      1950    8    0    1
 -2       979       902      1011      3809      3915      3927
 -1      1951    8    0    1
 -2       932       980      1008      3812      3928      3904
 -1      1952    8    0    1
 -2       937       936       944      3900      3722      3921
 -1      1953    8    0    1
 -2       929       978       935      3889      3929      3651
 -1      1954    8    0    1
 -2       927       928      1014      3628      3930      3931
 -1      1955    8    0    1
 -2       927      1014      1005      3931      3932      3886
 -1      1956    8    0    1
 -2       949       945      1015      3701      3933      3934
 -1      1957    8    0    1
 -2      1012       949      1015      3922      3934      3935
 -1      1958    8    0    1
 -2       945      1013      1015      3926      3936      3933
 -1      1959    8    0    1
 -2       948       860       980      3697      3899      3920
 -1      1960    8    0    1
 -2       934       981      1007      3896      3937      3893
 -1      1961    8    0    1
 -2       930       935      1016      3650      3938      3939
 -1      1962    8    0    1
 -2       930      1016      1013      3939      3940      3925
 -1      1963    8    0    1
 -2       865       944       862      3675      3724      3723
 -1      1964    8    0    1
 -2       871       952       953      3710      3941      3732
 -1      1965    8    0    1
 -2      1010       933      1017      3909      3942      3943
 -1      1966    8    0    1
 -2       933       943      1017      3672      3944      3942
 -1      1967    8    0    1
 -2       942      1010      1009      3910      3945      3905
 -1      1968    8    0    1
 -2       943       856      1007      3673      3894      3946
 -1      1969    8    0    1
 -2       980       931      1008      3813      3924      3928
 -1      1970    8    0    1
 -2       955       954      1018      3739      3947      3948
 -1      1971    8    0    1
 -2       956       955      1019      3742      3949      3950
 -1      1972    8    0    1
 -2       955      1018      1019      3948      3951      3949
 -1      1973    8    0    1
 -2       957       956      1020      3745      3952      3953
 -1      1974    8    0    1
 -2       956      1019      1020      3950      3954      3952
 -1      1975    8    0    1
 -2       958       957      1021      3748      3955      3956
 -1      1976    8    0    1
 -2       957      1020      1021      3953      3957      3955
 -1      1977    8    0    1
 -2       959       958      1022      3751      3958      3959
 -1      1978    8    0    1
 -2       958      1021      1022      3956      3960      3958
 -1      1979    8    0    1
 -2       960       959      1023      3754      3961      3962
 -1      1980    8    0    1
 -2       959      1022      1023      3959      3963      3961
 -1      1981    8    0    1
 -2       961       960      1024      3757      3964      3965
 -1      1982    8    0    1
 -2       960      1023      1024      3962      3966      3964
 -1      1983    8    0    1
 -2       962       961      1025      3760      3967      3968
 -1      1984    8    0    1
 -2       961      1024      1025      3965      3969      3967
 -1      1985    8    0    1
 -2       963       962      1026      3763      3970      3971
 -1      1986    8    0    1
 -2       962      1025      1026      3968      3972      3970
 -1      1987    8    0    1
 -2       964       963      1027      3766      3973      3974
 -1      1988    8    0    1
 -2       963      1026      1027      3971      3975      3973
 -1      1989    8    0    1
 -2       965       964      1028      3769      3976      3977
 -1      1990    8    0    1
 -2       964      1027      1028      3974      3978      3976
 -1      1991    8    0    1
 -2       966       965      1029      3772      3979      3980
 -1      1992    8    0    1
 -2       965      1028      1029      3977      3981      3979
 -1      1993    8    0    1
 -2       967       966      1030      3775      3982      3983
 -1      1994    8    0    1
 -2       966      1029      1030      3980      3984      3982
 -1      1995    8    0    1
 -2       968       967      1031      3778      3985      3986
 -1      1996    8    0    1
 -2       967      1030      1031      3983      3987      3985
 -1      1997    8    0    1
 -2       969       968      1032      3781      3988      3989
 -1      1998    8    0    1
 -2       968      1031      1032      3986      3990      3988
 -1      1999    8    0    1
 -2       970       969      1033      3784      3991      3992
 -1      2000    8    0    1
 -2       969      1032      1033      3989      3993      3991
 -1      2001    8    0    1
 -2       971       970      1034      3787      3994      3995
 -1      2002    8    0    1
 -2       970      1033      1034      3992      3996      3994
 -1      2003    8    0    1
 -2       972       971      1035      3790      3997      3998
 -1      2004    8    0    1
 -2       971      1034      1035      3995      3999      3997
 -1      2005    8    0    1
 -2       973       972      1036      3793      4000      4001
 -1      2006    8    0    1
 -2       972      1035      1036      3998      4002      4000
 -1      2007    8    0    1
 -2       974       973      1037      3796      4003      4004
 -1      2008    8    0    1
 -2       973      1036      1037      4001      4005      4003
 -1      2009    8    0    1
 -2       975       974      1038      3799      4006      4007
 -1      2010    8    0    1
 -2       974      1037      1038      4004      4008      4006
 -1      2011    8    0    1
 -2       976       975      1039      3802      4009      4010
 -1      2012    8    0    1
 -2       975      1038      1039      4007      4011      4009
 -1      2013    8    0    1
 -2       977       976      1040      3805      4012      4013
 -1      2014    8    0    1
 -2       976      1039      1040      4010      4014      4012
 -1      2015    8    0    1
 -2       978       977      1041      3808      4015      4016
 -1      2016    8    0    1
 -2       977      1040      1041      4013      4017      4015
 -1      2017    8    0    1
 -2       984       985      1042      3828      4018      4019
 -1      2018    8    0    1
 -2       983       984      1043      3825      4020      4021
 -1      2019    8    0    1
 -2       984      1042      1043      4019      4022      4020
 -1      2020    8    0    1
 -2       982       983      1044      3822      4023      4024
 -1      2021    8    0    1
 -2       983      1043      1044      4021      4025      4023
 -1      2022    8    0    1
 -2       985       986      1045      3831      4026      4027
 -1      2023    8    0    1
 -2       985      1045      1042      4027      4028      4018
 -1      2024    8    0    1
 -2       986       987      1046      3834      4029      4030
 -1      2025    8    0    1
 -2       986      1046      1045      4030      4031      4026
 -1      2026    8    0    1
 -2       987       988      1047      3837      4032      4033
 -1      2027    8    0    1
 -2       987      1047      1046      4033      4034      4029
 -1      2028    8    0    1
 -2       988       989      1048      3840      4035      4036
 -1      2029    8    0    1
 -2       988      1048      1047      4036      4037      4032
 -1      2030    8    0    1
 -2       989       990      1049      3843      4038      4039
 -1      2031    8    0    1
 -2       989      1049      1048      4039      4040      4035
 -1      2032    8    0    1
 -2       990       991      1050      3846      4041      4042
 -1      2033    8    0    1
 -2       990      1050      1049      4042      4043      4038
 -1      2034    8    0    1
 -2       991       992      1051      3849      4044      4045
 -1      2035    8    0    1
 -2       991      1051      1050      4045      4046      4041
 -1      2036    8    0    1
 -2       992       993      1052      3852      4047      4048
 -1      2037    8    0    1
 -2       992      1052      1051      4048      4049      4044
 -1      2038    8    0    1
 -2       993       994      1053      3855      4050      4051
 -1      2039    8    0    1
 -2       993      1053      1052      4051      4052      4047
 -1      2040    8    0    1
 -2       994       995      1054      3858      4053      4054
 -1      2041    8    0    1
 -2       994      1054      1053      4054      4055      4050
 -1      2042    8    0    1
 -2       995       996      1055      3861      4056      4057
 -1      2043    8    0    1
 -2       995      1055      1054      4057      4058      4053
 -1      2044    8    0    1
 -2       996       997      1056      3864      4059      4060
 -1      2045    8    0    1
 -2       996      1056      1055      4060      4061      4056
 -1      2046    8    0    1
 -2       997       998      1057      3867      4062      4063
 -1      2047    8    0    1
 -2       997      1057      1056      4063      4064      4059
 -1      2048    8    0    1
 -2       998       999      1058      3870      4065      4066
 -1      2049    8    0    1
 -2       998      1058      1057      4066      4067      4062
 -1      2050    8    0    1
 -2       999      1000      1059      3873      4068      4069
 -1      2051    8    0    1
 -2       999      1059      1058      4069      4070      4065
 -1      2052    8    0    1
 -2      1000      1001      1060      3876      4071      4072
 -1      2053    8    0    1
 -2      1000      1060      1059      4072      4073      4068
 -1      2054    8    0    1
 -2      1001      1002      1061      3879      4074      4075
 -1      2055    8    0    1
 -2      1001      1061      1060      4075      4076      4071
 -1      2056    8    0    1
 -2      1002      1003      1062      3882      4077      4078
 -1      2057    8    0    1
 -2      1002      1062      1061      4078      4079      4074
 -1      2058    8    0    1
 -2      1003      1004      1063      3885      4080      4081
 -1      2059    8    0    1
 -2      1003      1063      1062      4081      4082      4077
 -1      2060    8    0    1
 -2      1004      1005      1064      3888      4083      4084
 -1      2061    8    0    1
 -2      1004      1064      1063      4084      4085      4080
 -1      2062    8    0    1
 -2      1014       928       951      3930      3917      4086
 -1      2063    8    0    1
 -2       952      1009       953      3906      4087      3941
 -1      2064    8    0    1
 -2      1007       981       979      3937      3817      4088
 -1      2065    8    0    1
 -2       953      1009      1065      4087      4089      4090
 -1      2066    8    0    1
 -2       954       953      1065      3736      4090      4091
 -1      2067    8    0    1
 -2      1009      1010      1065      3945      4092      4089
 -1      2068    8    0    1
 -2       951      1012      1014      3923      4093      4086
 -1      2069    8    0    1
 -2       979      1011      1066      3927      4094      4095
 -1      2070    8    0    1
 -2       979      1066      1007      4095      4096      4088
 -1      2071    8    0    1
 -2      1014      1012      1005      4093      4097      3932
 -1      2072    8    0    1
 -2       943      1007      1067      3946      4098      4099
 -1      2073    8    0    1
 -2      1017       943      1067      3944      4099      4100
 -1      2074    8    0    1
 -2      1007      1066      1067      4096      4101      4098
 -1      2075    8    0    1
 -2      1011       982      1068      3916      4102      4103
 -1      2076    8    0    1
 -2       982      1044      1068      4024      4104      4102
 -1      2077    8    0    1
 -2      1005      1012      1064      4097      4105      4083
 -1      2078    8    0    1
 -2      1018       954      1065      3947      4091      4106
 -1      2079    8    0    1
 -2       978      1041      1016      4016      4107      4108
 -1      2080    8    0    1
 -2      1011      1068      1066      4103      4109      4094
 -1      2081    8    0    1
 -2      1012      1015      1064      3935      4110      4105
 -1      2082    8    0    1
 -2      1015      1013      1069      3936      4111      4112
 -1      2083    8    0    1
 -2      1016       935       978      3938      3929      4108
 -1      2084    8    0    1
 -2      1065      1010      1070      4092      4113      4114
 -1      2085    8    0    1
 -2      1013      1016      1071      3940      4115      4116
 -1      2086    8    0    1
 -2      1069      1013      1071      4111      4116      4117
 -1      2087    8    0    1
 -2      1016      1041      1071      4107      4118      4115
 -1      2088    8    0    1
 -2      1010      1017      1070      3943      4119      4113
 -1      2089    8    0    1
 -2      1066      1068      1072      4109      4120      4121
 -1      2090    8    0    1
 -2      1066      1072      1067      4121      4122      4101
 -1      2091    8    0    1
 -2      1020      1019      1073      3954      4123      4124
 -1      2092    8    0    1
 -2      1021      1020      1074      3957      4125      4126
 -1      2093    8    0    1
 -2      1020      1073      1074      4124      4127      4125
 -1      2094    8    0    1
 -2      1022      1021      1075      3960      4128      4129
 -1      2095    8    0    1
 -2      1021      1074      1075      4126      4130      4128
 -1      2096    8    0    1
 -2      1023      1022      1076      3963      4131      4132
 -1      2097    8    0    1
 -2      1022      1075      1076      4129      4133      4131
 -1      2098    8    0    1
 -2      1024      1023      1077      3966      4134      4135
 -1      2099    8    0    1
 -2      1023      1076      1077      4132      4136      4134
 -1      2100    8    0    1
 -2      1025      1024      1078      3969      4137      4138
 -1      2101    8    0    1
 -2      1024      1077      1078      4135      4139      4137
 -1      2102    8    0    1
 -2      1026      1025      1079      3972      4140      4141
 -1      2103    8    0    1
 -2      1025      1078      1079      4138      4142      4140
 -1      2104    8    0    1
 -2      1027      1026      1080      3975      4143      4144
 -1      2105    8    0    1
 -2      1026      1079      1080      4141      4145      4143
 -1      2106    8    0    1
 -2      1028      1027      1081      3978      4146      4147
 -1      2107    8    0    1
 -2      1027      1080      1081      4144      4148      4146
 -1      2108    8    0    1
 -2      1029      1028      1082      3981      4149      4150
 -1      2109    8    0    1
 -2      1028      1081      1082      4147      4151      4149
 -1      2110    8    0    1
 -2      1030      1029      1083      3984      4152      4153
 -1      2111    8    0    1
 -2      1029      1082      1083      4150      4154      4152
 -1      2112    8    0    1
 -2      1031      1030      1084      3987      4155      4156
 -1      2113    8    0    1
 -2      1030      1083      1084      4153      4157      4155
 -1      2114    8    0    1
 -2      1032      1031      1085      3990      4158      4159
 -1      2115    8    0    1
 -2      1031      1084      1085      4156      4160      4158
 -1      2116    8    0    1
 -2      1033      1032      1086      3993      4161      4162
 -1      2117    8    0    1
 -2      1032      1085      1086      4159      4163      4161
 -1      2118    8    0    1
 -2      1034      1033      1087      3996      4164      4165
 -1      2119    8    0    1
 -2      1033      1086      1087      4162      4166      4164
 -1      2120    8    0    1
 -2      1035      1034      1088      3999      4167      4168
 -1      2121    8    0    1
 -2      1034      1087      1088      4165      4169      4167
 -1      2122    8    0    1
 -2      1036      1035      1089      4002      4170      4171
 -1      2123    8    0    1
 -2      1035      1088      1089      4168      4172      4170
 -1      2124    8    0    1
 -2      1037      1036      1090      4005      4173      4174
 -1      2125    8    0    1
 -2      1036      1089      1090      4171      4175      4173
 -1      2126    8    0    1
 -2      1038      1037      1091      4008      4176      4177
 -1      2127    8    0    1
 -2      1037      1090      1091      4174      4178      4176
 -1      2128    8    0    1
 -2      1039      1038      1092      4011      4179      4180
 -1      2129    8    0    1
 -2      1038      1091      1092      4177      4181      4179
 -1      2130    8    0    1
 -2      1040      1039      1093      4014      4182      4183
 -1      2131    8    0    1
 -2      1039      1092      1093      4180      4184      4182
 -1      2132    8    0    1
 -2      1041      1040      1094      4017      4185      4186
 -1      2133    8    0    1
 -2      1071      1041      1094      4118      4186      4187
 -1      2134    8    0    1
 -2      1040      1093      1094      4183      4188      4185
 -1      2135    8    0    1
 -2      1045      1046      1095      4031      4189      4190
 -1      2136    8    0    1
 -2      1042      1045      1096      4028      4191      4192
 -1      2137    8    0    1
 -2      1045      1095      1096      4190      4193      4191
 -1      2138    8    0    1
 -2      1044      1043      1097      4025      4194      4195
 -1      2139    8    0    1
 -2      1046      1047      1098      4034      4196      4197
 -1      2140    8    0    1
 -2      1046      1098      1095      4197      4198      4189
 -1      2141    8    0    1
 -2      1047      1048      1099      4037      4199      4200
 -1      2142    8    0    1
 -2      1047      1099      1098      4200      4201      4196
 -1      2143    8    0    1
 -2      1048      1049      1100      4040      4202      4203
 -1      2144    8    0    1
 -2      1048      1100      1099      4203      4204      4199
 -1      2145    8    0    1
 -2      1049      1050      1101      4043      4205      4206
 -1      2146    8    0    1
 -2      1049      1101      1100      4206      4207      4202
 -1      2147    8    0    1
 -2      1050      1051      1102      4046      4208      4209
 -1      2148    8    0    1
 -2      1050      1102      1101      4209      4210      4205
 -1      2149    8    0    1
 -2      1051      1052      1103      4049      4211      4212
 -1      2150    8    0    1
 -2      1051      1103      1102      4212      4213      4208
 -1      2151    8    0    1
 -2      1052      1053      1104      4052      4214      4215
 -1      2152    8    0    1
 -2      1052      1104      1103      4215      4216      4211
 -1      2153    8    0    1
 -2      1053      1054      1105      4055      4217      4218
 -1      2154    8    0    1
 -2      1053      1105      1104      4218      4219      4214
 -1      2155    8    0    1
 -2      1054      1055      1106      4058      4220      4221
 -1      2156    8    0    1
 -2      1054      1106      1105      4221      4222      4217
 -1      2157    8    0    1
 -2      1055      1056      1107      4061      4223      4224
 -1      2158    8    0    1
 -2      1055      1107      1106      4224      4225      4220
 -1      2159    8    0    1
 -2      1056      1057      1108      4064      4226      4227
 -1      2160    8    0    1
 -2      1056      1108      1107      4227      4228      4223
 -1      2161    8    0    1
 -2      1057      1058      1109      4067      4229      4230
 -1      2162    8    0    1
 -2      1057      1109      1108      4230      4231      4226
 -1      2163    8    0    1
 -2      1058      1059      1110      4070      4232      4233
 -1      2164    8    0    1
 -2      1058      1110      1109      4233      4234      4229
 -1      2165    8    0    1
 -2      1059      1060      1111      4073      4235      4236
 -1      2166    8    0    1
 -2      1059      1111      1110      4236      4237      4232
 -1      2167    8    0    1
 -2      1060      1061      1112      4076      4238      4239
 -1      2168    8    0    1
 -2      1060      1112      1111      4239      4240      4235
 -1      2169    8    0    1
 -2      1061      1062      1113      4079      4241      4242
 -1      2170    8    0    1
 -2      1061      1113      1112      4242      4243      4238
 -1      2171    8    0    1
 -2      1062      1063      1114      4082      4244      4245
 -1      2172    8    0    1
 -2      1062      1114      1113      4245      4246      4241
 -1      2173    8    0    1
 -2      1063      1064      1115      4085      4247      4248
 -1      2174    8    0    1
 -2      1063      1115      1114      4248      4249      4244
 -1      2175    8    0    1
 -2      1018      1065      1070      4106      4114      4250
 -1      2176    8    0    1
 -2      1068      1044      1116      4104      4251      4252
 -1      2177    8    0    1
 -2      1072      1068      1116      4120      4252      4253
 -1      2178    8    0    1
 -2      1044      1097      1116      4195      4254      4251
 -1      2179    8    0    1
 -2      1043      1042      1117      4022      4255      4256
 -1      2180    8    0    1
 -2      1097      1043      1117      4194      4256      4257
 -1      2181    8    0    1
 -2      1042      1096      1117      4192      4258      4255
 -1      2182    8    0    1
 -2      1019      1018      1118      3951      4259      4260
 -1      2183    8    0    1
 -2      1019      1118      1073      4260      4261      4123
 -1      2184    8    0    1
 -2      1018      1070      1118      4250      4262      4259
 -1      2185    8    0    1
 -2      1070      1017      1119      4119      4263      4264
 -1      2186    8    0    1
 -2      1118      1070      1116      4262      4265      4266
 -1      2187    8    0    1
 -2      1115      1064      1069      4247      4267      4268
 -1      2188    8    0    1
 -2      1069      1071      1120      4117      4269      4270
 -1      2189    8    0    1
 -2      1115      1069      1120      4268      4270      4271
 -1      2190    8    0    1
 -2      1071      1094      1120      4187      4272      4269
 -1      2191    8    0    1
 -2      1015      1069      1064      4112      4267      4110
 -1      2192    8    0    1
 -2      1118      1116      1121      4266      4273      4274
 -1      2193    8    0    1
 -2      1073      1118      1121      4261      4274      4275
 -1      2194    8    0    1
 -2      1116      1097      1121      4254      4276      4273
 -1      2195    8    0    1
 -2      1075      1074      1122      4130      4277      4278
 -1      2196    8    0    1
 -2      1076      1075      1095      4133      4279      4280
 -1      2197    8    0    1
 -2      1077      1076      1098      4136      4281      4282
 -1      2198    8    0    1
 -2      1078      1077      1099      4139      4283      4284
 -1      2199    8    0    1
 -2      1079      1078      1100      4142      4285      4286
 -1      2200    8    0    1
 -2      1080      1079      1101      4145      4287      4288
 -1      2201    8    0    1
 -2      1081      1080      1102      4148      4289      4290
 -1      2202    8    0    1
 -2      1082      1081      1103      4151      4291      4292
 -1      2203    8    0    1
 -2      1083      1082      1104      4154      4293      4294
 -1      2204    8    0    1
 -2      1084      1083      1105      4157      4295      4296
 -1      2205    8    0    1
 -2      1085      1084      1106      4160      4297      4298
 -1      2206    8    0    1
 -2      1086      1085      1107      4163      4299      4300
 -1      2207    8    0    1
 -2      1087      1086      1108      4166      4301      4302
 -1      2208    8    0    1
 -2      1088      1087      1109      4169      4303      4304
 -1      2209    8    0    1
 -2      1089      1088      1110      4172      4305      4306
 -1      2210    8    0    1
 -2      1090      1089      1111      4175      4307      4308
 -1      2211    8    0    1
 -2      1091      1090      1112      4178      4309      4310
 -1      2212    8    0    1
 -2      1092      1091      1113      4181      4311      4312
 -1      2213    8    0    1
 -2      1093      1092      1114      4184      4313      4314
 -1      2214    8    0    1
 -2      1095      1098      1076      4198      4281      4280
 -1      2215    8    0    1
 -2      1100      1101      1079      4207      4287      4286
 -1      2216    8    0    1
 -2      1101      1102      1080      4210      4289      4288
 -1      2217    8    0    1
 -2      1102      1103      1081      4213      4291      4290
 -1      2218    8    0    1
 -2      1103      1104      1082      4216      4293      4292
 -1      2219    8    0    1
 -2      1104      1105      1083      4219      4295      4294
 -1      2220    8    0    1
 -2      1105      1106      1084      4222      4297      4296
 -1      2221    8    0    1
 -2      1106      1107      1085      4225      4299      4298
 -1      2222    8    0    1
 -2      1107      1108      1086      4228      4301      4300
 -1      2223    8    0    1
 -2      1108      1109      1087      4231      4303      4302
 -1      2224    8    0    1
 -2      1109      1110      1088      4234      4305      4304
 -1      2225    8    0    1
 -2      1110      1111      1089      4237      4307      4306
 -1      2226    8    0    1
 -2      1111      1112      1090      4240      4309      4308
 -1      2227    8    0    1
 -2      1112      1113      1091      4243      4311      4310
 -1      2228    8    0    1
 -2      1113      1114      1092      4246      4313      4312
 -1      2229    8    0    1
 -2      1114      1115      1120      4249      4271      4315
 -1      2230    8    0    1
 -2      1119      1017      1067      4263      4100      4316
 -1      2231    8    0    1
 -2      1074      1073      1123      4127      4317      4318
 -1      2232    8    0    1
 -2      1122      1074      1123      4277      4318      4319
 -1      2233    8    0    1
 -2      1073      1121      1123      4275      4320      4317
 -1      2234    8    0    1
 -2      1098      1099      1077      4201      4283      4282
 -1      2235    8    0    1
 -2      1099      1100      1078      4204      4285      4284
 -1      2236    8    0    1
 -2      1095      1075      1096      4279      4321      4193
 -1      2237    8    0    1
 -2      1117      1096      1123      4258      4322      4323
 -1      2238    8    0    1
 -2      1093      1114      1120      4314      4315      4324
 -1      2239    8    0    1
 -2      1094      1093      1120      4188      4324      4272
 -1      2240    8    0    1
 -2      1070      1119      1116      4264      4325      4265
 -1      2241    8    0    1
 -2      1097      1117      1121      4257      4326      4276
 -1      2242    8    0    1
 -2      1117      1123      1121      4323      4320      4326
 -1      2243    8    0    1
 -2      1119      1067      1072      4316      4122      4327
 -1      2244    8    0    1
 -2      1123      1096      1122      4322      4328      4319
 -1      2245    8    0    1
 -2      1096      1075      1122      4321      4278      4328
 -1      2246    8    0    1
 -2      1116      1119      1072      4325      4327      4253
 -3
    1PSTEP                         1           1           1          
  100CL  101 1.000000000        4328                     0    1           1
 -4  DISP        4    1
 -5  D1          1    2    1    0
 -5  D2          1    2    2    0
 -5  D3          1    2    3    0
 -5  ALL         1    2    0    0    1ALL
 -1         1 4.62294E-03-8.06169E-04-1.58676E-14
 -1         2 5.94942E-03-3.28528E-05-1.96366E-14
 -1         3 1.51675E-02 5.16779E-04-2.02080E-13
 -1         4 1.52542E-02-9.12593E-04-2.04959E-13
 -1         5 0.00000E+00 0.00000E+00 0.00000E+00
 -1         6 0.00000E+00 0.00000E+00 0.00000E+00
 -1         7 0.00000E+00 0.00000E+00 0.00000E+00
 -1         8 0.00000E+00 0.00000E+00 0.00000E+00
 -1         9 0.00000E+00 0.00000E+00 0.00000E+00
 -1        10 0.00000E+00 0.00000E+00 0.00000E+00
 -1        11 0.00000E+00 0.00000E+00 0.00000E+00
 -1        12 0.00000E+00 0.00000E+00 0.00000E+00
 -1        13 0.00000E+00 0.00000E+00 0.00000E+00
 -1        14 0.00000E+00 0.00000E+00 0.00000E+00
 -1        15 0.00000E+00 0.00000E+00 0.00000E+00
 -1        16 0.00000E+00 0.00000E+00 0.00000E+00
 -1        17 0.00000E+00 0.00000E+00 0.00000E+00
 -1        18 0.00000E+00 0.00000E+00 0.00000E+00
 -1        19 0.00000E+00 0.00000E+00 0.00000E+00
 -1        20 0.00000E+00 0.00000E+00 0.00000E+00
 -1        21 0.00000E+00 0.00000E+00 0.00000E+00
 -1        22 0.00000E+00 0.00000E+00 0.00000E+00
 -1        23 4.44028E-04-2.51262E-04 6.16504E-17
 -1        24 7.82298E-04-3.78469E-04-1.09139E-16
 -1        25 1.11211E-03-4.74685E-04-5.07227E-16
 -1        26 1.44637E-03-5.59801E-04-1.12971E-15
 -1        27 1.78692E-03-6.46870E-04-1.97313E-15
 -1        28 2.13143E-03-7.44116E-04-3.03706E-15
 -1        29 2.47375E-03-8.55435E-04-4.32292E-15
 -1        30 2.80472E-03-9.78418E-04-5.82790E-15
 -1        31 3.11474E-03-1.10227E-03-7.55563E-15
 -1        32 3.39836E-03-1.20811E-03-9.51101E-15
 -1        33 3.65903E-03-1.27415E-03-1.16941E-14
 -1        34 3.91016E-03-1.28497E-03-1.40976E-14
 -1        35 4.17006E-03-1.23969E-03-1.67212E-14
 -1        36 4.45344E-03-1.15279E-03-1.95472E-14
 -1        37 4.76542E-03-1.04686E-03-2.25704E-14
 -1        38 5.10159E-03-9.43126E-04-2.57758E-14
 -1        39 5.45235E-03-8.55506E-04-2.91529E-14
 -1        40 5.80767E-03-7.89773E-04-3.26932E-14
 -1        41 6.15995E-03-7.45755E-04-3.63865E-14
 -1        42 6.50466E-03-7.20141E-04-4.02303E-14
 -1        43 6.83989E-03-7.08619E-04-4.42214E-14
 -1        44 7.16551E-03-7.07078E-04-4.83523E-14
 -1        45 7.48232E-03-7.12116E-04-5.26240E-14
 -1        46 7.79160E-03-7.21146E-04-5.70455E-14
 -1        47 8.09470E-03-7.32319E-04-6.15992E-14
 -1        48 8.39290E-03-7.44375E-04-6.62857E-14
 -1        49 8.68732E-03-7.56506E-04-7.10945E-14
 -1        50 8.97889E-03-7.68224E-04-7.60294E-14
 -1        51 9.26837E-03-7.79269E-04-8.10891E-14
 -1        52 9.55634E-03-7.89528E-04-8.62663E-14
 -1        53 9.84326E-03-7.98988E-04-9.15550E-14
 -1        54 1.01295E-02-8.07691E-04-9.69525E-14
 -1        55 1.04152E-02-8.15713E-04-1.02450E-13
 -1        56 1.07007E-02-8.23145E-04-1.08030E-13
 -1        57 1.09860E-02-8.30076E-04-1.13703E-13
 -1        58 1.12712E-02-8.36596E-04-1.19451E-13
 -1        59 1.15565E-02-8.42783E-04-1.25260E-13
 -1        60 1.18417E-02-8.48706E-04-1.31122E-13
 -1        61 1.21271E-02-8.54425E-04-1.37041E-13
 -1        62 1.24124E-02-8.59987E-04-1.43027E-13
 -1        63 1.26978E-02-8.65434E-04-1.49091E-13
 -1        64 1.29833E-02-8.70796E-04-1.55220E-13
 -1        65 1.32689E-02-8.76100E-04-1.61400E-13
 -1        66 1.35544E-02-8.81365E-04-1.67620E-13
 -1        67 1.38401E-02-8.86609E-04-1.73865E-13
 -1        68 1.41257E-02-8.91844E-04-1.80126E-13
 -1        69 1.44114E-02-8.97080E-04-1.86388E-13
 -1        70 1.46971E-02-9.02326E-04-1.92659E-13
 -1        71 1.49828E-02-9.07586E-04-1.98950E-13
 -1        72 4.45075E-04 2.52946E-04 8.75832E-17
 -1        73 7.79930E-04 3.82978E-04-4.06677E-17
 -1        74 1.10807E-03 4.78794E-04-3.79291E-16
 -1        75 1.43922E-03 5.63606E-04-9.31106E-16
 -1        76 1.77530E-03 6.49301E-04-1.69693E-15
 -1        77 2.11400E-03 7.43404E-04-2.67433E-15
 -1        78 2.44952E-03 8.49094E-04-3.86565E-15
 -1        79 2.77352E-03 9.63592E-04-5.26946E-15
 -1        80 3.07763E-03 1.07660E-03-6.88442E-15
 -1        81 3.35748E-03 1.17101E-03-8.72194E-15
 -1        82 3.61662E-03 1.22760E-03-1.07827E-14
 -1        83 3.86725E-03 1.23305E-03-1.30666E-14
 -1        84 4.12579E-03 1.18663E-03-1.55726E-14
 -1        85 4.40564E-03 1.10094E-03-1.82943E-14
 -1        86 4.71189E-03 9.95920E-04-2.12245E-14
 -1        87 5.04112E-03 8.90847E-04-2.43543E-14
 -1        88 5.38498E-03 7.98977E-04-2.76660E-14
 -1        89 5.73436E-03 7.26397E-04-3.11543E-14
 -1        90 6.08202E-03 6.73657E-04-3.48123E-14
 -1        91 6.42341E-03 6.38171E-04-3.86339E-14
 -1        92 6.75641E-03 6.16174E-04-4.26087E-14
 -1        93 7.08059E-03 6.03903E-04-4.67216E-14
 -1        94 7.39654E-03 5.98150E-04-5.09730E-14
 -1        95 7.70531E-03 5.96423E-04-5.53592E-14
 -1        96 8.00814E-03 5.96904E-04-5.98789E-14
 -1        97 8.30620E-03 5.98338E-04-6.45260E-14
 -1        98 8.60055E-03 5.99907E-04-6.92932E-14
 -1        99 8.89210E-03 6.01111E-04-7.41847E-14
 -1       100 9.18157E-03 6.01676E-04-7.91976E-14
 -1       101 9.46954E-03 6.01481E-04-8.43251E-14
 -1       102 9.75647E-03 6.00502E-04-8.95482E-14
 -1       103 1.00427E-02 5.98777E-04-9.48695E-14
 -1       104 1.03284E-02 5.96379E-04-1.00289E-13
 -1       105 1.06139E-02 5.93394E-04-1.05813E-13
 -1       106 1.08992E-02 5.89912E-04-1.11443E-13
 -1       107 1.11845E-02 5.86019E-04-1.17167E-13
 -1       108 1.14697E-02 5.81794E-04-1.22985E-13
 -1       109 1.17550E-02 5.77306E-04-1.28876E-13
 -1       110 1.20403E-02 5.72614E-04-1.34822E-13
 -1       111 1.23257E-02 5.67765E-04-1.40800E-13
 -1       112 1.26111E-02 5.62800E-04-1.46824E-13
 -1       113 1.28966E-02 5.57752E-04-1.52883E-13
 -1       114 1.31821E-02 5.52644E-04-1.58961E-13
 -1       115 1.34677E-02 5.47499E-04-1.65061E-13
 -1       116 1.37533E-02 5.42331E-04-1.71191E-13
 -1       117 1.40389E-02 5.37155E-04-1.77351E-13
 -1       118 1.43246E-02 5.31980E-04-1.83569E-13
 -1       119 1.46103E-02 5.26814E-04-1.89837E-13
 -1       120 1.48960E-02 5.21663E-04-1.96122E-13
 -1       121 1.51725E-02 4.32495E-04-2.02302E-13
 -1       122 1.51776E-02 3.48208E-04-2.02526E-13
 -1       123 1.51826E-02 2.63910E-04-2.02743E-13
 -1       124 1.51876E-02 1.79593E-04-2.02950E-13
 -1       125 1.51926E-02 9.52555E-05-2.03145E-13
 -1       126 1.51976E-02 1.23282E-05-2.03323E-13
 -1       127 1.52027E-02-7.20448E-05-2.03499E-13
 -1       128 1.52078E-02-1.56428E-04-2.03687E-13
 -1       129 1.52129E-02-2.40815E-04-2.03886E-13
 -1       130 1.52180E-02-3.25199E-04-2.04066E-13
 -1       131 1.52232E-02-4.09572E-04-2.04226E-13
 -1       132 1.52283E-02-4.92499E-04-2.04385E-13
 -1       133 1.52335E-02-5.76836E-04-2.04534E-13
 -1       134 1.52387E-02-6.61152E-04-2.04672E-13
 -1       135 1.52439E-02-7.45450E-04-2.04788E-13
 -1       136 1.52491E-02-8.29737E-04-2.04880E-13
 -1       137 5.89385E-03 1.45944E-04-1.94385E-14
 -1       138 5.75843E-03 2.99885E-04-1.90027E-14
 -1       139 5.51136E-03 4.59728E-04-1.82391E-14
 -1       140 5.21961E-03 5.85230E-04-1.73613E-14
 -1       141 4.84266E-03 6.94306E-04-1.62692E-14
 -1       142 4.40595E-03 7.72160E-04-1.50590E-14
 -1       143 3.93704E-03 8.10487E-04-1.38189E-14
 -1       144 3.43961E-03 8.04956E-04-1.25599E-14
 -1       145 3.00338E-03 7.61131E-04-1.15141E-14
 -1       146 2.54984E-03 6.70333E-04-1.04681E-14
 -1       147 2.17820E-03 5.51418E-04-9.64837E-15
 -1       148 1.90417E-03 4.21515E-04-9.06494E-15
 -1       149 1.70100E-03 2.73877E-04-8.64557E-15
 -1       150 1.57255E-03 1.00968E-04-8.39470E-15
 -1       151 1.55022E-03-5.88248E-05-8.36696E-15
 -1       152 1.61521E-03-2.18530E-04-8.52439E-15
 -1       153 1.78866E-03-3.89136E-04-8.91432E-15
 -1       154 2.05013E-03-5.42548E-04-9.49789E-15
 -1       155 2.38290E-03-6.72289E-04-1.02509E-14
 -1       156 2.78921E-03-7.77238E-04-1.11957E-14
 -1       157 3.23555E-03-8.46524E-04-1.22735E-14
 -1       158 3.67700E-03-8.74515E-04-1.33710E-14
 -1       159 4.12437E-03-8.65112E-04-1.45220E-14
 -1       160 4.99436E-03-7.25400E-04-1.68986E-14
 -1       161 5.32032E-03-6.18365E-04-1.78277E-14
 -1       162 5.58100E-03-4.94274E-04-1.85846E-14
 -1       163 5.79354E-03-3.41372E-04-1.92037E-14
 -1       164 5.91049E-03-1.90218E-04-1.95408E-14
 -1       165 2.66055E-04-1.03108E-04-4.16266E-17
 -1       166 2.42756E-04-6.50731E-05-7.33666E-17
 -1       167 2.26849E-04-3.96921E-05-9.10357E-17
 -1       168 2.13316E-04-2.21611E-05-1.01048E-16
 -1       169 2.01792E-04-1.09015E-05-1.06614E-16
 -1       170 1.92487E-04-4.45202E-06-1.09684E-16
 -1       171 1.86541E-04-1.72743E-06-1.10839E-16
 -1       172 1.84711E-04-9.01850E-07-1.10717E-16
 -1       173 1.87219E-04 1.85542E-07-1.09033E-16
 -1       174 1.93644E-04 3.61821E-06-1.05794E-16
 -1       175 2.02925E-04 1.08684E-05-1.00783E-16
 -1       176 2.14463E-04 2.32808E-05-9.28551E-17
 -1       177 2.27598E-04 4.17006E-05-8.03360E-17
 -1       178 2.42955E-04 6.77908E-05-5.97531E-17
 -1       179 2.64596E-04 1.06455E-04-2.44217E-17
 -1       180 3.29426E-04 1.69994E-04 1.29969E-17
 -1       181 5.24116E-04-2.34599E-04-1.14607E-16
 -1       182 8.66994E-04-3.42984E-04-4.42436E-16
 -1       183 1.20232E-03-4.30782E-04-9.82487E-16
 -1       184 1.53742E-03-5.14458E-04-1.73694E-15
 -1       185 1.87417E-03-6.04918E-04-2.70489E-15
 -1       186 2.21153E-03-7.09252E-04-3.88815E-15
 -1       187 2.54592E-03-8.29296E-04-5.28650E-15
 -1       188 2.87222E-03-9.58943E-04-6.90228E-15
 -1       189 3.18579E-03-1.08233E-03-8.74036E-15
 -1       190 3.48541E-03-1.17615E-03-1.08048E-14
 -1       191 3.77556E-03-1.21801E-03-1.30945E-14
 -1       192 4.06551E-03-1.19779E-03-1.56042E-14
 -1       193 4.36493E-03-1.12374E-03-1.83282E-14
 -1       194 4.67915E-03-1.01807E-03-2.12534E-14
 -1       195 5.00758E-03-9.05959E-04-2.43692E-14
 -1       196 5.34550E-03-8.06370E-04-2.76610E-14
 -1       197 5.68700E-03-7.28888E-04-3.11172E-14
 -1       198 6.02705E-03-6.75324E-04-3.47288E-14
 -1       199 6.36225E-03-6.42923E-04-3.84948E-14
 -1       200 6.69085E-03-6.27132E-04-4.24065E-14
 -1       201 7.01232E-03-6.23292E-04-4.64625E-14
 -1       202 7.32692E-03-6.27425E-04-5.06584E-14
 -1       203 7.63536E-03-6.36458E-04-5.49995E-14
 -1       204 7.93853E-03-6.48169E-04-5.94806E-14
 -1       205 8.23735E-03-6.61044E-04-6.40922E-14
 -1       206 8.53268E-03-6.74098E-04-6.88334E-14
 -1       207 8.82527E-03-6.86740E-04-7.36947E-14
 -1       208 9.11577E-03-6.98643E-04-7.86830E-14
 -1       209 9.40469E-03-7.09666E-04-8.37897E-14
 -1       210 9.69246E-03-7.19781E-04-8.90137E-14
 -1       211 9.97940E-03-7.29032E-04-9.43436E-14
 -1       212 1.02658E-02-7.37502E-04-9.97760E-14
 -1       213 1.05517E-02-7.45292E-04-1.05301E-13
 -1       214 1.08374E-02-7.52505E-04-1.10913E-13
 -1       215 1.11230E-02-7.59242E-04-1.16609E-13
 -1       216 1.14085E-02-7.65593E-04-1.22381E-13
 -1       217 1.16940E-02-7.71638E-04-1.28210E-13
 -1       218 1.19794E-02-7.77445E-04-1.34095E-13
 -1       219 1.22649E-02-7.83070E-04-1.40046E-13
 -1       220 1.25504E-02-7.88558E-04-1.46070E-13
 -1       221 1.28359E-02-7.93947E-04-1.52158E-13
 -1       222 1.31215E-02-7.99267E-04-1.58294E-13
 -1       223 1.34070E-02-8.04539E-04-1.64476E-13
 -1       224 1.36927E-02-8.09783E-04-1.70696E-13
 -1       225 1.39783E-02-8.15013E-04-1.76936E-13
 -1       226 1.42640E-02-8.20241E-04-1.83190E-13
 -1       227 1.45497E-02-8.25476E-04-1.89455E-13
 -1       228 1.48354E-02-8.30726E-04-1.95734E-13
 -1       229 6.76586E-04 3.00481E-04-1.45673E-16
 -1       230 1.01297E-03 3.98315E-04-5.01589E-16
 -1       231 1.34562E-03 4.82965E-04-1.06185E-15
 -1       232 1.67865E-03 5.67484E-04-1.82890E-15
 -1       233 2.01236E-03 6.60460E-04-2.80349E-15
 -1       234 2.34422E-03 7.66183E-04-3.98759E-15
 -1       235 2.66974E-03 8.82928E-04-5.38234E-15
 -1       236 2.98399E-03 1.00094E-03-6.98908E-15
 -1       237 3.28400E-03 1.10251E-03-8.81524E-15
 -1       238 3.57133E-03 1.16653E-03-1.08632E-14
 -1       239 3.85283E-03 1.17720E-03-1.31346E-14
 -1       240 4.13828E-03 1.13230E-03-1.56285E-14
 -1       241 4.43596E-03 1.04462E-03-1.83395E-14
 -1       242 4.74918E-03 9.35669E-04-2.12574E-14
 -1       243 5.07605E-03 8.26436E-04-2.43730E-14
 -1       244 5.41150E-03 7.31300E-04-2.76713E-14
 -1       245 5.74988E-03 6.56747E-04-3.11475E-14
 -1       246 6.08652E-03 6.03230E-04-3.47900E-14
 -1       247 6.41834E-03 5.67858E-04-3.85906E-14
 -1       248 6.74379E-03 5.46532E-04-4.25484E-14
 -1       249 7.06246E-03 5.35221E-04-4.66463E-14
 -1       250 7.37464E-03 5.30522E-04-5.08828E-14
 -1       251 7.68104E-03 5.29822E-04-5.52512E-14
 -1       252 7.98253E-03 5.31235E-04-5.97548E-14
 -1       253 8.27997E-03 5.33477E-04-6.43876E-14
 -1       254 8.57420E-03 5.35722E-04-6.91426E-14
 -1       255 8.86592E-03 5.37476E-04-7.40194E-14
 -1       256 9.15573E-03 5.38478E-04-7.90157E-14
 -1       257 9.44413E-03 5.38622E-04-8.41241E-14
 -1       258 9.73149E-03 5.37903E-04-8.93349E-14
 -1       259 1.00181E-02 5.36372E-04-9.46425E-14
 -1       260 1.03043E-02 5.34116E-04-1.00048E-13
 -1       261 1.05901E-02 5.31231E-04-1.05556E-13
 -1       262 1.08757E-02 5.27819E-04-1.11170E-13
 -1       263 1.11612E-02 5.23973E-04-1.16880E-13
 -1       264 1.14466E-02 5.19778E-04-1.22676E-13
 -1       265 1.17321E-02 5.15307E-04-1.28545E-13
 -1       266 1.20175E-02 5.10623E-04-1.34476E-13
 -1       267 1.23030E-02 5.05778E-04-1.40449E-13
 -1       268 1.25884E-02 5.00812E-04-1.46466E-13
 -1       269 1.28740E-02 4.95760E-04-1.52515E-13
 -1       270 1.31595E-02 4.90648E-04-1.58593E-13
 -1       271 1.34451E-02 4.85497E-04-1.64691E-13
 -1       272 1.37308E-02 4.80323E-04-1.70818E-13
 -1       273 1.40164E-02 4.75141E-04-1.76977E-13
 -1       274 1.43021E-02 4.69961E-04-1.83184E-13
 -1       275 1.45878E-02 4.64791E-04-1.89435E-13
 -1       276 1.48735E-02 4.59636E-04-1.95709E-13
 -1       277 1.49276E-02 3.94800E-04-1.96983E-13
 -1       278 1.49327E-02 3.10503E-04-1.97206E-13
 -1       279 1.49377E-02 2.26194E-04-1.97422E-13
 -1       280 1.49427E-02 1.41870E-04-1.97632E-13
 -1       281 1.49476E-02 5.89617E-05-1.97826E-13
 -1       282 1.49527E-02-2.53888E-05-1.98015E-13
 -1       283 1.49578E-02-1.09749E-04-1.98202E-13
 -1       284 1.49629E-02-1.94114E-04-1.98391E-13
 -1       285 1.49680E-02-2.78479E-04-1.98570E-13
 -1       286 1.49732E-02-3.62838E-04-1.98736E-13
 -1       287 1.49783E-02-4.45759E-04-1.98890E-13
 -1       288 1.49835E-02-5.30097E-04-1.99029E-13
 -1       289 1.49887E-02-6.14420E-04-1.99155E-13
 -1       290 1.49939E-02-6.98729E-04-1.99269E-13
 -1       291 1.49146E-02-7.64730E-04-1.97505E-13
 -1       292 5.95755E-03 1.07162E-05-2.10121E-14
 -1       293 5.81827E-03 1.16649E-04-2.04338E-14
 -1       294 5.55659E-03 2.24458E-04-1.99806E-14
 -1       295 5.23922E-03 4.05630E-04-1.86712E-14
 -1       296 4.87715E-03 5.75233E-04-1.74656E-14
 -1       297 4.48558E-03 7.38147E-04-1.60713E-14
 -1       298 4.08947E-03 8.55061E-04-1.46189E-14
 -1       299 3.70160E-03 8.97320E-04-1.31305E-14
 -1       300 3.31701E-03 8.34003E-04-1.18130E-14
 -1       301 2.93520E-03 7.04613E-04-1.05799E-14
 -1       302 2.52663E-03 5.22410E-04-9.53289E-15
 -1       303 2.15233E-03 3.60780E-04-8.83370E-15
 -1       304 1.85460E-03 2.18249E-04-8.29513E-15
 -1       305 1.62868E-03 8.60872E-05-7.81560E-15
 -1       306 1.52569E-03 1.53401E-06-7.79017E-15
 -1       307 1.55564E-03-8.34332E-05-7.85710E-15
 -1       308 1.71982E-03-1.79434E-04-8.06473E-15
 -1       309 2.00155E-03-3.31768E-04-8.66632E-15
 -1       310 2.35413E-03-5.00282E-04-9.39391E-15
 -1       311 2.74269E-03-6.79067E-04-1.03308E-14
 -1       312 3.15208E-03-8.37500E-04-1.14325E-14
 -1       313 3.51686E-03-9.30751E-04-1.27163E-14
 -1       314 3.87540E-03-9.47871E-04-1.40290E-14
 -1       315 4.25455E-03-8.83287E-04-1.55767E-14
 -1       316 4.65761E-03-7.42515E-04-1.69436E-14
 -1       317 5.00814E-03-5.88413E-04-1.81377E-14
 -1       318 5.33723E-03-4.32408E-04-1.91753E-14
 -1       319 5.62811E-03-2.76981E-04-2.01878E-14
 -1       320 5.85231E-03-1.69577E-04-2.06279E-14
 -1       321 5.96384E-03-7.55839E-05-2.09880E-14
 -1       322 4.82367E-04-1.12071E-04-3.09882E-16
 -1       323 5.21764E-04-1.68206E-04-2.57606E-16
 -1       324 4.21203E-04-4.14377E-05-3.61358E-16
 -1       325 3.97073E-04-2.18181E-05-3.72589E-16
 -1       326 3.79400E-04-1.02633E-05-3.78485E-16
 -1       327 3.70393E-04-3.95957E-06-3.79921E-16
 -1       328 3.71352E-04 8.30539E-07-3.77130E-16
 -1       329 3.81997E-04 8.12258E-06-3.70252E-16
 -1       330 4.00218E-04 2.10782E-05-3.58722E-16
 -1       331 4.24339E-04 4.25019E-05-3.41022E-16
 -1       332 4.52282E-04 7.37972E-05-3.14886E-16
 -1       333 4.83939E-04 1.16636E-04-2.75489E-16
 -1       334 5.23025E-04 1.74657E-04-2.15455E-16
 -1       335 5.92682E-04 2.32870E-04-1.91748E-16
 -1       336 9.25166E-04 3.29902E-04-5.55444E-16
 -1       337 9.63258E-04-3.05559E-04-8.14856E-16
 -1       338 1.29178E-03-3.86578E-04-1.48758E-15
 -1       339 1.62242E-03-4.69597E-04-2.36682E-15
 -1       340 1.95673E-03-5.63783E-04-3.45338E-15
 -1       341 2.29462E-03-6.74969E-04-4.74938E-15
 -1       342 2.63365E-03-8.02985E-04-6.25664E-15
 -1       343 2.96896E-03-9.37956E-04-7.97825E-15
 -1       344 3.29529E-03-1.05828E-03-9.92278E-15
 -1       345 3.61118E-03-1.13531E-03-1.20950E-14
 -1       346 3.92196E-03-1.14678E-03-1.44933E-14
 -1       347 4.23700E-03-1.09113E-03-1.71119E-14
 -1       348 4.56264E-03-9.89049E-04-1.99410E-14
 -1       349 4.89825E-03-8.70489E-04-2.29663E-14
 -1       350 5.23853E-03-7.60208E-04-2.61751E-14
 -1       351 5.57781E-03-6.71762E-04-2.95494E-14
 -1       352 5.91234E-03-6.08883E-04-3.30809E-14
 -1       353 6.24049E-03-5.69425E-04-3.67667E-14
 -1       354 6.56194E-03-5.48770E-04-4.06015E-14
 -1       355 6.87710E-03-5.41909E-04-4.45823E-14
 -1       356 7.18663E-03-5.44435E-04-4.87027E-14
 -1       357 7.49129E-03-5.52868E-04-5.29679E-14
 -1       358 7.79183E-03-5.64647E-04-5.73726E-14
 -1       359 8.08896E-03-5.77994E-04-6.19131E-14
 -1       360 8.38330E-03-5.91738E-04-6.65803E-14
 -1       361 8.67542E-03-6.05152E-04-7.13734E-14
 -1       362 8.96578E-03-6.17830E-04-7.62896E-14
 -1       363 9.25479E-03-6.29576E-04-8.13281E-14
 -1       364 9.54277E-03-6.40337E-04-8.64824E-14
 -1       365 9.82999E-03-6.50145E-04-9.17471E-14
 -1       366 1.01166E-02-6.59084E-04-9.71159E-14
 -1       367 1.04029E-02-6.67258E-04-1.02585E-13
 -1       368 1.06889E-02-6.74780E-04-1.08143E-13
 -1       369 1.09747E-02-6.81760E-04-1.13788E-13
 -1       370 1.12604E-02-6.88300E-04-1.19510E-13
 -1       371 1.15460E-02-6.94488E-04-1.25301E-13
 -1       372 1.18316E-02-7.00402E-04-1.31156E-13
 -1       373 1.21172E-02-7.06104E-04-1.37071E-13
 -1       374 1.24028E-02-7.11647E-04-1.43057E-13
 -1       375 1.26884E-02-7.17074E-04-1.49107E-13
 -1       376 1.29740E-02-7.22417E-04-1.55209E-13
 -1       377 1.32596E-02-7.27703E-04-1.61359E-13
 -1       378 1.35452E-02-7.32952E-04-1.67543E-13
 -1       379 1.38309E-02-7.38182E-04-1.73760E-13
 -1       380 1.41166E-02-7.43404E-04-1.79999E-13
 -1       381 1.44023E-02-7.48630E-04-1.86251E-13
 -1       382 1.46584E-02-7.56673E-04-1.91869E-13
 -1       383 1.25562E-03 4.13816E-04-1.11672E-15
 -1       384 1.58618E-03 4.96593E-04-1.87924E-15
 -1       385 1.91812E-03 5.87299E-04-2.84507E-15
 -1       386 2.25073E-03 6.91299E-04-4.01683E-15
 -1       387 2.58131E-03 8.08366E-04-5.39676E-15
 -1       388 2.90573E-03 9.30121E-04-6.98693E-15
 -1       389 3.22030E-03 1.03905E-03-8.79408E-15
 -1       390 3.52447E-03 1.11216E-03-1.08230E-14
 -1       391 3.82283E-03 1.13029E-03-1.30754E-14
 -1       392 4.12345E-03 1.08874E-03-1.55517E-14
 -1       393 4.43330E-03 1.00026E-03-1.82468E-14
 -1       394 4.75459E-03 8.88235E-04-2.11499E-14
 -1       395 5.08476E-03 7.75574E-04-2.42492E-14
 -1       396 5.41914E-03 6.77717E-04-2.75324E-14
 -1       397 5.75325E-03 6.01424E-04-3.09917E-14
 -1       398 6.08394E-03 5.47017E-04-3.46155E-14
 -1       399 6.40945E-03 5.11377E-04-3.83988E-14
 -1       400 6.72909E-03 4.90200E-04-4.23380E-14
 -1       401 7.04290E-03 4.79289E-04-4.64181E-14
 -1       402 7.35129E-03 4.75123E-04-5.06349E-14
 -1       403 7.65489E-03 4.75003E-04-5.49865E-14
 -1       404 7.95443E-03 4.76989E-04-5.94727E-14
 -1       405 8.25060E-03 4.79763E-04-6.40874E-14
 -1       406 8.54406E-03 4.82480E-04-6.88255E-14
 -1       407 8.83537E-03 4.84639E-04-7.36855E-14
 -1       408 9.12503E-03 4.85980E-04-7.86649E-14
 -1       409 9.41343E-03 4.86402E-04-8.37582E-14
 -1       410 9.70090E-03 4.85903E-04-8.89563E-14
 -1       411 9.98770E-03 4.84547E-04-9.42485E-14
 -1       412 1.02740E-02 4.82424E-04-9.96381E-14
 -1       413 1.05600E-02 4.79640E-04-1.05130E-13
 -1       414 1.08458E-02 4.76303E-04-1.10726E-13
 -1       415 1.11314E-02 4.72511E-04-1.16420E-13
 -1       416 1.14170E-02 4.68353E-04-1.22199E-13
 -1       417 1.17025E-02 4.63909E-04-1.28051E-13
 -1       418 1.19881E-02 4.59242E-04-1.33967E-13
 -1       419 1.22736E-02 4.54406E-04-1.39931E-13
 -1       420 1.25591E-02 4.49446E-04-1.45943E-13
 -1       421 1.28447E-02 4.44396E-04-1.51987E-13
 -1       422 1.31303E-02 4.39284E-04-1.58060E-13
 -1       423 1.34159E-02 4.34131E-04-1.64157E-13
 -1       424 1.37016E-02 4.28955E-04-1.70279E-13
 -1       425 1.39872E-02 4.23769E-04-1.76434E-13
 -1       426 1.42729E-02 4.18584E-04-1.82633E-13
 -1       427 1.45586E-02 4.13410E-04-1.88874E-13
 -1       428 1.47431E-02 4.04101E-04-1.92926E-13
 -1       429 1.46927E-02 1.88500E-04-1.92111E-13
 -1       430 1.46877E-02 2.72813E-04-1.91893E-13
 -1       431 1.47154E-02 3.38460E-04-1.92412E-13
 -1       432 1.46977E-02 1.05604E-04-1.92321E-13
 -1       433 1.47027E-02 2.12673E-05-1.92522E-13
 -1       434 1.47078E-02-6.30780E-05-1.92712E-13
 -1       435 1.47128E-02-1.47429E-04-1.92898E-13
 -1       436 1.47180E-02-2.31782E-04-1.93079E-13
 -1       437 1.47231E-02-3.16133E-04-1.93249E-13
 -1       438 1.47282E-02-3.99049E-04-1.93402E-13
 -1       439 1.47334E-02-4.83385E-04-1.93541E-13
 -1       440 1.47386E-02-5.67711E-04-1.93662E-13
 -1       441 1.47439E-02-6.52024E-04-1.93773E-13
 -1       442 5.72765E-03 8.81406E-05-2.19436E-14
 -1       443 5.99763E-03-3.62250E-05-2.26699E-14
 -1       444 5.90972E-03 1.88876E-05-2.25435E-14
 -1       445 5.32378E-03 2.74585E-04-2.01972E-14
 -1       446 4.99185E-03 4.42103E-04-1.89310E-14
 -1       447 4.49729E-04-7.08345E-05-3.41741E-16
 -1       448 4.24608E-03 8.13288E-04-1.56979E-14
 -1       449 3.89987E-03 9.18768E-04-1.40713E-14
 -1       450 3.50788E-03 8.97430E-04-1.21694E-14
 -1       451 3.20161E-03 7.93499E-04-1.09238E-14
 -1       452 2.80242E-03 5.90363E-04-9.46317E-15
 -1       453 2.37230E-03 3.70256E-04-8.48887E-15
 -1       454 2.03511E-03 2.19106E-04-7.93779E-15
 -1       455 1.76158E-03 1.00651E-04-7.39667E-15
 -1       456 1.53523E-03 1.09512E-05-7.03496E-15
 -1       457 1.50515E-03-2.55415E-05-7.08698E-15
 -1       458 1.60496E-03-7.84670E-05-7.19129E-15
 -1       459 1.88871E-03-1.96358E-04-7.79208E-15
 -1       460 2.22471E-03-3.50401E-04-8.47368E-15
 -1       461 2.61794E-03-5.49623E-04-9.38536E-15
 -1       462 2.99450E-03-7.41205E-04-1.03894E-14
 -1       463 3.39998E-03-9.20642E-04-1.19467E-14
 -1       464 3.70668E-03-9.83701E-04-1.33515E-14
 -1       465 4.00650E-03-9.63270E-04-1.48783E-14
 -1       466 4.42914E-03-8.06473E-04-1.69021E-14
 -1       467 4.76250E-03-6.38875E-04-1.82999E-14
 -1       468 5.11351E-03-4.56046E-04-1.96492E-14
 -1       469 5.43296E-03-3.01771E-04-2.07342E-14
 -1       470 5.76232E-03-1.52834E-04-2.20756E-14
 -1       471 5.93588E-03-8.47484E-05-2.23703E-14
 -1       472 4.60457E-03 6.41525E-04-1.74399E-14
 -1       473 5.55753E-03 1.47238E-04-2.21448E-14
 -1       474 4.20098E-03-9.10658E-04-1.61605E-14
 -1       475 1.02317E-03 2.92692E-04-9.43134E-16
 -1       476 5.84577E-04-2.89684E-05-7.95371E-16
 -1       477 6.20271E-04-5.43585E-05-7.80036E-16
 -1       478 5.54482E-04-2.42343E-06-8.00148E-16
 -1       479 5.64794E-04 9.10698E-06-7.90936E-16
 -1       480 5.89752E-04 2.65598E-05-7.74053E-16
 -1       481 6.26097E-04 5.44342E-05-7.47734E-16
 -1       482 6.69321E-04 9.45537E-05-7.09414E-16
 -1       483 7.17123E-04 1.47795E-04-6.54611E-16
 -1       484 1.34562E-03 3.69587E-04-1.63480E-15
 -1       485 1.05783E-03-2.68506E-04-1.22998E-15
 -1       486 4.38604E-03 7.48836E-04-1.69176E-14
 -1       487 1.37650E-03-3.41959E-04-2.02609E-15
 -1       488 1.70232E-03-4.22700E-04-3.02240E-15
 -1       489 2.03746E-03-5.18789E-04-4.22015E-15
 -1       490 2.38265E-03-6.36008E-04-5.62126E-15
 -1       491 2.73482E-03-7.73495E-04-7.22914E-15
 -1       492 3.08598E-03-9.17130E-04-9.05271E-15
 -1       493 3.42729E-03-1.03563E-03-1.11019E-14
 -1       494 3.75762E-03-1.09020E-03-1.33835E-14
 -1       495 4.08690E-03-1.06028E-03-1.58956E-14
 -1       496 4.42626E-03-9.61755E-04-1.86273E-14
 -1       497 4.77645E-03-8.33664E-04-2.15635E-14
 -1       498 5.12907E-03-7.11021E-04-2.46885E-14
 -1       499 5.47531E-03-6.12285E-04-2.79859E-14
 -1       500 5.81076E-03-5.41923E-04-3.14404E-14
 -1       501 6.13517E-03-4.97166E-04-3.50478E-14
 -1       502 6.45028E-03-4.72758E-04-3.88054E-14
 -1       503 6.75823E-03-4.63305E-04-4.27106E-14
 -1       504 7.06085E-03-4.64159E-04-4.67588E-14
 -1       505 7.35950E-03-4.71652E-04-5.09481E-14
 -1       506 7.65516E-03-4.83053E-04-5.52784E-14
 -1       507 7.94851E-03-4.96426E-04-5.97454E-14
 -1       508 8.24006E-03-5.10461E-04-6.43426E-14
 -1       509 8.53019E-03-5.24322E-04-6.90649E-14
 -1       510 8.81920E-03-5.37519E-04-7.39112E-14
 -1       511 9.10734E-03-5.49798E-04-7.88785E-14
 -1       512 9.39480E-03-5.61068E-04-8.39667E-14
 -1       513 9.68174E-03-5.71340E-04-8.91656E-14
 -1       514 9.96829E-03-5.80684E-04-9.44714E-14
 -1       515 1.02545E-02-5.89203E-04-9.98804E-14
 -1       516 1.05406E-02-5.97012E-04-1.05386E-13
 -1       517 1.08265E-02-6.04225E-04-1.10978E-13
 -1       518 1.11123E-02-6.10951E-04-1.16654E-13
 -1       519 1.13980E-02-6.17284E-04-1.22401E-13
 -1       520 1.16837E-02-6.23309E-04-1.28219E-13
 -1       521 1.19694E-02-6.29095E-04-1.34100E-13
 -1       522 1.22551E-02-6.34700E-04-1.40045E-13
 -1       523 1.25407E-02-6.40171E-04-1.46061E-13
 -1       524 1.28264E-02-6.45544E-04-1.52134E-13
 -1       525 1.31121E-02-6.50849E-04-1.58248E-13
 -1       526 1.33977E-02-6.56110E-04-1.64403E-13
 -1       527 1.36834E-02-6.61343E-04-1.70591E-13
 -1       528 1.39691E-02-6.66564E-04-1.76809E-13
 -1       529 1.42548E-02-6.71783E-04-1.83043E-13
 -1       530 5.86101E-03 3.45037E-05-2.39831E-14
 -1       531 2.00485E-03 5.44261E-04-3.60916E-15
 -1       532 2.34259E-03 6.53918E-04-4.89781E-15
 -1       533 2.68281E-03 7.78056E-04-6.39088E-15
 -1       534 3.01975E-03 9.04467E-04-8.09493E-15
 -1       535 3.34769E-03 1.00932E-03-1.00185E-14
 -1       536 3.66593E-03 1.06357E-03-1.21670E-14
 -1       537 3.98152E-03 1.04910E-03-1.45436E-14
 -1       538 4.30378E-03 9.71875E-04-1.71450E-14
 -1       539 4.63662E-03 8.57809E-04-1.99599E-14
 -1       540 4.97637E-03 7.36540E-04-2.29755E-14
 -1       541 5.31638E-03 6.28699E-04-2.61789E-14
 -1       542 5.65146E-03 5.43599E-04-2.95586E-14
 -1       543 5.97924E-03 4.82244E-04-3.31038E-14
 -1       544 6.29953E-03 4.41489E-04-3.68099E-14
 -1       545 6.61311E-03 4.16791E-04-4.06727E-14
 -1       546 6.92104E-03 4.03663E-04-4.46824E-14
 -1       547 7.22432E-03 3.98293E-04-4.88275E-14
 -1       548 7.52382E-03 3.97711E-04-5.31092E-14
 -1       549 7.82024E-03 3.99746E-04-5.75253E-14
 -1       550 8.11418E-03 4.02893E-04-6.20734E-14
 -1       551 8.40611E-03 4.06164E-04-6.67432E-14
 -1       552 8.69646E-03 4.08955E-04-7.15374E-14
 -1       553 8.98556E-03 4.10937E-04-7.64552E-14
 -1       554 9.27369E-03 4.11964E-04-8.14900E-14
 -1       555 9.56108E-03 4.12012E-04-8.66350E-14
 -1       556 9.84793E-03 4.11130E-04-9.18753E-14
 -1       557 1.01344E-02 4.09409E-04-9.72114E-14
 -1       558 1.04205E-02 4.06957E-04-1.02647E-13
 -1       559 1.07065E-02 4.03887E-04-1.08184E-13
 -1       560 1.09923E-02 4.00307E-04-1.13819E-13
 -1       561 1.12780E-02 3.96315E-04-1.19547E-13
 -1       562 1.15637E-02 3.91997E-04-1.25356E-13
 -1       563 1.18493E-02 3.87424E-04-1.31234E-13
 -1       564 1.21349E-02 3.82657E-04-1.37170E-13
 -1       565 1.24205E-02 3.77746E-04-1.43155E-13
 -1       566 1.27062E-02 3.72730E-04-1.49181E-13
 -1       567 1.29918E-02 3.67639E-04-1.55236E-13
 -1       568 1.32775E-02 3.62498E-04-1.61321E-13
 -1       569 1.35631E-02 3.57326E-04-1.67430E-13
 -1       570 1.38488E-02 3.52139E-04-1.73567E-13
 -1       571 1.41345E-02 3.46948E-04-1.79742E-13
 -1       572 1.44202E-02 3.41763E-04-1.85958E-13
 -1       573 1.44527E-02 6.79265E-05-1.87029E-13
 -1       574 1.44578E-02-1.64094E-05-1.87227E-13
 -1       575 1.44428E-02 2.35140E-04-1.86599E-13
 -1       576 1.44478E-02 1.51539E-04-1.86821E-13
 -1       577 1.44628E-02-1.00752E-04-1.87416E-13
 -1       578 1.44679E-02-1.85097E-04-1.87594E-13
 -1       579 1.44731E-02-2.69443E-04-1.87765E-13
 -1       580 1.44782E-02-3.52356E-04-1.87918E-13
 -1       581 1.44834E-02-4.36692E-04-1.88055E-13
 -1       582 1.44886E-02-5.21018E-04-1.88179E-13
 -1       583 1.44938E-02-6.05334E-04-1.88291E-13
 -1       584 5.14682E-03 3.36758E-04-2.07378E-14
 -1       585 1.67247E-03 4.50964E-04-2.52273E-15
 -1       586 6.02487E-03-2.13449E-05-2.48364E-14
 -1       587 5.59347E-03-2.09734E-04-2.26575E-14
 -1       588 7.63073E-04-1.88878E-04-6.93127E-16
 -1       589 1.60442E-03 3.38828E-05-6.47926E-15
 -1       590 4.07738E-03 8.86729E-04-1.52138E-14
 -1       591 5.61431E-04-1.31835E-05-8.01798E-16
 -1       592 3.67898E-03 9.41910E-04-1.28511E-14
 -1       593 2.55000E-03 4.48680E-04-8.09621E-15
 -1       594 3.36402E-03 8.64831E-04-1.12250E-14
 -1       595 1.72894E-03-1.10147E-04-6.79349E-15
 -1       596 3.01876E-03 7.02920E-04-9.74047E-15
 -1       597 2.16527E-03 2.50809E-04-7.44303E-15
 -1       598 1.89210E-03 1.33962E-04-6.92607E-15
 -1       599 1.47190E-03-1.20219E-05-6.23130E-15
 -1       600 1.50771E-03-3.88497E-05-6.31969E-15
 -1       601 2.05835E-03-2.40491E-04-7.49574E-15
 -1       602 2.43356E-03-4.22181E-04-8.33978E-15
 -1       603 2.79281E-03-6.18087E-04-9.23788E-15
 -1       604 3.22405E-03-8.52058E-04-1.08212E-14
 -1       605 3.57125E-03-9.79755E-04-1.25594E-14
 -1       606 3.83268E-03-1.00303E-03-1.40282E-14
 -1       607 4.59745E-03-7.16466E-04-1.84680E-14
 -1       608 4.89507E-03-5.50785E-04-1.98287E-14
 -1       609 5.27700E-03-3.51485E-04-2.14308E-14
 -1       610 7.73404E-04 2.38512E-04-5.13383E-16
 -1       611 4.80978E-03 5.17785E-04-1.91697E-14
 -1       612 3.86109E-03 9.49773E-04-1.39252E-14
 -1       613 6.64074E-04-9.18447E-05-7.53714E-16
 -1       614 5.74116E-03 8.37720E-05-2.41774E-14
 -1       615 6.02871E-03-5.31658E-05-2.48200E-14
 -1       616 5.81509E-03-1.28250E-04-2.39557E-14
 -1       617 1.44480E-02-6.76987E-04-1.87276E-13
 -1       618 4.02358E-03-9.81950E-04-1.52610E-14
 -1       619 5.94969E-03-8.22742E-05-2.43896E-14
 -1       620 7.70488E-04 2.58186E-05-1.34124E-15
 -1       621 7.42462E-04 4.65275E-06-1.36108E-15
 -1       622 8.76380E-04 1.04721E-04-1.26167E-15
 -1       623 9.40773E-04 1.65922E-04-1.19522E-15
 -1       624 1.11595E-03 2.53934E-04-1.37860E-15
 -1       625 6.01726E-03 4.87325E-06-2.63805E-14
 -1       626 1.43034E-03 3.22937E-04-2.19285E-15
 -1       627 1.46835E-03 6.56951E-06-5.56249E-15
 -1       628 1.45159E-03-2.94198E-04-2.59849E-15
 -1       629 1.77287E-03-3.69779E-04-3.70295E-15
 -1       630 2.11113E-03-4.65532E-04-5.00264E-15
 -1       631 2.46821E-03-5.89684E-04-6.49985E-15
 -1       632 2.84008E-03-7.43704E-04-8.20201E-15
 -1       633 3.21265E-03-9.05031E-04-1.01227E-14
 -1       634 3.57284E-03-1.02145E-03-1.22785E-14
 -1       635 4.28046E-03-9.44943E-04-1.73084E-14
 -1       636 4.65179E-03-7.98987E-04-2.01563E-14
 -1       637 5.02370E-03-6.56588E-04-2.32015E-14
 -1       638 5.38326E-03-5.45661E-04-2.64232E-14
 -1       639 5.72349E-03-4.69817E-04-2.98049E-14
 -1       640 6.04581E-03-4.22889E-04-3.33370E-14
 -1       641 6.35460E-03-3.97373E-04-3.70189E-14
 -1       642 6.65436E-03-3.86993E-04-4.08468E-14
 -1       643 6.94851E-03-3.86945E-04-4.48242E-14
 -1       644 7.23933E-03-3.93638E-04-4.89396E-14
 -1       645 7.52823E-03-4.04428E-04-5.31948E-14
 -1       646 7.81604E-03-4.17415E-04-5.75880E-14
 -1       647 8.10319E-03-4.31279E-04-6.21140E-14
 -1       648 8.38995E-03-4.45145E-04-6.67688E-14
 -1       649 8.67645E-03-4.58471E-04-7.15463E-14
 -1       650 8.96276E-03-4.70959E-04-7.64438E-14
 -1       651 9.24894E-03-4.82478E-04-8.14646E-14
 -1       652 9.53500E-03-4.93010E-04-8.65986E-14
 -1       653 9.82098E-03-5.02606E-04-9.18416E-14
 -1       654 1.01069E-02-5.11356E-04-9.71897E-14
 -1       655 1.03928E-02-5.19370E-04-1.02639E-13
 -1       656 1.06786E-02-5.26759E-04-1.08182E-13
 -1       657 1.09644E-02-5.33631E-04-1.13809E-13
 -1       658 1.12501E-02-5.40085E-04-1.19510E-13
 -1       659 1.15359E-02-5.46206E-04-1.25284E-13
 -1       660 1.18216E-02-5.52068E-04-1.31131E-13
 -1       661 1.21073E-02-5.57731E-04-1.37041E-13
 -1       662 1.23930E-02-5.63245E-04-1.43020E-13
 -1       663 1.26788E-02-5.68650E-04-1.49062E-13
 -1       664 1.29645E-02-5.73978E-04-1.55150E-13
 -1       665 1.32502E-02-5.79252E-04-1.61272E-13
 -1       666 1.35359E-02-5.84493E-04-1.67434E-13
 -1       667 1.38216E-02-5.89716E-04-1.73625E-13
 -1       668 1.41073E-02-5.94932E-04-1.79842E-13
 -1       669 6.11032E-03-3.97084E-05-2.69211E-14
 -1       670 5.13764E-03-4.48813E-04-2.21208E-14
 -1       671 1.43006E-02-6.00131E-04-1.84061E-13
 -1       672 2.09058E-03 4.94993E-04-4.39962E-15
 -1       673 3.14889E-03 8.82293E-04-9.21280E-15
 -1       674 3.49124E-03 9.83515E-04-1.12515E-14
 -1       675 3.82343E-03 1.00961E-03-1.35237E-14
 -1       676 4.15894E-03 9.49232E-04-1.60302E-14
 -1       677 4.50654E-03 8.29653E-04-1.87596E-14
 -1       678 4.86241E-03 6.94665E-04-2.16951E-14
 -1       679 5.21571E-03 5.74577E-04-2.48216E-14
 -1       680 5.55815E-03 4.81517E-04-2.81248E-14
 -1       681 5.88707E-03 4.15443E-04-3.15954E-14
 -1       682 6.20402E-03 3.71747E-04-3.52262E-14
 -1       683 6.51173E-03 3.45034E-04-3.90156E-14
 -1       684 6.81288E-03 3.30456E-04-4.29496E-14
 -1       685 7.10952E-03 3.24080E-04-4.70262E-14
 -1       686 7.40311E-03 3.22882E-04-5.12366E-14
 -1       687 7.69460E-03 3.24634E-04-5.55843E-14
 -1       688 7.98461E-03 3.27761E-04-6.00651E-14
 -1       689 8.27353E-03 3.31204E-04-6.46708E-14
 -1       690 8.56165E-03 3.34291E-04-6.93989E-14
 -1       691 8.84916E-03 3.36633E-04-7.42520E-14
 -1       692 9.13619E-03 3.38044E-04-7.92279E-14
 -1       693 9.42286E-03 3.38467E-04-8.43160E-14
 -1       694 9.70926E-03 3.37933E-04-8.95073E-14
 -1       695 9.99545E-03 3.36522E-04-9.47928E-14
 -1       696 1.02815E-02 3.34338E-04-1.00175E-13
 -1       697 1.05674E-02 3.31493E-04-1.05654E-13
 -1       698 1.08532E-02 3.28099E-04-1.11232E-13
 -1       699 1.11390E-02 3.24256E-04-1.16906E-13
 -1       700 1.14248E-02 3.20055E-04-1.22668E-13
 -1       701 1.17105E-02 3.15574E-04-1.28507E-13
 -1       702 1.19962E-02 3.10877E-04-1.34413E-13
 -1       703 1.22819E-02 3.06017E-04-1.40371E-13
 -1       704 1.25676E-02 3.01038E-04-1.46373E-13
 -1       705 1.28533E-02 2.95973E-04-1.52412E-13
 -1       706 1.31389E-02 2.90848E-04-1.58482E-13
 -1       707 1.34246E-02 2.85686E-04-1.64581E-13
 -1       708 1.37103E-02 2.80501E-04-1.70707E-13
 -1       709 1.39960E-02 2.75307E-04-1.76862E-13
 -1       710 1.42194E-02 2.55222E-04-1.81721E-13
 -1       711 5.69999E-03-1.87912E-04-2.46685E-14
 -1       712 1.42179E-02-1.38418E-04-1.82130E-13
 -1       713 1.42078E-02 3.02595E-05-1.81756E-13
 -1       714 1.42230E-02-2.22761E-04-1.82302E-13
 -1       715 1.42128E-02-5.40769E-05-1.81949E-13
 -1       716 1.42281E-02-3.05672E-04-1.82454E-13
 -1       717 1.42333E-02-3.90009E-04-1.82592E-13
 -1       718 1.42385E-02-4.74337E-04-1.82715E-13
 -1       719 1.75441E-03 4.00775E-04-3.19931E-15
 -1       720 9.01354E-04-1.76612E-04-1.11096E-15
 -1       721 3.42389E-03-9.58007E-04-1.15136E-14
 -1       722 4.27643E-03 8.24393E-04-1.66684E-14
 -1       723 2.79541E-03 7.46141E-04-7.39910E-15
 -1       724 2.43898E-03 6.10852E-04-5.79775E-15
 -1       725 1.17194E-03-2.33189E-04-1.77749E-15
 -1       726 2.80175E-03 6.16031E-04-8.38634E-15
 -1       727 3.50447E-03 9.29446E-04-1.17033E-14
 -1       728 8.17691E-04 5.81712E-05-1.30865E-15
 -1       729 8.08340E-04-5.97856E-05-1.35167E-15
 -1       730 1.86217E-03-1.64596E-04-6.44681E-15
 -1       731 1.67713E-03 7.11880E-05-5.84050E-15
 -1       732 2.21733E-03-3.19181E-04-7.23962E-15
 -1       733 3.19326E-03 8.16925E-04-1.00394E-14
 -1       734 5.44106E-03 2.16733E-04-2.32596E-14
 -1       735 1.98272E-03 1.85464E-04-6.43672E-15
 -1       736 2.31698E-03 3.50474E-04-7.02304E-15
 -1       737 1.41596E-03-2.20036E-05-5.39996E-15
 -1       738 5.43204E-03-2.99067E-04-2.33919E-14
 -1       739 5.01098E-03 4.32287E-04-2.10989E-14
 -1       740 1.54871E-03-6.42688E-05-5.63523E-15
 -1       741 2.54874E-03-4.96971E-04-7.98085E-15
 -1       742 2.98971E-03-7.45830E-04-9.48786E-15
 -1       743 3.71609E-03-1.01562E-03-1.33108E-14
 -1       744 4.37988E-03-8.55777E-04-1.77012E-14
 -1       745 4.86925E-03-5.93090E-04-2.06802E-14
 -1       746 4.63897E-03 6.33446E-04-1.89034E-14
 -1       747 8.67271E-04-1.02993E-04-1.32236E-15
 -1       748 7.39796E-04-1.15051E-05-1.36962E-15
 -1       749 6.06676E-03-7.81602E-05-2.71880E-14
 -1       750 3.92315E-03-1.03634E-03-1.46758E-14
 -1       751 5.92652E-03-1.19824E-04-2.62587E-14
 -1       752 1.42244E-02 1.71625E-04-1.81947E-13
 -1       753 5.94381E-03 4.12422E-05-2.65764E-14
 -1       754 1.41729E-02-5.34638E-04-1.81283E-13
 -1       755 4.06285E-03 9.22493E-04-1.53000E-14
 -1       756 1.42161E-02 1.00946E-04-1.81858E-13
 -1       757 7.63339E-04-3.06190E-05-1.36678E-15
 -1       758 2.55701E-03 5.13958E-04-7.27365E-15
 -1       759 1.15430E-03 1.73590E-04-1.89238E-15
 -1       760 2.70755E-03-6.39421E-04-7.91269E-15
 -1       761 6.19814E-03-5.78269E-05-2.91875E-14
 -1       762 1.82439E-03-3.07626E-04-4.40534E-15
 -1       763 2.16415E-03-4.00938E-04-5.79633E-15
 -1       764 4.93721E-03-6.00586E-04-2.17079E-14
 -1       765 5.31256E-03-4.71363E-04-2.48584E-14
 -1       766 5.65673E-03-3.91315E-04-2.81710E-14
 -1       767 5.97476E-03-3.45826E-04-3.16311E-14
 -1       768 6.27468E-03-3.22631E-04-3.52394E-14
 -1       769 6.56398E-03-3.13714E-04-3.89931E-14
 -1       770 6.84770E-03-3.14100E-04-4.28941E-14
 -1       771 7.12899E-03-3.20520E-04-4.69385E-14
 -1       772 7.40962E-03-3.30697E-04-5.11207E-14
 -1       773 7.69050E-03-3.42996E-04-5.54407E-14
 -1       774 7.97204E-03-3.56246E-04-5.98964E-14
 -1       775 8.25434E-03-3.69634E-04-6.44806E-14
 -1       776 8.53739E-03-3.82629E-04-6.91908E-14
 -1       777 8.82109E-03-3.94913E-04-7.40211E-14
 -1       778 9.10532E-03-4.06330E-04-7.89718E-14
 -1       779 9.38998E-03-4.16833E-04-8.40423E-14
 -1       780 9.67497E-03-4.26450E-04-8.92247E-14
 -1       781 9.96020E-03-4.35251E-04-9.45118E-14
 -1       782 1.02456E-02-4.43331E-04-9.99042E-14
 -1       783 1.05311E-02-4.50792E-04-1.05394E-13
 -1       784 1.08168E-02-4.57735E-04-1.10970E-13
 -1       785 1.11025E-02-4.64254E-04-1.16623E-13
 -1       786 1.13882E-02-4.70434E-04-1.22358E-13
 -1       787 1.16739E-02-4.76345E-04-1.28165E-13
 -1       788 1.19597E-02-4.82050E-04-1.34039E-13
 -1       789 1.22454E-02-4.87598E-04-1.39982E-13
 -1       790 1.25312E-02-4.93030E-04-1.45990E-13
 -1       791 1.28170E-02-4.98378E-04-1.52051E-13
 -1       792 1.31027E-02-5.03668E-04-1.58149E-13
 -1       793 1.33884E-02-5.08918E-04-1.64280E-13
 -1       794 1.36742E-02-5.14145E-04-1.70451E-13
 -1       795 1.39236E-02-5.24393E-04-1.75859E-13
 -1       796 1.33737E-03-5.20998E-06-4.58452E-15
 -1       797 5.83944E-03-1.83870E-04-2.69769E-14
 -1       798 4.36949E-03 8.19985E-04-1.75315E-14
 -1       799 4.74569E-03 6.62993E-04-2.03876E-14
 -1       800 5.11689E-03 5.23775E-04-2.34405E-14
 -1       801 5.47100E-03 4.21037E-04-2.66708E-14
 -1       802 5.80259E-03 3.51647E-04-3.00693E-14
 -1       803 6.11706E-03 3.07177E-04-3.36266E-14
 -1       804 6.41898E-03 2.80307E-04-3.73397E-14
 -1       805 6.71294E-03 2.65452E-04-4.12042E-14
 -1       806 7.00227E-03 2.58610E-04-4.52098E-14
 -1       807 7.28910E-03 2.56877E-04-4.93506E-14
 -1       808 7.57472E-03 2.58150E-04-5.36286E-14
 -1       809 7.85985E-03 2.60923E-04-5.80433E-14
 -1       810 8.14487E-03 2.64159E-04-6.25857E-14
 -1       811 8.42994E-03 2.67171E-04-6.72488E-14
 -1       812 8.71513E-03 2.69544E-04-7.20361E-14
 -1       813 9.00046E-03 2.71057E-04-7.69508E-14
 -1       814 9.28590E-03 2.71627E-04-8.19822E-14
 -1       815 9.57144E-03 2.71261E-04-8.71225E-14
 -1       816 9.85705E-03 2.70021E-04-9.23595E-14
 -1       817 1.01427E-02 2.68000E-04-9.76919E-14
 -1       818 1.04284E-02 2.65304E-04-1.03119E-13
 -1       819 1.07141E-02 2.62040E-04-1.08641E-13
 -1       820 1.09999E-02 2.58309E-04-1.14262E-13
 -1       821 1.12856E-02 2.54201E-04-1.19973E-13
 -1       822 1.15714E-02 2.49795E-04-1.25770E-13
 -1       823 1.18571E-02 2.45159E-04-1.31640E-13
 -1       824 1.21428E-02 2.40346E-04-1.37570E-13
 -1       825 1.24286E-02 2.35403E-04-1.43548E-13
 -1       826 1.27143E-02 2.30364E-04-1.49566E-13
 -1       827 1.30000E-02 2.25258E-04-1.55622E-13
 -1       828 1.32858E-02 2.20107E-04-1.61709E-13
 -1       829 1.35715E-02 2.14929E-04-1.67826E-13
 -1       830 1.38572E-02 2.09736E-04-1.73968E-13
 -1       831 1.40408E-02 1.90681E-04-1.77951E-13
 -1       832 1.39781E-02-2.59707E-04-1.77013E-13
 -1       833 1.39730E-02-1.75366E-04-1.76856E-13
 -1       834 1.28949E-03 2.43234E-04-2.04759E-15
 -1       835 6.17752E-03-1.72159E-05-2.89446E-14
 -1       836 9.40143E-04 1.83005E-05-2.05321E-15
 -1       837 5.61077E-03-2.71599E-04-2.56515E-14
 -1       838 2.01624E-03 2.53653E-04-5.73221E-15
 -1       839 1.73072E-03 1.30287E-04-5.18330E-15
 -1       840 5.71017E-03 1.35548E-04-2.56196E-14
 -1       841 1.39833E-02-3.44044E-04-1.77154E-13
 -1       842 1.39885E-02-4.28375E-04-1.77278E-13
 -1       843 4.85800E-03 5.65955E-04-2.08803E-14
 -1       844 1.51068E-03-2.40704E-04-3.20192E-15
 -1       845 1.46439E-03 3.50692E-05-4.79635E-15
 -1       846 5.31494E-03 3.33096E-04-2.38212E-14
 -1       847 2.16651E-03 4.36125E-04-5.21423E-15
 -1       848 1.36617E-03-3.82986E-05-4.55039E-15
 -1       849 1.65619E-03-1.16878E-04-5.36480E-15
 -1       850 2.28186E-03-3.90623E-04-6.76683E-15
 -1       851 1.95557E-03-2.32902E-04-6.01200E-15
 -1       852 6.08566E-03-1.18376E-04-2.89866E-14
 -1       853 9.16762E-04-4.77478E-06-2.07287E-15
 -1       854 1.60186E-03 3.08064E-04-3.01876E-15
 -1       855 1.07164E-03 1.04994E-04-1.96576E-15
 -1       856 6.14522E-03 9.61518E-06-2.91513E-14
 -1       857 1.39629E-02-7.40346E-06-1.76498E-13
 -1       858 9.82973E-04-5.77717E-05-2.06761E-15
 -1       859 1.39679E-02-9.13834E-05-1.76682E-13
 -1       860 9.96111E-04 5.34054E-05-2.01840E-15
 -1       861 1.87751E-03 3.64635E-04-4.04238E-15
 -1       862 1.24094E-03-1.89612E-04-2.28600E-15
 -1       863 5.60070E-03 2.39523E-04-2.61963E-14
 -1       864 1.39711E-02 6.32845E-05-1.76605E-13
 -1       865 1.05750E-03-1.05003E-04-2.04044E-15
 -1       866 5.52085E-03-3.43446E-04-2.57573E-14
 -1       867 1.41571E-03-7.23887E-05-4.30142E-15
 -1       868 1.39560E-02-4.76386E-04-1.76571E-13
 -1       869 1.87691E-03-2.60646E-04-5.11468E-15
 -1       870 5.93329E-03-2.62646E-04-2.99334E-14
 -1       871 6.21613E-03-2.45777E-04-3.34688E-14
 -1       872 6.48930E-03-2.41071E-04-3.71480E-14
 -1       873 6.75882E-03-2.43509E-04-4.09739E-14
 -1       874 7.02802E-03-2.50382E-04-4.49457E-14
 -1       875 7.29857E-03-2.60076E-04-4.90565E-14
 -1       876 7.57115E-03-2.71452E-04-5.33029E-14
 -1       877 7.84594E-03-2.83654E-04-5.76874E-14
 -1       878 8.12285E-03-2.96046E-04-6.22027E-14
 -1       879 8.40164E-03-3.08178E-04-6.68450E-14
 -1       880 8.68204E-03-3.19760E-04-7.16088E-14
 -1       881 8.96375E-03-3.30631E-04-7.64938E-14
 -1       882 9.24652E-03-3.40724E-04-8.15002E-14
 -1       883 9.53012E-03-3.50044E-04-8.66207E-14
 -1       884 9.81435E-03-3.58637E-04-9.18467E-14
 -1       885 1.00991E-02-3.66577E-04-9.71795E-14
 -1       886 1.03841E-02-3.73949E-04-1.02614E-13
 -1       887 1.06694E-02-3.80839E-04-1.08141E-13
 -1       888 1.09549E-02-3.87331E-04-1.13748E-13
 -1       889 1.12406E-02-3.93500E-04-1.19432E-13
 -1       890 1.15263E-02-3.99413E-04-1.25201E-13
 -1       891 1.18120E-02-4.05125E-04-1.31039E-13
 -1       892 1.20978E-02-4.10684E-04-1.36945E-13
 -1       893 1.23836E-02-4.16128E-04-1.42917E-13
 -1       894 1.26693E-02-4.21488E-04-1.48949E-13
 -1       895 1.29551E-02-4.26787E-04-1.55026E-13
 -1       896 1.32409E-02-4.32046E-04-1.61136E-13
 -1       897 1.35267E-02-4.37278E-04-1.67279E-13
 -1       898 9.32155E-04-2.68240E-05-2.07789E-15
 -1       899 2.30506E-03 4.11767E-04-6.28160E-15
 -1       900 5.74732E-03 2.72119E-04-2.85637E-14
 -1       901 6.05476E-03 2.31650E-04-3.20515E-14
 -1       902 6.34640E-03 2.08475E-04-3.56937E-14
 -1       903 6.62950E-03 1.95910E-04-3.94829E-14
 -1       904 6.90855E-03 1.90045E-04-4.34178E-14
 -1       905 7.18622E-03 1.88399E-04-4.74900E-14
 -1       906 7.46398E-03 1.89270E-04-5.16999E-14
 -1       907 7.74256E-03 1.91447E-04-5.60479E-14
 -1       908 8.02225E-03 1.94068E-04-6.05256E-14
 -1       909 8.30308E-03 1.96541E-04-6.51253E-14
 -1       910 8.58497E-03 1.98483E-04-6.98489E-14
 -1       911 8.86776E-03 1.99676E-04-7.46993E-14
 -1       912 9.15131E-03 2.00024E-04-7.96726E-14
 -1       913 9.43547E-03 1.99515E-04-8.47589E-14
 -1       914 9.72009E-03 1.98193E-04-8.99465E-14
 -1       915 1.00051E-02 1.96134E-04-9.52284E-14
 -1       916 1.02903E-02 1.93430E-04-1.00607E-13
 -1       917 1.05757E-02 1.90177E-04-1.06082E-13
 -1       918 1.08613E-02 1.86467E-04-1.11647E-13
 -1       919 1.11469E-02 1.82386E-04-1.17306E-13
 -1       920 1.14326E-02 1.78009E-04-1.23056E-13
 -1       921 1.17184E-02 1.73401E-04-1.28887E-13
 -1       922 1.20042E-02 1.68614E-04-1.34782E-13
 -1       923 1.22899E-02 1.63692E-04-1.40735E-13
 -1       924 1.25757E-02 1.58672E-04-1.46736E-13
 -1       925 1.28615E-02 1.53582E-04-1.52773E-13
 -1       926 1.31472E-02 1.48442E-04-1.58848E-13
 -1       927 1.34330E-02 1.43270E-04-1.64954E-13
 -1       928 1.37187E-02 1.38080E-04-1.71083E-13
 -1       929 1.37384E-02-3.81698E-04-1.71857E-13
 -1       930 1.37280E-02-2.13028E-04-1.71592E-13
 -1       931 1.44983E-03 2.24080E-04-2.82863E-15
 -1       932 1.74747E-03 1.96010E-04-4.56513E-15
 -1       933 6.32771E-03-3.81711E-05-3.16468E-14
 -1       934 5.97607E-03 9.00442E-05-2.86221E-14
 -1       935 1.37332E-02-2.97365E-04-1.71733E-13
 -1       936 1.54386E-03-1.80953E-04-3.83274E-15
 -1       937 1.62791E-03-1.46469E-04-4.70475E-15
 -1       938 1.27985E-03 1.58191E-05-3.85677E-15
 -1       939 1.18965E-03-1.70406E-05-3.52405E-15
 -1       940 1.46887E-03 7.90251E-05-4.14565E-15
 -1       941 1.40060E-02 1.26985E-04-1.77284E-13
 -1       942 6.29304E-03-9.09551E-05-3.16697E-14
 -1       943 6.32556E-03-1.43162E-05-3.18699E-14
 -1       944 1.23012E-03-9.85307E-05-2.89839E-15
 -1       945 1.37230E-02-1.29046E-04-1.71434E-13
 -1       946 1.37413E-02-4.56834E-04-1.71916E-13
 -1       947 2.00147E-03 3.19782E-04-5.04742E-15
 -1       948 1.15681E-03 4.02966E-05-2.86886E-15
 -1       949 1.37179E-02-4.50665E-05-1.71256E-13
 -1       950 1.14043E-03-4.89752E-05-2.91851E-15
 -1       951 1.37262E-02 2.56228E-05-1.71367E-13
 -1       952 6.13454E-03-1.79851E-04-3.12134E-14
 -1       953 6.42890E-03-1.72483E-04-3.53105E-14
 -1       954 6.67909E-03-1.77696E-04-3.90608E-14
 -1       955 6.93340E-03-1.85258E-04-4.29578E-14
 -1       956 7.19226E-03-1.94384E-04-4.69980E-14
 -1       957 7.45559E-03-2.04527E-04-5.11747E-14
 -1       958 7.72301E-03-2.15232E-04-5.54875E-14
 -1       959 7.99404E-03-2.26112E-04-5.99330E-14
 -1       960 8.26816E-03-2.36848E-04-6.45088E-14
 -1       961 8.54489E-03-2.47210E-04-6.92084E-14
 -1       962 8.82375E-03-2.57057E-04-7.40277E-14
 -1       963 9.10434E-03-2.66317E-04-7.89689E-14
 -1       964 9.38630E-03-2.74976E-04-8.40292E-14
 -1       965 9.66931E-03-2.83057E-04-8.91964E-14
 -1       966 9.95314E-03-2.90608E-04-9.44691E-14
 -1       967 1.02376E-02-2.97690E-04-9.98450E-14
 -1       968 1.05225E-02-3.04369E-04-1.05321E-13
 -1       969 1.08077E-02-3.10711E-04-1.10882E-13
 -1       970 1.10931E-02-3.16776E-04-1.16520E-13
 -1       971 1.13787E-02-3.22620E-04-1.22240E-13
 -1       972 1.16644E-02-3.28289E-04-1.28040E-13
 -1       973 1.19502E-02-3.33823E-04-1.33908E-13
 -1       974 1.22360E-02-3.39253E-04-1.39846E-13
 -1       975 1.25218E-02-3.44608E-04-1.45846E-13
 -1       976 1.28076E-02-3.49908E-04-1.51900E-13
 -1       977 1.30934E-02-3.55169E-04-1.57992E-13
 -1       978 1.33791E-02-3.60404E-04-1.64115E-13
 -1       979 6.29173E-03 1.37062E-04-3.40508E-14
 -1       980 1.44103E-03 1.32273E-04-3.44662E-15
 -1       981 6.01833E-03 1.53584E-04-3.04776E-14
 -1       982 6.82402E-03 1.25046E-04-4.16279E-14
 -1       983 7.09039E-03 1.23973E-04-4.56324E-14
 -1       984 7.35887E-03 1.24484E-04-4.97738E-14
 -1       985 7.62988E-03 1.25829E-04-5.40537E-14
 -1       986 7.90343E-03 1.27443E-04-5.84668E-14
 -1       987 8.17936E-03 1.28913E-04-6.30033E-14
 -1       988 8.45736E-03 1.29948E-04-6.76646E-14
 -1       989 8.73714E-03 1.30367E-04-7.24516E-14
 -1       990 9.01838E-03 1.30084E-04-7.73657E-14
 -1       991 9.30079E-03 1.29078E-04-8.23938E-14
 -1       992 9.58413E-03 1.27374E-04-8.75276E-14
 -1       993 9.86818E-03 1.25031E-04-9.27610E-14
 -1       994 1.01528E-02 1.22121E-04-9.80941E-14
 -1       995 1.04377E-02 1.18722E-04-1.03520E-13
 -1       996 1.07230E-02 1.14914E-04-1.09039E-13
 -1       997 1.10085E-02 1.10769E-04-1.14647E-13
 -1       998 1.12941E-02 1.06353E-04-1.20344E-13
 -1       999 1.15798E-02 1.01723E-04-1.26136E-13
 -1      1000 1.18655E-02 9.69275E-05-1.31994E-13
 -1      1001 1.21513E-02 9.20051E-05-1.37917E-13
 -1      1002 1.24371E-02 8.69884E-05-1.43897E-13
 -1      1003 1.27229E-02 8.19031E-05-1.49920E-13
 -1      1004 1.30087E-02 7.67694E-05-1.55980E-13
 -1      1005 1.32945E-02 7.16032E-05-1.62072E-13
 -1      1006 1.08413E-03 4.20157E-06-2.84294E-15
 -1      1007 6.23452E-03 4.77996E-05-3.16375E-14
 -1      1008 1.68946E-03 2.57034E-04-3.76786E-15
 -1      1009 6.39725E-03-1.39463E-04-3.42833E-14
 -1      1010 6.46794E-03-6.76073E-05-3.43193E-14
 -1      1011 6.55861E-03 1.28811E-04-3.77660E-14
 -1      1012 1.34747E-02-1.30322E-06-1.65998E-13
 -1      1013 1.34780E-02-1.66529E-04-1.66190E-13
 -1      1014 1.35802E-02 6.64166E-05-1.68192E-13
 -1      1015 1.34763E-02-8.39150E-05-1.66102E-13
 -1      1016 1.34831E-02-2.50863E-04-1.66333E-13
 -1      1017 6.48689E-03-4.26767E-05-3.45629E-14
 -1      1018 6.84068E-03-1.26173E-04-4.09782E-14
 -1      1019 7.08696E-03-1.34147E-04-4.49445E-14
 -1      1020 7.34078E-03-1.42525E-04-4.90520E-14
 -1      1021 7.60080E-03-1.51229E-04-5.32936E-14
 -1      1022 7.86598E-03-1.60077E-04-5.76713E-14
 -1      1023 8.13547E-03-1.68901E-04-6.21787E-14
 -1      1024 8.40853E-03-1.77539E-04-6.68132E-14
 -1      1025 8.68452E-03-1.85886E-04-7.15701E-14
 -1      1026 8.96286E-03-1.93880E-04-7.64473E-14
 -1      1027 9.24310E-03-2.01494E-04-8.14457E-14
 -1      1028 9.52482E-03-2.08731E-04-8.65569E-14
 -1      1029 9.80768E-03-2.15613E-04-9.17697E-14
 -1      1030 1.00914E-02-2.22174E-04-9.70858E-14
 -1      1031 1.03758E-02-2.28456E-04-1.02506E-13
 -1      1032 1.06607E-02-2.34500E-04-1.08022E-13
 -1      1033 1.09459E-02-2.40347E-04-1.13613E-13
 -1      1034 1.12313E-02-2.46033E-04-1.19285E-13
 -1      1035 1.15169E-02-2.51592E-04-1.25040E-13
 -1      1036 1.18026E-02-2.57051E-04-1.30875E-13
 -1      1037 1.20884E-02-2.62434E-04-1.36777E-13
 -1      1038 1.23742E-02-2.67759E-04-1.42744E-13
 -1      1039 1.26600E-02-2.73043E-04-1.48771E-13
 -1      1040 1.29458E-02-2.78296E-04-1.54840E-13
 -1      1041 1.32316E-02-2.83528E-04-1.60944E-13
 -1      1042 7.51976E-03 6.45002E-05-5.20625E-14
 -1      1043 7.25700E-03 6.43168E-05-4.78506E-14
 -1      1044 6.99902E-03 6.43489E-05-4.37784E-14
 -1      1045 7.78675E-03 6.46909E-05-5.64080E-14
 -1      1046 8.05746E-03 6.46850E-05-6.08834E-14
 -1      1047 8.33133E-03 6.43256E-05-6.54857E-14
 -1      1048 8.60787E-03 6.35003E-05-7.02105E-14
 -1      1049 8.88659E-03 6.21491E-05-7.50630E-14
 -1      1050 9.16707E-03 6.02545E-05-8.00338E-14
 -1      1051 9.44895E-03 5.78316E-05-8.51130E-14
 -1      1052 9.73191E-03 5.49183E-05-9.02966E-14
 -1      1053 1.00157E-02 5.15657E-05-9.55774E-14
 -1      1054 1.03001E-02 4.78313E-05-1.00959E-13
 -1      1055 1.05850E-02 4.37732E-05-1.06434E-13
 -1      1056 1.08702E-02 3.94468E-05-1.11998E-13
 -1      1057 1.11557E-02 3.49024E-05-1.17649E-13
 -1      1058 1.14413E-02 3.01841E-05-1.23388E-13
 -1      1059 1.17270E-02 2.53297E-05-1.29210E-13
 -1      1060 1.20127E-02 2.03707E-05-1.35097E-13
 -1      1061 1.22985E-02 1.53329E-05-1.41053E-13
 -1      1062 1.25844E-02 1.02369E-05-1.47056E-13
 -1      1063 1.28702E-02 5.09924E-06-1.53105E-13
 -1      1064 1.31560E-02-6.72810E-08-1.59187E-13
 -1      1065 6.57383E-03-1.18169E-04-3.66765E-14
 -1      1066 6.46642E-03 4.59257E-05-3.52540E-14
 -1      1067 6.48933E-03-1.93606E-06-3.49210E-14
 -1      1068 6.74613E-03 6.48682E-05-3.98446E-14
 -1      1069 1.32296E-02-1.19829E-04-1.60843E-13
 -1      1070 6.68806E-03-6.86694E-05-3.80769E-14
 -1      1071 1.32306E-02-2.01679E-04-1.60903E-13
 -1      1072 6.75655E-03 1.45356E-05-3.95039E-14
 -1      1073 7.22242E-03-8.53110E-05-4.69348E-14
 -1      1074 7.47603E-03-9.14815E-05-5.11080E-14
 -1      1075 7.73622E-03-9.78099E-05-5.54161E-14
 -1      1076 8.00164E-03-1.04299E-04-5.98546E-14
 -1      1077 8.27150E-03-1.10769E-04-6.44243E-14
 -1      1078 8.54494E-03-1.17193E-04-6.91184E-14
 -1      1079 8.82127E-03-1.23521E-04-7.39340E-14
 -1      1080 9.09993E-03-1.29725E-04-7.88710E-14
 -1      1081 9.38044E-03-1.35791E-04-8.39228E-14
 -1      1082 9.66238E-03-1.41720E-04-8.90812E-14
 -1      1083 9.94543E-03-1.47521E-04-9.43402E-14
 -1      1084 1.02293E-02-1.53205E-04-9.97025E-14
 -1      1085 1.05138E-02-1.58788E-04-1.05165E-13
 -1      1086 1.07988E-02-1.64286E-04-1.10712E-13
 -1      1087 1.10841E-02-1.69713E-04-1.16342E-13
 -1      1088 1.13696E-02-1.75083E-04-1.22054E-13
 -1      1089 1.16552E-02-1.80409E-04-1.27845E-13
 -1      1090 1.19409E-02-1.85699E-04-1.33713E-13
 -1      1091 1.22267E-02-1.90963E-04-1.39647E-13
 -1      1092 1.25125E-02-1.96208E-04-1.45644E-13
 -1      1093 1.27984E-02-2.01438E-04-1.51694E-13
 -1      1094 1.30145E-02-2.01561E-04-1.56290E-13
 -1      1095 7.93558E-03 4.01383E-06-5.87640E-14
 -1      1096 7.66995E-03 5.98207E-06-5.43523E-14
 -1      1097 7.15473E-03 9.20057E-06-4.59321E-14
 -1      1098 8.20548E-03 1.79174E-06-6.33051E-14
 -1      1099 8.47889E-03-7.31850E-07-6.79714E-14
 -1      1100 8.75515E-03-3.57859E-06-7.27611E-14
 -1      1101 9.03372E-03-6.75305E-06-7.76731E-14
 -1      1102 9.31414E-03-1.02444E-05-8.26985E-14
 -1      1103 9.59600E-03-1.40304E-05-8.78311E-14
 -1      1104 9.87898E-03-1.80813E-05-9.30640E-14
 -1      1105 1.01628E-02-2.23640E-05-9.83975E-14
 -1      1106 1.04473E-02-2.68445E-05-1.03829E-13
 -1      1107 1.07322E-02-3.14902E-05-1.09352E-13
 -1      1108 1.10174E-02-3.62710E-05-1.14959E-13
 -1      1109 1.13029E-02-4.11604E-05-1.20656E-13
 -1      1110 1.15885E-02-4.61356E-05-1.26432E-13
 -1      1111 1.18743E-02-5.11771E-05-1.32285E-13
 -1      1112 1.21600E-02-5.62693E-05-1.38206E-13
 -1      1113 1.24459E-02-6.13992E-05-1.44189E-13
 -1      1114 1.27317E-02-6.65565E-05-1.50219E-13
 -1      1115 1.30175E-02-7.17333E-05-1.56292E-13
 -1      1116 6.95277E-03 1.18808E-05-4.26718E-14
 -1      1117 7.40928E-03 7.68677E-06-5.00752E-14
 -1      1118 6.97687E-03-7.95113E-05-4.28999E-14
 -1      1119 6.65613E-03-1.58616E-05-3.76051E-14
 -1      1120 1.30160E-02-1.36648E-04-1.56296E-13
 -1      1121 7.19437E-03-3.82079E-05-4.64450E-14
 -1      1122 7.60148E-03-3.87974E-05-5.31641E-14
 -1      1123 7.39561E-03-3.85409E-05-4.97614E-14
 -1      1124 0.00000E+00 0.00000E+00 0.00000E+00
 -1      1125 0.00000E+00 0.00000E+00 0.00000E+00
 -1      1126 0.00000E+00 0.00000E+00 0.00000E+00
 -1      1127 0.00000E+00 0.00000E+00 0.00000E+00
 -1      1128 0.00000E+00 0.00000E+00 0.00000E+00
 -1      1129 0.00000E+00 0.00000E+00 0.00000E+00
 -1      1130 0.00000E+00 0.00000E+00 0.00000E+00
 -1      1131 0.00000E+00 0.00000E+00 0.00000E+00
 -1      1132 0.00000E+00 0.00000E+00 0.00000E+00
 -1      1133 0.00000E+00 0.00000E+00 0.00000E+00
 -1      1134 0.00000E+00 0.00000E+00 0.00000E+00
 -1      1135 0.00000E+00 0.00000E+00 0.00000E+00
 -1      1136 0.00000E+00 0.00000E+00 0.00000E+00
 -1      1137 0.00000E+00 0.00000E+00 0.00000E+00
 -1      1138 0.00000E+00 0.00000E+00 0.00000E+00
 -1      1139 0.00000E+00 0.00000E+00 0.00000E+00
 -1      1140 0.00000E+00 0.00000E+00 0.00000E+00
 -1      1141 2.26168E-04-1.45474E-04 2.66985E-17
 -1      1142 6.07159E-04-3.18347E-04-5.46980E-17
 -1      1143 9.42750E-04-4.30331E-04-3.34720E-16
 -1      1144 1.27706E-03-5.17963E-04-8.47101E-16
 -1      1145 1.61558E-03-6.01268E-04-1.58180E-15
 -1      1146 1.95848E-03-6.91803E-04-2.53618E-15
 -1      1147 2.30203E-03-7.96335E-04-3.71152E-15
 -1      1148 2.63890E-03-9.16162E-04-5.10728E-15
 -1      1149 2.95979E-03-1.04472E-03-6.72430E-15
 -1      1150 3.25696E-03-1.16611E-03-8.56498E-15
 -1      1151 3.52914E-03-1.25778E-03-1.06335E-14
 -1      1152 3.78470E-03-1.29863E-03-1.29272E-14
 -1      1153 4.03982E-03-1.27930E-03-1.54412E-14
 -1      1154 4.31139E-03-1.20745E-03-1.81662E-14
 -1      1155 4.60934E-03-1.10396E-03-2.10887E-14
 -1      1156 4.93373E-03-9.93081E-04-2.42001E-14
 -1      1157 5.27728E-03-8.93601E-04-2.74883E-14
 -1      1158 5.63016E-03-8.15399E-04-3.09468E-14
 -1      1159 5.98367E-03-7.60644E-04-3.45625E-14
 -1      1160 6.33187E-03-7.26842E-04-3.83307E-14
 -1      1161 6.67164E-03-7.09603E-04-4.22485E-14
 -1      1162 7.00197E-03-7.04368E-04-4.63086E-14
 -1      1163 7.32317E-03-7.07219E-04-5.05087E-14
 -1      1164 7.63627E-03-7.15116E-04-5.48571E-14
 -1      1165 7.94254E-03-7.25853E-04-5.93448E-14
 -1      1166 8.24329E-03-7.37914E-04-6.39640E-14
 -1      1167 8.53970E-03-7.50306E-04-6.87090E-14
 -1      1168 8.83278E-03-7.62419E-04-7.35776E-14
 -1      1169 9.12337E-03-7.73910E-04-7.85769E-14
 -1      1170 9.41216E-03-7.84616E-04-8.36967E-14
 -1      1171 9.69965E-03-7.94494E-04-8.89257E-14
 -1      1172 9.98625E-03-8.03572E-04-9.42658E-14
 -1      1173 1.02723E-02-8.11917E-04-9.97116E-14
 -1      1174 1.05579E-02-8.19619E-04-1.05253E-13
 -1      1175 1.08433E-02-8.26774E-04-1.10878E-13
 -1      1176 1.11286E-02-8.33473E-04-1.16588E-13
 -1      1177 1.14138E-02-8.39801E-04-1.22365E-13
 -1      1178 1.16991E-02-8.45834E-04-1.28202E-13
 -1      1179 1.19844E-02-8.51635E-04-1.34094E-13
 -1      1180 1.22697E-02-8.57260E-04-1.40043E-13
 -1      1181 1.25551E-02-8.62751E-04-1.46064E-13
 -1      1182 1.28406E-02-8.68144E-04-1.52162E-13
 -1      1183 1.31261E-02-8.73468E-04-1.58321E-13
 -1      1184 1.34117E-02-8.78746E-04-1.64523E-13
 -1      1185 1.36972E-02-8.83995E-04-1.70751E-13
 -1      1186 1.39829E-02-8.89229E-04-1.76999E-13
 -1      1187 1.42685E-02-8.94461E-04-1.83259E-13
 -1      1188 1.45542E-02-8.99700E-04-1.89526E-13
 -1      1189 1.48399E-02-9.04952E-04-1.95806E-13
 -1      1190 1.51185E-02-9.10087E-04-2.01959E-13
 -1      1191 2.43047E-04 1.58401E-04 4.50893E-17
 -1      1192 6.07652E-04 3.24252E-04-1.13841E-18
 -1      1193 9.40184E-04 4.34719E-04-2.35204E-16
 -1      1194 1.27158E-03 5.22201E-04-6.82302E-16
 -1      1195 1.60615E-03 6.04862E-04-1.34299E-15
 -1      1196 1.94391E-03 6.93353E-04-2.21592E-15
 -1      1197 2.28119E-03 7.93628E-04-3.30121E-15
 -1      1198 2.61117E-03 9.06336E-04-4.59951E-15
 -1      1199 2.92556E-03 1.02490E-03-6.10964E-15
 -1      1200 3.21784E-03 1.13461E-03-7.83477E-15
 -1      1201 3.48738E-03 1.21530E-03-9.78331E-15
 -1      1202 3.74204E-03 1.24847E-03-1.19555E-14
 -1      1203 3.99636E-03 1.22599E-03-1.43515E-14
 -1      1204 4.26551E-03 1.15458E-03-1.69654E-14
 -1      1205 4.55875E-03 1.05263E-03-1.97886E-14
 -1      1206 4.87671E-03 9.41904E-04-2.28189E-14
 -1      1207 5.21331E-03 8.39800E-04-2.60370E-14
 -1      1208 5.55980E-03 7.56049E-04-2.94347E-14
 -1      1209 5.90807E-03 6.93410E-04-3.30063E-14
 -1      1210 6.25234E-03 6.50182E-04-3.67476E-14
 -1      1211 6.58935E-03 6.22651E-04-4.06471E-14
 -1      1212 6.91785E-03 6.06723E-04-4.46870E-14
 -1      1213 7.23790E-03 5.98752E-04-4.88655E-14
 -1      1214 7.55029E-03 5.95836E-04-5.31856E-14
 -1      1215 7.85616E-03 5.95825E-04-5.76393E-14
 -1      1216 8.15668E-03 5.97214E-04-6.22213E-14
 -1      1217 8.45297E-03 5.99005E-04-6.69285E-14
 -1      1218 8.74600E-03 6.00575E-04-7.17552E-14
 -1      1219 9.03658E-03 6.01565E-04-7.67054E-14
 -1      1220 9.32536E-03 6.01802E-04-8.17766E-14
 -1      1221 9.61286E-03 6.01231E-04-8.69517E-14
 -1      1222 9.89947E-03 5.99874E-04-9.22222E-14
 -1      1223 1.01855E-02 5.97795E-04-9.75944E-14
 -1      1224 1.04711E-02 5.95078E-04-1.03066E-13
 -1      1225 1.07565E-02 5.91817E-04-1.08642E-13
 -1      1226 1.10418E-02 5.88102E-04-1.14316E-13
 -1      1227 1.13271E-02 5.84018E-04-1.20083E-13
 -1      1228 1.16123E-02 5.79639E-04-1.25940E-13
 -1      1229 1.18976E-02 5.75030E-04-1.31859E-13
 -1      1230 1.21830E-02 5.70243E-04-1.37817E-13
 -1      1231 1.24684E-02 5.65323E-04-1.43817E-13
 -1      1232 1.27538E-02 5.60305E-04-1.49861E-13
 -1      1233 1.30393E-02 5.55218E-04-1.55928E-13
 -1      1234 1.33249E-02 5.50084E-04-1.62015E-13
 -1      1235 1.36105E-02 5.44922E-04-1.68127E-13
 -1      1236 1.38961E-02 5.39745E-04-1.74274E-13
 -1      1237 1.41818E-02 5.34566E-04-1.80466E-13
 -1      1238 1.44675E-02 5.29394E-04-1.86707E-13
 -1      1239 1.47532E-02 5.24235E-04-1.92982E-13
 -1      1240 1.50318E-02 5.19219E-04-1.99104E-13
 -1      1241 1.51700E-02 4.74635E-04-2.02191E-13
 -1      1242 1.51750E-02 3.90350E-04-2.02416E-13
 -1      1243 1.51801E-02 3.06058E-04-2.02635E-13
 -1      1244 1.51851E-02 2.21750E-04-2.02844E-13
 -1      1245 1.51901E-02 1.37423E-04-2.03051E-13
 -1      1246 1.51951E-02 5.37906E-05-2.03233E-13
 -1      1247 1.52001E-02-2.98592E-05-2.03409E-13
 -1      1248 1.52052E-02-1.14237E-04-2.03592E-13
 -1      1249 1.52103E-02-1.98622E-04-2.03786E-13
 -1      1250 1.52154E-02-2.83007E-04-2.03978E-13
 -1      1251 1.52206E-02-3.67384E-04-2.04140E-13
 -1      1252 1.52257E-02-4.51034E-04-2.04301E-13
 -1      1253 1.52309E-02-5.34666E-04-2.04460E-13
 -1      1254 1.52361E-02-6.18993E-04-2.04601E-13
 -1      1255 1.52413E-02-7.03300E-04-2.04733E-13
 -1      1256 1.52465E-02-7.87592E-04-2.04839E-13
 -1      1257 1.52517E-02-8.71163E-04-2.04928E-13
 -1      1258 5.97292E-03 4.31357E-05-1.95873E-14
 -1      1259 5.85959E-03 1.88936E-04-1.92673E-14
 -1      1260 5.64504E-03 3.39198E-04-1.86864E-14
 -1      1261 5.34804E-03 4.90768E-04-1.78691E-14
 -1      1262 4.99819E-03 6.30042E-04-1.68967E-14
 -1      1263 4.58983E-03 7.51252E-04-1.57557E-14
 -1      1264 4.15098E-03 8.30752E-04-1.45349E-14
 -1      1265 3.69115E-03 8.53785E-04-1.32808E-14
 -1      1266 3.24647E-03 8.18676E-04-1.21206E-14
 -1      1267 2.81116E-03 7.27455E-04-1.10528E-14
 -1      1268 2.39266E-03 5.93943E-04-1.01003E-14
 -1      1269 2.05104E-03 4.50559E-04-9.38247E-15
 -1      1270 1.78664E-03 3.07457E-04-8.86406E-15
 -1      1271 1.59514E-03 1.58497E-04-8.51215E-15
 -1      1272 1.50903E-03 1.43668E-05-8.37419E-15
 -1      1273 1.53392E-03-1.21138E-04-8.44236E-15
 -1      1274 1.66998E-03-2.68065E-04-8.72088E-15
 -1      1275 1.91514E-03-4.26201E-04-9.22380E-15
 -1      1276 2.23766E-03-5.80547E-04-9.91106E-15
 -1      1277 2.62022E-03-7.22848E-04-1.07805E-14
 -1      1278 3.04410E-03-8.36566E-04-1.18121E-14
 -1      1279 3.47171E-03-9.03775E-04-1.29146E-14
 -1      1280 3.89266E-03-9.16278E-04-1.40446E-14
 -1      1281 4.34612E-03-8.68238E-04-1.52908E-14
 -1      1282 4.77143E-03-7.72298E-04-1.64684E-14
 -1      1283 5.12692E-03-6.53752E-04-1.74394E-14
 -1      1284 5.43828E-03-5.20609E-04-1.82706E-14
 -1      1285 5.70150E-03-3.77296E-04-1.89506E-14
 -1      1286 5.88863E-03-2.34408E-04-1.94136E-14
 -1      1287 5.97981E-03-9.99525E-05-1.96281E-14
 -1      1288 1.83529E-04-1.03180E-04-5.73272E-18
 -1      1289 1.24029E-04-4.27204E-05-4.41135E-17
 -1      1290 1.30609E-04-5.60649E-05-3.35290E-17
 -1      1291 1.15606E-04-2.51327E-05-6.15149E-17
 -1      1292 1.19670E-04-3.28096E-05-5.62159E-17
 -1      1293 2.48485E-04-7.85685E-05-1.32313E-16
 -1      1294 1.09095E-04-1.35452E-05-7.12456E-17
 -1      1295 1.12438E-04-1.87587E-05-6.83861E-17
 -1      1296 2.31647E-04-4.74399E-05-1.63620E-16
 -1      1297 1.03303E-04-5.90367E-06-7.70868E-17
 -1      1298 1.06233E-04-9.36878E-06-7.55689E-17
 -1      1299 2.17839E-04-2.63419E-05-1.82200E-16
 -1      1300 9.83893E-05-1.51230E-06-8.04207E-17
 -1      1301 1.00807E-04-3.49937E-06-7.96346E-17
 -1      1302 2.05737E-04-1.24913E-05-1.93313E-16
 -1      1303 9.45550E-05 3.15314E-07-8.25349E-17
 -1      1304 9.63445E-05-5.31497E-07-8.20741E-17
 -1      1305 1.95504E-04-4.43744E-06-1.99954E-16
 -1      1306 9.23263E-05 2.59863E-07-8.31719E-17
 -1      1307 9.32404E-05 1.80635E-07-8.31176E-17
 -1      1308 1.87949E-04-1.01878E-06-2.03464E-16
 -1      1309 9.19966E-05-5.90937E-07-8.29821E-17
 -1      1310 9.19189E-05-4.46852E-07-8.32125E-17
 -1      1311 1.84080E-04-6.69003E-07-2.04413E-16
 -1      1312 9.35935E-05-9.97431E-07-8.15862E-17
 -1      1313 9.25473E-05-1.21489E-06-8.20741E-17
 -1      1314 1.84424E-04-1.21174E-06-2.02854E-16
 -1      1315 9.68690E-05 1.74444E-07-7.92687E-17
 -1      1316 9.50084E-05-9.09528E-07-8.01496E-17
 -1      1317 1.88877E-04-3.14423E-07-1.98883E-16
 -1      1318 1.01317E-04 3.67392E-06-7.56095E-17
 -1      1319 9.89057E-05 1.42833E-06-7.68564E-17
 -1      1320 1.96670E-04 3.98458E-06-1.92446E-16
 -1      1321 1.06679E-04 1.01423E-05-7.00801E-17
 -1      1322 1.03816E-04 6.41987E-06-7.20723E-17
 -1      1323 2.06872E-04 1.30776E-05-1.82742E-16
 -1      1324 1.12662E-04 2.00172E-05-6.11897E-17
 -1      1325 1.09432E-04 1.45968E-05-6.45913E-17
 -1      1326 2.18767E-04 2.80584E-05-1.68065E-16
 -1      1327 1.19578E-04 3.43587E-05-4.72306E-17
 -1      1328 1.15664E-04 2.65736E-05-5.33563E-17
 -1      1329 2.32042E-04 5.00172E-05-1.45663E-16
 -1      1330 1.29527E-04 5.68926E-05-2.40151E-17
 -1      1331 1.23455E-04 4.42972E-05-3.52095E-17
 -1      1332 2.48140E-04 8.18572E-05-1.11578E-16
 -1      1333 1.72197E-04 1.04890E-04 1.25632E-17
 -1      1334 1.50617E-04 7.72321E-05-1.05032E-17
 -1      1335 2.85359E-04 1.31606E-04-7.04189E-17
 -1      1336 3.68954E-04 2.07303E-04-1.03541E-17
 -1      1337 4.68603E-04-2.40769E-04-8.06104E-17
 -1      1338 6.44321E-04-3.07543E-04-1.73716E-16
 -1      1339 8.16238E-04-3.62708E-04-3.27144E-16
 -1      1340 9.86201E-04-4.10041E-04-5.36423E-16
 -1      1341 6.90641E-04-2.92140E-04-3.10461E-16
 -1      1342 1.15506E-03-4.53502E-04-7.99125E-16
 -1      1343 1.32358E-03-4.94645E-04-1.11688E-15
 -1      1344 1.03202E-03-3.88360E-04-7.44318E-16
 -1      1345 1.49237E-03-5.35978E-04-1.48885E-15
 -1      1346 1.66158E-03-5.78339E-04-1.91562E-15
 -1      1347 1.36875E-03-4.71404E-04-1.39203E-15
 -1      1348 1.83126E-03-6.23394E-04-2.39643E-15
 -1      1349 2.00109E-03-6.71644E-04-2.93166E-15
 -1      1350 1.70515E-03-5.56332E-04-2.25389E-15
 -1      1351 2.17068E-03-7.24047E-04-3.52100E-15
 -1      1352 2.33933E-03-7.80579E-04-4.16499E-15
 -1      1353 2.04217E-03-6.52965E-04-3.32964E-15
 -1      1354 2.50634E-03-8.41243E-04-4.86332E-15
 -1      1355 2.67083E-03-9.05133E-04-5.61699E-15
 -1      1356 2.37792E-03-7.66480E-04-4.62038E-15
 -1      1357 2.83202E-03-9.70901E-04-6.42561E-15
 -1      1358 2.98918E-03-1.03651E-03-7.28944E-15
 -1      1359 2.70836E-03-8.95268E-04-6.12767E-15
 -1      1360 3.14185E-03-1.09919E-03-8.20958E-15
 -1      1361 3.28991E-03-1.15606E-03-9.18596E-15
 -1      1362 3.02864E-03-1.02805E-03-7.85475E-15
 -1      1363 3.43362E-03-1.20370E-03-1.02184E-14
 -1      1364 3.57383E-03-1.23938E-03-1.13082E-14
 -1      1365 3.33560E-03-1.14354E-03-9.80524E-15
 -1      1366 3.71161E-03-1.26059E-03-1.24533E-14
 -1      1367 3.84860E-03-1.26610E-03-1.36540E-14
 -1      1368 3.63061E-03-1.21610E-03-1.19807E-14
 -1      1369 3.98627E-03-1.25575E-03-1.49102E-14
 -1      1370 4.12632E-03-1.23054E-03-1.62200E-14
 -1      1371 3.92059E-03-1.22715E-03-1.43804E-14
 -1      1372 4.26994E-03-1.19278E-03-1.75811E-14
 -1      1373 4.41811E-03-1.14519E-03-1.89929E-14
 -1      1374 4.21534E-03-1.17552E-03-1.69979E-14
 -1      1375 4.57122E-03-1.09130E-03-2.04541E-14
 -1      1376 4.72928E-03-1.03422E-03-2.19637E-14
 -1      1377 4.52246E-03-1.07848E-03-1.98208E-14
 -1      1378 4.89189E-03-9.77057E-04-2.35199E-14
 -1      1379 5.05833E-03-9.22220E-04-2.51200E-14
 -1      1380 4.84409E-03-9.62566E-04-2.28396E-14
 -1      1381 5.22779E-03-8.71520E-04-2.67637E-14
 -1      1382 5.39932E-03-8.26243E-04-2.84510E-14
 -1      1383 5.17729E-03-8.51736E-04-2.60412E-14
 -1      1384 5.57204E-03-7.86893E-04-3.01793E-14
 -1      1385 5.74511E-03-7.53828E-04-3.19465E-14
 -1      1386 5.51672E-03-7.60726E-04-2.94133E-14
 -1      1387 5.91785E-03-7.26698E-04-3.37537E-14
 -1      1388 6.08966E-03-7.05302E-04-3.55995E-14
 -1      1389 5.85705E-03-6.94728E-04-3.29473E-14
 -1      1390 6.26014E-03-6.88924E-04-3.74818E-14
 -1      1391 6.42895E-03-6.77116E-04-3.94017E-14
 -1      1392 6.19425E-03-6.52473E-04-3.66348E-14
 -1      1393 6.59590E-03-6.69128E-04-4.13589E-14
 -1      1394 6.76087E-03-6.64456E-04-4.33530E-14
 -1      1395 6.52586E-03-6.29627E-04-4.04727E-14
 -1      1396 6.92383E-03-6.62471E-04-4.53819E-14
 -1      1397 7.08481E-03-6.62713E-04-4.74444E-14
 -1      1398 6.85074E-03-6.21145E-04-4.44560E-14
 -1      1399 7.24387E-03-6.64715E-04-4.95457E-14
 -1      1400 7.40110E-03-6.68096E-04-5.16815E-14
 -1      1401 7.16875E-03-6.22483E-04-4.85833E-14
 -1      1402 7.55663E-03-6.72538E-04-5.38527E-14
 -1      1403 7.71059E-03-6.77747E-04-5.60601E-14
 -1      1404 7.48033E-03-6.30032E-04-5.28518E-14
 -1      1405 7.86311E-03-6.83523E-04-5.83015E-14
 -1      1406 8.01432E-03-6.89645E-04-6.05770E-14
 -1      1407 7.78623E-03-6.41137E-04-5.72625E-14
 -1      1408 8.16437E-03-6.95999E-04-6.28860E-14
 -1      1409 8.31336E-03-7.02429E-04-6.52241E-14
 -1      1410 8.08733E-03-6.53958E-04-6.18084E-14
 -1      1411 8.46143E-03-7.08876E-04-6.75944E-14
 -1      1412 8.60867E-03-7.15234E-04-6.99955E-14
 -1      1413 8.38452E-03-6.67286E-04-6.64834E-14
 -1      1414 8.75520E-03-7.21480E-04-7.24293E-14
 -1      1415 8.90111E-03-7.27546E-04-7.48937E-14
 -1      1416 8.67858E-03-6.80372E-04-7.12822E-14
 -1      1417 9.04647E-03-7.33431E-04-7.73895E-14
 -1      1418 9.19137E-03-7.39095E-04-7.99178E-14
 -1      1419 8.97022E-03-6.92790E-04-7.62077E-14
 -1      1420 9.33587E-03-7.44550E-04-8.24745E-14
 -1      1421 9.48003E-03-7.49772E-04-8.50582E-14
 -1      1422 9.26000E-03-7.04335E-04-8.12545E-14
 -1      1423 9.62390E-03-7.54782E-04-8.76712E-14
 -1      1424 9.76753E-03-7.59570E-04-9.03108E-14
 -1      1425 9.54840E-03-7.14940E-04-8.64185E-14
 -1      1426 9.91096E-03-7.64157E-04-9.29783E-14
 -1      1427 1.00542E-02-7.68541E-04-9.56718E-14
 -1      1428 9.83580E-03-7.24632E-04-9.16933E-14
 -1      1429 1.01973E-02-7.72745E-04-9.83903E-14
 -1      1430 1.03404E-02-7.76772E-04-1.01133E-13
 -1      1431 1.01225E-02-7.33483E-04-9.70728E-14
 -1      1432 1.04833E-02-7.80643E-04-1.03900E-13
 -1      1433 1.06261E-02-7.84363E-04-1.06688E-13
 -1      1434 1.04087E-02-7.41593E-04-1.02551E-13
 -1      1435 1.07689E-02-7.87951E-04-1.09498E-13
 -1      1436 1.09117E-02-7.91414E-04-1.12328E-13
 -1      1437 1.06946E-02-7.49070E-04-1.08120E-13
 -1      1438 1.10544E-02-7.94769E-04-1.15179E-13
 -1      1439 1.11971E-02-7.98022E-04-1.18048E-13
 -1      1440 1.09802E-02-7.56019E-04-1.13774E-13
 -1      1441 1.13398E-02-8.01187E-04-1.20935E-13
 -1      1442 1.14825E-02-8.04272E-04-1.23836E-13
 -1      1443 1.12657E-02-7.62538E-04-1.19507E-13
 -1      1444 1.16252E-02-8.07287E-04-1.26751E-13
 -1      1445 1.17679E-02-8.10239E-04-1.29684E-13
 -1      1446 1.15512E-02-7.68713E-04-1.25306E-13
 -1      1447 1.19106E-02-8.13137E-04-1.32629E-13
 -1      1448 1.20533E-02-8.15987E-04-1.35587E-13
 -1      1449 1.18367E-02-7.74619E-04-1.31163E-13
 -1      1450 1.21960E-02-8.18796E-04-1.38563E-13
 -1      1451 1.23387E-02-8.21568E-04-1.41555E-13
 -1      1452 1.21221E-02-7.80318E-04-1.37082E-13
 -1      1453 1.24814E-02-8.24310E-04-1.44565E-13
 -1      1454 1.26241E-02-8.27026E-04-1.47593E-13
 -1      1455 1.24076E-02-7.85860E-04-1.43066E-13
 -1      1456 1.27669E-02-8.29719E-04-1.50640E-13
 -1      1457 1.29096E-02-8.32393E-04-1.53700E-13
 -1      1458 1.26931E-02-7.91287E-04-1.49121E-13
 -1      1459 1.30524E-02-8.35052E-04-1.56773E-13
 -1      1460 1.31952E-02-8.37698E-04-1.59861E-13
 -1      1461 1.29787E-02-7.96631E-04-1.55234E-13
 -1      1462 1.33380E-02-8.40333E-04-1.62957E-13
 -1      1463 1.34808E-02-8.42961E-04-1.66058E-13
 -1      1464 1.32643E-02-8.01919E-04-1.61395E-13
 -1      1465 1.36236E-02-8.45583E-04-1.69168E-13
 -1      1466 1.37664E-02-8.48201E-04-1.72286E-13
 -1      1467 1.35499E-02-8.07171E-04-1.67594E-13
 -1      1468 1.39092E-02-8.50816E-04-1.75409E-13
 -1      1469 1.40520E-02-8.53430E-04-1.78531E-13
 -1      1470 1.38355E-02-8.12403E-04-1.73819E-13
 -1      1471 1.41949E-02-8.56044E-04-1.81659E-13
 -1      1472 1.43377E-02-8.58659E-04-1.84791E-13
 -1      1473 1.41212E-02-8.17628E-04-1.80065E-13
 -1      1474 1.44805E-02-8.61277E-04-1.87925E-13
 -1      1475 1.46234E-02-8.63898E-04-1.91060E-13
 -1      1476 1.44068E-02-8.22856E-04-1.86322E-13
 -1      1477 1.47662E-02-8.66524E-04-1.94202E-13
 -1      1478 1.49091E-02-8.69153E-04-1.97350E-13
 -1      1479 1.46925E-02-8.28097E-04-1.92596E-13
 -1      1480 1.51160E-02-8.68658E-04-2.01921E-13
 -1      1481 1.50423E-02-8.30226E-04-2.00306E-13
 -1      1482 7.20341E-04 3.43267E-04-1.50054E-16
 -1      1483 5.47386E-04 2.81612E-04-5.35731E-17
 -1      1484 4.97116E-04 2.39723E-04-9.80661E-17
 -1      1485 1.05784E-03 4.39746E-04-4.99953E-16
 -1      1486 8.89977E-04 3.94171E-04-2.99091E-16
 -1      1487 8.41110E-04 3.53026E-04-3.51918E-16
 -1      1488 1.39189E-03 5.22902E-04-1.05674E-15
 -1      1489 1.22482E-03 4.82020E-04-7.52003E-16
 -1      1490 1.17756E-03 4.41586E-04-8.11336E-16
 -1      1491 1.72661E-03 6.06811E-04-1.82402E-15
 -1      1492 1.55901E-03 5.64270E-04-1.41398E-15
 -1      1493 1.51134E-03 5.23690E-04-1.47587E-15
 -1      1494 2.06173E-03 7.00135E-04-2.80138E-15
 -1      1495 1.89423E-03 6.52105E-04-2.28630E-15
 -1      1496 1.84489E-03 6.10963E-04-2.34749E-15
 -1      1497 2.39372E-03 8.06967E-04-3.98953E-15
 -1      1498 2.22843E-03 7.52028E-04-3.36908E-15
 -1      1499 2.17755E-03 7.10436E-04-3.42776E-15
 -1      1500 2.71695E-03 9.25166E-04-5.38884E-15
 -1      1501 2.55685E-03 8.65270E-04-4.66257E-15
 -1      1502 2.50615E-03 8.23931E-04-4.71758E-15
 -1      1503 3.02562E-03 1.04434E-03-7.00182E-15
 -1      1504 2.87345E-03 9.85716E-04-6.16839E-15
 -1      1505 2.82613E-03 9.45848E-04-6.21847E-15
 -1      1506 3.31675E-03 1.14607E-03-8.83245E-15
 -1      1507 3.17342E-03 1.09868E-03-7.88945E-15
 -1      1508 3.13353E-03 1.06166E-03-7.93422E-15
 -1      1509 3.59281E-03 1.20886E-03-1.08874E-14
 -1      1510 3.45625E-03 1.18335E-03-9.83220E-15
 -1      1511 3.42751E-03 1.15004E-03-9.87117E-15
 -1      1512 3.86241E-03 1.21710E-03-1.31646E-14
 -1      1513 3.72766E-03 1.22002E-03-1.19976E-14
 -1      1514 3.71213E-03 1.19014E-03-1.20305E-14
 -1      1515 4.13725E-03 1.16915E-03-1.56646E-14
 -1      1516 3.99840E-03 1.19940E-03-1.43870E-14
 -1      1517 3.99580E-03 1.17154E-03-1.44131E-14
 -1      1518 4.42713E-03 1.07855E-03-1.83777E-14
 -1      1519 4.27984E-03 1.12780E-03-1.69950E-14
 -1      1520 4.28763E-03 1.10009E-03-1.70152E-14
 -1      1521 4.73612E-03 9.67376E-04-2.12991E-14
 -1      1522 4.57921E-03 1.02411E-03-1.98127E-14
 -1      1523 4.59335E-03 9.95109E-04-1.98281E-14
 -1      1524 5.06220E-03 8.56884E-04-2.44181E-14
 -1      1525 4.89733E-03 9.11035E-04-2.28352E-14
 -1      1526 4.91349E-03 8.80127E-04-2.28444E-14
 -1      1527 5.39955E-03 7.61390E-04-2.77214E-14
 -1      1528 5.22991E-03 8.06789E-04-2.60475E-14
 -1      1529 5.24447E-03 7.74086E-04-2.60501E-14
 -1      1530 5.74143E-03 6.87088E-04-3.11993E-14
 -1      1531 5.57034E-03 7.21538E-04-2.94384E-14
 -1      1532 5.58100E-03 6.87532E-04-2.94358E-14
 -1      1533 6.08220E-03 6.34107E-04-3.48475E-14
 -1      1534 5.91226E-03 6.58117E-04-3.30025E-14
 -1      1535 5.91807E-03 6.23386E-04-3.29925E-14
 -1      1536 6.41807E-03 5.99302E-04-3.86608E-14
 -1      1537 6.25093E-03 6.14703E-04-3.67336E-14
 -1      1538 6.25194E-03 5.79742E-04-3.67148E-14
 -1      1539 6.74708E-03 5.78432E-04-4.26212E-14
 -1      1540 6.58352E-03 5.87393E-04-4.06228E-14
 -1      1541 6.58035E-03 5.52560E-04-4.05937E-14
 -1      1542 7.06863E-03 5.67413E-04-4.67245E-14
 -1      1543 6.90879E-03 5.71917E-04-4.46557E-14
 -1      1544 6.90231E-03 5.37431E-04-4.46192E-14
 -1      1545 7.38300E-03 5.62851E-04-5.09654E-14
 -1      1546 7.22667E-03 5.64500E-04-4.88285E-14
 -1      1547 7.21774E-03 5.30470E-04-4.87850E-14
 -1      1548 7.69097E-03 5.62163E-04-5.53461E-14
 -1      1549 7.53773E-03 5.62150E-04-5.31387E-14
 -1      1550 7.52710E-03 5.28607E-04-5.30878E-14
 -1      1551 7.99353E-03 5.63503E-04-5.98560E-14
 -1      1552 7.84286E-03 5.62667E-04-5.75849E-14
 -1      1553 7.83114E-03 5.29593E-04-5.75244E-14
 -1      1554 8.29165E-03 5.65621E-04-6.44923E-14
 -1      1555 8.14308E-03 5.64522E-04-6.21584E-14
 -1      1556 8.13071E-03 5.31871E-04-6.20916E-14
 -1      1557 8.58626E-03 5.67717E-04-6.92554E-14
 -1      1558 8.43934E-03 5.66707E-04-6.68582E-14
 -1      1559 8.42665E-03 5.34421E-04-6.67841E-14
 -1      1560 8.87817E-03 5.69318E-04-7.41342E-14
 -1      1561 8.73250E-03 5.68599E-04-7.16802E-14
 -1      1562 8.71971E-03 5.36618E-04-7.15979E-14
 -1      1563 9.16803E-03 5.70173E-04-7.91393E-14
 -1      1564 9.02331E-03 5.69848E-04-7.66219E-14
 -1      1565 9.01056E-03 5.38114E-04-7.65340E-14
 -1      1566 9.45639E-03 5.70184E-04-8.42547E-14
 -1      1567 9.31236E-03 5.70286E-04-8.16835E-14
 -1      1568 9.29973E-03 5.38749E-04-8.15865E-14
 -1      1569 9.74367E-03 5.69349E-04-8.94694E-14
 -1      1570 9.60014E-03 5.69871E-04-8.68490E-14
 -1      1571 9.58766E-03 5.38486E-04-8.67446E-14
 -1      1572 1.00302E-02 5.67720E-04-9.47839E-14
 -1      1573 9.88701E-03 5.68629E-04-9.21149E-14
 -1      1574 9.87471E-03 5.37361E-04-9.20023E-14
 -1      1575 1.03162E-02 5.65383E-04-1.00200E-13
 -1      1576 1.01733E-02 5.66635E-04-9.74798E-14
 -1      1577 1.01611E-02 5.35453E-04-9.73615E-14
 -1      1578 1.06019E-02 5.62433E-04-1.05715E-13
 -1      1579 1.04591E-02 5.63979E-04-1.02944E-13
 -1      1580 1.04471E-02 5.32861E-04-1.02819E-13
 -1      1581 1.08874E-02 5.58969E-04-1.11334E-13
 -1      1582 1.07447E-02 5.60760E-04-1.08511E-13
 -1      1583 1.07329E-02 5.29687E-04-1.08378E-13
 -1      1584 1.11728E-02 5.55083E-04-1.17046E-13
 -1      1585 1.10301E-02 5.57074E-04-1.14179E-13
 -1      1586 1.10184E-02 5.26032E-04-1.14037E-13
 -1      1587 1.14582E-02 5.50857E-04-1.22849E-13
 -1      1588 1.13155E-02 5.53008E-04-1.19937E-13
 -1      1589 1.13039E-02 5.21987E-04-1.19788E-13
 -1      1590 1.17435E-02 5.46364E-04-1.28730E-13
 -1      1591 1.16008E-02 5.48640E-04-1.25781E-13
 -1      1592 1.15893E-02 5.17632E-04-1.25621E-13
 -1      1593 1.20289E-02 5.41663E-04-1.34662E-13
 -1      1594 1.18862E-02 5.44036E-04-1.31690E-13
 -1      1595 1.18748E-02 5.13036E-04-1.31519E-13
 -1      1596 1.23143E-02 5.36806E-04-1.40636E-13
 -1      1597 1.21716E-02 5.39251E-04-1.37645E-13
 -1      1598 1.21602E-02 5.08255E-04-1.37469E-13
 -1      1599 1.25998E-02 5.31832E-04-1.46656E-13
 -1      1600 1.24570E-02 5.34331E-04-1.43639E-13
 -1      1601 1.24457E-02 5.03336E-04-1.43463E-13
 -1      1602 1.28853E-02 5.26774E-04-1.52708E-13
 -1      1603 1.27425E-02 5.29312E-04-1.49680E-13
 -1      1604 1.27312E-02 4.98316E-04-1.49496E-13
 -1      1605 1.31708E-02 5.21659E-04-1.58785E-13
 -1      1606 1.30281E-02 5.24222E-04-1.55742E-13
 -1      1607 1.30168E-02 4.93225E-04-1.55558E-13
 -1      1608 1.34564E-02 5.16506E-04-1.64883E-13
 -1      1609 1.33136E-02 5.19086E-04-1.61831E-13
 -1      1610 1.33023E-02 4.88086E-04-1.61645E-13
 -1      1611 1.37420E-02 5.11331E-04-1.71010E-13
 -1      1612 1.35992E-02 5.13920E-04-1.67944E-13
 -1      1613 1.35880E-02 4.82918E-04-1.67757E-13
 -1      1614 1.40277E-02 5.06149E-04-1.77179E-13
 -1      1615 1.38849E-02 5.08741E-04-1.74090E-13
 -1      1616 1.38736E-02 4.77735E-04-1.73903E-13
 -1      1617 1.43134E-02 5.00969E-04-1.83390E-13
 -1      1618 1.41705E-02 5.03558E-04-1.80279E-13
 -1      1619 1.41593E-02 4.72550E-04-1.80088E-13
 -1      1620 1.45991E-02 4.95800E-04-1.89642E-13
 -1      1621 1.44562E-02 4.98383E-04-1.86512E-13
 -1      1622 1.44450E-02 4.67373E-04-1.86316E-13
 -1      1623 1.48848E-02 4.90647E-04-1.95915E-13
 -1      1624 1.47419E-02 4.93222E-04-1.92777E-13
 -1      1625 1.47307E-02 4.62209E-04-1.92575E-13
 -1      1626 1.50343E-02 4.77076E-04-1.99213E-13
 -1      1627 1.50526E-02 3.71499E-04-1.99755E-13
 -1      1628 1.50501E-02 4.13644E-04-1.99644E-13
 -1      1629 1.50576E-02 2.87200E-04-1.99973E-13
 -1      1630 1.50551E-02 3.29351E-04-1.99865E-13
 -1      1631 1.49301E-02 3.52650E-04-1.97095E-13
 -1      1632 1.50626E-02 2.02887E-04-2.00183E-13
 -1      1633 1.50601E-02 2.45045E-04-2.00078E-13
 -1      1634 1.49352E-02 2.68347E-04-1.97313E-13
 -1      1635 1.50677E-02 1.18557E-04-2.00390E-13
 -1      1636 1.50652E-02 1.60724E-04-2.00290E-13
 -1      1637 1.49402E-02 1.84030E-04-1.97527E-13
 -1      1638 1.50726E-02 3.56409E-05-2.00574E-13
 -1      1639 1.50701E-02 7.71008E-05-2.00482E-13
 -1      1640 1.49452E-02 1.00414E-04-1.97730E-13
 -1      1641 1.50777E-02-4.87186E-05-2.00757E-13
 -1      1642 1.50751E-02-6.53736E-06-2.00667E-13
 -1      1643 1.49501E-02 1.67852E-05-1.97921E-13
 -1      1644 1.50827E-02-1.33088E-04-2.00944E-13
 -1      1645 1.50802E-02-9.09023E-05-2.00848E-13
 -1      1646 1.49552E-02-6.75696E-05-1.98107E-13
 -1      1647 1.50879E-02-2.17461E-04-2.01133E-13
 -1      1648 1.50853E-02-1.75274E-04-2.01039E-13
 -1      1649 1.49603E-02-1.51932E-04-1.98293E-13
 -1      1650 1.50930E-02-3.01833E-04-2.01315E-13
 -1      1651 1.50904E-02-2.59648E-04-2.01227E-13
 -1      1652 1.49654E-02-2.36296E-04-1.98479E-13
 -1      1653 1.50982E-02-3.86198E-04-2.01475E-13
 -1      1654 1.50956E-02-3.44017E-04-2.01397E-13
 -1      1655 1.49706E-02-3.20658E-04-1.98651E-13
 -1      1656 1.51033E-02-4.69121E-04-2.01629E-13
 -1      1657 1.51007E-02-4.27661E-04-2.01551E-13
 -1      1658 1.49757E-02-4.04297E-04-1.98808E-13
 -1      1659 1.51085E-02-5.53459E-04-2.01775E-13
 -1      1660 1.51059E-02-5.11292E-04-2.01707E-13
 -1      1661 1.49809E-02-4.87926E-04-1.98956E-13
 -1      1662 1.51137E-02-6.37780E-04-2.01909E-13
 -1      1663 1.51111E-02-5.95621E-04-2.01844E-13
 -1      1664 1.49861E-02-5.72257E-04-1.99093E-13
 -1      1665 1.51189E-02-7.22085E-04-2.02028E-13
 -1      1666 1.51163E-02-6.79934E-04-2.01971E-13
 -1      1667 1.49913E-02-6.56573E-04-1.99217E-13
 -1      1668 1.50819E-02-7.97230E-04-2.01194E-13
 -1      1669 1.50793E-02-7.55083E-04-2.01147E-13
 -1      1670 1.49543E-02-7.31727E-04-1.98393E-13
 -1      1671 1.48750E-02-7.97726E-04-1.96627E-13
 -1      1672 5.96472E-03 3.79664E-05-2.02373E-14
 -1      1673 6.00133E-03-7.61635E-06-2.03384E-14
 -1      1674 5.80384E-03 1.50820E-04-1.97374E-14
 -1      1675 5.88975E-03 9.99504E-05-1.99571E-14
 -1      1676 5.51292E-03 2.77495E-04-1.91408E-14
 -1      1677 5.65996E-03 2.06218E-04-1.95288E-14
 -1      1678 5.18744E-03 4.56517E-04-1.80623E-14
 -1      1679 5.34437E-03 3.81873E-04-1.85042E-14
 -1      1680 4.80985E-03 6.28666E-04-1.69310E-14
 -1      1681 4.99050E-03 5.48028E-04-1.74779E-14
 -1      1682 4.40928E-03 7.83986E-04-1.56463E-14
 -1      1683 4.59541E-03 7.16370E-04-1.62507E-14
 -1      1684 4.00926E-03 8.83423E-04-1.43120E-14
 -1      1685 4.19008E-03 8.46874E-04-1.49315E-14
 -1      1686 3.60754E-03 9.01190E-04-1.29423E-14
 -1      1687 3.79053E-03 9.06411E-04-1.35684E-14
 -1      1688 3.21997E-03 8.24979E-04-1.17575E-14
 -1      1689 3.39182E-03 8.66462E-04-1.22770E-14
 -1      1690 2.81535E-03 6.77746E-04-1.06072E-14
 -1      1691 3.01117E-03 7.55691E-04-1.11236E-14
 -1      1692 2.40710E-03 4.95176E-04-9.65699E-15
 -1      1693 2.58988E-03 5.79679E-04-1.00613E-14
 -1      1694 2.04873E-03 3.37863E-04-8.99806E-15
 -1      1695 2.20035E-03 4.09942E-04-9.28565E-15
 -1      1696 1.76460E-03 1.98696E-04-8.50484E-15
 -1      1697 1.88730E-03 2.59939E-04-8.71123E-15
 -1      1698 1.56032E-03 7.06880E-05-8.13064E-15
 -1      1699 1.64390E-03 1.21175E-04-8.25270E-15
 -1      1700 1.48924E-03-1.79038E-05-8.09785E-15
 -1      1701 1.50442E-03 2.30295E-05-8.11137E-15
 -1      1702 1.54866E-03-1.09768E-04-8.21229E-15
 -1      1703 1.50567E-03-6.65176E-05-8.13487E-15
 -1      1704 1.74648E-03-2.21619E-04-8.51840E-15
 -1      1705 1.63716E-03-1.63164E-04-8.32827E-15
 -1      1706 2.04853E-03-3.82152E-04-9.12234E-15
 -1      1707 1.89704E-03-3.08240E-04-8.83570E-15
 -1      1708 2.41380E-03-5.55565E-04-9.87806E-15
 -1      1709 2.24006E-03-4.73474E-04-9.50550E-15
 -1      1710 2.81305E-03-7.33225E-04-1.08368E-14
 -1      1711 2.62529E-03-6.51911E-04-1.03678E-14
 -1      1712 3.22386E-03-8.79098E-04-1.19393E-14
 -1      1713 3.04196E-03-8.16800E-04-1.14051E-14
 -1      1714 3.59393E-03-9.54857E-04-1.31390E-14
 -1      1715 3.42440E-03-9.28669E-04-1.25924E-14
 -1      1716 3.96129E-03-9.53717E-04-1.43724E-14
 -1      1717 3.79189E-03-9.64145E-04-1.37979E-14
 -1      1718 4.36680E-03-8.64551E-04-1.58081E-14
 -1      1719 4.17086E-03-9.20873E-04-1.51356E-14
 -1      1720 4.75886E-03-7.21435E-04-1.69939E-14
 -1      1721 4.59389E-03-7.88636E-04-1.64775E-14
 -1      1722 5.11265E-03-5.63670E-04-1.80417E-14
 -1      1723 4.95052E-03-6.38379E-04-1.75743E-14
 -1      1724 5.43569E-03-4.09990E-04-1.89245E-14
 -1      1725 5.29177E-03-4.79282E-04-1.85442E-14
 -1      1726 5.72033E-03-2.58237E-04-1.97240E-14
 -1      1727 5.59168E-03-3.22423E-04-1.94116E-14
 -1      1728 5.91829E-03-1.52186E-04-2.00996E-14
 -1      1729 5.84267E-03-2.00249E-04-1.99295E-14
 -1      1730 6.00408E-03-5.79067E-05-2.03242E-14
 -1      1731 5.97832E-03-9.83018E-05-2.02757E-14
 -1      1732 5.02673E-03 4.63872E-04-1.81188E-14
 -1      1733 5.39023E-03 2.70508E-04-1.93603E-14
 -1      1734 1.50230E-02 4.46062E-04-1.99007E-13
 -1      1735 1.49006E-02 4.27216E-04-1.96346E-13
 -1      1736 5.93075E-03 3.45521E-05-2.07386E-14
 -1      1737 5.70781E-03 1.29066E-04-2.02350E-14
 -1      1738 6.01247E-03-3.26716E-05-2.10127E-14
 -1      1739 4.64035E-03 6.57305E-04-1.68329E-14
 -1      1740 4.25265E-03 8.25281E-04-1.54222E-14
 -1      1741 3.88094E-03 9.21205E-04-1.39565E-14
 -1      1742 3.53122E-03 9.08160E-04-1.25552E-14
 -1      1743 3.15963E-03 7.93480E-04-1.12706E-14
 -1      1744 2.77034E-03 6.06710E-04-1.01185E-14
 -1      1745 2.36571E-03 4.08451E-04-9.23396E-15
 -1      1746 2.00382E-03 2.44669E-04-8.60005E-15
 -1      1747 1.71403E-03 1.09105E-04-8.07908E-15
 -1      1748 1.52877E-03 2.60956E-05-7.82267E-15
 -1      1749 1.48875E-03-3.46587E-05-7.84223E-15
 -1      1750 1.59676E-03-1.02241E-04-7.98580E-15
 -1      1751 1.84423E-03-2.09720E-04-8.39691E-15
 -1      1752 2.19089E-03-3.75799E-04-9.07450E-15
 -1      1753 2.58278E-03-5.70161E-04-9.92080E-15
 -1      1754 2.99038E-03-7.66494E-04-1.09547E-14
 -1      1755 3.35944E-03-9.18820E-04-1.21552E-14
 -1      1756 3.70076E-03-9.85675E-04-1.34594E-14
 -1      1757 4.04863E-03-9.57939E-04-1.48821E-14
 -1      1758 4.41267E-03-8.30253E-04-1.63313E-14
 -1      1759 4.79214E-03-6.54882E-04-1.75993E-14
 -1      1760 5.14547E-03-4.77209E-04-1.87029E-14
 -1      1761 5.47966E-03-3.09142E-04-1.97127E-14
 -1      1762 5.76404E-03-1.82690E-04-2.04279E-14
 -1      1763 5.95128E-03-9.70068E-05-2.08203E-14
 -1      1764 3.18400E-04-1.57675E-04-7.49455E-17
 -1      1765 3.47750E-04-6.87123E-05-2.61076E-16
 -1      1766 3.59918E-04-8.74910E-05-2.43674E-16
 -1      1767 3.73487E-04-1.10102E-04-2.22682E-16
 -1      1768 3.89803E-04-1.36957E-04-1.93625E-16
 -1      1769 4.96461E-04-1.35235E-04-3.53477E-16
 -1      1770 3.06924E-04-2.04514E-05-2.98711E-16
 -1      1771 3.15995E-04-2.89281E-05-2.92409E-16
 -1      1772 2.91103E-04-8.85358E-06-3.07046E-16
 -1      1773 2.98480E-04-1.37326E-05-3.03211E-16
 -1      1774 4.06004E-04-2.74316E-05-4.43954E-16
 -1      1775 2.80167E-04-3.42791E-06-3.10936E-16
 -1      1776 2.84902E-04-5.50187E-06-3.09486E-16
 -1      1777 3.84964E-04-1.29121E-05-4.53739E-16
 -1      1778 2.75554E-04-1.61846E-06-3.11396E-16
 -1      1779 2.76997E-04-2.25905E-06-3.11505E-16
 -1      1780 3.71445E-04-5.50068E-06-4.57953E-16
 -1      1781 2.77909E-04-2.33165E-07-3.08022E-16
 -1      1782 2.75871E-04-1.08146E-06-3.10244E-16
 -1      1783 3.67372E-04-1.72042E-06-4.57086E-16
 -1      1784 2.86771E-04 3.97075E-06-3.01530E-16
 -1      1785 2.81616E-04 1.33665E-06-3.05284E-16
 -1      1786 3.73299E-04 2.60289E-06-4.51380E-16
 -1      1787 3.00520E-04 1.34249E-05-2.90864E-16
 -1      1788 2.93148E-04 7.92664E-06-2.96949E-16
 -1      1789 3.87980E-04 1.13723E-05-4.40904E-16
 -1      1790 3.18024E-04 3.02339E-05-2.74940E-16
 -1      1791 3.08940E-04 2.08726E-05-2.83925E-16
 -1      1792 4.09254E-04 2.76127E-05-4.24479E-16
 -1      1793 3.37952E-04 5.56164E-05-2.50939E-16
 -1      1794 3.27735E-04 4.18298E-05-2.64559E-16
 -1      1795 4.35114E-04 5.35070E-05-4.00043E-16
 -1      1796 3.60542E-04 9.14920E-05-2.14916E-16
 -1      1797 3.48815E-04 7.21746E-05-2.35204E-16
 -1      1798 4.64148E-04 9.04741E-05-3.63912E-16
 -1      1799 3.89669E-04 1.42606E-04-1.59839E-16
 -1      1800 3.73930E-04 1.14897E-04-1.90901E-16
 -1      1801 4.97687E-04 1.41070E-04-3.10583E-16
 -1      1802 4.55680E-04 2.04627E-04-1.22217E-16
 -1      1803 4.20880E-04 1.69902E-04-1.47208E-16
 -1      1804 5.50665E-04 2.00963E-04-2.63204E-16
 -1      1805 6.26602E-04 2.65598E-04-2.25690E-16
 -1      1806 3.80954E-04-1.62030E-04-1.37450E-16
 -1      1807 9.65270E-04 3.64028E-04-5.87624E-16
 -1      1808 7.96362E-04 3.17671E-04-3.81504E-16
 -1      1809 7.54549E-04 2.83297E-04-4.05370E-16
 -1      1810 5.13381E-04-1.96599E-04-2.50776E-16
 -1      1811 9.11048E-04-3.24012E-04-6.83481E-16
 -1      1812 1.07894E-03-3.66626E-04-9.61389E-16
 -1      1813 1.24587E-03-4.07644E-04-1.29115E-15
 -1      1814 1.41276E-03-4.48113E-04-1.67394E-15
 -1      1815 1.12522E-03-3.45155E-04-1.18719E-15
 -1      1816 1.57991E-03-4.90102E-04-2.10890E-15
 -1      1817 1.74718E-03-5.34337E-04-2.59712E-15
 -1      1818 1.45563E-03-4.25188E-04-1.96260E-15
 -1      1819 1.91524E-03-5.82199E-04-3.13764E-15
 -1      1820 2.08318E-03-6.34195E-04-3.73097E-15
 -1      1821 1.78854E-03-5.12461E-04-2.94507E-15
 -1      1822 2.25177E-03-6.90852E-04-4.37740E-15
 -1      1823 2.41950E-03-7.52044E-04-5.07733E-15
 -1      1824 2.12511E-03-6.15252E-04-4.13573E-15
 -1      1825 2.58706E-03-8.17102E-04-5.83137E-15
 -1      1826 2.75272E-03-8.84763E-04-6.63932E-15
 -1      1827 2.46444E-03-7.37222E-04-5.53691E-15
 -1      1828 2.91680E-03-9.52882E-04-7.50225E-15
 -1      1829 3.07813E-03-1.01868E-03-8.42009E-15
 -1      1830 2.80285E-03-8.73879E-04-7.15174E-15
 -1      1831 3.23649E-03-1.07883E-03-9.39402E-15
 -1      1832 3.39227E-03-1.12963E-03-1.04240E-14
 -1      1833 3.13463E-03-1.00885E-03-8.98470E-15
 -1      1834 3.54473E-03-1.16781E-03-1.15110E-14
 -1      1835 3.69634E-03-1.19048E-03-1.26539E-14
 -1      1836 3.45536E-03-1.11452E-03-1.10424E-14
 -1      1837 3.84607E-03-1.19613E-03-1.38528E-14
 -1      1838 3.99752E-03-1.18456E-03-1.51077E-14
 -1      1839 3.76679E-03-1.16191E-03-1.33267E-14
 -1      1840 4.14964E-03-1.15700E-03-1.64155E-14
 -1      1841 4.30518E-03-1.11606E-03-1.77766E-14
 -1      1842 4.07764E-03-1.13720E-03-1.58341E-14
 -1      1843 4.46331E-03-1.06506E-03-1.91892E-14
 -1      1844 4.62477E-03-1.00778E-03-2.06512E-14
 -1      1845 4.39727E-03-1.05137E-03-1.85572E-14
 -1      1846 4.78918E-03-9.47873E-04-2.21611E-14
 -1      1847 4.95553E-03-8.88457E-04-2.37179E-14
 -1      1848 4.72862E-03-9.33137E-04-2.14829E-14
 -1      1849 5.12398E-03-8.32164E-04-2.53190E-14
 -1      1850 5.29279E-03-7.80656E-04-2.69632E-14
 -1      1851 5.06771E-03-8.12597E-04-2.45974E-14
 -1      1852 5.46246E-03-7.35172E-04-2.86498E-14
 -1      1853 5.63132E-03-6.96125E-04-3.03763E-14
 -1      1854 5.40826E-03-7.09830E-04-2.78874E-14
 -1      1855 5.79996E-03-6.63639E-04-3.21424E-14
 -1      1856 5.96717E-03-6.37430E-04-3.39473E-14
 -1      1857 5.74537E-03-6.33060E-04-3.13394E-14
 -1      1858 6.13341E-03-6.16986E-04-3.57908E-14
 -1      1859 6.29799E-03-6.01763E-04-3.76709E-14
 -1      1860 6.07656E-03-5.82235E-04-3.49473E-14
 -1      1861 6.46118E-03-5.91018E-04-3.95897E-14
 -1      1862 6.62271E-03-5.84191E-04-4.15442E-14
 -1      1863 6.40109E-03-5.53229E-04-3.87081E-14
 -1      1864 6.78269E-03-5.80552E-04-4.35342E-14
 -1      1865 6.94111E-03-5.79622E-04-4.55606E-14
 -1      1866 6.71916E-03-5.40736E-04-4.26153E-14
 -1      1867 7.09801E-03-5.80800E-04-4.76231E-14
 -1      1868 7.25351E-03-5.83707E-04-4.97223E-14
 -1      1869 7.03136E-03-5.39773E-04-4.66664E-14
 -1      1870 7.40762E-03-5.87898E-04-5.18549E-14
 -1      1871 7.56051E-03-5.93090E-04-5.40225E-14
 -1      1872 7.33839E-03-5.46276E-04-5.08593E-14
 -1      1873 7.71219E-03-5.98978E-04-5.62258E-14
 -1      1874 7.86285E-03-6.05357E-04-5.84633E-14
 -1      1875 7.64100E-03-5.57190E-04-5.51931E-14
 -1      1876 8.01249E-03-6.12034E-04-6.07345E-14
 -1      1877 8.16128E-03-6.18864E-04-6.30388E-14
 -1      1878 7.93988E-03-5.70360E-04-5.96644E-14
 -1      1879 8.30924E-03-6.25735E-04-6.53740E-14
 -1      1880 8.45653E-03-6.32550E-04-6.77393E-14
 -1      1881 8.23568E-03-5.84340E-04-6.42669E-14
 -1      1882 8.60314E-03-6.39252E-04-7.01384E-14
 -1      1883 8.74922E-03-6.45778E-04-7.25671E-14
 -1      1884 8.52898E-03-5.98217E-04-6.89967E-14
 -1      1885 8.89479E-03-6.52107E-04-7.50267E-14
 -1      1886 9.03994E-03-6.58200E-04-7.75184E-14
 -1      1887 8.82029E-03-6.11459E-04-7.38504E-14
 -1      1888 9.18469E-03-6.64061E-04-8.00408E-14
 -1      1889 9.32913E-03-6.69667E-04-8.25915E-14
 -1      1890 9.11003E-03-6.23790E-04-7.88281E-14
 -1      1891 9.47327E-03-6.75034E-04-8.51689E-14
 -1      1892 9.61718E-03-6.80152E-04-8.77752E-14
 -1      1893 9.39859E-03-6.35110E-04-8.39236E-14
 -1      1894 9.76087E-03-6.85042E-04-9.04116E-14
 -1      1895 9.90439E-03-6.89704E-04-9.30723E-14
 -1      1896 9.68623E-03-6.45425E-04-8.91312E-14
 -1      1897 1.00478E-02-6.94160E-04-9.57594E-14
 -1      1898 1.01910E-02-6.98414E-04-9.84705E-14
 -1      1899 9.97321E-03-6.54805E-04-9.44486E-14
 -1      1900 1.03341E-02-7.02489E-04-1.01206E-13
 -1      1901 1.04772E-02-7.06391E-04-1.03966E-13
 -1      1902 1.02597E-02-6.63352E-04-9.98651E-14
 -1      1903 1.06202E-02-7.10143E-04-1.06747E-13
 -1      1904 1.07631E-02-7.13749E-04-1.09550E-13
 -1      1905 1.05458E-02-6.71183E-04-1.05377E-13
 -1      1906 1.09060E-02-7.17231E-04-1.12374E-13
 -1      1907 1.10488E-02-7.20595E-04-1.15218E-13
 -1      1908 1.08318E-02-6.78414E-04-1.10977E-13
 -1      1909 1.11916E-02-7.23858E-04-1.18082E-13
 -1      1910 1.13344E-02-7.27026E-04-1.20963E-13
 -1      1911 1.11175E-02-6.85152E-04-1.16661E-13
 -1      1912 1.14772E-02-7.30115E-04-1.23860E-13
 -1      1913 1.16200E-02-7.33130E-04-1.26772E-13
 -1      1914 1.14032E-02-6.91495E-04-1.22417E-13
 -1      1915 1.17628E-02-7.36082E-04-1.29699E-13
 -1      1916 1.19055E-02-7.38977E-04-1.32642E-13
 -1      1917 1.16888E-02-6.97527E-04-1.28238E-13
 -1      1918 1.20483E-02-7.41825E-04-1.35604E-13
 -1      1919 1.21910E-02-7.44630E-04-1.38579E-13
 -1      1920 1.19744E-02-7.03318E-04-1.34123E-13
 -1      1921 1.23338E-02-7.47399E-04-1.41571E-13
 -1      1922 1.24766E-02-7.50136E-04-1.44579E-13
 -1      1923 1.22600E-02-7.08926E-04-1.40074E-13
 -1      1924 1.26194E-02-7.52847E-04-1.47604E-13
 -1      1925 1.27621E-02-7.55535E-04-1.50645E-13
 -1      1926 1.25456E-02-7.14399E-04-1.46091E-13
 -1      1927 1.29049E-02-7.58205E-04-1.53697E-13
 -1      1928 1.30477E-02-7.60860E-04-1.56763E-13
 -1      1929 1.28312E-02-7.19773E-04-1.52165E-13
 -1      1930 1.31905E-02-7.63502E-04-1.59840E-13
 -1      1931 1.33333E-02-7.66133E-04-1.62927E-13
 -1      1932 1.31168E-02-7.25080E-04-1.58289E-13
 -1      1933 1.34761E-02-7.68757E-04-1.66024E-13
 -1      1934 1.36190E-02-7.71375E-04-1.69127E-13
 -1      1935 1.34024E-02-7.30341E-04-1.64456E-13
 -1      1936 1.37618E-02-7.73989E-04-1.72236E-13
 -1      1937 1.39046E-02-7.76601E-04-1.75352E-13
 -1      1938 1.36881E-02-7.35575E-04-1.70656E-13
 -1      1939 1.40474E-02-7.79212E-04-1.78472E-13
 -1      1940 1.41903E-02-7.81823E-04-1.81594E-13
 -1      1941 1.39737E-02-7.40796E-04-1.76879E-13
 -1      1942 1.43331E-02-7.84436E-04-1.84725E-13
 -1      1943 1.44760E-02-7.87052E-04-1.87857E-13
 -1      1944 1.42594E-02-7.46017E-04-1.83126E-13
 -1      1945 1.46041E-02-7.91074E-04-1.90665E-13
 -1      1946 1.47469E-02-7.93697E-04-1.93806E-13
 -1      1947 1.47865E-02-7.60697E-04-1.94689E-13
 -1      1948 1.45303E-02-7.52649E-04-1.89063E-13
 -1      1949 1.29918E-03 4.47565E-04-1.14896E-15
 -1      1950 1.13236E-03 4.06741E-04-8.42710E-16
 -1      1951 1.08801E-03 3.72078E-04-8.68012E-16
 -1      1952 1.63172E-03 5.30464E-04-1.91425E-15
 -1      1953 1.46542E-03 4.88547E-04-1.50602E-15
 -1      1954 1.41958E-03 4.53407E-04-1.53027E-15
 -1      1955 1.96432E-03 6.22267E-04-2.88560E-15
 -1      1956 1.79808E-03 5.74952E-04-2.37409E-15
 -1      1957 1.75123E-03 5.38781E-04-2.39504E-15
 -1      1958 2.29590E-03 7.28211E-04-4.06443E-15
 -1      1959 2.13053E-03 6.73482E-04-3.44881E-15
 -1      1960 2.08372E-03 6.36121E-04-3.46446E-15
 -1      1961 2.62336E-03 8.47469E-04-5.45130E-15
 -1      1962 2.46058E-03 7.86641E-04-4.73159E-15
 -1      1963 2.41568E-03 7.48667E-04-4.74032E-15
 -1      1964 2.94259E-03 9.70679E-04-7.05124E-15
 -1      1965 2.78440E-03 9.09577E-04-6.22427E-15
 -1      1966 2.74382E-03 8.72445E-04-6.22487E-15
 -1      1967 3.25048E-03 1.07932E-03-8.86738E-15
 -1      1968 3.09806E-03 1.02816E-03-7.93162E-15
 -1      1969 3.06394E-03 9.93873E-04-7.92283E-15
 -1      1970 3.54747E-03 1.15019E-03-1.09065E-14
 -1      1971 3.39996E-03 1.12065E-03-9.85906E-15
 -1      1972 3.37341E-03 1.09081E-03-9.84052E-15
 -1      1973 3.83894E-03 1.16489E-03-1.31678E-14
 -1      1974 3.69310E-03 1.16494E-03-1.20090E-14
 -1      1975 3.67401E-03 1.13962E-03-1.19811E-14
 -1      1976 4.13332E-03 1.11978E-03-1.56527E-14
 -1      1977 3.98493E-03 1.14913E-03-1.43827E-14
 -1      1978 3.97257E-03 1.12672E-03-1.43459E-14
 -1      1979 4.43777E-03 1.02834E-03-1.83529E-14
 -1      1980 4.28381E-03 1.07846E-03-1.69761E-14
 -1      1981 4.27739E-03 1.05665E-03-1.69312E-14
 -1      1982 4.75484E-03 9.14099E-04-2.12608E-14
 -1      1983 4.59473E-03 9.72636E-04-1.97811E-14
 -1      1984 4.59327E-03 9.49727E-04-1.97286E-14
 -1      1985 5.08242E-03 8.00019E-04-2.43650E-14
 -1      1986 4.91764E-03 8.56056E-04-2.27897E-14
 -1      1987 4.91960E-03 8.31461E-04-2.27293E-14
 -1      1988 5.41605E-03 7.01510E-04-2.76542E-14
 -1      1989 5.24892E-03 7.48391E-04-2.59865E-14
 -1      1990 5.25226E-03 7.22288E-04-2.59192E-14
 -1      1991 5.75104E-03 6.25180E-04-3.11172E-14
 -1      1992 5.58376E-03 6.60560E-04-2.93646E-14
 -1      1993 5.58653E-03 6.33406E-04-2.92886E-14
 -1      1994 6.08374E-03 5.71149E-04-3.47487E-14
 -1      1995 5.91796E-03 5.95583E-04-3.29128E-14
 -1      1996 5.91870E-03 5.67816E-04-3.28283E-14
 -1      1997 6.41184E-03 5.36069E-04-3.85413E-14
 -1      1998 6.24854E-03 5.51514E-04-3.66249E-14
 -1      1999 6.24649E-03 5.23467E-04-3.65323E-14
 -1      2000 6.73418E-03 5.15464E-04-4.24847E-14
 -1      2001 6.57381E-03 5.24218E-04-4.04944E-14
 -1      2002 6.56883E-03 4.96124E-04-4.03916E-14
 -1      2003 7.05045E-03 5.05033E-04-4.65720E-14
 -1      2004 6.89308E-03 5.09190E-04-4.45115E-14
 -1      2005 6.88541E-03 4.81204E-04-4.44001E-14
 -1      2006 7.36093E-03 5.01216E-04-5.07970E-14
 -1      2007 7.20638E-03 5.02458E-04-4.86678E-14
 -1      2008 7.19645E-03 4.74676E-04-4.85475E-14
 -1      2009 7.66620E-03 5.01315E-04-5.51592E-14
 -1      2010 7.51416E-03 5.00888E-04-5.29615E-14
 -1      2011 7.50246E-03 4.73361E-04-5.28323E-14
 -1      2012 7.96700E-03 5.03409E-04-5.96541E-14
 -1      2013 7.81710E-03 5.02187E-04-5.73897E-14
 -1      2014 7.80409E-03 4.74931E-04-5.72521E-14
 -1      2015 8.26409E-03 5.06209E-04-6.42734E-14
 -1      2016 8.11595E-03 5.04768E-04-6.19483E-14
 -1      2017 8.10202E-03 4.77776E-04-6.18021E-14
 -1      2018 8.55818E-03 5.08897E-04-6.90204E-14
 -1      2019 8.41146E-03 5.07594E-04-6.66312E-14
 -1      2020 8.39691E-03 4.80846E-04-6.64764E-14
 -1      2021 8.84992E-03 5.10993E-04-7.38855E-14
 -1      2022 8.70430E-03 5.10032E-04-7.14377E-14
 -1      2023 8.68938E-03 4.83500E-04-7.12739E-14
 -1      2024 9.13983E-03 5.12253E-04-7.88739E-14
 -1      2025 8.99506E-03 5.11732E-04-7.63652E-14
 -1      2026 8.97993E-03 4.85385E-04-7.61933E-14
 -1      2027 9.42838E-03 5.12588E-04-8.39721E-14
 -1      2028 9.28424E-03 5.12535E-04-8.14086E-14
 -1      2029 9.26902E-03 4.86343E-04-8.12291E-14
 -1      2030 9.71591E-03 5.12006E-04-8.91723E-14
 -1      2031 9.57224E-03 5.12408E-04-8.65599E-14
 -1      2032 9.55701E-03 4.86341E-04-8.63726E-14
 -1      2033 1.00027E-02 5.10572E-04-9.44726E-14
 -1      2034 9.85938E-03 5.11390E-04-9.18099E-14
 -1      2035 9.84418E-03 4.85423E-04-9.16162E-14
 -1      2036 1.02890E-02 5.08381E-04-9.98741E-14
 -1      2037 1.01459E-02 5.09564E-04-9.71616E-14
 -1      2038 1.01308E-02 4.83676E-04-9.69593E-14
 -1      2039 1.05750E-02 5.05539E-04-1.05375E-13
 -1      2040 1.04320E-02 5.07035E-04-1.02612E-13
 -1      2041 1.04170E-02 4.81206E-04-1.02402E-13
 -1      2042 1.08607E-02 5.02152E-04-1.10976E-13
 -1      2043 1.07178E-02 5.03908E-04-1.08164E-13
 -1      2044 1.07029E-02 4.78125E-04-1.07947E-13
 -1      2045 1.11463E-02 4.98320E-04-1.16672E-13
 -1      2046 1.10035E-02 5.00287E-04-1.13812E-13
 -1      2047 1.09886E-02 4.74537E-04-1.13587E-13
 -1      2048 1.14318E-02 4.94131E-04-1.22457E-13
 -1      2049 1.12891E-02 4.96266E-04-1.19554E-13
 -1      2050 1.12742E-02 4.70540E-04-1.19319E-13
 -1      2051 1.17173E-02 4.89662E-04-1.28317E-13
 -1      2052 1.15746E-02 4.91928E-04-1.25379E-13
 -1      2053 1.15598E-02 4.66219E-04-1.25136E-13
 -1      2054 1.20028E-02 4.84975E-04-1.34235E-13
 -1      2055 1.18600E-02 4.87342E-04-1.31269E-13
 -1      2056 1.18453E-02 4.61645E-04-1.31018E-13
 -1      2057 1.22883E-02 4.80125E-04-1.40204E-13
 -1      2058 1.21455E-02 4.82568E-04-1.37215E-13
 -1      2059 1.21308E-02 4.56879E-04-1.36959E-13
 -1      2060 1.25738E-02 4.75155E-04-1.46213E-13
 -1      2061 1.24310E-02 4.77653E-04-1.43202E-13
 -1      2062 1.24164E-02 4.51968E-04-1.42943E-13
 -1      2063 1.28594E-02 4.70097E-04-1.52259E-13
 -1      2064 1.27166E-02 4.72635E-04-1.49232E-13
 -1      2065 1.27019E-02 4.46952E-04-1.48969E-13
 -1      2066 1.31449E-02 4.64979E-04-1.58332E-13
 -1      2067 1.30021E-02 4.67544E-04-1.55292E-13
 -1      2068 1.29875E-02 4.41862E-04-1.55025E-13
 -1      2069 1.34305E-02 4.59823E-04-1.64430E-13
 -1      2070 1.32877E-02 4.62405E-04-1.61379E-13
 -1      2071 1.32731E-02 4.36722E-04-1.61111E-13
 -1      2072 1.37162E-02 4.54644E-04-1.70556E-13
 -1      2073 1.35734E-02 4.57235E-04-1.67490E-13
 -1      2074 1.35588E-02 4.31552E-04-1.67221E-13
 -1      2075 1.40018E-02 4.49457E-04-1.76719E-13
 -1      2076 1.38590E-02 4.52051E-04-1.73631E-13
 -1      2077 1.38444E-02 4.26366E-04-1.73361E-13
 -1      2078 1.42875E-02 4.44272E-04-1.82923E-13
 -1      2079 1.41447E-02 4.46864E-04-1.79816E-13
 -1      2080 1.41301E-02 4.21177E-04-1.79540E-13
 -1      2081 1.45732E-02 4.39099E-04-1.89161E-13
 -1      2082 1.44304E-02 4.41684E-04-1.86038E-13
 -1      2083 1.44158E-02 4.15995E-04-1.85759E-13
 -1      2084 1.48083E-02 4.31866E-04-1.94319E-13
 -1      2085 1.46655E-02 4.34444E-04-1.91187E-13
 -1      2086 1.46509E-02 4.08753E-04-1.90905E-13
 -1      2087 1.48354E-02 3.99447E-04-1.94957E-13
 -1      2088 1.48177E-02 1.65181E-04-1.94877E-13
 -1      2089 1.48152E-02 2.07342E-04-1.94768E-13
 -1      2090 1.48127E-02 2.49499E-04-1.94659E-13
 -1      2091 1.48102E-02 2.91653E-04-1.94550E-13
 -1      2092 1.46902E-02 2.30656E-04-1.92008E-13
 -1      2093 1.48240E-02 3.24477E-04-1.94809E-13
 -1      2094 1.48215E-02 3.66627E-04-1.94697E-13
 -1      2095 1.47293E-02 3.71279E-04-1.92672E-13
 -1      2096 1.47016E-02 3.05636E-04-1.92155E-13
 -1      2097 1.48226E-02 8.22792E-05-1.95074E-13
 -1      2098 1.48202E-02 1.23731E-04-1.94975E-13
 -1      2099 1.46952E-02 1.47051E-04-1.92222E-13
 -1      2100 1.48277E-02-2.06300E-06-1.95271E-13
 -1      2101 1.48252E-02 4.01093E-05-1.95174E-13
 -1      2102 1.47002E-02 6.34351E-05-1.92424E-13
 -1      2103 1.48327E-02-8.64140E-05-1.95456E-13
 -1      2104 1.48302E-02-4.42377E-05-1.95365E-13
 -1      2105 1.47052E-02-2.09058E-05-1.92619E-13
 -1      2106 1.48378E-02-1.70770E-04-1.95644E-13
 -1      2107 1.48353E-02-1.28592E-04-1.95550E-13
 -1      2108 1.47103E-02-1.05254E-04-1.92807E-13
 -1      2109 1.48430E-02-2.55127E-04-1.95823E-13
 -1      2110 1.48404E-02-2.12949E-04-1.95733E-13
 -1      2111 1.47154E-02-1.89605E-04-1.92989E-13
 -1      2112 1.48481E-02-3.39481E-04-1.95988E-13
 -1      2113 1.48455E-02-2.97305E-04-1.95908E-13
 -1      2114 1.47205E-02-2.73957E-04-1.93162E-13
 -1      2115 1.48532E-02-4.22399E-04-1.96140E-13
 -1      2116 1.48507E-02-3.80941E-04-1.96066E-13
 -1      2117 1.47257E-02-3.57590E-04-1.93323E-13
 -1      2118 1.48584E-02-5.06735E-04-1.96283E-13
 -1      2119 1.48558E-02-4.64569E-04-1.96213E-13
 -1      2120 1.47308E-02-4.41216E-04-1.93470E-13
 -1      2121 1.48637E-02-5.91060E-04-1.96407E-13
 -1      2122 1.48611E-02-5.48899E-04-1.96346E-13
 -1      2123 1.47360E-02-5.25547E-04-1.93602E-13
 -1      2124 1.48689E-02-6.75372E-04-1.96521E-13
 -1      2125 1.48663E-02-6.33217E-04-1.96466E-13
 -1      2126 1.47413E-02-6.09867E-04-1.93719E-13
 -1      2127 5.64692E-03 1.03678E-04-2.09891E-14
 -1      2128 5.78278E-03 6.08225E-05-2.12205E-14
 -1      2129 6.01452E-03-2.79134E-05-2.18584E-14
 -1      2130 6.01753E-03-4.23929E-05-2.18466E-14
 -1      2131 5.88681E-03 2.33631E-05-2.15091E-14
 -1      2132 5.96437E-03-2.66028E-06-2.18022E-14
 -1      2133 5.84504E-03 2.18365E-05-2.22745E-14
 -1      2134 5.25234E-03 2.92808E-04-1.94759E-14
 -1      2135 5.42470E-03 2.04727E-04-2.01331E-14
 -1      2136 4.89129E-03 4.82567E-04-1.82515E-14
 -1      2137 5.07042E-03 3.86158E-04-1.88566E-14
 -1      2138 3.25887E-04-3.97480E-05-2.84535E-16
 -1      2139 3.36419E-04-5.28563E-05-2.73856E-16
 -1      2140 4.62039E-04-8.65015E-05-3.98593E-16
 -1      2141 4.32172E-04-5.13797E-05-4.26715E-16
 -1      2142 4.14468E-03 8.64922E-04-1.52401E-14
 -1      2143 4.31023E-03 7.91182E-04-1.59661E-14
 -1      2144 3.80922E-03 9.49688E-04-1.36873E-14
 -1      2145 3.95919E-03 9.24510E-04-1.44331E-14
 -1      2146 3.45238E-03 8.99078E-04-1.20814E-14
 -1      2147 3.60515E-03 9.37024E-04-1.27339E-14
 -1      2148 3.12470E-03 7.59316E-04-1.08340E-14
 -1      2149 3.28859E-03 8.40410E-04-1.14484E-14
 -1      2150 3.38206E-03 8.75726E-04-1.16184E-14
 -1      2151 2.72495E-03 5.35228E-04-9.56964E-15
 -1      2152 2.91322E-03 6.43253E-04-1.00853E-14
 -1      2153 2.30176E-03 3.21538E-04-8.71857E-15
 -1      2154 2.48622E-03 4.12439E-04-9.06149E-15
 -1      2155 1.95385E-03 1.70816E-04-8.16032E-15
 -1      2156 2.11247E-03 2.39038E-04-8.42562E-15
 -1      2157 1.67631E-03 5.83827E-05-7.64040E-15
 -1      2158 1.80346E-03 1.05831E-04-7.87718E-15
 -1      2159 1.49484E-03-2.11521E-06-7.43961E-15
 -1      2160 1.55047E-03 1.43848E-05-7.45079E-15
 -1      2161 1.49150E-03-3.35639E-05-7.49732E-15
 -1      2162 1.47724E-03-1.92579E-05-7.46497E-15
 -1      2163 1.47787E-03-1.32030E-05-7.09175E-15
 -1      2164 1.63988E-03-8.44963E-05-7.65747E-15
 -1      2165 1.55036E-03-5.90631E-05-7.55687E-15
 -1      2166 1.95132E-03-2.10051E-04-8.26752E-15
 -1      2167 1.79597E-03-1.45896E-04-7.97043E-15
 -1      2168 2.31985E-03-3.82304E-04-8.98182E-15
 -1      2169 2.13619E-03-2.94021E-04-8.62278E-15
 -1      2170 2.72386E-03-5.97145E-04-9.92052E-15
 -1      2171 2.53485E-03-4.92890E-04-9.45521E-15
 -1      2172 3.11049E-03-8.00760E-04-1.09845E-14
 -1      2173 2.93060E-03-7.03752E-04-1.04404E-14
 -1      2174 3.47523E-03-9.61583E-04-1.24170E-14
 -1      2175 3.32459E-03-9.02216E-04-1.17759E-14
 -1      2176 3.77706E-03-1.00859E-03-1.37801E-14
 -1      2177 3.63702E-03-9.97698E-04-1.31243E-14
 -1      2178 4.08766E-03-9.54995E-04-1.53103E-14
 -1      2179 3.93568E-03-9.96477E-04-1.45410E-14
 -1      2180 4.48221E-03-7.76770E-04-1.69973E-14
 -1      2181 4.30943E-03-8.64506E-04-1.63111E-14
 -1      2182 4.82870E-03-5.90428E-04-1.82819E-14
 -1      2183 4.66396E-03-6.82692E-04-1.76827E-14
 -1      2184 5.18663E-03-4.01697E-04-1.94642E-14
 -1      2185 5.02058E-03-4.87989E-04-1.89414E-14
 -1      2186 5.51998E-03-2.42741E-04-2.04981E-14
 -1      2187 5.36290E-03-3.16597E-04-1.99914E-14
 -1      2188 5.82165E-03-1.22192E-04-2.13754E-14
 -1      2189 5.70113E-03-1.61732E-04-2.11530E-14
 -1      2190 5.98309E-03-6.55267E-05-2.16980E-14
 -1      2191 5.92152E-03-8.80983E-05-2.15147E-14
 -1      2192 5.87969E-03-8.90239E-05-2.22474E-14
 -1      2193 6.01001E-03-4.84930E-05-2.25424E-14
 -1      2194 4.50119E-03 6.93516E-04-1.68228E-14
 -1      2195 4.67832E-03 5.93974E-04-1.75220E-14
 -1      2196 4.75935E-03 5.28681E-04-1.82381E-14
 -1      2197 6.81480E-04-2.50573E-04-4.11238E-16
 -1      2198 4.38949E-03 7.40974E-04-1.66300E-14
 -1      2199 7.36305E-04-2.37006E-04-5.58689E-16
 -1      2200 6.00038E-03-2.11981E-05-2.26327E-14
 -1      2201 5.43425E-03 1.66690E-04-2.12065E-14
 -1      2202 5.53952E-03 1.31624E-04-2.11000E-14
 -1      2203 5.64485E-03 8.26687E-05-2.20859E-14
 -1      2204 1.48293E-02-7.08376E-04-1.95643E-13
 -1      2205 5.13490E-03 3.24016E-04-1.96091E-14
 -1      2206 5.61113E-03-1.82061E-04-2.14322E-14
 -1      2207 5.25606E-03-3.40738E-04-2.02329E-14
 -1      2208 4.90407E-03-5.25635E-04-1.90245E-14
 -1      2209 4.55467E-03-7.23879E-04-1.76601E-14
 -1      2210 4.18277E-03-9.20030E-04-1.59506E-14
 -1      2211 4.08635E-03-9.63202E-04-1.55906E-14
 -1      2212 4.27204E-03-8.75104E-04-1.66023E-14
 -1      2213 3.85300E-03-1.01506E-03-1.41874E-14
 -1      2214 3.56866E-03-9.91023E-04-1.27222E-14
 -1      2215 3.23112E-03-8.54052E-04-1.12300E-14
 -1      2216 2.84737E-03-6.38870E-04-9.94928E-15
 -1      2217 2.44679E-03-4.19173E-04-8.97920E-15
 -1      2218 2.05769E-03-2.29929E-04-8.17493E-15
 -1      2219 1.50908E-03-3.59109E-05-7.17145E-15
 -1      2220 1.60528E-03 2.36366E-05-7.24650E-15
 -1      2221 1.88805E-03 1.16963E-04-7.70388E-15
 -1      2222 2.21897E-03 2.56944E-04-8.26050E-15
 -1      2223 3.03582E-03 7.00878E-04-1.02488E-14
 -1      2224 4.04269E-03 9.02268E-04-1.49536E-14
 -1      2225 3.71269E-03 9.55933E-04-1.31845E-14
 -1      2226 2.62141E-03 4.60990E-04-9.02895E-15
 -1      2227 1.71483E-03-9.66758E-05-7.52544E-15
 -1      2228 1.13540E-03 3.50684E-04-1.09092E-15
 -1      2229 9.71343E-04 3.10419E-04-8.01713E-16
 -1      2230 4.77303E-04-1.61326E-05-6.45060E-16
 -1      2231 4.89068E-04-2.34596E-05-6.40398E-16
 -1      2232 5.03252E-04-3.31845E-05-6.33892E-16
 -1      2233 5.19140E-04-4.55676E-05-6.25327E-16
 -1      2234 5.97961E-04-3.75090E-05-8.62320E-16
 -1      2235 4.60038E-04-5.85759E-07-6.45697E-16
 -1      2236 4.59367E-04-3.59284E-06-6.48041E-16
 -1      2237 4.71257E-04 7.53545E-06-6.36549E-16
 -1      2238 4.64099E-04 2.91282E-06-6.41915E-16
 -1      2239 5.54172E-04 2.10339E-06-8.70235E-16
 -1      2240 4.93277E-04 2.19413E-05-6.20760E-16
 -1      2241 4.81153E-04 1.37261E-05-6.29650E-16
 -1      2242 5.72414E-04 1.48509E-05-8.56506E-16
 -1      2243 5.23578E-04 4.63039E-05-5.96406E-16
 -1      2244 5.07716E-04 3.27867E-05-6.09810E-16
 -1      2245 6.03731E-04 3.63047E-05-8.33684E-16
 -1      2246 5.58912E-04 8.22955E-05-5.60844E-16
 -1      2247 5.40833E-04 6.28101E-05-5.80414E-16
 -1      2248 6.44032E-04 6.97845E-05-7.99816E-16
 -1      2249 5.98137E-04 1.31266E-04-5.09467E-16
 -1      2250 5.78115E-04 1.05102E-04-5.37791E-16
 -1      2251 6.89544E-04 1.16505E-04-7.51068E-16
 -1      2252 1.46383E-03 4.30366E-04-1.81741E-15
 -1      2253 1.29948E-03 3.90418E-04-1.42915E-15
 -1      2254 1.18185E-03 3.29336E-04-1.32415E-15
 -1      2255 1.00884E-03-2.85445E-04-1.08004E-15
 -1      2256 1.17085E-03-3.23790E-04-1.42204E-15
 -1      2257 4.28607E-03 7.94463E-04-1.63779E-14
 -1      2258 4.44920E-03 6.99523E-04-1.72471E-14
 -1      2259 1.33357E-03-3.62254E-04-1.81464E-15
 -1      2260 1.49732E-03-4.01836E-04-2.25837E-15
 -1      2261 1.21448E-03-3.02330E-04-1.66622E-15
 -1      2262 1.66252E-03-4.43917E-04-2.75269E-15
 -1      2263 1.82899E-03-4.89501E-04-3.29870E-15
 -1      2264 1.53738E-03-3.77933E-04-2.56133E-15
 -1      2265 1.99757E-03-5.39467E-04-3.89590E-15
 -1      2266 2.16738E-03-5.94617E-04-4.54439E-15
 -1      2267 1.86863E-03-4.65348E-04-3.65757E-15
 -1      2268 2.33935E-03-6.55068E-04-5.24453E-15
 -1      2269 2.51177E-03-7.20622E-04-5.99789E-15
 -1      2270 2.21027E-03-5.72518E-04-4.95606E-15
 -1      2271 2.68523E-03-7.90248E-04-6.80383E-15
 -1      2272 2.85760E-03-8.61940E-04-7.66390E-15
 -1      2273 2.56141E-03-7.03100E-04-6.46010E-15
 -1      2274 3.02876E-03-9.33158E-04-8.57916E-15
 -1      2275 3.19718E-03-9.99279E-04-9.54919E-15
 -1      2276 2.91584E-03-8.50699E-04-8.17627E-15
 -1      2277 3.36203E-03-1.05690E-03-1.05763E-14
 -1      2278 3.52436E-03-1.10019E-03-1.16606E-14
 -1      2279 3.26301E-03-9.91609E-04-1.01130E-14
 -1      2280 3.68292E-03-1.12642E-03-1.28012E-14
 -1      2281 3.84187E-03-1.13249E-03-1.39995E-14
 -1      2282 3.59575E-03-1.08623E-03-1.22771E-14
 -1      2283 3.99987E-03-1.11819E-03-1.52539E-14
 -1      2284 4.16144E-03-1.08597E-03-1.65628E-14
 -1      2285 3.91982E-03-1.09908E-03-1.46728E-14
 -1      2286 4.32525E-03-1.03836E-03-1.79250E-14
 -1      2287 4.49295E-03-9.81104E-04-1.93404E-14
 -1      2288 4.25029E-03-1.02738E-03-1.72935E-14
 -1      2289 4.66356E-03-9.17888E-04-2.08043E-14
 -1      2290 4.83582E-03-8.53763E-04-2.23171E-14
 -1      2291 4.59534E-03-9.03800E-04-2.01251E-14
 -1      2292 5.00946E-03-7.91682E-04-2.38768E-14
 -1      2293 5.18227E-03-7.34304E-04-2.54798E-14
 -1      2294 4.94931E-03-7.70373E-04-2.31547E-14
 -1      2295 5.35466E-03-6.83189E-04-2.71242E-14
 -1      2296 5.52476E-03-6.38857E-04-2.88111E-14
 -1      2297 5.30116E-03-6.55362E-04-2.63632E-14
 -1      2298 5.69337E-03-6.01768E-04-3.05383E-14
 -1      2299 5.85934E-03-5.71366E-04-3.23033E-14
 -1      2300 5.64334E-03-5.69465E-04-2.97372E-14
 -1      2301 6.02348E-03-5.47434E-04-3.41070E-14
 -1      2302 6.18525E-03-5.29117E-04-3.59490E-14
 -1      2303 5.97366E-03-5.12227E-04-3.32686E-14
 -1      2304 6.34525E-03-5.15873E-04-3.78279E-14
 -1      2305 6.50333E-03-5.06909E-04-3.97442E-14
 -1      2306 6.29330E-03-4.78695E-04-3.69507E-14
 -1      2307 6.65986E-03-5.01600E-04-4.16975E-14
 -1      2308 6.81488E-03-4.99319E-04-4.36857E-14
 -1      2309 6.60454E-03-4.63022E-04-4.07809E-14
 -1      2310 6.96858E-03-4.99490E-04-4.57104E-14
 -1      2311 7.12110E-03-5.01653E-04-4.77713E-14
 -1      2312 6.90955E-03-4.59930E-04-4.47586E-14
 -1      2313 7.27253E-03-5.05343E-04-4.98672E-14
 -1      2314 7.42302E-03-5.10235E-04-5.19977E-14
 -1      2315 7.20998E-03-4.65149E-04-4.88767E-14
 -1      2316 7.57260E-03-5.15984E-04-5.41635E-14
 -1      2317 7.72144E-03-5.22366E-04-5.63629E-14
 -1      2318 7.50702E-03-4.75445E-04-5.31364E-14
 -1      2319 7.86952E-03-5.29145E-04-5.85971E-14
 -1      2320 8.01701E-03-5.36169E-04-6.08650E-14
 -1      2321 7.80148E-03-4.88487E-04-5.75332E-14
 -1      2322 8.16388E-03-5.43288E-04-6.31638E-14
 -1      2323 8.31027E-03-5.50403E-04-6.54949E-14
 -1      2324 8.09392E-03-5.02677E-04-6.20639E-14
 -1      2325 8.45616E-03-5.57428E-04-6.78583E-14
 -1      2326 8.60168E-03-5.64300E-04-7.02526E-14
 -1      2327 8.38479E-03-5.16973E-04-6.67230E-14
 -1      2328 8.74679E-03-5.70977E-04-7.26775E-14
 -1      2329 8.89161E-03-5.77424E-04-7.51330E-14
 -1      2330 8.67440E-03-5.30741E-04-7.15072E-14
 -1      2331 9.03612E-03-5.83626E-04-7.76191E-14
 -1      2332 9.18039E-03-5.89566E-04-8.01365E-14
 -1      2333 8.96301E-03-5.43635E-04-7.64149E-14
 -1      2334 9.32442E-03-5.95250E-04-8.26818E-14
 -1      2335 9.46828E-03-6.00669E-04-8.52537E-14
 -1      2336 9.25086E-03-5.55506E-04-8.14412E-14
 -1      2337 9.61195E-03-6.05840E-04-8.78557E-14
 -1      2338 9.75549E-03-6.10763E-04-9.04854E-14
 -1      2339 9.53809E-03-5.66330E-04-8.65841E-14
 -1      2340 9.89890E-03-6.15461E-04-9.31401E-14
 -1      2341 1.00422E-02-6.19936E-04-9.58215E-14
 -1      2342 9.82487E-03-5.76162E-04-9.18361E-14
 -1      2343 1.01854E-02-6.24213E-04-9.85279E-14
 -1      2344 1.03285E-02-6.28298E-04-1.01257E-13
 -1      2345 1.01113E-02-5.85098E-04-9.71922E-14
 -1      2346 1.04716E-02-6.32214E-04-1.04011E-13
 -1      2347 1.06146E-02-6.35969E-04-1.06788E-13
 -1      2348 1.03975E-02-5.93255E-04-1.02649E-13
 -1      2349 1.07576E-02-6.39583E-04-1.09585E-13
 -1      2350 1.09005E-02-6.43064E-04-1.12404E-13
 -1      2351 1.06835E-02-6.00753E-04-1.08196E-13
 -1      2352 1.10434E-02-6.46431E-04-1.15242E-13
 -1      2353 1.11863E-02-6.49691E-04-1.18100E-13
 -1      2354 1.09694E-02-6.07705E-04-1.13828E-13
 -1      2355 1.13292E-02-6.52860E-04-1.20976E-13
 -1      2356 1.14720E-02-6.55945E-04-1.23868E-13
 -1      2357 1.12551E-02-6.14217E-04-1.19537E-13
 -1      2358 1.16148E-02-6.58958E-04-1.26778E-13
 -1      2359 1.17577E-02-6.61905E-04-1.29704E-13
 -1      2360 1.15409E-02-6.20379E-04-1.25319E-13
 -1      2361 1.19005E-02-6.64798E-04-1.32644E-13
 -1      2362 1.20433E-02-6.67641E-04-1.35603E-13
 -1      2363 1.18266E-02-6.26269E-04-1.31168E-13
 -1      2364 1.21861E-02-6.70443E-04-1.38579E-13
 -1      2365 1.23289E-02-6.73207E-04-1.41571E-13
 -1      2366 1.21122E-02-6.31951E-04-1.37083E-13
 -1      2367 1.24717E-02-6.75942E-04-1.44576E-13
 -1      2368 1.26146E-02-6.78649E-04-1.47598E-13
 -1      2369 1.23979E-02-6.37477E-04-1.43064E-13
 -1      2370 1.27574E-02-6.81334E-04-1.50634E-13
 -1      2371 1.29002E-02-6.84001E-04-1.53682E-13
 -1      2372 1.26836E-02-6.42888E-04-1.49103E-13
 -1      2373 1.30430E-02-6.86652E-04-1.56741E-13
 -1      2374 1.31858E-02-6.89291E-04-1.59811E-13
 -1      2375 1.29692E-02-6.48219E-04-1.55195E-13
 -1      2376 1.33287E-02-6.91920E-04-1.62890E-13
 -1      2377 1.34715E-02-6.94541E-04-1.65980E-13
 -1      2378 1.32549E-02-6.53495E-04-1.61329E-13
 -1      2379 1.36143E-02-6.97157E-04-1.69078E-13
 -1      2380 1.37572E-02-6.99769E-04-1.72181E-13
 -1      2381 1.35406E-02-6.58737E-04-1.67499E-13
 -1      2382 1.39000E-02-7.02378E-04-1.75290E-13
 -1      2383 1.40428E-02-7.04987E-04-1.78404E-13
 -1      2384 1.38263E-02-6.63959E-04-1.73702E-13
 -1      2385 1.41857E-02-7.07596E-04-1.81527E-13
 -1      2386 1.43285E-02-7.10207E-04-1.84655E-13
 -1      2387 1.41120E-02-6.69175E-04-1.79929E-13
 -1      2388 5.80744E-03 2.73440E-05-2.29921E-14
 -1      2389 5.90091E-03 3.18328E-06-2.32960E-14
 -1      2390 2.12789E-03 6.16380E-04-3.87333E-15
 -1      2391 1.96101E-03 5.64458E-04-3.28309E-15
 -1      2392 2.46320E-03 7.32477E-04-5.20694E-15
 -1      2393 2.29575E-03 6.72504E-04-4.51451E-15
 -1      2394 2.17357E-03 5.95732E-04-4.28772E-15
 -1      2395 2.79671E-03 8.59562E-04-6.74905E-15
 -1      2396 2.63070E-03 7.95421E-04-5.95158E-15
 -1      2397 2.51404E-03 7.15588E-04-5.67855E-15
 -1      2398 3.12332E-03 9.81563E-04-8.50517E-15
 -1      2399 2.96124E-03 9.22691E-04-7.60019E-15
 -1      2400 2.85435E-03 8.46583E-04-7.27670E-15
 -1      2401 3.43936E-03 1.07337E-03-1.04820E-14
 -1      2402 3.28244E-03 1.03308E-03-9.46534E-15
 -1      2403 3.18761E-03 9.69599E-04-9.08998E-15
 -1      2404 3.74694E-03 1.10967E-03-1.26832E-14
 -1      2405 3.59327E-03 1.09968E-03-1.15550E-14
 -1      2406 3.50927E-03 1.05541E-03-1.11259E-14
 -1      2407 4.05433E-03 1.07932E-03-1.51099E-14
 -1      2408 3.89953E-03 1.10261E-03-1.38683E-14
 -1      2409 3.82299E-03 1.07680E-03-1.33888E-14
 -1      2410 4.37003E-03 9.92815E-04-1.77550E-14
 -1      2411 4.21051E-03 1.04157E-03-1.64052E-14
 -1      2412 4.13926E-03 1.02674E-03-1.58766E-14
 -1      2413 4.69681E-03 8.76008E-04-2.06107E-14
 -1      2414 4.53216E-03 9.36326E-04-1.91573E-14
 -1      2415 4.46634E-03 9.23430E-04-1.85836E-14
 -1      2416 5.03116E-03 7.55909E-04-2.36660E-14
 -1      2417 4.86359E-03 8.14976E-04-2.21143E-14
 -1      2418 4.80391E-03 7.98415E-04-2.14978E-14
 -1      2419 5.36740E-03 6.50917E-04-2.69055E-14
 -1      2420 5.19961E-03 7.00846E-04-2.52627E-14
 -1      2421 5.14536E-03 6.78903E-04-2.46063E-14
 -1      2422 5.70097E-03 5.69027E-04-3.03205E-14
 -1      2423 5.53493E-03 6.06945E-04-2.85920E-14
 -1      2424 5.48395E-03 5.80057E-04-2.78950E-14
 -1      2425 6.02937E-03 5.10762E-04-3.39044E-14
 -1      2426 5.86604E-03 5.37103E-04-3.20926E-14
 -1      2427 5.81574E-03 5.06317E-04-3.13571E-14
 -1      2428 6.35176E-03 4.72732E-04-3.76481E-14
 -1      2429 6.19141E-03 4.89486E-04-3.57560E-14
 -1      2430 6.13972E-03 4.55802E-04-3.49824E-14
 -1      2431 6.66818E-03 4.50276E-04-4.15447E-14
 -1      2432 6.51073E-03 4.59834E-04-3.95777E-14
 -1      2433 6.45643E-03 4.24079E-04-3.87654E-14
 -1      2434 6.97912E-03 4.38863E-04-4.55880E-14
 -1      2435 6.82431E-03 4.43428E-04-4.35487E-14
 -1      2436 6.76696E-03 4.06278E-04-4.26993E-14
 -1      2437 7.28520E-03 4.34702E-04-4.97686E-14
 -1      2438 7.13272E-03 4.36064E-04-4.76618E-14
 -1      2439 7.07240E-03 3.98061E-04-4.67769E-14
 -1      2440 7.58708E-03 4.34893E-04-5.40855E-14
 -1      2441 7.43661E-03 4.34393E-04-5.19090E-14
 -1      2442 7.37370E-03 3.95956E-04-5.09901E-14
 -1      2443 7.88542E-03 4.37351E-04-5.85357E-14
 -1      2444 7.73664E-03 4.35938E-04-5.62930E-14
 -1      2445 7.67162E-03 3.97372E-04-5.53374E-14
 -1      2446 8.18083E-03 4.40661E-04-6.31133E-14
 -1      2447 8.03344E-03 4.38967E-04-6.08094E-14
 -1      2448 7.96681E-03 4.00483E-04-5.98181E-14
 -1      2449 8.47384E-03 4.43917E-04-6.78188E-14
 -1      2450 8.32759E-03 4.42339E-04-6.54514E-14
 -1      2451 8.25978E-03 4.04068E-04-6.44277E-14
 -1      2452 8.76495E-03 4.46581E-04-7.26446E-14
 -1      2453 8.61960E-03 4.45349E-04-7.02167E-14
 -1      2454 8.55097E-03 4.07359E-04-6.91601E-14
 -1      2455 9.05456E-03 4.48372E-04-7.75918E-14
 -1      2456 8.90991E-03 4.47599E-04-7.51028E-14
 -1      2457 8.84074E-03 4.09917E-04-7.40159E-14
 -1      2458 9.34301E-03 4.49180E-04-8.26539E-14
 -1      2459 9.19890E-03 4.48905E-04-8.01093E-14
 -1      2460 9.12940E-03 4.11527E-04-7.89903E-14
 -1      2461 9.63060E-03 4.49006E-04-8.78203E-14
 -1      2462 9.48689E-03 4.49217E-04-8.52237E-14
 -1      2463 9.41721E-03 4.12124E-04-8.40781E-14
 -1      2464 9.91753E-03 4.47915E-04-9.30859E-14
 -1      2465 9.77413E-03 4.48573E-04-9.04410E-14
 -1      2466 9.70437E-03 4.11734E-04-8.92691E-14
 -1      2467 1.02040E-02 4.46005E-04-9.84525E-14
 -1      2468 1.00608E-02 4.47058E-04-9.57566E-14
 -1      2469 9.99104E-03 4.10438E-04-9.45568E-14
 -1      2470 1.04901E-02 4.43389E-04-1.03918E-13
 -1      2471 1.03471E-02 4.44780E-04-1.01173E-13
 -1      2472 1.02774E-02 4.08344E-04-9.99465E-14
 -1      2473 1.07760E-02 4.40180E-04-1.09482E-13
 -1      2474 1.06331E-02 4.41854E-04-1.06688E-13
 -1      2475 1.05634E-02 4.05568E-04-1.05433E-13
 -1      2476 1.10618E-02 4.36486E-04-1.15143E-13
 -1      2477 1.09189E-02 4.38389E-04-1.12302E-13
 -1      2478 1.08493E-02 4.02225E-04-1.11018E-13
 -1      2479 1.13475E-02 4.32401E-04-1.20892E-13
 -1      2480 1.12047E-02 4.34488E-04-1.18007E-13
 -1      2481 1.11351E-02 3.98420E-04-1.16698E-13
 -1      2482 1.16331E-02 4.28009E-04-1.26722E-13
 -1      2483 1.14903E-02 4.30240E-04-1.23798E-13
 -1      2484 1.14208E-02 3.94246E-04-1.22463E-13
 -1      2485 1.19187E-02 4.23379E-04-1.32614E-13
 -1      2486 1.17759E-02 4.25721E-04-1.29660E-13
 -1      2487 1.17065E-02 3.89783E-04-1.28305E-13
 -1      2488 1.22043E-02 4.18569E-04-1.38564E-13
 -1      2489 1.20615E-02 4.20994E-04-1.35582E-13
 -1      2490 1.19921E-02 3.85098E-04-1.34209E-13
 -1      2491 1.24899E-02 4.13625E-04-1.44556E-13
 -1      2492 1.23471E-02 4.16112E-04-1.41555E-13
 -1      2493 1.22777E-02 3.80247E-04-1.40168E-13
 -1      2494 1.27755E-02 4.08585E-04-1.50590E-13
 -1      2495 1.26327E-02 4.11116E-04-1.47568E-13
 -1      2496 1.25634E-02 3.75272E-04-1.46170E-13
 -1      2497 1.30611E-02 4.03478E-04-1.56652E-13
 -1      2498 1.29183E-02 4.06038E-04-1.53617E-13
 -1      2499 1.28490E-02 3.70209E-04-1.52209E-13
 -1      2500 1.33467E-02 3.98326E-04-1.62743E-13
 -1      2501 1.32039E-02 4.00906E-04-1.59694E-13
 -1      2502 1.31346E-02 3.65086E-04-1.58278E-13
 -1      2503 1.36324E-02 3.93147E-04-1.68863E-13
 -1      2504 1.34895E-02 3.95739E-04-1.65801E-13
 -1      2505 1.34203E-02 3.59923E-04-1.64378E-13
 -1      2506 1.39180E-02 3.87957E-04-1.75011E-13
 -1      2507 1.37752E-02 3.90553E-04-1.71932E-13
 -1      2508 1.37060E-02 3.54739E-04-1.70504E-13
 -1      2509 1.42037E-02 3.82767E-04-1.81199E-13
 -1      2510 1.40609E-02 3.85362E-04-1.78099E-13
 -1      2511 1.39917E-02 3.49546E-04-1.76663E-13
 -1      2512 1.44894E-02 3.77586E-04-1.87422E-13
 -1      2513 1.43466E-02 3.80175E-04-1.84307E-13
 -1      2514 1.42774E-02 3.44355E-04-1.82856E-13
 -1      2515 1.46370E-02 3.75934E-04-1.90647E-13
 -1      2516 1.45777E-02 4.45954E-05-1.89781E-13
 -1      2517 1.45752E-02 8.67622E-05-1.89679E-13
 -1      2518 1.45828E-02-3.97444E-05-1.89969E-13
 -1      2519 1.45802E-02 2.42633E-06-1.89874E-13
 -1      2520 1.44553E-02 2.57591E-05-1.87135E-13
 -1      2521 1.45678E-02 2.11818E-04-1.89361E-13
 -1      2522 1.45653E-02 2.53974E-04-1.89248E-13
 -1      2523 1.45727E-02 1.28569E-04-1.89573E-13
 -1      2524 1.45703E-02 1.70016E-04-1.89469E-13
 -1      2525 1.44453E-02 1.93340E-04-1.86718E-13
 -1      2526 1.44502E-02 1.09733E-04-1.86934E-13
 -1      2527 1.45878E-02-1.24090E-04-1.90157E-13
 -1      2528 1.45853E-02-8.19169E-05-1.90065E-13
 -1      2529 1.44603E-02-5.85803E-05-1.87325E-13
 -1      2530 1.45929E-02-2.08438E-04-1.90337E-13
 -1      2531 1.45904E-02-1.66264E-04-1.90249E-13
 -1      2532 1.44654E-02-1.42924E-04-1.87512E-13
 -1      2533 1.45981E-02-2.92786E-04-1.90506E-13
 -1      2534 1.45955E-02-2.50613E-04-1.90422E-13
 -1      2535 1.44705E-02-2.27270E-04-1.87686E-13
 -1      2536 1.46032E-02-3.75700E-04-1.90657E-13
 -1      2537 1.46006E-02-3.34244E-04-1.90583E-13
 -1      2538 1.44756E-02-3.10900E-04-1.87846E-13
 -1      2539 1.46084E-02-4.60035E-04-1.90798E-13
 -1      2540 1.46058E-02-4.17869E-04-1.90730E-13
 -1      2541 1.44808E-02-3.94524E-04-1.87993E-13
 -1      2542 1.46136E-02-5.44361E-04-1.90923E-13
 -1      2543 1.46110E-02-5.02200E-04-1.90862E-13
 -1      2544 1.44860E-02-4.78856E-04-1.88125E-13
 -1      2545 1.46188E-02-6.28676E-04-1.91033E-13
 -1      2546 1.46162E-02-5.86520E-04-1.90977E-13
 -1      2547 1.44912E-02-5.63177E-04-1.88242E-13
 -1      2548 1.47012E-02-7.04349E-04-1.92826E-13
 -1      2549 5.04020E-03 3.57510E-04-1.98815E-14
 -1      2550 5.20502E-03 2.71578E-04-2.05208E-14
 -1      2551 1.79438E-03 5.16528E-04-2.74429E-15
 -1      2552 1.62889E-03 4.72173E-04-2.25543E-15
 -1      2553 1.83756E-03 4.93639E-04-3.10049E-15
 -1      2554 5.99465E-03-2.20617E-05-2.37128E-14
 -1      2555 6.03696E-03-3.12797E-05-2.37765E-14
 -1      2556 5.68051E-03-1.46673E-04-2.24007E-14
 -1      2557 5.50702E-03-2.12237E-04-2.17271E-14
 -1      2558 6.40603E-04-1.79026E-04-5.16663E-16
 -1      2559 8.56538E-04-2.42121E-04-8.22679E-16
 -1      2560 9.06058E-04-2.25917E-04-1.00735E-15
 -1      2561 6.17050E-04-1.46988E-04-5.50043E-16
 -1      2562 1.54482E-03 3.60236E-06-6.79375E-15
 -1      2563 1.66382E-03 3.09972E-05-6.97057E-15
 -1      2564 3.97813E-03 9.31531E-04-1.47180E-14
 -1      2565 4.12292E-03 8.73315E-04-1.55357E-14
 -1      2566 4.20263E-03 8.40744E-04-1.61252E-14
 -1      2567 4.62119E-04-6.75511E-06-6.48624E-16
 -1      2568 4.68143E-04-1.07318E-05-6.47580E-16
 -1      2569 5.67852E-04-1.83074E-05-8.73637E-16
 -1      2570 5.52396E-04-6.95785E-06-8.75981E-16
 -1      2571 3.61358E-03 9.51463E-04-1.25916E-14
 -1      2572 3.77853E-03 9.65150E-04-1.35342E-14
 -1      2573 2.50292E-03 3.85095E-04-8.35658E-15
 -1      2574 2.70494E-03 5.01655E-04-8.82902E-15
 -1      2575 3.32027E-03 8.49262E-04-1.11552E-14
 -1      2576 3.45172E-03 9.07579E-04-1.17733E-14
 -1      2577 1.80015E-03-1.10999E-04-7.32995E-15
 -1      2578 1.64942E-03-6.65078E-05-7.03573E-15
 -1      2579 2.95375E-03 6.46080E-04-9.67255E-15
 -1      2580 3.13975E-03 7.56908E-04-1.03976E-14
 -1      2581 3.21861E-03 8.03153E-04-1.05392E-14
 -1      2582 2.12117E-03 1.97678E-04-7.74211E-15
 -1      2583 2.28705E-03 2.74504E-04-8.01090E-15
 -1      2584 1.82571E-03 8.20411E-05-7.20551E-15
 -1      2585 1.96822E-03 1.33494E-04-7.47040E-15
 -1      2586 2.03006E-03 1.59090E-04-7.23097E-15
 -1      2587 1.45997E-03-1.69974E-05-6.69167E-15
 -1      2588 1.47365E-03-1.37459E-05-6.66579E-15
 -1      2589 1.52997E-03-3.47172E-05-6.78956E-15
 -1      2590 1.47682E-03-2.58823E-05-6.73860E-15
 -1      2591 1.45078E-03-2.01798E-05-6.31605E-15
 -1      2592 2.15526E-03-2.53530E-04-8.02950E-15
 -1      2593 1.98222E-03-1.79943E-04-7.69533E-15
 -1      2594 2.55591E-03-4.58511E-04-8.91571E-15
 -1      2595 2.36147E-03-3.53620E-04-8.46652E-15
 -1      2596 2.92692E-03-6.74482E-04-9.87570E-15
 -1      2597 2.75286E-03-5.68776E-04-9.38195E-15
 -1      2598 3.33471E-03-9.06316E-04-1.14558E-14
 -1      2599 3.15507E-03-8.07012E-04-1.06830E-14
 -1      2600 3.64284E-03-1.01454E-03-1.30356E-14
 -1      2601 3.51289E-03-9.79009E-04-1.23334E-14
 -1      2602 3.90204E-03-1.01516E-03-1.45305E-14
 -1      2603 3.77543E-03-1.02630E-03-1.37716E-14
 -1      2604 3.70699E-03-1.02701E-03-1.33595E-14
 -1      2605 4.63099E-03-6.70734E-04-1.84498E-14
 -1      2606 4.47949E-03-7.62662E-04-1.77453E-14
 -1      2607 4.96211E-03-4.79175E-04-1.97963E-14
 -1      2608 4.79280E-03-5.76906E-04-1.91179E-14
 -1      2609 4.71412E-03-6.26957E-04-1.92017E-14
 -1      2610 5.33163E-03-2.89666E-04-2.11276E-14
 -1      2611 5.17166E-03-3.67708E-04-2.05812E-14
 -1      2612 8.43793E-04 2.81964E-04-5.96121E-16
 -1      2613 6.79181E-04 2.36021E-04-3.95707E-16
 -1      2614 6.43746E-04 2.06249E-04-4.07592E-16
 -1      2615 8.95124E-04 2.64810E-04-7.71505E-16
 -1      2616 4.67336E-03 5.68208E-04-1.83587E-14
 -1      2617 4.85528E-03 4.59854E-04-1.91104E-14
 -1      2618 4.95352E-03 4.07329E-04-2.00021E-14
 -1      2619 3.77288E-03 9.74069E-04-1.34589E-14
 -1      2620 3.86851E-03 9.61677E-04-1.40818E-14
 -1      2621 3.95247E-03 9.46829E-04-1.46371E-14
 -1      2622 6.38238E-04-6.82477E-05-8.40446E-16
 -1      2623 5.36577E-04-6.08750E-05-6.14146E-16
 -1      2624 5.55031E-04-7.92548E-05-5.99632E-16
 -1      2625 1.50732E-03 4.07117E-04-2.11350E-15
 -1      2626 6.19371E-04 1.70918E-04-4.50852E-16
 -1      2627 4.56553E-03 6.35251E-04-1.80886E-14
 -1      2628 1.49465E-03-6.24384E-06-6.39453E-15
 -1      2629 5.34467E-03 2.07056E-04-2.14851E-14
 -1      2630 5.73184E-03 5.23451E-05-2.30950E-14
 -1      2631 5.81175E-03 3.51158E-05-2.41204E-14
 -1      2632 5.65382E-03 8.25659E-05-2.31965E-14
 -1      2633 6.06405E-03-3.74914E-05-2.48594E-14
 -1      2634 6.03903E-03-4.22558E-05-2.37673E-14
 -1      2635 1.45678E-02 3.40108E-04-1.89186E-13
 -1      2636 5.79575E-03-1.07346E-04-2.30413E-14
 -1      2637 5.71672E-03-1.36601E-04-2.33369E-14
 -1      2638 1.45540E-02 3.07287E-04-1.88930E-13
 -1      2639 1.45532E-02-7.16828E-04-1.89574E-13
 -1      2640 1.45960E-02-6.64502E-04-1.90525E-13
 -1      2641 1.44709E-02-6.41161E-04-1.87787E-13
 -1      2642 1.44251E-02-7.12809E-04-1.86768E-13
 -1      2643 5.06432E-03-4.26121E-04-2.06725E-14
 -1      2644 7.40171E-04 1.87862E-04-6.52622E-16
 -1      2645 5.97856E-03-1.33589E-05-2.44430E-14
 -1      2646 5.43167E-03-2.45676E-04-2.20811E-14
 -1      2647 6.00792E-03-4.92872E-05-2.36146E-14
 -1      2648 3.99756E-03-9.97930E-04-1.51494E-14
 -1      2649 3.92224E-03-1.02077E-03-1.47124E-14
 -1      2650 4.08826E-03-9.70401E-04-1.57797E-14
 -1      2651 4.37056E-03-8.29352E-04-1.73611E-14
 -1      2652 3.41774E-03-9.46400E-04-1.17469E-14
 -1      2653 3.04204E-03-7.44915E-04-1.00806E-14
 -1      2654 2.64318E-03-5.04528E-04-8.84499E-15
 -1      2655 1.57995E-03-4.71297E-05-6.59708E-15
 -1      2656 1.72372E-03 5.02022E-05-6.74369E-15
 -1      2657 2.81034E-03 5.70166E-04-8.95891E-15
 -1      2658 1.87975E-03-1.37288E-04-7.18752E-15
 -1      2659 2.37926E-03 3.25839E-04-7.82284E-15
 -1      2660 5.95076E-04-1.19238E-04-5.76565E-16
 -1      2661 3.53689E-03 9.38116E-04-1.20983E-14
 -1      2662 2.25726E-03-2.98090E-04-7.96597E-15
 -1      2663 5.96060E-03-6.26140E-05-2.34031E-14
 -1      2664 5.87989E-03-8.18815E-05-2.32524E-14
 -1      2665 5.90345E-03-8.18994E-05-2.42032E-14
 -1      2666 6.01717E-03-5.36085E-05-2.46340E-14
 -1      2667 1.44315E-02 2.88454E-04-1.86289E-13
 -1      2668 1.43514E-02-6.74385E-04-1.85164E-13
 -1      2669 6.77659E-04 2.46276E-05-1.10961E-15
 -1      2670 6.61921E-04 1.44123E-05-1.12078E-15
 -1      2671 6.50193E-04 6.36092E-06-1.12901E-15
 -1      2672 6.43659E-04-1.79609E-07-1.13511E-15
 -1      2673 7.49151E-04 1.24864E-05-1.42146E-15
 -1      2674 7.71159E-04 9.76567E-05-1.03334E-15
 -1      2675 7.44864E-04 7.41627E-05-1.05813E-15
 -1      2676 8.27199E-04 1.55317E-04-9.69534E-16
 -1      2677 7.98805E-04 1.24777E-04-1.00439E-15
 -1      2678 9.05199E-04 1.30359E-04-1.29635E-15
 -1      2679 1.22715E-03 3.07624E-04-1.56833E-15
 -1      2680 1.06811E-03 2.71571E-04-1.21582E-15
 -1      2681 5.95600E-03-3.44425E-07-2.52087E-14
 -1      2682 6.04001E-03-1.90817E-05-2.56401E-14
 -1      2683 1.54964E-03 3.82857E-04-2.41861E-15
 -1      2684 1.38755E-03 3.44364E-04-1.96882E-15
 -1      2685 1.27037E-03 2.85180E-04-1.82318E-15
 -1      2686 1.44530E-03-9.83614E-06-5.93729E-15
 -1      2687 1.51426E-03 9.68236E-07-6.05741E-15
 -1      2688 1.41421E-03-3.15319E-04-2.37112E-15
 -1      2689 1.57502E-03-3.52741E-04-2.87164E-15
 -1      2690 1.73895E-03-3.93426E-04-3.42135E-15
 -1      2691 1.90599E-03-4.38936E-04-4.02128E-15
 -1      2692 1.60967E-03-3.25858E-04-3.18861E-15
 -1      2693 2.07723E-03-4.89766E-04-4.67093E-15
 -1      2694 2.25171E-03-5.47522E-04-5.37024E-15
 -1      2695 1.94080E-03-4.10033E-04-4.38966E-15
 -1      2696 2.43064E-03-6.12074E-04-6.12094E-15
 -1      2697 2.61144E-03-6.83485E-04-6.92321E-15
 -1      2698 2.29162E-03-5.20425E-04-5.78739E-15
 -1      2699 2.79458E-03-7.60291E-04-7.77859E-15
 -1      2700 2.97660E-03-8.39469E-04-8.68823E-15
 -1      2701 2.66106E-03-6.63628E-04-7.38712E-15
 -1      2702 3.15680E-03-9.17740E-04-9.65422E-15
 -1      2703 3.33294E-03-9.86550E-04-1.06760E-14
 -1      2704 3.03756E-03-8.31962E-04-9.19937E-15
 -1      2705 3.50355E-03-1.04205E-03-1.17565E-14
 -1      2706 3.67161E-03-1.07447E-03-1.28951E-14
 -1      2707 3.40271E-03-9.86419E-04-1.12382E-14
 -1      2708 4.17117E-03-1.01947E-03-1.66603E-14
 -1      2709 4.34574E-03-9.60718E-04-1.80269E-14
 -1      2710 4.52450E-03-8.90450E-04-1.94460E-14
 -1      2711 4.70586E-03-8.18133E-04-2.09151E-14
 -1      2712 4.45390E-03-8.81454E-04-1.87644E-14
 -1      2713 4.88910E-03-7.47387E-04-2.24320E-14
 -1      2714 5.07019E-03-6.82362E-04-2.39962E-14
 -1      2715 4.82946E-03-7.25100E-04-2.17094E-14
 -1      2716 5.24976E-03-6.24989E-04-2.56024E-14
 -1      2717 5.42489E-03-5.75713E-04-2.72493E-14
 -1      2718 5.20042E-03-5.92784E-04-2.48404E-14
 -1      2719 5.59671E-03-5.35075E-04-2.89377E-14
 -1      2720 5.76396E-03-5.01816E-04-3.06655E-14
 -1      2721 5.55338E-03-4.98430E-04-2.81400E-14
 -1      2722 5.92781E-03-4.75898E-04-3.24310E-14
 -1      2723 6.08798E-03-4.55829E-04-3.42346E-14
 -1      2724 5.88585E-03-4.38022E-04-3.15952E-14
 -1      2725 6.24541E-03-4.41295E-04-3.60757E-14
 -1      2726 6.40025E-03-4.31111E-04-3.79530E-14
 -1      2727 6.20152E-03-4.03311E-04-3.52020E-14
 -1      2728 6.55311E-03-4.24841E-04-3.98691E-14
 -1      2729 6.70426E-03-4.21657E-04-4.18209E-14
 -1      2730 6.50548E-03-3.86834E-04-3.89583E-14
 -1      2731 6.85406E-03-4.21102E-04-4.38070E-14
 -1      2732 7.00277E-03-4.22621E-04-4.58304E-14
 -1      2733 6.80204E-03-3.82901E-04-4.28594E-14
 -1      2734 7.15056E-03-4.25805E-04-4.78892E-14
 -1      2735 7.29765E-03-4.30287E-04-4.99833E-14
 -1      2736 7.09418E-03-3.87289E-04-4.69038E-14
 -1      2737 7.44410E-03-4.35736E-04-5.21125E-14
 -1      2738 7.59010E-03-4.41913E-04-5.42752E-14
 -1      2739 7.38379E-03-3.96890E-04-5.10902E-14
 -1      2740 7.73564E-03-4.48568E-04-5.64715E-14
 -1      2741 7.88087E-03-4.55551E-04-5.87028E-14
 -1      2742 7.67199E-03-4.09450E-04-5.54128E-14
 -1      2743 8.02576E-03-4.62685E-04-6.09674E-14
 -1      2744 8.17042E-03-4.69877E-04-6.32623E-14
 -1      2745 7.95938E-03-4.23387E-04-5.98720E-14
 -1      2746 8.31483E-03-4.77014E-04-6.55905E-14
 -1      2747 8.45907E-03-4.84040E-04-6.79502E-14
 -1      2748 8.24630E-03-4.37627E-04-6.44610E-14
 -1      2749 8.60310E-03-4.90888E-04-7.03402E-14
 -1      2750 8.74700E-03-4.97530E-04-7.27609E-14
 -1      2751 8.53293E-03-4.51491E-04-6.91762E-14
 -1      2752 8.89075E-03-5.03933E-04-7.52132E-14
 -1      2753 9.03439E-03-5.10083E-04-7.76945E-14
 -1      2754 8.81935E-03-4.64582E-04-7.40149E-14
 -1      2755 9.17791E-03-5.15973E-04-8.02064E-14
 -1      2756 9.32135E-03-5.21600E-04-8.27463E-14
 -1      2757 9.10563E-03-4.76706E-04-7.89730E-14
 -1      2758 9.46469E-03-5.26970E-04-8.53167E-14
 -1      2759 9.60797E-03-5.32087E-04-8.79132E-14
 -1      2760 9.39178E-03-4.87805E-04-8.40521E-14
 -1      2761 9.75118E-03-5.36966E-04-9.05341E-14
 -1      2762 9.89433E-03-5.41614E-04-9.31839E-14
 -1      2763 9.67783E-03-4.97910E-04-8.92385E-14
 -1      2764 1.00374E-02-5.46051E-04-9.58613E-14
 -1      2765 1.01805E-02-5.50286E-04-9.85625E-14
 -1      2766 9.96381E-03-5.07102E-04-9.45324E-14
 -1      2767 1.03235E-02-5.54338E-04-1.01288E-13
 -1      2768 1.04665E-02-5.58219E-04-1.04038E-13
 -1      2769 1.02497E-02-5.15487E-04-9.99308E-14
 -1      2770 1.06095E-02-5.61946E-04-1.06809E-13
 -1      2771 1.07524E-02-5.65531E-04-1.09602E-13
 -1      2772 1.05356E-02-5.23182E-04-1.05425E-13
 -1      2773 1.08953E-02-5.68991E-04-1.12416E-13
 -1      2774 1.10383E-02-5.72334E-04-1.15249E-13
 -1      2775 1.08214E-02-5.30302E-04-1.11006E-13
 -1      2776 1.11811E-02-5.75577E-04-1.18102E-13
 -1      2777 1.13240E-02-5.78728E-04-1.20973E-13
 -1      2778 1.11072E-02-5.36951E-04-1.16668E-13
 -1      2779 1.14669E-02-5.81799E-04-1.23864E-13
 -1      2780 1.16098E-02-5.84798E-04-1.26770E-13
 -1      2781 1.13930E-02-5.43224E-04-1.22408E-13
 -1      2782 1.17526E-02-5.87735E-04-1.29692E-13
 -1      2783 1.18955E-02-5.90617E-04-1.32630E-13
 -1      2784 1.16787E-02-5.49202E-04-1.28218E-13
 -1      2785 1.20383E-02-5.93453E-04-1.35588E-13
 -1      2786 1.21812E-02-5.96246E-04-1.38564E-13
 -1      2787 1.19645E-02-5.54952E-04-1.34095E-13
 -1      2788 1.23240E-02-5.99005E-04-1.41552E-13
 -1      2789 1.24669E-02-6.01733E-04-1.44555E-13
 -1      2790 1.22502E-02-5.60530E-04-1.40040E-13
 -1      2791 1.26097E-02-6.04437E-04-1.47574E-13
 -1      2792 1.27526E-02-6.07118E-04-1.50608E-13
 -1      2793 1.25359E-02-5.65980E-04-1.46047E-13
 -1      2794 1.28954E-02-6.09781E-04-1.53652E-13
 -1      2795 1.30383E-02-6.12429E-04-1.56705E-13
 -1      2796 1.28216E-02-5.71338E-04-1.52109E-13
 -1      2797 1.31811E-02-6.15066E-04-1.59772E-13
 -1      2798 1.33240E-02-6.17693E-04-1.62844E-13
 -1      2799 1.31073E-02-5.76633E-04-1.58214E-13
 -1      2800 1.34668E-02-6.20313E-04-1.65927E-13
 -1      2801 1.36097E-02-6.22926E-04-1.69019E-13
 -1      2802 1.33930E-02-5.81885E-04-1.64357E-13
 -1      2803 1.37525E-02-6.25537E-04-1.72116E-13
 -1      2804 1.38954E-02-6.28145E-04-1.75219E-13
 -1      2805 1.36788E-02-5.87112E-04-1.70532E-13
 -1      2806 1.40382E-02-6.30752E-04-1.78330E-13
 -1      2807 1.41811E-02-6.33360E-04-1.81448E-13
 -1      2808 1.39645E-02-5.92327E-04-1.76735E-13
 -1      2809 6.08969E-03-3.53718E-05-2.59057E-14
 -1      2810 6.09061E-03-4.21339E-05-2.58967E-14
 -1      2811 5.17946E-03-3.77961E-04-2.18259E-14
 -1      2812 4.99600E-03-4.77633E-04-2.10150E-14
 -1      2813 1.43743E-02-6.38560E-04-1.85673E-13
 -1      2814 1.43972E-02-6.02732E-04-1.86181E-13
 -1      2815 1.42777E-02-6.35959E-04-1.83562E-13
 -1      2816 2.21954E-03 5.72871E-04-4.70832E-15
 -1      2817 2.04882E-03 5.18337E-04-4.06141E-15
 -1      2818 3.25670E-03 9.59113E-04-9.67756E-15
 -1      2819 3.08784E-03 8.99848E-04-8.71548E-15
 -1      2820 3.58366E-03 1.03896E-03-1.17733E-14
 -1      2821 3.42119E-03 1.00746E-03-1.06966E-14
 -1      2822 3.32744E-03 9.51663E-04-1.02675E-14
 -1      2823 3.90278E-03 1.04250E-03-1.40985E-14
 -1      2824 3.74231E-03 1.05109E-03-1.29074E-14
 -1      2825 3.65955E-03 1.02262E-03-1.24233E-14
 -1      2826 4.22836E-03 9.69104E-04-1.66499E-14
 -1      2827 4.06343E-03 1.01383E-03-1.53463E-14
 -1      2828 3.98624E-03 1.00273E-03-1.48122E-14
 -1      2829 4.56772E-03 8.47699E-04-1.94179E-14
 -1      2830 4.39631E-03 9.11465E-04-1.80073E-14
 -1      2831 4.32464E-03 9.02645E-04-1.74282E-14
 -1      2832 4.91605E-03 7.16081E-04-2.23901E-14
 -1      2833 4.74168E-03 7.80993E-04-2.08787E-14
 -1      2834 4.67784E-03 7.64774E-04-2.02581E-14
 -1      2835 5.26332E-03 5.99949E-04-2.55512E-14
 -1      2836 5.09069E-03 6.55199E-04-2.39481E-14
 -1      2837 5.03566E-03 6.30567E-04-2.32875E-14
 -1      2838 5.60246E-03 5.09551E-04-2.88889E-14
 -1      2839 5.43445E-03 5.51445E-04-2.71990E-14
 -1      2840 5.38615E-03 5.21158E-04-2.65014E-14
 -1      2841 5.93095E-03 4.45277E-04-3.23950E-14
 -1      2842 5.76820E-03 4.74458E-04-3.06207E-14
 -1      2843 5.72313E-03 4.41234E-04-2.98866E-14
 -1      2844 6.24957E-03 4.03007E-04-3.60638E-14
 -1      2845 6.09148E-03 4.21771E-04-3.42107E-14
 -1      2846 6.04643E-03 3.87070E-04-3.34371E-14
 -1      2847 6.56020E-03 3.77592E-04-3.98843E-14
 -1      2848 6.40580E-03 3.88538E-04-3.79545E-14
 -1      2849 6.35863E-03 3.52974E-04-3.71456E-14
 -1      2850 6.86479E-03 3.64206E-04-4.38537E-14
 -1      2851 6.71316E-03 3.69672E-04-4.18512E-14
 -1      2852 6.66277E-03 3.33483E-04-4.10043E-14
 -1      2853 7.16489E-03 3.58861E-04-4.79646E-14
 -1      2854 7.01531E-03 3.60737E-04-4.58914E-14
 -1      2855 6.96138E-03 3.24054E-04-4.50090E-14
 -1      2856 7.46162E-03 3.58484E-04-5.22100E-14
 -1      2857 7.31360E-03 3.58202E-04-5.00713E-14
 -1      2858 7.25628E-03 3.21154E-04-4.91525E-14
 -1      2859 7.75580E-03 3.60833E-04-5.65915E-14
 -1      2860 7.60897E-03 3.59422E-04-5.43842E-14
 -1      2861 7.54868E-03 3.22145E-04-5.34311E-14
 -1      2862 8.04801E-03 3.64350E-04-6.11020E-14
 -1      2863 7.90210E-03 3.62515E-04-5.88302E-14
 -1      2864 7.83935E-03 3.25136E-04-5.78447E-14
 -1      2865 8.33868E-03 3.68009E-04-6.57404E-14
 -1      2866 8.19350E-03 3.66206E-04-6.34055E-14
 -1      2867 8.12879E-03 3.28832E-04-6.23867E-14
 -1      2868 8.62812E-03 3.71180E-04-7.05033E-14
 -1      2869 8.48352E-03 3.69682E-04-6.81067E-14
 -1      2870 8.41731E-03 3.32392E-04-6.70535E-14
 -1      2871 8.91662E-03 3.73514E-04-7.53863E-14
 -1      2872 8.77246E-03 3.72465E-04-7.29293E-14
 -1      2873 8.70515E-03 3.35310E-04-7.18445E-14
 -1      2874 9.20436E-03 3.74855E-04-8.03898E-14
 -1      2875 9.06056E-03 3.74314E-04-7.78734E-14
 -1      2876 8.99244E-03 3.37321E-04-7.67583E-14
 -1      2877 9.49153E-03 3.75175E-04-8.55011E-14
 -1      2878 9.34801E-03 3.75143E-04-8.29322E-14
 -1      2879 9.27933E-03 3.38321E-04-8.17872E-14
 -1      2880 9.77826E-03 3.74523E-04-9.07159E-14
 -1      2881 9.63494E-03 3.74967E-04-8.80970E-14
 -1      2882 9.56590E-03 3.38312E-04-8.69257E-14
 -1      2883 1.00647E-02 3.72991E-04-9.60279E-14
 -1      2884 9.92150E-03 3.73861E-04-9.33592E-14
 -1      2885 9.85222E-03 3.37360E-04-9.21644E-14
 -1      2886 1.03508E-02 3.70692E-04-1.01438E-13
 -1      2887 1.02078E-02 3.71931E-04-9.87203E-14
 -1      2888 1.01384E-02 3.35566E-04-9.74985E-14
 -1      2889 1.06368E-02 3.67743E-04-1.06945E-13
 -1      2890 1.04938E-02 3.69293E-04-1.04179E-13
 -1      2891 1.04244E-02 3.33046E-04-1.02928E-13
 -1      2892 1.09227E-02 3.64258E-04-1.12552E-13
 -1      2893 1.07798E-02 3.66062E-04-1.09738E-13
 -1      2894 1.07103E-02 3.29914E-04-1.08459E-13
 -1      2895 1.12085E-02 3.60338E-04-1.18249E-13
 -1      2896 1.10656E-02 3.62347E-04-1.15390E-13
 -1      2897 1.09961E-02 3.26281E-04-1.14084E-13
 -1      2898 1.14942E-02 3.56074E-04-1.24031E-13
 -1      2899 1.13513E-02 3.58245E-04-1.21130E-13
 -1      2900 1.12819E-02 3.22243E-04-1.19800E-13
 -1      2901 1.17799E-02 3.51541E-04-1.29886E-13
 -1      2902 1.16370E-02 3.53837E-04-1.26950E-13
 -1      2903 1.15676E-02 3.17887E-04-1.25597E-13
 -1      2904 1.20655E-02 3.46802E-04-1.35803E-13
 -1      2905 1.19227E-02 3.49194E-04-1.32837E-13
 -1      2906 1.18533E-02 3.13284E-04-1.31467E-13
 -1      2907 1.23512E-02 3.41911E-04-1.41771E-13
 -1      2908 1.22084E-02 3.44373E-04-1.38782E-13
 -1      2909 1.21390E-02 3.08494E-04-1.37396E-13
 -1      2910 1.26369E-02 3.36907E-04-1.47783E-13
 -1      2911 1.24940E-02 3.39421E-04-1.44773E-13
 -1      2912 1.24247E-02 3.03564E-04-1.43374E-13
 -1      2913 1.29225E-02 3.31823E-04-1.53831E-13
 -1      2914 1.27797E-02 3.34373E-04-1.50803E-13
 -1      2915 1.27104E-02 2.98532E-04-1.49396E-13
 -1      2916 1.32082E-02 3.26686E-04-1.59904E-13
 -1      2917 1.30654E-02 3.29260E-04-1.56864E-13
 -1      2918 1.29961E-02 2.93430E-04-1.55449E-13
 -1      2919 1.34939E-02 3.21515E-04-1.66013E-13
 -1      2920 1.33511E-02 3.24104E-04-1.62954E-13
 -1      2921 1.32818E-02 2.88280E-04-1.61532E-13
 -1      2922 1.37796E-02 3.16325E-04-1.72147E-13
 -1      2923 1.36367E-02 3.18922E-04-1.69077E-13
 -1      2924 1.35675E-02 2.83102E-04-1.67647E-13
 -1      2925 1.40653E-02 3.11130E-04-1.78314E-13
 -1      2926 1.39224E-02 3.13728E-04-1.75227E-13
 -1      2927 1.38532E-02 2.77908E-04-1.73792E-13
 -1      2928 1.43198E-02 2.98493E-04-1.83845E-13
 -1      2929 1.41770E-02 3.01088E-04-1.80744E-13
 -1      2930 1.41077E-02 2.65266E-04-1.79301E-13
 -1      2931 1.43311E-02 2.45180E-04-1.84167E-13
 -1      2932 5.76214E-03-1.33619E-04-2.43477E-14
 -1      2933 5.64517E-03-1.69400E-04-2.36938E-14
 -1      2934 1.43429E-02-1.61757E-04-1.84865E-13
 -1      2935 1.43404E-02-1.19585E-04-1.84776E-13
 -1      2936 1.43328E-02 6.92515E-06-1.84492E-13
 -1      2937 1.43303E-02 4.90922E-05-1.84398E-13
 -1      2938 1.43481E-02-2.46101E-04-1.85034E-13
 -1      2939 1.43455E-02-2.03929E-04-1.84953E-13
 -1      2940 1.42205E-02-1.80589E-04-1.82222E-13
 -1      2941 1.43378E-02-7.74141E-05-1.84685E-13
 -1      2942 1.43353E-02-3.52439E-05-1.84588E-13
 -1      2943 1.42103E-02-1.19074E-05-1.81857E-13
 -1      2944 1.42154E-02-9.62468E-05-1.82045E-13
 -1      2945 1.43531E-02-3.29013E-04-1.85184E-13
 -1      2946 1.43506E-02-2.87558E-04-1.85110E-13
 -1      2947 1.42256E-02-2.64217E-04-1.82382E-13
 -1      2948 1.43583E-02-4.13349E-04-1.85324E-13
 -1      2949 1.43557E-02-3.71182E-04-1.85256E-13
 -1      2950 1.42307E-02-3.47842E-04-1.82526E-13
 -1      2951 1.43636E-02-4.97677E-04-1.85451E-13
 -1      2952 1.43609E-02-4.55515E-04-1.85390E-13
 -1      2953 1.42359E-02-4.32175E-04-1.82659E-13
 -1      2954 1.43946E-02-5.60576E-04-1.86129E-13
 -1      2955 1.87999E-03 4.68987E-04-3.46418E-15
 -1      2956 1.71382E-03 4.24006E-04-2.91667E-15
 -1      2957 1.59028E-03 3.57353E-04-2.73254E-15
 -1      2958 1.92145E-03 4.42525E-04-3.83531E-15
 -1      2959 8.60951E-04 2.12434E-04-8.62090E-16
 -1      2960 8.30851E-04-1.80805E-04-9.58516E-16
 -1      2961 9.75088E-04-2.17438E-04-1.23907E-15
 -1      2962 3.50774E-03-9.90932E-04-1.21086E-14
 -1      2963 3.35257E-03-9.25234E-04-1.12411E-14
 -1      2964 4.16079E-03 8.72599E-04-1.60056E-14
 -1      2965 4.29957E-03 7.98455E-04-1.68632E-14
 -1      2966 2.91572E-03 8.33169E-04-7.80765E-15
 -1      2967 2.74202E-03 7.64724E-04-6.95429E-15
 -1      2968 2.97949E-03 8.21711E-04-8.34116E-15
 -1      2969 2.56669E-03 6.96932E-04-6.15390E-15
 -1      2970 2.39268E-03 6.32597E-04-5.40570E-15
 -1      2971 2.62111E-03 6.77645E-04-6.63370E-15
 -1      2972 1.11447E-03-2.48574E-04-1.55939E-15
 -1      2973 1.27075E-03-2.82311E-04-1.96678E-15
 -1      2974 1.30869E-03-2.59146E-04-2.23236E-15
 -1      2975 1.03302E-03-2.01282E-04-1.49052E-15
 -1      2976 6.66211E-04-1.17175E-04-7.42638E-16
 -1      2977 2.70804E-03 5.28574E-04-8.30708E-15
 -1      2978 2.93298E-03 6.56550E-04-9.11929E-15
 -1      2979 3.45509E-03 9.19673E-04-1.15406E-14
 -1      2980 3.59484E-03 9.60692E-04-1.23461E-14
 -1      2981 7.19985E-04 5.42678E-05-1.07842E-15
 -1      2982 6.97412E-04 3.78010E-05-1.09561E-15
 -1      2983 7.88247E-04 3.75707E-05-1.39487E-15
 -1      2984 8.42648E-04 7.63384E-05-1.35409E-15
 -1      2985 6.90159E-04-3.99761E-05-1.12836E-15
 -1      2986 7.12348E-04-5.49060E-05-1.11840E-15
 -1      2987 1.96041E-03-1.68909E-04-7.01428E-15
 -1      2988 1.79260E-03-1.09921E-04-6.67131E-15
 -1      2989 1.63122E-03 3.02943E-05-6.20395E-15
 -1      2990 1.77485E-03 7.15869E-05-6.41991E-15
 -1      2991 2.34106E-03-3.42401E-04-7.83787E-15
 -1      2992 2.15500E-03-2.52052E-04-7.42547E-15
 -1      2993 3.13876E-03 7.71151E-04-9.96305E-15
 -1      2994 3.29596E-03 8.54886E-04-1.06986E-14
 -1      2995 5.28552E-03 2.45698E-04-2.20352E-14
 -1      2996 5.48358E-03 1.53333E-04-2.27515E-14
 -1      2997 1.94455E-03 1.32776E-04-6.73201E-15
 -1      2998 2.08063E-03 1.88601E-04-6.98400E-15
 -1      2999 2.26668E-03 2.78371E-04-7.29272E-15
 -1      3000 2.44900E-03 3.80334E-04-7.60926E-15
 -1      3001 2.15824E-03 2.44834E-04-6.78232E-15
 -1      3002 1.43850E-03-2.09708E-05-5.89738E-15
 -1      3003 1.41975E-03-1.80680E-05-5.85427E-15
 -1      3004 5.49998E-03-2.26771E-04-2.30674E-14
 -1      3005 5.34232E-03-2.96069E-04-2.24486E-14
 -1      3006 5.56835E-03-2.17440E-04-2.40668E-14
 -1      3007 4.88746E-03 4.57919E-04-2.01836E-14
 -1      3008 5.05028E-03 3.66291E-04-2.09773E-14
 -1      3009 1.62271E-03-6.04420E-05-6.25038E-15
 -1      3010 1.50921E-03-3.64348E-05-6.02186E-15
 -1      3011 2.69327E-03-5.43243E-04-8.66154E-15
 -1      3012 2.52306E-03-4.41612E-04-8.22441E-15
 -1      3013 3.12866E-03-8.06070E-04-1.02147E-14
 -1      3014 2.92765E-03-6.82967E-04-9.43366E-15
 -1      3015 3.77045E-03-1.03627E-03-1.37432E-14
 -1      3016 3.65497E-03-1.02537E-03-1.30092E-14
 -1      3017 3.57593E-03-1.01646E-03-1.24656E-14
 -1      3018 3.86174E-03-1.03407E-03-1.43386E-14
 -1      3019 4.45329E-03-7.94624E-04-1.81482E-14
 -1      3020 4.26928E-03-8.95471E-04-1.69930E-14
 -1      3021 4.85083E-03-5.60024E-04-2.03122E-14
 -1      3022 4.71054E-03-6.46366E-04-1.96204E-14
 -1      3023 4.98526E-03-5.08212E-04-2.14465E-14
 -1      3024 4.48820E-03 6.91400E-04-1.79634E-14
 -1      3025 4.68895E-03 5.71031E-04-1.90982E-14
 -1      3026 4.43263E-03 7.39511E-04-1.78312E-14
 -1      3027 7.37304E-04-7.32387E-05-1.10563E-15
 -1      3028 7.63981E-04-9.51393E-05-1.08865E-15
 -1      3029 8.32983E-04-7.61610E-05-1.40807E-15
 -1      3030 7.33120E-04-3.71437E-06-1.43590E-15
 -1      3031 6.42551E-04-5.91748E-06-1.13879E-15
 -1      3032 6.46957E-04-1.19816E-05-1.13997E-15
 -1      3033 1.54322E-03 1.73179E-05-5.74864E-15
 -1      3034 6.09802E-03-2.61059E-05-2.66880E-14
 -1      3035 1.40357E-03-1.29175E-05-5.52837E-15
 -1      3036 3.23187E-03-8.75436E-04-1.05402E-14
 -1      3037 5.59378E-03 1.22549E-04-2.37640E-14
 -1      3038 6.11787E-03-5.25586E-05-2.70910E-14
 -1      3039 6.06375E-03-5.61864E-05-2.60297E-14
 -1      3040 3.83559E-03-1.08168E-03-1.40928E-14
 -1      3041 4.00279E-03-1.06283E-03-1.53493E-14
 -1      3042 4.09291E-03-1.01630E-03-1.60266E-14
 -1      3043 3.74915E-03-1.06138E-03-1.35140E-14
 -1      3044 1.42039E-02-5.97532E-04-1.81957E-13
 -1      3045 4.80373E-03 5.24515E-04-2.00451E-14
 -1      3046 2.26560E-03 5.48375E-04-5.13435E-15
 -1      3047 5.87910E-03-1.01614E-04-2.51336E-14
 -1      3048 5.82761E-03-1.30319E-04-2.54954E-14
 -1      3049 1.43336E-02 2.03382E-04-1.84278E-13
 -1      3050 1.42219E-02 2.13426E-04-1.81843E-13
 -1      3051 1.43361E-02 1.61582E-04-1.84386E-13
 -1      3052 9.10093E-04 1.96512E-04-1.04730E-15
 -1      3053 1.02400E-03 2.04796E-04-1.35157E-15
 -1      3054 5.85440E-03 4.02374E-05-2.54073E-14
 -1      3055 5.90782E-03 1.78505E-05-2.53085E-14
 -1      3056 5.99464E-03 8.81922E-06-2.65157E-14
 -1      3057 1.42367E-02-5.67386E-04-1.82679E-13
 -1      3058 1.43308E-02-5.27828E-04-1.84734E-13
 -1      3059 1.42057E-02-5.04490E-04-1.82006E-13
 -1      3060 1.41401E-02-5.64788E-04-1.80569E-13
 -1      3061 2.79385E-03-6.18411E-04-8.77861E-15
 -1      3062 1.68046E-03-8.49552E-05-6.08405E-15
 -1      3063 4.05247E-03 9.22558E-04-1.53339E-14
 -1      3064 4.15111E-03 8.92867E-04-1.60438E-14
 -1      3065 3.95657E-03 9.59048E-04-1.46755E-14
 -1      3066 3.01830E-03 7.25647E-04-9.25696E-15
 -1      3067 1.81822E-03 1.00088E-04-6.18508E-15
 -1      3068 5.21508E-03 3.01080E-04-2.22211E-14
 -1      3069 4.18577E-03-9.42564E-04-1.65249E-14
 -1      3070 7.75395E-04-1.27013E-04-9.95528E-16
 -1      3071 2.40018E-03-3.89154E-04-7.66405E-15
 -1      3072 5.27345E-03-3.52767E-04-2.27982E-14
 -1      3073 3.36292E-03 8.95858E-04-1.09228E-14
 -1      3074 1.43344E-02 8.44359E-05-1.84450E-13
 -1      3075 1.43319E-02 1.26242E-04-1.84342E-13
 -1      3076 1.42202E-02 1.36287E-04-1.81910E-13
 -1      3077 1.42119E-02 6.56041E-05-1.81814E-13
 -1      3078 6.56731E-04-1.90742E-05-1.13862E-15
 -1      3079 6.71306E-04-2.82401E-05-1.13470E-15
 -1      3080 7.79478E-04-4.09556E-05-1.43024E-15
 -1      3081 7.43956E-04-1.87502E-05-1.43905E-15
 -1      3082 2.58243E-03 4.71277E-04-7.74813E-15
 -1      3083 2.69380E-03 5.59808E-04-7.88230E-15
 -1      3084 2.45827E-03 4.22997E-04-7.21038E-15
 -1      3085 3.68335E-03 9.76405E-04-1.28590E-14
 -1      3086 2.03831E-03-2.11893E-04-6.89084E-15
 -1      3087 4.59865E-03-7.30191E-04-1.92219E-14
 -1      3088 6.02112E-03-6.48452E-05-2.58095E-14
 -1      3089 1.44646E-03-2.96308E-05-5.56588E-15
 -1      3090 5.94815E-03-8.25760E-05-2.53545E-14
 -1      3091 1.04628E-03 1.67519E-04-1.58819E-15
 -1      3092 1.00904E-03 1.33148E-04-1.62727E-15
 -1      3093 2.86375E-03-6.88491E-04-8.74919E-15
 -1      3094 2.65508E-03-5.63917E-04-8.01459E-15
 -1      3095 6.16902E-03-4.67633E-05-2.80823E-14
 -1      3096 6.15064E-03-6.07310E-05-2.82167E-14
 -1      3097 1.80214E-03-3.34221E-04-4.11285E-15
 -1      3098 1.97003E-03-3.78011E-04-4.76199E-15
 -1      3099 2.14488E-03-4.28506E-04-5.45915E-15
 -1      3100 2.32587E-03-4.89623E-04-6.20540E-15
 -1      3101 1.99313E-03-3.42458E-04-5.13770E-15
 -1      3102 2.59648E-03-6.09453E-04-7.25493E-15
 -1      3103 2.78812E-03-6.92633E-04-8.12101E-15
 -1      3104 3.32857E-03-9.44824E-04-1.08781E-14
 -1      3105 3.51031E-03-1.01006E-03-1.19639E-14
 -1      3106 4.77200E-03-7.02411E-04-2.09826E-14
 -1      3107 4.96564E-03-6.24516E-04-2.25072E-14
 -1      3108 5.15629E-03-5.58458E-04-2.40768E-14
 -1      3109 5.33889E-03-5.03210E-04-2.56879E-14
 -1      3110 5.11811E-03-5.22353E-04-2.33119E-14
 -1      3111 5.51560E-03-4.59863E-04-2.73393E-14
 -1      3112 5.68500E-03-4.25155E-04-2.90303E-14
 -1      3113 5.48417E-03-4.18331E-04-2.65402E-14
 -1      3114 5.84882E-03-3.99217E-04-3.07595E-14
 -1      3115 6.00734E-03-3.79369E-04-3.25253E-14
 -1      3116 5.81765E-03-3.58107E-04-2.99248E-14
 -1      3117 6.16176E-03-3.65434E-04-3.43299E-14
 -1      3118 6.31284E-03-3.55617E-04-3.61706E-14
 -1      3119 6.12690E-03-3.26461E-04-3.34593E-14
 -1      3120 6.46131E-03-3.49694E-04-3.80483E-14
 -1      3121 6.60787E-03-3.46592E-04-3.99632E-14
 -1      3122 6.42113E-03-3.12449E-04-3.71412E-14
 -1      3123 6.75293E-03-3.46028E-04-4.19129E-14
 -1      3124 6.89701E-03-3.47370E-04-4.38979E-14
 -1      3125 6.70709E-03-3.09684E-04-4.09673E-14
 -1      3126 7.04029E-03-3.50321E-04-4.59192E-14
 -1      3127 7.18314E-03-3.54502E-04-4.79770E-14
 -1      3128 6.98910E-03-3.14207E-04-4.49389E-14
 -1      3129 7.32561E-03-3.59641E-04-5.00698E-14
 -1      3130 7.46795E-03-3.65510E-04-5.21959E-14
 -1      3131 7.26968E-03-3.23363E-04-4.90511E-14
 -1      3132 7.61014E-03-3.71879E-04-5.43567E-14
 -1      3133 7.75235E-03-3.78611E-04-5.65508E-14
 -1      3134 7.55016E-03-3.35262E-04-5.33020E-14
 -1      3135 7.89452E-03-3.85531E-04-5.87787E-14
 -1      3136 8.03677E-03-3.92555E-04-6.10396E-14
 -1      3137 7.83120E-03-3.48543E-04-5.76885E-14
 -1      3138 8.17903E-03-3.99560E-04-6.33339E-14
 -1      3139 8.32139E-03-4.06498E-04-6.56586E-14
 -1      3140 8.11302E-03-3.62242E-04-6.22086E-14
 -1      3141 8.46378E-03-4.13289E-04-6.80149E-14
 -1      3142 8.60626E-03-4.19910E-04-7.04014E-14
 -1      3143 8.39565E-03-3.75711E-04-6.68554E-14
 -1      3144 8.74878E-03-4.26313E-04-7.28182E-14
 -1      3145 8.89137E-03-4.32491E-04-7.52660E-14
 -1      3146 8.67901E-03-3.88548E-04-7.16259E-14
 -1      3147 9.03399E-03-4.38421E-04-7.77428E-14
 -1      3148 9.17667E-03-4.44106E-04-8.02500E-14
 -1      3149 8.96298E-03-4.00534E-04-7.65152E-14
 -1      3150 9.31937E-03-4.49540E-04-8.27867E-14
 -1      3151 9.46212E-03-4.54732E-04-8.53525E-14
 -1      3152 9.24745E-03-4.11582E-04-8.15262E-14
 -1      3153 9.60488E-03-4.59687E-04-8.79448E-14
 -1      3154 9.74768E-03-4.64416E-04-9.05610E-14
 -1      3155 9.53230E-03-4.21696E-04-8.66522E-14
 -1      3156 9.89049E-03-4.68932E-04-9.32073E-14
 -1      3157 1.00333E-02-4.73246E-04-9.58801E-14
 -1      3158 9.81743E-03-4.30934E-04-9.18860E-14
 -1      3159 1.01762E-02-4.77375E-04-9.85768E-14
 -1      3160 1.03190E-02-4.81329E-04-1.01298E-13
 -1      3161 1.01028E-02-4.39387E-04-9.72250E-14
 -1      3162 1.04619E-02-4.85127E-04-1.04042E-13
 -1      3163 1.06047E-02-4.88778E-04-1.06809E-13
 -1      3164 1.03883E-02-4.47159E-04-1.02663E-13
 -1      3165 1.07476E-02-4.92299E-04-1.09600E-13
 -1      3166 1.08905E-02-4.95699E-04-1.12408E-13
 -1      3167 1.06739E-02-4.54356E-04-1.08194E-13
 -1      3168 1.10333E-02-4.98994E-04-1.15237E-13
 -1      3169 1.11762E-02-5.02193E-04-1.18085E-13
 -1      3170 1.09596E-02-4.61077E-04-1.13809E-13
 -1      3171 1.13191E-02-5.05308E-04-1.20952E-13
 -1      3172 1.14620E-02-5.08346E-04-1.23841E-13
 -1      3173 1.12453E-02-4.67416E-04-1.19501E-13
 -1      3174 1.16049E-02-5.11319E-04-1.26744E-13
 -1      3175 1.17477E-02-5.14233E-04-1.29664E-13
 -1      3176 1.15310E-02-4.73450E-04-1.25270E-13
 -1      3177 1.18906E-02-5.17096E-04-1.32603E-13
 -1      3178 1.20335E-02-5.19915E-04-1.35558E-13
 -1      3179 1.18168E-02-4.79248E-04-1.31111E-13
 -1      3180 1.21764E-02-5.22696E-04-1.38531E-13
 -1      3181 1.23192E-02-5.25443E-04-1.41518E-13
 -1      3182 1.21025E-02-4.84864E-04-1.37020E-13
 -1      3183 1.24621E-02-5.28163E-04-1.44520E-13
 -1      3184 1.26050E-02-5.30859E-04-1.47537E-13
 -1      3185 1.23883E-02-4.90346E-04-1.42993E-13
 -1      3186 1.27478E-02-5.33535E-04-1.50565E-13
 -1      3187 1.28907E-02-5.36193E-04-1.53605E-13
 -1      3188 1.26741E-02-4.95729E-04-1.49020E-13
 -1      3189 1.30336E-02-5.38838E-04-1.56659E-13
 -1      3190 1.31764E-02-5.41472E-04-1.59719E-13
 -1      3191 1.29598E-02-5.01041E-04-1.55102E-13
 -1      3192 1.33193E-02-5.44097E-04-1.62785E-13
 -1      3193 1.34622E-02-5.46715E-04-1.65863E-13
 -1      3194 1.32456E-02-5.06306E-04-1.61218E-13
 -1      3195 1.36050E-02-5.49328E-04-1.68953E-13
 -1      3196 1.37479E-02-5.51937E-04-1.72044E-13
 -1      3197 1.35313E-02-5.11540E-04-1.67369E-13
 -1      3198 1.38726E-02-5.57059E-04-1.74747E-13
 -1      3199 1.40154E-02-5.59665E-04-1.77853E-13
 -1      3200 1.40482E-02-5.29517E-04-1.78574E-13
 -1      3201 1.37989E-02-5.19274E-04-1.73159E-13
 -1      3202 1.35544E-03-1.32920E-05-5.03512E-15
 -1      3203 1.38382E-03-6.91281E-06-5.11286E-15
 -1      3204 5.88894E-03-1.34816E-04-2.66564E-14
 -1      3205 5.77160E-03-1.66411E-04-2.58525E-14
 -1      3206 3.36702E-03 9.24622E-04-1.07122E-14
 -1      3207 3.18735E-03 8.57448E-04-9.70240E-15
 -1      3208 4.42801E-03 8.29856E-04-1.82063E-14
 -1      3209 4.24905E-03 9.00047E-04-1.68388E-14
 -1      3210 4.79495E-03 6.78320E-04-2.10971E-14
 -1      3211 4.61121E-03 7.52901E-04-1.96260E-14
 -1      3212 4.54559E-03 7.45098E-04-1.89933E-14
 -1      3213 5.15969E-03 5.46540E-04-2.41817E-14
 -1      3214 4.97902E-03 6.08668E-04-2.26159E-14
 -1      3215 4.92389E-03 5.86899E-04-2.19442E-14
 -1      3216 5.51015E-03 4.47476E-04-2.74462E-14
 -1      3217 5.33772E-03 4.92906E-04-2.57924E-14
 -1      3218 5.29177E-03 4.62680E-04-2.50840E-14
 -1      3219 5.84211E-03 3.79540E-04-3.08772E-14
 -1      3220 5.67849E-03 4.10276E-04-2.91419E-14
 -1      3221 5.63710E-03 3.77403E-04-2.83973E-14
 -1      3222 6.15862E-03 3.35597E-04-3.44719E-14
 -1      3223 6.00214E-03 3.55121E-04-3.26540E-14
 -1      3224 5.96124E-03 3.21887E-04-3.18743E-14
 -1      3225 6.46381E-03 3.09179E-04-3.82182E-14
 -1      3226 6.31240E-03 3.20643E-04-3.63265E-14
 -1      3227 6.26944E-03 2.87816E-04-3.55087E-14
 -1      3228 6.76153E-03 2.94938E-04-4.21151E-14
 -1      3229 6.61340E-03 3.00849E-04-4.01485E-14
 -1      3230 6.56703E-03 2.68335E-04-3.92953E-14
 -1      3231 7.05461E-03 2.88838E-04-4.61536E-14
 -1      3232 6.90850E-03 2.91089E-04-4.41169E-14
 -1      3233 6.85827E-03 2.58615E-04-4.32275E-14
 -1      3234 7.34490E-03 2.87867E-04-5.03310E-14
 -1      3235 7.20000E-03 2.87864E-04-4.82249E-14
 -1      3236 7.14601E-03 2.55238E-04-4.73001E-14
 -1      3237 7.63355E-03 2.89828E-04-5.46428E-14
 -1      3238 7.48936E-03 2.88586E-04-5.24698E-14
 -1      3239 7.43199E-03 2.55731E-04-5.15105E-14
 -1      3240 7.92123E-03 2.93164E-04-5.90876E-14
 -1      3241 7.77746E-03 2.91394E-04-5.68491E-14
 -1      3242 7.71720E-03 2.58316E-04-5.58558E-14
 -1      3243 8.20832E-03 2.96821E-04-6.36590E-14
 -1      3244 8.06482E-03 2.94998E-04-6.13576E-14
 -1      3245 8.00218E-03 2.61746E-04-6.03324E-14
 -1      3246 8.49504E-03 3.00124E-04-6.83583E-14
 -1      3247 8.35171E-03 2.98544E-04-6.59934E-14
 -1      3248 8.28718E-03 2.65184E-04-6.49349E-14
 -1      3249 8.78152E-03 3.02677E-04-7.31772E-14
 -1      3250 8.63830E-03 3.01508E-04-7.07527E-14
 -1      3251 8.57230E-03 2.68101E-04-6.96630E-14
 -1      3252 9.06781E-03 3.04285E-04-7.81206E-14
 -1      3253 8.92468E-03 3.03604E-04-7.56336E-14
 -1      3254 8.85757E-03 2.70198E-04-7.45121E-14
 -1      3255 9.35397E-03 3.04888E-04-8.31765E-14
 -1      3256 9.21090E-03 3.04712E-04-8.06354E-14
 -1      3257 9.14297E-03 2.71341E-04-7.94836E-14
 -1      3258 9.64003E-03 3.04513E-04-8.83393E-14
 -1      3259 9.49701E-03 3.04819E-04-8.57447E-14
 -1      3260 9.42849E-03 2.71504E-04-8.45673E-14
 -1      3261 9.92600E-03 3.03238E-04-9.36010E-14
 -1      3262 9.78302E-03 3.03983E-04-9.09577E-14
 -1      3263 9.71409E-03 2.70735E-04-8.97532E-14
 -1      3264 1.02119E-02 3.01169E-04-9.89576E-14
 -1      3265 1.00690E-02 3.02297E-04-9.62674E-14
 -1      3266 9.99976E-03 2.69119E-04-9.50377E-14
 -1      3267 1.04978E-02 2.98419E-04-1.04412E-13
 -1      3268 1.03548E-02 2.99873E-04-1.01674E-13
 -1      3269 1.02855E-02 2.66763E-04-1.00418E-13
 -1      3270 1.07836E-02 2.95100E-04-1.09963E-13
 -1      3271 1.06407E-02 2.96825E-04-1.07174E-13
 -1      3272 1.05712E-02 2.63777E-04-1.05896E-13
 -1      3273 1.10694E-02 2.91318E-04-1.15608E-13
 -1      3274 1.09265E-02 2.93262E-04-1.12774E-13
 -1      3275 1.08569E-02 2.60269E-04-1.11466E-13
 -1      3276 1.13551E-02 2.87164E-04-1.21342E-13
 -1      3277 1.12123E-02 2.89283E-04-1.18465E-13
 -1      3278 1.11427E-02 2.56337E-04-1.17132E-13
 -1      3279 1.16409E-02 2.82718E-04-1.27156E-13
 -1      3280 1.14980E-02 2.84974E-04-1.24240E-13
 -1      3281 1.14284E-02 2.52068E-04-1.22884E-13
 -1      3282 1.19266E-02 2.78048E-04-1.33038E-13
 -1      3283 1.17838E-02 2.80408E-04-1.30088E-13
 -1      3284 1.17142E-02 2.47534E-04-1.28713E-13
 -1      3285 1.22123E-02 2.73208E-04-1.38979E-13
 -1      3286 1.20695E-02 2.75647E-04-1.36003E-13
 -1      3287 1.19999E-02 2.42799E-04-1.34608E-13
 -1      3288 1.24981E-02 2.68242E-04-1.44968E-13
 -1      3289 1.23552E-02 2.70739E-04-1.41968E-13
 -1      3290 1.22857E-02 2.37911E-04-1.40562E-13
 -1      3291 1.27838E-02 2.63186E-04-1.50997E-13
 -1      3292 1.26409E-02 2.65724E-04-1.47978E-13
 -1      3293 1.25714E-02 2.32911E-04-1.46561E-13
 -1      3294 1.30695E-02 2.58067E-04-1.57056E-13
 -1      3295 1.29266E-02 2.60633E-04-1.54023E-13
 -1      3296 1.28572E-02 2.27832E-04-1.52596E-13
 -1      3297 1.33552E-02 2.52906E-04-1.63150E-13
 -1      3298 1.32124E-02 2.55491E-04-1.60099E-13
 -1      3299 1.31429E-02 2.22698E-04-1.58666E-13
 -1      3300 1.36409E-02 2.47722E-04-1.69273E-13
 -1      3301 1.34981E-02 2.50316E-04-1.66207E-13
 -1      3302 1.34286E-02 2.17528E-04-1.64768E-13
 -1      3303 1.39266E-02 2.42525E-04-1.75423E-13
 -1      3304 1.37838E-02 2.45124E-04-1.72344E-13
 -1      3305 1.37144E-02 2.12338E-04-1.70897E-13
 -1      3306 1.41301E-02 2.22953E-04-1.79844E-13
 -1      3307 1.40184E-02 2.32998E-04-1.77419E-13
 -1      3308 1.39490E-02 2.00211E-04-1.75964E-13
 -1      3309 1.41326E-02 1.81154E-04-1.79954E-13
 -1      3310 1.41031E-02-2.82690E-04-1.79733E-13
 -1      3311 1.41006E-02-2.41234E-04-1.79661E-13
 -1      3312 1.40980E-02-1.99063E-04-1.79580E-13
 -1      3313 1.40954E-02-1.56892E-04-1.79495E-13
 -1      3314 1.39755E-02-2.17537E-04-1.76940E-13
 -1      3315 1.20219E-03 2.46615E-04-1.76050E-15
 -1      3316 1.11023E-03 1.99931E-04-1.65617E-15
 -1      3317 1.21891E-03 2.03438E-04-2.03349E-15
 -1      3318 1.35781E-03 2.78856E-04-2.18291E-15
 -1      3319 6.11402E-03-1.54450E-05-2.76890E-14
 -1      3320 6.16066E-03-3.15765E-05-2.79639E-14
 -1      3321 8.51788E-04 2.04949E-05-1.74639E-15
 -1      3322 8.34394E-04 8.97354E-06-1.75821E-15
 -1      3323 3.01137E-03 7.67676E-04-8.87181E-15
 -1      3324 2.82190E-03 6.84156E-04-7.96940E-15
 -1      3325 5.64937E-03-2.10571E-04-2.52007E-14
 -1      3326 5.51698E-03-2.64216E-04-2.45551E-14
 -1      3327 5.72984E-03-2.09230E-04-2.63520E-14
 -1      3328 2.01138E-03 2.02101E-04-6.13858E-15
 -1      3329 2.17081E-03 2.81783E-04-6.41880E-15
 -1      3330 1.70373E-03 8.27489E-05-5.56198E-15
 -1      3331 1.85337E-03 1.34969E-04-5.84767E-15
 -1      3332 1.87048E-03 1.72697E-04-5.51065E-15
 -1      3333 5.57864E-03 1.51783E-04-2.44746E-14
 -1      3334 5.72251E-03 8.88432E-05-2.49406E-14
 -1      3335 5.83883E-03 6.75450E-05-2.61386E-14
 -1      3336 8.81768E-04-1.34130E-04-1.28776E-15
 -1      3337 1.41083E-02-3.67027E-04-1.79874E-13
 -1      3338 1.41057E-02-3.24859E-04-1.79806E-13
 -1      3339 1.39807E-02-3.01877E-04-1.77089E-13
 -1      3340 1.41135E-02-4.51358E-04-1.79997E-13
 -1      3341 1.41109E-02-4.09194E-04-1.79935E-13
 -1      3342 1.39859E-02-3.86212E-04-1.77220E-13
 -1      3343 4.10304E-03 9.47432E-04-1.57354E-14
 -1      3344 3.93134E-03 9.88615E-04-1.44696E-14
 -1      3345 3.67796E-03 9.97188E-04-1.26743E-14
 -1      3346 3.50645E-03 9.70274E-04-1.15568E-14
 -1      3347 4.73100E-03 5.93645E-04-1.99412E-14
 -1      3348 4.91037E-03 4.93017E-04-2.10502E-14
 -1      3349 4.30959E-03-9.12842E-04-1.75698E-14
 -1      3350 4.50113E-03-8.28242E-04-1.89771E-14
 -1      3351 1.48211E-03-2.63593E-04-2.95902E-15
 -1      3352 1.63965E-03-2.96948E-04-3.51199E-15
 -1      3353 1.66422E-03-2.65491E-04-3.84157E-15
 -1      3354 1.45346E-03 9.14280E-06-5.22427E-15
 -1      3355 1.55532E-03 3.42617E-05-5.35695E-15
 -1      3356 3.12843E-03-8.38717E-04-9.87509E-15
 -1      3357 5.15373E-03 3.63855E-04-2.24972E-14
 -1      3358 5.36095E-03 2.59031E-04-2.35939E-14
 -1      3359 2.31020E-03 5.20706E-04-5.56440E-15
 -1      3360 2.13329E-03 4.63175E-04-4.86419E-15
 -1      3361 6.01623E-03-8.36071E-05-2.67571E-14
 -1      3362 1.43944E-03-3.80470E-05-5.13101E-15
 -1      3363 1.37397E-03-2.46871E-05-5.01913E-15
 -1      3364 1.75222E-03-1.17833E-04-5.94742E-15
 -1      3365 1.59167E-03-7.33337E-05-5.55271E-15
 -1      3366 5.01436E-03-5.15941E-04-2.19670E-14
 -1      3367 4.88526E-03-5.89584E-04-2.12469E-14
 -1      3368 2.42680E-03-4.27252E-04-7.42105E-15
 -1      3369 2.26773E-03-3.38302E-04-7.06337E-15
 -1      3370 4.30669E-03 8.30913E-04-1.71650E-14
 -1      3371 4.47345E-03 7.37552E-04-1.82763E-14
 -1      3372 4.14302E-03-9.78856E-04-1.63410E-14
 -1      3373 2.08950E-03-2.51393E-04-6.66805E-15
 -1      3374 1.91507E-03-1.77922E-04-6.28501E-15
 -1      3375 2.12344E-03-2.92478E-04-6.44089E-15
 -1      3376 3.64564E-03-1.03977E-03-1.28636E-14
 -1      3377 6.08647E-03-8.75057E-05-2.81195E-14
 -1      3378 6.01445E-03-1.05085E-04-2.76478E-14
 -1      3379 3.96018E-03-1.03051E-03-1.50410E-14
 -1      3380 8.24367E-04-2.03182E-07-1.76672E-15
 -1      3381 8.22607E-04-8.60268E-06-1.77207E-15
 -1      3382 9.17610E-04 4.47658E-06-2.12990E-15
 -1      3383 1.00961E-03-1.56768E-04-1.61478E-15
 -1      3384 2.51335E-03-5.06040E-04-7.38870E-15
 -1      3385 6.21341E-03-3.83740E-05-2.91065E-14
 -1      3386 3.82252E-03-1.05052E-03-1.40573E-14
 -1      3387 6.16656E-03-7.75454E-05-2.91283E-14
 -1      3388 2.43998E-03-5.04861E-04-6.87072E-15
 -1      3389 2.93293E-03-7.43865E-04-8.90871E-15
 -1      3390 1.37282E-03 3.99912E-06-4.74367E-15
 -1      3391 5.97790E-03-1.34154E-04-2.80149E-14
 -1      3392 1.67786E-03 3.49998E-04-3.17057E-15
 -1      3393 1.51627E-03 3.12873E-04-2.65283E-15
 -1      3394 1.44272E-03 2.70598E-04-2.57072E-15
 -1      3395 1.10973E-03 1.33682E-04-1.99533E-15
 -1      3396 9.72336E-04 1.02463E-04-1.65987E-15
 -1      3397 9.37387E-04 7.58855E-05-1.68806E-15
 -1      3398 4.20455E-03 8.87987E-04-1.64611E-14
 -1      3399 6.05944E-03 1.26049E-05-2.78923E-14
 -1      3400 6.08992E-03-2.62193E-06-2.77916E-14
 -1      3401 6.17540E-03-1.04129E-05-2.90865E-14
 -1      3402 1.40878E-02-3.07390E-05-1.79227E-13
 -1      3403 1.40853E-02 1.14289E-05-1.79130E-13
 -1      3404 8.65658E-04-3.99268E-05-1.76793E-15
 -1      3405 8.93090E-04-5.62970E-05-1.75954E-15
 -1      3406 1.40929E-02-1.14900E-04-1.79409E-13
 -1      3407 1.40904E-02-7.27298E-05-1.79319E-13
 -1      3408 1.39654E-02-4.93918E-05-1.76597E-13
 -1      3409 1.39704E-02-1.33374E-04-1.76776E-13
 -1      3410 8.75753E-04 3.49757E-05-1.73092E-15
 -1      3411 9.59535E-04 3.08780E-05-2.10240E-15
 -1      3412 9.04550E-04 5.33339E-05-1.71141E-15
 -1      3413 1.31773E-03-1.84417E-05-4.62256E-15
 -1      3414 1.98638E-03 4.25289E-04-4.28170E-15
 -1      3415 1.81772E-03 3.79873E-04-3.67307E-15
 -1      3416 1.73838E-03 3.30584E-04-3.57232E-15
 -1      3417 2.02255E-03 3.93486E-04-4.66966E-15
 -1      3418 3.83728E-03 9.96052E-04-1.38076E-14
 -1      3419 1.79719E-03-1.52397E-04-5.73867E-15
 -1      3420 1.57921E-03 6.17343E-05-5.04338E-15
 -1      3421 1.34272E-03-2.34957E-04-2.50636E-15
 -1      3422 1.37213E-03-2.09129E-04-2.78845E-15
 -1      3423 1.20624E-03-2.07993E-04-2.09122E-15
 -1      3424 5.50919E-03 2.10009E-04-2.47651E-14
 -1      3425 5.64921E-03 1.72323E-04-2.59562E-14
 -1      3426 5.45551E-03 2.70867E-04-2.50459E-14
 -1      3427 5.07473E-03 4.35903E-04-2.23834E-14
 -1      3428 4.72639E-03-7.01139E-04-2.04827E-14
 -1      3429 5.20829E-03-4.45708E-04-2.35291E-14
 -1      3430 1.40895E-02 4.67734E-05-1.79183E-13
 -1      3431 1.40936E-02 8.21163E-05-1.79236E-13
 -1      3432 1.39670E-02 2.79429E-05-1.76557E-13
 -1      3433 2.51414E-03 5.61423E-04-6.59557E-15
 -1      3434 2.36667E-03 4.63633E-04-6.26624E-15
 -1      3435 2.70162E-03 6.36145E-04-7.41097E-15
 -1      3436 1.01351E-03-7.53003E-05-2.12143E-15
 -1      3437 9.25357E-04-7.66785E-05-1.74712E-15
 -1      3438 9.60592E-04-1.01284E-04-1.73017E-15
 -1      3439 5.32582E-03-3.71934E-04-2.39604E-14
 -1      3440 5.40912E-03-3.95843E-04-2.53541E-14
 -1      3441 5.58182E-03-3.57559E-04-2.70010E-14
 -1      3442 5.46263E-03-3.03179E-04-2.46129E-14
 -1      3443 1.47780E-03-5.58963E-05-5.00329E-15
 -1      3444 1.37667E-03-4.58528E-05-4.48112E-15
 -1      3445 1.52247E-03-7.92908E-05-4.87423E-15
 -1      3446 1.40645E-02-5.05514E-04-1.78929E-13
 -1      3447 1.40973E-02-4.75363E-04-1.79644E-13
 -1      3448 1.39723E-02-4.52383E-04-1.76925E-13
 -1      3449 1.39398E-02-5.00393E-04-1.76218E-13
 -1      3450 2.23258E-03-3.85098E-04-6.33564E-15
 -1      3451 2.02242E-03-3.17701E-04-5.51020E-15
 -1      3452 2.07740E-03-3.05306E-04-5.97050E-15
 -1      3453 1.92207E-03-2.33302E-04-5.61530E-15
 -1      3454 5.79650E-03-3.14329E-04-2.90915E-14
 -1      3455 5.95048E-03-2.97212E-04-3.08222E-14
 -1      3456 6.09912E-03-2.86194E-04-3.25899E-14
 -1      3457 6.24405E-03-2.78772E-04-3.43942E-14
 -1      3458 6.07821E-03-2.44875E-04-3.17223E-14
 -1      3459 6.38598E-03-2.74827E-04-3.62357E-14
 -1      3460 6.52618E-03-2.73115E-04-3.81130E-14
 -1      3461 6.35552E-03-2.37259E-04-3.53311E-14
 -1      3462 6.66495E-03-2.73511E-04-4.00256E-14
 -1      3463 6.80309E-03-2.75378E-04-4.19747E-14
 -1      3464 6.62605E-03-2.38046E-04-3.90848E-14
 -1      3465 6.94073E-03-2.78546E-04-4.39590E-14
 -1      3466 7.07835E-03-2.82696E-04-4.59792E-14
 -1      3467 6.89472E-03-2.43916E-04-4.29815E-14
 -1      3468 7.21597E-03-2.87630E-04-4.80354E-14
 -1      3469 7.35386E-03-2.93182E-04-5.01262E-14
 -1      3470 7.16407E-03-2.53046E-04-4.70216E-14
 -1      3471 7.49198E-03-2.99163E-04-5.22512E-14
 -1      3472 7.63050E-03-3.05481E-04-5.44094E-14
 -1      3473 7.43525E-03-2.64202E-04-5.12013E-14
 -1      3474 7.76934E-03-3.11974E-04-5.66023E-14
 -1      3475 7.90860E-03-3.18593E-04-5.88274E-14
 -1      3476 7.70867E-03-2.76460E-04-5.55172E-14
 -1      3477 8.04820E-03-3.25210E-04-6.10851E-14
 -1      3478 8.18818E-03-3.31802E-04-6.33765E-14
 -1      3479 7.98436E-03-2.89112E-04-5.99657E-14
 -1      3480 8.32847E-03-3.38276E-04-6.56975E-14
 -1      3481 8.46910E-03-3.44625E-04-6.80506E-14
 -1      3482 8.26211E-03-3.01640E-04-6.45426E-14
 -1      3483 8.61000E-03-3.50786E-04-7.04356E-14
 -1      3484 8.75117E-03-3.56765E-04-7.28479E-14
 -1      3485 8.54165E-03-3.13690E-04-6.92462E-14
 -1      3486 8.89256E-03-3.62522E-04-7.52933E-14
 -1      3487 9.03418E-03-3.68070E-04-7.77670E-14
 -1      3488 8.82269E-03-3.25053E-04-7.40723E-14
 -1      3489 9.17597E-03-3.73389E-04-8.02700E-14
 -1      3490 9.31794E-03-3.78493E-04-8.28034E-14
 -1      3491 9.10493E-03-3.35628E-04-7.90177E-14
 -1      3492 9.46004E-03-3.83376E-04-8.53635E-14
 -1      3493 9.60228E-03-3.88055E-04-8.79523E-14
 -1      3494 9.38813E-03-3.45395E-04-8.40796E-14
 -1      3495 9.74462E-03-3.92531E-04-9.05664E-14
 -1      3496 9.88706E-03-3.96821E-04-9.32079E-14
 -1      3497 9.67207E-03-3.54387E-04-8.92509E-14
 -1      3498 1.00296E-02-4.00933E-04-9.58771E-14
 -1      3499 1.01722E-02-4.04881E-04-9.85703E-14
 -1      3500 9.95656E-03-3.62673E-04-9.45303E-14
 -1      3501 1.03148E-02-4.08676E-04-1.01288E-13
 -1      3502 1.04575E-02-4.12331E-04-1.04027E-13
 -1      3503 1.02415E-02-3.70336E-04-9.99137E-14
 -1      3504 1.06002E-02-4.15860E-04-1.06789E-13
 -1      3505 1.07430E-02-4.19271E-04-1.09575E-13
 -1      3506 1.05267E-02-3.77467E-04-1.05390E-13
 -1      3507 1.08858E-02-4.22579E-04-1.12383E-13
 -1      3508 1.10286E-02-4.25792E-04-1.15206E-13
 -1      3509 1.08121E-02-3.84154E-04-1.10956E-13
 -1      3510 1.11715E-02-4.28921E-04-1.18050E-13
 -1      3511 1.13143E-02-4.31975E-04-1.20915E-13
 -1      3512 1.10977E-02-3.90477E-04-1.16603E-13
 -1      3513 1.14572E-02-4.34963E-04-1.23798E-13
 -1      3514 1.16000E-02-4.37892E-04-1.26700E-13
 -1      3515 1.13834E-02-3.96509E-04-1.22328E-13
 -1      3516 1.17429E-02-4.40770E-04-1.29619E-13
 -1      3517 1.18858E-02-4.43603E-04-1.32556E-13
 -1      3518 1.16691E-02-4.02313E-04-1.28129E-13
 -1      3519 1.20287E-02-4.46397E-04-1.35510E-13
 -1      3520 1.21716E-02-4.49157E-04-1.38481E-13
 -1      3521 1.19549E-02-4.07941E-04-1.34000E-13
 -1      3522 1.23145E-02-4.51888E-04-1.41467E-13
 -1      3523 1.24574E-02-4.54594E-04-1.44466E-13
 -1      3524 1.22406E-02-4.13435E-04-1.39939E-13
 -1      3525 1.26002E-02-4.57279E-04-1.47481E-13
 -1      3526 1.27431E-02-4.59946E-04-1.50506E-13
 -1      3527 1.25264E-02-4.18831E-04-1.45938E-13
 -1      3528 1.28860E-02-4.62598E-04-1.53543E-13
 -1      3529 1.30289E-02-4.65238E-04-1.56594E-13
 -1      3530 1.28122E-02-4.24155E-04-1.51991E-13
 -1      3531 1.31718E-02-4.67869E-04-1.59652E-13
 -1      3532 1.33147E-02-4.70491E-04-1.62714E-13
 -1      3533 1.30980E-02-4.29429E-04-1.58083E-13
 -1      3534 1.34575E-02-4.73107E-04-1.65788E-13
 -1      3535 1.36004E-02-4.75718E-04-1.68873E-13
 -1      3536 1.33838E-02-4.34671E-04-1.64212E-13
 -1      3537 4.59269E-03 7.00244E-04-1.92300E-14
 -1      3538 8.29281E-04-1.69331E-05-1.77401E-15
 -1      3539 8.43844E-04-2.71545E-05-1.77259E-15
 -1      3540 9.48264E-04-3.76952E-05-2.13993E-15
 -1      3541 2.16840E-03 3.19298E-04-6.06276E-15
 -1      3542 2.32816E-03 3.69924E-04-6.71101E-15
 -1      3543 5.77037E-03 3.06701E-04-2.93634E-14
 -1      3544 5.60576E-03 3.37629E-04-2.76626E-14
 -1      3545 6.08342E-03 2.64748E-04-3.28849E-14
 -1      3546 5.92926E-03 2.83244E-04-3.11038E-14
 -1      3547 5.90348E-03 2.42583E-04-3.03340E-14
 -1      3548 6.38129E-03 2.40435E-04-3.65585E-14
 -1      3549 6.23377E-03 2.51023E-04-3.47023E-14
 -1      3550 6.20286E-03 2.13381E-04-3.38969E-14
 -1      3551 6.67031E-03 2.27358E-04-4.03835E-14
 -1      3552 6.52657E-03 2.32849E-04-3.84534E-14
 -1      3553 6.48975E-03 1.97398E-04-3.76114E-14
 -1      3554 6.95467E-03 2.21566E-04-4.43498E-14
 -1      3555 6.81285E-03 2.23764E-04-4.23486E-14
 -1      3556 6.77027E-03 1.89496E-04-4.14713E-14
 -1      3557 7.23697E-03 2.20384E-04-4.84578E-14
 -1      3558 7.09594E-03 2.20536E-04-4.63872E-14
 -1      3559 7.04815E-03 1.86691E-04-4.54740E-14
 -1      3560 7.51867E-03 2.21906E-04-5.27018E-14
 -1      3561 7.37781E-03 2.20898E-04-5.05625E-14
 -1      3562 7.32550E-03 1.87015E-04-4.96156E-14
 -1      3563 7.80054E-03 2.24773E-04-5.70805E-14
 -1      3564 7.65954E-03 2.23232E-04-5.48747E-14
 -1      3565 7.60341E-03 1.89082E-04-5.38931E-14
 -1      3566 8.08293E-03 2.28033E-04-6.15855E-14
 -1      3567 7.94164E-03 2.26393E-04-5.93170E-14
 -1      3568 7.88238E-03 1.91894E-04-5.83036E-14
 -1      3569 8.36593E-03 2.31048E-04-6.62219E-14
 -1      3570 8.22434E-03 2.29595E-04-6.38890E-14
 -1      3571 8.16253E-03 1.94750E-04-6.28431E-14
 -1      3572 8.64953E-03 2.33425E-04-7.09781E-14
 -1      3573 8.50765E-03 2.32329E-04-6.85843E-14
 -1      3574 8.44384E-03 1.97183E-04-6.75063E-14
 -1      3575 8.93366E-03 2.34950E-04-7.58586E-14
 -1      3576 8.79153E-03 2.34298E-04-7.34029E-14
 -1      3577 8.72616E-03 1.98911E-04-7.22941E-14
 -1      3578 9.21823E-03 2.35540E-04-8.08579E-14
 -1      3579 9.07589E-03 2.35361E-04-7.83439E-14
 -1      3580 9.00933E-03 1.99791E-04-7.72049E-14
 -1      3581 9.50314E-03 2.35201E-04-8.59655E-14
 -1      3582 9.36064E-03 2.35483E-04-8.33988E-14
 -1      3583 9.29320E-03 1.99781E-04-8.22311E-14
 -1      3584 9.78831E-03 2.33991E-04-9.11778E-14
 -1      3585 9.64569E-03 2.34699E-04-8.85597E-14
 -1      3586 9.57761E-03 1.98908E-04-8.73644E-14
 -1      3587 1.00737E-02 2.32002E-04-9.64837E-14
 -1      3588 9.93097E-03 2.33088E-04-9.38186E-14
 -1      3589 9.86243E-03 1.97240E-04-9.25998E-14
 -1      3590 1.03592E-02 2.29337E-04-1.01889E-13
 -1      3591 1.02164E-02 2.30748E-04-9.91740E-14
 -1      3592 1.01476E-02 1.94867E-04-9.79299E-14
 -1      3593 1.06448E-02 2.26101E-04-1.07386E-13
 -1      3594 1.05020E-02 2.27785E-04-1.04626E-13
 -1      3595 1.04329E-02 1.91888E-04-1.03357E-13
 -1      3596 1.09305E-02 2.22395E-04-1.12979E-13
 -1      3597 1.07876E-02 2.24302E-04-1.10171E-13
 -1      3598 1.07184E-02 1.88402E-04-1.08878E-13
 -1      3599 1.12162E-02 2.18309E-04-1.18664E-13
 -1      3600 1.10733E-02 2.20395E-04-1.15811E-13
 -1      3601 1.10041E-02 1.84498E-04-1.14491E-13
 -1      3602 1.15020E-02 2.13922E-04-1.24434E-13
 -1      3603 1.13591E-02 2.16149E-04-1.21538E-13
 -1      3604 1.12897E-02 1.80260E-04-1.20194E-13
 -1      3605 1.17877E-02 2.09300E-04-1.30276E-13
 -1      3606 1.16448E-02 2.11637E-04-1.27346E-13
 -1      3607 1.15755E-02 1.75757E-04-1.25981E-13
 -1      3608 1.20735E-02 2.04500E-04-1.36188E-13
 -1      3609 1.19306E-02 2.06920E-04-1.33226E-13
 -1      3610 1.18612E-02 1.71050E-04-1.31841E-13
 -1      3611 1.23592E-02 1.99565E-04-1.42151E-13
 -1      3612 1.22164E-02 2.02047E-04-1.39162E-13
 -1      3613 1.21470E-02 1.66187E-04-1.37764E-13
 -1      3614 1.26450E-02 1.94534E-04-1.48159E-13
 -1      3615 1.25021E-02 1.97060E-04-1.45150E-13
 -1      3616 1.24328E-02 1.61209E-04-1.43738E-13
 -1      3617 1.29307E-02 1.89433E-04-1.54205E-13
 -1      3618 1.27879E-02 1.91991E-04-1.51179E-13
 -1      3619 1.27186E-02 1.56148E-04-1.49757E-13
 -1      3620 1.32165E-02 1.84285E-04-1.60286E-13
 -1      3621 1.30736E-02 1.86864E-04-1.57242E-13
 -1      3622 1.30043E-02 1.51027E-04-1.55816E-13
 -1      3623 1.35022E-02 1.79107E-04-1.66395E-13
 -1      3624 1.33594E-02 1.81699E-04-1.63336E-13
 -1      3625 1.32901E-02 1.45867E-04-1.61904E-13
 -1      3626 1.37880E-02 1.73913E-04-1.72531E-13
 -1      3627 1.36451E-02 1.76511E-04-1.69459E-13
 -1      3628 1.35759E-02 1.40682E-04-1.68021E-13
 -1      3629 1.38635E-02-4.05039E-04-1.74568E-13
 -1      3630 1.38608E-02-3.62874E-04-1.74510E-13
 -1      3631 1.38531E-02-2.36368E-04-1.74303E-13
 -1      3632 1.38505E-02-1.94198E-04-1.74226E-13
 -1      3633 1.36984E-03 2.30597E-04-2.48580E-15
 -1      3634 1.29844E-03 1.93700E-04-2.39920E-15
 -1      3635 1.52446E-03 2.60267E-04-2.98526E-15
 -1      3636 1.04540E-03-1.38654E-04-1.83986E-15
 -1      3637 2.43988E-03 4.54057E-04-6.82794E-15
 -1      3638 1.74210E-03 1.51224E-04-4.92847E-15
 -1      3639 1.88031E-03 2.09994E-04-5.18979E-15
 -1      3640 6.26472E-03-3.00695E-05-3.03229E-14
 -1      3641 6.27575E-03-4.70411E-05-3.04451E-14
 -1      3642 5.87941E-03-2.11717E-04-2.84862E-14
 -1      3643 5.77147E-03-2.51031E-04-2.78051E-14
 -1      3644 5.85054E-03 9.53773E-05-2.71484E-14
 -1      3645 5.96190E-03 5.25563E-05-2.76358E-14
 -1      3646 5.51956E-03 3.24324E-04-2.64929E-14
 -1      3647 5.34556E-03 3.68316E-04-2.48603E-14
 -1      3648 1.38582E-02-3.20706E-04-1.74444E-13
 -1      3649 1.38557E-02-2.78538E-04-1.74377E-13
 -1      3650 1.37306E-02-2.55198E-04-1.71667E-13
 -1      3651 1.37358E-02-3.39534E-04-1.71802E-13
 -1      3652 1.52854E-03-2.04783E-04-3.57529E-15
 -1      3653 1.68029E-03-2.31920E-04-4.17616E-15
 -1      3654 1.78327E-03-1.69280E-04-5.39505E-15
 -1      3655 1.64032E-03-1.18514E-04-5.08706E-15
 -1      3656 1.50845E-03-9.46012E-05-4.55880E-15
 -1      3657 1.74836E-03-1.87967E-04-4.96711E-15
 -1      3658 1.29501E-03 4.82313E-07-4.26863E-15
 -1      3659 1.35759E-03 1.59017E-05-4.36936E-15
 -1      3660 1.26124E-03-2.26294E-05-4.07848E-15
 -1      3661 1.24968E-03-1.20902E-05-4.09484E-15
 -1      3662 1.85472E-03-2.76209E-04-4.81672E-15
 -1      3663 1.46076E-03 4.59508E-05-4.52193E-15
 -1      3664 1.58961E-03 8.90282E-05-4.70624E-15
 -1      3665 1.41110E-02 1.13967E-04-1.79578E-13
 -1      3666 1.41152E-02 1.49307E-04-1.79621E-13
 -1      3667 1.40234E-02 1.58836E-04-1.77626E-13
 -1      3668 1.39885E-02 9.51377E-05-1.76951E-13
 -1      3669 6.25521E-03-6.93955E-05-3.04581E-14
 -1      3670 6.20290E-03-9.58986E-05-3.03559E-14
 -1      3671 6.25927E-03-1.93745E-05-3.04325E-14
 -1      3672 6.33817E-03-2.82525E-05-3.17956E-14
 -1      3673 6.24786E-03-7.76950E-06-3.05390E-14
 -1      3674 1.09738E-03-7.14432E-05-2.53049E-15
 -1      3675 1.14182E-03-9.79882E-05-2.51595E-15
 -1      3676 9.13262E-04-1.44012E-05-2.14225E-15
 -1      3677 1.59891E-03 1.20709E-04-4.41292E-15
 -1      3678 1.38480E-02-1.52206E-04-1.74144E-13
 -1      3679 1.38454E-02-1.10214E-04-1.74058E-13
 -1      3680 1.37255E-02-1.71037E-04-1.71515E-13
 -1      3681 1.20937E-03-4.54149E-06-3.74891E-15
 -1      3682 1.37078E-02-4.85495E-04-1.71193E-13
 -1      3683 1.38324E-02-4.90618E-04-1.73892E-13
 -1      3684 1.38487E-02-4.66614E-04-1.74246E-13
 -1      3685 1.36340E-02-4.47061E-04-1.69603E-13
 -1      3686 2.01731E-03 2.77004E-04-5.44621E-15
 -1      3687 2.15545E-03 3.53651E-04-5.70670E-15
 -1      3688 1.25011E-03 1.52889E-04-2.44389E-15
 -1      3689 1.87466E-03 2.45557E-04-4.86294E-15
 -1      3690 5.66999E-03 2.46889E-04-2.74201E-14
 -1      3691 6.07600E-03 3.60236E-05-2.89313E-14
 -1      3692 1.70421E-03-2.07004E-04-4.51050E-15
 -1      3693 1.39316E-02 1.68365E-04-1.75632E-13
 -1      3694 6.33075E-03-6.10663E-05-3.17006E-14
 -1      3695 1.02794E-03 7.30847E-05-2.05844E-15
 -1      3696 5.56074E-03-2.93320E-04-2.57481E-14
 -1      3697 1.07335E-03 4.34525E-05-2.48904E-15
 -1      3698 1.03913E-03 2.45433E-05-2.50888E-15
 -1      3699 1.38429E-02-6.82232E-05-1.73973E-13
 -1      3700 1.38404E-02-2.62332E-05-1.73881E-13
 -1      3701 1.37204E-02-8.70549E-05-1.71350E-13
 -1      3702 1.05800E-03-5.02757E-05-2.54010E-15
 -1      3703 1.17559E-03-6.61079E-05-2.97231E-15
 -1      3704 1.02685E-03-3.36627E-05-2.54518E-15
 -1      3705 1.37220E-02-9.71907E-06-1.71319E-13
 -1      3706 1.38445E-02 9.11226E-06-1.73935E-13
 -1      3707 1.38486E-02 4.44564E-05-1.73988E-13
 -1      3708 5.99120E-03-1.68484E-04-2.91081E-14
 -1      3709 6.04027E-03-2.09789E-04-3.06123E-14
 -1      3710 6.17504E-03-2.05976E-04-3.23758E-14
 -1      3711 6.11310E-03-1.39683E-04-3.01336E-14
 -1      3712 2.08956E-03 3.71268E-04-5.19191E-15
 -1      3713 1.94450E-03 3.37268E-04-4.59566E-15
 -1      3714 5.79817E-03 1.44498E-04-2.74475E-14
 -1      3715 4.97785E-03 5.37242E-04-2.22017E-14
 -1      3716 4.78609E-03 6.14027E-04-2.06913E-14
 -1      3717 6.23030E-03-1.23887E-04-3.14870E-14
 -1      3718 5.19734E-03 4.22593E-04-2.36890E-14
 -1      3719 1.35471E-03 3.42800E-05-4.05911E-15
 -1      3720 1.38623E-02 1.32536E-04-1.74186E-13
 -1      3721 1.36158E-03-1.55044E-04-3.11766E-15
 -1      3722 1.37609E-03-1.27511E-04-3.41177E-15
 -1      3723 1.14306E-03-1.39367E-04-2.22934E-15
 -1      3724 1.23681E-03-1.37520E-04-2.65434E-15
 -1      3725 1.38649E-02-4.42608E-04-1.74600E-13
 -1      3726 1.25159E-03-3.92546E-05-3.75286E-15
 -1      3727 1.15061E-03-2.88168E-05-3.27773E-15
 -1      3728 5.73328E-03-2.84307E-04-2.78594E-14
 -1      3729 1.37399E-02-4.19270E-04-1.71896E-13
 -1      3730 1.36325E-02-4.09494E-04-1.69576E-13
 -1      3731 2.24377E-03 4.17579E-04-5.79968E-15
 -1      3732 6.32992E-03-2.00857E-04-3.44299E-14
 -1      3733 6.46036E-03-2.01773E-04-3.62709E-14
 -1      3734 6.59007E-03-2.03884E-04-3.81451E-14
 -1      3735 6.72025E-03-2.06900E-04-4.00575E-14
 -1      3736 6.55691E-03-1.71013E-04-3.72087E-14
 -1      3737 6.85061E-03-2.10642E-04-4.20065E-14
 -1      3738 6.98176E-03-2.14995E-04-4.39896E-14
 -1      3739 6.80815E-03-1.78725E-04-4.10312E-14
 -1      3740 7.11351E-03-2.19790E-04-4.60090E-14
 -1      3741 7.24616E-03-2.25014E-04-4.80644E-14
 -1      3742 7.06402E-03-1.87889E-04-4.49992E-14
 -1      3743 7.37955E-03-2.30496E-04-5.01532E-14
 -1      3744 7.51382E-03-2.36239E-04-5.22765E-14
 -1      3745 7.32462E-03-1.98067E-04-4.91066E-14
 -1      3746 7.64885E-03-2.42091E-04-5.44348E-14
 -1      3747 7.78469E-03-2.48064E-04-5.66250E-14
 -1      3748 7.58965E-03-2.08892E-04-5.33527E-14
 -1      3749 7.92123E-03-2.54028E-04-5.88471E-14
 -1      3750 8.05849E-03-2.60001E-04-6.11022E-14
 -1      3751 7.85863E-03-2.19986E-04-5.77308E-14
 -1      3752 8.19635E-03-2.65878E-04-6.33903E-14
 -1      3753 8.33483E-03-2.71680E-04-6.57096E-14
 -1      3754 8.13106E-03-2.31022E-04-6.22389E-14
 -1      3755 8.47382E-03-2.77331E-04-6.80610E-14
 -1      3756 8.61332E-03-2.82851E-04-7.04423E-14
 -1      3757 8.40639E-03-2.41741E-04-6.68777E-14
 -1      3758 8.75324E-03-2.88190E-04-7.28536E-14
 -1      3759 8.89357E-03-2.93369E-04-7.52965E-14
 -1      3760 8.68414E-03-2.51968E-04-7.16379E-14
 -1      3761 9.03424E-03-2.98357E-04-7.77678E-14
 -1      3762 9.17524E-03-3.03173E-04-8.02676E-14
 -1      3763 8.96385E-03-2.61608E-04-7.65186E-14
 -1      3764 9.31650E-03-3.07801E-04-8.27971E-14
 -1      3765 9.45802E-03-3.12261E-04-8.53542E-14
 -1      3766 9.24512E-03-2.70626E-04-8.15174E-14
 -1      3767 9.59974E-03-3.16545E-04-8.79388E-14
 -1      3768 9.74166E-03-3.20673E-04-9.05489E-14
 -1      3769 9.52762E-03-2.79033E-04-8.66297E-14
 -1      3770 9.88373E-03-3.24644E-04-9.31881E-14
 -1      3771 1.00260E-02-3.28475E-04-9.58537E-14
 -1      3772 9.81107E-03-2.86870E-04-9.18488E-14
 -1      3773 1.01683E-02-3.32170E-04-9.85419E-14
 -1      3774 1.03107E-02-3.35744E-04-1.01255E-13
 -1      3775 1.00952E-02-2.94197E-04-9.71731E-14
 -1      3776 1.04532E-02-3.39202E-04-1.03994E-13
 -1      3777 1.05959E-02-3.42558E-04-1.06752E-13
 -1      3778 1.03799E-02-3.01081E-04-1.02597E-13
 -1      3779 1.07385E-02-3.45820E-04-1.09531E-13
 -1      3780 1.08812E-02-3.48996E-04-1.12335E-13
 -1      3781 1.06650E-02-3.07591E-04-1.08113E-13
 -1      3782 1.10240E-02-3.52096E-04-1.15158E-13
 -1      3783 1.11668E-02-3.55128E-04-1.17998E-13
 -1      3784 1.09503E-02-3.13791E-04-1.13712E-13
 -1      3785 1.13096E-02-3.58099E-04-1.20859E-13
 -1      3786 1.14524E-02-3.61015E-04-1.23741E-13
 -1      3787 1.12359E-02-3.19740E-04-1.19392E-13
 -1      3788 1.15953E-02-3.63884E-04-1.26640E-13
 -1      3789 1.17382E-02-3.66711E-04-1.29557E-13
 -1      3790 1.15215E-02-3.25490E-04-1.25152E-13
 -1      3791 1.18810E-02-3.69502E-04-1.32490E-13
 -1      3792 1.20239E-02-3.72261E-04-1.35442E-13
 -1      3793 1.18073E-02-3.31085E-04-1.30983E-13
 -1      3794 1.21668E-02-3.74992E-04-1.38413E-13
 -1      3795 1.23097E-02-3.77699E-04-1.41398E-13
 -1      3796 1.20930E-02-3.36562E-04-1.36886E-13
 -1      3797 1.24526E-02-3.80387E-04-1.44397E-13
 -1      3798 1.25955E-02-3.83057E-04-1.47409E-13
 -1      3799 1.23788E-02-3.41950E-04-1.42856E-13
 -1      3800 1.27384E-02-3.85712E-04-1.50434E-13
 -1      3801 1.28813E-02-3.88356E-04-1.53470E-13
 -1      3802 1.26646E-02-3.47273E-04-1.48878E-13
 -1      3803 1.30242E-02-3.90989E-04-1.56515E-13
 -1      3804 1.31671E-02-3.93614E-04-1.59571E-13
 -1      3805 1.29504E-02-3.52549E-04-1.54948E-13
 -1      3806 1.33100E-02-3.96233E-04-1.62633E-13
 -1      3807 1.34529E-02-3.98847E-04-1.65704E-13
 -1      3808 1.32362E-02-3.57794E-04-1.61054E-13
 -1      3809 6.31836E-03 1.67844E-04-3.49120E-14
 -1      3810 6.17765E-03 1.75683E-04-3.30922E-14
 -1      3811 1.45425E-03 9.73571E-05-3.84882E-15
 -1      3812 1.58738E-03 1.52051E-04-4.04523E-15
 -1      3813 1.44809E-03 1.72063E-04-3.19588E-15
 -1      3814 1.25258E-03 1.13750E-04-2.71833E-15
 -1      3815 6.03425E-03 1.85982E-04-3.13095E-14
 -1      3816 5.88653E-03 2.00747E-04-2.95641E-14
 -1      3817 6.15852E-03 1.37415E-04-3.22885E-14
 -1      3818 6.86648E-03 1.54575E-04-4.25601E-14
 -1      3819 6.73039E-03 1.56098E-04-4.05955E-14
 -1      3820 7.13846E-03 1.53816E-04-4.65989E-14
 -1      3821 7.00236E-03 1.53883E-04-4.45618E-14
 -1      3822 6.95842E-03 1.22110E-04-4.36515E-14
 -1      3823 7.41145E-03 1.54987E-04-5.07740E-14
 -1      3824 7.27474E-03 1.54217E-04-4.86691E-14
 -1      3825 7.22537E-03 1.22516E-04-4.77238E-14
 -1      3826 7.68612E-03 1.57141E-04-5.50857E-14
 -1      3827 7.54854E-03 1.55977E-04-5.29130E-14
 -1      3828 7.49476E-03 1.23943E-04-5.19332E-14
 -1      3829 7.96265E-03 1.59585E-04-5.95274E-14
 -1      3830 7.82414E-03 1.58350E-04-5.72915E-14
 -1      3831 7.76679E-03 1.25795E-04-5.62787E-14
 -1      3832 8.24097E-03 1.61825E-04-6.40993E-14
 -1      3833 8.10158E-03 1.60745E-04-6.17974E-14
 -1      3834 8.04137E-03 1.27617E-04-6.07540E-14
 -1      3835 8.52089E-03 1.63533E-04-6.87918E-14
 -1      3836 8.38073E-03 1.62752E-04-6.64298E-14
 -1      3837 8.31824E-03 1.29077E-04-6.53540E-14
 -1      3838 8.80217E-03 1.64515E-04-7.36107E-14
 -1      3839 8.66136E-03 1.64116E-04-7.11862E-14
 -1      3840 8.59708E-03 1.29954E-04-7.00785E-14
 -1      3841 9.08458E-03 1.64687E-04-7.85501E-14
 -1      3842 8.94324E-03 1.64700E-04-7.60654E-14
 -1      3843 8.87757E-03 1.30128E-04-7.49271E-14
 -1      3844 9.36789E-03 1.64036E-04-8.36026E-14
 -1      3845 9.22613E-03 1.64459E-04-8.10632E-14
 -1      3846 9.15939E-03 1.29554E-04-7.98957E-14
 -1      3847 9.65189E-03 1.62606E-04-8.87615E-14
 -1      3848 9.50981E-03 1.63413E-04-8.61698E-14
 -1      3849 9.44228E-03 1.28245E-04-8.49747E-14
 -1      3850 9.93644E-03 1.60465E-04-9.40207E-14
 -1      3851 9.79410E-03 1.61618E-04-9.13803E-14
 -1      3852 9.72599E-03 1.26248E-04-9.01590E-14
 -1      3853 1.02214E-02 1.57702E-04-9.93750E-14
 -1      3854 1.00789E-02 1.59155E-04-9.66838E-14
 -1      3855 1.00103E-02 1.23635E-04-9.54396E-14
 -1      3856 1.05066E-02 1.54408E-04-1.04825E-13
 -1      3857 1.03640E-02 1.56116E-04-1.02090E-13
 -1      3858 1.02951E-02 1.20485E-04-1.00820E-13
 -1      3859 1.07920E-02 1.50671E-04-1.10368E-13
 -1      3860 1.06493E-02 1.52589E-04-1.07585E-13
 -1      3861 1.05803E-02 1.16880E-04-1.06293E-13
 -1      3862 1.10776E-02 1.46572E-04-1.16001E-13
 -1      3863 1.09348E-02 1.48662E-04-1.13173E-13
 -1      3864 1.08657E-02 1.12899E-04-1.11858E-13
 -1      3865 1.13633E-02 1.42185E-04-1.21726E-13
 -1      3866 1.12205E-02 1.44411E-04-1.18853E-13
 -1      3867 1.11512E-02 1.08612E-04-1.17512E-13
 -1      3868 1.16490E-02 1.37571E-04-1.27528E-13
 -1      3869 1.15062E-02 1.39903E-04-1.24617E-13
 -1      3870 1.14369E-02 1.04082E-04-1.23255E-13
 -1      3871 1.19348E-02 1.32782E-04-1.33403E-13
 -1      3872 1.17919E-02 1.35195E-04-1.30457E-13
 -1      3873 1.17226E-02 9.93621E-05-1.29075E-13
 -1      3874 1.22206E-02 1.27861E-04-1.39340E-13
 -1      3875 1.20777E-02 1.30336E-04-1.36365E-13
 -1      3876 1.20084E-02 9.44962E-05-1.34964E-13
 -1      3877 1.25064E-02 1.22842E-04-1.45325E-13
 -1      3878 1.23635E-02 1.25362E-04-1.42326E-13
 -1      3879 1.22942E-02 8.95206E-05-1.40914E-13
 -1      3880 1.27922E-02 1.17753E-04-1.51355E-13
 -1      3881 1.26493E-02 1.20305E-04-1.48334E-13
 -1      3882 1.25800E-02 8.44643E-05-1.46910E-13
 -1      3883 1.30779E-02 1.12614E-04-1.57422E-13
 -1      3884 1.29351E-02 1.15189E-04-1.54384E-13
 -1      3885 1.28658E-02 7.93502E-05-1.52951E-13
 -1      3886 1.33637E-02 1.07444E-04-1.63518E-13
 -1      3887 1.32208E-02 1.10032E-04-1.60467E-13
 -1      3888 1.31516E-02 7.41964E-05-1.59028E-13
 -1      3889 1.35588E-02-3.71057E-04-1.67986E-13
 -1      3890 1.12381E-03-6.42105E-06-3.23567E-15
 -1      3891 1.17149E-03 6.26101E-06-3.39128E-15
 -1      3892 1.05712E-03-2.07317E-05-2.82034E-15
 -1      3893 6.11598E-03 5.79238E-05-3.01596E-14
 -1      3894 6.19438E-03 2.12495E-05-3.04277E-14
 -1      3895 5.81786E-03 1.79391E-04-2.83528E-14
 -1      3896 5.99641E-03 1.12551E-04-2.95910E-14
 -1      3897 1.10655E-03 1.67992E-05-2.91923E-15
 -1      3898 1.00642E-03 9.69593E-06-2.49650E-15
 -1      3899 1.20181E-03 8.00841E-05-2.75123E-15
 -1      3900 1.58701E-03-1.54782E-04-4.31952E-15
 -1      3901 1.84379E-03 2.78532E-04-4.44439E-15
 -1      3902 1.78405E-03 3.03913E-04-3.96598E-15
 -1      3903 1.64786E-03 2.78631E-04-3.44717E-15
 -1      3904 1.72242E-03 2.19793E-04-4.21985E-15
 -1      3905 6.34974E-03-1.09554E-04-3.30088E-14
 -1      3906 6.27616E-03-1.51011E-04-3.27755E-14
 -1      3907 1.21327E-03 2.33178E-05-3.40562E-15
 -1      3908 1.38449E-02 1.00687E-04-1.73847E-13
 -1      3909 6.40623E-03-5.18191E-05-3.30124E-14
 -1      3910 6.39079E-03-7.61138E-05-3.30247E-14
 -1      3911 1.30002E-03 4.96857E-05-3.53934E-15
 -1      3912 1.26831E-03-5.31823E-05-3.63815E-15
 -1      3913 9.92366E-04-1.74624E-06-2.50756E-15
 -1      3914 6.59404E-03 1.58575E-04-3.86655E-14
 -1      3915 6.45675E-03 1.62462E-04-3.67709E-14
 -1      3916 6.69314E-03 1.23505E-04-3.97192E-14
 -1      3917 1.37224E-02 8.18570E-05-1.71235E-13
 -1      3918 1.04805E-03-1.02077E-05-2.81609E-15
 -1      3919 1.32449E-03-7.94400E-05-3.63043E-15
 -1      3920 1.28248E-03 7.22015E-05-3.21597E-15
 -1      3921 1.42057E-03-1.11010E-04-3.81055E-15
 -1      3922 1.35963E-02-2.31811E-05-1.68631E-13
 -1      3923 1.36004E-02 1.21635E-05-1.68686E-13
 -1      3924 1.56777E-03 2.34339E-04-3.34238E-15
 -1      3925 1.36030E-02-1.89778E-04-1.68890E-13
 -1      3926 1.36005E-02-1.47788E-04-1.68812E-13
 -1      3927 6.42775E-03 1.27877E-04-3.59314E-14
 -1      3928 1.56126E-03 1.82992E-04-3.66889E-15
 -1      3929 1.35562E-02-3.28891E-04-1.67925E-13
 -1      3930 1.36495E-02 1.02253E-04-1.69644E-13
 -1      3931 1.35066E-02 1.04850E-04-1.66578E-13
 -1      3932 1.34373E-02 6.90167E-05-1.65133E-13
 -1      3933 1.35996E-02-1.06479E-04-1.68766E-13
 -1      3934 1.35971E-02-6.44889E-05-1.68683E-13
 -1      3935 1.34755E-02-4.26060E-05-1.66057E-13
 -1      3936 1.34771E-02-1.25221E-04-1.66151E-13
 -1      3937 6.13671E-03 8.80984E-05-3.11068E-14
 -1      3938 1.36082E-02-2.74116E-04-1.69035E-13
 -1      3939 1.36056E-02-2.31947E-04-1.68964E-13
 -1      3940 1.34806E-02-2.08697E-04-1.66268E-13
 -1      3941 6.28710E-03-1.68947E-04-3.32789E-14
 -1      3942 6.41348E-03-4.07087E-05-3.31313E-14
 -1      3943 6.48614E-03-5.44619E-05-3.44822E-14
 -1      3944 6.41602E-03-2.97414E-05-3.32476E-14
 -1      3945 6.44756E-03-9.75281E-05-3.43494E-14
 -1      3946 6.29486E-03 9.36500E-06-3.17988E-14
 -1      3947 6.76633E-03-1.48595E-04-4.00602E-14
 -1      3948 6.88978E-03-1.53050E-04-4.20079E-14
 -1      3949 7.01482E-03-1.57517E-04-4.39908E-14
 -1      3950 7.14162E-03-1.62233E-04-4.60089E-14
 -1      3951 6.96543E-03-1.28724E-04-4.29848E-14
 -1      3952 7.26986E-03-1.66995E-04-4.80614E-14
 -1      3953 7.39959E-03-1.71942E-04-5.01498E-14
 -1      3954 7.21487E-03-1.37292E-04-4.70195E-14
 -1      3955 7.53059E-03-1.76904E-04-5.22716E-14
 -1      3956 7.66285E-03-1.81974E-04-5.44284E-14
 -1      3957 7.47136E-03-1.46129E-04-5.11937E-14
 -1      3958 7.79619E-03-1.87016E-04-5.66163E-14
 -1      3959 7.93060E-03-1.92096E-04-5.88368E-14
 -1      3960 7.73366E-03-1.55121E-04-5.55029E-14
 -1      3961 8.06594E-03-1.97102E-04-6.10910E-14
 -1      3962 8.20216E-03-2.02083E-04-6.33773E-14
 -1      3963 8.00079E-03-1.64125E-04-5.99446E-14
 -1      3964 8.33915E-03-2.06953E-04-6.56951E-14
 -1      3965 8.47687E-03-2.11753E-04-6.80440E-14
 -1      3966 8.27193E-03-1.72980E-04-6.45148E-14
 -1      3967 8.61522E-03-2.16420E-04-7.04230E-14
 -1      3968 8.75417E-03-2.20989E-04-7.28327E-14
 -1      3969 8.54638E-03-1.81564E-04-6.92103E-14
 -1      3970 8.89363E-03-2.25416E-04-7.52721E-14
 -1      3971 9.03357E-03-2.29730E-04-7.77414E-14
 -1      3972 8.82351E-03-1.89801E-04-7.40271E-14
 -1      3973 9.17391E-03-2.33903E-04-8.02410E-14
 -1      3974 9.31462E-03-2.37958E-04-8.27679E-14
 -1      3975 9.10279E-03-1.97652E-04-7.89647E-14
 -1      3976 9.45565E-03-2.41880E-04-8.53232E-14
 -1      3977 9.59696E-03-2.45690E-04-8.79043E-14
 -1      3978 9.38377E-03-2.05108E-04-8.40181E-14
 -1      3979 9.73852E-03-2.49378E-04-9.05134E-14
 -1      3980 9.88030E-03-2.52963E-04-9.31485E-14
 -1      3981 9.66607E-03-2.12187E-04-8.91801E-14
 -1      3982 1.00223E-02-2.56441E-04-9.58094E-14
 -1      3983 1.01644E-02-2.59828E-04-9.84930E-14
 -1      3984 9.94939E-03-2.18919E-04-9.44462E-14
 -1      3985 1.03067E-02-2.63124E-04-1.01202E-13
 -1      3986 1.04490E-02-2.66342E-04-1.03938E-13
 -1      3987 1.02335E-02-2.25346E-04-9.98127E-14
 -1      3988 1.05915E-02-2.69483E-04-1.06694E-13
 -1      3989 1.07341E-02-2.72559E-04-1.09470E-13
 -1      3990 1.05181E-02-2.31510E-04-1.05276E-13
 -1      3991 1.08767E-02-2.75573E-04-1.12268E-13
 -1      3992 1.10194E-02-2.78533E-04-1.15087E-13
 -1      3993 1.08032E-02-2.37454E-04-1.10827E-13
 -1      3994 1.11622E-02-2.81443E-04-1.17926E-13
 -1      3995 1.13050E-02-2.84310E-04-1.20785E-13
 -1      3996 1.10885E-02-2.43217E-04-1.16460E-13
 -1      3997 1.14478E-02-2.87139E-04-1.23665E-13
 -1      3998 1.15906E-02-2.89933E-04-1.26561E-13
 -1      3999 1.13741E-02-2.48837E-04-1.22176E-13
 -1      4000 1.17335E-02-2.92697E-04-1.29476E-13
 -1      4001 1.18764E-02-2.95435E-04-1.32409E-13
 -1      4002 1.16597E-02-2.54342E-04-1.27970E-13
 -1      4003 1.20193E-02-2.98150E-04-1.35360E-13
 -1      4004 1.21621E-02-3.00845E-04-1.38329E-13
 -1      4005 1.19455E-02-2.59760E-04-1.33836E-13
 -1      4006 1.23051E-02-3.03524E-04-1.41313E-13
 -1      4007 1.24480E-02-3.06187E-04-1.44311E-13
 -1      4008 1.22313E-02-2.65110E-04-1.39769E-13
 -1      4009 1.25909E-02-3.08839E-04-1.47320E-13
 -1      4010 1.27338E-02-3.11479E-04-1.50343E-13
 -1      4011 1.25171E-02-2.70412E-04-1.45764E-13
 -1      4012 1.28767E-02-3.14112E-04-1.53378E-13
 -1      4013 1.30196E-02-3.16737E-04-1.56422E-13
 -1      4014 1.28029E-02-2.75677E-04-1.51809E-13
 -1      4015 1.31625E-02-3.19356E-04-1.59476E-13
 -1      4016 1.33054E-02-3.21970E-04-1.62537E-13
 -1      4017 1.30887E-02-2.80918E-04-1.57897E-13
 -1      4018 7.57542E-03 9.37016E-05-5.30944E-14
 -1      4019 7.44166E-03 9.30747E-05-5.09550E-14
 -1      4020 7.30887E-03 9.25434E-05-4.88496E-14
 -1      4021 7.17692E-03 9.20669E-05-4.67785E-14
 -1      4022 7.38902E-03 6.33916E-05-4.99768E-14
 -1      4023 7.04600E-03 9.17779E-05-4.47429E-14
 -1      4024 6.91586E-03 9.16508E-05-4.27416E-14
 -1      4025 7.12911E-03 6.29007E-05-4.58351E-14
 -1      4026 7.84545E-03 9.49088E-05-5.74720E-14
 -1      4027 7.71000E-03 9.42996E-05-5.52671E-14
 -1      4028 7.65357E-03 6.38854E-05-5.42553E-14
 -1      4029 8.11857E-03 9.58892E-05-6.19779E-14
 -1      4030 7.98163E-03 9.54275E-05-5.97090E-14
 -1      4031 7.92220E-03 6.41995E-05-5.86655E-14
 -1      4032 8.39438E-03 9.64288E-05-6.66099E-14
 -1      4033 8.25616E-03 9.62127E-05-6.42781E-14
 -1      4034 8.19435E-03 6.41861E-05-6.32024E-14
 -1      4035 8.67245E-03 9.63905E-05-7.13665E-14
 -1      4036 8.53315E-03 9.64785E-05-6.89725E-14
 -1      4037 8.46947E-03 6.37169E-05-6.78671E-14
 -1      4038 8.95238E-03 9.57062E-05-7.62453E-14
 -1      4039 8.81220E-03 9.61243E-05-7.37909E-14
 -1      4040 8.74705E-03 6.27170E-05-7.26542E-14
 -1      4041 9.23380E-03 9.43615E-05-8.12406E-14
 -1      4042 9.09291E-03 9.51106E-05-7.87291E-14
 -1      4043 9.02664E-03 6.11556E-05-7.75640E-14
 -1      4044 9.51640E-03 9.23816E-05-8.63463E-14
 -1      4045 9.37496E-03 9.34447E-05-8.37812E-14
 -1      4046 9.30782E-03 5.90378E-05-8.25874E-14
 -1      4047 9.79991E-03 8.98176E-05-9.15555E-14
 -1      4048 9.65805E-03 9.11664E-05-8.89385E-14
 -1      4049 9.59025E-03 5.63952E-05-8.77194E-14
 -1      4050 1.00841E-02 8.67350E-05-9.68599E-14
 -1      4051 9.94193E-03 8.83352E-05-9.41962E-14
 -1      4052 9.87365E-03 5.32767E-05-9.29514E-14
 -1      4053 1.03688E-02 8.32049E-05-1.02265E-13
 -1      4054 1.02264E-02 8.50205E-05-9.95499E-14
 -1      4055 1.01578E-02 4.97399E-05-9.82822E-14
 -1      4056 1.06539E-02 7.92984E-05-1.07761E-13
 -1      4057 1.05113E-02 8.12939E-05-1.05002E-13
 -1      4058 1.04425E-02 4.58451E-05-1.03710E-13
 -1      4059 1.09393E-02 7.50818E-05-1.13347E-13
 -1      4060 1.07966E-02 7.72247E-05-1.10542E-13
 -1      4061 1.07275E-02 4.16511E-05-1.09229E-13
 -1      4062 1.12248E-02 7.06148E-05-1.19023E-13
 -1      4063 1.10820E-02 7.28761E-05-1.16175E-13
 -1      4064 1.10129E-02 3.72120E-05-1.14838E-13
 -1      4065 1.15105E-02 6.59495E-05-1.24782E-13
 -1      4066 1.13676E-02 6.83041E-05-1.21894E-13
 -1      4067 1.12984E-02 3.25761E-05-1.20533E-13
 -1      4068 1.17962E-02 6.11298E-05-1.30619E-13
 -1      4069 1.16533E-02 6.35566E-05-1.27692E-13
 -1      4070 1.15841E-02 2.77848E-05-1.26312E-13
 -1      4071 1.20820E-02 5.61923E-05-1.36525E-13
 -1      4072 1.19391E-02 5.86740E-05-1.33563E-13
 -1      4073 1.18698E-02 2.28734E-05-1.32164E-13
 -1      4074 1.23678E-02 5.11666E-05-1.42485E-13
 -1      4075 1.22249E-02 5.36890E-05-1.39499E-13
 -1      4076 1.21556E-02 1.78705E-05-1.38082E-13
 -1      4077 1.26536E-02 4.60764E-05-1.48496E-13
 -1      4078 1.25107E-02 4.86284E-05-1.45485E-13
 -1      4079 1.24414E-02 1.27997E-05-1.44060E-13
 -1      4080 1.29394E-02 4.09404E-05-1.54550E-13
 -1      4081 1.27965E-02 4.35133E-05-1.51518E-13
 -1      4082 1.27272E-02 7.67945E-06-1.50083E-13
 -1      4083 1.32252E-02 3.57732E-05-1.60634E-13
 -1      4084 1.30823E-02 3.83601E-05-1.57588E-13
 -1      4085 1.30131E-02 2.52434E-06-1.56146E-13
 -1      4086 1.36532E-02 4.60237E-05-1.69785E-13
 -1      4087 6.41728E-03-1.51162E-04-3.48376E-14
 -1      4088 6.26275E-03 8.51674E-05-3.28837E-14
 -1      4089 6.49210E-03-1.24585E-04-3.55132E-14
 -1      4090 6.50983E-03-1.40028E-04-3.60363E-14
 -1      4091 6.62934E-03-1.44090E-04-3.79052E-14
 -1      4092 6.52729E-03-8.95404E-05-3.55344E-14
 -1      4093 1.35274E-02 3.25608E-05-1.67101E-13
 -1      4094 6.51345E-03 8.24622E-05-3.65488E-14
 -1      4095 6.38768E-03 8.35873E-05-3.46978E-14
 -1      4096 6.35486E-03 4.20282E-05-3.34691E-14
 -1      4097 1.33846E-02 3.51567E-05-1.64040E-13
 -1      4098 6.37538E-03 1.66652E-05-3.33100E-14
 -1      4099 6.41241E-03-1.09372E-05-3.34212E-14
 -1      4100 6.49850E-03-2.42997E-05-3.47855E-14
 -1      4101 6.48588E-03 1.79671E-05-3.51301E-14
 -1      4102 6.78674E-03 9.18292E-05-4.07758E-14
 -1      4103 6.65815E-03 9.22940E-05-3.88462E-14
 -1      4104 6.87435E-03 6.25356E-05-4.18334E-14
 -1      4105 1.33153E-02-6.79197E-07-1.62593E-13
 -1      4106 6.70943E-03-1.19926E-04-3.88454E-14
 -1      4107 1.33574E-02-2.67200E-04-1.63643E-13
 -1      4108 1.34311E-02-3.05639E-04-1.65232E-13
 -1      4109 6.60719E-03 5.24930E-05-3.75631E-14
 -1      4110 1.33161E-02-4.19834E-05-1.62644E-13
 -1      4111 1.33538E-02-1.43177E-04-1.63519E-13
 -1      4112 1.33529E-02-1.01871E-04-1.63476E-13
 -1      4113 6.58161E-03-6.70871E-05-3.62189E-14
 -1      4114 6.64022E-03-9.10513E-05-3.74189E-14
 -1      4115 1.33569E-02-2.26272E-04-1.63620E-13
 -1      4116 1.33543E-02-1.84106E-04-1.63549E-13
 -1      4117 1.32301E-02-1.60754E-04-1.60882E-13
 -1      4118 1.32311E-02-2.42606E-04-1.60933E-13
 -1      4119 6.59213E-03-5.49254E-05-3.63452E-14
 -1      4120 6.75599E-03 3.68840E-05-3.97175E-14
 -1      4121 6.61752E-03 2.72330E-05-3.73975E-14
 -1      4122 6.62440E-03 4.12360E-06-3.72259E-14
 -1      4123 7.15879E-03-1.08934E-04-4.59781E-14
 -1      4124 7.28415E-03-1.12752E-04-4.80295E-14
 -1      4125 7.41132E-03-1.16516E-04-5.01172E-14
 -1      4126 7.54019E-03-1.20417E-04-5.22376E-14
 -1      4127 7.35004E-03-8.80235E-05-4.90416E-14
 -1      4128 7.67056E-03-1.24261E-04-5.43920E-14
 -1      4129 7.80231E-03-1.28179E-04-5.65795E-14
 -1      4130 7.60656E-03-9.44017E-05-5.32821E-14
 -1      4131 7.93526E-03-1.32060E-04-5.87988E-14
 -1      4132 8.06937E-03-1.35969E-04-6.10509E-14
 -1      4133 7.86911E-03-1.00904E-04-5.76541E-14
 -1      4134 8.20448E-03-1.39804E-04-6.33370E-14
 -1      4135 8.34053E-03-1.43637E-04-6.56525E-14
 -1      4136 8.13659E-03-1.07422E-04-6.21591E-14
 -1      4137 8.47739E-03-1.47392E-04-6.79989E-14
 -1      4138 8.61502E-03-1.51120E-04-7.03767E-14
 -1      4139 8.40813E-03-1.13908E-04-6.67901E-14
 -1      4140 8.75332E-03-1.54764E-04-7.27857E-14
 -1      4141 8.89222E-03-1.58364E-04-7.52241E-14
 -1      4142 8.68295E-03-1.20313E-04-7.15448E-14
 -1      4143 9.03165E-03-1.61880E-04-7.76906E-14
 -1      4144 9.17157E-03-1.65344E-04-8.01881E-14
 -1      4145 8.96042E-03-1.26600E-04-7.64200E-14
 -1      4146 9.31190E-03-1.68727E-04-8.27155E-14
 -1      4147 9.45262E-03-1.72055E-04-8.52680E-14
 -1      4148 9.24000E-03-1.32749E-04-8.14126E-14
 -1      4149 9.59365E-03-1.75309E-04-8.78466E-14
 -1      4150 9.73498E-03-1.78509E-04-9.04531E-14
 -1      4151 9.52123E-03-1.38756E-04-8.65179E-14
 -1      4152 9.87656E-03-1.81644E-04-9.30858E-14
 -1      4153 1.00184E-02-1.84729E-04-9.57428E-14
 -1      4154 9.80374E-03-1.44627E-04-9.17270E-14
 -1      4155 1.01603E-02-1.87758E-04-9.84245E-14
 -1      4156 1.03025E-02-1.90743E-04-1.01130E-13
 -1      4157 1.00872E-02-1.50372E-04-9.70364E-14
 -1      4158 1.04448E-02-1.93681E-04-1.03862E-13
 -1      4159 1.05872E-02-1.96581E-04-1.06614E-13
 -1      4160 1.03714E-02-1.56007E-04-1.02448E-13
 -1      4161 1.07297E-02-1.99442E-04-1.09389E-13
 -1      4162 1.08723E-02-2.02272E-04-1.12183E-13
 -1      4163 1.06562E-02-1.61547E-04-1.07952E-13
 -1      4164 1.10149E-02-2.05070E-04-1.14999E-13
 -1      4165 1.11576E-02-2.07843E-04-1.17835E-13
 -1      4166 1.09413E-02-1.67009E-04-1.13538E-13
 -1      4167 1.13004E-02-2.10591E-04-1.20692E-13
 -1      4168 1.14432E-02-2.13318E-04-1.23569E-13
 -1      4169 1.12267E-02-1.72407E-04-1.19210E-13
 -1      4170 1.15860E-02-2.16026E-04-1.26465E-13
 -1      4171 1.17289E-02-2.18718E-04-1.29379E-13
 -1      4172 1.15123E-02-1.77754E-04-1.24961E-13
 -1      4173 1.18717E-02-2.21395E-04-1.32312E-13
 -1      4174 1.20146E-02-2.24060E-04-1.35262E-13
 -1      4175 1.17980E-02-1.83060E-04-1.30791E-13
 -1      4176 1.21575E-02-2.26714E-04-1.38230E-13
 -1      4177 1.23004E-02-2.29358E-04-1.41213E-13
 -1      4178 1.20838E-02-1.88337E-04-1.36691E-13
 -1      4179 1.24433E-02-2.31995E-04-1.44211E-13
 -1      4180 1.25863E-02-2.34624E-04-1.47220E-13
 -1      4181 1.23696E-02-1.93590E-04-1.42655E-13
 -1      4182 1.27292E-02-2.37248E-04-1.50240E-13
 -1      4183 1.28721E-02-2.39867E-04-1.53274E-13
 -1      4184 1.26554E-02-1.98826E-04-1.48674E-13
 -1      4185 1.29801E-02-2.39933E-04-1.55573E-13
 -1      4186 1.31231E-02-2.42545E-04-1.58622E-13
 -1      4187 1.31225E-02-2.01622E-04-1.58600E-13
 -1      4188 1.29064E-02-2.01502E-04-1.53995E-13
 -1      4189 7.99717E-03 3.35392E-05-5.98590E-14
 -1      4190 7.86272E-03 3.39472E-05-5.76214E-14
 -1      4191 7.72934E-03 3.43171E-05-5.54154E-14
 -1      4192 7.59704E-03 3.45749E-05-5.32438E-14
 -1      4193 7.80298E-03 4.68577E-06-5.65772E-14
 -1      4194 7.20795E-03 3.51166E-05-4.69291E-14
 -1      4195 7.08118E-03 3.51433E-05-4.48931E-14
 -1      4196 8.26881E-03 3.24118E-05-6.44297E-14
 -1      4197 8.13255E-03 3.30113E-05-6.21290E-14
 -1      4198 8.07056E-03 2.70057E-06-6.10546E-14
 -1      4199 8.54359E-03 3.08708E-05-6.91256E-14
 -1      4200 8.40583E-03 3.16868E-05-6.67615E-14
 -1      4201 8.34210E-03 4.01632E-07-6.56569E-14
 -1      4202 8.82096E-03 2.88822E-05-7.39432E-14
 -1      4203 8.68198E-03 2.99272E-05-7.15193E-14
 -1      4204 8.61686E-03-2.23054E-06-7.03838E-14
 -1      4205 9.10040E-03 2.64385E-05-7.88813E-14
 -1      4206 8.96044E-03 2.77123E-05-7.63981E-14
 -1      4207 8.89425E-03-5.20376E-06-7.52316E-14
 -1      4208 9.38150E-03 2.35555E-05-8.39335E-14
 -1      4209 9.24076E-03 2.50472E-05-8.13936E-14
 -1      4210 9.17373E-03-8.51117E-06-8.01997E-14
 -1      4211 9.66388E-03 2.02655E-05-8.90911E-14
 -1      4212 9.52254E-03 2.19570E-05-8.64996E-14
 -1      4213 9.45488E-03-1.21333E-05-8.52791E-14
 -1      4214 9.94726E-03 1.66110E-05-9.43489E-14
 -1      4215 9.80546E-03 1.84798E-05-9.17081E-14
 -1      4216 9.73731E-03-1.60418E-05-9.04629E-14
 -1      4217 1.02314E-02 1.26393E-05-9.97033E-14
 -1      4218 1.00892E-02 1.46612E-05-9.70136E-14
 -1      4219 1.00207E-02-2.02034E-05-9.57453E-14
 -1      4220 1.05161E-02 8.39830E-06-1.05157E-13
 -1      4221 1.03737E-02 1.05493E-05-1.02418E-13
 -1      4222 1.03049E-02-2.45829E-05-1.01127E-13
 -1      4223 1.08011E-02 3.93356E-06-1.10698E-13
 -1      4224 1.06586E-02 6.19119E-06-1.07916E-13
 -1      4225 1.05896E-02-2.91461E-05-1.06604E-13
 -1      4226 1.10865E-02-7.13358E-07-1.16330E-13
 -1      4227 1.09438E-02 1.63062E-06-1.13502E-13
 -1      4228 1.08747E-02-3.38607E-05-1.12170E-13
 -1      4229 1.13720E-02-5.50588E-06-1.22044E-13
 -1      4230 1.12292E-02-3.09326E-06-1.19176E-13
 -1      4231 1.11601E-02-3.86979E-05-1.17821E-13
 -1      4232 1.16577E-02-1.04127E-05-1.27840E-13
 -1      4233 1.15149E-02-7.94648E-06-1.24934E-13
 -1      4234 1.14457E-02-4.36326E-05-1.23557E-13
 -1      4235 1.19435E-02-1.54076E-05-1.33709E-13
 -1      4236 1.18006E-02-1.29003E-05-1.30765E-13
 -1      4237 1.17314E-02-4.86434E-05-1.29370E-13
 -1      4238 1.22293E-02-2.04691E-05-1.39644E-13
 -1      4239 1.20864E-02-1.79309E-05-1.36670E-13
 -1      4240 1.20171E-02-5.37126E-05-1.35256E-13
 -1      4241 1.25151E-02-2.55799E-05-1.45632E-13
 -1      4242 1.23722E-02-2.30191E-05-1.42631E-13
 -1      4243 1.23029E-02-5.88257E-05-1.41204E-13
 -1      4244 1.28009E-02-3.07263E-05-1.51672E-13
 -1      4245 1.26580E-02-2.81492E-05-1.48648E-13
 -1      4246 1.25887E-02-6.39712E-05-1.47209E-13
 -1      4247 1.30867E-02-3.58976E-05-1.57744E-13
 -1      4248 1.29438E-02-3.33093E-05-1.54703E-13
 -1      4249 1.28746E-02-6.91397E-05-1.53259E-13
 -1      4250 6.76910E-03-9.52399E-05-3.95636E-14
 -1      4251 6.97914E-03 3.60446E-05-4.32650E-14
 -1      4252 6.85545E-03 3.58945E-05-4.12933E-14
 -1      4253 6.85715E-03 1.18056E-05-4.11149E-14
 -1      4254 7.05552E-03 9.57205E-06-4.43290E-14
 -1      4255 7.46598E-03 3.48215E-05-5.11056E-14
 -1      4256 7.33622E-03 3.49481E-05-4.89998E-14
 -1      4257 7.28293E-03 7.72873E-06-4.80248E-14
 -1      4258 7.54011E-03 6.34081E-06-5.22336E-14
 -1      4259 6.91469E-03-1.01540E-04-4.19795E-14
 -1      4260 7.03559E-03-1.05319E-04-4.39609E-14
 -1      4261 7.10105E-03-8.18541E-05-4.49375E-14
 -1      4262 6.83383E-03-7.34219E-05-4.05007E-14
 -1      4263 6.57671E-03-3.05327E-05-3.61124E-14
 -1      4264 6.68119E-03-4.27642E-05-3.78860E-14
 -1      4265 6.82864E-03-3.07919E-05-4.04007E-14
 -1      4266 6.97562E-03-3.45079E-05-4.28385E-14
 -1      4267 1.31928E-02-5.99436E-05-1.60024E-13
 -1      4268 1.31235E-02-9.57769E-05-1.58571E-13
 -1      4269 1.31233E-02-1.69161E-04-1.58602E-13
 -1      4270 1.31228E-02-1.28238E-04-1.58573E-13
 -1      4271 1.30167E-02-1.04189E-04-1.56298E-13
 -1      4272 1.30152E-02-1.69105E-04-1.56299E-13
 -1      4273 7.07757E-03-1.36357E-05-4.45852E-14
 -1      4274 7.08889E-03-5.91127E-05-4.47009E-14
 -1      4275 7.21177E-03-6.15888E-05-4.67308E-14
 -1      4276 7.17802E-03-1.52607E-05-4.62303E-14
 -1      4277 7.54103E-03-6.53680E-05-5.21728E-14
 -1      4278 7.67071E-03-6.79473E-05-5.43262E-14
 -1      4279 7.83866E-03-4.80114E-05-5.71276E-14
 -1      4280 7.97154E-03-5.01361E-05-5.93558E-14
 -1      4281 8.10557E-03-5.22320E-05-6.16169E-14
 -1      4282 8.24061E-03-5.44345E-05-6.39108E-14
 -1      4283 8.37660E-03-5.66192E-05-6.62346E-14
 -1      4284 8.51341E-03-5.88861E-05-6.85895E-14
 -1      4285 8.65099E-03-6.11433E-05-7.09753E-14
 -1      4286 8.78925E-03-6.34658E-05-7.33920E-14
 -1      4287 8.92811E-03-6.57847E-05-7.58373E-14
 -1      4288 9.06752E-03-6.81556E-05-7.83120E-14
 -1      4289 9.20741E-03-7.05274E-05-8.08167E-14
 -1      4290 9.34773E-03-7.29405E-05-8.33502E-14
 -1      4291 9.48843E-03-7.53574E-05-8.59095E-14
 -1      4292 9.62945E-03-7.78068E-05-8.84918E-14
 -1      4293 9.77077E-03-8.02618E-05-9.11033E-14
 -1      4294 9.91234E-03-8.27421E-05-9.37400E-14
 -1      4295 1.00541E-02-8.52289E-05-9.63991E-14
 -1      4296 1.01961E-02-8.77351E-05-9.90840E-14
 -1      4297 1.03383E-02-9.02482E-05-1.01795E-13
 -1      4298 1.04805E-02-9.27760E-05-1.04528E-13
 -1      4299 1.06229E-02-9.53103E-05-1.07284E-13
 -1      4300 1.07655E-02-9.78557E-05-1.10061E-13
 -1      4301 1.09080E-02-1.00407E-04-1.12861E-13
 -1      4302 1.10507E-02-1.02967E-04-1.15683E-13
 -1      4303 1.11934E-02-1.05532E-04-1.18522E-13
 -1      4304 1.13362E-02-1.08102E-04-1.21384E-13
 -1      4305 1.14790E-02-1.10678E-04-1.24265E-13
 -1      4306 1.16218E-02-1.13258E-04-1.27166E-13
 -1      4307 1.17647E-02-1.15841E-04-1.30085E-13
 -1      4308 1.19075E-02-1.18427E-04-1.33022E-13
 -1      4309 1.20504E-02-1.21017E-04-1.35978E-13
 -1      4310 1.21933E-02-1.23609E-04-1.38950E-13
 -1      4311 1.23362E-02-1.26203E-04-1.41933E-13
 -1      4312 1.24792E-02-1.28798E-04-1.44932E-13
 -1      4313 1.26221E-02-1.31395E-04-1.47948E-13
 -1      4314 1.27650E-02-1.33994E-04-1.50970E-13
 -1      4315 1.28738E-02-1.01593E-04-1.53261E-13
 -1      4316 6.57799E-03-1.05990E-05-3.62935E-14
 -1      4317 7.31178E-03-6.22218E-05-4.83813E-14
 -1      4318 7.43837E-03-6.47489E-05-5.04742E-14
 -1      4319 7.49937E-03-3.88234E-05-5.14885E-14
 -1      4320 7.29615E-03-3.85746E-05-4.81306E-14
 -1      4321 7.70700E-03-4.60500E-05-5.49321E-14
 -1      4322 7.53338E-03-1.72553E-05-5.20761E-14
 -1      4323 7.40479E-03-1.60098E-05-4.99584E-14
 -1      4324 1.29071E-02-1.69048E-04-1.53999E-13
 -1      4325 6.80537E-03-3.50518E-06-4.01478E-14
 -1      4326 7.30335E-03-1.63297E-05-4.82879E-14
 -1      4327 6.71057E-03-2.40493E-06-3.85907E-14
 -1      4328 7.63721E-03-1.69225E-05-5.37949E-14
 -3
    1PSTEP                         2           1           1          
  100CL  101 1.000000000        4328                     0    1           1
 -4  STRESS      6    1
 -5  SXX         1    4    1    1
 -5  SYY         1    4    2    2
 -5  SZZ         1    4    3    3
 -5  SXY         1    4    1    2
 -5  SYZ         1    4    2    3
 -5  SZX         1    4    3    1
 -1         1 4.50950E+01 7.72062E+00 2.42372E+00-1.77842E+01-1.33749E-12 3.18745E-12
 -1         2-7.75729E-01-2.42807E+01-3.34858E+00-1.14058E-01 5.70860E-13 5.04111E-14
 -1         3 1.99998E+01 4.85250E-05-1.05145E-04 4.81209E-05-4.15540E-13-4.28945E-13
 -1         4 1.99998E+01 4.33553E-05-1.09657E-04-4.38850E-05 2.06520E-13 9.87475E-15
 -1         5 3.46170E+01 6.53344E+00 2.67192E+00 6.27067E+00-5.96953E-14 4.52079E-12
 -1         6 3.73969E+01 1.27206E+01 5.00506E+00-8.65975E+00-2.69229E-13 4.36191E-12
 -1         7 2.31595E+01 6.74143E+00 7.10975E-03-4.19320E+00-3.85386E-14 8.20052E-13
 -1         8 2.14401E+01 6.44979E+00 1.13808E-01-2.31252E+00-4.87874E-14-2.71611E-13
 -1         9 2.01612E+01 6.07432E+00 7.66095E-02-1.33913E+00-4.45408E-14-8.68230E-13
 -1        10 1.90737E+01 5.74588E+00 5.07589E-02-6.94844E-01-3.16344E-14-1.17328E-12
 -1        11 1.81083E+01 5.45505E+00 2.43668E-02-2.77935E-01-2.14828E-14-1.32585E-12
 -1        12 1.73094E+01 5.21430E+00-1.00708E-03-5.32006E-02-1.41345E-14-1.40396E-12
 -1        13 1.67176E+01 5.03655E+00-2.16950E-02 2.18502E-02-4.35763E-15-1.44872E-12
 -1        14 1.64150E+01 4.94570E+00-3.26610E-02-3.88933E-03 3.35062E-15-1.45672E-12
 -1        15 1.64395E+01 4.95300E+00-3.09277E-02-5.89223E-02 1.03407E-14-1.43876E-12
 -1        16 1.67837E+01 5.05625E+00-1.70381E-02-6.63258E-02 1.57444E-14-1.39816E-12
 -1        17 1.73983E+01 5.24042E+00 5.24728E-03 4.05376E-02 2.13995E-14-1.31677E-12
 -1        18 1.81947E+01 5.48045E+00 3.04916E-02 3.00326E-01 2.85189E-14-1.19405E-12
 -1        19 1.91370E+01 5.76488E+00 5.53614E-02 7.51579E-01 4.13697E-14-9.91747E-13
 -1        20 2.01858E+01 6.08297E+00 7.80030E-02 1.42192E+00 5.74193E-14-6.34699E-13
 -1        21 2.14142E+01 6.45695E+00 1.07466E-01 2.39742E+00 6.10761E-14 4.86759E-14
 -1        22 2.33596E+01 6.97233E+00 2.22872E-01 4.02430E+00 6.88338E-15 1.42110E-12
 -1        23 2.58066E+01-1.53784E+00-1.01834E+00-5.33532E-01-1.81348E-13 3.42550E-12
 -1        24 2.31365E+01-9.67778E-02-2.94403E-01 1.03535E-01-5.09029E-14 2.58577E-12
 -1        25 2.32328E+01-4.75867E-02-5.05827E-02 8.33014E-02-2.29153E-14 1.75183E-12
 -1        26 2.36389E+01-8.26114E-03 1.50140E-02 5.12225E-02-1.09186E-14 1.17980E-12
 -1        27 2.40234E+01 9.96329E-03 3.73130E-02 3.21853E-02-8.84969E-15 8.15154E-13
 -1        28 2.41156E+01 2.37467E-02 5.74061E-02 5.67320E-03-9.40697E-15 5.73635E-13
 -1        29 2.36643E+01 3.00855E-02 7.06447E-02-3.33412E-02-1.68769E-14 3.07575E-13
 -1        30 2.25230E+01 2.36626E-02 6.03413E-02-7.96437E-02 3.54317E-15 1.47989E-13
 -1        31 2.08008E+01 2.07584E-03 1.38769E-02-1.13230E-01 1.23950E-14 8.40647E-15
 -1        32 1.89678E+01-2.82460E-02-5.85464E-02-1.06458E-01-6.02157E-14-3.13877E-13
 -1        33 1.77417E+01-5.17533E-02-1.18197E-01-4.75000E-02 1.49485E-14-6.33601E-13
 -1        34 1.77064E+01-5.36833E-02-1.23726E-01 3.91123E-02 9.85843E-15-8.31885E-13
 -1        35 1.89141E+01-3.25391E-02-7.09623E-02 1.05853E-01 3.62273E-14-8.65700E-13
 -1        36 2.08453E+01-1.45935E-03 2.76073E-03 1.22168E-01 3.72231E-15-7.09294E-13
 -1        37 2.27672E+01 2.33235E-02 5.54078E-02 9.46652E-02-1.84291E-14-6.77212E-13
 -1        38 2.41436E+01 3.37594E-02 7.13177E-02 5.05194E-02-7.60323E-14-7.04558E-13
 -1        39 2.47954E+01 3.15251E-02 6.00028E-02 1.24100E-02-1.42987E-14-1.00238E-12
 -1        40 2.48171E+01 2.27167E-02 3.83582E-02-1.09930E-02 5.11442E-14-8.71351E-13
 -1        41 2.44176E+01 1.27843E-02 1.82026E-02-2.10469E-02 7.55559E-15-8.42127E-13
 -1        42 2.38023E+01 4.67398E-03 4.10946E-03-2.25362E-02-2.18031E-14-9.22050E-13
 -1        43 2.31235E+01-7.82477E-04-3.91068E-03-1.98117E-02-2.19168E-14-8.00509E-13
 -1        44 2.24741E+01-3.87326E-03-7.52220E-03-1.56749E-02-4.88759E-14-7.56934E-13
 -1        45 2.19013E+01-5.24801E-03-8.46503E-03-1.15731E-02-9.24963E-14-9.38302E-13
 -1        46 2.14220E+01-5.53417E-03-8.01630E-03-8.09607E-03 7.49225E-14-9.16418E-13
 -1        47 2.10358E+01-5.20811E-03-6.96619E-03-5.38383E-03-5.49007E-15-4.63473E-13
 -1        48 2.07337E+01-4.58808E-03-5.74977E-03-3.37756E-03 4.14676E-14-3.26780E-13
 -1        49 2.05033E+01-3.86842E-03-4.58226E-03-1.95174E-03 2.53202E-15-3.00295E-13
 -1        50 2.03316E+01-3.15843E-03-3.55540E-03-9.74371E-04 4.03431E-14-5.96463E-13
 -1        51 2.02066E+01-2.51342E-03-2.69655E-03-3.30120E-04-1.28350E-14-5.88407E-13
 -1        52 2.01180E+01-1.95639E-03-2.00184E-03 7.38693E-05-1.91490E-15-4.19173E-13
 -1        53 2.00571E+01-1.49198E-03-1.45383E-03 3.09057E-04-2.57613E-14-6.67600E-13
 -1        54 2.00166E+01-1.11510E-03-1.03054E-03 4.28888E-04-6.42189E-14-9.56520E-13
 -1        55 1.99912E+01-8.16027E-04-7.09871E-04 4.72485E-04 6.31738E-14-1.23546E-12
 -1        56 1.99765E+01-5.83435E-04-4.71621E-04 4.67949E-04 9.71331E-15-1.14192E-12
 -1        57 1.99691E+01-4.05990E-04-2.98258E-04 4.35068E-04-3.79481E-16-1.07763E-12
 -1        58 1.99667E+01-2.73227E-04-1.75068E-04 3.87451E-04-8.27567E-14-1.23851E-12
 -1        59 1.99674E+01-1.75933E-04-8.99961E-05 3.34187E-04 8.25105E-14-1.05484E-12
 -1        60 1.99700E+01-1.06259E-04-3.33586E-05 2.81105E-04-5.85134E-14-6.36188E-13
 -1        61 1.99736E+01-5.76822E-05 2.49473E-06 2.31724E-04 1.10176E-13-4.04617E-13
 -1        62 1.99775E+01-2.48856E-05 2.35221E-05 1.87965E-04-1.08843E-13-4.92688E-13
 -1        63 1.99815E+01-3.59435E-06 3.43151E-05 1.50667E-04-6.21166E-14-9.60595E-13
 -1        64 1.99852E+01 9.59899E-06 3.84083E-05 1.19960E-04-7.28902E-14-1.52558E-12
 -1        65 1.99887E+01 1.74097E-05 3.85878E-05 9.54924E-05 5.08526E-14-1.10844E-12
 -1        66 1.99917E+01 2.20220E-05 3.72402E-05 7.65303E-05 3.19063E-14-5.08583E-13
 -1        67 1.99943E+01 2.52139E-05 3.67772E-05 6.18875E-05-2.73796E-14-2.73002E-13
 -1        68 1.99965E+01 2.83732E-05 3.99827E-05 4.95217E-05 9.20179E-14 1.26558E-13
 -1        69 1.99982E+01 3.19230E-05 4.89510E-05 3.53469E-05-1.11552E-13 1.52954E-13
 -1        70 1.99994E+01 3.01192E-05 5.55372E-05 7.80328E-06 1.23348E-13 6.66485E-13
 -1        71 1.99999E+01-5.70382E-06 1.20758E-05-3.22015E-05-1.11353E-13 4.43432E-13
 -1        72 2.37189E+01-4.29625E-01-1.03758E+00-4.13467E-01 6.53817E-14 4.09044E-12
 -1        73 2.29916E+01-6.08572E-02-2.74707E-01-8.47588E-02 4.26130E-14 3.07419E-12
 -1        74 2.30596E+01-1.20343E-02-4.47172E-02-4.36128E-02 2.46310E-14 2.30740E-12
 -1        75 2.33872E+01 3.09932E-03 1.46365E-02-3.89810E-02 1.24735E-14 1.75254E-12
 -1        76 2.36801E+01 1.30614E-02 3.77837E-02-3.44797E-02 1.55206E-14 1.38640E-12
 -1        77 2.36804E+01 1.86574E-02 5.55694E-02-2.19870E-02 2.82847E-14 1.12194E-12
 -1        78 2.31666E+01 1.69007E-02 6.45008E-02 4.68167E-03 3.11231E-15 1.00816E-12
 -1        79 2.20295E+01 5.51506E-03 5.07605E-02 4.50591E-02 8.37004E-17 9.56239E-13
 -1        80 2.04003E+01-1.29414E-02 5.96986E-03 8.55332E-02-4.30352E-14 8.66106E-13
 -1        81 1.87235E+01-2.96904E-02-5.84638E-02 1.01419E-01 2.38882E-14 6.97258E-13
 -1        82 1.76390E+01-3.47684E-02-1.08088E-01 7.32760E-02 4.30784E-14 4.00525E-13
 -1        83 1.76468E+01-2.55386E-02-1.10000E-01 9.12971E-03 1.81526E-14 1.09872E-13
 -1        84 1.87773E+01-8.01461E-03-6.31213E-02-5.67827E-02 1.23599E-15-1.36349E-14
 -1        85 2.05689E+01 8.48942E-03 1.39432E-03-9.18469E-02-7.67626E-15-3.21028E-14
 -1        86 2.23721E+01 1.81303E-02 4.86312E-02-8.87541E-02-1.91248E-14-1.72150E-13
 -1        87 2.37003E+01 1.99801E-02 6.47303E-02-6.24067E-02-3.26124E-14-7.32886E-14
 -1        88 2.43746E+01 1.65167E-02 5.65453E-02-3.14933E-02 7.55461E-15-1.55907E-13
 -1        89 2.44626E+01 1.09374E-02 3.77957E-02-7.30992E-03 5.09332E-14-5.12611E-13
 -1        90 2.41439E+01 5.55952E-03 1.92427E-02 7.23113E-03-4.24996E-15-8.62894E-13
 -1        91 2.36046E+01 1.45942E-03 5.61918E-03 1.38497E-02 1.39907E-14-7.35074E-13
 -1        92 2.29878E+01-1.17824E-03-2.55364E-03 1.53968E-02-5.55414E-14-3.01205E-13
 -1        93 2.23846E+01-2.60191E-03-6.53270E-03 1.42616E-02-3.30835E-14-8.39190E-14
 -1        94 2.18442E+01-3.17206E-03-7.83684E-03 1.20130E-02 2.69836E-14-4.66649E-13
 -1        95 2.13865E+01-3.21128E-03-7.66276E-03 9.53172E-03-4.30907E-14-4.45993E-13
 -1        96 2.10143E+01-2.95835E-03-6.79356E-03 7.24398E-03 2.76775E-15-2.98653E-13
 -1        97 2.07209E+01-2.57141E-03-5.68421E-03 5.31404E-03-2.59169E-14-2.76209E-13
 -1        98 2.04959E+01-2.14664E-03-4.57358E-03 3.77115E-03-9.09960E-14-1.16958E-13
 -1        99 2.03274E+01-1.73780E-03-3.57260E-03 2.58313E-03 1.65089E-14-2.05203E-13
 -1       100 2.02044E+01-1.37162E-03-2.72207E-03 1.69540E-03-2.80381E-15-5.50448E-13
 -1       101 2.01169E+01-1.05852E-03-2.02667E-03 1.04986E-03-4.00834E-14-4.79581E-13
 -1       102 2.00565E+01-7.99646E-04-1.47410E-03 5.93300E-04 3.08551E-14-3.43245E-13
 -1       103 2.00165E+01-5.91200E-04-1.04520E-03 2.80415E-04-3.29765E-15-3.77380E-13
 -1       104 1.99912E+01-4.27130E-04-7.19287E-04 7.42448E-05-2.07651E-14-2.84532E-13
 -1       105 1.99766E+01-3.00649E-04-4.76753E-04-5.44637E-05 5.47433E-14-2.95867E-13
 -1       106 1.99693E+01-2.05107E-04-3.00201E-04-1.28339E-04-1.23516E-13-2.77002E-13
 -1       107 1.99669E+01-1.34434E-04-1.74824E-04-1.64535E-04-9.69719E-15-3.34989E-13
 -1       108 1.99676E+01-8.33336E-05-8.83907E-05-1.75809E-04 1.10140E-13-9.17114E-13
 -1       109 1.99701E+01-4.73286E-05-3.10176E-05-1.71465E-04-1.87905E-15-8.52847E-13
 -1       110 1.99737E+01-2.27241E-05 5.12704E-06-1.58145E-04-3.20561E-14-6.69383E-13
 -1       111 1.99776E+01-6.52401E-06 2.61533E-05-1.40486E-04 5.77775E-14-5.88905E-13
 -1       112 1.99816E+01 3.67263E-06 3.67733E-05-1.21636E-04-9.53418E-14-3.60761E-13
 -1       113 1.99853E+01 9.78292E-06 4.06128E-05-1.03671E-04 2.31276E-14-1.88269E-13
 -1       114 1.99887E+01 1.33491E-05 4.05257E-05-8.78962E-05-2.65438E-14 4.08659E-13
 -1       115 1.99918E+01 1.56341E-05 3.89583E-05-7.50468E-05 5.17888E-14 8.98714E-14
 -1       116 1.99944E+01 1.76358E-05 3.84103E-05-6.52908E-05 3.27331E-15-3.25594E-13
 -1       117 1.99966E+01 2.01146E-05 4.18473E-05-5.79820E-05 8.66213E-14-7.58929E-13
 -1       118 1.99983E+01 2.29861E-05 5.13875E-05-5.07353E-05 1.12269E-14-9.69955E-13
 -1       119 1.99994E+01 2.20360E-05 5.83881E-05-3.31116E-05 3.67895E-14-1.11739E-12
 -1       120 1.99999E+01-2.10880E-05 5.32181E-06 1.74470E-05 1.69792E-13-7.83797E-13
 -1       121 1.99998E+01 4.56975E-05 8.21183E-06 3.34300E-05-4.10690E-13 2.88438E-13
 -1       122 1.99998E+01-4.12344E-04 5.32078E-05-1.88188E-05 3.86874E-13-2.80679E-13
 -1       123 1.99998E+01-1.51260E-03 3.29736E-05-4.61238E-05 4.01747E-13 1.40508E-13
 -1       124 1.99998E+01-2.93530E-03 6.24551E-06-5.40690E-05 2.15611E-13 1.11908E-13
 -1       125 1.99998E+01-4.40584E-03-1.53204E-05-5.01693E-05 1.01734E-12-1.73422E-14
 -1       126 1.99998E+01-5.68366E-03-3.06421E-05-4.01780E-05 6.97162E-13-1.35794E-15
 -1       127 1.99998E+01-6.64274E-03-4.02733E-05-2.55486E-05 4.08179E-13 1.78006E-13
 -1       128 1.99998E+01-7.14806E-03-4.50120E-05-8.65285E-06-1.67172E-13-1.04824E-13
 -1       129 1.99998E+01-7.14381E-03-4.49751E-05 8.94461E-06-4.49020E-13 1.26107E-13
 -1       130 1.99998E+01-6.63039E-03-4.01754E-05 2.57750E-05 1.20350E-13-9.45141E-15
 -1       131 1.99998E+01-5.66486E-03-3.02205E-05 4.07577E-05-5.91101E-13-3.57916E-13
 -1       132 1.99998E+01-4.38320E-03-1.51708E-05 5.03689E-05-1.03771E-12 4.31614E-13
 -1       133 1.99998E+01-2.91109E-03 6.40288E-06 5.39055E-05-9.44330E-13 8.53276E-14
 -1       134 1.99998E+01-1.48688E-03 3.55920E-05 4.97852E-05-1.11286E-12 8.29356E-14
 -1       135 1.99998E+01-4.16195E-04 4.65336E-05 2.62252E-05-6.02916E-13 1.14331E-13
 -1       136 1.99998E+01 3.03370E-05 5.97310E-06-6.35949E-05-4.32059E-13 5.12858E-14
 -1       137-1.37740E+00-1.94192E+01-3.05747E+00-3.72863E+00 2.90237E-12 7.09221E-13
 -1       138-1.57354E+00-8.63319E+00-2.27633E+00-3.02348E+00 4.25032E-12 2.04578E-12
 -1       139 3.41098E+00 3.50456E+00-1.04841E+00 3.84173E+00 4.36640E-12 3.17818E-12
 -1       140 1.46900E+01 1.03322E+01 2.91103E-01 1.22903E+01 3.42365E-12 3.78836E-12
 -1       141 3.33487E+01 1.03305E+01 1.70681E+00 1.81429E+01 2.14956E-12 3.75044E-12
 -1       142 5.32963E+01 5.44826E+00 2.89283E+00 1.58352E+01 8.44935E-13 2.21118E-12
 -1       143 6.52802E+01 1.37456E+00 3.53783E+00 5.18716E+00 7.60850E-14-2.41807E-13
 -1       144 6.36050E+01 1.96060E+00 3.45092E+00-8.22566E+00 4.74252E-13-2.94581E-12
 -1       145 4.98130E+01 6.61626E+00 2.70325E+00-1.71021E+01 1.85583E-12-4.99911E-12
 -1       146 2.85355E+01 1.08336E+01 1.36960E+00-1.71759E+01 3.67617E-12-5.64132E-12
 -1       147 1.07382E+01 9.02336E+00-1.21985E-01-9.86121E+00 4.88914E-12-4.87621E-12
 -1       148 1.20052E+00 8.65256E-01-1.44342E+00-1.46611E+00 5.15665E-12-3.39906E-12
 -1       149-1.62350E+00-1.10629E+01-2.51303E+00 3.41663E+00 3.97044E-12-1.63869E-12
 -1       150-1.18371E+00-2.13132E+01-3.18842E+00 3.10279E+00 1.62861E-12-3.34920E-13
 -1       151-6.71269E-01-2.37488E+01-3.32952E+00-1.02692E+00-1.05638E-12-1.17246E-13
 -1       152-1.61403E+00-1.77623E+01-2.98797E+00-4.08209E+00-3.39506E-12-9.37077E-13
 -1       153-1.04890E+00-5.56681E+00-2.09554E+00-1.88177E+00-4.85917E-12-2.48196E-12
 -1       154 5.25822E+00 5.98832E+00-7.77215E-01 5.78115E+00-5.04580E-12-4.19365E-12
 -1       155 1.95832E+01 1.10916E+01 6.96107E-01 1.45945E+01-4.22723E-12-5.32507E-12
 -1       156 4.00323E+01 9.07995E+00 2.15330E+00 1.83480E+01-2.60014E-12-5.25785E-12
 -1       157 5.81132E+01 4.00797E+00 3.17917E+00 1.36334E+01-1.04197E-12-3.78808E-12
 -1       158 6.65983E+01 8.52972E-01 3.60324E+00 2.41115E+00-1.15640E-13-1.50023E-12
 -1       159 6.23435E+01 2.54005E+00 3.38453E+00-1.01669E+01-3.34310E-13 1.09571E-12
 -1       160 2.63465E+01 1.09952E+01 1.21260E+00-1.67128E+01-2.61913E-12 3.86191E-12
 -1       161 1.07105E+01 9.02125E+00-1.16044E-01-9.86164E+00-3.72097E-12 3.60123E-12
 -1       162 1.61643E+00 1.17752E+00-1.36819E+00-1.86769E+00-4.31710E-12 2.92483E-12
 -1       163-1.78029E+00-1.07473E+01-2.46313E+00 3.63707E+00-3.47644E-12 1.62836E-12
 -1       164-1.25333E+00-2.05597E+01-3.11949E+00 3.55696E+00-1.59203E-12 3.17364E-13
 -1       165 2.33666E+01 3.72061E+00-5.04958E-02-2.77453E+00-6.27052E-13 2.45925E-13
 -1       166 2.15756E+01 4.28389E+00-4.32768E-02-1.78769E+00-5.71296E-13-4.35603E-13
 -1       167 2.01683E+01 4.54722E+00-3.14636E-02-1.06660E+00-4.58906E-13-8.31413E-13
 -1       168 1.89549E+01 4.67360E+00-2.29389E-02-5.49018E-01-3.37259E-13-1.04457E-12
 -1       169 1.79125E+01 4.76325E+00-1.70270E-02-2.19589E-01-2.20496E-13-1.14958E-12
 -1       170 1.70666E+01 4.83718E+00-1.35106E-02-4.90603E-02-1.17101E-13-1.21186E-12
 -1       171 1.65244E+01 4.88761E+00-1.15765E-02-7.77514E-03-2.79685E-14-1.23918E-12
 -1       172 1.63577E+01 4.89973E+00-1.10095E-02-3.40236E-02 4.94938E-14-1.23645E-12
 -1       173 1.65876E+01 4.86880E+00-1.17513E-02-5.03030E-02 1.31443E-13-1.20919E-12
 -1       174 1.71745E+01 4.80476E+00-1.38237E-02 1.76573E-02 2.15498E-13-1.15440E-12
 -1       175 1.80183E+01 4.72563E+00-1.74548E-02 2.18537E-01 3.19790E-13-1.04892E-12
 -1       176 1.90610E+01 4.63510E+00-2.32601E-02 5.87208E-01 4.36226E-13-8.85482E-13
 -1       177 2.02394E+01 4.50807E+00-3.27999E-02 1.13557E+00 5.47964E-13-6.34834E-13
 -1       178 2.15998E+01 4.24804E+00-4.51487E-02 1.87606E+00 6.33002E-13-1.87662E-13
 -1       179 2.34291E+01 3.49437E+00-5.37105E-02 2.77092E+00 6.11015E-13 6.34146E-13
 -1       180 2.50855E+01 1.05710E+00-3.40056E-01 2.46056E+00 4.70273E-13 1.74660E-12
 -1       181 2.48664E+01 7.96713E-01 6.99378E-04-1.33072E+00-5.45512E-13 1.07058E-12
 -1       182 2.37950E+01 1.43478E-01-9.45345E-03-1.91137E-01-4.78983E-13 8.13776E-13
 -1       183 2.34784E+01 4.99712E-02 1.14030E-02 1.78539E-01-3.43246E-13 5.97232E-13
 -1       184 2.35066E+01-4.02768E-02 5.89117E-03 2.27133E-01-2.31334E-13 4.14602E-13
 -1       185 2.35731E+01-1.21223E-01 4.95841E-04 5.13132E-02-1.51291E-13 3.04695E-13
 -1       186 2.34855E+01-1.88266E-01-1.20329E-03-3.13120E-01-1.42331E-13 2.59719E-13
 -1       187 2.31052E+01-2.05064E-01-2.49330E-04-7.85413E-01-7.81224E-14 2.08449E-13
 -1       188 2.23942E+01-1.24402E-01 1.58911E-03-1.18651E+00-1.05814E-13 1.30598E-13
 -1       189 2.14804E+01 6.40553E-02 2.29158E-03-1.26541E+00-2.14974E-13 5.12776E-14
 -1       190 2.06725E+01 2.83924E-01 1.12828E-03-8.47207E-01-2.32043E-13-5.59344E-14
 -1       191 2.03367E+01 3.94954E-01-1.24683E-04-2.14743E-02-2.06111E-13-3.52835E-13
 -1       192 2.06591E+01 3.13214E-01 4.97437E-04 8.40048E-01-1.07628E-13-5.85711E-13
 -1       193 2.14987E+01 1.00112E-01 1.77484E-03 1.33711E+00 2.06217E-14-7.54704E-13
 -1       194 2.24947E+01-1.03839E-01 1.30012E-03 1.32366E+00 1.87534E-14-7.96378E-13
 -1       195 2.33048E+01-2.07211E-01-9.97013E-04 9.39047E-01-2.83770E-14-7.63796E-13
 -1       196 2.37528E+01-2.09036E-01-3.35488E-03 4.30056E-01-4.80098E-14-6.23873E-13
 -1       197 2.38284E+01-1.55487E-01-4.39339E-03-1.48963E-02 5.64652E-14-5.41789E-13
 -1       198 2.36151E+01-9.03918E-02-3.99651E-03-3.16001E-01 2.11072E-14-6.20201E-13
 -1       199 2.32228E+01-3.70660E-02-2.77660E-03-4.73237E-01-6.02849E-14-6.33017E-13
 -1       200 2.27487E+01-1.73403E-03-1.39471E-03-5.21841E-01-4.72913E-15-7.33202E-13
 -1       201 2.22630E+01 1.78969E-02-2.50074E-04-5.02177E-01 2.71382E-14-8.17398E-13
 -1       202 2.18093E+01 2.65235E-02 5.22661E-04-4.46687E-01-1.25818E-14-7.13940E-13
 -1       203 2.14101E+01 2.84387E-02 9.48483E-04-3.77261E-01 1.19420E-13-3.85704E-13
 -1       204 2.10734E+01 2.67399E-02 1.11475E-03-3.06919E-01 1.80722E-13-3.09806E-13
 -1       205 2.07985E+01 2.33956E-02 1.11401E-03-2.42477E-01 5.87883E-14-1.68089E-13
 -1       206 2.05800E+01 1.95475E-02 1.02010E-03-1.86860E-01 1.20966E-14-1.63959E-13
 -1       207 2.04103E+01 1.58027E-02 8.83780E-04-1.40753E-01-1.74516E-13-1.73614E-13
 -1       208 2.02814E+01 1.24481E-02 7.36476E-04-1.03657E-01 4.03461E-14-2.63621E-13
 -1       209 2.01854E+01 9.58918E-03 5.95774E-04-7.45302E-02 6.11708E-14-2.37422E-13
 -1       210 2.01156E+01 7.23490E-03 4.70316E-04-5.21474E-02-1.79488E-13-3.43726E-13
 -1       211 2.00661E+01 5.34615E-03 3.63338E-04-3.52954E-02-1.24562E-13-3.77817E-13
 -1       212 2.00320E+01 3.86363E-03 2.75015E-04-2.28684E-02-2.17562E-13-3.20832E-13
 -1       213 2.00094E+01 2.72278E-03 2.03930E-04-1.39075E-02-4.21526E-14-7.78848E-13
 -1       214 1.99952E+01 1.86164E-03 1.47950E-04-7.60889E-03 1.33033E-13-7.49817E-13
 -1       215 1.99869E+01 1.22447E-03 1.04735E-04-3.31620E-03-5.90110E-15-8.04950E-13
 -1       216 1.99828E+01 7.63213E-04 7.20132E-05-5.04714E-04 7.66461E-14-6.21997E-13
 -1       217 1.99815E+01 4.37586E-04 4.77227E-05 1.23697E-03 9.40791E-14-6.77859E-13
 -1       218 1.99819E+01 2.14602E-04 3.00663E-05 2.22547E-03 6.62391E-14-5.38956E-13
 -1       219 1.99834E+01 6.77245E-05 1.75233E-05 2.69982E-03-1.04482E-13-6.73876E-13
 -1       220 1.99855E+01-2.40819E-05 8.83238E-06 2.83663E-03-1.66884E-13-6.11264E-13
 -1       221 1.99878E+01-7.73409E-05 2.96174E-06 2.76294E-03-1.25748E-13-5.69828E-13
 -1       222 1.99901E+01-1.05032E-04-9.23534E-07 2.56666E-03 3.22311E-13-3.41845E-13
 -1       223 1.99923E+01-1.17533E-04-3.48029E-06 2.30465E-03 3.20156E-13 9.10737E-15
 -1       224 1.99942E+01-1.23512E-04-5.16168E-06 2.00867E-03 2.74555E-13 4.08024E-14
 -1       225 1.99960E+01-1.30795E-04-6.13467E-06 1.68931E-03 2.31381E-13 3.19751E-13
 -1       226 1.99974E+01-1.47073E-04-6.14420E-06 1.33850E-03 2.56552E-14 1.34825E-13
 -1       227 1.99985E+01-1.79099E-04-5.67796E-06 9.34620E-04 2.25310E-13 1.08913E-13
 -1       228 1.99993E+01-2.20370E-04-3.85954E-06 4.65566E-04-7.73846E-14 3.74872E-14
 -1       229 2.40370E+01 2.39581E-01-4.67177E-02 6.57415E-01 4.89456E-13 1.50877E-12
 -1       230 2.34123E+01 9.42994E-02 9.57860E-03 2.45668E-02 3.78086E-13 1.15583E-12
 -1       231 2.33037E+01 1.20319E-02 1.19539E-02-1.53283E-01 2.77509E-13 8.69494E-13
 -1       232 2.33416E+01-4.80085E-02 7.05315E-03-1.10523E-01 1.58871E-13 6.62934E-13
 -1       233 2.32978E+01-1.00182E-01 5.03600E-03 1.00656E-01 1.33273E-13 6.03996E-13
 -1       234 2.30056E+01-1.33473E-01 5.44246E-03 4.38460E-01 2.93745E-14 5.85012E-13
 -1       235 2.23794E+01-1.20504E-01 5.58673E-03 8.05745E-01 5.18374E-14 5.13310E-13
 -1       236 2.14723E+01-3.84053E-02 2.72629E-03 1.03266E+00 5.80300E-14 4.38509E-13
 -1       237 2.05153E+01 9.85571E-02-3.65399E-03 9.36722E-01 1.70721E-13 2.36690E-13
 -1       238 1.98633E+01 2.23375E-01-9.26957E-03 4.54532E-01 1.51833E-13 1.31615E-13
 -1       239 1.98174E+01 2.52890E-01-9.06289E-03-2.50551E-01 1.93561E-13-4.39024E-14
 -1       240 2.04205E+01 1.66946E-01-3.10603E-03-8.61413E-01 8.81764E-14-2.19212E-13
 -1       241 2.14254E+01 2.51033E-02 3.42556E-03-1.12631E+00 6.86369E-14-3.88704E-13
 -1       242 2.24585E+01-8.96229E-02 6.02849E-03-1.01218E+00-1.72614E-14-3.68722E-13
 -1       243 2.32282E+01-1.38128E-01 4.55499E-03-6.64772E-01 1.99636E-14-3.27137E-13
 -1       244 2.36138E+01-1.29725E-01 1.52430E-03-2.66258E-01 7.40584E-14-3.36119E-13
 -1       245 2.36379E+01-9.32339E-02-9.69948E-04 6.13077E-02 1.73071E-13-3.14979E-13
 -1       246 2.33965E+01-5.29674E-02-2.07168E-03 2.74167E-01 1.15048E-13-3.29349E-13
 -1       247 2.29986E+01-2.09117E-02-2.03841E-03 3.80406E-01-9.41507E-14-2.99479E-13
 -1       248 2.25353E+01 1.92203E-04-1.44627E-03 4.08534E-01-2.05439E-13-2.48557E-13
 -1       249 2.20702E+01 1.19529E-02-7.49485E-04 3.88330E-01-9.98187E-15-2.76065E-13
 -1       250 2.16416E+01 1.71496E-02-1.75986E-04 3.43124E-01 1.97426E-13-2.36743E-13
 -1       251 2.12683E+01 1.82924E-02 2.09908E-04 2.88561E-01-8.82624E-14-3.96063E-13
 -1       252 2.09561E+01 1.72117E-02 4.25666E-04 2.33957E-01-1.36404E-13-3.27453E-13
 -1       253 2.07034E+01 1.50928E-02 5.15842E-04 1.84203E-01-5.33183E-14-1.17323E-13
 -1       254 2.05041E+01 1.26391E-02 5.24949E-04 1.41389E-01-9.10018E-14-8.52320E-15
 -1       255 2.03506E+01 1.02351E-02 4.87761E-04 1.05976E-01 1.10248E-13 4.81687E-14
 -1       256 2.02351E+01 8.06909E-03 4.28166E-04 7.75536E-02 5.52808E-14-3.42237E-14
 -1       257 2.01501E+01 6.21487E-03 3.61198E-04 5.53051E-02-4.74937E-14 3.30446E-14
 -1       258 2.00891E+01 4.68319E-03 2.95592E-04 3.82752E-02-4.25549E-16-1.56943E-13
 -1       259 2.00465E+01 3.45223E-03 2.35933E-04 2.55183E-02-6.54531E-14-9.65529E-14
 -1       260 2.00178E+01 2.48557E-03 1.84219E-04 1.61717E-02 9.95757E-14-4.06058E-14
 -1       261 1.99994E+01 1.74224E-03 1.40909E-04 9.48747E-03-4.91152E-15-1.06564E-13
 -1       262 1.99883E+01 1.18224E-03 1.05606E-04 4.83922E-03-1.21964E-13-1.23830E-13
 -1       263 1.99824E+01 7.69185E-04 7.74795E-05 1.71633E-03 1.06947E-13-2.25402E-13
 -1       264 1.99800E+01 4.71509E-04 5.55244E-05-2.88164E-04 1.81526E-13-2.22986E-13
 -1       265 1.99799E+01 2.62653E-04 3.87139E-05-1.49204E-03-1.32423E-13-2.16730E-13
 -1       266 1.99812E+01 1.20828E-04 2.60816E-05-2.13861E-03 1.22636E-14-8.14495E-14
 -1       267 1.99832E+01 2.84909E-05 1.67619E-05-2.41035E-03 6.03898E-15-1.39828E-13
 -1       268 1.99857E+01-2.82750E-05 1.00041E-05-2.44088E-03-2.12716E-13-3.07440E-15
 -1       269 1.99882E+01-6.04249E-05 5.17317E-06-2.32514E-03 4.83126E-14 1.00315E-13
 -1       270 1.99906E+01-7.66141E-05 1.75191E-06-2.12745E-03-1.39766E-13 4.44892E-14
 -1       271 1.99929E+01-8.38758E-05-6.34670E-07-1.88769E-03 2.74300E-13-5.46903E-15
 -1       272 1.99949E+01-8.83310E-05-2.12491E-06-1.62558E-03 2.70767E-13-9.30768E-14
 -1       273 1.99966E+01-9.55825E-05-2.36485E-06-1.34321E-03 1.28287E-13-1.08562E-13
 -1       274 1.99979E+01-1.11114E-04-6.60521E-07-1.02777E-03 3.42498E-14-2.20882E-14
 -1       275 1.99989E+01-1.42843E-04-4.55682E-07-6.54703E-04 5.99485E-14 1.12784E-13
 -1       276 1.99995E+01-1.51257E-04-5.18945E-06-2.31547E-04-7.06390E-14 4.70641E-14
 -1       277 1.99996E+01-5.24389E-04-3.95934E-06-4.80971E-04-3.18911E-14 4.57966E-13
 -1       278 1.99997E+01-1.25041E-03-1.51927E-06-8.75991E-04 2.14869E-13 1.19755E-13
 -1       279 1.99997E+01-2.18580E-03-6.59903E-07-1.10104E-03 2.88857E-13 1.33794E-13
 -1       280 1.99998E+01-3.20273E-03 6.79672E-07-1.13220E-03 1.87188E-13 3.55242E-13
 -1       281 1.99999E+01-4.14751E-03 2.73389E-06-1.00025E-03-4.47728E-14-3.24405E-13
 -1       282 1.99999E+01-4.93062E-03 4.50602E-06-7.38325E-04 1.35297E-13-1.81076E-13
 -1       283 2.00000E+01-5.43816E-03 5.71503E-06-3.89256E-04-9.67893E-15-2.27145E-13
 -1       284 2.00000E+01-5.61199E-03 6.13085E-06 3.27525E-06 5.26615E-14-9.08059E-14
 -1       285 2.00000E+01-5.43242E-03 5.71193E-06 3.95432E-04 4.02936E-14-3.80792E-14
 -1       286 1.99999E+01-4.91968E-03 4.49396E-06 7.43532E-04-2.17694E-13-3.32031E-13
 -1       287 1.99999E+01-4.14860E-03 2.61285E-06 1.00058E-03-3.29500E-13-2.18848E-13
 -1       288 1.99998E+01-3.18599E-03 6.69447E-07 1.13326E-03-1.38217E-13 1.63184E-13
 -1       289 1.99997E+01-2.16915E-03-8.63220E-07 1.09872E-03-6.64336E-14 9.30875E-14
 -1       290 1.99997E+01-1.24301E-03-3.99020E-06 8.64462E-04-1.25730E-13 2.31062E-13
 -1       291 1.99995E+01-6.87175E-04-4.92117E-06 7.56488E-04-3.64557E-15-5.53517E-15
 -1       292-6.60806E-01-9.66384E+00-8.13770E-01 1.40174E+00 5.41470E-13 1.16537E-12
 -1       293 2.66315E+00-8.40102E+00-7.73245E-01 3.44731E+00 1.15527E-12 1.27671E-12
 -1       294 1.09252E+01-5.44054E+00-3.39754E-01 6.28027E+00 1.02382E-12 9.72625E-13
 -1       295 1.82299E+01-1.01788E+00-1.31036E-01 7.09109E+00 1.58701E-12 1.22599E-12
 -1       296 2.83449E+01 2.37369E+00 3.02852E-01 7.68507E+00 1.39347E-12 1.26271E-12
 -1       297 3.81982E+01 4.85223E+00 7.09470E-01 6.51520E+00 1.29945E-12 7.25170E-13
 -1       298 4.43645E+01 6.34901E+00 8.86167E-01 3.15522E+00 1.25701E-12 3.81084E-14
 -1       299 4.46677E+01 7.24962E+00 7.97451E-01-3.73449E-01 1.40352E-12-6.65780E-13
 -1       300 4.39019E+01 6.04371E+00 9.13502E-01-4.29906E+00 1.56966E-12-1.64946E-12
 -1       301 3.58860E+01 4.02409E+00 5.10245E-01-5.94927E+00 1.73031E-12-1.98269E-12
 -1       302 2.62126E+01 8.25032E-01 1.49156E-01-7.16028E+00 1.83725E-12-2.20696E-12
 -1       303 1.55756E+01-1.90212E+00-2.44038E-01-6.86859E+00 2.10121E-12-2.27046E-12
 -1       304 7.33350E+00-5.57843E+00-6.06955E-01-5.00205E+00 1.70930E-12-1.90878E-12
 -1       305 1.99343E+00-7.85400E+00-6.59871E-01-3.49952E+00 7.81458E-13-1.59035E-12
 -1       306-1.09789E+00-1.04505E+01-9.71057E-01-5.89063E-01 1.15206E-13-1.36467E-12
 -1       307-4.67002E-01-1.00307E+01-9.67108E-01 1.51198E+00-7.91367E-13-1.40360E-12
 -1       308 4.12883E+00-7.25951E+00-6.61806E-01 4.23662E+00-1.35486E-12-1.55277E-12
 -1       309 1.10480E+01-3.77260E+00-4.57345E-01 5.91175E+00-2.08472E-12-1.98086E-12
 -1       310 2.09013E+01 1.11299E-01-2.18914E-02 7.49302E+00-2.12799E-12-2.34185E-12
 -1       311 3.16194E+01 3.25723E+00 4.41323E-01 7.60349E+00-1.97380E-12-2.33186E-12
 -1       312 3.99578E+01 5.25381E+00 6.78161E-01 4.80912E+00-1.61911E-12-1.72742E-12
 -1       313 4.62335E+01 6.46429E+00 1.03007E+00 2.53176E+00-1.37848E-12-1.39964E-12
 -1       314 4.70246E+01 6.63819E+00 1.05293E+00-1.11924E+00-1.27062E-12-4.99600E-13
 -1       315 4.11444E+01 5.79589E+00 6.61817E-01-3.42083E+00-1.21843E-12 4.77118E-14
 -1       316 3.45201E+01 3.86532E+00 5.40593E-01-7.08137E+00-1.22771E-12 1.01702E-12
 -1       317 2.51529E+01 1.28258E+00 1.60690E-01-7.57764E+00-1.40638E-12 1.26435E-12
 -1       318 1.58697E+01-2.03057E+00-2.31935E-01-6.74564E+00-1.46413E-12 1.16188E-12
 -1       319 8.44386E+00-5.82742E+00-4.92098E-01-5.50094E+00-8.40883E-13 1.23233E-12
 -1       320 1.89023E+00-8.90342E+00-8.34480E-01-3.00262E+00-7.05103E-13 1.32083E-12
 -1       321-8.15415E-01-1.01899E+01-8.76810E-01-1.06759E+00-5.18752E-14 1.14392E-12
 -1       322 2.13720E+01 2.97801E+00-2.08706E-02-9.92014E-01-5.74449E-13-4.17658E-13
 -1       323 2.29231E+01 2.12628E+00-1.88471E-02-1.39502E+00-6.50799E-13-8.91301E-15
 -1       324 1.86975E+01 3.88365E+00-1.29466E-02-1.66874E-01-3.17373E-13-8.42066E-13
 -1       325 1.75864E+01 4.21290E+00-8.36062E-03 4.60904E-02-1.86828E-13-9.38096E-13
 -1       326 1.67587E+01 4.46175E+00-5.37459E-03 9.07766E-02-7.48951E-14-9.85214E-13
 -1       327 1.63337E+01 4.58895E+00-3.89438E-03 1.08149E-02 2.56343E-14-1.01053E-12
 -1       328 1.63813E+01 4.56517E+00-4.10938E-03-1.05568E-01 1.07473E-13-9.89536E-13
 -1       329 1.68872E+01 4.39772E+00-5.94546E-03-1.56746E-01 2.08230E-13-9.57520E-13
 -1       330 1.77410E+01 4.13155E+00-9.03801E-03-6.88249E-02 3.13826E-13-8.65691E-13
 -1       331 1.88493E+01 3.79871E+00-1.33722E-02 1.87947E-01 4.36488E-13-7.27593E-13
 -1       332 2.00990E+01 3.40630E+00-1.89126E-02 5.91646E-01 5.57954E-13-5.30395E-13
 -1       333 2.14610E+01 2.88221E+00-2.37026E-02 1.07157E+00 6.70279E-13-2.55396E-13
 -1       334 2.28946E+01 2.03471E+00-3.20752E-02 1.42787E+00 6.97843E-13 2.59020E-13
 -1       335 2.37247E+01 1.10162E+00-2.38325E-02 1.17692E+00 6.39846E-13 7.51343E-13
 -1       336 2.33347E+01 3.90082E-01 6.77826E-03 2.61740E-01 5.19934E-13 5.76851E-13
 -1       337 2.31810E+01 5.38641E-01 1.05954E-02-1.70743E-01-4.88253E-13 1.05599E-13
 -1       338 2.31020E+01 1.01321E-01 3.63938E-03 2.42494E-01-3.64103E-13 8.55316E-14
 -1       339 2.32035E+01-2.36062E-01-1.10858E-03 2.52430E-01-2.46567E-13 8.60922E-14
 -1       340 2.33853E+01-5.33050E-01-4.40158E-03-7.64924E-02-1.47268E-13 9.85535E-14
 -1       341 2.35280E+01-7.19757E-01-4.68093E-03-6.81664E-01-1.33456E-13 1.11658E-13
 -1       342 2.34914E+01-6.41985E-01-3.49290E-03-1.39192E+00-1.22401E-13 9.69330E-14
 -1       343 2.31739E+01-1.64181E-01-1.63906E-03-1.86791E+00-1.81060E-13 1.05006E-13
 -1       344 2.26408E+01 6.20115E-01-1.06080E-03-1.69943E+00-3.11302E-13 6.11102E-14
 -1       345 2.21901E+01 1.28773E+00-2.04796E-03-7.25237E-01-3.91223E-13-1.21036E-13
 -1       346 2.21674E+01 1.34639E+00-2.89949E-03 6.70457E-01-3.77656E-13-3.16389E-13
 -1       347 2.26045E+01 7.47106E-01-1.87441E-03 1.75067E+00-2.08072E-13-5.17730E-13
 -1       348 2.31801E+01-6.59439E-02-1.28538E-03 2.03582E+00-2.93253E-14-6.67613E-13
 -1       349 2.35531E+01-6.25296E-01-3.18435E-03 1.60414E+00-2.46524E-14-7.42217E-13
 -1       350 2.36070E+01-7.87765E-01-5.55984E-03 8.43109E-01 2.31501E-14-7.53733E-13
 -1       351 2.34056E+01-6.69250E-01-6.24263E-03 1.03547E-01 8.88890E-14-5.84623E-13
 -1       352 2.30602E+01-4.42925E-01-5.19596E-03-4.39450E-01 3.86711E-14-5.19114E-13
 -1       353 2.26577E+01-2.25497E-01-3.37558E-03-7.55134E-01 1.00831E-16-4.53409E-13
 -1       354 2.22500E+01-6.44481E-02-1.61978E-03-8.84417E-01-8.25594E-14-4.20241E-13
 -1       355 2.18645E+01 3.57485E-02-3.07708E-04-8.86862E-01-4.97171E-14-3.32049E-13
 -1       356 2.15154E+01 8.79860E-02 5.11396E-04-8.15380E-01 7.90576E-14-3.65343E-13
 -1       357 2.12090E+01 1.08063E-01 9.31730E-04-7.08655E-01 2.58861E-13-1.87253E-13
 -1       358 2.09471E+01 1.08991E-01 1.07842E-03-5.91693E-01 1.04944E-13-1.75822E-13
 -1       359 2.07284E+01 9.98415E-02 1.06051E-03-4.79025E-01 1.01660E-13-3.56804E-13
 -1       360 2.05498E+01 8.63256E-02 9.56592E-04-3.78050E-01 7.42616E-14-3.22919E-13
 -1       361 2.04067E+01 7.17609E-02 8.17325E-04-2.91707E-01-2.99694E-14-3.52733E-13
 -1       362 2.02942E+01 5.79189E-02 6.72319E-04-2.20337E-01-4.07457E-14-2.88264E-13
 -1       363 2.02075E+01 4.56330E-02 5.37196E-04-1.62894E-01-3.09121E-14-1.50580E-13
 -1       364 2.01418E+01 3.51952E-02 4.18985E-04-1.17691E-01-1.16257E-13-2.69323E-13
 -1       365 2.00931E+01 2.66019E-02 3.19772E-04-8.28418E-02-1.47915E-13-1.07391E-13
 -1       366 2.00578E+01 1.97003E-02 2.38994E-04-5.64994E-02-1.04568E-13-5.21785E-14
 -1       367 2.00327E+01 1.42737E-02 1.74807E-04-3.69851E-02-2.34080E-13 8.09461E-15
 -1       368 2.00156E+01 1.00895E-02 1.24873E-04-2.28396E-02-1.00848E-13-1.98007E-13
 -1       369 2.00042E+01 6.92437E-03 8.67889E-05-1.28347E-02 1.21982E-13-3.43881E-13
 -1       370 1.99971E+01 4.57721E-03 5.83138E-05-5.96312E-03 1.24068E-13-1.73407E-13
 -1       371 1.99930E+01 2.87385E-03 3.74643E-05-1.41605E-03 8.71374E-15 1.34550E-14
 -1       372 1.99911E+01 1.66786E-03 2.25490E-05 1.44335E-03 1.26549E-13-9.50083E-14
 -1       373 1.99905E+01 8.38804E-04 1.21615E-05 3.10704E-03-1.24711E-14-9.47426E-14
 -1       374 1.99908E+01 2.89407E-04 5.15509E-06 3.94765E-03-2.79424E-14 6.49246E-14
 -1       375 1.99916E+01-5.78637E-05 6.06569E-07 4.24118E-03-5.91426E-14 2.18377E-13
 -1       376 1.99928E+01-2.64332E-04-2.22221E-06 4.18629E-03 8.84671E-14 3.34800E-13
 -1       377 1.99940E+01-3.78608E-04-3.92233E-06 3.92025E-03 4.23530E-13 2.00001E-13
 -1       378 1.99952E+01-4.39850E-04-4.95524E-06 3.53141E-03 1.95377E-13 1.85279E-13
 -1       379 1.99964E+01-4.80477E-04-5.63963E-06 3.06909E-03 3.09197E-13 1.50376E-13
 -1       380 1.99974E+01-5.27607E-04-6.11623E-06 2.55195E-03-1.04557E-13 2.16982E-13
 -1       381 1.99983E+01-6.03436E-04-7.70767E-06 1.97769E-03-2.65733E-14-6.01051E-14
 -1       382 1.99989E+01-6.53356E-04-6.77998E-06 1.38350E-03 1.86859E-13 2.62990E-14
 -1       383 2.31635E+01 8.07616E-02 7.45456E-03-1.18561E-01 3.91193E-13 4.74700E-13
 -1       384 2.31576E+01-1.24923E-01 1.51193E-03-1.40453E-01 2.53665E-13 4.00842E-13
 -1       385 2.31920E+01-2.98323E-01-2.51344E-03 1.14242E-01 1.31533E-13 3.23044E-13
 -1       386 2.31307E+01-4.10444E-01-3.52043E-03 5.81148E-01 6.00431E-14 3.19814E-13
 -1       387 2.28650E+01-3.81621E-01-1.76227E-03 1.12457E+00 7.70742E-14 3.14462E-13
 -1       388 2.23581E+01-1.39016E-01 1.24610E-03 1.50019E+00 1.25381E-13 2.82824E-13
 -1       389 2.17137E+01 2.82687E-01 2.37460E-03 1.42291E+00 2.62115E-13 1.67981E-13
 -1       390 2.11914E+01 6.87326E-01 2.36371E-03 7.56826E-01 2.43148E-13 9.29482E-14
 -1       391 2.10832E+01 8.04733E-01 3.15768E-03-2.88711E-01 3.34901E-13-1.36489E-13
 -1       392 2.14676E+01 5.51658E-01 4.38425E-03-1.22963E+00 1.90222E-13-3.27132E-13
 -1       393 2.21436E+01 1.01962E-01 3.26664E-03-1.65724E+00 1.62105E-13-4.46123E-13
 -1       394 2.27929E+01-2.74561E-01-2.24876E-04-1.50205E+00 2.83933E-14-5.15233E-13
 -1       395 2.32034E+01-4.42642E-01-3.83860E-03-9.83648E-01 4.00569E-14-5.68177E-13
 -1       396 2.33228E+01-4.24949E-01-5.64294E-03-3.79891E-01 2.86793E-14-5.22047E-13
 -1       397 2.32007E+01-3.11258E-01-5.62273E-03 1.21869E-01 1.67259E-13-4.18874E-13
 -1       398 2.29196E+01-1.80860E-01-4.29380E-03 4.52922E-01 1.08986E-13-2.94116E-13
 -1       399 2.25544E+01-7.44602E-02-2.57071E-03 6.22545E-01-9.26726E-14-1.93721E-13
 -1       400 2.21613E+01-2.76856E-03-1.04456E-03 6.71369E-01-1.61859E-13-2.46968E-13
 -1       401 2.17780E+01 3.82889E-02 4.02264E-05 6.43337E-01-4.54247E-14-2.55591E-13
 -1       402 2.14271E+01 5.72590E-02 6.85905E-04 5.73892E-01 1.44613E-13-3.23231E-13
 -1       403 2.11198E+01 6.22403E-02 9.92418E-04 4.87543E-01-4.06912E-15-1.54524E-13
 -1       404 2.08600E+01 5.93223E-02 1.07349E-03 3.99417E-01-1.82972E-13-2.23153E-13
 -1       405 2.06465E+01 5.25514E-02 1.02269E-03 3.17838E-01-1.05129E-13 6.10069E-14
 -1       406 2.04753E+01 4.43917E-02 9.05951E-04 2.46667E-01-3.39382E-14-3.40204E-14
 -1       407 2.03409E+01 3.62297E-02 7.64947E-04 1.87058E-01 1.15888E-13-7.61994E-14
 -1       408 2.02376E+01 2.87719E-02 6.23676E-04 1.38654E-01 1.29856E-13 4.95679E-14
 -1       409 2.01599E+01 2.23189E-02 4.94544E-04 1.00333E-01 1.23655E-14 1.95155E-13
 -1       410 2.01027E+01 1.69408E-02 3.82875E-04 7.06668E-02 4.41377E-14 2.95960E-13
 -1       411 2.00615E+01 1.25845E-02 2.89923E-04 4.81822E-02 4.27436E-14-1.01585E-14
 -1       412 2.00327E+01 9.13863E-03 2.14765E-04 3.14989E-02 9.84464E-14-3.12422E-13
 -1       413 2.00132E+01 6.47017E-03 1.55442E-04 1.93969E-02-4.63350E-14-1.61932E-13
 -1       414 2.00007E+01 4.44539E-03 1.09617E-04 1.08379E-02-9.95743E-15-4.04219E-14
 -1       415 1.99930E+01 2.94051E-03 7.49432E-05 4.96473E-03 5.71598E-14-2.11809E-13
 -1       416 1.99889E+01 1.84670E-03 4.92537E-05 1.08558E-03 1.61764E-13-2.54825E-13
 -1       417 1.99872E+01 1.07147E-03 3.06454E-05-1.34566E-03-1.11327E-13-1.82540E-13
 -1       418 1.99870E+01 5.38297E-04 1.75027E-05-2.75178E-03 3.82848E-14-1.23545E-13
 -1       419 1.99878E+01 1.85100E-04 8.48790E-06-3.45345E-03-1.39588E-13 1.95566E-13
 -1       420 1.99891E+01-3.76816E-05 2.51159E-06-3.68841E-03-4.36761E-14 5.64326E-14
 -1       421 1.99907E+01-1.69253E-04-1.30422E-06-3.62807E-03-1.04719E-13-1.50147E-13
 -1       422 1.99924E+01-2.40630E-04-3.66285E-06-3.39104E-03-1.18337E-14-5.54840E-14
 -1       423 1.99940E+01-2.76755E-04-5.10980E-06-3.05398E-03 1.73958E-13 1.23000E-13
 -1       424 1.99955E+01-2.98552E-04-6.04073E-06-2.65962E-03 2.22406E-13 2.71223E-13
 -1       425 1.99968E+01-3.24271E-04-6.53587E-06-2.22277E-03-1.14055E-14 3.22486E-13
 -1       426 1.99979E+01-3.67084E-04-6.24351E-06-1.73726E-03 4.84282E-14 3.84511E-13
 -1       427 1.99988E+01-4.32175E-04-5.40814E-06-1.18931E-03-4.85946E-14 5.60836E-13
 -1       428 1.99992E+01-5.01346E-04-4.34052E-06-8.45823E-04 3.78346E-14 5.96469E-13
 -1       429 1.99998E+01-2.41910E-03-9.35850E-07-1.93103E-03-1.80359E-13-4.66334E-14
 -1       430 1.99995E+01-1.62196E-03-4.44825E-06-1.76597E-03 8.06346E-14 9.87179E-14
 -1       431 1.99993E+01-1.03263E-03-6.21073E-06-1.36390E-03 8.15280E-14 1.45291E-13
 -1       432 2.00000E+01-3.17023E-03 1.83864E-06-1.82153E-03-4.46294E-13-3.60052E-13
 -1       433 2.00002E+01-3.82513E-03 3.86990E-06-1.47643E-03-1.97091E-13 1.41353E-13
 -1       434 2.00004E+01-4.30150E-03 5.30096E-06-9.55260E-04 1.34173E-14-3.21474E-13
 -1       435 2.00004E+01-4.55120E-03 6.06608E-06-3.26750E-04-2.92171E-13-3.29445E-13
 -1       436 2.00004E+01-4.54915E-03 6.06806E-06 3.37437E-04-3.61125E-13-2.44243E-14
 -1       437 2.00004E+01-4.29546E-03 5.29502E-06 9.64854E-04-2.25525E-13-2.38816E-13
 -1       438 2.00002E+01-3.82569E-03 3.79889E-06 1.47636E-03-1.19487E-13-5.56537E-13
 -1       439 2.00000E+01-3.17121E-03 1.80132E-06 1.82215E-03-1.56548E-14 5.70685E-13
 -1       440 1.99998E+01-2.40590E-03-7.36094E-07 1.93193E-03 2.01245E-13 1.38110E-14
 -1       441 1.99995E+01-1.60842E-03-4.44114E-06 1.77182E-03 1.29698E-13-2.89113E-14
 -1       442 1.02571E+01-4.94752E+00 5.91416E-02 6.80057E+00-3.00079E-13 5.87447E-13
 -1       443 1.63338E+00-3.67763E+00 1.75657E-02 8.51719E-02 8.59117E-14 1.34259E-12
 -1       444 4.77669E+00-3.88968E+00 7.02014E-02 4.73439E+00-1.67102E-13 9.92109E-13
 -1       445 1.94677E+01-5.02628E+00-1.15258E-02 6.45499E+00 3.00163E-13 9.99270E-14
 -1       446 2.63631E+01-3.21453E+00-2.38831E-03 4.64946E+00 4.08701E-13 9.51461E-14
 -1       447 1.99837E+01 3.48820E+00-1.68651E-02-5.44625E-01-4.58791E-13-6.93886E-13
 -1       448 3.54369E+01 4.92067E+00 8.21662E-02 3.61056E-01 1.17865E-12-4.31530E-13
 -1       449 3.42278E+01 7.66430E+00-5.40886E-02-4.94122E-01 1.43732E-12-5.44752E-13
 -1       450 3.58787E+01 7.27695E+00 6.86617E-02 1.71075E-01 1.53949E-12-4.35089E-13
 -1       451 3.47225E+01 4.32281E+00 6.31958E-02-3.38391E-01 1.40507E-12-4.79547E-13
 -1       452 3.06665E+01-9.82440E-01-2.88747E-02-1.72505E+00 7.96379E-13-3.69482E-13
 -1       453 2.43147E+01-4.29393E+00-2.16363E-02-5.28731E+00 4.81906E-13-8.73329E-13
 -1       454 1.63740E+01-5.19624E+00-4.15387E-02-7.00508E+00 3.86691E-13-1.29293E-12
 -1       455 9.31977E+00-4.85727E+00-1.68792E-02-6.69228E+00 1.10148E-13-1.47505E-12
 -1       456 2.69996E+00-3.55829E+00-1.26499E-02-3.10259E+00-5.48173E-16-1.66170E-12
 -1       457 1.36502E+00-3.70538E+00-3.62202E-02 6.30879E-01 1.85962E-14-1.68318E-12
 -1       458 4.70429E+00-4.11085E+00-1.98359E-02 4.86662E+00-5.34295E-15-1.46995E-12
 -1       459 1.22108E+01-5.32071E+00-6.26403E-02 6.97828E+00-3.78669E-13-1.24896E-12
 -1       460 2.04751E+01-4.64396E+00-4.15745E-02 6.40546E+00-6.75598E-13-1.05645E-12
 -1       461 2.83251E+01-2.03646E+00 2.35151E-02 4.13446E+00-9.04887E-13-9.05692E-13
 -1       462 3.29879E+01 1.56033E+00 2.41671E-02 1.15579E+00-1.11581E-12-5.71154E-13
 -1       463 3.57966E+01 6.21016E+00 8.69243E-02-8.93698E-02-1.39332E-12-5.80438E-13
 -1       464 3.67121E+01 7.96790E+00 1.03308E-01-1.90069E-03-1.52350E-12-6.21477E-13
 -1       465 3.49201E+01 7.12852E+00-2.59861E-02 4.68565E-01-1.49362E-12-5.87495E-13
 -1       466 3.36770E+01 2.78809E+00 1.00685E-02-6.45015E-01-9.35314E-13-4.42604E-13
 -1       467 3.03716E+01-1.01231E+00 2.89854E-02-2.84438E+00-6.84078E-13-1.22208E-13
 -1       468 2.43653E+01-4.05137E+00-1.03947E-02-5.28397E+00-3.65388E-13 2.17479E-13
 -1       469 1.71230E+01-5.46745E+00-3.61800E-02-6.80482E+00-1.67921E-14 4.37313E-13
 -1       470 9.04047E+00-5.11361E+00-1.88566E-04-6.57976E+00 3.20563E-13 9.12576E-13
 -1       471 3.33508E+00-4.47052E+00-1.64073E-02-3.88370E+00 1.76151E-13 1.22787E-12
 -1       472 3.18588E+01 4.24094E-01 1.45449E-02 1.65351E+00 7.40808E-13-4.40439E-13
 -1       473 1.65877E+01-5.41544E+00 5.70047E-02 6.89637E+00-4.90136E-13-3.69843E-15
 -1       474 3.15866E+01 4.49918E+00-1.09546E-01 1.78207E+00-1.04361E-12-7.35932E-13
 -1       475 2.26775E+01 5.89704E-01 2.57878E-03 1.01502E-01 4.88695E-13 9.38369E-14
 -1       476 1.71226E+01 3.73961E+00-2.55642E-03 3.78876E-01-9.29126E-14-8.87838E-13
 -1       477 1.82770E+01 3.27101E+00-3.93679E-03 3.35934E-01-2.00122E-13-8.02507E-13
 -1       478 1.61178E+01 4.15159E+00-9.42900E-04-7.68233E-02 5.97066E-14-9.43546E-13
 -1       479 1.64738E+01 3.98890E+00-1.74459E-03-3.41564E-01 1.36936E-13-9.21738E-13
 -1       480 1.73118E+01 3.62835E+00-2.89898E-03-4.46467E-01 2.18478E-13-8.40730E-13
 -1       481 1.84816E+01 3.14706E+00-4.54690E-03-3.37491E-01 3.40120E-13-7.22144E-13
 -1       482 1.97946E+01 2.61830E+00-5.83482E-03-4.67073E-02 4.32283E-13-5.52055E-13
 -1       483 2.11419E+01 2.03533E+00-5.62748E-03 3.17583E-01 5.39171E-13-3.34331E-13
 -1       484 2.27433E+01 3.27096E-02 2.30266E-03-2.17299E-01 3.56405E-13 8.94009E-14
 -1       485 2.23298E+01 6.94384E-01 9.71542E-04 1.33456E-01-3.97113E-13-2.01089E-13
 -1       486 3.10498E+01 1.89195E+00-9.59873E-02-1.35151E+00 7.13048E-13-8.35984E-13
 -1       487 2.25522E+01-9.15175E-03 2.08538E-04 4.61553E-01-2.53384E-13-1.13289E-13
 -1       488 2.29402E+01-6.48457E-01-2.18978E-03 4.13344E-01-1.56671E-13-5.44742E-14
 -1       489 2.34949E+01-1.19939E+00-3.28720E-03-3.07635E-02-9.93558E-14 3.22875E-14
 -1       490 2.40929E+01-1.44224E+00-1.94281E-03-8.29837E-01-7.27083E-14 1.43228E-13
 -1       491 2.44758E+01-1.01990E+00-7.23719E-03-1.75798E+00-1.52958E-13 1.74926E-13
 -1       492 2.44034E+01 2.61120E-01-1.76334E-02-2.25807E+00-3.05990E-13 1.59342E-13
 -1       493 2.39506E+01 1.94287E+00-2.82633E-02-1.70543E+00-5.58995E-13 6.29369E-15
 -1       494 2.36399E+01 2.84937E+00-3.37324E-02-6.57362E-02-6.23694E-13-2.95852E-13
 -1       495 2.38690E+01 2.17534E+00-3.12595E-02 1.67141E+00-4.34413E-13-5.34666E-13
 -1       496 2.43414E+01 5.07192E-01-1.90491E-02 2.41548E+00-2.33267E-13-6.45998E-13
 -1       497 2.44868E+01-9.34251E-01-7.26358E-03 2.00536E+00-3.71121E-14-7.35750E-13
 -1       498 2.41246E+01-1.54105E+00-3.64377E-03 1.03136E+00 5.20396E-14-6.13967E-13
 -1       499 2.34736E+01-1.45284E+00-3.34323E-03 6.46208E-02 1.54454E-13-4.65926E-13
 -1       500 2.27806E+01-1.04086E+00-3.09535E-03-6.32814E-01 7.60160E-14-4.72647E-13
 -1       501 2.21828E+01-5.88867E-01-2.16577E-03-1.03153E+00 1.21848E-13-4.34817E-13
 -1       502 2.17122E+01-2.28638E-01-1.14008E-03-1.19512E+00-3.30101E-14-3.37878E-13
 -1       503 2.13519E+01 1.11054E-02-3.62286E-04-1.20149E+00-2.32390E-14-2.99389E-13
 -1       504 2.10738E+01 1.47703E-01 1.20933E-04-1.11504E+00 4.35877E-14-2.45790E-13
 -1       505 2.08543E+01 2.10654E-01 3.75582E-04-9.81965E-01 1.79353E-13-2.80907E-13
 -1       506 2.06773E+01 2.26887E-01 4.76730E-04-8.32601E-01 1.13702E-13-4.06495E-13
 -1       507 2.05328E+01 2.16479E-01 4.86682E-04-6.85388E-01 8.72945E-15-3.99767E-13
 -1       508 2.04145E+01 1.92820E-01 4.47787E-04-5.50491E-01 2.27988E-14-4.80150E-13
 -1       509 2.03180E+01 1.64168E-01 3.87307E-04-4.32647E-01 4.61222E-14-5.72085E-13
 -1       510 2.02401E+01 1.35259E-01 3.21293E-04-3.33215E-01 5.25083E-15-3.80706E-13
 -1       511 2.01780E+01 1.08582E-01 2.58367E-04-2.51580E-01 7.69475E-14-3.60568E-13
 -1       512 2.01293E+01 8.52561E-02 2.02582E-04-1.86081E-01-1.08000E-13-3.04026E-13
 -1       513 2.00917E+01 6.55988E-02 1.55351E-04-1.34592E-01-6.27681E-14-2.11735E-13
 -1       514 2.00631E+01 4.94904E-02 1.16648E-04-9.48901E-02-3.47250E-14-1.77807E-14
 -1       515 2.00418E+01 3.65900E-02 8.57336E-05-6.48540E-02-1.75223E-13 1.56619E-14
 -1       516 2.00263E+01 2.64667E-02 6.15730E-05-4.25743E-02-2.18546E-13 1.66595E-13
 -1       517 2.00153E+01 1.86732E-02 4.30658E-05-2.63970E-02 4.73805E-14 2.75692E-13
 -1       518 2.00076E+01 1.27863E-02 2.91664E-05-1.49317E-02 1.60082E-13 7.32866E-14
 -1       519 2.00025E+01 8.42723E-03 1.89410E-05-7.03664E-03 2.07043E-13 1.45122E-13
 -1       520 1.99993E+01 5.26902E-03 1.15874E-05-1.79443E-03 5.75059E-14 1.15856E-13
 -1       521 1.99974E+01 3.03701E-03 6.43582E-06 1.51817E-03-9.32758E-14 2.49644E-14
 -1       522 1.99965E+01 1.50541E-03 2.93893E-06 3.46041E-03 1.49455E-14-3.64203E-15
 -1       523 1.99962E+01 4.91703E-04 6.55894E-07 4.45601E-03 5.28928E-14 2.12501E-13
 -1       524 1.99962E+01-1.49850E-04-7.66218E-07 4.81860E-03 1.14610E-13 3.98061E-13
 -1       525 1.99966E+01-5.34883E-04-1.60844E-06 4.77359E-03-2.85417E-14 2.19569E-13
 -1       526 1.99970E+01-7.55369E-04-2.10524E-06 4.47623E-03 1.92767E-13-9.20604E-14
 -1       527 1.99976E+01-8.85298E-04-2.43878E-06 4.02639E-03 2.08647E-13 2.79469E-14
 -1       528 1.99981E+01-9.83632E-04-2.58301E-06 3.48043E-03 1.04445E-13-1.61481E-13
 -1       529 1.99986E+01-1.09724E-03-3.04735E-06 2.86283E-03-2.16750E-13 1.73390E-14
 -1       530 1.04113E+01-2.75744E+00 1.63710E-01 5.77409E+00-5.82742E-13 4.39732E-13
 -1       531 2.32430E+01-8.13098E-01-3.87982E-03 2.35863E-01 1.12437E-13 1.51256E-13
 -1       532 2.35146E+01-9.74987E-01-3.92976E-03 8.99845E-01 7.85652E-14 1.65405E-13
 -1       533 2.35961E+01-7.07912E-01-1.59531E-03 1.61432E+00 9.64691E-14 1.74776E-13
 -1       534 2.33669E+01 8.99559E-02-2.26131E-03 1.97481E+00 2.01832E-13 2.16139E-13
 -1       535 2.28984E+01 1.18697E+00-5.87283E-03 1.57200E+00 3.80592E-13 1.52119E-13
 -1       536 2.25619E+01 1.89970E+00-9.30336E-03 3.43198E-01 5.12921E-13-1.12656E-13
 -1       537 2.26748E+01 1.68233E+00-7.94680E-03-1.11399E+00 5.02994E-13-3.60393E-13
 -1       538 2.31320E+01 7.07157E-01-4.87809E-03-2.02188E+00 2.64019E-13-5.12549E-13
 -1       539 2.35305E+01-3.42886E-01-3.68181E-03-2.03169E+00 1.44177E-13-5.42332E-13
 -1       540 2.36053E+01-9.52633E-01-3.73337E-03-1.40729E+00 1.96531E-14-5.50038E-13
 -1       541 2.33696E+01-1.06281E+00-3.85844E-03-5.83288E-01-6.19437E-15-4.08819E-13
 -1       542 2.29599E+01-8.56401E-01-4.04930E-03 1.32001E-01-1.49134E-14-4.52745E-13
 -1       543 2.25101E+01-5.50094E-01-3.30394E-03 6.19397E-01 1.51588E-14-1.77380E-13
 -1       544 2.20880E+01-2.71749E-01-2.10901E-03 8.84227E-01-1.43157E-13-1.21498E-13
 -1       545 2.17165E+01-6.83732E-02-9.57349E-04 9.77707E-01-1.54038E-13-3.15996E-14
 -1       546 2.13974E+01 5.85751E-02-1.23299E-04 9.57670E-01 2.41001E-14-2.38591E-13
 -1       547 2.11258E+01 1.25542E-01 3.81565E-04 8.72266E-01 1.65027E-14-2.49993E-13
 -1       548 2.08964E+01 1.51709E-01 6.32969E-04 7.56152E-01 5.42836E-14-6.63795E-14
 -1       549 2.07041E+01 1.52997E-01 7.14693E-04 6.31894E-01-1.46518E-13-1.12593E-13
 -1       550 2.05448E+01 1.40763E-01 6.95038E-04 5.12861E-01-1.68155E-13-1.87924E-13
 -1       551 2.04146E+01 1.22382E-01 6.22897E-04 4.06055E-01 5.38467E-14-2.29958E-13
 -1       552 2.03099E+01 1.02290E-01 5.29769E-04 3.14375E-01 1.60475E-13-3.22183E-13
 -1       553 2.02270E+01 8.29626E-02 4.34007E-04 2.38238E-01-1.04180E-14-3.09090E-13
 -1       554 2.01625E+01 6.56329E-02 3.45302E-04 1.76667E-01-7.37013E-14-1.50204E-13
 -1       555 2.01131E+01 5.07871E-02 2.67997E-04 1.28003E-01-3.52412E-14-1.50671E-13
 -1       556 2.00761E+01 3.84831E-02 2.03335E-04 9.03366E-02 1.95904E-13-2.41528E-13
 -1       557 2.00489E+01 2.85498E-02 1.50879E-04 6.17672E-02 5.29586E-14-1.30921E-13
 -1       558 2.00293E+01 2.07087E-02 1.09374E-04 4.05393E-02-2.75193E-14 5.41601E-14
 -1       559 2.00156E+01 1.46453E-02 7.72522E-05 2.51105E-02-8.96522E-14 1.38861E-13
 -1       560 2.00063E+01 1.00498E-02 5.29070E-05 1.41710E-02 1.40918E-13 1.21209E-13
 -1       561 2.00004E+01 6.63789E-03 3.48423E-05 6.63917E-03 1.81746E-13 1.07605E-14
 -1       562 1.99967E+01 4.16051E-03 2.17378E-05 1.64197E-03 1.30379E-13 4.29075E-14
 -1       563 1.99948E+01 2.40649E-03 1.24703E-05-1.51081E-03-1.11876E-13 1.95405E-14
 -1       564 1.99940E+01 1.20112E-03 6.10884E-06-3.35395E-03-1.05241E-13 3.73006E-14
 -1       565 1.99939E+01 4.02576E-04 1.89706E-06-4.29326E-03-8.35065E-14-1.68245E-13
 -1       566 1.99943E+01-1.02633E-04-7.70655E-07-4.62953E-03 5.40844E-14-2.09904E-13
 -1       567 1.99950E+01-4.04656E-04-2.37859E-06-4.57914E-03-1.04813E-13-2.95748E-13
 -1       568 1.99958E+01-5.75170E-04-3.31279E-06-4.29127E-03-1.39199E-13-4.82401E-13
 -1       569 1.99966E+01-6.71901E-04-3.84954E-06-3.86179E-03-8.73692E-14-1.15323E-13
 -1       570 1.99974E+01-7.41990E-04-4.40325E-06-3.34508E-03-3.73199E-14 1.33005E-13
 -1       571 1.99981E+01-8.25637E-04-5.97966E-06-2.76754E-03-2.98598E-14 3.26201E-13
 -1       572 1.99987E+01-9.36177E-04-5.95507E-06-2.12533E-03-2.47387E-14 4.33987E-13
 -1       573 2.00005E+01-3.06787E-03 1.77532E-06-2.19235E-03-2.07941E-13-7.75976E-14
 -1       574 2.00008E+01-3.52199E-03 2.10319E-06-1.60562E-03-2.44303E-13 1.40130E-13
 -1       575 1.99995E+01-1.82100E-03-9.18506E-07-2.54817E-03-1.51497E-13-2.94766E-13
 -1       576 2.00000E+01-2.48769E-03 5.71494E-07-2.52489E-03-3.73835E-13-1.02782E-13
 -1       577 2.00010E+01-3.80814E-03 2.57110E-06-8.43848E-04-9.25818E-15-3.85197E-13
 -1       578 2.00011E+01-3.90478E-03 2.74386E-06 6.90970E-06 7.50321E-14-2.58015E-13
 -1       579 2.00010E+01-3.80510E-03 2.56541E-06 8.57034E-04-1.07418E-13 1.41413E-13
 -1       580 2.00008E+01-3.52309E-03 2.02444E-06 1.60540E-03-3.87152E-14-5.08141E-13
 -1       581 2.00005E+01-3.06920E-03 1.40428E-06 2.19233E-03 1.57801E-13-1.75457E-13
 -1       582 2.00000E+01-2.47910E-03 7.72290E-07 2.52718E-03-5.44179E-14 1.17411E-13
 -1       583 1.99995E+01-1.80668E-03-1.69935E-06 2.53752E-03-2.48216E-13-1.10848E-13
 -1       584 2.47182E+01-5.30381E+00 2.27967E-02 4.20771E+00-1.56805E-13-4.08392E-13
 -1       585 2.29488E+01-4.34172E-01-1.31998E-03-1.62354E-01 1.95779E-13 1.08777E-13
 -1       586 6.35996E+00-8.54298E-01 1.86703E-01 2.23594E+00-2.47274E-13 8.35179E-13
 -1       587 1.62094E+01-5.09771E+00 8.52381E-02-6.77044E+00 6.65024E-13 2.46643E-13
 -1       588 2.19566E+01 1.61703E+00-7.01617E-03-3.96892E-01-5.24551E-13-2.99787E-13
 -1       589 8.48300E+00-2.24225E+00 1.46469E-01-5.47481E+00-2.63033E-13-1.40256E-12
 -1       590 3.03285E+01 5.38742E+00-1.69675E-01-1.75203E+00 1.13717E-12-6.60832E-13
 -1       591 1.63493E+01 4.06048E+00-1.23393E-03 2.12823E-01-2.36110E-15-9.39357E-13
 -1       592 3.01703E+01 7.20832E+00-1.69403E-01 4.14792E-01 1.35279E-12-2.93749E-13
 -1       593 2.74453E+01-4.12437E+00-4.48277E-02-1.76944E+00-2.85605E-14 7.86593E-14
 -1       594 3.08617E+01 4.99184E+00-1.45165E-01 1.65055E+00 1.20731E-12 5.54209E-14
 -1       595 1.15151E+01-3.46282E+00 1.25309E-01 6.56585E+00 2.98941E-13-1.11607E-12
 -1       596 3.03964E+01 6.27503E-01-9.79058E-02 1.15967E+00 7.16174E-13 2.08805E-13
 -1       597 2.18440E+01-5.26848E+00 3.54938E-02-5.55157E+00-2.49779E-13-5.73675E-13
 -1       598 1.60694E+01-4.45499E+00 1.10870E-01-6.81490E+00-3.70509E-13-9.74741E-13
 -1       599 5.05052E+00-5.24403E-01 1.84627E-01-9.92285E-01-7.61544E-15-1.55438E-12
 -1       600 5.94740E+00-9.89420E-01 1.74111E-01 3.12232E+00 2.37005E-13-1.48015E-12
 -1       601 1.90654E+01-5.24713E+00 5.70315E-02 6.45910E+00 1.26052E-13-6.96016E-13
 -1       602 2.58270E+01-4.73731E+00-2.99488E-03 3.85289E+00-1.32457E-13-3.61211E-13
 -1       603 2.96116E+01-2.10857E+00-7.50539E-02 4.63078E-01-4.25255E-13-1.80758E-14
 -1       604 3.09096E+01 3.03258E+00-1.28629E-01-1.75697E+00-9.22637E-13 6.69673E-14
 -1       605 3.13858E+01 6.75152E+00-1.43230E-01-9.78442E-01-1.32051E-12-1.49672E-13
 -1       606 3.10351E+01 7.28795E+00-1.62843E-01 4.21219E-01-1.44160E-12-4.10737E-13
 -1       607 3.00678E+01-6.92597E-01-1.00274E-01 7.45990E-01-4.93095E-13-8.30877E-13
 -1       608 2.81495E+01-3.79040E+00-4.01621E-02-1.85592E+00-1.12597E-13-5.36723E-13
 -1       609 2.27743E+01-5.61428E+00 2.48066E-02-5.15185E+00 4.57107E-13-7.15851E-14
 -1       610 2.27965E+01 1.14875E+00-3.86080E-03 6.42597E-01 6.17435E-13 1.52495E-13
 -1       611 2.86460E+01-3.17042E+00-6.73350E-02 1.16768E+00 1.62306E-13-8.74752E-13
 -1       612 2.79584E+01 6.06538E+00-1.60892E-01-8.39884E-01 1.14248E-12-3.09265E-13
 -1       613 1.96200E+01 2.73106E+00-6.15764E-03 1.04189E-01-3.27095E-13-6.82835E-13
 -1       614 1.49582E+01-3.62121E+00 9.95095E-02 6.17850E+00-6.08430E-13 6.75501E-14
 -1       615 6.20984E+00-8.45707E-01 1.92668E-01-1.95109E+00 2.16369E-13 1.07392E-12
 -1       616 1.19020E+01-3.43971E+00 1.33400E-01-6.12892E+00 6.12066E-13 5.10869E-13
 -1       617 1.99989E+01-1.18359E-03-3.82135E-06 2.39638E-03-1.79754E-13 2.67313E-13
 -1       618 2.91171E+01 5.59275E+00-1.55945E-01 1.65882E+00-1.17120E-12-6.22564E-13
 -1       619 8.11408E+00-1.97898E+00 1.72621E-01-4.54598E+00 4.51250E-13 8.89414E-13
 -1       620 1.66744E+01 3.18206E+00-2.55888E-04-8.10248E-01 1.31757E-13-8.11780E-13
 -1       621 1.58761E+01 3.56770E+00-5.53667E-04-3.92441E-01 8.64868E-14-8.77975E-13
 -1       622 1.93917E+01 1.96363E+00-5.84754E-04-7.18584E-01 3.11393E-13-5.57565E-13
 -1       623 2.07738E+01 1.38083E+00-1.07666E-03-3.75416E-01 3.81286E-13-3.65887E-13
 -1       624 2.19258E+01 6.02003E-01 2.22315E-03-2.66419E-01 3.79015E-13-1.44720E-13
 -1       625 1.07781E+01-7.73271E-01 1.27538E-01 3.87440E+00-4.28508E-13 2.72157E-13
 -1       626 2.22706E+01-1.98036E-01-7.11789E-04-5.20108E-01 2.35609E-13-8.51111E-14
 -1       627 8.97080E+00 7.98828E-02 1.44587E-01-3.26753E+00-1.96803E-13-1.30403E-12
 -1       628 2.19350E+01-2.88400E-01-7.65344E-04 9.23357E-01-1.31810E-13-2.73225E-13
 -1       629 2.27081E+01-1.25827E+00-1.49586E-03 8.94757E-01-2.67262E-14-1.48147E-13
 -1       630 2.38026E+01-2.07751E+00-1.62035E-03 3.87836E-01 4.98258E-14 9.18840E-15
 -1       631 2.50237E+01-2.32726E+00-1.19417E-02-6.14240E-01-1.75229E-14 1.44225E-13
 -1       632 2.59651E+01-1.20627E+00-2.17316E-02-1.90401E+00-1.64280E-13 2.23517E-13
 -1       633 2.60811E+01 1.46843E+00-8.27215E-02-2.48015E+00-5.84286E-13 2.81450E-13
 -1       634 2.57541E+01 4.14858E+00-9.23999E-02-1.26787E+00-8.60683E-13-3.40439E-15
 -1       635 2.59770E+01 1.92838E+00-7.06990E-02 2.57144E+00-5.40380E-13-8.02943E-13
 -1       636 2.60207E+01-8.92103E-01-2.74744E-02 2.27515E+00-1.91009E-13-8.35715E-13
 -1       637 2.51544E+01-2.38196E+00-5.50802E-03 9.18522E-01 7.30258E-14-8.36792E-13
 -1       638 2.38558E+01-2.43605E+00-3.35418E-04-3.27277E-01 2.16877E-13-6.88880E-13
 -1       639 2.26402E+01-1.81787E+00-9.00351E-04-1.09865E+00 1.54898E-13-6.05309E-13
 -1       640 2.17239E+01-1.07878E+00-9.71859E-04-1.46112E+00 1.10129E-13-4.03133E-13
 -1       641 2.11138E+01-4.70747E-01-5.79578E-04-1.55592E+00 1.61823E-13-3.24132E-13
 -1       642 2.07354E+01-5.31462E-02-1.85663E-04-1.49923E+00 5.18074E-14-2.11303E-13
 -1       643 2.05081E+01 1.96223E-01 3.65647E-05-1.36397E+00 6.84441E-15-7.58120E-14
 -1       644 2.03712E+01 3.21789E-01 1.39358E-04-1.19378E+00 7.60199E-14-8.68863E-14
 -1       645 2.02851E+01 3.65795E-01 1.71352E-04-1.01458E+00-1.39277E-14-1.35054E-13
 -1       646 2.02267E+01 3.60858E-01 1.71537E-04-8.41646E-01 3.96322E-14-2.77173E-13
 -1       647 2.01834E+01 3.29569E-01 1.55918E-04-6.83520E-01-9.74177E-14-2.92566E-13
 -1       648 2.01490E+01 2.86469E-01 1.33840E-04-5.44392E-01 7.49771E-14-2.50347E-13
 -1       649 2.01204E+01 2.40354E-01 1.10539E-04-4.25608E-01 1.15113E-13-2.66624E-13
 -1       650 2.00963E+01 1.96191E-01 8.87211E-05-3.26701E-01 2.40455E-14-3.27935E-13
 -1       651 2.00759E+01 1.56503E-01 6.95518E-05-2.46120E-01-5.91369E-14-3.62631E-13
 -1       652 2.00589E+01 1.22310E-01 5.33901E-05-1.81757E-01 5.57064E-15-1.26684E-13
 -1       653 2.00450E+01 9.37551E-02 4.01642E-05-1.31296E-01 8.13149E-14 1.63642E-14
 -1       654 2.00337E+01 7.04930E-02 2.95956E-05-9.24497E-02-1.16540E-13-3.47155E-14
 -1       655 2.00247E+01 5.19432E-02 2.13238E-05-6.30917E-02-1.00205E-13 2.44040E-13
 -1       656 2.00177E+01 3.74364E-02 1.49739E-05-4.13320E-02-1.22901E-14 3.38124E-13
 -1       657 2.00123E+01 2.63026E-02 1.01922E-05-2.55431E-02-9.89520E-14 2.58794E-13
 -1       658 2.00083E+01 1.79181E-02 6.66355E-06-1.43608E-02-8.93557E-14-7.95415E-14
 -1       659 2.00053E+01 1.17296E-02 4.11690E-06-6.66702E-03-2.84733E-14-4.18718E-13
 -1       660 2.00032E+01 7.26170E-03 2.32580E-06-1.56381E-03 2.82476E-14-3.04422E-13
 -1       661 2.00017E+01 4.11654E-03 1.10499E-06 1.65587E-03 1.71861E-13-1.58975E-14
 -1       662 2.00006E+01 1.96763E-03 3.06246E-07 3.53821E-03 4.58388E-14 1.43432E-13
 -1       663 2.00000E+01 5.51289E-04-1.89863E-07 4.49635E-03-2.97931E-15-4.11129E-14
 -1       664 1.99996E+01-3.43038E-04-4.84291E-07 4.83544E-03-2.95188E-14-3.73974E-13
 -1       665 1.99994E+01-8.82545E-04-6.55859E-07 4.77412E-03 7.97400E-15-1.18913E-13
 -1       666 1.99993E+01-1.20022E-03-7.54890E-07 4.46243E-03 1.01894E-13-2.55070E-13
 -1       667 1.99993E+01-1.40157E-03-6.68842E-07 3.99709E-03 1.05564E-13-5.82678E-13
 -1       668 1.99993E+01-1.56974E-03-1.20864E-06 3.43033E-03 2.46389E-13-5.26391E-13
 -1       669 8.76690E+00 2.98212E-01 1.30597E-01 3.27724E-02-7.26526E-14 7.22714E-13
 -1       670 2.55097E+01-4.79483E+00 8.19680E-03-2.33001E+00 4.02605E-13-5.08218E-13
 -1       671 1.99994E+01-1.68079E-03-1.77215E-06 3.00159E-03 5.69104E-14-2.43637E-13
 -1       672 2.35673E+01-1.53377E+00-3.60303E-03 9.51724E-02 1.56692E-14 9.19490E-14
 -1       673 2.46327E+01 9.53649E-01-5.00759E-02 2.31877E+00 4.27144E-13 2.67642E-13
 -1       674 2.41544E+01 2.83328E+00-6.75393E-02 1.39789E+00 6.87850E-13 2.65695E-14
 -1       675 2.39204E+01 3.43207E+00-6.22735E-02-5.08394E-01 7.24251E-13-1.58131E-13
 -1       676 2.44085E+01 2.06255E+00-3.59594E-02-2.07369E+00 4.85103E-13-3.26237E-13
 -1       677 2.47556E+01-9.08113E-03-2.46645E-02-2.36709E+00 1.81032E-13-3.82260E-13
 -1       678 2.45766E+01-1.44012E+00-1.08320E-02-1.61395E+00 5.17789E-14-3.98727E-13
 -1       679 2.39057E+01-1.87626E+00-9.16767E-04-5.44982E-01-5.23044E-14-4.52187E-13
 -1       680 2.30419E+01-1.61820E+00-1.03519E-03 3.48152E-01-8.48428E-14-3.44416E-13
 -1       681 2.22595E+01-1.09968E+00-1.26162E-03 9.07101E-01-7.10745E-14-3.35186E-13
 -1       682 2.16538E+01-5.94596E-01-9.89607E-04 1.18695E+00-1.33219E-13-2.07057E-13
 -1       683 2.12179E+01-2.06858E-01-4.92629E-04 1.26877E+00-1.39881E-13-1.18477E-13
 -1       684 2.09138E+01 4.77025E-02-1.19544E-04 1.22697E+00-2.36444E-14-1.82912E-13
 -1       685 2.07000E+01 1.92195E-01 8.93901E-05 1.11610E+00 4.26469E-14-5.25622E-14
 -1       686 2.05451E+01 2.58330E-01 1.92836E-04 9.72929E-01-2.20705E-15-6.56376E-14
 -1       687 2.04284E+01 2.74211E-01 2.33211E-04 8.21064E-01 5.99253E-14 2.27029E-14
 -1       688 2.03373E+01 2.60897E-01 2.34711E-04 6.74789E-01-1.52933E-13-4.97362E-14
 -1       689 2.02644E+01 2.32702E-01 2.14782E-04 5.41995E-01-7.31430E-16-5.07852E-14
 -1       690 2.02054E+01 1.98682E-01 1.85503E-04 4.26331E-01 1.39009E-13-1.21479E-13
 -1       691 2.01577E+01 1.64201E-01 1.53901E-04 3.28731E-01 1.58842E-13-7.71224E-14
 -1       692 2.01193E+01 1.32187E-01 1.23837E-04 2.48489E-01-2.22773E-14-3.13795E-13
 -1       693 2.00887E+01 1.04027E-01 9.71598E-05 1.83983E-01-5.94486E-14-3.94471E-13
 -1       694 2.00647E+01 8.01750E-02 7.45288E-05 1.33177E-01 3.75089E-14-2.12872E-13
 -1       695 2.00460E+01 6.05484E-02 5.59450E-05 9.39323E-02-1.30714E-13-9.04590E-14
 -1       696 2.00319E+01 4.47816E-02 4.10755E-05 6.41992E-02-8.04467E-14-8.15516E-15
 -1       697 2.00213E+01 3.23818E-02 2.94421E-05 4.21193E-02-1.40396E-13-1.10214E-13
 -1       698 2.00135E+01 2.28229E-02 2.05284E-05 2.60744E-02 9.28235E-14-2.32899E-13
 -1       699 2.00080E+01 1.55984E-02 1.38377E-05 1.46975E-02 1.27781E-13-2.55448E-15
 -1       700 2.00041E+01 1.02495E-02 8.92273E-06 6.86224E-03 2.94284E-14 1.87619E-13
 -1       701 2.00015E+01 6.37709E-03 5.39675E-06 1.66080E-03 2.12494E-14 3.23751E-13
 -1       702 1.99999E+01 3.64404E-03 2.93536E-06-1.62369E-03-8.63106E-14 1.29469E-13
 -1       703 1.99989E+01 1.77209E-03 1.27182E-06-3.54622E-03 8.94869E-15 7.84069E-14
 -1       704 1.99984E+01 5.35562E-04 1.90176E-07-4.52740E-03 1.19469E-13-7.73681E-14
 -1       705 1.99982E+01-2.46248E-04-4.77418E-07-4.87835E-03 1.21427E-13-3.38074E-14
 -1       706 1.99982E+01-7.17054E-04-8.72432E-07-4.82225E-03-1.18562E-13-1.85615E-13
 -1       707 1.99983E+01-9.91157E-04-1.11246E-06-4.51238E-03-1.80332E-13-4.01096E-13
 -1       708 1.99986E+01-1.15999E-03-1.33203E-06-4.04783E-03-3.49574E-13-3.33172E-13
 -1       709 1.99988E+01-1.30010E-03-1.80906E-06-3.48747E-03-2.10933E-13-8.74318E-14
 -1       710 1.99992E+01-1.53907E-03-1.44845E-06-3.04709E-03-1.98283E-13 8.86544E-15
 -1       711 1.69299E+01-3.85959E+00 8.72877E-02-5.82663E+00 6.83710E-13 4.57169E-14
 -1       712 2.00019E+01-3.40640E-03 8.66172E-07-5.00710E-04-2.90647E-14-2.44497E-13
 -1       713 2.00012E+01-2.94122E-03 4.38687E-07-2.29016E-03 4.25280E-15 2.27635E-14
 -1       714 2.00019E+01-3.40534E-03 8.60464E-07 5.16659E-04-4.73221E-14-3.94984E-13
 -1       715 2.00017E+01-3.24940E-03 8.30148E-07-1.46936E-03-1.30633E-13 9.35113E-14
 -1       716 2.00017E+01-3.25047E-03 6.45606E-07 1.46847E-03-1.13573E-13 8.59061E-14
 -1       717 2.00013E+01-2.94252E-03 4.69608E-07 2.29107E-03 1.77854E-13-3.71948E-13
 -1       718 2.00006E+01-2.49543E-03 6.29614E-07 2.87032E-03 1.32978E-13 1.56173E-13
 -1       719 2.28240E+01-9.46315E-01-2.48891E-03-4.16664E-01 8.80411E-14-2.23737E-14
 -1       720 2.10895E+01 1.47511E+00-3.58896E-03 2.13439E-01-3.69658E-13-4.19647E-13
 -1       721 2.76175E+01 4.10191E+00-1.41327E-01-2.08332E+00-9.24726E-13 1.18239E-13
 -1       722 2.82551E+01 2.40937E+00-1.28615E-01-2.40361E+00 6.15993E-13-7.00523E-13
 -1       723 2.48086E+01-8.25405E-01-1.26480E-02 1.96255E+00 1.17475E-13 3.59024E-13
 -1       724 2.43390E+01-1.66218E+00-5.31808E-03 9.88152E-01 2.18536E-14 2.42808E-13
 -1       725 2.14583E+01 5.70106E-01 8.20078E-04 6.74918E-01-2.26264E-13-3.47885E-13
 -1       726 2.77078E+01-1.70913E+00-6.69310E-02 1.22282E+00 1.73483E-13 3.29646E-13
 -1       727 2.74383E+01 5.11531E+00-1.53976E-01 1.51996E+00 1.02617E-12 1.06169E-13
 -1       728 1.79478E+01 2.59024E+00-1.73648E-03-9.10423E-01 2.10092E-13-6.71598E-13
 -1       729 1.76631E+01 2.75730E+00-1.46934E-03 8.70089E-01-7.61672E-14-7.63217E-13
 -1       730 1.72923E+01-3.80692E+00 8.71741E-02 6.03890E+00 4.73184E-13-6.78527E-13
 -1       731 1.42671E+01-2.22971E+00 1.11492E-01-5.73777E+00-4.78305E-13-9.54008E-13
 -1       732 2.33941E+01-4.98742E+00 3.16742E-02 4.26993E+00 2.85157E-13-2.47975E-13
 -1       733 2.78434E+01 2.13837E+00-9.66081E-02 2.41504E+00 7.34180E-13 3.41477E-13
 -1       734 2.14318E+01-5.01672E+00 4.87806E-02 4.89947E+00-4.98150E-13-2.10402E-13
 -1       735 2.02104E+01-4.31854E+00 6.51999E-02-5.34533E+00-5.05384E-13-5.35554E-13
 -1       736 2.50347E+01-4.47903E+00 5.54111E-03-2.67824E+00-3.09569E-13-2.56037E-14
 -1       737 8.17034E+00 8.38660E-01 1.38916E-01 1.04235E+00 1.39282E-13-1.33006E-12
 -1       738 2.16342E+01-5.05739E+00 4.50437E-02-4.78733E+00 7.29309E-13-6.87684E-14
 -1       739 2.64188E+01-4.37438E+00-1.04330E-02 1.49132E+00-7.32591E-14-8.81212E-13
 -1       740 1.15203E+01-8.23596E-01 1.36191E-01 4.71364E+00 4.33518E-13-1.10119E-12
 -1       741 2.70625E+01-4.00939E+00-3.65800E-02 1.17028E+00 3.02336E-14 1.03386E-13
 -1       742 2.86773E+01-3.57473E-01-9.49543E-02-1.86255E+00-4.45866E-13 2.24706E-13
 -1       743 2.82773E+01 6.31124E+00-1.78166E-01-3.37735E-01-1.21839E-12-1.85447E-13
 -1       744 2.84407E+01 1.36964E+00-1.20655E-01 2.50009E+00-5.25725E-13-8.01366E-13
 -1       745 2.75977E+01-3.41721E+00-5.64946E-02 7.41239E-02 1.41844E-14-7.62591E-13
 -1       746 2.83961E+01-1.52079E+00-6.98090E-02-1.21834E+00 1.54009E-13-9.13890E-13
 -1       747 1.91411E+01 2.11079E+00-3.61654E-04 7.70487E-01-1.81823E-13-6.45270E-13
 -1       748 1.57826E+01 3.62431E+00 1.13089E-04 1.77642E-01 2.15052E-14-8.99570E-13
 -1       749 1.09507E+01-3.32990E-01 1.07371E-01-3.27288E+00 2.46783E-13 5.93563E-13
 -1       750 2.56427E+01 4.40000E+00-1.04968E-01 1.09597E+00-8.16441E-13-4.30973E-13
 -1       751 1.34070E+01-1.87038E+00 9.64331E-02-4.99370E+00 5.75996E-13 2.98012E-13
 -1       752 2.00000E+01-2.15110E-03 3.17385E-07-3.04221E-03-9.71123E-14-3.50293E-13
 -1       753 1.37552E+01-1.65301E+00 7.92831E-02 4.74015E+00-5.54170E-13 1.87121E-13
 -1       754 2.00001E+01-2.04169E-03-2.79076E-08 3.23919E-03 1.55366E-13-2.63239E-13
 -1       755 2.65429E+01 4.02417E+00-1.16559E-01-2.02417E+00 8.42208E-13-4.30459E-13
 -1       756 2.00007E+01-2.58980E-03 5.99983E-07-2.77756E-03-1.40727E-13-2.70042E-13
 -1       757 1.64506E+01 3.31057E+00-3.10118E-04 6.63818E-01-1.98952E-14-8.35686E-13
 -1       758 2.63615E+01-3.05517E+00-2.26718E-02 1.28194E-01-8.66833E-14 2.02526E-13
 -1       759 2.04498E+01 7.12973E-01-1.87842E-03-1.04097E+00 2.24142E-13-3.96241E-13
 -1       760 2.66787E+01-2.33025E+00-1.75272E-02-1.04469E+00-8.23864E-14 3.07337E-13
 -1       761 1.14411E+01 6.29061E-01 6.05491E-02-1.21626E+00 5.90663E-14 6.39848E-13
 -1       762 2.22603E+01-1.97463E+00 5.43931E-03 1.85354E+00 1.41549E-13-2.14200E-13
 -1       763 2.40672E+01-3.19260E+00 8.02464E-03 1.39942E+00 1.76258E-13-1.58675E-14
 -1       764 2.64161E+01-3.22544E+00-6.48658E-02 2.58336E-01 7.25071E-14-6.81628E-13
 -1       765 2.42449E+01-3.60007E+00-7.30712E-04-1.24573E+00 2.91767E-13-4.17045E-13
 -1       766 2.23546E+01-2.68623E+00 3.48497E-03-1.99049E+00 2.65849E-13-2.93128E-13
 -1       767 2.10782E+01-1.59537E+00 4.77397E-04-2.15069E+00 2.35875E-13-2.29812E-13
 -1       768 2.03428E+01-7.15023E-01-1.36773E-04-2.02973E+00 1.32234E-13-2.94215E-13
 -1       769 1.99718E+01-1.14440E-01-5.25946E-05-1.81311E+00 1.58822E-13-2.69105E-13
 -1       770 1.98166E+01 2.49655E-01 4.32245E-05-1.57429E+00 7.37883E-14-2.35200E-13
 -1       771 1.97781E+01 4.40760E-01 9.59790E-05-1.34237E+00 9.28054E-14-2.50617E-13
 -1       772 1.97954E+01 5.16390E-01 8.62561E-05-1.12747E+00 1.50947E-14-1.38214E-13
 -1       773 1.98342E+01 5.20582E-01 7.28359E-05-9.33210E-01-7.30219E-15-1.05689E-13
 -1       774 1.98768E+01 4.84289E-01 5.92767E-05-7.60947E-01-5.61209E-14-9.68147E-14
 -1       775 1.99150E+01 4.28022E-01 4.66832E-05-6.10982E-01-3.64001E-14-1.19832E-13
 -1       776 1.99459E+01 3.64704E-01 3.59427E-05-4.82852E-01 4.33710E-14-1.60902E-13
 -1       777 1.99692E+01 3.02061E-01 2.74483E-05-3.75416E-01-1.00750E-13-1.90258E-13
 -1       778 1.99858E+01 2.44360E-01 2.08170E-05-2.86967E-01-5.35159E-14-3.18918E-13
 -1       779 1.99969E+01 1.93629E-01 1.56339E-05-2.15435E-01 1.31334E-13-3.15468E-13
 -1       780 2.00040E+01 1.50507E-01 1.15827E-05-1.58582E-01 1.60652E-13-1.33392E-13
 -1       781 2.00080E+01 1.14816E-01 8.43497E-06-1.14172E-01-5.30156E-14 6.69380E-14
 -1       782 2.00099E+01 8.59284E-02 6.01484E-06-8.00828E-02-7.74447E-14 4.42307E-14
 -1       783 2.00104E+01 6.30119E-02 4.17950E-06-5.43879E-02-1.69378E-13-2.66807E-14
 -1       784 2.00100E+01 4.51713E-02 2.81005E-06-3.53925E-02-1.70348E-13-2.76573E-13
 -1       785 2.00091E+01 3.15377E-02 1.80731E-06-2.16478E-02-2.35712E-13-1.83555E-13
 -1       786 2.00079E+01 2.13157E-02 1.08913E-06-1.19444E-02-2.36558E-13-1.55332E-13
 -1       787 2.00067E+01 1.38064E-02 5.88357E-07-5.29440E-03 4.11821E-14-9.95652E-14
 -1       788 2.00055E+01 8.41312E-03 2.51124E-07-9.06456E-04 1.85969E-13-2.20398E-13
 -1       789 2.00044E+01 4.63889E-03 3.53526E-08 1.84097E-03 3.20790E-14-2.15072E-13
 -1       790 2.00034E+01 2.07706E-03-8.85752E-08 3.42662E-03-1.16915E-13-2.45735E-13
 -1       791 2.00026E+01 3.99992E-04-1.52851E-07 4.21149E-03-1.67699E-13-3.57875E-13
 -1       792 2.00019E+01-6.53557E-04-2.07200E-07 4.46122E-03-6.86401E-14-3.83871E-13
 -1       793 2.00013E+01-1.29091E-03-1.69485E-07 4.36515E-03 1.98404E-13-2.61693E-13
 -1       794 2.00008E+01-1.67604E-03 2.07416E-07 4.05227E-03-3.01108E-14 7.82677E-14
 -1       795 2.00004E+01-1.87850E-03-7.58043E-07 3.68593E-03 1.00705E-13 3.63983E-14
 -1       796 1.06075E+01 1.51767E+00 7.55769E-02-1.15408E+00-3.64170E-14-1.13944E-12
 -1       797 1.73393E+01-2.58657E+00 5.31891E-02-4.70570E+00 5.14673E-13 1.18863E-14
 -1       798 2.64559E+01 1.03933E+00-8.37925E-02-2.62509E+00 3.15553E-13-5.47546E-13
 -1       799 2.59243E+01-1.58771E+00-1.16623E-02-1.67806E+00 1.22570E-13-5.86306E-13
 -1       800 2.48612E+01-2.79525E+00 7.83306E-03-2.36144E-01-3.65344E-14-5.10769E-13
 -1       801 2.32962E+01-2.47244E+00-5.11615E-03 8.20113E-01-9.55373E-14-4.80889E-13
 -1       802 2.20853E+01-1.73991E+00 1.59515E-03 1.38831E+00-7.35949E-14-4.86351E-13
 -1       803 2.12297E+01-9.83510E-01-5.95292E-04 1.59739E+00-2.17096E-13-3.69867E-13
 -1       804 2.06934E+01-3.88930E-01-3.08423E-04 1.58845E+00-2.69405E-13-2.19460E-13
 -1       805 2.03834E+01 9.84399E-03-1.29519E-05 1.47372E+00-1.20175E-13-7.85120E-14
 -1       806 2.02153E+01 2.45439E-01 8.17916E-05 1.31123E+00 2.95527E-14-1.18510E-13
 -1       807 2.01295E+01 3.62482E-01 1.00564E-04 1.13229E+00 5.67072E-14-1.07081E-13
 -1       808 2.00878E+01 4.01154E-01 1.05438E-04 9.54569E-01-1.10955E-13-6.45139E-14
 -1       809 2.00680E+01 3.92272E-01 1.00813E-04 7.88058E-01-5.99552E-14 4.97791E-14
 -1       810 2.00580E+01 3.57418E-01 8.94429E-05 6.38173E-01-6.62363E-14-1.15700E-13
 -1       811 2.00518E+01 3.10742E-01 7.60005E-05 5.07384E-01 1.31886E-13-2.20025E-13
 -1       812 2.00466E+01 2.61008E-01 6.25090E-05 3.96200E-01-3.40172E-14-5.09218E-14
 -1       813 2.00414E+01 2.13309E-01 5.01381E-05 3.03824E-01 1.49251E-13 7.50379E-14
 -1       814 2.00362E+01 1.70319E-01 3.93755E-05 2.28647E-01-6.58901E-14 2.52288E-13
 -1       815 2.00309E+01 1.33172E-01 3.03180E-05 1.68636E-01-4.84556E-14 2.15704E-13
 -1       816 2.00259E+01 1.02072E-01 2.28866E-05 1.21610E-01-1.08272E-14 7.57608E-14
 -1       817 2.00212E+01 7.66917E-02 1.69226E-05 8.54293E-02 6.22106E-14-4.23727E-14
 -1       818 2.00171E+01 5.64320E-02 1.22328E-05 5.81079E-02-1.57192E-13-2.17035E-13
 -1       819 2.00135E+01 4.05833E-02 8.61707E-06 3.78806E-02-3.89710E-14-6.25463E-14
 -1       820 2.00104E+01 2.84245E-02 5.88387E-06 2.32265E-02 7.35959E-15 6.75009E-14
 -1       821 2.00079E+01 1.92782E-02 3.86018E-06 1.28696E-02 1.13072E-14-8.43885E-15
 -1       822 2.00059E+01 1.25395E-02 2.39543E-06 5.76409E-03-8.96400E-14 3.36494E-14
 -1       823 2.00043E+01 7.68656E-03 1.36235E-06 1.07011E-03 5.61123E-14 1.34542E-13
 -1       824 2.00030E+01 4.28156E-03 6.55117E-07-1.87334E-03 1.89339E-13-2.19920E-13
 -1       825 2.00020E+01 1.96453E-03 1.85288E-07-3.57632E-03-4.78556E-15-4.41138E-13
 -1       826 2.00013E+01 4.44320E-04-1.18909E-07-4.42400E-03 5.66831E-14-3.12686E-13
 -1       827 2.00007E+01-5.11852E-04-2.93454E-07-4.70002E-03-2.33215E-14 7.05961E-14
 -1       828 2.00003E+01-1.08907E-03-3.88367E-07-4.60681E-03-5.74584E-14-8.61722E-14
 -1       829 2.00001E+01-1.43362E-03-6.23442E-07-4.28246E-03-3.57603E-13 9.59281E-14
 -1       830 1.99999E+01-1.66336E-03-1.40745E-07-3.81435E-03-1.61876E-13-2.02710E-13
 -1       831 2.00000E+01-1.89368E-03 4.40725E-07-3.44008E-03-2.25926E-13-2.54501E-13
 -1       832 2.00027E+01-2.95653E-03 1.59271E-07 1.13015E-03-4.46070E-14 8.97881E-14
 -1       833 2.00029E+01-3.01926E-03 2.89987E-07-9.66544E-07-3.83278E-13-5.35190E-13
 -1       834 2.14720E+01 1.68363E-01-5.40341E-04-7.97719E-01 2.28737E-13-2.49203E-13
 -1       835 1.16569E+01 4.64839E-01 6.76666E-02 1.78965E+00-3.40523E-13 2.38426E-13
 -1       836 1.57016E+01 2.78292E+00 2.06223E-03-1.05460E+00 6.11603E-14-8.40805E-13
 -1       837 2.05755E+01-3.82710E+00 3.44151E-02-4.26809E+00 6.31228E-13-1.44641E-14
 -1       838 2.24089E+01-3.61801E+00 2.35954E-02-3.30743E+00-4.43240E-13-2.09812E-13
 -1       839 1.84606E+01-2.35811E+00 5.11735E-02-4.60427E+00-4.79840E-13-5.76361E-13
 -1       840 1.84056E+01-3.36124E+00 4.82351E-02 4.96344E+00-6.24901E-13-3.23682E-14
 -1       841 2.00023E+01-2.76592E-03-2.83190E-08 2.15908E-03-2.27107E-14 8.79050E-14
 -1       842 2.00015E+01-2.44528E-03 9.44294E-07 2.98113E-03 1.15087E-13-2.15611E-13
 -1       843 2.65901E+01-2.87852E+00-2.58122E-02-7.09677E-01 9.56207E-14-6.90914E-13
 -1       844 2.11386E+01-6.65826E-01 3.66291E-03 1.71774E+00 2.91162E-14-3.17786E-13
 -1       845 1.32518E+01-1.86407E-02 6.89228E-02-3.97731E+00-2.93797E-13-9.21579E-13
 -1       846 2.38098E+01-4.23056E+00-1.50255E-02 2.33326E+00-2.36261E-13-5.70477E-13
 -1       847 2.39686E+01-2.43417E+00 5.05432E-03-5.04832E-01-1.58909E-13-2.56913E-14
 -1       848 1.19169E+01 1.11016E+00 7.28815E-02 2.48948E+00 2.53947E-13-1.05042E-12
 -1       849 1.60983E+01-1.80713E+00 6.16144E-02 4.91967E+00 4.52227E-13-6.98934E-13
 -1       850 2.47136E+01-4.20387E+00-8.73259E-03 2.21649E+00 2.71507E-13 1.45869E-14
 -1       851 2.08978E+01-3.71181E+00 3.86184E-02 4.36338E+00 4.36613E-13-3.68086E-13
 -1       852 1.44038E+01-6.57054E-01 5.02711E-02-3.71300E+00 2.94674E-13 1.52218E-13
 -1       853 1.50779E+01 3.12463E+00 2.96901E-03-1.63138E-01 3.84339E-14-8.45453E-13
 -1       854 2.21340E+01-8.27213E-01-2.54489E-03-9.56464E-01 7.26359E-14-1.72086E-13
 -1       855 1.88700E+01 1.31684E+00-1.41209E-03-1.46144E+00 1.44622E-13-5.42761E-13
 -1       856 1.32275E+01-6.95646E-02 4.67584E-02 2.97424E+00-4.49134E-13 6.49567E-14
 -1       857 2.00023E+01-2.76626E-03 2.17902E-07-2.15233E-03-1.11760E-14 5.69329E-14
 -1       858 1.67581E+01 2.30353E+00 8.93128E-04 1.37582E+00 1.78350E-14-7.88507E-13
 -1       859 2.00027E+01-2.95543E-03 1.83241E-07-1.12638E-03-7.43765E-14-1.10036E-13
 -1       860 1.71199E+01 2.11270E+00 5.97315E-03-1.50359E+00 9.21370E-14-6.87902E-13
 -1       861 2.29118E+01-1.70985E+00-2.07419E-03-8.84546E-01-5.86432E-14-1.35854E-13
 -1       862 2.04366E+01 4.46696E-01-4.85383E-03 1.33115E+00-8.70409E-14-4.30892E-13
 -1       863 2.17161E+01-3.56393E+00 1.33966E-02 3.28327E+00-3.50566E-13-2.39440E-13
 -1       864 2.00016E+01-2.52156E-03-9.87023E-07-2.84424E-03 6.95993E-14 8.40341E-14
 -1       865 1.85218E+01 1.52702E+00 3.98544E-03 1.47605E+00-4.95601E-14-6.16089E-13
 -1       866 2.23020E+01-3.79543E+00 2.55797E-02-3.05097E+00 4.88703E-13-7.78969E-14
 -1       867 1.48759E+01 2.67209E-01 3.74449E-02 3.42815E+00 3.02377E-13-8.35589E-13
 -1       868 2.00010E+01-2.16694E-03-4.24808E-07 3.38116E-03 6.09721E-14 1.00438E-13
 -1       869 2.16197E+01-2.71782E+00 2.40284E-02 2.99815E+00 2.95366E-13-2.50413E-13
 -1       870 1.97944E+01-1.96794E+00 1.27384E-02-3.14794E+00 3.17321E-13 7.42110E-14
 -1       871 1.91201E+01-8.29682E-01 2.51451E-03-2.62189E+00 6.57730E-14 6.90451E-14
 -1       872 1.89062E+01-9.01572E-02-2.32537E-04-2.13230E+00 5.90480E-14-1.04389E-13
 -1       873 1.89234E+01 3.54729E-01-1.24227E-04-1.73022E+00 9.74276E-14-1.05604E-13
 -1       874 1.90443E+01 5.89200E-01 4.29664E-05-1.41190E+00 3.75277E-14-1.28754E-13
 -1       875 1.92011E+01 6.85229E-01 3.32145E-05-1.15567E+00 1.62953E-13-2.20006E-13
 -1       876 1.93592E+01 6.94254E-01 3.30868E-05-9.44694E-01 3.02191E-14-1.47908E-13
 -1       877 1.95022E+01 6.52117E-01 2.85147E-05-7.67845E-01-3.33960E-14-9.68035E-14
 -1       878 1.96239E+01 5.83099E-01 2.04062E-05-6.18317E-01-1.21594E-13-7.15191E-14
 -1       879 1.97233E+01 5.03005E-01 1.21499E-05-4.92033E-01-3.64433E-14-1.27857E-13
 -1       880 1.98019E+01 4.21825E-01 6.94897E-06-3.86258E-01-1.05912E-13-3.35147E-13
 -1       881 1.98625E+01 3.45506E-01 4.10077E-06-2.98725E-01 4.32224E-14-7.74329E-14
 -1       882 1.99080E+01 2.77190E-01 2.48740E-06-2.27301E-01 4.62034E-14 2.81009E-14
 -1       883 1.99414E+01 2.18173E-01 1.49914E-06-1.69903E-01 1.52833E-13 1.42850E-13
 -1       884 1.99653E+01 1.68592E-01 8.61666E-07-1.24507E-01 2.22885E-14-1.35785E-13
 -1       885 1.99819E+01 1.27900E-01 4.44697E-07-8.91922E-02-1.25766E-13-2.28024E-13
 -1       886 1.99931E+01 9.51847E-02 1.75139E-07-6.21871E-02-1.36011E-13-2.96039E-13
 -1       887 2.00002E+01 6.93797E-02 6.24465E-09-4.19080E-02-1.69998E-13-3.43405E-13
 -1       888 2.00045E+01 4.93967E-02-9.38458E-08-2.69759E-02-8.41642E-14-2.05669E-13
 -1       889 2.00068E+01 3.42057E-02-1.47486E-07-1.62195E-02-9.02593E-14 4.40592E-14
 -1       890 2.00077E+01 2.28782E-02-1.70653E-07-8.66568E-03-1.69818E-13 3.74198E-15
 -1       891 2.00077E+01 1.46059E-02-1.74697E-07-3.52285E-03-8.55497E-14-2.46502E-13
 -1       892 2.00071E+01 8.70417E-03-1.66192E-07-1.59346E-04 2.31097E-14-4.21957E-13
 -1       893 2.00063E+01 4.60514E-03-1.45750E-07 1.91917E-03-3.20058E-14-3.98308E-13
 -1       894 2.00053E+01 1.84626E-03-1.01170E-07 3.09188E-03-1.20376E-13-1.94917E-13
 -1       895 2.00043E+01 5.62063E-05-3.72438E-08 3.64336E-03-2.28332E-14-2.28863E-13
 -1       896 2.00034E+01-1.06049E-03-1.32773E-07 3.78198E-03 2.55643E-13-5.63683E-14
 -1       897 2.00025E+01-1.74707E-03-1.82780E-06 3.65360E-03 2.59492E-13-1.66737E-13
 -1       898 1.54711E+01 2.91986E+00-2.48067E-03 7.82030E-01 3.75943E-14-8.62823E-13
 -1       899 2.49393E+01-3.46395E+00 6.09107E-03-1.04606E+00-2.59146E-13 8.35061E-14
 -1       900 2.16202E+01-2.46033E+00 9.34741E-03 2.35586E+00-1.54995E-13-2.63647E-13
 -1       901 2.04713E+01-1.36033E+00-1.24550E-03 2.27824E+00-2.53141E-13-1.41956E-14
 -1       902 1.98936E+01-5.40294E-01-3.63566E-04 2.02729E+00-2.90500E-13 5.59585E-14
 -1       903 1.96320E+01 3.02266E-03 1.09864E-04 1.74727E+00-2.16357E-13-2.54953E-14
 -1       904 1.95530E+01 3.26068E-01 1.17496E-04 1.48183E+00-3.25579E-14-1.35150E-13
 -1       905 1.95688E+01 4.91984E-01 4.58788E-05 1.24294E+00 9.66613E-14-1.28072E-13
 -1       906 1.96269E+01 5.53054E-01 2.83023E-05 1.03198E+00-6.35670E-14-1.41132E-13
 -1       907 1.96982E+01 5.48852E-01 2.36674E-05 8.47194E-01-1.01801E-13-1.27891E-13
 -1       908 1.97678E+01 5.07317E-01 1.65729E-05 6.86737E-01-1.59979E-14-2.12374E-13
 -1       909 1.98287E+01 4.47285E-01 1.18839E-05 5.48972E-01 1.43658E-13-2.98679E-13
 -1       910 1.98788E+01 3.80833E-01 8.21239E-06 4.32352E-01-6.95062E-14-6.40676E-14
 -1       911 1.99180E+01 3.15379E-01 5.72161E-06 3.35185E-01-6.60730E-14-8.55996E-14
 -1       912 1.99476E+01 2.55118E-01 4.13825E-06 2.55544E-01-7.79853E-14 2.24844E-13
 -1       913 1.99691E+01 2.02095E-01 3.07803E-06 1.91346E-01-2.84430E-14 1.86668E-13
 -1       914 1.99843E+01 1.56981E-01 2.31042E-06 1.40457E-01 1.82609E-13 1.69864E-13
 -1       915 1.99945E+01 1.19614E-01 1.72708E-06 1.00796E-01 1.58332E-13 3.23377E-14
 -1       916 2.00011E+01 8.93628E-02 1.27615E-06 7.04212E-02-1.32683E-14 7.61122E-14
 -1       917 2.00050E+01 6.53721E-02 9.27759E-07 4.75783E-02-6.93339E-14 1.14049E-13
 -1       918 2.00070E+01 4.67117E-02 6.60987E-07 3.07339E-02-7.47961E-14-2.08828E-14
 -1       919 2.00077E+01 3.24724E-02 4.59439E-07 1.85813E-02 2.93026E-13 8.86780E-14
 -1       920 2.00077E+01 2.18184E-02 3.09712E-07 1.00320E-02-1.54326E-13 5.77289E-14
 -1       921 2.00071E+01 1.40129E-02 2.00657E-07 4.19919E-03 1.05926E-14-1.00348E-14
 -1       922 2.00063E+01 8.42628E-03 1.22326E-07 3.73866E-04 2.33412E-13-1.29638E-13
 -1       923 2.00053E+01 4.53335E-03 6.19531E-08-1.99960E-03 2.60522E-13-2.87008E-14
 -1       924 2.00044E+01 1.90444E-03-4.58710E-10-3.34828E-03 8.05045E-15-2.67091E-13
 -1       925 2.00035E+01 1.92806E-04-8.62792E-08-3.99324E-03-1.51301E-13-3.03304E-13
 -1       926 2.00026E+01-8.77440E-04-6.31416E-08-4.16967E-03-9.62126E-14-2.78348E-14
 -1       927 2.00019E+01-1.52606E-03-5.40525E-07-4.04599E-03-2.76137E-13 1.11235E-13
 -1       928 2.00013E+01-1.92902E-03-1.69047E-06-3.73789E-03-6.68527E-15-1.68773E-13
 -1       929 2.00027E+01-2.26526E-03 2.41049E-06 2.85374E-03 1.09392E-13-2.47078E-13
 -1       930 2.00039E+01-2.55577E-03 4.00227E-07 6.19360E-04 6.87062E-14-3.68118E-14
 -1       931 2.10874E+01-4.44633E-01-3.45999E-03-1.48520E+00 6.24255E-14-3.31001E-13
 -1       932 2.07103E+01-2.14427E+00 1.84690E-02-3.14617E+00-3.12497E-13-3.31567E-13
 -1       933 1.31475E+01 9.64511E-01 2.56560E-02 2.78123E-01-1.74301E-13 1.53362E-13
 -1       934 1.69726E+01-1.63921E+00 3.03021E-02 4.09118E+00-5.72799E-13-1.61069E-14
 -1       935 2.00035E+01-2.47131E-03-3.74141E-07 1.81230E-03 2.47309E-13 1.81300E-13
 -1       936 1.97224E+01-9.11380E-01 1.43886E-02 2.71480E+00 2.02672E-13-4.49360E-13
 -1       937 1.81692E+01-1.46464E+00 4.04325E-02 3.96373E+00 3.44692E-13-5.64419E-13
 -1       938 1.33225E+01 1.48589E+00 2.89439E-02-2.22547E+00-1.44066E-13-9.04248E-13
 -1       939 1.29629E+01 2.24239E+00 2.94507E-02 4.44660E-01 5.99644E-14-9.43302E-13
 -1       940 1.66286E+01-3.67917E-01 2.44759E-02-3.68460E+00-2.68954E-13-6.76704E-13
 -1       941 2.00008E+01-2.24216E-03-8.42693E-08-3.25992E-03-1.36866E-13-2.63167E-13
 -1       942 1.40968E+01 5.18640E-01 1.71586E-02-2.08349E+00 1.22842E-13 2.37124E-13
 -1       943 1.37690E+01 7.74342E-01 2.16339E-02 1.36088E+00-3.36002E-13 6.75887E-14
 -1       944 1.75770E+01 9.12053E-01-3.63250E-03 2.29936E+00 9.65212E-14-6.71933E-13
 -1       945 2.00039E+01-2.55567E-03-1.83542E-08-6.16615E-04-2.28020E-13-4.77083E-13
 -1       946 2.00017E+01-2.00606E-03-9.55628E-07 3.56798E-03 2.88150E-14 9.10571E-14
 -1       947 2.30769E+01-2.75922E+00 9.66444E-03-1.81454E+00-2.50563E-13-1.05470E-13
 -1       948 1.58383E+01 1.67943E+00 1.06705E-02-2.07793E+00-2.44823E-14-7.39865E-13
 -1       949 2.00035E+01-2.46450E-03-8.20540E-08-1.80126E-03-2.47185E-13 3.21344E-14
 -1       950 1.54121E+01 1.92408E+00 5.31322E-03 1.81896E+00 9.82077E-14-8.13005E-13
 -1       951 2.00028E+01-2.32561E-03 6.43867E-07-2.69002E-03 4.98971E-14-2.23766E-14
 -1       952 1.73904E+01-8.88977E-01 1.83254E-02-3.31083E+00 2.00839E-13-3.34331E-14
 -1       953 1.73958E+01 1.12891E-01 1.09702E-03-2.31226E+00 5.11245E-14 8.50858E-14
 -1       954 1.77931E+01 5.49742E-01-3.28736E-04-1.74330E+00 3.11608E-14 1.16944E-13
 -1       955 1.81749E+01 7.79941E-01-7.29910E-05-1.34938E+00-5.07496E-15-4.15405E-14
 -1       956 1.85266E+01 8.69991E-01-8.84975E-05-1.06592E+00 2.72806E-14-1.92891E-13
 -1       957 1.88318E+01 8.72077E-01-1.64363E-05-8.54041E-01 7.48064E-14-3.05689E-13
 -1       958 1.90893E+01 8.20148E-01 8.08701E-08-6.87959E-01-1.92186E-14-2.98526E-13
 -1       959 1.93018E+01 7.38443E-01 2.26857E-06-5.53309E-01-4.37024E-14-1.75339E-13
 -1       960 1.94741E+01 6.43057E-01-8.91633E-06-4.41915E-01-8.51870E-14-1.39918E-13
 -1       961 1.96114E+01 5.44934E-01-1.18484E-05-3.49368E-01-1.10559E-13-2.20250E-13
 -1       962 1.97188E+01 4.51230E-01-1.10323E-05-2.72769E-01 1.03037E-13-1.51410E-14
 -1       963 1.98015E+01 3.66053E-01-9.19633E-06-2.09902E-01 9.41638E-14-5.67572E-14
 -1       964 1.98639E+01 2.91382E-01-7.36484E-06-1.58925E-01 8.23309E-14-3.08537E-14
 -1       965 1.99102E+01 2.27774E-01-5.78831E-06-1.18173E-01-1.15658E-14-1.46736E-13
 -1       966 1.99439E+01 1.74883E-01-4.47868E-06-8.60953E-02-6.58284E-15-1.15585E-13
 -1       967 1.99677E+01 1.31826E-01-3.40763E-06-6.12542E-02-1.95839E-13-9.91781E-14
 -1       968 1.99841E+01 9.74485E-02-2.54510E-06-4.23465E-02-2.28190E-13 6.05066E-14
 -1       969 1.99950E+01 7.05037E-02-1.86248E-06-2.82180E-02 9.00490E-15 1.13104E-13
 -1       970 2.00018E+01 4.97660E-02-1.33242E-06-1.78716E-02-6.64930E-14-5.27001E-14
 -1       971 2.00058E+01 3.40998E-02-9.29521E-07-1.04654E-02-1.49629E-13-3.33736E-13
 -1       972 2.00078E+01 2.24957E-02-6.31381E-07-5.30381E-03-4.00806E-13-2.17657E-13
 -1       973 2.00084E+01 1.40834E-02-4.18721E-07-1.82368E-03 5.80462E-14-3.38668E-13
 -1       974 2.00082E+01 8.13137E-03-2.70616E-07 4.22218E-04 1.76915E-14-3.47733E-13
 -1       975 2.00075E+01 4.03648E-03-1.53818E-07 1.78222E-03 1.09812E-13-2.20719E-13
 -1       976 2.00065E+01 1.30947E-03-9.22610E-08 2.52156E-03-1.60564E-13 8.04855E-15
 -1       977 2.00053E+01-4.40746E-04-1.02346E-07 2.84022E-03-7.53415E-14-4.56008E-15
 -1       978 2.00042E+01-1.53012E-03-1.29153E-10 2.88495E-03 1.10772E-13-4.15047E-13
 -1       979 1.86766E+01-5.51908E-01 7.64321E-04 2.52964E+00-2.68549E-13 1.74339E-13
 -1       980 1.89741E+01-3.90909E-01 5.83065E-03-2.73812E+00-1.25561E-13-4.61211E-13
 -1       981 1.90591E+01-1.54499E+00 1.51322E-02 3.16957E+00-3.73924E-13 2.49202E-13
 -1       982 1.87183E+01 4.60911E-01 7.82961E-05 1.58297E+00-8.74073E-14 6.21838E-14
 -1       983 1.88956E+01 6.50183E-01-1.52485E-05 1.27121E+00 5.10115E-14 5.00118E-14
 -1       984 1.90868E+01 7.20525E-01-3.77127E-05 1.02702E+00 1.89346E-14 3.44077E-14
 -1       985 1.92683E+01 7.15488E-01-2.24560E-05 8.30524E-01-7.57269E-14 3.08452E-14
 -1       986 1.94290E+01 6.65572E-01-4.14641E-05 6.68931E-01-3.15732E-14-1.42149E-13
 -1       987 1.95650E+01 5.92269E-01-3.92880E-05 5.34612E-01 1.56290E-13-2.36245E-13
 -1       988 1.96765E+01 5.09561E-01-3.45691E-05 4.22720E-01-2.90289E-14-1.08446E-13
 -1       989 1.97654E+01 4.26620E-01-2.89458E-05 3.30045E-01-1.22266E-13-1.47208E-13
 -1       990 1.98345E+01 3.48988E-01-2.30912E-05 2.54021E-01-2.31169E-13-9.84983E-14
 -1       991 1.98871E+01 2.79627E-01-1.77777E-05 1.92418E-01 1.84904E-14-4.83765E-14
 -1       992 1.99262E+01 2.19762E-01-1.33359E-05 1.43195E-01 1.27961E-13-6.75333E-14
 -1       993 1.99546E+01 1.69507E-01-9.77613E-06 1.04455E-01 1.84684E-13 1.01605E-13
 -1       994 1.99747E+01 1.28300E-01-6.99440E-06 7.44503E-02 5.15437E-14 2.48662E-13
 -1       995 1.99884E+01 9.52101E-02-4.86383E-06 5.15993E-02 1.12277E-13 3.54602E-14
 -1       996 1.99974E+01 6.91520E-02-3.26374E-06 3.45086E-02-5.04214E-14-4.58451E-14
 -1       997 2.00030E+01 4.90144E-02-2.08716E-06 2.19764E-02-4.72360E-14 4.88577E-14
 -1       998 2.00062E+01 3.37451E-02-1.24225E-06 1.29898E-02 5.73976E-14 2.81710E-13
 -1       999 2.00076E+01 2.23945E-02-6.51831E-07 6.71202E-03-8.85332E-16 1.48761E-13
 -1      1000 2.00080E+01 1.41365E-02-2.52290E-07 2.46584E-03 3.06986E-13 7.46127E-14
 -1      1001 2.00076E+01 8.27145E-03 6.03445E-09-2.86799E-04 2.66157E-13 8.66505E-14
 -1      1002 2.00069E+01 4.22010E-03 1.43789E-07-1.96516E-03 1.83996E-13 1.65391E-13
 -1      1003 2.00059E+01 1.51119E-03 1.47256E-07-2.89044E-03 1.13531E-13 9.19223E-14
 -1      1004 2.00048E+01-2.36358E-04-1.33335E-07-3.30130E-03-2.16882E-13 9.38311E-15
 -1      1005 2.00038E+01-1.32567E-03-6.11536E-07-3.37345E-03-3.12431E-13 1.69193E-14
 -1      1006 1.42753E+01 2.48088E+00 4.81125E-03-9.30646E-01-1.65931E-14-8.62501E-13
 -1      1007 1.58583E+01-1.68798E-01 1.19035E-02 2.90503E+00-2.86029E-13-1.36388E-14
 -1      1008 2.17047E+01-1.47502E+00 4.38385E-03-1.81165E+00-8.29713E-14-2.83301E-13
 -1      1009 1.63848E+01 2.92225E-01 4.70600E-03-2.27738E+00 1.41752E-13 2.92302E-14
 -1      1010 1.46996E+01 1.03393E+00 6.56837E-03-7.40045E-01-1.34088E-14 1.60239E-13
 -1      1011 1.86114E+01 9.07401E-02-1.71387E-04 1.99163E+00-1.68929E-13 8.82252E-14
 -1      1012 2.00041E+01-1.86328E-03 6.35625E-07-2.44098E-03-1.92593E-13-2.51905E-13
 -1      1013 2.00051E+01-1.94215E-03 2.60049E-07-4.06680E-07 1.75427E-13-1.05843E-13
 -1      1014 2.00028E+01-1.97741E-03 3.98932E-06-3.22158E-03 8.09077E-15-2.13522E-15
 -1      1015 2.00048E+01-1.93732E-03-1.58318E-07-1.26310E-03-1.79965E-14 2.61499E-14
 -1      1016 2.00048E+01-1.92429E-03-1.74704E-06 1.28566E-03 2.28200E-13 3.85752E-13
 -1      1017 1.47197E+01 1.10203E+00 8.05922E-03 1.33801E-01-5.69655E-14-4.46403E-14
 -1      1018 1.72140E+01 1.00188E+00 9.46807E-04-1.06617E+00 1.18034E-14 4.27317E-15
 -1      1019 1.78144E+01 1.05544E+00-4.51519E-04-8.08009E-01-2.72078E-14 7.06108E-14
 -1      1020 1.82935E+01 1.03714E+00-1.10655E-04-6.34015E-01 7.40915E-14 6.09536E-14
 -1      1021 1.86732E+01 9.73694E-01-3.47387E-07-5.05335E-01 3.99787E-14 2.09404E-14
 -1      1022 1.89787E+01 8.79781E-01-6.66578E-05-4.05881E-01 3.15448E-14 4.12100E-14
 -1      1023 1.92226E+01 7.72519E-01-1.21827E-04-3.24814E-01-8.72973E-14-3.95198E-14
 -1      1024 1.94173E+01 6.60589E-01-9.25271E-05-2.58380E-01-9.91162E-14 3.60552E-15
 -1      1025 1.95704E+01 5.52402E-01-7.75720E-05-2.03562E-01 4.33014E-14 1.08643E-14
 -1      1026 1.96893E+01 4.52709E-01-6.35175E-05-1.58308E-01 3.91485E-14-1.58697E-13
 -1      1027 1.97805E+01 3.64096E-01-5.14625E-05-1.21273E-01 5.19096E-15-2.05808E-13
 -1      1028 1.98493E+01 2.87606E-01-4.13007E-05-9.13460E-02 1.13816E-14-2.61645E-13
 -1      1029 1.99004E+01 2.23204E-01-3.27438E-05-6.75151E-02 1.00249E-13-1.22404E-13
 -1      1030 1.99374E+01 1.70153E-01-2.55874E-05-4.88373E-02-3.65712E-14 3.68174E-14
 -1      1031 1.99638E+01 1.27312E-01-1.96779E-05-3.44421E-02-4.01439E-14 1.57040E-13
 -1      1032 1.99819E+01 9.33586E-02-1.48740E-05-2.35433E-02-1.42432E-13 1.65453E-13
 -1      1033 1.99940E+01 6.69338E-02-1.10344E-05-1.54480E-02-2.72017E-13-2.15955E-13
 -1      1034 2.00016E+01 4.67401E-02-8.01915E-06-9.56070E-03-2.10937E-13-2.37378E-13
 -1      1035 2.00061E+01 3.15977E-02-5.69491E-06-5.38095E-03-2.28241E-13-1.84131E-13
 -1      1036 2.00083E+01 2.04712E-02-3.94079E-06-2.49750E-03-1.81855E-13-2.22996E-15
 -1      1037 2.00090E+01 1.24771E-02-2.64921E-06-5.79125E-04-4.44934E-14-2.51720E-13
 -1      1038 2.00088E+01 6.87852E-03-1.71496E-06 6.35641E-04 2.85950E-14-2.85395E-13
 -1      1039 2.00080E+01 3.07183E-03-1.02066E-06 1.35030E-03 1.60453E-13-3.24606E-13
 -1      1040 2.00069E+01 5.81542E-04 1.38125E-06 1.71313E-03 2.41645E-14-3.04980E-13
 -1      1041 2.00057E+01-1.01423E-03 2.39397E-06 1.84999E-03-8.73551E-14-2.17747E-13
 -1      1042 1.88020E+01 8.84039E-01-1.10224E-04 7.19307E-01 8.74758E-16 7.85405E-14
 -1      1043 1.84877E+01 8.99862E-01-2.78714E-04 9.09072E-01-3.77479E-14-1.22736E-14
 -1      1044 1.81125E+01 8.41693E-01-1.61316E-03 1.16767E+00-3.20440E-14-1.25323E-14
 -1      1045 1.90649E+01 8.22400E-01-1.61278E-04 5.71616E-01 1.30299E-13-2.08635E-14
 -1      1046 1.92812E+01 7.35788E-01-1.75253E-04 4.54233E-01 3.65193E-14 1.32247E-13
 -1      1047 1.94573E+01 6.37865E-01-1.37834E-04 3.58881E-01 4.96459E-14 1.32161E-13
 -1      1048 1.95978E+01 5.38790E-01-1.13475E-04 2.81116E-01-1.23069E-13 7.48368E-14
 -1      1049 1.97081E+01 4.44976E-01-9.24441E-05 2.17686E-01-1.78723E-13-1.13182E-13
 -1      1050 1.97932E+01 3.60102E-01-7.40675E-05 1.66273E-01-8.09716E-14-3.95721E-13
 -1      1051 1.98578E+01 2.85932E-01-5.84630E-05 1.25025E-01-9.80290E-14-2.38963E-13
 -1      1052 1.99059E+01 2.22913E-01-4.54611E-05 9.23489E-02-2.08543E-14-4.12250E-14
 -1      1053 1.99409E+01 1.70636E-01-3.47898E-05 6.68285E-02 8.86825E-14-7.74389E-15
 -1      1054 1.99659E+01 1.28182E-01-2.61622E-05 4.72022E-02 1.61088E-13-2.17546E-13
 -1      1055 1.99831E+01 9.43738E-02-1.92970E-05 3.23579E-02-1.82729E-14-5.43572E-14
 -1      1056 1.99945E+01 6.79516E-02-1.39248E-05 2.13325E-02-3.05091E-14-1.20674E-13
 -1      1057 2.00017E+01 4.76815E-02-9.79387E-06 1.33073E-02-1.12181E-14-1.53001E-13
 -1      1058 2.00059E+01 3.24246E-02-6.67461E-06 7.59965E-03-7.42647E-14 1.34746E-13
 -1      1059 2.00080E+01 2.11711E-02-4.36206E-06 3.65091E-03 2.60419E-13 2.06606E-13
 -1      1060 2.00087E+01 1.30529E-02-2.67486E-06 1.01243E-03 1.26357E-13 1.80657E-13
 -1      1061 2.00085E+01 7.34163E-03-1.44976E-06-6.69482E-04 4.48884E-14 4.20652E-13
 -1      1062 2.00077E+01 3.43921E-03-5.03297E-07-1.66738E-03 2.12852E-13 3.63519E-13
 -1      1063 2.00067E+01 8.64035E-04-9.60847E-08-2.19398E-03 1.16566E-14 3.51296E-13
 -1      1064 2.00055E+01-7.79141E-04-1.73030E-07-2.40114E-03-7.29260E-14-2.91287E-14
 -1      1065 1.63185E+01 7.93154E-01-6.36559E-04-1.51951E+00 3.61466E-14 3.31089E-14
 -1      1066 1.66309E+01 4.21688E-01 2.10815E-03 2.04180E+00-1.36862E-13 7.40531E-14
 -1      1067 1.54014E+01 8.71068E-01 8.03754E-03 1.27787E+00-6.99658E-14 1.09923E-13
 -1      1068 1.76968E+01 6.71865E-01-7.90560E-04 1.52152E+00-1.01538E-13 4.63315E-14
 -1      1069 2.00062E+01-1.00606E-03-4.32550E-06-6.50327E-04 8.61484E-14 8.70588E-16
 -1      1070 1.60115E+01 1.18119E+00 3.81276E-05-3.92246E-01 5.91615E-15 8.22405E-14
 -1      1071 2.00062E+01-9.90808E-04-1.26690E-06 6.10342E-04 2.69169E-13 2.19878E-13
 -1      1072 1.68960E+01 9.79005E-01 2.76679E-04 1.08511E+00-7.13502E-14-1.72641E-13
 -1      1073 1.78180E+01 1.15103E+00-6.65965E-04-2.57858E-01 1.75445E-14-3.47696E-14
 -1      1074 1.83090E+01 1.08366E+00-4.04216E-04-2.08081E-01-2.65057E-14-1.55714E-13
 -1      1075 1.86824E+01 9.96383E-01 3.63903E-04-1.66720E-01-4.01590E-14-3.81988E-13
 -1      1076 1.89940E+01 8.79171E-01-3.88051E-05-1.33570E-01-2.91687E-14-3.31689E-13
 -1      1077 1.92391E+01 7.58349E-01-1.32249E-04-1.09178E-01-9.48648E-15-2.12172E-13
 -1      1078 1.94322E+01 6.40588E-01-9.73020E-05-8.77721E-02 4.88205E-14-2.34241E-13
 -1      1079 1.95832E+01 5.30329E-01-6.54261E-05-6.94670E-02 5.52459E-15-2.58806E-13
 -1      1080 1.97002E+01 4.30818E-01-4.24405E-05-5.40865E-02 9.47375E-14-3.52891E-13
 -1      1081 1.97895E+01 3.43716E-01-2.60503E-05-4.13800E-02 9.15742E-14-2.39286E-13
 -1      1082 1.98566E+01 2.69437E-01-1.44460E-05-3.10633E-02 7.08557E-14-2.17591E-13
 -1      1083 1.99061E+01 2.07522E-01-6.42546E-06-2.28351E-02 5.77001E-14-3.73173E-13
 -1      1084 1.99420E+01 1.56967E-01-1.09898E-06-1.63912E-02-5.54562E-14-2.25714E-13
 -1      1085 1.99672E+01 1.16471E-01 2.23510E-06-1.14382E-02-2.09260E-13-2.54433E-13
 -1      1086 1.99845E+01 8.46231E-02 4.13428E-06-7.70461E-03-2.67447E-13-1.81762E-13
 -1      1087 1.99959E+01 6.00262E-02 5.03398E-06-4.94809E-03-1.13750E-13-2.76661E-13
 -1      1088 2.00030E+01 4.13773E-02 5.26580E-06-2.95909E-03-7.08735E-14-2.36797E-13
 -1      1089 2.00070E+01 2.75104E-02 5.07556E-06-1.56120E-03-1.63265E-13-3.54421E-13
 -1      1090 2.00089E+01 1.74150E-02 4.64228E-06-6.09443E-04-3.46973E-14-1.75119E-13
 -1      1091 2.00094E+01 1.02371E-02 4.11159E-06 1.28594E-05 2.90067E-13 1.49599E-13
 -1      1092 2.00090E+01 5.27127E-03 3.85795E-06 3.97635E-04-1.77054E-15 2.85387E-13
 -1      1093 2.00080E+01 1.93893E-03-1.94465E-06 6.12002E-04-3.28807E-14 5.80777E-14
 -1      1094 2.00071E+01 2.44312E-04 1.95743E-06 6.35828E-04 2.76960E-14 8.78265E-14
 -1      1095 1.89975E+01 8.67891E-01-8.46317E-05 3.01860E-01-1.49337E-14 5.18138E-14
 -1      1096 1.87094E+01 9.64760E-01 5.87017E-04 3.81739E-01 4.32320E-14 8.24832E-14
 -1      1097 1.78894E+01 1.06935E+00 2.93721E-03 6.35700E-01-9.74692E-14-1.97406E-13
 -1      1098 1.92376E+01 7.57428E-01 9.17626E-05 2.37885E-01 9.49544E-14 1.17865E-14
 -1      1099 1.94284E+01 6.44805E-01 9.78267E-05 1.86355E-01 6.09823E-14 1.22126E-13
 -1      1100 1.95787E+01 5.37136E-01 8.20038E-05 1.44677E-01-1.66046E-14-1.50538E-14
 -1      1101 1.96957E+01 4.38624E-01 6.46158E-05 1.11065E-01 3.36843E-15-1.35286E-13
 -1      1102 1.97854E+01 3.51541E-01 4.98217E-05 8.41287E-02-8.15967E-14-2.48658E-13
 -1      1103 1.98531E+01 2.76713E-01 3.79385E-05 6.27433E-02 2.05333E-14-4.86132E-13
 -1      1104 1.99033E+01 2.13962E-01 2.85418E-05 4.59605E-02 3.41917E-14-4.66420E-13
 -1      1105 1.99397E+01 1.62463E-01 2.11656E-05 3.29643E-02 1.50083E-13-3.68484E-13
 -1      1106 1.99655E+01 1.21028E-01 1.54222E-05 2.30486E-02 1.13474E-14-3.20590E-13
 -1      1107 1.99832E+01 8.83088E-02 1.09977E-05 1.56062E-02-1.08828E-13-2.06356E-13
 -1      1108 1.99950E+01 6.29423E-02 7.63382E-06 1.01210E-02-9.32542E-14-5.45089E-15
 -1      1109 2.00023E+01 4.36372E-02 5.11597E-06 6.16067E-03-3.52794E-13 3.79796E-14
 -1      1110 2.00066E+01 2.92263E-02 3.26799E-06 3.36946E-03-2.34898E-14 5.95209E-14
 -1      1111 2.00086E+01 1.86911E-02 1.95351E-06 1.45902E-03 2.08926E-13 1.28934E-13
 -1      1112 2.00093E+01 1.11658E-02 1.07804E-06 1.99601E-04 1.66417E-13-2.55961E-14
 -1      1113 2.00089E+01 5.93019E-03 4.61327E-07-5.89274E-04 1.34893E-13-3.50432E-13
 -1      1114 2.00081E+01 2.37680E-03-1.08170E-06-1.05453E-03-6.67598E-15-1.61563E-13
 -1      1115 2.00069E+01 1.18650E-04 5.96077E-06-1.27620E-03 1.33664E-13 2.07908E-13
 -1      1116 1.73967E+01 1.07743E+00 4.83294E-04 8.38548E-01-8.83601E-14-1.57288E-13
 -1      1117 1.83435E+01 1.03497E+00-3.63273E-04 4.91997E-01-1.88273E-13-4.11608E-14
 -1      1118 1.71746E+01 1.19455E+00 2.82295E-03-3.20720E-01-4.89883E-15 1.25184E-13
 -1      1119 1.60707E+01 1.06511E+00 1.85321E-03 7.30628E-01 3.39428E-14-2.75110E-15
 -1      1120 2.00072E+01 1.87243E-04 1.47890E-06-3.23265E-04 7.26740E-14-3.10924E-14
 -1      1121 1.77130E+01 1.16955E+00-3.08025E-03 1.93938E-01-8.71139E-14-1.07482E-13
 -1      1122 1.84956E+01 1.03418E+00-2.98763E-03 1.55278E-01-1.17202E-13-2.55962E-13
 -1      1123 1.81597E+01 1.11367E+00 9.91296E-04 1.74743E-01-1.91067E-13-2.73127E-13
 -1      1124 3.00255E+01 9.72254E+00 2.38275E+00-6.49080E+00-7.36078E-14 2.54369E-12
 -1      1125 2.25889E+01 6.87113E+00 3.14806E-01-3.13007E+00-4.27158E-14 3.91513E-13
 -1      1126 2.08424E+01 6.29208E+00 1.31148E-01-1.80153E+00-2.89213E-14-5.45003E-13
 -1      1127 1.96296E+01 5.91186E+00 7.65747E-02-1.00391E+00-1.90403E-14-9.94796E-13
 -1      1128 1.85924E+01 5.59007E+00 4.11393E-02-4.75491E-01-1.39749E-14-1.22486E-12
 -1      1129 1.77056E+01 5.31463E+00 9.86753E-03-1.56139E-01-8.75688E-15-1.34230E-12
 -1      1130 1.70087E+01 5.09777E+00-1.60965E-02-8.48188E-03-5.38458E-15-1.40270E-12
 -1      1131 1.65609E+01 4.95811E+00-3.38161E-02 1.26870E-02-6.93889E-17-1.42862E-12
 -1      1132 1.64217E+01 4.91481E+00-3.89511E-02-3.19677E-02 2.19182E-15-1.42406E-12
 -1      1133 1.66061E+01 4.97271E+00-3.03678E-02-6.72888E-02 5.44009E-15-1.39487E-12
 -1      1134 1.70858E+01 5.12269E+00-1.02042E-02-2.07850E-02 7.67442E-15-1.33517E-12
 -1      1135 1.77947E+01 5.34363E+00 1.73969E-02 1.61304E-01 1.21708E-14-1.23344E-12
 -1      1136 1.86681E+01 5.61468E+00 4.74672E-02 5.15490E-01 1.74444E-14-1.06791E-12
 -1      1137 1.96737E+01 5.92609E+00 7.98855E-02 1.07460E+00 2.38004E-14-7.82643E-13
 -1      1138 2.08381E+01 6.28915E+00 1.25664E-01 1.89068E+00 3.21687E-14-2.70780E-13
 -1      1139 2.24438E+01 6.80934E+00 2.53919E-01 3.15732E+00 3.79696E-14 7.43995E-13
 -1      1140 2.73227E+01 8.65066E+00 1.51271E+00 5.59145E+00 7.99361E-14 2.84350E-12
 -1      1141 3.09404E+01 3.59338E+00 1.10935E+00-4.09813E+00-3.07893E-13 3.91970E-12
 -1      1142 2.34582E+01-1.94370E-01-6.43941E-01-1.55632E-02-1.06755E-13 3.19735E-12
 -1      1143 2.30235E+01-8.82266E-02-2.13002E-01 9.28275E-02-4.09447E-14 2.15572E-12
 -1      1144 2.33929E+01-3.13440E-02-3.03008E-02 6.07785E-02-3.07944E-14 1.46790E-12
 -1      1145 2.38512E+01 4.64415E-03 3.01160E-02 4.01262E-02-1.89321E-14 9.94586E-13
 -1      1146 2.41415E+01 3.35396E-02 6.76115E-02 1.76039E-02-1.21613E-14 7.15969E-13
 -1      1147 2.40009E+01 5.55455E-02 9.70241E-02-1.49746E-02-1.86500E-14 4.33941E-13
 -1      1148 2.32104E+01 6.06607E-02 1.01483E-01-5.73674E-02-1.49681E-14 2.39378E-13
 -1      1149 2.17274E+01 3.61291E-02 5.85856E-02-9.70874E-02 8.57127E-15 8.87346E-14
 -1      1150 1.98409E+01-2.01055E-02-3.42130E-02-1.10413E-01-1.26559E-14-1.53391E-13
 -1      1151 1.81899E+01-8.52403E-02-1.38871E-01-7.74126E-02-1.61616E-14-5.20757E-13
 -1      1152 1.74993E+01-1.18026E-01-1.90887E-01-4.18725E-03 1.24380E-14-6.92323E-13
 -1      1153 1.81298E+01-9.36095E-02-1.52863E-01 7.29644E-02 2.19434E-14-9.13901E-13
 -1      1154 1.98167E+01-3.00446E-02-5.20363E-02 1.14667E-01 9.53751E-15-7.74464E-13
 -1      1155 2.18605E+01 3.13322E-02 4.74374E-02 1.09107E-01-1.13811E-14-7.27071E-13
 -1      1156 2.35741E+01 6.34582E-02 1.00586E-01 7.34394E-02-3.49885E-14-6.71435E-13
 -1      1157 2.45945E+01 6.53729E-02 1.03811E-01 3.24915E-02-5.95635E-14-8.73968E-13
 -1      1158 2.49028E+01 5.00020E-02 7.81345E-02 1.72237E-03 2.59558E-14-9.67323E-13
 -1      1159 2.46758E+01 3.01673E-02 4.55786E-02-1.52459E-02 1.85472E-14-8.29430E-13
 -1      1160 2.41356E+01 1.31655E-02 1.85998E-02-2.13604E-02-1.69055E-14-8.95149E-13
 -1      1161 2.34660E+01 1.35298E-03 7.89562E-04-2.10577E-02 6.38443E-15-8.93206E-13
 -1      1162 2.27888E+01-5.59666E-03-8.93923E-03-1.78490E-02-2.76261E-14-7.87405E-13
 -1      1163 2.21716E+01-8.93421E-03-1.30550E-02-1.38525E-02-7.19299E-14-7.72949E-13
 -1      1164 2.16438E+01-9.93769E-03-1.38213E-02-1.01094E-02-2.21073E-14-9.67244E-13
 -1      1165 2.12118E+01-9.59801E-03-1.28447E-02-7.01231E-03 4.25739E-14-6.60376E-13
 -1      1166 2.08696E+01-8.58506E-03-1.11189E-02-4.62470E-03 1.21282E-14-3.51844E-13
 -1      1167 2.06057E+01-7.31217E-03-9.20010E-03-2.86982E-03-1.77663E-14-2.62687E-13
 -1      1168 2.04070E+01-6.01492E-03-7.37148E-03-1.62805E-03 4.39283E-14-4.68562E-13
 -1      1169 2.02609E+01-4.81561E-03-5.75823E-03-7.80435E-04-6.08086E-15-6.80126E-13
 -1      1170 2.01559E+01-3.76840E-03-4.40000E-03-2.24850E-04 1.05226E-14-4.82389E-13
 -1      1171 2.00827E+01-2.88844E-03-3.29282E-03 1.20439E-04-2.04454E-14-5.64577E-13
 -1      1172 2.00332E+01-2.16989E-03-2.41245E-03 3.18249E-04-1.67008E-14-8.54516E-13
 -1      1173 2.00013E+01-1.59666E-03-1.72703E-03 4.15567E-04-5.24792E-15-1.13643E-12
 -1      1174 1.99820E+01-1.14866E-03-1.20367E-03 4.46808E-04 7.32610E-14-1.14605E-12
 -1      1175 1.99715E+01-8.05208E-04-8.11708E-04 4.36682E-04-7.69106E-15-1.18460E-12
 -1      1176 1.99671E+01-5.46940E-04-5.24082E-04 4.02570E-04-1.39338E-14-1.16965E-12
 -1      1177 1.99665E+01-3.56627E-04-3.17775E-04 3.56399E-04 1.33711E-15-1.18318E-12
 -1      1178 1.99684E+01-2.19496E-04-1.73711E-04 3.06097E-04 3.33467E-14-8.02594E-13
 -1      1179 1.99716E+01-1.23208E-04-7.64087E-05 2.56709E-04 4.12440E-15-4.95587E-13
 -1      1180 1.99755E+01-5.76680E-05-1.35167E-05 2.11248E-04-2.20110E-14-3.44039E-13
 -1      1181 1.99795E+01-1.47495E-05 2.46857E-05 1.71313E-04-4.48709E-14-6.69069E-13
 -1      1182 1.99834E+01 1.20162E-05 4.57870E-05 1.37549E-04-1.04403E-13-1.25569E-12
 -1      1183 1.99870E+01 2.77572E-05 5.57346E-05 1.09959E-04 5.00676E-14-1.45738E-12
 -1      1184 1.99903E+01 3.65653E-05 5.93376E-05 8.80756E-05 7.90342E-15-7.18769E-13
 -1      1185 1.99931E+01 4.17642E-05 6.08077E-05 7.09825E-05-5.29018E-14-3.70866E-13
 -1      1186 1.99955E+01 4.60892E-05 6.42678E-05 5.70993E-05 5.76742E-14-1.33437E-13
 -1      1187 1.99975E+01 5.16198E-05 7.34231E-05 4.34994E-05-1.18203E-14 2.14975E-13
 -1      1188 1.99989E+01 5.80852E-05 8.66191E-05 2.38509E-05 3.42534E-14 4.32311E-13
 -1      1189 1.99998E+01 6.81895E-05 7.71775E-05-1.44781E-05-2.40485E-14 5.76360E-13
 -1      1190 1.99999E+01-2.68699E-05-5.40796E-05-2.83303E-05 5.73869E-14 2.21363E-13
 -1      1191 2.98362E+01 5.39369E-01 2.10393E-01 1.95807E+00-4.88012E-14 4.58056E-12
 -1      1192 2.32679E+01-6.83275E-02-5.86069E-01 8.98248E-02 3.14575E-14 3.62772E-12
 -1      1193 2.29294E+01-3.32802E-02-1.73484E-01-6.23987E-03 3.02215E-14 2.70919E-12
 -1      1194 2.31835E+01-3.99597E-03-2.22026E-02-2.28855E-02 2.17975E-14 2.06257E-12
 -1      1195 2.35426E+01 1.86820E-02 3.18788E-02-3.09640E-02 1.70116E-14 1.57734E-12
 -1      1196 2.37364E+01 3.79483E-02 6.58026E-02-3.20374E-02 2.08666E-14 1.27068E-12
 -1      1197 2.35211E+01 4.81287E-02 9.00961E-02-2.17777E-02 2.12308E-14 1.06311E-12
 -1      1198 2.27137E+01 4.00049E-02 9.03412E-02 4.28155E-03-6.73073E-15 9.99228E-13
 -1      1199 2.13041E+01 9.04772E-03 4.98916E-02 4.31788E-02-2.06211E-14 9.39693E-13
 -1      1200 1.95746E+01-3.53146E-02-2.93662E-02 7.93435E-02-3.21227E-15 7.95600E-13
 -1      1201 1.80950E+01-6.92359E-02-1.14080E-01 8.99589E-02 2.71779E-14 5.26107E-13
 -1      1202 1.74879E+01-7.18819E-02-1.55023E-01 6.19333E-02 2.05070E-14 2.92421E-13
 -1      1203 1.80561E+01-4.46202E-02-1.27495E-01 6.64854E-03 1.23053E-14 3.77823E-14
 -1      1204 1.95754E+01-7.41045E-03-5.26184E-02-4.69809E-02-2.62125E-14 5.85643E-15
 -1      1205 2.14483E+01 1.99561E-02 2.36754E-02-7.51295E-02 2.40826E-14-1.11092E-13
 -1      1206 2.30694E+01 3.10563E-02 6.82670E-02-7.37601E-02-2.25930E-14-1.38764E-13
 -1      1207 2.40941E+01 2.95684E-02 7.64771E-02-5.40532E-02-1.23326E-14-1.26621E-13
 -1      1208 2.44741E+01 2.20495E-02 6.15117E-02-2.98425E-02 5.43810E-14-3.00253E-13
 -1      1209 2.43457E+01 1.35232E-02 3.90118E-02-9.83544E-03 1.39441E-14-7.03641E-13
 -1      1210 2.39015E+01 6.41399E-03 1.89131E-02 3.17651E-03 2.29193E-14-8.02049E-13
 -1      1211 2.33106E+01 1.40736E-03 4.77693E-03 9.94741E-03-1.38073E-14-5.35398E-13
 -1      1212 2.26914E+01-1.67755E-03-3.56391E-03 1.23738E-02-2.89720E-14-1.73122E-13
 -1      1213 2.21138E+01-3.30830E-03-7.62063E-03 1.22503E-02 2.76396E-15-1.77174E-13
 -1      1214 2.16115E+01-3.95806E-03-8.96552E-03 1.08702E-02-1.58230E-14-5.75956E-13
 -1      1215 2.11951E+01-4.00421E-03-8.79238E-03 9.03317E-03-2.15819E-14-3.46604E-13
 -1      1216 2.08619E+01-3.71409E-03-7.88026E-03 7.17648E-03-1.39581E-14-3.07825E-13
 -1      1217 2.06030E+01-3.26314E-03-6.68986E-03 5.50813E-03-3.99644E-14-1.95681E-13
 -1      1218 2.04068E+01-2.75970E-03-5.47206E-03 4.10476E-03-3.51169E-14-1.22582E-13
 -1      1219 2.02617E+01-2.26657E-03-4.35102E-03 2.97426E-03 1.90140E-14-3.90217E-13
 -1      1220 2.01571E+01-1.81698E-03-3.37863E-03 2.09233E-03-6.53359E-15-6.20214E-13
 -1      1221 2.00839E+01-1.42573E-03-2.56755E-03 1.42235E-03-1.27620E-14-3.65840E-13
 -1      1222 2.00342E+01-1.09655E-03-1.91032E-03 9.25643E-04 2.52189E-14-4.06978E-13
 -1      1223 2.00021E+01-8.26911E-04-1.39018E-03 5.66355E-04-4.11190E-14-3.38002E-13
 -1      1224 1.99826E+01-6.10997E-04-9.87065E-04 3.13389E-04 1.48024E-14-3.02891E-13
 -1      1225 1.99719E+01-4.41634E-04-6.80852E-04 1.40893E-04-2.06345E-14-2.80484E-13
 -1      1226 1.99673E+01-3.11383E-04-4.52945E-04 2.79985E-05-5.67922E-14-2.39375E-13
 -1      1227 1.99667E+01-2.13190E-04-2.87018E-04-4.17516E-05 5.54301E-14-7.19571E-13
 -1      1228 1.99685E+01-1.40703E-04-1.69212E-04-8.10790E-05 6.63949E-14-9.69718E-13
 -1      1229 1.99717E+01-8.84107E-05-8.80607E-05-9.96402E-05 5.82600E-15-7.94611E-13
 -1      1230 1.99755E+01-5.16470E-05-3.42618E-05-1.04639E-04-5.59659E-14-5.15936E-13
 -1      1231 1.99795E+01-2.65234E-05-3.75583E-07-1.01361E-04-9.32558E-15-6.64176E-13
 -1      1232 1.99834E+01-9.81711E-06 1.95106E-05-9.36292E-05-6.66228E-16-2.36308E-13
 -1      1233 1.99870E+01 1.17351E-06 3.01461E-05-8.41735E-05-1.99774E-14 6.46341E-14
 -1      1234 1.99902E+01 8.79555E-06 3.55330E-05-7.49230E-05 4.09411E-14 2.89706E-13
 -1      1235 1.99931E+01 1.51979E-05 3.94335E-05-6.71726E-05-2.56154E-14-4.54741E-14
 -1      1236 1.99955E+01 2.23449E-05 4.58491E-05-6.15415E-05 2.08444E-14-5.43734E-13
 -1      1237 1.99975E+01 3.20642E-05 5.87584E-05-5.75364E-05 2.92796E-14-8.79284E-13
 -1      1238 1.99989E+01 4.32057E-05 7.63362E-05-5.06603E-05 7.88962E-14-1.03145E-12
 -1      1239 1.99998E+01 3.88839E-05 6.73289E-05-2.54463E-05 1.03641E-13-9.75059E-13
 -1      1240 1.99999E+01-2.40463E-05-5.56377E-05 2.50083E-05-4.48644E-14-6.11802E-13
 -1      1241 1.99998E+01 7.13866E-05-5.19831E-05 2.32088E-05-4.98002E-13 1.44379E-14
 -1      1242 1.99998E+01-5.57026E-05 7.00322E-05 1.18245E-05 4.66227E-15-2.08309E-14
 -1      1243 1.99998E+01-8.80392E-04 6.75317E-05-3.29377E-05 3.48129E-13 2.43342E-14
 -1      1244 1.99998E+01-2.19078E-03 2.92205E-05-5.00701E-05 4.07016E-13 2.21755E-14
 -1      1245 1.99998E+01-3.68463E-03-9.36809E-06-5.20153E-05 5.84610E-13 4.97486E-14
 -1      1246 1.99998E+01-5.09612E-03-3.96242E-05-4.46933E-05 8.79770E-13-1.34151E-13
 -1      1247 1.99998E+01-6.24184E-03-6.03711E-05-3.28704E-05 6.95915E-13 1.00773E-13
 -1      1248 1.99997E+01-6.99084E-03-7.28988E-05-1.70971E-05 1.34237E-13-2.89465E-14
 -1      1249 1.99997E+01-7.24686E-03-7.69813E-05 1.45147E-07-4.62440E-13-9.34877E-14
 -1      1250 1.99997E+01-6.98235E-03-7.27576E-05 1.73855E-05-2.26598E-13 1.24021E-13
 -1      1251 1.99998E+01-6.22587E-03-6.00107E-05 3.30900E-05-1.14855E-13-2.06272E-13
 -1      1252 1.99998E+01-5.07404E-03-3.90011E-05 4.55348E-05-8.93977E-13-6.09593E-14
 -1      1253 1.99998E+01-3.66035E-03-8.97277E-06 5.21038E-05-9.11325E-13 1.95414E-13
 -1      1254 1.99998E+01-2.16595E-03 3.02538E-05 5.07089E-05-1.13593E-12 4.41339E-14
 -1      1255 1.99998E+01-8.41486E-04 7.39949E-05 3.93402E-05-8.63847E-13 1.43666E-14
 -1      1256 1.99999E+01-7.56857E-05 6.51233E-05-2.87791E-05-4.13606E-13 2.99031E-14
 -1      1257 1.99998E+01 7.93582E-05-5.35291E-05-2.58074E-05-1.39179E-13 5.64721E-14
 -1      1258-1.17419E+00-2.35944E+01-3.68882E+00-2.21477E+00 1.80295E-12 4.39822E-13
 -1      1259-1.78205E+00-1.52662E+01-3.09529E+00-4.11494E+00 3.73213E-12 1.41165E-12
 -1      1260 3.06297E-01-2.76228E+00-1.86809E+00-1.10972E-01 4.54348E-12 2.73037E-12
 -1      1261 8.49922E+00 7.31337E+00-4.29482E-01 7.94630E+00 3.95528E-12 3.63976E-12
 -1      1262 2.41037E+01 1.10999E+01 1.24207E+00 1.57090E+01 2.88169E-12 3.89444E-12
 -1      1263 4.44977E+01 8.45174E+00 2.78125E+00 1.78894E+01 1.52467E-12 3.18545E-12
 -1      1264 6.16578E+01 3.65769E+00 3.94519E+00 1.11422E+01 3.96488E-13 1.02229E-12
 -1      1265 6.69317E+01 1.94353E+00 4.24975E+00-1.61716E+00 2.32842E-13-1.64133E-12
 -1      1266 5.89807E+01 4.57410E+00 3.80126E+00-1.34478E+01 1.14461E-12-4.12692E-12
 -1      1267 4.01331E+01 9.43485E+00 2.48573E+00-1.80426E+01 2.80986E-12-5.53846E-12
 -1      1268 1.95736E+01 1.07943E+01 8.64358E-01-1.38866E+01 4.41047E-12-5.43277E-12
 -1      1269 5.48080E+00 5.30743E+00-8.02132E-01-5.44058E+00 5.20362E-12-4.29434E-12
 -1      1270-7.63519E-01-5.62650E+00-2.28212E+00 1.63979E+00 4.73221E-12-2.62956E-12
 -1      1271-1.71196E+00-1.74393E+01-3.25825E+00 3.82766E+00 2.88436E-12-1.02163E-12
 -1      1272-9.14246E-01-2.43760E+01-3.76138E+00 1.18719E+00 2.97151E-13-2.28421E-13
 -1      1273-1.20122E+00-2.24061E+01-3.62521E+00-2.92352E+00-2.32026E-12-5.36203E-13
 -1      1274-1.72106E+00-1.26176E+01-2.89137E+00-3.64773E+00-4.27081E-12-1.79162E-12
 -1      1275 1.49609E+00 1.46496E-01-1.61772E+00 1.42364E+00-5.09881E-12-3.45268E-12
 -1      1276 1.20691E+01 9.14681E+00 3.71015E-02 1.02825E+01-4.74709E-12-4.91296E-12
 -1      1277 3.03077E+01 1.08764E+01 1.79040E+00 1.72394E+01-3.52007E-12-5.51204E-12
 -1      1278 5.05427E+01 7.13401E+00 3.23488E+00 1.67482E+01-1.81061E-12-4.69624E-12
 -1      1279 6.46843E+01 2.60673E+00 4.09108E+00 8.46869E+00-5.08763E-13-2.72193E-12
 -1      1280 6.70395E+01 1.78616E+00 4.23915E+00-4.08530E+00-1.73438E-13-1.83381E-13
 -1      1281 5.54882E+01 5.59309E+00 3.49984E+00-1.47622E+01-8.45601E-13 2.31748E-12
 -1      1282 3.65238E+01 1.01690E+01 2.29490E+00-1.80252E+01-2.04037E-12 3.67484E-12
 -1      1283 1.84474E+01 1.07021E+01 7.25905E-01-1.36006E+01-3.25939E-12 3.91642E-12
 -1      1284 5.63610E+00 5.37136E+00-8.15870E-01-5.65549E+00-4.12914E-12 3.38396E-12
 -1      1285-6.47766E-01-5.16104E+00-2.16452E+00 1.44599E+00-4.13247E-12 2.41029E-12
 -1      1286-1.78349E+00-1.69500E+01-3.22155E+00 4.22513E+00-2.60447E-12 9.80993E-13
 -1      1287-1.15534E+00-2.41551E+01-3.75644E+00 1.97965E+00-5.27134E-13 1.67234E-13
 -1      1288 2.47771E+01 1.98214E+00-7.28265E-01-2.44198E+00-1.12410E-13 2.08278E-12
 -1      1289 2.23854E+01 4.92227E+00-3.48423E-02-2.43643E+00-3.18398E-13-4.52069E-14
 -1      1290 2.32014E+01 5.08671E+00-6.60546E-02-3.44402E+00-4.12892E-13 4.41203E-13
 -1      1291 2.08155E+01 5.16348E+00-1.67339E-02-1.55675E+00-3.15553E-13-7.37767E-13
 -1      1292 2.15176E+01 5.37108E+00 3.14614E-02-2.04618E+00-3.60323E-13-4.40065E-13
 -1      1293 2.25023E+01 4.03571E+00-1.31743E-02-2.15580E+00-5.59774E-13-3.89411E-14
 -1      1294 1.95866E+01 5.13750E+00-1.15346E-02-8.79272E-01-2.51188E-13-1.09199E-12
 -1      1295 2.01895E+01 5.32453E+00 2.84675E-02-1.20352E+00-2.90407E-13-9.32809E-13
 -1      1296 2.08792E+01 4.45006E+00-2.00877E-02-1.41101E+00-4.90566E-13-6.20254E-13
 -1      1297 1.85053E+01 5.06091E+00-1.38973E-02-4.10907E-01-1.82479E-13-1.27846E-12
 -1      1298 1.90379E+01 5.22468E+00 2.12662E-02-6.25433E-01-2.11692E-13-1.19520E-12
 -1      1299 1.95633E+01 4.61652E+00-2.08668E-02-7.99569E-01-3.76522E-13-9.25204E-13
 -1      1300 1.75918E+01 4.99160E+00-1.82256E-02-1.32666E-01-1.18183E-13-1.37395E-12
 -1      1301 1.80341E+01 5.12718E+00 1.28362E-02-2.54771E-01-1.40159E-13-1.32825E-12
 -1      1302 1.84314E+01 4.71234E+00-1.86491E-02-3.76310E-01-2.63773E-13-1.08638E-12
 -1      1303 1.68811E+01 4.94616E+00-2.13897E-02-8.33648E-03-5.77732E-14-1.42635E-12
 -1      1304 1.72094E+01 5.04603E+00 2.62398E-03-5.85088E-02-7.66817E-14-1.40341E-12
 -1      1305 1.74849E+01 4.78751E+00-1.62584E-02-1.27519E-01-1.58186E-13-1.17736E-12
 -1      1306 1.64688E+01 4.93217E+00-2.03460E-02 8.56471E-04-6.20858E-15-1.44461E-12
 -1      1307 1.66367E+01 4.98309E+00-7.92723E-03-8.81498E-04-2.70443E-14-1.43600E-12
 -1      1308 1.67897E+01 4.84644E+00-1.45230E-02-2.38764E-02-7.25878E-14-1.21338E-12
 -1      1309 1.64078E+01 4.94609E+00-1.45619E-02-3.87008E-02 3.93921E-14-1.43167E-12
 -1      1310 1.63931E+01 4.94148E+00-1.64716E-02-2.63843E-02 1.97464E-14-1.44166E-12
 -1      1311 1.64347E+01 4.87633E+00-1.36165E-02-1.96697E-02 1.20216E-14-1.23193E-12
 -1      1312 1.67030E+01 4.98345E+00-5.24176E-03-5.02589E-02 8.81274E-14-1.39505E-12
 -1      1313 1.65101E+01 4.92470E+00-2.08957E-02-6.08858E-02 6.81139E-14-1.41892E-12
 -1      1314 1.64661E+01 4.86690E+00-1.38018E-02-4.45638E-02 8.49459E-14-1.21541E-12
 -1      1315 1.73078E+01 5.04156E+00 5.12411E-03 3.61169E-02 1.35780E-13-1.32402E-12
 -1      1316 1.69662E+01 4.93788E+00-2.04395E-02-2.93036E-02 1.17135E-13-1.36832E-12
 -1      1317 1.68747E+01 4.82094E+00-1.49896E-02-2.17403E-02 1.67445E-13-1.17431E-12
 -1      1318 1.81293E+01 5.11888E+00 1.47216E-02 2.64766E-01 1.97037E-13-1.20920E-12
 -1      1319 1.76886E+01 4.98348E+00-1.63665E-02 1.26258E-01 1.75568E-13-1.27593E-12
 -1      1320 1.75925E+01 4.75326E+00-1.65094E-02 1.11383E-01 2.55329E-13-1.09352E-12
 -1      1321 1.91218E+01 5.21359E+00 2.25098E-02 6.72394E-01 2.71796E-13-1.02477E-12
 -1      1322 1.86014E+01 5.05286E+00-1.17038E-02 4.41450E-01 2.39656E-13-1.13265E-12
 -1      1323 1.85376E+01 4.67539E+00-1.86723E-02 3.94986E-01 3.57167E-13-9.57460E-13
 -1      1324 2.02356E+01 5.30995E+00 2.79739E-02 1.27907E+00 3.46556E-13-7.14075E-13
 -1      1325 1.96533E+01 5.12747E+00-1.01745E-02 9.41900E-01 3.05950E-13-9.03583E-13
 -1      1326 1.96530E+01 4.57954E+00-2.08254E-02 8.52721E-01 4.67251E-13-7.49723E-13
 -1      1327 2.15298E+01 5.36953E+00 3.51741E-02 2.13499E+00 3.96988E-13-1.51934E-13
 -1      1328 2.08394E+01 5.15256E+00-1.62825E-02 1.64605E+00 3.59573E-13-4.91409E-13
 -1      1329 2.09279E+01 4.41379E+00-2.07397E-02 1.49376E+00 5.66061E-13-3.90264E-13
 -1      1330 2.33400E+01 5.16936E+00 4.07190E-02 3.41021E+00 3.46251E-13 9.28480E-13
 -1      1331 2.23352E+01 4.96252E+00-3.20042E-02 2.59197E+00 3.37924E-13 2.69854E-13
 -1      1332 2.25161E+01 3.99555E+00-9.27014E-03 2.30729E+00 5.95662E-13 2.37449E-13
 -1      1333 2.95123E+01 3.31290E+00 8.95853E-01 4.32824E+00 1.75693E-13 3.00016E-12
 -1      1334 2.43943E+01 3.69112E+00-1.73306E-01 3.39003E+00 1.74527E-13 1.56289E-12
 -1      1335 2.46119E+01 2.59153E+00-1.04443E-02 2.78441E+00 5.71394E-13 1.22807E-12
 -1      1336 2.41189E+01 3.19978E-01-7.79803E-01 8.22286E-01 3.15796E-13 2.87387E-12
 -1      1337 2.49156E+01 9.09447E-02-4.06825E-01-8.98963E-01-3.36647E-13 2.20654E-12
 -1      1338 2.40166E+01 2.73465E-01-1.51588E-01-4.70708E-01-3.14151E-13 1.81299E-12
 -1      1339 2.36404E+01 1.36959E-01-6.86069E-02-9.56180E-02-2.55577E-13 1.64981E-12
 -1      1340 2.35418E+01 7.02418E-02-9.55299E-03-3.83475E-02-2.42986E-13 1.27716E-12
 -1      1341 2.40890E+01 3.14591E-01-1.03391E-01-6.65326E-01-5.49998E-13 9.61228E-13
 -1      1342 2.34227E+01 4.38780E-02 5.35679E-03 1.10620E-01-1.89526E-13 1.14981E-12
 -1      1343 2.35569E+01 1.28654E-02 1.44780E-02 1.16543E-01-1.78324E-13 8.85139E-13
 -1      1344 2.35103E+01 9.08017E-02-3.19179E-02 1.60427E-02-4.16462E-13 7.22145E-13
 -1      1345 2.35869E+01-3.90595E-03 1.49166E-02 1.34024E-01-1.20802E-13 7.77215E-13
 -1      1346 2.37361E+01-2.78551E-02 1.22170E-02 1.22416E-01-1.17024E-13 6.03084E-13
 -1      1347 2.34617E+01-4.47104E-03-1.90581E-03 2.13923E-01-2.98824E-13 5.16469E-13
 -1      1348 2.37796E+01-4.47922E-02 1.38187E-02 4.62435E-02-7.38064E-14 5.43909E-13
 -1      1349 2.37978E+01-6.34796E-02 1.07477E-02 1.44671E-02-7.79489E-14 4.31256E-13
 -1      1350 2.35532E+01-7.34053E-02 9.02014E-03 1.48857E-01-1.91503E-13 3.63130E-13
 -1      1351 2.37541E+01-8.07183E-02 1.56070E-02-1.40131E-01-7.46399E-14 3.93244E-13
 -1      1352 2.35237E+01-8.82237E-02 1.23283E-02-1.90472E-01-7.59653E-14 2.71330E-13
 -1      1353 2.35760E+01-1.32926E-01 1.83704E-02-1.23089E-01-1.61504E-13 2.84622E-13
 -1      1354 2.33201E+01-9.80332E-02 1.81372E-02-3.89039E-01-4.55261E-14 2.58436E-13
 -1      1355 2.27816E+01-8.40470E-02 1.28247E-02-4.45793E-01-4.92236E-14 1.72397E-13
 -1      1356 2.33598E+01-1.64564E-01 2.56764E-02-5.47739E-01-1.05053E-13 2.51774E-13
 -1      1357 2.23977E+01-7.45613E-02 1.54179E-02-6.12612E-01-4.64021E-14 1.47757E-13
 -1      1358 2.16104E+01-3.29695E-02 7.00975E-03-6.49253E-01-5.34637E-14 7.04714E-14
 -1      1359 2.28047E+01-1.33771E-01 2.43130E-02-9.96644E-01-1.02601E-13 1.82030E-13
 -1      1360 2.11153E+01 9.81191E-04 3.28928E-03-6.79830E-01-9.20843E-14 2.78388E-14
 -1      1361 2.02942E+01 5.98374E-02-6.76684E-03-6.65061E-01-1.44234E-13-1.20501E-13
 -1      1362 2.19474E+01-1.93023E-02 7.92294E-03-1.25041E+00-1.48778E-13 8.17974E-14
 -1      1363 1.98555E+01 1.03818E-01-1.47319E-02-4.88295E-01-1.60535E-13-1.93595E-13
 -1      1364 1.93142E+01 1.50223E-01-2.22271E-02-4.11453E-01-1.23481E-13-3.55053E-13
 -1      1365 2.10176E+01 1.47991E-01-2.13790E-02-1.08499E+00-2.34897E-13-1.43635E-14
 -1      1366 1.91311E+01 1.73488E-01-2.71835E-02-6.62372E-02-8.36674E-14-4.94525E-13
 -1      1367 1.91186E+01 1.77232E-01-2.77365E-02 4.24560E-02-8.15251E-14-5.97220E-13
 -1      1368 2.03892E+01 2.79983E-01-4.74377E-02-4.48896E-01-2.09235E-13-2.03284E-13
 -1      1369 1.92928E+01 1.60654E-01-2.46653E-02 4.02458E-01-6.28126E-14-7.10397E-13
 -1      1370 1.98309E+01 1.18696E-01-1.78437E-02 4.87749E-01-2.35142E-14-7.37639E-13
 -1      1371 2.03778E+01 2.91596E-01-4.99032E-02 4.20101E-01-1.67488E-13-4.86566E-13
 -1      1372 2.02858E+01 7.63131E-02-1.03623E-02 6.97281E-01 2.96169E-14-7.92359E-13
 -1      1373 2.11530E+01 1.57686E-02-1.27624E-04 7.22248E-01 1.61642E-14-7.34732E-13
 -1      1374 2.10102E+01 1.74545E-01-2.64094E-02 1.11655E+00-2.03310E-14-6.87188E-13
 -1      1375 2.16925E+01-2.12397E-02 4.08046E-03 7.19348E-01 3.38965E-15-7.47367E-13
 -1      1376 2.25698E+01-6.87225E-02 1.31011E-02 6.88328E-01 5.36030E-16-7.39596E-13
 -1      1377 2.20000E+01 5.12496E-03 4.49702E-03 1.35700E+00 4.04386E-15-7.92588E-13
 -1      1378 2.30087E+01-8.22257E-02 1.07115E-02 5.29058E-01-2.10595E-14-7.11195E-13
 -1      1379 2.36523E+01-1.02973E-01 1.63141E-02 4.71696E-01-4.84569E-14-7.39256E-13
 -1      1380 2.29561E+01-1.24152E-01 2.41618E-02 1.14504E+00 1.30312E-14-7.84785E-13
 -1      1381 2.38965E+01-9.57319E-02 9.72270E-03 2.58612E-01-9.42076E-14-6.90299E-13
 -1      1382 2.42145E+01-9.42621E-02 1.22266E-02 2.02983E-01-5.65303E-14-7.75387E-13
 -1      1383 2.36044E+01-1.71442E-01 2.82920E-02 6.85491E-01-6.08558E-14-7.42301E-13
 -1      1384 2.42596E+01-7.80720E-02 5.44061E-03 1.56664E-02 2.70695E-14-7.61325E-13
 -1      1385 2.42845E+01-6.54887E-02 6.10156E-03-2.41876E-02 8.05623E-14-7.26143E-13
 -1      1386 2.38587E+01-1.52280E-01 2.25452E-02 2.01618E-01-9.40220E-15-5.58562E-13
 -1      1387 2.41764E+01-4.98555E-02 1.50081E-03-1.51428E-01 3.46684E-14-7.52736E-13
 -1      1388 2.39984E+01-3.51160E-02 1.31393E-03-1.73567E-01-7.88779E-15-7.28213E-13
 -1      1389 2.37698E+01-1.03641E-01 1.38105E-02-1.72996E-01 5.63855E-14-6.14142E-13
 -1      1390 2.37961E+01-2.41383E-02-7.18069E-04-2.40279E-01-1.85273E-14-7.60600E-13
 -1      1391 2.35093E+01-1.17764E-02-1.25565E-03-2.48578E-01-4.67853E-14-7.78808E-13
 -1      1392 2.34456E+01-5.42706E-02 6.15296E-03-4.00963E-01-2.58986E-14-6.30830E-13
 -1      1393 2.32646E+01-5.75696E-03-1.38419E-03-2.69464E-01-1.52299E-14-8.07465E-13
 -1      1394 2.29416E+01 2.97448E-03-2.08604E-03-2.68959E-01-2.19337E-14-7.93188E-13
 -1      1395 2.29950E+01-1.71457E-02 8.82663E-04-5.01901E-01-4.12294E-14-6.50485E-13
 -1      1396 2.26914E+01 5.28338E-03-1.16493E-03-2.61026E-01 3.94758E-15-7.76136E-13
 -1      1397 2.23783E+01 1.07361E-02-1.95482E-03-2.55838E-01-2.12264E-14-7.78821E-13
 -1      1398 2.25034E+01 5.84315E-03-2.15897E-03-5.14597E-01 2.85015E-14-8.23590E-13
 -1      1399 2.21453E+01 1.07709E-02-6.35117E-04-2.32786E-01-2.63704E-14-7.34348E-13
 -1      1400 2.18663E+01 1.37875E-02-1.45552E-03-2.25683E-01-4.17500E-14-7.92148E-13
 -1      1401 2.20270E+01 1.76082E-02-3.59316E-03-4.75740E-01-2.18549E-14-8.09607E-13
 -1      1402 2.16619E+01 1.26586E-02-1.21309E-04-1.96751E-01-6.74114E-15-7.04077E-13
 -1      1403 2.14265E+01 1.40556E-02-9.17025E-04-1.89360E-01 7.60967E-14-6.44535E-13
 -1      1404 2.15974E+01 2.19607E-02-4.02472E-03-4.12469E-01 5.29583E-14-5.23843E-13
 -1      1405 2.12547E+01 1.24761E-02 2.50859E-04-1.60037E-01 1.56130E-13-6.17951E-13
 -1      1406 2.10638E+01 1.28806E-02-4.75475E-04-1.53201E-01 1.12872E-13-4.31796E-13
 -1      1407 2.12287E+01 2.20300E-02-3.89815E-03-3.42118E-01 1.53027E-13-3.18353E-13
 -1      1408 2.09240E+01 1.12522E-02 4.67841E-04-1.26351E-01 3.48495E-14-3.35248E-13
 -1      1409 2.07739E+01 1.10947E-02-1.61519E-04-1.20433E-01 5.06103E-14-2.51109E-13
 -1      1410 2.09237E+01 1.99474E-02-3.49868E-03-2.74484E-01 1.22816E-13-2.73118E-13
 -1      1411 2.06630E+01 9.61394E-03 5.61222E-04-9.72786E-02 4.53111E-14-3.04700E-13
 -1      1412 2.05479E+01 9.17031E-03 3.92540E-05-9.23699E-02 3.10708E-14-2.51091E-13
 -1      1413 2.06784E+01 1.70078E-02-2.99472E-03-2.14351E-01 4.62369E-15-1.53885E-13
 -1      1414 2.04621E+01 7.91404E-03 5.71343E-04-7.31934E-02-8.56812E-14-2.46576E-13
 -1      1415 2.03759E+01 7.35247E-03 1.54197E-04-6.92466E-02-8.98992E-14-3.57636E-13
 -1      1416 2.04859E+01 1.39294E-02-2.47935E-03-1.63464E-01-5.53132E-14-1.19884E-13
 -1      1417 2.03108E+01 6.33320E-03 5.32479E-04-5.38343E-02 6.37757E-14-3.97839E-13
 -1      1418 2.02478E+01 5.75144E-03 2.09690E-04-5.07388E-02 3.69426E-14-4.10865E-13
 -1      1419 2.03382E+01 1.10720E-02-2.00031E-03-1.21877E-01-8.90412E-14-2.79946E-13
 -1      1420 2.01995E+01 4.95087E-03 4.69233E-04-3.86507E-02 1.08610E-15-3.96127E-13
 -1      1421 2.01545E+01 4.40228E-03 2.26718E-04-3.62748E-02 9.29221E-15-3.37110E-13
 -1      1422 2.02273E+01 8.58823E-03-1.57903E-03-8.88013E-02 6.13592E-14-2.58775E-13
 -1      1423 2.01196E+01 3.78978E-03 3.97530E-04-2.69963E-02-6.03347E-14-3.59696E-13
 -1      1424 2.00884E+01 3.30050E-03 2.20490E-04-2.52097E-02-7.91625E-14-4.57052E-13
 -1      1425 2.01457E+01 6.51769E-03-1.22207E-03-6.30888E-02-5.91318E-14-3.23853E-13
 -1      1426 2.00637E+01 2.84277E-03 3.26817E-04-1.82325E-02-7.14247E-14-4.62923E-13
 -1      1427 2.00429E+01 2.42263E-03 2.01428E-04-1.69167E-02-9.56731E-14-5.83867E-13
 -1      1428 2.00872E+01 4.84282E-03-9.27919E-04-4.35141E-02-1.40920E-13-3.69618E-13
 -1      1429 2.00259E+01 2.08839E-03 2.62154E-04-1.17784E-02-1.43229E-13-5.87983E-13
 -1      1430 2.00126E+01 1.73777E-03 1.76372E-04-1.08308E-02-8.64326E-14-7.64882E-13
 -1      1431 2.00463E+01 3.52001E-03-6.90990E-04-2.89141E-02-1.70046E-13-3.47388E-13
 -1      1432 2.00015E+01 1.49970E-03 2.05811E-04-7.13120E-03 1.00468E-14-1.00975E-12
 -1      1433 1.99936E+01 1.21386E-03 1.49626E-04-6.46613E-03 2.38524E-18-1.00148E-12
 -1      1434 2.00187E+01 2.49677E-03-5.03941E-04-1.82549E-02-1.46586E-13-5.63118E-13
 -1      1435 1.99867E+01 1.04910E-03 1.58382E-04-3.87032E-03 2.28890E-14-9.36713E-13
 -1      1436 1.99826E+01 8.20764E-04 1.23754E-04-3.41785E-03 6.20541E-14-9.10176E-13
 -1      1437 2.00008E+01 1.72064E-03-3.59017E-04-1.06547E-02 1.76533E-14-8.31573E-13
 -1      1438 1.99786E+01 7.10780E-04 1.19508E-04-1.65266E-03-5.85438E-14-8.93675E-13
 -1      1439 1.99771E+01 5.31787E-04 1.00162E-04-1.35702E-03-7.45997E-14-1.02009E-12
 -1      1440 1.99900E+01 1.14350E-03-2.48798E-04-5.38354E-03 6.75930E-14-7.78969E-13
 -1      1441 1.99752E+01 4.61899E-04 8.83451E-05-2.04358E-04 3.05140E-14-9.05442E-13
 -1      1442 1.99753E+01 3.24107E-04 7.95003E-05-2.18668E-05 1.16222E-13-8.01759E-13
 -1      1443 1.99842E+01 7.23380E-04-1.66568E-04-1.85127E-03 3.21509E-14-8.16355E-13
 -1      1444 1.99747E+01 2.82916E-04 6.38447E-05 6.89056E-04 1.11126E-13-8.53909E-13
 -1      1445 1.99758E+01 1.78747E-04 6.19411E-05 7.91982E-04 2.95297E-14-6.88073E-13
 -1      1446 1.99817E+01 4.24858E-04-1.06485E-04 4.09587E-04 1.03172E-13-6.21409E-13
 -1      1447 1.99761E+01 1.57558E-04 4.49207E-05 1.19246E-03-1.84146E-14-5.58568E-13
 -1      1448 1.99778E+01 8.02533E-05 4.73687E-05 1.24117E-03 7.38510E-14-5.23191E-13
 -1      1449 1.99814E+01 2.18788E-04-6.36049E-05 1.76242E-03 6.74404E-14-5.58985E-13
 -1      1450 1.99786E+01 7.25518E-05 3.05424E-05 1.43020E-03-7.14113E-16-5.79961E-13
 -1      1451 1.99805E+01 1.62589E-05 3.55035E-05 1.44345E-03-1.74103E-13-6.51554E-13
 -1      1452 1.99825E+01 8.16469E-05-3.38385E-05 2.48448E-03 3.31679E-14-6.18987E-13
 -1      1453 1.99816E+01 1.72412E-05 1.97819E-05 1.49408E-03-1.09840E-13-6.09010E-13
 -1      1454 1.99834E+01-2.29999E-05 2.59857E-05 1.48539E-03-1.09385E-13-8.16998E-13
 -1      1455 1.99844E+01-5.24902E-06-1.38650E-05 2.78306E-03-1.47699E-13-6.39535E-13
 -1      1456 1.99847E+01-1.68304E-05 1.18356E-05 1.45010E-03-7.47832E-14-8.48218E-13
 -1      1457 1.99865E+01-4.51700E-05 1.84312E-05 1.42891E-03-7.93557E-14-9.78858E-13
 -1      1458 1.99866E+01-5.65715E-05-1.02684E-06 2.80954E-03-1.90263E-13-6.49770E-13
 -1      1459 1.99877E+01-3.63534E-05 6.03642E-06 1.34393E-03 8.76355E-14-9.45356E-13
 -1      1460 1.99893E+01-5.62504E-05 1.24819E-05 1.31649E-03 2.22392E-13-7.95746E-13
 -1      1461 1.99889E+01-8.37962E-05 6.78352E-06 2.67101E-03 3.75941E-14-3.54458E-13
 -1      1462 1.99905E+01-4.66811E-05 1.88125E-06 1.20518E-03 1.12789E-13-4.96356E-13
 -1      1463 1.99919E+01-6.10340E-05 7.88186E-06 1.17517E-03 1.44879E-13-2.65304E-13
 -1      1464 1.99912E+01-9.59966E-05 1.12421E-05 2.43959E-03 3.97935E-13-1.89643E-13
 -1      1465 1.99929E+01-5.22449E-05-8.90228E-07 1.05046E-03 1.44759E-13-2.49069E-13
 -1      1466 1.99942E+01-6.35108E-05 4.61699E-06 1.01943E-03 8.87377E-14-8.64989E-14
 -1      1467 1.99933E+01-1.00613E-04 1.37254E-05 2.15938E-03 2.87148E-13-3.20516E-14
 -1      1468 1.99951E+01-5.69503E-05-2.12568E-06 8.85398E-04 1.04700E-13 3.04624E-14
 -1      1469 1.99962E+01-6.72266E-05 3.08144E-06 8.52903E-04 1.53152E-13 1.76823E-13
 -1      1470 1.99952E+01-1.04201E-04 1.54500E-05 1.85143E-03 2.32335E-13 1.88349E-13
 -1      1471 1.99969E+01-6.44634E-05-1.07159E-06 7.05777E-04 3.70969E-14 1.78406E-13
 -1      1472 1.99978E+01-7.51765E-05 3.95208E-06 6.69263E-04-1.05832E-13 1.25558E-13
 -1      1473 1.99967E+01-1.13225E-04 1.75036E-05 1.51700E-03 1.49450E-13 2.58721E-13
 -1      1474 1.99983E+01-7.75075E-05 3.00951E-06 4.99929E-04 8.06520E-14 1.65296E-13
 -1      1475 1.99989E+01-8.80375E-05 5.48485E-06 4.54491E-04 1.83040E-13 4.07305E-13
 -1      1476 1.99980E+01-1.33705E-04 2.00045E-05 1.14053E-03 9.47465E-14 1.07937E-13
 -1      1477 1.99993E+01-1.02497E-04 5.14348E-06 2.53708E-04-7.02107E-15 3.66439E-13
 -1      1478 1.99996E+01-9.25143E-05-2.33110E-06 1.98746E-04-1.53256E-13 3.31644E-13
 -1      1479 1.99990E+01-1.68585E-04 2.09447E-05 7.05523E-04 1.08506E-13 2.36198E-14
 -1      1480 1.99998E+01-2.42251E-05-1.00357E-05-1.73907E-05-2.60810E-13 2.74173E-13
 -1      1481 1.99996E+01-1.42040E-04 7.50257E-06 1.86176E-04-2.87540E-13 1.23307E-13
 -1      1482 2.36305E+01 6.09069E-02-1.38051E-01 2.12406E-01 2.86885E-13 2.26199E-12
 -1      1483 2.44798E+01 2.15692E-01-2.29907E-01 4.29256E-01 2.45234E-13 2.70264E-12
 -1      1484 2.45304E+01 8.21053E-01-1.01981E-01 1.53856E+00 4.81268E-13 1.75229E-12
 -1      1485 2.32818E+01 1.96980E-02-1.11414E-02-3.14774E-02 2.04448E-13 1.71175E-12
 -1      1486 2.33648E+01 1.01358E-01-5.48333E-02 1.02522E-02 2.04003E-13 2.04634E-12
 -1      1487 2.36000E+01 1.48626E-01-5.62924E-02 3.25301E-01 4.30531E-13 1.35592E-12
 -1      1488 2.33560E+01-3.47574E-03 1.42499E-02-1.00663E-01 1.43532E-13 1.30740E-12
 -1      1489 2.32433E+01 3.00170E-02 5.82219E-03-8.77722E-02 1.49472E-13 1.55344E-12
 -1      1490 2.33068E+01 3.62702E-02-8.76029E-03-6.36767E-02 3.30791E-13 1.04419E-12
 -1      1491 2.34994E+01-2.27543E-02 1.89396E-02-6.36538E-02 9.46104E-14 1.01803E-12
 -1      1492 2.33854E+01-1.28215E-02 1.43198E-02-7.48342E-02 8.63146E-14 1.18194E-12
 -1      1493 2.33113E+01-1.93790E-02 6.07208E-03-1.34586E-01 2.13190E-13 7.86839E-13
 -1      1494 2.34607E+01-3.93116E-02 2.27749E-02 5.94117E-02 8.15606E-14 8.52867E-13
 -1      1495 2.34780E+01-4.78929E-02 1.30630E-02 2.38363E-02 6.85892E-14 9.58022E-13
 -1      1496 2.33419E+01-6.35186E-02 1.46842E-02-1.21244E-02 1.43329E-13 6.31101E-13
 -1      1497 2.30484E+01-4.74030E-02 2.52573E-02 2.47763E-01 1.88721E-14 7.85854E-13
 -1      1498 2.33014E+01-7.43039E-02 1.24855E-02 1.90993E-01 2.78380E-14 8.27701E-13
 -1      1499 2.32019E+01-9.82654E-02 2.27168E-02 2.59809E-01 8.29198E-14 6.14428E-13
 -1      1500 2.21718E+01-3.70867E-02 1.98280E-02 4.47960E-01 2.63071E-14 7.18883E-13
 -1      1501 2.27070E+01-7.88178E-02 1.13579E-02 3.84290E-01 2.24057E-14 7.56617E-13
 -1      1502 2.27571E+01-1.07277E-01 2.64379E-02 6.14181E-01 3.98223E-14 5.76584E-13
 -1      1503 2.09265E+01-2.62260E-03 1.28346E-03 5.66321E-01 2.72020E-14 6.43430E-13
 -1      1504 2.16789E+01-4.68508E-02 5.63656E-03 5.23236E-01 4.29596E-14 6.88005E-13
 -1      1505 2.19810E+01-6.79589E-02 2.01842E-02 9.18595E-01 5.22655E-14 4.84751E-13
 -1      1506 1.96440E+01 4.64198E-02-2.71532E-02 5.04326E-01 1.03440E-13 4.77708E-13
 -1      1507 2.04090E+01 2.09236E-02-6.47276E-03 5.11475E-01 4.99236E-14 5.49810E-13
 -1      1508 2.10129E+01 2.64646E-02 2.33073E-03 9.93770E-01 1.04317E-13 3.46414E-13
 -1      1509 1.88048E+01 8.36115E-02-4.99167E-02 2.31994E-01 1.05839E-13 2.68875E-13
 -1      1510 1.92944E+01 9.65706E-02-2.04778E-02 2.99463E-01 8.82974E-14 3.89314E-13
 -1      1511 2.01584E+01 1.44181E-01-1.96418E-02 7.10248E-01 1.68988E-13 1.65531E-13
 -1      1512 1.87927E+01 8.34633E-02-4.99026E-02-1.56060E-01 1.10559E-13 2.22287E-14
 -1      1513 1.87844E+01 1.35944E-01-2.65470E-02-5.36138E-02 1.10054E-13 1.75475E-13
 -1      1514 1.97710E+01 2.17941E-01-3.25166E-02 1.13074E-01 1.65808E-13 7.59761E-14
 -1      1515 1.96417E+01 4.63143E-02-2.56274E-02-4.84402E-01 3.95734E-14-1.31277E-13
 -1      1516 1.91229E+01 1.14998E-01-1.89550E-02-3.93755E-01 5.98063E-14-8.92827E-14
 -1      1517 2.00405E+01 1.93985E-01-2.99714E-02-5.53586E-01 1.58928E-13-1.30361E-13
 -1      1518 2.10100E+01-2.88884E-03 6.92107E-03-6.18656E-01-2.92409E-15-1.95441E-13
 -1      1519 2.01874E+01 5.07220E-02-2.28638E-03-5.75171E-01 1.31960E-14-1.91742E-13
 -1      1520 2.08631E+01 8.61982E-02-1.68123E-02-9.97996E-01 7.04254E-14-3.03316E-13
 -1      1521 2.24021E+01-3.75175E-02 2.92247E-02-5.46550E-01-3.64270E-14-2.87562E-13
 -1      1522 2.15689E+01-1.64401E-02 1.28395E-02-5.53941E-01 2.44839E-14-2.39531E-13
 -1      1523 2.19128E+01-3.75777E-02-2.98829E-03-1.07413E+00 5.77021E-14-3.86441E-13
 -1      1524 2.34375E+01-4.85971E-02 3.46033E-02-3.52196E-01-4.00409E-14-2.04226E-13
 -1      1525 2.28174E+01-5.69986E-02 1.92571E-02-3.90694E-01-2.36929E-14-2.35034E-13
 -1      1526 2.28421E+01-1.15165E-01 5.70620E-03-8.41073E-01-1.02331E-14-3.35822E-13
 -1      1527 2.39660E+01-4.20988E-02 2.77802E-02-1.35785E-01 3.68169E-14-2.68622E-13
 -1      1528 2.36457E+01-6.63102E-02 1.71302E-02-1.81881E-01 3.04635E-14-2.05159E-13
 -1      1529 2.34375E+01-1.31729E-01 8.67951E-03-4.65924E-01 5.47635E-14-3.38177E-13
 -1      1530 2.40276E+01-2.83566E-02 1.66053E-02 3.81788E-02 1.15356E-13-4.16011E-13
 -1      1531 2.39812E+01-5.51632E-02 1.07902E-02-3.59793E-04 9.28658E-14-2.46374E-13
 -1      1532 2.36492E+01-1.07050E-01 7.95913E-03-1.01977E-01 1.15647E-13-3.43950E-13
 -1      1533 2.37554E+01-1.48433E-02 6.74138E-03 1.48556E-01 2.74793E-14-6.11127E-13
 -1      1534 2.39027E+01-3.66548E-02 4.35383E-03 1.22875E-01 6.84891E-14-4.59218E-13
 -1      1535 2.35397E+01-6.80073E-02 5.80759E-03 1.68195E-01 1.55639E-13-3.25359E-13
 -1      1536 2.32940E+01-4.74226E-03 2.25265E-04 2.01688E-01-2.49492E-14-5.14701E-13
 -1      1537 2.35490E+01-1.92485E-02-7.96386E-05 1.87983E-01-3.77064E-14-5.87246E-13
 -1      1538 2.32152E+01-3.24879E-02 3.61527E-03 3.27433E-01-1.26800E-14-3.25665E-13
 -1      1539 2.27593E+01 1.57168E-03-3.15941E-03 2.13911E-01-1.40306E-13-2.63480E-13
 -1      1540 2.30543E+01-6.30310E-03-2.29486E-03 2.09005E-01-8.97366E-14-4.48835E-13
 -1      1541 2.27786E+01-7.16733E-03 1.92135E-03 3.94395E-01-1.17222E-13-2.34074E-13
 -1      1542 2.22286E+01 4.87900E-03-4.39584E-03 2.01445E-01-1.02333E-14-1.96856E-13
 -1      1543 2.25195E+01 1.89956E-03-2.92000E-03 2.02066E-01-3.30675E-14-2.73222E-13
 -1      1544 2.23091E+01 7.93835E-03 7.83014E-04 3.98292E-01-1.25323E-13-2.46439E-13
 -1      1545 2.17459E+01 6.17144E-03-4.42214E-03 1.76633E-01 1.16226E-13-3.24373E-13
 -1      1546 2.20083E+01 6.33065E-03-2.68467E-03 1.80236E-01 6.94733E-14-1.80387E-13
 -1      1547 2.18582E+01 1.53140E-02 8.19194E-05 3.65632E-01 8.86600E-14-2.44227E-13
 -1      1548 2.13312E+01 6.26974E-03-3.88881E-03 1.47555E-01-6.48886E-14-4.28946E-13
 -1      1549 2.15547E+01 8.18618E-03-2.11323E-03 1.52432E-01-1.00781E-14-4.56294E-13
 -1      1550 2.14545E+01 1.76935E-02-3.17934E-04 3.15837E-01 9.16355E-14-2.98370E-13
 -1      1551 2.09891E+01 5.74417E-03-3.17400E-03 1.18906E-01-7.43907E-14-2.83959E-13
 -1      1552 2.11718E+01 8.46766E-03-1.49910E-03 1.24028E-01-1.01911E-13-3.46705E-13
 -1      1553 2.11101E+01 1.72269E-02-5.22939E-04 2.61342E-01-1.41252E-13-3.75624E-13
 -1      1554 2.07159E+01 4.95105E-03-2.46803E-03 9.30791E-02-6.21373E-14-1.88163E-13
 -1      1555 2.08605E+01 7.88797E-03-9.71637E-04 9.78844E-02-1.48883E-14-2.23935E-13
 -1      1556 2.08269E+01 1.53597E-02-6.05934E-04 2.09231E-01-6.82664E-14-2.37887E-13
 -1      1557 2.05032E+01 4.09513E-03-1.85121E-03 7.10366E-02-1.04895E-13-4.47871E-14
 -1      1558 2.06147E+01 6.90713E-03-5.67557E-04 7.52627E-02-7.45693E-14-1.66378E-13
 -1      1559 2.06006E+01 1.29688E-02-6.14464E-04 1.62988E-01-8.19186E-14-8.37173E-14
 -1      1560 2.03418E+01 3.28421E-03-1.34658E-03 5.29288E-02 4.44265E-14-4.94090E-14
 -1      1561 2.04256E+01 5.80064E-03-2.80516E-04 5.64897E-02 4.70153E-15-6.11886E-14
 -1      1562 2.04243E+01 1.05410E-02-5.79388E-04 1.23891E-01 1.54440E-14 5.14028E-14
 -1      1563 2.02220E+01 2.56800E-03-9.50578E-04 3.84836E-02-5.33232E-15-2.40216E-13
 -1      1564 2.02835E+01 4.72167E-03-8.89076E-05 4.13907E-02 1.10235E-14-1.58878E-13
 -1      1565 2.02900E+01 8.31910E-03-5.20907E-04 9.19713E-02 7.04685E-14-2.34787E-14
 -1      1566 2.01353E+01 1.96316E-03-6.49150E-04 2.72402E-02-7.27496E-14-2.01099E-13
 -1      1567 2.01793E+01 3.74707E-03 3.09393E-05 2.95539E-02-2.92504E-14-2.43181E-13
 -1      1568 2.01901E+01 6.40392E-03-4.52243E-04 6.66222E-02 1.57547E-14 6.40514E-15
 -1      1569 2.00742E+01 1.46859E-03-4.25501E-04 1.86820E-02 4.83169E-14-2.30076E-13
 -1      1570 2.01047E+01 2.90818E-03 9.96337E-05 2.04831E-02-1.38966E-14-2.62258E-13
 -1      1571 2.01175E+01 4.81773E-03-3.81878E-04 4.69624E-02-4.78932E-14-6.10112E-14
 -1      1572 2.00326E+01 1.07442E-03-2.63556E-04 1.23080E-02 5.77882E-15-1.97994E-13
 -1      1573 2.00530E+01 2.21044E-03 1.33409E-04 1.36814E-02 1.31609E-14-2.61283E-13
 -1      1574 2.00660E+01 3.54255E-03-3.15004E-04 3.20455E-02 5.74112E-15-1.64562E-13
 -1      1575 2.00053E+01 7.67123E-04-1.49293E-04 7.66716E-03 1.36239E-14-1.73035E-13
 -1      1576 2.00184E+01 1.64545E-03 1.44357E-04 8.69320E-03 4.96296E-15-1.82323E-13
 -1      1577 2.00308E+01 2.54212E-03-2.54532E-04 2.09700E-02 1.08024E-15 6.33960E-16
 -1      1578 1.99886E+01 5.32450E-04-7.10762E-05 4.37183E-03 3.11510E-14-1.78965E-13
 -1      1579 1.99963E+01 1.19822E-03 1.41158E-04 5.12209E-03 9.59400E-15-2.02892E-13
 -1      1580 2.00075E+01 1.77417E-03-2.01812E-04 1.29322E-02 7.92294E-14-1.40289E-13
 -1      1581 1.99792E+01 3.56871E-04-1.95558E-05 2.09990E-03-1.23723E-13-1.80652E-13
 -1      1582 1.99832E+01 8.51452E-04 1.29855E-04 2.63568E-03-4.36570E-14-2.13364E-13
 -1      1583 1.99930E+01 1.19690E-03-1.57169E-04 7.24591E-03-9.93321E-14-8.97638E-14
 -1      1584 1.99749E+01 2.28317E-04 1.26083E-05 5.90382E-04 2.98964E-14-2.27900E-13
 -1      1585 1.99764E+01 5.87914E-04 1.14534E-04 9.62642E-04-2.39624E-14-2.57152E-13
 -1      1586 1.99847E+01 7.72227E-04-1.20288E-04 3.34296E-03 2.12447E-15-1.73740E-13
 -1      1587 1.99740E+01 1.36438E-04 3.10660E-05-3.63557E-04 1.58372E-13-5.72264E-13
 -1      1588 1.99739E+01 3.91700E-04 9.78578E-05-1.13456E-04 1.10887E-13-3.58598E-13
 -1      1589 1.99807E+01 4.67100E-04-9.04859E-05 7.64670E-04 1.63807E-13-2.40413E-13
 -1      1590 1.99751E+01 7.26084E-05 4.00891E-05-9.22592E-04-8.09524E-14-5.42540E-13
 -1      1591 1.99741E+01 2.48815E-04 8.14821E-05-7.61771E-04-2.28652E-14-5.76016E-13
 -1      1592 1.99796E+01 2.53779E-04-6.68994E-05-8.51483E-04 5.94565E-14-2.25799E-13
 -1      1593 1.99775E+01 2.98001E-05 4.28492E-05-1.20910E-03-3.51036E-14-3.79659E-13
 -1      1594 1.99759E+01 1.47344E-04 6.63607E-05-1.11193E-03-6.64758E-15-4.33851E-13
 -1      1595 1.99803E+01 1.09572E-04-4.86107E-05-1.78630E-03-4.21144E-14-1.84760E-13
 -1      1596 1.99805E+01 2.38668E-06 4.16582E-05-1.31435E-03 3.78535E-14-3.06784E-13
 -1      1597 1.99786E+01 7.73886E-05 5.29698E-05-1.26125E-03-2.23525E-14-4.14981E-13
 -1      1598 1.99820E+01 1.62897E-05-3.47231E-05-2.25299E-03-4.21331E-14-1.91660E-13
 -1      1599 1.99836E+01-1.40800E-05 3.81692E-05-1.30480E-03-1.80081E-13-2.19569E-13
 -1      1600 1.99818E+01 3.08725E-05 4.14703E-05-1.28113E-03-1.10968E-13-3.49097E-13
 -1      1601 1.99843E+01-4.04047E-05-2.44012E-05-2.40995E-03-1.17704E-13-4.16699E-14
 -1      1602 1.99868E+01-2.30979E-05 3.35488E-05-1.22729E-03 3.43150E-14-3.42414E-14
 -1      1603 1.99850E+01 1.27147E-06 3.18241E-05-1.22243E-03 1.35607E-14-6.21664E-14
 -1      1604 1.99868E+01-7.16777E-05-1.68847E-05-2.37181E-03-2.22697E-14 4.67563E-14
 -1      1605 1.99897E+01-2.74417E-05 2.86344E-05-1.11319E-03-1.12219E-13 1.97259E-13
 -1      1606 1.99880E+01-1.66911E-05 2.38825E-05-1.11980E-03-1.28120E-13-4.98097E-14
 -1      1607 1.99894E+01-8.61884E-05-1.14762E-05-2.21851E-03-9.01584E-14 6.62960E-14
 -1      1608 1.99923E+01-2.93910E-05 2.41137E-05-9.81565E-04 1.91178E-13 3.20978E-14
 -1      1609 1.99908E+01-2.73833E-05 1.74725E-05-9.95041E-04 1.59543E-13 1.86234E-13
 -1      1610 1.99917E+01-9.07287E-05-7.49353E-06-2.00253E-03 9.99511E-14-5.55924E-15
 -1      1611 1.99946E+01-3.09615E-05 2.07818E-05-8.41135E-04 1.47689E-13-2.57945E-13
 -1      1612 1.99933E+01-3.46430E-05 1.25245E-05-8.59380E-04 1.60113E-13 1.02795E-15
 -1      1613 1.99938E+01-9.08696E-05-4.16816E-06-1.75404E-03 2.56333E-13 5.53866E-14
 -1      1614 1.99965E+01-3.39486E-05 1.98113E-05-6.91512E-04 1.31058E-13-4.31533E-13
 -1      1615 1.99955E+01-4.20600E-05 9.30241E-06-7.14893E-04 6.88432E-14-3.17789E-13
 -1      1616 1.99957E+01-9.15428E-05-4.74907E-07-1.48437E-03 1.72662E-13-2.33561E-13
 -1      1617 1.99981E+01-4.00867E-05 2.19970E-05-5.24197E-04-1.08897E-14-5.31690E-13
 -1      1618 1.99972E+01-5.31086E-05 8.43710E-06-5.55725E-04 5.62533E-14-3.79072E-13
 -1      1619 1.99972E+01-9.74649E-05 4.80672E-06-1.18851E-03 8.16570E-14-1.27461E-14
 -1      1620 1.99991E+01-5.05824E-05 2.28678E-05-3.23140E-04 2.68821E-14-4.69744E-13
 -1      1621 1.99986E+01-7.08743E-05 9.30653E-06-3.70230E-04 6.47196E-14-4.39512E-13
 -1      1622 1.99984E+01-1.14357E-04 1.12126E-05-8.48925E-04 5.67819E-14-3.46341E-14
 -1      1623 1.99997E+01-5.95492E-05-2.24431E-06-9.76181E-05-3.41516E-14-4.39039E-13
 -1      1624 1.99994E+01-8.43094E-05 5.90212E-06-1.54422E-04-1.64289E-14-5.71567E-13
 -1      1625 1.99993E+01-1.34657E-04 1.41566E-05-4.48319E-04 5.09980E-14 1.21195E-13
 -1      1626 1.99998E+01-2.80787E-05-1.23535E-05 6.56230E-06-1.43216E-13-1.92961E-13
 -1      1627 1.99997E+01-5.10554E-04 1.21784E-05-2.64168E-04 1.65367E-13 3.31481E-14
 -1      1628 1.99997E+01-2.56952E-04-4.03551E-06-2.04980E-04-1.58733E-13 3.59728E-13
 -1      1629 1.99997E+01-1.40419E-03 7.11857E-06-4.68459E-04 2.46279E-13 1.52951E-13
 -1      1630 1.99997E+01-8.82466E-04 8.05002E-06-4.33767E-04 3.30887E-13-1.17191E-13
 -1      1631 1.99996E+01-8.38830E-04 1.49288E-05-6.82997E-04 1.04776E-13 9.94459E-14
 -1      1632 1.99998E+01-2.55625E-03 1.66931E-06-5.75939E-04 2.88109E-13 3.94986E-14
 -1      1633 1.99998E+01-1.88592E-03 5.04532E-06-5.63075E-04 3.98545E-13 1.59438E-13
 -1      1634 1.99997E+01-1.68716E-03 1.14054E-05-9.98691E-04 2.47941E-13 2.32151E-13
 -1      1635 1.99998E+01-3.77904E-03-1.34830E-06-5.83300E-04 5.92899E-13 2.97264E-13
 -1      1636 1.99998E+01-3.08350E-03 1.56256E-06-5.89921E-04 1.63313E-13 2.92258E-13
 -1      1637 1.99998E+01-2.69081E-03 1.14727E-06-1.12618E-03 1.81315E-13 1.11708E-13
 -1      1638 1.99998E+01-4.87517E-03-2.22446E-06-5.07539E-04 3.53356E-13-2.28424E-13
 -1      1639 1.99998E+01-4.26868E-03-4.71304E-08-5.28489E-04 4.94992E-13-1.84717E-13
 -1      1640 1.99998E+01-3.70049E-03-8.25020E-06-1.07351E-03 9.78137E-14-3.87270E-14
 -1      1641 1.99999E+01-5.73812E-03-2.20228E-06-3.66300E-04 2.74445E-13-5.92495E-14
 -1      1642 1.99999E+01-5.28183E-03-8.51191E-07-3.98393E-04 3.88342E-13-2.93639E-14
 -1      1643 1.99999E+01-4.58806E-03-1.51920E-05-8.75041E-04 1.02201E-13-2.21213E-13
 -1      1644 1.99999E+01-6.24210E-03-1.80108E-06-1.82291E-04 2.74049E-15-2.54880E-13
 -1      1645 1.99999E+01-6.00136E-03-1.11514E-06-2.20721E-04 1.39848E-13 1.46349E-15
 -1      1646 1.99999E+01-5.24972E-03-1.99532E-05-5.67214E-04 5.08352E-14-1.59606E-13
 -1      1647 1.99999E+01-6.33021E-03-1.40329E-06 2.19561E-05-8.60820E-14 4.09598E-14
 -1      1648 1.99999E+01-6.33224E-03-1.40930E-06-1.85641E-05-7.00532E-14-8.89210E-14
 -1      1649 1.99999E+01-5.59882E-03-2.23024E-05-1.94121E-04-3.29179E-14-2.96039E-13
 -1      1650 1.99999E+01-5.99247E-03-1.07493E-06 2.23873E-04 2.15585E-14 6.92776E-14
 -1      1651 1.99999E+01-6.23711E-03-1.81226E-06 1.85534E-04-1.55028E-13 1.51686E-13
 -1      1652 1.99999E+01-5.59589E-03-2.22795E-05 2.00539E-04 8.31077E-14-5.66392E-15
 -1      1653 1.99999E+01-5.26715E-03-7.14022E-07 4.00893E-04-3.59104E-13-3.71872E-13
 -1      1654 1.99999E+01-5.72667E-03-2.30918E-06 3.69059E-04-1.38618E-14-1.57281E-13
 -1      1655 1.99999E+01-5.24131E-03-1.98476E-05 5.72964E-04-6.75133E-14-1.28196E-13
 -1      1656 1.99998E+01-4.25915E-03-1.68468E-07 5.28885E-04-6.22371E-13 1.82936E-13
 -1      1657 1.99998E+01-4.86712E-03-2.32361E-06 5.08218E-04-4.06045E-13-3.07044E-13
 -1      1658 1.99999E+01-4.58209E-03-1.52322E-05 8.77578E-04-3.34807E-13-4.14890E-13
 -1      1659 1.99998E+01-3.06323E-03 1.51710E-06 5.90220E-04-4.99110E-13 2.62830E-14
 -1      1660 1.99998E+01-3.75961E-03-1.38531E-06 5.83918E-04-5.81113E-13 2.94481E-13
 -1      1661 1.99998E+01-3.69238E-03-8.08011E-06 1.07468E-03-2.60014E-13 1.99146E-13
 -1      1662 1.99998E+01-1.86710E-03 5.20243E-06 5.63072E-04-6.40092E-13 1.35908E-13
 -1      1663 1.99998E+01-2.53647E-03 1.56926E-06 5.75028E-04-5.66547E-13 1.17159E-13
 -1      1664 1.99998E+01-2.67372E-03 1.25381E-06 1.12560E-03-1.06438E-13 3.27634E-14
 -1      1665 1.99997E+01-8.83317E-04 2.12358E-06 4.32338E-04-3.91161E-13 1.98509E-13
 -1      1666 1.99998E+01-1.39129E-03 6.95689E-06 4.67747E-04-6.34256E-13 1.52806E-13
 -1      1667 1.99997E+01-1.67293E-03 1.10656E-05 9.94783E-04-1.90434E-13 1.29549E-13
 -1      1668 1.99997E+01-3.53874E-04-1.00627E-05 3.09961E-04-2.41017E-13-2.72865E-14
 -1      1669 1.99997E+01-6.13049E-04 5.94593E-06 3.95582E-04-2.86148E-13 6.80409E-14
 -1      1670 1.99996E+01-9.29932E-04 1.30747E-05 8.11270E-04-7.85709E-15 1.55498E-13
 -1      1671 1.99994E+01-4.43283E-04-2.49505E-06 6.14637E-04-3.30400E-14-6.72488E-14
 -1      1672-4.94848E-01-1.40124E+01-1.59153E+00-7.97798E-01 1.64774E-12 9.04415E-13
 -1      1673-5.28190E-01-1.61095E+01-1.76270E+00 3.82947E-01 5.86475E-13 6.58584E-13
 -1      1674 1.08075E+00-8.22140E+00-1.24337E+00 2.32998E-01 2.66187E-12 1.56217E-12
 -1      1675 4.66849E-01-1.30589E+01-1.73193E+00-2.52048E-01 2.00084E-12 1.00060E-12
 -1      1676 7.74344E+00-1.11833E+00-4.96518E-01 4.84680E+00 2.67653E-12 1.94567E-12
 -1      1677 4.61391E+00-6.37698E+00-1.18032E+00 2.09565E+00 2.54874E-12 1.56536E-12
 -1      1678 1.64955E+01 4.83582E+00 1.89214E-01 9.32613E+00 2.51743E-12 2.43316E-12
 -1      1679 1.06802E+01 1.42390E+00-6.24670E-01 5.86203E+00 2.85638E-12 2.17981E-12
 -1      1680 3.02553E+01 6.56337E+00 9.39793E-01 1.25745E+01 1.83187E-12 2.44449E-12
 -1      1681 2.14129E+01 5.87939E+00 7.65301E-02 1.02625E+01 2.32980E-12 2.47624E-12
 -1      1682 4.46731E+01 5.26404E+00 1.54466E+00 1.11228E+01 1.12205E-12 1.49414E-12
 -1      1683 3.55702E+01 6.77341E+00 8.57916E-01 1.22484E+01 1.61143E-12 2.18847E-12
 -1      1684 5.34376E+01 3.67665E+00 1.75678E+00 4.52647E+00 6.83398E-13-1.96509E-14
 -1      1685 4.82815E+01 5.14706E+00 1.47124E+00 9.10793E+00 9.86669E-13 1.02196E-12
 -1      1686 5.31291E+01 4.09089E+00 1.65319E+00-3.78710E+00 9.30922E-13-1.69370E-12
 -1      1687 5.38261E+01 3.88461E+00 1.68788E+00 1.82331E+00 7.79876E-13-5.29007E-13
 -1      1688 4.62989E+01 5.55411E+00 1.38084E+00-1.03758E+01 1.63140E-12-3.25084E-12
 -1      1689 5.24623E+01 3.91305E+00 1.78609E+00-6.47779E+00 1.06869E-12-2.32636E-12
 -1      1690 3.21357E+01 6.55070E+00 5.92589E-01-1.15264E+01 2.56267E-12-3.73412E-12
 -1      1691 4.18493E+01 5.47034E+00 1.38900E+00-1.12878E+01 1.86262E-12-3.43592E-12
 -1      1692 1.84443E+01 4.44931E+00-1.93663E-01-8.85487E+00 3.22442E-12-3.53628E-12
 -1      1693 2.68332E+01 5.88894E+00 6.78003E-01-1.16973E+01 2.81208E-12-3.83071E-12
 -1      1694 8.15519E+00-3.54451E-01-9.04924E-01-4.52511E+00 3.53273E-12-2.83218E-12
 -1      1695 1.31993E+01 3.62420E+00-1.00480E-01-7.99807E+00 3.51541E-12-3.44968E-12
 -1      1696 2.66877E+00-7.57304E+00-1.42787E+00-9.76519E-01 2.81408E-12-1.80034E-12
 -1      1697 4.77968E+00-2.20534E+00-7.87318E-01-3.12544E+00 3.41238E-12-2.54846E-12
 -1      1698 3.82351E-01-1.36032E+01-1.66065E+00-2.03176E-01 1.21381E-12-1.00991E-12
 -1      1699 9.06228E-01-9.21850E+00-1.25622E+00-3.18774E-01 2.28295E-12-1.52728E-12
 -1      1700-6.90241E-01-1.64204E+01-1.88319E+00-5.13340E-01-4.34031E-13-7.14540E-13
 -1      1701-7.29915E-01-1.52681E+01-1.75862E+00 9.42286E-01 8.21399E-13-7.94809E-13
 -1      1702-4.91122E-01-1.34318E+01-1.65438E+00-1.00716E+00-2.03970E-12-1.08656E-12
 -1      1703-4.68662E-01-1.61134E+01-1.89267E+00 1.09035E-02-9.40859E-13-7.66887E-13
 -1      1704 2.27239E+00-6.33068E+00-1.08812E+00 1.28604E+00-3.04201E-12-1.91397E-12
 -1      1705 1.15317E+00-1.16419E+01-1.62857E+00 1.95013E-01-2.32869E-12-1.29330E-12
 -1      1706 8.52569E+00 1.18762E+00-4.35748E-01 5.58966E+00-3.56515E-12-2.97229E-12
 -1      1707 4.79079E+00-4.14023E+00-1.22337E+00 2.32635E+00-3.38995E-12-2.25192E-12
 -1      1708 2.00864E+01 5.68175E+00 3.65823E-01 1.06152E+01-3.20743E-12-3.71125E-12
 -1      1709 1.29761E+01 2.92506E+00-5.18554E-01 7.03238E+00-3.48699E-12-3.24740E-12
 -1      1710 3.49228E+01 6.32200E+00 1.11612E+00 1.27070E+01-2.35645E-12-3.74101E-12
 -1      1711 2.54593E+01 6.58762E+00 3.03329E-01 1.12885E+01-2.99516E-12-3.79141E-12
 -1      1712 4.78132E+01 4.66818E+00 1.60657E+00 9.14425E+00-1.42263E-12-2.73648E-12
 -1      1713 3.98052E+01 6.22527E+00 1.02859E+00 1.12727E+01-2.00473E-12-3.37153E-12
 -1      1714 5.53282E+01 3.48442E+00 1.94424E+00 2.80587E+00-7.69218E-13-1.51174E-12
 -1      1715 5.14599E+01 4.54710E+00 1.66297E+00 7.66082E+00-1.15635E-12-2.49356E-12
 -1      1716 5.37716E+01 3.96259E+00 1.74471E+00-5.17210E+00-7.76434E-13 2.06890E-13
 -1      1717 5.58222E+01 3.45008E+00 1.94056E+00 2.51724E-01-6.98885E-13-9.34083E-13
 -1      1718 4.28896E+01 5.87075E+00 1.14373E+00-1.03083E+01-1.19647E-12 1.50480E-12
 -1      1719 5.04666E+01 4.22450E+00 1.66849E+00-6.96684E+00-8.32279E-13 6.23168E-13
 -1      1720 3.01836E+01 6.74421E+00 5.58144E-01-1.19273E+01-1.84008E-12 2.38431E-12
 -1      1721 3.87394E+01 5.89393E+00 1.23600E+00-1.22005E+01-1.31961E-12 2.05014E-12
 -1      1722 1.78535E+01 4.80174E+00-1.52947E-01-9.01840E+00-2.45826E-12 2.40763E-12
 -1      1723 2.53904E+01 6.22752E+00 6.50970E-01-1.17479E+01-2.03104E-12 2.49889E-12
 -1      1724 8.61609E+00-2.18651E-01-8.19996E-01-4.68582E+00-2.79399E-12 2.05014E-12
 -1      1725 1.34636E+01 3.58059E+00-5.24251E-02-7.98134E+00-2.61391E-12 2.28439E-12
 -1      1726 3.24616E+00-7.66063E+00-1.35914E+00-1.26281E+00-2.09432E-12 1.46883E-12
 -1      1727 5.65790E+00-2.35946E+00-7.01545E-01-3.58710E+00-2.53730E-12 1.93567E-12
 -1      1728 2.47923E-01-1.39064E+01-1.76708E+00 3.33979E-01-1.18228E-12 8.11670E-13
 -1      1729 6.51037E-01-9.51079E+00-1.34487E+00 1.84149E-01-2.02338E-12 1.38177E-12
 -1      1730-5.84765E-01-1.63466E+01-1.78625E+00-3.06419E-01 2.16924E-13 5.39624E-13
 -1      1731-5.83058E-01-1.47712E+01-1.66591E+00 9.36033E-01-7.75768E-13 7.02272E-13
 -1      1732 2.34721E+01 8.61191E-01 1.89894E-01 7.49728E+00 1.51867E-12 1.33171E-12
 -1      1733 1.42103E+01-3.67712E+00-4.22076E-01 6.38903E+00 1.39955E-12 1.11922E-12
 -1      1734 1.99997E+01-8.71616E-05 5.61402E-06-9.18933E-05-2.61238E-13 1.32260E-13
 -1      1735 1.99996E+01-3.26400E-04 3.69119E-06-3.50597E-04-5.14743E-14 3.96319E-13
 -1      1736 5.03452E-01-1.00060E+01-1.17996E+00 2.31744E+00 8.65086E-13 1.23063E-12
 -1      1737 6.44930E+00-7.05879E+00-7.00456E-01 4.96934E+00 1.22413E-12 1.26151E-12
 -1      1738-1.27247E+00-1.09112E+01-1.25460E+00 1.42094E-01 2.72657E-13 1.20670E-12
 -1      1739 3.39433E+01 4.08031E+00 8.24616E-01 7.25800E+00 1.37043E-12 1.06892E-12
 -1      1740 4.25849E+01 6.17821E+00 1.31199E+00 5.05243E+00 1.29258E-12 3.97238E-13
 -1      1741 4.58625E+01 7.59328E+00 1.43308E+00 1.35950E+00 1.34265E-12-3.20077E-13
 -1      1742 4.57500E+01 7.29818E+00 1.43449E+00-2.35459E+00 1.48798E-12-1.16562E-12
 -1      1743 4.08229E+01 5.67958E+00 1.15553E+00-5.30274E+00 1.68657E-12-1.94456E-12
 -1      1744 3.16908E+01 2.82222E+00 6.19726E-01-6.66696E+00 1.82887E-12-2.20601E-12
 -1      1745 2.11817E+01-3.10823E-01 9.50015E-02-7.21731E+00 2.06135E-12-2.35723E-12
 -1      1746 1.12261E+01-3.95733E+00-5.41519E-01-5.87988E+00 1.98963E-12-2.16027E-12
 -1      1747 4.27981E+00-7.52011E+00-9.36003E-01-4.08377E+00 1.25289E-12-1.78504E-12
 -1      1748-7.49151E-02-9.87104E+00-1.15436E+00-2.00716E+00 5.30409E-13-1.53744E-12
 -1      1749-1.27647E+00-1.12235E+01-1.36811E+00 4.66477E-01-3.71911E-13-1.42203E-12
 -1      1750 1.37455E+00-9.27907E+00-1.11485E+00 2.82760E+00-1.15286E-12-1.55032E-12
 -1      1751 7.26104E+00-6.10975E+00-7.88047E-01 4.91802E+00-1.76159E-12-1.81626E-12
 -1      1752 1.59261E+01-1.87846E+00-2.61130E-01 6.72299E+00-2.18336E-12-2.24715E-12
 -1      1753 2.66252E+01 1.96857E+00 3.97100E-01 7.68122E+00-2.10892E-12-2.42772E-12
 -1      1754 3.68252E+01 4.77101E+00 9.78153E-01 6.41055E+00-1.82529E-12-2.11109E-12
 -1      1755 4.41317E+01 6.53379E+00 1.33785E+00 3.79820E+00-1.51998E-12-1.64330E-12
 -1      1756 4.80773E+01 7.21045E+00 1.62646E+00 7.31087E-01-1.32949E-12-9.93247E-13
 -1      1757 4.51781E+01 6.87282E+00 1.32968E+00-2.43857E+00-1.27343E-12-1.27232E-13
 -1      1758 3.91140E+01 5.32772E+00 1.06606E+00-5.56770E+00-1.21340E-12 5.56555E-13
 -1      1759 3.03331E+01 2.99211E+00 6.17162E-01-7.48934E+00-1.36402E-12 1.25067E-12
 -1      1760 2.05948E+01-2.58819E-01 2.23053E-02-7.22174E+00-1.48037E-12 1.27642E-12
 -1      1761 1.19163E+01-4.28057E+00-5.07084E-01-5.95841E+00-1.22724E-12 1.25766E-12
 -1      1762 4.79467E+00-7.80464E+00-8.94051E-01-4.22987E+00-8.18901E-13 1.40381E-12
 -1      1763 5.67682E-02-1.04897E+01-1.24263E+00-1.94689E+00-3.98681E-13 1.28303E-12
 -1      1764 2.54917E+01 1.98824E+00-2.54600E-02-2.20282E+00-4.12028E-13 1.70128E-12
 -1      1765 2.07556E+01 3.72516E+00-4.14464E-02-1.03628E+00-5.05962E-13-5.53751E-13
 -1      1766 2.14750E+01 3.58501E+00-3.50898E-02-1.37671E+00-5.80464E-13-3.61031E-13
 -1      1767 2.22261E+01 3.16511E+00-5.12102E-02-1.60456E+00-5.94108E-13-1.24789E-13
 -1      1768 2.28704E+01 2.78807E+00-1.30611E-01-1.95635E+00-6.36428E-13 1.93998E-13
 -1      1769 2.21319E+01 2.63647E+00-4.87687E-03-1.18487E+00-6.10448E-13-1.99955E-13
 -1      1770 1.82840E+01 4.31621E+00-2.46749E-02-1.96686E-01-2.68945E-13-9.06749E-13
 -1      1771 1.88472E+01 4.28740E+00-6.66842E-03-3.65368E-01-3.33370E-13-8.58568E-13
 -1      1772 1.73089E+01 4.52082E+00-1.92033E-02-3.44331E-03-1.49807E-13-9.77813E-13
 -1      1773 1.77716E+01 4.50078E+00-1.45968E-03-9.52192E-02-2.09915E-13-9.47853E-13
 -1      1774 1.81406E+01 4.04705E+00-9.23013E-03-5.24279E-02-2.53835E-13-8.94259E-13
 -1      1775 1.66316E+01 4.67429E+00-1.36288E-02 4.14540E-02-5.02792E-14-1.01672E-12
 -1      1776 1.69303E+01 4.66164E+00-1.09218E-03 1.35689E-02-1.02198E-13-9.98255E-13
 -1      1777 1.71713E+01 4.33431E+00-5.00746E-03 7.55612E-02-1.26307E-13-9.65536E-13
 -1      1778 1.63466E+01 4.74905E+00-7.74980E-03-8.99614E-03 4.03291E-14-1.02475E-12
 -1      1779 1.64373E+01 4.74658E+00-4.28403E-03-3.04325E-03-1.29931E-15-1.02951E-12
 -1      1780 1.65466E+01 4.52355E+00-1.29218E-03 5.47323E-02-2.36185E-14-1.00532E-12
 -1      1781 1.64966E+01 4.72706E+00-2.73926E-03-7.22740E-02 1.22961E-13-1.00254E-12
 -1      1782 1.63663E+01 4.73584E+00-9.43719E-03-7.14335E-02 7.93914E-14-1.01594E-12
 -1      1783 1.63583E+01 4.57564E+00-2.32848E-04-4.82298E-02 6.41597E-14-1.00416E-12
 -1      1784 1.70505E+01 4.61463E+00-3.89611E-04-6.15234E-02 2.15388E-13-9.63154E-13
 -1      1785 1.67242E+01 4.63261E+00-1.48404E-02-1.02924E-01 1.72473E-13-9.92905E-13
 -1      1786 1.66335E+01 4.47854E+00-2.45884E-03-1.36464E-01 1.57087E-13-9.81149E-13
 -1      1787 1.79020E+01 4.44205E+00-1.56531E-03 8.34124E-02 3.22549E-13-8.68170E-13
 -1      1788 1.74395E+01 4.46425E+00-1.96547E-02-2.31673E-02 2.63629E-13-9.22086E-13
 -1      1789 1.73130E+01 4.26011E+00-6.43224E-03-1.20056E-01 2.54085E-13-9.12200E-13
 -1      1790 1.89757E+01 4.22504E+00-7.03123E-03 3.94627E-01 4.42381E-13-7.16909E-13
 -1      1791 1.84126E+01 4.25552E+00-2.47537E-02 2.06873E-01 3.75596E-13-8.01441E-13
 -1      1792 1.82927E+01 3.96323E+00-1.05940E-02 5.18302E-02 3.66763E-13-8.01407E-13
 -1      1793 2.01827E+01 3.95034E+00-1.86917E-02 8.65787E-01 5.60800E-13-5.06078E-13
 -1      1794 1.95588E+01 4.00762E+00-3.19612E-02 5.95620E-01 4.94479E-13-6.25541E-13
 -1      1795 1.94752E+01 3.61173E+00-1.23715E-02 3.84036E-01 4.89826E-13-6.25718E-13
 -1      1796 2.15168E+01 3.51831E+00-4.13395E-02 1.46025E+00 6.60531E-13-1.52822E-13
 -1      1797 2.08232E+01 3.66507E+00-4.47158E-02 1.11427E+00 6.01312E-13-3.57641E-13
 -1      1798 2.07852E+01 3.18054E+00-8.93174E-03 8.30157E-01 6.03088E-13-3.86972E-13
 -1      1799 2.31423E+01 2.65065E+00-5.46703E-02 2.02691E+00 6.52800E-13 4.95284E-13
 -1      1800 2.22709E+01 3.07090E+00-5.36979E-02 1.69069E+00 6.46627E-13 1.02661E-13
 -1      1801 2.22328E+01 2.53248E+00 3.39324E-03 1.26853E+00 6.74924E-13 2.11636E-15
 -1      1802 2.43686E+01 1.15319E+00-1.23259E-01 1.68558E+00 5.65319E-13 1.31076E-12
 -1      1803 2.37115E+01 2.22489E+00-1.98290E-03 1.99275E+00 6.11471E-13 7.80903E-13
 -1      1804 2.33333E+01 1.60107E+00-1.86975E-02 1.31630E+00 6.72847E-13 5.06765E-13
 -1      1805 2.38121E+01 7.18756E-01-5.54819E-02 8.86943E-01 5.74416E-13 1.13971E-12
 -1      1806 2.43835E+01 2.42752E+00 8.19585E-02-2.31309E+00-5.55769E-13 7.46764E-13
 -1      1807 2.33481E+01 2.28963E-01-7.45203E-03 1.13323E-01 4.58474E-13 8.71574E-13
 -1      1808 2.36673E+01 3.75683E-01-1.20882E-02 4.53412E-01 4.81566E-13 1.04091E-12
 -1      1809 2.35166E+01 7.51202E-01-2.20842E-03 7.10190E-01 5.72081E-13 6.80542E-13
 -1      1810 2.40335E+01 1.68200E+00 7.71953E-02-1.52798E+00-5.89133E-13 5.24941E-13
 -1      1811 2.35625E+01 4.16048E-01 3.32164E-02-2.09696E-01-4.64868E-13 4.61864E-13
 -1      1812 2.33518E+01 2.46079E-01 3.62448E-03 2.45316E-02-3.98643E-13 3.43309E-13
 -1      1813 2.33297E+01 1.24306E-01 2.61401E-02 1.92335E-01-3.47035E-13 3.48130E-13
 -1      1814 2.33097E+01-3.36953E-03-1.04196E-03 2.37170E-01-2.93082E-13 2.54380E-13
 -1      1815 2.30929E+01 2.97932E-01-9.49781E-03 5.79512E-02-4.34480E-13 1.00499E-13
 -1      1816 2.33735E+01-1.01874E-01 1.51915E-02 2.31985E-01-2.39019E-13 2.59584E-13
 -1      1817 2.33766E+01-2.12629E-01-1.16637E-02 1.45697E-01-1.91981E-13 1.93540E-13
 -1      1818 2.31243E+01-7.70977E-02-7.68383E-03 2.63649E-01-3.17158E-13 8.92212E-14
 -1      1819 2.34816E+01-3.00782E-01 7.08864E-03-1.20290E-02-1.57554E-13 2.17616E-13
 -1      1820 2.34130E+01-3.90555E-01-1.85641E-02-2.07442E-01-1.48741E-13 1.79775E-13
 -1      1821 2.32869E+01-3.86285E-01-4.14689E-03 1.02855E-01-2.02545E-13 8.86522E-14
 -1      1822 2.34960E+01-4.45457E-01 1.24507E-03-4.88981E-01-1.44297E-13 2.04545E-13
 -1      1823 2.32936E+01-4.72523E-01-1.70226E-02-7.48427E-01-9.95462E-14 1.46027E-13
 -1      1824 2.34689E+01-6.19922E-01 2.11713E-03-3.68134E-01-1.52670E-13 1.21462E-13
 -1      1825 2.32775E+01-4.46102E-01-5.41648E-03-1.07324E+00-8.77883E-14 1.53242E-13
 -1      1826 2.29345E+01-3.53802E-01-4.91860E-03-1.29890E+00-1.14350E-13 1.18069E-13
 -1      1827 2.35379E+01-6.65913E-01 9.94924E-03-1.03761E+00-1.25392E-13 9.07137E-14
 -1      1828 2.27612E+01-2.03406E-01-1.19380E-02-1.51026E+00-1.31420E-13 1.09048E-13
 -1      1829 2.23460E+01 2.20385E-02 1.33260E-02-1.56099E+00-1.83359E-13 8.37524E-14
 -1      1830 2.33639E+01-3.84774E-01 1.29674E-02-1.65228E+00-1.62840E-13 1.03226E-13
 -1      1831 2.20509E+01 2.67530E-01-1.27027E-02-1.47590E+00-2.69430E-13 6.21395E-14
 -1      1832 2.17000E+01 5.34307E-01 2.46191E-02-1.24818E+00-2.72511E-13 2.17864E-14
 -1      1833 2.29166E+01 2.35932E-01 3.47502E-03-1.82598E+00-2.40856E-13 8.78967E-14
 -1      1834 2.14492E+01 7.42959E-01-2.26487E-03-8.01543E-01-2.96064E-13-7.63157E-14
 -1      1835 2.13088E+01 8.78464E-01 1.82046E-02-3.40382E-01-3.08503E-13-1.81311E-13
 -1      1836 2.23840E+01 9.37113E-01-1.75585E-02-1.25161E+00-3.56786E-13-4.53654E-14
 -1      1837 2.12950E+01 8.96744E-01 1.48216E-02 2.92601E-01-3.15921E-13-3.20152E-13
 -1      1838 2.14355E+01 7.96475E-01 3.93975E-04 7.74101E-01-2.27899E-13-4.32237E-13
 -1      1839 2.21225E+01 1.28342E+00-3.14844E-02-3.09121E-02-3.88370E-13-2.28899E-13
 -1      1840 2.16768E+01 6.09021E-01 2.36224E-02 1.26783E+00-1.62271E-13-5.43402E-13
 -1      1841 2.20442E+01 3.49201E-01-1.23845E-02 1.53971E+00-8.31462E-14-6.34619E-13
 -1      1842 2.23492E+01 1.02552E+00-2.15928E-02 1.24599E+00-2.85914E-13-4.08896E-13
 -1      1843 2.23616E+01 9.47845E-02 1.49838E-02 1.67830E+00-1.78082E-14-7.32693E-13
 -1      1844 2.28124E+01-1.51235E-01-1.34947E-02 1.66213E+00 1.38117E-14-7.20961E-13
 -1      1845 2.28989E+01 3.46491E-01 1.36626E-03 1.93811E+00-1.23227E-13-6.26938E-13
 -1      1846 2.30166E+01-3.26880E-01-3.60795E-03 1.47300E+00-1.34432E-14-7.62768E-13
 -1      1847 2.34018E+01-4.48801E-01-8.56325E-03 1.25310E+00-1.42247E-16-7.44513E-13
 -1      1848 2.34019E+01-3.25459E-01 1.45900E-02 1.84702E+00-2.50867E-14-6.93573E-13
 -1      1849 2.34298E+01-5.01230E-01-1.83293E-02 9.07983E-01-1.27086E-14-7.75782E-13
 -1      1850 2.36588E+01-5.00000E-01-3.93620E-03 6.23156E-01 3.76574E-14-6.91808E-13
 -1      1851 2.36196E+01-6.87263E-01 1.35887E-02 1.22878E+00 1.26808E-15-8.03873E-13
 -1      1852 2.35486E+01-4.65333E-01-2.30543E-02 2.83659E-01 4.79061E-14-5.99300E-13
 -1      1853 2.36035E+01-3.97624E-01-1.51470E-03 3.64511E-02 5.97933E-14-5.31212E-13
 -1      1854 2.35366E+01-7.15251E-01 7.07372E-03 4.65653E-01 6.02495E-14-6.64906E-13
 -1      1855 2.34187E+01-3.29482E-01-1.98235E-02-2.14259E-01 2.60382E-14-5.20743E-13
 -1      1856 2.33307E+01-2.48111E-01-5.87847E-04-3.81363E-01 3.97720E-14-5.53871E-13
 -1      1857 2.32517E+01-5.48434E-01 1.68594E-03-1.79354E-01 5.83830E-14-5.59238E-13
 -1      1858 2.31195E+01-1.82344E-01-1.31873E-02-5.27586E-01 1.39107E-14-5.34098E-13
 -1      1859 2.29382E+01-1.15414E-01-1.64820E-04-6.14959E-01-1.81534E-14-5.39546E-13
 -1      1860 2.28682E+01-3.30769E-01-1.14209E-03-6.07437E-01 1.31301E-14-4.91238E-13
 -1      1861 2.27278E+01-6.65235E-02-6.54053E-03-6.75206E-01-8.49334E-14-4.91825E-13
 -1      1862 2.25006E+01-2.17620E-02 2.15621E-04-7.02079E-01-4.21076E-14-5.22261E-13
 -1      1863 2.24560E+01-1.44550E-01-2.23660E-03-8.27045E-01-3.30977E-14-4.61266E-13
 -1      1864 2.23045E+01 8.88063E-03-1.43197E-03-7.03944E-01-1.18704E-14-5.15409E-13
 -1      1865 2.20671E+01 3.40179E-02 6.14386E-04-6.92407E-01 1.04021E-14-5.93727E-13
 -1      1866 2.20544E+01-1.60133E-02-2.55017E-03-8.90120E-01-8.48918E-14-3.58913E-13
 -1      1867 2.18914E+01 5.02825E-02 1.85270E-03-6.60411E-01 4.39523E-14-6.00520E-13
 -1      1868 2.16668E+01 6.14065E-02 9.59980E-04-6.28410E-01-8.83625E-16-5.49016E-13
 -1      1869 2.16838E+01 5.89020E-02-2.57878E-03-8.53476E-01 4.14807E-14-3.83463E-13
 -1      1870 2.15138E+01 6.80165E-02 3.60757E-03-5.80390E-01 1.33938E-13-4.45470E-13
 -1      1871 2.13143E+01 7.04102E-02 1.19269E-03-5.40203E-01 2.33659E-13-3.03312E-13
 -1      1872 2.13542E+01 9.43931E-02-2.50068E-03-7.62954E-01 1.41207E-13-2.68616E-13
 -1      1873 2.11843E+01 7.12420E-02 4.28173E-03-4.87609E-01 1.20971E-13-2.75800E-13
 -1      1874 2.10149E+01 6.88223E-02 1.29807E-03-4.46663E-01 1.29922E-13-2.40088E-13
 -1      1875 2.10693E+01 1.04703E-01-2.36373E-03-6.50257E-01 1.75482E-13-1.25793E-13
 -1      1876 2.09068E+01 6.65731E-02 4.28348E-03-3.96092E-01 1.36772E-13-2.66570E-13
 -1      1877 2.07678E+01 6.18979E-02 1.29478E-03-3.58359E-01 1.05719E-13-2.15372E-13
 -1      1878 2.08291E+01 1.00721E-01-2.18034E-03-5.34982E-01 1.09354E-13-3.31974E-13
 -1      1879 2.06797E+01 5.82662E-02 3.91812E-03-3.13132E-01 3.87177E-14-2.19622E-13
 -1      1880 2.05687E+01 5.28615E-02 1.21429E-03-2.80378E-01-8.32515E-15-2.12112E-13
 -1      1881 2.06311E+01 8.97098E-02-1.96093E-03-4.27950E-01 9.02252E-14-3.79977E-13
 -1      1882 2.04983E+01 4.88389E-02 3.38859E-03-2.41789E-01-2.05643E-14-2.47638E-13
 -1      1883 2.04117E+01 4.35413E-02 1.08787E-03-2.14483E-01-5.46254E-14-2.59184E-13
 -1      1884 2.04711E+01 7.60873E-02-1.71972E-03-3.34230E-01 1.87312E-14-3.39668E-13
 -1      1885 2.03565E+01 3.96631E-02 2.81805E-03-1.82653E-01-1.21550E-13-2.29434E-13
 -1      1886 2.02905E+01 3.48832E-02 9.40670E-04-1.60566E-01-6.15623E-14-2.41771E-13
 -1      1887 2.03443E+01 6.23316E-02-1.47234E-03-2.55395E-01-2.87485E-14-3.27083E-13
 -1      1888 2.02479E+01 3.14076E-02 2.27458E-03-1.35000E-01-2.41660E-14-1.73914E-13
 -1      1889 2.01986E+01 2.73071E-02 7.90405E-04-1.17566E-01 4.55412E-14-1.75649E-13
 -1      1890 2.02457E+01 4.97025E-02-1.23258E-03-1.91051E-01-5.13288E-14-2.25501E-13
 -1      1891 2.01664E+01 2.43321E-02 1.79127E-03-9.74885E-02-3.38670E-14-2.63891E-13
 -1      1892 2.01304E+01 2.09349E-02 6.48284E-04-8.40198E-02-1.74531E-13-3.30835E-13
 -1      1893 2.01705E+01 3.87382E-02-1.01059E-03-1.39807E-01-7.43746E-14-2.28404E-13
 -1      1894 2.01066E+01 1.84698E-02 1.38017E-03-6.85723E-02-2.05460E-13-2.70244E-13
 -1      1895 2.00809E+01 1.57295E-02 5.20530E-04-5.83759E-02-1.11115E-13-2.94974E-13
 -1      1896 2.01141E+01 2.95711E-02-8.12558E-04-9.98624E-02-1.31386E-13-1.74209E-13
 -1      1897 2.00636E+01 1.37379E-02 1.04160E-03-4.67240E-02-1.32105E-13-2.45844E-13
 -1      1898 2.00459E+01 1.15761E-02 4.09889E-04-3.91606E-02-1.58418E-13-1.73644E-13
 -1      1899 2.00728E+01 2.21195E-02-6.41272E-04-6.93425E-02-1.13771E-13-5.42816E-14
 -1      1900 2.00337E+01 1.00011E-02 7.69769E-04-3.05485E-02-2.53897E-13-1.43982E-13
 -1      1901 2.00218E+01 8.32961E-03 3.16833E-04-2.50588E-02-1.22300E-13-2.71911E-13
 -1      1902 2.00432E+01 1.62002E-02-4.96951E-04-4.64816E-02-1.95659E-13-7.47008E-14
 -1      1903 2.00134E+01 7.10819E-03 5.56206E-04-1.88317E-02-9.86966E-14-4.00978E-13
 -1      1904 2.00059E+01 5.84046E-03 2.40456E-04-1.49434E-02 3.66473E-14-4.41899E-13
 -1      1905 2.00226E+01 1.15929E-02-3.78106E-04-2.97092E-02-1.65444E-13-6.49442E-14
 -1      1906 2.00004E+01 4.91099E-03 3.91731E-04-1.05521E-02 1.24878E-13-5.56670E-13
 -1      1907 1.99960E+01 3.96837E-03 1.79103E-04-7.87680E-03 1.04455E-13-5.34175E-13
 -1      1908 2.00088E+01 8.07536E-03-2.82246E-04-1.76819E-02 7.83154E-15-3.63664E-13
 -1      1909 1.99925E+01 3.27464E-03 2.67495E-04-4.87173E-03 1.08799E-13-5.58946E-13
 -1      1910 1.99902E+01 2.58859E-03 1.30785E-04-3.09746E-03 8.64500E-14-4.03505E-13
 -1      1911 1.99998E+01 5.44151E-03-2.06401E-04-9.28245E-03 1.47690E-13-3.24465E-13
 -1      1912 1.99883E+01 2.08149E-03 1.75509E-04-1.11846E-03-5.57241E-15-3.56124E-13
 -1      1913 1.99874E+01 1.59416E-03 9.34504E-05 8.06167E-07-5.08025E-15-3.54297E-13
 -1      1914 1.99945E+01 3.50967E-03-1.47495E-04-3.60401E-03 9.36484E-14-3.00067E-14
 -1      1915 1.99865E+01 1.23206E-03 1.08856E-04 1.23671E-03 1.09126E-13-3.94362E-13
 -1      1916 1.99866E+01 8.95784E-04 6.51373E-05 1.89128E-03 1.01562E-13-3.68873E-13
 -1      1917 1.99917E+01 2.12503E-03-1.02581E-04 7.51291E-05 4.59296E-14-1.98733E-14
 -1      1918 1.99864E+01 6.44216E-04 6.17247E-05 2.60226E-03 3.94786E-14-3.41845E-13
 -1      1919 1.99870E+01 4.20462E-04 4.40586E-05 2.93657E-03-2.82042E-14-3.12590E-13
 -1      1920 1.99905E+01 1.15896E-03-6.89733E-05 2.31822E-03 5.84382E-14-1.22548E-13
 -1      1921 1.99872E+01 2.51402E-04 2.93481E-05 3.28756E-03-2.74005E-14-2.41114E-13
 -1      1922 1.99882E+01 1.09487E-04 2.86332E-05 3.40890E-03-5.77519E-14-1.75901E-13
 -1      1923 1.99905E+01 5.06713E-04-4.43165E-05 3.55653E-03-9.81780E-15-6.97782E-14
 -1      1924 1.99886E+01 4.63398E-07 7.89040E-06 3.52178E-03-1.13948E-13-1.58905E-13
 -1      1925 1.99897E+01-8.37865E-05 1.74839E-05 3.50781E-03-7.03401E-14-9.37055E-14
 -1      1926 1.99911E+01 8.43350E-05-2.66018E-05 4.11347E-03-8.26715E-14 8.41804E-14
 -1      1927 1.99903E+01-1.50655E-04-5.67852E-06 3.47011E-03-4.10240E-14-6.69541E-14
 -1      1928 1.99914E+01-1.96233E-04 9.41601E-06 3.37501E-03 1.70664E-13 1.04340E-13
 -1      1929 1.99922E+01-1.74784E-04-1.41587E-05 4.22563E-03 6.68712E-14 3.13701E-13
 -1      1930 1.99920E+01-2.35213E-04-1.37071E-05 3.24697E-03 4.46616E-13-4.82294E-14
 -1      1931 1.99931E+01-2.57190E-04 3.39570E-06 3.10630E-03 5.16177E-13 1.23809E-13
 -1      1932 1.99934E+01-3.23332E-04-5.63068E-06 4.06036E-03 2.00556E-13 2.82700E-13
 -1      1933 1.99937E+01-2.79860E-04-1.79558E-05 2.92644E-03 2.68249E-13 1.53868E-13
 -1      1934 1.99947E+01-2.90513E-04-1.43146E-06 2.76071E-03 2.42544E-13 1.90815E-13
 -1      1935 1.99946E+01-4.03377E-04 5.48294E-08 3.73001E-03 3.50411E-13 1.92705E-13
 -1      1936 1.99953E+01-3.06563E-04-1.96326E-05 2.55017E-03 2.69854E-13 1.26673E-13
 -1      1937 1.99961E+01-3.16252E-04-5.64849E-06 2.36746E-03 2.71338E-13 2.60388E-13
 -1      1938 1.99958E+01-4.49307E-04 3.72802E-06 3.30306E-03 1.91020E-13 1.64003E-13
 -1      1939 1.99967E+01-3.33973E-04-1.93794E-05 2.13353E-03 1.07513E-13 2.52851E-13
 -1      1940 1.99974E+01-3.51285E-04-9.23108E-06 1.93160E-03 3.29262E-14 1.41729E-13
 -1      1941 1.99969E+01-4.89934E-04 5.96644E-06 2.81319E-03 1.72012E-13 1.85858E-13
 -1      1942 1.99978E+01-3.77597E-04-1.73704E-05 1.67237E-03 4.30206E-14-8.96032E-14
 -1      1943 1.99984E+01-4.05963E-04-1.17715E-05 1.44139E-03 1.49097E-13-2.34294E-14
 -1      1944 1.99979E+01-5.48068E-04 6.62872E-06 2.26798E-03-1.30484E-13 5.12157E-14
 -1      1945 1.99987E+01-4.25178E-04-1.42750E-05 1.16740E-03 1.55897E-13-3.38619E-14
 -1      1946 1.99991E+01-4.54879E-04-1.45715E-05 9.11277E-04 9.66764E-14-9.59255E-14
 -1      1947 1.99992E+01-6.39476E-04 6.84206E-06 1.07151E-03 1.19915E-13 6.25403E-14
 -1      1948 1.99986E+01-6.12193E-04 1.03539E-05 1.67898E-03 1.09493E-13-5.16266E-14
 -1      1949 2.32197E+01 3.90809E-02 3.52586E-03-1.46731E-01 3.46590E-13 6.68094E-13
 -1      1950 2.33000E+01 1.17948E-01 1.41656E-02-3.46385E-02 3.84179E-13 8.16951E-13
 -1      1951 2.32104E+01 2.25504E-01-4.96364E-03 6.00088E-02 4.62713E-13 5.38441E-13
 -1      1952 2.32327E+01-9.51527E-02-1.70284E-03-1.24741E-01 2.12922E-13 5.22387E-13
 -1      1953 2.32343E+01-3.83020E-02 9.16086E-03-1.42429E-01 2.57044E-13 6.32159E-13
 -1      1954 2.31361E+01-2.54741E-02-2.93079E-03-1.39608E-01 3.23787E-13 4.59121E-13
 -1      1955 2.32224E+01-2.07043E-01-5.96360E-03 1.18167E-01 1.37750E-13 4.64759E-13
 -1      1956 2.32588E+01-1.64584E-01 1.37363E-03-3.90118E-03 1.30000E-13 4.88802E-13
 -1      1957 2.31738E+01-2.08601E-01-3.08286E-04-2.46235E-02 1.93540E-13 3.54070E-13
 -1      1958 2.30455E+01-2.73446E-01-5.30814E-03 5.27834E-01 3.99620E-14 4.59269E-13
 -1      1959 2.31949E+01-2.59529E-01-3.56804E-03 3.25077E-01 9.25666E-14 4.88310E-13
 -1      1960 2.31799E+01-3.43473E-01 4.35130E-03 3.37114E-01 1.01781E-13 3.27301E-13
 -1      1961 2.26094E+01-2.40673E-01 2.02667E-04 9.84439E-01 6.41119E-14 4.28046E-13
 -1      1962 2.29082E+01-2.78350E-01-5.06786E-03 7.59055E-01 4.57048E-14 4.55330E-13
 -1      1963 2.30288E+01-3.78597E-01 9.89294E-03 8.48981E-01 6.93464E-14 3.19451E-13
 -1      1964 2.19198E+01-6.65454E-02 6.42827E-03 1.27743E+00 7.87382E-14 3.44506E-13
 -1      1965 2.23424E+01-1.65296E-01-3.40677E-03 1.13257E+00 8.32546E-14 3.81530E-13
 -1      1966 2.26415E+01-2.42128E-01 1.25370E-02 1.32214E+00 9.79451E-14 3.19920E-13
 -1      1967 2.11328E+01 2.14138E-01 6.38177E-03 1.17458E+00 2.14826E-13 1.91409E-13
 -1      1968 2.15792E+01 8.58785E-02 6.14076E-04 1.22055E+00 1.39062E-13 2.81221E-13
 -1      1969 2.20473E+01 7.94640E-02 6.91611E-03 1.48542E+00 1.93978E-13 2.23661E-13
 -1      1970 2.05438E+01 4.63543E-01-1.49402E-03 5.85245E-01 1.72102E-13 1.05818E-13
 -1      1971 2.08606E+01 3.78351E-01 6.37406E-03 8.59565E-01 2.07064E-13 1.26212E-13
 -1      1972 2.14338E+01 4.71377E-01-6.51614E-03 1.11638E+00 2.59107E-13 1.42828E-13
 -1      1973 2.04527E+01 5.15149E-01-9.58646E-03-2.94390E-01 2.54335E-13-8.38739E-14
 -1      1974 2.05002E+01 5.35923E-01 1.21453E-02 1.07924E-01 2.43895E-13 2.69489E-15
 -1      1975 2.10968E+01 7.16555E-01-1.62609E-02 2.42940E-01 2.86701E-13 1.08659E-14
 -1      1976 2.09360E+01 3.33415E-01-9.47200E-03-1.06404E+00 1.36152E-13-2.45729E-13
 -1      1977 2.06773E+01 4.49236E-01 1.35557E-02-7.17689E-01 1.94747E-13-1.82809E-13
 -1      1978 2.12375E+01 6.54648E-01-1.24203E-02-7.73454E-01 2.56328E-13-2.43228E-13
 -1      1979 2.17795E+01 4.23262E-02-1.52089E-03-1.40008E+00 1.37135E-13-4.24681E-13
 -1      1980 2.13106E+01 1.79843E-01 8.35299E-03-1.24842E+00 1.19911E-13-2.93193E-13
 -1      1981 2.17878E+01 3.22979E-01-1.03970E-03-1.46851E+00 1.82408E-13-3.81226E-13
 -1      1982 2.26320E+01-1.90144E-01 6.94296E-03-1.25695E+00-1.11942E-14-4.30201E-13
 -1      1983 2.21243E+01-1.01775E-01-7.25770E-04-1.31192E+00 6.41457E-14-4.36559E-13
 -1      1984 2.24696E+01-7.60425E-02 5.70900E-03-1.59737E+00 1.03324E-13-4.74091E-13
 -1      1985 2.32309E+01-2.87283E-01 1.04073E-02-8.18763E-01 2.80756E-14-4.47690E-13
 -1      1986 2.28337E+01-2.66878E-01-8.30027E-03-9.99075E-01-6.84001E-15-4.36203E-13
 -1      1987 2.30091E+01-3.45920E-01 4.88456E-03-1.24759E+00 4.31842E-14-5.65234E-13
 -1      1988 2.34851E+01-2.69137E-01 8.92695E-03-3.15547E-01 4.69720E-14-3.92676E-13
 -1      1989 2.32706E+01-2.96215E-01-1.16855E-02-5.24329E-01 3.08451E-14-4.25464E-13
 -1      1990 2.32764E+01-4.24650E-01 1.25717E-03-6.77375E-01 2.48248E-14-5.56889E-13
 -1      1991 2.34321E+01-1.93994E-01 5.09736E-03 9.89517E-02 1.48731E-13-3.66934E-13
 -1      1992 2.33993E+01-2.38615E-01-1.12078E-02-7.44291E-02 1.02671E-13-3.41411E-13
 -1      1993 2.32739E+01-3.63643E-01-1.62879E-03-1.21409E-01 1.29196E-13-4.14435E-13
 -1      1994 2.31651E+01-1.10821E-01 1.55830E-03 3.69394E-01 1.30752E-13-2.46809E-13
 -1      1995 2.32708E+01-1.52378E-01-8.53133E-03 2.54609E-01 1.52266E-13-2.54385E-13
 -1      1996 2.30700E+01-2.44423E-01-2.43791E-03 2.94226E-01 1.28896E-13-3.73112E-13
 -1      1997 2.27785E+01-4.39716E-02-6.65665E-04 5.05342E-01-1.30158E-13-2.68029E-13
 -1      1998 2.29689E+01-7.42025E-02-5.21545E-03 4.45868E-01 1.38240E-14-2.39873E-13
 -1      1999 2.27440E+01-1.27570E-01-2.01892E-03 5.42471E-01 2.46049E-14-2.36640E-13
 -1      2000 2.23471E+01 6.17933E-04-1.64023E-03 5.41962E-01-1.86869E-13-2.84720E-13
 -1      2001 2.25753E+01-1.77253E-02-2.23818E-03 5.23790E-01-1.31792E-13-2.80559E-13
 -1      2002 2.23618E+01-3.93313E-02-1.29699E-03 6.49668E-01-1.17858E-13-2.40729E-13
 -1      2003 2.19212E+01 2.58938E-02-1.80599E-03 5.16397E-01-2.52555E-14-2.63613E-13
 -1      2004 2.21536E+01 1.68665E-02-2.04193E-05 5.24454E-01-1.51450E-13-2.82859E-13
 -1      2005 2.19707E+01 1.65905E-02-7.38584E-04 6.58570E-01-1.42570E-13-2.42199E-13
 -1      2006 2.15309E+01 3.73683E-02-1.56889E-03 4.58089E-01 1.76892E-13-2.98303E-13
 -1      2007 2.17470E+01 3.45579E-02 1.38836E-03 4.80285E-01 6.31461E-14-3.32694E-13
 -1      2008 2.16012E+01 4.63389E-02-4.44281E-04 6.08894E-01 6.35906E-14-2.58792E-13
 -1      2009 2.11907E+01 4.01560E-02-1.19483E-03 3.87054E-01-4.28446E-14-2.71000E-13
 -1      2010 2.13800E+01 4.10022E-02 2.12704E-03 4.15077E-01 1.23658E-13-2.13796E-13
 -1      2011 2.12705E+01 5.81785E-02-3.47454E-04 5.30486E-01 8.46415E-14-2.98544E-13
 -1      2012 2.09052E+01 3.80686E-02-8.24132E-04 3.15414E-01-1.67186E-13-2.96228E-13
 -1      2013 2.10642E+01 4.07773E-02 2.38699E-03 3.44159E-01-1.95396E-13-3.42784E-13
 -1      2014 2.09861E+01 5.91789E-02-3.53691E-04 4.43018E-01-1.23789E-13-1.80323E-13
 -1      2015 2.06726E+01 3.36258E-02-5.15034E-04 2.49677E-01-7.67069E-14-3.99079E-14
 -1      2016 2.08018E+01 3.70650E-02 2.34352E-03 2.76347E-01-1.07135E-13-1.84178E-13
 -1      2017 2.07491E+01 5.43872E-02-3.92611E-04 3.58099E-01-1.21196E-13-5.71604E-14
 -1      2018 2.04879E+01 2.83568E-02-2.81344E-04 1.92740E-01-5.75668E-14-6.20775E-14
 -1      2019 2.05900E+01 3.18722E-02 2.13121E-03 2.16038E-01-6.48314E-14-9.27750E-14
 -1      2020 2.05568E+01 4.70359E-02-4.25258E-04 2.81745E-01-7.01972E-14 1.77184E-15
 -1      2021 2.03445E+01 2.31194E-02-1.16770E-04 1.45355E-01 1.21113E-13-4.11197E-15
 -1      2022 2.04232E+01 2.63682E-02 1.84241E-03 1.64887E-01 2.09971E-14-1.22586E-14
 -1      2023 2.04042E+01 3.90273E-02-4.36370E-04 2.16417E-01 4.44848E-14-3.68211E-14
 -1      2024 2.02354E+01 1.83487E-02-8.17416E-06 1.07098E-01 1.16890E-13 1.06597E-14
 -1      2025 2.02949E+01 2.11786E-02 1.53508E-03 1.22973E-01 1.10097E-13 5.03423E-14
 -1      2026 2.02859E+01 3.13878E-02-4.24567E-04 1.62485E-01 1.08185E-13-2.75245E-14
 -1      2027 2.01544E+01 1.42277E-02 5.82297E-05 7.69759E-02-6.95299E-15 9.90870E-14
 -1      2028 2.01982E+01 1.65959E-02 1.24243E-03 8.95559E-02 3.16360E-14 1.04210E-13
 -1      2029 2.01959E+01 2.46049E-02-3.94730E-04 1.19195E-01 5.04887E-14 1.38489E-13
 -1      2030 2.00955E+01 1.07964E-02 9.44434E-05 5.37820E-02-2.05966E-14 8.14757E-14
 -1      2031 2.01270E+01 1.27197E-02 9.81264E-04 6.35313E-02-3.89624E-15 1.56125E-13
 -1      2032 2.01289E+01 1.88533E-02-3.53422E-04 8.52673E-02 4.18140E-14 2.04230E-13
 -1      2033 2.00538E+01 8.01874E-03 1.10032E-04 3.62995E-02-4.68408E-14-7.29787E-14
 -1      2034 2.00758E+01 9.54274E-03 7.58108E-04 4.36980E-02-5.62820E-15-6.75899E-14
 -1      2035 2.00801E+01 1.41346E-02-3.06654E-04 5.92478E-02 4.85284E-14 2.28822E-13
 -1      2036 2.00251E+01 5.82235E-03 1.12222E-04 2.34040E-02 1.13498E-13-2.06423E-13
 -1      2037 2.00401E+01 7.00399E-03 5.73484E-04 2.89016E-02-2.61321E-14-2.16964E-13
 -1      2038 2.00456E+01 1.03635E-02-2.59071E-04 3.97095E-02 8.51565E-14-1.80095E-13
 -1      2039 2.00063E+01 4.12190E-03 1.06264E-04 1.41107E-02-4.31759E-14-1.35462E-13
 -1      2040 2.00159E+01 5.01940E-03 4.24656E-04 1.81059E-02 6.76372E-14-1.26994E-13
 -1      2041 2.00218E+01 7.41662E-03-2.13843E-04 2.53531E-02 4.22368E-14-2.92623E-13
 -1      2042 1.99945E+01 2.83186E-03 9.58442E-05 7.58873E-03-9.56362E-14-1.18818E-13
 -1      2043 2.00003E+01 3.49952E-03 3.07345E-04 1.04205E-02-6.61772E-14-2.64454E-14
 -1      2044 2.00060E+01 5.16140E-03-1.72874E-04 1.50507E-02-3.94077E-14 1.22989E-14
 -1      2045 1.99877E+01 1.87323E-03 8.34578E-05 3.15587E-03 9.23074E-14-2.73736E-13
 -1      2046 1.99909E+01 2.35901E-03 2.16770E-04 5.10481E-03-4.95798E-14-2.05234E-13
 -1      2047 1.99961E+01 3.47065E-03-1.37098E-04 7.85597E-03-3.46817E-14-1.28048E-13
 -1      2048 1.99845E+01 1.17657E-03 7.07223E-05 2.65094E-04 1.03505E-13-2.41357E-13
 -1      2049 1.99858E+01 1.52131E-03 1.48233E-04 1.55772E-03 1.58393E-13-2.68157E-13
 -1      2050 1.99904E+01 2.23015E-03-1.06764E-04 2.99563E-03 1.68645E-13-2.41282E-13
 -1      2051 1.99836E+01 6.82913E-04 5.86217E-05-1.51327E-03-1.36325E-13-1.59052E-13
 -1      2052 1.99837E+01 9.20411E-04 9.74336E-05-6.97828E-04 2.37448E-14-1.18487E-13
 -1      2053 1.99876E+01 1.34148E-03-8.16758E-05-1.48047E-04 4.92081E-14-1.82274E-13
 -1      2054 1.99841E+01 3.43463E-04 4.76925E-05-2.51011E-03 5.67503E-14-1.75597E-14
 -1      2055 1.99835E+01 5.01087E-04 6.06055E-05-2.03299E-03-7.38315E-14-9.97805E-14
 -1      2056 1.99868E+01 7.22321E-04-6.13755E-05-2.05857E-03-9.48609E-14-2.62246E-13
 -1      2057 1.99856E+01 1.18632E-04 3.81610E-05-2.97505E-03-2.33878E-14 1.88291E-14
 -1      2058 1.99845E+01 2.18137E-04 3.45558E-05-2.73077E-03 2.98768E-14 1.14673E-13
 -1      2059 1.99872E+01 3.05414E-04-4.52735E-05-3.10686E-03-6.27192E-15 1.08892E-13
 -1      2060 1.99874E+01-2.32138E-05 3.00393E-05-3.09208E-03-1.18660E-13 6.56863E-14
 -1      2061 1.99862E+01 3.52086E-05 1.66398E-05-3.00233E-03-7.16909E-14 8.05122E-14
 -1      2062 1.99883E+01 3.67497E-05-3.27367E-05-3.57150E-03-1.41989E-13 9.74249E-14
 -1      2063 1.99895E+01-1.07141E-04 2.31906E-05-2.99291E-03-4.25992E-14 2.19639E-16
 -1      2064 1.99882E+01-7.65923E-05 4.70446E-06-3.00122E-03-1.23057E-13-1.24961E-13
 -1      2065 1.99898E+01-1.26484E-04-2.31441E-05-3.65659E-03-2.87652E-14-1.78449E-13
 -1      2066 1.99915E+01-1.53048E-04 1.73757E-05-2.76775E-03-5.42755E-14 6.87537E-15
 -1      2067 1.99903E+01-1.40149E-04-2.97824E-06-2.83516E-03-1.30710E-14 4.18350E-14
 -1      2068 1.99915E+01-2.18050E-04-1.59198E-05-3.50680E-03-5.44530E-14-4.80992E-14
 -1      2069 1.99935E+01-1.77054E-04 1.23015E-05-2.47380E-03 1.87700E-13-5.35052E-15
 -1      2070 1.99923E+01-1.73767E-04-7.76701E-06-2.57552E-03 5.93758E-14 4.45653E-14
 -1      2071 1.99932E+01-2.64786E-04-1.05424E-05-3.21955E-03 7.78868E-14 5.27755E-14
 -1      2072 1.99952E+01-1.92835E-04 7.70662E-06-2.14135E-03 2.78516E-13 7.31395E-14
 -1      2073 1.99942E+01-1.92595E-04-1.06812E-05-2.26444E-03 2.58739E-13 1.43309E-13
 -1      2074 1.99948E+01-2.88624E-04-6.53256E-06-2.85445E-03 1.96301E-13 1.94541E-13
 -1      2075 1.99967E+01-2.12285E-04 3.72784E-06-1.77788E-03 5.61264E-14 8.76144E-14
 -1      2076 1.99958E+01-2.09800E-04-1.23268E-05-1.91996E-03 1.04651E-13 1.27204E-13
 -1      2077 1.99962E+01-3.08329E-04-3.39194E-06-2.44029E-03 7.06855E-14 3.02293E-13
 -1      2078 1.99979E+01-2.44668E-04 8.81868E-07-1.37374E-03 1.79943E-14 2.69337E-13
 -1      2079 1.99972E+01-2.35842E-04-1.26107E-05-1.54072E-03 4.06908E-14 2.39323E-13
 -1      2080 1.99974E+01-3.38480E-04-2.30935E-07-1.98088E-03 1.73258E-14 2.72422E-13
 -1      2081 1.99988E+01-2.95568E-04-4.07726E-06-9.11186E-04-3.77420E-14 3.62631E-13
 -1      2082 1.99984E+01-2.75928E-04-1.05253E-05-1.11405E-03 1.70652E-14 2.99954E-13
 -1      2083 1.99984E+01-3.90997E-04 2.17715E-06-1.46713E-03 3.93484E-14 4.33583E-13
 -1      2084 1.99994E+01-3.36140E-04-9.54069E-06-5.24846E-04 1.42740E-14 4.48039E-13
 -1      2085 1.99991E+01-3.28225E-04-7.99730E-06-7.52801E-04 5.10918E-14 4.33531E-13
 -1      2086 1.99990E+01-4.56068E-04 4.13042E-06-1.01711E-03 1.60947E-15 5.86169E-13
 -1      2087 1.99994E+01-5.05530E-04 9.64033E-07-6.60395E-04-9.27131E-15 5.55547E-13
 -1      2088 1.99998E+01-2.80026E-03 5.29176E-06-1.52662E-03 5.06074E-14 8.56873E-14
 -1      2089 1.99997E+01-2.31259E-03-6.30635E-06-1.51106E-03 5.49888E-14 1.54819E-14
 -1      2090 1.99996E+01-1.90039E-03 1.40600E-06-1.43641E-03 1.66508E-13 1.05380E-13
 -1      2091 1.99995E+01-1.45007E-03-9.70374E-06-1.30816E-03 1.17079E-13 2.37251E-13
 -1      2092 1.99996E+01-2.01627E-03-7.99481E-07-1.86580E-03-4.90235E-14-4.04105E-14
 -1      2093 1.99995E+01-1.14831E-03-1.64527E-06-1.12020E-03 1.49815E-13 1.26491E-13
 -1      2094 1.99994E+01-7.81463E-04-9.44830E-06-9.04290E-04-2.73599E-15 2.78318E-13
 -1      2095 1.99993E+01-7.65232E-04-6.81292E-06-1.10049E-03 3.86687E-14 2.92638E-13
 -1      2096 1.99994E+01-1.32229E-03 2.28314E-06-1.56603E-03 9.92844E-14 1.65825E-13
 -1      2097 2.00000E+01-3.63953E-03 9.54817E-06-1.40063E-03-3.50174E-13-3.12229E-13
 -1      2098 1.99999E+01-3.18432E-03 8.39978E-07-1.47815E-03-1.22100E-13 3.98975E-14
 -1      2099 1.99999E+01-2.80715E-03-4.40314E-06-1.88808E-03-3.09428E-13-1.52644E-13
 -1      2100 2.00001E+01-4.35131E-03 1.32807E-05-1.09308E-03 1.75807E-14-1.51788E-13
 -1      2101 2.00000E+01-3.97376E-03 7.15529E-06-1.24616E-03-1.78151E-13 1.59359E-14
 -1      2102 2.00001E+01-3.52609E-03-8.15575E-06-1.65880E-03-3.34358E-13-4.18796E-14
 -1      2103 2.00002E+01-4.83917E-03 1.56797E-05-6.55659E-04-1.41502E-14-1.78843E-13
 -1      2104 2.00001E+01-4.59380E-03 1.21985E-05-8.59379E-04 1.04433E-13-1.47428E-13
 -1      2105 2.00003E+01-4.10454E-03-1.14196E-05-1.22248E-03-4.37625E-14-2.19864E-13
 -1      2106 2.00002E+01-5.05026E-03 1.64401E-05-1.44636E-04-2.02202E-13-2.63916E-13
 -1      2107 2.00002E+01-4.96615E-03 1.53258E-05-3.73778E-04-1.93669E-13-2.41777E-13
 -1      2108 2.00004E+01-4.47582E-03-1.34332E-05-6.44342E-04-1.51922E-13-3.68303E-13
 -1      2109 2.00002E+01-4.96231E-03 1.53241E-05 3.82183E-04-1.74592E-13-1.41811E-13
 -1      2110 2.00002E+01-5.04924E-03 1.64369E-05 1.53256E-04-1.74478E-13-3.07459E-14
 -1      2111 2.00004E+01-4.60245E-03-1.40960E-05 5.38443E-06-2.98726E-13-8.45922E-14
 -1      2112 2.00001E+01-4.58540E-03 1.22897E-05 8.66611E-04-2.06902E-13-2.35885E-13
 -1      2113 2.00002E+01-4.83347E-03 1.55543E-05 6.63612E-04-1.31429E-13-1.77710E-13
 -1      2114 2.00004E+01-4.47183E-03-1.33668E-05 6.54579E-04-3.17904E-13-1.17154E-13
 -1      2115 2.00000E+01-3.97414E-03 7.18448E-06 1.24593E-03-2.56098E-13-4.56426E-13
 -1      2116 2.00001E+01-4.34637E-03 1.31606E-05 1.09596E-03-2.65283E-13-4.24226E-13
 -1      2117 2.00003E+01-4.10121E-03-1.15173E-05 1.22709E-03-1.75660E-13-4.61594E-13
 -1      2118 1.99999E+01-3.17710E-03 5.94416E-07 1.47909E-03-3.85258E-14 4.94981E-13
 -1      2119 2.00000E+01-3.64028E-03 9.54867E-06 1.40089E-03-2.22471E-13 2.18137E-13
 -1      2120 2.00001E+01-3.52671E-03-8.18685E-06 1.65892E-03-7.83634E-14-2.65493E-14
 -1      2121 1.99997E+01-2.29694E-03-6.40233E-06 1.50996E-03 1.69945E-13-2.54251E-15
 -1      2122 1.99998E+01-2.78528E-03 5.39087E-06 1.52726E-03 1.08866E-13 4.79315E-14
 -1      2123 1.99999E+01-2.80054E-03-4.03314E-06 1.88920E-03 1.47703E-13 3.86439E-13
 -1      2124 1.99995E+01-1.42027E-03-5.12131E-06 1.31137E-03 6.45241E-14 9.78581E-14
 -1      2125 1.99996E+01-1.88572E-03 2.38904E-06 1.43307E-03 8.36383E-14 7.63603E-15
 -1      2126 1.99996E+01-2.00454E-03-2.85338E-07 1.86112E-03 1.06163E-13-5.68503E-14
 -1      2127 1.04613E+01-5.26259E+00-1.40449E-01 6.51957E+00 3.09752E-13 7.07545E-13
 -1      2128 6.48497E+00-6.57465E+00-3.69361E-01 5.14717E+00 3.64153E-13 9.63979E-13
 -1      2129 5.90491E-01-6.32017E+00-2.72969E-01 9.36162E-01 3.18010E-13 1.17689E-12
 -1      2130 5.21209E-01-6.66419E+00-3.31287E-01-7.31925E-01-2.34535E-14 1.22241E-12
 -1      2131 3.99807E+00-6.04233E+00-2.30073E-01 4.37401E+00 4.29545E-13 1.07853E-12
 -1      2132 2.10241E+00-6.33205E+00-2.70629E-01 2.97672E+00 1.60122E-13 1.02540E-12
 -1      2133 7.42500E+00-4.69137E+00-2.13462E-02 5.78782E+00-2.11442E-13 8.77159E-13
 -1      2134 1.90730E+01-3.06783E+00 2.50373E-02 6.85778E+00 9.87210E-13 6.28664E-13
 -1      2135 1.51907E+01-4.96934E+00-1.51342E-01 6.47158E+00 7.01994E-13 5.45064E-13
 -1      2136 2.71962E+01-4.24057E-01 1.58143E-01 6.10257E+00 9.12270E-13 6.45151E-13
 -1      2137 2.22919E+01-2.30044E+00-1.80966E-01 5.86610E+00 9.46021E-13 6.95111E-13
 -1      2138 1.94462E+01 4.06928E+00-3.08069E-02-5.46219E-01-3.93109E-13-7.77923E-13
 -1      2139 2.00867E+01 4.01193E+00-1.73222E-02-8.03941E-01-4.68351E-13-6.72983E-13
 -1      2140 2.06743E+01 3.24665E+00-1.76265E-02-7.66809E-01-5.02019E-13-5.63782E-13
 -1      2141 1.93388E+01 3.69822E+00-1.04127E-02-3.45119E-01-3.75667E-13-7.69860E-13
 -1      2142 3.92592E+01 5.52449E+00 3.00698E-01 1.90212E+00 1.22780E-12-1.69531E-13
 -1      2143 3.65959E+01 4.58259E+00 2.24686E-01 3.14361E+00 1.22269E-12 1.29341E-13
 -1      2144 3.88867E+01 7.32364E+00 1.86628E-01-7.13499E-02 1.41392E-12-5.59823E-13
 -1      2145 3.89797E+01 6.84191E+00 2.85797E-01 8.60840E-01 1.37051E-12-2.63400E-13
 -1      2146 3.96823E+01 6.40471E+00 3.65501E-01-1.66935E+00 1.51351E-12-9.63674E-13
 -1      2147 3.96922E+01 7.10174E+00 2.35350E-01-3.00001E-01 1.45761E-12-5.73208E-13
 -1      2148 3.50277E+01 3.89739E+00 9.07418E-02-2.95006E+00 1.49938E-12-1.17539E-12
 -1      2149 3.88763E+01 5.19643E+00 4.10899E-01-2.47008E+00 1.50174E-12-1.04844E-12
 -1      2150 3.58559E+01 6.17843E+00 3.23452E-01-7.93781E-02 1.48326E-12-4.98546E-13
 -1      2151 2.85320E+01-3.97803E-01-6.97870E-02-4.21650E+00 1.22380E-12-1.21259E-12
 -1      2152 3.29295E+01 1.46025E+00 1.94366E-01-3.81261E+00 1.28882E-12-1.11300E-12
 -1      2153 2.00059E+01-3.32338E+00-2.33662E-01-6.06175E+00 1.19404E-12-1.59339E-12
 -1      2154 2.49776E+01-1.80599E+00 2.57951E-02-6.18007E+00 1.18794E-12-1.44723E-12
 -1      2155 1.18042E+01-5.28663E+00-3.64814E-01-6.03300E+00 9.99645E-13-1.58935E-12
 -1      2156 1.60738E+01-3.55845E+00-7.22463E-02-6.94115E+00 1.25111E-12-1.70902E-12
 -1      2157 5.65813E+00-6.05627E+00-2.95130E-01-5.03202E+00 4.22551E-13-1.51637E-12
 -1      2158 8.66449E+00-5.22390E+00-2.03029E-01-6.04054E+00 9.09273E-13-1.64659E-12
 -1      2159 8.80005E-01-6.67681E+00-4.21374E-01-1.68434E+00 3.82472E-14-1.51579E-12
 -1      2160 2.44031E+00-5.45751E+00-2.23401E-01-3.45509E+00 3.99902E-13-1.56186E-12
 -1      2161 5.31537E-01-6.55965E+00-3.81367E-01 1.28833E+00-3.62765E-13-1.49614E-12
 -1      2162 2.86798E-01-6.71999E+00-3.79838E-01-1.79694E-01 7.24976E-14-1.50102E-12
 -1      2163 1.89486E+00-3.95587E+00-1.63683E-01-1.24190E+00 2.18783E-14-1.71607E-12
 -1      2164 4.59348E+00-5.49019E+00-2.15812E-01 4.74160E+00-6.75293E-13-1.45450E-12
 -1      2165 2.15466E+00-6.74391E+00-4.38923E-01 3.08013E+00-3.49720E-13-1.44978E-12
 -1      2166 1.18877E+01-4.55013E+00-1.60088E-01 6.55974E+00-1.24656E-12-1.55306E-12
 -1      2167 8.09366E+00-6.05576E+00-3.61574E-01 5.54031E+00-8.40550E-13-1.38428E-12
 -1      2168 2.06997E+01-2.24875E+00 2.65150E-02 6.94573E+00-1.41831E-12-1.65140E-12
 -1      2169 1.57487E+01-4.21782E+00-3.15831E-01 6.18334E+00-1.32427E-12-1.52645E-12
 -1      2170 2.96556E+01 5.74698E-01 1.85812E-01 5.82712E+00-1.46694E-12-1.57385E-12
 -1      2171 2.45589E+01-1.18162E+00-1.29573E-01 5.74048E+00-1.44229E-12-1.62148E-12
 -1      2172 3.59346E+01 3.36971E+00 2.39086E-01 3.09472E+00-1.39019E-12-1.13898E-12
 -1      2173 3.23617E+01 1.98818E+00 9.52476E-02 4.08892E+00-1.46957E-12-1.40421E-12
 -1      2174 4.05447E+01 6.30895E+00 4.57045E-01 1.42266E+00-1.42014E-12-1.00187E-12
 -1      2175 3.75557E+01 5.46969E+00 1.93224E-01 2.07757E+00-1.43119E-12-1.14014E-12
 -1      2176 4.13213E+01 7.10466E+00 3.77280E-01-2.69112E-01-1.38367E-12-5.97064E-13
 -1      2177 4.10082E+01 7.01634E+00 3.78072E-01 9.35581E-01-1.41503E-12-9.41386E-13
 -1      2178 3.78345E+01 6.27279E+00 1.82412E-01-1.19884E+00-1.35036E-12-2.83495E-13
 -1      2179 4.07067E+01 6.98656E+00 4.90998E-01-6.28582E-01-1.39655E-12-4.92578E-13
 -1      2180 3.42004E+01 3.01259E+00 1.77853E-01-3.53231E+00-1.03680E-12 2.61013E-13
 -1      2181 3.68240E+01 4.27790E+00 2.13633E-01-2.08588E+00-1.08064E-12-1.77469E-13
 -1      2182 2.76796E+01-1.77885E-01-6.48185E-02-5.10158E+00-1.01086E-12 5.77205E-13
 -1      2183 3.21156E+01 1.40400E+00 2.41840E-01-4.93529E+00-9.75081E-13 4.32321E-13
 -1      2184 2.01041E+01-3.20705E+00-2.27630E-01-6.03094E+00-8.78797E-13 6.29663E-13
 -1      2185 2.47071E+01-1.38240E+00 1.14598E-01-6.38756E+00-9.33253E-13 6.85507E-13
 -1      2186 1.26631E+01-5.49821E+00-3.00217E-01-6.12183E+00-4.36207E-13 8.07604E-13
 -1      2187 1.66901E+01-3.71640E+00-3.86240E-02-6.82038E+00-7.72493E-13 7.39908E-13
 -1      2188 5.55823E+00-6.74082E+00-3.74245E-01-4.79272E+00-1.41720E-13 1.08710E-12
 -1      2189 8.94946E+00-5.37628E+00-1.20524E-01-6.17872E+00-2.38143E-13 1.00930E-12
 -1      2190 1.29912E+00-6.97912E+00-3.62036E-01-2.34272E+00 8.03801E-14 1.17933E-12
 -1      2191 2.80242E+00-6.54229E+00-3.11833E-01-3.66794E+00-2.47635E-13 1.25011E-12
 -1      2192 5.94853E+00-5.07612E+00-1.42776E-01-5.32399E+00 1.69420E-13 1.11777E-12
 -1      2193 2.20035E+00-4.50262E+00-1.76051E-01-1.91589E+00 1.43163E-13 1.32883E-12
 -1      2194 3.45855E+01 2.60228E+00 2.91348E-01 4.03434E+00 1.03785E-12 1.54765E-13
 -1      2195 3.01308E+01 9.72840E-01-9.73124E-03 4.45049E+00 1.01527E-12 3.89910E-13
 -1      2196 2.95646E+01-1.29372E+00 1.42380E-01 3.25012E+00 5.92471E-13-1.59761E-13
 -1      2197 2.34814E+01 1.02602E+00-2.24704E-02-8.30325E-01-5.61998E-13 3.86751E-13
 -1      2198 3.40992E+01 2.95686E+00 2.57632E-01 9.91427E-01 9.68212E-13-3.89910E-13
 -1      2199 2.30481E+01 1.21832E+00-2.29322E-02-7.56162E-01-5.78756E-13 7.22755E-14
 -1      2200 2.90067E+00-4.16291E+00-1.01874E-01 2.46483E+00 5.80092E-15 1.18228E-12
 -1      2201 1.76444E+01-5.61538E+00-1.59250E-01 6.68494E+00-1.47160E-13 1.84991E-14
 -1      2202 1.41175E+01-5.42083E+00-6.20396E-02 6.65591E+00 1.47327E-13 4.39301E-13
 -1      2203 1.36608E+01-4.95893E+00 1.74769E-01 6.95219E+00-3.40367E-13 2.67231E-13
 -1      2204 1.99994E+01-1.14443E-03-6.92830E-06 1.26825E-03 8.10163E-14 4.10961E-14
 -1      2205 2.30530E+01-4.20331E+00 1.94963E-02 5.57780E+00 3.80085E-13 1.78135E-13
 -1      2206 1.29286E+01-5.64669E+00-1.01991E-01-6.70995E+00 1.58540E-13 7.03035E-13
 -1      2207 2.08426E+01-4.81457E+00-1.26523E-02-6.08894E+00-2.30593E-13 3.79752E-13
 -1      2208 2.76720E+01-2.42972E+00 1.23597E-01-4.10009E+00-5.39319E-13 1.30063E-13
 -1      2209 3.25449E+01 1.13566E+00 2.21657E-01-1.76784E+00-8.13256E-13-2.72393E-13
 -1      2210 3.57826E+01 5.07933E+00 1.66167E-01-4.40348E-01-1.14203E-12-4.02678E-13
 -1      2211 3.30623E+01 5.74631E+00-1.16044E-01 1.15456E+00-1.24112E-12-6.33854E-13
 -1      2212 3.28745E+01 3.86170E+00 6.20908E-02 6.63589E-01-1.00212E-12-6.22669E-13
 -1      2213 3.64257E+01 7.94152E+00 2.91150E-01 2.19622E-01-1.53805E-12-6.12524E-13
 -1      2214 3.68323E+01 7.47271E+00 3.49729E-01-3.18245E-02-1.46300E-12-6.14897E-13
 -1      2215 3.49575E+01 4.13450E+00 2.49044E-01 5.18393E-01-1.26840E-12-6.19393E-13
 -1      2216 3.11808E+01-5.29693E-02 2.07645E-01 2.71063E+00-1.02822E-12-7.92255E-13
 -1      2217 2.46284E+01-3.32570E+00 6.48623E-02 5.32865E+00-8.23064E-13-1.04827E-12
 -1      2218 1.63542E+01-5.14175E+00-8.27348E-02 6.71915E+00-5.46119E-13-1.21300E-12
 -1      2219 2.78821E+00-4.20537E+00-1.48507E-01 2.76951E+00-2.36478E-14-1.62931E-12
 -1      2220 5.74037E+00-4.51960E+00-1.03076E-01-4.96915E+00 5.98965E-14-1.61998E-12
 -1      2221 1.27757E+01-5.27944E+00-1.06888E-01-6.81329E+00 2.65454E-13-1.42930E-12
 -1      2222 2.05142E+01-4.68610E+00 3.41331E-02-6.27597E+00 4.74343E-13-1.15738E-12
 -1      2223 3.30185E+01 1.83305E+00 1.53114E-01-9.75438E-01 1.10321E-12-4.96381E-13
 -1      2224 3.55289E+01 6.68332E+00 2.75833E-01-1.04937E-01 1.31983E-12-4.88720E-13
 -1      2225 3.57049E+01 7.83456E+00 2.13700E-01-1.27086E-01 1.50796E-12-4.79911E-13
 -1      2226 2.80085E+01-2.58891E+00 1.11575E-01-3.61469E+00 6.79901E-13-6.73073E-13
 -1      2227 8.25319E+00-5.03856E+00-1.26776E-01 5.95419E+00-2.04059E-13-1.40568E-12
 -1      2228 2.29281E+01 3.00243E-01-2.03231E-03-1.42961E-02 4.35428E-13 2.87205E-13
 -1      2229 2.30393E+01 5.42296E-01 2.16565E-02 2.06418E-01 5.04234E-13 3.38149E-13
 -1      2230 1.69195E+01 4.09027E+00-1.47111E-02 2.30683E-01-8.24171E-14-9.40569E-13
 -1      2231 1.73781E+01 3.98532E+00 3.15113E-03 2.07713E-01-1.41406E-13-9.19833E-13
 -1      2232 1.79081E+01 3.73067E+00-1.74464E-02 1.87748E-01-1.89280E-13-8.80599E-13
 -1      2233 1.85084E+01 3.58362E+00-7.75302E-05 7.99388E-02-2.68176E-13-8.20892E-13
 -1      2234 1.76997E+01 3.50760E+00-4.51126E-04 3.68073E-01-1.38905E-13-8.52101E-13
 -1      2235 1.62554E+01 4.35807E+00-2.95935E-03-9.18168E-02 8.59123E-14-9.76954E-13
 -1      2236 1.62266E+01 4.36783E+00-4.87577E-03-3.12190E-02 3.91096E-14-9.83947E-13
 -1      2237 1.66994E+01 4.19975E+00 1.94944E-03-2.46070E-01 1.79332E-13-9.43689E-13
 -1      2238 1.64137E+01 4.26904E+00-1.10526E-02-2.19695E-01 1.19488E-13-9.65624E-13
 -1      2239 1.63025E+01 4.08165E+00 7.84139E-03-2.13967E-01 9.59609E-14-9.39661E-13
 -1      2240 1.75505E+01 3.88993E+00 3.27599E-03-2.52190E-01 2.72789E-13-8.58298E-13
 -1      2241 1.70779E+01 4.00239E+00-1.52557E-02-2.97889E-01 2.11048E-13-9.08454E-13
 -1      2242 1.68967E+01 3.81348E+00 3.21803E-03-4.03699E-01 1.74721E-13-8.83586E-13
 -1      2243 1.86858E+01 3.47967E+00-4.79267E-04-7.00687E-02 3.93235E-13-7.35382E-13
 -1      2244 1.80887E+01 3.62907E+00-1.72634E-02-2.00383E-01 3.19861E-13-7.99967E-13
 -1      2245 1.78946E+01 3.38779E+00-2.42947E-03-4.02253E-01 2.73288E-13-7.82206E-13
 -1      2246 1.99542E+01 3.00699E+00-9.56918E-03 2.71843E-01 5.05461E-13-5.41745E-13
 -1      2247 1.93064E+01 3.19664E+00-1.81825E-02 7.36066E-02 4.29223E-13-6.42263E-13
 -1      2248 1.91366E+01 2.88456E+00-4.66693E-03-1.98356E-01 3.81563E-13-6.37620E-13
 -1      2249 2.12715E+01 2.43758E+00-2.56800E-02 6.80650E-01 6.13958E-13-3.07157E-13
 -1      2250 2.06076E+01 2.70692E+00-1.93724E-02 4.57893E-01 5.38588E-13-4.31087E-13
 -1      2251 2.04649E+01 2.34646E+00-1.40716E-03 1.32423E-01 4.82790E-13-4.34406E-13
 -1      2252 2.29528E+01-8.33861E-02-7.15301E-03-1.78770E-01 2.99451E-13 2.49280E-13
 -1      2253 2.29837E+01 9.96923E-02 2.17966E-02-1.53671E-01 3.64205E-13 2.87029E-13
 -1      2254 2.26672E+01 3.00332E-01-8.73418E-03-7.86650E-02 4.33524E-13 9.64975E-14
 -1      2255 2.27718E+01 6.64548E-01 1.90831E-02-4.02862E-02-4.39888E-13-4.46897E-14
 -1      2256 2.27157E+01 3.53247E-01-1.02163E-02 1.95963E-01-3.76584E-13-5.96309E-14
 -1      2257 3.29353E+01 3.24340E+00-9.87007E-02-3.69293E-01 9.28868E-13-6.18922E-13
 -1      2258 3.14293E+01 1.26485E+00-4.53623E-02 2.85267E-02 7.15150E-13-6.63414E-13
 -1      2259 2.28592E+01 9.75473E-02 2.27993E-02 3.34946E-01-3.10589E-13-9.09320E-15
 -1      2260 2.28785E+01-1.65234E-01-1.19672E-02 3.60295E-01-2.46400E-13-8.43444E-15
 -1      2261 2.24088E+01 3.28627E-01-9.52395E-03 3.15153E-01-3.38706E-13-1.58773E-13
 -1      2262 2.31019E+01-3.92770E-01 1.97675E-02 3.17680E-01-1.91146E-13 3.00263E-14
 -1      2263 2.31578E+01-6.31761E-01-1.76608E-02 1.68797E-01-1.39116E-13 2.34830E-14
 -1      2264 2.27052E+01-3.46303E-01-1.49595E-02 4.54815E-01-2.05786E-13-7.31972E-14
 -1      2265 2.34616E+01-8.24952E-01 1.51872E-02-6.44375E-02-1.15588E-13 7.74567E-14
 -1      2266 2.35005E+01-9.90283E-01-2.03863E-02-3.59017E-01-1.16741E-13 8.55573E-14
 -1      2267 2.31812E+01-9.40051E-01-1.44423E-02 2.10162E-01-1.29137E-13-1.62924E-14
 -1      2268 2.38138E+01-1.06563E+00 6.17231E-03-7.57367E-01-8.96878E-14 1.22189E-13
 -1      2269 2.37805E+01-1.03822E+00-1.42113E-02-1.11665E+00-9.59450E-14 9.93470E-14
 -1      2270 2.37738E+01-1.33117E+00-6.67460E-03-4.15191E-01-9.59985E-14 1.00909E-13
 -1      2271 2.39615E+01-8.70100E-01-1.41725E-02-1.55837E+00-1.45568E-13 1.50294E-13
 -1      2272 2.38281E+01-5.25851E-01 2.16871E-03-1.81615E+00-1.91737E-13 1.43688E-13
 -1      2273 2.42997E+01-1.22333E+00 7.61783E-03-1.29758E+00-1.13161E-13 1.66035E-13
 -1      2274 2.37458E+01-5.07065E-02-3.74998E-02-2.03296E+00-2.30046E-13 1.25932E-13
 -1      2275 2.35473E+01 5.59167E-01 1.87463E-02-1.97076E+00-2.94233E-13 1.03693E-13
 -1      2276 2.44838E+01-3.58593E-01 8.38822E-03-2.04636E+00-2.26151E-13 1.60441E-13
 -1      2277 2.32604E+01 1.16649E+00-4.42617E-02-1.68126E+00-4.28156E-13 1.28560E-14
 -1      2278 2.31026E+01 1.70683E+00 1.43519E-02-1.19398E+00-4.89501E-13-5.30884E-14
 -1      2279 2.42173E+01 1.12028E+00-1.03810E-02-2.04978E+00-4.27856E-13 9.00746E-14
 -1      2280 2.29142E+01 2.03019E+00-2.21568E-02-4.04118E-01-5.11834E-13-2.24876E-13
 -1      2281 2.29097E+01 2.07802E+00-1.64964E-02 3.14313E-01-4.88352E-13-3.04050E-13
 -1      2282 2.38042E+01 2.39892E+00-3.78663E-02-9.27962E-01-5.98667E-13-1.46474E-13
 -1      2283 2.30479E+01 1.83671E+00 8.78313E-03 1.14893E+00-4.13905E-13-4.41900E-13
 -1      2284 2.32052E+01 1.34955E+00-4.37920E-02 1.69441E+00-2.98928E-13-5.11899E-13
 -1      2285 2.37625E+01 2.51459E+00-4.01930E-02 8.32954E-01-5.26280E-13-4.38016E-13
 -1      2286 2.35015E+01 7.48626E-01 1.94682E-02 2.07247E+00-2.27755E-13-5.65879E-13
 -1      2287 2.37150E+01 1.09100E-01-4.11167E-02 2.19315E+00-1.29058E-13-6.06539E-13
 -1      2288 2.41458E+01 1.35682E+00-1.46147E-02 2.11291E+00-3.26818E-13-6.01302E-13
 -1      2289 2.38365E+01-4.19164E-01 5.52202E-03 2.02396E+00-4.84098E-14-6.93628E-13
 -1      2290 2.39871E+01-8.31468E-01-1.92758E-02 1.78336E+00-1.68008E-14-7.22793E-13
 -1      2291 2.44650E+01-1.88498E-01 9.72692E-03 2.25880E+00-1.30240E-13-6.83691E-13
 -1      2292 2.38258E+01-1.06766E+00-1.31145E-02 1.32498E+00-1.10563E-14-6.78545E-13
 -1      2293 2.38590E+01-1.16339E+00-3.05006E-04 9.32255E-01 3.72914E-14-6.67792E-13
 -1      2294 2.43303E+01-1.22569E+00 9.61557E-03 1.52633E+00-6.34166E-15-7.19110E-13
 -1      2295 2.35238E+01-1.14341E+00-2.13154E-02 4.59285E-01 6.67730E-14-5.78381E-13
 -1      2296 2.34480E+01-1.03305E+00 8.40550E-03 8.84988E-02 1.40482E-13-5.25079E-13
 -1      2297 2.37951E+01-1.50240E+00-2.00153E-03 5.36652E-01 1.02281E-13-5.26364E-13
 -1      2298 2.30807E+01-8.88856E-01-1.95849E-02-2.61156E-01 9.37878E-14-5.12808E-13
 -1      2299 2.29336E+01-7.09225E-01 9.59361E-03-5.29336E-01 7.86528E-14-4.68846E-13
 -1      2300 2.31070E+01-1.25730E+00-9.55960E-03-2.99443E-01 1.16233E-13-4.88945E-13
 -1      2301 2.26141E+01-5.45417E-01-1.35765E-02-7.33300E-01 8.93252E-14-4.82482E-13
 -1      2302 2.24322E+01-3.80312E-01 7.58751E-03-8.87407E-01 8.06067E-14-4.09039E-13
 -1      2303 2.24600E+01-8.24258E-01-1.06988E-02-8.44868E-01 8.43230E-14-4.59416E-13
 -1      2304 2.21816E+01-2.47691E-01-7.34219E-03-9.73902E-01-1.74411E-14-3.90464E-13
 -1      2305 2.19900E+01-1.27945E-01 5.01792E-03-1.03536E+00-4.20616E-14-3.93546E-13
 -1      2306 2.19303E+01-4.15434E-01-8.50878E-03-1.12207E+00 4.62245E-14-3.84758E-13
 -1      2307 2.18005E+01-3.87928E-02-2.50985E-03-1.04265E+00-6.10984E-14-3.87255E-13
 -1      2308 2.16144E+01 3.47986E-02 2.94581E-03-1.04097E+00-3.21822E-14-3.21037E-13
 -1      2309 2.15200E+01-1.13295E-01-5.84322E-03-1.20369E+00-4.37944E-14-3.19780E-13
 -1      2310 2.14707E+01 8.61041E-02 6.96753E-04-1.00149E+00 6.67890E-15-2.69490E-13
 -1      2311 2.12989E+01 1.23959E-01 1.57611E-03-9.62782E-01 6.87162E-14-3.25692E-13
 -1      2312 2.12043E+01 7.61646E-02-3.81719E-03-1.16120E+00 4.60691E-14-2.64424E-13
 -1      2313 2.11878E+01 1.48076E-01 2.55249E-03-8.99871E-01 1.28896E-13-3.19400E-13
 -1      2314 2.10348E+01 1.62044E-01 7.82455E-04-8.43351E-01 2.13013E-13-2.65398E-13
 -1      2315 2.09575E+01 1.76599E-01-2.55470E-03-1.04979E+00 7.77976E-14-2.73751E-13
 -1      2316 2.09469E+01 1.68878E-01 3.43093E-03-7.72252E-01 1.82261E-13-2.99517E-13
 -1      2317 2.08147E+01 1.68575E-01 3.69931E-04-7.10491E-01 1.16051E-13-2.78955E-13
 -1      2318 2.07603E+01 2.16511E-01-1.85232E-03-9.07536E-01 1.77377E-13-3.34394E-13
 -1      2319 2.07440E+01 1.65536E-01 3.66646E-03-6.40369E-01 6.13497E-14-3.21177E-13
 -1      2320 2.06328E+01 1.57679E-01 1.78766E-04-5.80776E-01 3.93533E-14-3.67103E-13
 -1      2321 2.06001E+01 2.19606E-01-1.47882E-03-7.58652E-01 6.07295E-14-4.56983E-13
 -1      2322 2.05755E+01 1.49703E-01 3.51645E-03-5.16612E-01 4.96223E-14-4.25709E-13
 -1      2323 2.04840E+01 1.38559E-01 1.02242E-04-4.63035E-01 9.84844E-14-4.02475E-13
 -1      2324 2.04691E+01 2.02726E-01-1.26828E-03-6.17293E-01 2.84375E-15-3.97431E-13
 -1      2325 2.04377E+01 1.28681E-01 3.16170E-03-4.07105E-01 7.34729E-14-4.11165E-13
 -1      2326 2.03639E+01 1.16764E-01 7.83566E-05-3.61121E-01 7.05778E-15-4.25556E-13
 -1      2327 2.03620E+01 1.76739E-01-1.12441E-03-4.90802E-01 4.67719E-14-5.66968E-13
 -1      2328 2.03268E+01 1.06720E-01 2.72060E-03-3.14045E-01-2.86365E-14-3.65276E-13
 -1      2329 2.02685E+01 9.53937E-02 7.46347E-05-2.75888E-01 3.13497E-16-3.43481E-13
 -1      2330 2.02753E+01 1.48149E-01-1.00079E-03-3.82155E-01 4.84178E-14-4.72392E-13
 -1      2331 2.02391E+01 8.60931E-02 2.26570E-03-2.37337E-01 4.90905E-14-4.07714E-13
 -1      2332 2.01939E+01 7.60156E-02 7.58109E-05-2.06504E-01 2.36475E-14-3.07584E-13
 -1      2333 2.02057E+01 1.20560E-01-8.80334E-04-2.91675E-01 6.62811E-15-3.35717E-13
 -1      2334 2.01709E+01 6.78686E-02 1.83802E-03-1.75650E-01-7.65532E-14-2.45785E-13
 -1      2335 2.01365E+01 5.92780E-02 7.57701E-05-1.51292E-01-8.73476E-14-2.34312E-13
 -1      2336 2.01508E+01 9.57636E-02-7.60301E-04-2.18191E-01-1.18354E-14-3.70114E-13
 -1      2337 2.01188E+01 5.24054E-02 1.45801E-03-1.27100E-01-7.55177E-14-3.06340E-13
 -1      2338 2.00932E+01 4.53068E-02 7.28603E-05-1.08244E-01-8.10671E-14-1.71508E-13
 -1      2339 2.01081E+01 7.44673E-02-6.43438E-04-1.59791E-01-9.07349E-14-2.62009E-13
 -1      2340 2.00798E+01 3.96711E-02 1.13327E-03-8.96379E-02-7.69468E-14-1.18614E-13
 -1      2341 2.00611E+01 3.39486E-02 6.73462E-05-7.53252E-02-5.42891E-14-3.85746E-14
 -1      2342 2.00754E+01 5.67630E-02-5.33608E-04-1.14289E-01-2.80580E-14-8.71174E-14
 -1      2343 2.00511E+01 2.94328E-02 8.63824E-04-6.12866E-02-1.49954E-13-9.91877E-14
 -1      2344 2.00378E+01 2.49166E-02 6.01225E-05-5.06360E-02-1.73509E-13-7.21095E-15
 -1      2345 2.00509E+01 4.24161E-02-4.33950E-04-7.95052E-02-1.36547E-13-1.08540E-14
 -1      2346 2.00305E+01 2.13710E-02 6.45564E-04-4.02525E-02-2.29170E-13 4.20562E-14
 -1      2347 2.00213E+01 1.78757E-02 5.21228E-05-3.24934E-02-1.50402E-13 2.07809E-14
 -1      2348 2.00328E+01 3.10391E-02-3.46328E-04-5.34228E-02-1.88166E-13 9.84575E-14
 -1      2349 2.00162E+01 1.51447E-02 4.72429E-04-2.49781E-02-1.41826E-14-3.64450E-14
 -1      2350 2.00100E+01 1.24905E-02 4.40950E-05-1.94582E-02 9.05523E-14-2.60089E-14
 -1      2351 2.00198E+01 2.21933E-02-2.71387E-04-3.42586E-02-8.50584E-14 2.13489E-13
 -1      2352 2.00065E+01 1.04264E-02 3.37714E-04-1.41517E-02 1.41211E-13-1.23238E-13
 -1      2353 2.00026E+01 8.45013E-03 3.65491E-05-1.03335E-02 1.37231E-13-1.12545E-13
 -1      2354 2.00107E+01 1.54452E-02-2.08830E-04-2.04907E-02 7.13397E-14 1.99267E-13
 -1      2355 2.00002E+01 6.92078E-03 2.34840E-04-6.69624E-03 1.17687E-13 3.23390E-14
 -1      2356 1.99979E+01 5.48009E-03 2.97809E-05-4.14607E-03 1.35164E-13 1.36906E-13
 -1      2357 2.00045E+01 1.03959E-02-1.57730E-04-1.08539E-02 2.17457E-13 6.68932E-14
 -1      2358 1.99965E+01 4.37120E-03 1.57765E-04-1.74552E-03 4.47571E-14 1.20141E-13
 -1      2359 1.99953E+01 3.34583E-03 2.39169E-05-1.20667E-04 6.11376E-14 1.44109E-13
 -1      2360 2.00005E+01 6.69520E-03-1.16808E-04-4.31976E-03 1.16654E-13 9.90348E-14
 -1      2361 1.99944E+01 2.56140E-03 1.01180E-04 1.38325E-03 7.99743E-14 6.67556E-14
 -1      2362 1.99940E+01 1.85197E-03 1.89602E-05 2.34866E-03 1.23051E-14 5.15442E-14
 -1      2363 1.99981E+01 4.04479E-03-8.46400E-05-6.92705E-05-2.51245E-14 9.87147E-14
 -1      2364 1.99936E+01 1.31305E-03 6.05697E-05 3.21821E-03 7.55146E-15-6.08258E-14
 -1      2365 1.99937E+01 8.38961E-04 1.48270E-05 3.72640E-03-2.42357E-15 2.02196E-14
 -1      2366 1.99967E+01 2.19688E-03-5.97971E-05 2.53754E-03-3.14911E-14-2.14918E-14
 -1      2367 1.99936E+01 4.81644E-04 3.21894E-05 4.15979E-03-5.34824E-14 7.47558E-14
 -1      2368 1.99939E+01 1.78466E-04 1.13730E-05 4.36117E-03-3.93905E-14 1.33845E-13
 -1      2369 1.99962E+01 9.49465E-04-4.09412E-05 3.99102E-03 3.11618E-15 9.77192E-14
 -1      2370 1.99940E+01-4.83011E-05 1.30062E-05 4.50470E-03 1.88956E-15 2.78115E-13
 -1      2371 1.99945E+01-2.31627E-04 8.41014E-06 4.50812E-03 1.23193E-13 3.58956E-13
 -1      2372 1.99961E+01 1.40291E-04-2.68779E-05 4.65884E-03 9.09942E-14 3.46217E-13
 -1      2373 1.99947E+01-3.68438E-04 6.18442E-07 4.46655E-03 4.46231E-14 2.81633E-13
 -1      2374 1.99953E+01-4.72315E-04 5.72017E-06 4.34775E-03 1.67400E-13 2.16670E-13
 -1      2375 1.99964E+01-3.59747E-04-1.65874E-05 4.80969E-03 5.43306E-14 3.55331E-13
 -1      2376 1.99955E+01-5.51585E-04-6.83169E-06 4.19285E-03 2.75110E-13 1.70002E-14
 -1      2377 1.99961E+01-6.08281E-04 3.08023E-06 4.00124E-03 2.31335E-13-3.32862E-14
 -1      2378 1.99968E+01-6.53165E-04-9.23946E-06 4.63321E-03 6.03388E-14 8.39425E-14
 -1      2379 1.99964E+01-6.56294E-04-1.07345E-05 3.77868E-03 1.59380E-13-2.65425E-14
 -1      2380 1.99970E+01-6.91957E-04 3.30417E-07 3.54274E-03 2.29541E-13 1.02774E-13
 -1      2381 1.99973E+01-8.21907E-04-4.20085E-06 4.25639E-03 2.27565E-13-1.14912E-13
 -1      2382 1.99972E+01-7.30056E-04-1.20514E-05 3.27758E-03 2.98186E-13-2.87718E-14
 -1      2383 1.99977E+01-7.65361E-04-2.39017E-06 3.00968E-03 4.89075E-14 1.74720E-14
 -1      2384 1.99978E+01-9.31945E-04-9.82340E-07 3.75689E-03 1.59385E-13 1.94734E-14
 -1      2385 1.99980E+01-8.11295E-04-1.17905E-05 2.71230E-03-2.42662E-13 1.08820E-13
 -1      2386 1.99984E+01-8.59190E-04-6.27249E-06 2.41288E-03-2.09071E-13 7.03151E-14
 -1      2387 1.99983E+01-1.03414E-03 7.67312E-07 3.17511E-03-4.82059E-14-1.31262E-13
 -1      2388 1.02439E+01-3.90289E+00 7.73352E-02 6.31767E+00-4.22967E-13 5.23859E-13
 -1      2389 7.68046E+00-3.28458E+00 1.19407E-01 5.16841E+00-4.15890E-13 7.12402E-13
 -1      2390 2.31734E+01-6.32648E-01-1.73181E-02 4.21253E-01 8.53475E-14 2.04151E-13
 -1      2391 2.32221E+01-5.27773E-01 7.52838E-03 1.82481E-01 1.23535E-13 2.29500E-13
 -1      2392 2.31791E+01-6.69224E-01-1.18493E-02 1.02668E+00 7.72776E-14 2.20290E-13
 -1      2393 2.33148E+01-6.84536E-01 2.63483E-04 7.42443E-01 6.50417E-14 2.22879E-13
 -1      2394 2.33789E+01-8.94361E-01-1.35750E-03 5.57824E-01 8.95458E-14 1.50753E-13
 -1      2395 2.29822E+01-3.69694E-01 3.58612E-03 1.56524E+00 1.18842E-13 2.33592E-13
 -1      2396 2.32127E+01-5.71619E-01-8.36894E-03 1.36230E+00 8.16500E-14 2.36444E-13
 -1      2397 2.35741E+01-8.33098E-01 7.89465E-03 1.26139E+00 9.60265E-14 1.84269E-13
 -1      2398 2.25688E+01 2.73814E-01 1.93276E-02 1.69160E+00 2.54761E-13 1.86191E-13
 -1      2399 2.28420E+01-8.77947E-02-1.70257E-02 1.72342E+00 1.64169E-13 2.62817E-13
 -1      2400 2.35072E+01-2.91949E-01 1.15578E-02 1.82165E+00 1.43138E-13 1.99477E-13
 -1      2401 2.20908E+01 1.00385E+00 2.16385E-02 1.13889E+00 3.19748E-13 1.24683E-13
 -1      2402 2.23029E+01 6.53837E-01-1.86573E-02 1.48651E+00 3.12757E-13 1.70253E-13
 -1      2403 2.31492E+01 6.51174E-01 2.73642E-03 1.82439E+00 3.05212E-13 2.04580E-13
 -1      2404 2.18566E+01 1.34498E+00 5.25055E-03 1.64141E-03 4.14785E-13-1.05647E-13
 -1      2405 2.19017E+01 1.25180E+00-5.25882E-03 5.53240E-01 3.87331E-13 5.16254E-15
 -1      2406 2.27211E+01 1.53783E+00-1.66740E-02 9.93832E-01 4.43486E-13 2.05747E-14
 -1      2407 2.20718E+01 1.04180E+00-1.39256E-02-1.17614E+00 3.34463E-13-3.47344E-13
 -1      2408 2.19232E+01 1.27220E+00 1.48021E-02-6.88692E-01 4.27398E-13-2.60053E-13
 -1      2409 2.25996E+01 1.76964E+00-2.56306E-02-3.96486E-01 5.12524E-13-2.21411E-13
 -1      2410 2.26099E+01 3.14710E-01-2.10734E-02-1.82313E+00 1.97723E-13-4.87498E-13
 -1      2411 2.23326E+01 7.04977E-01 2.20521E-02-1.61601E+00 2.38958E-13-4.48637E-13
 -1      2412 2.29057E+01 1.19510E+00-9.48428E-03-1.61485E+00 3.71326E-13-4.61307E-13
 -1      2413 2.31252E+01-3.64510E-01-1.53696E-02-1.74900E+00 8.53744E-14-5.54920E-13
 -1      2414 2.28404E+01-5.43446E-02 1.01643E-02-1.84373E+00 1.54991E-13-5.19041E-13
 -1      2415 2.33616E+01 1.99225E-01 9.06908E-03-2.06886E+00 2.03074E-13-5.18428E-13
 -1      2416 2.33747E+01-7.10243E-01-5.86465E-03-1.18632E+00 4.91109E-14-5.87413E-13
 -1      2417 2.31776E+01-5.83940E-01-6.66973E-03-1.45927E+00 6.07422E-14-5.79266E-13
 -1      2418 2.36023E+01-6.30586E-01 1.29576E-02-1.73790E+00 8.70839E-14-5.46763E-13
 -1      2419 2.33282E+01-7.27265E-01 9.89585E-04-4.80635E-01-5.70204E-15-5.18919E-13
 -1      2420 2.32551E+01-7.54281E-01-1.68144E-02-7.89703E-01 2.32279E-14-4.85601E-13
 -1      2421 2.35087E+01-9.97787E-01 7.37964E-03-9.94851E-01 1.39433E-14-4.66730E-13
 -1      2422 2.30722E+01-5.57403E-01 3.19847E-03 1.24117E-01 8.70744E-14-4.49297E-13
 -1      2423 2.31131E+01-6.58377E-01-1.85563E-02-1.29143E-01 1.39003E-14-4.94369E-13
 -1      2424 2.31705E+01-9.58414E-01-5.70049E-04-2.15647E-01-1.41007E-14-4.56313E-13
 -1      2425 2.27133E+01-3.41095E-01 3.09336E-03 5.32902E-01 3.75585E-14-3.13317E-13
 -1      2426 2.28356E+01-4.51252E-01-1.48346E-02 3.66667E-01 1.06212E-13-3.10652E-13
 -1      2427 2.27325E+01-7.04634E-01-4.36189E-03 3.86618E-01 1.41163E-14-3.03286E-13
 -1      2428 2.23236E+01-1.55069E-01 2.32046E-03 7.50817E-01-9.25020E-14-1.50850E-13
 -1      2429 2.24928E+01-2.43515E-01-9.46060E-03 6.66059E-01 8.72783E-15-2.30927E-13
 -1      2430 2.22939E+01-4.13269E-01-5.01515E-03 7.60673E-01-6.41180E-14-1.63285E-13
 -1      2431 2.19434E+01-2.40882E-02 1.62962E-03 8.22691E-01-1.40480E-13-1.25481E-13
 -1      2432 2.21315E+01-8.34040E-02-4.52701E-03 7.99014E-01-1.16756E-13-6.84988E-14
 -1      2433 2.18965E+01-1.72589E-01-4.23763E-03 9.37120E-01-1.60822E-13-6.31637E-14
 -1      2434 2.15932E+01 5.47619E-02 1.17690E-03 7.99101E-01-4.37133E-14-2.84926E-13
 -1      2435 2.17803E+01 2.08131E-02-8.48805E-04 8.14555E-01-1.04652E-13-1.99568E-13
 -1      2436 2.15511E+01-7.47638E-03-3.22900E-03 9.71456E-01-7.07539E-14-1.17400E-13
 -1      2437 2.12823E+01 9.42254E-02 9.26759E-04 7.21880E-01 6.84255E-14-2.45318E-13
 -1      2438 2.14559E+01 7.85982E-02 1.50289E-03 7.58655E-01 7.69529E-15-2.82447E-13
 -1      2439 2.12557E+01 8.94262E-02-2.46192E-03 9.16959E-01 4.10188E-14-3.05853E-13
 -1      2440 2.10137E+01 1.07655E-01 7.97745E-04 6.20723E-01-1.80189E-14-1.28235E-13
 -1      2441 2.11673E+01 1.03738E-01 2.77929E-03 6.66368E-01 8.21828E-14-2.05532E-13
 -1      2442 2.10051E+01 1.35970E-01-1.97422E-03 8.15005E-01 4.86495E-14-1.55680E-13
 -1      2443 2.07872E+01 1.05659E-01 7.23025E-04 5.14568E-01-1.41440E-13-1.78334E-13
 -1      2444 2.09181E+01 1.08445E-01 3.29435E-03 5.61289E-01-8.13451E-14-8.74025E-14
 -1      2445 2.07942E+01 1.49748E-01-1.67643E-03 6.94080E-01-7.81304E-14-6.33561E-14
 -1      2446 2.06002E+01 9.55960E-02 6.63543E-04 4.14307E-01-1.50170E-13-3.53404E-14
 -1      2447 2.07085E+01 1.01712E-01 3.32391E-03 4.57743E-01-1.54622E-13-1.51703E-13
 -1      2448 2.06186E+01 1.44411E-01-1.47796E-03 5.72020E-01-1.56643E-13-1.91116E-13
 -1      2449 2.04489E+01 8.21341E-02 6.02521E-04 3.25388E-01 4.15232E-14-1.22959E-13
 -1      2450 2.05361E+01 8.94865E-02 3.07645E-03 3.63460E-01-2.33041E-14-6.80945E-14
 -1      2451 2.04743E+01 1.29311E-01-1.31939E-03 4.58901E-01-4.41635E-14-1.99518E-13
 -1      2452 2.03286E+01 6.80209E-02 5.36103E-04 2.49836E-01 1.41869E-13-2.60918E-13
 -1      2453 2.03975E+01 7.54062E-02 2.69500E-03 2.81875E-01 1.01415E-13-1.42847E-13
 -1      2454 2.03574E+01 1.10329E-01-1.17113E-03 3.59592E-01 1.06439E-13-2.51986E-13
 -1      2455 2.02350E+01 5.47444E-02 4.66159E-04 1.87672E-01 5.26109E-14-2.12845E-13
 -1      2456 2.02881E+01 6.15317E-02 2.27022E-03 2.13814E-01 7.52922E-14-2.09709E-13
 -1      2457 2.02642E+01 9.08943E-02-1.02363E-03 2.75695E-01 8.60276E-14-3.06706E-13
 -1      2458 2.01633E+01 4.30111E-02 3.96245E-04 1.37838E-01-4.16674E-14 4.00309E-14
 -1      2459 2.02034E+01 4.89199E-02 1.85537E-03 1.58634E-01 2.77749E-14-4.04144E-14
 -1      2460 2.01911E+01 7.28402E-02-8.77601E-04 2.06894E-01-7.02935E-14-2.85414E-13
 -1      2461 2.01095E+01 3.30651E-02 3.29680E-04 9.87819E-02-3.31937E-14 5.68966E-14
 -1      2462 2.01393E+01 3.80195E-02 1.47867E-03 1.14960E-01-1.50439E-14 4.69962E-14
 -1      2463 2.01348E+01 5.70107E-02-7.37346E-04 1.51849E-01-4.79022E-14-1.30577E-13
 -1      2464 2.00701E+01 2.48908E-02 2.68860E-04 6.88076E-02 1.43845E-13-8.22050E-14
 -1      2465 2.00915E+01 2.89275E-02 1.15249E-03 8.11324E-02 1.17877E-13 7.36209E-14
 -1      2466 2.00922E+01 4.36683E-02-6.07309E-04 1.08761E-01 6.05176E-14-1.95016E-13
 -1      2467 2.00417E+01 1.83389E-02 2.15169E-04 4.62711E-02 8.94841E-14-2.08056E-13
 -1      2468 2.00568E+01 2.15504E-02 8.79614E-04 5.54666E-02 9.09864E-14-1.50708E-13
 -1      2469 2.00605E+01 3.27520E-02-4.90698E-04 7.57170E-02 1.35232E-13-1.92402E-13
 -1      2470 2.00219E+01 1.32008E-02 1.69133E-04 2.96835E-02-6.90826E-14-1.20537E-13
 -1      2471 2.00323E+01 1.57021E-02 6.57458E-04 3.63953E-02-1.01845E-15-1.61849E-13
 -1      2472 2.00375E+01 2.40360E-02-3.89186E-04 5.08852E-02 1.27818E-14-3.08355E-14
 -1      2473 2.00086E+01 9.25273E-03 1.30647E-04 1.77545E-02-2.33082E-14 1.19089E-16
 -1      2474 2.00153E+01 1.11618E-02 4.80721E-04 2.25356E-02-8.33535E-14-2.67623E-14
 -1      2475 2.00213E+01 1.72252E-02-3.03099E-04 3.26147E-02-8.02130E-14 1.25011E-13
 -1      2476 2.00000E+01 6.27955E-03 9.91876E-05 9.40132E-03 5.04941E-14-7.17111E-14
 -1      2477 2.00042E+01 7.70729E-03 3.43018E-04 1.27114E-02 4.49802E-14 3.64671E-14
 -1      2478 2.00101E+01 1.20100E-02-2.31771E-04 1.94791E-02 1.98963E-14 2.13387E-13
 -1      2479 1.99949E+01 4.08717E-03 7.39979E-05 3.73849E-03 1.60009E-13-1.15723E-13
 -1      2480 1.99972E+01 5.13207E-03 2.37847E-04 5.95027E-03 1.39046E-13-4.78067E-14
 -1      2481 2.00027E+01 8.09690E-03-1.73905E-04 1.02832E-02 1.80042E-13-1.93068E-14
 -1      2482 1.99921E+01 2.50742E-03 5.42134E-05 5.78045E-05 2.95340E-14-5.46215E-14
 -1      2483 1.99931E+01 3.25391E-03 1.59119E-04 1.46723E-03 1.47680E-13-3.50664E-14
 -1      2484 1.99981E+01 5.22267E-03-1.27868E-04 4.05056E-03 1.37525E-13 3.25279E-14
 -1      2485 1.99910E+01 1.39891E-03 3.89517E-05-2.19576E-03-8.86107E-14-1.30325E-13
 -1      2486 1.99912E+01 1.91736E-03 1.01422E-04-1.35849E-03-1.05842E-13-8.81470E-14
 -1      2487 1.99954E+01 3.16070E-03-9.19175E-05 5.74059E-07 4.54211E-14-2.58084E-14
 -1      2488 1.99909E+01 6.45436E-04 2.73641E-05-3.44852E-03-1.88773E-13 9.06624E-14
 -1      2489 1.99906E+01 9.93319E-04 6.01168E-05-3.00794E-03-4.94973E-16-6.26272E-14
 -1      2490 1.99942E+01 1.72125E-03-6.43465E-05-2.47815E-03-1.46964E-13 5.99796E-14
 -1      2491 1.99915E+01 1.53173E-04 1.86621E-05-4.02100E-03-2.49984E-14-1.14956E-14
 -1      2492 1.99909E+01 3.76631E-04 3.13401E-05-3.84629E-03-1.90948E-13 1.33930E-14
 -1      2493 1.99938E+01 7.48851E-04-4.35792E-05-3.85489E-03-1.16520E-13-7.36076E-14
 -1      2494 1.99925E+01-1.52718E-04 1.21243E-05-4.14813E-03-1.65192E-14-1.31528E-13
 -1      2495 1.99918E+01-1.70132E-05 1.19465E-05-4.14446E-03 3.80330E-14-1.03415E-13
 -1      2496 1.99940E+01 1.18247E-04-2.82185E-05-4.48206E-03-5.60611E-16-2.00650E-13
 -1      2497 1.99937E+01-3.31634E-04 7.09490E-06-3.99645E-03-4.91148E-14-2.03970E-13
 -1      2498 1.99929E+01-2.54619E-04-5.71503E-07-4.09766E-03-9.17287E-14-1.69575E-13
 -1      2499 1.99946E+01-2.70373E-04-1.70698E-05-4.61747E-03-2.30609E-14-2.22628E-13
 -1      2500 1.99949E+01-4.30999E-04 2.99430E-06-3.67797E-03 4.74820E-14-1.62833E-13
 -1      2501 1.99941E+01-3.89420E-04-8.16791E-06-3.84083E-03-3.74459E-14-2.54741E-13
 -1      2502 1.99954E+01-4.96273E-04-9.15086E-06-4.44330E-03-1.00026E-13-3.64676E-13
 -1      2503 1.99960E+01-4.89424E-04-6.35955E-07-3.26132E-03 8.98533E-14 2.02719E-13
 -1      2504 1.99953E+01-4.64249E-04-1.23036E-05-3.46103E-03 7.87250E-14 7.65045E-14
 -1      2505 1.99962E+01-6.22863E-04-3.68386E-06-4.08156E-03-1.53430E-13-3.33513E-13
 -1      2506 1.99971E+01-5.39059E-04-4.06103E-06-2.78040E-03-1.25916E-15 2.59824E-13
 -1      2507 1.99964E+01-5.14635E-04-1.41086E-05-3.00723E-03 8.00849E-14 3.69423E-13
 -1      2508 1.99970E+01-7.01536E-04-8.06539E-08-3.60683E-03-2.21601E-14 8.06475E-14
 -1      2509 1.99980E+01-6.04586E-04-6.50826E-06-2.24166E-03 1.88408E-14 2.57768E-13
 -1      2510 1.99974E+01-5.71150E-04-1.45583E-05-2.49807E-03 7.78528E-16 3.47410E-13
 -1      2511 1.99978E+01-7.72230E-04 2.97084E-06-3.05869E-03-4.03203E-14 1.79942E-13
 -1      2512 1.99987E+01-6.94709E-04-9.12883E-06-1.64435E-03-6.49381E-14 4.90028E-13
 -1      2513 1.99983E+01-6.45901E-04-1.29169E-05-1.93081E-03 3.42501E-14 3.98512E-13
 -1      2514 1.99984E+01-8.65934E-04 6.94583E-06-2.44606E-03-3.58917E-14 3.09936E-13
 -1      2515 1.99990E+01-7.26693E-04-9.35278E-06-1.28163E-03 9.58767E-15 3.43059E-13
 -1      2516 2.00004E+01-3.42609E-03 1.32502E-05-1.82333E-03-2.00494E-13 1.95964E-13
 -1      2517 2.00002E+01-3.11727E-03-7.82874E-07-2.00755E-03-2.79462E-13-2.66843E-13
 -1      2518 2.00006E+01-3.88938E-03 1.38334E-05-1.26842E-03-1.25814E-13-1.16823E-13
 -1      2519 2.00005E+01-3.66527E-03 3.96542E-06-1.54546E-03-1.81712E-13 9.03590E-14
 -1      2520 2.00006E+01-3.32006E-03-8.03724E-06-1.90854E-03-1.67040E-13 2.75830E-14
 -1      2521 1.99997E+01-2.10733E-03 9.50225E-06-2.22801E-03-2.58396E-13-2.30739E-13
 -1      2522 1.99994E+01-1.73103E-03-1.24325E-05-2.15662E-03-2.22781E-14-1.25070E-13
 -1      2523 2.00001E+01-2.81193E-03 1.13831E-05-2.16279E-03-4.26075E-13-2.92646E-13
 -1      2524 1.99999E+01-2.45664E-03-6.27134E-06-2.22473E-03-3.75837E-13-2.68918E-14
 -1      2525 1.99997E+01-2.16604E-03-6.92047E-06-2.54594E-03-3.22840E-13-2.27910E-13
 -1      2526 2.00002E+01-2.79666E-03-7.02799E-06-2.36984E-03-2.61289E-13-1.47100E-13
 -1      2527 2.00007E+01-4.15783E-03 1.31913E-05-5.73557E-04-1.27115E-13-3.82740E-13
 -1      2528 2.00007E+01-4.04027E-03 8.20325E-06-9.07500E-04-4.44809E-14-4.08559E-13
 -1      2529 2.00009E+01-3.69531E-03-1.00173E-05-1.23086E-03-2.02328E-13-1.07839E-13
 -1      2530 2.00008E+01-4.20779E-03 1.13487E-05 1.82534E-04-1.88157E-13-1.54497E-13
 -1      2531 2.00008E+01-4.20879E-03 1.13565E-05-1.70288E-04-8.54460E-14-2.59572E-13
 -1      2532 2.00011E+01-3.88969E-03-1.08529E-05-4.20449E-04 1.09017E-13-2.84649E-13
 -1      2533 2.00007E+01-4.03568E-03 8.34460E-06 9.18771E-04-1.98325E-13-3.51319E-14
 -1      2534 2.00007E+01-4.15540E-03 1.31155E-05 5.85528E-04-2.60450E-13-4.27933E-15
 -1      2535 2.00011E+01-3.88827E-03-1.08265E-05 4.34086E-04-4.16369E-14-6.85633E-14
 -1      2536 2.00005E+01-3.66606E-03 3.90437E-06 1.54530E-03-7.20335E-14-5.70832E-13
 -1      2537 2.00006E+01-3.88687E-03 1.37446E-05 1.27330E-03-7.31932E-14-3.82483E-13
 -1      2538 2.00009E+01-3.69385E-03-1.01261E-05 1.23705E-03-8.39499E-14-1.12215E-13
 -1      2539 2.00002E+01-3.11939E-03-1.34555E-06 2.00738E-03 6.49535E-14 1.99995E-13
 -1      2540 2.00004E+01-3.42630E-03 1.33373E-05 1.82299E-03 4.45988E-14-3.50394E-13
 -1      2541 2.00006E+01-3.32065E-03-8.29704E-06 1.90883E-03 3.02929E-14-5.16292E-13
 -1      2542 1.99999E+01-2.44893E-03-6.68322E-06 2.22337E-03 5.27968E-14 2.15297E-13
 -1      2543 2.00001E+01-2.80890E-03 1.14601E-05 2.16419E-03-1.59668E-14 5.06099E-13
 -1      2544 2.00003E+01-2.79105E-03-4.53618E-06 2.37263E-03 5.59120E-14 1.10930E-13
 -1      2545 1.99994E+01-1.71557E-03-1.04451E-05 2.14162E-03-7.66563E-14-2.75357E-14
 -1      2546 1.99996E+01-2.09632E-03 7.38138E-06 2.23043E-03-1.01114E-13-4.78768E-14
 -1      2547 1.99998E+01-2.15025E-03 5.51341E-08 2.54360E-03-1.46036E-13-1.24575E-13
 -1      2548 1.99992E+01-1.12176E-03-7.66224E-06 1.59654E-03 1.68535E-13 1.04478E-13
 -1      2549 2.53067E+01-4.41035E+00-5.89291E-02 4.46578E+00 1.32061E-13-1.85019E-13
 -1      2550 2.23197E+01-5.14689E+00 3.31841E-02 5.21898E+00 4.15223E-14-1.18738E-13
 -1      2551 2.30624E+01-3.99420E-01-1.41100E-02-1.69839E-02 1.66171E-13 2.14743E-13
 -1      2552 2.30697E+01-2.42438E-01 1.43002E-02-1.40841E-01 2.16325E-13 2.51195E-13
 -1      2553 2.30802E+01-6.30213E-01-6.83990E-03 2.21369E-02 1.64969E-13 1.34938E-13
 -1      2554 5.46417E+00-2.32494E+00 1.13491E-01 3.49478E+00-1.70808E-13 8.49376E-13
 -1      2555 4.09379E+00-2.11853E+00 1.29771E-01 1.11821E+00-1.12611E-13 1.05066E-12
 -1      2556 1.26257E+01-5.04297E+00 2.49250E-02-6.68015E+00 4.80921E-13 5.42150E-13
 -1      2557 1.65952E+01-5.35881E+00 2.09027E-02-6.86233E+00 3.53051E-13 3.53838E-13
 -1      2558 2.24263E+01 1.86073E+00-8.95405E-03-8.54342E-01-5.70982E-13-1.67628E-13
 -1      2559 2.25536E+01 1.05807E+00-1.15891E-02-2.84885E-01-5.12478E-13-1.07861E-13
 -1      2560 2.21367E+01 1.16585E+00 2.44967E-04-1.24579E-01-4.65118E-13-2.34396E-13
 -1      2561 2.16764E+01 2.30980E+00-4.23196E-03-7.07840E-01-5.49751E-13-3.45503E-13
 -1      2562 5.63531E+00-2.80439E+00 8.66830E-02-4.25178E+00-1.31756E-13-1.51301E-12
 -1      2563 8.75575E+00-3.60122E+00 2.58958E-02-6.14733E+00-6.61693E-14-1.40382E-12
 -1      2564 3.19691E+01 6.40384E+00-2.07890E-01-1.08642E+00 1.26671E-12-6.28581E-13
 -1      2565 3.29555E+01 5.16503E+00-3.36585E-02-9.00574E-01 1.14447E-12-6.04239E-13
 -1      2566 3.09921E+01 3.83143E+00-3.32329E-02-1.59127E+00 9.25482E-13-7.29666E-13
 -1      2567 1.63316E+01 4.31775E+00-9.43746E-03 1.08233E-01 1.43827E-14-9.83686E-13
 -1      2568 1.65698E+01 4.26572E+00 8.89680E-04 1.49875E-01-4.24705E-14-9.68236E-13
 -1      2569 1.67396E+01 3.90770E+00 4.79712E-03 3.04815E-01-4.86724E-14-9.10122E-13
 -1      2570 1.62413E+01 4.11864E+00 8.87840E-03 7.06909E-02 2.74191E-14-9.49337E-13
 -1      2571 3.30236E+01 7.23515E+00-4.89267E-02 4.40207E-01 1.43124E-12-3.47125E-13
 -1      2572 3.20983E+01 7.42486E+00-1.42737E-01-6.74858E-02 1.37879E-12-4.51018E-13
 -1      2573 2.61620E+01-4.12933E+00 2.37164E-02-3.38890E+00 2.07903E-13-3.71730E-13
 -1      2574 2.86529E+01-2.82050E+00-1.56649E-01-1.90423E+00 3.92311E-13-1.44329E-13
 -1      2575 3.27140E+01 4.63519E+00-7.55020E-02 8.31480E-01 1.29866E-12-1.97647E-13
 -1      2576 3.30584E+01 5.99299E+00-1.28778E-01 7.78350E-01 1.37923E-12-2.04087E-13
 -1      2577 1.18050E+01-4.46563E+00 1.08202E-02 6.86351E+00-5.09037E-14-1.16349E-12
 -1      2578 8.13952E+00-3.67972E+00 5.76374E-02 5.68071E+00 1.51379E-13-1.25600E-12
 -1      2579 3.04860E+01-9.86869E-03-5.02414E-02-1.83787E-01 7.41851E-13-8.36275E-14
 -1      2580 3.23029E+01 2.29041E+00-9.76336E-02 2.91278E-01 1.08843E-12-1.52878E-13
 -1      2581 3.08736E+01 2.94536E+00-3.85586E-02 1.44722E+00 9.69752E-13 1.04666E-13
 -1      2582 1.92260E+01-5.18774E+00 7.52215E-03-6.19512E+00 4.04676E-14-9.38159E-13
 -1      2583 2.27253E+01-4.89184E+00-8.15128E-02-5.46763E+00 1.28314E-13-6.99288E-13
 -1      2584 1.28460E+01-4.53255E+00 7.26862E-02-6.68853E+00-1.45717E-13-1.18969E-12
 -1      2585 1.61597E+01-4.91103E+00 1.03729E-02-6.96319E+00 2.07612E-14-1.09860E-12
 -1      2586 1.90441E+01-4.90013E+00 1.00958E-01-6.17689E+00-2.95070E-13-8.17079E-13
 -1      2587 3.33761E+00-2.03435E+00 9.03797E-02-1.06187E-01-1.10988E-14-1.60089E-12
 -1      2588 3.87850E+00-1.93250E+00 9.38480E-02-2.08902E+00 1.62370E-14-1.57940E-12
 -1      2589 5.30336E+00-2.47554E+00 8.26275E-02 4.05764E+00 9.98090E-14-1.45345E-12
 -1      2590 3.69420E+00-2.24765E+00 7.86208E-02 1.81919E+00 1.39923E-13-1.56392E-12
 -1      2591 5.52665E+00-8.33626E-01 1.78635E-01 1.04788E+00 1.12223E-13-1.54937E-12
 -1      2592 1.96182E+01-5.05144E+00-3.76752E-02 6.51002E+00-2.89324E-13-8.38954E-13
 -1      2593 1.57599E+01-5.14954E+00 1.84488E-02 6.65254E+00-9.53126E-14-9.49674E-13
 -1      2594 2.67754E+01-3.54008E+00-7.45118E-02 4.04838E+00-5.39097E-13-6.06515E-13
 -1      2595 2.32852E+01-4.61116E+00-6.69219E-03 5.03724E+00-3.69121E-13-6.93084E-13
 -1      2596 3.09010E+01-5.01723E-01-1.55857E-01 8.95280E-01-7.76643E-13-2.96430E-13
 -1      2597 2.91219E+01-2.06984E+00-5.99776E-03 2.12719E+00-6.23779E-13-4.35041E-13
 -1      2598 3.30487E+01 4.44797E+00-1.12141E-01-7.93925E-01-1.17115E-12-2.52381E-13
 -1      2599 3.20123E+01 2.38419E+00-3.54518E-02-4.71099E-01-9.85212E-13-2.39642E-13
 -1      2600 3.38688E+01 7.22915E+00-8.72074E-02-3.52125E-01-1.41809E-12-4.04080E-13
 -1      2601 3.34299E+01 6.48708E+00-7.18468E-02-6.85956E-01-1.32205E-12-3.49026E-13
 -1      2602 3.28932E+01 7.14440E+00-1.40515E-01 5.37803E-01-1.48220E-12-5.24941E-13
 -1      2603 3.38245E+01 7.58048E+00-3.48503E-02 7.32221E-02-1.49203E-12-5.11783E-13
 -1      2604 3.14626E+01 7.15702E+00-6.57904E-02-2.54532E-01-1.37723E-12-2.76772E-13
 -1      2605 3.02625E+01-8.61150E-01-4.89808E-02-9.23072E-01-5.78568E-13-4.92661E-13
 -1      2606 3.16674E+01 8.96711E-01-1.07910E-01-7.84499E-02-7.12652E-13-6.20337E-13
 -1      2607 2.63767E+01-3.87242E+00-3.34123E-02-3.46602E+00-2.14384E-13-1.61565E-13
 -1      2608 2.90412E+01-2.50024E+00-6.57913E-02-2.40845E+00-4.32612E-13-3.45196E-13
 -1      2609 2.93194E+01-2.21870E+00-1.01111E-02-6.42412E-01-3.16578E-13-6.80206E-13
 -1      2610 2.00323E+01-5.47122E+00-7.78835E-03-5.90041E+00 2.51688E-13 1.58859E-13
 -1      2611 2.33850E+01-4.93131E+00-3.60797E-02-5.28540E+00 4.42979E-14 7.28584E-14
 -1      2612 2.30710E+01 7.43316E-01-7.97270E-03 4.41402E-01 5.72951E-13 3.58897E-13
 -1      2613 2.32635E+01 1.14716E+00-6.33279E-03 9.08081E-01 6.15324E-13 4.36998E-13
 -1      2614 2.28159E+01 1.59571E+00-1.93538E-02 1.02176E+00 6.56528E-13 2.10335E-13
 -1      2615 2.27033E+01 8.52517E-01-1.43841E-02 3.53086E-01 5.66051E-13 1.34252E-13
 -1      2616 2.99544E+01-1.54904E+00-1.17553E-01 1.51784E+00 4.71508E-13-6.61943E-13
 -1      2617 2.76209E+01-3.15089E+00-2.65040E-02 2.77567E+00 2.70256E-13-4.44950E-13
 -1      2618 2.68574E+01-4.21596E+00 3.45817E-02 2.65156E+00-9.15934E-15-6.53144E-13
 -1      2619 2.90290E+01 6.71407E+00-1.51622E-01-2.15241E-01 1.24822E-12-3.30351E-13
 -1      2620 3.08846E+01 6.72680E+00-1.28756E-01-6.94525E-01 1.25597E-12-4.98504E-13
 -1      2621 2.92317E+01 5.80477E+00-1.25688E-01-1.23651E+00 1.14689E-12-4.97775E-13
 -1      2622 1.89473E+01 3.00522E+00-3.36612E-03 2.27044E-01-2.61044E-13-7.35034E-13
 -1      2623 1.91417E+01 3.29252E+00-1.92649E-02-3.53589E-02-3.13931E-13-7.61420E-13
 -1      2624 1.98091E+01 3.09689E+00-9.25302E-03-2.19165E-01-3.97611E-13-6.97668E-13
 -1      2625 2.28188E+01-2.11998E-01-8.40633E-03-2.05730E-01 2.80615E-13 1.02059E-13
 -1      2626 2.21675E+01 2.00085E+00-1.26701E-02 8.91534E-01 6.33644E-13-5.93778E-14
 -1      2627 3.01213E+01-6.39990E-01-2.16724E-02-1.21869E-01 4.52360E-13-8.58230E-13
 -1      2628 6.61270E+00-1.39045E+00 1.75462E-01-3.25714E+00-1.36294E-13-1.51720E-12
 -1      2629 2.08210E+01-5.40453E+00 8.14477E-02 5.74941E+00-2.72449E-13-1.24359E-13
 -1      2630 1.28759E+01-4.20874E+00 1.26178E-01 6.46516E+00-4.65100E-13 2.88033E-13
 -1      2631 1.27721E+01-3.16474E+00 1.50776E-01 6.02829E+00-5.47618E-13 2.52576E-13
 -1      2632 1.54092E+01-4.58872E+00-4.08346E-02 6.47671E+00-5.42372E-13 5.07927E-15
 -1      2633 6.25331E+00-9.55929E-01 1.80236E-01 1.33456E-01-3.68811E-14 9.64340E-13
 -1      2634 3.99000E+00-2.07830E+00 1.42345E-01-9.08518E-01 1.67214E-13 1.19155E-12
 -1      2635 1.99990E+01-9.80829E-04-4.13830E-06-1.74260E-03 5.64997E-14 2.80123E-13
 -1      2636 1.06184E+01-4.18278E+00 1.07318E-01-6.31019E+00 4.89442E-13 7.47125E-13
 -1      2637 1.39392E+01-4.25406E+00 1.04856E-01-6.40594E+00 6.41848E-13 3.62876E-13
 -1      2638 1.99991E+01-1.26602E-03 1.35860E-06-1.94595E-03 6.07274E-14 2.51856E-13
 -1      2639 1.99989E+01-9.30707E-04-1.21312E-05 1.88394E-03 1.34030E-13 1.77491E-13
 -1      2640 1.99992E+01-1.38419E-03 5.48666E-06 2.08581E-03-2.17080E-14 1.02860E-13
 -1      2641 1.99992E+01-1.49293E-03-3.78272E-06 2.47490E-03-2.48317E-13 7.89939E-14
 -1      2642 1.99986E+01-8.97373E-04-1.44943E-05 2.18815E-03-8.09293E-14 1.78370E-13
 -1      2643 2.56872E+01-4.73969E+00 4.23613E-02-3.53862E+00 1.50907E-13-2.45221E-13
 -1      2644 2.20085E+01 1.64789E+00 1.23682E-02 5.14939E-01 5.70870E-13-1.01565E-13
 -1      2645 8.25927E+00-1.88258E+00 1.73133E-01 4.07999E+00-4.16778E-13 6.49203E-13
 -1      2646 1.95795E+01-5.41989E+00 8.21907E-02-6.02899E+00 5.66824E-13 1.31386E-13
 -1      2647 4.78644E+00-2.51587E+00 1.16156E-01-2.95036E+00 2.12830E-13 1.11144E-12
 -1      2648 3.19688E+01 6.18150E+00-1.04901E-01 1.11825E+00-1.31872E-12-6.06501E-13
 -1      2649 3.00943E+01 6.47409E+00-1.51377E-01 1.02438E+00-1.32117E-12-5.08829E-13
 -1      2650 3.03388E+01 5.19752E+00-1.01919E-01 1.61256E+00-1.11849E-12-6.55004E-13
 -1      2651 3.10908E+01 1.91565E+00-6.10769E-02 1.37387E+00-7.48984E-13-7.78488E-13
 -1      2652 3.13479E+01 5.05280E+00-5.51404E-02-1.43862E+00-1.13543E-12-6.76681E-14
 -1      2653 3.06224E+01 4.74777E-01-3.21421E-02-7.03637E-01-6.73878E-13-1.04916E-14
 -1      2654 2.79894E+01-3.39903E+00 3.42316E-02 2.22150E+00-2.97914E-13-2.13524E-13
 -1      2655 8.62834E+00-2.27739E+00 1.58932E-01 4.89664E+00 2.84384E-13-1.33205E-12
 -1      2656 1.22924E+01-3.45011E+00 1.36264E-01-6.27645E+00-3.19494E-13-1.23607E-12
 -1      2657 2.91106E+01-1.91074E+00-4.21262E-02-2.64628E-01 3.19949E-13 1.32894E-13
 -1      2658 1.53336E+01-4.45193E+00 1.07209E-01 6.57264E+00 2.06779E-13-9.47367E-13
 -1      2659 2.49948E+01-4.63462E+00 8.41032E-02-3.77704E+00-1.05693E-13-2.88630E-13
 -1      2660 2.09806E+01 2.57001E+00-1.07272E-02-4.95742E-01-4.93098E-13-5.03928E-13
 -1      2661 3.08154E+01 6.25682E+00-6.55939E-02 1.03453E+00 1.29263E-12-1.22430E-13
 -1      2662 2.26096E+01-5.05243E+00 6.55613E-02 5.20167E+00-6.02296E-15-5.67199E-13
 -1      2663 5.88363E+00-3.10127E+00 1.25571E-01-4.12143E+00 3.26114E-13 1.01844E-12
 -1      2664 8.35095E+00-3.45307E+00 9.91433E-02-5.54845E+00 3.90910E-13 8.93008E-13
 -1      2665 9.92518E+00-2.78135E+00 1.32527E-01-5.39337E+00 5.33129E-13 6.92696E-13
 -1      2666 7.16932E+00-1.58480E+00 1.38854E-01-3.24482E+00 3.31957E-13 1.01336E-12
 -1      2667 1.99991E+01-1.38158E-03-7.44363E-06-2.36180E-03-3.13698E-14 1.12914E-13
 -1      2668 1.99987E+01-1.12919E-03 5.02977E-06 2.62487E-03-2.22544E-13 1.83502E-13
 -1      2669 1.70265E+01 3.41447E+00 8.44506E-03-6.22752E-01 1.75774E-13-8.23575E-13
 -1      2670 1.65451E+01 3.56713E+00-1.57752E-02-5.67329E-01 1.31954E-13-8.65463E-13
 -1      2671 1.61916E+01 3.77974E+00 1.62786E-03-3.68580E-01 1.14857E-13-9.00652E-13
 -1      2672 1.59846E+01 3.84692E+00-9.94038E-03-2.27544E-01 7.15028E-14-9.02507E-13
 -1      2673 1.62844E+01 3.39160E+00 1.13858E-02-6.13022E-01 1.11504E-13-8.55486E-13
 -1      2674 1.96066E+01 2.29532E+00 1.99849E-03-3.78916E-01 3.74626E-13-5.63844E-13
 -1      2675 1.89145E+01 2.54585E+00-1.14065E-02-5.26424E-01 3.24972E-13-6.34556E-13
 -1      2676 2.09566E+01 1.71158E+00 5.84848E-04-3.77625E-02 4.58367E-13-3.51785E-13
 -1      2677 2.02822E+01 1.99527E+00-5.37757E-03-2.03595E-01 4.00254E-13-4.59795E-13
 -1      2678 2.00852E+01 1.66564E+00-3.66484E-03-5.45621E-01 3.48234E-13-4.64864E-13
 -1      2679 2.23385E+01 2.78905E-01-8.56536E-03-2.45981E-01 3.71490E-13-3.30627E-14
 -1      2680 2.23297E+01 6.28011E-01 1.72000E-02-7.42979E-02 4.25312E-13-3.27289E-14
 -1      2681 1.05167E+01-1.81139E+00 1.14780E-01 4.82164E+00-5.24164E-13 3.35149E-13
 -1      2682 8.58759E+00-8.26276E-01 1.48444E-01 3.08759E+00-3.70176E-13 5.77954E-13
 -1      2683 2.26197E+01-3.59537E-01-1.17831E-02-3.42104E-01 2.18654E-13 6.42867E-15
 -1      2684 2.25402E+01-4.06154E-02 1.97214E-02-3.53860E-01 2.92223E-13 1.68877E-14
 -1      2685 2.20714E+01 1.98222E-01-5.86936E-03-4.06439E-01 3.11464E-13-9.90961E-14
 -1      2686 6.96940E+00-2.33420E-01 1.40722E-01-2.12899E+00-1.12035E-13-1.41290E-12
 -1      2687 8.59614E+00-1.11791E+00 9.07377E-02-4.38065E+00-2.11955E-13-1.34515E-12
 -1      2688 2.22832E+01-1.00865E-01 2.27176E-02 6.71833E-01-1.72557E-13-1.96279E-13
 -1      2689 2.24464E+01-5.09909E-01-1.10161E-02 6.78154E-01-1.39949E-13-1.77803E-13
 -1      2690 2.28696E+01-8.89586E-01 2.73690E-02 6.29022E-01-9.27502E-14-1.04621E-13
 -1      2691 2.31065E+01-1.27414E+00-1.69130E-02 4.41309E-01-5.41624E-14-8.33684E-14
 -1      2692 2.22517E+01-8.01419E-01-2.50016E-02 9.30933E-01-9.00440E-14-2.00705E-13
 -1      2693 2.36882E+01-1.57690E+00 2.60451E-02 1.54332E-01-1.53363E-14 2.46717E-14
 -1      2694 2.39483E+01-1.79251E+00-1.82715E-02-2.17494E-01-1.82254E-14 7.40762E-14
 -1      2695 2.31743E+01-1.70383E+00-2.81803E-02 6.67933E-01 1.24358E-14-6.71507E-14
 -1      2696 2.45753E+01-1.84950E+00 6.90445E-03-7.36748E-01-4.03427E-14 1.44988E-13
 -1      2697 2.47733E+01-1.64699E+00-1.37758E-02-1.20450E+00-8.27598E-14 1.55199E-13
 -1      2698 2.43604E+01-2.19225E+00-1.30063E-02-9.52365E-02 1.60581E-15 6.86118E-14
 -1      2699 2.51733E+01-1.16112E+00-3.96387E-02-1.81212E+00-1.44815E-13 1.88516E-13
 -1      2700 2.52018E+01-3.41260E-01-5.81473E-03-2.09084E+00-2.60771E-13 1.96732E-13
 -1      2701 2.55161E+01-1.79174E+00-7.67918E-03-1.27410E+00-9.69082E-14 1.87747E-13
 -1      2702 2.51738E+01 6.99174E-01-9.00670E-02-2.31680E+00-4.45678E-13 2.15220E-13
 -1      2703 2.50404E+01 1.87372E+00-1.17167E-02-2.07355E+00-5.85067E-13 1.37103E-13
 -1      2704 2.61156E+01 1.22000E-01-2.30094E-02-2.27853E+00-3.35995E-13 2.61909E-13
 -1      2705 2.47735E+01 2.91046E+00-9.43292E-02-1.47524E+00-6.95638E-13-1.99740E-14
 -1      2706 2.46642E+01 3.57759E+00-4.47436E-02-6.61719E-01-7.59851E-13-1.62341E-13
 -1      2707 2.59970E+01 2.80789E+00-7.78924E-02-1.94789E+00-7.27522E-13 1.54758E-13
 -1      2708 2.49367E+01 2.22669E+00-2.07448E-02 2.11622E+00-5.00273E-13-6.30804E-13
 -1      2709 2.51028E+01 1.04563E+00-9.36843E-02 2.45482E+00-3.57422E-13-7.17067E-13
 -1      2710 2.51884E+01-7.68303E-02-2.33068E-03 2.30915E+00-2.32668E-13-7.61993E-13
 -1      2711 2.51767E+01-1.01606E+00-4.95556E-02 2.06800E+00-8.77059E-14-7.40462E-13
 -1      2712 2.61115E+01 4.25024E-01-2.57262E-02 2.46259E+00-3.40044E-13-8.40002E-13
 -1      2713 2.48097E+01-1.61881E+00-1.39384E-02 1.46528E+00 8.90607E-15-7.84916E-13
 -1      2714 2.46332E+01-1.94677E+00 3.04089E-03 9.74441E-01 8.52705E-14-7.31790E-13
 -1      2715 2.55536E+01-1.66622E+00-2.23235E-02 1.60754E+00-5.36342E-14-8.44253E-13
 -1      2716 2.39841E+01-2.01809E+00-2.10427E-02 3.49171E-01 1.37068E-13-6.30304E-13
 -1      2717 2.36944E+01-1.89379E+00 2.16087E-02-1.10694E-01 2.02652E-13-5.76576E-13
 -1      2718 2.44589E+01-2.43670E+00-1.32874E-02 2.70538E-01 1.32244E-13-7.58089E-13
 -1      2719 2.30611E+01-1.67477E+00-1.57104E-02-5.24165E-01 1.53660E-13-5.44217E-13
 -1      2720 2.27470E+01-1.37960E+00 2.16534E-02-8.45260E-01 1.30952E-13-5.26687E-13
 -1      2721 2.31778E+01-2.15826E+00-2.31911E-02-7.36051E-01 1.76237E-13-6.82571E-13
 -1      2722 2.22606E+01-1.09046E+00-8.71081E-03-1.05377E+00 8.17371E-14-4.52360E-13
 -1      2723 2.19825E+01-7.97218E-01 1.56965E-02-1.23149E+00 1.00896E-13-4.18957E-13
 -1      2724 2.21200E+01-1.47435E+00-2.32011E-02-1.29533E+00 1.48921E-13-4.85347E-13
 -1      2725 2.16563E+01-5.49243E-01-3.29020E-03-1.29820E+00 1.36400E-13-4.01980E-13
 -1      2726 2.14323E+01-3.26543E-01 9.59852E-03-1.36639E+00 6.60640E-14-3.45590E-13
 -1      2727 2.13755E+01-7.90878E-01-1.69965E-02-1.51715E+00 1.26859E-13-3.43356E-13
 -1      2728 2.12299E+01-1.51837E-01-9.47784E-05-1.34973E+00-1.47657E-15-2.91019E-13
 -1      2729 2.10549E+01-7.85636E-03 5.04681E-03-1.34524E+00 2.27113E-16-2.24920E-13
 -1      2730 2.08985E+01-2.71031E-01-1.06304E-02-1.53216E+00 9.23399E-14-2.89137E-13
 -1      2731 2.09343E+01 9.84638E-02 1.60828E-03-1.28419E+00 2.67215E-15-1.69480E-13
 -1      2732 2.07969E+01 1.78496E-01 2.09128E-03-1.23681E+00 4.66894E-14-1.54713E-13
 -1      2733 2.06076E+01 6.68002E-02-5.99350E-03-1.43385E+00 3.31754E-14-1.36126E-13
 -1      2734 2.07258E+01 2.33282E-01 2.45678E-03-1.15541E+00 5.40241E-14-1.63741E-13
 -1      2735 2.06156E+01 2.68632E-01 3.69937E-04-1.08650E+00 1.29977E-13-1.89385E-13
 -1      2736 2.04325E+01 2.56672E-01-3.12704E-03-1.27974E+00 3.37472E-14-6.45987E-14
 -1      2737 2.05725E+01 2.89099E-01 2.81662E-03-9.99179E-01 9.73966E-14-1.87453E-13
 -1      2738 2.04824E+01 2.96342E-01-5.23242E-04-9.22875E-01 4.52498E-14-2.57767E-13
 -1      2739 2.03246E+01 3.42631E-01-1.55312E-03-1.10422E+00 3.89790E-14-1.00266E-13
 -1      2740 2.04546E+01 2.96110E-01 2.88111E-03-8.38075E-01 6.60360E-14-2.93291E-13
 -1      2741 2.03802E+01 2.87373E-01-9.05841E-04-7.63103E-01 1.81540E-14-3.53695E-13
 -1      2742 2.02540E+01 3.62662E-01-7.76755E-04-9.27666E-01 2.92019E-14-1.66147E-13
 -1      2743 2.03607E+01 2.75949E-01 2.76032E-03-6.85468E-01-6.88048E-14-3.20348E-13
 -1      2744 2.02991E+01 2.59300E-01-1.00024E-03-6.16719E-01-7.44036E-14-4.03714E-13
 -1      2745 2.02038E+01 3.44711E-01-4.40151E-04-7.61875E-01-4.74814E-14-3.10767E-13
 -1      2746 2.02842E+01 2.42801E-01 2.52642E-03-5.48481E-01 4.79898E-14-4.30609E-13
 -1      2747 2.02335E+01 2.23243E-01-9.46226E-04-4.88283E-01 8.60660E-14-4.61386E-13
 -1      2748 2.01651E+01 3.07544E-01-3.20095E-04-6.13134E-01-1.71492E-14-3.29063E-13
 -1      2749 2.02215E+01 2.05354E-01 2.23185E-03-4.30143E-01 1.04599E-13-4.35038E-13
 -1      2750 2.01803E+01 1.85791E-01-8.26154E-04-3.79198E-01 1.27211E-13-3.57843E-13
 -1      2751 2.01336E+01 2.62927E-01-2.90734E-04-4.84160E-01 9.71661E-14-2.36237E-13
 -1      2752 2.01703E+01 1.68579E-01 1.91493E-03-3.30906E-01 3.34055E-14-3.27577E-13
 -1      2753 2.01372E+01 1.50558E-01-6.85918E-04-2.88943E-01 1.29990E-14-2.51463E-13
 -1      2754 2.01072E+01 2.17785E-01-2.89183E-04-3.75358E-01 1.03595E-13-3.07687E-13
 -1      2755 2.01289E+01 1.35068E-01 1.60256E-03-2.49704E-01 3.72159E-14-3.59261E-13
 -1      2756 2.01027E+01 1.19291E-01-5.49489E-04-2.15920E-01-1.53629E-14-3.17741E-13
 -1      2757 2.00850E+01 1.75873E-01-2.88126E-04-2.85692E-01-6.39579E-14-3.87180E-13
 -1      2758 2.00958E+01 1.05946E-01 1.31200E-03-1.84663E-01-2.47689E-14-2.66548E-13
 -1      2759 2.00754E+01 9.26198E-02-4.27999E-04-1.58014E-01-2.00864E-14-1.09717E-13
 -1      2760 2.00664E+01 1.38964E-01-2.78351E-04-2.13313E-01 6.47552E-15-2.62169E-13
 -1      2761 2.00697E+01 8.14808E-02 1.05284E-03-1.33575E-01 5.13563E-14-4.19828E-14
 -1      2762 2.00542E+01 7.05291E-02-3.25378E-04-1.12953E-01 5.22494E-14 6.07182E-14
 -1      2763 2.00510E+01 1.07634E-01-2.59106E-04-1.55998E-01 5.44190E-14-9.44141E-15
 -1      2764 2.00495E+01 6.14629E-02 8.29101E-04-9.41927E-02-7.88561E-14-4.26045E-14
 -1      2765 2.00379E+01 5.26648E-02-2.41755E-04-7.85333E-02-1.38549E-13 6.38925E-14
 -1      2766 2.00384E+01 8.17761E-02-2.32932E-04-1.11436E-01-3.01795E-14-8.89063E-14
 -1      2767 2.00342E+01 4.54425E-02 6.41022E-04-6.43970E-02-1.34908E-13 1.40323E-13
 -1      2768 2.00256E+01 3.85159E-02-1.75441E-04-5.27347E-02-1.40978E-13 2.54061E-13
 -1      2769 2.00284E+01 6.09224E-02-2.03075E-04-7.74174E-02-8.98451E-14 1.37533E-13
 -1      2770 2.00227E+01 3.28739E-02 4.86494E-04-4.22905E-02-9.34124E-14 2.66494E-13
 -1      2771 2.00166E+01 2.75234E-02-1.24029E-04-3.37848E-02 5.29705E-14 3.49835E-13
 -1      2772 2.00205E+01 4.44444E-02-1.72373E-04-5.19317E-02-6.98837E-14 2.93739E-13
 -1      2773 2.00143E+01 2.31980E-02 3.62100E-04-2.62336E-02-2.95552E-14 2.34695E-13
 -1      2774 2.00101E+01 1.91423E-02-8.49791E-05-2.01739E-02 2.57550E-14 2.03164E-13
 -1      2775 2.00145E+01 3.16701E-02-1.42901E-04-3.32195E-02-7.33260E-14 2.87905E-13
 -1      2776 2.00084E+01 1.58888E-02 2.63846E-04-1.48482E-02 6.82191E-14 6.69859E-14
 -1      2777 2.00055E+01 1.28743E-02-5.59131E-05-1.06492E-02 1.15491E-13 6.49872E-14
 -1      2778 2.00099E+01 2.19515E-02-1.15970E-04-1.97854E-02-7.29012E-14 1.06866E-13
 -1      2779 2.00042E+01 1.04760E-02 1.87647E-04-7.00375E-03 7.77952E-14-1.84586E-13
 -1      2780 2.00024E+01 8.28261E-03-3.47385E-05-4.19274E-03 1.44221E-14-1.68283E-13
 -1      2781 2.00065E+01 1.46997E-02-9.22651E-05-1.03890E-02-3.71460E-14-3.28584E-13
 -1      2782 2.00015E+01 6.55357E-03 1.29629E-04-1.79111E-03 7.48167E-14-1.63194E-13
 -1      2783 2.00003E+01 4.99576E-03-1.96909E-05 5.72121E-06-9.36889E-14-1.62195E-13
 -1      2784 2.00040E+01 9.40040E-03-7.20104E-05-4.02363E-03-7.93163E-15-3.53148E-13
 -1      2785 1.99997E+01 3.78065E-03 8.62945E-05 1.50631E-03 1.10224E-14-1.13547E-13
 -1      2786 1.99991E+01 2.70515E-03-9.32837E-06 2.57910E-03 1.24866E-13-1.05877E-14
 -1      2787 2.00022E+01 5.61748E-03-5.51240E-05 1.11975E-04 1.00793E-13-1.67096E-13
 -1      2788 1.99987E+01 1.87662E-03 5.46070E-05 3.44265E-03 3.12357E-14 3.17398E-14
 -1      2789 1.99984E+01 1.15913E-03-2.50353E-06 4.01203E-03 9.21212E-14 1.57150E-13
 -1      2790 2.00010E+01 2.98935E-03-4.13397E-05 2.64323E-03 1.02136E-13 6.83828E-14
 -1      2791 1.99982E+01 6.14441E-04 3.20049E-05 4.43767E-03 8.93131E-14 8.90532E-14
 -1      2792 1.99981E+01 1.55496E-04 1.67252E-06 4.66764E-03 6.77796E-14 1.21093E-13
 -1      2793 2.00002E+01 1.22161E-03-3.02988E-05 4.04871E-03 4.08930E-14 7.87444E-14
 -1      2794 1.99980E+01-1.87394E-04 1.63847E-05 4.80194E-03 1.18609E-13-7.60181E-15
 -1      2795 1.99981E+01-4.66794E-04 3.86980E-06 4.81093E-03-1.68023E-14-1.06813E-13
 -1      2796 1.99997E+01 7.78245E-05-2.16234E-05 4.68658E-03 2.62094E-14-1.89210E-13
 -1      2797 1.99980E+01-6.73105E-04 6.06925E-06 4.75845E-03-7.21208E-14-5.59644E-14
 -1      2798 1.99982E+01-8.35648E-04 4.57525E-06 4.62862E-03 9.11815E-14-7.81080E-14
 -1      2799 1.99994E+01-6.30307E-04-1.49662E-05 4.81791E-03-1.03502E-13-2.73337E-13
 -1      2800 1.99982E+01-9.57432E-04-2.72785E-07 4.46064E-03 2.38510E-13-1.19598E-13
 -1      2801 1.99984E+01-1.05303E-03 4.21620E-06 4.24553E-03 2.79324E-13-1.05774E-13
 -1      2802 1.99993E+01-1.05231E-03-1.00180E-05 4.62642E-03 9.48757E-14-6.97125E-14
 -1      2803 1.99984E+01-1.13249E-03-3.86848E-06 4.00739E-03 1.64918E-13-1.47519E-13
 -1      2804 1.99987E+01-1.20028E-03 2.92003E-06 3.73782E-03 4.68092E-14-2.84062E-13
 -1      2805 1.99993E+01-1.30693E-03-6.56692E-06 4.23459E-03 1.23983E-13-3.78582E-13
 -1      2806 1.99987E+01-1.27036E-03-4.99757E-06 3.45551E-03 8.44965E-14-3.21425E-13
 -1      2807 1.99989E+01-1.33974E-03 3.70332E-07 3.14608E-03 2.94187E-14-2.07259E-13
 -1      2808 1.99993E+01-1.48778E-03-3.38011E-06 3.71747E-03 1.51669E-13-6.65659E-13
 -1      2809 7.54077E+00-3.11609E-01 1.29066E-01 1.13179E+00-1.40596E-13 7.65138E-13
 -1      2810 7.47748E+00-3.32412E-01 1.30016E-01-9.68838E-01 4.79235E-14 8.69360E-13
 -1      2811 2.42890E+01-5.10173E+00 3.86220E-02-3.65276E+00 4.29531E-13-3.00454E-13
 -1      2812 2.65766E+01-4.40015E+00-7.46299E-02-2.14202E+00 1.47590E-13-5.03042E-13
 -1      2813 1.99991E+01-1.43952E-03-1.95144E-06 2.70080E-03-1.27820E-13 6.09472E-14
 -1      2814 1.99994E+01-1.74279E-03-2.86014E-06 2.77080E-03-8.88680E-14-1.74563E-13
 -1      2815 1.99990E+01-1.39374E-03-7.15802E-06 2.93443E-03-3.60681E-14-7.50901E-14
 -1      2816 2.35347E+01-1.28392E+00-2.03386E-02 4.94138E-01 5.25341E-14 1.24490E-13
 -1      2817 2.34269E+01-1.13390E+00 1.46945E-02 1.75403E-01 6.09385E-14 1.47667E-13
 -1      2818 2.38185E+01 1.17851E+00 1.60920E-02 1.91296E+00 4.14703E-13 1.96145E-13
 -1      2819 2.39676E+01 3.67646E-01-5.46729E-02 2.07981E+00 2.87229E-13 2.24747E-13
 -1      2820 2.34252E+01 2.42755E+00-1.56166E-03 8.58548E-01 6.11490E-13-5.93293E-14
 -1      2821 2.35090E+01 1.86811E+00-6.65016E-02 1.43887E+00 5.34805E-13 7.04003E-14
 -1      2822 2.45514E+01 2.00544E+00 1.70345E-02 1.94906E+00 5.61037E-13 1.58396E-13
 -1      2823 2.33390E+01 2.45128E+00-4.84188E-02-8.06464E-01 6.28730E-13-2.64630E-13
 -1      2824 2.32700E+01 2.61575E+00-4.37363E-02-9.73427E-02 6.48211E-13-1.73036E-13
 -1      2825 2.41924E+01 3.26378E+00-2.31263E-03 5.15445E-01 7.16892E-13-7.00646E-14
 -1      2826 2.37167E+01 1.25328E+00-5.74085E-02-2.01873E+00 3.59220E-13-4.15727E-13
 -1      2827 2.35623E+01 1.98665E+00 9.47748E-03-1.58682E+00 5.04631E-13-3.49223E-13
 -1      2828 2.42851E+01 2.79213E+00-2.31412E-02-1.34426E+00 6.23765E-13-2.50069E-13
 -1      2829 2.40928E+01-2.68595E-01-4.23359E-02-2.16606E+00 1.40839E-13-4.44040E-13
 -1      2830 2.39571E+01 4.74669E-01 1.10493E-02-2.19578E+00 2.43743E-13-4.29074E-13
 -1      2831 2.46374E+01 1.05652E+00-1.04617E-02-2.29004E+00 3.37501E-13-3.88150E-13
 -1      2832 2.40683E+01-1.22161E+00-1.37768E-02-1.49536E+00 3.18322E-16-4.49751E-13
 -1      2833 2.40500E+01-8.30692E-01-4.53666E-03-1.83001E+00 1.01831E-13-4.31219E-13
 -1      2834 2.47072E+01-7.15191E-01 4.89351E-04-2.01977E+00 1.03509E-13-3.89303E-13
 -1      2835 2.36439E+01-1.45020E+00 7.87331E-03-5.67851E-01-3.53649E-14-4.28942E-13
 -1      2836 2.37452E+01-1.41345E+00-1.48974E-02-9.83206E-01-2.78406E-14-4.59025E-13
 -1      2837 2.42512E+01-1.65305E+00 4.59294E-03-1.07503E+00 1.69422E-14-4.21360E-13
 -1      2838 2.30189E+01-1.20045E+00 1.37377E-02 2.28886E-01-5.17428E-14-3.60215E-13
 -1      2839 2.31982E+01-1.36844E+00-1.75667E-02-1.18580E-01-2.77829E-14-3.16108E-13
 -1      2840 2.34499E+01-1.76742E+00-8.43484E-03-8.23394E-02-7.33760E-14-3.98904E-13
 -1      2841 2.24052E+01-7.91787E-01 1.25383E-02 7.52649E-01-2.92312E-14-2.11108E-13
 -1      2842 2.26081E+01-1.00849E+00-1.33817E-02 5.19716E-01-3.45921E-14-3.07435E-13
 -1      2843 2.26160E+01-1.37153E+00-1.21105E-02 6.42583E-01-8.98271E-14-3.20440E-13
 -1      2844 2.18869E+01-4.08289E-01 9.05640E-03 1.02775E+00-1.50485E-13-1.37019E-13
 -1      2845 2.20825E+01-5.96444E-01-8.38362E-03 9.03826E-01-3.77857E-14-1.56280E-13
 -1      2846 2.19278E+01-8.58753E-01-1.18201E-02 1.05750E+00-6.97723E-14-3.08645E-13
 -1      2847 2.14782E+01-1.21341E-01 5.69471E-03 1.11814E+00-1.81985E-13-8.87195E-14
 -1      2848 2.16545E+01-2.55483E-01-4.00374E-03 1.07722E+00-1.83360E-13-1.24763E-13
 -1      2849 2.14149E+01-4.08366E-01-8.89232E-03 1.23461E+00-1.50318E-13-1.51992E-13
 -1      2850 2.11626E+01 6.26301E-02 3.14148E-03 1.08919E+00 3.67263E-14-1.94034E-13
 -1      2851 2.13171E+01-1.97396E-02-8.80401E-04 1.10315E+00-6.04319E-14-1.56299E-13
 -1      2852 2.10523E+01-8.43280E-02-5.85302E-03 1.25182E+00-6.85174E-14-1.63840E-13
 -1      2853 2.09173E+01 1.63638E-01 1.45803E-03 9.92257E-01 3.99278E-14-1.23517E-13
 -1      2854 2.10510E+01 1.20963E-01 1.07423E-03 1.03790E+00 6.25685E-14-1.59418E-13
 -1      2855 2.07984E+01 1.16961E-01-3.64452E-03 1.17361E+00-6.51334E-15-1.23067E-13
 -1      2856 2.07235E+01 2.06764E-01 4.66819E-04 8.63297E-01 5.99391E-14-3.27991E-14
 -1      2857 2.08381E+01 1.90882E-01 2.17562E-03 9.23850E-01 7.26871E-15-9.10027E-14
 -1      2858 2.06171E+01 2.23241E-01-2.27050E-03 1.04536E+00 3.31530E-14-3.92566E-14
 -1      2859 2.05681E+01 2.13556E-01-5.36603E-05 7.25605E-01-7.52948E-14-3.60606E-14
 -1      2860 2.06652E+01 2.14001E-01 2.68841E-03 7.90046E-01 7.35814E-14-1.77650E-14
 -1      2861 2.04829E+01 2.64736E-01-1.49042E-03 8.97069E-01 3.34617E-14-4.52709E-14
 -1      2862 2.04424E+01 1.99819E-01-2.87180E-04 5.93154E-01-1.44500E-13-1.79539E-13
 -1      2863 2.05236E+01 2.09157E-01 2.81154E-03 6.54871E-01-1.20616E-13-1.02655E-13
 -1      2864 2.03797E+01 2.66259E-01-1.07294E-03 7.47551E-01-4.16138E-14 1.19377E-14
 -1      2865 2.03406E+01 1.76094E-01-3.60187E-04 4.73475E-01 3.13296E-14-1.85844E-13
 -1      2866 2.04075E+01 1.89475E-01 2.69232E-03 5.28952E-01-6.43595E-14-1.35817E-13
 -1      2867 2.02981E+01 2.45639E-01-8.52180E-04 6.07785E-01-7.98024E-14-4.57055E-14
 -1      2868 2.02586E+01 1.48918E-01-3.51191E-04 3.69887E-01 1.36396E-13-1.76669E-13
 -1      2869 2.03128E+01 1.63393E-01 2.43695E-03 4.17635E-01 5.70961E-14-1.82969E-13
 -1      2870 2.02325E+01 2.14635E-01-7.25210E-04 4.83464E-01 3.47677E-14-1.15416E-13
 -1      2871 2.01932E+01 1.22073E-01-3.05863E-04 2.83087E-01 6.61098E-14-1.97094E-13
 -1      2872 2.02364E+01 1.35976E-01 2.11845E-03 3.22861E-01 1.82806E-13-2.27911E-13
 -1      2873 2.01793E+01 1.80487E-01-6.36764E-04 3.76827E-01 1.95367E-13-7.17474E-14
 -1      2874 2.01416E+01 9.75527E-02-2.49124E-04 2.12240E-01-6.47678E-14-2.77160E-13
 -1      2875 2.01754E+01 1.10038E-01 1.78465E-03 2.44508E-01-5.29808E-14-2.50681E-13
 -1      2876 2.01365E+01 1.47348E-01-5.61565E-04 2.87953E-01 3.57538E-14-1.95191E-13
 -1      2877 2.01015E+01 7.62391E-02-1.93573E-04 1.55710E-01-1.99940E-16-3.18609E-13
 -1      2878 2.01275E+01 8.69648E-02 1.46498E-03 1.81299E-01-1.52109E-14-2.79111E-13
 -1      2879 2.01022E+01 1.17373E-01-4.90218E-04 2.15652E-01-5.02588E-14-3.79498E-13
 -1      2880 2.00709E+01 5.83561E-02-1.44800E-04 1.11524E-01 1.26788E-13-3.16153E-13
 -1      2881 2.00905E+01 6.72755E-02 1.17578E-03 1.31399E-01 6.39659E-14-2.40114E-13
 -1      2882 2.00752E+01 9.14787E-02-4.20839E-04 1.58079E-01-6.35082E-15-3.06261E-13
 -1      2883 2.00479E+01 4.37594E-02-1.04597E-04 7.76610E-02-3.77769E-14-1.58171E-13
 -1      2884 2.00624E+01 5.09864E-02 9.24452E-04 9.27913E-02 5.28835E-14-1.99938E-13
 -1      2885 2.00541E+01 6.98449E-02-3.54494E-04 1.13137E-01-5.43179E-14-1.15516E-13
 -1      2886 2.00309E+01 3.21185E-02-7.28503E-05 5.22190E-02-1.33050E-14 1.42298E-14
 -1      2887 2.00414E+01 3.78448E-02 7.12695E-04 6.35058E-02-2.18203E-14 1.79096E-15
 -1      2888 2.00379E+01 5.22442E-02-2.92915E-04 7.87263E-02-8.97417E-14-5.78164E-14
 -1      2889 2.00187E+01 2.30264E-02-4.85979E-05 3.34973E-02-1.06831E-13-5.82099E-16
 -1      2890 2.00261E+01 2.74717E-02 5.38754E-04 4.17373E-02-3.39467E-14 4.95073E-14
 -1      2891 2.00257E+01 3.82455E-02-2.37517E-04 5.28887E-02-1.13816E-13-4.66118E-14
 -1      2892 2.00101E+01 1.60651E-02-3.05946E-05 2.00324E-02 1.60591E-13 9.62451E-15
 -1      2893 2.00152E+01 1.94481E-02 3.98992E-04 2.59049E-02 2.24074E-14 7.93744E-15
 -1      2894 2.00167E+01 2.73386E-02-1.89099E-04 3.38855E-02-5.63657E-14-1.85502E-13
 -1      2895 2.00043E+01 1.08409E-02-1.75972E-05 1.06002E-02 1.69135E-13 2.18155E-14
 -1      2896 2.00076E+01 1.33638E-02 2.88931E-04 1.46690E-02 2.03001E-13 8.38486E-14
 -1      2897 2.00102E+01 1.90075E-02-1.47860E-04 2.02240E-02 1.35357E-13-9.43776E-14
 -1      2898 2.00005E+01 7.00249E-03-8.49386E-06 4.20162E-03 7.92245E-14 1.12619E-13
 -1      2899 2.00026E+01 8.84345E-03 2.03911E-04 6.92349E-03 1.26300E-13 1.31144E-13
 -1      2900 2.00057E+01 1.27703E-02-1.13535E-04 1.06581E-02 8.08320E-14 1.01257E-13
 -1      2901 1.99982E+01 4.24738E-03-2.35192E-06 3.84111E-05 2.54037E-14 1.64755E-13
 -1      2902 1.99994E+01 5.55841E-03 1.39483E-04 1.77568E-03 1.53072E-13 2.18894E-13
 -1      2903 2.00025E+01 8.19945E-03-8.55518E-05 4.17182E-03 3.46391E-14 2.52212E-13
 -1      2904 1.99970E+01 2.32243E-03 1.57504E-06-2.51466E-03-1.05308E-13 1.04054E-13
 -1      2905 1.99975E+01 3.22987E-03 9.16269E-05-1.48020E-03-8.88577E-14 1.33972E-13
 -1      2906 2.00005E+01 4.92801E-03-6.31681E-05-4.60292E-05-2.01147E-14 1.77887E-13
 -1      2907 1.99965E+01 1.02009E-03 3.85830E-06-3.93737E-03-5.26164E-14-3.22970E-14
 -1      2908 1.99966E+01 1.62692E-03 5.68538E-05-3.39109E-03-3.04246E-14 9.46958E-14
 -1      2909 1.99992E+01 2.64973E-03-4.55799E-05-2.63029E-03-5.89321E-14 8.42960E-14
 -1      2910 1.99964E+01 1.72961E-04 4.91565E-06-4.58988E-03 6.48562E-14-1.90968E-13
 -1      2911 1.99962E+01 5.61864E-04 3.22255E-05-4.37206E-03-1.78865E-14-1.75404E-13
 -1      2912 1.99985E+01 1.11390E-03-3.19972E-05-4.06771E-03 2.60826E-14 1.24949E-14
 -1      2913 1.99966E+01-3.52567E-04 5.03593E-06-4.73547E-03-4.54270E-14-2.12508E-13
 -1      2914 1.99963E+01-1.15800E-04 1.53379E-05-4.73065E-03 7.28919E-14-2.41746E-13
 -1      2915 1.99982E+01 1.18514E-04-2.16882E-05-4.72325E-03 1.51590E-13-6.20569E-14
 -1      2916 1.99970E+01-6.62695E-04 4.40500E-06-4.55992E-03-1.42019E-13-2.84869E-13
 -1      2917 1.99966E+01-5.25839E-04 4.26709E-06-4.68793E-03-9.50032E-14-2.46448E-13
 -1      2918 1.99981E+01-4.97652E-04-1.40164E-05-4.86327E-03 2.08577E-15-1.09549E-13
 -1      2919 1.99975E+01-8.42159E-04 3.18812E-06-4.18753E-03-1.49344E-13-3.71711E-13
 -1      2920 1.99971E+01-7.63564E-04-2.49164E-06-4.39620E-03-1.60334E-13-3.93237E-13
 -1      2921 1.99982E+01-8.62776E-04-8.46297E-06-4.67537E-03-1.43237E-13-2.03707E-13
 -1      2922 1.99980E+01-9.59580E-04 1.03946E-06-3.69466E-03-2.55680E-13-1.77072E-13
 -1      2923 1.99976E+01-9.05609E-04-6.11843E-06-3.95352E-03-2.64511E-13-3.32729E-13
 -1      2924 1.99984E+01-1.07896E-03-4.58062E-06-4.28502E-03-2.68200E-13-4.35109E-13
 -1      2925 1.99984E+01-1.06804E-03-3.52944E-06-3.11846E-03-1.25717E-13 2.59530E-13
 -1      2926 1.99981E+01-1.01549E-03-8.74652E-06-3.41352E-03-1.60187E-13 4.96613E-14
 -1      2927 1.99987E+01-1.22584E-03-1.65975E-07-3.77099E-03-2.61331E-13-2.16356E-13
 -1      2928 1.99989E+01-1.25022E-03-7.47138E-06-2.58592E-03-1.20132E-13 2.08350E-13
 -1      2929 1.99986E+01-1.18479E-03-1.21798E-05-2.91783E-03-1.11868E-13 2.84980E-13
 -1      2930 1.99990E+01-1.40472E-03 1.05069E-05-3.26341E-03-1.85702E-13 5.56997E-15
 -1      2931 1.99994E+01-1.66003E-03 1.31878E-05-2.79607E-03-1.47094E-13-1.64171E-13
 -1      2932 1.43264E+01-3.61248E+00 8.11847E-02-6.01308E+00 6.17950E-13 2.51715E-13
 -1      2933 1.66081E+01-4.47198E+00 9.24891E-02-6.29783E+00 6.55503E-13 1.49214E-13
 -1      2934 2.00015E+01-3.64202E-03 7.87112E-06-2.39939E-04 4.24545E-14-3.25670E-13
 -1      2935 2.00015E+01-3.59799E-03 4.67686E-06-6.77175E-04 5.20677E-14-2.67485E-13
 -1      2936 2.00011E+01-3.21308E-03 1.16043E-05-1.93958E-03-1.14513E-13 6.25101E-14
 -1      2937 2.00008E+01-3.00314E-03-1.02730E-06-2.23990E-03-8.40316E-14-6.33992E-14
 -1      2938 2.00015E+01-3.59585E-03 4.80417E-06 6.91716E-04-4.46186E-15-5.02392E-14
 -1      2939 2.00015E+01-3.64160E-03 7.80658E-06 2.54769E-04 3.91081E-14-2.52639E-13
 -1      2940 2.00019E+01-3.42495E-03-8.10553E-06 7.99597E-06-9.13159E-14-3.52848E-13
 -1      2941 2.00014E+01-3.51213E-03 1.04427E-05-1.14812E-03-1.17623E-13-1.27130E-13
 -1      2942 2.00012E+01-3.38146E-03 1.06231E-06-1.53991E-03-2.22420E-13 7.90328E-14
 -1      2943 2.00015E+01-3.11270E-03-7.12915E-06-1.88968E-03-9.67476E-14 3.45947E-14
 -1      2944 2.00018E+01-3.34644E-03-7.87255E-06-9.89537E-04-6.83181E-14 2.50169E-14
 -1      2945 2.00012E+01-3.38258E-03 8.86620E-07 1.53926E-03-1.03417E-13-1.74429E-13
 -1      2946 2.00014E+01-3.51100E-03 1.03202E-05 1.15438E-03-1.10526E-13 1.34595E-13
 -1      2947 2.00018E+01-3.34599E-03-8.02890E-06 9.96832E-04-6.39417E-14-1.05751E-13
 -1      2948 2.00008E+01-3.00757E-03-3.18722E-06 2.24109E-03 1.38978E-13-3.83080E-13
 -1      2949 2.00011E+01-3.21406E-03 1.22327E-05 1.93872E-03 6.01669E-14-4.64814E-13
 -1      2950 2.00015E+01-3.11338E-03-7.38126E-06 1.88878E-03 6.55810E-14-1.57829E-13
 -1      2951 2.00003E+01-2.49333E-03-3.36891E-06 2.69099E-03 6.92353E-14 1.24776E-13
 -1      2952 2.00006E+01-2.76565E-03 1.16534E-05 2.52380E-03 1.79332E-13 4.07401E-14
 -1      2953 2.00009E+01-2.73356E-03-4.79379E-06 2.59692E-03 1.21729E-13-1.33856E-13
 -1      2954 1.99997E+01-2.06526E-03 1.71347E-06 2.76550E-03-2.04276E-14-2.20961E-13
 -1      2955 2.30394E+01-9.24749E-01-1.75279E-02-9.19523E-02 1.06214E-13 7.15398E-14
 -1      2956 2.29200E+01-6.46132E-01 1.87832E-02-2.75400E-01 1.39327E-13 5.63909E-14
 -1      2957 2.25163E+01-5.77323E-01-8.83988E-03-4.81823E-01 1.68412E-13-5.39690E-14
 -1      2958 2.31620E+01-1.25606E+00-1.18435E-02-1.77375E-01 4.89566E-14 3.54018E-14
 -1      2959 2.19465E+01 1.28482E+00-4.24221E-03 2.28135E-01 5.08807E-13-1.33938E-13
 -1      2960 2.15212E+01 1.55405E+00-4.24745E-03-9.39645E-02-4.40842E-13-3.64694E-13
 -1      2961 2.17039E+01 1.07209E+00-8.24445E-03 1.76286E-01-3.88194E-13-3.23807E-13
 -1      2962 2.93079E+01 5.24132E+00-2.06631E-01-1.45652E+00-1.12929E-12-1.79648E-14
 -1      2963 2.92765E+01 3.78996E+00-7.74041E-02-2.03862E+00-9.15323E-13 8.94840E-14
 -1      2964 2.91007E+01 3.83527E+00-1.98457E-01-2.01749E+00 8.97671E-13-6.62720E-13
 -1      2965 2.96985E+01 2.23792E+00-7.35226E-02-2.02311E+00 6.77014E-13-7.86038E-13
 -1      2966 2.40741E+01-2.86865E-01 4.99508E-03 1.93956E+00 1.45661E-13 2.64855E-13
 -1      2967 2.41708E+01-8.22858E-01-1.56683E-02 1.74994E+00 8.79004E-14 2.59121E-13
 -1      2968 2.47836E+01 1.07530E-01 9.65562E-05 2.19851E+00 2.71894E-13 3.48140E-13
 -1      2969 2.39503E+01-1.16294E+00-1.25119E-02 1.28109E+00 8.32537E-14 2.14376E-13
 -1      2970 2.39181E+01-1.29525E+00 3.32079E-03 9.30028E-01 6.58358E-14 2.20934E-13
 -1      2971 2.45914E+01-1.25634E+00-8.00807E-04 1.49891E+00 7.05139E-14 3.25710E-13
 -1      2972 2.19145E+01 6.72255E-01 1.55246E-02 3.82975E-01-2.97680E-13-2.83975E-13
 -1      2973 2.20040E+01 2.55662E-01-8.12077E-03 5.68128E-01-2.32477E-13-2.52129E-13
 -1      2974 2.16438E+01 1.22853E-01-1.86732E-02 8.09667E-01-1.86790E-13-3.07233E-13
 -1      2975 2.12546E+01 1.01741E+00-6.60422E-03 4.56027E-01-3.06449E-13-3.68880E-13
 -1      2976 2.05486E+01 2.47438E+00-6.07738E-03-1.82399E-01-4.21466E-13-5.49545E-13
 -1      2977 2.76640E+01-2.79902E+00-2.83956E-02-2.93448E-01 6.55769E-14 2.31690E-13
 -1      2978 2.88547E+01-8.40619E-01-1.64946E-01 1.03148E+00 4.16705E-13 2.88380E-13
 -1      2979 2.91531E+01 5.07207E+00-1.42164E-01 1.67585E+00 1.12510E-12 9.91152E-14
 -1      2980 2.87321E+01 6.03043E+00-2.17470E-01 8.59726E-01 1.19668E-12-7.76185E-14
 -1      2981 1.82434E+01 2.88170E+00 7.77543E-03-6.17336E-01 2.86022E-13-6.91292E-13
 -1      2982 1.75962E+01 3.09526E+00-1.61454E-02-6.73498E-01 2.09408E-13-7.52299E-13
 -1      2983 1.73108E+01 2.88683E+00 1.58238E-03-8.78187E-01 1.62321E-13-7.50305E-13
 -1      2984 1.86614E+01 2.27100E+00-4.51875E-03-8.25736E-01 2.65428E-13-6.07603E-13
 -1      2985 1.73595E+01 3.23212E+00-1.67391E-02 6.17658E-01-7.89672E-14-8.35782E-13
 -1      2986 1.80015E+01 3.02538E+00 8.16751E-03 5.96586E-01-1.39638E-13-7.84930E-13
 -1      2987 1.79855E+01-4.64271E+00-2.03835E-03 6.31145E+00 2.74752E-13-6.83446E-13
 -1      2988 1.44922E+01-3.55738E+00 1.17001E-01 6.24462E+00 3.88967E-13-8.76271E-13
 -1      2989 1.15683E+01-2.14959E+00 1.64642E-01-5.58216E+00-3.84359E-13-1.15452E-12
 -1      2990 1.49062E+01-3.44709E+00 2.49431E-02-6.31191E+00-4.19637E-13-9.61092E-13
 -1      2991 2.43350E+01-5.00616E+00-7.62319E-02 4.12215E+00 5.95496E-14-2.93265E-13
 -1      2992 2.14072E+01-4.98877E+00 9.32020E-02 5.26046E+00 2.18492E-13-4.72317E-13
 -1      2993 2.91320E+01 1.51781E+00-7.63901E-02 1.90792E+00 7.28348E-13 2.94736E-13
 -1      2994 2.91517E+01 3.34919E+00-1.95816E-01 1.93202E+00 9.73999E-13 2.15494E-13
 -1      2995 2.26814E+01-5.36435E+00-8.81522E-02 4.66153E+00-3.08115E-13-3.30059E-13
 -1      2996 1.92465E+01-4.97413E+00 1.45440E-01 5.78599E+00-4.75925E-13-1.02654E-13
 -1      2997 1.82697E+01-4.28174E+00 1.26192E-01-5.95349E+00-4.50195E-13-7.52148E-13
 -1      2998 2.07637E+01-4.91082E+00-4.20875E-02-5.50283E+00-3.64486E-13-5.39046E-13
 -1      2999 2.37256E+01-4.76590E+00 8.48057E-02-4.02231E+00-3.07115E-13-2.68320E-13
 -1      3000 2.59210E+01-4.38201E+00-1.11592E-01-2.28897E+00-1.55799E-13 2.64788E-14
 -1      3001 2.28279E+01-4.46853E+00 6.75927E-02-4.04943E+00-4.14835E-13-2.92068E-13
 -1      3002 7.04379E+00-1.01195E-01 1.18551E-01 2.09102E+00 1.57201E-13-1.39105E-12
 -1      3003 6.63047E+00 1.55508E-01 1.42150E-01 1.58375E-02 8.22380E-14-1.42944E-12
 -1      3004 1.90449E+01-5.03821E+00 6.46949E-02-5.76968E+00 6.97387E-13 1.01991E-13
 -1      3005 2.20483E+01-5.40743E+00-1.80501E-02-5.03061E+00 5.91110E-13-6.07379E-14
 -1      3006 1.93563E+01-4.46179E+00 9.88065E-02-5.33734E+00 7.31151E-13 1.57686E-14
 -1      3007 2.72451E+01-3.93906E+00-1.37547E-01 1.44601E+00 3.59227E-14-8.55704E-13
 -1      3008 2.57318E+01-4.65787E+00 7.78552E-02 2.70017E+00-1.30868E-13-6.66703E-13
 -1      3009 1.13881E+01-2.14928E+00 9.68277E-02 5.67979E+00 3.56867E-13-1.09873E-12
 -1      3010 8.75407E+00-8.63372E-01 1.50227E-01 3.95023E+00 3.40471E-13-1.26402E-12
 -1      3011 2.79922E+01-3.28907E+00-1.76899E-01 9.40797E-01-2.11903E-13 5.11813E-14
 -1      3012 2.66097E+01-4.21940E+00 4.72296E-02 2.38620E+00-3.86843E-14-1.13159E-13
 -1      3013 2.95301E+01 1.09417E+00-2.35244E-01-1.69891E+00-7.03021E-13 1.38611E-13
 -1      3014 2.93369E+01-9.89763E-01 8.81165E-03-8.23816E-01-4.58328E-13 1.27037E-13
 -1      3015 2.96692E+01 6.73139E+00-1.89276E-01 1.37778E-01-1.31523E-12-2.90924E-13
 -1      3016 2.97742E+01 6.55580E+00-1.59226E-01-6.88188E-01-1.28436E-12-1.29181E-13
 -1      3017 2.79789E+01 5.22033E+00-1.47521E-01-1.23668E+00-1.08014E-12-2.22877E-14
 -1      3018 2.88407E+01 6.09040E+00-1.44792E-01 6.33379E-01-1.20368E-12-3.99283E-13
 -1      3019 2.94353E+01 6.11400E-01-2.24887E-02 1.74990E+00-5.15074E-13-8.77604E-13
 -1      3020 2.98377E+01 2.69875E+00-2.07220E-01 1.96105E+00-7.63056E-13-7.38382E-13
 -1      3021 2.78263E+01-3.52375E+00-1.94029E-02-8.27309E-01-1.57513E-15-6.65329E-13
 -1      3022 2.85440E+01-2.32784E+00-1.89776E-01 2.69067E-01-2.43638E-13-8.15001E-13
 -1      3023 2.67260E+01-4.03446E+00 5.85342E-02-1.18723E+00 2.05155E-13-6.38115E-13
 -1      3024 2.94370E+01-4.27271E-02-1.78571E-01-1.20140E+00 4.48613E-13-8.80809E-13
 -1      3025 2.86136E+01-2.20606E+00-1.98506E-02-1.00570E-01 1.76442E-13-9.08024E-13
 -1      3026 2.85240E+01 5.43516E-01-3.79654E-02-1.92315E+00 3.67636E-13-8.09852E-13
 -1      3027 1.86795E+01 2.68255E+00-1.34066E-02 5.45740E-01-1.84451E-13-7.24821E-13
 -1      3028 1.93929E+01 2.42903E+00 6.11535E-04 4.31828E-01-2.56169E-13-6.68206E-13
 -1      3029 1.83948E+01 2.43182E+00-2.97284E-03 8.28253E-01-1.31051E-13-6.96750E-13
 -1      3030 1.58436E+01 3.61919E+00 1.53966E-02-1.11195E-01 5.61902E-14-8.80834E-13
 -1      3031 1.59460E+01 3.87647E+00-7.25464E-03 4.33891E-02 4.53959E-14-9.16668E-13
 -1      3032 1.60799E+01 3.83888E+00-1.42405E-04 1.98387E-01 7.17015E-15-9.26121E-13
 -1      3033 1.16587E+01-1.02873E+00 1.81002E-01-4.61313E+00-3.30486E-13-1.15515E-12
 -1      3034 9.65245E+00-1.78857E-01 1.56834E-01 2.01121E+00-2.72095E-13 5.18544E-13
 -1      3035 8.51429E+00 5.46652E-01 1.88631E-01-1.09210E+00-3.43319E-14-1.33960E-12
 -1      3036 2.83400E+01 1.96886E+00-1.00617E-01-2.08360E+00-6.95152E-13 1.37751E-13
 -1      3037 1.83361E+01-4.30057E+00 1.25700E-01 5.66259E+00-5.33143E-13-5.48173E-14
 -1      3038 9.83212E+00-1.18519E-03 1.42117E-01-1.70466E+00 5.47028E-14 7.11278E-13
 -1      3039 8.67200E+00-5.52989E-01 1.52109E-01-2.63912E+00 2.31540E-13 8.13238E-13
 -1      3040 2.46166E+01 3.65827E+00-5.98806E-02 5.02647E-01-7.26509E-13-3.47548E-13
 -1      3041 2.47100E+01 3.17305E+00-9.03901E-02 1.35767E+00-6.21128E-13-4.64878E-13
 -1      3042 2.59010E+01 3.19902E+00-6.98746E-02 1.89804E+00-6.82357E-13-6.49175E-13
 -1      3043 2.57409E+01 4.37956E+00-9.50525E-02-1.02755E-01-8.53789E-13-2.07526E-13
 -1      3044 1.99994E+01-1.62616E-03-6.40432E-07 3.21515E-03 1.81263E-13-3.80850E-13
 -1      3045 2.75874E+01-3.01290E+00-3.87225E-03 8.88241E-02 4.24782E-14-9.16989E-13
 -1      3046 2.39086E+01-1.62116E+00-1.88685E-02 5.27088E-01 2.43586E-14 1.52347E-13
 -1      3047 1.26927E+01-2.60890E+00 1.22909E-01-5.58549E+00 5.76941E-13 3.98501E-13
 -1      3048 1.50740E+01-2.86861E+00 9.50822E-02-5.40885E+00 6.49335E-13 1.57430E-13
 -1      3049 1.99997E+01-1.99389E-03-4.32046E-06-2.79064E-03-8.86611E-14-2.88801E-13
 -1      3050 1.99996E+01-1.86059E-03-1.18158E-05-3.05594E-03-1.84910E-13-2.81626E-13
 -1      3051 2.00001E+01-2.30289E-03 1.22682E-05-2.77806E-03-1.64140E-13-1.22306E-13
 -1      3052 2.15239E+01 1.29230E+00-7.10218E-03 1.28625E-02 4.70180E-13-2.27966E-13
 -1      3053 2.13383E+01 9.76208E-01-7.57089E-03-3.22743E-01 3.82015E-13-2.57956E-13
 -1      3054 1.40812E+01-2.70002E+00 6.44270E-03 5.42580E+00-5.91721E-13 1.50463E-13
 -1      3055 1.22793E+01-2.15490E+00 1.50855E-01 5.16528E+00-5.72015E-13 3.39173E-13
 -1      3056 1.23017E+01-1.23364E+00 9.88240E-02 4.36203E+00-4.59445E-13 2.75391E-13
 -1      3057 1.99997E+01-1.86484E-03 1.67647E-06 3.11566E-03 1.05096E-13-3.52413E-13
 -1      3058 2.00001E+01-2.25413E-03 1.67842E-06 2.88359E-03 7.78889E-14-1.97270E-13
 -1      3059 2.00003E+01-2.26257E-03-2.04802E-06 3.05734E-03 1.42189E-13 1.13041E-14
 -1      3060 1.99997E+01-1.80151E-03-2.41735E-06 3.32864E-03 2.41809E-13-3.87603E-13
 -1      3061 2.81675E+01-2.21744E+00-4.89832E-03-3.91006E-01-2.19089E-13 1.49034E-13
 -1      3062 1.43183E+01-2.35064E+00 1.30658E-01 5.47144E+00 4.67307E-13-9.13478E-13
 -1      3063 2.83930E+01 4.57960E+00-1.57315E-01-1.87117E+00 1.00581E-12-5.25982E-13
 -1      3064 2.74505E+01 3.33774E+00-8.71695E-02-2.16966E+00 7.51885E-13-5.43551E-13
 -1      3065 2.71655E+01 5.05354E+00-1.52629E-01-1.50392E+00 1.01630E-12-3.62661E-13
 -1      3066 2.80821E+01 2.29801E-01 4.25449E-03 1.97428E+00 4.44013E-13 3.39700E-13
 -1      3067 1.73113E+01-3.31997E+00 1.21590E-01-5.60314E+00-4.94271E-13-7.82902E-13
 -1      3068 2.40555E+01-4.84942E+00 2.75524E-02 3.30945E+00-2.81164E-13-5.30555E-13
 -1      3069 2.88004E+01 3.46454E+00-1.44679E-01 2.15261E+00-8.28157E-13-6.83134E-13
 -1      3070 2.03651E+01 2.11357E+00 3.53006E-04 1.47706E-01-3.45488E-13-5.56108E-13
 -1      3071 2.53854E+01-4.51085E+00 2.86951E-02 2.77933E+00 1.43233E-13-8.66043E-14
 -1      3072 2.37142E+01-4.99661E+00 4.48911E-02-3.62932E+00 5.46563E-13-2.69323E-13
 -1      3073 2.79011E+01 3.77092E+00-1.62627E-02 2.07229E+00 8.95048E-13 2.31329E-13
 -1      3074 2.00006E+01-2.81155E-03 1.21011E-05-2.47759E-03-2.09974E-13-2.41633E-13
 -1      3075 2.00003E+01-2.54294E-03-1.62370E-06-2.64919E-03-2.44094E-13-1.83938E-13
 -1      3076 2.00004E+01-2.38513E-03-9.23635E-06-2.91791E-03-1.48490E-13-2.21507E-13
 -1      3077 2.00010E+01-2.78018E-03-7.89127E-06-2.54364E-03 3.09284E-15-8.40609E-14
 -1      3078 1.63718E+01 3.66880E+00-1.49694E-02 4.29835E-01-6.32003E-15-8.76712E-13
 -1      3079 1.68152E+01 3.53327E+00 6.86541E-03 5.17424E-01-5.96021E-14-8.56850E-13
 -1      3080 1.70590E+01 3.04108E+00 4.85435E-03 7.81960E-01-4.96664E-14-8.11659E-13
 -1      3081 1.61283E+01 3.48659E+00 1.33319E-02 4.33386E-01-1.07455E-15-8.75682E-13
 -1      3082 2.69787E+01-3.53214E+00-1.38397E-02-7.59792E-01-7.95509E-14 1.75734E-13
 -1      3083 2.70127E+01-2.35534E+00-3.09801E-02 7.15524E-01 2.80539E-14 2.80151E-13
 -1      3084 2.58713E+01-3.75868E+00 1.08328E-02-1.31312E+00-1.75672E-13 1.11498E-13
 -1      3085 2.78461E+01 5.81385E+00-1.03511E-01 4.04827E-01 1.09415E-12-8.63788E-14
 -1      3086 2.04702E+01-4.47010E+00 8.80434E-02 5.21441E+00 3.82777E-13-4.89548E-13
 -1      3087 2.83362E+01-1.03343E+00-3.51966E-02 1.39296E+00-2.74669E-13-8.30683E-13
 -1      3088 9.65448E+00-1.14835E+00 1.35733E-01-3.92467E+00 3.52454E-13 7.31928E-13
 -1      3089 9.80775E+00 5.94459E-02 1.77088E-01 2.92431E+00 2.88720E-13-1.25058E-12
 -1      3090 1.08263E+01-1.88078E+00 1.21772E-01-4.79475E+00 5.00808E-13 6.19546E-13
 -1      3091 2.06249E+01 1.06845E+00 8.01858E-03-7.04660E-01 3.01231E-13-3.83695E-13
 -1      3092 1.99142E+01 1.34822E+00 9.15900E-04-8.75350E-01 2.57572E-13-4.77002E-13
 -1      3093 2.74389E+01-1.51335E+00-1.19031E-01-1.38042E+00-2.42778E-13 2.74863E-13
 -1      3094 2.70328E+01-2.96545E+00 3.84914E-02-1.03929E-01-2.13822E-14 2.28539E-13
 -1      3095 1.01942E+01 4.57426E-01 1.00939E-01-5.87361E-01-7.96959E-15 7.20271E-13
 -1      3096 1.10236E+01 6.82100E-02 2.39783E-02-2.23163E+00 1.11019E-13 6.56405E-13
 -1      3097 2.25634E+01-1.53639E+00 4.07990E-02 1.32652E+00 5.95808E-14-1.65818E-13
 -1      3098 2.30608E+01-2.08565E+00-1.18357E-02 1.13877E+00 9.67689E-14-1.06396E-13
 -1      3099 2.40024E+01-2.55018E+00 3.37016E-02 8.37402E-01 1.01062E-13-4.21451E-15
 -1      3100 2.45884E+01-2.77088E+00-7.90623E-03 3.76007E-01 6.23269E-14 6.24210E-14
 -1      3101 2.30189E+01-2.61051E+00-3.38527E-02 1.66984E+00 1.41390E-13-1.22174E-13
 -1      3102 2.58092E+01-2.40838E+00-2.05386E-02-7.59587E-01-3.55258E-14 2.20973E-13
 -1      3103 2.62418E+01-1.67976E+00-1.03059E-02-1.40723E+00-1.52971E-13 2.60612E-13
 -1      3104 2.67459E+01 2.60016E+00-1.79613E-01-2.23545E+00-7.60295E-13 2.06460E-13
 -1      3105 2.66959E+01 4.26877E+00-6.61753E-02-1.67771E+00-8.87290E-13 8.87138E-14
 -1      3106 2.64529E+01-1.94916E+00 1.96149E-03 1.34944E+00-8.71872E-14-7.56933E-13
 -1      3107 2.58906E+01-2.80393E+00 4.78158E-03 6.05205E-01 7.40302E-14-7.69749E-13
 -1      3108 2.47627E+01-3.03379E+00-1.40790E-02-1.80824E-01 1.55799E-13-6.28169E-13
 -1      3109 2.41248E+01-2.93067E+00 3.64021E-02-7.56557E-01 2.52460E-13-5.62963E-13
 -1      3110 2.52867E+01-3.45181E+00-2.26414E-02-4.90367E-01 1.93178E-13-5.58845E-13
 -1      3111 2.31388E+01-2.60908E+00-8.32544E-03-1.17581E+00 2.32155E-13-5.13719E-13
 -1      3112 2.25708E+01-2.17865E+00 3.73320E-02-1.50455E+00 1.91683E-13-5.03778E-13
 -1      3113 2.31695E+01-3.14940E+00-3.06932E-02-1.64128E+00 2.76217E-13-3.56412E-13
 -1      3114 2.18876E+01-1.73797E+00-7.34770E-04-1.64459E+00 1.83434E-13-4.50011E-13
 -1      3115 2.14498E+01-1.29142E+00 2.32122E-02-1.78088E+00 1.85476E-13-3.86163E-13
 -1      3116 2.16071E+01-2.19091E+00-3.89286E-02-2.09431E+00 2.49693E-13-2.49451E-13
 -1      3117 2.10569E+01-9.09346E-01 4.53792E-03-1.75768E+00 1.28002E-13-3.55723E-13
 -1      3118 2.07570E+01-5.69591E-01 1.19500E-02-1.77906E+00 1.48103E-13-3.13343E-13
 -1      3119 2.06371E+01-1.18132E+00-2.66277E-02-2.09666E+00 1.86948E-13-3.04565E-13
 -1      3120 2.05583E+01-2.96450E-01 5.35379E-03-1.69095E+00 1.57129E-13-3.39065E-13
 -1      3121 2.03684E+01-7.30708E-02 5.19578E-03-1.64923E+00 1.19009E-13-2.74204E-13
 -1      3122 2.01180E+01-4.27822E-01-1.51767E-02-1.92297E+00 1.40937E-13-2.94217E-13
 -1      3123 2.02851E+01 9.79839E-02 4.74270E-03-1.53970E+00 8.18259E-14-1.77998E-13
 -1      3124 2.01688E+01 2.26824E-01 1.41448E-03-1.46615E+00 3.38512E-14-1.56316E-13
 -1      3125 1.98755E+01 6.19796E-02-7.67164E-03-1.69362E+00 1.24892E-13-2.46231E-13
 -1      3126 2.01481E+01 3.19723E-01 3.86165E-03-1.35425E+00 2.76198E-14-1.59259E-13
 -1      3127 2.00765E+01 3.81562E-01-5.72607E-04-1.26713E+00 6.74331E-14-1.68352E-13
 -1      3128 1.97904E+01 3.43448E-01-3.24061E-03-1.45773E+00 7.70022E-14-2.45449E-13
 -1      3129 2.00861E+01 4.21061E-01 3.13321E-03-1.16087E+00 3.63279E-14-1.25656E-13
 -1      3130 2.00398E+01 4.39518E-01-1.52765E-03-1.07104E+00-8.82374E-15-1.54918E-13
 -1      3131 1.97856E+01 4.78655E-01-8.92995E-04-1.23415E+00 5.12204E-14-2.06473E-13
 -1      3132 2.00614E+01 4.45599E-01 2.62135E-03-9.73872E-01-2.75501E-15-1.63869E-13
 -1      3133 2.00290E+01 4.38243E-01-1.88255E-03-8.87825E-01 2.91960E-14-1.84648E-13
 -1      3134 1.98162E+01 5.19306E-01 2.14788E-04-1.02949E+00 8.36174E-15-1.41601E-13
 -1      3135 2.00530E+01 4.25242E-01 2.26349E-03-8.01279E-01-2.76872E-14-2.38686E-13
 -1      3136 2.00284E+01 4.04101E-01-1.90957E-03-7.22723E-01-4.48706E-14-1.85768E-13
 -1      3137 1.98577E+01 5.03421E-01 6.41747E-04-8.46193E-01-5.48188E-14-8.34496E-14
 -1      3138 2.00504E+01 3.81565E-01 1.98698E-03-6.47337E-01-2.00922E-14-1.61303E-13
 -1      3139 2.00304E+01 3.54392E-01-1.76842E-03-5.78141E-01-1.47704E-14-1.32529E-13
 -1      3140 1.98981E+01 4.57044E-01 7.19101E-04-6.85073E-01-1.09274E-14-1.22412E-13
 -1      3141 2.00486E+01 3.28319E-01 1.74594E-03-5.13821E-01 5.05361E-14-1.34181E-13
 -1      3142 2.00318E+01 2.99841E-01-1.55084E-03-4.54603E-01 6.82701E-14-1.82920E-13
 -1      3143 1.99322E+01 3.97063E-01 6.40312E-04-5.46049E-01-1.15516E-14-1.73712E-13
 -1      3144 2.00459E+01 2.73787E-01 1.51911E-03-4.00795E-01-1.57855E-14-1.68274E-13
 -1      3145 2.00316E+01 2.46709E-01-1.30938E-03-3.51343E-01-2.24510E-14-2.86691E-13
 -1      3146 1.99588E+01 3.33885E-01 5.07546E-04-4.28319E-01-2.85795E-14-1.33205E-13
 -1      3147 2.00421E+01 2.22622E-01 1.30161E-03-3.07166E-01-7.23492E-15-3.44745E-13
 -1      3148 2.00300E+01 1.98332E-01-1.07395E-03-2.66748E-01-8.97187E-14-3.48752E-13
 -1      3149 1.99783E+01 2.73538E-01 3.70436E-04-3.30452E-01-6.66210E-14-2.69332E-13
 -1      3150 2.00375E+01 1.77134E-01 1.09590E-03-2.31125E-01-2.46301E-14-3.21486E-13
 -1      3151 2.00273E+01 1.56196E-01-8.60125E-04-1.98736E-01 4.86551E-14-2.60890E-13
 -1      3152 1.99919E+01 2.19185E-01 2.51059E-04-2.50549E-01 1.25467E-14-2.90460E-13
 -1      3153 2.00324E+01 1.38184E-01 9.06151E-04-1.70509E-01 7.24270E-14-7.49092E-14
 -1      3154 2.00240E+01 1.20667E-01-6.74613E-04-1.45029E-01 8.28841E-14-4.47014E-14
 -1      3155 2.00007E+01 1.72158E-01 1.56483E-04-1.86449E-01 1.72273E-13-2.71553E-13
 -1      3156 2.00273E+01 1.05773E-01 7.35854E-04-1.23048E-01-4.53015E-14-1.71126E-14
 -1      3157 2.00205E+01 9.14703E-02-5.18857E-04-1.03364E-01-9.54599E-14-1.44780E-14
 -1      3158 2.00060E+01 1.32683E-01 8.63316E-05-1.35907E-01 3.31082E-14-5.19150E-14
 -1      3159 2.00224E+01 7.94311E-02 5.87007E-04-8.65451E-02-7.47151E-14 5.29038E-14
 -1      3160 2.00170E+01 6.79964E-02-3.91404E-04-7.16154E-02-5.48307E-14 1.45911E-13
 -1      3161 2.00088E+01 1.00350E-01 3.71200E-05-9.67413E-02-3.91893E-14 3.75055E-14
 -1      3162 2.00181E+01 5.84593E-02 4.60046E-04-5.89801E-02-1.45302E-13 1.15303E-13
 -1      3163 2.00139E+01 4.94925E-02-2.89353E-04-4.78708E-02-6.01705E-14 1.01042E-13
 -1      3164 2.00100E+01 7.44223E-02 4.51561E-06-6.69244E-02-1.47176E-13 6.31467E-14
 -1      3165 2.00143E+01 4.20790E-02 3.54141E-04-3.85639E-02-1.14619E-13-8.90150E-15
 -1      3166 2.00110E+01 3.51773E-02-2.09222E-04-3.04677E-02-1.41872E-13 1.22227E-14
 -1      3167 2.00100E+01 5.40315E-02-1.56073E-05-4.46442E-02-1.72023E-13-2.23062E-13
 -1      3168 2.00111E+01 2.95211E-02 2.67591E-04-2.37609E-02-2.30548E-13 3.00193E-14
 -1      3169 2.00086E+01 2.43079E-02-1.47465E-04-1.79976E-02-2.44500E-13-1.73238E-13
 -1      3170 2.00093E+01 3.82908E-02-2.67520E-05-2.83291E-02-1.99402E-13-1.85873E-13
 -1      3171 2.00084E+01 2.00743E-02 1.98205E-04-1.32856E-02-1.86004E-13-2.21730E-13
 -1      3172 2.00066E+01 1.62137E-02-1.00752E-04-9.29550E-03-1.22880E-13-3.30045E-13
 -1      3173 2.00083E+01 2.63651E-02-3.17031E-05-1.66504E-02-2.04975E-13-2.10561E-13
 -1      3174 2.00062E+01 1.31094E-02 1.43593E-04-6.08548E-03 1.13829E-14-1.68373E-13
 -1      3175 2.00049E+01 1.03118E-02-6.61114E-05-3.41751E-03 9.51393E-15-1.22242E-13
 -1      3176 2.00072E+01 1.75047E-02-3.25761E-05-8.51039E-03-6.96673E-14-9.59971E-14
 -1      3177 2.00045E+01 8.08705E-03 1.01389E-04-1.31617E-03 9.92457E-14-1.98541E-13
 -1      3178 2.00036E+01 6.10900E-03-4.09853E-05 3.86290E-04 1.74099E-13-1.23058E-13
 -1      3179 2.00060E+01 1.10603E-02-3.09218E-05-3.02050E-03 6.25447E-14-1.54286E-13
 -1      3180 2.00032E+01 4.55608E-03 6.93857E-05 1.68695E-03 7.46917E-14-1.32735E-13
 -1      3181 2.00025E+01 3.19724E-03-2.32356E-05 2.70029E-03 5.08242E-14-6.81111E-14
 -1      3182 2.00049E+01 6.48400E-03-2.78424E-05 5.24547E-04 1.24569E-13-2.54007E-13
 -1      3183 2.00021E+01 2.14647E-03 4.56207E-05 3.43673E-03-4.48261E-14-3.38131E-14
 -1      3184 2.00017E+01 1.24462E-03-1.11130E-05 3.97081E-03-8.73025E-14-1.06712E-13
 -1      3185 2.00038E+01 3.32330E-03-2.40978E-05 2.67384E-03-2.89363E-14-2.34233E-13
 -1      3186 2.00014E+01 5.59432E-04 2.83999E-05 4.32071E-03-1.51355E-13-1.87531E-13
 -1      3187 2.00011E+01-1.51899E-05-3.22037E-06 4.53115E-03-1.05837E-13-3.89636E-13
 -1      3188 2.00029E+01 1.21065E-03-2.01967E-05 3.84625E-03-1.46587E-13-2.78937E-13
 -1      3189 2.00008E+01-4.43642E-04 1.63026E-05 4.62477E-03-1.27716E-13-4.24477E-13
 -1      3190 2.00006E+01-7.94109E-04 1.51797E-06 4.62366E-03-5.86220E-14-2.92204E-13
 -1      3191 2.00022E+01-1.48610E-04-1.64965E-05 4.35422E-03-1.18060E-13-3.82144E-13
 -1      3192 2.00004E+01-1.05230E-03 8.21332E-06 4.55335E-03 9.31222E-14-1.58360E-13
 -1      3193 2.00003E+01-1.26022E-03 4.09107E-06 4.41816E-03 4.22648E-14-4.00858E-13
 -1      3194 2.00015E+01-9.89055E-04-1.32466E-05 4.42460E-03 7.68127E-14-2.18637E-13
 -1      3195 2.00001E+01-1.41799E-03 2.90921E-06 4.24689E-03-6.57490E-14-2.21987E-13
 -1      3196 2.00000E+01-1.54651E-03 4.38407E-06 4.02691E-03 6.09885E-14-3.11968E-13
 -1      3197 2.00010E+01-1.49588E-03-1.05253E-05 4.21602E-03 8.24394E-14-1.91408E-13
 -1      3198 1.99998E+01-1.62848E-03-2.69553E-07 3.83477E-03 1.16344E-13-3.73783E-13
 -1      3199 1.99998E+01-1.72894E-03 2.61023E-06 3.55749E-03 2.44684E-13-2.98857E-13
 -1      3200 2.00002E+01-1.96451E-03-2.81473E-06 3.46284E-03 1.18627E-13-9.22396E-14
 -1      3201 2.00006E+01-1.78665E-03-8.38465E-06 3.87311E-03 4.11786E-14 9.64935E-14
 -1      3202 9.28119E+00 1.11031E+00 4.77971E-02-8.60257E-02 4.00483E-14-1.20821E-12
 -1      3203 9.75643E+00 7.79230E-01 7.82904E-02-2.19213E+00-1.05416E-13-1.21070E-12
 -1      3204 1.52940E+01-2.27009E+00 4.15943E-02-4.88499E+00 5.57790E-13 1.42802E-13
 -1      3205 1.71408E+01-3.24933E+00 6.27889E-02-5.25578E+00 6.02157E-13 3.86080E-14
 -1      3206 2.58083E+01 2.66059E+00-1.15828E-01 1.86083E+00 7.29430E-13 2.07602E-13
 -1      3207 2.60271E+01 1.36882E+00-1.58298E-01 2.31152E+00 5.67157E-13 2.88457E-13
 -1      3208 2.55266E+01 3.87037E-01-8.01013E-02-2.43619E+00 2.40745E-13-4.39603E-13
 -1      3209 2.53940E+01 1.73802E+00-2.12164E-02-2.29432E+00 4.23724E-13-4.27779E-13
 -1      3210 2.52298E+01-1.58477E+00-2.78113E-02-1.63758E+00 8.12302E-14-5.01287E-13
 -1      3211 2.53309E+01-7.43031E-01-2.41099E-02-2.00381E+00 1.51559E-13-4.55037E-13
 -1      3212 2.61987E+01-4.17240E-01-7.57892E-02-2.14987E+00 1.99007E-13-5.25836E-13
 -1      3213 2.43851E+01-2.26471E+00 3.13984E-02-4.21611E-01-6.86343E-14-4.92228E-13
 -1      3214 2.46657E+01-2.08891E+00-1.67815E-02-9.31206E-01 2.39262E-14-4.61717E-13
 -1      3215 2.53349E+01-2.24925E+00-4.44272E-03-9.58460E-01 4.71082E-14-5.59176E-13
 -1      3216 2.31891E+01-1.99020E+00 2.42407E-02 5.82247E-01-1.01657E-13-4.62377E-13
 -1      3217 2.35877E+01-2.22970E+00-2.08178E-02 1.82502E-01-6.12843E-14-4.53534E-13
 -1      3218 2.39813E+01-2.73251E+00-4.56640E-02 3.33923E-01-6.86525E-14-4.75807E-13
 -1      3219 2.22057E+01-1.37224E+00 2.22618E-02 1.12921E+00-1.00950E-13-4.55935E-13
 -1      3220 2.25689E+01-1.70894E+00-7.98224E-03 8.81270E-01-9.04383E-14-4.45413E-13
 -1      3221 2.25757E+01-2.13556E+00-3.27350E-02 1.12043E+00-9.74884E-14-4.63706E-13
 -1      3222 2.14673E+01-7.56474E-01 1.44207E-02 1.37826E+00-1.89803E-13-3.49314E-13
 -1      3223 2.17513E+01-1.06518E+00-5.19165E-03 1.26182E+00-1.04016E-13-4.38627E-13
 -1      3224 2.15962E+01-1.39051E+00-2.29305E-02 1.50605E+00-1.22278E-13-4.50075E-13
 -1      3225 2.09716E+01-2.78650E-01 8.23431E-03 1.42005E+00-1.70673E-13-1.95334E-13
 -1      3226 2.11810E+01-5.04788E-01-8.18070E-04 1.39333E+00-2.06141E-13-2.33632E-13
 -1      3227 2.09207E+01-7.01098E-01-1.58411E-02 1.59861E+00-2.61454E-13-2.78660E-13
 -1      3228 2.06573E+01 3.91804E-02 4.03039E-03 1.34540E+00-1.14253E-13-1.16071E-13
 -1      3229 2.08065E+01-1.05062E-01 1.23258E-03 1.37395E+00-1.12824E-13-1.10193E-13
 -1      3230 2.05150E+01-1.97684E-01-9.44252E-03 1.53376E+00-1.91651E-13-1.75779E-13
 -1      3231 2.04617E+01 2.23672E-01 1.39466E-03 1.21089E+00 1.22722E-14-9.49572E-14
 -1      3232 2.05687E+01 1.43857E-01 2.05349E-03 1.27014E+00-4.25474E-14-1.02298E-13
 -1      3233 2.02872E+01 1.23618E-01-5.09314E-03 1.39363E+00-4.85836E-14-9.24156E-14
 -1      3234 2.03387E+01 3.11899E-01-1.18939E-04 1.05107E+00 3.75034E-14-1.18199E-13
 -1      3235 2.04178E+01 2.77003E-01 2.33740E-03 1.12446E+00 6.18659E-14-1.07304E-13
 -1      3236 2.01668E+01 3.02232E-01-2.48941E-03 1.22205E+00 3.81370E-14-1.00419E-13
 -1      3237 2.02581E+01 3.37231E-01-8.91810E-04 8.86930E-01-5.42877E-14-1.57809E-14
 -1      3238 2.03190E+01 3.30890E-01 2.39155E-03 9.63754E-01-5.66079E-14-8.77017E-14
 -1      3239 2.01065E+01 3.81236E-01-1.05416E-03 1.04321E+00 2.00425E-15-7.44277E-14
 -1      3240 2.02020E+01 3.25092E-01-1.21435E-03 7.30872E-01-1.00708E-13 1.94259E-14
 -1      3241 2.02504E+01 3.35279E-01 2.32604E-03 8.04572E-01 2.92523E-14 2.81133E-14
 -1      3242 2.00774E+01 3.96619E-01-3.36577E-04 8.70792E-01-1.28099E-13-4.88524E-14
 -1      3243 2.01603E+01 2.93091E-01-1.27846E-03 5.89702E-01-1.68418E-14-6.03264E-14
 -1      3244 2.01997E+01 3.11661E-01 2.18225E-03 6.56596E-01-1.35120E-13-5.72297E-14
 -1      3245 2.00630E+01 3.74904E-01-2.79447E-05 7.12434E-01-4.32440E-14-1.26111E-14
 -1      3246 2.01277E+01 2.52613E-01-1.20352E-03 4.66564E-01 8.44759E-14-1.90019E-13
 -1      3247 2.01600E+01 2.74389E-01 1.98603E-03 5.24918E-01 3.21610E-14-1.07203E-13
 -1      3248 2.00550E+01 3.34139E-01 6.83228E-05 5.72030E-01 3.59012E-14-1.77560E-13
 -1      3249 2.01013E+01 2.10581E-01-1.06231E-03 3.62226E-01 8.67395E-14 4.99569E-14
 -1      3250 2.01277E+01 2.32466E-01 1.75843E-03 4.11581E-01 8.53897E-14-8.25736E-14
 -1      3251 2.00491E+01 2.85881E-01 6.83419E-05 4.51042E-01 2.50476E-14-1.90826E-13
 -1      3252 2.00797E+01 1.70912E-01-8.97880E-04 2.75953E-01 7.91023E-14-1.08196E-13
 -1      3253 2.01011E+01 1.91194E-01 1.51798E-03 3.16643E-01 1.47778E-13 6.16954E-14
 -1      3254 2.00438E+01 2.37104E-01 3.29795E-05 3.49305E-01 7.57457E-14 1.34596E-14
 -1      3255 2.00619E+01 1.35575E-01-7.34703E-04 2.06141E-01-8.57843E-14-4.95735E-14
 -1      3256 2.00791E+01 1.53431E-01 1.28044E-03 2.38948E-01 2.96162E-14-2.45662E-14
 -1      3257 2.00385E+01 1.91712E-01-7.78155E-06 2.65598E-01 5.59928E-14 1.43113E-13
 -1      3258 2.00474E+01 1.05326E-01-5.85567E-04 1.50759E-01-2.40230E-14 5.24963E-14
 -1      3259 2.00610E+01 1.20483E-01 1.05735E-03 1.76679E-01-7.47607E-14-4.17356E-14
 -1      3260 2.00332E+01 1.51612E-01-4.12081E-05 1.98086E-01-8.18802E-14 2.36013E-13
 -1      3261 2.00357E+01 8.02031E-02-4.56078E-04 1.07648E-01-7.00808E-14 8.19009E-15
 -1      3262 2.00463E+01 9.27097E-02 8.55966E-04 1.27735E-01 4.23845E-14-1.38640E-14
 -1      3263 2.00280E+01 1.17475E-01-6.36164E-05 1.44652E-01-4.00711E-14 1.44575E-13
 -1      3264 2.00263E+01 5.98469E-02-3.47640E-04 7.47131E-02-1.43513E-14-8.47615E-14
 -1      3265 2.00345E+01 6.99253E-02 6.79955E-04 8.99847E-02-4.93716E-14-4.71556E-14
 -1      3266 2.00231E+01 8.92339E-02-7.55427E-05 1.03130E-01 3.26810E-14 2.66078E-14
 -1      3267 2.00190E+01 4.37061E-02-2.59339E-04 5.00319E-02-1.73833E-13-1.62345E-13
 -1      3268 2.00252E+01 5.16586E-02 5.30255E-04 6.14156E-02-1.17725E-13-1.26569E-13
 -1      3269 2.00188E+01 6.64219E-02-7.91234E-05 7.14523E-02-4.04037E-14-1.54846E-13
 -1      3270 2.00134E+01 3.11617E-02-1.89104E-04 3.19128E-02 7.15381E-14-2.18555E-13
 -1      3271 2.00179E+01 3.73139E-02 4.05913E-04 4.02200E-02-2.91023E-14-1.08016E-13
 -1      3272 2.00149E+01 4.83810E-02-7.67956E-05 4.77429E-02-1.20504E-13-1.09537E-13
 -1      3273 2.00091E+01 2.16012E-02-1.34406E-04 1.89116E-02 2.18042E-14-1.02177E-14
 -1      3274 2.00124E+01 2.62685E-02 3.04804E-04 2.48312E-02 1.95992E-14-1.41401E-13
 -1      3275 2.00116E+01 3.43932E-02-7.07286E-05 3.03575E-02-2.13215E-14 6.04248E-15
 -1      3276 2.00060E+01 1.44593E-02-9.26626E-05 9.82741E-03-4.52774E-15 1.01114E-13
 -1      3277 2.00083E+01 1.79291E-02 2.24185E-04 1.39290E-02 9.43689E-14-2.99780E-14
 -1      3278 2.00089E+01 2.37574E-02-6.26330E-05 1.78980E-02 3.48889E-14 5.56055E-14
 -1      3279 2.00037E+01 9.23701E-03-6.14554E-05 3.68364E-03-8.95525E-14 1.51034E-13
 -1      3280 2.00052E+01 1.17608E-02 1.61099E-04 6.42793E-03-1.90192E-14 1.20883E-13
 -1      3281 2.00067E+01 1.58310E-02-5.37500E-05 9.20420E-03-2.98218E-14 2.09298E-14
 -1      3282 2.00021E+01 5.50841E-03-3.86427E-05-2.97814E-04 1.95499E-14 1.16999E-13
 -1      3283 2.00031E+01 7.29958E-03 1.12646E-04 1.45438E-03 1.32820E-14 1.88210E-13
 -1      3284 2.00049E+01 1.00499E-02-4.49158E-05 3.33423E-03 4.72947E-15 8.39537E-15
 -1      3285 2.00009E+01 2.91865E-03-2.23994E-05-2.72464E-03 6.85117E-14-1.66651E-13
 -1      3286 2.00016E+01 4.15395E-03 7.61442E-05-1.68090E-03 4.64822E-14-6.42875E-14
 -1      3287 2.00035E+01 5.93394E-03-3.66498E-05-4.61228E-04 1.05584E-13 1.15949E-14
 -1      3288 2.00002E+01 1.17785E-03-1.12218E-05-4.06188E-03 3.80768E-14-2.27195E-13
 -1      3289 2.00005E+01 2.00117E-03 4.92229E-05-3.51085E-03 1.68203E-14-2.24178E-13
 -1      3290 2.00024E+01 3.08410E-03-2.92429E-05-2.76665E-03 9.59113E-14-3.58475E-13
 -1      3291 1.99997E+01 5.26105E-05-3.89305E-06-4.65742E-03 1.28047E-13-7.58640E-14
 -1      3292 1.99999E+01 5.79462E-04 2.98599E-05-4.43888E-03 1.28362E-13-1.50732E-13
 -1      3293 2.00016E+01 1.17484E-03-2.28376E-05-4.02869E-03 2.41726E-15-3.78261E-13
 -1      3294 1.99995E+01-6.43197E-04 5.47555E-07-4.76446E-03-8.91954E-14-4.33573E-14
 -1      3295 1.99995E+01-3.20839E-04 1.63898E-05-4.76291E-03 1.14454E-13 7.84741E-14
 -1      3296 2.00009E+01-5.56789E-05-1.74507E-05-4.58086E-03 4.54406E-14-9.77116E-14
 -1      3297 1.99993E+01-1.05744E-03 2.84392E-06-4.56069E-03-1.12782E-13-1.58324E-13
 -1      3298 1.99993E+01-8.66568E-04 7.45020E-06-4.69622E-03-6.33859E-14-1.47884E-13
 -1      3299 2.00005E+01-8.16205E-04-1.30684E-05-4.66551E-03-5.73078E-14-1.11980E-14
 -1      3300 1.99993E+01-1.30778E-03 3.25286E-06-4.16454E-03-3.15229E-13-1.26678E-13
 -1      3301 1.99992E+01-1.19037E-03 1.89164E-06-4.38489E-03-3.05155E-13-1.87305E-13
 -1      3302 2.00002E+01-1.27231E-03-9.65103E-06-4.45209E-03-2.21411E-13 6.07155E-14
 -1      3303 1.99993E+01-1.48900E-03-6.84838E-08-3.64983E-03-2.18848E-13-2.79109E-13
 -1      3304 1.99992E+01-1.39891E-03-1.99472E-06-3.92122E-03-2.17039E-13-2.50360E-13
 -1      3305 1.99999E+01-1.55445E-03-5.92257E-06-4.05476E-03-1.93204E-13-4.33109E-14
 -1      3306 1.99996E+01-1.72160E-03-3.41022E-06-3.24131E-03-1.97661E-13-1.31385E-13
 -1      3307 1.99994E+01-1.60246E-03-8.64770E-06-3.47459E-03-2.23666E-13-2.42047E-13
 -1      3308 1.99999E+01-1.77619E-03 1.38024E-06-3.62444E-03-2.39925E-13-2.55605E-13
 -1      3309 2.00000E+01-2.00909E-03 1.12654E-05-3.23442E-03-2.19017E-13-3.54111E-13
 -1      3310 2.00022E+01-3.10268E-03-5.67802E-07 1.29928E-03-9.56337E-14 5.38790E-14
 -1      3311 2.00023E+01-3.17141E-03 6.35550E-06 8.18888E-04-8.37508E-14-2.40775E-13
 -1      3312 2.00024E+01-3.20740E-03 3.22209E-06 2.60403E-04-2.64411E-13-5.14355E-13
 -1      3313 2.00024E+01-3.20785E-03 3.03563E-06-2.53020E-04-1.88704E-13-3.35580E-13
 -1      3314 2.00028E+01-2.99338E-03-4.55455E-06 5.66583E-04-2.29887E-13-2.49880E-13
 -1      3315 2.17120E+01 4.16738E-01 1.27347E-02-5.22197E-01 2.95434E-13-1.96525E-13
 -1      3316 2.11110E+01 7.76313E-01-5.21281E-04-5.93833E-01 3.02895E-13-2.94374E-13
 -1      3317 2.09652E+01 4.19475E-01-7.02173E-03-9.22568E-01 2.29977E-13-3.26308E-13
 -1      3318 2.18563E+01-4.26530E-02-1.39201E-02-6.67032E-01 2.32761E-13-1.76043E-13
 -1      3319 1.11568E+01-1.61479E-01 8.01951E-02 2.79770E+00-3.57568E-13 2.41848E-13
 -1      3320 1.01687E+01 3.76143E-01 8.01696E-02 9.75052E-01-2.10824E-13 4.59729E-13
 -1      3321 1.62317E+01 2.99507E+00 1.28446E-02-9.26880E-01 1.01085E-13-8.18210E-13
 -1      3322 1.57479E+01 3.15095E+00-1.98642E-02-7.08708E-01 7.11271E-14-8.63013E-13
 -1      3323 2.62256E+01-1.81293E-01-6.05865E-02 1.92170E+00 3.44683E-13 2.97994E-13
 -1      3324 2.62093E+01-1.28823E+00-5.46571E-02 1.66175E+00 1.49047E-13 3.04416E-13
 -1      3325 1.88172E+01-3.86512E+00 4.65171E-02-5.01091E+00 6.74856E-13-1.62648E-14
 -1      3326 2.10015E+01-4.41808E+00 2.83377E-02-4.49285E+00 6.83550E-13-4.20497E-14
 -1      3327 1.90648E+01-3.23377E+00 7.18423E-02-4.48041E+00 5.80914E-13-2.32384E-14
 -1      3328 2.14964E+01-3.86270E+00 1.00840E-01-4.23046E+00-4.96270E-13-3.53435E-13
 -1      3329 2.34612E+01-4.16393E+00-5.94397E-02-3.04337E+00-3.68785E-13-1.23542E-13
 -1      3330 1.65574E+01-2.22148E+00 1.26169E-01-5.10878E+00-4.98164E-13-7.61474E-13
 -1      3331 1.90801E+01-3.41761E+00-2.37659E-02-5.00222E+00-4.77347E-13-5.56263E-13
 -1      3332 2.05464E+01-3.03152E+00 6.07860E-02-3.97271E+00-4.64837E-13-4.02548E-13
 -1      3333 1.96757E+01-4.20667E+00-7.30299E-03 4.90002E+00-5.62383E-13-9.80674E-14
 -1      3334 1.68932E+01-3.41856E+00 1.37028E-01 5.54270E+00-6.24542E-13 3.35287E-14
 -1      3335 1.61949E+01-2.55676E+00 9.99204E-02 4.96558E+00-6.10706E-13 4.31738E-14
 -1      3336 2.01411E+01 1.79921E+00 4.23276E-03 4.92716E-01-2.64176E-13-5.41295E-13
 -1      3337 2.00017E+01-2.85875E-03-4.51756E-06 2.22351E-03 9.50156E-14-6.56684E-14
 -1      3338 2.00020E+01-2.99459E-03 9.43233E-06 1.80710E-03-7.07709E-14 1.45071E-13
 -1      3339 2.00025E+01-2.86664E-03-4.64823E-06 1.65159E-03-2.80936E-14 9.50506E-14
 -1      3340 2.00010E+01-2.47899E-03-3.52335E-06 2.92387E-03 1.39012E-13-1.42277E-13
 -1      3341 2.00014E+01-2.67884E-03 1.05734E-05 2.63072E-03 1.70228E-13-2.47064E-13
 -1      3342 2.00019E+01-2.61251E-03-3.81166E-06 2.58624E-03 1.48306E-14-1.03021E-13
 -1      3343 2.53767E+01 2.90022E+00-1.20071E-01-1.99008E+00 6.14120E-13-3.67380E-13
 -1      3344 2.52173E+01 3.86558E+00-5.26303E-02-1.18188E+00 7.62543E-13-2.93791E-13
 -1      3345 2.54801E+01 4.40466E+00-1.17969E-01 4.24683E-01 8.57828E-13-2.68843E-14
 -1      3346 2.55728E+01 3.77956E+00-1.82501E-01 1.37429E+00 8.33403E-13 6.25225E-14
 -1      3347 2.72914E+01-2.44260E+00-1.55616E-01-8.90069E-01 1.07005E-13-7.81396E-13
 -1      3348 2.66410E+01-3.36394E+00 7.62875E-02 2.49138E-01 3.54265E-14-8.24493E-13
 -1      3349 2.71093E+01 1.81716E+00-6.31142E-02 2.54155E+00-5.66852E-13-8.14751E-13
 -1      3350 2.70036E+01-1.74157E-03-1.46927E-01 2.29748E+00-3.41852E-13-8.09380E-13
 -1      3351 2.15911E+01-4.14713E-01 3.07950E-02 1.27529E+00-4.96825E-14-2.87177E-13
 -1      3352 2.19294E+01-9.93296E-01-6.32282E-03 1.30734E+00 9.01276E-15-2.41885E-13
 -1      3353 2.15512E+01-1.36382E+00-4.61094E-02 1.80546E+00 8.04570E-14-2.65151E-13
 -1      3354 1.12251E+01 4.55289E-02 1.14742E-01-3.61787E+00-2.56021E-13-1.10746E-12
 -1      3355 1.35235E+01-1.20706E+00 2.34377E-03-4.86056E+00-3.64972E-13-9.32227E-13
 -1      3356 2.74158E+01 8.23573E-01-3.72005E-02-2.24550E+00-5.10300E-13 2.49120E-13
 -1      3357 2.48565E+01-4.49678E+00-1.08920E-01 2.04089E+00-1.39718E-13-6.89508E-13
 -1      3358 2.27171E+01-4.49388E+00 5.15819E-02 3.58894E+00-3.75412E-13-3.68717E-13
 -1      3359 2.42271E+01-2.11075E+00-7.42392E-03 2.36595E-01-7.21107E-14 1.13555E-13
 -1      3360 2.38487E+01-1.93308E+00 2.66512E-02-1.75806E-01-7.35587E-14 5.71717E-14
 -1      3361 1.22185E+01-1.13865E+00 1.13441E-01-4.07766E+00 4.42240E-13 4.53887E-13
 -1      3362 1.15602E+01 9.74281E-02 4.10517E-02 3.52447E+00 3.49616E-13-1.06160E-12
 -1      3363 1.00833E+01 9.87573E-01 1.12783E-01 1.80742E+00 2.12115E-13-1.18010E-12
 -1      3364 1.65760E+01-2.83276E+00 4.21167E-02 5.50637E+00 4.56676E-13-6.99399E-13
 -1      3365 1.38740E+01-1.32883E+00 9.86637E-02 4.85932E+00 4.29372E-13-8.92633E-13
 -1      3366 2.59830E+01-3.97517E+00-4.36182E-02-9.97550E-01 2.19929E-13-6.30121E-13
 -1      3367 2.68925E+01-3.34390E+00-1.09585E-01 1.11054E-01 4.42979E-14-6.81302E-13
 -1      3368 2.56674E+01-4.22676E+00-1.08248E-01 1.77116E+00 1.42723E-13 5.79016E-14
 -1      3369 2.42357E+01-4.42456E+00 8.67809E-02 3.10787E+00 2.82059E-13-9.54445E-14
 -1      3370 2.72188E+01 1.55093E+00-1.84961E-01-2.44498E+00 4.33834E-13-6.42035E-13
 -1      3371 2.75326E+01 4.46052E-02-1.70348E-02-2.03946E+00 2.33799E-13-7.35093E-13
 -1      3372 2.73589E+01 3.59295E+00-1.52808E-01 2.11539E+00-8.32695E-13-7.28632E-13
 -1      3373 2.19294E+01-4.47147E+00-4.11273E-02 4.37267E+00 3.54855E-13-2.96305E-13
 -1      3374 1.92812E+01-3.65377E+00 1.08966E-01 5.11652E+00 4.63192E-13-5.07743E-13
 -1      3375 2.28686E+01-4.05404E+00 6.52310E-03 3.33520E+00 3.36481E-13-1.70739E-13
 -1      3376 2.69403E+01 5.13723E+00-1.58808E-01-7.56813E-01-1.02410E-12-1.20699E-13
 -1      3377 1.27509E+01-5.01982E-01 8.90085E-02-3.49472E+00 3.08585E-13 3.51233E-13
 -1      3378 1.39356E+01-1.27004E+00 7.11251E-02-4.33611E+00 4.35596E-13 2.52916E-13
 -1      3379 2.72900E+01 5.02482E+00-1.28406E-01 1.43689E+00-9.82325E-13-5.62952E-13
 -1      3380 1.54833E+01 3.33831E+00 1.27212E-03-2.81675E-01 7.04775E-14-8.55899E-13
 -1      3381 1.54213E+01 3.35357E+00-5.99954E-03 1.45526E-02 3.19482E-14-8.66732E-13
 -1      3382 1.53910E+01 2.99589E+00 2.51628E-02-6.22760E-01 5.36650E-14-8.53182E-13
 -1      3383 2.03090E+01 1.32075E+00 7.54643E-05 7.40323E-01-2.06568E-13-4.96894E-13
 -1      3384 2.59068E+01-3.35140E+00-1.81008E-02 5.38889E-01 8.95829E-14 1.44135E-13
 -1      3385 1.15380E+01 6.16405E-01 1.03732E-01 3.00803E-01-1.29327E-13 4.65891E-13
 -1      3386 2.68587E+01 5.41334E+00-1.44778E-01 3.66336E-01-1.01702E-12-3.06134E-13
 -1      3387 1.28533E+01 3.10807E-02 7.52122E-02-2.56276E+00 1.91271E-13 3.39881E-13
 -1      3388 2.54108E+01-2.94558E+00-1.65266E-02 2.05198E-01 7.07689E-14 1.46516E-13
 -1      3389 2.71560E+01-9.32356E-01-8.89028E-02-1.83989E+00-2.59258E-13 2.46074E-13
 -1      3390 1.19854E+01 8.39917E-01 1.36200E-01-2.59747E+00-1.65451E-13-1.06490E-12
 -1      3391 1.58577E+01-1.61425E+00 7.05030E-02-4.20518E+00 4.05773E-13 1.36516E-13
 -1      3392 2.24713E+01-9.16600E-01-1.43513E-02-6.98243E-01 8.73624E-14-1.06951E-13
 -1      3393 2.22202E+01-4.70766E-01 1.57287E-02-7.28084E-01 1.49369E-13-1.32674E-13
 -1      3394 2.17734E+01-3.26689E-01-6.08619E-03-8.83816E-01 1.55083E-13-2.04967E-13
 -1      3395 1.96761E+01 9.96072E-01-3.07656E-03-1.25196E+00 1.83011E-13-4.66287E-13
 -1      3396 1.91617E+01 1.65503E+00 9.03087E-03-1.07645E+00 2.27631E-13-5.53991E-13
 -1      3397 1.83643E+01 1.94922E+00-1.50542E-02-1.18202E+00 1.71729E-13-6.10221E-13
 -1      3398 2.65358E+01 2.58159E+00-7.46304E-02-2.36049E+00 5.67268E-13-5.19598E-13
 -1      3399 1.32986E+01-9.01476E-01 3.98091E-03 3.83489E+00-4.56317E-13 1.08615E-13
 -1      3400 1.21801E+01-3.90919E-01 1.19394E-01 3.32407E+00-3.93472E-13 1.58394E-13
 -1      3401 1.24589E+01 1.75908E-01 5.38382E-02 2.42019E+00-3.87211E-13 1.88162E-13
 -1      3402 2.00020E+01-2.99484E-03 8.88756E-06-1.80541E-03-6.31590E-14 2.69350E-14
 -1      3403 2.00017E+01-2.85619E-03-2.35818E-06-2.22070E-03-3.90189E-14-1.34059E-14
 -1      3404 1.65537E+01 2.78112E+00-2.19484E-02 1.00943E+00 3.34823E-15-8.15453E-13
 -1      3405 1.72579E+01 2.54918E+00 1.52805E-02 1.11240E+00-3.04787E-14-7.71879E-13
 -1      3406 2.00023E+01-3.17172E-03 6.42295E-06-8.09200E-04-6.80849E-14-6.58599E-14
 -1      3407 2.00022E+01-3.10163E-03-1.63103E-07-1.29804E-03-3.18187E-14 9.67665E-14
 -1      3408 2.00025E+01-2.86774E-03-4.53200E-06-1.64669E-03 1.24279E-14 2.84104E-14
 -1      3409 2.00028E+01-2.99301E-03-4.61698E-06-5.66137E-04-2.31565E-13-3.45133E-13
 -1      3410 1.68593E+01 2.61118E+00-2.05988E-02-1.14453E+00 1.09589E-13-7.44920E-13
 -1      3411 1.64334E+01 2.43245E+00 7.47077E-03-1.30822E+00 7.81857E-14-7.59848E-13
 -1      3412 1.76002E+01 2.37562E+00 2.26109E-02-1.18574E+00 1.49336E-13-6.87012E-13
 -1      3413 1.11582E+01 1.43507E+00 1.22588E-01 7.30567E-01 1.02825E-13-1.11001E-12
 -1      3414 2.32545E+01-1.65703E+00-1.22876E-02-4.06801E-01-3.12493E-14-1.19765E-14
 -1      3415 2.28978E+01-1.27974E+00 1.94522E-02-6.33576E-01 5.13700E-15-7.83790E-14
 -1      3416 2.24709E+01-1.28138E+00-1.75805E-02-9.30064E-01 1.46224E-14-1.56446E-13
 -1      3417 2.33850E+01-2.08185E+00-1.96494E-02-6.97096E-01-1.08701E-13-7.31602E-14
 -1      3418 2.57051E+01 4.57399E+00-1.73556E-01-7.13858E-01 8.93841E-13-1.81893E-13
 -1      3419 1.85609E+01-2.81107E+00 6.49787E-02 4.70592E+00 4.43909E-13-5.59060E-13
 -1      3420 1.59030E+01-1.18108E+00 9.43743E-02-4.40048E+00-3.90389E-13-7.66547E-13
 -1      3421 2.12205E+01 5.76432E-02 1.85412E-03 1.12935E+00-1.20680E-13-3.63334E-13
 -1      3422 2.07394E+01-1.52763E-01-2.57081E-02 1.53118E+00-3.66944E-14-3.60103E-13
 -1      3423 2.09873E+01 5.38451E-01 1.78570E-02 9.91444E-01-1.59544E-13-3.94789E-13
 -1      3424 2.16259E+01-4.24660E+00 4.44094E-02 4.00616E+00-4.58352E-13-1.92008E-13
 -1      3425 2.01446E+01-3.34705E+00 7.82300E-02 4.10942E+00-4.98565E-13-1.06776E-13
 -1      3426 2.26358E+01-4.01374E+00-7.25614E-02 2.82687E+00-3.06175E-13-4.10405E-13
 -1      3427 2.54172E+01-3.60452E+00 3.64456E-02 8.01199E-01-6.46705E-14-6.41338E-13
 -1      3428 2.69091E+01-1.93631E+00-1.57460E-02 1.31433E+00-1.29563E-13-8.05141E-13
 -1      3429 2.48649E+01-4.17285E+00 2.01790E-02-1.73120E+00 3.76619E-13-4.45356E-13
 -1      3430 2.00015E+01-2.71446E-03 9.94353E-06-2.56052E-03 7.58808E-15 5.75969E-14
 -1      3431 2.00011E+01-2.55950E-03-2.68864E-06-2.80756E-03 2.09377E-14-1.26308E-13
 -1      3432 2.00019E+01-2.64748E-03-6.47125E-06-2.51029E-03-1.30238E-14 1.21927E-14
 -1      3433 2.52846E+01-2.28755E+00-1.44439E-03 6.17129E-01-3.85057E-14 1.93126E-13
 -1      3434 2.49877E+01-2.80326E+00-1.42423E-02-2.44350E-01-1.34202E-13 6.68146E-14
 -1      3435 2.56071E+01-1.84296E+00-2.74586E-02 1.11654E+00 5.03243E-14 2.40796E-13
 -1      3436 1.76160E+01 1.91196E+00-2.07865E-03 1.45049E+00-2.33923E-14-6.92883E-13
 -1      3437 1.80385E+01 2.13193E+00-1.51842E-02 1.17058E+00-5.64479E-14-6.74796E-13
 -1      3438 1.88655E+01 1.84043E+00 1.70961E-02 1.10633E+00-1.13625E-13-6.32333E-13
 -1      3439 2.36936E+01-4.38538E+00-1.68396E-02-2.72823E+00 4.80789E-13-2.43285E-13
 -1      3440 2.32931E+01-3.76622E+00-7.32154E-03-2.21369E+00 3.46155E-13-2.23583E-13
 -1      3441 2.24110E+01-3.15740E+00 5.25011E-02-2.48859E+00 3.39139E-13-1.60981E-13
 -1      3442 2.20557E+01-4.35322E+00 6.90965E-02-3.82281E+00 6.28414E-13-1.21469E-13
 -1      3443 1.34328E+01-2.43266E-01 1.11863E-01 3.97917E+00 3.66752E-13-9.57838E-13
 -1      3444 1.35256E+01 6.76265E-01 8.05066E-02 3.03737E+00 2.54279E-13-9.57904E-13
 -1      3445 1.52970E+01-7.92271E-01-4.51608E-03 4.15046E+00 3.90177E-13-7.54792E-13
 -1      3446 2.00005E+01-2.11134E-03 2.65318E-06 3.30978E-03 7.06129E-14-3.00942E-14
 -1      3447 2.00008E+01-2.32963E-03 3.57642E-06 3.12756E-03 5.08074E-14 1.16488E-13
 -1      3448 2.00012E+01-2.30120E-03-1.40125E-06 3.18445E-03 1.11282E-13-7.59371E-14
 -1      3449 2.00007E+01-2.01671E-03 1.10105E-06 3.52846E-03 4.55821E-14 8.01659E-14
 -1      3450 2.44588E+01-3.61827E+00 4.75103E-02 1.80196E+00 2.57750E-13 2.06085E-15
 -1      3451 2.28029E+01-3.03053E+00-1.66461E-02 2.26108E+00 2.30441E-13-1.40940E-13
 -1      3452 2.29817E+01-3.48593E+00-1.31930E-02 2.65201E+00 2.89319E-13-1.01461E-13
 -1      3453 2.14089E+01-3.07851E+00 1.03675E-01 3.61306E+00 3.83872E-13-3.03868E-13
 -1      3454 2.10987E+01-2.38109E+00 7.19303E-03-2.63538E+00 3.15050E-13-2.10904E-14
 -1      3455 2.05147E+01-1.72816E+00 3.61082E-02-2.61606E+00 3.00533E-13 4.36181E-14
 -1      3456 2.01404E+01-1.21453E+00 1.69129E-02-2.40983E+00 1.63043E-13-3.33880E-15
 -1      3457 1.97709E+01-7.57427E-01 1.24609E-02-2.30950E+00 1.09806E-13-4.53805E-14
 -1      3458 1.93615E+01-1.44253E+00-3.23253E-02-2.88650E+00 2.12114E-13 5.18682E-14
 -1      3459 1.96514E+01-3.94359E-01 1.35274E-02-2.09138E+00 8.22127E-14-1.50136E-13
 -1      3460 1.94549E+01-1.01447E-01 1.86494E-03-1.96664E+00 9.50619E-14-1.33790E-13
 -1      3461 1.89724E+01-4.79309E-01-1.63008E-02-2.37266E+00 5.73990E-14-3.73863E-14
 -1      3462 1.94617E+01 1.28973E-01 9.55540E-03-1.77614E+00 1.32110E-13-1.64044E-13
 -1      3463 1.93745E+01 2.98293E-01-1.66300E-03-1.65112E+00 1.03211E-13-1.93461E-13
 -1      3464 1.89000E+01 1.29081E-01-6.64253E-03-1.92674E+00 7.67189E-14-1.35476E-13
 -1      3465 1.94367E+01 4.25944E-01 6.19005E-03-1.49449E+00 2.88271E-14-1.84351E-13
 -1      3466 1.94105E+01 5.10043E-01-2.84096E-03-1.37801E+00 6.90651E-14-1.95137E-13
 -1      3467 1.89826E+01 4.72701E-01-1.47884E-03-1.56794E+00 6.80431E-14-9.83341E-14
 -1      3468 1.94918E+01 5.67584E-01 3.97396E-03-1.24895E+00 1.33506E-13-2.37260E-13
 -1      3469 1.94953E+01 5.95938E-01-3.14674E-03-1.14323E+00 9.62500E-14-1.66836E-13
 -1      3470 1.91272E+01 6.39586E-01 9.01221E-04-1.28159E+00 8.07440E-14-2.01105E-13
 -1      3471 1.95775E+01 6.08704E-01 2.63359E-03-1.03545E+00-1.07472E-16-1.24090E-13
 -1      3472 1.95931E+01 6.02905E-01-3.04548E-03-9.40772E-01 5.15836E-15-1.41078E-13
 -1      3473 1.92866E+01 6.92572E-01 1.84707E-03-1.04861E+00 9.24792E-14-1.80251E-13
 -1      3474 1.96677E+01 5.89089E-01 1.87720E-03-8.49793E-01-1.78100E-14-9.40885E-14
 -1      3475 1.96859E+01 5.64101E-01-2.77776E-03-7.66093E-01-3.86285E-14-8.71791E-14
 -1      3476 1.94373E+01 6.75915E-01 2.08924E-03-8.55059E-01 6.70740E-15-1.18145E-13
 -1      3477 1.97498E+01 5.36115E-01 1.45349E-03-6.89008E-01-9.18963E-14-6.50847E-14
 -1      3478 1.97662E+01 5.01863E-01-2.44962E-03-6.16117E-01-9.13431E-14-1.10004E-13
 -1      3479 1.95690E+01 6.19988E-01 1.97674E-03-6.92077E-01-7.13073E-14-6.89581E-14
 -1      3480 1.98187E+01 4.67761E-01 1.20337E-03-5.51060E-01-5.60477E-14-1.33332E-13
 -1      3481 1.98319E+01 4.30561E-01-2.10674E-03-4.88656E-01-1.02143E-14-1.68204E-13
 -1      3482 1.96785E+01 5.45016E-01 1.71833E-03-5.54290E-01-8.91613E-14-1.12337E-13
 -1      3483 1.98737E+01 3.95368E-01 1.03325E-03-4.34282E-01-7.83934E-14-2.44303E-13
 -1      3484 1.98833E+01 3.59060E-01-1.77135E-03-3.81808E-01-1.25814E-13-2.90456E-13
 -1      3485 1.97665E+01 4.63974E-01 1.41902E-03-4.38350E-01-8.27279E-14-2.47152E-13
 -1      3486 1.99158E+01 3.25724E-01 8.97441E-04-3.36944E-01-5.07973E-14-2.15080E-13
 -1      3487 1.99224E+01 2.92455E-01-1.45920E-03-2.93602E-01-2.21491E-14-1.86618E-13
 -1      3488 1.98352E+01 3.84859E-01 1.12728E-03-3.41782E-01-1.95906E-14-2.75376E-13
 -1      3489 1.99470E+01 2.62526E-01 7.76721E-04-2.57117E-01-1.95305E-14-1.27252E-13
 -1      3490 1.99511E+01 2.33319E-01-1.17978E-03-2.21944E-01 1.04976E-13-7.75688E-14
 -1      3491 1.98875E+01 3.12234E-01 8.68414E-04-2.62388E-01 4.18715E-14 1.38201E-15
 -1      3492 1.99694E+01 2.07445E-01 6.64161E-04-1.92724E-01 1.43495E-13-7.85924E-14
 -1      3493 1.99716E+01 1.82610E-01-9.37109E-04-1.64672E-01 1.52905E-13-2.60749E-14
 -1      3494 1.99263E+01 2.48321E-01 6.51338E-04-1.98061E-01 7.82832E-14 9.55483E-14
 -1      3495 1.99849E+01 1.60879E-01 5.58802E-04-1.41644E-01 6.79227E-14-1.26476E-13
 -1      3496 1.99859E+01 1.40296E-01-7.31548E-04-1.19653E-01-9.77300E-15-1.84951E-14
 -1      3497 1.99545E+01 1.93830E-01 4.76145E-04-1.46746E-01 9.65240E-14 2.11406E-14
 -1      3498 1.99953E+01 1.22477E-01 4.61906E-04-1.01802E-01-6.71829E-14-6.25686E-14
 -1      3499 1.99953E+01 1.05789E-01-5.61163E-04-8.48603E-02-1.14604E-13-1.57574E-13
 -1      3500 1.99744E+01 1.48548E-01 3.38844E-04-1.06467E-01-3.53026E-14-1.94532E-13
 -1      3501 2.00018E+01 9.14799E-02 3.74981E-04-7.12606E-02-1.69115E-13-1.79762E-13
 -1      3502 2.00013E+01 7.82150E-02-4.22695E-04-5.84418E-02-1.53819E-13-2.08096E-13
 -1      3503 1.99880E+01 1.11738E-01 2.33890E-04-7.53770E-02-1.57846E-13-2.55257E-13
 -1      3504 2.00056E+01 6.69427E-02 2.98978E-04-4.82692E-02-2.22918E-13-2.06981E-13
 -1      3505 2.00048E+01 5.65939E-02-3.12228E-04-3.87534E-02-1.76679E-13-3.11282E-13
 -1      3506 1.99970E+01 8.24003E-02 1.55495E-04-5.17968E-02-1.53372E-13-3.31222E-13
 -1      3507 2.00075E+01 4.78770E-02 2.34119E-04-3.12951E-02-1.50798E-13-2.33506E-13
 -1      3508 2.00066E+01 3.99507E-02-2.25662E-04-2.43776E-02-1.22030E-13-1.66163E-13
 -1      3509 2.00025E+01 5.94522E-02 9.82847E-05-3.42445E-02-1.39997E-13-3.35194E-13
 -1      3510 2.00081E+01 3.33340E-02 1.79993E-04-1.90311E-02-1.35735E-13-4.80164E-14
 -1      3511 2.00072E+01 2.73768E-02-1.59026E-04-1.41210E-02-2.05369E-13-2.72485E-14
 -1      3512 2.00057E+01 4.18286E-02 5.75757E-05-2.14449E-02-6.50612E-14-9.02857E-14
 -1      3513 2.00080E+01 2.24508E-02 1.35750E-04-1.03881E-02-1.68076E-13-2.97294E-16
 -1      3514 2.00071E+01 1.80628E-02-1.08669E-04-7.00063E-03-2.39096E-14-1.22240E-13
 -1      3515 2.00072E+01 2.85456E-02 2.94497E-05-1.23265E-02-1.28233E-13 1.67038E-14
 -1      3516 2.00073E+01 1.44718E-02 1.00282E-04-4.47752E-03-4.88122E-14-2.02933E-13
 -1      3517 2.00066E+01 1.13108E-02-7.13589E-05-2.22288E-03 3.98739E-14-2.16202E-13
 -1      3518 2.00076E+01 1.87314E-02 1.07247E-05-6.00780E-03-1.40524E-13-1.40725E-13
 -1      3519 2.00064E+01 8.75413E-03 7.23825E-05-5.88793E-04 1.33226E-13-3.58750E-13
 -1      3520 2.00058E+01 6.53414E-03-4.43224E-05 8.40430E-04 5.04769E-14-3.40764E-13
 -1      3521 2.00073E+01 1.16365E-02-1.12510E-06-1.77800E-03-2.94343E-14-3.67290E-13
 -1      3522 2.00055E+01 4.76271E-03 5.08601E-05 1.83569E-03-2.42950E-14-3.38598E-13
 -1      3523 2.00049E+01 3.24920E-03-2.52342E-05 2.67712E-03-8.16112E-14-3.31153E-13
 -1      3524 2.00067E+01 6.63280E-03-8.06604E-06 9.24902E-04-1.45251E-14-4.33361E-13
 -1      3525 2.00045E+01 2.06048E-03 3.46131E-05 3.22475E-03-1.19781E-13-3.04237E-13
 -1      3526 2.00040E+01 1.06417E-03-1.21858E-05 3.65824E-03-6.61154E-14-3.15728E-13
 -1      3527 2.00058E+01 3.20340E-03-1.16031E-05 2.53680E-03-1.04908E-13-2.72201E-13
 -1      3528 2.00035E+01 2.95614E-04 2.26441E-05 3.90113E-03-1.08350E-13-3.07373E-13
 -1      3529 2.00031E+01-3.34511E-04-3.64707E-06 4.05961E-03-6.71050E-14-3.16506E-13
 -1      3530 2.00048E+01 9.30237E-04-1.28741E-05 3.38872E-03-6.36580E-14-2.09843E-13
 -1      3531 2.00027E+01-8.12112E-04 1.40896E-05 4.10212E-03 1.14851E-13-1.90425E-13
 -1      3532 2.00023E+01-1.19600E-03 1.53798E-06 4.08101E-03 2.64585E-13-7.14826E-14
 -1      3533 2.00038E+01-5.20721E-04-1.27635E-05 3.72645E-03 1.01920E-13-1.39476E-13
 -1      3534 2.00019E+01-1.48661E-03 8.45203E-06 3.99657E-03 2.56326E-13-1.02580E-13
 -1      3535 2.00017E+01-1.71688E-03 3.74655E-06 3.85959E-03 1.12831E-13 4.71715E-14
 -1      3536 2.00029E+01-1.41779E-03-1.27276E-05 3.72842E-03 2.58949E-13-4.54574E-14
 -1      3537 2.66941E+01-8.90926E-01-3.35378E-02-1.79028E+00 1.94865E-13-6.03198E-13
 -1      3538 1.55862E+01 3.24531E+00-1.82472E-02 4.63282E-01 2.91520E-14-8.74857E-13
 -1      3539 1.59916E+01 3.12642E+00 1.07421E-02 7.18607E-01-4.85723E-16-8.47604E-13
 -1      3540 1.61162E+01 2.63797E+00 1.57015E-02 1.10582E+00 2.32395E-14-8.28275E-13
 -1      3541 2.37496E+01-3.60701E+00 9.24731E-03-2.22023E+00-3.37556E-13-7.31897E-14
 -1      3542 2.50839E+01-3.90454E+00 3.97652E-02-1.80921E+00-2.89385E-13 3.20750E-14
 -1      3543 2.19346E+01-2.04628E+00 3.82259E-02 1.82606E+00-1.15503E-13-3.76374E-13
 -1      3544 2.25768E+01-2.45598E+00 2.68475E-02 1.54666E+00-1.48563E-13-3.90512E-13
 -1      3545 2.08995E+01-1.13802E+00 1.88825E-02 1.91572E+00-2.40296E-13-1.89972E-13
 -1      3546 2.13196E+01-1.57537E+00 5.63211E-03 1.85284E+00-1.24698E-13-2.80103E-13
 -1      3547 2.09320E+01-1.96150E+00-3.69338E-02 2.34054E+00-1.68122E-13-1.37900E-13
 -1      3548 2.03188E+01-4.49062E-01 8.79163E-03 1.79696E+00-3.18909E-13-9.67462E-14
 -1      3549 2.05891E+01-7.66716E-01 8.06370E-03 1.82374E+00-2.91754E-13-1.08466E-13
 -1      3550 2.01185E+01-9.71117E-01-2.40484E-02 2.15391E+00-2.85466E-13 3.75340E-14
 -1      3551 2.00202E+01 1.20591E-02 3.38575E-03 1.60561E+00-1.59762E-13-7.90552E-14
 -1      3552 2.01790E+01-1.92506E-01 7.01627E-03 1.67424E+00-2.62974E-13-9.65157E-14
 -1      3553 1.97295E+01-2.78729E-01-1.28885E-02 1.88704E+00-2.56137E-13 1.20570E-14
 -1      3554 1.98893E+01 2.86606E-01 4.14076E-04 1.39494E+00 8.88483E-16-1.60660E-13
 -1      3555 1.99772E+01 1.69976E-01 5.38704E-03 1.48097E+00-6.68617E-14-1.08148E-13
 -1      3556 1.95780E+01 1.60354E-01-6.02355E-03 1.61346E+00-1.15472E-13-1.06566E-13
 -1      3557 1.98502E+01 4.25801E-01-1.10532E-03 1.18771E+00 5.56638E-14-9.32280E-14
 -1      3558 1.98966E+01 3.71115E-01 3.92082E-03 1.27852E+00 8.45377E-14-1.05648E-13
 -1      3559 1.95564E+01 4.08089E-01-2.30794E-03 1.36119E+00 3.49923E-14-1.16732E-13
 -1      3560 1.98565E+01 4.74614E-01-1.76832E-03 9.94101E-01-6.93761E-14-7.47433E-14
 -1      3561 1.98803E+01 4.60214E-01 2.89333E-03 1.08270E+00-1.64074E-14-9.61595E-14
 -1      3562 1.95983E+01 5.23140E-01-3.55317E-04 1.13636E+00 1.16864E-14-1.13724E-13
 -1      3563 1.98815E+01 4.67636E-01-1.97031E-03 8.18690E-01-1.39964E-13-3.16061E-14
 -1      3564 1.98940E+01 4.77459E-01 2.24406E-03 9.01098E-01-9.87754E-14-9.19775E-14
 -1      3565 1.96651E+01 5.52160E-01 5.66703E-04 9.38579E-01-7.30605E-14-1.51418E-13
 -1      3566 1.99111E+01 4.29352E-01-1.92892E-03 6.63507E-01-2.64588E-14-1.45712E-13
 -1      3567 1.99184E+01 4.52258E-01 1.83329E-03 7.37522E-01-4.51725E-14-2.17887E-14
 -1      3568 1.97361E+01 5.29403E-01 9.15634E-04 7.66024E-01-6.33591E-14-1.53120E-13
 -1      3569 1.99385E+01 3.76107E-01-1.76228E-03 5.29110E-01 1.85121E-13-2.81324E-13
 -1      3570 1.99438E+01 4.04786E-01 1.55462E-03 5.93721E-01 2.57797E-14-2.38729E-13
 -1      3571 1.98012E+01 4.78498E-01 9.59729E-04 6.16969E-01 6.10765E-14-2.56829E-13
 -1      3572 1.99612E+01 3.18246E-01-1.53927E-03 4.15052E-01-9.95649E-14-8.36801E-14
 -1      3573 1.99657E+01 3.48135E-01 1.34260E-03 4.70070E-01 7.38397E-14-1.43803E-13
 -1      3574 1.98562E+01 4.15050E-01 8.64547E-04 4.89832E-01 5.12629E-14-2.06248E-13
 -1      3575 1.99785E+01 2.61970E-01-1.30016E-03 3.20122E-01 4.34776E-14 9.58858E-16
 -1      3576 1.99828E+01 2.90389E-01 1.16092E-03 3.65942E-01-5.24653E-14-8.65131E-14
 -1      3577 1.99003E+01 3.48873E-01 7.15009E-04 3.83008E-01-8.72559E-14-8.44636E-14
 -1      3578 1.99909E+01 2.10671E-01-1.06899E-03 2.42571E-01-1.16042E-13 2.73703E-13
 -1      3579 1.99951E+01 2.36205E-01 9.95448E-04 2.79962E-01 3.59257E-14 1.55447E-13
 -1      3580 1.99342E+01 2.85811E-01 5.57814E-04 2.94684E-01-6.30671E-14 4.09867E-14
 -1      3581 1.99993E+01 1.65911E-01-8.58934E-04 1.80346E-01-3.75094E-14 2.66457E-13
 -1      3582 2.00032E+01 1.87963E-01 8.42073E-04 2.10283E-01-8.98687E-14 2.44581E-13
 -1      3583 1.99593E+01 2.28999E-01 4.15529E-04 2.22850E-01-5.99498E-14 1.96086E-13
 -1      3584 2.00045E+01 1.28109E-01-6.75936E-04 1.31292E-01 9.92500E-15 1.19539E-13
 -1      3585 2.00082E+01 1.46587E-01 7.00978E-04 1.54824E-01 5.52035E-14 1.49091E-13
 -1      3586 1.99773E+01 1.79797E-01 2.96702E-04 1.65393E-01 8.96014E-14 1.54235E-13
 -1      3587 2.00075E+01 9.70092E-02-5.21491E-04 9.32947E-02 1.08041E-13 1.75900E-14
 -1      3588 2.00107E+01 1.12112E-01 5.73652E-04 1.11460E-01 4.82636E-14 3.72783E-14
 -1      3589 1.99898E+01 1.38456E-01 2.02603E-04 1.20202E-01 1.58177E-13 1.56795E-13
 -1      3590 2.00088E+01 7.19924E-02-3.94457E-04 6.43883E-02-8.48594E-14 4.61493E-15
 -1      3591 2.00116E+01 8.40717E-02 4.61378E-04 7.81533E-02 2.93003E-14 3.05635E-14
 -1      3592 1.99980E+01 1.04575E-01 1.31073E-04 8.52606E-02 7.43074E-14 2.25996E-14
 -1      3593 2.00090E+01 5.22745E-02-2.92273E-04 4.28100E-02-1.64707E-13 2.40805E-14
 -1      3594 2.00114E+01 6.17448E-02 3.64657E-04 5.30400E-02-1.14756E-13-7.58085E-14
 -1      3595 2.00031E+01 7.74045E-02 7.86199E-05 5.87198E-02-2.27400E-14 1.28937E-13
 -1      3596 2.00086E+01 3.70318E-02-2.11730E-04 2.70295E-02-2.96484E-14 5.24587E-14
 -1      3597 2.00106E+01 4.43148E-02 2.83162E-04 3.44729E-02-1.26063E-13-6.01321E-14
 -1      3598 2.00060E+01 5.60462E-02 4.15060E-05 3.89352E-02-1.04145E-13 2.86571E-14
 -1      3599 2.00078E+01 2.54742E-02-1.49467E-04 1.57526E-02 1.10205E-13 2.66447E-14
 -1      3600 2.00094E+01 3.09672E-02 2.15902E-04 2.10401E-02 1.61331E-13 4.22113E-14
 -1      3601 2.00073E+01 3.95761E-02 1.62741E-05 2.44863E-02 1.05831E-13 6.29861E-14
 -1      3602 2.00067E+01 1.68850E-02-1.02266E-04 7.91023E-03-1.52640E-13 4.62218E-14
 -1      3603 2.00080E+01 2.09443E-02 1.61463E-04 1.15606E-02-3.27953E-14-3.84968E-14
 -1      3604 2.00076E+01 2.71183E-02-3.85682E-08 1.41763E-02 9.25984E-14 7.88518E-14
 -1      3605 2.00057E+01 1.06393E-02-6.72118E-05 2.63703E-03 2.77110E-14 6.40421E-14
 -1      3606 2.00067E+01 1.35726E-02 1.18214E-04 5.06832E-03-6.59763E-14 4.19233E-14
 -1      3607 2.00073E+01 1.78837E-02-9.85050E-06 7.01833E-03-1.15170E-13 2.67289E-14
 -1      3608 2.00046E+01 6.20725E-03-4.17645E-05-7.53335E-04 2.05822E-13-1.13372E-13
 -1      3609 2.00054E+01 8.27382E-03 8.44824E-05 7.89125E-04 1.15552E-13 1.89714E-14
 -1      3610 2.00066E+01 1.11868E-02-1.50683E-05 2.21539E-03 1.36944E-13-1.41815E-13
 -1      3611 2.00037E+01 3.14988E-03-2.37785E-05-2.79480E-03 1.47098E-13-2.39791E-13
 -1      3612 2.00043E+01 4.56330E-03 5.86622E-05-1.88551E-03 2.89254E-13-1.09862E-13
 -1      3613 2.00057E+01 6.44875E-03-1.71546E-05-8.63708E-04 2.52733E-13-5.79164E-14
 -1      3614 2.00028E+01 1.10997E-03-1.15122E-05-3.89436E-03-5.01581E-15-3.54043E-13
 -1      3615 2.00033E+01 2.04340E-03 3.92974E-05-3.42444E-03 5.41450E-15-3.84240E-13
 -1      3616 2.00048E+01 3.19107E-03-1.72169E-05-2.70933E-03 1.69284E-13-1.49526E-13
 -1      3617 2.00021E+01-1.99437E-04-3.51865E-06-4.35494E-03-1.05668E-13-1.00529E-13
 -1      3618 2.00024E+01 3.92556E-04 2.51227E-05-4.18113E-03-3.71984E-14-2.32575E-13
 -1      3619 2.00039E+01 1.02462E-03-1.61307E-05-3.69473E-03-8.73135E-14-2.88124E-13
 -1      3620 2.00015E+01-1.00661E-03 1.42964E-06-4.39586E-03-1.34461E-13-1.31774E-13
 -1      3621 2.00017E+01-6.45996E-04 1.51086E-05-4.41537E-03-7.21639E-14-6.04143E-14
 -1      3622 2.00030E+01-3.62298E-04-1.43503E-05-4.09711E-03-9.57585E-14-2.10512E-13
 -1      3623 2.00010E+01-1.49392E-03 3.36865E-06-4.17040E-03-3.72516E-13 1.14853E-13
 -1      3624 2.00012E+01-1.27690E-03 8.20873E-06-4.31250E-03-2.41252E-13-8.55405E-14
 -1      3625 2.00022E+01-1.21729E-03-1.21844E-05-4.11721E-03-2.32996E-13 1.05554E-13
 -1      3626 2.00006E+01-1.80287E-03 3.44572E-06-3.77998E-03-1.17594E-14-1.31540E-13
 -1      3627 2.00007E+01-1.65921E-03 4.25815E-06-3.99548E-03-1.52533E-13-2.33622E-14
 -1      3628 2.00016E+01-1.73612E-03-7.98860E-06-3.89770E-03-1.22274E-13-4.31457E-14
 -1      3629 2.00021E+01-2.37263E-03-6.48037E-06 2.91560E-03 4.12911E-14-1.69056E-13
 -1      3630 2.00025E+01-2.50716E-03 9.76151E-06 2.50482E-03 4.60015E-14-1.36065E-13
 -1      3631 2.00033E+01-2.76014E-03-9.77373E-07 8.72277E-04 9.35240E-15 4.22119E-14
 -1      3632 2.00034E+01-2.78683E-03 2.56335E-06 3.09276E-04-1.55144E-13-3.99467E-13
 -1      3633 2.12958E+01-9.72239E-02 1.25571E-02-1.11866E+00 1.46235E-13-2.92223E-13
 -1      3634 2.07378E+01 1.52101E-01-1.35295E-03-1.26945E+00 1.50399E-13-3.56773E-13
 -1      3635 2.16364E+01-6.55161E-01-2.18273E-03-1.22334E+00 6.52219E-14-2.67033E-13
 -1      3636 1.97264E+01 1.27762E+00-1.43597E-02 1.05695E+00-1.41651E-13-5.23352E-13
 -1      3637 2.55870E+01-3.38588E+00-4.95141E-02-5.19145E-01-1.83744E-13 1.47091E-13
 -1      3638 1.97607E+01-2.15959E+00 9.51201E-02-3.80278E+00-4.00865E-13-4.39918E-13
 -1      3639 2.13582E+01-2.94684E+00-4.61610E-02-3.25053E+00-3.68799E-13-2.75883E-13
 -1      3640 1.23987E+01 7.01707E-01 3.71084E-02 1.00666E+00-3.05480E-13 2.11966E-13
 -1      3641 1.22355E+01 7.71943E-01 1.33689E-02-4.23170E-01-6.10254E-14 4.12587E-13
 -1      3642 1.86689E+01-2.23327E+00 3.90930E-02-3.86068E+00 3.85466E-13-1.49308E-14
 -1      3643 2.01266E+01-2.86694E+00 2.13543E-02-3.69069E+00 4.24818E-13 2.42271E-14
 -1      3644 1.74905E+01-2.60707E+00-4.00449E-02 4.55712E+00-5.97175E-13-2.00673E-14
 -1      3645 1.55540E+01-1.53538E+00 1.22116E-01 4.37782E+00-5.80012E-13-2.91434E-16
 -1      3646 2.27495E+01-2.96790E+00 4.40420E-02 1.93876E+00-1.84079E-13-4.26547E-13
 -1      3647 2.35686E+01-3.26696E+00 2.51768E-02 1.49348E+00-1.49119E-13-4.42771E-13
 -1      3648 2.00029E+01-2.62851E-03-6.93199E-06 1.97717E-03 1.50059E-13 5.36605E-14
 -1      3649 2.00031E+01-2.70310E-03 5.79945E-06 1.46712E-03 1.22594E-13 1.71043E-13
 -1      3650 2.00037E+01-2.49708E-03 9.47765E-07 1.22156E-03 1.19011E-13 1.60998E-13
 -1      3651 2.00031E+01-2.36519E-03 2.08346E-06 2.35051E-03 1.76734E-13-1.42424E-13
 -1      3652 2.05497E+01-7.30380E-01 5.40789E-02 2.20706E+00 1.12545E-13-3.86519E-13
 -1      3653 2.10294E+01-1.49968E+00 7.45893E-03 2.33880E+00 1.68539E-13-3.45669E-13
 -1      3654 1.93381E+01-2.62248E+00-2.07409E-03 4.19177E+00 3.88346E-13-4.62963E-13
 -1      3655 1.72998E+01-1.55520E+00 1.14396E-01 4.40109E+00 4.10737E-13-6.23473E-13
 -1      3656 1.65172E+01-6.25116E-01 4.65728E-02 3.75645E+00 3.26170E-13-7.16505E-13
 -1      3657 1.99168E+01-2.18551E+00 9.61714E-03 3.54144E+00 3.12427E-13-4.17567E-13
 -1      3658 1.19537E+01 1.45689E+00 2.45139E-02-1.69969E+00-9.50065E-14-1.03157E-12
 -1      3659 1.31607E+01 6.62072E-01-9.26181E-03-3.08827E+00-2.13558E-13-9.04561E-13
 -1      3660 1.22617E+01 1.63285E+00-6.83622E-03 1.41646E+00 1.63215E-13-9.86239E-13
 -1      3661 1.17921E+01 1.90965E+00 5.88512E-02-3.07312E-01 2.25115E-14-1.03738E-12
 -1      3662 2.20485E+01-2.23612E+00 6.70553E-02 2.36876E+00 2.19325E-13-2.31731E-13
 -1      3663 1.50947E+01-1.49204E-01 8.63774E-02-3.81136E+00-2.91194E-13-7.75047E-13
 -1      3664 1.73176E+01-1.47040E+00-4.89594E-02-4.16167E+00-3.66256E-13-6.20354E-13
 -1      3665 2.00008E+01-2.40334E-03 1.04670E-05-3.01012E-03-1.31508E-13-2.96664E-13
 -1      3666 2.00004E+01-2.19738E-03-9.25756E-07-3.14400E-03-1.82120E-13-3.46428E-13
 -1      3667 2.00004E+01-2.07554E-03-3.22175E-06-3.34956E-03-2.33831E-13-2.56470E-13
 -1      3668 2.00012E+01-2.39466E-03-1.28040E-06-3.06135E-03 6.61159E-14-1.18660E-13
 -1      3669 1.28595E+01 5.95824E-01 5.78312E-02-1.65146E+00 1.11250E-13 3.83381E-13
 -1      3670 1.40820E+01-1.46890E-01-3.20871E-02-2.89829E+00 1.99880E-13 1.61812E-13
 -1      3671 1.28505E+01 6.22180E-01 6.61616E-02 1.51548E+00-3.67109E-13 1.74062E-13
 -1      3672 1.34740E+01 8.46883E-01 2.05954E-02 8.50289E-01-2.50329E-13 1.01896E-13
 -1      3673 1.33763E+01 3.09362E-01-1.35951E-02 2.14916E+00-4.34443E-13 1.05381E-13
 -1      3674 1.70668E+01 1.58829E+00-2.91073E-02 1.80405E+00 5.84216E-14-7.26212E-13
 -1      3675 1.80891E+01 1.21806E+00 5.80606E-03 1.85938E+00 1.43566E-14-6.36308E-13
 -1      3676 1.53142E+01 3.04494E+00 2.18221E-02 3.13170E-01 3.81860E-14-8.67651E-13
 -1      3677 1.87423E+01-1.29179E+00 3.89252E-02-3.48213E+00-2.99049E-13-5.17263E-13
 -1      3678 2.00034E+01-2.78646E-03 2.45783E-06-3.09139E-04-3.17217E-13-5.05616E-13
 -1      3679 2.00033E+01-2.75875E-03-8.56915E-07-8.69468E-04-1.93366E-13-4.14995E-13
 -1      3680 2.00039E+01-2.54678E-03 1.10735E-08 1.40168E-06-2.30906E-14-3.31161E-13
 -1      3681 1.30711E+01 1.96456E+00 7.00641E-02-8.76398E-01-4.53413E-14-9.57005E-13
 -1      3682 2.00012E+01-1.82629E-03 5.84482E-06 3.79839E-03-1.36083E-14 1.69021E-13
 -1      3683 2.00010E+01-1.94788E-03 4.09886E-06 3.63017E-03 5.95041E-14 1.13552E-13
 -1      3684 2.00013E+01-2.09428E-03-5.29979E-06 3.46956E-03 6.49515E-14 7.80834E-14
 -1      3685 2.00021E+01-1.88658E-03-1.24729E-05 3.60940E-03 1.32102E-13-1.13490E-13
 -1      3686 2.28516E+01-3.08628E+00 6.45506E-02-2.50731E+00-3.46340E-13-1.42684E-13
 -1      3687 2.38894E+01-3.14901E+00-2.24242E-02-1.46775E+00-2.46538E-13-1.01503E-14
 -1      3688 1.99988E+01 4.43907E-01 1.24376E-02-1.49206E+00 9.44295E-14-4.37389E-13
 -1      3689 2.19563E+01-2.50450E+00 1.51699E-02-2.49229E+00-2.83165E-13-2.26183E-13
 -1      3690 2.15770E+01-2.97154E+00-5.08751E-03 2.77923E+00-2.27488E-13-2.78044E-13
 -1      3691 1.51039E+01-8.28070E-01 5.93858E-02 3.61870E+00-5.16923E-13-1.96093E-14
 -1      3692 2.05283E+01-1.86843E+00-3.21710E-02 2.88912E+00 2.33266E-13-3.54713E-13
 -1      3693 2.00004E+01-1.94377E-03 1.17766E-07-3.53650E-03-1.88654E-13-1.43122E-13
 -1      3694 1.35982E+01 8.10831E-01 5.31392E-02-9.11168E-01 1.67488E-15 2.21500E-13
 -1      3695 1.79399E+01 1.70783E+00-1.32265E-02-1.50455E+00 1.20012E-13-6.12072E-13
 -1      3696 2.14559E+01-3.79715E+00 3.06695E-02-3.67669E+00 5.72854E-13-5.21319E-14
 -1      3697 1.65561E+01 1.93409E+00 3.72178E-02-1.78393E+00 3.46619E-14-7.16115E-13
 -1      3698 1.56921E+01 2.19923E+00-2.64860E-02-1.54436E+00 1.59616E-14-7.88689E-13
 -1      3699 2.00031E+01-2.70425E-03 5.06999E-06-1.46212E-03-1.10692E-13-8.64429E-14
 -1      3700 2.00029E+01-2.62173E-03-2.76903E-06-1.97424E-03-5.78186E-14 1.78276E-13
 -1      3701 2.00037E+01-2.50172E-03-7.24338E-07-1.21397E-03-2.52966E-13-2.79693E-13
 -1      3702 1.61521E+01 2.13305E+00 3.17603E-02 1.58363E+00 5.91758E-14-8.09003E-13
 -1      3703 1.65137E+01 1.42761E+00 1.83533E-02 2.06657E+00 9.54549E-14-7.46408E-13
 -1      3704 1.53257E+01 2.36247E+00-4.22887E-02 1.29441E+00 7.81046E-14-8.41176E-13
 -1      3705 2.00032E+01-2.39223E-03-1.84372E-06-2.24638E-03-9.49996E-14 3.53992E-14
 -1      3706 2.00026E+01-2.53941E-03 1.04051E-05-2.41391E-03-2.32643E-14 2.48146E-14
 -1      3707 2.00022E+01-2.43747E-03-7.81809E-06-2.77160E-03 3.09696E-14 5.80475E-14
 -1      3708 1.72850E+01-1.72662E+00 7.48704E-03-3.99188E+00 3.26764E-13 1.78677E-14
 -1      3709 1.86679E+01-1.44793E+00 2.95503E-02-3.22483E+00 2.75946E-13-3.20987E-14
 -1      3710 1.83134E+01-8.47154E-01 2.12971E-02-2.91919E+00 1.48126E-13-4.15692E-14
 -1      3711 1.59958E+01-7.78040E-01 4.60670E-02-3.48776E+00 2.10314E-13 8.18720E-14
 -1      3712 2.35260E+01-2.62762E+00-1.18119E-02-1.16678E+00-1.93164E-13-8.89028E-14
 -1      3713 2.30287E+01-2.17278E+00 2.78008E-02-1.30864E+00-1.49772E-13-1.24013E-13
 -1      3714 1.92826E+01-2.62307E+00 3.15863E-02 3.81673E+00-4.87436E-13-3.04756E-14
 -1      3715 2.54885E+01-3.00627E+00-9.46439E-02-3.46458E-01 2.30996E-14-5.54733E-13
 -1      3716 2.62683E+01-2.13045E+00 7.32228E-03-1.21251E+00 1.17838E-13-6.44495E-13
 -1      3717 1.57408E+01-1.75280E-01 3.56179E-02-2.78953E+00 1.59203E-13 1.10113E-13
 -1      3718 2.46496E+01-3.37427E+00 9.06807E-02 9.52779E-01-1.05780E-13-5.85625E-13
 -1      3719 1.50178E+01 6.01764E-01 6.66383E-02-3.02967E+00-2.04598E-13-7.80759E-13
 -1      3720 2.00010E+01-2.08862E-03-7.02632E-06-3.49483E-03-6.98697E-14-2.19015E-13
 -1      3721 1.94080E+01 7.74502E-02 8.87803E-03 2.09148E+00 6.08246E-14-5.10199E-13
 -1      3722 1.85431E+01-3.26419E-02-2.10842E-02 2.54801E+00 1.52101E-13-5.70597E-13
 -1      3723 1.94862E+01 9.84227E-01 1.92222E-04 1.40866E+00-5.92012E-14-5.33501E-13
 -1      3724 1.91227E+01 6.82660E-01 1.85898E-02 1.82533E+00 1.06072E-14-5.51346E-13
 -1      3725 2.00016E+01-2.21827E-03 6.73330E-06 3.26967E-03 5.31851E-14-2.93296E-14
 -1      3726 1.39160E+01 1.54264E+00 7.14492E-02 2.11008E+00 1.73301E-13-9.21315E-13
 -1      3727 1.42128E+01 2.10338E+00 3.30017E-02 1.24912E+00 6.64156E-14-8.94036E-13
 -1      3728 2.08897E+01-2.90847E+00-9.55367E-03-3.12287E+00 3.93894E-13 1.26461E-14
 -1      3729 2.00022E+01-2.13155E-03 8.62664E-07 3.22301E-03 5.90339E-14-1.07893E-13
 -1      3730 2.00026E+01-1.99330E-03 8.91771E-06 3.23558E-03 1.92085E-13-2.65560E-13
 -1      3731 2.44182E+01-2.85274E+00 4.10565E-02-7.52458E-01-2.13004E-13 1.16764E-14
 -1      3732 1.82767E+01-3.40174E-01 1.81876E-02-2.48430E+00 4.66805E-14 4.22468E-14
 -1      3733 1.81616E+01-3.67946E-03-4.97093E-03-2.22527E+00 7.46617E-14 7.01262E-15
 -1      3734 1.83596E+01 2.50697E-01 1.32342E-02-1.94196E+00 5.30428E-14 5.66766E-14
 -1      3735 1.83516E+01 4.36974E-01-8.07325E-03-1.74085E+00 5.57360E-14 3.50360E-15
 -1      3736 1.76018E+01 3.23098E-01-3.82818E-03-2.01863E+00 4.92638E-14 1.63358E-13
 -1      3737 1.85526E+01 5.79770E-01 7.56679E-03-1.53939E+00 3.35954E-14-5.08848E-14
 -1      3738 1.86019E+01 6.71564E-01-7.13872E-03-1.38468E+00 3.64496E-14-1.06097E-13
 -1      3739 1.79985E+01 6.71837E-01 4.23324E-03-1.54064E+00 1.12220E-14 1.49517E-14
 -1      3740 1.87849E+01 7.37199E-01 4.27856E-03-1.23719E+00 2.04445E-14-1.99725E-13
 -1      3741 1.88559E+01 7.68005E-01-5.82140E-03-1.11475E+00 9.79038E-14-2.62497E-13
 -1      3742 1.83673E+01 8.31640E-01 4.89455E-03-1.20378E+00-2.22106E-14-1.71144E-13
 -1      3743 1.90141E+01 7.83097E-01 2.31504E-03-1.00280E+00 1.18438E-13-2.22196E-13
 -1      3744 1.90884E+01 7.75949E-01-4.67224E-03-9.02790E-01 7.62361E-14-2.59376E-13
 -1      3745 1.86941E+01 8.76947E-01 4.63581E-03-9.57707E-01 7.74243E-14-2.06801E-13
 -1      3746 1.92215E+01 7.59983E-01 1.29679E-03-8.14366E-01 4.74269E-14-2.28940E-13
 -1      3747 1.92896E+01 7.30536E-01-3.79787E-03-7.30798E-01-1.01241E-14-1.70243E-13
 -1      3748 1.89732E+01 8.51020E-01 4.08291E-03-7.69484E-01 2.85335E-14-3.90486E-13
 -1      3749 1.93994E+01 6.97217E-01 7.85727E-04-6.58896E-01-6.48211E-14-1.63219E-13
 -1      3750 1.94577E+01 6.56237E-01-3.12828E-03-5.88190E-01-9.11752E-14-1.07013E-13
 -1      3751 1.92059E+01 7.83374E-01 3.49008E-03-6.19581E-01-3.49374E-14-2.40007E-13
 -1      3752 1.95469E+01 6.14649E-01 5.49736E-04-5.28768E-01-1.24053E-13-1.23749E-13
 -1      3753 1.95944E+01 5.69245E-01-2.59699E-03-4.68909E-01-4.76558E-14-1.07112E-13
 -1      3754 1.93964E+01 6.94052E-01 2.89985E-03-4.96782E-01-8.29512E-14-1.21170E-13
 -1      3755 1.96657E+01 5.25380E-01 4.42975E-04-4.19665E-01-7.44787E-14-1.91387E-13
 -1      3756 1.97032E+01 4.80190E-01-2.14623E-03-3.69362E-01-9.73171E-14-2.43131E-13
 -1      3757 1.95495E+01 5.96655E-01 2.37730E-03-3.94937E-01-9.10584E-14-2.09300E-13
 -1      3758 1.97592E+01 4.37833E-01 3.90455E-04-3.28757E-01 2.12485E-14-1.71131E-13
 -1      3759 1.97879E+01 3.95685E-01-1.75745E-03-2.86965E-01 1.08018E-13-2.79687E-14
 -1      3760 1.96704E+01 5.00165E-01 1.90797E-03-3.10463E-01-2.18335E-15-1.16814E-13
 -1      3761 1.98311E+01 3.56992E-01 3.59298E-04-2.53786E-01 7.43108E-14-1.96672E-15
 -1      3762 1.98526E+01 3.19379E-01-1.42298E-03-2.19545E-01 7.71598E-14 8.01975E-15
 -1      3763 1.97642E+01 4.10246E-01 1.50478E-03-2.40808E-01 1.00102E-13-5.33381E-14
 -1      3764 1.98854E+01 2.85394E-01 3.31323E-04-1.92764E-01 4.87079E-14 2.63966E-15
 -1      3765 1.99010E+01 2.52924E-01-1.13732E-03-1.65133E-01 1.55025E-13 8.75646E-14
 -1      3766 1.98358E+01 3.29933E-01 1.16711E-03-1.83956E-01 7.31397E-14-2.59948E-14
 -1      3767 1.99255E+01 2.23965E-01 3.00276E-04-1.43822E-01 5.86529E-14 5.11194E-16
 -1      3768 1.99365E+01 1.96673E-01-8.96043E-04-1.21879E-01-3.08694E-14-9.88705E-14
 -1      3769 1.98894E+01 2.60482E-01 8.89774E-04-1.38157E-01 5.68714E-14-1.03006E-13
 -1      3770 1.99544E+01 1.72603E-01 2.65785E-04-1.05181E-01 4.56617E-14-2.08346E-13
 -1      3771 1.99620E+01 1.50180E-01-6.95113E-04-8.80403E-02-2.17427E-14-1.46637E-13
 -1      3772 1.99287E+01 2.01988E-01 6.66138E-04-1.01804E-01 7.50986E-16-1.55509E-13
 -1      3773 1.99748E+01 1.30600E-01 2.29581E-04-7.51683E-02-1.93347E-13-1.66392E-13
 -1      3774 1.99797E+01 1.12548E-01-5.30383E-04-6.20062E-02-1.39675E-13-1.22022E-13
 -1      3775 1.99569E+01 1.53824E-01 4.88989E-04-7.34011E-02-1.39359E-13-5.64783E-14
 -1      3776 1.99886E+01 9.69316E-02 1.93734E-04-5.22555E-02-1.94880E-13-1.13905E-13
 -1      3777 1.99917E+01 8.26709E-02-3.97526E-04-4.23278E-02-1.78779E-13-1.22172E-13
 -1      3778 1.99767E+01 1.14962E-01 3.51105E-04-5.15780E-02-1.82846E-13-8.33985E-14
 -1      3779 1.99977E+01 7.04443E-02 1.59945E-04-3.50788E-02-6.59117E-14-1.13806E-13
 -1      3780 1.99994E+01 5.93830E-02-2.92152E-04-2.77336E-02-1.75868E-14-3.72083E-15
 -1      3781 1.99901E+01 8.41934E-02 2.45671E-04-3.51047E-02-1.27852E-13 9.37446E-14
 -1      3782 2.00032E+01 4.99841E-02 1.29352E-04-2.24548E-02-4.15949E-14-1.79793E-15
 -1      3783 2.00041E+01 4.15608E-02-2.09987E-04-1.71350E-02-8.66719E-15 4.87588E-14
 -1      3784 1.99987E+01 6.02735E-02 1.66523E-04-2.29056E-02-3.76114E-14 3.23457E-14
 -1      3785 2.00064E+01 3.44695E-02 1.02552E-04-1.33806E-02-8.38712E-14-1.05507E-13
 -1      3786 2.00066E+01 2.81769E-02-1.47036E-04-9.62090E-03-1.85938E-13-5.07938E-14
 -1      3787 2.00040E+01 4.20154E-02 1.08279E-04-1.40613E-02-7.37161E-14-2.04184E-13
 -1      3788 2.00078E+01 2.29315E-02 7.97222E-05-7.02466E-03-3.04935E-13-5.86183E-14
 -1      3789 2.00076E+01 1.83267E-02-9.96949E-05-4.44472E-03-1.88007E-13-1.69619E-13
 -1      3790 2.00069E+01 2.83413E-02 6.63650E-05-7.80361E-03-3.06623E-13-2.53399E-13
 -1      3791 2.00081E+01 1.45299E-02 6.07401E-05-2.71156E-03-5.66567E-14-3.42740E-13
 -1      3792 2.00077E+01 1.12369E-02-6.48058E-05-1.00657E-03 1.87266E-14-3.87191E-13
 -1      3793 2.00081E+01 1.83070E-02 3.69821E-05-3.50373E-03-1.84145E-13-2.57490E-13
 -1      3794 2.00077E+01 8.55538E-03 4.53042E-05 9.66921E-05 3.07785E-14-4.31744E-13
 -1      3795 2.00072E+01 6.26187E-03-3.96719E-05 1.16629E-03 5.21058E-14-3.90668E-13
 -1      3796 2.00083E+01 1.11082E-02 1.70419E-05-6.57199E-04 6.41244E-14-4.01865E-13
 -1      3797 2.00069E+01 4.42089E-03 3.30301E-05 1.82043E-03 5.03903E-14-3.15643E-13
 -1      3798 2.00064E+01 2.87192E-03-2.20352E-05 2.43917E-03 1.59491E-14-1.06858E-13
 -1      3799 2.00078E+01 6.07482E-03 4.08294E-06 1.13304E-03 4.73654E-14-2.77049E-13
 -1      3800 2.00059E+01 1.64915E-03 2.35202E-05 2.78138E-03-1.81229E-13-5.67755E-14
 -1      3801 2.00054E+01 6.39863E-04-1.00907E-05 3.08835E-03-9.15637E-14-5.82097E-14
 -1      3802 2.00069E+01 2.65870E-03-3.86891E-06 2.17324E-03-1.47634E-14-4.34982E-14
 -1      3803 2.00049E+01-1.42603E-04 1.63806E-05 3.22065E-03 9.73468E-15-8.72278E-14
 -1      3804 2.00044E+01-7.75638E-04-2.43054E-06 3.31815E-03 1.12252E-13-1.57805E-14
 -1      3805 2.00058E+01 4.16997E-04-8.79971E-06 2.69518E-03-1.17541E-13 5.38163E-14
 -1      3806 2.00038E+01-1.25401E-03 1.21063E-05 3.31427E-03 2.39407E-13-3.27625E-13
 -1      3807 2.00034E+01-1.64957E-03 1.94840E-06 3.28336E-03 2.59343E-13-3.60139E-13
 -1      3808 2.00047E+01-9.97485E-04-1.05684E-05 2.86845E-03-1.70944E-14-2.55299E-13
 -1      3809 1.93011E+01-5.38543E-01 4.39392E-03 2.25895E+00-3.01844E-13 1.15002E-13
 -1      3810 1.96093E+01-9.40855E-01 2.01672E-02 2.41634E+00-3.20484E-13 1.39688E-13
 -1      3811 1.79396E+01-3.30712E-01 5.54035E-02-3.17748E+00-2.06377E-13-5.65593E-13
 -1      3812 1.96959E+01-1.34804E+00-4.62929E-02-2.96350E+00-2.19475E-13-3.73149E-13
 -1      3813 2.01223E+01-4.27871E-01 5.78034E-03-2.08695E+00-3.62466E-14-3.88389E-13
 -1      3814 1.89258E+01 5.04497E-01 1.00481E-02-2.05992E+00 2.63613E-14-5.02662E-13
 -1      3815 1.98155E+01-1.40914E+00 2.29269E-02 2.67545E+00-3.44130E-13 1.33801E-13
 -1      3816 2.02814E+01-2.03155E+00-1.00031E-03 2.81749E+00-2.68244E-13 2.43930E-14
 -1      3817 1.87986E+01-1.10109E+00-3.20547E-02 2.83960E+00-3.10427E-13 2.56515E-13
 -1      3818 1.91371E+01 3.86346E-01-3.09215E-03 1.53232E+00-5.25394E-14-5.27989E-14
 -1      3819 1.91873E+01 2.42222E-01 9.43279E-03 1.66814E+00-1.11733E-13 1.22849E-14
 -1      3820 1.92295E+01 5.64622E-01-3.63407E-03 1.25859E+00 7.37191E-14-7.25165E-14
 -1      3821 1.92291E+01 4.95537E-01 5.84519E-03 1.37719E+00 2.25208E-14-4.64661E-14
 -1      3822 1.88105E+01 5.57540E-01 2.36811E-04 1.42340E+00-4.04249E-14 4.12126E-14
 -1      3823 1.93529E+01 6.31143E-01-3.51341E-03 1.03149E+00-2.31480E-14-8.92307E-14
 -1      3824 1.93291E+01 6.11250E-01 3.57707E-03 1.13451E+00 6.20581E-14-7.52176E-14
 -1      3825 1.89979E+01 6.88439E-01 1.66914E-03 1.14678E+00 5.00643E-14 6.71950E-14
 -1      3826 1.94791E+01 6.27291E-01-3.19218E-03 8.40838E-01-1.04558E-13-1.00606E-13
 -1      3827 1.94473E+01 6.37766E-01 2.27904E-03 9.30367E-01-5.17697E-14-9.91127E-14
 -1      3828 1.91851E+01 7.21159E-01 2.21284E-03 9.27144E-01-2.63682E-14-8.61095E-15
 -1      3829 1.95945E+01 5.82221E-01-2.82822E-03 6.79640E-01-4.49034E-14-1.46994E-13
 -1      3830 1.95628E+01 6.09910E-01 1.55135E-03 7.57124E-01-6.31538E-14-9.96548E-14
 -1      3831 1.93558E+01 6.93424E-01 2.24574E-03 7.48476E-01-7.80958E-14-7.20642E-14
 -1      3832 1.96934E+01 5.16081E-01-2.45102E-03 5.43342E-01 1.58813E-13-2.10518E-13
 -1      3833 1.96655E+01 5.52034E-01 1.14346E-03 6.09861E-01 9.45620E-14-1.94357E-13
 -1      3834 1.95033E+01 6.31440E-01 2.06440E-03 6.00786E-01 9.28204E-14-1.62437E-13
 -1      3835 1.97747E+01 4.41977E-01-2.08585E-03 4.28822E-01-2.07622E-14-1.21633E-13
 -1      3836 1.97519E+01 4.80417E-01 9.13148E-04 4.85208E-01 6.48681E-14-1.28215E-13
 -1      3837 1.96261E+01 5.53028E-01 1.80077E-03 4.77817E-01 5.21187E-14-1.60776E-13
 -1      3838 1.98393E+01 3.68226E-01-1.74304E-03 3.33651E-01-6.26832E-14-1.54760E-13
 -1      3839 1.98216E+01 4.05538E-01 7.65327E-04 3.80744E-01-2.58455E-14-1.01036E-13
 -1      3840 1.97252E+01 4.69789E-01 1.50185E-03 3.75645E-01-5.90994E-14-1.31702E-13
 -1      3841 1.98891E+01 2.99697E-01-1.43105E-03 2.55597E-01-1.49557E-13 2.51136E-14
 -1      3842 1.98760E+01 3.33825E-01 6.57787E-04 2.94308E-01-1.39078E-13-5.06860E-14
 -1      3843 1.98033E+01 3.89130E-01 1.21160E-03 2.91390E-01-1.91222E-13-1.30296E-13
 -1      3844 1.99266E+01 2.38891E-01-1.15483E-03 1.92508E-01 3.02674E-14 3.85733E-14
 -1      3845 1.99172E+01 2.68840E-01 5.68579E-04 2.23813E-01-1.57809E-14 9.95900E-14
 -1      3846 1.98634E+01 3.15316E-01 9.51647E-04 2.22662E-01-1.25000E-13-6.86169E-14
 -1      3847 1.99541E+01 1.86752E-01-9.16131E-04 1.42298E-01 1.64926E-13-4.04261E-14
 -1      3848 1.99477E+01 2.12216E-01 4.88077E-04 1.67195E-01 9.26762E-14 1.72225E-14
 -1      3849 1.99086E+01 2.50444E-01 7.29741E-04 1.67330E-01 1.16914E-13-2.73844E-14
 -1      3850 1.99737E+01 1.43251E-01-7.14353E-04 1.02974E-01 2.17084E-13 1.19323E-14
 -1      3851 1.99695E+01 1.64351E-01 4.13394E-04 1.22445E-01 2.46315E-13 1.11326E-13
 -1      3852 1.99418E+01 1.95177E-01 5.46707E-04 1.23424E-01 1.43036E-13-2.46085E-14
 -1      3853 1.99873E+01 1.07791E-01-5.47247E-04 7.26863E-02-1.29545E-14 1.24121E-13
 -1      3854 1.99847E+01 1.24888E-01 3.44502E-04 8.76539E-02 8.25491E-14 1.45382E-13
 -1      3855 1.99656E+01 1.49285E-01 3.99869E-04 8.91214E-02 9.64498E-14 1.77805E-13
 -1      3856 1.99962E+01 7.94783E-02-4.11513E-04 4.97645E-02 3.56586E-14 8.79402E-14
 -1      3857 1.99949E+01 9.30557E-02 2.82182E-04 6.10646E-02 5.94177E-14 9.71079E-14
 -1      3858 1.99822E+01 1.12014E-01 2.84892E-04 6.27556E-02 1.00100E-13 1.91278E-13
 -1      3859 2.00019E+01 5.73080E-02-3.03292E-04 3.27404E-02-7.15718E-14-6.80961E-14
 -1      3860 2.00014E+01 6.78850E-02 2.27120E-04 4.11091E-02-1.88848E-14 4.36319E-14
 -1      3861 1.99934E+01 8.23496E-02 1.96872E-04 4.28391E-02 5.36553E-14-1.95070E-14
 -1      3862 2.00052E+01 4.02733E-02-2.18566E-04 2.03563E-02 1.36184E-13 4.90744E-14
 -1      3863 2.00052E+01 4.83584E-02 1.79604E-04 2.64236E-02-4.12970E-14-9.81322E-16
 -1      3864 2.00005E+01 5.91861E-02 1.30973E-04 2.80740E-02-6.78516E-14-7.43564E-16
 -1      3865 2.00068E+01 2.74344E-02-1.53439E-04 1.15582E-02-4.77049E-14 2.03609E-13
 -1      3866 2.00071E+01 3.34956E-02 1.39503E-04 1.58512E-02 2.23213E-13 2.11295E-13
 -1      3867 2.00047E+01 4.14365E-02 8.27730E-05 1.73532E-02 8.00034E-15 1.69830E-13
 -1      3868 2.00073E+01 1.79526E-02-1.04319E-04 5.48184E-03-1.27984E-14 9.56709E-14
 -1      3869 2.00078E+01 2.24031E-02 1.06356E-04 8.43189E-03-8.25376E-14 1.71732E-13
 -1      3870 2.00070E+01 2.80950E-02 4.84187E-05 9.75264E-03 2.06887E-14 1.84032E-13
 -1      3871 2.00071E+01 1.11043E-02-6.80260E-05 1.43178E-03 2.74034E-13-1.92638E-14
 -1      3872 2.00077E+01 1.42980E-02 7.94914E-05 3.38495E-03 2.01755E-13 7.61187E-14
 -1      3873 2.00078E+01 1.82703E-02 2.46677E-05 4.51602E-03 1.39179E-13 1.26144E-13
 -1      3874 2.00065E+01 6.28111E-03-4.18249E-05-1.14052E-03 1.99339E-13-8.17947E-15
 -1      3875 2.00070E+01 8.51355E-03 5.81264E-05 8.80283E-05 2.74152E-13-2.44873E-14
 -1      3876 2.00078E+01 1.11962E-02 8.86631E-06 1.03652E-03 2.92537E-13 1.00363E-13
 -1      3877 2.00056E+01 2.98223E-03-2.33875E-05-2.65957E-03 1.51382E-13-3.30879E-14
 -1      3878 2.00062E+01 4.49555E-03 4.14381E-05-1.94564E-03 2.11287E-13-7.27353E-15
 -1      3879 2.00072E+01 6.23115E-03-1.10189E-06-1.16362E-03 2.07982E-13 1.07941E-13
 -1      3880 2.00047E+01 8.01386E-04-1.09662E-05-3.44781E-03-7.67249E-14-2.37741E-13
 -1      3881 2.00052E+01 1.79152E-03 2.86447E-05-3.08971E-03 6.84726E-14-7.42789E-14
 -1      3882 2.00063E+01 2.84831E-03-6.87762E-06-2.45368E-03 1.79782E-13 1.74031E-13
 -1      3883 2.00037E+01-5.86376E-04-2.88372E-06-3.74265E-03-9.92715E-14-4.40114E-14
 -1      3884 2.00042E+01 3.60371E-05 1.90456E-05-3.62411E-03-1.14709E-13-1.96960E-13
 -1      3885 2.00053E+01 6.19310E-04-1.02072E-05-3.11359E-03-7.01591E-14 1.93274E-14
 -1      3886 2.00029E+01-1.44103E-03 1.19301E-06-3.71569E-03-2.27319E-13 7.24888E-14
 -1      3887 2.00033E+01-1.06153E-03 1.20136E-05-3.75346E-03-1.69830E-13 6.47675E-14
 -1      3888 2.00043E+01-7.96180E-04-1.15395E-05-3.34914E-03-2.82428E-13 2.67865E-14
 -1      3889 2.00034E+01-1.92976E-03-1.02099E-05 2.86624E-03 1.87031E-13-3.03032E-13
 -1      3890 1.35862E+01 2.34903E+00 1.21435E-02-3.17207E-01 2.37588E-14-9.06091E-13
 -1      3891 1.37750E+01 2.00293E+00 1.00168E-02-1.53085E+00-7.24160E-14-8.89219E-13
 -1      3892 1.43527E+01 2.58702E+00 2.30039E-02 6.62569E-01 4.71294E-14-9.02756E-13
 -1      3893 1.61986E+01-9.67500E-01-5.45542E-02 3.49658E+00-4.26784E-13-4.81837E-14
 -1      3894 1.46843E+01-5.67030E-02 7.67690E-02 2.93316E+00-4.24247E-13-1.00614E-14
 -1      3895 2.00657E+01-2.54051E+00-3.41840E-02 3.28872E+00-3.44522E-13 4.11129E-16
 -1      3896 1.81754E+01-1.53485E+00 7.62650E-02 3.59462E+00-4.44478E-13 1.01692E-13
 -1      3897 1.51162E+01 2.12755E+00 4.38020E-02-1.51398E+00-1.95000E-14-8.08453E-13
 -1      3898 1.50322E+01 2.62793E+00 1.03269E-02-9.99674E-01 2.00664E-14-8.49491E-13
 -1      3899 1.78978E+01 8.84622E-01-1.07394E-02-2.12401E+00-1.24059E-14-5.84264E-13
 -1      3900 1.89816E+01-1.11389E+00 4.32835E-02 3.26706E+00 2.81344E-13-5.02629E-13
 -1      3901 2.22634E+01-2.14664E+00-2.85111E-02-1.83366E+00-1.71453E-13-1.86112E-13
 -1      3902 2.23162E+01-1.61422E+00-3.54328E-03-1.35868E+00-6.20103E-14-2.21877E-13
 -1      3903 2.19503E+01-1.10386E+00 1.88544E-02-1.34456E+00-6.32133E-15-2.35222E-13
 -1      3904 2.13180E+01-1.73813E+00 5.46740E-02-2.42378E+00-2.03441E-13-2.88906E-13
 -1      3905 1.53434E+01 4.28913E-01 3.63220E-02-2.19608E+00 1.26462E-13 1.57380E-13
 -1      3906 1.67717E+01-3.12465E-01-1.59646E-02-2.79444E+00 1.76730E-13-2.45888E-14
 -1      3907 1.46883E+01 1.59130E+00 3.25332E-02-2.14525E+00-8.40213E-14-7.97547E-13
 -1      3908 2.00015E+01-2.20979E-03 7.35223E-06-3.28084E-03 3.61783E-14-1.48739E-15
 -1      3909 1.39543E+01 9.94848E-01 2.08208E-02-2.53101E-01-5.19793E-14 1.35893E-13
 -1      3910 1.42959E+01 7.53160E-01-2.35221E-02-1.37375E+00 5.79870E-14 2.01174E-13
 -1      3911 1.60556E+01 6.10849E-01-4.26358E-02-2.87449E+00-1.37426E-13-7.05144E-13
 -1      3912 1.50149E+01 1.06926E+00-3.31115E-02 2.55731E+00 1.99959E-13-8.03354E-13
 -1      3913 1.46249E+01 2.77733E+00-2.49463E-02-5.34774E-01 1.47625E-15-8.44090E-13
 -1      3914 1.91297E+01 4.23672E-02-6.96996E-04 1.86438E+00-1.62060E-13 2.85115E-14
 -1      3915 1.92776E+01-2.10356E-01 1.55010E-02 2.01676E+00-1.88837E-13 1.04023E-13
 -1      3916 1.86578E+01 2.76613E-01-2.35568E-03 1.78182E+00-1.10644E-13 7.09983E-14
 -1      3917 2.00021E+01-2.12969E-03 2.52945E-07-3.23633E-03 4.77802E-14-5.15311E-14
 -1      3918 1.41121E+01 2.64494E+00 1.63982E-03 9.91745E-02 4.36495E-14-8.78087E-13
 -1      3919 1.63382E+01 6.66558E-01 4.60529E-02 2.78310E+00 2.09409E-13-7.38179E-13
 -1      3920 1.73644E+01 6.42850E-01 1.58812E-02-2.48779E+00-7.22868E-14-6.20306E-13
 -1      3921 1.77403E+01-2.36141E-01-1.26530E-02 3.09675E+00 2.17716E-13-6.19366E-13
 -1      3922 2.00038E+01-2.16400E-03 5.51251E-06-2.12332E-03-2.69062E-13-3.55540E-14
 -1      3923 2.00034E+01-2.10956E-03-8.32967E-06-2.55768E-03-4.23128E-14-1.77129E-13
 -1      3924 2.13397E+01-1.01285E+00-3.11279E-02-1.64912E+00 1.30798E-15-3.12023E-13
 -1      3925 2.00045E+01-2.25764E-03-1.22263E-06 3.04026E-04 1.27947E-13 1.25264E-14
 -1      3926 2.00045E+01-2.25853E-03-1.80552E-06-3.03085E-04-3.26201E-14-2.49722E-13
 -1      3927 1.86007E+01-2.45021E-01-1.58352E-02 2.25230E+00-2.41523E-13 1.15369E-13
 -1      3928 2.04381E+01-9.80361E-01 1.69408E-02-2.30392E+00-1.15311E-13-3.74088E-13
 -1      3929 2.00039E+01-2.00653E-03 3.95130E-06 2.34834E-03 1.73828E-13-6.65511E-14
 -1      3930 2.00021E+01-1.96951E-03-3.65345E-06-3.48571E-03 1.55085E-14-4.56199E-14
 -1      3931 2.00024E+01-1.73034E-03 5.04688E-06-3.61730E-03-3.58729E-14 5.21362E-14
 -1      3932 2.00033E+01-1.66499E-03-8.35496E-06-3.30341E-03-1.51921E-13 5.93238E-15
 -1      3933 2.00044E+01-2.24611E-03 1.01272E-06-9.41520E-04-1.40588E-13-2.34121E-13
 -1      3934 2.00042E+01-2.21648E-03-6.66987E-06-1.52154E-03-2.05897E-13-4.57685E-15
 -1      3935 2.00045E+01-1.88380E-03 5.96662E-06-1.86722E-03-1.16123E-13 6.77828E-15
 -1      3936 2.00050E+01-1.90589E-03 6.55100E-06-6.36091E-04 4.59942E-14-1.04388E-13
 -1      3937 1.75241E+01-8.72735E-01 3.24845E-02 3.10395E+00-3.06564E-13 1.25264E-13
 -1      3938 2.00042E+01-2.21508E-03-6.42864E-06 1.54328E-03 2.36648E-13 3.70684E-13
 -1      3939 2.00044E+01-2.24805E-03 1.59916E-06 9.57267E-04 1.20526E-13 2.81741E-13
 -1      3940 2.00050E+01-1.90918E-03 5.39215E-06 6.43714E-04 2.06387E-13 7.25497E-14
 -1      3941 1.73698E+01-3.89905E-01 4.47050E-04-2.77435E+00 1.33292E-13-1.38492E-14
 -1      3942 1.40092E+01 1.02594E+00 2.62619E-02 1.75007E-01-9.60074E-14 4.67595E-15
 -1      3943 1.47575E+01 1.04251E+00 1.15775E-02-2.59802E-01-3.04951E-14 8.32051E-14
 -1      3944 1.41867E+01 9.29147E-01-4.28850E-03 7.03012E-01-1.73043E-13-6.85198E-14
 -1      3945 1.55294E+01 7.06092E-01 2.80137E-02-1.56371E+00 7.64107E-14 1.49233E-13
 -1      3946 1.47669E+01 3.14539E-01 2.07782E-02 2.19360E+00-3.30652E-13 3.23873E-14
 -1      3947 1.75001E+01 7.90852E-01 7.72926E-03-1.39624E+00 6.09332E-15 3.73133E-14
 -1      3948 1.76725E+01 8.68144E-01-1.26153E-02-1.21631E+00 1.34354E-14 3.79327E-14
 -1      3949 1.79866E+01 9.25892E-01 2.42875E-03-1.07328E+00-5.13786E-14 5.21292E-14
 -1      3950 1.81553E+01 9.48045E-01-9.16509E-03-9.44458E-01-1.55513E-14-8.05513E-15
 -1      3951 1.75496E+01 1.04129E+00 1.20508E-02-9.33264E-01-5.83339E-15 4.61035E-14
 -1      3952 1.84024E+01 9.57692E-01 7.08346E-04-8.45570E-01 6.95374E-14-9.65444E-15
 -1      3953 1.85507E+01 9.45115E-01-6.44244E-03-7.49665E-01 7.93119E-14-1.20162E-13
 -1      3954 1.80814E+01 1.05601E+00 8.58362E-03-7.18462E-01 4.29379E-14 8.40278E-14
 -1      3955 1.87463E+01 9.24548E-01-1.43932E-05-6.76241E-01 2.04651E-14-1.64737E-13
 -1      3956 1.88722E+01 8.89779E-01-4.81101E-03-6.00993E-01-2.48802E-14-1.49728E-13
 -1      3957 1.85038E+01 1.01291E+00 6.66551E-03-5.68572E-01 4.01295E-14 2.50535E-14
 -1      3958 1.90288E+01 8.50851E-01-3.20527E-04-5.44003E-01-1.21174E-14-6.21971E-14
 -1      3959 1.91330E+01 8.04034E-01-3.73762E-03-4.82900E-01 2.96884E-14-1.00170E-14
 -1      3960 1.88419E+01 9.32805E-01 5.38153E-03-4.54454E-01 4.07336E-14 1.96714E-14
 -1      3961 1.92581E+01 7.55888E-01-4.10305E-04-4.36772E-01-5.11778E-14-5.97957E-14
 -1      3962 1.93427E+01 7.03647E-01-2.99191E-03-3.86024E-01-7.33760E-14-6.28252E-14
 -1      3963 1.91128E+01 8.31041E-01 4.14509E-03-3.64798E-01-1.97650E-14 9.01877E-15
 -1      3964 1.94424E+01 6.52199E-01-3.64879E-04-3.48324E-01-1.10013E-13-6.74836E-14
 -1      3965 1.95098E+01 5.99444E-01-2.40931E-03-3.05976E-01-1.20039E-13-8.80093E-14
 -1      3966 1.93298E+01 7.20374E-01 3.34549E-03-2.91054E-01-1.03597E-13-8.70842E-15
 -1      3967 1.95883E+01 5.49049E-01-2.92567E-04-2.75067E-01-1.87366E-14-7.74704E-14
 -1      3968 1.96410E+01 4.99117E-01-1.94398E-03-2.39813E-01 6.47126E-14 1.29497E-14
 -1      3969 1.95015E+01 6.09473E-01 2.65560E-03-2.30550E-01-1.27690E-14 6.68153E-15
 -1      3970 1.97021E+01 4.52396E-01-2.03221E-04-2.14489E-01 3.00517E-14-1.23074E-13
 -1      3971 1.97426E+01 4.07170E-01-1.56464E-03-1.85388E-01 5.62247E-14-2.25688E-13
 -1      3972 1.96357E+01 5.04872E-01 2.09329E-03-1.80575E-01 3.35291E-14-6.14972E-14
 -1      3973 1.97896E+01 3.65537E-01-1.24549E-04-1.64816E-01 4.83470E-14-1.79397E-13
 -1      3974 1.98200E+01 3.25933E-01-1.25021E-03-1.41088E-01 3.32155E-14-1.83935E-13
 -1      3975 1.97394E+01 4.10183E-01 1.63498E-03-1.39479E-01 3.01057E-14-1.88828E-13
 -1      3976 1.98556E+01 2.89966E-01-6.35305E-05-1.24583E-01 2.79921E-14-1.98609E-13
 -1      3977 1.98781E+01 2.56229E-01-9.88185E-04-1.05512E-01 6.19354E-14-2.27044E-13
 -1      3978 1.98183E+01 3.27201E-01 1.26130E-03-1.06042E-01-1.07129E-14-2.72063E-13
 -1      3979 1.99046E+01 2.25947E-01-1.99143E-05-9.24586E-02 5.40275E-14-1.65418E-13
 -1      3980 1.99209E+01 1.97876E-01-7.70758E-04-7.73681E-02 8.42497E-15-1.31437E-13
 -1      3981 1.98774E+01 2.56412E-01 9.58891E-04-7.92035E-02 7.09164E-14-1.94185E-13
 -1      3982 1.99402E+01 1.72941E-01 8.96270E-06-6.72065E-02-6.66978E-14-3.28316E-14
 -1      3983 1.99516E+01 1.50069E-01-5.92171E-04-5.54594E-02-1.07371E-13-3.11457E-14
 -1      3984 1.99208E+01 1.97415E-01 7.17004E-04-5.79867E-02 3.71798E-14-3.37505E-14
 -1      3985 1.99654E+01 1.29947E-01 2.63524E-05-4.76809E-02-1.35325E-13 5.01457E-14
 -1      3986 1.99733E+01 1.11666E-01-4.47441E-04-3.86919E-02-1.02623E-13 1.08403E-13
 -1      3987 1.99519E+01 1.49260E-01 5.26196E-04-4.14843E-02-6.11804E-14 8.45846E-14
 -1      3988 1.99828E+01 9.57308E-02 3.53259E-05-3.28442E-02-1.47558E-13 2.39443E-13
 -1      3989 1.99880E+01 8.13867E-02-3.31909E-04-2.60895E-02-6.57005E-14 2.20182E-13
 -1      3990 1.99738E+01 1.10703E-01 3.77955E-04-2.88676E-02-5.18150E-14 1.42718E-13
 -1      3991 1.99944E+01 6.89947E-02 3.84711E-05-2.17788E-02-1.59583E-13-6.39054E-14
 -1      3992 1.99976E+01 5.79421E-02-2.41158E-04-1.68019E-02-1.95702E-13-2.27869E-13
 -1      3993 1.99886E+01 8.03946E-02 2.64660E-04-1.93968E-02-2.48990E-13-1.01245E-14
 -1      3994 2.00017E+01 4.84804E-02 3.78219E-05-1.36934E-02-1.76267E-13-2.32754E-13
 -1      3995 2.00035E+01 4.01206E-02-1.71070E-04-1.01059E-02-2.16707E-13-4.00696E-13
 -1      3996 1.99982E+01 5.69976E-02 1.79596E-04-1.24276E-02-2.05568E-13-1.88407E-13
 -1      3997 2.00059E+01 3.30321E-02 3.48955E-05-7.92070E-03-2.74321E-13-3.15046E-13
 -1      3998 2.00068E+01 2.68318E-02-1.17903E-04-5.39975E-03-3.65917E-13-2.63292E-13
 -1      3999 2.00041E+01 3.92665E-02 1.16966E-04-7.41230E-03-2.43254E-13-2.30671E-13
 -1      4000 2.00080E+01 2.16284E-02 3.07740E-05-3.91047E-03-3.08850E-13-1.53337E-13
 -1      4001 2.00083E+01 1.71270E-02-7.83500E-05-2.19300E-03-4.28521E-14-1.28071E-13
 -1      4002 2.00073E+01 2.60880E-02 7.18628E-05-3.89549E-03-1.68868E-13-1.27806E-13
 -1      4003 2.00087E+01 1.33927E-02 2.61949E-05-1.21786E-03 4.63015E-14-3.22497E-13
 -1      4004 2.00086E+01 1.02024E-02-4.95541E-05-9.39036E-05-1.31420E-14-3.06141E-13
 -1      4005 2.00087E+01 1.64979E-02 4.02153E-05-1.50630E-03-1.48954E-13-1.27041E-13
 -1      4006 2.00085E+01 7.59047E-03 2.16413E-05 5.09668E-04-1.64028E-14-2.51048E-13
 -1      4007 2.00081E+01 5.39124E-03-2.90851E-05 1.20447E-03 6.16753E-14-3.27937E-13
 -1      4008 2.00089E+01 9.68231E-03 1.87289E-05 5.11388E-05 2.48633E-14-2.57559E-13
 -1      4009 2.00078E+01 3.61778E-03 1.74304E-05 1.54628E-03 8.78045E-14-2.73808E-13
 -1      4010 2.00072E+01 2.14885E-03-1.51020E-05 1.93810E-03 2.91148E-14-2.68910E-13
 -1      4011 2.00084E+01 4.96822E-03 4.85721E-06 1.00847E-03 8.86974E-14-2.78736E-13
 -1      4012 2.00067E+01 9.89798E-04 1.46167E-05 2.09885E-03-1.01373E-13-1.23720E-13
 -1      4013 2.00061E+01 4.18279E-05-6.80789E-06 2.28612E-03-1.12498E-13-1.75876E-13
 -1      4014 2.00074E+01 1.80744E-03-3.84758E-06 1.54095E-03 1.06998E-13-3.12174E-13
 -1      4015 2.00055E+01-6.93695E-04 1.21649E-05 2.32403E-03-1.65368E-13-1.85683E-13
 -1      4016 2.00050E+01-1.28612E-03-2.13118E-06 2.36799E-03-8.78000E-14-2.21799E-13
 -1      4017 2.00063E+01-2.46256E-04-1.02666E-05 1.79473E-03-1.03628E-13-4.01850E-13
 -1      4018 1.90277E+01 7.92605E-01-4.63669E-03 7.78489E-01-4.63146E-14 6.07287E-14
 -1      4019 1.89414E+01 8.06332E-01 1.72139E-03 8.70987E-01 4.50757E-16 9.84390E-14
 -1      4020 1.87785E+01 8.00699E-01-5.92776E-03 9.72432E-01 1.82975E-14 5.84593E-14
 -1      4021 1.86894E+01 7.82486E-01 3.34996E-03 1.08800E+00 3.63990E-14 4.63220E-14
 -1      4022 1.86601E+01 8.97328E-01 4.54933E-03 8.12337E-01-1.34651E-14 3.83780E-14
 -1      4023 1.84957E+01 7.32872E-01-7.98683E-03 1.22407E+00-1.67631E-14 2.18015E-14
 -1      4024 1.84164E+01 6.62699E-01 5.39955E-03 1.37319E+00-7.35992E-14 4.40699E-14
 -1      4025 1.83190E+01 8.78900E-01 4.99902E-03 1.03445E+00-3.47524E-14-4.53663E-15
 -1      4026 1.92406E+01 7.38474E-01-3.80304E-03 6.23236E-01 4.10585E-14-1.54811E-13
 -1      4027 1.91635E+01 7.71626E-01 8.92822E-04 6.99134E-01 5.24496E-14 2.58603E-14
 -1      4028 1.89460E+01 8.58017E-01 3.95935E-03 6.43893E-01 6.48241E-14-1.68902E-15
 -1      4029 1.94180E+01 6.59494E-01-3.12659E-03 4.96795E-01 1.15449E-13-1.20316E-13
 -1      4030 1.93525E+01 7.02345E-01 4.38718E-04 5.59892E-01 8.30143E-14-1.22697E-13
 -1      4031 1.91834E+01 7.83247E-01 3.37311E-03 5.11955E-01 9.36591E-14 3.32705E-14
 -1      4032 1.95627E+01 5.69999E-01-2.56520E-03 3.92729E-01-3.94732E-14-2.63100E-14
 -1      4033 1.95089E+01 6.16389E-01 2.59550E-04 4.45339E-01 5.85442E-14-1.22407E-13
 -1      4034 1.93779E+01 6.90255E-01 2.85553E-03 4.05680E-01 1.95483E-14 1.72769E-13
 -1      4035 1.96782E+01 4.79646E-01-2.09863E-03 3.07123E-01-1.24394E-13-3.65578E-14
 -1      4036 1.96354E+01 5.25309E-01 1.79758E-04 3.50813E-01-5.97165E-14-2.22421E-14
 -1      4037 1.95344E+01 5.91060E-01 2.33591E-03 3.19289E-01-2.51825E-14 1.21935E-13
 -1      4038 1.97686E+01 3.94457E-01-1.70565E-03 2.37072E-01-2.35066E-13-9.56785E-14
 -1      4039 1.97354E+01 4.36825E-01 1.56722E-04 2.73032E-01-2.06898E-13-1.15668E-13
 -1      4040 1.96583E+01 4.94035E-01 1.87485E-03 2.48810E-01-1.48096E-13-3.36257E-14
 -1      4041 1.98380E+01 3.17790E-01-1.37264E-03 1.80293E-01-7.09187E-14-2.04246E-13
 -1      4042 1.98129E+01 3.55489E-01 1.53995E-04 2.09538E-01-1.67308E-13-2.27960E-13
 -1      4043 1.97548E+01 4.04209E-01 1.48167E-03 1.91480E-01-1.24424E-13-2.66163E-13
 -1      4044 1.98904E+01 2.51159E-01-1.09110E-03 1.34836E-01 2.13509E-14-6.62847E-14
 -1      4045 1.98718E+01 2.83640E-01 1.54044E-04 1.58293E-01-1.19168E-14-1.81899E-13
 -1      4046 1.98287E+01 3.24291E-01 1.15214E-03 1.45226E-01-8.74542E-14-3.67021E-13
 -1      4047 1.99290E+01 1.94853E-01-8.55165E-04 9.89488E-02 4.51869E-14 7.77813E-14
 -1      4048 1.99156E+01 2.22108E-01 1.50497E-04 1.17482E-01 5.09307E-14-6.58190E-14
 -1      4049 1.98842E+01 2.55377E-01 8.80503E-04 1.08333E-01-5.94035E-14-1.32469E-13
 -1      4050 1.99569E+01 1.48392E-01-6.59955E-04 7.10432E-02 8.13168E-14 8.79742E-14
 -1      4051 1.99475E+01 1.70746E-01 1.42113E-04 8.54564E-02 8.67497E-14 1.34247E-13
 -1      4052 1.99252E+01 1.97475E-01 6.60476E-04 7.92962E-02 2.92471E-14 3.21243E-14
 -1      4053 1.99764E+01 1.10857E-01-5.00837E-04 4.96927E-02 1.33172E-13-1.67988E-13
 -1      4054 1.99701E+01 1.28818E-01 1.29751E-04 6.07162E-02 1.45494E-13-1.35841E-14
 -1      4055 1.99546E+01 1.49911E-01 4.85433E-04 5.67771E-02 1.38780E-13-1.10304E-13
 -1      4056 1.99897E+01 8.11188E-02-3.73193E-04 3.36391E-02-3.88718E-14-5.07706E-14
 -1      4057 1.99857E+01 9.52760E-02 1.14901E-04 4.19218E-02 7.37105E-14-7.47463E-14
 -1      4058 1.99753E+01 1.11629E-01 3.48686E-04 3.95891E-02 9.37374E-14-1.41561E-13
 -1      4059 1.99984E+01 5.79972E-02-2.72481E-04 2.17953E-02-5.09429E-14 4.24330E-16
 -1      4060 1.99960E+01 6.89496E-02 9.90225E-05 2.78997E-02-6.92808E-14-8.80922E-14
 -1      4061 1.99893E+01 8.13999E-02 2.43823E-04 2.66946E-02-4.29946E-14-6.48663E-14
 -1      4062 2.00037E+01 4.03537E-02-1.94364E-04 1.32411E-02-5.10575E-14 7.48954E-14
 -1      4063 2.00024E+01 4.86688E-02 8.32810E-05 1.76441E-02-6.34913E-14 8.47141E-15
 -1      4064 1.99985E+01 5.79698E-02 1.64956E-04 1.72031E-02-2.46246E-14-1.71271E-13
 -1      4065 2.00066E+01 2.71490E-02-1.34843E-04 7.21350E-03-1.30391E-14 1.18724E-13
 -1      4066 2.00061E+01 3.33388E-02 6.84933E-05 1.03107E-02 2.37249E-14 2.22291E-13
 -1      4067 2.00040E+01 4.01460E-02 1.06869E-04 1.03645E-02-5.05300E-14 4.22551E-14
 -1      4068 2.00079E+01 1.74695E-02-9.03449E-05 3.09140E-03 2.58046E-13 4.81898E-14
 -1      4069 2.00079E+01 2.19802E-02 5.51603E-05 5.20472E-03 1.52700E-13 1.38360E-13
 -1      4070 2.00071E+01 2.68485E-02 6.50802E-05 5.55870E-03 8.80916E-14 1.61619E-13
 -1      4071 2.00081E+01 1.05355E-02-5.77733E-05 3.78989E-04 2.49069E-13 1.25560E-13
 -1      4072 2.00084E+01 1.37454E-02 4.35350E-05 1.76518E-03 2.53638E-13 9.39775E-14
 -1      4073 2.00084E+01 1.71342E-02 3.58342E-05 2.28286E-03 1.96958E-13 1.61620E-13
 -1      4074 2.00077E+01 5.69677E-03-3.45483E-05-1.31217E-03 7.20987E-14 3.26124E-13
 -1      4075 2.00081E+01 7.91943E-03 3.36838E-05-4.52160E-04 1.90889E-13 2.13275E-13
 -1      4076 2.00086E+01 1.02010E-02 1.60585E-05 1.36471E-04 1.04481E-13 2.71305E-13
 -1      4077 2.00068E+01 2.42264E-03-1.80537E-05-2.28004E-03 2.29859E-13 2.65156E-13
 -1      4078 2.00073E+01 3.91228E-03 2.54537E-05-1.79218E-03 1.98684E-13 2.74199E-13
 -1      4079 2.00081E+01 5.38286E-03 3.38432E-06-1.19309E-03 9.14960E-14 4.20027E-13
 -1      4080 2.00058E+01 2.81115E-04-7.54366E-06-2.75333E-03-1.84151E-13 1.48681E-13
 -1      4081 2.00063E+01 1.24631E-03 1.84514E-05-2.52046E-03 9.47093E-14 2.56943E-13
 -1      4082 2.00072E+01 2.14191E-03-3.14090E-06-1.94565E-03 1.62456E-13 4.27701E-13
 -1      4083 2.00047E+01-1.06771E-03 1.39383E-06-2.89908E-03-1.95989E-13-8.72611E-14
 -1      4084 2.00052E+01-4.63528E-04 1.34569E-05-2.83025E-03-1.20315E-13 8.46755E-15
 -1      4085 2.00060E+01 2.69831E-05-9.05698E-06-2.30358E-03-2.88829E-14 8.69073E-14
 -1      4086 2.00028E+01-2.13956E-03 1.06560E-05-2.95499E-03 4.17310E-14-4.77479E-14
 -1      4087 1.68668E+01 1.96613E-01-6.80232E-03-2.26988E+00 8.34632E-14-4.18437E-15
 -1      4088 1.73571E+01-3.68288E-01 1.25937E-02 2.74347E+00-2.14628E-13 8.18989E-14
 -1      4089 1.63184E+01 5.20357E-01-1.08816E-02-1.89503E+00 8.18283E-14 3.27342E-14
 -1      4090 1.68590E+01 4.73980E-01 1.32811E-02-1.92181E+00 4.06350E-14 4.34457E-14
 -1      4091 1.70504E+01 6.51073E-01-1.25946E-02-1.64708E+00 5.02219E-14 8.11932E-14
 -1      4092 1.55090E+01 9.17913E-01 3.62287E-03-1.16546E+00-1.40252E-15 1.16791E-13
 -1      4093 2.00035E+01-1.92781E-03 2.67289E-06-2.84495E-03-1.06544E-13-1.84217E-13
 -1      4094 1.76556E+01 2.29233E-01-3.12638E-03 2.04231E+00-1.93014E-13 6.40162E-14
 -1      4095 1.76897E+01-4.37733E-02 2.50994E-02 2.31217E+00-1.67182E-13 8.20698E-14
 -1      4096 1.62674E+01 1.37149E-01 1.11841E-02 2.43787E+00-1.68416E-13 3.84536E-14
 -1      4097 2.00040E+01-1.57829E-03 5.97956E-06-2.88740E-03-2.83418E-13-1.67179E-13
 -1      4098 1.55030E+01 3.62236E-01-8.77891E-03 2.05583E+00-1.85084E-13 9.88376E-14
 -1      4099 1.46529E+01 8.78194E-01 4.70393E-02 1.32700E+00-2.14725E-13 9.92461E-14
 -1      4100 1.50399E+01 9.89408E-01 9.67262E-03 7.33845E-01-6.83583E-14-3.74765E-15
 -1      4101 1.59345E+01 6.40424E-01-1.38196E-02 1.67495E+00-8.57188E-14 1.24933E-13
 -1      4102 1.81937E+01 5.47485E-01-1.04414E-02 1.55718E+00-1.14595E-13 5.52867E-14
 -1      4103 1.81560E+01 3.99816E-01 7.97647E-03 1.75432E+00-1.54753E-13 6.60539E-14
 -1      4104 1.79292E+01 7.66734E-01 7.44556E-03 1.33850E+00-6.01150E-14 1.35261E-14
 -1      4105 2.00048E+01-1.35470E-03-1.10963E-05-2.41750E-03-1.61721E-13-2.18587E-13
 -1      4106 1.68104E+01 9.13904E-01 1.12779E-02-1.28316E+00 1.58826E-14 9.57470E-15
 -1      4107 2.00053E+01-1.47646E-03-5.34469E-06 1.58376E-03 1.40723E-13 1.41390E-13
 -1      4108 2.00046E+01-1.69172E-03 5.96513E-06 2.09086E-03 1.06783E-13 8.34237E-14
 -1      4109 1.72123E+01 5.52795E-01 5.98938E-03 1.75688E+00-1.54684E-13 8.57474E-14
 -1      4110 2.00052E+01-1.36962E-03 1.30626E-06-1.83834E-03-7.25990E-14 1.01514E-13
 -1      4111 2.00056E+01-1.49536E-03-1.76190E-06-3.35329E-04 1.31776E-13-1.15602E-13
 -1      4112 2.00055E+01-1.50009E-03-9.16961E-06-9.48103E-04 7.48949E-14-2.72458E-14
 -1      4113 1.54323E+01 1.10190E+00 1.30806E-02-5.75134E-01-5.59095E-14 7.70516E-14
 -1      4114 1.61697E+01 9.91738E-01 8.29791E-03-9.52019E-01-1.02301E-14 3.14907E-14
 -1      4115 2.00055E+01-1.47639E-03-3.15365E-06 9.36662E-04 2.94817E-13 2.90592E-13
 -1      4116 2.00056E+01-1.48870E-03-5.20671E-06 3.15459E-04 2.88843E-13 4.90284E-14
 -1      4117 2.00062E+01-9.60700E-04 9.40076E-06-2.35019E-05 1.31383E-13 1.13519E-13
 -1      4118 2.00060E+01-9.53838E-04 1.32830E-05 1.22230E-03 1.85190E-13 5.13436E-14
 -1      4119 1.53897E+01 1.14267E+00 5.36351E-03-1.26078E-01-4.24086E-14 5.92616E-14
 -1      4120 1.72542E+01 8.13778E-01-1.15475E-02 1.31686E+00-9.71417E-14-4.29898E-14
 -1      4121 1.67048E+01 7.12362E-01-1.12700E-02 1.52912E+00-1.30709E-13-1.19817E-14
 -1      4122 1.62314E+01 9.46760E-01 2.27583E-02 1.15884E+00-4.94804E-14-4.73441E-14
 -1      4123 1.77980E+01 1.10355E+00-3.95626E-03-5.27373E-01 6.89477E-15 1.22621E-14
 -1      4124 1.80379E+01 1.08638E+00-7.37303E-03-4.54490E-01 4.76261E-14 3.91641E-14
 -1      4125 1.82898E+01 1.06033E+00-2.35496E-03-4.16379E-01 2.29874E-14-4.63125E-14
 -1      4126 1.84787E+01 1.02335E+00-5.15531E-03-3.63143E-01 4.40929E-14-2.65417E-14
 -1      4127 1.80885E+01 1.12738E+00 7.86331E-03-2.31483E-01-6.43433E-15-7.65389E-14
 -1      4128 1.86767E+01 9.78703E-01-2.03631E-03-3.33465E-01 3.28253E-14-2.01398E-13
 -1      4129 1.88261E+01 9.27580E-01-5.02211E-03-2.93936E-01-1.17417E-14-1.88168E-13
 -1      4130 1.85259E+01 1.04529E+00 7.99344E-03-1.87605E-01-3.60244E-14-2.86720E-13
 -1      4131 1.89829E+01 8.76657E-01-1.96334E-03-2.67374E-01-6.57237E-14-1.90657E-13
 -1      4132 1.91050E+01 8.19992E-01-3.36694E-03-2.34502E-01-7.10697E-14-1.93594E-13
 -1      4133 1.88632E+01 9.46707E-01 8.41367E-03-1.48250E-01-4.83403E-14-3.44121E-13
 -1      4134 1.92282E+01 7.62659E-01-1.83685E-03-2.14733E-01-3.45492E-14-1.16509E-13
 -1      4135 1.93259E+01 7.04824E-01-2.64009E-03-1.87547E-01-2.26874E-14-6.27665E-14
 -1      4136 1.91388E+01 8.27004E-01 7.66647E-03-1.20942E-01-6.70200E-15-2.37050E-13
 -1      4137 1.94227E+01 6.48363E-01-1.42964E-03-1.71364E-01-3.90486E-14-6.62567E-14
 -1      4138 1.94995E+01 5.92770E-01-2.06650E-03-1.48549E-01 2.03278E-14-7.32293E-14
 -1      4139 1.93530E+01 7.06193E-01 6.10794E-03-9.81116E-02 8.86606E-17-1.73354E-13
 -1      4140 1.95752E+01 5.39654E-01-1.10612E-03-1.35249E-01 1.20748E-15-1.09540E-13
 -1      4141 1.96349E+01 4.88531E-01-1.62116E-03-1.16099E-01 1.31532E-14-1.16056E-13
 -1      4142 1.95211E+01 5.90637E-01 4.79135E-03-7.83867E-02 6.36258E-14-2.42615E-13
 -1      4143 1.96935E+01 4.40478E-01-8.48051E-04-1.05283E-01 6.49322E-14-1.80528E-13
 -1      4144 1.97393E+01 3.95071E-01-1.26656E-03-8.93635E-02 3.58096E-14-2.42454E-13
 -1      4145 1.96520E+01 4.84494E-01 3.72246E-03-6.16430E-02 1.88518E-14-2.81635E-13
 -1      4146 1.97840E+01 3.52961E-01-6.41601E-04-8.06835E-02 9.22727E-15-1.60502E-13
 -1      4147 1.98185E+01 3.13772E-01-9.80683E-04-6.76288E-02 1.53032E-14-1.84565E-13
 -1      4148 1.97526E+01 3.90189E-01 2.85993E-03-4.76689E-02 1.03231E-13-3.38988E-13
 -1      4149 1.98522E+01 2.77844E-01-4.77629E-04-6.07661E-02 3.98752E-14-1.68328E-13
 -1      4150 1.98778E+01 2.44842E-01-7.49943E-04-5.02257E-02 1.30118E-13-1.64728E-13
 -1      4151 1.98289E+01 3.08715E-01 2.16800E-03-3.62036E-02 8.43865E-14-1.69019E-13
 -1      4152 1.99026E+01 2.14891E-01-3.49005E-04-4.48881E-02 1.04455E-13-2.02567E-13
 -1      4153 1.99213E+01 1.87696E-01-5.64871E-04-3.65161E-02-1.84325E-15-9.38461E-14
 -1      4154 1.98857E+01 2.40012E-01 1.61777E-03-2.69605E-02 6.66273E-14-3.64171E-13
 -1      4155 1.99392E+01 1.63242E-01-2.49597E-04-3.24372E-02-8.57950E-14-7.07822E-14
 -1      4156 1.99525E+01 1.41272E-01-4.18022E-04-2.58991E-02-3.41813E-14-2.21457E-14
 -1      4157 1.99271E+01 1.83314E-01 1.18526E-03-1.96417E-02-7.26518E-15-3.15367E-13
 -1      4158 1.99652E+01 1.21687E-01-1.74009E-04-2.28409E-02-8.09249E-14-5.40883E-14
 -1      4159 1.99743E+01 1.04268E-01-3.03077E-04-1.78237E-02-1.54962E-13-1.52466E-13
 -1      4160 1.99568E+01 1.37442E-01 8.49912E-04-1.39520E-02-1.13567E-13-2.39591E-13
 -1      4161 1.99830E+01 8.88670E-02-1.17539E-04-1.55779E-02-2.80525E-13-1.10437E-13
 -1      4162 1.99891E+01 7.53050E-02-2.14497E-04-1.17981E-02-2.94855E-13-1.81559E-13
 -1      4163 1.99774E+01 1.01014E-01 5.93941E-04-9.61182E-03-2.59429E-13-2.31697E-13
 -1      4164 1.99948E+01 6.34127E-02-7.61637E-05-1.01871E-02-1.59604E-13-2.19926E-13
 -1      4165 1.99986E+01 5.30447E-02-1.47403E-04-7.39512E-03-1.26491E-13-1.50679E-13
 -1      4166 1.99912E+01 7.26079E-02 4.01940E-04-6.36613E-03-1.62468E-13-2.18061E-13
 -1      4167 2.00022E+01 4.40296E-02-4.65135E-05-6.27077E-03-1.19587E-13-1.20915E-13
 -1      4168 2.00044E+01 3.62521E-02-9.75468E-05-4.25304E-03-7.93884E-14-2.85284E-14
 -1      4169 2.00001E+01 5.08562E-02 2.60726E-04-3.99051E-03-1.22381E-13-3.26052E-13
 -1      4170 2.00065E+01 2.95496E-02-2.58187E-05-3.49432E-03-1.47278E-13-1.83490E-13
 -1      4171 2.00076E+01 2.38325E-02-6.12916E-05-2.07248E-03-1.74177E-13-1.08837E-13
 -1      4172 2.00054E+01 3.45111E-02 1.59194E-04-2.29297E-03-7.84151E-14-2.81796E-13
 -1      4173 2.00086E+01 1.89534E-02-1.18461E-05-1.58259E-03-1.47660E-13-1.47566E-13
 -1      4174 2.00089E+01 1.48441E-02-3.55812E-05-6.10886E-04-6.44491E-14-1.98101E-13
 -1      4175 2.00082E+01 2.24735E-02 8.81592E-05-1.11353E-03-1.50835E-13-2.85445E-13
 -1      4176 2.00092E+01 1.13753E-02-2.83739E-06-3.13960E-04 7.26342E-14-7.03675E-14
 -1      4177 2.00091E+01 8.49609E-03-1.79135E-05 3.24152E-04 1.42364E-13-4.20734E-14
 -1      4178 2.00092E+01 1.38028E-02 4.02256E-05-3.21801E-04 1.41841E-13-6.39699E-15
 -1      4179 2.00089E+01 6.09537E-03 2.53696E-06 4.86157E-04-9.40065E-15 2.43291E-14
 -1      4180 2.00085E+01 4.13779E-03-5.96959E-06 8.81531E-04 9.74473E-14 1.17312E-13
 -1      4181 2.00092E+01 7.71289E-03 9.98817E-06 1.86526E-04 1.63506E-13 2.13271E-13
 -1      4182 2.00080E+01 2.52150E-03 4.30761E-06 9.54244E-04 8.36442E-14-1.11930E-13
 -1      4183 2.00075E+01 1.24490E-03 3.31503E-07 1.16160E-03 1.11641E-13-8.95592E-14
 -1      4184 2.00085E+01 3.56647E-03-3.30535E-06 4.96717E-04-4.72250E-14 1.81049E-13
 -1      4185 2.00071E+01 4.43508E-04 1.11621E-05 1.15309E-03 5.41228E-14-1.81570E-13
 -1      4186 2.00064E+01-4.21506E-04-2.50669E-06 1.24297E-03-1.59248E-14-7.83568E-14
 -1      4187 2.00066E+01-4.05590E-04-1.09093E-05 6.41175E-04 1.24411E-13 1.25316E-13
 -1      4188 2.00075E+01 1.06407E-03-9.83479E-06 6.25489E-04 1.58635E-14 6.48416E-14
 -1      4189 1.91353E+01 7.94420E-01-4.35134E-03 3.80425E-01-4.52912E-15 1.92251E-13
 -1      4190 1.90309E+01 8.44166E-01-5.17508E-04 4.32226E-01 8.49835E-14 1.19494E-13
 -1      4191 1.88761E+01 8.86665E-01-5.23647E-03 4.82260E-01 8.54230E-14 5.47800E-14
 -1      4192 1.87514E+01 9.25761E-01 3.73688E-04 5.49159E-01 7.43403E-14 6.29170E-14
 -1      4193 1.88712E+01 9.24661E-01 7.18456E-03 3.40922E-01-1.43721E-14 9.56656E-14
 -1      4194 1.81691E+01 9.75041E-01-7.22653E-03 7.78710E-01-1.03910E-13-5.29334E-14
 -1      4195 1.79822E+01 9.65151E-01 5.03772E-04 8.97726E-01-4.13315E-14-9.71505E-14
 -1      4196 1.93444E+01 6.91274E-01-3.46694E-03 2.99745E-01 6.44267E-14 1.37634E-13
 -1      4197 1.92592E+01 7.45203E-01-5.97589E-04 3.41687E-01-6.02952E-15 2.10334E-13
 -1      4198 1.91403E+01 8.21891E-01 8.21134E-03 2.69884E-01 3.20801E-14 1.75285E-14
 -1      4199 1.95107E+01 5.86632E-01-2.76512E-03 2.34654E-01-7.11951E-14 1.83206E-13
 -1      4200 1.94428E+01 6.40101E-01-4.90414E-04 2.69085E-01 9.25011E-14 2.06132E-13
 -1      4201 1.93515E+01 7.08525E-01 6.85224E-03 2.12150E-01 8.11311E-14 4.89214E-14
 -1      4202 1.96414E+01 4.86898E-01-2.20869E-03 1.81822E-01-9.74332E-14-5.34466E-14
 -1      4203 1.95882E+01 5.37024E-01-3.65692E-04 2.10141E-01-1.13096E-13 5.65277E-14
 -1      4204 1.95181E+01 5.96754E-01 5.43715E-03 1.65431E-01 8.01811E-15 7.42907E-14
 -1      4205 1.97428E+01 3.96029E-01-1.75820E-03 1.39104E-01 5.83531E-15-2.42260E-13
 -1      4206 1.97019E+01 4.41142E-01-2.54037E-04 1.62260E-01-3.22588E-14-1.25927E-13
 -1      4207 1.96484E+01 4.92317E-01 4.24417E-03 1.27697E-01-1.66018E-15-8.68848E-14
 -1      4208 1.98202E+01 3.16081E-01-1.38852E-03 1.04857E-01-1.38605E-13-2.56097E-13
 -1      4209 1.97893E+01 3.55396E-01-1.61555E-04 1.23600E-01-5.02753E-14-2.72081E-13
 -1      4210 1.97490E+01 3.98439E-01 3.27239E-03 9.73659E-02-1.14896E-14-1.02362E-13
 -1      4211 1.98784E+01 2.47720E-01-1.08441E-03 7.77126E-02 7.37498E-15-2.56772E-13
 -1      4212 1.98555E+01 2.81077E-01-8.96901E-05 9.26927E-02-5.97105E-14-3.03936E-13
 -1      4213 1.98256E+01 3.16628E-01 2.48949E-03 7.31772E-02-9.12096E-14-4.05918E-13
 -1      4214 1.99212E+01 1.90670E-01-8.35595E-04 5.64797E-02 6.23342E-14-2.46173E-13
 -1      4215 1.99047E+01 2.18323E-01-3.71063E-05 6.82840E-02 1.82698E-14-2.70929E-13
 -1      4216 1.98829E+01 2.47168E-01 1.86473E-03 5.40877E-02 4.74261E-14-5.29882E-13
 -1      4217 1.99521E+01 1.44072E-01-6.34062E-04 4.01127E-02 1.32550E-13-2.27159E-13
 -1      4218 1.99404E+01 1.66526E-01-9.74420E-07 4.92741E-02 1.09521E-13-2.37824E-13
 -1      4219 1.99249E+01 1.89524E-01 1.37185E-03 3.92088E-02 9.86664E-14-4.10295E-13
 -1      4220 1.99737E+01 1.06757E-01-4.72921E-04 2.76967E-02-2.78393E-14-1.75732E-13
 -1      4221 1.99658E+01 1.24639E-01 2.20267E-05 3.46923E-02 9.34527E-14-2.95216E-13
 -1      4222 1.99550E+01 1.42661E-01 9.88248E-04 2.77739E-02 1.06436E-13-3.36591E-13
 -1      4223 1.99885E+01 7.74302E-02-3.45945E-04 1.84412E-02-3.83129E-14-1.21569E-13
 -1      4224 1.99832E+01 9.14104E-02 3.51004E-05 2.36907E-02-5.47593E-14-1.35520E-13
 -1      4225 1.99760E+01 1.05287E-01 6.94275E-04 1.91215E-02-5.29330E-14-2.84993E-13
 -1      4226 1.99980E+01 5.48032E-02-2.47460E-04 1.16747E-02 1.62480E-14-1.64945E-13
 -1      4227 1.99948E+01 6.55330E-02 4.10332E-05 1.55394E-02-3.12189E-14-8.43481E-14
 -1      4228 1.99902E+01 7.60261E-02 4.72841E-04 1.26865E-02-1.04011E-13-7.43187E-14
 -1      4229 2.00039E+01 3.76697E-02-1.72353E-04 6.83642E-03-3.02117E-13 3.12371E-14
 -1      4230 2.00021E+01 4.57503E-02 4.20923E-05 9.62134E-03-1.96380E-13-2.51444E-14
 -1      4231 1.99994E+01 5.35331E-02 3.09240E-04 7.99214E-03-2.48250E-13 4.34655E-14
 -1      4232 2.00071E+01 2.49495E-02-1.16106E-04 3.46677E-03 9.06164E-14 2.57375E-13
 -1      4233 2.00063E+01 3.09137E-02 4.00343E-05 5.42402E-03-6.37645E-14 9.64886E-14
 -1      4234 2.00049E+01 3.65650E-02 1.91010E-04 4.64296E-03-1.70688E-13 2.47953E-14
 -1      4235 2.00086E+01 1.57061E-02-7.47998E-05 1.19547E-03 1.16682E-13 2.05367E-13
 -1      4236 2.00084E+01 2.00120E-02 3.61683E-05 2.52959E-03 2.26060E-13 2.49589E-13
 -1      4237 2.00078E+01 2.40175E-02 1.07783E-04 2.31596E-03 8.95436E-14 5.45354E-14
 -1      4238 2.00088E+01 9.14838E-03-4.50842E-05-2.70410E-04 1.27811E-13 2.28999E-13
 -1      4239 2.00090E+01 1.21804E-02 3.14423E-05 6.03329E-04 9.62058E-14 1.85892E-13
 -1      4240 2.00090E+01 1.49391E-02 5.11241E-05 7.51754E-04 1.77547E-13 7.27817E-14
 -1      4241 2.00083E+01 4.62187E-03-2.44350E-05-1.15803E-03 8.51187E-14 1.01761E-14
 -1      4242 2.00088E+01 6.69611E-03 2.64761E-05-6.18057E-04 8.88189E-14 8.39900E-14
 -1      4243 2.00091E+01 8.53006E-03 1.44074E-05-2.54756E-04 1.53532E-13-2.40149E-13
 -1      4244 2.00074E+01 1.60344E-03-4.08219E-06-1.63324E-03 6.57033E-14 1.53863E-13
 -1      4245 2.00079E+01 2.96296E-03 2.06171E-05-1.33445E-03 1.36973E-13 6.09291E-14
 -1      4246 2.00085E+01 4.13088E-03-6.44467E-06-8.63112E-04 5.99077E-14-3.55772E-13
 -1      4247 2.00062E+01-3.52488E-04-3.70962E-06-1.83535E-03-9.26962E-15 8.67165E-14
 -1      4248 2.00068E+01 5.09301E-04 7.33549E-06-1.70880E-03 6.79102E-14 2.51511E-13
 -1      4249 2.00074E+01 1.20079E-03-9.35040E-06-1.17054E-03 8.39090E-14 4.48111E-14
 -1      4250 1.65934E+01 1.06003E+00-1.41776E-02-7.71215E-01 6.40763E-15 3.22379E-14
 -1      4251 1.77384E+01 9.26600E-01-1.42062E-02 1.00107E+00-8.12924E-14-9.25053E-14
 -1      4252 1.75189E+01 8.64851E-01-6.43878E-03 1.16438E+00-8.19692E-14-7.46827E-14
 -1      4253 1.71485E+01 1.02168E+00-3.08392E-03 9.43065E-01-7.87486E-14-1.92764E-13
 -1      4254 1.76880E+01 1.07361E+00 1.33681E-02 7.17800E-01-8.29426E-14-1.98025E-13
 -1      4255 1.85595E+01 9.52308E-01-5.70624E-03 6.09264E-01-5.82903E-14 4.60573E-14
 -1      4256 1.84054E+01 9.71627E-01 2.93838E-06 6.96594E-01-1.27314E-13-5.74161E-14
 -1      4257 1.81310E+01 1.05422E+00 4.17298E-03 5.65078E-01-1.74556E-13-1.71322E-13
 -1      4258 1.85462E+01 1.00295E+00 5.13864E-03 4.37082E-01 4.08273E-15 5.71430E-14
 -1      4259 1.71651E+01 1.10333E+00-3.78491E-03-6.83352E-01 2.04595E-14 9.72274E-14
 -1      4260 1.74691E+01 1.11020E+00-1.04420E-02-5.74840E-01 1.23418E-14 8.56767E-14
 -1      4261 1.75380E+01 1.17631E+00 1.05661E-02-2.84358E-01-3.18799E-15-3.37404E-15
 -1      4262 1.66480E+01 1.20071E+00 1.48304E-02-3.49891E-01 1.42904E-14 1.59221E-13
 -1      4263 1.53625E+01 1.08213E+00-5.08416E-03 4.36468E-01-1.16972E-14 2.07512E-14
 -1      4264 1.59639E+01 1.13713E+00-9.15053E-03 1.69591E-01 4.00054E-14 7.74678E-14
 -1      4265 1.66578E+01 1.13492E+00-9.07440E-03 3.05509E-01-8.30716E-15-2.74693E-15
 -1      4266 1.72082E+01 1.14719E+00-5.84926E-03 2.60376E-01-5.56941E-14-1.83810E-14
 -1      4267 2.00059E+01-8.42462E-04 8.51725E-06-1.53161E-03-2.09324E-14 1.36728E-13
 -1      4268 2.00065E+01-4.53455E-04-2.40726E-06-9.80371E-04 1.08451E-13 1.35841E-13
 -1      4269 2.00067E+01-4.21603E-04-7.12207E-06 1.40741E-04 1.28330E-13 5.83752E-14
 -1      4270 2.00066E+01-4.30937E-04-1.47479E-05-4.66224E-04 8.80843E-14-6.85650E-14
 -1      4271 2.00070E+01 1.97496E-04 1.56781E-05-8.17774E-04 1.02301E-13 6.91333E-14
 -1      4272 2.00072E+01 2.67564E-04 1.91281E-05 1.61910E-04 7.12993E-14 8.07790E-14
 -1      4273 1.75473E+01 1.13762E+00 4.19859E-03 5.01206E-01-5.30623E-14-1.10855E-13
 -1      4274 1.74325E+01 1.17412E+00-4.04942E-03-6.43706E-02-6.26803E-14 1.35479E-14
 -1      4275 1.77607E+01 1.15319E+00-4.30505E-03-4.35259E-02-4.14796E-14-7.43278E-14
 -1      4276 1.77954E+01 1.11399E+00-2.47861E-03 4.20342E-01-6.76780E-14-2.03181E-13
 -1      4277 1.83933E+01 1.05737E+00-4.08140E-03-2.09825E-02-7.41333E-14-2.46859E-13
 -1      4278 1.85844E+01 1.02015E+00-4.15700E-04-1.20620E-02-6.89350E-14-3.11062E-13
 -1      4279 1.88147E+01 9.30049E-01-5.48923E-03 8.04750E-02-5.30766E-14-2.31499E-13
 -1      4280 1.89703E+01 8.73315E-01-4.65523E-03 8.23317E-02 5.54922E-15-2.41306E-13
 -1      4281 1.90922E+01 8.13860E-01-6.23224E-03 5.87007E-02 7.91407E-14-2.25590E-13
 -1      4282 1.92166E+01 7.57852E-01-4.16588E-03 6.29019E-02 4.93596E-14-2.04397E-13
 -1      4283 1.93146E+01 6.98154E-01-5.17206E-03 4.37641E-02 4.16027E-15-1.81862E-13
 -1      4284 1.94131E+01 6.42980E-01-3.31241E-03 4.82533E-02 7.94369E-14-1.58932E-13
 -1      4285 1.94905E+01 5.86160E-01-4.10821E-03 3.26613E-02 4.56431E-14-2.06478E-13
 -1      4286 1.95678E+01 5.34252E-01-2.55779E-03 3.68835E-02 4.28689E-14-1.79196E-13
 -1      4287 1.96281E+01 4.82348E-01-3.22022E-03 2.42280E-02-1.68722E-14-2.90582E-13
 -1      4288 1.96879E+01 4.35378E-01-1.94630E-03 2.80097E-02 4.17765E-14-2.68736E-13
 -1      4289 1.97342E+01 3.89512E-01-2.49899E-03 1.77966E-02 6.01627E-14-3.21651E-13
 -1      4290 1.97799E+01 3.48343E-01-1.46012E-03 2.10768E-02 4.27397E-14-3.57019E-13
 -1      4291 1.98149E+01 3.08919E-01-1.91693E-03 1.29047E-02 5.76769E-14-4.18487E-13
 -1      4292 1.98493E+01 2.73788E-01-1.07748E-03 1.56748E-02 4.70936E-14-3.88226E-13
 -1      4293 1.98753E+01 2.40704E-01-1.45021E-03 9.20635E-03 1.13258E-14-3.95643E-13
 -1      4294 1.99007E+01 2.11415E-01-7.79643E-04 1.14902E-02 2.17193E-14-4.10930E-13
 -1      4295 1.99196E+01 1.84238E-01-1.07951E-03 6.43466E-03 1.17069E-13-3.73885E-13
 -1      4296 1.99380E+01 1.60323E-01-5.50896E-04 8.27616E-03 9.27610E-14-3.32326E-13
 -1      4297 1.99514E+01 1.38434E-01-7.88627E-04 4.38013E-03-1.65596E-14-2.64931E-13
 -1      4298 1.99644E+01 1.19282E-01-3.77955E-04 5.83385E-03-1.16780E-13-2.78472E-13
 -1      4299 1.99737E+01 1.01977E-01-5.63596E-04 2.87746E-03-2.12219E-13-1.83900E-13
 -1      4300 1.99826E+01 8.69191E-02-2.49557E-04 4.00168E-03-1.84685E-13-1.68911E-13
 -1      4301 1.99888E+01 7.34860E-02-3.92273E-04 1.79605E-03-1.45608E-13-5.59987E-14
 -1      4302 1.99946E+01 6.18613E-02-1.56213E-04 2.64768E-03-1.48625E-13-9.91240E-14
 -1      4303 1.99985E+01 5.16237E-02-2.64140E-04 1.03300E-03-1.96955E-13-1.06091E-13
 -1      4304 2.00022E+01 4.28144E-02-9.00221E-05 1.66445E-03-1.68763E-13-2.19639E-13
 -1      4305 2.00045E+01 3.51604E-02-1.70213E-04 5.07653E-04-5.08219E-14-1.95094E-13
 -1      4306 2.00066E+01 2.86137E-02-4.45088E-05 9.65119E-04-5.17450E-14-2.67587E-13
 -1      4307 2.00077E+01 2.30083E-02-1.02948E-04 1.57273E-04 2.95275E-14-1.55812E-13
 -1      4308 2.00087E+01 1.82453E-02-1.44699E-05 4.80132E-04 9.30739E-14-4.14884E-14
 -1      4309 2.00091E+01 1.42331E-02-5.61705E-05-6.65402E-05 8.96735E-14-8.22226E-14
 -1      4310 2.00094E+01 1.08490E-02 4.11005E-06 1.54471E-04 2.42950E-13 1.83003E-14
 -1      4311 2.00092E+01 8.05089E-03-2.52318E-05-2.01034E-04 2.63448E-13-7.75632E-14
 -1      4312 2.00090E+01 5.71079E-03 1.35653E-05-5.48742E-05 1.22948E-13-7.65148E-14
 -1      4313 2.00086E+01 3.81171E-03-9.48250E-06-2.77885E-04-3.97903E-14-1.70401E-14
 -1      4314 2.00081E+01 2.25407E-03 1.39341E-05-2.02235E-04-1.12178E-13 1.49019E-14
 -1      4315 2.00076E+01 1.25607E-03-7.93850E-06-7.32525E-04-3.05204E-14-3.18506E-14
 -1      4316 1.57279E+01 9.36537E-01-9.59937E-03 9.95485E-01-1.62251E-16-1.57586E-14
 -1      4317 1.79758E+01 1.12912E+00-3.50168E-03-3.60680E-02-9.17010E-14-1.21688E-13
 -1      4318 1.82189E+01 1.09483E+00-3.89114E-03-2.27150E-02-1.19184E-13-2.11070E-13
 -1      4319 1.83432E+01 1.07912E+00 3.73037E-03 1.66105E-01-1.40789E-13-2.76661E-13
 -1      4320 1.79615E+01 1.14552E+00 6.01338E-03 1.87683E-01-1.79343E-13-1.78984E-13
 -1      4321 1.86624E+01 9.84402E-01-3.47863E-03 1.04259E-01-5.39088E-14-1.80534E-13
 -1      4322 1.84416E+01 1.03621E+00-7.00851E-04 2.81679E-01-2.35918E-14-1.30885E-13
 -1      4323 1.82519E+01 1.06941E+00-5.73958E-04 3.30641E-01-2.00432E-13-1.47226E-13
 -1      4324 2.00076E+01 1.03408E-03-6.91556E-06 1.67946E-04 1.06032E-14 3.53504E-14
 -1      4325 1.68203E+01 1.09720E+00 2.38660E-02 8.12884E-01-2.31501E-14-5.37014E-14
 -1      4326 1.80346E+01 1.10148E+00-2.00151E-03 3.54055E-01-1.83991E-13-1.35759E-13
 -1      4327 1.65310E+01 1.01586E+00 1.02059E-02 9.36481E-01-1.62205E-14-1.04107E-13
 -1      4328 1.85967E+01 9.93590E-01-3.93744E-03 2.65213E-01-7.28715E-14-9.13596E-14
 -3
    1PSTEP                         3           1           1          
  100CL  101 1.000000000        4328                     0    1           1
 -4  TOSTRAIN    6    1
 -5  EXX         1    4    1    1
 -5  EYY         1    4    2    2
 -5  EZZ         1    4    3    3
 -5  EXY         1    4    1    2
 -5  EYZ         1    4    2    3
 -5  EZX         1    4    3    1
 -1         1 2.00246E-04-3.11190E-05-6.39094E-05-1.10093E-04-8.28038E-18 1.97316E-17
 -1         2 3.57764E-05-1.09730E-04 1.98492E-05-7.06071E-07 3.53387E-18 3.12052E-19
 -1         3 9.52374E-05-2.85708E-05-2.85718E-05 2.97892E-10-2.57239E-18-2.65537E-18
 -1         4 9.52374E-05-2.85708E-05-2.85718E-05-2.71669E-10 1.27846E-18 6.11294E-20
 -1         5 1.51692E-04-2.21583E-05-4.60629E-05 3.88184E-05-3.69518E-19 2.79855E-17
 -1         6 1.52758E-04 2.86741E-10-4.77629E-05-5.36080E-05-1.66633E-18 2.70034E-17
 -1         7 1.00643E-04-9.93097E-07-4.26818E-05-2.59579E-05-2.38546E-19 5.07664E-18
 -1         8 9.27190E-05-7.79850E-08-3.93007E-05-1.43156E-05-3.02391E-19-1.68144E-18
 -1         9 8.72188E-05 1.41227E-08-3.71146E-05-8.28988E-06-2.75815E-19-5.37476E-18
 -1        10 8.25461E-05 4.07187E-08-3.52148E-05-4.30142E-06-1.95718E-19-7.26313E-18
 -1        11 7.84021E-05 7.26763E-08-3.35458E-05-1.72055E-06-1.32984E-19-8.20764E-18
 -1        12 7.49780E-05 1.03766E-07-3.21814E-05-3.29337E-07-8.74032E-20-8.69119E-18
 -1        13 7.24434E-05 1.32339E-07-3.11806E-05 1.35263E-07-2.69065E-20-8.96825E-18
 -1        14 7.11480E-05 1.47644E-07-3.06708E-05-2.40768E-08 2.07457E-20-9.01777E-18
 -1        15 7.12516E-05 1.44961E-07-3.07079E-05-3.64757E-07 6.40172E-20-8.90663E-18
 -1        16 7.27233E-05 1.25094E-07-3.12810E-05-4.10588E-07 9.73161E-20-8.65530E-18
 -1        17 7.53551E-05 9.22032E-08-3.23160E-05 2.50947E-07 1.32481E-19-8.15143E-18
 -1        18 7.87687E-05 6.14075E-08-3.36765E-05 1.85916E-06 1.76421E-19-7.39170E-18
 -1        19 8.28142E-05 3.40923E-08-3.53106E-05 4.65263E-06 2.56122E-19-6.13938E-18
 -1        20 8.73214E-05 1.82439E-08-3.71554E-05 8.80238E-06 3.55330E-19-3.92910E-18
 -1        21 9.25946E-05 2.18271E-09-3.93042E-05 1.48411E-05 3.78041E-19 3.01306E-19
 -1        22 1.00957E-04-4.87710E-07-4.22701E-05 2.49123E-05 4.23516E-20 8.79727E-18
 -1        23 1.26540E-04-4.27349E-05-3.95189E-05-3.30282E-06-1.12264E-18 2.12054E-17
 -1        24 1.10733E-04-3.30924E-05-3.43158E-05 6.40934E-07-3.15129E-19 1.60072E-17
 -1        25 1.10772E-04-3.33440E-05-3.33625E-05 5.15676E-07-1.41860E-19 1.08447E-17
 -1        26 1.12557E-04-3.38307E-05-3.36866E-05 3.17091E-07-6.75891E-20 7.30350E-18
 -1        27 1.14329E-04-3.43250E-05-3.41556E-05 1.99242E-07-5.47829E-20 5.04610E-18
 -1        28 1.14720E-04-3.44199E-05-3.42115E-05 3.51198E-08-5.82319E-20 3.55107E-18
 -1        29 1.12543E-04-3.37638E-05-3.35128E-05-2.06398E-07-1.04468E-19 1.90405E-18
 -1        30 1.07132E-04-3.21492E-05-3.19222E-05-4.93032E-07 2.19335E-20 9.16225E-19
 -1        31 9.90286E-05-2.97254E-05-2.96523E-05-7.00946E-07 7.67301E-20 5.20131E-20
 -1        32 9.04468E-05-2.71477E-05-2.73353E-05-6.59023E-07-3.72759E-19-1.94296E-18
 -1        33 8.47271E-05-2.54229E-05-2.58342E-05-2.94047E-07 9.25417E-20-3.92229E-18
 -1        34 8.45698E-05-2.53738E-05-2.58074E-05 2.42124E-07 6.10327E-20-5.14979E-18
 -1        35 9.02152E-05-2.70738E-05-2.73116E-05 6.55282E-07 2.24270E-19-5.35915E-18
 -1        36 9.92616E-05-2.97899E-05-2.97638E-05 7.56275E-07 2.30403E-20-4.39083E-18
 -1        37 1.08303E-04-3.24927E-05-3.22941E-05 5.86023E-07-1.14083E-19-4.19212E-18
 -1        38 1.14820E-04-3.44320E-05-3.41995E-05 3.12739E-07-4.70679E-19-4.36156E-18
 -1        39 1.17942E-04-3.53576E-05-3.51813E-05 7.68238E-08-8.85083E-20-6.20518E-18
 -1        40 1.18089E-04-3.53996E-05-3.53028E-05-6.80521E-08 3.16607E-19-5.39409E-18
 -1        41 1.16230E-04-3.48474E-05-3.48138E-05-1.30290E-07 4.67721E-20-5.21317E-18
 -1        42 1.13332E-04-3.39870E-05-3.39905E-05-1.39510E-07-1.34971E-19-5.70795E-18
 -1        43 1.10119E-04-3.30317E-05-3.30511E-05-1.22644E-07-1.35675E-19-4.95552E-18
 -1        44 1.07036E-04-3.21136E-05-3.21362E-05-9.70350E-08-3.02565E-19-4.68578E-18
 -1        45 1.04312E-04-3.13005E-05-3.13204E-05-7.16427E-08-5.72596E-19-5.80854E-18
 -1        46 1.02029E-04-3.06178E-05-3.06331E-05-5.01185E-08 4.63806E-19-5.67306E-18
 -1        47 1.00188E-04-3.00660E-05-3.00769E-05-3.33285E-08-3.39872E-20-2.86912E-18
 -1        48 9.87467E-05-2.96332E-05-2.96404E-05-2.09087E-08 2.56704E-19-2.02292E-18
 -1        49 9.76467E-05-2.93023E-05-2.93067E-05-1.20822E-08 1.56747E-20-1.85897E-18
 -1        50 9.68266E-05-2.90551E-05-2.90575E-05-6.03182E-09 2.49742E-19-3.69239E-18
 -1        51 9.62296E-05-2.88748E-05-2.88759E-05-2.04360E-09-7.94549E-20-3.64252E-18
 -1        52 9.58058E-05-2.87465E-05-2.87468E-05 4.57286E-10-1.18538E-20-2.59488E-18
 -1        53 9.55140E-05-2.86580E-05-2.86577E-05 1.91321E-09-1.59475E-19-4.13276E-18
 -1        54 9.53204E-05-2.85990E-05-2.85985E-05 2.65502E-09-3.97546E-19-5.92132E-18
 -1        55 9.51985E-05-2.85618E-05-2.85611E-05 2.92490E-09 3.91076E-19-7.64809E-18
 -1        56 9.51277E-05-2.85399E-05-2.85393E-05 2.89683E-09 6.01299E-20-7.06903E-18
 -1        57 9.50921E-05-2.85288E-05-2.85282E-05 2.69328E-09-2.34921E-21-6.67106E-18
 -1        58 9.50802E-05-2.85249E-05-2.85243E-05 2.39851E-09-5.12303E-19-7.66699E-18
 -1        59 9.50833E-05-2.85256E-05-2.85251E-05 2.06878E-09 5.10779E-19-6.52994E-18
 -1        60 9.50954E-05-2.85290E-05-2.85286E-05 1.74018E-09-3.62226E-19-3.93831E-18
 -1        61 9.51123E-05-2.85339E-05-2.85336E-05 1.43448E-09 6.82040E-19-2.50477E-18
 -1        62 9.51310E-05-2.85395E-05-2.85392E-05 1.16359E-09-6.73789E-19-3.04997E-18
 -1        63 9.51499E-05-2.85450E-05-2.85448E-05 9.32703E-10-3.84532E-19-5.94654E-18
 -1        64 9.51677E-05-2.85504E-05-2.85502E-05 7.42612E-10-4.51225E-19-9.44405E-18
 -1        65 9.51840E-05-2.85552E-05-2.85551E-05 5.91143E-10 3.14802E-19-6.86177E-18
 -1        66 9.51985E-05-2.85595E-05-2.85594E-05 4.73759E-10 1.97515E-19-3.14837E-18
 -1        67 9.52110E-05-2.85633E-05-2.85632E-05 3.83113E-10-1.69493E-19-1.69001E-18
 -1        68 9.52214E-05-2.85664E-05-2.85663E-05 3.06563E-10 5.69634E-19 7.83453E-19
 -1        69 9.52296E-05-2.85688E-05-2.85687E-05 2.18814E-10-6.90561E-19 9.46861E-19
 -1        70 9.52352E-05-2.85705E-05-2.85704E-05 4.83060E-11 7.63584E-19 4.12586E-18
 -1        71 9.52375E-05-2.85713E-05-2.85712E-05-1.99343E-10-6.89330E-19 2.74506E-18
 -1        72 1.15043E-04-3.44478E-05-3.82113E-05-2.55956E-06 4.04723E-19 2.53213E-17
 -1        73 1.09963E-04-3.27425E-05-3.40663E-05-5.24697E-07 2.63781E-19 1.90307E-17
 -1        74 1.09889E-04-3.29358E-05-3.31381E-05-2.69984E-07 1.52479E-19 1.42839E-17
 -1        75 1.11342E-04-3.34164E-05-3.33450E-05-2.41311E-07 7.72173E-20 1.08491E-17
 -1        76 1.12690E-04-3.38204E-05-3.36674E-05-2.13446E-07 9.60758E-20 8.58246E-18
 -1        77 1.12658E-04-3.38197E-05-3.35912E-05-1.36110E-07 1.75097E-19 6.94535E-18
 -1        78 1.10201E-04-3.31068E-05-3.28122E-05 2.89818E-08 1.92667E-20 6.24107E-18
 -1        79 1.04822E-04-3.15169E-05-3.12368E-05 2.78937E-07 5.20297E-22 5.91960E-18
 -1        80 9.71540E-05-2.92134E-05-2.90963E-05 5.29491E-07-2.66411E-19 5.36148E-18
 -1        81 8.92855E-05-2.68057E-05-2.69839E-05 6.27829E-07 1.47885E-19 4.31627E-18
 -1        82 8.41992E-05-2.52097E-05-2.56636E-05 4.53613E-07 2.66671E-19 2.47941E-18
 -1        83 8.42260E-05-2.51742E-05-2.56970E-05 5.65172E-08 1.12377E-19 6.80201E-19
 -1        84 8.95172E-05-2.67727E-05-2.71138E-05-3.51512E-07 7.64728E-21-8.44915E-20
 -1        85 9.79332E-05-2.93458E-05-2.93897E-05-5.68576E-07-4.75196E-20-1.98656E-19
 -1        86 1.06439E-04-3.19433E-05-3.17545E-05-5.49430E-07-1.18389E-19-1.06557E-18
 -1        87 1.12738E-04-3.38549E-05-3.35779E-05-3.86327E-07-2.01887E-19-4.53679E-19
 -1        88 1.15965E-04-3.48230E-05-3.45752E-05-1.94959E-07 4.67655E-20-9.65141E-19
 -1        89 1.16419E-04-3.49485E-05-3.47822E-05-4.52519E-08 3.15303E-19-3.17331E-18
 -1        90 1.14936E-04-3.44923E-05-3.44076E-05 4.47641E-08-2.63072E-20-5.34171E-18
 -1        91 1.12393E-04-3.37220E-05-3.36963E-05 8.57362E-08 8.66081E-20-4.55049E-18
 -1        92 1.09471E-04-3.28416E-05-3.28501E-05 9.53137E-08-3.43828E-19-1.86462E-18
 -1        93 1.06606E-04-3.19811E-05-3.20054E-05 8.82862E-08-2.04803E-19-5.19483E-19
 -1        94 1.04035E-04-3.12098E-05-3.12387E-05 7.43662E-08 1.67041E-19-2.88878E-18
 -1        95 1.01856E-04-3.05565E-05-3.05840E-05 5.90059E-08-2.66752E-19-2.76091E-18
 -1        96 1.00082E-04-3.00248E-05-3.00485E-05 4.48437E-08 1.71341E-20-1.84881E-18
 -1        97 9.86829E-05-2.96055E-05-2.96247E-05 3.28964E-08-1.60438E-19-1.70986E-18
 -1        98 9.76091E-05-2.92835E-05-2.92986E-05 2.33452E-08-5.63308E-19-7.24029E-19
 -1        99 9.68049E-05-2.90424E-05-2.90537E-05 1.59908E-08 1.02198E-19-1.27030E-18
 -1       100 9.62173E-05-2.88661E-05-2.88744E-05 1.04953E-08-1.73574E-20-3.40754E-18
 -1       101 9.57991E-05-2.87406E-05-2.87466E-05 6.49911E-09-2.48135E-19-2.96884E-18
 -1       102 9.55106E-05-2.86539E-05-2.86581E-05 3.67281E-09 1.91008E-19-2.12485E-18
 -1       103 9.53189E-05-2.85963E-05-2.85991E-05 1.73590E-09-2.04141E-20-2.33616E-18
 -1       104 9.51981E-05-2.85599E-05-2.85617E-05 4.59611E-10-1.28546E-19-1.76139E-18
 -1       105 9.51278E-05-2.85388E-05-2.85398E-05-3.37156E-10 3.38887E-19-1.83155E-18
 -1       106 9.50925E-05-2.85281E-05-2.85287E-05-7.94478E-10-7.64622E-19-1.71478E-18
 -1       107 9.50808E-05-2.85245E-05-2.85247E-05-1.01855E-09-6.00302E-20-2.07374E-18
 -1       108 9.50840E-05-2.85254E-05-2.85254E-05-1.08834E-09 6.81820E-19-5.67737E-18
 -1       109 9.50961E-05-2.85290E-05-2.85289E-05-1.06145E-09-1.16322E-20-5.27953E-18
 -1       110 9.51129E-05-2.85340E-05-2.85338E-05-9.78994E-10-1.98442E-19-4.14380E-18
 -1       111 9.51316E-05-2.85396E-05-2.85393E-05-8.69674E-10 3.57670E-19-3.64560E-18
 -1       112 9.51504E-05-2.85452E-05-2.85450E-05-7.52987E-10-5.90211E-19-2.23329E-18
 -1       113 9.51682E-05-2.85505E-05-2.85503E-05-6.41774E-10 1.43171E-19-1.16547E-18
 -1       114 9.51844E-05-2.85553E-05-2.85552E-05-5.44119E-10-1.64319E-19 2.52979E-18
 -1       115 9.51988E-05-2.85597E-05-2.85595E-05-4.64575E-10 3.20597E-19 5.56347E-19
 -1       116 9.52113E-05-2.85634E-05-2.85632E-05-4.04181E-10 2.02634E-20-2.01558E-18
 -1       117 9.52217E-05-2.85665E-05-2.85664E-05-3.58936E-10 5.36227E-19-4.69813E-18
 -1       118 9.52298E-05-2.85689E-05-2.85688E-05-3.14076E-10 6.95001E-20-6.00448E-18
 -1       119 9.52353E-05-2.85706E-05-2.85704E-05-2.04977E-10 2.27744E-19-6.91719E-18
 -1       120 9.52375E-05-2.85714E-05-2.85712E-05 1.08005E-10 1.05109E-18-4.85207E-18
 -1       121 9.52371E-05-2.85709E-05-2.85712E-05 2.06948E-10-2.54236E-18 1.78557E-18
 -1       122 9.52378E-05-2.85732E-05-2.85703E-05-1.16497E-10 2.39493E-18-1.73754E-18
 -1       123 9.52393E-05-2.85784E-05-2.85688E-05-2.85529E-10 2.48700E-18 8.69814E-19
 -1       124 9.52413E-05-2.85851E-05-2.85669E-05-3.34713E-10 1.33473E-18 6.92762E-19
 -1       125 9.52434E-05-2.85921E-05-2.85649E-05-3.10572E-10 6.29783E-18-1.07356E-19
 -1       126 9.52452E-05-2.85981E-05-2.85631E-05-2.48721E-10 4.31577E-18-8.40632E-21
 -1       127 9.52466E-05-2.86027E-05-2.85618E-05-1.58158E-10 2.52682E-18 1.10194E-18
 -1       128 9.52473E-05-2.86051E-05-2.85611E-05-5.35652E-11-1.03488E-18-6.48912E-19
 -1       129 9.52473E-05-2.86051E-05-2.85611E-05 5.53714E-11-2.77964E-18 7.80665E-19
 -1       130 9.52465E-05-2.86026E-05-2.85618E-05 1.59560E-10 7.45026E-19-5.85087E-20
 -1       131 9.52452E-05-2.85980E-05-2.85632E-05 2.52309E-10-3.65920E-18-2.21567E-18
 -1       132 9.52434E-05-2.85920E-05-2.85649E-05 3.11808E-10-6.42392E-18 2.67189E-18
 -1       133 9.52413E-05-2.85850E-05-2.85670E-05 3.33701E-10-5.84585E-18 5.28219E-19
 -1       134 9.52393E-05-2.85783E-05-2.85689E-05 3.08194E-10-6.88912E-18 5.13411E-19
 -1       135 9.52378E-05-2.85732E-05-2.85704E-05 1.62346E-10-3.73234E-18 7.07763E-19
 -1       136 9.52372E-05-2.85710E-05-2.85712E-05-3.93683E-10-2.67465E-18 3.17483E-19
 -1       137 2.55505E-05-8.61370E-05 1.51501E-05-2.30820E-05 1.79673E-17 4.39052E-18
 -1       138 8.09197E-06-3.56106E-05 3.74137E-06-1.87168E-05 2.63118E-17 1.26646E-17
 -1       139 1.27340E-05 1.33133E-05-1.48718E-05 2.37822E-05 2.70297E-17 1.96753E-17
 -1       140 5.47762E-05 2.77996E-05-3.43599E-05 7.60831E-05 2.11962E-17 2.34535E-17
 -1       141 1.41607E-04-8.86606E-07-5.42711E-05 1.12313E-04 1.33056E-17 2.32159E-17
 -1       142 2.41876E-04-5.43261E-05-7.01454E-05 9.80276E-05 5.23075E-18 1.36876E-17
 -1       143 3.03840E-04-9.17660E-05-7.83743E-05 3.21110E-05 4.71056E-19-1.49692E-18
 -1       144 2.95150E-04-8.64581E-05-7.72323E-05-5.09208E-05 2.93584E-18-1.82362E-17
 -1       145 2.23891E-04-4.35173E-05-6.77406E-05-1.05870E-04 1.14883E-17-3.09463E-17
 -1       146 1.18450E-04 8.86672E-06-4.97197E-05-1.06327E-04 2.27570E-17-3.49227E-17
 -1       147 3.84178E-05 2.78024E-05-2.88116E-05-6.10456E-05 3.02662E-17-3.01887E-17
 -1       148 6.54272E-06 4.46727E-06-9.82454E-06-9.07592E-06 3.19204E-17-2.10414E-17
 -1       149 1.16632E-05-4.67710E-05 6.15660E-06 2.11506E-05 2.45800E-17-1.01441E-17
 -1       150 2.93656E-05-9.52457E-05 1.69555E-05 1.92077E-05 1.00829E-17-2.07325E-18
 -1       151 3.54868E-05-1.07374E-04 1.90309E-05-6.35713E-06-6.53899E-18-7.25656E-19
 -1       152 2.19573E-05-7.80079E-05 1.34520E-05-2.52701E-05-2.10189E-17-5.80106E-18
 -1       153 5.95146E-06-2.20166E-05-5.27760E-07-1.16490E-05-3.00820E-17-1.53650E-17
 -1       154 1.75947E-05 2.21144E-05-1.97675E-05 3.57881E-05-3.12373E-17-2.59603E-17
 -1       155 7.64139E-05 2.38465E-05-4.05063E-05 9.03471E-05-2.61695E-17-3.29648E-17
 -1       156 1.74582E-04-1.70273E-05-5.99065E-05 1.13583E-04-1.60968E-17-3.25485E-17
 -1       157 2.66462E-04-6.84749E-05-7.36056E-05 8.43975E-05-6.45026E-18-2.34503E-17
 -1       158 3.10769E-04-9.62261E-05-7.92007E-05 1.49262E-05-7.15981E-19-9.28745E-18
 -1       159 2.88410E-04-8.18017E-05-7.65739E-05-6.29380E-05-2.06967E-18 6.78219E-18
 -1       160 1.08020E-04 1.29882E-05-4.75710E-05-1.03460E-04-1.62126E-17 2.39092E-17
 -1       161 3.82808E-05 2.78234E-05-2.87408E-05-6.10482E-05-2.30355E-17 2.22939E-17
 -1       162 7.96968E-06 5.25262E-06-1.05066E-05-1.15619E-05-2.67252E-17 1.81060E-17
 -1       163 1.03945E-05-4.51156E-05 6.16737E-06 2.25152E-05-2.15210E-17 1.00802E-17
 -1       164 2.78591E-05-9.16562E-05 1.63067E-05 2.20193E-05-9.85544E-18 1.96464E-18
 -1       165 1.06027E-04-1.55915E-05-3.89365E-05-1.71757E-05-3.88182E-18 1.52238E-18
 -1       166 9.66828E-05-1.03610E-05-3.71482E-05-1.10667E-05-3.53661E-18-2.69657E-18
 -1       167 8.95883E-05-7.11345E-06-3.54577E-05-6.60277E-06-2.84083E-18-5.14685E-18
 -1       168 8.36175E-05-4.79038E-06-3.38642E-05-3.39868E-06-2.08781E-18-6.46640E-18
 -1       169 7.85171E-05-2.88278E-06-3.24750E-05-1.35936E-06-1.36497E-18-7.11643E-18
 -1       170 7.43788E-05-1.32742E-06-3.13555E-05-3.03707E-07-7.24915E-19-7.50197E-18
 -1       171 7.17220E-05-3.15471E-07-3.06437E-05-4.81318E-08-1.73134E-19-7.67109E-18
 -1       172 7.09098E-05-2.03296E-08-3.04201E-05-2.10622E-07 3.06391E-19-7.65423E-18
 -1       173 7.20499E-05-4.95014E-07-3.07080E-05-3.11400E-07 8.13691E-19-7.48548E-18
 -1       174 7.49391E-05-1.63542E-06-3.14648E-05 1.09307E-07 1.33404E-18-7.14631E-18
 -1       175 7.90756E-05-3.21256E-06-3.25745E-05 1.35285E-06 1.97966E-18-6.49331E-18
 -1       176 8.41782E-05-5.12484E-06-3.39623E-05 3.63510E-06 2.70043E-18-5.48154E-18
 -1       177 8.99850E-05-7.39960E-06-3.55098E-05 7.02971E-06 3.39216E-18-3.92985E-18
 -1       178 9.68522E-05-1.05636E-05-3.71405E-05 1.16137E-05 3.91861E-18-1.16165E-18
 -1       179 1.06652E-04-1.67535E-05-3.87178E-05 1.71533E-05 3.78248E-18 3.92573E-18
 -1       180 1.18430E-04-3.03168E-05-3.89659E-05 1.52320E-05 2.91120E-18 1.08123E-17
 -1       181 1.17273E-04-3.17306E-05-3.66583E-05-8.23781E-06-3.37696E-18 6.62737E-18
 -1       182 1.13118E-04-3.32961E-05-3.42428E-05-1.18323E-06-2.96513E-18 5.03767E-18
 -1       183 1.11714E-04-3.33188E-05-3.35576E-05 1.10524E-06-2.12486E-18 3.69717E-18
 -1       184 1.11985E-04-3.37810E-05-3.34952E-05 1.40606E-06-1.43207E-18 2.56659E-18
 -1       185 1.12425E-04-3.42538E-05-3.35003E-05 3.17653E-07-9.36562E-19 1.88621E-18
 -1       186 1.12106E-04-3.44455E-05-3.32874E-05-1.93836E-06-8.81100E-19 1.60779E-18
 -1       187 1.10318E-04-3.39836E-05-3.27157E-05-4.86208E-06-4.83609E-19 1.29040E-18
 -1       188 1.06815E-04-3.25864E-05-3.18064E-05-7.34505E-06-6.55036E-19 8.08473E-19
 -1       189 1.02193E-04-3.03845E-05-3.07668E-05-7.83348E-06-1.33079E-18 3.17399E-19
 -1       190 9.80333E-05-2.81818E-05-2.99324E-05-5.24461E-06-1.43645E-18-3.46248E-19
 -1       191 9.62775E-05-2.71716E-05-2.96173E-05-1.32936E-07-1.27589E-18-2.18423E-18
 -1       192 9.79284E-05-2.80222E-05-2.99580E-05 5.20030E-06-6.66271E-19-3.62583E-18
 -1       193 1.02229E-04-3.02383E-05-3.08470E-05 8.27735E-06 1.27659E-19-4.67196E-18
 -1       194 1.07264E-04-3.26316E-05-3.19808E-05 8.19411E-06 1.16098E-19-4.92996E-18
 -1       195 1.11273E-04-3.42779E-05-3.30013E-05 5.81315E-06-1.75660E-19-4.72826E-18
 -1       196 1.13412E-04-3.49232E-05-3.36500E-05 2.66225E-06-2.97213E-19-3.86208E-18
 -1       197 1.13697E-04-3.47747E-05-3.38393E-05-9.22150E-08 3.49547E-19-3.35393E-18
 -1       198 1.12588E-04-3.41606E-05-3.36257E-05-1.95620E-06 1.30663E-19-3.83934E-18
 -1       199 1.10642E-04-3.33480E-05-3.31357E-05-2.92956E-06-3.73191E-19-3.91867E-18
 -1       200 1.08332E-04-3.25044E-05-3.25023E-05-3.23044E-06-2.92756E-20-4.53887E-18
 -1       201 1.05989E-04-3.17187E-05-3.18311E-05-3.10871E-06 1.67999E-19-5.06009E-18
 -1       202 1.03815E-04-3.10306E-05-3.11916E-05-2.76521E-06-7.78873E-20-4.41963E-18
 -1       203 1.01911E-04-3.04517E-05-3.06219E-05-2.33543E-06 7.39265E-19-2.38769E-18
 -1       204 1.00310E-04-2.99790E-05-3.01377E-05-1.89997E-06 1.11876E-18-1.91784E-18
 -1       205 9.90054E-05-2.96023E-05-2.97403E-05-1.50105E-06 3.63928E-19-1.04055E-18
 -1       206 9.79707E-05-2.93084E-05-2.94231E-05-1.15676E-06 7.48822E-20-1.01499E-18
 -1       207 9.71682E-05-2.90836E-05-2.91760E-05-8.71328E-07-1.08034E-18-1.07475E-18
 -1       208 9.65591E-05-2.89152E-05-2.89877E-05-6.41686E-07 2.49761E-19-1.63194E-18
 -1       209 9.61065E-05-2.87915E-05-2.88472E-05-4.61377E-07 3.78676E-19-1.46975E-18
 -1       210 9.57776E-05-2.87028E-05-2.87447E-05-3.22817E-07-1.11112E-18-2.12783E-18
 -1       211 9.55447E-05-2.86409E-05-2.86718E-05-2.18496E-07-7.71099E-19-2.33887E-18
 -1       212 9.53846E-05-2.85991E-05-2.86214E-05-1.41567E-07-1.34681E-18-1.98610E-18
 -1       213 9.52787E-05-2.85722E-05-2.85878E-05-8.60940E-08-2.60944E-19-4.82144E-18
 -1       214 9.52123E-05-2.85559E-05-2.85665E-05-4.71027E-08 8.23537E-19-4.64173E-18
 -1       215 9.51740E-05-2.85471E-05-2.85540E-05-2.05289E-08-3.65306E-20-4.98303E-18
 -1       216 9.51552E-05-2.85434E-05-2.85477E-05-3.12442E-09 4.74476E-19-3.85046E-18
 -1       217 9.51493E-05-2.85430E-05-2.85454E-05 7.65743E-09 5.82394E-19-4.19627E-18
 -1       218 9.51518E-05-2.85447E-05-2.85458E-05 1.37767E-08 4.10052E-19-3.33639E-18
 -1       219 9.51591E-05-2.85475E-05-2.85478E-05 1.67132E-08-6.46796E-19-4.17161E-18
 -1       220 9.51691E-05-2.85508E-05-2.85506E-05 1.75601E-08-1.03309E-18-3.78402E-18
 -1       221 9.51800E-05-2.85544E-05-2.85539E-05 1.71039E-08-7.78439E-19-3.52751E-18
 -1       222 9.51910E-05-2.85578E-05-2.85571E-05 1.58888E-08 1.99526E-18-2.11619E-18
 -1       223 9.52014E-05-2.85609E-05-2.85602E-05 1.42669E-08 1.98192E-18 5.63789E-20
 -1       224 9.52109E-05-2.85638E-05-2.85630E-05 1.24346E-08 1.69963E-18 2.52586E-19
 -1       225 9.52191E-05-2.85663E-05-2.85655E-05 1.04576E-08 1.43236E-18 1.97941E-18
 -1       226 9.52259E-05-2.85684E-05-2.85675E-05 8.28593E-09 1.58818E-19 8.34632E-19
 -1       227 9.52312E-05-2.85701E-05-2.85691E-05 5.78574E-09 1.39478E-18 6.74226E-19
 -1       228 9.52351E-05-2.85715E-05-2.85701E-05 2.88208E-09-4.79048E-19 2.32064E-19
 -1       229 1.14186E-04-3.31310E-05-3.49033E-05 4.06971E-06 3.02996E-18 9.34004E-18
 -1       230 1.11339E-04-3.30108E-05-3.35353E-05 1.52080E-07 2.34056E-18 7.15513E-18
 -1       231 1.10936E-04-3.32507E-05-3.32512E-05-9.48892E-07 1.71791E-18 5.38259E-18
 -1       232 1.11209E-04-3.35838E-05-3.32429E-05-6.84188E-07 9.83481E-19 4.10389E-18
 -1       233 1.11078E-04-3.37669E-05-3.31155E-05 6.23107E-07 8.25018E-19 3.73902E-18
 -1       234 1.09733E-04-3.35085E-05-3.26485E-05 2.71427E-06 1.81847E-19 3.62150E-18
 -1       235 1.06733E-04-3.25524E-05-3.17718E-05 4.98795E-06 3.20896E-19 3.17763E-18
 -1       236 1.02300E-04-3.08615E-05-3.06069E-05 6.39266E-06 3.59231E-19 2.71461E-18
 -1       237 9.75564E-05-2.88330E-05-2.94658E-05 5.79875E-06 1.05685E-18 1.46519E-18
 -1       238 9.42815E-05-2.72993E-05-2.87395E-05 2.81377E-06 9.39915E-19 8.14755E-19
 -1       239 9.40204E-05-2.70934E-05-2.87150E-05-1.55103E-06 1.19824E-18-2.71778E-19
 -1       240 9.70064E-05-2.83727E-05-2.94254E-05-5.33255E-06 5.45850E-19-1.35703E-18
 -1       241 1.01985E-04-3.04930E-05-3.06272E-05-6.97239E-06 4.24896E-19-2.40631E-18
 -1       242 1.07064E-04-3.25189E-05-3.19268E-05-6.26586E-06-1.06850E-19-2.28257E-18
 -1       243 1.10801E-04-3.38474E-05-3.29641E-05-4.11526E-06 1.23584E-19-2.02513E-18
 -1       244 1.12630E-04-3.43539E-05-3.35414E-05-1.64826E-06 4.58473E-19-2.08074E-18
 -1       245 1.12696E-04-3.42111E-05-3.36399E-05 3.79524E-07 1.07139E-18-1.94987E-18
 -1       246 1.11491E-04-3.36729E-05-3.33578E-05 1.69723E-06 7.12204E-19-2.03882E-18
 -1       247 1.09550E-04-3.29518E-05-3.28350E-05 2.35490E-06-5.82837E-19-1.85392E-18
 -1       248 1.07313E-04-3.21903E-05-3.22004E-05 2.52902E-06-1.27177E-18-1.53868E-18
 -1       249 1.05080E-04-3.14709E-05-3.15495E-05 2.40395E-06-6.17937E-20-1.70898E-18
 -1       250 1.03031E-04-3.08346E-05-3.09419E-05 2.12410E-06 1.22216E-18-1.46555E-18
 -1       251 1.01251E-04-3.02964E-05-3.04084E-05 1.78633E-06-5.46387E-19-2.45182E-18
 -1       252 9.97659E-05-2.98560E-05-2.99599E-05 1.44831E-06-8.44405E-19-2.02709E-18
 -1       253 9.85652E-05-2.95051E-05-2.95954E-05 1.14030E-06-3.30067E-19-7.26283E-19
 -1       254 9.76197E-05-2.92321E-05-2.93071E-05 8.75264E-07-5.63344E-19-5.27631E-20
 -1       255 9.68924E-05-2.90243E-05-2.90846E-05 6.56041E-07 6.82484E-19 2.98187E-19
 -1       256 9.63454E-05-2.88695E-05-2.89168E-05 4.80094E-07 3.42215E-19-2.11861E-19
 -1       257 9.59434E-05-2.87568E-05-2.87930E-05 3.42365E-07-2.94008E-19 2.04562E-19
 -1       258 9.56551E-05-2.86768E-05-2.87040E-05 2.36942E-07-2.63405E-21-9.71552E-19
 -1       259 9.54543E-05-2.86218E-05-2.86417E-05 1.57970E-07-4.05185E-19-5.97708E-19
 -1       260 9.53191E-05-2.85853E-05-2.85996E-05 1.00110E-07 6.16420E-19-2.51369E-19
 -1       261 9.52324E-05-2.85624E-05-2.85723E-05 5.87319E-08-3.04047E-20-6.59683E-19
 -1       262 9.51805E-05-2.85492E-05-2.85559E-05 2.99571E-08-7.55016E-19-7.66567E-19
 -1       263 9.51530E-05-2.85427E-05-2.85470E-05 1.06249E-08 6.62051E-19-1.39535E-18
 -1       264 9.51420E-05-2.85407E-05-2.85432E-05-1.78388E-09 1.12373E-18-1.38039E-18
 -1       265 9.51418E-05-2.85415E-05-2.85429E-05-9.23646E-09-8.19760E-19-1.34166E-18
 -1       266 9.51481E-05-2.85440E-05-2.85446E-05-1.32390E-08 7.59176E-20-5.04211E-19
 -1       267 9.51582E-05-2.85474E-05-2.85474E-05-1.49212E-08 3.73841E-20-8.65599E-19
 -1       268 9.51699E-05-2.85511E-05-2.85509E-05-1.51102E-08-1.31682E-18-1.90320E-20
 -1       269 9.51819E-05-2.85548E-05-2.85544E-05-1.43937E-08 2.99078E-19 6.20995E-19
 -1       270 9.51935E-05-2.85584E-05-2.85579E-05-1.31699E-08-8.65220E-19 2.75409E-19
 -1       271 9.52042E-05-2.85616E-05-2.85611E-05-1.16857E-08 1.69805E-18-3.38559E-20
 -1       272 9.52137E-05-2.85645E-05-2.85640E-05-1.00631E-08 1.67618E-18-5.76190E-19
 -1       273 9.52218E-05-2.85670E-05-2.85664E-05-8.31513E-09 7.94158E-19-6.72053E-19
 -1       274 9.52283E-05-2.85690E-05-2.85683E-05-6.36237E-09 2.12022E-19-1.36736E-19
 -1       275 9.52331E-05-2.85706E-05-2.85697E-05-4.05292E-09 3.71110E-19 6.98186E-19
 -1       276 9.52361E-05-2.85715E-05-2.85706E-05-1.43338E-09-4.37289E-19 2.91349E-19
 -1       277 9.52369E-05-2.85733E-05-2.85701E-05-2.97744E-09-1.97421E-19 2.83503E-18
 -1       278 9.52383E-05-2.85769E-05-2.85692E-05-5.42280E-09 1.33014E-18 7.41338E-19
 -1       279 9.52400E-05-2.85815E-05-2.85679E-05-6.81593E-09 1.78817E-18 8.28250E-19
 -1       280 9.52418E-05-2.85864E-05-2.85666E-05-7.00884E-09 1.15878E-18 2.19912E-18
 -1       281 9.52435E-05-2.85910E-05-2.85653E-05-6.19202E-09-2.77165E-19-2.00822E-18
 -1       282 9.52448E-05-2.85948E-05-2.85643E-05-4.57058E-09 8.37551E-19-1.12095E-18
 -1       283 9.52456E-05-2.85973E-05-2.85636E-05-2.40968E-09-5.99172E-20-1.40614E-18
 -1       284 9.52459E-05-2.85981E-05-2.85633E-05 2.02753E-11 3.26000E-19-5.62132E-19
 -1       285 9.52456E-05-2.85972E-05-2.85636E-05 2.44791E-09 2.49437E-19-2.35729E-19
 -1       286 9.52448E-05-2.85948E-05-2.85643E-05 4.60282E-09-1.34763E-18-2.05543E-18
 -1       287 9.52435E-05-2.85910E-05-2.85653E-05 6.19409E-09-2.03976E-18-1.35477E-18
 -1       288 9.52418E-05-2.85863E-05-2.85666E-05 7.01545E-09-8.55632E-19 1.01019E-18
 -1       289 9.52400E-05-2.85814E-05-2.85680E-05 6.80157E-09-4.11256E-19 5.76256E-19
 -1       290 9.52382E-05-2.85768E-05-2.85692E-05 5.35143E-09-7.78328E-19 1.43038E-18
 -1       291 9.52366E-05-2.85739E-05-2.85697E-05 4.68302E-09-2.25678E-20-3.42654E-20
 -1       292 1.18213E-05-4.39117E-05 1.08744E-05 8.67745E-06 3.35197E-18 7.21429E-18
 -1       293 2.57878E-05-4.27047E-05 4.51484E-06 2.13405E-05 7.15192E-18 7.90345E-18
 -1       294 6.02823E-05-4.10294E-05-9.45310E-06 3.88779E-05 6.33729E-18 6.02108E-18
 -1       295 8.84505E-05-3.07026E-05-2.52126E-05 4.38972E-05 9.82452E-18 7.58942E-18
 -1       296 1.31152E-04-2.96221E-05-4.24415E-05 4.75743E-05 8.62587E-18 7.81600E-18
 -1       297 1.73951E-04-3.24766E-05-5.81222E-05 4.03322E-05 8.04420E-18 4.48864E-18
 -1       298 2.00923E-04-3.44104E-05-6.82280E-05 1.95323E-05 7.78159E-18 2.36322E-19
 -1       299 2.01208E-04-3.04282E-05-7.03702E-05-2.31183E-06 8.68865E-18-4.12150E-18
 -1       300 1.99118E-04-3.52424E-05-6.70008E-05-2.66132E-05 9.71674E-18-1.02106E-17
 -1       301 1.64408E-04-3.28323E-05-5.45846E-05-3.68288E-05 1.07115E-17-1.22739E-17
 -1       302 1.23430E-04-3.37310E-05-3.79150E-05-4.43256E-05 1.13735E-17-1.36622E-17
 -1       303 7.72353E-05-3.09599E-05-2.06956E-05-4.25198E-05 1.30077E-17-1.40548E-17
 -1       304 4.37577E-05-3.61733E-05-5.39751E-06-3.09651E-05 1.05809E-17-1.18162E-17
 -1       305 2.16552E-05-3.93051E-05 5.23000E-06-2.16637E-05 4.83772E-18-9.84506E-18
 -1       306 1.10884E-05-4.68086E-05 1.18736E-05-3.64658E-06 7.13149E-19-8.44809E-18
 -1       307 1.34874E-05-4.57167E-05 1.03915E-05 9.35985E-06-4.89892E-18-8.68897E-18
 -1       308 3.09773E-05-3.95220E-05 1.32094E-06 2.62267E-05-8.38732E-18-9.61245E-18
 -1       309 5.86525E-05-3.30943E-05-1.25713E-05 3.65965E-05-1.29054E-17-1.22629E-17
 -1       310 9.94021E-05-2.92977E-05-3.01222E-05 4.63854E-05-1.31737E-17-1.44968E-17
 -1       311 1.45285E-04-3.02904E-05-4.77222E-05 4.70692E-05-1.22191E-17-1.44349E-17
 -1       312 1.81801E-04-3.30333E-05-6.13587E-05 2.97707E-05-1.00230E-17-1.06938E-17
 -1       313 2.09453E-04-3.67371E-05-7.03774E-05 1.56728E-05-8.53322E-18-8.66430E-18
 -1       314 2.12939E-04-3.70718E-05-7.16472E-05-6.92860E-06-7.86565E-18-3.09268E-18
 -1       315 1.86701E-04-3.21237E-05-6.39061E-05-2.11766E-05-7.54272E-18 2.95191E-19
 -1       316 1.58087E-04-3.16804E-05-5.22620E-05-4.38371E-05-7.60021E-18 6.29536E-18
 -1       317 1.17714E-04-3.00548E-05-3.69998E-05-4.69092E-05-8.70644E-18 7.82722E-18
 -1       318 7.88022E-05-3.20091E-05-2.08747E-05-4.17587E-05-9.06346E-18 7.19258E-18
 -1       319 4.92368E-05-3.91093E-05-6.08110E-06-3.40535E-05-5.20523E-18 7.62872E-18
 -1       320 2.29124E-05-4.39054E-05 6.04513E-06-1.85877E-05-4.36391E-18 8.17651E-18
 -1       321 1.19266E-05-4.61056E-05 1.15465E-05-6.60890E-06-3.21237E-19 7.08162E-18
 -1       322 9.75470E-05-1.63206E-05-3.48851E-05-6.14104E-06-3.55611E-18-2.58550E-18
 -1       323 1.06147E-04-2.25953E-05-3.58746E-05-8.63586E-06-4.02875E-18-5.51630E-20
 -1       324 8.35059E-05-8.19857E-06-3.23204E-05-1.03303E-06-1.96468E-18-5.21278E-18
 -1       325 7.77382E-05-5.05004E-06-3.11817E-05 2.85322E-07-1.15656E-18-5.80726E-18
 -1       326 7.34370E-05-2.68685E-06-3.03405E-05 5.61951E-07-4.63635E-19-6.09894E-18
 -1       327 7.12293E-05-1.47612E-06-2.99080E-05 6.69497E-08 1.58688E-19-6.25567E-18
 -1       328 7.14906E-05-1.65717E-06-2.99432E-05-6.53517E-07 6.65309E-19-6.12570E-18
 -1       329 7.41412E-05-3.17453E-06-3.04353E-05-9.70334E-07 1.28904E-18-5.92751E-18
 -1       330 7.85918E-05-5.65737E-06-3.12896E-05-4.26059E-07 1.94273E-18-5.35903E-18
 -1       331 8.43509E-05-8.81936E-06-3.24179E-05 1.16348E-06 2.70207E-18-4.50415E-18
 -1       332 9.08704E-05-1.24654E-05-3.36691E-05 3.66257E-06 3.45400E-18-3.28339E-18
 -1       333 9.81119E-05-1.69000E-05-3.48889E-05 6.63353E-06 4.14935E-18-1.58101E-18
 -1       334 1.06161E-04-2.29716E-05-3.57660E-05 8.83916E-06 4.31998E-18 1.60347E-18
 -1       335 1.11435E-04-2.86126E-05-3.55797E-05 7.28568E-06 3.96095E-18 4.65115E-18
 -1       336 1.10550E-04-3.14874E-05-3.38602E-05 1.62029E-06 3.21865E-18 3.57098E-18
 -1       337 1.09601E-04-3.05659E-05-3.38348E-05-1.05698E-06-3.02252E-18 6.53709E-19
 -1       338 1.09860E-04-3.25255E-05-3.31302E-05 1.50115E-06-2.25397E-18 5.29487E-19
 -1       339 1.10832E-04-3.42704E-05-3.28159E-05 1.56266E-06-1.52637E-18 5.32952E-19
 -1       340 1.12126E-04-3.59395E-05-3.26670E-05-4.73525E-07-9.11660E-19 6.10094E-19
 -1       341 1.13073E-04-3.70322E-05-3.26055E-05-4.21983E-06-8.26158E-19 6.91218E-19
 -1       342 1.12786E-04-3.66113E-05-3.26587E-05-8.61663E-06-7.57716E-19 6.00061E-19
 -1       343 1.10589E-04-3.38851E-05-3.28789E-05-1.15632E-05-1.12084E-18 6.50040E-19
 -1       344 1.06929E-04-2.93895E-05-3.32349E-05-1.05203E-05-1.92712E-18 3.78301E-19
 -1       345 1.03831E-04-2.55652E-05-3.35495E-05-4.48956E-06-2.42186E-18-7.49272E-19
 -1       346 1.03640E-04-2.52521E-05-3.36049E-05 4.15045E-06-2.33786E-18-1.95860E-18
 -1       347 1.06576E-04-2.87318E-05-3.33683E-05 1.08375E-05-1.28807E-18-3.20500E-18
 -1       348 1.10478E-04-3.34266E-05-3.30264E-05 1.26027E-05-1.81537E-19-4.13284E-18
 -1       349 1.13055E-04-3.66203E-05-3.27691E-05 9.93040E-06-1.52603E-19-4.59467E-18
 -1       350 1.13548E-04-3.74676E-05-3.26254E-05 5.21924E-06 1.43304E-19-4.66596E-18
 -1       351 1.12420E-04-3.66146E-05-3.25102E-05 6.41005E-07 5.50259E-19-3.61910E-18
 -1       352 1.10451E-04-3.50449E-05-3.23351E-05-2.72041E-06 2.39394E-19-3.21357E-18
 -1       353 1.08221E-04-3.34372E-05-3.20621E-05-4.67464E-06 6.22867E-22-2.80682E-18
 -1       354 1.06047E-04-3.20903E-05-3.17014E-05-5.47496E-06-5.11082E-19-2.60149E-18
 -1       355 1.04066E-04-3.10644E-05-3.12876E-05-5.49010E-06-3.07773E-19-2.05554E-18
 -1       356 1.02328E-04-3.03180E-05-3.08595E-05-5.04759E-06 4.89404E-19-2.26165E-18
 -1       357 1.00839E-04-2.97852E-05-3.04484E-05-4.38691E-06 1.60248E-18-1.15919E-18
 -1       358 9.95907E-05-2.94069E-05-3.00750E-05-3.66286E-06 6.49652E-19-1.08842E-18
 -1       359 9.85627E-05-2.91381E-05-2.97496E-05-2.96539E-06 6.29325E-19-2.20879E-18
 -1       360 9.77314E-05-2.89471E-05-2.94756E-05-2.34031E-06 4.59714E-19-1.99902E-18
 -1       361 9.70710E-05-2.88118E-05-2.92510E-05-1.80580E-06-1.85525E-19-2.18359E-18
 -1       362 9.65554E-05-2.87169E-05-2.90713E-05-1.36399E-06-2.52236E-19-1.78449E-18
 -1       363 9.61601E-05-2.86513E-05-2.89304E-05-1.00839E-06-1.91361E-19-9.32164E-19
 -1       364 9.58625E-05-2.86070E-05-2.88223E-05-7.28566E-07-7.19689E-19-1.66724E-18
 -1       365 9.56430E-05-2.85782E-05-2.87409E-05-5.12830E-07-9.15662E-19-6.64804E-19
 -1       366 9.54847E-05-2.85605E-05-2.86810E-05-3.49758E-07-6.47324E-19-3.23010E-19
 -1       367 9.53734E-05-2.85505E-05-2.86378E-05-2.28955E-07-1.44907E-18 5.01095E-20
 -1       368 9.52976E-05-2.85458E-05-2.86075E-05-1.41388E-07-6.24295E-19-1.22576E-18
 -1       369 9.52481E-05-2.85446E-05-2.85869E-05-7.94528E-08 7.55129E-19-2.12879E-18
 -1       370 9.52177E-05-2.85456E-05-2.85736E-05-3.69146E-08 7.68039E-19-1.07347E-18
 -1       371 9.52008E-05-2.85478E-05-2.85654E-05-8.76601E-09 5.39422E-20 8.32931E-20
 -1       372 9.51931E-05-2.85507E-05-2.85609E-05 8.93502E-09 7.83399E-19-5.88146E-19
 -1       373 9.51915E-05-2.85538E-05-2.85590E-05 1.92340E-08-7.72023E-20-5.86502E-19
 -1       374 9.51938E-05-2.85569E-05-2.85587E-05 2.44379E-08-1.72976E-19 4.01914E-19
 -1       375 9.51984E-05-2.85598E-05-2.85594E-05 2.62549E-08-3.66121E-19 1.35186E-18
 -1       376 9.52041E-05-2.85624E-05-2.85607E-05 2.59152E-08 5.47654E-19 2.07257E-18
 -1       377 9.52101E-05-2.85647E-05-2.85623E-05 2.42682E-08 2.62185E-18 1.23810E-18
 -1       378 9.52160E-05-2.85667E-05-2.85640E-05 2.18611E-08 1.20948E-18 1.14697E-18
 -1       379 9.52215E-05-2.85685E-05-2.85656E-05 1.89992E-08 1.91408E-18 9.30898E-19
 -1       380 9.52265E-05-2.85702E-05-2.85670E-05 1.57978E-08-6.47258E-19 1.34322E-18
 -1       381 9.52307E-05-2.85718E-05-2.85681E-05 1.22428E-08-1.64501E-19-3.72079E-19
 -1       382 9.52339E-05-2.85730E-05-2.85690E-05 8.56451E-09 1.15675E-18 1.62803E-19
 -1       383 1.10176E-04-3.27168E-05-3.31706E-05-7.33951E-07 2.42167E-18 2.93863E-18
 -1       384 1.10451E-04-3.36794E-05-3.28967E-05-8.69473E-07 1.57031E-18 2.48140E-18
 -1       385 1.10868E-04-3.45484E-05-3.27172E-05 7.07213E-07 8.14252E-19 1.99979E-18
 -1       386 1.10738E-04-3.49934E-05-3.24743E-05 3.59759E-06 3.71700E-19 1.97980E-18
 -1       387 1.09429E-04-3.44790E-05-3.21275E-05 6.96164E-06 4.77123E-19 1.94668E-18
 -1       388 1.06664E-04-3.26040E-05-3.17357E-05 9.28689E-06 7.76170E-19 1.75082E-18
 -1       389 1.02991E-04-2.96769E-05-3.14121E-05 8.80848E-06 1.62262E-18 1.03989E-18
 -1       390 9.99262E-05-2.70038E-05-3.12441E-05 4.68511E-06 1.50520E-18 5.75392E-19
 -1       391 9.92421E-05-2.62913E-05-3.12534E-05-1.78726E-06 2.07320E-18-8.44932E-19
 -1       392 1.01432E-04-2.80474E-05-3.14352E-05-7.61201E-06 1.17756E-18-2.02510E-18
 -1       393 1.05295E-04-3.11528E-05-3.17638E-05-1.02591E-05 1.00351E-18-2.76171E-18
 -1       394 1.08930E-04-3.38683E-05-3.21701E-05-9.29842E-06 1.75773E-19-3.18954E-18
 -1       395 1.11130E-04-3.52501E-05-3.25337E-05-6.08925E-06 2.47982E-19-3.51728E-18
 -1       396 1.11676E-04-3.53339E-05-3.27382E-05-2.35171E-06 1.77536E-19-3.23172E-18
 -1       397 1.10932E-04-3.46179E-05-3.27259E-05 7.54428E-07 1.03542E-18-2.59303E-18
 -1       398 1.09405E-04-3.35973E-05-3.25043E-05 2.80380E-06 6.74680E-19-1.82072E-18
 -1       399 1.07512E-04-3.25715E-05-3.21264E-05 3.85385E-06-5.73689E-19-1.19923E-18
 -1       400 1.05536E-04-3.16707E-05-3.16601E-05 4.15609E-06-1.00198E-18-1.52885E-18
 -1       401 1.03650E-04-3.09292E-05-3.11660E-05 3.98257E-06-2.81201E-19-1.58223E-18
 -1       402 1.01951E-04-3.03384E-05-3.06886E-05 3.55267E-06 8.95221E-19-2.00095E-18
 -1       403 1.00480E-04-2.98762E-05-3.02554E-05 3.01812E-06-2.51901E-20-9.56574E-19
 -1       404 9.92473E-05-2.95191E-05-2.98797E-05 2.47258E-06-1.13268E-18-1.38142E-18
 -1       405 9.82403E-05-2.92463E-05-2.95653E-05 1.96757E-06-6.50797E-19 3.77662E-19
 -1       406 9.74366E-05-2.90403E-05-2.93095E-05 1.52698E-06-2.10094E-19-2.10603E-19
 -1       407 9.68086E-05-2.88870E-05-2.91065E-05 1.15798E-06 7.17402E-19-4.71711E-19
 -1       408 9.63277E-05-2.87748E-05-2.89491E-05 8.58335E-07 8.03869E-19 3.06849E-19
 -1       409 9.59671E-05-2.86943E-05-2.88294E-05 6.21108E-07 7.65485E-20 1.20810E-18
 -1       410 9.57024E-05-2.86380E-05-2.87405E-05 4.37461E-07 2.73233E-19 1.83213E-18
 -1       411 9.55127E-05-2.85998E-05-2.86759E-05 2.98270E-07 2.64603E-19-6.28862E-20
 -1       412 9.53806E-05-2.85750E-05-2.86302E-05 1.94993E-07 6.09430E-19-1.93404E-18
 -1       413 9.52917E-05-2.85598E-05-2.85989E-05 1.20076E-07-2.86836E-19-1.00244E-18
 -1       414 9.52347E-05-2.85513E-05-2.85782E-05 6.70921E-08-6.16413E-20-2.50231E-19
 -1       415 9.52006E-05-2.85476E-05-2.85653E-05 3.07340E-08 3.53846E-19-1.31120E-18
 -1       416 9.51825E-05-2.85468E-05-2.85580E-05 6.72028E-09 1.00140E-18-1.57749E-18
 -1       417 9.51753E-05-2.85480E-05-2.85545E-05-8.33029E-09-6.89169E-19-1.13001E-18
 -1       418 9.51753E-05-2.85503E-05-2.85535E-05-1.70349E-08 2.37001E-19-7.64804E-19
 -1       419 9.51796E-05-2.85531E-05-2.85542E-05-2.13785E-08-8.64115E-19 1.21064E-18
 -1       420 9.51863E-05-2.85561E-05-2.85558E-05-2.28330E-08-2.70376E-19 3.49345E-19
 -1       421 9.51942E-05-2.85590E-05-2.85579E-05-2.24595E-08-6.48260E-19-9.29479E-19
 -1       422 9.52022E-05-2.85617E-05-2.85602E-05-2.09922E-08-7.32561E-20-3.43472E-19
 -1       423 9.52100E-05-2.85642E-05-2.85625E-05-1.89056E-08 1.07688E-18 7.61427E-19
 -1       424 9.52172E-05-2.85664E-05-2.85646E-05-1.64643E-08 1.37680E-18 1.67900E-18
 -1       425 9.52234E-05-2.85684E-05-2.85665E-05-1.37600E-08-7.06052E-20 1.99634E-18
 -1       426 9.52287E-05-2.85702E-05-2.85680E-05-1.07545E-08 2.99793E-19 2.38031E-18
 -1       427 9.52330E-05-2.85718E-05-2.85691E-05-7.36241E-09-3.00824E-19 3.47184E-18
 -1       428 9.52352E-05-2.85727E-05-2.85696E-05-5.23605E-09 2.34214E-19 3.69243E-18
 -1       429 9.52404E-05-2.85826E-05-2.85676E-05-1.19540E-08-1.11651E-18-2.88683E-19
 -1       430 9.52379E-05-2.85784E-05-2.85684E-05-1.09322E-08 4.99166E-19 6.11111E-19
 -1       431 9.52363E-05-2.85753E-05-2.85690E-05-8.44321E-09 5.04697E-19 8.99422E-19
 -1       432 9.52427E-05-2.85866E-05-2.85669E-05-1.12762E-08-2.76277E-18-2.22889E-18
 -1       433 9.52446E-05-2.85900E-05-2.85663E-05-9.13982E-09-1.22009E-18 8.75043E-19
 -1       434 9.52459E-05-2.85924E-05-2.85658E-05-5.91351E-09 8.30596E-20-1.99008E-18
 -1       435 9.52466E-05-2.85937E-05-2.85655E-05-2.02274E-09-1.80868E-18-2.03942E-18
 -1       436 9.52466E-05-2.85937E-05-2.85655E-05 2.08890E-09-2.23554E-18-1.51198E-19
 -1       437 9.52459E-05-2.85924E-05-2.85658E-05 5.97291E-09-1.39611E-18-1.47839E-18
 -1       438 9.52446E-05-2.85900E-05-2.85663E-05 9.13938E-09-7.39684E-19-3.44523E-18
 -1       439 9.52427E-05-2.85866E-05-2.85669E-05 1.12800E-08-9.69108E-20 3.53281E-18
 -1       440 9.52404E-05-2.85825E-05-2.85677E-05 1.19596E-08 1.24580E-18 8.54967E-20
 -1       441 9.52378E-05-2.85783E-05-2.85684E-05 1.09684E-08 8.02893E-19-1.78975E-19
 -1       442 5.58268E-05-3.82971E-05-7.30353E-06 4.20988E-05-1.85786E-18 3.63647E-18
 -1       443 1.30067E-05-1.98710E-05 3.00401E-06 5.27255E-07 5.31808E-19 8.31140E-18
 -1       444 2.82026E-05-2.54464E-05-9.32872E-07 2.93081E-05-1.03433E-18 6.14194E-18
 -1       445 9.99004E-05-5.17293E-05-2.06855E-05 3.99594E-05 1.85786E-18 6.18652E-19
 -1       446 1.30134E-04-5.29655E-05-3.30808E-05 2.87824E-05 2.53030E-18 5.89006E-19
 -1       447 9.02013E-05-1.19136E-05-3.36116E-05-3.37149E-06-2.84013E-18-4.29548E-18
 -1       448 1.61600E-04-2.73097E-05-5.72624E-05 2.23511E-06 7.29645E-18-2.67133E-18
 -1       449 1.52118E-04-1.23229E-05-6.01034E-05-3.05885E-06 8.89840E-18-3.37225E-18
 -1       450 1.60357E-04-1.67013E-05-6.13240E-05 1.05904E-06 9.52997E-18-2.69330E-18
 -1       451 1.59079E-04-2.91090E-05-5.54781E-05-2.09480E-06 8.69818E-18-2.96843E-18
 -1       452 1.47476E-04-4.84463E-05-4.25433E-05-1.06789E-05 4.92987E-18-2.28709E-18
 -1       453 1.21949E-04-5.51516E-05-2.87041E-05-3.27310E-05 2.98325E-18-5.40656E-18
 -1       454 8.54540E-05-4.80761E-05-1.61660E-05-4.33648E-05 2.39382E-18-8.00375E-18
 -1       455 5.13429E-05-3.64197E-05-6.45538E-06-4.14284E-05 6.81862E-19-9.13117E-18
 -1       456 1.79583E-05-2.07833E-05 1.16595E-06-1.92065E-05-3.22931E-21-1.02868E-17
 -1       457 1.18452E-05-1.95429E-05 3.17089E-06 3.90544E-06 1.15170E-19-1.04195E-17
 -1       458 2.83024E-05-2.62675E-05-9.42236E-07 3.01267E-05-3.30343E-20-9.09904E-18
 -1       459 6.58372E-05-4.26912E-05-1.01413E-05 4.31989E-05-2.34438E-18-7.73164E-18
 -1       460 1.04194E-04-5.13048E-05-2.28139E-05 3.96528E-05-4.18201E-18-6.54005E-18
 -1       461 1.37757E-04-5.01954E-05-3.74432E-05 2.55943E-05-5.60164E-18-5.60683E-18
 -1       462 1.54822E-04-3.97300E-05-4.92396E-05 7.15490E-06-6.90726E-18-3.53562E-18
 -1       463 1.61464E-04-2.16900E-05-5.95957E-05-5.53242E-07-8.62512E-18-3.59333E-18
 -1       464 1.63289E-04-1.46510E-05-6.33366E-05-1.17662E-08-9.43150E-18-3.84721E-18
 -1       465 1.56140E-04-1.59035E-05-6.01933E-05 2.90064E-06-9.24621E-18-3.63695E-18
 -1       466 1.56369E-04-3.48477E-05-5.20450E-05-3.99295E-06-5.79011E-18-2.74015E-18
 -1       467 1.46032E-04-4.82500E-05-4.18039E-05-1.76080E-05-4.23482E-18-7.57036E-19
 -1       468 1.21828E-04-5.40849E-05-2.90693E-05-3.27103E-05-2.26232E-18 1.34625E-18
 -1       469 8.94002E-05-5.04451E-05-1.68230E-05-4.21251E-05-1.03550E-19 2.70720E-18
 -1       470 5.03553E-05-3.72652E-05-5.61070E-06-4.07319E-05 1.98460E-18 5.64934E-18
 -1       471 2.22912E-05-2.60292E-05 1.54392E-06-2.40419E-05 1.09040E-18 7.60127E-18
 -1       472 1.51082E-04-4.35139E-05-4.60492E-05 1.02360E-05 4.58596E-18-2.72681E-18
 -1       473 8.66441E-05-4.95660E-05-1.56890E-05 4.26918E-05-3.03412E-18-2.28434E-20
 -1       474 1.44141E-04-2.35426E-05-5.20728E-05 1.10318E-05-6.46021E-18-4.55566E-18
 -1       475 1.07142E-04-2.95920E-05-3.32266E-05 6.28348E-07 3.02526E-18 5.80893E-19
 -1       476 7.61974E-05-6.64950E-06-2.98153E-05 2.34542E-06-5.75174E-19-5.49614E-18
 -1       477 8.23661E-05-1.05282E-05-3.08016E-05 2.07959E-06-1.23885E-18-4.96790E-18
 -1       478 7.08221E-05-3.25466E-06-2.89608E-05-4.75573E-07 3.69612E-19-5.84100E-18
 -1       479 7.27509E-05-4.53681E-06-2.92408E-05-2.11445E-06 8.47700E-19-5.70599E-18
 -1       480 7.72580E-05-7.44917E-06-2.99283E-05-2.76385E-06 1.35248E-18-5.20452E-18
 -1       481 8.35183E-05-1.14098E-05-3.09197E-05-2.08923E-06 2.10551E-18-4.47041E-18
 -1       482 9.05280E-05-1.58016E-05-3.20462E-05-2.89140E-07 2.67604E-18-3.41748E-18
 -1       483 9.77761E-05-2.05026E-05-3.31371E-05 1.96599E-06 3.33773E-18-2.06966E-18
 -1       484 1.08251E-04-3.23379E-05-3.25262E-05-1.34518E-06 2.20632E-18 5.53433E-19
 -1       485 1.05339E-04-2.85945E-05-3.28870E-05 8.26158E-07-2.45832E-18-1.24484E-18
 -1       486 1.45291E-04-3.52105E-05-4.75168E-05-8.36652E-06 4.41415E-18-5.17521E-18
 -1       487 1.07404E-04-3.22613E-05-3.22033E-05 2.85723E-06-1.56857E-18-7.01316E-19
 -1       488 1.10169E-04-3.58565E-05-3.18558E-05 2.55880E-06-9.69868E-19-3.37220E-19
 -1       489 1.13598E-04-3.92708E-05-3.18663E-05-1.90440E-07-6.15060E-19 1.99874E-19
 -1       490 1.16791E-04-4.12835E-05-3.23673E-05-5.13709E-06-4.50097E-19 8.86650E-19
 -1       491 1.18019E-04-3.98117E-05-3.35429E-05-1.08827E-05-9.46879E-19 1.08288E-18
 -1       492 1.15859E-04-3.35934E-05-3.53190E-05-1.39785E-05-1.89423E-18 9.86399E-19
 -1       493 1.11315E-04-2.49230E-05-3.71253E-05-1.05574E-05-3.46049E-18 3.89519E-20
 -1       494 1.08549E-04-2.01547E-05-3.80024E-05-4.06938E-07-3.86095E-18-1.83147E-18
 -1       495 1.10599E-04-2.36952E-05-3.73551E-05 1.03468E-05-2.68920E-18-3.30984E-18
 -1       496 1.15214E-04-3.23311E-05-3.55888E-05 1.49530E-05-1.44404E-18-3.99903E-18
 -1       497 1.17949E-04-3.94195E-05-3.36810E-05 1.24141E-05-2.29746E-19-4.55464E-18
 -1       498 1.17086E-04-4.17969E-05-3.22796E-05 6.38458E-06 3.22150E-19-3.80075E-18
 -1       499 1.13859E-04-4.04472E-05-3.14741E-05 4.00033E-07 9.56141E-19-2.88431E-18
 -1       500 1.09971E-04-3.74959E-05-3.10716E-05-3.91742E-06 4.70576E-19-2.92591E-18
 -1       501 1.06477E-04-3.44907E-05-3.08588E-05-6.38565E-06 7.54296E-19-2.69172E-18
 -1       502 1.03720E-04-3.21046E-05-3.06963E-05-7.39839E-06-2.04348E-19-2.09163E-18
 -1       503 1.01660E-04-3.04493E-05-3.05203E-05-7.43777E-06-1.43861E-19-1.85336E-18
 -1       504 1.00140E-04-2.94022E-05-3.03158E-05-6.90264E-06 2.69829E-19-1.52156E-18
 -1       505 9.90045E-05-2.87892E-05-3.00909E-05-6.07883E-06 1.11028E-18-1.73895E-18
 -1       506 9.81385E-05-2.84593E-05-2.98609E-05-5.15420E-06 7.03866E-19-2.51640E-18
 -1       507 9.74653E-05-2.83024E-05-2.96395E-05-4.24288E-06 5.40394E-20-2.47475E-18
 -1       508 9.69356E-05-2.82460E-05-2.94368E-05-3.40780E-06 1.41136E-19-2.97235E-18
 -1       509 9.65172E-05-2.82445E-05-2.92584E-05-2.67829E-06 2.85518E-19-3.54148E-18
 -1       510 9.61877E-05-2.82708E-05-2.91061E-05-2.06276E-06 3.25049E-20-2.35675E-18
 -1       511 9.59304E-05-2.83091E-05-2.89796E-05-1.55740E-06 4.76342E-19-2.23209E-18
 -1       512 9.57318E-05-2.83505E-05-2.88770E-05-1.15193E-06-6.68571E-19-1.88206E-18
 -1       513 9.55807E-05-2.83902E-05-2.87954E-05-8.33189E-07-3.88564E-19-1.31074E-18
 -1       514 9.54678E-05-2.84261E-05-2.87317E-05-5.87415E-07-2.14964E-19-1.10071E-19
 -1       515 9.53849E-05-2.84571E-05-2.86831E-05-4.01477E-07-1.08471E-18 9.69548E-20
 -1       516 9.53255E-05-2.84831E-05-2.86465E-05-2.63555E-07-1.35291E-18 1.03130E-18
 -1       517 9.52840E-05-2.85044E-05-2.86197E-05-1.63410E-07 2.93308E-19 1.70666E-18
 -1       518 9.52561E-05-2.85215E-05-2.86004E-05-9.24342E-08 9.90981E-19 4.53679E-19
 -1       519 9.52381E-05-2.85349E-05-2.85870E-05-4.35602E-08 1.28169E-18 8.98373E-19
 -1       520 9.52273E-05-2.85454E-05-2.85779E-05-1.11084E-08 3.55989E-19 7.17203E-19
 -1       521 9.52215E-05-2.85533E-05-2.85721E-05 9.39822E-09-5.77421E-19 1.54541E-19
 -1       522 9.52192E-05-2.85592E-05-2.85685E-05 2.14216E-08 9.25197E-20-2.25459E-20
 -1       523 9.52191E-05-2.85636E-05-2.85666E-05 2.75848E-08 3.27431E-19 1.31548E-18
 -1       524 9.52204E-05-2.85668E-05-2.85659E-05 2.98294E-08 7.09489E-19 2.46419E-18
 -1       525 9.52226E-05-2.85691E-05-2.85658E-05 2.95508E-08-1.76686E-19 1.35924E-18
 -1       526 9.52251E-05-2.85708E-05-2.85661E-05 2.77100E-08 1.19332E-18-5.69898E-19
 -1       527 9.52277E-05-2.85721E-05-2.85667E-05 2.49253E-08 1.29163E-18 1.73004E-19
 -1       528 9.52304E-05-2.85734E-05-2.85673E-05 2.15455E-08 6.46564E-19-9.99645E-19
 -1       529 9.52329E-05-2.85746E-05-2.85678E-05 1.77223E-08-1.34179E-18 1.07337E-19
 -1       530 5.32830E-05-2.82378E-05-1.01545E-05 3.57443E-05-3.60751E-18 2.72205E-18
 -1       531 1.11848E-04-3.70706E-05-3.20611E-05 1.46010E-06 6.96041E-19 9.36347E-19
 -1       532 1.13373E-04-3.82294E-05-3.22181E-05 5.57047E-06 4.86354E-19 1.02394E-18
 -1       533 1.13376E-04-3.70774E-05-3.27050E-05 9.99341E-06 5.97186E-19 1.08194E-18
 -1       534 1.11146E-04-3.29497E-05-3.35205E-05 1.22250E-05 1.24943E-18 1.33800E-18
 -1       535 1.07353E-04-2.70514E-05-3.44356E-05 9.73142E-06 2.35604E-18 9.41681E-19
 -1       536 1.04737E-04-2.31718E-05-3.49895E-05 2.12456E-06 3.17522E-18-6.97392E-19
 -1       537 1.05583E-04-2.43701E-05-3.48337E-05-6.89615E-06 3.11377E-18-2.23101E-18
 -1       538 1.09149E-04-2.96714E-05-3.40792E-05-1.25164E-05 1.63440E-18-3.17292E-18
 -1       539 1.12545E-04-3.52425E-05-3.31427E-05-1.25771E-05 8.92523E-19-3.35729E-18
 -1       540 1.13773E-04-3.82529E-05-3.23788E-05-8.71177E-06 1.21663E-19-3.40500E-18
 -1       541 1.12808E-04-3.84406E-05-3.18852E-05-3.61083E-06-3.83440E-20-2.53078E-18
 -1       542 1.10562E-04-3.68722E-05-3.15957E-05 8.17147E-07-9.23216E-20-2.80271E-18
 -1       543 1.07981E-04-3.47720E-05-3.13871E-05 3.83436E-06 9.38387E-20-1.09807E-18
 -1       544 1.05572E-04-3.28453E-05-3.11761E-05 5.47379E-06-8.86207E-19-7.52128E-19
 -1       545 1.03511E-04-3.13478E-05-3.09304E-05 6.05247E-06-9.53571E-19-1.95617E-19
 -1       546 1.01809E-04-3.02885E-05-3.06519E-05 5.92843E-06 1.49191E-19-1.47699E-18
 -1       547 1.00419E-04-2.95825E-05-3.03573E-05 5.39974E-06 1.02159E-19-1.54758E-18
 -1       548 9.92888E-05-2.91304E-05-3.00657E-05 4.68094E-06 3.36041E-19-4.10921E-19
 -1       549 9.83712E-05-2.88497E-05-2.97924E-05 3.91173E-06-9.07017E-19-6.97006E-19
 -1       550 9.76301E-05-2.86804E-05-2.95474E-05 3.17485E-06-1.04096E-18-1.16334E-18
 -1       551 9.70367E-05-2.85819E-05-2.93356E-05 2.51367E-06 3.33337E-19-1.42355E-18
 -1       552 9.65669E-05-2.85278E-05-2.91577E-05 1.94613E-06 9.93415E-19-1.99446E-18
 -1       553 9.61999E-05-2.85013E-05-2.90122E-05 1.47480E-06-6.44928E-20-1.91342E-18
 -1       554 9.59175E-05-2.84915E-05-2.88956E-05 1.09365E-06-4.56246E-19-9.29834E-19
 -1       555 9.57038E-05-2.84916E-05-2.88043E-05 7.92397E-07-2.18160E-19-9.32726E-19
 -1       556 9.55451E-05-2.84972E-05-2.87341E-05 5.59227E-07 1.21274E-18-1.49518E-18
 -1       557 9.54297E-05-2.85055E-05-2.86813E-05 3.82368E-07 3.27839E-19-8.10466E-19
 -1       558 9.53478E-05-2.85148E-05-2.86423E-05 2.50958E-07-1.70358E-19 3.35277E-19
 -1       559 9.52913E-05-2.85241E-05-2.86143E-05 1.55446E-07-5.54990E-19 8.59615E-19
 -1       560 9.52539E-05-2.85327E-05-2.85946E-05 8.77251E-08 8.72349E-19 7.50341E-19
 -1       561 9.52303E-05-2.85404E-05-2.85813E-05 4.10997E-08 1.12509E-18 6.66123E-20
 -1       562 9.52166E-05-2.85470E-05-2.85726E-05 1.01646E-08 8.07109E-19 2.65618E-19
 -1       563 9.52099E-05-2.85526E-05-2.85674E-05-9.35265E-09-6.92564E-19 1.20965E-19
 -1       564 9.52077E-05-2.85571E-05-2.85645E-05-2.07626E-08-6.51491E-19 2.30909E-19
 -1       565 9.52086E-05-2.85608E-05-2.85633E-05-2.65773E-08-5.16945E-19-1.04151E-18
 -1       566 9.52112E-05-2.85638E-05-2.85632E-05-2.86590E-08 3.34808E-19-1.29940E-18
 -1       567 9.52148E-05-2.85662E-05-2.85637E-05-2.83471E-08-6.48841E-19-1.83082E-18
 -1       568 9.52188E-05-2.85681E-05-2.85646E-05-2.65650E-08-8.61705E-19-2.98629E-18
 -1       569 9.52228E-05-2.85697E-05-2.85656E-05-2.39063E-08-5.40857E-19-7.13906E-19
 -1       570 9.52266E-05-2.85712E-05-2.85666E-05-2.07077E-08-2.31028E-19 8.23362E-19
 -1       571 9.52302E-05-2.85726E-05-2.85675E-05-1.71324E-08-1.84846E-19 2.01934E-18
 -1       572 9.52334E-05-2.85741E-05-2.85683E-05-1.31568E-08-1.53144E-19 2.68659E-18
 -1       573 9.52448E-05-2.85867E-05-2.85677E-05-1.35717E-08-1.28725E-18-4.80366E-19
 -1       574 9.52471E-05-2.85894E-05-2.85676E-05-9.93954E-09-1.51235E-18 8.67471E-19
 -1       575 9.52382E-05-2.85793E-05-2.85681E-05-1.57744E-08-9.37838E-19-1.82474E-18
 -1       576 9.52417E-05-2.85833E-05-2.85679E-05-1.56303E-08-2.31422E-18-6.36267E-19
 -1       577 9.52485E-05-2.85910E-05-2.85675E-05-5.22382E-09-5.73126E-20-2.38455E-18
 -1       578 9.52489E-05-2.85916E-05-2.85674E-05 4.27744E-11 4.64484E-19-1.59724E-18
 -1       579 9.52485E-05-2.85910E-05-2.85675E-05 5.30545E-09-6.64968E-19 8.75414E-19
 -1       580 9.52471E-05-2.85894E-05-2.85676E-05 9.93821E-09-2.39666E-19-3.14563E-18
 -1       581 9.52448E-05-2.85867E-05-2.85677E-05 1.35716E-08 9.76866E-19-1.08616E-18
 -1       582 9.52418E-05-2.85833E-05-2.85679E-05 1.56444E-08-3.36873E-19 7.26827E-19
 -1       583 9.52382E-05-2.85793E-05-2.85681E-05 1.57085E-08-1.53657E-18-6.86201E-19
 -1       584 1.25250E-04-6.06006E-05-2.76264E-05 2.60477E-05-9.70700E-19-2.52813E-18
 -1       585 1.09902E-04-3.48496E-05-3.21701E-05-1.00505E-06 1.21197E-18 6.73385E-19
 -1       586 3.12392E-05-1.34205E-05-6.97617E-06 1.38415E-05-1.53079E-18 5.16981E-18
 -1       587 8.43484E-05-4.75529E-05-1.54680E-05-4.19123E-05 4.11658E-18 1.52683E-18
 -1       588 1.02255E-04-2.36564E-05-3.37100E-05-2.45695E-06-3.24722E-18-1.85583E-18
 -1       589 4.33892E-05-2.30052E-05-8.21789E-06-3.38917E-05-1.62821E-18-8.68230E-18
 -1       590 1.36968E-04-1.74297E-05-5.18307E-05-1.08459E-05 7.03985E-18-4.09098E-18
 -1       591 7.20551E-05-4.01882E-06-2.91628E-05 1.31747E-06-1.46161E-20-5.81507E-18
 -1       592 1.33612E-04-8.53307E-06-5.42047E-05 2.56776E-06 8.37461E-18-1.81845E-18
 -1       593 1.36648E-04-5.87834E-05-3.35290E-05-1.09536E-05-1.76871E-19 4.86938E-19
 -1       594 1.40036E-04-2.01101E-05-5.19106E-05 1.02177E-05 7.47395E-18 3.42995E-19
 -1       595 5.96018E-05-3.31188E-05-1.09066E-05 4.06458E-05 1.85045E-18-6.90888E-18
 -1       596 1.43988E-04-4.02955E-05-4.47861E-05 7.17890E-06 4.43350E-18 1.29263E-18
 -1       597 1.11495E-04-5.63444E-05-2.35103E-05-3.43669E-05-1.54631E-18-3.55128E-18
 -1       598 8.27270E-05-4.43290E-05-1.60641E-05-4.21875E-05-2.29361E-18-6.03418E-18
 -1       599 2.45355E-05-9.97594E-06-5.58670E-06-6.14272E-06-4.71691E-20-9.62240E-18
 -1       600 2.94857E-05-1.34565E-05-6.25373E-06 1.93287E-05 1.46711E-18-9.16299E-18
 -1       601 9.82020E-05-5.23041E-05-1.94688E-05 3.99849E-05 7.80064E-19-4.30867E-18
 -1       602 1.29758E-04-5.94501E-05-3.01424E-05 2.38512E-05-8.19981E-19-2.23611E-18
 -1       603 1.44127E-04-5.22358E-05-3.96474E-05 2.86667E-06-2.63253E-18-1.12020E-19
 -1       604 1.43040E-04-2.95320E-05-4.91014E-05-1.08765E-05-5.71165E-18 4.14411E-19
 -1       605 1.40016E-04-1.24821E-05-5.51639E-05-6.05702E-06-8.17471E-18-9.26601E-19
 -1       606 1.37608E-04-9.39873E-06-5.55227E-05 2.60755E-06-8.92402E-18-2.54270E-18
 -1       607 1.44313E-04-4.61088E-05-4.24421E-05 4.61803E-06-3.05239E-18-5.14355E-18
 -1       608 1.39518E-04-5.82057E-05-3.49900E-05-1.14890E-05-6.97029E-19-3.32259E-18
 -1       609 1.16434E-04-5.93049E-05-2.43962E-05-3.18924E-05 2.82988E-18-4.43131E-19
 -1       610 1.06919E-04-2.70906E-05-3.42259E-05 3.97798E-06 3.82220E-18 9.44018E-19
 -1       611 1.41035E-04-5.59240E-05-3.67144E-05 7.22850E-06 1.00473E-18-5.41519E-18
 -1       612 1.24700E-04-1.08280E-05-4.93716E-05-5.19928E-06 7.07235E-18-1.91452E-18
 -1       613 8.95359E-05-1.50148E-05-3.19594E-05 6.44980E-07-2.02487E-18-4.22708E-18
 -1       614 7.62604E-05-3.87548E-05-1.57218E-05 3.82479E-05-3.76652E-18 4.18143E-19
 -1       615 3.05036E-05-1.31736E-05-6.74559E-06-1.20782E-05 1.33948E-18 6.64815E-18
 -1       616 6.13996E-05-3.35730E-05-1.14538E-05-3.79409E-05 3.78894E-18 3.16245E-18
 -1       617 9.52345E-05-2.85755E-05-2.85682E-05 1.48347E-08-1.11277E-18 1.65480E-18
 -1       618 1.30886E-04-1.47410E-05-5.03281E-05 1.02689E-05-7.25007E-18-3.85403E-18
 -1       619 4.12190E-05-2.12619E-05-7.94243E-06-2.81418E-05 2.79349E-18 5.50593E-18
 -1       620 7.48567E-05-8.66762E-06-2.83677E-05-5.01582E-06 8.15637E-19-5.02531E-18
 -1       621 7.05046E-05-5.69032E-06-2.77795E-05-2.42939E-06 5.35395E-19-5.43508E-18
 -1       622 8.95369E-05-1.83509E-05-3.05103E-05-4.44838E-06 1.92767E-18-3.45160E-18
 -1       623 9.69516E-05-2.30999E-05-3.16545E-05-2.32400E-06 2.36034E-18-2.26501E-18
 -1       624 1.03545E-04-2.84591E-05-3.21720E-05-1.64926E-06 2.34628E-18-8.95889E-19
 -1       625 5.22467E-05-1.92617E-05-1.36853E-05 2.39844E-05-2.65267E-18 1.68478E-18
 -1       626 1.06335E-04-3.27572E-05-3.15357E-05-3.21972E-06 1.45853E-18-5.26876E-19
 -1       627 4.23974E-05-1.26416E-05-1.22410E-05-2.02275E-05-1.21826E-18-8.07270E-18
 -1       628 1.04865E-04-3.27079E-05-3.09273E-05 5.71602E-06-8.15968E-19-1.69140E-18
 -1       629 1.09934E-04-3.84298E-05-3.06498E-05 5.53897E-06-1.65446E-19-9.17104E-19
 -1       630 1.16316E-04-4.38943E-05-3.10436E-05 2.40089E-06 3.08447E-19 5.68844E-20
 -1       631 1.22502E-04-4.68132E-05-3.24803E-05-3.80244E-06-1.08480E-19 8.92820E-19
 -1       632 1.25397E-04-4.28060E-05-3.54732E-05-1.17867E-05-1.01696E-18 1.38368E-18
 -1       633 1.22216E-04-3.01480E-05-3.97504E-05-1.53533E-05-3.61700E-18 1.74234E-18
 -1       634 1.16844E-04-1.69044E-05-4.31580E-05-7.84869E-06-5.32802E-18-2.10766E-20
 -1       635 1.21046E-04-2.78263E-05-4.02015E-05 1.59184E-05-3.34520E-18-4.97059E-18
 -1       636 1.25222E-04-4.13814E-05-3.60289E-05 1.40842E-05-1.18246E-18-5.17349E-18
 -1       637 1.23194E-04-4.72697E-05-3.25583E-05 5.68609E-06 4.52064E-19-5.18014E-18
 -1       638 1.17080E-04-4.56795E-05-3.06013E-05-2.02600E-06 1.34257E-18-4.26449E-18
 -1       639 1.10409E-04-4.09984E-05-2.97504E-05-6.80117E-06 9.58893E-19-3.74715E-18
 -1       640 1.04990E-04-3.61699E-05-2.94977E-05-9.04501E-06 6.81752E-19-2.49558E-18
 -1       641 1.01215E-04-3.24034E-05-2.94929E-05-9.63189E-06 1.00176E-18-2.00653E-18
 -1       642 9.88161E-05-2.98748E-05-2.95469E-05-9.28095E-06 3.20712E-19-1.30806E-18
 -1       643 9.73774E-05-2.83630E-05-2.95775E-05-8.44365E-06 4.23699E-20-4.69312E-19
 -1       644 9.65458E-05-2.75696E-05-2.95607E-05-7.39004E-06 4.70599E-19-5.37868E-19
 -1       645 9.60729E-05-2.72371E-05-2.95005E-05-6.28073E-06-8.62191E-20-8.36048E-19
 -1       646 9.58017E-05-2.71771E-05-2.94099E-05-5.21019E-06 2.45342E-19-1.71583E-18
 -1       647 9.56404E-05-2.72643E-05-2.93035E-05-4.23131E-06-6.03062E-19-1.81113E-18
 -1       648 9.55381E-05-2.74203E-05-2.91929E-05-3.37005E-06 4.64144E-19-1.54977E-18
 -1       649 9.54679E-05-2.75990E-05-2.90863E-05-2.63471E-06 7.12606E-19-1.65053E-18
 -1       650 9.54161E-05-2.77748E-05-2.89888E-05-2.02243E-06 1.48853E-19-2.03007E-18
 -1       651 9.53760E-05-2.79347E-05-2.89031E-05-1.52360E-06-3.66085E-19-2.24486E-18
 -1       652 9.53439E-05-2.80733E-05-2.88301E-05-1.12516E-06 3.44850E-20-7.84231E-19
 -1       653 9.53182E-05-2.81893E-05-2.87694E-05-8.12787E-07 5.03378E-19 1.01302E-19
 -1       654 9.52976E-05-2.82839E-05-2.87201E-05-5.72307E-07-7.21436E-19-2.14905E-19
 -1       655 9.52814E-05-2.83594E-05-2.86808E-05-3.90568E-07-6.20318E-19 1.51072E-18
 -1       656 9.52687E-05-2.84184E-05-2.86501E-05-2.55865E-07-7.60818E-20 2.09315E-18
 -1       657 9.52591E-05-2.84638E-05-2.86265E-05-1.58124E-07-6.12560E-19 1.60206E-18
 -1       658 9.52518E-05-2.84979E-05-2.86088E-05-8.89004E-08-5.53155E-19-4.92400E-19
 -1       659 9.52465E-05-2.85231E-05-2.85957E-05-4.12720E-08-1.76263E-19-2.59207E-18
 -1       660 9.52427E-05-2.85414E-05-2.85863E-05-9.68074E-09 1.74866E-19-1.88452E-18
 -1       661 9.52401E-05-2.85542E-05-2.85797E-05 1.02507E-08 1.06390E-18-9.84132E-20
 -1       662 9.52384E-05-2.85630E-05-2.85752E-05 2.19032E-08 2.83764E-19 8.87912E-19
 -1       663 9.52373E-05-2.85688E-05-2.85722E-05 2.78346E-08-1.84433E-20-2.54509E-19
 -1       664 9.52366E-05-2.85725E-05-2.85704E-05 2.99337E-08-1.82735E-19-2.31508E-18
 -1       665 9.52364E-05-2.85747E-05-2.85693E-05 2.95540E-08 4.93628E-20-7.36128E-19
 -1       666 9.52364E-05-2.85761E-05-2.85687E-05 2.76246E-08 6.30772E-19-1.57901E-18
 -1       667 9.52366E-05-2.85771E-05-2.85684E-05 2.47439E-08 6.53492E-19-3.60706E-18
 -1       668 9.52371E-05-2.85779E-05-2.85682E-05 2.12354E-08 1.52527E-18-3.25861E-18
 -1       669 4.11346E-05-1.12907E-05-1.23283E-05 2.02877E-07-4.49746E-19 4.47392E-18
 -1       670 1.28313E-04-5.92867E-05-2.95537E-05-1.44238E-05 2.49229E-18-3.14615E-18
 -1       671 9.52376E-05-2.85785E-05-2.85682E-05 1.85813E-08 3.52302E-19-1.50823E-18
 -1       672 1.14422E-04-4.09661E-05-3.14936E-05 5.89163E-07 9.69987E-20 5.69209E-19
 -1       673 1.16008E-04-3.05768E-05-3.67904E-05 1.43543E-05 2.64421E-18 1.65684E-18
 -1       674 1.11070E-04-2.09180E-05-3.88754E-05 8.65363E-06 4.25810E-18 1.64467E-19
 -1       675 1.09092E-04-1.77398E-05-3.93714E-05-3.14720E-06 4.48346E-18-9.78894E-19
 -1       676 1.13336E-04-2.49963E-05-3.79871E-05-1.28372E-05 3.00303E-18-2.01957E-18
 -1       677 1.17932E-04-3.53731E-05-3.54696E-05-1.46534E-05 1.12067E-18-2.36636E-18
 -1       678 1.19104E-04-4.19517E-05-3.31037E-05-9.99112E-06 3.20541E-19-2.46831E-18
 -1       679 1.16518E-04-4.30843E-05-3.14750E-05-3.37370E-06-3.23789E-19-2.79926E-18
 -1       680 1.12036E-04-4.06212E-05-3.06102E-05 2.15522E-06-5.25215E-19-2.13210E-18
 -1       681 1.07570E-04-3.70341E-05-3.02343E-05 5.61539E-06-4.39985E-19-2.07496E-18
 -1       682 1.03964E-04-3.37640E-05-3.00893E-05 7.34778E-06-8.24687E-19-1.28178E-18
 -1       683 1.01334E-04-3.12957E-05-3.00182E-05 7.85427E-06-8.65932E-19-7.33431E-19
 -1       684 9.95215E-05-2.96495E-05-2.99456E-05 7.59554E-06-1.46370E-19-1.13231E-18
 -1       685 9.82968E-05-2.86563E-05-2.98456E-05 6.90920E-06 2.64005E-19-3.25385E-19
 -1       686 9.74646E-05-2.81203E-05-2.97183E-05 6.02289E-06-1.36625E-20-4.06328E-19
 -1       687 9.68860E-05-2.78780E-05-2.95741E-05 5.08278E-06 3.70966E-19 1.40542E-19
 -1       688 9.64711E-05-2.78112E-05-2.94248E-05 4.17727E-06-9.46728E-19-3.07891E-19
 -1       689 9.61644E-05-2.78413E-05-2.92805E-05 3.35521E-06-4.52775E-21-3.14385E-19
 -1       690 9.59323E-05-2.79191E-05-2.91479E-05 2.63919E-06 8.60531E-19-7.52013E-19
 -1       691 9.57543E-05-2.80150E-05-2.90306E-05 2.03500E-06 9.83308E-19-4.77424E-19
 -1       692 9.56172E-05-2.81126E-05-2.89301E-05 1.53826E-06-1.37907E-19-1.94254E-18
 -1       693 9.55117E-05-2.82029E-05-2.88463E-05 1.13894E-06-3.68015E-19-2.44197E-18
 -1       694 9.54314E-05-2.82821E-05-2.87780E-05 8.24427E-07 2.32198E-19-1.31778E-18
 -1       695 9.53708E-05-2.83490E-05-2.87234E-05 5.81486E-07-8.09179E-19-5.59984E-19
 -1       696 9.53259E-05-2.84038E-05-2.86807E-05 3.97423E-07-4.98003E-19-5.04843E-20
 -1       697 9.52932E-05-2.84477E-05-2.86480E-05 2.60738E-07-8.69121E-19-6.82278E-19
 -1       698 9.52699E-05-2.84821E-05-2.86233E-05 1.61413E-07 5.74622E-19-1.44176E-18
 -1       699 9.52538E-05-2.85086E-05-2.86050E-05 9.09846E-08 7.91024E-19-1.58134E-20
 -1       700 9.52431E-05-2.85285E-05-2.85919E-05 4.24805E-08 1.82176E-19 1.16145E-18
 -1       701 9.52363E-05-2.85433E-05-2.85827E-05 1.02812E-08 1.31544E-19 2.00418E-18
 -1       702 9.52323E-05-2.85539E-05-2.85764E-05-1.00514E-08-5.34303E-19 8.01472E-19
 -1       703 9.52303E-05-2.85614E-05-2.85724E-05-2.19528E-08 5.53966E-20 4.85376E-19
 -1       704 9.52296E-05-2.85666E-05-2.85699E-05-2.80268E-08 7.39567E-19-4.78945E-19
 -1       705 9.52298E-05-2.85700E-05-2.85685E-05-3.01993E-08 7.51688E-19-2.09284E-19
 -1       706 9.52306E-05-2.85723E-05-2.85678E-05-2.98520E-08-7.33956E-19-1.14905E-18
 -1       707 9.52316E-05-2.85738E-05-2.85677E-05-2.79338E-08-1.11634E-18-2.48297E-18
 -1       708 9.52329E-05-2.85749E-05-2.85677E-05-2.50580E-08-2.16403E-18-2.06249E-18
 -1       709 9.52343E-05-2.85759E-05-2.85679E-05-2.15891E-08-1.30578E-18-5.41245E-19
 -1       710 9.52365E-05-2.85776E-05-2.85681E-05-1.88629E-08-1.22747E-18 5.48813E-20
 -1       711 8.60076E-05-4.26893E-05-1.82562E-05-3.60696E-05 4.23254E-18 2.83041E-19
 -1       712 9.52521E-05-2.85904E-05-2.85693E-05-3.09963E-09-1.79924E-19-1.51356E-18
 -1       713 9.52482E-05-2.85872E-05-2.85690E-05-1.41772E-08 2.63269E-20 1.40917E-19
 -1       714 9.52521E-05-2.85904E-05-2.85693E-05 3.19837E-09-2.92946E-19-2.44514E-18
 -1       715 9.52508E-05-2.85893E-05-2.85692E-05-9.09602E-09-8.08679E-19 5.78879E-19
 -1       716 9.52508E-05-2.85893E-05-2.85692E-05 9.09051E-09-7.03073E-19 5.31800E-19
 -1       717 9.52483E-05-2.85872E-05-2.85690E-05 1.41828E-08 1.10100E-18-2.30254E-18
 -1       718 9.52445E-05-2.85842E-05-2.85687E-05 1.77687E-08 8.23199E-19 9.66786E-19
 -1       719 1.10041E-04-3.71084E-05-3.12656E-05-2.57935E-06 5.45017E-19-1.38504E-19
 -1       720 9.83238E-05-2.30983E-05-3.22522E-05 1.32129E-06-2.28836E-18-2.59782E-18
 -1       721 1.25854E-04-1.97187E-05-4.59864E-05-1.28968E-05-5.72462E-18 7.31995E-19
 -1       722 1.31290E-04-2.87074E-05-4.44188E-05-1.48795E-05 3.81326E-18-4.33665E-18
 -1       723 1.19333E-04-3.93533E-05-3.43219E-05 1.21491E-05 7.27231E-19 2.22252E-18
 -1       724 1.18282E-04-4.26775E-05-3.24208E-05 6.11713E-06 1.35292E-19 1.50310E-18
 -1       725 1.01367E-04-2.79410E-05-3.14652E-05 4.17806E-06-1.40068E-18-2.15358E-18
 -1       726 1.34479E-04-4.76256E-05-3.74596E-05 7.56983E-06 1.07389E-18 2.04069E-18
 -1       727 1.23571E-04-1.46189E-05-4.72383E-05 9.40930E-06 6.35238E-18 6.57245E-19
 -1       728 8.17678E-05-1.33027E-05-2.93483E-05-5.63595E-06 1.30057E-18-4.15751E-18
 -1       729 8.01729E-05-1.21009E-05-2.91789E-05 5.38626E-06-4.71510E-19-4.72467E-18
 -1       730 8.76580E-05-4.29560E-05-1.88497E-05 3.73837E-05 2.92925E-18-4.20041E-18
 -1       731 7.09645E-05-3.11585E-05-1.66653E-05-3.55195E-05-2.96094E-18-5.90578E-18
 -1       732 1.18480E-04-5.72151E-05-2.61445E-05 2.64329E-05 1.76530E-18-1.53508E-18
 -1       733 1.29671E-04-2.94556E-05-4.32912E-05 1.49503E-05 4.54483E-18 2.11393E-18
 -1       734 1.09153E-04-5.45757E-05-2.32179E-05 3.03300E-05-3.08384E-18-1.30248E-18
 -1       735 1.02316E-04-4.95296E-05-2.23922E-05-3.30902E-05-3.12857E-18-3.31536E-18
 -1       736 1.25603E-04-5.71004E-05-2.93388E-05-1.65796E-05-1.91638E-18-1.58494E-19
 -1       737 3.75098E-05-7.87674E-06-1.22085E-05 6.45264E-06 8.62213E-19-8.23380E-18
 -1       738 1.10181E-04-5.50532E-05-2.34667E-05-2.96358E-05 4.51477E-18-4.25681E-19
 -1       739 1.32068E-04-5.85566E-05-3.15417E-05 9.23197E-06-4.53533E-19-5.45510E-18
 -1       740 5.58408E-05-2.05741E-05-1.46325E-05 2.91797E-05 2.68372E-18-6.81679E-18
 -1       741 1.34649E-04-5.77008E-05-3.31073E-05 7.24461E-06 1.87194E-19 6.40092E-19
 -1       742 1.37205E-04-4.25341E-05-4.09090E-05-1.15301E-05-2.76014E-18 1.39096E-18
 -1       743 1.25892E-04-1.00881E-05-5.02607E-05-2.09074E-06-7.54251E-18-1.14806E-18
 -1       744 1.33648E-04-3.39351E-05-4.31608E-05 1.54767E-05-3.25451E-18-4.96099E-18
 -1       745 1.36380E-04-5.56170E-05-3.48126E-05 4.58862E-07 8.78251E-20-4.72089E-18
 -1       746 1.37492E-04-4.77080E-05-3.87258E-05-7.54211E-06 9.53362E-19-5.65739E-18
 -1       747 8.81331E-05-1.72925E-05-3.03615E-05 4.76968E-06-1.12557E-18-3.99453E-18
 -1       748 6.99775E-05-5.28810E-06-2.77236E-05 1.09969E-06 1.33127E-19-5.56877E-18
 -1       749 5.24687E-05-1.73830E-05-1.46569E-05-2.02607E-05 1.52774E-18 3.67443E-18
 -1       750 1.15972E-04-1.55301E-05-4.34180E-05 6.78457E-06-5.05419E-18-2.66790E-18
 -1       751 6.63771E-05-2.81972E-05-1.60217E-05-3.09134E-05 3.56570E-18 1.84484E-18
 -1       752 9.52414E-05-2.85817E-05-2.85684E-05-1.88327E-08-6.01172E-19-2.16848E-18
 -1       753 6.77494E-05-2.76351E-05-1.69114E-05 2.93438E-05-3.43056E-18 1.15840E-18
 -1       754 9.52413E-05-2.85812E-05-2.85686E-05 2.00522E-08 9.61789E-19-1.62957E-18
 -1       755 1.20813E-04-1.85892E-05-4.42223E-05-1.25306E-05 5.21351E-18-2.66471E-18
 -1       756 9.52451E-05-2.85847E-05-2.85687E-05-1.71944E-08-8.71170E-19-1.67169E-18
 -1       757 7.36072E-05-7.73575E-06-2.82317E-05 4.10935E-06-1.23161E-19-5.17329E-18
 -1       758 1.29928E-04-5.21753E-05-3.34027E-05 7.93584E-07-5.36592E-19 1.25372E-18
 -1       759 9.63643E-05-2.58162E-05-3.02415E-05-6.44410E-06 1.38755E-18-2.45292E-18
 -1       760 1.30396E-04-4.91839E-05-3.48670E-05-6.46711E-06-5.09967E-19 1.90257E-18
 -1       761 5.34961E-05-1.34353E-05-1.69547E-05-7.52925E-06 3.65647E-19 3.96096E-18
 -1       762 1.08814E-04-4.12111E-05-2.89536E-05 1.14743E-05 8.76259E-19-1.32600E-18
 -1       763 1.19155E-04-4.95960E-05-2.97827E-05 8.66308E-06 1.09112E-18-9.82194E-20
 -1       764 1.30491E-04-5.30038E-05-3.34384E-05 1.59922E-06 4.48861E-19-4.21961E-18
 -1       765 1.20596E-04-5.17778E-05-2.94961E-05-7.71167E-06 1.80618E-18-2.58171E-18
 -1       766 1.10283E-04-4.47316E-05-2.80810E-05-1.23221E-05 1.64572E-18-1.81461E-18
 -1       767 1.02651E-04-3.77094E-05-2.78304E-05-1.33138E-05 1.46018E-18-1.42265E-18
 -1       768 9.78919E-05-3.24657E-05-2.80403E-05-1.25650E-05 8.18591E-19-1.82133E-18
 -1       769 9.52673E-05-2.90760E-05-2.83679E-05-1.12240E-05 9.83185E-19-1.66589E-18
 -1       770 9.40080E-05-2.71206E-05-2.86659E-05-9.74563E-06 4.56785E-19-1.45600E-18
 -1       771 9.35516E-05-2.61557E-05-2.88836E-05-8.30991E-06 5.74510E-19-1.55144E-18
 -1       772 9.35259E-05-2.58202E-05-2.90164E-05-6.97958E-06 9.34437E-20-8.55609E-19
 -1       773 9.37048E-05-2.58557E-05-2.90779E-05-5.77701E-06-4.52041E-20-6.54265E-19
 -1       774 9.39594E-05-2.60894E-05-2.90870E-05-4.71063E-06-3.47415E-19-5.99329E-19
 -1       775 9.42217E-05-2.64118E-05-2.90612E-05-3.78227E-06-2.25334E-19-7.41816E-19
 -1       776 9.44593E-05-2.67575E-05-2.90149E-05-2.98909E-06 2.68487E-19-9.96062E-19
 -1       777 9.46598E-05-2.70891E-05-2.89588E-05-2.32400E-06-6.23692E-19-1.17779E-18
 -1       778 9.48213E-05-2.73875E-05-2.89001E-05-1.77646E-06-3.31289E-19-1.97426E-18
 -1       779 9.49469E-05-2.76450E-05-2.88436E-05-1.33364E-06 8.13019E-19-1.95290E-18
 -1       780 9.50419E-05-2.78604E-05-2.87920E-05-9.81699E-07 9.94513E-19-8.25761E-19
 -1       781 9.51120E-05-2.80361E-05-2.87468E-05-7.06777E-07-3.28192E-19 4.14378E-19
 -1       782 9.51623E-05-2.81763E-05-2.87082E-05-4.95751E-07-4.79420E-19 2.73809E-19
 -1       783 9.51974E-05-2.82862E-05-2.86762E-05-3.36687E-07-1.04853E-18-1.65166E-19
 -1       784 9.52210E-05-2.83706E-05-2.86502E-05-2.19097E-07-1.05454E-18-1.71212E-18
 -1       785 9.52363E-05-2.84342E-05-2.86294E-05-1.34010E-07-1.45917E-18-1.13629E-18
 -1       786 9.52454E-05-2.84813E-05-2.86132E-05-7.39417E-08-1.46440E-18-9.61580E-19
 -1       787 9.52504E-05-2.85153E-05-2.86007E-05-3.27748E-08 2.54937E-19-6.16356E-19
 -1       788 9.52524E-05-2.85393E-05-2.85913E-05-5.61139E-09 1.15124E-18-1.36437E-18
 -1       789 9.52525E-05-2.85557E-05-2.85844E-05 1.13965E-08 1.98584E-19-1.33140E-18
 -1       790 9.52515E-05-2.85665E-05-2.85793E-05 2.12124E-08-7.23759E-19-1.52121E-18
 -1       791 9.52499E-05-2.85732E-05-2.85757E-05 2.60711E-08-1.03814E-18-2.21541E-18
 -1       792 9.52480E-05-2.85772E-05-2.85732E-05 2.76171E-08-4.24915E-19-2.37634E-18
 -1       793 9.52460E-05-2.85794E-05-2.85714E-05 2.70223E-08 1.22821E-18-1.62000E-18
 -1       794 9.52443E-05-2.85805E-05-2.85702E-05 2.50855E-08-1.86400E-19 4.84514E-19
 -1       795 9.52425E-05-2.85809E-05-2.85693E-05 2.28177E-08 6.23411E-19 2.25323E-19
 -1       796 4.82358E-05-8.03456E-06-1.69618E-05-7.14430E-06-2.25438E-19-7.05369E-18
 -1       797 8.61874E-05-3.71635E-05-2.08221E-05-2.91305E-05 3.18604E-18 7.35794E-20
 -1       798 1.24616E-04-3.27253E-05-3.96780E-05-1.62506E-05 1.95342E-18-3.38955E-18
 -1       799 1.25734E-04-4.45786E-05-3.48220E-05-1.03880E-05 7.58763E-19-3.62952E-18
 -1       800 1.22369E-04-4.88379E-05-3.14855E-05-1.46185E-06-2.26159E-19-3.16191E-18
 -1       801 1.14474E-04-4.50465E-05-2.97726E-05 5.07689E-06-5.91424E-19-2.97693E-18
 -1       802 1.07652E-04-3.98380E-05-2.90573E-05 8.59429E-06-4.55586E-19-3.01074E-18
 -1       803 1.02500E-04-3.50107E-05-2.89260E-05 9.88862E-06-1.34393E-18-2.28965E-18
 -1       804 9.90959E-05-3.14136E-05-2.90078E-05 9.83329E-06-1.66774E-18-1.35856E-18
 -1       805 9.70497E-05-2.90722E-05-2.91333E-05 9.12306E-06-7.43940E-19-4.86027E-19
 -1       806 9.59127E-05-2.77104E-05-2.92293E-05 8.11715E-06 1.82945E-19-7.33632E-19
 -1       807 9.53367E-05-2.70304E-05-2.92738E-05 7.00943E-06 3.51044E-19-6.62883E-19
 -1       808 9.50831E-05-2.67868E-05-2.92695E-05 5.90924E-06-6.86867E-19-3.99372E-19
 -1       809 9.50016E-05-2.68008E-05-2.92285E-05 4.87845E-06-3.71151E-19 3.08156E-19
 -1       810 9.50037E-05-2.69525E-05-2.91645E-05 3.95059E-06-4.10034E-19-7.16238E-19
 -1       811 9.50406E-05-2.71658E-05-2.90889E-05 3.14095E-06 8.16435E-19-1.36206E-18
 -1       812 9.50868E-05-2.73951E-05-2.90105E-05 2.45267E-06-2.10583E-19-3.15230E-19
 -1       813 9.51305E-05-2.76149E-05-2.89351E-05 1.88081E-06 9.23932E-19 4.64520E-19
 -1       814 9.51669E-05-2.78121E-05-2.88662E-05 1.41543E-06-4.07891E-19 1.56178E-18
 -1       815 9.51950E-05-2.79815E-05-2.88057E-05 1.04394E-06-2.99963E-19 1.33531E-18
 -1       816 9.52155E-05-2.81224E-05-2.87541E-05 7.52826E-07-6.70253E-20 4.68996E-19
 -1       817 9.52296E-05-2.82366E-05-2.87112E-05 5.28848E-07 3.85113E-19-2.62308E-19
 -1       818 9.52388E-05-2.83271E-05-2.86764E-05 3.59716E-07-9.73091E-19-1.34355E-18
 -1       819 9.52443E-05-2.83974E-05-2.86486E-05 2.34499E-07-2.41249E-19-3.87191E-19
 -1       820 9.52472E-05-2.84510E-05-2.86269E-05 1.43783E-07 4.55594E-20 4.17863E-19
 -1       821 9.52482E-05-2.84909E-05-2.86103E-05 7.96690E-08 6.99969E-20-5.22405E-20
 -1       822 9.52482E-05-2.85201E-05-2.85977E-05 3.56824E-08-5.54914E-19 2.08306E-19
 -1       823 9.52474E-05-2.85409E-05-2.85885E-05 6.62450E-09 3.47362E-19 8.32879E-19
 -1       824 9.52462E-05-2.85553E-05-2.85818E-05-1.15969E-08 1.17210E-18-1.36141E-18
 -1       825 9.52449E-05-2.85650E-05-2.85771E-05-2.21391E-08-2.96249E-20-2.73085E-18
 -1       826 9.52436E-05-2.85711E-05-2.85739E-05-2.73866E-08 3.50896E-19-1.93568E-18
 -1       827 9.52423E-05-2.85749E-05-2.85718E-05-2.90954E-08-1.44371E-19 4.37023E-19
 -1       828 9.52413E-05-2.85771E-05-2.85704E-05-2.85184E-08-3.55695E-19-5.33447E-19
 -1       829 9.52404E-05-2.85783E-05-2.85695E-05-2.65105E-08-2.21373E-18 5.93841E-19
 -1       830 9.52399E-05-2.85792E-05-2.85689E-05-2.36127E-08-1.00209E-18-1.25487E-18
 -1       831 9.52408E-05-2.85804E-05-2.85687E-05-2.12957E-08-1.39859E-18-1.57548E-18
 -1       832 9.52554E-05-2.85894E-05-2.85711E-05 6.99619E-09-2.76139E-19 5.55831E-19
 -1       833 9.52562E-05-2.85899E-05-2.85713E-05-5.98337E-12-2.37267E-18-3.31308E-18
 -1       834 1.02008E-04-2.98718E-05-3.09174E-05-4.93826E-06 1.41599E-18-1.54268E-18
 -1       835 5.47482E-05-1.45358E-05-1.69945E-05 1.10788E-05-2.10801E-18 1.47599E-18
 -1       836 7.07912E-05-9.18188E-06-2.63967E-05-6.52848E-06 3.78611E-19-5.20498E-18
 -1       837 1.03397E-04-4.76671E-05-2.37624E-05-2.64215E-05 3.90759E-18-8.95605E-20
 -1       838 1.11844E-04-4.92750E-05-2.67318E-05-2.04746E-05-2.74385E-18-1.29886E-18
 -1       839 9.12031E-05-3.76744E-05-2.27598E-05-2.85026E-05-2.97046E-18-3.56799E-18
 -1       840 9.23785E-05-4.23685E-05-2.12622E-05 3.07260E-05-3.86847E-18-2.00323E-19
 -1       841 9.52529E-05-2.85879E-05-2.85707E-05 1.33657E-08-1.40590E-19 5.44173E-19
 -1       842 9.52488E-05-2.85852E-05-2.85701E-05 1.84546E-08 7.12445E-19-1.33474E-18
 -1       843 1.30769E-04-5.16563E-05-3.39967E-05-4.39324E-06 5.91959E-19-4.27710E-18
 -1       844 1.01606E-04-3.33739E-05-2.92294E-05 1.06336E-05 1.80245E-19-1.96724E-18
 -1       845 6.30319E-05-1.91184E-05-1.85763E-05-2.46214E-05-1.81873E-18-5.70507E-18
 -1       846 1.19445E-04-5.41380E-05-2.80419E-05 1.44440E-05-1.46256E-18-3.53153E-18
 -1       847 1.17607E-04-4.58394E-05-3.07395E-05-3.12515E-06-9.83720E-19-1.59044E-19
 -1       848 5.50572E-05-1.18418E-05-1.82631E-05 1.54111E-05 1.57206E-18-6.50255E-18
 -1       849 7.91523E-05-3.16910E-05-2.01226E-05 3.04551E-05 2.79939E-18-4.32683E-18
 -1       850 1.23702E-04-5.53110E-05-2.93411E-05 1.37212E-05 1.68078E-18 9.03116E-20
 -1       851 1.04761E-04-4.75845E-05-2.43676E-05 2.70114E-05 2.70284E-18-2.27866E-18
 -1       852 6.94565E-05-2.37775E-05-1.93989E-05-2.29852E-05 1.82417E-18 9.42318E-19
 -1       853 6.73316E-05-6.66492E-06-2.59895E-05-1.00990E-06 2.37924E-19-5.23376E-18
 -1       854 1.06585E-04-3.55554E-05-3.04503E-05-5.92097E-06 4.49653E-19-1.06530E-18
 -1       855 8.79780E-05-2.06845E-05-2.88451E-05-9.04702E-06 8.95279E-19-3.35995E-18
 -1       856 6.30207E-05-1.92945E-05-1.85744E-05 1.84120E-05-2.78037E-18 4.02076E-19
 -1       857 9.52529E-05-2.85879E-05-2.85707E-05-1.33240E-08-6.91850E-20 3.52442E-19
 -1       858 7.65085E-05-1.29723E-05-2.72267E-05 8.51700E-06 1.10409E-19-4.88123E-18
 -1       859 9.52554E-05-2.85894E-05-2.85711E-05-6.97283E-09-4.60426E-19-6.81175E-19
 -1       860 7.84966E-05-1.44051E-05-2.74467E-05-9.30791E-06 5.70379E-19-4.25844E-18
 -1       861 1.11549E-04-4.08704E-05-3.02984E-05-5.47576E-06-3.63031E-19-8.40998E-19
 -1       862 9.66858E-05-2.70610E-05-2.98564E-05 8.24044E-06-5.38824E-19-2.66743E-18
 -1       863 1.08482E-04-4.80132E-05-2.58679E-05 2.03250E-05-2.17017E-18-1.48226E-18
 -1       864 9.52494E-05-2.85857E-05-2.85701E-05-1.76072E-08 4.30853E-19 5.20211E-19
 -1       865 8.60121E-05-1.91939E-05-2.86223E-05 9.13743E-06-3.06804E-19-3.81389E-18
 -1       866 1.11586E-04-4.99701E-05-2.63162E-05-1.88870E-05 3.02530E-18-4.82220E-19
 -1       867 7.04023E-05-2.00323E-05-2.14547E-05 2.12219E-05 1.87184E-18-5.17270E-18
 -1       868 9.52459E-05-2.85832E-05-2.85697E-05 2.09310E-08 3.77446E-19 6.21760E-19
 -1       869 1.06799E-04-4.38616E-05-2.68882E-05 1.85600E-05 1.82847E-18-1.55017E-18
 -1       870 9.70524E-05-3.76671E-05-2.54058E-05-1.94873E-05 1.96437E-18 4.59408E-19
 -1       871 9.22297E-05-3.12689E-05-2.61172E-05-1.62308E-05 4.07166E-19 4.27420E-19
 -1       872 9.01586E-05-2.74378E-05-2.68811E-05-1.32000E-05 3.65535E-19-6.46217E-19
 -1       873 8.96048E-05-2.53440E-05-2.75407E-05-1.07109E-05 6.03123E-19-6.53740E-19
 -1       874 8.98456E-05-2.44005E-05-2.80477E-05-8.74032E-06 2.32315E-19-7.97046E-19
 -1       875 9.04549E-05-2.41672E-05-2.84089E-05-7.15412E-06 1.00876E-18-1.36194E-18
 -1       876 9.11946E-05-2.43500E-05-2.86476E-05-5.84811E-06 1.87071E-19-9.15624E-19
 -1       877 9.19360E-05-2.47550E-05-2.87917E-05-4.75333E-06-2.06738E-19-5.99259E-19
 -1       878 9.26141E-05-2.52575E-05-2.88670E-05-3.82768E-06-7.52726E-19-4.42737E-19
 -1       879 9.32018E-05-2.57809E-05-2.88946E-05-3.04592E-06-2.25602E-19-7.91497E-19
 -1       880 9.36922E-05-2.62798E-05-2.88910E-05-2.39112E-06-6.55644E-19-2.07472E-18
 -1       881 9.40896E-05-2.67297E-05-2.88685E-05-1.84925E-06 2.67567E-19-4.79347E-19
 -1       882 9.44040E-05-2.71200E-05-2.88360E-05-1.40710E-06 2.86021E-19 1.73958E-19
 -1       883 9.46474E-05-2.74488E-05-2.87994E-05-1.05178E-06 9.46109E-19 8.84310E-19
 -1       884 9.48321E-05-2.77191E-05-2.87627E-05-7.70761E-07 1.37977E-19-8.40571E-19
 -1       885 9.49694E-05-2.79366E-05-2.87283E-05-5.52142E-07-7.78553E-19-1.41158E-18
 -1       886 9.50692E-05-2.81083E-05-2.86975E-05-3.84968E-07-8.41976E-19-1.83262E-18
 -1       887 9.51401E-05-2.82414E-05-2.86709E-05-2.59431E-07-1.05237E-18-2.12584E-18
 -1       888 9.51890E-05-2.83426E-05-2.86484E-05-1.66994E-07-5.21016E-19-1.27319E-18
 -1       889 9.52214E-05-2.84182E-05-2.86300E-05-1.00406E-07-5.58748E-19 2.72747E-19
 -1       890 9.52418E-05-2.84734E-05-2.86150E-05-5.36447E-08-1.05125E-18 2.31646E-20
 -1       891 9.52537E-05-2.85128E-05-2.86032E-05-2.18081E-08-5.29593E-19-1.52597E-18
 -1       892 9.52596E-05-2.85402E-05-2.85940E-05-9.86429E-10 1.43060E-19-2.61212E-18
 -1       893 9.52615E-05-2.85585E-05-2.85870E-05 1.18806E-08-1.98131E-19-2.46571E-18
 -1       894 9.52609E-05-2.85703E-05-2.85817E-05 1.91402E-08-7.45187E-19-1.20663E-18
 -1       895 9.52587E-05-2.85774E-05-2.85777E-05 2.25542E-08-1.41349E-19-1.41677E-18
 -1       896 9.52557E-05-2.85813E-05-2.85748E-05 2.34123E-08 1.58255E-18-3.48947E-19
 -1       897 9.52526E-05-2.85833E-05-2.85725E-05 2.26175E-08 1.60638E-18-1.03218E-18
 -1       898 6.95041E-05-8.19388E-06-2.62846E-05 4.84114E-06 2.32729E-19-5.34129E-18
 -1       899 1.23698E-04-5.21313E-05-3.06501E-05-6.47560E-06-1.60425E-18 5.16915E-19
 -1       900 1.06455E-04-4.26152E-05-2.73267E-05 1.45839E-05-9.59500E-19-1.63210E-18
 -1       901 9.94273E-05-3.57206E-05-2.73073E-05 1.41034E-05-1.56707E-18-8.78786E-20
 -1       902 9.55037E-05-3.09917E-05-2.76493E-05 1.25499E-05-1.79833E-18 3.46409E-19
 -1       903 9.34812E-05-2.80315E-05-2.80495E-05 1.08164E-05-1.33935E-18-1.57829E-19
 -1       904 9.26438E-05-2.63804E-05-2.83982E-05 9.17323E-06-2.01549E-19-8.36643E-19
 -1       905 9.24817E-05-2.56127E-05-2.86580E-05 7.69439E-06 5.98380E-19-7.92830E-19
 -1       906 9.26712E-05-2.54049E-05-2.88283E-05 6.38843E-06-3.93510E-19-8.73673E-19
 -1       907 9.30170E-05-2.55268E-05-2.89243E-05 5.24453E-06-6.30197E-19-7.91706E-19
 -1       908 9.34076E-05-2.58239E-05-2.89644E-05 4.25123E-06-9.90348E-20-1.31470E-18
 -1       909 9.37835E-05-2.61968E-05-2.89657E-05 3.39840E-06 8.89309E-19-1.84897E-18
 -1       910 9.41167E-05-2.65848E-05-2.89422E-05 2.67647E-06-4.30276E-19-3.96609E-19
 -1       911 9.43970E-05-2.69525E-05-2.89048E-05 2.07495E-06-4.09023E-19-5.29903E-19
 -1       912 9.46240E-05-2.72817E-05-2.88610E-05 1.58194E-06-4.82766E-19 1.39189E-18
 -1       913 9.48024E-05-2.75650E-05-2.88160E-05 1.18452E-06-1.76076E-19 1.15556E-18
 -1       914 9.49390E-05-2.78014E-05-2.87732E-05 8.69494E-07 1.13044E-18 1.05154E-18
 -1       915 9.50411E-05-2.79940E-05-2.87345E-05 6.23977E-07 9.80151E-19 2.00186E-19
 -1       916 9.51155E-05-2.81474E-05-2.87006E-05 4.35941E-07-8.21373E-20 4.71171E-19
 -1       917 9.51683E-05-2.82672E-05-2.86719E-05 2.94532E-07-4.29210E-19 7.06018E-19
 -1       918 9.52046E-05-2.83590E-05-2.86481E-05 1.90258E-07-4.63024E-19-1.29275E-19
 -1       919 9.52285E-05-2.84278E-05-2.86289E-05 1.15027E-07 1.81397E-18 5.48959E-19
 -1       920 9.52434E-05-2.84785E-05-2.86136E-05 6.21030E-08-9.55349E-19 3.57369E-19
 -1       921 9.52519E-05-2.85149E-05-2.86016E-05 2.59950E-08 6.55730E-20-6.21200E-20
 -1       922 9.52560E-05-2.85403E-05-2.85924E-05 2.31441E-09 1.44493E-18-8.02521E-19
 -1       923 9.52571E-05-2.85575E-05-2.85855E-05-1.23785E-08 1.61275E-18-1.77672E-19
 -1       924 9.52563E-05-2.85686E-05-2.85804E-05-2.07274E-08 4.98361E-20-1.65342E-18
 -1       925 9.52544E-05-2.85755E-05-2.85767E-05-2.47201E-08-9.36625E-19-1.87760E-18
 -1       926 9.52519E-05-2.85794E-05-2.85740E-05-2.58123E-08-5.95602E-19-1.72311E-19
 -1       927 9.52494E-05-2.85814E-05-2.85720E-05-2.50466E-08-1.70942E-18 6.88596E-19
 -1       928 9.52470E-05-2.85825E-05-2.85705E-05-2.31393E-08-4.13850E-20-1.04479E-18
 -1       929 9.52542E-05-2.85861E-05-2.85720E-05 1.76660E-08 6.77186E-19-1.52953E-18
 -1       930 9.52603E-05-2.85892E-05-2.85734E-05 3.83413E-09 4.25324E-19-2.27882E-19
 -1       931 1.01056E-04-3.22373E-05-2.95062E-05-9.19410E-06 3.86449E-19-2.04905E-18
 -1       932 1.01657E-04-3.98234E-05-2.64350E-05-1.94763E-05-1.93450E-18-2.05256E-18
 -1       933 6.11925E-05-1.42258E-05-2.00378E-05 1.72171E-06-1.07900E-18 9.49392E-19
 -1       934 8.31205E-05-3.20957E-05-2.17606E-05 2.53263E-05-3.54591E-18-9.96951E-20
 -1       935 9.52584E-05-2.85882E-05-2.85729E-05 1.12190E-08 1.53096E-18 1.12233E-18
 -1       936 9.51978E-05-3.25354E-05-2.68044E-05 1.68059E-05 1.25464E-18-2.78176E-18
 -1       937 8.85548E-05-3.29883E-05-2.36712E-05 2.45374E-05 2.13381E-18-3.49404E-18
 -1       938 6.12763E-05-1.19978E-05-2.10170E-05-1.37767E-05-8.91830E-19-5.59772E-18
 -1       939 5.84826E-05-7.88246E-06-2.15816E-05 2.75266E-06 3.71205E-19-5.83948E-18
 -1       940 7.96743E-05-2.55420E-05-2.31130E-05-2.28094E-05-1.66495E-18-4.18912E-18
 -1       941 9.52453E-05-2.85833E-05-2.85694E-05-2.01805E-08-8.47265E-19-1.62913E-18
 -1       942 6.63623E-05-1.76931E-05-2.07975E-05-1.28978E-05 7.60453E-19 1.46791E-18
 -1       943 6.44294E-05-1.60135E-05-2.06731E-05 8.42452E-06-2.08002E-18 4.18431E-19
 -1       944 8.24025E-05-2.07618E-05-2.64303E-05 1.42342E-05 5.97522E-19-4.15958E-18
 -1       945 9.52603E-05-2.85892E-05-2.85734E-05-3.81714E-09-1.41155E-18-2.95337E-18
 -1       946 9.52489E-05-2.85834E-05-2.85710E-05 2.20875E-08 1.78378E-19 5.63687E-19
 -1       947 1.13818E-04-4.61199E-05-2.89793E-05-1.12329E-05-1.55111E-18-6.52910E-19
 -1       948 7.30063E-05-1.46442E-05-2.49746E-05-1.28634E-05-1.51556E-19-4.58012E-18
 -1       949 9.52583E-05-2.85882E-05-2.85729E-05-1.11506E-08-1.53019E-18 1.98927E-19
 -1       950 7.06348E-05-1.28626E-05-2.47407E-05 1.12602E-05 6.07954E-19-5.03289E-18
 -1       951 9.52548E-05-2.85865E-05-2.85721E-05-1.66525E-08 3.08887E-19-1.38522E-19
 -1       952 8.40554E-05-2.91029E-05-2.34863E-05-2.04956E-05 1.24330E-18-2.06969E-19
 -1       953 8.26743E-05-2.43151E-05-2.50072E-05-1.43140E-05 3.16485E-19 5.26721E-19
 -1       954 8.39441E-05-2.28004E-05-2.62056E-05-1.07919E-05 1.92901E-19 7.23940E-19
 -1       955 8.54329E-05-2.22500E-05-2.70787E-05-8.35333E-06-3.14165E-20-2.57157E-19
 -1       956 8.69792E-05-2.23236E-05-2.77098E-05-6.59854E-06 1.68880E-19-1.19408E-18
 -1       957 8.84296E-05-2.27498E-05-2.81485E-05-5.28692E-06 4.63087E-19-1.89236E-18
 -1       958 8.97298E-05-2.33650E-05-2.84421E-05-4.25880E-06-1.18972E-19-1.84802E-18
 -1       959 9.08583E-05-2.40576E-05-2.86289E-05-3.42524E-06-2.70539E-19-1.08543E-18
 -1       960 9.18150E-05-2.47579E-05-2.87388E-05-2.73567E-06-5.27348E-19-8.66162E-19
 -1       961 9.26089E-05-2.54213E-05-2.87948E-05-2.16276E-06-6.84416E-19-1.36345E-18
 -1       962 9.32545E-05-2.60210E-05-2.88144E-05-1.68857E-06 6.37846E-19-9.37297E-20
 -1       963 9.37698E-05-2.65447E-05-2.88108E-05-1.29939E-06 5.82919E-19-3.51354E-19
 -1       964 9.41739E-05-2.69895E-05-2.87933E-05-9.83823E-07 5.09667E-19-1.90999E-19
 -1       965 9.44853E-05-2.73585E-05-2.87686E-05-7.31550E-07-7.15977E-20-9.08367E-19
 -1       966 9.47209E-05-2.76584E-05-2.87411E-05-5.32971E-07-4.07509E-20-7.15525E-19
 -1       967 9.48959E-05-2.78975E-05-2.87136E-05-3.79193E-07-1.21233E-18-6.13960E-19
 -1       968 9.50232E-05-2.80847E-05-2.86879E-05-2.62145E-07-1.41261E-18 3.74565E-19
 -1       969 9.51135E-05-2.82285E-05-2.86650E-05-1.74683E-07 5.57446E-20 7.00166E-19
 -1       970 9.51757E-05-2.83371E-05-2.86451E-05-1.10634E-07-4.11623E-19-3.26239E-19
 -1       971 9.52170E-05-2.84173E-05-2.86284E-05-6.47857E-08-9.26273E-19-2.06598E-18
 -1       972 9.52430E-05-2.84754E-05-2.86147E-05-3.28331E-08-2.48118E-18-1.34740E-18
 -1       973 9.52580E-05-2.85164E-05-2.86036E-05-1.12895E-08 3.59334E-19-2.09651E-18
 -1       974 9.52655E-05-2.85444E-05-2.85947E-05 2.61373E-09 1.09519E-19-2.15264E-18
 -1       975 9.52678E-05-2.85629E-05-2.85879E-05 1.10328E-08 6.79788E-19-1.36635E-18
 -1       976 9.52669E-05-2.85744E-05-2.85825E-05 1.56097E-08-9.93966E-19 4.98244E-20
 -1       977 9.52641E-05-2.85811E-05-2.85784E-05 1.75823E-08-4.66400E-19-2.82291E-20
 -1       978 9.52604E-05-2.85847E-05-2.85753E-05 1.78592E-08 6.85732E-19-2.56934E-18
 -1       979 8.97237E-05-2.93101E-05-2.58888E-05 1.56597E-05-1.66245E-18 1.07924E-18
 -1       980 9.09029E-05-2.89756E-05-2.65196E-05-1.69503E-05-7.77282E-19-2.85512E-18
 -1       981 9.29432E-05-3.46060E-05-2.49481E-05 1.96211E-05-2.31477E-18 1.54268E-18
 -1       982 8.84761E-05-2.45457E-05-2.73985E-05 9.79934E-06-5.41093E-19 3.84947E-19
 -1       983 8.90501E-05-2.38975E-05-2.79226E-05 7.86940E-06 3.15786E-19 3.09597E-19
 -1       984 8.98604E-05-2.38358E-05-2.82964E-05 6.35777E-06 1.17214E-19 2.13000E-19
 -1       985 9.07316E-05-2.41190E-05-2.85483E-05 5.14134E-06-4.68785E-19 1.90947E-19
 -1       986 9.15682E-05-2.45862E-05-2.87067E-05 4.14100E-06-1.95453E-19-8.79973E-19
 -1       987 9.23207E-05-2.51297E-05-2.87963E-05 3.30950E-06 9.67510E-19-1.46247E-18
 -1       988 9.29698E-05-2.56828E-05-2.88374E-05 2.61684E-06-1.79703E-19-6.71335E-19
 -1       989 9.35115E-05-2.62047E-05-2.88459E-05 2.04314E-06-7.56882E-19-9.11287E-19
 -1       990 9.39516E-05-2.66732E-05-2.88337E-05 1.57251E-06-1.43104E-18-6.09751E-19
 -1       991 9.43011E-05-2.70786E-05-2.88097E-05 1.19116E-06 1.14464E-19-2.99473E-19
 -1       992 9.45729E-05-2.74195E-05-2.87801E-05 8.86445E-07 7.92142E-19-4.18063E-19
 -1       993 9.47799E-05-2.76994E-05-2.87488E-05 6.46629E-07 1.14328E-18 6.28982E-19
 -1       994 9.49343E-05-2.79243E-05-2.87186E-05 4.60883E-07 3.19080E-19 1.53934E-18
 -1       995 9.50470E-05-2.81015E-05-2.86909E-05 3.19424E-07 6.95049E-19 2.19516E-19
 -1       996 9.51272E-05-2.82385E-05-2.86666E-05 2.13625E-07-3.12132E-19-2.83803E-19
 -1       997 9.51825E-05-2.83424E-05-2.86458E-05 1.36045E-07-2.92413E-19 3.02452E-19
 -1       998 9.52193E-05-2.84196E-05-2.86285E-05 8.04128E-08 3.55319E-19 1.74392E-18
 -1       999 9.52425E-05-2.84757E-05-2.86143E-05 4.15506E-08-5.48063E-21 9.20900E-19
 -1      1000 9.52559E-05-2.85155E-05-2.86030E-05 1.52647E-08 1.90039E-18 4.61888E-19
 -1      1001 9.52626E-05-2.85429E-05-2.85941E-05-1.77542E-09 1.64764E-18 5.36408E-19
 -1      1002 9.52647E-05-2.85611E-05-2.85873E-05-1.21653E-08 1.13903E-18 1.02385E-18
 -1      1003 9.52639E-05-2.85726E-05-2.85820E-05-1.78932E-08 7.02813E-19 5.69043E-19
 -1      1004 9.52614E-05-2.85795E-05-2.85780E-05-2.04366E-08-1.34261E-18 5.80859E-20
 -1      1005 9.52581E-05-2.85832E-05-2.85750E-05-2.08832E-08-1.93410E-18 1.04739E-19
 -1      1006 6.44267E-05-8.58647E-06-2.39145E-05-5.76114E-06-1.02736E-19-5.33929E-18
 -1      1007 7.57398E-05-2.34755E-05-2.23569E-05 1.79835E-05-1.77065E-18-8.44353E-20
 -1      1008 1.05457E-04-3.80369E-05-2.88786E-05-1.12150E-05-5.13633E-19-1.75377E-18
 -1      1009 7.75988E-05-2.20221E-05-2.38020E-05-1.40981E-05 8.77515E-19 1.80949E-19
 -1      1010 6.85118E-05-1.60854E-05-2.24452E-05-4.58123E-06-8.30084E-20 9.91962E-19
 -1      1011 8.84962E-05-2.61553E-05-2.67181E-05 1.23291E-05-1.04575E-18 5.46157E-19
 -1      1012 9.52603E-05-2.85862E-05-2.85746E-05-1.51108E-08-1.19224E-18-1.55941E-18
 -1      1013 9.52650E-05-2.85879E-05-2.85759E-05-2.51754E-12 1.08597E-18-6.55216E-19
 -1      1014 9.52544E-05-2.85849E-05-2.85726E-05-1.99431E-08 5.00857E-20-1.32180E-20
 -1      1015 9.52639E-05-2.85876E-05-2.85756E-05-7.81919E-09-1.11407E-19 1.61881E-19
 -1      1016 9.52639E-05-2.85875E-05-2.85756E-05 7.95887E-09 1.41267E-18 2.38799E-18
 -1      1017 6.85081E-05-1.57919E-05-2.25641E-05 8.28290E-07-3.52645E-19-2.76347E-19
 -1      1018 8.05387E-05-1.98219E-05-2.60181E-05-6.60010E-06 7.30702E-20 2.64524E-20
 -1      1019 8.33232E-05-2.04225E-05-2.69590E-05-5.00196E-06-1.68429E-19 4.37114E-19
 -1      1020 8.56305E-05-2.11947E-05-2.76158E-05-3.92486E-06 4.58663E-19 3.77332E-19
 -1      1021 8.75292E-05-2.20394E-05-2.80670E-05-3.12827E-06 2.47487E-19 1.29631E-19
 -1      1022 8.91179E-05-2.29229E-05-2.83695E-05-2.51260E-06 1.95277E-19 2.55109E-19
 -1      1023 9.04328E-05-2.37820E-05-2.85650E-05-2.01075E-06-5.40412E-19-2.44646E-19
 -1      1024 9.15198E-05-2.45932E-05-2.86832E-05-1.59950E-06-6.13576E-19 2.23198E-20
 -1      1025 9.24032E-05-2.53271E-05-2.87472E-05-1.26014E-06 2.68056E-19 6.72551E-20
 -1      1026 9.31120E-05-2.59717E-05-2.87746E-05-9.80000E-07 2.42348E-19-9.82409E-19
 -1      1027 9.36728E-05-2.65240E-05-2.87782E-05-7.50737E-07 3.21346E-20-1.27405E-18
 -1      1028 9.41098E-05-2.69866E-05-2.87672E-05-5.65475E-07 7.04577E-20-1.61971E-18
 -1      1029 9.44448E-05-2.73662E-05-2.87481E-05-4.17951E-07 6.20588E-19-7.57738E-19
 -1      1030 9.46972E-05-2.76718E-05-2.87253E-05-3.02326E-07-2.26393E-19 2.27917E-19
 -1      1031 9.48837E-05-2.79134E-05-2.87016E-05-2.13213E-07-2.48510E-19 9.72149E-19
 -1      1032 9.50187E-05-2.81010E-05-2.86791E-05-1.45744E-07-8.81721E-19 1.02423E-18
 -1      1033 9.51139E-05-2.82441E-05-2.86585E-05-9.56307E-08-1.68391E-18-1.33687E-18
 -1      1034 9.51790E-05-2.83512E-05-2.86405E-05-5.91853E-08-1.30580E-18-1.46948E-18
 -1      1035 9.52218E-05-2.84296E-05-2.86252E-05-3.33106E-08-1.41292E-18-1.13986E-18
 -1      1036 9.52483E-05-2.84858E-05-2.86125E-05-1.54607E-08-1.12577E-18-1.38045E-20
 -1      1037 9.52633E-05-2.85249E-05-2.86022E-05-3.58506E-09-2.75436E-19-1.55827E-18
 -1      1038 9.52703E-05-2.85513E-05-2.85939E-05 3.93492E-09 1.77016E-19-1.76673E-18
 -1      1039 9.52719E-05-2.85683E-05-2.85873E-05 8.35901E-09 9.93279E-19-2.00946E-18
 -1      1040 9.52702E-05-2.85785E-05-2.85821E-05 1.06051E-08 1.49590E-19-1.88797E-18
 -1      1041 9.52667E-05-2.85844E-05-2.85781E-05 1.14523E-08-5.40770E-19-1.34796E-18
 -1      1042 8.82705E-05-2.26501E-05-2.81234E-05 4.45285E-06 5.41491E-21 4.86203E-19
 -1      1043 8.67515E-05-2.21255E-05-2.76978E-05 5.62759E-06-2.33678E-19-7.59792E-20
 -1      1044 8.50499E-05-2.18646E-05-2.70851E-05 7.22841E-06-1.98368E-19-7.75809E-20
 -1      1045 8.96104E-05-2.33191E-05-2.84111E-05 3.53858E-06 8.06612E-19-1.29155E-19
 -1      1046 9.07645E-05-2.40406E-05-2.85966E-05 2.81192E-06 2.26072E-19 8.18675E-19
 -1      1047 9.17426E-05-2.47585E-05-2.87080E-05 2.22165E-06 3.07331E-19 8.18142E-19
 -1      1048 9.25531E-05-2.54310E-05-2.87670E-05 1.74024E-06-7.61857E-19 4.63275E-19
 -1      1049 9.32123E-05-2.60353E-05-2.87905E-05 1.34758E-06-1.10638E-18-7.00651E-19
 -1      1050 9.37391E-05-2.65611E-05-2.87908E-05 1.02931E-06-5.01253E-19-2.44970E-18
 -1      1051 9.41527E-05-2.70067E-05-2.87771E-05 7.73964E-07-6.06846E-19-1.47930E-18
 -1      1052 9.44717E-05-2.73755E-05-2.87557E-05 5.71684E-07-1.29098E-19-2.55202E-19
 -1      1053 9.47132E-05-2.76745E-05-2.87310E-05 4.13701E-07 5.48987E-19-4.79384E-20
 -1      1054 9.48924E-05-2.79122E-05-2.87059E-05 2.92204E-07 9.97213E-19-1.34671E-18
 -1      1055 9.50226E-05-2.80978E-05-2.86821E-05 2.00311E-07-1.13118E-19-3.36497E-19
 -1      1056 9.51148E-05-2.82400E-05-2.86607E-05 1.32059E-07-1.88866E-19-7.47029E-19
 -1      1057 9.51782E-05-2.83468E-05-2.86420E-05 8.23788E-08-6.94452E-20-9.47148E-19
 -1      1058 9.52200E-05-2.84255E-05-2.86262E-05 4.70455E-08-4.59734E-19 8.34144E-19
 -1      1059 9.52461E-05-2.84821E-05-2.86132E-05 2.26009E-08 1.61212E-18 1.27899E-18
 -1      1060 9.52609E-05-2.85217E-05-2.86025E-05 6.26740E-09 7.82213E-19 1.11835E-18
 -1      1061 9.52681E-05-2.85486E-05-2.85941E-05-4.14441E-09 2.77881E-19 2.60404E-18
 -1      1062 9.52700E-05-2.85661E-05-2.85874E-05-1.03219E-08 1.31766E-18 2.25035E-18
 -1      1063 9.52687E-05-2.85769E-05-2.85822E-05-1.35818E-08 7.21598E-20 2.17469E-18
 -1      1064 9.52655E-05-2.85830E-05-2.85782E-05-1.48642E-08-4.51447E-19-1.80321E-19
 -1      1065 7.65748E-05-1.95343E-05-2.44482E-05-9.40651E-06 2.23763E-19 2.04961E-19
 -1      1066 7.85893E-05-2.17534E-05-2.43508E-05 1.26397E-05-8.47238E-19 4.58422E-19
 -1      1067 7.20842E-05-1.78656E-05-2.32081E-05 7.91062E-06-4.33120E-19 6.80468E-19
 -1      1068 8.33117E-05-2.20806E-05-2.62447E-05 9.41890E-06-6.28569E-19 2.86814E-19
 -1      1069 9.52688E-05-2.85850E-05-2.85788E-05-4.02583E-09 5.33300E-19 5.38935E-21
 -1      1070 7.45579E-05-1.72489E-05-2.45608E-05-2.42819E-06 3.66244E-20 5.09106E-19
 -1      1071 9.52689E-05-2.85850E-05-2.85788E-05 3.77831E-09 1.66628E-18 1.36115E-18
 -1      1072 7.90582E-05-1.94756E-05-2.55344E-05 6.71736E-06-4.41691E-19-1.06873E-18
 -1      1073 8.32044E-05-1.99723E-05-2.71018E-05-1.59627E-06 1.08610E-19-2.15239E-19
 -1      1074 8.56380E-05-2.09948E-05-2.77057E-05-1.28812E-06-1.64083E-19-9.63941E-19
 -1      1075 8.75398E-05-2.19449E-05-2.81108E-05-1.03208E-06-2.48603E-19-2.36469E-18
 -1      1076 8.91918E-05-2.29477E-05-2.83905E-05-8.26861E-07-1.80568E-19-2.05331E-18
 -1      1077 9.05318E-05-2.38731E-05-2.85685E-05-6.75864E-07-5.87258E-20-1.31344E-18
 -1      1078 9.16191E-05-2.47097E-05-2.86758E-05-5.43351E-07 3.02222E-19-1.45006E-18
 -1      1079 9.24959E-05-2.54506E-05-2.87340E-05-4.30034E-07 3.41999E-20-1.60213E-18
 -1      1080 9.31949E-05-2.60915E-05-2.87587E-05-3.34821E-07 5.86470E-19-2.18456E-18
 -1      1081 9.37445E-05-2.66339E-05-2.87618E-05-2.56162E-07 5.66888E-19-1.48129E-18
 -1      1082 9.41702E-05-2.70835E-05-2.87515E-05-1.92296E-07 4.38631E-19-1.34699E-18
 -1      1083 9.44946E-05-2.74491E-05-2.87338E-05-1.41360E-07 3.57191E-19-2.31012E-18
 -1      1084 9.47374E-05-2.77410E-05-2.87127E-05-1.01470E-07-3.43300E-19-1.39728E-18
 -1      1085 9.49157E-05-2.79700E-05-2.86910E-05-7.08081E-08-1.29542E-18-1.57506E-18
 -1      1086 9.50436E-05-2.81464E-05-2.86702E-05-4.76952E-08-1.65562E-18-1.12519E-18
 -1      1087 9.51330E-05-2.82798E-05-2.86513E-05-3.06310E-08-7.04169E-19-1.71266E-18
 -1      1088 9.51933E-05-2.83787E-05-2.86348E-05-1.83182E-08-4.38741E-19-1.46589E-18
 -1      1089 9.52322E-05-2.84505E-05-2.86207E-05-9.66456E-09-1.01069E-18-2.19404E-18
 -1      1090 9.52557E-05-2.85013E-05-2.86090E-05-3.77274E-09-2.14793E-19-1.08407E-18
 -1      1091 9.52683E-05-2.85361E-05-2.85995E-05 7.96055E-11 1.79565E-18 9.26089E-19
 -1      1092 9.52735E-05-2.85592E-05-2.85918E-05 2.46155E-09-1.09605E-20 1.76668E-18
 -1      1093 9.52736E-05-2.85737E-05-2.85857E-05 3.78859E-09-2.03547E-19 3.59529E-19
 -1      1094 9.52717E-05-2.85804E-05-2.85819E-05 3.93608E-09 1.71451E-19 5.43688E-19
 -1      1095 8.92247E-05-2.30064E-05-2.83796E-05 1.86866E-06-9.24461E-20 3.20752E-19
 -1      1096 8.77134E-05-2.21345E-05-2.81032E-05 2.36315E-06 2.67627E-19 5.10610E-19
 -1      1097 8.36559E-05-2.04684E-05-2.70700E-05 3.93529E-06-6.03381E-19-1.22204E-18
 -1      1098 9.05253E-05-2.38756E-05-2.85638E-05 1.47262E-06 5.87814E-19 7.29639E-20
 -1      1099 9.15950E-05-2.46845E-05-2.86756E-05 1.15363E-06 3.77509E-19 7.56017E-19
 -1      1100 9.24646E-05-2.54119E-05-2.87366E-05 8.95622E-07-1.02791E-19-9.31898E-20
 -1      1101 9.31623E-05-2.60481E-05-2.87630E-05 6.87543E-07 2.08521E-20-8.37482E-19
 -1      1102 9.37139E-05-2.65909E-05-2.87668E-05 5.20797E-07-5.05123E-19-1.53931E-18
 -1      1103 9.41432E-05-2.70439E-05-2.87567E-05 3.88411E-07 1.27111E-19-3.00939E-18
 -1      1104 9.44718E-05-2.74144E-05-2.87388E-05 2.84517E-07 2.11663E-19-2.88736E-18
 -1      1105 9.47188E-05-2.77117E-05-2.87173E-05 2.04064E-07 9.29082E-19-2.28109E-18
 -1      1106 9.49009E-05-2.79458E-05-2.86950E-05 1.42682E-07 7.02456E-20-1.98461E-18
 -1      1107 9.50321E-05-2.81270E-05-2.86736E-05 9.66100E-08-6.73695E-19-1.27744E-18
 -1      1108 9.51243E-05-2.82645E-05-2.86541E-05 6.26535E-08-5.77288E-19-3.37436E-20
 -1      1109 9.51869E-05-2.83670E-05-2.86371E-05 3.81375E-08-2.18396E-18 2.35112E-19
 -1      1110 9.52277E-05-2.84417E-05-2.86226E-05 2.08586E-08-1.45413E-19 3.68463E-19
 -1      1111 9.52526E-05-2.84948E-05-2.86105E-05 9.03204E-09 1.29335E-18 7.98165E-19
 -1      1112 9.52662E-05-2.85315E-05-2.86006E-05 1.23563E-09 1.03020E-18-1.58452E-19
 -1      1113 9.52722E-05-2.85560E-05-2.85927E-05-3.64788E-09 8.35053E-19-2.16934E-18
 -1      1114 9.52732E-05-2.85717E-05-2.85864E-05-6.52802E-09-4.13275E-20-1.00015E-18
 -1      1115 9.52706E-05-2.85807E-05-2.85814E-05-7.90027E-09 8.27447E-19 1.28705E-18
 -1      1116 8.13016E-05-1.97225E-05-2.63893E-05 5.19101E-06-5.46987E-19-9.73690E-19
 -1      1117 8.58720E-05-2.12760E-05-2.76853E-05 3.04570E-06-1.16550E-18-2.54804E-19
 -1      1118 8.00733E-05-1.88509E-05-2.62282E-05-1.98541E-06-3.03280E-20 7.74948E-19
 -1      1119 7.50027E-05-1.78888E-05-2.44708E-05 4.52293E-06 2.10120E-19-1.70316E-20
 -1      1120 9.52721E-05-2.85808E-05-2.85820E-05-2.00117E-09 4.49887E-19-1.92477E-19
 -1      1121 8.26810E-05-1.97306E-05-2.69897E-05 1.20057E-06-5.39276E-19-6.65365E-19
 -1      1122 8.66011E-05-2.14934E-05-2.79139E-05 9.61243E-07-7.25539E-19-1.58453E-18
 -1      1123 8.48823E-05-2.06407E-05-2.75286E-05 1.08174E-06-1.18280E-18-1.69078E-18
 -1      1124 1.25685E-04 2.86741E-10-4.54366E-05-4.01811E-05-4.55704E-19 1.57476E-17
 -1      1125 9.73006E-05 9.04715E-11-4.05867E-05-1.93766E-05-2.64698E-19 2.42378E-18
 -1      1126 9.00736E-05 5.20466E-11-3.81391E-05-1.11523E-05-1.79042E-19-3.37382E-18
 -1      1127 8.49194E-05 3.53457E-11-3.61232E-05-6.21469E-06-1.17843E-19-6.15827E-18
 -1      1128 8.04907E-05 2.34923E-11-3.43505E-05-2.94352E-06-8.65032E-20-7.58245E-18
 -1      1129 7.67058E-05 1.37039E-11-3.28390E-05-9.66574E-07-5.42101E-20-8.30944E-18
 -1      1130 7.37341E-05 5.74109E-12-3.16573E-05-5.25069E-08-3.31931E-20-8.68341E-18
 -1      1131 7.18265E-05 5.37136E-13-3.09024E-05 7.85383E-08-4.23516E-22-8.84383E-18
 -1      1132 7.12329E-05-9.76844E-13-3.06662E-05-1.97896E-07 1.35658E-20-8.81564E-18
 -1      1133 7.20160E-05 1.47432E-12-3.09714E-05-4.16550E-07 3.36696E-20-8.63493E-18
 -1      1134 7.40575E-05 7.34896E-12-3.17750E-05-1.28669E-07 4.75397E-20-8.26534E-18
 -1      1135 7.70780E-05 1.54868E-11-3.29719E-05 9.98549E-07 7.51742E-20-7.63556E-18
 -1      1136 8.08071E-05 2.52366E-11-3.44637E-05 3.19113E-06 1.07785E-19-6.61087E-18
 -1      1137 8.51044E-05 3.67486E-11-3.61908E-05 6.65228E-06 1.47384E-19-4.84493E-18
 -1      1138 9.00652E-05 5.27806E-11-3.81549E-05 1.17042E-05 1.99265E-19-1.67628E-18
 -1      1139 9.67850E-05 8.53927E-11-4.05811E-05 1.95453E-05 2.35263E-19 4.60572E-18
 -1      1140 1.15589E-04 1.90743E-10-4.41871E-05 3.46137E-05 4.94879E-19 1.76029E-17
 -1      1141 1.40617E-04-2.86740E-05-4.40513E-05-2.53694E-05-1.90572E-18 2.42658E-17
 -1      1142 1.12903E-04-3.35174E-05-3.63004E-05-9.63434E-08-6.60950E-19 1.97931E-17
 -1      1143 1.10066E-04-3.30066E-05-3.37790E-05 5.74646E-07-2.53488E-19 1.33450E-17
 -1      1144 1.11483E-04-3.35244E-05-3.35180E-05 3.76248E-07-1.90630E-19 9.08697E-18
 -1      1145 1.13528E-04-3.40941E-05-3.39364E-05 2.48401E-07-1.17197E-19 6.15687E-18
 -1      1146 1.14815E-04-3.44247E-05-3.42138E-05 1.08976E-07-7.52834E-20 4.43215E-18
 -1      1147 1.14072E-04-3.41611E-05-3.39043E-05-9.27002E-08-1.15448E-19 2.68630E-18
 -1      1148 1.10294E-04-3.30138E-05-3.27611E-05-3.55132E-07-9.26575E-20 1.48199E-18
 -1      1149 1.03329E-04-3.09509E-05-3.08118E-05-6.01017E-07 5.30587E-20 5.49301E-19
 -1      1150 9.45583E-05-2.83911E-05-2.84784E-05-6.83510E-07-7.83456E-20-9.49524E-19
 -1      1151 8.69387E-05-2.61931E-05-2.65251E-05-4.79221E-07-1.00036E-19-3.22375E-18
 -1      1152 8.37714E-05-2.52884E-05-2.57394E-05-2.59211E-08 7.70072E-20-4.28583E-18
 -1      1153 8.66844E-05-2.61271E-05-2.64939E-05 4.51684E-07 1.35830E-19-5.65744E-18
 -1      1154 9.44826E-05-2.83783E-05-2.85145E-05 7.09840E-07 5.90392E-20-4.79431E-18
 -1      1155 1.03985E-04-3.11478E-05-3.10481E-05 6.75425E-07-7.04559E-20-4.50082E-18
 -1      1156 1.12023E-04-3.35188E-05-3.32889E-05 4.54625E-07-2.16596E-19-4.15634E-18
 -1      1157 1.16875E-04-3.49720E-05-3.47341E-05 2.01138E-07-3.68717E-19-5.41032E-18
 -1      1158 1.18402E-04-3.54489E-05-3.52747E-05 1.06623E-08 1.60675E-19-5.98820E-18
 -1      1159 1.17396E-04-3.51726E-05-3.50772E-05-9.43795E-08 1.14813E-19-5.13458E-18
 -1      1160 1.14886E-04-3.44433E-05-3.44097E-05-1.32231E-07-1.04652E-19-5.54142E-18
 -1      1161 1.11740E-04-3.35175E-05-3.35210E-05-1.30357E-07 3.95223E-20-5.52938E-18
 -1      1162 1.08539E-04-3.25693E-05-3.25900E-05-1.10494E-07-1.71018E-19-4.87441E-18
 -1      1163 1.05610E-04-3.16976E-05-3.17231E-05-8.57537E-08-4.45280E-19-4.78490E-18
 -1      1164 1.03100E-04-3.09473E-05-3.09714E-05-6.25819E-08-1.36855E-19-5.98773E-18
 -1      1165 1.01041E-04-3.03300E-05-3.03501E-05-4.34096E-08 2.63552E-19-4.08805E-18
 -1      1166 9.94073E-05-2.98387E-05-2.98544E-05-2.86291E-08 7.50782E-20-2.17809E-18
 -1      1167 9.81461E-05-2.94584E-05-2.94701E-05-1.77655E-08-1.09982E-19-1.62615E-18
 -1      1168 9.71955E-05-2.91710E-05-2.91794E-05-1.00784E-08 2.71936E-19-2.90063E-18
 -1      1169 9.64954E-05-2.89588E-05-2.89646E-05-4.83126E-09-3.76437E-20-4.21030E-18
 -1      1170 9.59924E-05-2.88059E-05-2.88098E-05-1.39193E-09 6.51403E-20-2.98622E-18
 -1      1171 9.56407E-05-2.86986E-05-2.87011E-05 7.45576E-10-1.26567E-19-3.49500E-18
 -1      1172 9.54029E-05-2.86258E-05-2.86273E-05 1.97011E-09-1.03386E-19-5.28986E-18
 -1      1173 9.52491E-05-2.85784E-05-2.85792E-05 2.57256E-09-3.24871E-20-7.03504E-18
 -1      1174 9.51557E-05-2.85495E-05-2.85498E-05 2.76595E-09 4.53520E-19-7.09461E-18
 -1      1175 9.51048E-05-2.85334E-05-2.85335E-05 2.70327E-09-4.76113E-20-7.33326E-18
 -1      1176 9.50828E-05-2.85262E-05-2.85261E-05 2.49210E-09-8.62570E-20-7.24070E-18
 -1      1177 9.50796E-05-2.85248E-05-2.85246E-05 2.20628E-09 8.27736E-21-7.32442E-18
 -1      1178 9.50881E-05-2.85271E-05-2.85268E-05 1.89488E-09 2.06432E-19-4.96844E-18
 -1      1179 9.51032E-05-2.85313E-05-2.85311E-05 1.58915E-09 2.55320E-20-3.06792E-18
 -1      1180 9.51214E-05-2.85366E-05-2.85364E-05 1.30773E-09-1.36259E-19-2.12977E-18
 -1      1181 9.51405E-05-2.85422E-05-2.85420E-05 1.06051E-09-2.77772E-19-4.14186E-18
 -1      1182 9.51590E-05-2.85477E-05-2.85475E-05 8.51496E-10-6.46306E-19-7.77332E-18
 -1      1183 9.51761E-05-2.85528E-05-2.85527E-05 6.80701E-10 3.09942E-19-9.02186E-18
 -1      1184 9.51916E-05-2.85574E-05-2.85573E-05 5.45230E-10 4.89259E-20-4.44952E-18
 -1      1185 9.52051E-05-2.85614E-05-2.85613E-05 4.39415E-10-3.27487E-19-2.29584E-18
 -1      1186 9.52165E-05-2.85649E-05-2.85648E-05 3.53472E-10 3.57031E-19-8.26040E-19
 -1      1187 9.52259E-05-2.85677E-05-2.85675E-05 2.69282E-10-7.31734E-20 1.33080E-18
 -1      1188 9.52328E-05-2.85698E-05-2.85696E-05 1.47649E-10 2.12045E-19 2.67621E-18
 -1      1189 9.52368E-05-2.85709E-05-2.85708E-05-8.96265E-11-1.48871E-19 3.56794E-18
 -1      1190 9.52376E-05-2.85713E-05-2.85715E-05-1.75378E-10 3.55253E-19 1.37034E-18
 -1      1191 1.41006E-04-4.03553E-05-4.23918E-05 1.21214E-05-3.02153E-19 2.83553E-17
 -1      1192 1.11734E-04-3.27280E-05-3.59331E-05 5.56058E-07 1.94712E-19 2.24571E-17
 -1      1193 1.09483E-04-3.26669E-05-3.35348E-05-3.86277E-08 1.87088E-19 1.67712E-17
 -1      1194 1.10435E-04-3.31067E-05-3.32194E-05-1.41672E-07 1.34940E-19 1.27683E-17
 -1      1195 1.12035E-04-3.35889E-05-3.35072E-05-1.91682E-07 1.05309E-19 9.76444E-18
 -1      1196 1.12882E-04-3.38224E-05-3.36500E-05-1.98327E-07 1.29169E-19 7.86612E-18
 -1      1197 1.11808E-04-3.35010E-05-3.32412E-05-1.34814E-07 1.31426E-19 6.58119E-18
 -1      1198 1.07974E-04-3.23867E-05-3.20751E-05 2.65049E-08-4.16667E-20 6.18578E-18
 -1      1199 1.01364E-04-3.04626E-05-3.02097E-05 2.67297E-07-1.27655E-19 5.81710E-18
 -1      1200 9.33046E-05-2.80899E-05-2.80530E-05 4.91174E-07-1.98887E-20 4.92518E-18
 -1      1201 8.64285E-05-2.60167E-05-2.62943E-05 5.56888E-07 1.68255E-19 3.25674E-18
 -1      1202 8.36000E-05-2.51036E-05-2.56183E-05 3.83396E-07 1.26949E-19 1.81022E-18
 -1      1203 8.62274E-05-2.58248E-05-2.63378E-05 4.11576E-08 7.61800E-20 2.33887E-19
 -1      1204 9.33019E-05-2.79250E-05-2.82048E-05-2.90834E-07-1.62271E-19 3.61048E-20
 -1      1205 1.02073E-04-3.05793E-05-3.05562E-05-4.65087E-07 1.49083E-19-6.87579E-19
 -1      1206 1.09712E-04-3.29059E-05-3.26755E-05-4.56610E-07-1.39860E-19-8.58997E-19
 -1      1207 1.14582E-04-3.43886E-05-3.40982E-05-3.34615E-07-7.63455E-20-7.83823E-19
 -1      1208 1.16424E-04-3.49458E-05-3.47015E-05-1.84739E-07 3.36649E-19-1.85871E-18
 -1      1209 1.15857E-04-3.47710E-05-3.46132E-05-6.08860E-08 8.63180E-20-4.35587E-18
 -1      1210 1.13781E-04-3.41415E-05-3.40641E-05 1.96641E-08 1.41881E-19-4.96504E-18
 -1      1211 1.10994E-04-3.33009E-05-3.32801E-05 6.15792E-08-8.54746E-20-3.31439E-18
 -1      1212 1.08062E-04-3.24191E-05-3.24308E-05 7.65996E-08-1.79350E-19-1.07173E-18
 -1      1213 1.05319E-04-3.15960E-05-3.16227E-05 7.58351E-08 1.71102E-20-1.09678E-18
 -1      1214 1.02930E-04-3.08796E-05-3.09106E-05 6.72919E-08-9.79531E-20-3.56544E-18
 -1      1215 1.00947E-04-3.02852E-05-3.03148E-05 5.59196E-08-1.33602E-19-2.14565E-18
 -1      1216 9.93591E-05-2.98092E-05-2.98350E-05 4.44258E-08-8.64073E-20-1.90558E-18
 -1      1217 9.81236E-05-2.94388E-05-2.94600E-05 3.40980E-08-2.47399E-19-1.21135E-18
 -1      1218 9.71869E-05-2.91579E-05-2.91746E-05 2.54104E-08-2.17390E-19-7.58839E-19
 -1      1219 9.64938E-05-2.89499E-05-2.89628E-05 1.84121E-08 1.17706E-19-2.41563E-18
 -1      1220 9.59938E-05-2.87997E-05-2.88094E-05 1.29525E-08-4.04464E-20-3.83942E-18
 -1      1221 9.56431E-05-2.86944E-05-2.87014E-05 8.80501E-09-7.90028E-20-2.26473E-18
 -1      1222 9.54054E-05-2.86228E-05-2.86279E-05 5.73017E-09 1.56117E-19-2.51939E-18
 -1      1223 9.52512E-05-2.85764E-05-2.85799E-05 3.50601E-09-2.54546E-19-2.09240E-18
 -1      1224 9.51574E-05-2.85480E-05-2.85504E-05 1.94003E-09 9.16339E-20-1.87504E-18
 -1      1225 9.51060E-05-2.85325E-05-2.85339E-05 8.72195E-10-1.27737E-19-1.73633E-18
 -1      1226 9.50836E-05-2.85256E-05-2.85265E-05 1.73324E-10-3.51571E-19-1.48185E-18
 -1      1227 9.50802E-05-2.85244E-05-2.85249E-05-2.58462E-10 3.43139E-19-4.45449E-18
 -1      1228 9.50885E-05-2.85268E-05-2.85270E-05-5.01918E-10 4.11016E-19-6.00302E-18
 -1      1229 9.51034E-05-2.85312E-05-2.85312E-05-6.16821E-10 3.60657E-20-4.91902E-18
 -1      1230 9.51215E-05-2.85366E-05-2.85365E-05-6.47764E-10-3.46456E-19-3.19389E-18
 -1      1231 9.51406E-05-2.85423E-05-2.85421E-05-6.27474E-10-5.77298E-20-4.11156E-18
 -1      1232 9.51590E-05-2.85478E-05-2.85476E-05-5.79609E-10-4.12427E-21-1.46286E-18
 -1      1233 9.51762E-05-2.85529E-05-2.85527E-05-5.21074E-10-1.23669E-19 4.00116E-19
 -1      1234 9.51916E-05-2.85575E-05-2.85573E-05-4.63809E-10 2.53445E-19 1.79342E-18
 -1      1235 9.52051E-05-2.85615E-05-2.85614E-05-4.15831E-10-1.58572E-19-2.81506E-19
 -1      1236 9.52165E-05-2.85649E-05-2.85648E-05-3.80971E-10 1.29037E-19-3.36597E-18
 -1      1237 9.52259E-05-2.85677E-05-2.85676E-05-3.56178E-10 1.81255E-19-5.44319E-18
 -1      1238 9.52328E-05-2.85698E-05-2.85696E-05-3.13611E-10 4.88405E-19-6.38517E-18
 -1      1239 9.52368E-05-2.85710E-05-2.85708E-05-1.57525E-10 6.41589E-19-6.03608E-18
 -1      1240 9.52376E-05-2.85713E-05-2.85715E-05 1.54813E-10-2.77732E-19-3.78734E-18
 -1      1241 9.52370E-05-2.85707E-05-2.85715E-05 1.43674E-10-3.08287E-18 8.93775E-20
 -1      1242 9.52374E-05-2.85716E-05-2.85708E-05 7.31991E-11 2.88617E-20-1.28953E-19
 -1      1243 9.52385E-05-2.85755E-05-2.85696E-05-2.03900E-10 2.15509E-18 1.50640E-19
 -1      1244 9.52403E-05-2.85816E-05-2.85679E-05-3.09958E-10 2.51962E-18 1.37277E-19
 -1      1245 9.52424E-05-2.85887E-05-2.85659E-05-3.22000E-10 3.61901E-18 3.07968E-19
 -1      1246 9.52443E-05-2.85953E-05-2.85640E-05-2.76673E-10 5.44620E-18-8.30460E-19
 -1      1247 9.52459E-05-2.86007E-05-2.85625E-05-2.03483E-10 4.30805E-18 6.23836E-19
 -1      1248 9.52470E-05-2.86043E-05-2.85614E-05-1.05839E-10 8.30991E-19-1.79193E-19
 -1      1249 9.52473E-05-2.86055E-05-2.85611E-05 8.98530E-13-2.86272E-18-5.78733E-19
 -1      1250 9.52470E-05-2.86042E-05-2.85614E-05 1.07624E-10-1.40275E-18 7.67751E-19
 -1      1251 9.52459E-05-2.86006E-05-2.85625E-05 2.04843E-10-7.11005E-19-1.27692E-18
 -1      1252 9.52443E-05-2.85952E-05-2.85640E-05 2.81882E-10-5.53414E-18-3.77367E-19
 -1      1253 9.52423E-05-2.85885E-05-2.85659E-05 3.22547E-10-5.64154E-18 1.20970E-18
 -1      1254 9.52403E-05-2.85815E-05-2.85679E-05 3.13913E-10-7.03192E-18 2.73210E-19
 -1      1255 9.52384E-05-2.85753E-05-2.85696E-05 2.43535E-10-5.34762E-18 8.89363E-20
 -1      1256 9.52375E-05-2.85717E-05-2.85708E-05-1.78156E-10-2.56042E-18 1.85114E-19
 -1      1257 9.52370E-05-2.85706E-05-2.85715E-05-1.59760E-10-8.61582E-19 3.49589E-19
 -1      1258 3.33846E-05-1.05407E-04 1.78179E-05-1.37105E-05 1.11614E-17 2.72279E-18
 -1      1259 1.77448E-05-6.57287E-05 9.61521E-06-2.54734E-05 2.31045E-17 8.73926E-18
 -1      1260 8.07338E-06-1.09226E-05-5.38713E-06-6.86971E-07 2.81249E-17 1.69025E-17
 -1      1261 3.06383E-05 2.32974E-05-2.46346E-05 4.91914E-05 2.44877E-17 2.25336E-17
 -1      1262 9.71482E-05 1.66484E-05-4.43762E-05 9.72461E-05 1.78385E-17 2.41099E-17
 -1      1263 1.95847E-04-2.72950E-05-6.23981E-05 1.10744E-04 9.43849E-18 1.97223E-17
 -1      1264 2.82747E-04-7.63009E-05-7.45212E-05 6.89752E-05 2.45438E-18 6.32818E-18
 -1      1265 3.09875E-04-9.24328E-05-7.81562E-05-1.00110E-05 1.44123E-18-1.01605E-17
 -1      1266 2.68895E-04-6.79071E-05-7.26912E-05-8.32481E-05 7.08543E-18-2.55474E-17
 -1      1267 1.74081E-04-1.59562E-05-5.89746E-05-1.11692E-04 1.73947E-17-3.42862E-17
 -1      1268 7.65522E-05 2.22043E-05-3.92666E-05-8.59647E-05 2.73007E-17-3.36340E-17
 -1      1269 1.96629E-05 1.85897E-05-1.92314E-05-3.36798E-05 3.22127E-17-2.65850E-17
 -1      1270 7.66221E-06-2.24419E-05-1.73862E-06 1.01511E-05 2.92938E-17-1.62791E-17
 -1      1271 2.14157E-05-7.59438E-05 1.18434E-05 2.36951E-05 1.78563E-17-6.32437E-18
 -1      1272 3.58427E-05-1.09397E-04 1.82176E-05 7.34927E-06 1.83976E-18-1.41391E-18
 -1      1273 3.14675E-05-9.98009E-05 1.64619E-05-1.80980E-05-1.43636E-17-3.31931E-18
 -1      1274 1.39602E-05-5.34946E-05 6.71539E-06-2.25812E-05-2.64418E-17-1.10915E-17
 -1      1275 9.22597E-06 8.71360E-07-1.00500E-05 8.81300E-06-3.15638E-17-2.13723E-17
 -1      1276 4.43519E-05 2.62617E-05-3.01317E-05 6.36537E-05-2.93870E-17-3.04136E-17
 -1      1277 1.26227E-04 5.93802E-06-5.03088E-05 1.06720E-04-2.17916E-17-3.41236E-17
 -1      1278 2.25867E-04-4.28536E-05-6.69911E-05 1.03679E-04-1.12092E-17-2.90736E-17
 -1      1279 2.98452E-04-8.58376E-05-7.66488E-05 5.24252E-05-3.14956E-18-1.68509E-17
 -1      1280 3.10628E-04-9.33211E-05-7.81359E-05-2.52899E-05-1.07383E-18-1.13545E-18
 -1      1281 2.51240E-04-5.76349E-05-7.05931E-05-9.13848E-05-5.23488E-18 1.43479E-17
 -1      1282 1.56117E-04-7.03167E-06-5.57759E-05-1.11585E-04-1.26310E-17 2.27479E-17
 -1      1283 7.15190E-05 2.35720E-05-3.81855E-05-8.41944E-05-2.01763E-17 2.42438E-17
 -1      1284 2.03307E-05 1.86919E-05-1.96100E-05-3.50102E-05-2.55601E-17 2.09480E-17
 -1      1285 7.38049E-06-2.05588E-05-2.00894E-06 8.95139E-06-2.55821E-17 1.49213E-17
 -1      1286 2.03237E-05-7.35643E-05 1.14214E-05 2.61556E-05-1.61233E-17 6.07280E-18
 -1      1287 3.43719E-05-1.08007E-04 1.82699E-05 1.22550E-05-3.26362E-18 1.03539E-18
 -1      1288 1.16195E-04-2.49167E-05-4.16954E-05-1.51170E-05-6.96049E-19 1.28935E-17
 -1      1289 9.96151E-05-8.48999E-06-3.91769E-05-1.50827E-05-1.97136E-18-2.79891E-19
 -1      1290 1.03310E-04-8.82808E-06-4.07261E-05-2.13201E-05-2.55592E-18 2.73126E-18
 -1      1291 9.17692E-05-5.12459E-06-3.71926E-05-9.63705E-06-1.95347E-18-4.56715E-18
 -1      1292 9.47467E-05-5.20776E-06-3.82626E-05-1.26668E-05-2.23066E-18-2.72427E-18
 -1      1293 1.01407E-04-1.29096E-05-3.79741E-05-1.33454E-05-3.46521E-18-2.41087E-19
 -1      1294 8.59465E-05-3.50001E-06-3.53750E-05-5.44311E-06-1.55483E-18-6.75992E-18
 -1      1295 8.84931E-05-3.52783E-06-3.63130E-05-7.45037E-06-1.79772E-18-5.77451E-18
 -1      1296 9.30960E-05-8.60792E-06-3.62802E-05-8.73485E-06-3.03690E-18-3.83971E-18
 -1      1297 8.09104E-05-2.31673E-06-3.37322E-05-2.54371E-06-1.12957E-18-7.91428E-18
 -1      1298 8.31626E-05-2.34800E-06-3.45596E-05-3.87173E-06-1.31047E-18-7.39883E-18
 -1      1299 8.65933E-05-5.93433E-06-3.46419E-05-4.94971E-06-2.33088E-18-5.72748E-18
 -1      1300 7.66656E-05-1.33557E-06-3.23488E-05-8.21266E-07-7.31519E-19-8.50544E-18
 -1      1301 7.85339E-05-1.36621E-06-3.30264E-05-1.57715E-06-8.67573E-19-8.22249E-18
 -1      1302 8.10634E-05-3.86424E-06-3.31513E-05-2.32954E-06-1.63289E-18-6.72523E-18
 -1      1303 7.33509E-05-5.32184E-07-3.12837E-05-5.16068E-08-3.57660E-19-8.82979E-18
 -1      1304 7.47370E-05-5.59825E-07-3.17809E-05-3.62197E-07-4.74709E-19-8.68782E-18
 -1      1305 7.64455E-05-2.15757E-06-3.18952E-05-7.89405E-07-9.79249E-19-7.28839E-18
 -1      1306 7.14057E-05-1.11783E-08-3.06696E-05 5.30196E-09-3.84341E-20-8.94282E-18
 -1      1307 7.21148E-05-2.63536E-08-3.09231E-05-5.45689E-09-1.67421E-19-8.88950E-18
 -1      1308 7.30482E-05-8.86259E-07-3.09779E-05-1.47807E-07-4.49364E-19-7.51142E-18
 -1      1309 7.10874E-05 1.33869E-07-3.05749E-05-2.39576E-07 2.43866E-19-8.86274E-18
 -1      1310 7.10268E-05 1.35625E-07-3.05565E-05-1.63332E-07 1.22251E-19-8.92456E-18
 -1      1311 7.13136E-05-2.38005E-07-3.05091E-05-1.21765E-07 7.44231E-20-7.62623E-18
 -1      1312 7.24262E-05-1.23158E-07-3.10056E-05-3.11127E-07 5.45542E-19-8.63605E-18
 -1      1313 7.16143E-05-1.05088E-07-3.07207E-05-3.76912E-07 4.21677E-19-8.78378E-18
 -1      1314 7.14771E-05-3.27566E-07-3.05415E-05-2.75871E-07 5.25855E-19-7.52397E-18
 -1      1315 7.52084E-05-7.25254E-07-3.19032E-05 2.23581E-07 8.40574E-19-8.19633E-18
 -1      1316 7.37667E-05-6.94565E-07-3.13889E-05-1.81403E-07 7.25034E-19-8.47056E-18
 -1      1317 7.34899E-05-1.12839E-06-3.10651E-05-1.34583E-07 1.03656E-18-7.26955E-18
 -1      1318 7.89964E-05-1.54446E-06-3.31416E-05 1.63903E-06 1.21973E-18-7.48552E-18
 -1      1319 7.71357E-05-1.51526E-06-3.24667E-05 7.81599E-07 1.08685E-18-7.89860E-18
 -1      1320 7.70072E-05-2.47403E-06-3.20012E-05 6.89511E-07 1.58064E-18-6.76941E-18
 -1      1321 8.35759E-05-2.52233E-06-3.46576E-05 4.16244E-06 1.68253E-18-6.34377E-18
 -1      1322 8.13766E-05-2.49550E-06-3.38476E-05 2.73279E-06 1.48353E-18-7.01165E-18
 -1      1323 8.16216E-05-4.19176E-06-3.32503E-05 2.44515E-06 2.21103E-18-5.92713E-18
 -1      1324 8.87344E-05-3.66249E-06-3.63604E-05 7.91803E-06 2.14532E-18-4.42045E-18
 -1      1325 8.62768E-05-3.64511E-06-3.54496E-05 5.83081E-06 1.89402E-18-5.59359E-18
 -1      1326 8.70730E-05-6.23858E-06-3.47170E-05 5.27875E-06 2.89249E-18-4.64111E-18
 -1      1327 9.48020E-05-5.23797E-06-3.82602E-05 1.32166E-05 2.45745E-18-9.40524E-19
 -1      1328 9.18978E-05-5.21131E-06-3.72089E-05 1.01899E-05 2.22579E-18-3.04207E-18
 -1      1329 9.33809E-05-8.84933E-06-3.63012E-05 9.24707E-06 3.50420E-18-2.41590E-18
 -1      1330 1.03700E-04-8.78507E-06-4.05338E-05 2.11108E-05 2.14352E-18 5.74786E-18
 -1      1331 9.93144E-05-8.23060E-06-3.91491E-05 1.60455E-05 2.09196E-18 1.67040E-18
 -1      1332 1.01525E-04-1.31262E-05-3.79180E-05 1.42832E-05 3.68743E-18 1.46992E-18
 -1      1333 1.34522E-04-2.76645E-05-4.26272E-05 2.67939E-05 1.08770E-18 1.85729E-17
 -1      1334 1.11138E-04-1.70247E-05-4.09473E-05 2.09859E-05 1.08018E-18 9.67492E-18
 -1      1335 1.13512E-04-2.28044E-05-3.89118E-05 1.72368E-05 3.53726E-18 7.60254E-18
 -1      1336 1.15509E-04-3.18179E-05-3.86261E-05 5.09034E-06 1.95495E-18 1.77904E-17
 -1      1337 1.19097E-04-3.45795E-05-3.76609E-05-5.56501E-06-2.08412E-18 1.36593E-17
 -1      1338 1.14190E-04-3.27906E-05-3.54219E-05-2.91391E-06-1.94473E-18 1.12232E-17
 -1      1339 1.12476E-04-3.30218E-05-3.42944E-05-5.91921E-07-1.58215E-18 1.02131E-17
 -1      1340 1.12017E-04-3.32830E-05-3.37769E-05-2.37389E-07-1.50420E-18 7.90618E-18
 -1      1341 1.14408E-04-3.27671E-05-3.53546E-05-4.11868E-06-3.40475E-18 5.95049E-18
 -1      1342 1.11466E-04-3.32597E-05-3.34982E-05 6.84788E-07-1.17325E-18 7.11786E-18
 -1      1343 1.12137E-04-3.36121E-05-3.36022E-05 7.21458E-07-1.10391E-18 5.47946E-18
 -1      1344 1.11869E-04-3.31081E-05-3.38678E-05 9.93121E-08-2.57810E-18 4.47045E-18
 -1      1345 1.12303E-04-3.37354E-05-3.36189E-05 8.29672E-07-7.47822E-19 4.81133E-18
 -1      1346 1.13052E-04-3.40589E-05-3.38108E-05 7.57813E-07-7.24435E-19 3.73332E-18
 -1      1347 1.11732E-04-3.35354E-05-3.35195E-05 1.32429E-06-1.84986E-18 3.19718E-18
 -1      1348 1.13281E-04-3.42039E-05-3.38411E-05 2.86269E-07-4.56895E-19 3.36702E-18
 -1      1349 1.13398E-04-3.43146E-05-3.38550E-05 8.95583E-08-4.82537E-19 2.66967E-18
 -1      1350 1.12250E-04-3.40099E-05-3.34996E-05 9.21498E-07-1.18549E-18 2.24794E-18
 -1      1351 1.13208E-04-3.43410E-05-3.37447E-05-8.67479E-07-4.62056E-19 2.43437E-18
 -1      1352 1.12126E-04-3.40430E-05-3.34206E-05-1.17911E-06-4.70255E-19 1.67964E-18
 -1      1353 1.12430E-04-3.43393E-05-3.34027E-05-7.61979E-07-9.99797E-19 1.76194E-18
 -1      1354 1.11162E-04-3.38071E-05-3.30880E-05-2.40834E-06-2.81817E-19 1.59989E-18
 -1      1355 1.08585E-04-3.29637E-05-3.23640E-05-2.75967E-06-3.04720E-19 1.06726E-18
 -1      1356 1.11435E-04-3.41914E-05-3.30137E-05-3.39077E-06-6.50316E-19 1.55860E-18
 -1      1357 1.06740E-04-3.23738E-05-3.18168E-05-3.79236E-06-2.87243E-19 9.14796E-19
 -1      1358 1.02944E-04-3.10389E-05-3.07915E-05-4.01918E-06-3.30968E-19 4.36328E-19
 -1      1359 1.08750E-04-3.32499E-05-3.22713E-05-6.16970E-06-6.35149E-19 1.12687E-18
 -1      1360 1.00543E-04-3.01647E-05-3.01504E-05-4.20847E-06-5.70043E-19 1.72318E-19
 -1      1361 9.65632E-05-2.86971E-05-2.91094E-05-4.11704E-06-8.92872E-19-7.45918E-19
 -1      1362 1.04528E-04-3.14567E-05-3.12881E-05-7.74063E-06-9.21012E-19 5.06340E-19
 -1      1363 9.44225E-05-2.78495E-05-2.85834E-05-3.02278E-06-9.93781E-19-1.19829E-18
 -1      1364 9.17894E-05-2.68446E-05-2.79121E-05-2.54709E-06-7.64394E-19-2.19792E-18
 -1      1365 9.99028E-05-2.92898E-05-3.03383E-05-6.71658E-06-1.45412E-18-8.89385E-20
 -1      1366 9.08915E-05-2.64652E-05-2.77074E-05-4.10040E-07-5.17947E-19-3.06135E-18
 -1      1367 9.08275E-05-2.64288E-05-2.76976E-05 2.62823E-07-5.04673E-19-3.69709E-18
 -1      1368 9.67592E-05-2.77264E-05-2.97533E-05-2.77888E-06-1.29525E-18-1.25841E-18
 -1      1369 9.16762E-05-2.67609E-05-2.79081E-05 2.49141E-06-3.88828E-19-4.39772E-18
 -1      1370 9.42888E-05-2.77392E-05-2.85844E-05 3.01940E-06-1.45557E-19-4.56635E-18
 -1      1371 9.66921E-05-2.76514E-05-2.97654E-05 2.60062E-06-1.03678E-18-3.01208E-18
 -1      1372 9.65050E-05-2.86016E-05-2.91381E-05 4.31650E-06 1.83343E-19-4.90517E-18
 -1      1373 1.00706E-04-3.01433E-05-3.02417E-05 4.47106E-06 1.00062E-19-4.54830E-18
 -1      1374 9.98370E-05-2.91457E-05-3.03897E-05 6.91196E-06-1.25864E-19-4.25402E-18
 -1      1375 1.03322E-04-3.10963E-05-3.09396E-05 4.45311E-06 2.09839E-20-4.62655E-18
 -1      1376 1.07555E-04-3.25885E-05-3.20820E-05 4.26108E-06 3.32196E-21-4.57848E-18
 -1      1377 1.04748E-04-3.14106E-05-3.14144E-05 8.40045E-06 2.50305E-20-4.90648E-18
 -1      1378 1.09667E-04-3.32764E-05-3.27011E-05 3.27512E-06-1.30357E-19-4.40256E-18
 -1      1379 1.12754E-04-3.43026E-05-3.35642E-05 2.92002E-06-2.99969E-19-4.57636E-18
 -1      1380 1.09458E-04-3.34201E-05-3.25020E-05 7.08834E-06 8.06733E-20-4.85818E-18
 -1      1381 1.13916E-04-3.46076E-05-3.39548E-05 1.60093E-06-5.83195E-19-4.27333E-18
 -1      1382 1.15424E-04-3.50585E-05-3.43993E-05 1.25656E-06-3.49944E-19-4.80000E-18
 -1      1383 1.12606E-04-3.45774E-05-3.33409E-05 4.24352E-06-3.76731E-19-4.59520E-18
 -1      1384 1.15626E-04-3.50361E-05-3.45191E-05 9.69824E-08 1.67574E-19-4.71296E-18
 -1      1385 1.15726E-04-3.50128E-05-3.45696E-05-1.49732E-07 4.98724E-19-4.49518E-18
 -1      1386 1.13798E-04-3.48412E-05-3.37590E-05 1.24811E-06-5.82070E-20-3.45776E-18
 -1      1387 1.15195E-04-3.47772E-05-3.44593E-05-9.37411E-07 2.14614E-19-4.65980E-18
 -1      1388 1.14326E-04-3.44525E-05-3.42270E-05-1.07446E-06-4.88301E-20-4.50799E-18
 -1      1389 1.13318E-04-3.44702E-05-3.37431E-05-1.07093E-06 3.49064E-19-3.80183E-18
 -1      1390 1.13350E-04-3.41083E-05-3.39633E-05-1.48744E-06-1.14694E-19-4.70848E-18
 -1      1391 1.11968E-04-3.36390E-05-3.35739E-05-1.53882E-06-2.89622E-19-4.82121E-18
 -1      1392 1.11714E-04-3.37609E-05-3.33869E-05-2.48215E-06-1.60321E-19-3.90514E-18
 -1      1393 1.10794E-04-3.32606E-05-3.32335E-05-1.66811E-06-9.42804E-20-4.99859E-18
 -1      1394 1.09244E-04-3.27566E-05-3.27879E-05-1.66498E-06-1.35780E-19-4.91021E-18
 -1      1395 1.09523E-04-3.29330E-05-3.28214E-05-3.10701E-06-2.55228E-19-4.02681E-18
 -1      1396 1.08049E-04-3.23895E-05-3.24294E-05-1.61587E-06 2.44374E-20-4.80462E-18
 -1      1397 1.06551E-04-3.19151E-05-3.19936E-05-1.58376E-06-1.31402E-19-4.82128E-18
 -1      1398 1.07154E-04-3.21168E-05-3.21664E-05-3.18560E-06 1.76438E-19-5.09841E-18
 -1      1399 1.05439E-04-3.15839E-05-3.16545E-05-1.44105E-06-1.63247E-19-4.54596E-18
 -1      1400 1.04107E-04-3.11698E-05-3.12641E-05-1.39708E-06-2.58451E-19-4.90378E-18
 -1      1401 1.04870E-04-3.13781E-05-3.15094E-05-2.94506E-06-1.35292E-19-5.01186E-18
 -1      1402 1.03134E-04-3.08851E-05-3.09642E-05-1.21798E-06-4.17313E-20-4.35858E-18
 -1      1403 1.02012E-04-3.05411E-05-3.06338E-05-1.17223E-06 4.71075E-19-3.98999E-18
 -1      1404 1.02819E-04-3.07431E-05-3.09040E-05-2.55338E-06 3.27838E-19-3.24284E-18
 -1      1405 1.01195E-04-3.03048E-05-3.03805E-05-9.90706E-07 9.66518E-19-3.82542E-18
 -1      1406 1.00286E-04-3.00292E-05-3.01119E-05-9.48388E-07 6.98729E-19-2.67302E-18
 -1      1407 1.01063E-04-3.02163E-05-3.03768E-05-2.11787E-06 9.47309E-19-1.97076E-18
 -1      1408 9.96214E-05-2.98385E-05-2.99053E-05-7.82172E-07 2.15734E-19-2.07535E-18
 -1      1409 9.89075E-05-2.96239E-05-2.96936E-05-7.45535E-07 3.13301E-19-1.55449E-18
 -1      1410 9.96130E-05-2.97910E-05-2.99361E-05-1.69919E-06 7.60291E-19-1.69073E-18
 -1      1411 9.83808E-05-2.94736E-05-2.95297E-05-6.02201E-07 2.80498E-19-1.88624E-18
 -1      1412 9.78340E-05-2.93105E-05-2.93671E-05-5.71813E-07 1.92343E-19-1.55438E-18
 -1      1413 9.84484E-05-2.94553E-05-2.95791E-05-1.32694E-06 2.86204E-20-9.52622E-19
 -1      1414 9.74264E-05-2.91947E-05-2.92401E-05-4.53102E-07-5.30408E-19-1.52642E-18
 -1      1415 9.70172E-05-2.90736E-05-2.91182E-05-4.28670E-07-5.56520E-19-2.21394E-18
 -1      1416 9.75357E-05-2.91957E-05-2.92973E-05-1.01192E-06-3.42416E-19-7.42142E-19
 -1      1417 9.67085E-05-2.89861E-05-2.90220E-05-3.33260E-07 3.94802E-19-2.46281E-18
 -1      1418 9.64094E-05-2.88983E-05-2.89326E-05-3.14097E-07 2.28691E-19-2.54345E-18
 -1      1419 9.68358E-05-2.89990E-05-2.90800E-05-7.54480E-07-5.51207E-19-1.73300E-18
 -1      1420 9.61806E-05-2.88336E-05-2.88613E-05-2.39266E-07 6.72374E-21-2.45221E-18
 -1      1421 9.59674E-05-2.87716E-05-2.87974E-05-2.24558E-07 5.75226E-20-2.08687E-18
 -1      1422 9.63104E-05-2.88530E-05-2.89159E-05-5.49722E-07 3.79842E-19-1.60194E-18
 -1      1423 9.58016E-05-2.87248E-05-2.87458E-05-1.67120E-07-3.73500E-19-2.22669E-18
 -1      1424 9.56540E-05-2.86823E-05-2.87014E-05-1.56060E-07-4.90054E-19-2.82937E-18
 -1      1425 9.59245E-05-2.87468E-05-2.87947E-05-3.90550E-07-3.66054E-19-2.00480E-18
 -1      1426 9.55370E-05-2.86494E-05-2.86649E-05-1.12868E-07-4.42154E-19-2.86572E-18
 -1      1427 9.54384E-05-2.86214E-05-2.86351E-05-1.04722E-07-5.92263E-19-3.61441E-18
 -1      1428 9.56476E-05-2.86716E-05-2.87073E-05-2.69373E-07-8.72365E-19-2.28811E-18
 -1      1429 9.53582E-05-2.85989E-05-2.86102E-05-7.29137E-08-8.86657E-19-3.63989E-18
 -1      1430 9.52956E-05-2.85815E-05-2.85911E-05-6.70478E-08-5.35059E-19-4.73498E-18
 -1      1431 9.54544E-05-2.86198E-05-2.86459E-05-1.78992E-07-1.05267E-18-2.15049E-18
 -1      1432 9.52429E-05-2.85667E-05-2.85748E-05-4.41455E-08 6.21943E-20-6.25086E-18
 -1      1433 9.52059E-05-2.85568E-05-2.85634E-05-4.00284E-08 1.46825E-23-6.19962E-18
 -1      1434 9.53241E-05-2.85855E-05-2.86041E-05-1.13007E-07-9.07435E-19-3.48597E-18
 -1      1435 9.51731E-05-2.85477E-05-2.85532E-05-2.39591E-08 1.41694E-19-5.79870E-18
 -1      1436 9.51539E-05-2.85428E-05-2.85472E-05-2.11581E-08 3.84144E-19-5.63442E-18
 -1      1437 9.52400E-05-2.85639E-05-2.85768E-05-6.59578E-08 1.09282E-19-5.14783E-18
 -1      1438 9.51352E-05-2.85377E-05-2.85414E-05-1.02307E-08-3.62414E-19-5.53227E-18
 -1      1439 9.51281E-05-2.85363E-05-2.85390E-05-8.40059E-09-4.61808E-19-6.31483E-18
 -1      1440 9.51893E-05-2.85514E-05-2.85600E-05-3.33267E-08 4.18433E-19-4.82219E-18
 -1      1441 9.51192E-05-2.85339E-05-2.85362E-05-1.26507E-09 1.88896E-19-5.60512E-18
 -1      1442 9.51198E-05-2.85347E-05-2.85362E-05-1.35366E-10 7.19471E-19-4.96327E-18
 -1      1443 9.51620E-05-2.85451E-05-2.85507E-05-1.14602E-08 1.99029E-19-5.05363E-18
 -1      1444 9.51173E-05-2.85341E-05-2.85354E-05 4.26558E-09 6.87926E-19-5.28611E-18
 -1      1445 9.51226E-05-2.85361E-05-2.85368E-05 4.90275E-09 1.82803E-19-4.25950E-18
 -1      1446 9.51505E-05-2.85431E-05-2.85464E-05 2.53554E-09 6.38682E-19-3.84682E-18
 -1      1447 9.51242E-05-2.85367E-05-2.85374E-05 7.38188E-09-1.13995E-19-3.45780E-18
 -1      1448 9.51320E-05-2.85393E-05-2.85395E-05 7.68343E-09 4.57173E-19-3.23880E-18
 -1      1449 9.51495E-05-2.85438E-05-2.85455E-05 1.09102E-08 4.17488E-19-3.46038E-18
 -1      1450 9.51360E-05-2.85406E-05-2.85408E-05 8.85360E-09-4.42071E-21-3.59024E-18
 -1      1451 9.51449E-05-2.85435E-05-2.85434E-05 8.93561E-09-1.07778E-18-4.03343E-18
 -1      1452 9.51548E-05-2.85460E-05-2.85467E-05 1.53801E-08 2.05325E-19-3.83182E-18
 -1      1453 9.51502E-05-2.85450E-05-2.85450E-05 9.24907E-09-6.79961E-19-3.77006E-18
 -1      1454 9.51593E-05-2.85479E-05-2.85476E-05 9.19527E-09-6.77143E-19-5.05761E-18
 -1      1455 9.51638E-05-2.85491E-05-2.85492E-05 1.72285E-08-9.14329E-19-3.95902E-18
 -1      1456 9.51650E-05-2.85496E-05-2.85494E-05 8.97681E-09-4.62944E-19-5.25088E-18
 -1      1457 9.51737E-05-2.85523E-05-2.85519E-05 8.84566E-09-4.91250E-19-6.05960E-18
 -1      1458 9.51745E-05-2.85526E-05-2.85522E-05 1.73924E-08-1.17782E-18-4.02238E-18
 -1      1459 9.51794E-05-2.85540E-05-2.85537E-05 8.31958E-09 5.42506E-19-5.85220E-18
 -1      1460 9.51873E-05-2.85565E-05-2.85560E-05 8.14972E-09 1.37672E-18-4.92605E-18
 -1      1461 9.51856E-05-2.85560E-05-2.85555E-05 1.65348E-08 2.32725E-19-2.19426E-18
 -1      1462 9.51927E-05-2.85580E-05-2.85577E-05 7.46066E-09 6.98215E-19-3.07268E-18
 -1      1463 9.51997E-05-2.85602E-05-2.85598E-05 7.27489E-09 8.96873E-19-1.64236E-18
 -1      1464 9.51964E-05-2.85593E-05-2.85587E-05 1.51022E-08 2.46340E-18-1.17398E-18
 -1      1465 9.52046E-05-2.85616E-05-2.85613E-05 6.50287E-09 8.96124E-19-1.54186E-18
 -1      1466 9.52107E-05-2.85635E-05-2.85631E-05 6.31075E-09 5.49329E-19-5.35470E-19
 -1      1467 9.52063E-05-2.85624E-05-2.85616E-05 1.33676E-08 1.77758E-18-1.98415E-19
 -1      1468 9.52149E-05-2.85647E-05-2.85644E-05 5.48103E-09 6.48144E-19 1.88576E-19
 -1      1469 9.52200E-05-2.85663E-05-2.85659E-05 5.27988E-09 9.48087E-19 1.09462E-18
 -1      1470 9.52152E-05-2.85650E-05-2.85643E-05 1.14613E-08 1.43826E-18 1.16597E-18
 -1      1471 9.52235E-05-2.85673E-05-2.85669E-05 4.36910E-09 2.29648E-19 1.10442E-18
 -1      1472 9.52275E-05-2.85686E-05-2.85681E-05 4.14306E-09-6.55152E-19 7.77265E-19
 -1      1473 9.52227E-05-2.85673E-05-2.85665E-05 9.39095E-09 9.25164E-19 1.60160E-18
 -1      1474 9.52302E-05-2.85694E-05-2.85689E-05 3.09480E-09 4.99274E-19 1.02326E-18
 -1      1475 9.52330E-05-2.85703E-05-2.85697E-05 2.81352E-09 1.13311E-18 2.52141E-18
 -1      1476 9.52288E-05-2.85693E-05-2.85683E-05 7.06040E-09 5.86526E-19 6.68184E-19
 -1      1477 9.52349E-05-2.85709E-05-2.85702E-05 1.57057E-09-4.34638E-20 2.26843E-18
 -1      1478 9.52361E-05-2.85712E-05-2.85707E-05 1.23033E-09-9.48729E-19 2.05303E-18
 -1      1479 9.52334E-05-2.85708E-05-2.85696E-05 4.36752E-09 6.71707E-19 1.46218E-19
 -1      1480 9.52372E-05-2.85713E-05-2.85712E-05-1.07657E-10-1.61454E-18 1.69726E-18
 -1      1481 9.52365E-05-2.85716E-05-2.85707E-05 1.15252E-09-1.78001E-18 7.63329E-19
 -1      1482 1.12636E-04-3.32706E-05-3.45022E-05 1.31490E-06 1.77594E-18 1.40028E-17
 -1      1483 1.16591E-04-3.36156E-05-3.63741E-05 2.65730E-06 1.51815E-18 1.67305E-17
 -1      1484 1.15784E-04-3.09879E-05-3.67019E-05 9.52444E-06 2.97933E-18 1.08475E-17
 -1      1485 1.10853E-04-3.31500E-05-3.33409E-05-1.94860E-07 1.26565E-18 1.05965E-17
 -1      1486 1.11195E-04-3.28173E-05-3.37842E-05 6.34660E-08 1.26289E-18 1.26678E-17
 -1      1487 1.12249E-04-3.29262E-05-3.41947E-05 2.01377E-06 2.66516E-18 8.39378E-18
 -1      1488 1.11204E-04-3.34026E-05-3.32929E-05-6.23152E-07 8.88534E-19 8.09343E-18
 -1      1489 1.10631E-04-3.30701E-05-3.32199E-05-5.43352E-07 9.25299E-19 9.61647E-18
 -1      1490 1.10946E-04-3.31103E-05-3.33890E-05-3.94189E-07 2.04776E-18 6.46405E-18
 -1      1491 1.11907E-04-3.37060E-05-3.34479E-05-3.94048E-07 5.85683E-19 6.30208E-18
 -1      1492 1.11357E-04-3.34892E-05-3.33212E-05-4.63259E-07 5.34326E-19 7.31680E-18
 -1      1493 1.11025E-04-3.34028E-05-3.32452E-05-8.33149E-07 1.31974E-18 4.87094E-18
 -1      1494 1.11741E-04-3.37349E-05-3.33506E-05 3.67787E-07 5.04898E-19 5.27965E-18
 -1      1495 1.11850E-04-3.37868E-05-3.34094E-05 1.47558E-07 4.24602E-19 5.93062E-18
 -1      1496 1.11222E-04-3.36691E-05-3.31850E-05-7.50556E-08 8.87280E-19 3.90683E-18
 -1      1497 1.09786E-04-3.31881E-05-3.27383E-05 1.53377E-06 1.16838E-19 4.86485E-18
 -1      1498 1.11048E-04-3.36594E-05-3.31222E-05 1.18234E-06 1.72338E-19 5.12387E-18
 -1      1499 1.10593E-04-3.36459E-05-3.28970E-05 1.60834E-06 5.13309E-19 3.80360E-18
 -1      1500 1.05605E-04-3.18789E-05-3.15266E-05 2.77308E-06 1.62852E-19 4.45026E-18
 -1      1501 1.08225E-04-3.28302E-05-3.22720E-05 2.37894E-06 1.38695E-19 4.68380E-18
 -1      1502 1.08483E-04-3.30587E-05-3.22310E-05 3.80207E-06 2.46513E-19 3.56932E-18
 -1      1503 9.96520E-05-2.99093E-05-2.98852E-05 3.50580E-06 1.68392E-19 3.98307E-18
 -1      1504 1.03292E-04-3.12010E-05-3.08761E-05 3.23908E-06 2.65942E-19 4.25909E-18
 -1      1505 1.04740E-04-3.17539E-05-3.12083E-05 5.68654E-06 3.23547E-19 3.00087E-18
 -1      1506 9.35155E-05-2.78031E-05-2.82585E-05 3.12202E-06 6.40344E-19 2.95726E-18
 -1      1507 9.71649E-05-2.90468E-05-2.92164E-05 3.16627E-06 3.09048E-19 3.40359E-18
 -1      1508 1.00020E-04-2.98957E-05-3.00451E-05 6.15191E-06 6.45773E-19 2.14446E-18
 -1      1509 8.94983E-05-2.63945E-05-2.72211E-05 1.43615E-06 6.55193E-19 1.66445E-18
 -1      1510 9.17694E-05-2.70743E-05-2.77989E-05 1.85382E-06 5.46627E-19 2.41005E-18
 -1      1511 9.58144E-05-2.80831E-05-2.90972E-05 4.39677E-06 1.04614E-18 1.02468E-18
 -1      1512 8.94410E-05-2.63779E-05-2.72035E-05-9.66084E-07 6.84429E-19 1.37616E-19
 -1      1513 8.92935E-05-2.61496E-05-2.71555E-05-3.31895E-07 6.81306E-19 1.08626E-18
 -1      1514 9.38827E-05-2.71600E-05-2.87105E-05 6.99984E-07 1.02645E-18 4.70320E-19
 -1      1515 9.35022E-05-2.78024E-05-2.82477E-05-2.99868E-06 2.44984E-19-8.12622E-19
 -1      1516 9.09243E-05-2.67438E-05-2.75730E-05-2.43753E-06 3.70213E-19-5.52689E-19
 -1      1517 9.51966E-05-2.76627E-05-2.90491E-05-3.42696E-06 9.83829E-19-8.07011E-19
 -1      1518 1.00042E-04-3.00379E-05-2.99772E-05-3.82977E-06-1.81020E-20-1.20999E-18
 -1      1519 9.60613E-05-2.85943E-05-2.89225E-05-3.56058E-06 8.16857E-20-1.18712E-18
 -1      1520 9.92491E-05-2.93700E-05-3.00077E-05-6.17807E-06 4.35957E-19-1.87769E-18
 -1      1521 1.06689E-04-3.22234E-05-3.18103E-05-3.38341E-06-2.25493E-19-1.78004E-18
 -1      1522 1.02714E-04-3.09093E-05-3.07281E-05-3.42916E-06 1.51566E-19-1.48273E-18
 -1      1523 1.04405E-04-3.14787E-05-3.12646E-05-6.64938E-06 3.57210E-19-2.39229E-18
 -1      1524 1.11627E-04-3.37631E-05-3.32480E-05-2.18026E-06-2.47883E-19-1.26425E-18
 -1      1525 1.08708E-04-3.28952E-05-3.24231E-05-2.41858E-06-1.46669E-19-1.45494E-18
 -1      1526 1.08928E-04-3.31882E-05-3.24399E-05-5.20664E-06-6.33422E-20-2.07891E-18
 -1      1527 1.14144E-04-3.44772E-05-3.40446E-05-8.40571E-07 2.27925E-19-1.66291E-18
 -1      1528 1.12669E-04-3.41198E-05-3.36033E-05-1.12593E-06 1.88591E-19-1.27007E-18
 -1      1529 1.11783E-04-3.41218E-05-3.32526E-05-2.88429E-06 3.39038E-19-2.09348E-18
 -1      1530 1.14434E-04-3.44839E-05-3.42056E-05 2.36345E-07 7.14108E-19-2.57531E-18
 -1      1531 1.14260E-04-3.45370E-05-3.41287E-05-2.22729E-09 5.74884E-19-1.52518E-18
 -1      1532 1.12757E-04-3.43057E-05-3.35937E-05-6.31285E-07 7.15908E-19-2.12922E-18
 -1      1533 1.13133E-04-3.40167E-05-3.38830E-05 9.19634E-07 1.70111E-19-3.78318E-18
 -1      1534 1.13868E-04-3.43275E-05-3.40736E-05 7.60653E-07 4.23976E-19-2.84278E-18
 -1      1535 1.12183E-04-3.39603E-05-3.35033E-05 1.04121E-06 9.63474E-19-2.01413E-18
 -1      1536 1.10930E-04-3.33001E-05-3.32693E-05 1.24855E-06-1.54453E-19-3.18625E-18
 -1      1537 1.12166E-04-3.37330E-05-3.36143E-05 1.16370E-06-2.33422E-19-3.63532E-18
 -1      1538 1.10590E-04-3.33244E-05-3.31009E-05 2.02697E-06-7.84961E-20-2.01602E-18
 -1      1539 1.08380E-04-3.25012E-05-3.25305E-05 1.32421E-06-8.68563E-19-1.63108E-18
 -1      1540 1.09795E-04-3.29615E-05-3.29366E-05 1.29384E-06-5.55513E-19-2.77852E-18
 -1      1541 1.08477E-04-3.25778E-05-3.25215E-05 2.44149E-06-7.25662E-19-1.44903E-18
 -1      1542 1.05850E-04-3.17256E-05-3.17830E-05 1.24704E-06-6.33492E-20-1.21863E-18
 -1      1543 1.07237E-04-3.21574E-05-3.21873E-05 1.25088E-06-2.04705E-19-1.69141E-18
 -1      1544 1.06221E-04-3.18335E-05-3.18778E-05 2.46562E-06-7.75809E-19-1.52557E-18
 -1      1545 1.03549E-04-3.10299E-05-3.10954E-05 1.09345E-06 7.19497E-19-2.00802E-18
 -1      1546 1.04796E-04-3.14065E-05-3.14623E-05 1.11575E-06 4.30072E-19-1.11667E-18
 -1      1547 1.04065E-04-3.11532E-05-3.12475E-05 2.26344E-06 5.48846E-19-1.51188E-18
 -1      1548 1.01574E-04-3.04377E-05-3.05006E-05 9.13433E-07-4.01694E-19-2.65538E-18
 -1      1549 1.02633E-04-3.07504E-05-3.08142E-05 9.43628E-07-6.23884E-20-2.82468E-18
 -1      1550 1.02139E-04-3.05646E-05-3.06761E-05 1.95518E-06 5.67271E-19-1.84705E-18
 -1      1551 9.99447E-05-2.99526E-05-3.00078E-05 7.36086E-07-4.60513E-19-1.75785E-18
 -1      1552 1.00808E-04-3.02030E-05-3.02647E-05 7.67793E-07-6.30877E-19-2.14627E-18
 -1      1553 1.00501E-04-3.00746E-05-3.01844E-05 1.61783E-06-8.74413E-19-2.32529E-18
 -1      1554 9.86434E-05-2.95670E-05-2.96129E-05 5.76204E-07-3.84659E-19-1.16481E-18
 -1      1555 9.93257E-05-2.97617E-05-2.98166E-05 6.05951E-07-9.21645E-20-1.38626E-18
 -1      1556 9.91545E-05-2.96787E-05-2.97775E-05 1.29524E-06-4.22602E-19-1.47263E-18
 -1      1557 9.76313E-05-2.92682E-05-2.93050E-05 4.39750E-07-6.49352E-19-2.77253E-19
 -1      1558 9.81561E-05-2.94159E-05-2.94621E-05 4.65912E-07-4.61621E-19-1.02995E-18
 -1      1559 9.80803E-05-2.93668E-05-2.94508E-05 1.00897E-06-5.07118E-19-5.18250E-19
 -1      1560 9.68628E-05-2.90421E-05-2.90708E-05 3.27655E-07 2.75021E-19-3.05865E-19
 -1      1561 9.72568E-05-2.91514E-05-2.91890E-05 3.49698E-07 2.91043E-20-3.78788E-19
 -1      1562 9.72441E-05-2.91265E-05-2.91953E-05 7.66942E-07 9.56055E-20 3.18208E-19
 -1      1563 9.62929E-05-2.88750E-05-2.88968E-05 2.38232E-07-3.30095E-20-1.48705E-18
 -1      1564 9.65814E-05-2.89538E-05-2.89836E-05 2.56228E-07 6.82407E-20-9.83532E-19
 -1      1565 9.66080E-05-2.89454E-05-2.90001E-05 5.69346E-07 4.36234E-19-1.45344E-19
 -1      1566 9.58805E-05-2.87544E-05-2.87706E-05 1.68630E-07-4.50354E-19-1.24490E-18
 -1      1567 9.60863E-05-2.88097E-05-2.88327E-05 1.82953E-07-1.81074E-19-1.50541E-18
 -1      1568 9.61348E-05-2.88119E-05-2.88543E-05 4.12423E-07 9.75287E-20 3.96509E-20
 -1      1569 9.55900E-05-2.86698E-05-2.86816E-05 1.15651E-07 2.99105E-19-1.42428E-18
 -1      1570 9.57325E-05-2.87073E-05-2.87247E-05 1.26800E-07-8.60260E-20-1.62350E-18
 -1      1571 9.57912E-05-2.87158E-05-2.87479E-05 2.90720E-07-2.96482E-19-3.77688E-19
 -1      1572 9.53920E-05-2.86125E-05-2.86207E-05 7.61926E-08 3.57737E-20-1.22567E-18
 -1      1573 9.54871E-05-2.86368E-05-2.86496E-05 8.46947E-08 8.14721E-20-1.61747E-18
 -1      1574 9.55480E-05-2.86485E-05-2.86723E-05 1.98377E-07 3.55406E-20-1.01872E-18
 -1      1575 9.52626E-05-2.85752E-05-2.85809E-05 4.74634E-08 8.43389E-20-1.07117E-18
 -1      1576 9.53229E-05-2.85900E-05-2.85993E-05 5.38150E-08 3.07229E-20-1.12866E-18
 -1      1577 9.53813E-05-2.86029E-05-2.86202E-05 1.29814E-07 6.68693E-21 3.92446E-21
 -1      1578 9.51830E-05-2.85525E-05-2.85562E-05 2.70637E-08 1.92840E-19-1.10788E-18
 -1      1579 9.52184E-05-2.85606E-05-2.85671E-05 3.17082E-08 5.93914E-20-1.25600E-18
 -1      1580 9.52715E-05-2.85734E-05-2.85856E-05 8.00566E-08 4.90468E-19-8.68455E-19
 -1      1581 9.51386E-05-2.85400E-05-2.85423E-05 1.29994E-08-7.65905E-19-1.11832E-18
 -1      1582 9.51567E-05-2.85436E-05-2.85480E-05 1.63161E-08-2.70258E-19-1.32083E-18
 -1      1583 9.52031E-05-2.85555E-05-2.85638E-05 4.48556E-08-6.14913E-19-5.55681E-19
 -1      1584 9.51183E-05-2.85345E-05-2.85359E-05 3.65475E-09 1.85073E-19-1.41081E-18
 -1      1585 9.51248E-05-2.85351E-05-2.85380E-05 5.95922E-09-1.48339E-19-1.59189E-18
 -1      1586 9.51642E-05-2.85457E-05-2.85512E-05 2.06945E-08 1.31513E-20-1.07554E-18
 -1      1587 9.51140E-05-2.85337E-05-2.85343E-05-2.25059E-09 9.80396E-19-3.54259E-18
 -1      1588 9.51130E-05-2.85324E-05-2.85342E-05-7.02348E-10 6.86444E-19-2.21989E-18
 -1      1589 9.51456E-05-2.85415E-05-2.85449E-05 4.73367E-09 1.01405E-18-1.48827E-18
 -1      1590 9.51196E-05-2.85356E-05-2.85358E-05-5.71128E-09-5.01134E-19-3.35858E-18
 -1      1591 9.51141E-05-2.85333E-05-2.85343E-05-4.71573E-09-1.41547E-19-3.56581E-18
 -1      1592 9.51405E-05-2.85409E-05-2.85429E-05-5.27109E-09 3.68064E-19-1.39780E-18
 -1      1593 9.51309E-05-2.85392E-05-2.85391E-05-7.48488E-09-2.17308E-19-2.35027E-18
 -1      1594 9.51230E-05-2.85364E-05-2.85369E-05-6.88336E-09-4.11517E-20-2.68574E-18
 -1      1595 9.51440E-05-2.85426E-05-2.85436E-05-1.10581E-08-2.60708E-19-1.14375E-18
 -1      1596 9.51451E-05-2.85436E-05-2.85433E-05-8.13645E-09 2.34331E-19-1.89914E-18
 -1      1597 9.51362E-05-2.85406E-05-2.85408E-05-7.80773E-09-1.38372E-19-2.56893E-18
 -1      1598 9.51525E-05-2.85456E-05-2.85459E-05-1.39471E-08-2.60824E-19-1.18647E-18
 -1      1599 9.51602E-05-2.85482E-05-2.85479E-05-8.07734E-09-1.11479E-18-1.35924E-18
 -1      1600 9.51512E-05-2.85453E-05-2.85452E-05-7.93081E-09-6.86947E-19-2.16108E-18
 -1      1601 9.51635E-05-2.85492E-05-2.85491E-05-1.49188E-08-7.28642E-19-2.57957E-19
 -1      1602 9.51751E-05-2.85527E-05-2.85523E-05-7.59748E-09 2.12426E-19-2.11971E-19
 -1      1603 9.51665E-05-2.85500E-05-2.85498E-05-7.56741E-09 8.39475E-20-3.84840E-19
 -1      1604 9.51756E-05-2.85529E-05-2.85526E-05-1.46826E-08-1.37860E-19 2.89444E-19
 -1      1605 9.51889E-05-2.85569E-05-2.85565E-05-6.89119E-09-6.94686E-19 1.22113E-18
 -1      1606 9.51811E-05-2.85544E-05-2.85542E-05-6.93210E-09-7.93121E-19-3.08346E-19
 -1      1607 9.51875E-05-2.85566E-05-2.85561E-05-1.37336E-08-5.58124E-19 4.10404E-19
 -1      1608 9.52015E-05-2.85606E-05-2.85603E-05-6.07635E-09 1.18348E-18 1.98700E-19
 -1      1609 9.51945E-05-2.85585E-05-2.85582E-05-6.15978E-09 9.87646E-19 1.15288E-18
 -1      1610 9.51988E-05-2.85600E-05-2.85595E-05-1.23966E-08 6.18745E-19-3.44143E-20
 -1      1611 9.52124E-05-2.85639E-05-2.85636E-05-5.20702E-09 9.14266E-19-1.59680E-18
 -1      1612 9.52064E-05-2.85621E-05-2.85618E-05-5.31997E-09 9.91173E-19 6.36345E-21
 -1      1613 9.52089E-05-2.85631E-05-2.85625E-05-1.08584E-08 1.58682E-18 3.42870E-19
 -1      1614 9.52216E-05-2.85667E-05-2.85663E-05-4.28079E-09 8.11313E-19-2.67139E-18
 -1      1615 9.52166E-05-2.85652E-05-2.85649E-05-4.42553E-09 4.26172E-19-1.96726E-18
 -1      1616 9.52178E-05-2.85657E-05-2.85652E-05-9.18894E-09 1.06886E-18-1.44586E-18
 -1      1617 9.52289E-05-2.85689E-05-2.85685E-05-3.24503E-09-6.74124E-20-3.29141E-18
 -1      1618 9.52250E-05-2.85677E-05-2.85674E-05-3.44020E-09 3.48235E-19-2.34663E-18
 -1      1619 9.52251E-05-2.85680E-05-2.85673E-05-7.35745E-09 5.05496E-19-7.89043E-20
 -1      1620 9.52340E-05-2.85705E-05-2.85700E-05-2.00039E-09 1.66413E-19-2.90794E-18
 -1      1621 9.52314E-05-2.85697E-05-2.85693E-05-2.29190E-09 4.00645E-19-2.72079E-18
 -1      1622 9.52308E-05-2.85698E-05-2.85690E-05-5.25525E-09 3.51507E-19-2.14402E-19
 -1      1623 9.52366E-05-2.85712E-05-2.85709E-05-6.04302E-10-2.11415E-19-2.71786E-18
 -1      1624 9.52356E-05-2.85710E-05-2.85705E-05-9.55943E-10-1.01703E-19-3.53827E-18
 -1      1625 9.52348E-05-2.85711E-05-2.85701E-05-2.77531E-09 3.15702E-19 7.50254E-19
 -1      1626 9.52372E-05-2.85713E-05-2.85712E-05 4.06237E-11-8.86577E-19-1.19452E-18
 -1      1627 9.52375E-05-2.85735E-05-2.85702E-05-1.63533E-09 1.02370E-18 2.05202E-19
 -1      1628 9.52371E-05-2.85722E-05-2.85707E-05-1.26892E-09-9.82632E-19 2.22689E-18
 -1      1629 9.52389E-05-2.85778E-05-2.85690E-05-2.89998E-09 1.52458E-18 9.46839E-19
 -1      1630 9.52380E-05-2.85753E-05-2.85697E-05-2.68522E-09 2.04835E-18-7.25470E-19
 -1      1631 9.52376E-05-2.85749E-05-2.85696E-05-4.22808E-09 6.48615E-19 6.15617E-19
 -1      1632 9.52407E-05-2.85833E-05-2.85675E-05-3.56534E-09 1.78353E-18 2.44515E-19
 -1      1633 9.52397E-05-2.85801E-05-2.85684E-05-3.48570E-09 2.46718E-18 9.86999E-19
 -1      1634 9.52392E-05-2.85791E-05-2.85686E-05-6.18237E-09 1.53487E-18 1.43712E-18
 -1      1635 9.52426E-05-2.85892E-05-2.85658E-05-3.61091E-09 3.67032E-18 1.84021E-18
 -1      1636 9.52416E-05-2.85858E-05-2.85667E-05-3.65189E-09 1.01098E-18 1.80921E-18
 -1      1637 9.52409E-05-2.85839E-05-2.85673E-05-6.97156E-09 1.12243E-18 6.91525E-19
 -1      1638 9.52443E-05-2.85944E-05-2.85643E-05-3.14191E-09 2.18744E-18-1.41405E-18
 -1      1639 9.52434E-05-2.85915E-05-2.85651E-05-3.27160E-09 3.06423E-18-1.14348E-18
 -1      1640 9.52426E-05-2.85888E-05-2.85660E-05-6.64555E-09 6.05513E-19-2.39739E-19
 -1      1641 9.52457E-05-2.85986E-05-2.85630E-05-2.26757E-09 1.69895E-18-3.66782E-19
 -1      1642 9.52449E-05-2.85964E-05-2.85637E-05-2.46624E-09 2.40402E-18-1.81776E-19
 -1      1643 9.52441E-05-2.85931E-05-2.85648E-05-5.41692E-09 6.32674E-19-1.36941E-18
 -1      1644 9.52464E-05-2.86010E-05-2.85623E-05-1.12847E-09 1.69649E-20-1.57783E-18
 -1      1645 9.52460E-05-2.85998E-05-2.85627E-05-1.36637E-09 8.65725E-19 9.05968E-21
 -1      1646 9.52452E-05-2.85963E-05-2.85639E-05-3.51133E-09 3.14694E-19-9.88037E-19
 -1      1647 9.52465E-05-2.86014E-05-2.85622E-05 1.35919E-10-5.32889E-19 2.53561E-19
 -1      1648 9.52465E-05-2.86014E-05-2.85622E-05-1.14921E-10-4.33663E-19-5.50463E-19
 -1      1649 9.52458E-05-2.85979E-05-2.85634E-05-1.20170E-09-2.03778E-19-1.83262E-18
 -1      1650 9.52460E-05-2.85998E-05-2.85627E-05 1.38588E-09 1.33457E-19 4.28862E-19
 -1      1651 9.52464E-05-2.86009E-05-2.85623E-05 1.14855E-09-9.59698E-19 9.39008E-19
 -1      1652 9.52458E-05-2.85979E-05-2.85634E-05 1.24143E-09 5.14476E-19-3.50624E-20
 -1      1653 9.52449E-05-2.85963E-05-2.85637E-05 2.48172E-09-2.22303E-18-2.30207E-18
 -1      1654 9.52456E-05-2.85985E-05-2.85631E-05 2.28465E-09-8.58113E-20-9.73645E-19
 -1      1655 9.52452E-05-2.85962E-05-2.85639E-05 3.54692E-09-4.17940E-19-7.93593E-19
 -1      1656 9.52434E-05-2.85915E-05-2.85651E-05 3.27405E-09-3.85277E-18 1.13246E-18
 -1      1657 9.52443E-05-2.85944E-05-2.85643E-05 3.14611E-09-2.51361E-18-1.90075E-18
 -1      1658 9.52441E-05-2.85931E-05-2.85648E-05 5.43263E-09-2.07261E-18-2.56836E-18
 -1      1659 9.52415E-05-2.85857E-05-2.85668E-05 3.65374E-09-3.08973E-18 1.62704E-19
 -1      1660 9.52426E-05-2.85891E-05-2.85658E-05 3.61473E-09-3.59737E-18 1.82298E-18
 -1      1661 9.52426E-05-2.85888E-05-2.85660E-05 6.65279E-09-1.60961E-18 1.23281E-18
 -1      1662 9.52396E-05-2.85800E-05-2.85684E-05 3.48568E-09-3.96248E-18 8.41333E-19
 -1      1663 9.52407E-05-2.85832E-05-2.85675E-05 3.55970E-09-3.50719E-18 7.25271E-19
 -1      1664 9.52409E-05-2.85839E-05-2.85673E-05 6.96800E-09-6.58903E-19 2.02821E-19
 -1      1665 9.52380E-05-2.85752E-05-2.85698E-05 2.67638E-09-2.42147E-18 1.22887E-18
 -1      1666 9.52389E-05-2.85777E-05-2.85691E-05 2.89557E-09-3.92635E-18 9.45939E-19
 -1      1667 9.52391E-05-2.85790E-05-2.85686E-05 6.15818E-09-1.17888E-18 8.01972E-19
 -1      1668 9.52370E-05-2.85726E-05-2.85705E-05 1.91881E-09-1.49201E-18-1.68917E-19
 -1      1669 9.52374E-05-2.85739E-05-2.85700E-05 2.44884E-09-1.77139E-18 4.21206E-19
 -1      1670 9.52374E-05-2.85753E-05-2.85694E-05 5.02215E-09-4.86391E-20 9.62608E-19
 -1      1671 9.52358E-05-2.85726E-05-2.85699E-05 3.80490E-09-2.04533E-19-4.16302E-19
 -1      1672 1.99349E-05-6.37452E-05 1.31459E-05-4.93875E-06 1.02000E-17 5.59846E-18
 -1      1673 2.30165E-05-7.34392E-05 1.53743E-05 2.37062E-06 3.63070E-18 4.07677E-18
 -1      1674 1.86675E-05-3.89172E-05 4.28014E-06 1.44237E-06 1.64790E-17 9.67036E-18
 -1      1675 2.33528E-05-6.03778E-05 9.74132E-06-1.56030E-06 1.23853E-17 6.19433E-18
 -1      1676 3.91805E-05-1.56781E-05-1.18288E-05 3.00040E-05 1.65671E-17 1.20457E-17
 -1      1677 3.27671E-05-3.52717E-05-3.10188E-06 1.29731E-05 1.57760E-17 9.69006E-18
 -1      1678 7.13714E-05-8.07582E-07-2.95723E-05 5.77332E-05 1.55854E-17 1.50628E-17
 -1      1679 4.97161E-05-7.58452E-06-2.02661E-05 3.62888E-05 1.76844E-17 1.34932E-17
 -1      1680 1.33354E-04-1.33102E-05-4.81228E-05 7.78421E-05 1.13388E-17 1.51314E-17
 -1      1681 9.34576E-05-2.70204E-06-3.86245E-05 6.35299E-05 1.44233E-17 1.53313E-17
 -1      1682 2.03002E-04-4.09585E-05-6.39833E-05 6.88552E-05 6.94631E-18 9.24960E-18
 -1      1683 1.58480E-04-1.97859E-05-5.64056E-05 7.58232E-05 9.97551E-18 1.35466E-17
 -1      1684 2.46703E-04-6.13412E-05-7.32262E-05 2.80210E-05 4.23093E-18-1.21973E-19
 -1      1685 2.20457E-04-4.65655E-05-6.93206E-05 5.63824E-05 6.10801E-18 6.32564E-18
 -1      1686 2.44790E-04-5.87799E-05-7.38704E-05-2.34440E-05 5.76342E-18-1.04848E-17
 -1      1687 2.48354E-04-6.08075E-05-7.44063E-05 1.12872E-05 4.82788E-18-3.27495E-18
 -1      1688 2.10564E-04-4.16657E-05-6.75003E-05-6.42310E-05 1.00991E-17-2.01230E-17
 -1      1689 2.41679E-04-5.88641E-05-7.20310E-05-4.01006E-05 6.61575E-18-1.44013E-17
 -1      1690 1.42822E-04-1.55609E-05-5.24444E-05-7.13538E-05 1.58641E-17-2.31155E-17
 -1      1691 1.89483E-04-3.57197E-05-6.09852E-05-6.98766E-05 1.15304E-17-2.12698E-17
 -1      1692 8.17504E-05-4.88513E-06-3.36273E-05-5.48159E-05 1.99612E-17-2.18924E-17
 -1      1693 1.18396E-04-1.12591E-05-4.35173E-05-7.24116E-05 1.74074E-17-2.37127E-17
 -1      1694 4.06333E-05-1.20454E-05-1.54531E-05-2.80126E-05 2.18721E-17-1.75319E-17
 -1      1695 5.78199E-05-1.45452E-06-2.45120E-05-4.95118E-05 2.17645E-17-2.13571E-17
 -1      1696 2.55669E-05-3.78348E-05 2.06702E-07-6.04512E-06 1.74209E-17-1.11446E-17
 -1      1697 2.70356E-05-1.62050E-05-7.42676E-06-1.93480E-05 2.11225E-17-1.57768E-17
 -1      1698 2.36263E-05-6.29511E-05 1.09791E-05-1.25775E-06 7.51403E-18-6.25174E-18
 -1      1699 1.92793E-05-4.33976E-05 5.89269E-06-1.97336E-06 1.41327E-17-9.45426E-18
 -1      1700 2.28611E-05-7.45161E-05 1.54762E-05-3.17782E-06-2.68687E-18-4.42363E-18
 -1      1701 2.08481E-05-6.91502E-05 1.44799E-05 5.83320E-06 5.08559E-18-4.92041E-18
 -1      1702 1.92130E-05-6.08958E-05 1.20118E-05-6.23479E-06-1.26267E-17-6.72650E-18
 -1      1703 2.34913E-05-7.33574E-05 1.46760E-05 6.74978E-08-5.82399E-18-4.74720E-18
 -1      1704 2.14192E-05-3.18379E-05 6.16036E-07 7.96119E-06-1.88312E-17-1.18487E-17
 -1      1705 2.44491E-05-5.47585E-05 7.22880E-06 1.20722E-06-1.44165E-17-8.00629E-18
 -1      1706 3.95244E-05-5.90174E-06-1.59511E-05 3.46026E-05-2.20686E-17-1.83984E-17
 -1      1707 3.04756E-05-2.48117E-05-6.75495E-06 1.44012E-05-2.09844E-17-1.39405E-17
 -1      1708 8.70101E-05-2.16150E-06-3.50696E-05 6.57130E-05-1.98553E-17-2.29749E-17
 -1      1709 5.83532E-05-3.86766E-06-2.51853E-05 4.35338E-05-2.15875E-17-2.01026E-17
 -1      1710 1.55673E-04-2.13794E-05-5.36063E-05 7.86622E-05-1.45880E-17-2.31579E-17
 -1      1711 1.11390E-04-5.43406E-06-4.43368E-05 6.98812E-05-1.85424E-17-2.34704E-17
 -1      1712 2.18718E-04-4.83703E-05-6.73231E-05 5.66073E-05-8.80671E-18-1.69398E-17
 -1      1713 1.79186E-04-2.86898E-05-6.08597E-05 6.97835E-05-1.24105E-17-2.08709E-17
 -1      1714 2.55712E-04-6.52253E-05-7.47597E-05 1.73697E-05-4.76160E-18-9.35887E-18
 -1      1715 2.36176E-04-5.42370E-05-7.20911E-05 4.74241E-05-7.15838E-18-1.54359E-17
 -1      1716 2.47902E-04-6.04396E-05-7.41693E-05-3.20178E-05-4.80670E-18 1.28071E-18
 -1      1717 2.58119E-04-6.60893E-05-7.54339E-05 1.55829E-06-4.32643E-18-5.78254E-18
 -1      1718 1.94216E-04-3.49488E-05-6.42113E-05-6.38131E-05-7.40677E-18 9.31567E-18
 -1      1719 2.31899E-04-5.43621E-05-7.01850E-05-4.31280E-05-5.15218E-18 3.85781E-18
 -1      1720 1.33299E-04-1.18015E-05-5.00961E-05-7.38355E-05-1.13917E-17 1.47621E-17
 -1      1721 1.74288E-04-2.90414E-05-5.78763E-05-7.55272E-05-8.16879E-18 1.26902E-17
 -1      1722 7.83754E-05-2.42107E-06-3.30929E-05-5.58282E-05-1.52178E-17 1.49061E-17
 -1      1723 1.11080E-04-7.54712E-06-4.20686E-05-7.27250E-05-1.25734E-17 1.54711E-17
 -1      1724 4.25128E-05-1.21785E-05-1.59011E-05-2.90075E-05-1.72964E-17 1.26919E-17
 -1      1725 5.90722E-05-2.10842E-06-2.45985E-05-4.94083E-05-1.61800E-17 1.41429E-17
 -1      1726 2.83433E-05-3.91750E-05-1.65686E-07-7.81737E-06-1.29647E-17 9.09248E-18
 -1      1727 3.13152E-05-1.83160E-05-8.05275E-06-2.22058E-05-1.57091E-17 1.19830E-17
 -1      1728 2.35713E-05-6.40508E-05 1.10975E-05 2.06749E-06-7.31879E-18 5.02460E-18
 -1      1729 1.86083E-05-4.42983E-05 6.25265E-06 1.13997E-06-1.25268E-17 8.55355E-18
 -1      1730 2.31194E-05-7.44536E-05 1.56817E-05-1.89688E-06 1.34286E-18 3.34070E-18
 -1      1731 2.07051E-05-6.71262E-05 1.40017E-05 5.79449E-06-4.80183E-18 4.34740E-18
 -1      1732 1.10270E-04-2.97020E-05-3.38576E-05 4.64117E-05 9.40122E-18 8.24587E-18
 -1      1733 7.35239E-05-3.72075E-05-1.70572E-05 3.95511E-05 8.66345E-18 6.92788E-18
 -1      1734 9.52368E-05-2.85714E-05-2.85709E-05-5.68863E-10-1.61719E-18 8.18750E-19
 -1      1735 9.52365E-05-2.85724E-05-2.85703E-05-2.17036E-09-3.18650E-19 2.45340E-18
 -1      1736 1.83773E-05-4.66810E-05 7.95617E-06 1.43460E-05 5.35621E-18 7.61821E-18
 -1      1737 4.17956E-05-4.18259E-05-2.46480E-06 3.07626E-05 7.57840E-18 7.80935E-18
 -1      1738 1.13203E-05-4.83480E-05 1.14310E-05 8.79628E-07 1.68782E-18 7.47041E-18
 -1      1739 1.54628E-04-3.02384E-05-5.03927E-05 4.49305E-05 8.48325E-18 6.61702E-18
 -1      1740 1.92085E-04-3.32897E-05-6.34139E-05 3.12770E-05 8.00139E-18 2.45936E-18
 -1      1741 2.05498E-04-3.14066E-05-6.95412E-05 8.41594E-06 8.31278E-18-1.98121E-18
 -1      1742 2.05382E-04-3.26531E-05-6.89521E-05-1.45760E-05 9.21148E-18-7.21566E-18
 -1      1743 1.84630E-04-3.29235E-05-6.09296E-05-3.28265E-05 1.04407E-17-1.20380E-17
 -1      1744 1.45992E-04-3.27188E-05-4.63532E-05-4.12716E-05 1.13221E-17-1.36567E-17
 -1      1745 1.01174E-04-3.18754E-05-2.93631E-05-4.46786E-05 1.27610E-17-1.45918E-17
 -1      1746 5.98844E-05-3.41081E-05-1.29626E-05-3.63992E-05 1.23167E-17-1.33734E-17
 -1      1747 3.24602E-05-4.05869E-05 1.71848E-07-2.52805E-05 7.75628E-18-1.10501E-17
 -1      1748 1.53938E-05-4.52489E-05 8.71156E-06-1.24252E-05 3.28395E-18-9.51726E-18
 -1      1749 1.19096E-05-4.96673E-05 1.13423E-05 2.88771E-06-2.30224E-18-8.80279E-18
 -1      1750 2.13939E-05-4.45570E-05 5.98338E-06 1.75042E-05-7.13710E-18-9.59731E-18
 -1      1751 4.44304E-05-3.83412E-05-5.39730E-06 3.04449E-05-1.09055E-17-1.12436E-17
 -1      1752 7.88949E-05-3.13235E-05-2.13115E-05 4.16185E-05-1.35170E-17-1.39108E-17
 -1      1753 1.23407E-04-2.92291E-05-3.89572E-05 4.75504E-05-1.30553E-17-1.50281E-17
 -1      1754 1.67145E-04-3.12857E-05-5.47654E-05 3.96844E-05-1.12993E-17-1.30680E-17
 -1      1755 1.98906E-04-3.38431E-05-6.60085E-05 2.35126E-05-9.40927E-18-1.01724E-17
 -1      1756 2.16315E-04-3.66699E-05-7.12374E-05 4.52578E-06-8.22977E-18-6.14861E-18
 -1      1757 2.03416E-04-3.37119E-05-6.80267E-05-1.50959E-05-7.88334E-18-7.87741E-19
 -1      1758 1.77123E-04-3.20300E-05-5.84117E-05-3.44667E-05-7.51149E-18 3.44488E-18
 -1      1759 1.39287E-04-2.99665E-05-4.46685E-05-4.63626E-05-8.44407E-18 7.74188E-18
 -1      1760 9.84082E-05-3.06854E-05-2.89451E-05-4.47060E-05-9.16490E-18 7.90112E-18
 -1      1761 6.35839E-05-3.66826E-05-1.33229E-05-3.68854E-05-7.59789E-18 7.78572E-18
 -1      1762 3.52585E-05-4.27373E-05 4.25794E-08-2.61849E-05-5.06865E-18 8.69032E-18
 -1      1763 1.70308E-05-4.82569E-05 8.98690E-06-1.20522E-05-2.46656E-18 7.94242E-18
 -1      1764 1.18585E-04-2.69125E-05-3.93783E-05-1.36365E-05-2.55065E-18 1.05316E-17
 -1      1765 9.35739E-05-1.18529E-05-3.51699E-05-6.41505E-06-3.13213E-18-3.42794E-18
 -1      1766 9.71904E-05-1.35569E-05-3.59671E-05-8.52246E-06-3.59335E-18-2.23490E-18
 -1      1767 1.01390E-04-1.66065E-05-3.65170E-05-9.93302E-06-3.67782E-18-7.72494E-19
 -1      1768 1.05110E-04-1.92089E-05-3.72769E-05-1.21107E-05-3.93981E-18 1.20099E-18
 -1      1769 1.01630E-04-1.90554E-05-3.54066E-05-7.33493E-06-3.77897E-18-1.23781E-18
 -1      1770 8.09357E-05-5.53133E-06-3.24035E-05-1.21758E-06-1.66488E-18-5.61318E-18
 -1      1771 8.36333E-05-6.49888E-06-3.30812E-05-2.26180E-06-2.06372E-18-5.31495E-18
 -1      1772 7.59925E-05-3.17188E-06-3.12768E-05-2.13157E-08-9.27382E-19-6.05313E-18
 -1      1773 7.81992E-05-3.95369E-06-3.18247E-05-5.89452E-07-1.29947E-18-5.86767E-18
 -1      1774 8.06155E-05-6.63027E-06-3.17406E-05-3.24554E-07-1.57136E-18-5.53588E-18
 -1      1775 7.25399E-05-1.48141E-06-3.05018E-05 2.56620E-07-3.11252E-19-6.29395E-18
 -1      1776 7.39627E-05-1.98632E-06-3.08509E-05 8.39979E-08-6.32654E-19-6.17969E-18
 -1      1777 7.55836E-05-3.88378E-06-3.07462E-05 4.67760E-07-7.81897E-19-5.97713E-18
 -1      1778 7.10679E-05-7.26750E-07-3.01736E-05-5.56904E-08 2.49656E-19-6.34369E-18
 -1      1779 7.14982E-05-8.73006E-07-3.02831E-05-1.88392E-08-8.04020E-21-6.37313E-18
 -1      1780 7.23328E-05-2.09541E-06-3.01063E-05 3.38819E-07-1.46209E-19-6.22342E-18
 -1      1781 7.18061E-05-1.05284E-06-3.03325E-05-4.47411E-07 7.61188E-19-6.20622E-18
 -1      1782 7.11827E-05-8.15318E-07-3.01908E-05-4.42208E-07 4.91472E-19-6.28917E-18
 -1      1783 7.13605E-05-1.57997E-06-2.99068E-05-2.98565E-07 3.97179E-19-6.21621E-18
 -1      1784 7.46010E-05-2.38288E-06-3.09520E-05-3.80859E-07 1.33335E-18-5.96237E-18
 -1      1785 7.30423E-05-1.81052E-06-3.05804E-05-6.37148E-07 1.06769E-18-6.14655E-18
 -1      1786 7.28129E-05-2.43229E-06-3.01718E-05-8.44775E-07 9.72445E-19-6.07378E-18
 -1      1787 7.89043E-05-4.41952E-06-3.19276E-05 5.16363E-07 1.99672E-18-5.37440E-18
 -1      1788 7.66960E-05-3.62724E-06-3.13847E-05-1.43417E-07 1.63199E-18-5.70815E-18
 -1      1789 7.63660E-05-4.43738E-06-3.08493E-05-7.43201E-07 1.57290E-18-5.64696E-18
 -1      1790 8.43349E-05-6.97887E-06-3.31774E-05 2.44293E-06 2.73855E-18-4.43800E-18
 -1      1791 8.16353E-05-6.00405E-06-3.25010E-05 1.28064E-06 2.32512E-18-4.96130E-18
 -1      1792 8.14612E-05-7.24471E-06-3.18446E-05 3.20854E-07 2.27044E-18-4.96109E-18
 -1      1793 9.04917E-05-9.99467E-06-3.45648E-05 5.35963E-06 3.47162E-18-3.13286E-18
 -1      1794 8.74577E-05-8.81159E-06-3.38185E-05 3.68717E-06 3.06105E-18-3.87240E-18
 -1      1795 8.75970E-05-1.06053E-05-3.30402E-05 2.37737E-06 3.03226E-18-3.87351E-18
 -1      1796 9.74940E-05-1.39254E-05-3.59613E-05 9.03967E-06 4.08900E-18-9.46030E-19
 -1      1797 9.39862E-05-1.22308E-05-3.51962E-05 6.89785E-06 3.72239E-18-2.21399E-18
 -1      1798 9.44462E-05-1.45350E-05-3.42793E-05 5.13907E-06 3.73340E-18-2.39555E-18
 -1      1799 1.06493E-04-2.03601E-05-3.71074E-05 1.25475E-05 4.04114E-18 3.06594E-18
 -1      1800 1.01742E-04-1.71156E-05-3.64583E-05 1.04662E-05 4.00292E-18 6.35592E-19
 -1      1801 1.02248E-04-1.97066E-05-3.53628E-05 7.85283E-06 4.17810E-18 1.31290E-20
 -1      1802 1.14570E-04-2.91448E-05-3.70466E-05 1.04345E-05 3.49952E-18 8.11405E-18
 -1      1803 1.09736E-04-2.32761E-05-3.70615E-05 1.23361E-05 3.78532E-18 4.83412E-18
 -1      1804 1.08850E-04-2.56824E-05-3.57095E-05 8.14853E-06 4.16526E-18 3.13715E-18
 -1      1805 1.12444E-04-3.05154E-05-3.53083E-05 5.49060E-06 3.55587E-18 7.05533E-18
 -1      1806 1.12527E-04-2.33910E-05-3.79111E-05-1.43191E-05-3.44042E-18 4.62279E-18
 -1      1807 1.10865E-04-3.22535E-05-3.37170E-05 7.01524E-07 2.83817E-18 5.39548E-18
 -1      1808 1.12182E-04-3.20042E-05-3.44047E-05 2.80684E-06 2.98108E-18 6.44374E-18
 -1      1809 1.10914E-04-3.00148E-05-3.46787E-05 4.39642E-06 3.54144E-18 4.21288E-18
 -1      1810 1.11932E-04-2.64343E-05-3.63688E-05-9.45893E-06-3.64698E-18 3.24975E-18
 -1      1811 1.11561E-04-3.17270E-05-3.40969E-05-1.29812E-06-2.87774E-18 2.85916E-18
 -1      1812 1.10842E-04-3.21931E-05-3.36940E-05 1.51863E-07-2.46780E-18 2.12525E-18
 -1      1813 1.10879E-04-3.27735E-05-3.33812E-05 1.19065E-06-2.14832E-18 2.15506E-18
 -1      1814 1.11005E-04-3.33142E-05-3.32998E-05 1.46820E-06-1.81432E-18 1.57475E-18
 -1      1815 1.09554E-04-3.15576E-05-3.34608E-05 3.58746E-07-2.68963E-18 6.22136E-19
 -1      1816 1.11426E-04-3.38975E-05-3.31728E-05 1.43610E-06-1.47964E-18 1.60695E-18
 -1      1817 1.11638E-04-3.43911E-05-3.31470E-05 9.01935E-07-1.18845E-18 1.19810E-18
 -1      1818 1.10237E-04-3.33909E-05-3.29611E-05 1.63211E-06-1.96336E-18 5.52328E-19
 -1      1819 1.12237E-04-3.49876E-05-3.30817E-05-7.44652E-08-9.75332E-19 1.34715E-18
 -1      1820 1.12075E-04-3.52804E-05-3.29776E-05-1.28416E-06-9.20784E-19 1.11289E-18
 -1      1821 1.11448E-04-3.51006E-05-3.27349E-05 6.36720E-07-1.25385E-18 5.48798E-19
 -1      1822 1.12520E-04-3.56887E-05-3.29234E-05-3.02702E-06-8.93276E-19 1.26623E-18
 -1      1823 1.11621E-04-3.55024E-05-3.26826E-05-4.63312E-06-6.16243E-19 9.03979E-19
 -1      1824 1.12639E-04-3.64821E-05-3.26314E-05-2.27892E-06-9.45100E-19 7.51906E-19
 -1      1825 1.11490E-04-3.53701E-05-3.26420E-05-6.64388E-06-5.43451E-19 9.48634E-19
 -1      1826 1.09724E-04-3.44413E-05-3.22816E-05-8.04084E-06-7.07875E-19 7.30884E-19
 -1      1827 1.13022E-04-3.68108E-05-3.26269E-05-6.42332E-06-7.76236E-19 5.61560E-19
 -1      1828 1.08694E-04-3.34676E-05-3.22823E-05-9.34924E-06-8.13550E-19 6.75059E-19
 -1      1829 1.06359E-04-3.18370E-05-3.18909E-05-9.66324E-06-1.13508E-18 5.18464E-19
 -1      1830 1.11788E-04-3.52277E-05-3.27655E-05-1.02284E-05-1.00805E-18 6.39014E-19
 -1      1831 1.04640E-04-3.02092E-05-3.19440E-05-9.13650E-06-1.66791E-18 3.84659E-19
 -1      1832 1.02535E-04-2.84908E-05-3.16460E-05-7.72682E-06-1.68696E-18 1.34877E-19
 -1      1833 1.08785E-04-3.16195E-05-3.30585E-05-1.13037E-05-1.49101E-18 5.44119E-19
 -1      1834 1.01081E-04-2.71005E-05-3.17138E-05-4.96193E-06-1.83275E-18-4.72426E-19
 -1      1835 1.00189E-04-2.62840E-05-3.16094E-05-2.10712E-06-1.90975E-18-1.12240E-18
 -1      1836 1.05277E-04-2.74896E-05-3.33994E-05-7.74808E-06-2.20869E-18-2.80829E-19
 -1      1837 1.00102E-04-2.61723E-05-3.16318E-05 1.81134E-06-1.95568E-18-1.98189E-18
 -1      1838 1.00936E-04-2.68300E-05-3.17581E-05 4.79205E-06-1.41080E-18-2.67574E-18
 -1      1839 1.03557E-04-2.54471E-05-3.35870E-05-1.91361E-07-2.40418E-18-1.41699E-18
 -1      1840 1.02319E-04-2.81004E-05-3.17243E-05 7.84847E-06-1.00455E-18-3.36392E-18
 -1      1841 1.04491E-04-2.98111E-05-3.20495E-05 9.53155E-06-5.14711E-19-3.92859E-18
 -1      1842 1.04991E-04-2.70131E-05-3.34953E-05 7.71328E-06-1.76993E-18-2.53126E-18
 -1      1843 1.06327E-04-3.15151E-05-3.20092E-05 1.03895E-05-1.10242E-19-4.53572E-18
 -1      1844 1.08866E-04-3.32901E-05-3.24374E-05 1.02894E-05 8.55057E-20-4.46310E-18
 -1      1845 1.08545E-04-3.10647E-05-3.32012E-05 1.19978E-05-7.62836E-19-3.88104E-18
 -1      1846 1.10075E-04-3.44322E-05-3.24310E-05 9.11856E-06-8.32078E-20-4.72188E-18
 -1      1847 1.12090E-04-3.55560E-05-3.28308E-05 7.75726E-06-8.80120E-22-4.60889E-18
 -1      1848 1.11882E-04-3.50020E-05-3.28969E-05 1.14340E-05-1.55298E-19-4.29354E-18
 -1      1849 1.12313E-04-3.58318E-05-3.28424E-05 5.62085E-06-7.86616E-20-4.80246E-18
 -1      1850 1.13381E-04-3.61736E-05-3.31027E-05 3.85763E-06 2.33106E-19-4.28262E-18
 -1      1851 1.13437E-04-3.70344E-05-3.26958E-05 7.60673E-06 7.84829E-21-4.97635E-18
 -1      1852 1.12834E-04-3.58238E-05-3.30859E-05 1.75598E-06 2.96554E-19-3.70995E-18
 -1      1853 1.12968E-04-3.56106E-05-3.31585E-05 2.25650E-07 3.70140E-19-3.28845E-18
 -1      1854 1.13091E-04-3.70398E-05-3.25683E-05 2.88261E-06 3.72966E-19-4.11609E-18
 -1      1855 1.12017E-04-3.49960E-05-3.30790E-05-1.32636E-06 1.61201E-19-3.22364E-18
 -1      1856 1.11454E-04-3.45102E-05-3.29779E-05-2.36082E-06 2.46215E-19-3.42873E-18
 -1      1857 1.11503E-04-3.58307E-05-3.24252E-05-1.11029E-06 3.61415E-19-3.46195E-18
 -1      1858 1.10372E-04-3.38773E-05-3.28301E-05-3.26601E-06 8.61128E-20-3.30632E-18
 -1      1859 1.09394E-04-3.33182E-05-3.26047E-05-3.80689E-06-1.12377E-19-3.34005E-18
 -1      1860 1.09370E-04-3.42423E-05-3.22017E-05-3.76032E-06 8.12854E-20-3.04100E-18
 -1      1861 1.08332E-04-3.27758E-05-3.24044E-05-4.17985E-06-5.25779E-19-3.04463E-18
 -1      1862 1.07176E-04-3.22476E-05-3.21116E-05-4.34620E-06-2.60666E-19-3.23304E-18
 -1      1863 1.07143E-04-3.27652E-05-3.18842E-05-5.11980E-06-2.04893E-19-2.85546E-18
 -1      1864 1.06201E-04-3.18193E-05-3.18831E-05-4.35775E-06-7.34835E-20-3.19063E-18
 -1      1865 1.05032E-04-3.13633E-05-3.15701E-05-4.28633E-06 6.43938E-20-3.67546E-18
 -1      1866 1.05048E-04-3.15789E-05-3.14956E-05-5.51027E-06-5.25520E-19-2.22184E-18
 -1      1867 1.04170E-04-3.10367E-05-3.13365E-05-4.08826E-06 2.72085E-19-3.71751E-18
 -1      1868 1.03086E-04-3.06615E-05-3.10357E-05-3.89016E-06-5.46932E-21-3.39867E-18
 -1      1869 1.03176E-04-3.06927E-05-3.10733E-05-5.28342E-06 2.56785E-19-2.37382E-18
 -1      1870 1.02344E-04-3.04153E-05-3.08140E-05-3.59289E-06 8.29142E-19-2.75767E-18
 -1      1871 1.01394E-04-3.01154E-05-3.05439E-05-3.34411E-06 1.44646E-18-1.87764E-18
 -1      1872 1.01555E-04-3.00529E-05-3.06528E-05-4.72305E-06 8.74141E-19-1.66286E-18
 -1      1873 1.00770E-04-2.99302E-05-3.03447E-05-3.01853E-06 7.48866E-19-1.70733E-18
 -1      1874 9.99710E-05-2.96955E-05-3.01135E-05-2.76506E-06 8.04281E-19-1.48626E-18
 -1      1875 1.00184E-04-2.95971E-05-3.02599E-05-4.02540E-06 1.08632E-18-7.78721E-19
 -1      1876 9.94551E-05-2.95560E-05-2.99416E-05-2.45200E-06 8.46685E-19-1.65020E-18
 -1      1877 9.88041E-05-2.93754E-05-2.97506E-05-2.21841E-06 6.54455E-19-1.33325E-18
 -1      1878 9.90456E-05-2.92732E-05-2.99102E-05-3.31179E-06 6.76957E-19-2.05508E-18
 -1      1879 9.83860E-05-2.92706E-05-2.96070E-05-1.93844E-06 2.39682E-19-1.35957E-18
 -1      1880 9.78690E-05-2.91339E-05-2.94536E-05-1.73567E-06-5.15367E-20-1.31307E-18
 -1      1881 9.81179E-05-2.90430E-05-2.96105E-05-2.64922E-06 5.58538E-19-2.35224E-18
 -1      1882 9.75362E-05-2.90555E-05-2.93369E-05-1.49679E-06-1.27304E-19-1.53300E-18
 -1      1883 9.71350E-05-2.89539E-05-2.92167E-05-1.32775E-06-3.38157E-19-1.60447E-18
 -1      1884 9.73751E-05-2.88796E-05-2.93613E-05-2.06904E-06 1.15954E-19-2.10271E-18
 -1      1885 9.68749E-05-2.88958E-05-2.91239E-05-1.13071E-06-7.52451E-19-1.42031E-18
 -1      1886 9.65701E-05-2.88216E-05-2.90317E-05-9.93981E-07-3.81100E-19-1.49668E-18
 -1      1887 9.67907E-05-2.87644E-05-2.91593E-05-1.58102E-06-1.77967E-19-2.02480E-18
 -1      1888 9.63704E-05-2.87792E-05-2.89596E-05-8.35715E-07-1.49600E-19-1.07661E-18
 -1      1889 9.61436E-05-2.87262E-05-2.88904E-05-7.27789E-07 2.81922E-19-1.08735E-18
 -1      1890 9.63389E-05-2.86840E-05-2.89993E-05-1.18270E-06-3.17750E-19-1.39596E-18
 -1      1891 9.59932E-05-2.86958E-05-2.88354E-05-6.03500E-07-2.09652E-19-1.63361E-18
 -1      1892 9.58283E-05-2.86590E-05-2.87846E-05-5.20123E-07-1.08043E-18-2.04803E-18
 -1      1893 9.59959E-05-2.86290E-05-2.88751E-05-8.65474E-07-4.60414E-19-1.41393E-18
 -1      1894 9.57172E-05-2.86377E-05-2.87435E-05-4.24495E-07-1.27189E-18-1.67294E-18
 -1      1895 9.56002E-05-2.86129E-05-2.87070E-05-3.61375E-07-6.87858E-19-1.82603E-18
 -1      1896 9.57405E-05-2.85925E-05-2.87806E-05-6.18196E-07-8.13339E-19-1.07844E-18
 -1      1897 9.55200E-05-2.85984E-05-2.86770E-05-2.89244E-07-8.17791E-19-1.52189E-18
 -1      1898 9.54395E-05-2.85824E-05-2.86516E-05-2.42423E-07-9.80682E-19-1.07494E-18
 -1      1899 9.55542E-05-2.85692E-05-2.87101E-05-4.29263E-07-7.04295E-19-3.36029E-19
 -1      1900 9.53830E-05-2.85730E-05-2.86301E-05-1.89110E-07-1.57175E-18-8.91319E-19
 -1      1901 9.53296E-05-2.85634E-05-2.86130E-05-1.55126E-07-7.57097E-19-1.68326E-18
 -1      1902 9.54216E-05-2.85554E-05-2.86587E-05-2.87743E-07-1.21122E-18-4.62433E-19
 -1      1903 9.52911E-05-2.85576E-05-2.85981E-05-1.16577E-07-6.10979E-19-2.48225E-18
 -1      1904 9.52576E-05-2.85524E-05-2.85871E-05-9.25065E-08 2.26864E-19-2.73557E-18
 -1      1905 9.53299E-05-2.85480E-05-2.86221E-05-1.83914E-07-1.02417E-18-4.02035E-19
 -1      1906 9.52324E-05-2.85492E-05-2.85771E-05-6.53223E-08 7.73052E-19-3.44605E-18
 -1      1907 9.52129E-05-2.85470E-05-2.85705E-05-4.87611E-08 6.46624E-19-3.30680E-18
 -1      1908 9.52687E-05-2.85451E-05-2.85968E-05-1.09459E-07 4.84810E-20-2.25125E-18
 -1      1909 9.51974E-05-2.85455E-05-2.85641E-05-3.01583E-08 6.73519E-19-3.46014E-18
 -1      1910 9.51877E-05-2.85453E-05-2.85606E-05-1.91747E-08 5.35167E-19-2.49789E-18
 -1      1911 9.52299E-05-2.85450E-05-2.85800E-05-5.74628E-08 9.14271E-19-2.00859E-18
 -1      1912 9.51790E-05-2.85450E-05-2.85568E-05-6.92380E-09-3.44958E-20-2.20458E-18
 -1      1913 9.51759E-05-2.85460E-05-2.85553E-05 4.99056E-12-3.14491E-20-2.19327E-18
 -1      1914 9.52071E-05-2.85466E-05-2.85693E-05-2.23105E-08 5.79728E-19-1.85755E-19
 -1      1915 9.51719E-05-2.85464E-05-2.85534E-05 7.65581E-09 6.75540E-19-2.44129E-18
 -1      1916 9.51730E-05-2.85481E-05-2.85533E-05 1.17079E-08 6.28717E-19-2.28350E-18
 -1      1917 9.51954E-05-2.85492E-05-2.85630E-05 4.65085E-10 2.84326E-19-1.23025E-19
 -1      1918 9.51721E-05-2.85490E-05-2.85526E-05 1.61093E-08 2.44392E-19-2.11618E-18
 -1      1919 9.51757E-05-2.85510E-05-2.85533E-05 1.81788E-08-1.74597E-19-1.93508E-18
 -1      1920 9.51913E-05-2.85523E-05-2.85599E-05 1.43509E-08 3.61760E-19-7.58632E-19
 -1      1921 9.51767E-05-2.85520E-05-2.85534E-05 2.03516E-08-1.69622E-19-1.49261E-18
 -1      1922 9.51816E-05-2.85541E-05-2.85546E-05 2.11027E-08-3.57512E-19-1.08891E-18
 -1      1923 9.51921E-05-2.85553E-05-2.85588E-05 2.20166E-08-6.07768E-20-4.31960E-19
 -1      1924 9.51839E-05-2.85552E-05-2.85551E-05 2.18015E-08-7.05394E-19-9.83700E-19
 -1      1925 9.51893E-05-2.85572E-05-2.85566E-05 2.17150E-08-4.35439E-19-5.80081E-19
 -1      1926 9.51958E-05-2.85583E-05-2.85590E-05 2.54644E-08-5.11776E-19 5.21116E-19
 -1      1927 9.51921E-05-2.85583E-05-2.85574E-05 2.14816E-08-2.53958E-19-4.14478E-19
 -1      1928 9.51975E-05-2.85601E-05-2.85589E-05 2.08929E-08 1.05649E-18 6.45912E-19
 -1      1929 9.52010E-05-2.85610E-05-2.85600E-05 2.61587E-08 4.13965E-19 1.94196E-18
 -1      1930 9.52006E-05-2.85612E-05-2.85598E-05 2.01003E-08 2.76477E-18-2.98563E-19
 -1      1931 9.52057E-05-2.85628E-05-2.85612E-05 1.92295E-08 3.19538E-18 7.66436E-19
 -1      1932 9.52070E-05-2.85635E-05-2.85615E-05 2.51356E-08 1.24153E-18 1.75005E-18
 -1      1933 9.52087E-05-2.85638E-05-2.85622E-05 1.81161E-08 1.66059E-18 9.52515E-19
 -1      1934 9.52134E-05-2.85653E-05-2.85635E-05 1.70901E-08 1.50146E-18 1.18124E-18
 -1      1935 9.52131E-05-2.85657E-05-2.85632E-05 2.30905E-08 2.16921E-18 1.19294E-18
 -1      1936 9.52161E-05-2.85661E-05-2.85644E-05 1.57868E-08 1.67052E-18 7.84167E-19
 -1      1937 9.52202E-05-2.85674E-05-2.85655E-05 1.46557E-08 1.67971E-18 1.61193E-18
 -1      1938 9.52189E-05-2.85676E-05-2.85648E-05 2.04475E-08 1.18250E-18 1.01526E-18
 -1      1939 9.52227E-05-2.85682E-05-2.85663E-05 1.32076E-08 6.65557E-19 1.56527E-18
 -1      1940 9.52261E-05-2.85693E-05-2.85672E-05 1.19575E-08 2.03829E-19 8.77371E-19
 -1      1941 9.52241E-05-2.85694E-05-2.85663E-05 1.74150E-08 1.06484E-18 1.15055E-18
 -1      1942 9.52282E-05-2.85701E-05-2.85678E-05 1.03528E-08 2.66318E-19-5.54686E-19
 -1      1943 9.52309E-05-2.85710E-05-2.85686E-05 8.92287E-09 9.22982E-19-1.45039E-19
 -1      1944 9.52287E-05-2.85710E-05-2.85676E-05 1.40399E-08-8.07760E-19 3.17049E-19
 -1      1945 9.52325E-05-2.85716E-05-2.85690E-05 7.22678E-09 9.65079E-19-2.09621E-19
 -1      1946 9.52344E-05-2.85723E-05-2.85695E-05 5.64124E-09 5.98473E-19-5.93825E-19
 -1      1947 9.52352E-05-2.85733E-05-2.85693E-05 6.63316E-09 7.42328E-19 3.87155E-19
 -1      1948 9.52325E-05-2.85724E-05-2.85686E-05 1.03937E-08 6.77812E-19-3.19593E-19
 -1      1949 1.10509E-04-3.29899E-05-3.32100E-05-9.08338E-07 2.14555E-18 4.13581E-18
 -1      1950 1.10764E-04-3.27444E-05-3.33868E-05-2.14429E-07 2.37826E-18 5.05734E-18
 -1      1951 1.10210E-04-3.20767E-05-3.35034E-05 3.71483E-07 2.86444E-18 3.33320E-18
 -1      1952 1.10770E-04-3.36403E-05-3.30618E-05-7.72206E-07 1.31809E-18 3.23382E-18
 -1      1953 1.10681E-04-3.33873E-05-3.30935E-05-8.81703E-07 1.59122E-18 3.91336E-18
 -1      1954 1.10212E-04-3.31687E-05-3.30291E-05-8.64243E-07 2.00439E-18 2.84218E-18
 -1      1955 1.10887E-04-3.41522E-05-3.29074E-05 7.31510E-07 8.52734E-19 2.87708E-18
 -1      1956 1.10989E-04-3.40125E-05-3.29852E-05-2.41502E-08 8.04754E-19 3.02592E-18
 -1      1957 1.10650E-04-3.40983E-05-3.28089E-05-1.52431E-07 1.19810E-18 2.19185E-18
 -1      1958 1.10138E-04-3.42166E-05-3.25567E-05 3.26755E-06 2.47373E-19 2.84309E-18
 -1      1959 1.10828E-04-3.43664E-05-3.27818E-05 2.01238E-06 5.73018E-19 3.02286E-18
 -1      1960 1.10865E-04-3.47560E-05-3.26028E-05 2.08690E-06 6.30067E-19 2.02615E-18
 -1      1961 1.08007E-04-3.34454E-05-3.19543E-05 6.09414E-06 3.96881E-19 2.64984E-18
 -1      1962 1.09492E-04-3.40443E-05-3.23525E-05 4.69891E-06 2.82949E-19 2.81871E-18
 -1      1963 1.10188E-04-3.47152E-05-3.23103E-05 5.25560E-06 4.29300E-19 1.97756E-18
 -1      1964 1.04466E-04-3.16400E-05-3.11883E-05 7.90792E-06 4.87423E-19 2.13268E-18
 -1      1965 1.06633E-04-3.27000E-05-3.16978E-05 7.01113E-06 5.15393E-19 2.36186E-18
 -1      1966 1.08145E-04-3.35159E-05-3.19394E-05 8.18469E-06 6.06323E-19 1.98047E-18
 -1      1967 1.00317E-04-2.91791E-05-3.04652E-05 7.27118E-06 1.32988E-18 1.18492E-18
 -1      1968 1.02634E-04-3.04193E-05-3.09472E-05 7.55576E-06 8.60855E-19 1.74092E-18
 -1      1969 1.04864E-04-3.11277E-05-3.15768E-05 9.19545E-06 1.20082E-18 1.38456E-18
 -1      1970 9.71678E-05-2.71389E-05-3.00177E-05 3.62295E-06 1.06540E-18 6.55064E-19
 -1      1971 9.87867E-05-2.80083E-05-3.03111E-05 5.32112E-06 1.28181E-18 7.81308E-19
 -1      1972 1.01402E-04-2.83657E-05-3.13241E-05 6.91092E-06 1.60400E-18 8.84170E-19
 -1      1973 9.66715E-05-2.67513E-05-2.99997E-05-1.82241E-06 1.57444E-18-5.19218E-19
 -1      1974 9.68371E-05-2.67514E-05-2.99938E-05 6.68103E-07 1.50981E-18 1.66826E-20
 -1      1975 9.94604E-05-2.67029E-05-3.12393E-05 1.50392E-06 1.77480E-18 6.72663E-20
 -1      1976 9.92325E-05-2.83074E-05-3.04300E-05-6.58694E-06 8.42857E-19-1.52118E-18
 -1      1977 9.78022E-05-2.74191E-05-3.01162E-05-4.44284E-06 1.20557E-18-1.13167E-18
 -1      1978 1.00214E-04-2.72042E-05-3.13337E-05-4.78805E-06 1.58681E-18-1.50569E-18
 -1      1979 1.03653E-04-3.09098E-05-3.11812E-05-8.66718E-06 8.48934E-19-2.62899E-18
 -1      1980 1.01210E-04-2.95993E-05-3.06609E-05-7.72828E-06 7.42305E-19-1.81499E-18
 -1      1981 1.03292E-04-2.95860E-05-3.15918E-05-9.09080E-06 1.12919E-18-2.35996E-18
 -1      1982 1.08033E-04-3.32468E-05-3.20267E-05-7.78112E-06-6.92979E-20-2.66314E-18
 -1      1983 1.05500E-04-3.20898E-05-3.14643E-05-8.12142E-06 3.97086E-19-2.70249E-18
 -1      1984 1.07099E-04-3.24697E-05-3.19636E-05-9.88847E-06 6.39627E-19-2.93484E-18
 -1      1985 1.11019E-04-3.45699E-05-3.27271E-05-5.06853E-06 1.73814E-19-2.77141E-18
 -1      1986 1.09125E-04-3.38786E-05-3.22779E-05-6.18475E-06-4.23384E-20-2.70030E-18
 -1      1987 1.10054E-04-3.45244E-05-3.23527E-05-7.72318E-06 2.67345E-19-3.49907E-18
 -1      1988 1.12205E-04-3.48444E-05-3.31231E-05-1.95339E-06 2.90784E-19-2.43085E-18
 -1      1989 1.11252E-04-3.46375E-05-3.28762E-05-3.24585E-06 1.90946E-19-2.63382E-18
 -1      1990 1.11445E-04-3.52760E-05-3.26394E-05-4.19328E-06 1.53670E-19-3.44741E-18
 -1      1991 1.11851E-04-3.44055E-05-3.31730E-05 6.12558E-07 9.20718E-19-2.27150E-18
 -1      1992 1.11782E-04-3.45478E-05-3.31401E-05-4.60752E-07 6.35572E-19-2.11350E-18
 -1      1993 1.11350E-04-3.49777E-05-3.27367E-05-7.51582E-07 7.99784E-19-2.56555E-18
 -1      1994 1.10466E-04-3.36229E-05-3.29272E-05 2.28673E-06 8.09413E-19-1.52787E-18
 -1      1995 1.11043E-04-3.39575E-05-3.30670E-05 1.57615E-06 9.42609E-19-1.57476E-18
 -1      1996 1.10210E-04-3.41176E-05-3.26196E-05 1.82140E-06 7.97938E-19-2.30974E-18
 -1      1997 1.08533E-04-3.27492E-05-3.24811E-05 3.12831E-06-8.05742E-19-1.65923E-18
 -1      1998 1.09489E-04-3.31587E-05-3.27316E-05 2.76013E-06 8.55801E-20-1.48492E-18
 -1      1999 1.08490E-04-3.30961E-05-3.23189E-05 3.35815E-06 1.52314E-19-1.46491E-18
 -1      2000 1.06416E-04-3.19191E-05-3.19331E-05 3.35500E-06-1.15681E-18-1.76255E-18
 -1      2001 1.07530E-04-3.23316E-05-3.22357E-05 3.24251E-06-8.15852E-19-1.73679E-18
 -1      2002 1.06543E-04-3.21309E-05-3.18954E-05 4.02175E-06-7.29601E-19-1.49023E-18
 -1      2003 1.04352E-04-3.11901E-05-3.13616E-05 3.19674E-06-1.56344E-19-1.63189E-18
 -1      2004 1.05469E-04-3.15677E-05-3.16722E-05 3.24662E-06-9.37550E-19-1.75103E-18
 -1      2005 1.04600E-04-3.13067E-05-3.14139E-05 4.07686E-06-8.82576E-19-1.49933E-18
 -1      2006 1.02477E-04-3.05782E-05-3.08192E-05 2.83579E-06 1.09505E-18-1.84664E-18
 -1      2007 1.03506E-04-3.09045E-05-3.11099E-05 2.97319E-06 3.90902E-19-2.05954E-18
 -1      2008 1.02797E-04-3.06376E-05-3.09272E-05 3.76935E-06 3.93655E-19-1.60204E-18
 -1      2009 1.00853E-04-3.00795E-05-3.03355E-05 2.39605E-06-2.65229E-19-1.67762E-18
 -1      2010 1.01748E-04-3.03507E-05-3.05914E-05 2.56952E-06 7.65506E-19-1.32350E-18
 -1      2011 1.01206E-04-3.01089E-05-3.04712E-05 3.28396E-06 5.23972E-19-1.84813E-18
 -1      2012 9.94955E-05-2.96822E-05-2.99229E-05 1.95256E-06-1.03496E-18-1.83379E-18
 -1      2013 1.00244E-04-2.99009E-05-3.01386E-05 2.13051E-06-1.20960E-18-2.12200E-18
 -1      2014 9.98498E-05-2.96978E-05-3.00664E-05 2.74249E-06-7.66315E-19-1.11629E-18
 -1      2015 9.83939E-05-2.93715E-05-2.95828E-05 1.54562E-06-4.74853E-19-2.47048E-19
 -1      2016 9.89997E-05-2.95436E-05-2.97586E-05 1.71072E-06-6.63219E-19-1.14015E-18
 -1      2017 9.87282E-05-2.93820E-05-2.97212E-05 2.21681E-06-7.50263E-19-3.53850E-19
 -1      2018 9.75213E-05-2.91330E-05-2.93103E-05 1.19315E-06-3.56365E-19-3.84289E-19
 -1      2019 9.79989E-05-2.92655E-05-2.94496E-05 1.33738E-06-4.01336E-19-5.74321E-19
 -1      2020 9.78228E-05-2.91422E-05-2.94360E-05 1.74414E-06-4.34554E-19 1.09686E-20
 -1      2021 9.68455E-05-2.89532E-05-2.90971E-05 8.99819E-07 7.49752E-19-2.54552E-20
 -1      2022 9.72131E-05-2.90531E-05-2.92049E-05 1.02073E-06 1.29983E-19-7.58868E-20
 -1      2023 9.71080E-05-2.89625E-05-2.92068E-05 1.33972E-06 2.75382E-19-2.27940E-19
 -1      2024 9.63330E-05-2.88204E-05-2.89340E-05 6.62990E-07 7.23605E-19 6.59891E-20
 -1      2025 9.66098E-05-2.88940E-05-2.90156E-05 7.61262E-07 6.81555E-19 3.11643E-19
 -1      2026 9.65551E-05-2.88297E-05-2.90267E-05 1.00586E-06 6.69715E-19-1.70389E-19
 -1      2027 9.59528E-05-2.87243E-05-2.88120E-05 4.76518E-07-4.30419E-20 6.13396E-19
 -1      2028 9.61564E-05-2.87773E-05-2.88724E-05 5.54394E-07 1.95842E-19 6.45110E-19
 -1      2029 9.61362E-05-2.87335E-05-2.88883E-05 7.37875E-07 3.12551E-19 8.57314E-19
 -1      2030 9.56772E-05-2.86566E-05-2.87228E-05 3.32936E-07-1.27503E-19 5.04374E-19
 -1      2031 9.58233E-05-2.86937E-05-2.87664E-05 3.93289E-07-2.41185E-20 9.66486E-19
 -1      2032 9.58254E-05-2.86653E-05-2.87842E-05 5.27845E-07 2.58849E-19 1.26428E-18
 -1      2033 9.54826E-05-2.86102E-05-2.86592E-05 2.24711E-07-2.89967E-19-4.51773E-19
 -1      2034 9.55845E-05-2.86354E-05-2.86898E-05 2.70512E-07-3.48408E-20-4.18414E-19
 -1      2035 9.55999E-05-2.86182E-05-2.87076E-05 3.66772E-07 3.00414E-19 1.41652E-18
 -1      2036 9.53494E-05-2.85798E-05-2.86151E-05 1.44882E-07 7.02607E-19-1.27786E-18
 -1      2037 9.54180E-05-2.85961E-05-2.86359E-05 1.78915E-07-1.61770E-19-1.34311E-18
 -1      2038 9.54406E-05-2.85868E-05-2.86525E-05 2.45821E-07 5.27159E-19-1.11487E-18
 -1      2039 9.52619E-05-2.85609E-05-2.85858E-05 8.73521E-08-2.67280E-19-8.38572E-19
 -1      2040 9.53060E-05-2.85708E-05-2.85993E-05 1.12084E-07 4.18706E-19-7.86152E-19
 -1      2041 9.53314E-05-2.85669E-05-2.86141E-05 1.56948E-07 2.61466E-19-1.81148E-18
 -1      2042 9.52076E-05-2.85502E-05-2.85671E-05 4.69779E-08-5.92034E-19-7.35540E-19
 -1      2043 9.52341E-05-2.85556E-05-2.85754E-05 6.45080E-08-4.09668E-19-1.63710E-19
 -1      2044 9.52596E-05-2.85552E-05-2.85882E-05 9.31711E-08-2.43952E-19 7.61356E-20
 -1      2045 9.51769E-05-2.85451E-05-2.85562E-05 1.95363E-08 5.71427E-19-1.69456E-18
 -1      2046 9.51910E-05-2.85475E-05-2.85607E-05 3.16012E-08-3.06923E-19-1.27050E-18
 -1      2047 9.52149E-05-2.85492E-05-2.85715E-05 4.86322E-08-2.14696E-19-7.92677E-19
 -1      2048 9.51624E-05-2.85438E-05-2.85506E-05 1.64106E-09 6.40746E-19-1.49412E-18
 -1      2049 9.51682E-05-2.85441E-05-2.85526E-05 9.64303E-09 9.80526E-19-1.66002E-18
 -1      2050 9.51895E-05-2.85470E-05-2.85615E-05 1.85444E-08 1.04399E-18-1.49365E-18
 -1      2051 9.51588E-05-2.85448E-05-2.85486E-05-9.36788E-09-8.43919E-19-9.84605E-19
 -1      2052 9.51590E-05-2.85439E-05-2.85490E-05-4.31989E-09 1.46991E-19-7.33492E-19
 -1      2053 9.51775E-05-2.85473E-05-2.85561E-05-9.16484E-10 3.04622E-19-1.12836E-18
 -1      2054 9.51619E-05-2.85472E-05-2.85490E-05-1.55388E-08 3.51311E-19-1.08703E-19
 -1      2055 9.51588E-05-2.85456E-05-2.85483E-05-1.25852E-08-4.57052E-19-6.17689E-19
 -1      2056 9.51743E-05-2.85490E-05-2.85539E-05-1.27435E-08-5.87234E-19-1.62342E-18
 -1      2057 9.51691E-05-2.85503E-05-2.85508E-05-1.84170E-08-1.44781E-19 1.16561E-19
 -1      2058 9.51641E-05-2.85483E-05-2.85495E-05-1.69048E-08 1.84952E-19 7.09878E-19
 -1      2059 9.51767E-05-2.85516E-05-2.85538E-05-1.92330E-08-3.88262E-20 6.74091E-19
 -1      2060 9.51783E-05-2.85536E-05-2.85533E-05-1.91415E-08-7.34565E-19 4.06630E-19
 -1      2061 9.51724E-05-2.85516E-05-2.85517E-05-1.85859E-08-4.43801E-19 4.98409E-19
 -1      2062 9.51825E-05-2.85545E-05-2.85550E-05-2.21093E-08-8.78980E-19 6.03106E-19
 -1      2063 9.51882E-05-2.85570E-05-2.85562E-05-1.85275E-08-2.63709E-19 1.35965E-21
 -1      2064 9.51821E-05-2.85550E-05-2.85545E-05-1.85790E-08-7.61782E-19-7.73571E-19
 -1      2065 9.51899E-05-2.85575E-05-2.85568E-05-2.26360E-08-1.78070E-19-1.10468E-18
 -1      2066 9.51980E-05-2.85601E-05-2.85591E-05-1.71337E-08-3.35991E-19 4.25618E-20
 -1      2067 9.51922E-05-2.85583E-05-2.85574E-05-1.75510E-08-8.09159E-20 2.58979E-19
 -1      2068 9.51980E-05-2.85603E-05-2.85591E-05-2.17088E-08-3.37090E-19-2.97757E-19
 -1      2069 9.52073E-05-2.85630E-05-2.85618E-05-1.53140E-08 1.16195E-18-3.31223E-20
 -1      2070 9.52019E-05-2.85613E-05-2.85603E-05-1.59437E-08 3.67564E-19 2.75880E-19
 -1      2071 9.52061E-05-2.85629E-05-2.85614E-05-1.99306E-08 4.82157E-19 3.26706E-19
 -1      2072 9.52155E-05-2.85655E-05-2.85643E-05-1.32559E-08 1.72415E-18 4.52768E-19
 -1      2073 9.52108E-05-2.85640E-05-2.85629E-05-1.40180E-08 1.60171E-18 8.87152E-19
 -1      2074 9.52136E-05-2.85653E-05-2.85636E-05-1.76704E-08 1.21520E-18 1.20430E-18
 -1      2075 9.52227E-05-2.85677E-05-2.85664E-05-1.10059E-08 3.47449E-19 5.42375E-19
 -1      2076 9.52186E-05-2.85665E-05-2.85653E-05-1.18855E-08 6.47843E-19 7.87456E-19
 -1      2077 9.52203E-05-2.85674E-05-2.85655E-05-1.51065E-08 4.37577E-19 1.87134E-18
 -1      2078 9.52286E-05-2.85696E-05-2.85681E-05-8.50408E-09 1.11393E-19 1.66732E-18
 -1      2079 9.52253E-05-2.85686E-05-2.85672E-05-9.53779E-09 2.51895E-19 1.48152E-18
 -1      2080 9.52262E-05-2.85693E-05-2.85672E-05-1.22626E-08 1.07255E-19 1.68642E-18
 -1      2081 9.52330E-05-2.85712E-05-2.85694E-05-5.64067E-09-2.33641E-19 2.24486E-18
 -1      2082 9.52307E-05-2.85704E-05-2.85687E-05-6.89652E-09 1.05642E-19 1.85686E-18
 -1      2083 9.52310E-05-2.85710E-05-2.85686E-05-9.08223E-09 2.43585E-19 2.68409E-18
 -1      2084 9.52356E-05-2.85721E-05-2.85701E-05-3.24905E-09 8.83626E-20 2.77357E-18
 -1      2085 9.52341E-05-2.85716E-05-2.85697E-05-4.66020E-09 3.16283E-19 2.68376E-18
 -1      2086 9.52342E-05-2.85722E-05-2.85694E-05-6.29637E-09 9.96336E-21 3.62867E-18
 -1      2087 9.52360E-05-2.85730E-05-2.85699E-05-4.08816E-09-5.73938E-20 3.43910E-18
 -1      2088 9.52412E-05-2.85845E-05-2.85671E-05-9.45053E-09 3.13284E-19 5.30445E-19
 -1      2089 9.52401E-05-2.85820E-05-2.85678E-05-9.35417E-09 3.40407E-19 9.58405E-20
 -1      2090 9.52391E-05-2.85800E-05-2.85682E-05-8.89205E-09 1.03076E-18 6.52350E-19
 -1      2091 9.52380E-05-2.85777E-05-2.85687E-05-8.09816E-09 7.24773E-19 1.46870E-18
 -1      2092 9.52391E-05-2.85805E-05-2.85680E-05-1.15502E-08-3.03479E-19-2.50160E-19
 -1      2093 9.52373E-05-2.85762E-05-2.85691E-05-6.93455E-09 9.27426E-19 7.83042E-19
 -1      2094 9.52365E-05-2.85743E-05-2.85695E-05-5.59799E-09-1.69371E-20 1.72292E-18
 -1      2095 9.52357E-05-2.85740E-05-2.85693E-05-6.81254E-09 2.39378E-19 1.81157E-18
 -1      2096 9.52371E-05-2.85769E-05-2.85687E-05-9.69448E-09 6.14618E-19 1.02653E-18
 -1      2097 9.52432E-05-2.85887E-05-2.85661E-05-8.67054E-09-2.16774E-18-1.93284E-18
 -1      2098 9.52422E-05-2.85864E-05-2.85667E-05-9.15047E-09-7.55860E-19 2.46985E-19
 -1      2099 9.52416E-05-2.85846E-05-2.85673E-05-1.16881E-08-1.91551E-18-9.44940E-19
 -1      2100 9.52447E-05-2.85923E-05-2.85653E-05-6.76669E-09 1.08833E-19-9.39643E-19
 -1      2101 9.52440E-05-2.85904E-05-2.85658E-05-7.71435E-09-1.10284E-18 9.86509E-20
 -1      2102 9.52436E-05-2.85884E-05-2.85666E-05-1.02688E-08-2.06984E-18-2.59255E-19
 -1      2103 9.52458E-05-2.85947E-05-2.85647E-05-4.05884E-09-8.75963E-20-1.10713E-18
 -1      2104 9.52453E-05-2.85935E-05-2.85650E-05-5.31996E-09 6.46490E-19-9.12646E-19
 -1      2105 9.52452E-05-2.85913E-05-2.85660E-05-7.56775E-09-2.70911E-19-1.36106E-18
 -1      2106 9.52463E-05-2.85958E-05-2.85644E-05-8.95366E-10-1.25173E-18-1.63377E-18
 -1      2107 9.52461E-05-2.85954E-05-2.85645E-05-2.31387E-09-1.19890E-18-1.49671E-18
 -1      2108 9.52463E-05-2.85932E-05-2.85656E-05-3.98878E-09-9.40472E-19-2.27997E-18
 -1      2109 9.52461E-05-2.85954E-05-2.85645E-05 2.36589E-09-1.08081E-18-8.77877E-19
 -1      2110 9.52463E-05-2.85958E-05-2.85644E-05 9.48728E-10-1.08010E-18-1.90332E-19
 -1      2111 9.52466E-05-2.85939E-05-2.85655E-05 3.33322E-11-1.84925E-18-5.23666E-19
 -1      2112 9.52453E-05-2.85935E-05-2.85650E-05 5.36473E-09-1.28082E-18-1.46024E-18
 -1      2113 9.52458E-05-2.85947E-05-2.85647E-05 4.10808E-09-8.13609E-19-1.10011E-18
 -1      2114 9.52462E-05-2.85932E-05-2.85656E-05 4.05216E-09-1.96798E-18-7.25239E-19
 -1      2115 9.52440E-05-2.85904E-05-2.85658E-05 7.71289E-09-1.58537E-18-2.82549E-18
 -1      2116 9.52447E-05-2.85923E-05-2.85653E-05 6.78452E-09-1.64223E-18-2.62616E-18
 -1      2117 9.52452E-05-2.85913E-05-2.85660E-05 7.59627E-09-1.08742E-18-2.85749E-18
 -1      2118 9.52422E-05-2.85864E-05-2.85667E-05 9.15625E-09-2.38493E-19 3.06417E-18
 -1      2119 9.52432E-05-2.85887E-05-2.85661E-05 8.67218E-09-1.37720E-18 1.35037E-18
 -1      2120 9.52436E-05-2.85884E-05-2.85666E-05 1.02695E-08-4.85107E-19-1.64353E-19
 -1      2121 9.52401E-05-2.85820E-05-2.85678E-05 9.34736E-09 1.05204E-18-1.57394E-20
 -1      2122 9.52412E-05-2.85844E-05-2.85672E-05 9.45445E-09 6.73932E-19 2.96719E-19
 -1      2123 9.52415E-05-2.85846E-05-2.85673E-05 1.16950E-08 9.14353E-19 2.39224E-18
 -1      2124 9.52379E-05-2.85775E-05-2.85688E-05 8.11800E-09 3.99435E-19 6.05789E-19
 -1      2125 9.52390E-05-2.85799E-05-2.85682E-05 8.87139E-09 5.17761E-19 4.72707E-20
 -1      2126 9.52391E-05-2.85804E-05-2.85680E-05 1.15212E-08 6.57201E-19-3.51931E-19
 -1      2127 5.75345E-05-3.98041E-05-8.09559E-06 4.03592E-05 1.91768E-18 4.38001E-18
 -1      2128 4.08008E-05-4.00445E-05-1.63073E-06 3.18634E-05 2.25438E-18 5.96756E-18
 -1      2129 1.22306E-05-3.05496E-05 6.88540E-06 5.79529E-06 1.96872E-18 7.28618E-18
 -1      2130 1.24755E-05-3.20055E-05 7.19812E-06-4.53096E-06-1.45478E-19 7.56739E-18
 -1      2131 2.79990E-05-3.41558E-05 1.82477E-06 2.70772E-05 2.65926E-18 6.67631E-18
 -1      2132 1.94439E-05-3.27694E-05 4.75363E-06 1.84273E-05 9.91452E-19 6.34809E-18
 -1      2133 4.20896E-05-3.29165E-05-4.00683E-06 3.58294E-05-1.30867E-18 5.42990E-18
 -1      2134 9.51707E-05-4.18916E-05-2.27453E-05 4.24529E-05 6.11177E-18 3.89169E-18
 -1      2135 7.96521E-05-4.51484E-05-1.53227E-05 4.00621E-05 4.34570E-18 3.37437E-18
 -1      2136 1.29886E-04-4.10970E-05-3.74929E-05 3.77778E-05 5.64717E-18 3.99418E-18
 -1      2137 1.09697E-04-4.25415E-05-2.94210E-05 3.63139E-05 5.85639E-18 4.30377E-18
 -1      2138 8.68317E-05-8.35877E-06-3.37402E-05-3.38135E-06-2.43353E-18-4.81573E-18
 -1      2139 8.99442E-05-9.56606E-06-3.45091E-05-4.97678E-06-2.89930E-18-4.16609E-18
 -1      2140 9.38360E-05-1.40493E-05-3.42567E-05-4.74691E-06-3.10774E-18-3.49005E-18
 -1      2141 8.68211E-05-1.00014E-05-3.29596E-05-2.13645E-06-2.32556E-18-4.76578E-18
 -1      2142 1.78627E-04-3.02071E-05-6.25448E-05 1.17750E-05 7.60085E-18-1.04863E-18
 -1      2143 1.67398E-04-3.07789E-05-5.77564E-05 1.94604E-05 7.56898E-18 8.00870E-19
 -1      2144 1.74446E-04-2.09445E-05-6.51260E-05-4.41690E-07 8.75409E-18-3.46554E-18
 -1      2145 1.75435E-04-2.35131E-05-6.40985E-05 5.32901E-06 8.48431E-18-1.63033E-18
 -1      2146 1.79292E-04-2.67126E-05-6.40982E-05-1.03341E-05 9.36903E-18-5.96565E-18
 -1      2147 1.78529E-04-2.32215E-05-6.57277E-05-1.85715E-06 9.02344E-18-3.54843E-18
 -1      2148 1.61101E-04-3.16102E-05-5.51752E-05-1.82622E-05 9.28179E-18-7.27601E-18
 -1      2149 1.77115E-04-3.13797E-05-6.10044E-05-1.52910E-05 9.29661E-18-6.49081E-18
 -1      2150 1.61454E-04-2.22636E-05-5.85087E-05-4.91388E-07 9.18141E-18-3.08638E-18
 -1      2151 1.36535E-04-4.25546E-05-4.05240E-05-2.61022E-05 7.57565E-18-7.50641E-18
 -1      2152 1.54444E-04-4.03663E-05-4.82027E-05-2.36019E-05 7.97852E-18-6.89019E-18
 -1      2153 1.00348E-04-4.40716E-05-2.49448E-05-3.75251E-05 7.39206E-18-9.86370E-18
 -1      2154 1.21484E-04-4.43191E-05-3.29795E-05-3.82575E-05 7.35309E-18-8.95822E-18
 -1      2155 6.42838E-05-4.15164E-05-1.10480E-05-3.73471E-05 6.18969E-18-9.83871E-18
 -1      2156 8.17285E-05-3.98043E-05-1.82231E-05-4.29690E-05 7.74527E-18-1.05797E-17
 -1      2157 3.60169E-05-3.65008E-05-8.36614E-07-3.11506E-05 2.61606E-18-9.38703E-18
 -1      2158 4.90122E-05-3.69635E-05-5.88193E-06-3.73938E-05 5.62811E-18-1.01931E-17
 -1      2159 1.43308E-05-3.24495E-05 6.27460E-06-1.04269E-05 2.36852E-19-9.38343E-18
 -1      2160 1.97361E-05-2.91551E-05 3.24647E-06-2.13886E-05 2.47567E-18-9.66888E-18
 -1      2161 1.24469E-05-3.14510E-05 6.79556E-06 7.97538E-06-2.24527E-18-9.26188E-18
 -1      2162 1.15083E-05-3.18670E-05 7.38152E-06-1.11239E-06 4.48875E-19-9.29110E-18
 -1      2163 1.49082E-05-2.13106E-05 2.16486E-06-7.68796E-06 1.35525E-19-1.06231E-17
 -1      2164 3.00252E-05-3.23976E-05 2.53334E-07 2.93528E-05-4.18011E-18-9.00396E-18
 -1      2165 2.05215E-05-3.45649E-05 4.46596E-06 1.90675E-05-2.16523E-18-8.97431E-18
 -1      2166 6.33368E-05-3.84210E-05-1.12445E-05 4.06079E-05-7.71647E-18-9.61446E-18
 -1      2167 4.77089E-05-3.98828E-05-4.63306E-06 3.42971E-05-5.20375E-18-8.56933E-18
 -1      2168 1.01745E-04-4.03173E-05-2.62323E-05 4.29974E-05-8.77992E-18-1.02224E-17
 -1      2169 8.14705E-05-4.21318E-05-1.79767E-05 3.82778E-05-8.19843E-18-9.44929E-18
 -1      2170 1.40131E-04-3.98939E-05-4.23013E-05 3.60726E-05-9.08104E-18-9.74257E-18
 -1      2171 1.18820E-04-4.05258E-05-3.40132E-05 3.55363E-05-8.92857E-18-1.00378E-17
 -1      2172 1.65962E-04-3.56304E-05-5.50105E-05 1.91578E-05-8.60585E-18-7.05113E-18
 -1      2173 1.51127E-04-3.68995E-05-4.86177E-05 2.53124E-05-9.09735E-18-8.69268E-18
 -1      2174 1.83404E-04-2.85313E-05-6.47573E-05 8.80696E-06-8.79093E-18-6.20219E-18
 -1      2175 1.70747E-04-2.78809E-05-6.05448E-05 1.28612E-05-8.85975E-18-7.05748E-18
 -1      2176 1.86080E-04-2.57377E-05-6.73834E-05-1.66593E-06-8.56520E-18-3.69603E-18
 -1      2177 1.84714E-04-2.57121E-05-6.68062E-05 5.79169E-06-8.76001E-18-5.82759E-18
 -1      2178 1.70942E-04-2.44394E-05-6.21417E-05-7.42141E-06-8.35894E-18-1.75463E-18
 -1      2179 1.83159E-04-2.55846E-05-6.57952E-05-3.89122E-06-8.64524E-18-3.04932E-18
 -1      2180 1.58301E-04-3.47662E-05-5.23145E-05-2.18667E-05-6.41823E-18 1.61572E-18
 -1      2181 1.68936E-04-3.25399E-05-5.76997E-05-1.29126E-05-6.68965E-18-1.09903E-18
 -1      2182 1.32154E-04-4.02967E-05-3.95968E-05-3.15812E-05-6.25746E-18 3.57363E-18
 -1      2183 1.50580E-04-3.95391E-05-4.67335E-05-3.05518E-05-6.03649E-18 2.67662E-18
 -1      2184 1.00641E-04-4.36666E-05-2.52226E-05-3.73344E-05-5.44049E-18 3.89805E-18
 -1      2185 1.19464E-04-4.20425E-05-3.27753E-05-3.95420E-05-5.77719E-18 4.24279E-18
 -1      2186 6.85838E-05-4.38432E-05-1.16651E-05-3.78970E-05-2.69992E-18 4.99961E-18
 -1      2187 8.48409E-05-4.14849E-05-1.87178E-05-4.22214E-05-4.78320E-18 4.58054E-18
 -1      2188 3.66321E-05-3.95048E-05-9.27102E-08-2.96692E-05-8.77103E-19 6.72968E-18
 -1      2189 5.04690E-05-3.82141E-05-5.67846E-06-3.82492E-05-1.47384E-18 6.24803E-18
 -1      2190 1.66737E-05-3.45726E-05 6.39030E-06-1.45026E-05 4.97632E-19 7.30142E-18
 -1      2191 2.31364E-05-3.47117E-05 3.85775E-06-2.27063E-05-1.53186E-18 7.73849E-18
 -1      2192 3.57819E-05-3.24659E-05-1.92618E-06-3.29580E-05 1.04905E-18 6.91941E-18
 -1      2193 1.71617E-05-2.43329E-05 2.45062E-06-1.18603E-05 8.86420E-19 8.22723E-18
 -1      2194 1.60559E-04-3.74322E-05-5.17380E-05 2.49745E-05 6.42488E-18 9.57571E-19
 -1      2195 1.42104E-04-3.83975E-05-4.44801E-05 2.75507E-05 6.28477E-18 2.41320E-18
 -1      2196 1.42429E-04-4.85991E-05-3.97090E-05 2.01198E-05 3.66765E-18-9.88911E-19
 -1      2197 1.10382E-04-2.86269E-05-3.51176E-05-5.14011E-06-3.47903E-18 2.39418E-18
 -1      2198 1.57785E-04-3.50010E-05-5.17105E-05 6.13740E-06 5.99371E-18-2.41362E-18
 -1      2199 1.08045E-04-2.70916E-05-3.47755E-05-4.68101E-06-3.58276E-18 4.47405E-19
 -1      2200 1.99053E-05-2.38217E-05 1.31808E-06 1.52585E-05 3.62107E-20 7.31879E-18
 -1      2201 9.22705E-05-5.17187E-05-1.79427E-05 4.13829E-05-9.11407E-19 1.14588E-19
 -1      2202 7.50587E-05-4.58927E-05-1.27192E-05 4.12033E-05 9.11407E-19 2.71951E-18
 -1      2203 7.18859E-05-4.33790E-05-1.15990E-05 4.30373E-05-2.10721E-18 1.65426E-18
 -1      2204 9.52371E-05-2.85761E-05-2.85690E-05 7.85108E-09 5.01529E-19 2.54404E-19
 -1      2205 1.15753E-04-5.29764E-05-2.68352E-05 3.45292E-05 2.35263E-18 1.10305E-18
 -1      2206 6.97772E-05-4.52127E-05-1.08884E-05-4.15378E-05 9.81711E-19 4.35206E-18
 -1      2207 1.06147E-04-5.26836E-05-2.29574E-05-3.76935E-05-1.42683E-18 2.35115E-18
 -1      2208 1.35066E-04-5.12781E-05-3.54719E-05-2.53815E-05-3.33900E-18 8.05105E-19
 -1      2209 1.53037E-04-4.14014E-05-4.70595E-05-1.09438E-05-5.03450E-18-1.68687E-18
 -1      2210 1.62900E-04-2.71680E-05-5.75828E-05-2.72596E-06-7.06976E-18-2.49282E-18
 -1      2211 1.49396E-04-1.97028E-05-5.59935E-05 7.14725E-06-7.68301E-18-3.92388E-18
 -1      2212 1.50940E-04-2.86633E-05-5.21847E-05 4.10793E-06-6.20346E-18-3.85442E-18
 -1      2213 1.61695E-04-1.46358E-05-6.19953E-05 1.35956E-06-9.52150E-18-3.79185E-18
 -1      2214 1.64217E-04-1.75329E-05-6.16275E-05-1.97009E-07-9.05648E-18-3.80667E-18
 -1      2215 1.60202E-04-3.06069E-05-5.46598E-05 3.20910E-06-7.85200E-18-3.83452E-18
 -1      2216 1.48259E-04-4.50928E-05-4.34795E-05 1.67801E-05-6.36503E-18-4.90432E-18
 -1      2217 1.21936E-04-5.11127E-05-3.01235E-05 3.29869E-05-5.09533E-18-6.48954E-18
 -1      2218 8.53407E-05-4.77295E-05-1.64118E-05 4.15948E-05-3.38093E-18-7.50916E-18
 -1      2219 1.94970E-05-2.37966E-05 1.31733E-06 1.71446E-05-1.46325E-19-1.00856E-17
 -1      2220 3.39389E-05-2.95752E-05-2.23479E-06-3.07614E-05 3.71000E-19-1.00287E-17
 -1      2221 6.85316E-05-4.32385E-05-1.12180E-05-4.21775E-05 1.64282E-18-8.84800E-18
 -1      2222 1.04332E-04-5.16695E-05-2.24490E-05-3.88512E-05 2.93666E-18-7.16526E-18
 -1      2223 1.54394E-04-3.86592E-05-4.90589E-05-6.03843E-06 6.82910E-18-3.07261E-18
 -1      2224 1.59244E-04-1.93243E-05-5.89897E-05-6.49608E-07 8.17048E-18-3.02518E-18
 -1      2225 1.58526E-04-1.40048E-05-6.11816E-05-7.86725E-07 9.33515E-18-2.97078E-18
 -1      2226 1.36913E-04-5.24996E-05-3.57823E-05-2.23766E-05 4.20869E-18-4.16656E-18
 -1      2227 4.66800E-05-3.56023E-05-5.19603E-06 3.68593E-05-1.26250E-18-8.70178E-18
 -1      2228 1.08756E-04-3.13219E-05-3.31931E-05-8.84999E-08 2.69550E-18 1.77794E-18
 -1      2229 1.08905E-04-3.03619E-05-3.35849E-05 1.27782E-06 3.12145E-18 2.09330E-18
 -1      2230 7.47466E-05-4.67216E-06-3.00840E-05 1.42804E-06-5.10203E-19-5.82257E-18
 -1      2231 7.70552E-05-5.85268E-06-3.05042E-05 1.28584E-06-8.75366E-19-5.69421E-18
 -1      2232 7.99720E-05-7.79294E-06-3.09956E-05 1.16225E-06-1.17174E-18-5.45133E-18
 -1      2233 8.30161E-05-9.37568E-06-3.15605E-05 4.94859E-07-1.66014E-18-5.08171E-18
 -1      2234 7.92739E-05-8.58172E-06-3.02982E-05 2.27855E-06-8.59886E-19-5.27491E-18
 -1      2235 7.11850E-05-2.46501E-06-2.94619E-05-5.68390E-07 5.31838E-19-6.04781E-18
 -1      2236 7.10365E-05-2.37463E-06-2.94438E-05-1.93260E-07 2.42107E-19-6.09110E-18
 -1      2237 7.35185E-05-3.86025E-06-2.98466E-05-1.52329E-06 1.11015E-18-5.84189E-18
 -1      2238 7.20778E-05-3.10362E-06-2.95995E-05-1.36001E-06 7.39685E-19-5.97767E-18
 -1      2239 7.17888E-05-3.86404E-06-2.90829E-05-1.32456E-06 5.94043E-19-5.81694E-18
 -1      2240 7.80123E-05-6.55343E-06-3.06136E-05-1.56118E-06 1.68869E-18-5.31328E-18
 -1      2241 7.56275E-05-5.31625E-06-3.01874E-05-1.84408E-06 1.30649E-18-5.62377E-18
 -1      2242 7.50083E-05-5.98338E-06-2.95707E-05-2.49909E-06 1.08161E-18-5.46982E-18
 -1      2243 8.40098E-05-1.01235E-05-3.16673E-05-4.33759E-07 2.43431E-18-4.55237E-18
 -1      2244 8.09770E-05-8.53509E-06-3.11076E-05-1.24047E-06 1.98009E-18-4.95217E-18
 -1      2245 8.03761E-05-9.42788E-06-3.04150E-05-2.49014E-06 1.69178E-18-4.84223E-18
 -1      2246 9.07378E-05-1.41733E-05-3.28472E-05 1.68284E-06 3.12904E-18-3.35365E-18
 -1      2247 8.73946E-05-1.23325E-05-3.22338E-05 4.55660E-07 2.65710E-18-3.97591E-18
 -1      2248 8.70124E-05-1.35953E-05-3.14810E-05-1.22792E-06 2.36206E-18-3.94716E-18
 -1      2249 9.78472E-05-1.87436E-05-3.39924E-05 4.21355E-06 3.80069E-18-1.90146E-18
 -1      2250 9.42921E-05-1.65217E-05-3.33987E-05 2.83458E-06 3.33412E-18-2.66862E-18
 -1      2251 9.41019E-05-1.80600E-05-3.25944E-05 8.19759E-07 2.98870E-18-2.68918E-18
 -1      2252 1.09428E-04-3.31765E-05-3.27046E-05-1.10667E-06 1.85374E-18 1.54316E-18
 -1      2253 1.09273E-04-3.23902E-05-3.28724E-05-9.51294E-07 2.25460E-18 1.77685E-18
 -1      2254 1.07523E-04-3.09391E-05-3.28524E-05-4.86974E-07 2.68372E-18 5.97367E-19
 -1      2255 1.07461E-04-2.93939E-05-3.33896E-05-2.49390E-07-2.72311E-18-2.76651E-19
 -1      2256 1.07680E-04-3.07542E-05-3.30043E-05 1.21310E-06-2.33123E-18-3.69144E-19
 -1      2257 1.52342E-04-3.14646E-05-5.21538E-05-2.28610E-06 5.75008E-18-3.83092E-18
 -1      2258 1.47921E-04-3.88111E-05-4.69220E-05 1.76594E-07 4.42712E-18-4.10705E-18
 -1      2259 1.08681E-04-3.22240E-05-3.26867E-05 2.07348E-06-1.92269E-18-5.62896E-20
 -1      2260 1.09198E-04-3.34533E-05-3.25045E-05 2.23040E-06-1.52534E-18-5.22100E-20
 -1      2261 1.06253E-04-3.04340E-05-3.25274E-05 1.95095E-06-2.09675E-18-9.82885E-19
 -1      2262 1.10542E-04-3.49012E-05-3.23474E-05 1.96659E-06-1.18328E-18 1.85879E-19
 -1      2263 1.11203E-04-3.60657E-05-3.22641E-05 1.04493E-06-8.61193E-19 1.45372E-19
 -1      2264 1.08636E-04-3.40636E-05-3.20125E-05 2.81552E-06-1.27391E-18-4.53123E-19
 -1      2265 1.12879E-04-3.74667E-05-3.22658E-05-3.98899E-07-7.15543E-19 4.79493E-19
 -1      2266 1.13351E-04-3.82587E-05-3.22546E-05-2.22248E-06-7.22678E-19 5.29641E-19
 -1      2267 1.11750E-04-3.75718E-05-3.18418E-05 1.30100E-06-7.99421E-19-1.00858E-19
 -1      2268 1.14913E-04-3.91030E-05-3.24680E-05-4.68846E-06-5.55210E-19 7.56412E-19
 -1      2269 1.14744E-04-3.88957E-05-3.25566E-05-6.91258E-06-5.93942E-19 6.15007E-19
 -1      2270 1.15120E-04-4.02920E-05-3.20927E-05-2.57023E-06-5.94276E-19 6.24673E-19
 -1      2271 1.15365E-04-3.83537E-05-3.30551E-05-9.64703E-06-9.01134E-19 9.30397E-19
 -1      2272 1.14215E-04-3.65473E-05-3.32786E-05-1.12428E-05-1.18694E-18 8.89503E-19
 -1      2273 1.17450E-04-4.05502E-05-3.29300E-05-8.03261E-06-7.00521E-19 1.02783E-18
 -1      2274 1.13201E-04-3.41104E-05-3.40286E-05-1.25850E-05-1.42408E-18 7.79585E-19
 -1      2275 1.11304E-04-3.10030E-05-3.43485E-05-1.21999E-05-1.82144E-18 6.41907E-19
 -1      2276 1.17090E-04-3.66964E-05-3.44246E-05-1.26680E-05-1.39998E-18 9.93212E-19
 -1      2277 1.09161E-04-2.76112E-05-3.51064E-05-1.04078E-05-2.65050E-18 7.95847E-20
 -1      2278 1.07553E-04-2.48964E-05-3.53736E-05-7.39128E-06-3.03026E-18-3.28644E-19
 -1      2279 1.13735E-04-2.92467E-05-3.62460E-05-1.26891E-05-2.64866E-18 5.57606E-19
 -1      2280 1.06246E-04-2.30353E-05-3.57403E-05-2.50168E-06-3.16846E-18-1.39209E-18
 -1      2281 1.06149E-04-2.28092E-05-3.57753E-05 1.94575E-06-3.02309E-18-1.88222E-18
 -1      2282 1.09980E-04-2.25285E-05-3.76134E-05-5.74453E-06-3.70603E-18-9.06745E-19
 -1      2283 1.07115E-04-2.41919E-05-3.55076E-05 7.11241E-06-2.56227E-18-2.73558E-18
 -1      2284 1.08636E-04-2.66613E-05-3.52867E-05 1.04892E-05-1.85050E-18-3.16889E-18
 -1      2285 1.09620E-04-2.19147E-05-3.77300E-05 5.15638E-06-3.25793E-18-2.71153E-18
 -1      2286 1.10815E-04-3.00365E-05-3.45503E-05 1.28296E-05-1.40991E-18-3.50306E-18
 -1      2287 1.12832E-04-3.33004E-05-3.42303E-05 1.35766E-05-7.98937E-19-3.75476E-18
 -1      2288 1.13063E-04-2.80121E-05-3.65020E-05 1.30799E-05-2.02319E-18-3.72234E-18
 -1      2289 1.14098E-04-3.60560E-05-3.34270E-05 1.25293E-05-2.99681E-19-4.29388E-18
 -1      2290 1.15440E-04-3.81992E-05-3.31713E-05 1.10399E-05-1.04003E-19-4.47443E-18
 -1      2291 1.16755E-04-3.58615E-05-3.46344E-05 1.39830E-05-8.06269E-19-4.23237E-18
 -1      2292 1.15000E-04-3.91022E-05-3.25741E-05 8.20227E-06-6.84409E-20-4.20052E-18
 -1      2293 1.15277E-04-3.96238E-05-3.24238E-05 5.77110E-06 2.30850E-19-4.13395E-18
 -1      2294 1.17596E-04-4.06080E-05-3.29608E-05 9.44870E-06-3.92588E-20-4.45163E-18
 -1      2295 1.13682E-04-3.90198E-05-3.20735E-05 2.84319E-06 4.13362E-19-3.58046E-18
 -1      2296 1.13121E-04-3.84284E-05-3.19813E-05 5.47849E-07 8.69653E-19-3.25049E-18
 -1      2297 1.15459E-04-4.11445E-05-3.18563E-05 3.32213E-06 6.33167E-19-3.25844E-18
 -1      2298 1.11206E-04-3.71771E-05-3.17959E-05-1.61668E-06 5.80588E-19-3.17453E-18
 -1      2299 1.10207E-04-3.61533E-05-3.17035E-05-3.27684E-06 4.86902E-19-2.90238E-18
 -1      2300 1.11843E-04-3.89835E-05-3.12594E-05-1.85369E-06 7.19538E-19-3.02680E-18
 -1      2301 1.08485E-04-3.48837E-05-3.15913E-05-4.53948E-06 5.52970E-19-2.98679E-18
 -1      2302 1.07352E-04-3.38678E-05-3.14666E-05-5.49347E-06 4.98993E-19-2.53215E-18
 -1      2303 1.08145E-04-3.59954E-05-3.09591E-05-5.23013E-06 5.22000E-19-2.84400E-18
 -1      2304 1.05991E-04-3.28570E-05-3.13691E-05-6.02891E-06-1.07967E-19-2.41716E-18
 -1      2305 1.04890E-04-3.20307E-05-3.12076E-05-6.40939E-06-2.60382E-19-2.43624E-18
 -1      2306 1.05036E-04-3.32951E-05-3.07761E-05-6.94615E-06 2.86152E-19-2.38184E-18
 -1      2307 1.03871E-04-3.13247E-05-3.11001E-05-6.45448E-06-3.78228E-19-2.39729E-18
 -1      2308 1.02872E-04-3.07162E-05-3.09134E-05-6.44411E-06-1.99223E-19-1.98737E-18
 -1      2309 1.02646E-04-3.12740E-05-3.06088E-05-7.45141E-06-2.71108E-19-1.97959E-18
 -1      2310 1.02118E-04-3.02635E-05-3.07922E-05-6.19970E-06 4.13458E-20-1.66827E-18
 -1      2311 1.01244E-04-2.98389E-05-3.05965E-05-5.96008E-06 4.25386E-19-2.01619E-18
 -1      2312 1.00870E-04-2.99238E-05-3.04189E-05-7.18836E-06 2.85190E-19-1.63691E-18
 -1      2313 1.00679E-04-2.95668E-05-3.04677E-05-5.57063E-06 7.97925E-19-1.97724E-18
 -1      2314 9.99331E-05-2.92792E-05-3.02775E-05-5.22074E-06 1.31865E-18-1.64294E-18
 -1      2315 9.95491E-05-2.90947E-05-3.02038E-05-6.49868E-06 4.81604E-19-1.69465E-18
 -1      2316 9.95010E-05-2.91249E-05-3.01491E-05-4.78061E-06 1.12828E-18-1.85415E-18
 -1      2317 9.88764E-05-2.89331E-05-2.99744E-05-4.39828E-06 7.18410E-19-1.72686E-18
 -1      2318 9.85519E-05-2.86239E-05-2.99757E-05-5.61808E-06 1.09805E-18-2.07006E-18
 -1      2319 9.85395E-05-2.88513E-05-2.98534E-05-3.96419E-06 3.79784E-19-1.98824E-18
 -1      2320 9.80258E-05-2.87248E-05-2.96998E-05-3.59528E-06 2.43616E-19-2.27254E-18
 -1      2321 9.77842E-05-2.83809E-05-2.97495E-05-4.69642E-06 3.75944E-19-2.82894E-18
 -1      2322 9.77599E-05-2.86858E-05-2.95907E-05-3.19807E-06 3.07186E-19-2.63534E-18
 -1      2323 9.73446E-05-2.86032E-05-2.94603E-05-2.86641E-06 6.09667E-19-2.49151E-18
 -1      2324 9.71839E-05-2.82743E-05-2.95372E-05-3.82134E-06 1.76039E-20-2.46029E-18
 -1      2325 9.71340E-05-2.85885E-05-2.93655E-05-2.52017E-06 4.54832E-19-2.54531E-18
 -1      2326 9.68042E-05-2.85354E-05-2.92578E-05-2.23551E-06 4.36904E-20-2.63440E-18
 -1      2327 9.67111E-05-2.82454E-05-2.93464E-05-3.03830E-06 2.89540E-19-3.50980E-18
 -1      2328 9.66380E-05-2.85340E-05-2.91778E-05-1.94409E-06-1.77273E-19-2.26123E-18
 -1      2329 9.63804E-05-2.85009E-05-2.90910E-05-1.70788E-06 1.94015E-21-2.12631E-18
 -1      2330 9.63386E-05-2.82577E-05-2.91811E-05-2.36572E-06 2.99729E-19-2.92433E-18
 -1      2331 9.62503E-05-2.85062E-05-2.90252E-05-1.46923E-06 3.03894E-19-2.52394E-18
 -1      2332 9.60528E-05-2.84866E-05-2.89567E-05-1.27836E-06 1.46390E-19-1.90409E-18
 -1      2333 9.60468E-05-2.82900E-05-2.90418E-05-1.80561E-06 4.10313E-20-2.07825E-18
 -1      2334 9.59522E-05-2.84950E-05-2.89037E-05-1.08736E-06-4.73901E-19-1.52152E-18
 -1      2335 9.58034E-05-2.84843E-05-2.88508E-05-9.36568E-07-5.40723E-19-1.45051E-18
 -1      2336 9.58205E-05-2.83298E-05-2.89273E-05-1.35071E-06-7.32670E-20-2.29118E-18
 -1      2337 9.57268E-05-2.84937E-05-2.88090E-05-7.86807E-07-4.67490E-19-1.89639E-18
 -1      2338 9.56170E-05-2.84889E-05-2.87689E-05-6.70083E-07-5.01844E-19-1.06172E-18
 -1      2339 9.56474E-05-2.83703E-05-2.88353E-05-9.89182E-07-5.61692E-19-1.62196E-18
 -1      2340 9.55596E-05-2.84981E-05-2.87366E-05-5.54901E-07-4.76337E-19-7.34279E-19
 -1      2341 9.54803E-05-2.84971E-05-2.87068E-05-4.66299E-07-3.36075E-19-2.38795E-19
 -1      2342 9.55169E-05-2.84081E-05-2.87628E-05-7.07500E-07-1.73692E-19-5.39298E-19
 -1      2343 9.54381E-05-2.85055E-05-2.86824E-05-3.79393E-07-9.28286E-19-6.14019E-19
 -1      2344 9.53823E-05-2.85068E-05-2.86607E-05-3.13461E-07-1.07410E-18-4.46392E-20
 -1      2345 9.54204E-05-2.84415E-05-2.87068E-05-4.92175E-07-8.45291E-19-6.71916E-20
 -1      2346 9.53520E-05-2.85142E-05-2.86425E-05-2.49182E-07-1.41867E-18 2.60348E-19
 -1      2347 9.53140E-05-2.85168E-05-2.86272E-05-2.01149E-07-9.31058E-19 1.28644E-19
 -1      2348 9.53505E-05-2.84700E-05-2.86643E-05-3.30713E-07-1.16484E-18 6.09499E-19
 -1      2349 9.52928E-05-2.85231E-05-2.86139E-05-1.54626E-07-8.77969E-20-2.25612E-19
 -1      2350 9.52679E-05-2.85263E-05-2.86034E-05-1.20455E-07 5.60562E-19-1.61007E-19
 -1      2351 9.53011E-05-2.84937E-05-2.86327E-05-2.12077E-07-5.26552E-19 1.32160E-18
 -1      2352 9.52536E-05-2.85315E-05-2.85940E-05-8.76060E-08 8.74165E-19-7.62899E-19
 -1      2353 9.52382E-05-2.85349E-05-2.85870E-05-6.39691E-08 8.49523E-19-6.96710E-19
 -1      2354 9.52673E-05-2.85129E-05-2.86098E-05-1.26847E-07 4.41626E-19 1.23356E-18
 -1      2355 9.52290E-05-2.85391E-05-2.85805E-05-4.14529E-08 7.28538E-19 2.00194E-19
 -1      2356 9.52204E-05-2.85424E-05-2.85762E-05-2.56661E-08 8.36730E-19 8.47513E-19
 -1      2357 9.52450E-05-2.85282E-05-2.85935E-05-6.71907E-08 1.34616E-18 4.14101E-19
 -1      2358 9.52148E-05-2.85458E-05-2.85719E-05-1.08056E-08 2.77068E-19 7.43728E-19
 -1      2359 9.52109E-05-2.85488E-05-2.85694E-05-7.46983E-10 3.78471E-19 8.92106E-19
 -1      2360 9.52312E-05-2.85401E-05-2.85823E-05-2.67413E-08 7.22143E-19 6.13073E-19
 -1      2361 9.52078E-05-2.85514E-05-2.85667E-05 8.56296E-09 4.95079E-19 4.13249E-19
 -1      2362 9.52070E-05-2.85541E-05-2.85655E-05 1.45393E-08 7.61745E-20 3.19083E-19
 -1      2363 9.52233E-05-2.85493E-05-2.85749E-05-4.28817E-10-1.55532E-19 6.11091E-19
 -1      2364 9.52057E-05-2.85561E-05-2.85639E-05 1.99223E-08 4.67471E-20-3.76540E-19
 -1      2365 9.52068E-05-2.85584E-05-2.85635E-05 2.30682E-08-1.50031E-20 1.25169E-19
 -1      2366 9.52196E-05-2.85562E-05-2.85702E-05 1.57086E-08-1.94945E-19-1.33045E-19
 -1      2367 9.52067E-05-2.85600E-05-2.85628E-05 2.57511E-08-3.31081E-19 4.62774E-19
 -1      2368 9.52089E-05-2.85619E-05-2.85630E-05 2.69977E-08-2.43846E-19 8.28562E-19
 -1      2369 9.52186E-05-2.85614E-05-2.85675E-05 2.47063E-08 1.92906E-20 6.04929E-19
 -1      2370 9.52096E-05-2.85631E-05-2.85627E-05 2.78862E-08 1.16973E-20 1.72166E-18
 -1      2371 9.52123E-05-2.85647E-05-2.85632E-05 2.79074E-08 7.62623E-19 2.22211E-18
 -1      2372 9.52194E-05-2.85652E-05-2.85662E-05 2.88405E-08 5.63298E-19 2.14325E-18
 -1      2373 9.52134E-05-2.85656E-05-2.85633E-05 2.76501E-08 2.76238E-19 1.74344E-18
 -1      2374 9.52164E-05-2.85670E-05-2.85640E-05 2.69146E-08 1.03628E-18 1.34129E-18
 -1      2375 9.52213E-05-2.85679E-05-2.85658E-05 2.97743E-08 3.36332E-19 2.19967E-18
 -1      2376 9.52176E-05-2.85677E-05-2.85643E-05 2.59558E-08 1.70306E-18 1.05240E-19
 -1      2377 9.52206E-05-2.85688E-05-2.85650E-05 2.47696E-08 1.43208E-18-2.06058E-19
 -1      2378 9.52237E-05-2.85699E-05-2.85659E-05 2.86818E-08 3.73526E-19 5.19644E-19
 -1      2379 9.52219E-05-2.85694E-05-2.85654E-05 2.33918E-08 9.86639E-19-1.64311E-19
 -1      2380 9.52246E-05-2.85704E-05-2.85661E-05 2.19313E-08 1.42097E-18 6.36217E-19
 -1      2381 9.52264E-05-2.85715E-05-2.85664E-05 2.63491E-08 1.40873E-18-7.11358E-19
 -1      2382 9.52259E-05-2.85709E-05-2.85665E-05 2.02898E-08 1.84591E-18-1.78111E-19
 -1      2383 9.52284E-05-2.85718E-05-2.85671E-05 1.86314E-08 3.02761E-19 1.08160E-19
 -1      2384 9.52290E-05-2.85727E-05-2.85670E-05 2.32570E-08 9.86670E-19 1.20549E-19
 -1      2385 9.52297E-05-2.85724E-05-2.85674E-05 1.67904E-08-1.50220E-18 6.73647E-19
 -1      2386 9.52318E-05-2.85732E-05-2.85680E-05 1.49369E-08-1.29425E-18 4.35284E-19
 -1      2387 9.52317E-05-2.85740E-05-2.85676E-05 1.96554E-08-2.98417E-19-8.12573E-19
 -1      2388 5.42458E-05-3.33299E-05-8.69040E-06 3.91094E-05-2.61860E-18 3.24223E-18
 -1      2389 4.10953E-05-2.67835E-05-5.71121E-06 3.19949E-05-2.57434E-18 4.41008E-18
 -1      2390 1.11278E-04-3.60928E-05-3.22836E-05 2.60776E-06 5.28350E-19 1.26379E-18
 -1      2391 1.11324E-04-3.56983E-05-3.23846E-05 1.12965E-06 7.64738E-19 1.42071E-18
 -1      2392 1.11350E-04-3.62828E-05-3.22134E-05 6.35562E-06 4.78385E-19 1.36370E-18
 -1      2393 1.12001E-04-3.65670E-05-3.23277E-05 4.59608E-06 4.02642E-19 1.37973E-18
 -1      2394 1.12608E-04-3.76554E-05-3.21273E-05 3.45319E-06 5.54331E-19 9.33234E-19
 -1      2395 1.09962E-04-3.45972E-05-3.22864E-05 9.68956E-06 7.35691E-19 1.44604E-18
 -1      2396 1.11365E-04-3.58711E-05-3.23843E-05 8.43326E-06 5.05450E-19 1.46370E-18
 -1      2397 1.13436E-04-3.76557E-05-3.24495E-05 7.80858E-06 5.94453E-19 1.14071E-18
 -1      2398 1.07052E-04-3.09649E-05-3.25403E-05 1.04718E-05 1.57710E-18 1.15261E-18
 -1      2399 1.08921E-04-3.30252E-05-3.25871E-05 1.06688E-05 1.01628E-18 1.62696E-18
 -1      2400 1.12340E-04-3.49885E-05-3.31097E-05 1.12769E-05 8.86081E-19 1.23486E-18
 -1      2401 1.03729E-04-2.68090E-05-3.28893E-05 7.05030E-06 1.97938E-18 7.71842E-19
 -1      2402 1.05297E-04-2.87212E-05-3.28842E-05 9.20222E-06 1.93612E-18 1.05394E-18
 -1      2403 1.09300E-04-2.99734E-05-3.39875E-05 1.12938E-05 1.88941E-18 1.26645E-18
 -1      2404 1.02150E-04-2.48265E-05-3.31201E-05 1.01611E-08 2.56773E-18-6.54003E-19
 -1      2405 1.02513E-04-2.53197E-05-3.31015E-05 3.42482E-06 2.39776E-18 3.19556E-20
 -1      2406 1.06023E-04-2.51120E-05-3.47351E-05 6.15229E-06 2.74538E-18 1.27366E-19
 -1      2407 1.03636E-04-2.65503E-05-3.30858E-05-7.28084E-06 2.07046E-18-2.15022E-18
 -1      2408 1.02558E-04-2.52819E-05-3.30658E-05-4.26333E-06 2.64579E-18-1.60985E-18
 -1      2409 1.05126E-04-2.38217E-05-3.49353E-05-2.45444E-06 3.17277E-18-1.37064E-18
 -1      2410 1.07247E-04-3.07711E-05-3.28497E-05-1.12860E-05 1.22400E-18-3.01785E-18
 -1      2411 1.05307E-04-2.85782E-05-3.28058E-05-1.00039E-05 1.47926E-18-2.77728E-18
 -1      2412 1.07381E-04-2.70180E-05-3.44749E-05-9.99671E-06 2.29869E-18-2.85571E-18
 -1      2413 1.10663E-04-3.47499E-05-3.25885E-05-1.08272E-05 5.28515E-19-3.43522E-18
 -1      2414 1.08827E-04-3.29025E-05-3.25031E-05-1.14136E-05 9.59463E-19-3.21310E-18
 -1      2415 1.10948E-04-3.24380E-05-3.36152E-05-1.28072E-05 1.25711E-18-3.20932E-18
 -1      2416 1.12331E-04-3.67662E-05-3.24058E-05-7.34388E-06 3.04025E-19-3.63637E-18
 -1      2417 1.11213E-04-3.58820E-05-3.23084E-05-9.03359E-06 3.76030E-19-3.58593E-18
 -1      2418 1.13274E-04-3.67389E-05-3.27550E-05-1.07584E-05 5.39094E-19-3.38472E-18
 -1      2419 1.12124E-04-3.67906E-05-3.22824E-05-2.97536E-06-3.53074E-20-3.21235E-18
 -1      2420 1.11840E-04-3.67894E-05-3.22241E-05-4.88863E-06 1.43797E-19-3.00610E-18
 -1      2421 1.13361E-04-3.83457E-05-3.21232E-05-6.15860E-06 8.63146E-20-2.88928E-18
 -1      2422 1.10659E-04-3.56191E-05-3.21487E-05 7.68344E-07 5.39037E-19-2.78136E-18
 -1      2423 1.11029E-04-3.61273E-05-3.21665E-05-7.99455E-07 8.60499E-20-3.06038E-18
 -1      2424 1.11706E-04-3.76638E-05-3.17343E-05-1.33496E-06-8.72874E-20-2.82480E-18
 -1      2425 1.08642E-04-3.40763E-05-3.19456E-05 3.29892E-06 2.32511E-19-1.93958E-18
 -1      2426 1.09407E-04-3.47500E-05-3.20483E-05 2.26984E-06 6.57503E-19-1.92308E-18
 -1      2427 1.09263E-04-3.58242E-05-3.14892E-05 2.39335E-06 8.73900E-20-1.87749E-18
 -1      2428 1.06521E-04-3.26326E-05-3.16583E-05 4.64792E-06-5.72627E-19-9.33833E-19
 -1      2429 1.07470E-04-3.32787E-05-3.18297E-05 4.12323E-06 5.40314E-20-1.42955E-18
 -1      2430 1.06759E-04-3.38092E-05-3.12819E-05 4.70893E-06-3.96921E-19-1.01081E-18
 -1      2431 1.04525E-04-3.14648E-05-3.13056E-05 5.09285E-06-8.69636E-19-7.76789E-19
 -1      2432 1.05514E-04-3.20071E-05-3.15188E-05 4.94628E-06-7.22776E-19-4.24039E-19
 -1      2433 1.04522E-04-3.20965E-05-3.10543E-05 5.80122E-06-9.95565E-19-3.91014E-19
 -1      2434 1.02745E-04-3.05884E-05-3.09201E-05 4.94682E-06-2.70606E-19-1.76383E-18
 -1      2435 1.03687E-04-3.10144E-05-3.11485E-05 5.04249E-06-6.47843E-19-1.23542E-18
 -1      2436 1.02640E-04-3.08183E-05-3.07920E-05 6.01377E-06-4.38001E-19-7.26765E-19
 -1      2437 1.01208E-04-2.99559E-05-3.05334E-05 4.46878E-06 4.23586E-19-1.51863E-18
 -1      2438 1.02057E-04-3.02792E-05-3.07565E-05 4.69644E-06 4.76373E-20-1.74848E-18
 -1      2439 1.01093E-04-2.99359E-05-3.05047E-05 5.67641E-06 2.53925E-19-1.89338E-18
 -1      2440 9.99105E-05-2.95081E-05-3.01696E-05 3.84257E-06-1.11547E-19-7.93839E-19
 -1      2441 1.00645E-04-2.97490E-05-3.03740E-05 4.12513E-06 5.08749E-19-1.27234E-18
 -1      2442 9.98328E-05-2.93570E-05-3.02109E-05 5.04527E-06 3.01163E-19-9.63736E-19
 -1      2443 9.88349E-05-2.91940E-05-2.98436E-05 3.18542E-06-8.75578E-19-1.10397E-18
 -1      2444 9.94504E-05-2.93713E-05-3.00222E-05 3.47465E-06-5.03565E-19-5.41063E-19
 -1      2445 9.88085E-05-2.89905E-05-2.99279E-05 4.29669E-06-4.83665E-19-3.92204E-19
 -1      2446 9.79588E-05-2.89746E-05-2.95623E-05 2.56476E-06-9.29627E-19-2.18774E-19
 -1      2447 9.84617E-05-2.91039E-05-2.97130E-05 2.83364E-06-9.57184E-19-9.39117E-19
 -1      2448 9.79798E-05-2.87654E-05-2.96685E-05 3.54108E-06-9.69697E-19-1.18310E-18
 -1      2449 9.72573E-05-2.88224E-05-2.93271E-05 2.01430E-06 2.57048E-19-7.61178E-19
 -1      2450 9.76589E-05-2.89156E-05-2.94505E-05 2.24999E-06-1.44264E-19-4.21538E-19
 -1      2451 9.73138E-05-2.86314E-05-2.94400E-05 2.84081E-06-2.73393E-19-1.23511E-18
 -1      2452 9.67051E-05-2.87178E-05-2.91355E-05 1.54661E-06 8.78238E-19-1.61521E-18
 -1      2453 9.70192E-05-2.87840E-05-2.92341E-05 1.74494E-06 6.27806E-19-8.84288E-19
 -1      2454 9.67841E-05-2.85550E-05-2.92452E-05 2.22604E-06 6.58911E-19-1.55991E-18
 -1      2455 9.62780E-05-2.86471E-05-2.89831E-05 1.16178E-06 3.25687E-19-1.31761E-18
 -1      2456 9.65187E-05-2.86932E-05-2.90600E-05 1.32361E-06 4.66094E-19-1.29820E-18
 -1      2457 9.63678E-05-2.85146E-05-2.90836E-05 1.70668E-06 5.32551E-19-1.89866E-18
 -1      2458 9.59537E-05-2.86005E-05-2.88643E-05 8.53282E-07-2.57941E-19 2.47810E-19
 -1      2459 9.61344E-05-2.86318E-05-2.89231E-05 9.82019E-07 1.71941E-19-2.50184E-19
 -1      2460 9.60454E-05-2.84963E-05-2.89527E-05 1.28077E-06-4.35150E-19-1.76685E-18
 -1      2461 9.57120E-05-2.85709E-05-2.87736E-05 6.11507E-07-2.05485E-19 3.52217E-19
 -1      2462 9.58448E-05-2.85914E-05-2.88176E-05 7.11658E-07-9.31292E-20 2.90929E-19
 -1      2463 9.57996E-05-2.84915E-05-2.88489E-05 9.40016E-07-2.96538E-19-8.08333E-19
 -1      2464 9.55357E-05-2.85534E-05-2.87058E-05 4.25952E-07 8.90470E-19-5.08888E-19
 -1      2465 9.56310E-05-2.85661E-05-2.87380E-05 5.02248E-07 7.29717E-19 4.55749E-19
 -1      2466 9.56154E-05-2.84943E-05-2.87684E-05 6.73281E-07 3.74633E-19-1.20724E-18
 -1      2467 9.54103E-05-2.85440E-05-2.86562E-05 2.86440E-07 5.53950E-19-1.28796E-18
 -1      2468 9.54767E-05-2.85513E-05-2.86792E-05 3.43364E-07 5.63249E-19-9.32954E-19
 -1      2469 9.54802E-05-2.85012E-05-2.87070E-05 4.68725E-07 8.37150E-19-1.19106E-18
 -1      2470 9.53235E-05-2.85402E-05-2.86208E-05 1.83755E-07-4.27654E-19-7.46179E-19
 -1      2471 9.53683E-05-2.85437E-05-2.86368E-05 2.25304E-07-6.30446E-21-1.00192E-18
 -1      2472 9.53831E-05-2.85101E-05-2.86613E-05 3.15003E-07 7.91252E-20-1.90887E-19
 -1      2473 9.52657E-05-2.85399E-05-2.85963E-05 1.09909E-07-1.44289E-19 7.37147E-22
 -1      2474 9.52945E-05-2.85409E-05-2.86070E-05 1.39506E-07-5.15998E-19-1.65672E-19
 -1      2475 9.53152E-05-2.85194E-05-2.86279E-05 2.01900E-07-4.96557E-19 7.73879E-19
 -1      2476 9.52291E-05-2.85417E-05-2.85800E-05 5.81986E-08 3.12582E-19-4.43926E-19
 -1      2477 9.52464E-05-2.85412E-05-2.85868E-05 7.86894E-08 2.78449E-19 2.25749E-19
 -1      2478 9.52693E-05-2.85283E-05-2.86041E-05 1.20585E-07 1.23168E-19 1.32097E-18
 -1      2479 9.52077E-05-2.85447E-05-2.85696E-05 2.31430E-08 9.90530E-19-7.16378E-19
 -1      2480 9.52169E-05-2.85433E-05-2.85736E-05 3.68350E-08 8.60760E-19-2.95946E-19
 -1      2481 9.52396E-05-2.85365E-05-2.85877E-05 6.36579E-08 1.11454E-18-1.19518E-19
 -1      2482 9.51968E-05-2.85483E-05-2.85635E-05 3.57837E-10 1.82829E-19-3.38133E-19
 -1      2483 9.52006E-05-2.85464E-05-2.85655E-05 9.08283E-09 9.14207E-19-2.17078E-19
 -1      2484 9.52217E-05-2.85436E-05-2.85768E-05 2.50749E-08 8.51343E-19 2.01363E-19
 -1      2485 9.51931E-05-2.85519E-05-2.85604E-05-1.35928E-08-5.48542E-19-8.06773E-19
 -1      2486 9.51933E-05-2.85499E-05-2.85611E-05-8.40973E-09-6.55214E-19-5.45672E-19
 -1      2487 9.52120E-05-2.85497E-05-2.85699E-05 3.55370E-12 2.81178E-19-1.59766E-19
 -1      2488 9.51939E-05-2.85554E-05-2.85593E-05-2.13480E-08-1.16859E-18 5.61244E-19
 -1      2489 9.51919E-05-2.85534E-05-2.85592E-05-1.86206E-08-3.06412E-21-3.87692E-19
 -1      2490 9.52080E-05-2.85548E-05-2.85659E-05-1.53409E-08-9.09780E-19 3.71302E-19
 -1      2491 9.51976E-05-2.85586E-05-2.85595E-05-2.48919E-08-1.54752E-19-7.11630E-20
 -1      2492 9.51943E-05-2.85567E-05-2.85589E-05-2.38104E-08-1.18206E-18 8.29089E-20
 -1      2493 9.52076E-05-2.85590E-05-2.85639E-05-2.38636E-08-7.21316E-19-4.55666E-19
 -1      2494 9.52027E-05-2.85615E-05-2.85605E-05-2.56789E-08-1.02262E-19-8.14221E-19
 -1      2495 9.51988E-05-2.85598E-05-2.85596E-05-2.56562E-08 2.35443E-19-6.40185E-19
 -1      2496 9.52096E-05-2.85623E-05-2.85632E-05-2.77461E-08-3.47045E-21-1.24212E-18
 -1      2497 9.52085E-05-2.85640E-05-2.85619E-05-2.47399E-08-3.04044E-19-1.26267E-18
 -1      2498 9.52045E-05-2.85624E-05-2.85609E-05-2.53664E-08-5.67844E-19-1.04975E-18
 -1      2499 9.52128E-05-2.85650E-05-2.85634E-05-2.85844E-08-1.42758E-19-1.37818E-18
 -1      2500 9.52143E-05-2.85662E-05-2.85635E-05-2.27684E-08 2.93936E-19-1.00802E-18
 -1      2501 9.52105E-05-2.85648E-05-2.85625E-05-2.37766E-08-2.31808E-19-1.57697E-18
 -1      2502 9.52167E-05-2.85671E-05-2.85641E-05-2.75061E-08-6.19206E-19-2.25752E-18
 -1      2503 9.52199E-05-2.85681E-05-2.85651E-05-2.01891E-08 5.56235E-19 1.25493E-18
 -1      2504 9.52163E-05-2.85669E-05-2.85641E-05-2.14254E-08 4.87345E-19 4.73599E-19
 -1      2505 9.52208E-05-2.85689E-05-2.85651E-05-2.52668E-08-9.49808E-19-2.06460E-18
 -1      2506 9.52249E-05-2.85698E-05-2.85665E-05-1.72120E-08-7.79483E-21 1.60843E-18
 -1      2507 9.52218E-05-2.85687E-05-2.85656E-05-1.86162E-08 4.95764E-19 2.28690E-18
 -1      2508 9.52248E-05-2.85705E-05-2.85661E-05-2.23280E-08-1.37182E-19 4.99246E-19
 -1      2509 9.52294E-05-2.85714E-05-2.85677E-05-1.38770E-08 1.16633E-19 1.59571E-18
 -1      2510 9.52267E-05-2.85705E-05-2.85670E-05-1.54642E-08 4.81946E-21 2.15063E-18
 -1      2511 9.52285E-05-2.85719E-05-2.85671E-05-1.89347E-08-2.49602E-19 1.11393E-18
 -1      2512 9.52331E-05-2.85729E-05-2.85687E-05-1.01793E-08-4.01998E-19 3.03351E-18
 -1      2513 9.52310E-05-2.85721E-05-2.85681E-05-1.19526E-08 2.12024E-19 2.46698E-18
 -1      2514 9.52319E-05-2.85733E-05-2.85679E-05-1.51423E-08-2.22186E-19 1.91865E-18
 -1      2515 9.52346E-05-2.85735E-05-2.85691E-05-7.93392E-09 5.93522E-20 2.12370E-18
 -1      2516 9.52448E-05-2.85883E-05-2.85670E-05-1.12873E-08-1.24116E-18 1.21311E-18
 -1      2517 9.52436E-05-2.85866E-05-2.85673E-05-1.24277E-08-1.73000E-18-1.65188E-18
 -1      2518 9.52466E-05-2.85908E-05-2.85667E-05-7.85211E-09-7.78851E-19-7.23190E-19
 -1      2519 9.52457E-05-2.85896E-05-2.85669E-05-9.56714E-09-1.12488E-18 5.59365E-19
 -1      2520 9.52459E-05-2.85882E-05-2.85677E-05-1.18148E-08-1.03406E-18 1.70752E-19
 -1      2521 9.52395E-05-2.85810E-05-2.85679E-05-1.37924E-08-1.59959E-18-1.42839E-18
 -1      2522 9.52379E-05-2.85789E-05-2.85682E-05-1.33505E-08-1.37912E-19-7.74243E-19
 -1      2523 9.52424E-05-2.85849E-05-2.85674E-05-1.33887E-08-2.63760E-18-1.81162E-18
 -1      2524 9.52410E-05-2.85829E-05-2.85678E-05-1.37721E-08-2.32661E-18-1.66473E-19
 -1      2525 9.52399E-05-2.85814E-05-2.85680E-05-1.57606E-08-1.99853E-18-1.41087E-18
 -1      2526 9.52433E-05-2.85851E-05-2.85678E-05-1.46705E-08-1.61750E-18-9.10617E-19
 -1      2527 9.52476E-05-2.85923E-05-2.85665E-05-3.55059E-09-7.86902E-19-2.36934E-18
 -1      2528 9.52472E-05-2.85917E-05-2.85666E-05-5.61786E-09-2.75358E-19-2.52917E-18
 -1      2529 9.52478E-05-2.85903E-05-2.85675E-05-7.61959E-09-1.25251E-18-6.67573E-19
 -1      2530 9.52478E-05-2.85926E-05-2.85665E-05 1.12997E-09-1.16478E-18-9.56412E-19
 -1      2531 9.52478E-05-2.85926E-05-2.85665E-05-1.05417E-09-5.28952E-19-1.60687E-18
 -1      2532 9.52487E-05-2.85914E-05-2.85674E-05-2.60278E-09 6.74866E-19-1.76211E-18
 -1      2533 9.52471E-05-2.85916E-05-2.85666E-05 5.68763E-09-1.22773E-18-2.17483E-19
 -1      2534 9.52476E-05-2.85923E-05-2.85665E-05 3.62470E-09-1.61231E-18-2.64911E-20
 -1      2535 9.52487E-05-2.85914E-05-2.85674E-05 2.68720E-09-2.57752E-19-4.24439E-19
 -1      2536 9.52457E-05-2.85896E-05-2.85669E-05 9.56613E-09-4.45922E-19-3.53372E-18
 -1      2537 9.52466E-05-2.85908E-05-2.85667E-05 7.88232E-09-4.53101E-19-2.36775E-18
 -1      2538 9.52478E-05-2.85903E-05-2.85675E-05 7.65790E-09-5.19690E-19-6.94663E-19
 -1      2539 9.52436E-05-2.85866E-05-2.85673E-05 1.24266E-08 4.02093E-19 1.23806E-18
 -1      2540 9.52448E-05-2.85883E-05-2.85670E-05 1.12852E-08 2.76088E-19-2.16911E-18
 -1      2541 9.52459E-05-2.85882E-05-2.85676E-05 1.18165E-08 1.87527E-19-3.19610E-18
 -1      2542 9.52409E-05-2.85829E-05-2.85678E-05 1.37637E-08 3.26837E-19 1.33279E-18
 -1      2543 9.52424E-05-2.85849E-05-2.85674E-05 1.33974E-08-9.88420E-20 3.13299E-18
 -1      2544 9.52433E-05-2.85851E-05-2.85678E-05 1.46877E-08 3.46122E-19 6.86710E-19
 -1      2545 9.52379E-05-2.85788E-05-2.85682E-05 1.32577E-08-4.74539E-19-1.70459E-19
 -1      2546 9.52394E-05-2.85809E-05-2.85679E-05 1.38074E-08-6.25944E-19-2.96380E-19
 -1      2547 9.52400E-05-2.85813E-05-2.85680E-05 1.57461E-08-9.04030E-19-7.71180E-19
 -1      2548 9.52358E-05-2.85756E-05-2.85687E-05 9.88332E-09 1.04331E-18 6.46767E-19
 -1      2549 1.26893E-04-5.70700E-05-3.01326E-05 2.76453E-05 8.17175E-19-1.14540E-18
 -1      2550 1.13589E-04-5.64416E-05-2.43745E-05 3.23080E-05 2.57074E-19-7.35119E-19
 -1      2551 1.10412E-04-3.48281E-05-3.24428E-05-1.05138E-07 1.02868E-18 1.32936E-18
 -1      2552 1.10182E-04-3.41317E-05-3.25423E-05-8.71871E-07 1.33915E-18 1.55501E-18
 -1      2553 1.10816E-04-3.59629E-05-3.21039E-05 1.37038E-07 1.02124E-18 8.35328E-19
 -1      2554 2.91791E-05-1.90392E-05-3.94419E-06 2.16343E-05-1.05731E-18 5.25796E-18
 -1      2555 2.23353E-05-1.61219E-05-2.20385E-06 6.92224E-06-6.97108E-19 6.50373E-18
 -1      2556 6.72909E-05-4.20864E-05-1.07137E-05-4.13533E-05 2.97711E-18 3.35626E-18
 -1      2557 8.66504E-05-4.92554E-05-1.59525E-05-4.24811E-05 2.18556E-18 2.19043E-18
 -1      2558 1.04146E-04-2.31642E-05-3.47384E-05-5.28878E-06-3.53464E-18-1.03769E-18
 -1      2559 1.05903E-04-2.71644E-05-3.37861E-05-1.76357E-06-3.17247E-18-6.67712E-19
 -1      2560 1.03747E-04-2.60726E-05-3.32883E-05-7.71205E-07-2.87930E-18-1.45102E-18
 -1      2561 9.99274E-05-1.99612E-05-3.42862E-05-4.38187E-06-3.40322E-18-2.13881E-18
 -1      2562 3.07172E-05-2.15285E-05-3.63138E-06-2.63206E-05-8.15481E-19-9.36607E-18
 -1      2563 4.68017E-05-2.96939E-05-7.24031E-06-3.80549E-05-4.09752E-19-8.68992E-18
 -1      2564 1.43383E-04-1.48787E-05-5.58085E-05-6.72547E-06 7.84204E-18-3.89116E-18
 -1      2565 1.49601E-04-2.24359E-05-5.46182E-05-5.57498E-06 7.08501E-18-3.74029E-18
 -1      2566 1.42155E-04-2.59820E-05-4.99061E-05-9.85075E-06 5.72912E-18-4.51701E-18
 -1      2567 7.16149E-05-2.75672E-06-2.95440E-05 6.70013E-07 8.90359E-20-6.08948E-18
 -1      2568 7.28087E-05-3.35947E-06-2.97608E-05 9.27799E-07-2.62913E-19-5.99384E-18
 -1      2569 7.41230E-05-5.31242E-06-2.94733E-05 1.88695E-06-3.01306E-19-5.63409E-18
 -1      2570 7.14430E-05-3.60194E-06-2.90433E-05 4.37610E-07 1.69737E-19-5.87685E-18
 -1      2571 1.46989E-04-1.26536E-05-5.77455E-05 2.72509E-06 8.85996E-18-2.14882E-18
 -1      2572 1.42446E-04-1.02943E-05-5.71413E-05-4.17769E-07 8.53640E-18-2.79198E-18
 -1      2573 1.30446E-04-5.70717E-05-3.13623E-05-2.09789E-05 1.28707E-18-2.30139E-18
 -1      2574 1.40696E-04-5.41399E-05-3.76494E-05-1.17881E-05 2.42839E-18-8.93196E-19
 -1      2575 1.49267E-04-2.45540E-05-5.37155E-05 5.14726E-06 8.03898E-18-1.22354E-18
 -1      2576 1.49043E-04-1.85042E-05-5.64009E-05 4.81836E-06 8.53788E-18-1.26367E-18
 -1      2577 6.25785E-05-3.81447E-05-1.04333E-05 4.24884E-05-3.14884E-19-7.20253E-18
 -1      2578 4.39340E-05-2.92327E-05-6.09669E-06 3.51663E-05 9.37030E-19-7.77492E-18
 -1      2579 1.45257E-04-4.35267E-05-4.37766E-05-1.13773E-06 4.59230E-18-5.17749E-19
 -1      2580 1.50691E-04-3.51009E-05-4.98840E-05 1.80315E-06 6.73794E-18-9.46348E-19
 -1      2581 1.42865E-04-3.00246E-05-4.84965E-05 8.95897E-06 6.00335E-18 6.48192E-19
 -1      2582 9.89529E-05-5.21800E-05-2.00189E-05-3.83507E-05 2.50510E-19-5.80758E-18
 -1      2583 1.15321E-04-5.56428E-05-2.58645E-05-3.38472E-05 7.94729E-19-4.32897E-18
 -1      2584 6.75426E-05-4.00388E-05-1.15302E-05-4.14052E-05-9.02090E-19-7.36474E-18
 -1      2585 8.39518E-05-4.64859E-05-1.60201E-05-4.31055E-05 1.28325E-19-6.80085E-18
 -1      2586 9.75420E-05-5.06840E-05-1.97249E-05-3.82379E-05-1.82684E-18-5.05806E-18
 -1      2587 1.86705E-05-1.45845E-05-1.43142E-06-6.57345E-07-6.87222E-20-9.91007E-18
 -1      2588 2.10957E-05-1.48771E-05-2.33310E-06-1.29320E-05 1.00797E-19-9.77667E-18
 -1      2589 2.86725E-05-1.94826E-05-3.64627E-06 2.51187E-05 6.17805E-19-8.99697E-18
 -1      2590 2.06901E-05-1.60928E-05-1.69212E-06 1.12616E-05 8.66197E-19-9.68116E-18
 -1      2591 2.72531E-05-1.21201E-05-5.85367E-06 6.48689E-06 6.94673E-19-9.59138E-18
 -1      2592 1.00690E-04-5.20266E-05-2.09890E-05 4.03001E-05-1.79126E-18-5.19348E-18
 -1      2593 8.23774E-05-4.70621E-05-1.50699E-05 4.11824E-05-5.90170E-19-5.87894E-18
 -1      2594 1.32666E-04-5.50017E-05-3.35482E-05 2.50614E-05-3.33731E-18-3.75447E-18
 -1      2595 1.17479E-04-5.52129E-05-2.67091E-05 3.11829E-05-2.28487E-18-4.29086E-18
 -1      2596 1.48087E-04-4.63108E-05-4.41698E-05 5.54221E-06-4.80771E-18-1.83467E-18
 -1      2597 1.41641E-04-5.14505E-05-3.86743E-05 1.31683E-05-3.86168E-18-2.69293E-18
 -1      2598 1.51181E-04-2.58714E-05-5.41007E-05-4.91478E-06-7.24997E-18-1.56235E-18
 -1      2599 1.49084E-04-3.43279E-05-4.93066E-05-2.91633E-06-6.09864E-18-1.48400E-18
 -1      2600 1.51077E-04-1.38350E-05-5.91267E-05-2.17982E-06-8.77823E-18-2.50139E-18
 -1      2601 1.50025E-04-1.67635E-05-5.73664E-05-4.24640E-06-8.18361E-18-2.16057E-18
 -1      2602 1.46629E-04-1.27686E-05-5.78657E-05 3.32926E-06-9.17548E-18-3.24975E-18
 -1      2603 1.50290E-04-1.21734E-05-5.93160E-05 4.53280E-07-9.23647E-18-3.16821E-18
 -1      2604 1.39692E-04-1.07716E-05-5.54842E-05-1.57567E-06-8.52560E-18-1.71328E-18
 -1      2605 1.45407E-04-4.72628E-05-4.22351E-05-5.71426E-06-3.58160E-18-3.05017E-18
 -1      2606 1.49670E-04-4.08150E-05-4.70341E-05-4.85642E-07-4.41177E-18-3.83981E-18
 -1      2607 1.31183E-04-5.60733E-05-3.23081E-05-2.14563E-05-1.32741E-18-1.00035E-18
 -1      2608 1.41957E-04-5.32994E-05-3.82289E-05-1.49094E-05-2.67811E-18-2.13664E-18
 -1      2609 1.42800E-04-5.24356E-05-3.87634E-05-3.97684E-06-1.95968E-18-4.21060E-18
 -1      2610 1.03219E-04-5.46599E-05-2.08387E-05-3.65264E-05 1.55833E-18 9.83405E-19
 -1      2611 1.18453E-04-5.68380E-05-2.65342E-05-3.27191E-05 2.74227E-19 4.51045E-19
 -1      2612 1.08812E-04-2.94076E-05-3.40585E-05 2.73249E-06 3.54684E-18 2.22174E-18
 -1      2613 1.09149E-04-2.77619E-05-3.49025E-05 5.62145E-06 3.80916E-18 2.70521E-18
 -1      2614 1.06395E-04-2.49679E-05-3.49659E-05 6.32519E-06 4.06422E-18 1.30205E-18
 -1      2615 1.06914E-04-2.83531E-05-3.37197E-05 2.18577E-06 3.50414E-18 8.31085E-19
 -1      2616 1.45021E-04-5.00004E-05-4.11388E-05 9.39615E-06 2.91888E-18-4.09752E-18
 -1      2617 1.36067E-04-5.44248E-05-3.50834E-05 1.71827E-05 1.67310E-18-2.75497E-18
 -1      2618 1.33866E-04-5.84931E-05-3.21802E-05 1.64144E-05-5.68571E-20-4.04331E-18
 -1      2619 1.28858E-04-9.28162E-06-5.17836E-05-1.33245E-06 7.72706E-18-2.04506E-18
 -1      2620 1.37644E-04-1.19046E-05-5.43438E-05-4.29944E-06 7.77555E-18-3.08606E-18
 -1      2621 1.31086E-04-1.39383E-05-5.06506E-05-7.65460E-06 7.10004E-18-3.08140E-18
 -1      2622 8.59370E-05-1.27522E-05-3.13768E-05 1.40551E-06-1.61599E-18-4.55021E-18
 -1      2623 8.64750E-05-1.16391E-05-3.21407E-05-2.18888E-07-1.94338E-18-4.71355E-18
 -1      2624 8.99182E-05-1.35384E-05-3.27669E-05-1.35674E-06-2.46140E-18-4.31890E-18
 -1      2625 1.08976E-04-3.35958E-05-3.23355E-05-1.27357E-06 1.73715E-18 6.31797E-19
 -1      2626 1.02719E-04-2.21219E-05-3.45865E-05 5.51902E-06 3.92256E-18-3.67573E-19
 -1      2627 1.44380E-04-4.60470E-05-4.22193E-05-7.54425E-07 2.80040E-18-5.31280E-18
 -1      2628 3.32248E-05-1.63186E-05-6.62483E-06-2.01632E-05-8.43857E-19-9.39211E-18
 -1      2629 1.06752E-04-5.55964E-05-2.16356E-05 3.55916E-05-1.68687E-18-7.69768E-19
 -1      2630 6.71461E-05-3.86160E-05-1.17808E-05 4.00224E-05-2.87949E-18 1.78300E-18
 -1      2631 6.51250E-05-3.35314E-05-1.30068E-05 3.73180E-05-3.39025E-18 1.56352E-18
 -1      2632 7.99907E-05-4.38058E-05-1.56523E-05 4.00939E-05-3.35732E-18 3.14461E-20
 -1      2633 3.08858E-05-1.37428E-05-6.70942E-06 8.26155E-07-2.28282E-19 5.96989E-18
 -1      2634 2.17657E-05-1.58000E-05-2.05316E-06-5.62416E-06 1.03515E-18 7.37681E-18
 -1      2635 9.52349E-05-2.85747E-05-2.85687E-05-1.07875E-08 3.49760E-19 1.73409E-18
 -1      2636 5.63859E-05-3.52404E-05-8.68269E-06-3.90631E-05 3.02984E-18 4.62501E-18
 -1      2637 7.23043E-05-4.03203E-05-1.33365E-05-3.96558E-05 3.97322E-18 2.24633E-18
 -1      2638 9.52358E-05-2.85762E-05-2.85684E-05-1.20463E-08 3.75931E-19 1.55911E-18
 -1      2639 9.52341E-05-2.85742E-05-2.85685E-05 1.16625E-08 8.29712E-19 1.09875E-18
 -1      2640 9.52363E-05-2.85769E-05-2.85683E-05 1.29121E-08-1.34383E-19 6.36754E-19
 -1      2641 9.52363E-05-2.85774E-05-2.85681E-05 1.53208E-08-1.53720E-18 4.89010E-19
 -1      2642 9.52325E-05-2.85736E-05-2.85681E-05 1.35457E-08-5.00991E-19 1.10420E-18
 -1      2643 1.29030E-04-5.93264E-05-2.97232E-05-2.19057E-05 9.34066E-19-1.51799E-18
 -1      2644 1.02431E-04-2.36113E-05-3.37360E-05 3.18772E-06 3.53396E-18-6.28737E-19
 -1      2645 4.17719E-05-2.10110E-05-8.28511E-06 2.52571E-05-2.58027E-18 4.01917E-18
 -1      2646 1.00861E-04-5.38971E-05-1.98366E-05-3.73223E-05 3.50905E-18 8.13337E-19
 -1      2647 2.62207E-05-1.89840E-05-2.69054E-06-1.82641E-05 1.31756E-18 6.88024E-18
 -1      2648 1.43552E-04-1.60841E-05-5.49999E-05 6.92250E-06-8.16328E-18-3.75458E-18
 -1      2649 1.34274E-04-1.19466E-05-5.29615E-05 6.34139E-06-8.17810E-18-3.14996E-18
 -1      2650 1.37191E-04-1.84455E-05-5.12515E-05 9.98251E-06-6.92407E-18-4.05475E-18
 -1      2651 1.45402E-04-3.52060E-05-4.74428E-05 8.50491E-06-4.63666E-18-4.81898E-18
 -1      2652 1.42136E-04-2.06431E-05-5.22636E-05-8.90577E-06-7.02931E-18-4.18964E-19
 -1      2653 1.45189E-04-4.14395E-05-4.45776E-05-4.35585E-06-4.17153E-18-6.47980E-20
 -1      2654 1.38090E-04-5.62196E-05-3.49661E-05 1.37522E-05-1.84420E-18-1.32179E-18
 -1      2655 4.41137E-05-2.33980E-05-8.31597E-06 3.03125E-05 1.76013E-18-8.24587E-18
 -1      2656 6.32691E-05-3.41843E-05-1.19829E-05-3.88542E-05-1.97782E-18-7.65178E-18
 -1      2657 1.41412E-04-5.06252E-05-3.90576E-05-1.63817E-06 1.98056E-18 8.22681E-19
 -1      2658 7.92239E-05-4.32580E-05-1.50347E-05 4.06877E-05 1.27987E-18-5.86454E-18
 -1      2659 1.25524E-04-5.78967E-05-2.86855E-05-2.33817E-05-6.54121E-19-1.78682E-18
 -1      2660 9.62515E-05-1.77188E-05-3.36948E-05-3.06888E-06-3.05251E-18-3.11955E-18
 -1      2661 1.37895E-04-1.41339E-05-5.32727E-05 6.40424E-06 8.00150E-18-7.58094E-19
 -1      2662 1.14789E-04-5.64523E-05-2.47695E-05 3.22008E-05-3.72694E-20-3.51138E-18
 -1      2663 3.22683E-05-2.33525E-05-3.37685E-06-2.55136E-05 2.01869E-18 6.30447E-18
 -1      2664 4.45578E-05-2.85147E-05-6.52487E-06-3.43476E-05 2.42018E-18 5.52837E-18
 -1      2665 5.10468E-05-2.76127E-05-9.57439E-06-3.33875E-05 3.30046E-18 4.28789E-18
 -1      2666 3.62053E-05-1.79869E-05-7.31669E-06-2.00870E-05 2.05501E-18 6.27334E-18
 -1      2667 9.52358E-05-2.85767E-05-2.85682E-05-1.46206E-08-1.94194E-19 6.98994E-19
 -1      2668 9.52337E-05-2.85750E-05-2.85680E-05 1.62492E-08-1.37765E-18 1.13597E-18
 -1      2669 7.61889E-05-8.07629E-06-2.91612E-05-3.85513E-06 1.08813E-18-5.09832E-18
 -1      2670 7.37129E-05-6.62699E-06-2.88069E-05-3.51204E-06 8.16858E-19-5.35763E-18
 -1      2671 7.17011E-05-5.13450E-06-2.85228E-05-2.28168E-06 7.11023E-19-5.57547E-18
 -1      2672 7.06356E-05-4.50226E-06-2.83780E-05-1.40860E-06 4.42636E-19-5.58695E-18
 -1      2673 7.26834E-05-7.12921E-06-2.80544E-05-3.79490E-06 6.90261E-19-5.29587E-18
 -1      2674 9.00831E-05-1.70823E-05-3.12790E-05-2.34567E-06 2.31911E-18-3.49046E-18
 -1      2675 8.64484E-05-1.48813E-05-3.07119E-05-3.25882E-06 2.01173E-18-3.92820E-18
 -1      2676 9.73472E-05-2.17884E-05-3.23803E-05-2.33768E-07 2.83751E-18-2.17772E-18
 -1      2677 9.37392E-05-1.94656E-05-3.18505E-05-1.26035E-06 2.47776E-18-2.84635E-18
 -1      2678 9.32694E-05-2.07562E-05-3.10900E-05-3.37765E-06 2.15574E-18-2.87773E-18
 -1      2679 1.05988E-04-3.05718E-05-3.23514E-05-1.52274E-06 2.29970E-18-2.04675E-19
 -1      2680 1.05410E-04-2.89336E-05-3.27148E-05-4.59939E-07 2.63289E-18-2.02608E-19
 -1      2681 5.25034E-05-2.38135E-05-1.18896E-05 2.98482E-05-3.24482E-18 2.07481E-18
 -1      2682 4.18616E-05-1.64147E-05-1.03807E-05 1.91137E-05-2.29159E-18 3.57787E-18
 -1      2683 1.08243E-04-3.40091E-05-3.18563E-05-2.11779E-06 1.35357E-18 3.97990E-20
 -1      2684 1.07364E-04-3.24218E-05-3.20483E-05-2.19056E-06 1.80900E-18 1.04549E-19
 -1      2685 1.04827E-04-3.05783E-05-3.18418E-05-2.51605E-06 1.92811E-18-6.13453E-19
 -1      2686 3.33201E-05-1.12688E-05-8.95272E-06-1.31795E-05-6.93588E-19-8.74667E-18
 -1      2687 4.24014E-05-1.77332E-05-1.02511E-05-2.71183E-05-1.31205E-18-8.32697E-18
 -1      2688 1.06222E-04-3.23460E-05-3.15809E-05 4.15897E-06-1.06821E-18-1.21506E-18
 -1      2689 1.07632E-04-3.44786E-05-3.13902E-05 4.19810E-06-8.66348E-19-1.10068E-18
 -1      2690 1.10134E-04-3.69460E-05-3.12696E-05 3.89395E-06-5.74170E-19-6.47648E-19
 -1      2691 1.11876E-04-3.90525E-05-3.12697E-05 2.73191E-06-3.35293E-19-5.16093E-19
 -1      2692 1.07141E-04-3.55688E-05-3.07624E-05 5.76292E-06-5.57414E-19-1.24247E-18
 -1      2693 1.15016E-04-4.13865E-05-3.14635E-05 9.55387E-07-9.49372E-20 1.52727E-19
 -1      2694 1.16627E-04-4.27216E-05-3.17382E-05-1.34639E-06-1.12829E-19 4.58567E-19
 -1      2695 1.12828E-04-4.11794E-05-3.08063E-05 4.13482E-06 7.69907E-20-4.15695E-19
 -1      2696 1.19658E-04-4.39246E-05-3.24326E-05-4.56082E-06-2.49736E-19 8.97542E-19
 -1      2697 1.20341E-04-4.32136E-05-3.31032E-05-7.45642E-06-5.12329E-19 9.60754E-19
 -1      2698 1.19152E-04-4.52213E-05-3.17308E-05-5.89559E-07 9.94188E-21 4.24747E-19
 -1      2699 1.21588E-04-4.14343E-05-3.44918E-05-1.12179E-05-8.96465E-19 1.16700E-18
 -1      2700 1.20504E-04-3.76193E-05-3.55427E-05-1.29433E-05-1.61429E-18 1.21786E-18
 -1      2701 1.24076E-04-4.49727E-05-3.39285E-05-7.88726E-06-5.99904E-19 1.16226E-18
 -1      2702 1.19005E-04-3.25045E-05-3.73903E-05-1.43421E-05-2.75892E-18 1.33228E-18
 -1      2703 1.16580E-04-2.68328E-05-3.85046E-05-1.28362E-05-3.62181E-18 8.48740E-19
 -1      2704 1.24219E-04-3.66942E-05-3.75918E-05-1.41052E-05-2.08002E-18 1.62133E-18
 -1      2705 1.13946E-04-2.13967E-05-3.99977E-05-9.13244E-06-4.30634E-18-1.23640E-19
 -1      2706 1.12402E-04-1.81345E-05-4.05585E-05-4.09636E-06-4.70379E-18-1.00498E-18
 -1      2707 1.19895E-04-2.36564E-05-4.15207E-05-1.20584E-05-4.50373E-18 9.58100E-19
 -1      2708 1.15595E-04-2.49910E-05-3.89037E-05 1.31004E-05-3.09691E-18-3.90499E-18
 -1      2709 1.18177E-04-3.07482E-05-3.78011E-05 1.51965E-05-2.21264E-18-4.43896E-18
 -1      2710 1.20058E-04-3.63459E-05-3.58847E-05 1.42948E-05-1.44033E-18-4.71709E-18
 -1      2711 1.21412E-04-4.07344E-05-3.47512E-05 1.28019E-05-5.42935E-19-4.58380E-18
 -1      2712 1.23770E-04-3.52414E-05-3.80318E-05 1.52446E-05-2.10498E-18-5.19999E-18
 -1      2713 1.20474E-04-4.31311E-05-3.31962E-05 9.07079E-06 5.51366E-20-4.85901E-18
 -1      2714 1.20078E-04-4.44650E-05-3.23947E-05 6.03225E-06 5.27863E-19-4.53013E-18
 -1      2715 1.24096E-04-4.44076E-05-3.42311E-05 9.95147E-06-3.32010E-19-5.22634E-18
 -1      2716 1.17123E-04-4.38430E-05-3.14803E-05 2.16153E-06 8.48509E-19-3.90189E-18
 -1      2717 1.15505E-04-4.28980E-05-3.10408E-05-6.85249E-07 1.25451E-18-3.56928E-18
 -1      2718 1.19971E-04-4.65256E-05-3.15235E-05 1.67476E-06 8.18652E-19-4.69293E-18
 -1      2719 1.12230E-04-4.08972E-05-3.06268E-05-3.24483E-06 9.51231E-19-3.36896E-18
 -1      2720 1.10259E-04-3.90961E-05-3.04217E-05-5.23256E-06 8.10657E-19-3.26044E-18
 -1      2721 1.13487E-04-4.33554E-05-3.01383E-05-4.55651E-06 1.09099E-18-4.22544E-18
 -1      2722 1.07573E-04-3.69811E-05-3.02845E-05-6.52335E-06 5.05991E-19-2.80032E-18
 -1      2723 1.05795E-04-3.52223E-05-3.01899E-05-7.62350E-06 6.24593E-19-2.59354E-18
 -1      2724 1.07473E-04-3.85876E-05-2.96043E-05-8.01871E-06 9.21896E-19-3.00453E-18
 -1      2725 1.03915E-04-3.35484E-05-3.01687E-05-8.03649E-06 8.44381E-19-2.48845E-18
 -1      2726 1.02512E-04-3.21863E-05-3.01054E-05-8.45859E-06 4.08968E-19-2.13936E-18
 -1      2727 1.02942E-04-3.42782E-05-2.94875E-05-9.39190E-06 7.85316E-19-2.12553E-18
 -1      2728 1.01312E-04-3.10513E-05-3.01119E-05-8.35550E-06-9.14076E-21-1.80155E-18
 -1      2729 1.00266E-04-3.01231E-05-3.00432E-05-8.32766E-06 1.40574E-21-1.39236E-18
 -1      2730 9.99192E-05-3.11305E-05-2.95185E-05-9.48478E-06 5.71628E-19-1.78989E-18
 -1      2731 9.95443E-05-2.94396E-05-3.00392E-05-7.94976E-06 1.65418E-20-1.04916E-18
 -1      2732 9.87749E-05-2.88629E-05-2.99549E-05-7.65646E-06 2.89029E-19-9.57745E-19
 -1      2733 9.80444E-05-2.91127E-05-2.95633E-05-8.87620E-06 2.05371E-19-8.42687E-19
 -1      2734 9.83573E-05-2.85009E-05-2.99298E-05-7.15256E-06 3.34435E-19-1.01363E-18
 -1      2735 9.77851E-05-2.81721E-05-2.98328E-05-6.72593E-06 8.04617E-19-1.17238E-18
 -1      2736 9.69353E-05-2.79625E-05-2.95708E-05-7.92221E-06 2.08911E-19-3.99897E-19
 -1      2737 9.75472E-05-2.80166E-05-2.97888E-05-6.18540E-06 6.02931E-19-1.16042E-18
 -1      2738 9.71127E-05-2.78487E-05-2.96864E-05-5.71304E-06 2.80118E-19-1.59570E-18
 -1      2739 9.62967E-05-2.74014E-05-2.95320E-05-6.83563E-06 2.41298E-19-6.20696E-19
 -1      2740 9.69759E-05-2.78150E-05-2.96302E-05-5.18808E-06 4.08794E-19-1.81561E-18
 -1      2741 9.66393E-05-2.77448E-05-2.95294E-05-4.72397E-06 1.12382E-19-2.18954E-18
 -1      2742 9.59307E-05-2.72062E-05-2.94561E-05-5.74270E-06 1.80774E-19-1.02853E-18
 -1      2743 9.65575E-05-2.77766E-05-2.94678E-05-4.24337E-06-4.25935E-19-1.98311E-18
 -1      2744 9.62933E-05-2.77625E-05-2.93739E-05-3.81778E-06-4.60594E-19-2.49918E-18
 -1      2745 9.57167E-05-2.72204E-05-2.93571E-05-4.71637E-06-2.93932E-19-1.92379E-18
 -1      2746 9.62410E-05-2.78248E-05-2.93123E-05-3.39536E-06 2.97079E-19-2.66567E-18
 -1      2747 9.60326E-05-2.78406E-05-2.92285E-05-3.02271E-06 5.32790E-19-2.85620E-18
 -1      2748 9.55854E-05-2.73423E-05-2.92481E-05-3.79559E-06-1.06161E-19-2.03706E-18
 -1      2749 9.59964E-05-2.79132E-05-2.91706E-05-2.66279E-06 6.47520E-19-2.69309E-18
 -1      2750 9.58325E-05-2.79431E-05-2.90984E-05-2.34742E-06 7.87498E-19-2.21522E-18
 -1      2751 9.54990E-05-2.75098E-05-2.91392E-05-2.99718E-06 6.01504E-19-1.46242E-18
 -1      2752 9.58056E-05-2.80147E-05-2.90464E-05-2.04847E-06 2.06796E-19-2.02786E-18
 -1      2753 9.56776E-05-2.80496E-05-2.89858E-05-1.78870E-06 8.04699E-20-1.55668E-18
 -1      2754 9.54378E-05-2.76871E-05-2.90371E-05-2.32364E-06 6.41304E-19-1.90473E-18
 -1      2755 9.56565E-05-2.81146E-05-2.89408E-05-1.54578E-06 2.30384E-19-2.22400E-18
 -1      2756 9.55577E-05-2.81494E-05-2.88912E-05-1.33665E-06-9.51035E-20-1.96697E-18
 -1      2757 9.53919E-05-2.78549E-05-2.89454E-05-1.76857E-06-3.95930E-19-2.39683E-18
 -1      2758 9.55408E-05-2.82056E-05-2.88533E-05-1.14315E-06-1.53331E-19-1.65006E-18
 -1      2759 9.54656E-05-2.82375E-05-2.88136E-05-9.78181E-07-1.24344E-19-6.79202E-19
 -1      2760 9.53559E-05-2.80041E-05-2.88661E-05-1.32051E-06 4.00866E-20-1.62295E-18
 -1      2761 9.54521E-05-2.82845E-05-2.87824E-05-8.26894E-07 3.17920E-19-2.59893E-19
 -1      2762 9.53958E-05-2.83125E-05-2.87511E-05-6.99236E-07 3.23449E-19 3.75874E-19
 -1      2763 9.53274E-05-2.81313E-05-2.87992E-05-9.65700E-07 3.36880E-19-5.84468E-20
 -1      2764 9.53849E-05-2.83507E-05-2.87260E-05-5.83098E-07-4.88157E-19-2.63742E-19
 -1      2765 9.53436E-05-2.83744E-05-2.87019E-05-4.86159E-07-8.57683E-19 3.95525E-19
 -1      2766 9.53047E-05-2.82366E-05-2.87443E-05-6.89842E-07-1.86826E-19-5.50372E-19
 -1      2767 9.53350E-05-2.84048E-05-2.86821E-05-3.98648E-07-8.35145E-19 8.68664E-19
 -1      2768 9.53053E-05-2.84244E-05-2.86639E-05-3.26453E-07-8.72719E-19 1.57276E-18
 -1      2769 9.52867E-05-2.83216E-05-2.87000E-05-4.79251E-07-5.56184E-19 8.51392E-19
 -1      2770 9.52986E-05-2.84480E-05-2.86485E-05-2.61799E-07-5.78267E-19 1.64972E-18
 -1      2771 9.52779E-05-2.84639E-05-2.86350E-05-2.09144E-07 3.27912E-19 2.16565E-18
 -1      2772 9.52727E-05-2.83889E-05-2.86651E-05-3.21482E-07-4.32613E-19 1.81838E-18
 -1      2773 9.52727E-05-2.84820E-05-2.86233E-05-1.62398E-07-1.82961E-19 1.45287E-18
 -1      2774 9.52588E-05-2.84945E-05-2.86135E-05-1.24886E-07 1.59436E-19 1.25768E-18
 -1      2775 9.52620E-05-2.84411E-05-2.86380E-05-2.05645E-07-4.53923E-19 1.78227E-18
 -1      2776 9.52549E-05-2.85081E-05-2.86048E-05-9.19176E-08 4.22309E-19 4.14674E-19
 -1      2777 9.52459E-05-2.85179E-05-2.85979E-05-6.59235E-08 7.14943E-19 4.02302E-19
 -1      2778 9.52539E-05-2.84808E-05-2.86174E-05-1.22481E-07-4.51293E-19 6.61550E-19
 -1      2779 9.52430E-05-2.85279E-05-2.85915E-05-4.33566E-08 4.81589E-19-1.14268E-18
 -1      2780 9.52376E-05-2.85353E-05-2.85868E-05-2.59550E-08 8.92794E-20-1.04175E-18
 -1      2781 9.52479E-05-2.85105E-05-2.86021E-05-6.43129E-08-2.29951E-19-2.03409E-18
 -1      2782 9.52355E-05-2.85425E-05-2.85823E-05-1.10878E-08 4.63151E-19-1.01025E-18
 -1      2783 9.52326E-05-2.85481E-05-2.85791E-05 3.54170E-11-5.79979E-19-1.00406E-18
 -1      2784 9.52437E-05-2.85322E-05-2.85909E-05-2.49082E-08-4.91006E-20-2.18616E-18
 -1      2785 9.52312E-05-2.85531E-05-2.85760E-05 9.32479E-09 6.82341E-20-7.02911E-19
 -1      2786 9.52300E-05-2.85573E-05-2.85741E-05 1.59658E-08 7.72981E-19-6.55431E-20
 -1      2787 9.52407E-05-2.85478E-05-2.85829E-05 6.93176E-10 6.23960E-19-1.03440E-18
 -1      2788 9.52290E-05-2.85607E-05-2.85720E-05 2.13116E-08 1.93364E-19 1.96485E-19
 -1      2789 9.52290E-05-2.85637E-05-2.85709E-05 2.48364E-08 5.70274E-19 9.72832E-19
 -1      2790 9.52387E-05-2.85586E-05-2.85773E-05 1.63629E-08 6.32268E-19 4.23322E-19
 -1      2791 9.52284E-05-2.85659E-05-2.85695E-05 2.74713E-08 5.52891E-19 5.51282E-19
 -1      2792 9.52290E-05-2.85680E-05-2.85690E-05 2.88949E-08 4.19588E-19 7.49622E-19
 -1      2793 9.52374E-05-2.85659E-05-2.85736E-05 2.50634E-08 2.53147E-19 4.87465E-19
 -1      2794 9.52287E-05-2.85694E-05-2.85682E-05 2.97263E-08 7.34244E-19-4.70588E-20
 -1      2795 9.52297E-05-2.85709E-05-2.85680E-05 2.97819E-08-1.04014E-19-6.61220E-19
 -1      2796 9.52367E-05-2.85706E-05-2.85712E-05 2.90122E-08 1.62249E-19-1.17130E-18
 -1      2797 9.52295E-05-2.85718E-05-2.85676E-05 2.94571E-08-4.46462E-19-3.46446E-19
 -1      2798 9.52308E-05-2.85729E-05-2.85677E-05 2.86534E-08 5.64457E-19-4.83526E-19
 -1      2799 9.52363E-05-2.85736E-05-2.85698E-05 2.98252E-08-6.40728E-19-1.69209E-18
 -1      2800 9.52308E-05-2.85734E-05-2.85675E-05 2.76135E-08 1.47649E-18-7.40367E-19
 -1      2801 9.52321E-05-2.85742E-05-2.85677E-05 2.62819E-08 1.72915E-18-6.54794E-19
 -1      2802 9.52363E-05-2.85754E-05-2.85690E-05 2.86398E-08 5.87326E-19-4.31554E-19
 -1      2803 9.52322E-05-2.85746E-05-2.85676E-05 2.48076E-08 1.02092E-18-9.13215E-19
 -1      2804 9.52335E-05-2.85753E-05-2.85678E-05 2.31389E-08 2.89771E-19-1.75848E-18
 -1      2805 9.52364E-05-2.85766E-05-2.85685E-05 2.62141E-08 7.67512E-19-2.34360E-18
 -1      2806 9.52338E-05-2.85756E-05-2.85678E-05 2.13912E-08 5.23074E-19-1.98978E-18
 -1      2807 9.52350E-05-2.85763E-05-2.85680E-05 1.94757E-08 1.82116E-19-1.28303E-18
 -1      2808 9.52369E-05-2.85775E-05-2.85683E-05 2.30129E-08 9.38904E-19-4.12075E-18
 -1      2809 3.61692E-05-1.24408E-05-9.71277E-06 7.00632E-06-8.70366E-19 4.73618E-18
 -1      2810 3.58962E-05-1.24508E-05-9.58812E-06-5.99757E-06 2.96739E-19 5.38205E-18
 -1      2811 1.22895E-04-5.90477E-05-2.72265E-05-2.26123E-05 2.65900E-18-1.85998E-18
 -1      2812 1.32948E-04-5.88131E-05-3.20361E-05-1.32601E-05 9.13684E-19-3.11390E-18
 -1      2813 9.52360E-05-2.85770E-05-2.85681E-05 1.67192E-08-7.91265E-19 3.77292E-19
 -1      2814 9.52378E-05-2.85789E-05-2.85681E-05 1.71526E-08-5.50135E-19-1.08063E-18
 -1      2815 9.52352E-05-2.85766E-05-2.85680E-05 1.81655E-08-2.23279E-19-4.64843E-19
 -1      2816 1.13933E-04-3.97059E-05-3.18837E-05 3.05895E-06 3.25212E-19 7.70651E-19
 -1      2817 1.13155E-04-3.88875E-05-3.17771E-05 1.08583E-06 3.77239E-19 9.14134E-19
 -1      2818 1.11715E-04-2.84374E-05-3.56334E-05 1.18421E-05 2.56720E-18 1.21422E-18
 -1      2819 1.13684E-04-3.24106E-05-3.50250E-05 1.28750E-05 1.77807E-18 1.39128E-18
 -1      2820 1.08083E-04-2.19026E-05-3.69400E-05 5.31482E-06 3.78539E-18-3.67278E-19
 -1      2821 1.09374E-04-2.45936E-05-3.65697E-05 8.90732E-06 3.31069E-18 4.35798E-19
 -1      2822 1.14022E-04-2.55480E-05-3.78572E-05 1.20656E-05 3.47310E-18 9.80547E-19
 -1      2823 1.07706E-04-2.15996E-05-3.70739E-05-4.99240E-06 3.89212E-18-1.63818E-18
 -1      2824 1.07135E-04-2.07245E-05-3.71880E-05-6.02598E-07 4.01271E-18-1.07117E-18
 -1      2825 1.10543E-04-1.90155E-05-3.92341E-05 3.19085E-06 4.43787E-18-4.33740E-19
 -1      2826 1.11228E-04-2.78310E-05-3.59447E-05-1.24969E-05 2.22375E-18-2.57355E-18
 -1      2827 1.09350E-04-2.42137E-05-3.64533E-05-9.82318E-06 3.12391E-18-2.16186E-18
 -1      2828 1.11688E-04-2.13641E-05-3.87919E-05-8.32159E-06 3.86138E-18-1.54806E-18
 -1      2829 1.15172E-04-3.56368E-05-3.42362E-05-1.34089E-05 8.71855E-19-2.74882E-18
 -1      2830 1.13388E-04-3.19800E-05-3.48500E-05-1.35929E-05 1.50886E-18-2.65617E-18
 -1      2831 1.15826E-04-3.01502E-05-3.67554E-05-1.41764E-05 2.08929E-18-2.40283E-18
 -1      2832 1.16376E-04-4.01807E-05-3.27037E-05-9.25700E-06 1.97365E-21-2.78417E-18
 -1      2833 1.15717E-04-3.83063E-05-3.31920E-05-1.13286E-05 6.30384E-19-2.66944E-18
 -1      2834 1.18675E-04-3.87024E-05-3.42720E-05-1.25033E-05 6.40787E-19-2.40997E-18
 -1      2835 1.14651E-04-4.06940E-05-3.16678E-05-3.51527E-06-2.18925E-19-2.65535E-18
 -1      2836 1.15113E-04-4.06311E-05-3.19734E-05-6.08651E-06-1.72346E-19-2.84159E-18
 -1      2837 1.17837E-04-4.25228E-05-3.22612E-05-6.65494E-06 1.04878E-19-2.60843E-18
 -1      2838 1.11309E-04-3.86201E-05-3.11038E-05 1.41691E-06-3.20312E-19-2.22990E-18
 -1      2839 1.12448E-04-3.96316E-05-3.12690E-05-7.34066E-07-1.71987E-19-1.95686E-18
 -1      2840 1.14203E-04-4.19041E-05-3.10152E-05-5.09720E-07-4.54228E-19-2.46940E-18
 -1      2841 1.07805E-04-3.57957E-05-3.08166E-05 4.65926E-06-1.80957E-19-1.30686E-18
 -1      2842 1.09117E-04-3.70805E-05-3.09203E-05 3.21729E-06-2.14144E-19-1.90317E-18
 -1      2843 1.09672E-04-3.88224E-05-3.04070E-05 3.97790E-06-5.56071E-19-1.98368E-18
 -1      2844 1.04793E-04-3.32241E-05-3.06405E-05 6.36226E-06-9.31575E-19-8.48212E-19
 -1      2845 1.06019E-04-3.43746E-05-3.07342E-05 5.59511E-06-2.33912E-19-9.67450E-19
 -1      2846 1.05662E-04-3.53978E-05-3.01549E-05 6.54640E-06-4.31924E-19-1.91066E-18
 -1      2847 1.02442E-04-3.12691E-05-3.04827E-05 6.92181E-06-1.12658E-18-5.49216E-19
 -1      2848 1.03488E-04-3.21459E-05-3.05891E-05 6.66851E-06-1.13508E-18-7.72341E-19
 -1      2849 1.02572E-04-3.25246E-05-3.00517E-05 7.64282E-06-9.30539E-19-9.40901E-19
 -1      2850 1.00680E-04-2.99385E-05-3.03068E-05 6.74258E-06 2.27353E-19-1.20116E-18
 -1      2851 1.01540E-04-3.05458E-05-3.04290E-05 6.82899E-06-3.74102E-19-9.67568E-19
 -1      2852 1.00378E-04-3.04680E-05-2.99822E-05 7.74935E-06-4.24156E-19-1.01425E-18
 -1      2853 9.93702E-05-2.91047E-05-3.01086E-05 6.14254E-06 2.47172E-19-7.64630E-19
 -1      2854 1.00068E-04-2.94984E-05-3.02405E-05 6.42509E-06 3.87329E-19-9.86870E-19
 -1      2855 9.88783E-05-2.91499E-05-2.98965E-05 7.26519E-06-4.03206E-20-7.61846E-19
 -1      2856 9.83874E-05-2.86211E-05-2.98982E-05 5.34422E-06 3.71052E-19-2.03042E-19
 -1      2857 9.89533E-05-2.88629E-05-3.00310E-05 5.71907E-06 4.49964E-20-5.63350E-19
 -1      2858 9.78610E-05-2.83867E-05-2.97827E-05 6.47125E-06 2.05233E-19-2.43017E-19
 -1      2859 9.76385E-05-2.83660E-05-2.96884E-05 4.49184E-06-4.66111E-19-2.23232E-19
 -1      2860 9.80964E-05-2.85066E-05-2.98147E-05 4.89076E-06 4.55504E-19-1.09974E-19
 -1      2861 9.71614E-05-2.79985E-05-2.96465E-05 5.55328E-06 2.07144E-19-2.80248E-19
 -1      2862 9.70599E-05-2.82515E-05-2.94903E-05 3.67191E-06-8.94522E-19-1.11143E-18
 -1      2863 9.74288E-05-2.83275E-05-2.96049E-05 4.05396E-06-7.46667E-19-6.35484E-19
 -1      2864 9.66675E-05-2.78445E-05-2.94994E-05 4.62770E-06-2.57609E-19 7.39002E-20
 -1      2865 9.66091E-05-2.82190E-05-2.93113E-05 2.93104E-06 1.93945E-19-1.15046E-18
 -1      2866 9.69042E-05-2.82552E-05-2.94115E-05 3.27447E-06-3.98416E-19-8.40771E-19
 -1      2867 9.63080E-05-2.78264E-05-2.93523E-05 3.76248E-06-4.94015E-19-2.82939E-19
 -1      2868 9.62574E-05-2.82313E-05-2.91553E-05 2.28978E-06 8.44356E-19-1.09367E-18
 -1      2869 9.64908E-05-2.82437E-05-2.92401E-05 2.58536E-06 3.53451E-19-1.13267E-18
 -1      2870 9.60395E-05-2.78804E-05-2.92136E-05 2.99287E-06 2.15228E-19-7.14479E-19
 -1      2871 9.59840E-05-2.82656E-05-2.90232E-05 1.75244E-06 4.09251E-19-1.22010E-18
 -1      2872 9.61663E-05-2.82646E-05-2.90932E-05 1.99866E-06 1.13166E-18-1.41087E-18
 -1      2873 9.58352E-05-2.79673E-05-2.90885E-05 2.33274E-06 1.20942E-18-4.44150E-19
 -1      2874 9.57733E-05-2.83088E-05-2.89142E-05 1.31387E-06-4.00943E-19-1.71575E-18
 -1      2875 9.59136E-05-2.83005E-05-2.89707E-05 1.51362E-06-3.27976E-19-1.55184E-18
 -1      2876 9.56784E-05-2.80640E-05-2.89796E-05 1.78257E-06 2.21333E-19-1.20833E-18
 -1      2877 9.56128E-05-2.83531E-05-2.88263E-05 9.63919E-07-1.23788E-21-1.97234E-18
 -1      2878 9.57190E-05-2.83416E-05-2.88708E-05 1.12233E-06-9.41627E-20-1.72783E-18
 -1      2879 9.55580E-05-2.81579E-05-2.88875E-05 1.33499E-06-3.11126E-19-2.34928E-18
 -1      2880 9.54924E-05-2.83946E-05-2.87567E-05 6.90385E-07 7.84877E-19-1.95714E-18
 -1      2881 9.55713E-05-2.83820E-05-2.87912E-05 8.13420E-07 3.95979E-19-1.48642E-18
 -1      2882 9.54660E-05-2.82426E-05-2.88115E-05 9.78586E-07-3.93146E-20-1.89590E-18
 -1      2883 9.54036E-05-2.84313E-05-2.87028E-05 4.80759E-07-2.33857E-19-9.79152E-19
 -1      2884 9.54610E-05-2.84191E-05-2.87290E-05 5.74422E-07 3.27374E-19-1.23771E-18
 -1      2885 9.53964E-05-2.83156E-05-2.87502E-05 7.00374E-07-3.36254E-19-7.15096E-19
 -1      2886 9.53395E-05-2.84625E-05-2.86618E-05 3.23261E-07-8.23644E-20 8.80891E-20
 -1      2887 9.53803E-05-2.84514E-05-2.86813E-05 3.93131E-07-1.35078E-19 1.10868E-20
 -1      2888 9.53445E-05-2.83764E-05-2.87016E-05 4.87353E-07-5.55544E-19-3.57911E-19
 -1      2889 9.52943E-05-2.84884E-05-2.86313E-05 2.07365E-07-6.61332E-19-3.60346E-21
 -1      2890 9.53224E-05-2.84787E-05-2.86454E-05 2.58374E-07-2.10146E-19 3.06474E-19
 -1      2891 9.53064E-05-2.84257E-05-2.86640E-05 3.27406E-07-7.04578E-19-2.88549E-19
 -1      2892 9.52635E-05-2.85094E-05-2.86090E-05 1.24010E-07 9.94132E-19 5.95803E-20
 -1      2893 9.52822E-05-2.85011E-05-2.86190E-05 1.60364E-07 1.38713E-19 4.91365E-20
 -1      2894 9.52790E-05-2.84649E-05-2.86353E-05 2.09767E-07-3.48930E-19-1.14834E-18
 -1      2895 9.52432E-05-2.85260E-05-2.85932E-05 6.56200E-08 1.04702E-18 1.35048E-19
 -1      2896 9.52550E-05-2.85191E-05-2.86001E-05 9.08082E-08 1.25667E-18 5.19063E-19
 -1      2897 9.52599E-05-2.84953E-05-2.86139E-05 1.25196E-07 8.37923E-19-5.84242E-19
 -1      2898 9.52307E-05-2.85389E-05-2.85823E-05 2.60100E-08 4.90438E-19 6.97162E-19
 -1      2899 9.52376E-05-2.85333E-05-2.85868E-05 4.28597E-08 7.81858E-19 8.11847E-19
 -1      2900 9.52469E-05-2.85185E-05-2.85983E-05 6.59786E-08 5.00389E-19 6.26829E-19
 -1      2901 9.52237E-05-2.85487E-05-2.85750E-05 2.37783E-10 1.57261E-19 1.01991E-18
 -1      2902 9.52271E-05-2.85443E-05-2.85778E-05 1.09923E-08 9.47589E-19 1.35506E-18
 -1      2903 9.52386E-05-2.85359E-05-2.85872E-05 2.58256E-08 2.14432E-19 1.56131E-18
 -1      2904 9.52205E-05-2.85561E-05-2.85704E-05-1.55669E-08-6.51908E-19 6.44142E-19
 -1      2905 9.52216E-05-2.85526E-05-2.85721E-05-9.16314E-09-5.50072E-19 8.29353E-19
 -1      2906 9.52335E-05-2.85486E-05-2.85795E-05-2.84943E-10-1.24519E-19 1.10120E-18
 -1      2907 9.52197E-05-2.85615E-05-2.85678E-05-2.43742E-08-3.25720E-19-1.99934E-19
 -1      2908 9.52194E-05-2.85589E-05-2.85686E-05-2.09925E-08-1.88343E-19 5.86212E-19
 -1      2909 9.52307E-05-2.85576E-05-2.85743E-05-1.62827E-08-3.64818E-19 5.21832E-19
 -1      2910 9.52206E-05-2.85654E-05-2.85665E-05-2.84136E-08 4.01491E-19-1.18218E-18
 -1      2911 9.52193E-05-2.85634E-05-2.85667E-05-2.70652E-08-1.10726E-19-1.08583E-18
 -1      2912 9.52295E-05-2.85640E-05-2.85711E-05-2.51811E-08 1.61464E-19 7.73493E-20
 -1      2913 9.52224E-05-2.85683E-05-2.85661E-05-2.93148E-08-2.81215E-19-1.31553E-18
 -1      2914 9.52207E-05-2.85667E-05-2.85659E-05-2.92849E-08 4.51236E-19-1.49653E-18
 -1      2915 9.52294E-05-2.85683E-05-2.85691E-05-2.92392E-08 9.38417E-19-3.84162E-19
 -1      2916 9.52247E-05-2.85703E-05-2.85662E-05-2.82281E-08-8.79166E-19-1.76347E-18
 -1      2917 9.52228E-05-2.85691E-05-2.85658E-05-2.90205E-08-5.88115E-19-1.52563E-18
 -1      2918 9.52300E-05-2.85711E-05-2.85681E-05-3.01060E-08 1.29119E-20-6.78159E-19
 -1      2919 9.52273E-05-2.85718E-05-2.85666E-05-2.59228E-08-9.24512E-19-2.30107E-18
 -1      2920 9.52253E-05-2.85709E-05-2.85662E-05-2.72146E-08-9.92545E-19-2.43432E-18
 -1      2921 9.52310E-05-2.85730E-05-2.85677E-05-2.89428E-08-8.86706E-19-1.26105E-18
 -1      2922 9.52298E-05-2.85731E-05-2.85671E-05-2.28717E-08-1.58278E-18-1.09616E-18
 -1      2923 9.52279E-05-2.85723E-05-2.85667E-05-2.44742E-08-1.63745E-18-2.05975E-18
 -1      2924 9.52322E-05-2.85743E-05-2.85677E-05-2.65263E-08-1.66029E-18-2.69353E-18
 -1      2925 9.52322E-05-2.85743E-05-2.85677E-05-1.93048E-08-7.78247E-19 1.60662E-18
 -1      2926 9.52305E-05-2.85735E-05-2.85673E-05-2.11313E-08-9.91632E-19 3.07427E-19
 -1      2927 9.52336E-05-2.85754E-05-2.85678E-05-2.33442E-08-1.61777E-18-1.33935E-18
 -1      2928 9.52348E-05-2.85758E-05-2.85681E-05-1.60080E-08-7.43674E-19 1.28978E-18
 -1      2929 9.52333E-05-2.85751E-05-2.85678E-05-1.80627E-08-6.92514E-19 1.76416E-18
 -1      2930 9.52355E-05-2.85768E-05-2.85680E-05-2.02020E-08-1.14958E-18 3.44808E-20
 -1      2931 9.52374E-05-2.85784E-05-2.85681E-05-1.73090E-08-9.10584E-19-1.01629E-18
 -1      2932 7.32654E-05-3.77845E-05-1.49189E-05-3.72238E-05 3.82541E-18 1.55822E-18
 -1      2933 8.53425E-05-4.51531E-05-1.68968E-05-3.89866E-05 4.05792E-18 9.23689E-19
 -1      2934 9.52505E-05-2.85910E-05-2.85684E-05-1.48534E-09 2.62814E-19-2.01605E-18
 -1      2935 9.52502E-05-2.85907E-05-2.85684E-05-4.19203E-09 3.22324E-19-1.65586E-18
 -1      2936 9.52477E-05-2.85883E-05-2.85683E-05-1.20069E-08-7.08892E-19 3.86967E-19
 -1      2937 9.52464E-05-2.85869E-05-2.85683E-05-1.38661E-08-5.20196E-19-3.92472E-19
 -1      2938 9.52502E-05-2.85907E-05-2.85684E-05 4.28205E-09-2.76210E-20-3.11005E-19
 -1      2939 9.52505E-05-2.85909E-05-2.85684E-05 1.57714E-09 2.42098E-19-1.56395E-18
 -1      2940 9.52521E-05-2.85904E-05-2.85693E-05 4.94989E-11-5.65289E-19-2.18430E-18
 -1      2941 9.52497E-05-2.85901E-05-2.85683E-05-7.10740E-09-7.28142E-19-7.86992E-19
 -1      2942 9.52489E-05-2.85893E-05-2.85684E-05-9.53278E-09-1.37689E-18 4.89251E-19
 -1      2943 9.52495E-05-2.85883E-05-2.85691E-05-1.16980E-08-5.98914E-19 2.14158E-19
 -1      2944 9.52514E-05-2.85899E-05-2.85692E-05-6.12570E-09-4.22921E-19 1.54866E-19
 -1      2945 9.52489E-05-2.85893E-05-2.85684E-05 9.52872E-09-6.40198E-19-1.07980E-18
 -1      2946 9.52497E-05-2.85901E-05-2.85683E-05 7.14616E-09-6.84206E-19 8.33208E-19
 -1      2947 9.52514E-05-2.85899E-05-2.85692E-05 6.17086E-09-3.95829E-19-6.54647E-19
 -1      2948 9.52464E-05-2.85870E-05-2.85684E-05 1.38734E-08 8.60340E-19-2.37145E-18
 -1      2949 9.52478E-05-2.85883E-05-2.85683E-05 1.20016E-08 3.72462E-19-2.87742E-18
 -1      2950 9.52495E-05-2.85883E-05-2.85691E-05 1.16924E-08 4.05978E-19-9.77034E-19
 -1      2951 9.52430E-05-2.85837E-05-2.85683E-05 1.66585E-08 4.28600E-19 7.72425E-19
 -1      2952 9.52448E-05-2.85854E-05-2.85683E-05 1.56235E-08 1.11015E-18 2.52201E-19
 -1      2953 9.52464E-05-2.85858E-05-2.85689E-05 1.60762E-08 7.53562E-19-8.28635E-19
 -1      2954 9.52398E-05-2.85809E-05-2.85681E-05 1.71197E-08-1.26457E-19-1.36786E-18
 -1      2955 1.11058E-04-3.72920E-05-3.16759E-05-5.69228E-07 6.57516E-19 4.42866E-19
 -1      2956 1.10039E-04-3.58465E-05-3.17304E-05-1.70486E-06 8.62500E-19 3.49085E-19
 -1      2957 1.08058E-04-3.49027E-05-3.13835E-05-2.98272E-06 1.04255E-18-3.34094E-19
 -1      2958 1.12106E-04-3.90528E-05-3.13506E-05-1.09803E-06 3.03062E-19 2.19155E-19
 -1      2959 1.02678E-04-2.52279E-05-3.32078E-05 1.41226E-06 3.14976E-18-8.29146E-19
 -1      2960 1.00268E-04-2.33383E-05-3.29849E-05-5.81685E-07-2.72902E-18-2.25763E-18
 -1      2961 1.01832E-04-2.58885E-05-3.25763E-05 1.09129E-06-2.40311E-18-2.00452E-18
 -1      2962 1.32369E-04-1.66147E-05-5.03400E-05-9.01654E-06-6.99099E-18-1.11173E-19
 -1      2963 1.34108E-04-2.36656E-05-4.76064E-05-1.26200E-05-5.66665E-18 5.53960E-19
 -1      2964 1.33379E-04-2.30256E-05-4.79964E-05-1.24892E-05 5.55675E-18-4.10260E-18
 -1      2965 1.38330E-04-3.16647E-05-4.59736E-05-1.25240E-05 4.19091E-18-4.86620E-18
 -1      2966 1.15041E-04-3.57647E-05-3.39580E-05 1.20068E-05 9.01720E-19 1.63956E-18
 -1      2967 1.16297E-04-3.84256E-05-3.34288E-05 1.08330E-05 5.44138E-19 1.60408E-18
 -1      2968 1.17864E-04-3.48933E-05-3.55583E-05 1.36098E-05 1.68316E-18 2.15516E-18
 -1      2969 1.15728E-04-3.97347E-05-3.26130E-05 7.93054E-06 5.15383E-19 1.32710E-18
 -1      2970 1.15741E-04-4.03413E-05-3.23026E-05 5.75732E-06 4.07552E-19 1.36769E-18
 -1      2971 1.18898E-04-4.11120E-05-3.33396E-05 9.27897E-06 4.36513E-19 2.01631E-18
 -1      2972 1.03372E-04-2.81273E-05-3.21928E-05 2.37080E-06-1.84278E-18-1.75794E-18
 -1      2973 1.04427E-04-3.02053E-05-3.18382E-05 3.51698E-06-1.43915E-18-1.56080E-18
 -1      2974 1.02917E-04-3.03080E-05-3.11841E-05 5.01222E-06-1.15632E-18-1.90192E-18
 -1      2975 9.97685E-05-2.55095E-05-3.18486E-05 2.82303E-06-1.89706E-18-2.28355E-18
 -1      2976 9.43243E-05-1.75637E-05-3.29189E-05-1.12914E-06-2.60908E-18-3.40195E-18
 -1      2977 1.35772E-04-5.28081E-05-3.56566E-05-1.81658E-06 4.05974E-19 1.43434E-18
 -1      2978 1.38840E-04-4.49882E-05-4.08055E-05 6.38537E-06 2.57961E-18 1.78512E-18
 -1      2979 1.31781E-04-1.72914E-05-4.95700E-05 1.03743E-05 6.96515E-18 6.13569E-19
 -1      2980 1.28515E-04-1.20189E-05-5.06964E-05 5.32211E-06 7.40773E-18-4.80479E-19
 -1      2981 8.27453E-05-1.23507E-05-3.01416E-05-3.82160E-06 1.77061E-18-4.27943E-18
 -1      2982 7.93928E-05-1.03751E-05-2.96361E-05-4.16927E-06 1.29633E-18-4.65709E-18
 -1      2983 7.83062E-05-1.09852E-05-2.88462E-05-5.43640E-06 1.00484E-18-4.64475E-18
 -1      2984 8.56258E-05-1.58384E-05-2.99249E-05-5.11170E-06 1.64313E-18-3.76135E-18
 -1      2985 7.80708E-05-9.38430E-06-2.94963E-05 3.82360E-06-4.88844E-19-5.17388E-18
 -1      2986 8.13880E-05-1.13216E-05-2.99996E-05 3.69315E-06-8.64428E-19-4.85909E-18
 -1      2987 9.22806E-05-4.77988E-05-1.90708E-05 3.90709E-05 1.70084E-18-4.23088E-18
 -1      2988 7.39253E-05-3.78102E-05-1.50640E-05 3.86572E-05 2.40790E-18-5.42461E-18
 -1      2989 5.79229E-05-2.69975E-05-1.26713E-05-3.45563E-05-2.37910E-18-7.14705E-18
 -1      2990 7.58705E-05-3.77448E-05-1.62513E-05-3.90737E-05-2.59753E-18-5.94977E-18
 -1      2991 1.23141E-04-5.84942E-05-2.79756E-05 2.55181E-05 3.68671E-19-1.81540E-18
 -1      2992 1.08933E-04-5.44710E-05-2.30111E-05 3.25648E-05 1.35250E-18-2.92388E-18
 -1      2993 1.36665E-04-3.42804E-05-4.41492E-05 1.18110E-05 4.50886E-18 1.82472E-18
 -1      2994 1.34313E-04-2.54170E-05-4.73623E-05 1.19601E-05 6.02960E-18 1.33418E-18
 -1      2995 1.15796E-04-5.78206E-05-2.51584E-05 2.88571E-05-1.90741E-18-2.04326E-18
 -1      2996 9.85481E-05-5.13891E-05-1.96965E-05 3.58181E-05-2.94609E-18-6.35486E-19
 -1      2997 9.29352E-05-4.66691E-05-1.93819E-05-3.68549E-05-2.78695E-18-4.65617E-18
 -1      2998 1.05950E-04-5.29871E-05-2.28474E-05-3.40651E-05-2.25650E-18-3.33698E-18
 -1      2999 1.19666E-04-5.67097E-05-2.66815E-05-2.49000E-05-1.90111E-18-1.66103E-18
 -1      3000 1.29853E-04-5.77372E-05-3.13013E-05-1.41698E-05-9.64426E-19 1.63901E-19
 -1      3001 1.14991E-04-5.39866E-05-2.59058E-05-2.50679E-05-2.56799E-18-1.80802E-18
 -1      3002 3.35171E-05-1.07138E-05-9.35347E-06 1.29444E-05 9.73082E-19-8.61136E-18
 -1      3003 3.11484E-05-8.93466E-06-9.01735E-06 9.80415E-08 5.09073E-19-8.84895E-18
 -1      3004 9.77952E-05-5.12909E-05-1.97015E-05-3.57171E-05 4.31712E-18 6.31357E-19
 -1      3005 1.12742E-04-5.72214E-05-2.38585E-05-3.11419E-05 3.65929E-18-3.76016E-19
 -1      3006 9.84058E-05-4.90397E-05-2.08074E-05-3.30407E-05 4.52623E-18 9.76205E-20
 -1      3007 1.35562E-04-5.74825E-05-3.39493E-05 8.95149E-06 2.22320E-19-5.29703E-18
 -1      3008 1.29075E-04-5.90512E-05-2.97349E-05 1.67153E-05-8.10187E-19-4.12696E-18
 -1      3009 5.71609E-05-2.66416E-05-1.27372E-05 3.51606E-05 2.20927E-18-6.80157E-18
 -1      3010 4.27048E-05-1.68317E-05-1.05571E-05 2.44538E-05 2.10763E-18-7.82510E-18
 -1      3011 1.38248E-04-5.53985E-05-3.61326E-05 5.82398E-06-1.31174E-18 3.16790E-19
 -1      3012 1.32673E-04-5.81738E-05-3.17613E-05 1.47717E-05-2.39393E-19-7.00390E-19
 -1      3013 1.39393E-04-3.66395E-05-4.48692E-05-1.05171E-05-4.35216E-18 8.57938E-19
 -1      3014 1.41101E-04-4.66356E-05-4.04540E-05-5.09981E-06-2.83724E-18 7.86258E-19
 -1      3015 1.31936E-04-1.00599E-05-5.29021E-05 8.52912E-07-8.14210E-18-1.80098E-18
 -1      3016 1.32644E-04-1.10890E-05-5.26582E-05-4.26021E-06-7.95089E-18-7.99705E-19
 -1      3017 1.25986E-04-1.49004E-05-4.81300E-05-7.65563E-06-6.68669E-18-1.38066E-19
 -1      3018 1.28843E-04-1.19923E-05-5.05911E-05 3.92092E-06-7.45093E-18-2.47183E-18
 -1      3019 1.39327E-04-3.91068E-05-4.30309E-05 1.08327E-05-3.18844E-18-5.43266E-18
 -1      3020 1.38525E-04-2.94781E-05-4.74675E-05 1.21398E-05-4.72369E-18-4.57101E-18
 -1      3021 1.37568E-04-5.65039E-05-3.48103E-05-5.12143E-06-9.74088E-21-4.11870E-18
 -1      3022 1.39521E-04-5.15910E-05-3.83554E-05 1.66565E-06-1.50813E-18-5.04514E-18
 -1      3023 1.32947E-04-5.74754E-05-3.21378E-05-7.34952E-06 1.26997E-18-3.95040E-18
 -1      3024 1.40493E-04-4.20013E-05-4.28422E-05-7.43724E-06 2.77721E-18-5.45267E-18
 -1      3025 1.39435E-04-5.13532E-05-3.78196E-05-6.22575E-07 1.09222E-18-5.62102E-18
 -1      3026 1.35106E-04-3.81062E-05-4.17058E-05-1.19052E-05 2.27582E-18-5.01348E-18
 -1      3027 8.51368E-05-1.38918E-05-3.05810E-05 3.37839E-06-1.14184E-18-4.48699E-18
 -1      3028 8.88763E-05-1.61382E-05-3.11713E-05 2.67322E-06-1.58581E-18-4.13652E-18
 -1      3029 8.41244E-05-1.46939E-05-2.97664E-05 5.12728E-06-8.11265E-19-4.31322E-18
 -1      3030 7.02537E-05-5.42154E-06-2.77307E-05-6.88350E-07 3.47846E-19-5.45278E-18
 -1      3031 7.04061E-05-4.31031E-06-2.83524E-05 2.68599E-07 2.81023E-19-5.67461E-18
 -1      3032 7.10872E-05-4.69074E-06-2.84561E-05 1.22811E-06 4.43865E-20-5.73313E-18
 -1      3033 5.67285E-05-2.18125E-05-1.43237E-05-2.85575E-05-2.04580E-18-7.15097E-18
 -1      3034 4.59955E-05-1.48650E-05-1.27869E-05 1.24504E-05-1.68440E-18 3.21004E-18
 -1      3035 3.94938E-05-9.82963E-06-1.20460E-05-6.76060E-06-2.12532E-19-8.29288E-18
 -1      3036 1.32284E-04-3.09665E-05-4.37776E-05-1.28984E-05-4.30335E-18 8.52856E-19
 -1      3037 9.32786E-05-4.68529E-05-1.94521E-05 3.50541E-05-3.30046E-18-3.39343E-19
 -1      3038 4.66183E-05-1.42546E-05-1.33674E-05-1.05527E-05 3.38654E-19 4.40319E-18
 -1      3039 4.18679E-05-1.52391E-05-1.08743E-05-1.63374E-05 1.43337E-18 5.03455E-18
 -1      3040 1.12081E-04-1.76607E-05-4.06778E-05 3.11163E-06-4.49743E-18-2.15149E-18
 -1      3041 1.13263E-04-2.00611E-05-4.02634E-05 8.40462E-06-3.84505E-18-2.87781E-18
 -1      3042 1.18868E-04-2.16682E-05-4.19043E-05 1.17498E-05-4.22415E-18-4.01869E-18
 -1      3043 1.16455E-04-1.57819E-05-4.34819E-05-6.36099E-07-5.28533E-18-1.28469E-18
 -1      3044 9.52374E-05-2.85783E-05-2.85682E-05 1.99033E-08 1.12211E-18-2.35764E-18
 -1      3045 1.35678E-04-5.37522E-05-3.51249E-05 5.49864E-07 2.62949E-19-5.67639E-18
 -1      3046 1.16194E-04-4.18480E-05-3.19291E-05 3.26292E-06 1.50797E-19 9.43092E-19
 -1      3047 6.39930E-05-3.07314E-05-1.38202E-05-3.45769E-05 3.57141E-18 2.46688E-18
 -1      3048 7.57432E-05-3.53302E-05-1.69835E-05-3.34833E-05 4.01975E-18 9.74511E-19
 -1      3049 9.52397E-05-2.85805E-05-2.85682E-05-1.72754E-08-5.48854E-19-1.78782E-18
 -1      3050 9.52389E-05-2.85797E-05-2.85683E-05-1.89177E-08-1.14468E-18-1.74340E-18
 -1      3051 9.52417E-05-2.85825E-05-2.85682E-05-1.71975E-08-1.01610E-18-7.57132E-19
 -1      3052 1.00659E-04-2.45844E-05-3.26284E-05 7.96252E-08 2.91063E-18-1.41122E-18
 -1      3053 1.00227E-04-2.58238E-05-3.19139E-05-1.99794E-06 2.36486E-18-1.59687E-18
 -1      3054 7.09014E-05-3.29824E-05-1.62282E-05 3.35883E-05-3.66305E-18 9.31524E-19
 -1      3055 6.13356E-05-2.80188E-05-1.37450E-05 3.19755E-05-3.54102E-18 2.09958E-18
 -1      3056 6.02009E-05-2.35896E-05-1.53410E-05 2.70031E-05-2.84418E-18 1.70476E-18
 -1      3057 9.52395E-05-2.85799E-05-2.85684E-05 1.92874E-08 6.50596E-19-2.18160E-18
 -1      3058 9.52416E-05-2.85823E-05-2.85683E-05 1.78508E-08 4.82170E-19-1.22120E-18
 -1      3059 9.52429E-05-2.85827E-05-2.85687E-05 1.89264E-08 8.80219E-19 6.99780E-20
 -1      3060 9.52392E-05-2.85796E-05-2.85684E-05 2.06059E-08 1.49692E-18-2.39945E-18
 -1      3061 1.37306E-04-5.07916E-05-3.70949E-05-2.42051E-06-1.35619E-18 9.22631E-19
 -1      3062 7.13537E-05-3.18349E-05-1.64744E-05 3.38708E-05 2.89283E-18-5.65479E-18
 -1      3063 1.28887E-04-1.85291E-05-4.78528E-05-1.15834E-05 6.22633E-18-3.25594E-18
 -1      3064 1.26073E-04-2.31964E-05-4.43983E-05-1.34312E-05 4.65455E-18-3.36484E-18
 -1      3065 1.22358E-04-1.45254E-05-4.67541E-05-9.30998E-06 6.29113E-18-2.24495E-18
 -1      3066 1.33390E-04-3.90291E-05-4.04253E-05 1.22217E-05 2.74857E-18 2.10276E-18
 -1      3067 8.70041E-05-4.07136E-05-1.94087E-05-3.46861E-05-3.05969E-18-4.84656E-18
 -1      3068 1.21439E-04-5.74969E-05-2.73061E-05 2.04871E-05-1.74055E-18-3.28426E-18
 -1      3069 1.32402E-04-2.44389E-05-4.67817E-05 1.33257E-05-5.12667E-18-4.22892E-18
 -1      3070 9.39566E-05-1.90288E-05-3.21106E-05 9.14372E-07-2.13873E-18-3.44257E-18
 -1      3071 1.27286E-04-5.77860E-05-2.96841E-05 1.72054E-05 8.86632E-19-5.36119E-19
 -1      3072 1.19999E-04-5.77350E-05-2.65257E-05-2.24672E-05 3.38347E-18-1.66728E-18
 -1      3073 1.27498E-04-2.18787E-05-4.53232E-05 1.28284E-05 5.54087E-18 1.43223E-18
 -1      3074 9.52450E-05-2.85857E-05-2.85682E-05-1.53374E-08-1.29984E-18-1.49582E-18
 -1      3075 9.52433E-05-2.85840E-05-2.85683E-05-1.63998E-08-1.51106E-18-1.13867E-18
 -1      3076 9.52432E-05-2.85833E-05-2.85686E-05-1.80632E-08-9.19221E-19-1.37123E-18
 -1      3077 9.52466E-05-2.85860E-05-2.85689E-05-1.57464E-08 1.91462E-20-5.20377E-19
 -1      3078 7.27412E-05-5.89644E-06-2.87007E-05 2.66088E-06-3.91242E-20-5.42726E-18
 -1      3079 7.50150E-05-7.20642E-06-2.90365E-05 3.20310E-06-3.68966E-19-5.30431E-18
 -1      3080 7.68821E-05-9.89560E-06-2.86913E-05 4.84070E-06-3.07460E-19-5.02455E-18
 -1      3081 7.18017E-05-6.45672E-06-2.79578E-05 2.68286E-06-6.65260E-21-5.42089E-18
 -1      3082 1.33535E-04-5.53409E-05-3.35609E-05-4.70347E-06-4.92431E-19 1.08796E-18
 -1      3083 1.32041E-04-4.97612E-05-3.53723E-05 4.42943E-06 1.73721E-19 1.73430E-18
 -1      3084 1.28551E-04-5.48730E-05-3.15379E-05-8.12881E-06-1.08751E-18 6.90200E-19
 -1      3085 1.24443E-04-1.19473E-05-4.85786E-05 2.50607E-06 6.77288E-18-5.34742E-19
 -1      3086 1.03737E-04-5.06552E-05-2.24381E-05 3.22797E-05 2.36957E-18-3.03058E-18
 -1      3087 1.36461E-04-4.53511E-05-3.91716E-05 8.62307E-06-1.70023E-18-5.14234E-18
 -1      3088 4.74203E-05-1.94543E-05-1.15053E-05-2.42956E-05 2.18201E-18 4.53099E-18
 -1      3089 4.63657E-05-1.39810E-05-1.32527E-05 1.81028E-05 1.78735E-18-7.74167E-18
 -1      3090 5.40669E-05-2.45962E-05-1.21995E-05-2.96818E-05 3.10025E-18 3.83515E-18
 -1      3091 9.66762E-05-2.43878E-05-3.09524E-05-4.36218E-06 1.86476E-18-2.37526E-18
 -1      3092 9.29023E-05-2.20301E-05-3.03705E-05-5.41883E-06 1.59449E-18-2.95287E-18
 -1      3093 1.32993E-04-4.62348E-05-3.76033E-05-8.54547E-06-1.50290E-18 1.70145E-18
 -1      3094 1.32909E-04-5.27944E-05-3.41986E-05-6.43372E-07-1.32322E-19 1.41481E-18
 -1      3095 4.77460E-05-1.25291E-05-1.47359E-05-3.63604E-06-4.93422E-20 4.45878E-18
 -1      3096 5.23618E-05-1.54575E-05-1.57313E-05-1.38148E-05 6.87275E-19 4.06353E-18
 -1      3097 1.09581E-04-3.96078E-05-2.98443E-05 8.21179E-06 3.68837E-19-1.02650E-18
 -1      3098 1.12810E-04-4.28587E-05-3.00209E-05 7.04956E-06 5.99051E-19-6.58638E-19
 -1      3099 1.17892E-04-4.64811E-05-3.04856E-05 5.18392E-06 6.25623E-19-2.60661E-20
 -1      3100 1.21057E-04-4.83097E-05-3.12055E-05 2.32766E-06 3.85830E-19 3.86436E-19
 -1      3101 1.13392E-04-4.52668E-05-2.93161E-05 1.03371E-05 8.75270E-19-7.56308E-19
 -1      3102 1.26371E-04-4.83094E-05-3.35275E-05-4.70221E-06-2.19924E-19 1.36792E-18
 -1      3103 1.27375E-04-4.54724E-05-3.51377E-05-8.71139E-06-9.46956E-19 1.61332E-18
 -1      3104 1.23904E-04-2.55702E-05-4.27783E-05-1.38385E-05-4.70643E-18 1.27815E-18
 -1      3105 1.21120E-04-1.77150E-05-4.45504E-05-1.03858E-05-5.49269E-18 5.49195E-19
 -1      3106 1.28748E-04-4.70744E-05-3.49960E-05 8.35368E-06-5.39745E-19-4.68581E-18
 -1      3107 1.27287E-04-5.03455E-05-3.29582E-05 3.74651E-06 4.58291E-19-4.76513E-18
 -1      3108 1.22272E-04-4.98018E-05-3.11084E-05-1.11938E-06 9.64473E-19-3.88865E-18
 -1      3109 1.19015E-04-4.84716E-05-3.01041E-05-4.68345E-06 1.56285E-18-3.48500E-18
 -1      3110 1.25376E-04-5.25287E-05-3.13005E-05-3.03561E-06 1.19587E-18-3.45951E-18
 -1      3111 1.13924E-04-4.54677E-05-2.93678E-05-7.27883E-06 1.43714E-18-3.18017E-18
 -1      3112 1.10539E-04-4.26718E-05-2.89538E-05-9.31390E-06 1.18661E-18-3.11863E-18
 -1      3113 1.14874E-04-4.80527E-05-2.87464E-05-1.01603E-05 1.70991E-18-2.20636E-18
 -1      3114 1.06711E-04-3.95430E-05-2.87887E-05-1.01808E-05 1.13554E-18-2.78578E-18
 -1      3115 1.03954E-04-3.68253E-05-2.86871E-05-1.10245E-05 1.14818E-18-2.39053E-18
 -1      3116 1.06076E-04-4.12446E-05-2.79228E-05-1.29648E-05 1.54572E-18-1.54421E-18
 -1      3117 1.01564E-04-3.44180E-05-2.87606E-05-1.08808E-05 7.92390E-19-2.20210E-18
 -1      3118 9.96395E-05-3.23823E-05-2.87823E-05-1.10132E-05 9.16831E-19-1.93975E-18
 -1      3119 9.99977E-05-3.50689E-05-2.79208E-05-1.29794E-05 1.15730E-18-1.88540E-18
 -1      3120 9.83123E-05-3.07883E-05-2.89199E-05-1.04678E-05 9.72703E-19-2.09898E-18
 -1      3121 9.70893E-05-2.94531E-05-2.89686E-05-1.02095E-05 7.36721E-19-1.69745E-18
 -1      3122 9.64326E-05-3.07555E-05-2.82010E-05-1.19041E-05 8.72468E-19-1.82134E-18
 -1      3123 9.64489E-05-2.85189E-05-2.90961E-05-9.53150E-06 5.06542E-19-1.10189E-18
 -1      3124 9.57160E-05-2.77345E-05-2.91299E-05-9.07615E-06 2.09555E-19-9.67669E-19
 -1      3125 9.45678E-05-2.80875E-05-2.85187E-05-1.04843E-05 7.73143E-19-1.52429E-18
 -1      3126 9.54811E-05-2.72660E-05-2.92214E-05-8.38347E-06 1.70980E-19-9.85889E-19
 -1      3127 9.50582E-05-2.68630E-05-2.92285E-05-7.84414E-06 4.17443E-19-1.04218E-18
 -1      3128 9.37538E-05-2.66318E-05-2.87780E-05-9.02406E-06 4.76680E-19-1.51945E-18
 -1      3129 9.50419E-05-2.66938E-05-2.92810E-05-7.18631E-06 2.24887E-19-7.77868E-19
 -1      3130 9.48020E-05-2.65332E-05-2.92635E-05-6.63026E-06-5.46231E-20-9.59015E-19
 -1      3131 9.35348E-05-2.59846E-05-2.89532E-05-7.63997E-06 3.17079E-19-1.27817E-18
 -1      3132 9.48900E-05-2.65409E-05-2.92832E-05-6.02873E-06-1.70545E-20-1.01443E-18
 -1      3133 9.47530E-05-2.65234E-05-2.92479E-05-5.49606E-06 1.80737E-19-1.14306E-18
 -1      3134 9.36209E-05-2.58363E-05-2.90498E-05-6.37305E-06 5.17633E-20-8.76579E-19
 -1      3135 9.48799E-05-2.66255E-05-2.92439E-05-4.96030E-06-1.71397E-19-1.47758E-18
 -1      3136 9.47989E-05-2.66850E-05-2.91984E-05-4.47400E-06-2.77770E-19-1.14999E-18
 -1      3137 9.38405E-05-2.59719E-05-2.90843E-05-5.23834E-06-3.39355E-19-5.16593E-19
 -1      3138 9.49300E-05-2.68292E-05-2.91790E-05-4.00732E-06-1.24381E-19-9.98545E-19
 -1      3139 9.48790E-05-2.69247E-05-2.91295E-05-3.57897E-06-9.14359E-20-8.20418E-19
 -1      3140 9.40987E-05-2.62504E-05-2.90753E-05-4.24093E-06-6.76461E-20-7.57789E-19
 -1      3141 9.49979E-05-2.70799E-05-2.91015E-05-3.18079E-06 3.12842E-19-8.30643E-19
 -1      3142 9.49632E-05-2.71868E-05-2.90525E-05-2.81421E-06 4.22624E-19-1.13236E-18
 -1      3143 9.43471E-05-2.65847E-05-2.90387E-05-3.38030E-06-7.15099E-20-1.07536E-18
 -1      3144 9.50635E-05-2.73355E-05-2.90209E-05-2.48111E-06-9.77195E-20-1.04170E-18
 -1      3145 9.50380E-05-2.74399E-05-2.89753E-05-2.17498E-06-1.38982E-19-1.77475E-18
 -1      3146 9.45643E-05-2.69234E-05-2.89872E-05-2.65150E-06-1.76921E-19-8.24600E-19
 -1      3147 9.51188E-05-2.75734E-05-2.89434E-05-1.90150E-06-4.47875E-20-2.13413E-18
 -1      3148 9.50991E-05-2.76683E-05-2.89027E-05-1.65130E-06-5.55402E-19-2.15894E-18
 -1      3149 9.47436E-05-2.72384E-05-2.89295E-05-2.04566E-06-4.12416E-19-1.66729E-18
 -1      3150 9.51618E-05-2.77830E-05-2.88728E-05-1.43078E-06-1.52472E-19-1.99015E-18
 -1      3151 9.51461E-05-2.78654E-05-2.88376E-05-1.23027E-06 3.01198E-19-1.61503E-18
 -1      3152 9.48858E-05-2.75164E-05-2.88717E-05-1.55102E-06 7.76703E-20-1.79808E-18
 -1      3153 9.51935E-05-2.79609E-05-2.88108E-05-1.05553E-06 4.48358E-19-4.63723E-19
 -1      3154 9.51809E-05-2.80301E-05-2.87813E-05-8.97800E-07 5.13092E-19-2.76723E-19
 -1      3155 9.49952E-05-2.77528E-05-2.88176E-05-1.15421E-06 1.06645E-18-1.68104E-18
 -1      3156 9.52158E-05-2.81078E-05-2.87580E-05-7.61723E-07-2.80438E-19-1.05935E-19
 -1      3157 9.52056E-05-2.81644E-05-2.87338E-05-6.39874E-07-5.90942E-19-8.96255E-20
 -1      3158 9.50770E-05-2.79483E-05-2.87692E-05-8.41331E-07 2.04955E-19-3.21379E-19
 -1      3159 9.52307E-05-2.82261E-05-2.87142E-05-5.35755E-07-4.62522E-19 3.27500E-19
 -1      3160 9.52226E-05-2.82714E-05-2.86948E-05-4.43333E-07-3.39428E-19 9.03258E-19
 -1      3161 9.51368E-05-2.81063E-05-2.87272E-05-5.98875E-07-2.42601E-19 2.32177E-19
 -1      3162 9.52400E-05-2.83195E-05-2.86786E-05-3.65115E-07-8.99488E-19 7.13778E-19
 -1      3163 9.52338E-05-2.83551E-05-2.86633E-05-2.96343E-07-3.72484E-19 6.25500E-19
 -1      3164 9.51792E-05-2.82313E-05-2.86920E-05-4.14294E-07-9.11087E-19 3.90908E-19
 -1      3165 9.52455E-05-2.83920E-05-2.86503E-05-2.38729E-07-7.09544E-19-5.51046E-20
 -1      3166 9.52407E-05-2.84194E-05-2.86384E-05-1.88609E-07-8.78254E-19 7.56645E-20
 -1      3167 9.52085E-05-2.83284E-05-2.86630E-05-2.76369E-07-1.06490E-18-1.38086E-18
 -1      3168 9.52482E-05-2.84470E-05-2.86281E-05-1.47091E-07-1.42720E-18 1.85834E-19
 -1      3169 9.52446E-05-2.84678E-05-2.86192E-05-1.11414E-07-1.51357E-18-1.07242E-18
 -1      3170 9.52279E-05-2.84024E-05-2.86396E-05-1.75371E-07-1.23439E-18-1.15064E-18
 -1      3171 9.52491E-05-2.84881E-05-2.86111E-05-8.22440E-08-1.15145E-18-1.37261E-18
 -1      3172 9.52464E-05-2.85035E-05-2.86045E-05-5.75436E-08-7.60683E-19-2.04314E-18
 -1      3173 9.52402E-05-2.84577E-05-2.86212E-05-1.03074E-07-1.26889E-18-1.30347E-18
 -1      3174 9.52488E-05-2.85181E-05-2.85984E-05-3.76720E-08 7.04656E-20-1.04231E-18
 -1      3175 9.52469E-05-2.85293E-05-2.85935E-05-2.11560E-08 5.88957E-20-7.56736E-19
 -1      3176 9.52473E-05-2.84983E-05-2.86068E-05-5.26833E-08-4.31274E-19-5.94268E-19
 -1      3177 9.52479E-05-2.85395E-05-2.85889E-05-8.14770E-09 6.14378E-19-1.22906E-18
 -1      3178 9.52465E-05-2.85474E-05-2.85855E-05 2.39132E-09 1.07776E-18-7.61788E-19
 -1      3179 9.52508E-05-2.85273E-05-2.85959E-05-1.86983E-08 3.87181E-19-9.55103E-19
 -1      3180 9.52466E-05-2.85544E-05-2.85821E-05 1.04430E-08 4.62377E-19-8.21690E-19
 -1      3181 9.52457E-05-2.85598E-05-2.85797E-05 1.67161E-08 3.14626E-19-4.21640E-19
 -1      3182 9.52520E-05-2.85475E-05-2.85878E-05 3.24720E-09 7.71141E-19-1.57242E-18
 -1      3183 9.52451E-05-2.85643E-05-2.85773E-05 2.12750E-08-2.77495E-19-2.09319E-19
 -1      3184 9.52446E-05-2.85680E-05-2.85757E-05 2.45812E-08-5.40444E-19-6.60598E-19
 -1      3185 9.52517E-05-2.85611E-05-2.85818E-05 1.65523E-08-1.79130E-19-1.45001E-18
 -1      3186 9.52437E-05-2.85707E-05-2.85740E-05 2.67473E-08-9.36960E-19-1.16091E-18
 -1      3187 9.52434E-05-2.85731E-05-2.85730E-05 2.80500E-08-6.55182E-19-2.41203E-18
 -1      3188 9.52504E-05-2.85698E-05-2.85775E-05 2.38101E-08-9.07442E-19-1.72675E-18
 -1      3189 9.52424E-05-2.85747E-05-2.85718E-05 2.86295E-08-7.90625E-19-2.62771E-18
 -1      3190 9.52423E-05-2.85761E-05-2.85712E-05 2.86227E-08-3.62898E-19-1.80888E-18
 -1      3191 9.52487E-05-2.85752E-05-2.85744E-05 2.69547E-08-7.30845E-19-2.36565E-18
 -1      3192 9.52413E-05-2.85770E-05-2.85704E-05 2.81874E-08 5.76471E-19-9.80323E-19
 -1      3193 9.52413E-05-2.85779E-05-2.85700E-05 2.73505E-08 2.61639E-19-2.48150E-18
 -1      3194 9.52468E-05-2.85783E-05-2.85723E-05 2.73904E-08 4.75507E-19-1.35347E-18
 -1      3195 9.52404E-05-2.85783E-05-2.85695E-05 2.62902E-08-4.07018E-19-1.37421E-18
 -1      3196 9.52405E-05-2.85789E-05-2.85693E-05 2.49285E-08 3.77548E-19-1.93123E-18
 -1      3197 9.52450E-05-2.85800E-05-2.85708E-05 2.60992E-08 5.10339E-19-1.18490E-18
 -1      3198 9.52396E-05-2.85789E-05-2.85689E-05 2.37390E-08 7.20225E-19-2.31389E-18
 -1      3199 9.52398E-05-2.85794E-05-2.85687E-05 2.20225E-08 1.51471E-18-1.85006E-18
 -1      3200 9.52419E-05-2.85811E-05-2.85689E-05 2.14366E-08 7.34356E-19-5.71007E-19
 -1      3201 9.52433E-05-2.85807E-05-2.85697E-05 2.39764E-08 2.54915E-19 5.97341E-19
 -1      3202 4.25417E-05-8.03996E-06-1.46174E-05-5.32540E-07 2.47913E-19-7.47951E-18
 -1      3203 4.52342E-05-1.03390E-05-1.46781E-05-1.35703E-05-6.52559E-19-7.49497E-18
 -1      3204 7.60121E-05-3.27179E-05-1.84075E-05-3.02404E-05 3.45298E-18 8.83985E-19
 -1      3205 8.61749E-05-4.00495E-05-1.95459E-05-3.25358E-05 3.72763E-18 2.39075E-19
 -1      3206 1.19262E-04-2.40341E-05-4.12215E-05 1.15194E-05 4.51543E-18 1.28513E-18
 -1      3207 1.22209E-04-3.04372E-05-3.98909E-05 1.43094E-05 3.51098E-18 1.78566E-18
 -1      3208 1.21117E-04-3.45091E-05-3.74009E-05-1.50812E-05 1.49029E-18-2.72136E-18
 -1      3209 1.18471E-04-2.79706E-05-3.88611E-05-1.42030E-05 2.62300E-18-2.64816E-18
 -1      3210 1.22446E-04-4.35494E-05-3.39111E-05-1.01374E-05 5.02846E-19-3.10324E-18
 -1      3211 1.21719E-04-3.96907E-05-3.52403E-05-1.24045E-05 9.38274E-19-2.81687E-18
 -1      3212 1.25460E-04-3.93053E-05-3.71915E-05-1.33087E-05 1.23190E-18-3.25517E-18
 -1      3213 1.19310E-04-4.56650E-05-3.14510E-05-2.60997E-06-4.24883E-19-3.04713E-18
 -1      3214 1.20464E-04-4.51600E-05-3.23325E-05-5.76461E-06 1.48117E-19-2.85825E-18
 -1      3215 1.23862E-04-4.68971E-05-3.30006E-05-5.93333E-06 2.91618E-19-3.46159E-18
 -1      3216 1.13233E-04-4.26390E-05-3.01687E-05 3.60439E-06-6.29302E-19-2.86233E-18
 -1      3217 1.15537E-04-4.42846E-05-3.06105E-05 1.12978E-06-3.79378E-19-2.80759E-18
 -1      3218 1.18166E-04-4.72057E-05-3.05729E-05 2.06714E-06-4.24995E-19-2.94548E-18
 -1      3219 1.07670E-04-3.82888E-05-2.96562E-05 6.99035E-06-6.24928E-19-2.82246E-18
 -1      3220 1.09924E-04-4.03677E-05-2.98380E-05 5.45548E-06-5.59856E-19-2.75732E-18
 -1      3221 1.10601E-04-4.23735E-05-2.93561E-05 6.93596E-06-6.03488E-19-2.87056E-18
 -1      3222 1.03285E-04-3.42904E-05-2.95182E-05 8.53206E-06-1.17497E-18-2.16242E-18
 -1      3223 1.05107E-04-3.61381E-05-2.95763E-05 7.81129E-06-6.43914E-19-2.71531E-18
 -1      3224 1.04858E-04-3.74405E-05-2.89745E-05 9.32316E-06-7.56958E-19-2.78618E-18
 -1      3225 1.00251E-04-3.12982E-05-2.95222E-05 8.79078E-06-1.05655E-18-1.20921E-18
 -1      3226 1.01584E-04-3.26612E-05-2.95414E-05 8.62537E-06-1.27611E-18-1.44629E-18
 -1      3227 1.00647E-04-3.32027E-05-2.89606E-05 9.89616E-06-1.61852E-18-1.72504E-18
 -1      3228 9.83064E-05-2.93296E-05-2.95472E-05 8.32867E-06-7.07280E-19-7.18537E-19
 -1      3229 9.92268E-05-3.02256E-05-2.95676E-05 8.50539E-06-6.98433E-19-6.82145E-19
 -1      3230 9.79862E-05-3.02350E-05-2.90697E-05 9.49468E-06-1.18641E-18-1.08816E-18
 -1      3231 9.71153E-05-2.81679E-05-2.95439E-05 7.49602E-06 7.59707E-20-5.87830E-19
 -1      3232 9.77379E-05-2.87018E-05-2.95796E-05 7.86278E-06-2.63389E-19-6.33276E-19
 -1      3233 9.64366E-05-2.83858E-05-2.91826E-05 8.62724E-06-3.00756E-19-5.72097E-19
 -1      3234 9.64054E-05-2.75698E-05-2.95014E-05 6.50662E-06 2.32164E-19-7.31709E-19
 -1      3235 9.68287E-05-2.78526E-05-2.95529E-05 6.96092E-06 3.82980E-19-6.64266E-19
 -1      3236 9.56044E-05-2.73670E-05-2.92534E-05 7.56504E-06 2.36086E-19-6.21644E-19
 -1      3237 9.59865E-05-2.73330E-05-2.94261E-05 5.49052E-06-3.36067E-19-9.76913E-20
 -1      3238 9.62809E-05-2.74548E-05-2.94884E-05 5.96609E-06-3.50430E-19-5.42915E-19
 -1      3239 9.52023E-05-2.69067E-05-2.92733E-05 6.45795E-06 1.24072E-20-4.60743E-19
 -1      3240 9.57372E-05-2.73102E-05-2.93302E-05 4.52445E-06-6.23429E-19 1.20256E-19
 -1      3241 9.59482E-05-2.73359E-05-2.93971E-05 4.98068E-06 1.81086E-19 1.74035E-19
 -1      3242 9.50404E-05-2.67928E-05-2.92502E-05 5.39062E-06-7.92996E-19-3.02419E-19
 -1      3243 9.55846E-05-2.74029E-05-2.92252E-05 3.65054E-06-1.04259E-19-3.73449E-19
 -1      3244 9.57406E-05-2.73757E-05-2.92915E-05 4.06464E-06-8.36457E-19-3.54279E-19
 -1      3245 9.50028E-05-2.68762E-05-2.91972E-05 4.41030E-06-2.67701E-19-7.80686E-20
 -1      3246 9.54871E-05-2.75492E-05-2.91205E-05 2.88826E-06 5.22946E-19-1.17631E-18
 -1      3247 9.56050E-05-2.74962E-05-2.91825E-05 3.24950E-06 1.99092E-19-6.63640E-19
 -1      3248 9.50225E-05-2.70589E-05-2.91270E-05 3.54114E-06 2.22245E-19-1.09918E-18
 -1      3249 9.54213E-05-2.77119E-05-2.90221E-05 2.24235E-06 5.36959E-19 3.09257E-19
 -1      3250 9.55118E-05-2.76495E-05-2.90776E-05 2.54788E-06 5.28603E-19-5.11170E-19
 -1      3251 9.50636E-05-2.72804E-05-2.90497E-05 2.79217E-06 1.55056E-19-1.18131E-18
 -1      3252 9.53747E-05-2.78701E-05-2.89337E-05 1.70828E-06 4.89681E-19-6.69782E-19
 -1      3253 9.54444E-05-2.78076E-05-2.89818E-05 1.96017E-06 9.14814E-19 3.81924E-19
 -1      3254 9.51080E-05-2.75050E-05-2.89726E-05 2.16237E-06 4.68902E-19 8.33212E-20
 -1      3255 9.53403E-05-2.80132E-05-2.88571E-05 1.27611E-06-5.31046E-19-3.06883E-19
 -1      3256 9.53939E-05-2.79557E-05-2.88976E-05 1.47920E-06 1.83338E-19-1.52077E-19
 -1      3257 9.51475E-05-2.77135E-05-2.89003E-05 1.64418E-06 3.46622E-19 8.85939E-19
 -1      3258 9.53141E-05-2.81367E-05-2.87924E-05 9.33270E-07-1.48714E-19 3.24977E-19
 -1      3259 9.53550E-05-2.80864E-05-2.88257E-05 1.09373E-06-4.62804E-19-2.58363E-19
 -1      3260 9.51795E-05-2.78968E-05-2.88356E-05 1.22624E-06-5.06878E-19 1.46104E-18
 -1      3261 9.52940E-05-2.82398E-05-2.87391E-05 6.66394E-07-4.33834E-19 5.07005E-20
 -1      3262 9.53248E-05-2.81973E-05-2.87659E-05 7.90742E-07 2.62380E-19-8.58247E-20
 -1      3263 9.52036E-05-2.80519E-05-2.87795E-05 8.95464E-07-2.48059E-19 8.94988E-19
 -1      3264 9.52785E-05-2.83236E-05-2.86962E-05 4.62510E-07-8.88416E-20-5.24714E-19
 -1      3265 9.53014E-05-2.82887E-05-2.87173E-05 5.57048E-07-3.05634E-19-2.91916E-19
 -1      3266 9.52209E-05-2.81794E-05-2.87323E-05 6.38422E-07 2.02311E-19 1.64715E-19
 -1      3267 9.52667E-05-2.83901E-05-2.86623E-05 3.09722E-07-1.07611E-18-1.00499E-18
 -1      3268 9.52833E-05-2.83621E-05-2.86786E-05 3.80192E-07-7.28771E-19-7.83524E-19
 -1      3269 9.52326E-05-2.82818E-05-2.86935E-05 4.42324E-07-2.50118E-19-9.58571E-19
 -1      3270 9.52577E-05-2.84419E-05-2.86360E-05 1.97555E-07 4.42855E-19-1.35296E-18
 -1      3271 9.52695E-05-2.84199E-05-2.86484E-05 2.48981E-07-1.80157E-19-6.68672E-19
 -1      3272 9.52401E-05-2.83622E-05-2.86622E-05 2.95551E-07-7.45979E-19-6.78087E-19
 -1      3273 9.52510E-05-2.84814E-05-2.86160E-05 1.17072E-07 1.34979E-19-6.32524E-20
 -1      3274 9.52592E-05-2.84645E-05-2.86252E-05 1.53717E-07 1.21328E-19-8.75341E-19
 -1      3275 9.52445E-05-2.84242E-05-2.86375E-05 1.87927E-07-1.31990E-19 3.74058E-20
 -1      3276 9.52461E-05-2.85110E-05-2.86011E-05 6.08363E-08-2.80289E-20 6.25945E-19
 -1      3277 9.52515E-05-2.84982E-05-2.86078E-05 8.62269E-08 5.84189E-19-1.85578E-19
 -1      3278 9.52467E-05-2.84709E-05-2.86184E-05 1.10797E-07 2.15979E-19 3.44224E-19
 -1      3279 9.52426E-05-2.85326E-05-2.85902E-05 2.28035E-08-5.54373E-19 9.34972E-19
 -1      3280 9.52460E-05-2.85231E-05-2.85950E-05 3.97919E-08-1.17738E-19 7.48321E-19
 -1      3281 9.52474E-05-2.85055E-05-2.86038E-05 5.69784E-08-1.84611E-19 1.29565E-19
 -1      3282 9.52401E-05-2.85481E-05-2.85824E-05-1.84361E-09 1.21023E-19 7.24278E-19
 -1      3283 9.52421E-05-2.85412E-05-2.85857E-05 9.00331E-09 8.22221E-20 1.16511E-18
 -1      3284 9.52471E-05-2.85305E-05-2.85930E-05 2.06405E-08 2.92777E-20 5.19714E-20
 -1      3285 9.52385E-05-2.85588E-05-2.85771E-05-1.68668E-08 4.24120E-19-1.03165E-18
 -1      3286 9.52395E-05-2.85540E-05-2.85792E-05-1.04056E-08 2.87747E-19-3.97970E-19
 -1      3287 9.52463E-05-2.85481E-05-2.85851E-05-2.85522E-09 6.53616E-19 7.17782E-20
 -1      3288 9.52374E-05-2.85661E-05-2.85735E-05-2.51450E-08 2.35714E-19-1.40644E-18
 -1      3289 9.52378E-05-2.85627E-05-2.85748E-05-2.17338E-08 1.04126E-19-1.38777E-18
 -1      3290 9.52452E-05-2.85601E-05-2.85794E-05-1.71269E-08 5.93737E-19-2.21913E-18
 -1      3291 9.52368E-05-2.85708E-05-2.85712E-05-2.88316E-08 7.92672E-19-4.69634E-19
 -1      3292 9.52367E-05-2.85686E-05-2.85720E-05-2.74788E-08 7.94621E-19-9.33102E-19
 -1      3293 9.52439E-05-2.85680E-05-2.85755E-05-2.49395E-08 1.49640E-20-2.34161E-18
 -1      3294 9.52365E-05-2.85737E-05-2.85698E-05-2.94943E-08-5.52162E-19-2.68402E-19
 -1      3295 9.52362E-05-2.85723E-05-2.85702E-05-2.94847E-08 7.08524E-19 4.85792E-19
 -1      3296 9.52427E-05-2.85730E-05-2.85728E-05-2.83577E-08 2.81299E-19-6.04881E-19
 -1      3297 9.52365E-05-2.85755E-05-2.85690E-05-2.82328E-08-6.98177E-19-9.80101E-19
 -1      3298 9.52360E-05-2.85746E-05-2.85691E-05-2.90719E-08-3.92389E-19-9.15475E-19
 -1      3299 9.52416E-05-2.85760E-05-2.85710E-05-2.88818E-08-3.54762E-19-6.93208E-20
 -1      3300 9.52367E-05-2.85767E-05-2.85686E-05-2.57805E-08-1.95142E-18-7.84200E-19
 -1      3301 9.52360E-05-2.85760E-05-2.85686E-05-2.71445E-08-1.88905E-18-1.15951E-18
 -1      3302 9.52407E-05-2.85777E-05-2.85699E-05-2.75605E-08-1.37064E-18 3.75858E-19
 -1      3303 9.52371E-05-2.85776E-05-2.85684E-05-2.25942E-08-1.35478E-18-1.72782E-18
 -1      3304 9.52364E-05-2.85770E-05-2.85683E-05-2.42742E-08-1.34358E-18-1.54985E-18
 -1      3305 9.52400E-05-2.85787E-05-2.85692E-05-2.51009E-08-1.19603E-18-2.68115E-19
 -1      3306 9.52385E-05-2.85790E-05-2.85684E-05-2.00653E-08-1.22362E-18-8.13337E-19
 -1      3307 9.52375E-05-2.85782E-05-2.85683E-05-2.15094E-08-1.38460E-18-1.49839E-18
 -1      3308 9.52404E-05-2.85798E-05-2.85688E-05-2.24370E-08-1.48525E-18-1.58231E-18
 -1      3309 9.52412E-05-2.85811E-05-2.85686E-05-2.00226E-08-1.35582E-18-2.19212E-18
 -1      3310 9.52530E-05-2.85894E-05-2.85701E-05 8.04314E-09-5.92018E-19 3.33537E-19
 -1      3311 9.52537E-05-2.85899E-05-2.85702E-05 5.06930E-09-5.18457E-19-1.49051E-18
 -1      3312 9.52541E-05-2.85901E-05-2.85703E-05 1.61202E-09-1.63683E-18-3.18410E-18
 -1      3313 9.52541E-05-2.85901E-05-2.85703E-05-1.56632E-09-1.16817E-18-2.07740E-18
 -1      3314 9.52558E-05-2.85897E-05-2.85712E-05 3.50742E-09-1.42311E-18-1.54688E-18
 -1      3315 1.02777E-04-2.90509E-05-3.15519E-05-3.23265E-06 1.82888E-18-1.21658E-18
 -1      3316 9.94201E-05-2.64611E-05-3.12700E-05-3.67611E-06 1.87506E-18-1.82231E-18
 -1      3317 9.92449E-05-2.79427E-05-3.05829E-05-5.71113E-06 1.42367E-18-2.02000E-18
 -1      3318 1.04159E-04-3.14066E-05-3.12287E-05-4.12924E-06 1.44090E-18-1.08978E-18
 -1      3319 5.32439E-05-1.68219E-05-1.53258E-05 1.73191E-05-2.21354E-18 1.49724E-18
 -1      3320 4.77706E-05-1.28501E-05-1.46823E-05 6.03604E-06-1.30510E-18 2.84603E-18
 -1      3321 7.29966E-05-8.94420E-06-2.74056E-05-5.73783E-06 6.25765E-19-5.06511E-18
 -1      3322 7.05169E-05-7.46405E-06-2.70929E-05-4.38724E-06 4.40310E-19-5.34246E-18
 -1      3323 1.25229E-04-3.82419E-05-3.74946E-05 1.18962E-05 2.13368E-18 1.84473E-18
 -1      3324 1.26725E-04-4.34983E-05-3.58618E-05 1.02870E-05 9.22657E-19 1.88448E-18
 -1      3325 9.50607E-05-4.53535E-05-2.11386E-05-3.10199E-05 4.17767E-18-1.00718E-19
 -1      3326 1.06278E-04-5.10811E-05-2.35557E-05-2.78129E-05 4.23151E-18-2.60277E-19
 -1      3327 9.53017E-05-4.27369E-05-2.22736E-05-2.77359E-05 3.59610E-18-1.43850E-19
 -1      3328 1.07738E-04-4.92470E-05-2.47109E-05-2.61886E-05-3.07216E-18-2.18794E-18
 -1      3329 1.17754E-04-5.32594E-05-2.78506E-05-1.88399E-05-2.28297E-18-7.64818E-19
 -1      3330 8.18381E-05-3.44122E-05-1.98791E-05-3.16258E-05-3.08394E-18-4.71400E-18
 -1      3331 9.57738E-05-4.34977E-05-2.24881E-05-3.09661E-05-2.95498E-18-3.44361E-18
 -1      3332 1.02084E-04-4.38747E-05-2.47318E-05-2.45929E-05-2.87756E-18-2.49196E-18
 -1      3333 9.97137E-05-4.81295E-05-2.21334E-05 3.03334E-05-3.48146E-18-6.07005E-19
 -1      3334 8.51317E-05-4.06077E-05-1.85970E-05 3.43120E-05-3.86623E-18 2.07629E-19
 -1      3335 8.06285E-05-3.54534E-05-1.90073E-05 3.07393E-05-3.78057E-18 2.67239E-19
 -1      3336 9.33335E-05-2.02113E-05-3.13231E-05 3.05015E-06-1.63537E-18-3.35088E-18
 -1      3337 9.52505E-05-2.85875E-05-2.85699E-05 1.37646E-08 5.88192E-19-4.06519E-19
 -1      3338 9.52519E-05-2.85886E-05-2.85700E-05 1.11868E-08-4.38106E-19 8.98059E-19
 -1      3339 9.52541E-05-2.85887E-05-2.85709E-05 1.02241E-08-1.73913E-19 5.88408E-19
 -1      3340 9.52465E-05-2.85847E-05-2.85694E-05 1.81001E-08 8.60553E-19-8.80764E-19
 -1      3341 9.52486E-05-2.85862E-05-2.85696E-05 1.62854E-08 1.05379E-18-1.52944E-18
 -1      3342 9.52508E-05-2.85866E-05-2.85704E-05 1.60101E-08 9.18085E-20-6.37747E-19
 -1      3343 1.16870E-04-2.22703E-05-4.09674E-05-1.23195E-05 3.80175E-18-2.27424E-18
 -1      3344 1.14635E-04-1.75420E-05-4.17976E-05-7.31643E-06 4.72041E-18-1.81871E-18
 -1      3345 1.15210E-04-1.52571E-05-4.32543E-05 2.62899E-06 5.31016E-18-1.66432E-19
 -1      3346 1.16636E-04-1.82739E-05-4.28010E-05 8.50753E-06 5.15912E-18 3.87018E-19
 -1      3347 1.33671E-04-5.03968E-05-3.62393E-05-5.50995E-06 6.62406E-19-4.83714E-18
 -1      3348 1.31559E-04-5.41863E-05-3.28897E-05 1.54228E-06 2.19296E-19-5.10406E-18
 -1      3349 1.26586E-04-2.99842E-05-4.16240E-05 1.57334E-05-3.50899E-18-5.04371E-18
 -1      3350 1.28801E-04-3.83750E-05-3.92738E-05 1.42225E-05-2.11623E-18-5.01049E-18
 -1      3351 1.03363E-04-3.28632E-05-3.01053E-05 7.89466E-06-3.07559E-19-1.77776E-18
 -1      3352 1.05854E-04-3.60486E-05-2.99388E-05 8.09308E-06 5.57933E-20-1.49739E-18
 -1      3353 1.04639E-04-3.72160E-05-2.90587E-05 1.11766E-05 4.98067E-19-1.64141E-18
 -1      3354 5.32241E-05-1.59830E-05-1.55546E-05-2.23963E-05-1.58488E-18-6.85557E-18
 -1      3355 6.61188E-05-2.50706E-05-1.75838E-05-3.00892E-05-2.25941E-18-5.77105E-18
 -1      3356 1.29428E-04-3.51905E-05-4.05191E-05-1.39007E-05-3.15896E-18 1.54224E-18
 -1      3357 1.24944E-04-5.67670E-05-2.96040E-05 1.26341E-05-8.64979E-19-4.26838E-18
 -1      3358 1.14523E-04-5.39261E-05-2.57876E-05 2.22173E-05-2.32407E-18-2.28254E-18
 -1      3359 1.18393E-04-4.46508E-05-3.16302E-05 1.46464E-06-4.46393E-19 7.02955E-19
 -1      3360 1.16289E-04-4.33128E-05-3.11812E-05-1.08832E-06-4.55363E-19 3.53922E-19
 -1      3361 5.96478E-05-2.30392E-05-1.52881E-05-2.52427E-05 2.73769E-18 2.80982E-18
 -1      3362 5.48507E-05-1.61093E-05-1.64582E-05 2.18182E-05 2.16422E-18-6.57181E-18
 -1      3363 4.64439E-05-9.86315E-06-1.52785E-05 1.11888E-05 1.31309E-18-7.30545E-18
 -1      3364 8.29200E-05-3.72295E-05-1.94327E-05 3.40871E-05 2.82697E-18-4.32971E-18
 -1      3365 6.78239E-05-2.62887E-05-1.74518E-05 3.00815E-05 2.65799E-18-5.52583E-18
 -1      3366 1.29470E-04-5.59856E-05-3.16474E-05-6.17531E-06 1.36145E-18-3.90077E-18
 -1      3367 1.32993E-04-5.41846E-05-3.41627E-05 6.87475E-07 2.74200E-19-4.21769E-18
 -1      3368 1.28419E-04-5.66406E-05-3.11450E-05 1.09643E-05 8.83588E-19 3.58507E-19
 -1      3369 1.21605E-04-5.58157E-05-2.78883E-05 1.92392E-05 1.74613E-18-5.90858E-19
 -1      3370 1.27662E-04-3.12344E-05-4.19804E-05-1.51356E-05 2.68573E-18-3.97449E-18
 -1      3371 1.31068E-04-3.90955E-05-3.94771E-05-1.26252E-05 1.44731E-18-4.55063E-18
 -1      3372 1.25366E-04-2.17566E-05-4.49446E-05 1.30953E-05-5.15494E-18-4.51056E-18
 -1      3373 1.10872E-04-5.25617E-05-2.51357E-05 2.70689E-05 2.19683E-18-1.83432E-18
 -1      3374 9.68791E-05-4.50991E-05-2.18060E-05 3.16737E-05 2.86731E-18-3.14323E-18
 -1      3375 1.14680E-04-5.19836E-05-2.68468E-05 2.06464E-05 2.08307E-18-1.05696E-18
 -1      3376 1.21175E-04-1.37963E-05-4.65813E-05-4.68504E-06-6.33951E-18-7.47189E-19
 -1      3377 6.13085E-05-2.07331E-05-1.70746E-05-2.16340E-05 1.91028E-18 2.17433E-18
 -1      3378 6.80726E-05-2.60574E-05-1.77549E-05-2.68426E-05 2.69656E-18 1.56569E-18
 -1      3379 1.22958E-04-1.48746E-05-4.67755E-05 8.89504E-06-6.08106E-18-3.48491E-18
 -1      3380 6.89593E-05-6.22414E-06-2.68820E-05-1.74370E-06 4.36291E-19-5.29843E-18
 -1      3381 6.86524E-05-6.05245E-06-2.68498E-05 9.00875E-08 1.97773E-19-5.36548E-18
 -1      3382 6.89745E-05-7.75689E-06-2.61471E-05-3.85518E-06 3.32212E-19-5.28160E-18
 -1      3383 9.48224E-05-2.27236E-05-3.08992E-05 4.58295E-06-1.27875E-18-3.07601E-18
 -1      3384 1.28179E-04-5.29429E-05-3.23082E-05 3.33598E-06 5.54608E-19 8.92270E-19
 -1      3385 5.39139E-05-1.36957E-05-1.68694E-05 1.86211E-06-8.00597E-19 2.88409E-18
 -1      3386 1.20372E-04-1.23849E-05-4.67923E-05 2.26779E-06-6.29578E-18-1.89514E-18
 -1      3387 6.10542E-05-1.83212E-05-1.80481E-05-1.58647E-05 1.18407E-18 2.10398E-18
 -1      3388 1.25235E-04-5.03041E-05-3.21718E-05 1.27028E-06 4.38090E-19 9.07013E-19
 -1      3389 1.30773E-04-4.31071E-05-3.78857E-05-1.13898E-05-1.60494E-18 1.52328E-18
 -1      3390 5.56788E-05-1.33169E-05-1.76733E-05-1.60796E-05-1.02422E-18-6.59225E-18
 -1      3391 7.77180E-05-3.04415E-05-2.00120E-05-2.60321E-05 2.51190E-18 8.45101E-19
 -1      3392 1.08336E-04-3.64461E-05-3.08608E-05-4.32246E-06 5.40816E-19-6.62078E-19
 -1      3393 1.06460E-04-3.40073E-05-3.09957E-05-4.50719E-06 9.24670E-19-8.21316E-19
 -1      3394 1.04158E-04-3.26518E-05-3.06672E-05-5.47124E-06 9.60041E-19-1.26884E-18
 -1      3395 9.22771E-05-2.33611E-05-2.95463E-05-7.75022E-06 1.13292E-18-2.88654E-18
 -1      3396 8.88692E-05-1.95057E-05-2.96952E-05-6.66374E-06 1.40914E-18-3.42947E-18
 -1      3397 8.46861E-05-1.69312E-05-2.90911E-05-7.31730E-06 1.06308E-18-3.77756E-18
 -1      3398 1.22779E-04-2.55084E-05-4.19516E-05-1.46126E-05 3.51164E-18-3.21661E-18
 -1      3399 6.46086E-05-2.32964E-05-1.76911E-05 2.37398E-05-2.82482E-18 6.72438E-19
 -1      3400 5.83884E-05-1.94322E-05-1.62732E-05 2.05776E-05-2.43578E-18 9.80547E-19
 -1      3401 5.90001E-05-1.70377E-05-1.77934E-05 1.49821E-05-2.39702E-18 1.16480E-18
 -1      3402 9.52519E-05-2.85886E-05-2.85700E-05-1.11763E-08-3.90984E-19 1.66741E-19
 -1      3403 9.52505E-05-2.85875E-05-2.85698E-05-1.37472E-08-2.41545E-19-8.29889E-20
 -1      3404 7.48856E-05-1.03734E-05-2.77257E-05 6.24884E-06 2.07275E-20-5.04804E-18
 -1      3405 7.85170E-05-1.25371E-05-2.82231E-05 6.88626E-06-1.88680E-19-4.77830E-18
 -1      3406 9.52538E-05-2.85899E-05-2.85702E-05-5.00934E-09-4.21478E-19-4.07704E-19
 -1      3407 9.52530E-05-2.85893E-05-2.85701E-05-8.03546E-09-1.96973E-19 5.99030E-19
 -1      3408 9.52541E-05-2.85887E-05-2.85709E-05-1.01938E-08 7.69345E-20 1.75874E-19
 -1      3409 9.52558E-05-2.85897E-05-2.85712E-05-3.50465E-09-1.43350E-18-2.13653E-18
 -1      3410 7.65816E-05-1.16211E-05-2.79131E-05-7.08521E-06 6.78405E-19-4.61141E-18
 -1      3411 7.47687E-05-1.19039E-05-2.69156E-05-8.09852E-06 4.84008E-19-4.70382E-18
 -1      3412 8.03845E-05-1.38630E-05-2.84292E-05-7.34031E-06 9.24459E-19-4.25293E-18
 -1      3413 5.09090E-05-9.28175E-06-1.74066E-05 4.52256E-06 6.36532E-19-6.87161E-18
 -1      3414 1.13120E-04-4.10937E-05-3.09120E-05-2.51829E-06-1.93448E-19-7.41385E-20
 -1      3415 1.10838E-04-3.88330E-05-3.07903E-05-3.92214E-06 3.18018E-20-4.85203E-19
 -1      3416 1.08860E-04-3.81779E-05-3.03544E-05-5.75754E-06 9.05192E-20-9.68476E-19
 -1      3417 1.14359E-04-4.32926E-05-3.05266E-05-4.31536E-06-6.72916E-19-4.52898E-19
 -1      3418 1.16119E-04-1.46928E-05-4.40823E-05-4.41912E-06 5.53308E-18-1.12597E-18
 -1      3419 9.23082E-05-3.99944E-05-2.21903E-05 2.91319E-05 2.74799E-18-3.46087E-18
 -1      3420 7.72811E-05-2.84776E-05-2.05820E-05-2.72411E-05-2.41669E-18-4.74540E-18
 -1      3421 1.00965E-04-3.00431E-05-3.03885E-05 6.99120E-06-7.47067E-19-2.24921E-18
 -1      3422 9.90140E-05-3.03184E-05-2.95319E-05 9.47870E-06-2.27155E-19-2.22921E-18
 -1      3423 9.91448E-05-2.74433E-05-3.06661E-05 6.13751E-06-9.87652E-19-2.44393E-18
 -1      3424 1.08984E-04-5.11795E-05-2.46161E-05 2.48000E-05-2.83740E-18-1.18862E-18
 -1      3425 1.00596E-04-4.48281E-05-2.36240E-05 2.54392E-05-3.08638E-18-6.61003E-19
 -1      3426 1.13627E-04-5.13462E-05-2.69485E-05 1.74997E-05-1.89538E-18-2.54062E-18
 -1      3427 1.26132E-04-5.35268E-05-3.09875E-05 4.95980E-06-4.00316E-19-3.97023E-18
 -1      3428 1.30927E-04-4.76396E-05-3.57504E-05 8.13633E-06-8.02167E-19-4.98426E-18
 -1      3429 1.24337E-04-5.54208E-05-2.94640E-05-1.07169E-05 2.33143E-18-2.75697E-18
 -1      3430 9.52489E-05-2.85864E-05-2.85696E-05-1.58508E-08 4.69738E-20 3.56552E-19
 -1      3431 9.52472E-05-2.85852E-05-2.85694E-05-1.73801E-08 1.29614E-19-7.81906E-19
 -1      3432 9.52511E-05-2.85868E-05-2.85704E-05-1.55399E-08-8.06233E-20 7.54787E-20
 -1      3433 1.23673E-04-4.70119E-05-3.28598E-05 3.82032E-06-2.38347E-19 1.19553E-18
 -1      3434 1.23014E-04-4.90252E-05-3.17599E-05-1.51264E-06-8.30777E-19 4.13604E-19
 -1      3435 1.24611E-04-4.53184E-05-3.40795E-05 6.91191E-06 3.11549E-19 1.49063E-18
 -1      3436 8.11573E-05-1.60582E-05-2.79070E-05 8.97923E-06-1.44816E-19-4.28928E-18
 -1      3437 8.28735E-05-1.55955E-05-2.88871E-05 7.24647E-06-3.49438E-19-4.17731E-18
 -1      3438 8.71823E-05-1.82113E-05-2.94985E-05 6.84868E-06-7.03393E-19-3.91444E-18
 -1      3439 1.19116E-04-5.47068E-05-2.76634E-05-1.68891E-05 2.97631E-18-1.50604E-18
 -1      3440 1.16311E-04-5.11999E-05-2.79305E-05-1.37038E-05 2.14285E-18-1.38408E-18
 -1      3441 1.11155E-04-4.71260E-05-2.72552E-05-1.54056E-05 2.09943E-18-9.96561E-19
 -1      3442 1.11148E-04-5.23365E-05-2.49603E-05-2.36650E-05 3.89021E-18-7.51924E-19
 -1      3443 6.41532E-05-2.05079E-05-1.83095E-05 2.46329E-05 2.27031E-18-5.92944E-18
 -1      3444 6.33265E-05-1.62170E-05-1.99050E-05 1.88028E-05 1.57408E-18-5.92984E-18
 -1      3445 7.39813E-05-2.56192E-05-2.07426E-05 2.56933E-05 2.41534E-18-4.67255E-18
 -1      3446 9.52436E-05-2.85822E-05-2.85691E-05 2.04891E-08 4.37128E-19-1.86297E-19
 -1      3447 9.52452E-05-2.85837E-05-2.85692E-05 1.93611E-08 3.14522E-19 7.21114E-19
 -1      3448 9.52473E-05-2.85842E-05-2.85699E-05 1.97133E-08 6.88888E-19-4.70087E-19
 -1      3449 9.52442E-05-2.85820E-05-2.85695E-05 2.18429E-08 2.82175E-19 4.96265E-19
 -1      3450 1.21572E-04-5.22389E-05-2.95460E-05 1.11550E-05 1.59561E-18 1.27584E-20
 -1      3451 1.12938E-04-4.69828E-05-2.83254E-05 1.39972E-05 1.42655E-18-8.72487E-19
 -1      3452 1.14436E-04-4.94119E-05-2.79140E-05 1.64172E-05 1.79104E-18-6.28088E-19
 -1      3453 1.06197E-04-4.53919E-05-2.56926E-05 2.23666E-05 2.37636E-18-1.88109E-18
 -1      3454 1.03861E-04-4.14897E-05-2.67051E-05-1.63143E-05 1.95031E-18-1.30556E-19
 -1      3455 1.00106E-04-3.75876E-05-2.66659E-05-1.61946E-05 1.86045E-18 2.70017E-19
 -1      3456 9.76177E-05-3.45797E-05-2.69565E-05-1.49180E-05 1.00932E-18-2.06729E-20
 -1      3457 9.52113E-05-3.18687E-05-2.71027E-05-1.42969E-05 6.79751E-19-2.80927E-19
 -1      3458 9.43047E-05-3.44823E-05-2.57525E-05-1.78688E-05 1.31309E-18 3.21092E-19
 -1      3459 9.41222E-05-2.99707E-05-2.74456E-05-1.29466E-05 5.08936E-19-9.29412E-19
 -1      3460 9.27845E-05-2.82784E-05-2.76389E-05-1.21744E-05 5.88479E-19-8.28221E-19
 -1      3461 9.10527E-05-2.93625E-05-2.64963E-05-1.46879E-05 3.55329E-19-2.31439E-19
 -1      3462 9.24768E-05-2.72019E-05-2.79412E-05-1.09951E-05 8.17821E-19-1.01551E-18
 -1      3463 9.18357E-05-2.62550E-05-2.81119E-05-1.02212E-05 6.38923E-19-1.19762E-18
 -1      3464 8.98250E-05-2.63758E-05-2.72160E-05-1.19275E-05 4.74925E-19-8.38659E-19
 -1      3465 9.19385E-05-2.57473E-05-2.83458E-05-9.25163E-06 1.78453E-19-1.14122E-18
 -1      3466 9.17062E-05-2.52964E-05-2.84714E-05-8.53056E-06 4.27546E-19-1.20799E-18
 -1      3467 8.97202E-05-2.48650E-05-2.78004E-05-9.70631E-06 4.21220E-19-6.08735E-19
 -1      3468 9.20014E-05-2.51483E-05-2.86373E-05-7.73159E-06 8.26465E-19-1.46875E-18
 -1      3469 9.19879E-05-2.50081E-05-2.87167E-05-7.07713E-06 5.95834E-19-1.03280E-18
 -1      3470 9.01671E-05-2.42803E-05-2.82340E-05-7.93368E-06 4.99844E-19-1.24493E-18
 -1      3471 9.23529E-05-2.50731E-05-2.88249E-05-6.40995E-06-6.65053E-22-7.68178E-19
 -1      3472 9.24433E-05-2.51148E-05-2.88659E-05-5.82383E-06 3.19327E-20-8.73338E-19
 -1      3473 9.08491E-05-2.42570E-05-2.85329E-05-6.49140E-06 5.72490E-19-1.11584E-18
 -1      3474 9.28117E-05-2.52943E-05-2.89294E-05-5.26063E-06-1.10253E-19-5.82453E-19
 -1      3475 9.29406E-05-2.54326E-05-2.89418E-05-4.74248E-06-2.39129E-19-5.39680E-19
 -1      3476 9.15900E-05-2.45519E-05-2.87232E-05-5.29322E-06 4.15217E-20-7.31375E-19
 -1      3477 9.32786E-05-2.56631E-05-2.89729E-05-4.26529E-06-5.68882E-19-4.02905E-19
 -1      3478 9.34115E-05-2.58442E-05-2.89661E-05-3.81405E-06-5.65457E-19-6.80977E-19
 -1      3479 9.22971E-05-2.50062E-05-2.88320E-05-4.28428E-06-4.41427E-19-4.26883E-19
 -1      3480 9.37049E-05-2.60867E-05-2.89749E-05-3.41132E-06-3.46962E-19-8.25386E-19
 -1      3481 9.38254E-05-2.62779E-05-2.89563E-05-3.02501E-06-6.32317E-20-1.04126E-18
 -1      3482 9.29263E-05-2.55193E-05-2.88826E-05-3.43132E-06-5.51951E-19-6.95421E-19
 -1      3483 9.40703E-05-2.65098E-05-2.89509E-05-2.68841E-06-4.85293E-19-1.51235E-18
 -1      3484 9.41721E-05-2.66924E-05-2.89261E-05-2.36357E-06-7.78848E-19-1.79806E-18
 -1      3485 9.34615E-05-2.60305E-05-2.88940E-05-2.71360E-06-5.12125E-19-1.52999E-18
 -1      3486 9.43707E-05-2.69014E-05-2.89122E-05-2.08585E-06-3.14460E-19-1.33145E-18
 -1      3487 9.44527E-05-2.70658E-05-2.88853E-05-1.81754E-06-1.37113E-19-1.15526E-18
 -1      3488 9.39020E-05-2.65050E-05-2.88805E-05-2.11579E-06-1.21275E-19-1.70471E-18
 -1      3489 9.46097E-05-2.72468E-05-2.88671E-05-1.59167E-06-1.20903E-19-7.87753E-19
 -1      3490 9.46736E-05-2.73888E-05-2.88405E-05-1.37394E-06 6.49849E-19-4.80188E-19
 -1      3491 9.42550E-05-2.69251E-05-2.88526E-05-1.62431E-06 2.59205E-19 8.55537E-21
 -1      3492 9.47952E-05-2.75409E-05-2.88209E-05-1.19306E-06 8.88302E-19-4.86524E-19
 -1      3493 9.48435E-05-2.76600E-05-2.87962E-05-1.01940E-06 9.46554E-19-1.61416E-19
 -1      3494 9.45315E-05-2.72846E-05-2.88178E-05-1.22609E-06 4.84610E-19 5.91490E-19
 -1      3495 9.49357E-05-2.77846E-05-2.87771E-05-8.76841E-07 4.20474E-19-7.82948E-19
 -1      3496 9.49714E-05-2.78821E-05-2.87551E-05-7.40706E-07-6.04995E-20-1.14493E-19
 -1      3497 9.47438E-05-2.75841E-05-2.87810E-05-9.08426E-07 5.97530E-19 1.30870E-19
 -1      3498 9.50399E-05-2.79821E-05-2.87374E-05-6.30203E-07-4.15894E-19-3.87330E-19
 -1      3499 9.50655E-05-2.80602E-05-2.87186E-05-5.25326E-07-7.09452E-19-9.75461E-19
 -1      3500 9.49034E-05-2.78279E-05-2.87454E-05-6.59082E-07-2.18540E-19-1.20425E-18
 -1      3501 9.51154E-05-2.81389E-05-2.87029E-05-4.41137E-07-1.04690E-18-1.11281E-18
 -1      3502 9.51333E-05-2.82003E-05-2.86871E-05-3.61782E-07-9.52215E-19-1.28821E-18
 -1      3503 9.50210E-05-2.80225E-05-2.87128E-05-4.66620E-07-9.77140E-19-1.58016E-18
 -1      3504 9.51686E-05-2.82611E-05-2.86736E-05-2.98810E-07-1.37997E-18-1.28131E-18
 -1      3505 9.51807E-05-2.83084E-05-2.86607E-05-2.39902E-07-1.09373E-18-1.92699E-18
 -1      3506 9.51057E-05-2.81749E-05-2.86841E-05-3.20647E-07-9.49443E-19-2.05042E-18
 -1      3507 9.52050E-05-2.83545E-05-2.86494E-05-1.93732E-07-9.33514E-19-1.44551E-18
 -1      3508 9.52128E-05-2.83903E-05-2.86390E-05-1.50909E-07-7.55424E-19-1.02863E-18
 -1      3509 9.51650E-05-2.82921E-05-2.86595E-05-2.11990E-07-8.66650E-19-2.07501E-18
 -1      3510 9.52289E-05-2.84246E-05-2.86298E-05-1.17811E-07-8.40263E-19-2.97245E-19
 -1      3511 9.52336E-05-2.84512E-05-2.86216E-05-8.74160E-08-1.27133E-18-1.68681E-19
 -1      3512 9.52054E-05-2.83805E-05-2.86390E-05-1.32754E-07-4.02760E-19-5.58911E-19
 -1      3513 9.52438E-05-2.84761E-05-2.86142E-05-6.43070E-08-1.04047E-18-1.84040E-21
 -1      3514 9.52463E-05-2.84954E-05-2.86079E-05-4.33372E-08-1.48012E-19-7.56723E-19
 -1      3515 9.52316E-05-2.84458E-05-2.86224E-05-7.63071E-08-7.93820E-19 1.03404E-19
 -1      3516 9.52522E-05-2.85131E-05-2.86021E-05-2.77180E-08-3.02170E-19-1.25625E-18
 -1      3517 9.52533E-05-2.85268E-05-2.85973E-05-1.37607E-08 2.46839E-19-1.33839E-18
 -1      3518 9.52476E-05-2.84931E-05-2.86090E-05-3.71911E-08-8.69910E-19-8.71157E-19
 -1      3519 9.52562E-05-2.85391E-05-2.85928E-05-3.64491E-09 8.24733E-19-2.22083E-18
 -1      3520 9.52563E-05-2.85485E-05-2.85892E-05 5.20266E-09 3.12476E-19-2.10949E-18
 -1      3521 9.52564E-05-2.85265E-05-2.85985E-05-1.10067E-08-1.82212E-19-2.27370E-18
 -1      3522 9.52572E-05-2.85566E-05-2.85858E-05 1.13638E-08-1.50398E-19-2.09608E-18
 -1      3523 9.52567E-05-2.85629E-05-2.85832E-05 1.65727E-08-5.05212E-19-2.04999E-18
 -1      3524 9.52603E-05-2.85493E-05-2.85904E-05 5.72558E-09-8.99173E-20-2.68271E-18
 -1      3525 9.52563E-05-2.85680E-05-2.85806E-05 1.99627E-08-7.41503E-19-1.88337E-18
 -1      3526 9.52555E-05-2.85720E-05-2.85787E-05 2.26462E-08-4.09286E-19-1.95451E-18
 -1      3527 9.52609E-05-2.85644E-05-2.85843E-05 1.57040E-08-6.49429E-19-1.68506E-18
 -1      3528 9.52544E-05-2.85751E-05-2.85768E-05 2.41499E-08-6.70736E-19-1.90278E-18
 -1      3529 9.52534E-05-2.85775E-05-2.85754E-05 2.51309E-08-4.15412E-19-1.95933E-18
 -1      3530 9.52595E-05-2.85738E-05-2.85796E-05 2.09778E-08-3.94074E-19-1.29903E-18
 -1      3531 9.52520E-05-2.85791E-05-2.85740E-05 2.53941E-08 7.10981E-19-1.17882E-18
 -1      3532 9.52510E-05-2.85805E-05-2.85731E-05 2.52634E-08 1.63791E-18-4.42511E-19
 -1      3533 9.52570E-05-2.85793E-05-2.85762E-05 2.30685E-08 6.30935E-19-8.63423E-19
 -1      3534 9.52494E-05-2.85813E-05-2.85720E-05 2.47407E-08 1.58678E-18-6.35017E-19
 -1      3535 9.52484E-05-2.85820E-05-2.85713E-05 2.38927E-08 6.98480E-19 2.92014E-19
 -1      3536 9.52540E-05-2.85823E-05-2.85736E-05 2.30807E-08 1.60302E-18-2.81403E-19
 -1      3537 1.28436E-04-4.23291E-05-3.70214E-05-1.10827E-05 1.20633E-18-3.73414E-18
 -1      3538 6.96097E-05-6.78601E-06-2.69890E-05 2.86794E-06 1.80466E-19-5.41578E-18
 -1      3539 7.16687E-05-7.97274E-06-2.72603E-05 4.44852E-06-3.00432E-21-5.24707E-18
 -1      3540 7.29527E-05-1.04838E-05-2.67169E-05 6.84554E-06 1.43864E-19-5.12742E-18
 -1      3541 1.18233E-04-5.11175E-05-2.87312E-05-1.37443E-05-2.08963E-18-4.53103E-19
 -1      3542 1.24968E-04-5.44840E-05-3.00669E-05-1.11999E-05-1.79142E-18 1.98523E-19
 -1      3543 1.07319E-04-4.11340E-05-2.82299E-05 1.13042E-05-7.15014E-19-2.32994E-18
 -1      3544 1.10979E-04-4.39861E-05-2.86162E-05 9.57454E-06-9.19669E-19-2.41747E-18
 -1      3545 1.01120E-04-3.53026E-05-2.81408E-05 1.18592E-05-1.48755E-18-1.17601E-18
 -1      3546 1.03765E-04-3.79665E-05-2.81793E-05 1.14700E-05-7.71945E-19-1.73397E-18
 -1      3547 1.02531E-04-3.91906E-05-2.72766E-05 1.44891E-05-1.04076E-18-8.53668E-19
 -1      3548 9.73852E-05-3.11778E-05-2.83435E-05 1.11240E-05-1.97420E-18-5.98904E-19
 -1      3549 9.91271E-05-3.30756E-05-2.82793E-05 1.12898E-05-1.80609E-18-6.71453E-19
 -1      3550 9.72243E-05-3.33308E-05-2.74680E-05 1.33337E-05-1.76717E-18 2.32348E-19
 -1      3551 9.53123E-05-2.85477E-05-2.86014E-05 9.93950E-06-9.89005E-19-4.89390E-19
 -1      3552 9.63556E-05-2.97539E-05-2.85188E-05 1.03643E-05-1.62793E-18-5.97479E-19
 -1      3553 9.43666E-05-2.94939E-05-2.78482E-05 1.16817E-05-1.58561E-18 7.46382E-20
 -1      3554 9.43009E-05-2.70491E-05-2.88208E-05 8.63536E-06 5.49992E-21-9.94564E-19
 -1      3555 9.48792E-05-2.77372E-05-2.87561E-05 9.16792E-06-4.13906E-19-6.69486E-19
 -1      3556 9.30081E-05-2.71964E-05-2.82263E-05 9.98809E-06-7.14825E-19-6.59692E-19
 -1      3557 9.39182E-05-2.63283E-05-2.89710E-05 7.35250E-06 3.44585E-19-5.77126E-19
 -1      3558 9.42098E-05-2.66621E-05-2.89352E-05 7.91465E-06 5.23329E-19-6.54010E-19
 -1      3559 9.25462E-05-2.59912E-05-2.85317E-05 8.42642E-06 2.16619E-19-7.22625E-19
 -1      3560 9.38793E-05-2.61039E-05-2.90529E-05 6.15396E-06-4.29471E-19-4.62696E-19
 -1      3561 9.40064E-05-2.62130E-05-2.90441E-05 6.70243E-06-1.01570E-19-5.95273E-19
 -1      3562 9.25784E-05-2.55059E-05-2.87466E-05 7.03460E-06 7.23441E-20-7.04004E-19
 -1      3563 9.40086E-05-2.61725E-05-2.90796E-05 5.06808E-06-8.66442E-19-1.95656E-19
 -1      3564 9.40480E-05-2.61496E-05-2.90914E-05 5.57822E-06-6.11467E-19-5.69384E-19
 -1      3565 9.28537E-05-2.54645E-05-2.88791E-05 5.81025E-06-4.52279E-19-9.37352E-19
 -1      3566 9.42041E-05-2.63971E-05-2.90670E-05 4.10742E-06-1.63793E-19-9.02024E-19
 -1      3567 9.42010E-05-2.63039E-05-2.90923E-05 4.56561E-06-2.79639E-19-1.34882E-19
 -1      3568 9.32239E-05-2.56748E-05-2.89464E-05 4.74205E-06-3.92223E-19-9.47883E-19
 -1      3569 9.44106E-05-2.66901E-05-2.90293E-05 3.27544E-06 1.14599E-18-1.74153E-18
 -1      3570 9.43901E-05-2.65658E-05-2.90620E-05 3.67541E-06 1.59589E-19-1.47784E-18
 -1      3571 9.36064E-05-2.60102E-05-2.89664E-05 3.81933E-06 3.78092E-19-1.58990E-18
 -1      3572 9.46008E-05-2.69983E-05-2.89779E-05 2.56937E-06-6.16354E-19-5.18019E-19
 -1      3573 9.45757E-05-2.68666E-05-2.90134E-05 2.90996E-06 4.57103E-19-8.90210E-19
 -1      3574 9.39592E-05-2.63908E-05-2.89548E-05 3.03229E-06 3.17342E-19-1.27677E-18
 -1      3575 9.47633E-05-2.72914E-05-2.89211E-05 1.98171E-06 2.69147E-19 5.93585E-21
 -1      3576 9.47397E-05-2.71657E-05-2.89562E-05 2.26536E-06-3.24785E-19-5.35557E-19
 -1      3577 9.42639E-05-2.67687E-05-2.89240E-05 2.37100E-06-5.40155E-19-5.22870E-19
 -1      3578 9.48954E-05-2.75537E-05-2.88645E-05 1.50163E-06-7.18357E-19 1.69435E-18
 -1      3579 9.48758E-05-2.74410E-05-2.88971E-05 1.73310E-06 2.22397E-19 9.62290E-19
 -1      3580 9.45156E-05-2.71172E-05-2.88831E-05 1.82423E-06-3.90415E-19 2.53727E-19
 -1      3581 9.49990E-05-2.77791E-05-2.88115E-05 1.11643E-06-2.32201E-19 1.64950E-18
 -1      3582 9.49838E-05-2.76822E-05-2.88406E-05 1.30175E-06-5.56330E-19 1.51407E-18
 -1      3583 9.47167E-05-2.74235E-05-2.88385E-05 1.37955E-06-3.71118E-19 1.21386E-18
 -1      3584 9.50777E-05-2.79669E-05-2.87642E-05 8.12757E-07 6.14405E-20 7.40005E-19
 -1      3585 9.50666E-05-2.78861E-05-2.87892E-05 9.58432E-07 3.41736E-19 9.22942E-19
 -1      3586 9.48730E-05-2.76833E-05-2.87945E-05 1.02386E-06 5.54675E-19 9.54785E-19
 -1      3587 9.51359E-05-2.81194E-05-2.87232E-05 5.77538E-07 6.68826E-19 1.08891E-19
 -1      3588 9.51282E-05-2.80537E-05-2.87442E-05 6.89988E-07 2.98775E-19 2.30771E-19
 -1      3589 9.49914E-05-2.78978E-05-2.87537E-05 7.44106E-07 9.79191E-19 9.70634E-19
 -1      3590 9.51777E-05-2.82406E-05-2.86887E-05 3.98594E-07-5.25320E-19 2.85687E-20
 -1      3591 9.51727E-05-2.81884E-05-2.87059E-05 4.83806E-07 1.81383E-19 1.89203E-19
 -1      3592 9.50790E-05-2.80708E-05-2.87173E-05 5.27804E-07 4.59998E-19 1.39902E-19
 -1      3593 9.52069E-05-2.83350E-05-2.86604E-05 2.65015E-07-1.01961E-18 1.49070E-19
 -1      3594 9.52038E-05-2.82943E-05-2.86742E-05 3.28343E-07-7.10397E-19-4.69291E-19
 -1      3595 9.51421E-05-2.82074E-05-2.86860E-05 3.63504E-07-1.40772E-19 7.98179E-19
 -1      3596 9.52264E-05-2.84071E-05-2.86376E-05 1.67325E-07-1.83538E-19 3.24745E-19
 -1      3597 9.52248E-05-2.83759E-05-2.86485E-05 2.13404E-07-7.80388E-19-3.72247E-19
 -1      3598 9.51864E-05-2.83131E-05-2.86598E-05 2.41027E-07-6.44708E-19 1.77401E-19
 -1      3599 9.52389E-05-2.84610E-05-2.86196E-05 9.75163E-08 6.82224E-19 1.64943E-19
 -1      3600 9.52382E-05-2.84377E-05-2.86280E-05 1.30248E-07 9.98718E-19 2.61308E-19
 -1      3601 9.52163E-05-2.83934E-05-2.86383E-05 1.51582E-07 6.55147E-19 3.89914E-19
 -1      3602 9.52462E-05-2.85005E-05-2.86057E-05 4.89681E-08-9.44914E-19 2.86135E-19
 -1      3603 9.52462E-05-2.84834E-05-2.86120E-05 7.15654E-08-2.03018E-19-2.38314E-19
 -1      3604 9.52356E-05-2.84532E-05-2.86211E-05 8.77582E-08 5.73228E-19 4.88130E-19
 -1      3605 9.52500E-05-2.85288E-05-2.85951E-05 1.63245E-08 1.71544E-19 3.96451E-19
 -1      3606 9.52504E-05-2.85165E-05-2.85998E-05 3.13753E-08-4.08425E-19 2.59525E-19
 -1      3607 9.52473E-05-2.84967E-05-2.86075E-05 4.34468E-08-7.12956E-19 1.65464E-19
 -1      3608 9.52514E-05-2.85484E-05-2.85871E-05-4.66350E-09 1.27414E-18-7.01827E-19
 -1      3609 9.52519E-05-2.85399E-05-2.85906E-05 4.88506E-09 7.15321E-19 1.17442E-19
 -1      3610 9.52536E-05-2.85276E-05-2.85969E-05 1.37143E-08 8.47746E-19-8.77904E-19
 -1      3611 9.52512E-05-2.85617E-05-2.85813E-05-1.73011E-08 9.10604E-19-1.48442E-18
 -1      3612 9.52519E-05-2.85559E-05-2.85838E-05-1.16722E-08 1.79062E-18-6.80100E-19
 -1      3613 9.52562E-05-2.85489E-05-2.85889E-05-5.34677E-09 1.56454E-18-3.58530E-19
 -1      3614 9.52501E-05-2.85702E-05-2.85771E-05-2.41080E-08-3.10503E-20-2.19170E-18
 -1      3615 9.52508E-05-2.85664E-05-2.85789E-05-2.11989E-08 3.35183E-20-2.37863E-18
 -1      3616 9.52564E-05-2.85630E-05-2.85829E-05-1.67721E-08 1.04795E-18-9.25635E-19
 -1      3617 9.52485E-05-2.85754E-05-2.85742E-05-2.69591E-08-6.54136E-19-6.22322E-19
 -1      3618 9.52491E-05-2.85731E-05-2.85754E-05-2.58832E-08-2.30276E-19-1.43975E-18
 -1      3619 9.52551E-05-2.85720E-05-2.85785E-05-2.28721E-08-5.40512E-19-1.78362E-18
 -1      3620 9.52467E-05-2.85784E-05-2.85721E-05-2.72125E-08-8.32375E-19-8.15746E-19
 -1      3621 9.52472E-05-2.85770E-05-2.85729E-05-2.73332E-08-4.46729E-19-3.73993E-19
 -1      3622 9.52529E-05-2.85774E-05-2.85753E-05-2.53631E-08-5.92790E-19-1.30317E-18
 -1      3623 9.52449E-05-2.85800E-05-2.85707E-05-2.58167E-08-2.30605E-18 7.10994E-19
 -1      3624 9.52454E-05-2.85792E-05-2.85712E-05-2.66964E-08-1.49347E-18-5.29536E-19
 -1      3625 9.52505E-05-2.85804E-05-2.85729E-05-2.54875E-08-1.44236E-18 6.53428E-19
 -1      3626 9.52434E-05-2.85808E-05-2.85697E-05-2.33999E-08-7.27965E-20-8.14293E-19
 -1      3627 9.52437E-05-2.85803E-05-2.85700E-05-2.47339E-08-9.44253E-19-1.44623E-19
 -1      3628 9.52481E-05-2.85819E-05-2.85712E-05-2.41286E-08-7.56936E-19-2.67093E-19
 -1      3629 9.52514E-05-2.85857E-05-2.85710E-05 1.80490E-08 2.55611E-19-1.04654E-18
 -1      3630 9.52537E-05-2.85870E-05-2.85714E-05 1.55060E-08 2.84771E-19-8.42306E-19
 -1      3631 9.52578E-05-2.85893E-05-2.85722E-05 5.39981E-09 5.78958E-20 2.61312E-19
 -1      3632 9.52583E-05-2.85896E-05-2.85723E-05 1.91456E-09-9.60416E-19-2.47289E-18
 -1      3633 1.01530E-04-3.09035E-05-3.02239E-05-6.92502E-06 9.05268E-19-1.80900E-18
 -1      3634 9.85359E-05-2.88991E-05-2.98491E-05-7.85849E-06 9.31044E-19-2.20860E-18
 -1      3635 1.03969E-04-3.40258E-05-2.99836E-05-7.57309E-06 4.03755E-19-1.65306E-18
 -1      3636 9.21308E-05-2.20762E-05-3.00742E-05 6.54302E-06-8.76889E-19-3.23980E-18
 -1      3637 1.26751E-04-5.26054E-05-3.19517E-05-3.21375E-06-1.13747E-18 9.10534E-19
 -1      3638 9.70477E-05-3.86492E-05-2.46914E-05-2.35410E-05-2.48153E-18-2.72331E-18
 -1      3639 1.05981E-04-4.44783E-05-2.65217E-05-2.01224E-05-2.28304E-18-1.70786E-18
 -1      3640 5.79858E-05-1.44239E-05-1.85381E-05 6.23172E-06-1.89106E-18 1.31219E-18
 -1      3641 5.71424E-05-1.38225E-05-1.85184E-05-2.61962E-06-3.77775E-19 2.55412E-18
 -1      3642 9.20342E-05-3.73604E-05-2.32934E-05-2.38994E-05 2.38621E-18-9.24457E-20
 -1      3643 9.99063E-05-4.24350E-05-2.45550E-05-2.28471E-05 2.62984E-18 1.49951E-19
 -1      3644 8.70695E-05-3.73438E-05-2.14527E-05 2.82108E-05-3.69685E-18-1.24196E-19
 -1      3645 7.60857E-05-2.97058E-05-1.94451E-05 2.71008E-05-3.59056E-18-1.79995E-21
 -1      3646 1.12508E-04-4.66951E-05-2.80497E-05 1.20018E-05-1.13953E-18-2.64054E-18
 -1      3647 1.16863E-04-4.92623E-05-2.88825E-05 9.24536E-06-9.23120E-19-2.74099E-18
 -1      3648 9.52555E-05-2.85880E-05-2.85718E-05 1.22396E-08 9.28936E-19 3.32184E-19
 -1      3649 9.52569E-05-2.85888E-05-2.85720E-05 9.08218E-09 7.58916E-19 1.05884E-18
 -1      3650 9.52593E-05-2.85886E-05-2.85731E-05 7.56206E-09 7.36732E-19 9.96656E-19
 -1      3651 9.52563E-05-2.85872E-05-2.85725E-05 1.45508E-08 1.09407E-18-8.81671E-19
 -1      3652 9.88218E-05-3.29120E-05-2.80558E-05 1.36628E-05 6.96708E-19-2.39272E-18
 -1      3653 1.02272E-04-3.71940E-05-2.78641E-05 1.44783E-05 1.04334E-18-2.13987E-18
 -1      3654 9.58354E-05-4.01108E-05-2.38893E-05 2.59491E-05 2.40404E-18-2.86596E-18
 -1      3655 8.44383E-05-3.22831E-05-2.19475E-05 2.72448E-05 2.54263E-18-3.85961E-18
 -1      3656 7.94800E-05-2.66393E-05-2.24813E-05 2.32542E-05 2.01917E-18-4.43551E-18
 -1      3657 9.79505E-05-3.88735E-05-2.52847E-05 2.19232E-05 1.93407E-18-2.58493E-18
 -1      3658 5.48062E-05-1.01742E-05-1.90413E-05-1.05219E-05-5.88140E-19-6.38594E-18
 -1      3659 6.17376E-05-1.56351E-05-1.97910E-05-1.91178E-05-1.32205E-18-5.59968E-18
 -1      3660 5.60660E-05-9.73141E-06-1.98819E-05 8.76854E-06 1.01038E-18-6.10525E-18
 -1      3661 5.33408E-05-7.83636E-06-1.92937E-05-1.90241E-06 1.39353E-19-6.42194E-18
 -1      3662 1.08092E-04-4.22419E-05-2.79841E-05 1.46638E-05 1.35774E-18-1.43453E-18
 -1      3663 7.19695E-05-2.23978E-05-2.09394E-05-2.35941E-05-1.80263E-18-4.79797E-18
 -1      3664 8.46351E-05-3.16714E-05-2.28719E-05-2.57627E-05-2.26730E-18-3.84034E-18
 -1      3665 9.52452E-05-2.85840E-05-2.85691E-05-1.86341E-08-8.14095E-19-1.83649E-18
 -1      3666 9.52432E-05-2.85825E-05-2.85689E-05-1.94628E-08-1.12741E-18-2.14455E-18
 -1      3667 9.52430E-05-2.85819E-05-2.85691E-05-2.07354E-08-1.44753E-18-1.58767E-18
 -1      3668 9.52474E-05-2.85846E-05-2.85698E-05-1.89512E-08 4.09289E-19-7.34563E-19
 -1      3669 6.03021E-05-1.56161E-05-1.89466E-05-1.02233E-05 6.88691E-19 2.37328E-18
 -1      3670 6.73127E-05-2.07708E-05-2.00601E-05-1.79418E-05 1.23734E-18 1.00167E-18
 -1      3671 6.02093E-05-1.54895E-05-1.89316E-05 9.38155E-06-2.27259E-18 1.07758E-18
 -1      3672 6.29228E-05-1.52453E-05-2.03604E-05 5.26370E-06-1.54966E-18 6.30801E-19
 -1      3673 6.32742E-05-1.76164E-05-1.96157E-05 1.33043E-05-2.68942E-18 6.52374E-19
 -1      3674 7.90429E-05-1.67762E-05-2.67887E-05 1.11679E-05 3.61660E-19-4.49560E-18
 -1      3675 8.43904E-05-2.00497E-05-2.75541E-05 1.15105E-05 8.88756E-20-3.93905E-18
 -1      3676 6.85436E-05-7.40886E-06-2.61234E-05 1.93867E-06 2.36395E-19-5.37118E-18
 -1      3677 9.10388E-05-3.29817E-05-2.47439E-05-2.15561E-05-1.85124E-18-3.20211E-18
 -1      3678 9.52583E-05-2.85896E-05-2.85723E-05-1.91372E-09-1.96373E-18-3.13001E-18
 -1      3679 9.52578E-05-2.85893E-05-2.85722E-05-5.38242E-09-1.19703E-18-2.56902E-18
 -1      3680 9.52603E-05-2.85891E-05-2.85734E-05 8.67704E-12-1.42942E-19-2.05004E-18
 -1      3681 5.93366E-05-9.41800E-06-2.11458E-05-5.42532E-06-2.80686E-19-5.92429E-18
 -1      3682 9.52466E-05-2.85819E-05-2.85706E-05 2.35138E-08-8.42419E-20 1.04632E-18
 -1      3683 9.52457E-05-2.85822E-05-2.85701E-05 2.24725E-08 3.68359E-19 7.02942E-19
 -1      3684 9.52473E-05-2.85833E-05-2.85703E-05 2.14782E-08 4.02080E-19 4.83373E-19
 -1      3685 9.52506E-05-2.85833E-05-2.85717E-05 2.23439E-08 8.17775E-19-7.02558E-19
 -1      3686 1.13134E-04-4.74340E-05-2.79288E-05-1.55215E-05-2.14401E-18-8.83287E-19
 -1      3687 1.18290E-04-4.90910E-05-2.97359E-05-9.08607E-06-1.52619E-18-6.28393E-20
 -1      3688 9.45805E-05-2.64736E-05-2.91446E-05-9.23655E-06 5.84563E-19-2.70765E-18
 -1      3689 1.08110E-04-4.33140E-05-2.77161E-05-1.54285E-05-1.75293E-18-1.40018E-18
 -1      3690 1.07000E-04-4.49673E-05-2.66035E-05 1.72047E-05-1.40827E-18-1.72124E-18
 -1      3691 7.30215E-05-2.56050E-05-2.01113E-05 2.24015E-05-3.19998E-18-1.21417E-19
 -1      3692 1.00469E-04-3.81774E-05-2.68101E-05 1.78850E-05 1.44403E-18-2.19585E-18
 -1      3693 9.52426E-05-2.85812E-05-2.85692E-05-2.18926E-08-1.16786E-18-8.85991E-19
 -1      3694 6.35190E-05-1.56408E-05-2.03313E-05-5.64056E-06 1.03662E-20 1.37119E-18
 -1      3695 8.30074E-05-1.74771E-05-2.81312E-05-9.31385E-06 7.42931E-19-3.78901E-18
 -1      3696 1.07552E-04-4.87767E-05-2.50807E-05-2.27605E-05 3.54626E-18-3.22733E-19
 -1      3697 7.60225E-05-1.44948E-05-2.62374E-05-1.10434E-05 2.14581E-19-4.43309E-18
 -1      3698 7.16204E-05-1.19069E-05-2.56852E-05-9.56033E-06 9.88117E-20-4.88236E-18
 -1      3699 9.52569E-05-2.85888E-05-2.85720E-05-9.05125E-09-6.85239E-19-5.35123E-19
 -1      3700 9.52555E-05-2.85880E-05-2.85718E-05-1.22215E-08-3.57924E-19 1.10361E-18
 -1      3701 9.52593E-05-2.85886E-05-2.85732E-05-7.51507E-09-1.56598E-18-1.73143E-18
 -1      3702 7.38220E-05-1.29624E-05-2.59703E-05 9.80342E-06 3.66331E-19-5.00812E-18
 -1      3703 7.65710E-05-1.68191E-05-2.55430E-05 1.27930E-05 5.90911E-19-4.62062E-18
 -1      3704 6.96649E-05-1.05836E-05-2.54702E-05 8.01301E-06 4.83504E-19-5.20728E-18
 -1      3705 9.52566E-05-2.85873E-05-2.85725E-05-1.39062E-08-5.88093E-19 2.19138E-19
 -1      3706 9.52540E-05-2.85872E-05-2.85714E-05-1.49432E-08-1.44017E-19 1.53614E-19
 -1      3707 9.52520E-05-2.85862E-05-2.85711E-05-1.71575E-08 1.91717E-19 3.59342E-19
 -1      3708 8.47654E-05-3.29256E-05-2.21906E-05-2.47116E-05 2.02281E-18 1.10617E-19
 -1      3709 9.09210E-05-3.36056E-05-2.44592E-05-1.99632E-05 1.70825E-18-1.98708E-19
 -1      3710 8.83866E-05-3.02265E-05-2.48504E-05-1.80712E-05 9.16971E-19-2.57332E-19
 -1      3711 7.72163E-05-2.66220E-05-2.15203E-05-2.15909E-05 1.30196E-18 5.06830E-19
 -1      3712 1.15799E-04-4.61041E-05-2.99111E-05-7.22292E-06-1.19578E-18-5.50360E-19
 -1      3713 1.12725E-04-4.32844E-05-2.96618E-05-8.10108E-06-9.27157E-19-7.67702E-19
 -1      3714 9.55239E-05-4.00825E-05-2.36489E-05 2.36273E-05-3.01745E-18-1.88644E-19
 -1      3715 1.25804E-04-5.05925E-05-3.25682E-05-2.14474E-06 1.43003E-19-3.43406E-18
 -1      3716 1.28120E-04-4.76816E-05-3.44478E-05-7.50603E-06 7.29454E-19-3.98974E-18
 -1      3717 7.51558E-05-2.33724E-05-2.20669E-05-1.72685E-05 9.85549E-19 6.81637E-19
 -1      3718 1.22070E-04-5.14113E-05-2.99616E-05 5.89815E-06-6.54836E-19-3.62531E-18
 -1      3719 7.05585E-05-1.86837E-05-2.19963E-05-1.87551E-05-1.26657E-18-4.83330E-18
 -1      3720 9.52460E-05-2.85829E-05-2.85700E-05-2.16347E-08-4.32527E-19-1.35581E-18
 -1      3721 9.22959E-05-2.73696E-05-2.77941E-05 1.29473E-05 3.76533E-19-3.15836E-18
 -1      3722 8.83773E-05-2.66155E-05-2.65439E-05 1.57734E-05 9.41576E-19-3.53227E-18
 -1      3723 9.13850E-05-2.31509E-05-2.92425E-05 8.72030E-06-3.66484E-19-3.30262E-18
 -1      3724 9.00586E-05-2.40939E-05-2.82048E-05 1.12996E-05 6.56666E-20-3.41309E-18
 -1      3725 9.52489E-05-2.85843E-05-2.85705E-05 2.02408E-08 3.29241E-19-1.81564E-19
 -1      3726 6.39607E-05-1.26361E-05-2.17435E-05 1.30624E-05 1.07283E-18-5.70338E-18
 -1      3727 6.46280E-05-1.03351E-05-2.31517E-05 7.73267E-06 4.11129E-19-5.53449E-18
 -1      3728 1.03644E-04-4.36787E-05-2.57330E-05-1.93320E-05 2.43839E-18 7.82976E-20
 -1      3729 9.52516E-05-2.85847E-05-2.85715E-05 1.99520E-08 3.65448E-19-6.67909E-19
 -1      3730 9.52535E-05-2.85847E-05-2.85723E-05 2.00298E-08 1.18910E-18-1.64394E-18
 -1      3731 1.20294E-04-4.85262E-05-3.06123E-05-4.65807E-06-1.31860E-18 7.22790E-20
 -1      3732 8.74918E-05-2.77554E-05-2.55370E-05-1.53790E-05 2.88976E-19 2.61525E-19
 -1      3733 8.64959E-05-2.59555E-05-2.59635E-05-1.37755E-05 4.62193E-19 4.34121E-20
 -1      3734 8.70494E-05-2.50531E-05-2.65231E-05-1.20216E-05 3.28359E-19 3.50855E-19
 -1      3735 8.67759E-05-2.41242E-05-2.68793E-05-1.07767E-05 3.45032E-19 2.16878E-20
 -1      3736 8.33621E-05-2.36014E-05-2.56253E-05-1.24963E-05 3.04967E-19 1.01127E-18
 -1      3737 8.75066E-05-2.37537E-05-2.72959E-05-9.52957E-06 2.07971E-19-3.15002E-19
 -1      3738 8.76312E-05-2.33660E-05-2.75675E-05-8.57186E-06 2.25641E-19-6.56792E-19
 -1      3739 8.47415E-05-2.25190E-05-2.66518E-05-9.53730E-06 6.94689E-20 9.25565E-20
 -1      3740 8.83925E-05-2.33312E-05-2.78683E-05-7.65877E-06 1.26561E-19-1.23639E-18
 -1      3741 8.87013E-05-2.32716E-05-2.80619E-05-6.90081E-06 6.06071E-19-1.62498E-18
 -1      3742 8.62684E-05-2.22858E-05-2.74038E-05-7.45199E-06-1.37494E-19-1.05946E-18
 -1      3743 8.94215E-05-2.34373E-05-2.82707E-05-6.20779E-06 7.33190E-19-1.37550E-18
 -1      3744 8.97951E-05-2.35674E-05-2.83998E-05-5.58870E-06 4.71938E-19-1.60566E-18
 -1      3745 8.77602E-05-2.25366E-05-2.79366E-05-5.92866E-06 4.79293E-19-1.28020E-18
 -1      3746 9.04433E-05-2.38422E-05-2.85388E-05-5.04132E-06 2.93595E-19-1.41725E-18
 -1      3747 9.08171E-05-2.40724E-05-2.86183E-05-4.52399E-06-6.26734E-20-1.05388E-18
 -1      3748 8.91269E-05-2.30579E-05-2.83008E-05-4.76347E-06 1.76636E-19-2.41730E-18
 -1      3749 9.13811E-05-2.43945E-05-2.87058E-05-4.07888E-06-4.01273E-19-1.01040E-18
 -1      3750 9.17227E-05-2.46673E-05-2.87491E-05-3.64117E-06-5.64418E-19-6.62463E-19
 -1      3751 9.03328E-05-2.37117E-05-2.85396E-05-3.83550E-06-2.16279E-19-1.48576E-18
 -1      3752 9.22014E-05-2.49980E-05-2.87995E-05-3.27333E-06-7.67948E-19-7.66066E-19
 -1      3753 9.24974E-05-2.52777E-05-2.88176E-05-2.90277E-06-2.95012E-19-6.63071E-19
 -1      3754 9.13679E-05-2.44082E-05-2.86868E-05-3.07532E-06-5.13507E-19-7.50101E-19
 -1      3755 9.28949E-05-2.55926E-05-2.88423E-05-2.59793E-06-4.61058E-19-1.18478E-18
 -1      3756 9.31419E-05-2.58578E-05-2.88436E-05-2.28652E-06-6.02439E-19-1.50509E-18
 -1      3757 9.22369E-05-2.50900E-05-2.87688E-05-2.44485E-06-5.63695E-19-1.29567E-18
 -1      3758 9.34652E-05-2.61430E-05-2.88510E-05-2.03516E-06 1.31538E-19-1.05938E-18
 -1      3759 9.36654E-05-2.63817E-05-2.88421E-05-1.77645E-06 6.68686E-19-1.73139E-19
 -1      3760 9.29512E-05-2.57215E-05-2.88060E-05-1.92192E-06-1.35161E-20-7.23137E-19
 -1      3761 9.39235E-05-2.66308E-05-2.88385E-05-1.57106E-06 4.60019E-19-1.21748E-20
 -1      3762 9.40819E-05-2.68379E-05-2.88239E-05-1.35909E-06 4.77656E-19 4.96460E-20
 -1      3763 9.35271E-05-2.62832E-05-2.88135E-05-1.49072E-06 6.19681E-19-3.30188E-19
 -1      3764 9.42843E-05-2.70492E-05-2.88139E-05-1.19330E-06 3.01525E-19 1.63407E-20
 -1      3765 9.44070E-05-2.72240E-05-2.87967E-05-1.02225E-06 9.59678E-19 5.42067E-19
 -1      3766 9.39830E-05-2.67674E-05-2.88026E-05-1.13877E-06 4.52769E-19-1.60920E-19
 -1      3767 9.45630E-05-2.73989E-05-2.87835E-05-8.90327E-07 3.63090E-19 3.16450E-21
 -1      3768 9.46561E-05-2.75429E-05-2.87660E-05-7.54492E-07-1.91096E-19-6.12055E-19
 -1      3769 9.43378E-05-2.71742E-05-2.87812E-05-8.55258E-07 3.52061E-19-6.37658E-19
 -1      3770 9.47741E-05-2.76848E-05-2.87516E-05-6.51118E-07 2.82668E-19-1.28976E-18
 -1      3771 9.48434E-05-2.78009E-05-2.87349E-05-5.45011E-07-1.34598E-19-9.07753E-19
 -1      3772 9.46091E-05-2.75087E-05-2.87550E-05-6.30214E-07 4.64894E-21-9.62676E-19
 -1      3773 9.49310E-05-2.79138E-05-2.87209E-05-4.65328E-07-1.19691E-18-1.03005E-18
 -1      3774 9.49814E-05-2.80057E-05-2.87057E-05-3.83848E-07-8.64655E-19-7.55372E-19
 -1      3775 9.48126E-05-2.77781E-05-2.87273E-05-4.54388E-07-8.62700E-19-3.49628E-19
 -1      3776 9.50452E-05-2.80939E-05-2.86927E-05-3.23486E-07-1.20640E-18-7.05127E-19
 -1      3777 9.50809E-05-2.81653E-05-2.86795E-05-2.62029E-07-1.10673E-18-7.56306E-19
 -1      3778 9.49624E-05-2.79912E-05-2.87007E-05-3.19292E-07-1.13190E-18-5.16276E-19
 -1      3779 9.51261E-05-2.82329E-05-2.86680E-05-2.17154E-07-4.08025E-19-7.04513E-19
 -1      3780 9.51508E-05-2.82874E-05-2.86568E-05-1.71684E-07-1.08871E-19-2.30337E-20
 -1      3781 9.50702E-05-2.81567E-05-2.86764E-05-2.17315E-07-7.91467E-19 5.80324E-19
 -1      3782 9.51820E-05-2.83382E-05-2.86469E-05-1.39006E-07-2.57492E-19-1.11301E-20
 -1      3783 9.51984E-05-2.83790E-05-2.86376E-05-1.06074E-07-5.36541E-20 3.01840E-19
 -1      3784 9.51458E-05-2.82829E-05-2.86549E-05-1.41797E-07-2.32832E-19 2.00235E-19
 -1      3785 9.52190E-05-2.84165E-05-2.86293E-05-8.28322E-08-5.19203E-19-6.53139E-19
 -1      3786 9.52294E-05-2.84464E-05-2.86218E-05-5.95580E-08-1.15104E-18-3.14438E-19
 -1      3787 9.51970E-05-2.83772E-05-2.86367E-05-8.70463E-08-4.56338E-19-1.26399E-18
 -1      3788 9.52424E-05-2.84735E-05-2.86149E-05-4.34860E-08-1.88769E-18-3.62875E-19
 -1      3789 9.52484E-05-2.84949E-05-2.86090E-05-2.75149E-08-1.16385E-18-1.05002E-18
 -1      3790 9.52303E-05-2.84464E-05-2.86214E-05-4.83081E-08-1.89814E-18-1.56866E-18
 -1      3791 9.52559E-05-2.85139E-05-2.86035E-05-1.67858E-08-3.50732E-19-2.12173E-18
 -1      3792 9.52589E-05-2.85289E-05-2.85988E-05-6.23116E-09 1.15927E-19-2.39689E-18
 -1      3793 9.52506E-05-2.84959E-05-2.86090E-05-2.16898E-08-1.13994E-18-1.59398E-18
 -1      3794 9.52626E-05-2.85418E-05-2.85945E-05 5.98570E-10 1.90534E-19-2.67270E-18
 -1      3795 9.52636E-05-2.85519E-05-2.85909E-05 7.21986E-09 3.22560E-19-2.41842E-18
 -1      3796 9.52617E-05-2.85304E-05-2.85991E-05-4.06838E-09 3.96961E-19-2.48773E-18
 -1      3797 9.52648E-05-2.85603E-05-2.85875E-05 1.12693E-08 3.11940E-19-1.95398E-18
 -1      3798 9.52645E-05-2.85669E-05-2.85848E-05 1.50996E-08 9.87323E-20-6.61501E-19
 -1      3799 9.52666E-05-2.85536E-05-2.85912E-05 7.01404E-09 2.93214E-19-1.71506E-18
 -1      3800 9.52640E-05-2.85721E-05-2.85822E-05 1.72181E-08-1.12189E-18-3.51467E-19
 -1      3801 9.52629E-05-2.85761E-05-2.85801E-05 1.91184E-08-5.66823E-19-3.60346E-19
 -1      3802 9.52672E-05-2.85686E-05-2.85851E-05 1.34534E-08-9.13927E-20-2.69275E-19
 -1      3803 9.52615E-05-2.85791E-05-2.85781E-05 1.99374E-08 6.02623E-20-5.39982E-19
 -1      3804 9.52600E-05-2.85814E-05-2.85766E-05 2.05409E-08 6.94896E-19-9.76886E-20
 -1      3805 9.52653E-05-2.85778E-05-2.85804E-05 1.66845E-08-7.27636E-19 3.33149E-19
 -1      3806 9.52581E-05-2.85829E-05-2.85750E-05 2.05169E-08 1.48204E-18-2.02815E-18
 -1      3807 9.52565E-05-2.85841E-05-2.85739E-05 2.03256E-08 1.60546E-18-2.22943E-18
 -1      3808 9.52620E-05-2.85829E-05-2.85768E-05 1.77571E-08-1.05822E-19-1.58042E-18
 -1      3809 9.26731E-05-3.01438E-05-2.67827E-05 1.39840E-05-1.86856E-18 7.11915E-19
 -1      3810 9.46929E-05-3.25224E-05-2.65732E-05 1.49583E-05-1.98395E-18 8.64736E-19
 -1      3811 8.58198E-05-2.72819E-05-2.48917E-05-1.96701E-05-1.27758E-18-3.50130E-18
 -1      3812 9.57821E-05-3.44902E-05-2.64317E-05-1.83455E-05-1.35866E-18-2.30998E-18
 -1      3813 9.64234E-05-3.07919E-05-2.81074E-05-1.29192E-05-2.24374E-19-2.40431E-18
 -1      3814 8.93879E-05-2.46489E-05-2.77098E-05-1.27519E-05 1.63185E-19-3.11172E-18
 -1      3815 9.63397E-05-3.50507E-05-2.61856E-05 1.65623E-05-2.13032E-18 8.28293E-19
 -1      3816 9.94818E-05-3.86461E-05-2.60760E-05 1.74416E-05-1.66056E-18 1.51005E-19
 -1      3817 9.11361E-05-3.20527E-05-2.54349E-05 1.75785E-05-1.92169E-18 1.58795E-18
 -1      3818 9.05817E-05-2.54946E-05-2.79054E-05 9.48580E-06-3.25244E-19-3.26850E-19
 -1      3819 9.10086E-05-2.62705E-05-2.77115E-05 1.03266E-05-6.91677E-19 7.60495E-20
 -1      3820 9.07678E-05-2.47769E-05-2.82947E-05 7.79125E-06 4.56356E-19-4.48912E-19
 -1      3821 9.08511E-05-2.51189E-05-2.81503E-05 8.52546E-06 1.39414E-19-2.87648E-19
 -1      3822 8.87768E-05-2.42175E-05-2.76674E-05 8.81155E-06-2.50249E-19 2.55126E-19
 -1      3823 9.12602E-05-2.46366E-05-2.85654E-05 6.38540E-06-1.43298E-19-5.52380E-19
 -1      3824 9.11652E-05-2.47074E-05-2.84692E-05 7.02316E-06 3.84169E-19-4.65633E-19
 -1      3825 8.94802E-05-2.38639E-05-2.81154E-05 7.09909E-06 3.09922E-19 4.15969E-19
 -1      3826 9.18660E-05-2.48356E-05-2.87386E-05 5.20519E-06-6.47266E-19-6.22797E-19
 -1      3827 9.16919E-05-2.47482E-05-2.86821E-05 5.75942E-06-3.20479E-19-6.13555E-19
 -1      3828 9.03245E-05-2.39764E-05-2.84270E-05 5.73946E-06-1.63232E-19-5.33060E-20
 -1      3829 9.24793E-05-2.52156E-05-2.88373E-05 4.20729E-06-2.77973E-19-9.09963E-19
 -1      3830 9.22826E-05-2.50447E-05-2.88107E-05 4.68696E-06-3.90952E-19-6.16911E-19
 -1      3831 9.11768E-05-2.43524E-05-2.86311E-05 4.63342E-06-4.83450E-19-4.46111E-19
 -1      3832 9.30445E-05-2.56725E-05-2.88824E-05 3.36355E-06 9.83128E-19-1.30321E-18
 -1      3833 9.28551E-05-2.54665E-05-2.88768E-05 3.77533E-06 5.85384E-19-1.20316E-18
 -1      3834 9.19680E-05-2.48580E-05-2.87541E-05 3.71915E-06 5.74603E-19-1.00556E-18
 -1      3835 9.35370E-05-2.61420E-05-2.88910E-05 2.65461E-06-1.28528E-19-7.52969E-19
 -1      3836 9.33690E-05-2.59306E-05-2.88989E-05 3.00367E-06 4.01564E-19-7.93712E-19
 -1      3837 9.26649E-05-2.54064E-05-2.88187E-05 2.95792E-06 3.22639E-19-9.95280E-19
 -1      3838 9.39493E-05-2.65859E-05-2.88762E-05 2.06546E-06-3.88039E-19-9.58035E-19
 -1      3839 9.38079E-05-2.63865E-05-2.88922E-05 2.35699E-06-1.59996E-19-6.25464E-19
 -1      3840 9.32564E-05-2.59440E-05-2.88429E-05 2.32542E-06-3.65853E-19-8.15299E-19
 -1      3841 9.42841E-05-2.69839E-05-2.88480E-05 1.58227E-06-9.25828E-19 1.55465E-19
 -1      3842 9.41696E-05-2.68055E-05-2.88680E-05 1.82191E-06-8.60961E-19-3.13770E-19
 -1      3843 9.37438E-05-2.64392E-05-2.88406E-05 1.80384E-06-1.18375E-18-8.06597E-19
 -1      3844 9.45491E-05-2.73274E-05-2.88134E-05 1.19172E-06 1.87369E-19 2.38787E-19
 -1      3845 9.44590E-05-2.71738E-05-2.88345E-05 1.38551E-06-9.76911E-20 6.16509E-19
 -1      3846 9.41357E-05-2.68761E-05-2.88222E-05 1.37838E-06-7.73808E-19-4.24771E-19
 -1      3847 9.47541E-05-2.76153E-05-2.87770E-05 8.80891E-07 1.02097E-18-2.50257E-19
 -1      3848 9.46851E-05-2.74868E-05-2.87975E-05 1.03502E-06 5.73710E-19 1.06615E-19
 -1      3849 9.44438E-05-2.72493E-05-2.87951E-05 1.03585E-06 7.23751E-19-1.69523E-19
 -1      3850 9.49093E-05-2.78507E-05-2.87419E-05 6.37457E-07 1.34385E-18 7.38669E-20
 -1      3851 9.48577E-05-2.77459E-05-2.87607E-05 7.57996E-07 1.52481E-18 6.89164E-19
 -1      3852 9.46813E-05-2.75596E-05-2.87645E-05 7.64055E-07 8.85461E-19-1.52338E-19
 -1      3853 9.50242E-05-2.80391E-05-2.87098E-05 4.49963E-07-8.01943E-20 7.68368E-19
 -1      3854 9.49865E-05-2.79554E-05-2.87264E-05 5.42619E-07 5.11018E-19 8.99987E-19
 -1      3855 9.48605E-05-2.78120E-05-2.87337E-05 5.51704E-07 5.97070E-19 1.10070E-18
 -1      3856 9.51073E-05-2.81870E-05-2.86816E-05 3.08066E-07 2.20744E-19 5.44392E-19
 -1      3857 9.50805E-05-2.81214E-05-2.86958E-05 3.78019E-07 3.67824E-19 6.01144E-19
 -1      3858 9.49929E-05-2.80130E-05-2.87047E-05 3.88487E-07 6.19667E-19 1.18410E-18
 -1      3859 9.51657E-05-2.83008E-05-2.86575E-05 2.02679E-07-4.43063E-19-4.21547E-19
 -1      3860 9.51473E-05-2.82505E-05-2.86693E-05 2.54485E-07-1.16906E-19 2.70102E-19
 -1      3861 9.50885E-05-2.81701E-05-2.86786E-05 2.65194E-07 3.32152E-19-1.20758E-19
 -1      3862 9.52055E-05-2.83867E-05-2.86374E-05 1.26015E-07 8.43044E-19 3.03794E-19
 -1      3863 9.51934E-05-2.83488E-05-2.86470E-05 1.63575E-07-2.55648E-19-6.07486E-21
 -1      3864 9.51557E-05-2.82905E-05-2.86561E-05 1.73791E-07-4.20034E-19-4.60303E-21
 -1      3865 9.52314E-05-2.84503E-05-2.86210E-05 7.15510E-08-2.95316E-19 1.26044E-18
 -1      3866 9.52239E-05-2.84223E-05-2.86288E-05 9.81267E-08 1.38180E-18 1.30801E-18
 -1      3867 9.52013E-05-2.83810E-05-2.86370E-05 1.07425E-07 4.95259E-20 1.05133E-18
 -1      3868 9.52473E-05-2.84962E-05-2.86080E-05 3.39352E-08-7.92283E-20 5.92248E-19
 -1      3869 9.52430E-05-2.84760E-05-2.86140E-05 5.21974E-08-5.10947E-19 1.06310E-18
 -1      3870 9.52310E-05-2.84477E-05-2.86213E-05 6.03735E-08 1.28073E-19 1.13924E-18
 -1      3871 9.52561E-05-2.85286E-05-2.85977E-05 8.86341E-09 1.69640E-18-1.19252E-19
 -1      3872 9.52540E-05-2.85144E-05-2.86024E-05 2.09544E-08 1.24896E-18 4.71211E-19
 -1      3873 9.52492E-05-2.84956E-05-2.86086E-05 2.79563E-08 8.61586E-19 7.80891E-19
 -1      3874 9.52600E-05-2.85507E-05-2.85898E-05-7.06034E-09 1.23400E-18-5.06348E-20
 -1      3875 9.52594E-05-2.85410E-05-2.85934E-05 5.44937E-10 1.69713E-18-1.51588E-19
 -1      3876 9.52592E-05-2.85292E-05-2.85985E-05 6.41658E-09 1.81094E-18 6.21297E-19
 -1      3877 9.52606E-05-2.85652E-05-2.85838E-05-1.64640E-08 9.37127E-19-2.04830E-19
 -1      3878 9.52610E-05-2.85589E-05-2.85865E-05-1.20444E-08 1.30797E-18-4.50266E-20
 -1      3879 9.52635E-05-2.85520E-05-2.85906E-05-7.20336E-09 1.28751E-18 6.68203E-19
 -1      3880 9.52593E-05-2.85743E-05-2.85793E-05-2.13436E-08-4.74964E-19-1.47173E-18
 -1      3881 9.52602E-05-2.85704E-05-2.85813E-05-1.91268E-08 4.23878E-19-4.59822E-19
 -1      3882 9.52641E-05-2.85669E-05-2.85846E-05-1.51895E-08 1.11293E-18 1.07733E-18
 -1      3883 9.52568E-05-2.85796E-05-2.85760E-05-2.31688E-08-6.14538E-19-2.72452E-19
 -1      3884 9.52580E-05-2.85773E-05-2.85774E-05-2.24350E-08-7.10101E-19-1.21928E-18
 -1      3885 9.52625E-05-2.85760E-05-2.85799E-05-1.92746E-08-4.34318E-19 1.19646E-19
 -1      3886 9.52538E-05-2.85824E-05-2.85735E-05-2.30019E-08-1.40721E-18 4.48740E-19
 -1      3887 9.52551E-05-2.85811E-05-2.85745E-05-2.32357E-08-1.05133E-18 4.00941E-19
 -1      3888 9.52596E-05-2.85813E-05-2.85764E-05-2.07328E-08-1.74836E-18 1.65821E-19
 -1      3889 9.52571E-05-2.85855E-05-2.85736E-05 1.77434E-08 1.15781E-18-1.87591E-18
 -1      3890 6.13233E-05-8.24039E-06-2.27069E-05-1.96366E-06 1.47079E-19-5.60913E-18
 -1      3891 6.27196E-05-1.01551E-05-2.24922E-05-9.47670E-06-4.48289E-19-5.50471E-18
 -1      3892 6.46174E-05-8.21749E-06-2.40900E-05 4.10162E-06 2.91752E-19-5.58849E-18
 -1      3893 7.85964E-05-2.76701E-05-2.20185E-05 2.16455E-05-2.64200E-18-2.98288E-19
 -1      3894 6.98966E-05-2.13573E-05-2.05310E-05 1.81577E-05-2.62631E-18-6.23099E-20
 -1      3895 9.92293E-05-4.07142E-05-2.51988E-05 2.03587E-05-2.13276E-18 2.55433E-21
 -1      3896 8.86334E-05-3.33827E-05-2.34091E-05 2.22524E-05-2.75154E-18 6.29527E-19
 -1      3897 6.88802E-05-1.15260E-05-2.44254E-05-9.37226E-06-1.20715E-19-5.00471E-18
 -1      3898 6.78130E-05-8.97537E-06-2.51796E-05-6.18846E-06 1.24213E-19-5.25874E-18
 -1      3899 8.39791E-05-2.13404E-05-2.68831E-05-1.31486E-05-7.67921E-20-3.61686E-18
 -1      3900 9.19182E-05-3.24827E-05-2.53193E-05 2.02247E-05 1.74165E-18-3.11151E-18
 -1      3901 1.09123E-04-4.19862E-05-2.88740E-05-1.13512E-05-1.06138E-18-1.15211E-18
 -1      3902 1.08578E-04-3.95619E-05-2.95911E-05-8.41086E-06-3.83871E-19-1.37352E-18
 -1      3903 1.06075E-04-3.66410E-05-2.96909E-05-8.32347E-06-3.91306E-20-1.45614E-18
 -1      3904 1.03919E-04-3.88092E-05-2.77109E-05-1.50044E-05-1.25940E-18-1.78847E-18
 -1      3905 7.23990E-05-1.99285E-05-2.23588E-05-1.35948E-05 7.82859E-19 9.74267E-19
 -1      3906 8.03346E-05-2.54248E-05-2.35893E-05-1.72989E-05 1.09404E-18-1.52214E-19
 -1      3907 6.76244E-05-1.34521E-05-2.31016E-05-1.32801E-05-5.20125E-19-4.93721E-18
 -1      3908 9.52484E-05-2.85841E-05-2.85704E-05-2.03099E-08 2.23961E-19-9.20765E-21
 -1      3909 6.49983E-05-1.52272E-05-2.12568E-05-1.56681E-06-3.21775E-19 8.41236E-19
 -1      3910 6.70334E-05-1.68026E-05-2.16107E-05-8.50417E-06 3.58970E-19 1.24538E-18
 -1      3911 7.56434E-05-1.99668E-05-2.40122E-05-1.77945E-05-8.50722E-19-4.36520E-18
 -1      3912 7.00191E-05-1.63108E-05-2.31350E-05 1.58310E-05 1.23784E-18-4.97316E-18
 -1      3913 6.57105E-05-7.63173E-06-2.49792E-05-3.31051E-06 9.13786E-21-5.22532E-18
 -1      3914 9.10342E-05-2.71254E-05-2.73920E-05 1.15414E-05-1.00323E-18 1.76500E-19
 -1      3915 9.20763E-05-2.85632E-05-2.71651E-05 1.24847E-05-1.16899E-18 6.43955E-19
 -1      3916 8.84548E-05-2.53334E-05-2.70604E-05 1.10303E-05-6.84939E-19 4.39514E-19
 -1      3917 9.52511E-05-2.85846E-05-2.85714E-05-2.00344E-08 2.95782E-19-3.19002E-19
 -1      3918 6.34194E-05-7.56746E-06-2.39308E-05 6.13937E-07 2.70204E-19-5.43577E-18
 -1      3919 7.67829E-05-2.02320E-05-2.40732E-05 1.72287E-05 1.29635E-18-4.56968E-18
 -1      3920 8.17468E-05-2.17678E-05-2.56491E-05-1.54006E-05-4.47485E-19-3.83998E-18
 -1      3921 8.48330E-05-2.64497E-05-2.50662E-05 1.91704E-05 1.34779E-18-3.83419E-18
 -1      3922 9.52594E-05-2.85872E-05-2.85738E-05-1.31444E-08-1.66562E-18-2.20096E-19
 -1      3923 9.52574E-05-2.85864E-05-2.85734E-05-1.58333E-08-2.61937E-19-1.09651E-18
 -1      3924 1.03109E-04-3.52639E-05-2.91865E-05-1.02089E-05 8.10389E-21-1.93157E-18
 -1      3925 9.52627E-05-2.85886E-05-2.85746E-05 1.88207E-09 7.92054E-19 7.75446E-20
 -1      3926 9.52627E-05-2.85886E-05-2.85746E-05-1.87624E-09-2.01934E-19-1.54590E-18
 -1      3927 8.89472E-05-2.77165E-05-2.62978E-05 1.39428E-05-1.49514E-18 7.14184E-19
 -1      3928 9.87006E-05-3.38899E-05-2.77161E-05-1.42623E-05-7.13830E-19-2.31579E-18
 -1      3929 9.52595E-05-2.85866E-05-2.85741E-05 1.45374E-08 1.07608E-18-4.11983E-19
 -1      3930 9.52507E-05-2.85837E-05-2.85716E-05-2.15782E-08 9.60050E-20-2.82409E-19
 -1      3931 9.52519E-05-2.85831E-05-2.85723E-05-2.23928E-08-2.22071E-19 3.22748E-19
 -1      3932 9.52561E-05-2.85840E-05-2.85738E-05-2.04497E-08-9.40461E-19 3.67243E-20
 -1      3933 9.52621E-05-2.85884E-05-2.85745E-05-5.82846E-09-8.70308E-19-1.44932E-18
 -1      3934 9.52610E-05-2.85879E-05-2.85742E-05-9.41908E-09-1.27460E-18-2.83329E-20
 -1      3935 9.52622E-05-2.85868E-05-2.85751E-05-1.15590E-08-7.18857E-19 4.19608E-20
 -1      3936 9.52644E-05-2.85876E-05-2.85758E-05-3.93771E-09 2.84726E-19-6.46213E-19
 -1      3937 8.46482E-05-2.92366E-05-2.36329E-05 1.92150E-05-1.89776E-18 7.75444E-19
 -1      3938 9.52611E-05-2.85879E-05-2.85742E-05 9.55361E-09 1.46496E-18 2.29471E-18
 -1      3939 9.52622E-05-2.85884E-05-2.85745E-05 5.92594E-09 7.46116E-19 1.74411E-18
 -1      3940 9.52645E-05-2.85876E-05-2.85758E-05 3.98490E-09 1.27763E-18 4.49117E-19
 -1      3941 8.32699E-05-2.66714E-05-2.42549E-05-1.71745E-05 8.25139E-19-8.57323E-20
 -1      3942 6.52073E-05-1.51652E-05-2.13537E-05 1.08338E-06-5.94333E-19 2.89513E-20
 -1      3943 6.87682E-05-1.61344E-05-2.25164E-05-1.60830E-06-1.88780E-19 5.15079E-19
 -1      3944 6.62345E-05-1.58361E-05-2.16145E-05 4.35198E-06-1.07122E-18-4.24172E-19
 -1      3945 7.29007E-05-1.88625E-05-2.30601E-05-9.68013E-06 4.73015E-19 9.23822E-19
 -1      3946 6.98394E-05-1.96274E-05-2.14459E-05 1.35794E-05-2.04688E-18 2.00495E-19
 -1      3947 8.21931E-05-2.12453E-05-2.60932E-05-8.64342E-06 3.77203E-20 2.30988E-19
 -1      3948 8.29325E-05-2.10944E-05-2.65467E-05-7.52953E-06 8.31722E-20 2.34822E-19
 -1      3949 8.43242E-05-2.12896E-05-2.70062E-05-6.64411E-06-3.18058E-19 3.22703E-19
 -1      3950 8.51127E-05-2.14086E-05-2.73342E-05-5.84665E-06-9.62693E-20-4.98643E-20
 -1      3951 8.20646E-05-2.01295E-05-2.65010E-05-5.77735E-06-3.61114E-20 2.85403E-19
 -1      3952 8.62613E-05-2.17297E-05-2.76539E-05-5.23448E-06 4.30470E-19-5.97658E-20
 -1      3953 8.69958E-05-2.19913E-05-2.78819E-05-4.64078E-06 4.90979E-19-7.43861E-19
 -1      3954 8.45812E-05-2.08142E-05-2.72983E-05-4.44762E-06 2.65807E-19 5.20173E-19
 -1      3955 8.79472E-05-2.23777E-05-2.81012E-05-4.18625E-06 1.26689E-19-1.01980E-18
 -1      3956 8.86035E-05-2.27164E-05-2.82543E-05-3.72043E-06-1.54020E-19-9.26891E-19
 -1      3957 8.66567E-05-2.16201E-05-2.78493E-05-3.51973E-06 2.48421E-19 1.55093E-19
 -1      3958 8.93981E-05-2.31318E-05-2.84010E-05-3.36764E-06-7.50122E-20-3.85030E-19
 -1      3959 8.99660E-05-2.34987E-05-2.84992E-05-2.98938E-06 1.83785E-19-6.20099E-20
 -1      3960 8.83830E-05-2.24827E-05-2.82239E-05-2.81329E-06 2.52160E-19 1.21775E-19
 -1      3961 9.06259E-05-2.39115E-05-2.85933E-05-2.70383E-06-3.16815E-19-3.70164E-19
 -1      3962 9.11073E-05-2.42775E-05-2.86519E-05-2.38967E-06-4.54232E-19-3.88918E-19
 -1      3963 8.98203E-05-2.33526E-05-2.84715E-05-2.25827E-06-1.22355E-19 5.58306E-20
 -1      3964 9.16517E-05-2.46686E-05-2.87083E-05-2.15629E-06-6.81032E-19-4.17756E-19
 -1      3965 9.20511E-05-2.50133E-05-2.87390E-05-1.89414E-06-7.43098E-19-5.44820E-19
 -1      3966 9.10126E-05-2.41884E-05-2.86271E-05-1.80176E-06-6.41312E-19-5.39094E-20
 -1      3967 9.24938E-05-2.53684E-05-2.87691E-05-1.70280E-06-1.15988E-19-4.79579E-19
 -1      3968 9.28185E-05-2.56791E-05-2.87809E-05-1.48456E-06 4.00602E-19 8.01652E-20
 -1      3969 9.19896E-05-2.49608E-05-2.87173E-05-1.42721E-06-7.90461E-20 4.13619E-20
 -1      3970 9.31738E-05-2.59914E-05-2.87932E-05-1.32779E-06 1.86034E-19-7.61887E-19
 -1      3971 9.34330E-05-2.62626E-05-2.87928E-05-1.14764E-06 3.48058E-19-1.39712E-18
 -1      3972 9.27792E-05-2.56499E-05-2.87623E-05-1.11784E-06 2.07561E-19-3.80697E-19
 -1      3973 9.37140E-05-2.65300E-05-2.87936E-05-1.02029E-06 2.99291E-19-1.11055E-18
 -1      3974 9.39173E-05-2.67605E-05-2.87859E-05-8.73403E-07 2.05620E-19-1.13864E-18
 -1      3975 9.34089E-05-2.62482E-05-2.87774E-05-8.63442E-07 1.86369E-19-1.16893E-18
 -1      3976 9.41364E-05-2.69843E-05-2.87797E-05-7.71226E-07 1.73284E-19-1.22949E-18
 -1      3977 9.42931E-05-2.71758E-05-2.87681E-05-6.53169E-07 3.83410E-19-1.40551E-18
 -1      3978 9.39037E-05-2.67556E-05-2.87733E-05-6.56450E-07-6.63176E-20-1.68420E-18
 -1      3979 9.44610E-05-2.73592E-05-2.87580E-05-5.72363E-07 3.34456E-19-1.02402E-18
 -1      3980 9.45796E-05-2.75150E-05-2.87447E-05-4.78945E-07 5.21545E-20-8.13659E-19
 -1      3981 9.42865E-05-2.71766E-05-2.87580E-05-4.90307E-07 4.39006E-19-1.20210E-18
 -1      3982 9.47061E-05-2.76624E-05-2.87330E-05-4.16040E-07-4.12891E-19-2.03243E-19
 -1      3983 9.47942E-05-2.77869E-05-2.87195E-05-3.43320E-07-6.64677E-19-1.92807E-19
 -1      3984 9.45777E-05-2.75192E-05-2.87368E-05-3.58965E-07 2.30160E-19-2.08931E-19
 -1      3985 9.48877E-05-2.79033E-05-2.87075E-05-2.95168E-07-8.37729E-19 3.10426E-19
 -1      3986 9.49519E-05-2.80008E-05-2.86949E-05-2.39521E-07-6.35286E-19 6.71063E-19
 -1      3987 9.47952E-05-2.77928E-05-2.87135E-05-2.56808E-07-3.78736E-19 5.23619E-19
 -1      3988 9.50195E-05-2.80911E-05-2.86835E-05-2.03321E-07-9.13451E-19 1.48227E-18
 -1      3989 9.50650E-05-2.81662E-05-2.86721E-05-1.61507E-07-4.06718E-19 1.36303E-18
 -1      3990 9.49545E-05-2.80073E-05-2.86903E-05-1.78704E-07-3.20759E-19 8.83491E-19
 -1      3991 9.51127E-05-2.82349E-05-2.86618E-05-1.34821E-07-9.87897E-19-3.95605E-19
 -1      3992 9.51441E-05-2.82917E-05-2.86519E-05-1.04012E-07-1.21149E-18-1.41062E-18
 -1      3993 9.50685E-05-2.81727E-05-2.86687E-05-1.20075E-07-1.54137E-18-6.26758E-20
 -1      3994 9.51768E-05-2.83430E-05-2.86429E-05-8.47685E-08-1.09118E-18-1.44086E-18
 -1      3995 9.51976E-05-2.83851E-05-2.86345E-05-6.25605E-08-1.34152E-18-2.48050E-18
 -1      3996 9.51479E-05-2.82977E-05-2.86494E-05-7.69326E-08-1.27256E-18-1.16633E-18
 -1      3997 9.52190E-05-2.84226E-05-2.86269E-05-4.90329E-08-1.69817E-18-1.95028E-18
 -1      3998 9.52322E-05-2.84532E-05-2.86200E-05-3.34271E-08-2.26520E-18-1.62990E-18
 -1      3999 9.52013E-05-2.83904E-05-2.86328E-05-4.58857E-08-1.50586E-18-1.42797E-18
 -1      4000 9.52455E-05-2.84800E-05-2.86137E-05-2.42076E-08-1.91193E-18-9.49227E-19
 -1      4001 9.52531E-05-2.85016E-05-2.86081E-05-1.35757E-08-2.65275E-19-7.92821E-19
 -1      4002 9.52355E-05-2.84577E-05-2.86188E-05-2.41149E-08-1.04538E-18-7.91181E-19
 -1      4003 9.52606E-05-2.85202E-05-2.86029E-05-7.53913E-09 2.86628E-19-1.99641E-18
 -1      4004 9.52644E-05-2.85350E-05-2.85985E-05-5.81308E-10-8.13552E-20-1.89516E-18
 -1      4005 9.52560E-05-2.85054E-05-2.86073E-05-9.32471E-09-9.22098E-19-7.86443E-19
 -1      4006 9.52679E-05-2.85475E-05-2.85944E-05 3.15509E-09-1.01541E-19-1.55411E-18
 -1      4007 9.52691E-05-2.85573E-05-2.85909E-05 7.45624E-09 3.81799E-19-2.03009E-18
 -1      4008 9.52668E-05-2.85381E-05-2.85979E-05 3.16573E-10 1.53915E-19-1.59441E-18
 -1      4009 9.52699E-05-2.85653E-05-2.85876E-05 9.57224E-09 5.43551E-19-1.69500E-18
 -1      4010 9.52695E-05-2.85715E-05-2.85849E-05 1.19977E-08 1.80234E-19-1.66468E-18
 -1      4011 9.52710E-05-2.85598E-05-2.85905E-05 6.24289E-09 5.49079E-19-1.72551E-18
 -1      4012 9.52686E-05-2.85763E-05-2.85824E-05 1.29929E-08-6.27546E-19-7.65884E-19
 -1      4013 9.52672E-05-2.85800E-05-2.85803E-05 1.41522E-08-6.96416E-19-1.08876E-18
 -1      4014 9.52710E-05-2.85734E-05-2.85847E-05 9.53924E-09 6.62370E-19-1.93250E-18
 -1      4015 9.52655E-05-2.85827E-05-2.85783E-05 1.43868E-08-1.02371E-18-1.14947E-18
 -1      4016 9.52636E-05-2.85846E-05-2.85767E-05 1.46590E-08-5.43524E-19-1.37304E-18
 -1      4017 9.52683E-05-2.85815E-05-2.85801E-05 1.11103E-08-6.41506E-19-2.48764E-18
 -1      4018 8.94826E-05-2.34015E-05-2.83369E-05 4.81922E-06-2.86709E-19 3.75940E-19
 -1      4019 8.90430E-05-2.32220E-05-2.82029E-05 5.39182E-06 2.79008E-21 6.09384E-19
 -1      4020 8.82860E-05-2.30051E-05-2.79985E-05 6.01982E-06 1.13270E-19 3.61890E-19
 -1      4021 8.78744E-05-2.29778E-05-2.78010E-05 6.73526E-06 2.25327E-19 2.86755E-19
 -1      4022 8.75693E-05-2.23908E-05-2.79176E-05 5.02875E-06-8.33554E-20 2.37578E-19
 -1      4023 8.70393E-05-2.29212E-05-2.75075E-05 7.57760E-06-1.03772E-19 1.34962E-19
 -1      4024 8.67429E-05-2.31612E-05-2.72302E-05 8.50068E-06-4.55614E-19 2.72813E-19
 -1      4025 8.59708E-05-2.19920E-05-2.74018E-05 6.40376E-06-2.15134E-19-2.80844E-20
 -1      4026 9.05724E-05-2.39646E-05-2.85596E-05 3.85812E-06 2.54171E-19-9.58355E-19
 -1      4027 9.01512E-05-2.37033E-05-2.84745E-05 4.32797E-06 3.24688E-19 1.60088E-19
 -1      4028 8.89875E-05-2.29855E-05-2.82726E-05 3.98601E-06 4.01292E-19-1.04556E-20
 -1      4029 9.15290E-05-2.45951E-05-2.86970E-05 3.07540E-06 7.14687E-19-7.44813E-19
 -1      4030 9.11507E-05-2.43025E-05-2.86477E-05 3.46600E-06 5.13898E-19-7.59553E-19
 -1      4031 9.02259E-05-2.36800E-05-2.85078E-05 3.16925E-06 5.79795E-19 2.05960E-19
 -1      4032 9.23450E-05-2.52287E-05-2.87732E-05 2.43118E-06-2.44358E-19-1.62872E-19
 -1      4033 9.20188E-05-2.49351E-05-2.87492E-05 2.75686E-06 3.62416E-19-7.57756E-19
 -1      4034 9.12854E-05-2.43998E-05-2.86552E-05 2.51135E-06 1.21013E-19 1.06952E-18
 -1      4035 9.30233E-05-2.58246E-05-2.88069E-05 1.90124E-06-7.70055E-19-2.26310E-19
 -1      4036 9.27511E-05-2.55493E-05-2.88001E-05 2.17170E-06-3.69674E-19-1.37690E-19
 -1      4037 9.21732E-05-2.50951E-05-2.87395E-05 1.97655E-06-1.55892E-19 7.54833E-19
 -1      4038 9.35749E-05-2.63600E-05-2.88124E-05 1.46759E-06-1.45517E-18-5.92295E-19
 -1      4039 9.33537E-05-2.61135E-05-2.88167E-05 1.69020E-06-1.28080E-18-7.16038E-19
 -1      4040 9.29025E-05-2.57334E-05-2.87801E-05 1.54025E-06-9.16782E-19-2.08159E-19
 -1      4041 9.40147E-05-2.68248E-05-2.88006E-05 1.11610E-06-4.39020E-19-1.26438E-18
 -1      4042 9.38391E-05-2.66115E-05-2.88112E-05 1.29714E-06-1.03571E-18-1.41118E-18
 -1      4043 9.34909E-05-2.62985E-05-2.87915E-05 1.18535E-06-7.70246E-19-1.64768E-18
 -1      4044 9.43588E-05-2.72172E-05-2.87788E-05 8.34699E-07 1.32172E-19-4.10334E-19
 -1      4045 9.42221E-05-2.70378E-05-2.87927E-05 9.79907E-07-7.37710E-20-1.12604E-18
 -1      4046 9.39574E-05-2.67841E-05-2.87845E-05 8.99021E-07-5.41383E-19-2.27203E-18
 -1      4047 9.46228E-05-2.75409E-05-2.87524E-05 6.12540E-07 2.79729E-19 4.81503E-19
 -1      4048 9.45187E-05-2.73934E-05-2.87675E-05 7.27271E-07 3.15286E-19-4.07451E-19
 -1      4049 9.43207E-05-2.71912E-05-2.87667E-05 6.70634E-07-3.67736E-19-8.20045E-19
 -1      4050 9.48217E-05-2.78022E-05-2.87249E-05 4.39791E-07 5.03389E-19 5.44602E-19
 -1      4051 9.47440E-05-2.76836E-05-2.87397E-05 5.29016E-07 5.37022E-19 8.31050E-19
 -1      4052 9.45986E-05-2.75251E-05-2.87435E-05 4.90881E-07 1.81054E-19 1.98864E-19
 -1      4053 9.49683E-05-2.80092E-05-2.86985E-05 3.07621E-07 8.24395E-19-1.03992E-18
 -1      4054 9.49116E-05-2.79155E-05-2.87121E-05 3.75862E-07 9.00674E-19-8.40920E-20
 -1      4055 9.48072E-05-2.77934E-05-2.87185E-05 3.51478E-07 8.59116E-19-6.82834E-19
 -1      4056 9.50739E-05-2.81700E-05-2.86744E-05 2.08242E-07-2.40635E-19-3.14294E-19
 -1      4057 9.50336E-05-2.80974E-05-2.86865E-05 2.59516E-07 4.56303E-19-4.62715E-19
 -1      4058 9.49606E-05-2.80051E-05-2.86940E-05 2.45075E-07 5.80279E-19-8.76327E-19
 -1      4059 9.51481E-05-2.82926E-05-2.86533E-05 1.34923E-07-3.15361E-19 2.62680E-21
 -1      4060 9.51202E-05-2.82375E-05-2.86637E-05 1.72712E-07-4.28881E-19-5.45333E-19
 -1      4061 9.50707E-05-2.81689E-05-2.86713E-05 1.65252E-07-2.66157E-19-4.01553E-19
 -1      4062 9.51984E-05-2.83843E-05-2.86353E-05 8.19689E-08-3.16070E-19 4.63638E-19
 -1      4063 9.51798E-05-2.83432E-05-2.86440E-05 1.09225E-07-3.93042E-19 5.24420E-20
 -1      4064 9.51477E-05-2.82934E-05-2.86513E-05 1.06496E-07-1.52438E-19-1.06025E-18
 -1      4065 9.52310E-05-2.84514E-05-2.86203E-05 4.46550E-08-8.07180E-20 7.34960E-19
 -1      4066 9.52194E-05-2.84215E-05-2.86274E-05 6.38283E-08 1.46868E-19 1.37609E-18
 -1      4067 9.51998E-05-2.83862E-05-2.86340E-05 6.41611E-08-3.12805E-19 2.61579E-19
 -1      4068 9.52509E-05-2.84994E-05-2.86081E-05 1.91372E-08 1.59743E-18 2.98318E-19
 -1      4069 9.52441E-05-2.84781E-05-2.86138E-05 3.22197E-08 9.45283E-19 8.56515E-19
 -1      4070 9.52334E-05-2.84538E-05-2.86196E-05 3.44110E-08 5.45329E-19 1.00050E-18
 -1      4071 9.52618E-05-2.85328E-05-2.85984E-05 2.34613E-09 1.54186E-18 7.77274E-19
 -1      4072 9.52584E-05-2.85180E-05-2.86029E-05 1.09273E-08 1.57014E-18 5.81765E-19
 -1      4073 9.52536E-05-2.85019E-05-2.86078E-05 1.41320E-08 1.21927E-18 1.00051E-18
 -1      4074 9.52665E-05-2.85552E-05-2.85907E-05-8.12293E-09 4.46325E-19 2.01886E-18
 -1      4075 9.52654E-05-2.85454E-05-2.85942E-05-2.79908E-09 1.18169E-18 1.32028E-18
 -1      4076 9.52645E-05-2.85352E-05-2.85982E-05 8.44819E-10 6.46788E-19 1.67950E-18
 -1      4077 9.52671E-05-2.85696E-05-2.85847E-05-1.41146E-08 1.42293E-18 1.64144E-18
 -1      4078 9.52674E-05-2.85633E-05-2.85874E-05-1.10944E-08 1.22995E-18 1.69743E-18
 -1      4079 9.52689E-05-2.85574E-05-2.85907E-05-7.38582E-09 5.66404E-19 2.60017E-18
 -1      4080 9.52651E-05-2.85783E-05-2.85801E-05-1.70444E-08-1.13998E-18 9.20405E-19
 -1      4081 9.52664E-05-2.85745E-05-2.85821E-05-1.56028E-08 5.86295E-19 1.59060E-18
 -1      4082 9.52692E-05-2.85715E-05-2.85847E-05-1.20445E-08 1.00568E-18 2.64768E-18
 -1      4083 9.52618E-05-2.85832E-05-2.85766E-05-1.79467E-08-1.21326E-18-5.40188E-19
 -1      4084 9.52635E-05-2.85811E-05-2.85781E-05-1.75206E-08-7.44808E-19 5.24182E-20
 -1      4085 9.52668E-05-2.85799E-05-2.85801E-05-1.42602E-08-1.78799E-19 5.37997E-19
 -1      4086 9.52547E-05-2.85857E-05-2.85724E-05-1.82928E-08 2.58335E-19-2.95582E-19
 -1      4087 8.00471E-05-2.31495E-05-2.44087E-05-1.40517E-05 5.16677E-19-2.59056E-20
 -1      4088 8.31610E-05-2.65676E-05-2.42098E-05 1.69834E-05-1.32865E-18 5.06986E-19
 -1      4089 7.69789E-05-2.08186E-05-2.41072E-05-1.17311E-05 5.06555E-19 2.02646E-19
 -1      4090 7.95849E-05-2.18462E-05-2.46982E-05-1.18969E-05 2.51549E-19 2.68952E-19
 -1      4091 8.02801E-05-2.12393E-05-2.53477E-05-1.01962E-05 3.10898E-19 5.02623E-19
 -1      4092 7.25359E-05-1.77899E-05-2.34498E-05-7.21478E-06-8.68540E-21 7.22996E-19
 -1      4093 9.52574E-05-2.85856E-05-2.85736E-05-1.76116E-08-6.59560E-19-1.14039E-18
 -1      4094 8.37513E-05-2.41263E-05-2.55647E-05 1.26429E-05-1.19484E-18 3.96287E-19
 -1      4095 8.42633E-05-2.55153E-05-2.50889E-05 1.43135E-05-1.03494E-18 5.08048E-19
 -1      4096 7.72518E-05-2.26020E-05-2.33818E-05 1.50915E-05-1.04259E-18 2.38036E-19
 -1      4097 9.52593E-05-2.85846E-05-2.85748E-05-1.78744E-08-1.75449E-18-1.03492E-18
 -1      4098 7.33187E-05-2.04096E-05-2.27064E-05 1.27266E-05-1.14576E-18 6.11836E-19
 -1      4099 6.84540E-05-1.68181E-05-2.19633E-05 8.21475E-06-1.32925E-18 6.14375E-19
 -1      4100 7.01913E-05-1.67879E-05-2.28529E-05 4.54285E-06-4.23172E-19-2.32049E-20
 -1      4101 7.49836E-05-1.96942E-05-2.37443E-05 1.03688E-05-5.30646E-19 7.73394E-19
 -1      4102 8.58694E-05-2.33690E-05-2.68228E-05 9.63967E-06-7.09400E-19 3.42249E-19
 -1      4103 8.58746E-05-2.40447E-05-2.64703E-05 1.08601E-05-9.57996E-19 4.08906E-19
 -1      4104 8.42713E-05-2.19727E-05-2.66731E-05 8.28597E-06-3.72141E-19 8.37322E-20
 -1      4105 9.52628E-05-2.85847E-05-2.85764E-05-1.49655E-08-1.00113E-18-1.35316E-18
 -1      4106 7.87276E-05-1.96790E-05-2.52667E-05-7.94339E-06 9.83220E-20 5.92716E-20
 -1      4107 9.52653E-05-2.85860E-05-2.85769E-05 9.80426E-09 8.71139E-19 8.75272E-19
 -1      4108 9.52623E-05-2.85860E-05-2.85755E-05 1.29434E-08 6.61037E-19 5.16432E-19
 -1      4109 8.11650E-05-2.19652E-05-2.53502E-05 1.08759E-05-9.57565E-19 5.30818E-19
 -1      4110 9.52649E-05-2.85854E-05-2.85769E-05-1.13802E-08-4.49422E-19 6.28423E-19
 -1      4111 9.52670E-05-2.85866E-05-2.85773E-05-2.07584E-09 8.15759E-19-7.15634E-19
 -1      4112 9.52664E-05-2.85864E-05-2.85772E-05-5.86921E-09 4.63635E-19-1.68664E-19
 -1      4113 7.18945E-05-1.68178E-05-2.35580E-05-3.56036E-06-3.46109E-19 4.76982E-19
 -1      4114 7.55702E-05-1.83889E-05-2.44769E-05-5.89345E-06-6.33306E-20 1.94943E-19
 -1      4115 9.52664E-05-2.85863E-05-2.85772E-05 5.79838E-09 1.82506E-18 1.79890E-18
 -1      4116 9.52670E-05-2.85865E-05-2.85774E-05 1.95284E-09 1.78808E-18 3.03509E-19
 -1      4117 9.52689E-05-2.85849E-05-2.85788E-05-1.45488E-10 8.13322E-19 7.02735E-19
 -1      4118 9.52678E-05-2.85845E-05-2.85785E-05 7.56661E-09 1.14641E-18 3.17842E-19
 -1      4119 7.16442E-05-1.65517E-05-2.35921E-05-7.80483E-07-2.62530E-19 3.66856E-19
 -1      4120 8.10169E-05-2.07573E-05-2.58664E-05 8.15196E-06-6.01354E-19-2.66127E-19
 -1      4121 7.85449E-05-2.04556E-05-2.49353E-05 9.46597E-06-8.09156E-19-7.41741E-20
 -1      4122 7.59074E-05-1.87119E-05-2.44319E-05 7.17376E-06-3.06305E-19-2.93087E-19
 -1      4123 8.31816E-05-2.01651E-05-2.70211E-05-3.26469E-06 4.26829E-20 7.59091E-20
 -1      4124 8.43533E-05-2.05847E-05-2.73555E-05-2.81351E-06 2.94830E-19 2.42445E-19
 -1      4125 8.55828E-05-2.10757E-05-2.76542E-05-2.57759E-06 1.42303E-19-2.86696E-19
 -1      4126 8.65391E-05-2.15176E-05-2.78846E-05-2.24803E-06 2.72956E-19-1.64306E-19
 -1      4127 8.45140E-05-2.04835E-05-2.74138E-05-1.43299E-06-3.98314E-20-4.73812E-19
 -1      4128 8.75414E-05-2.20176E-05-2.80888E-05-2.06431E-06 2.03204E-19-1.24675E-18
 -1      4129 8.83302E-05-2.24702E-05-2.82435E-05-1.81960E-06-7.26866E-20-1.16485E-18
 -1      4130 8.67140E-05-2.14995E-05-2.79208E-05-1.16136E-06-2.23008E-19-1.77493E-18
 -1      4131 8.91450E-05-2.29410E-05-2.83801E-05-1.65517E-06-4.06861E-19-1.18026E-18
 -1      4132 8.98096E-05-2.33833E-05-2.84803E-05-1.45168E-06-4.39955E-19-1.19844E-18
 -1      4133 8.84605E-05-2.24514E-05-2.82599E-05-9.17738E-07-2.99250E-19-2.13027E-18
 -1      4134 9.04759E-05-2.38345E-05-2.85671E-05-1.32930E-06-2.13876E-19-7.21246E-19
 -1      4135 9.10251E-05-2.42484E-05-2.86279E-05-1.16101E-06-1.40446E-19-3.88554E-19
 -1      4136 8.99447E-05-2.34140E-05-2.84860E-05-7.48690E-07-4.14885E-20-1.46745E-18
 -1      4137 9.15649E-05-2.46572E-05-2.86798E-05-1.06083E-06-2.41730E-19-4.10161E-19
 -1      4138 9.20110E-05-2.50308E-05-2.87131E-05-9.19588E-07 1.25839E-19-4.53324E-19
 -1      4139 9.11396E-05-2.42931E-05-2.86269E-05-6.07357E-07 5.48834E-22-1.07314E-18
 -1      4140 9.24459E-05-2.53932E-05-2.87408E-05-8.37256E-07 7.47502E-21-6.78105E-19
 -1      4141 9.28039E-05-2.57212E-05-2.87555E-05-7.18708E-07 8.14244E-20-7.18442E-19
 -1      4142 9.21071E-05-2.50816E-05-2.87083E-05-4.85251E-07 3.93875E-19-1.50190E-18
 -1      4143 9.31504E-05-2.60348E-05-2.87668E-05-6.51755E-07 4.01962E-19-1.11756E-18
 -1      4144 9.34339E-05-2.63158E-05-2.87693E-05-5.53203E-07 2.21679E-19-1.50090E-18
 -1      4145 9.28835E-05-2.57725E-05-2.87487E-05-3.81599E-07 1.16702E-19-1.74345E-18
 -1      4146 9.37061E-05-2.65811E-05-2.87701E-05-4.99469E-07 5.71210E-20-9.93586E-19
 -1      4147 9.39271E-05-2.68166E-05-2.87651E-05-4.18654E-07 9.47341E-20-1.14255E-18
 -1      4148 9.34987E-05-2.63641E-05-2.87618E-05-2.95093E-07 6.39052E-19-2.09850E-18
 -1      4149 9.41379E-05-2.70365E-05-2.87594E-05-3.76171E-07 2.46847E-19-1.04203E-18
 -1      4150 9.43075E-05-2.72299E-05-2.87502E-05-3.10921E-07 8.05491E-19-1.01974E-18
 -1      4151 9.39791E-05-2.68600E-05-2.87577E-05-2.24117E-07 5.22392E-19-1.04631E-18
 -1      4152 9.44680E-05-2.74085E-05-2.87410E-05-2.77879E-07 6.46629E-19-1.25399E-18
 -1      4153 9.45959E-05-2.75644E-05-2.87298E-05-2.26052E-07-1.14105E-20-5.80952E-19
 -1      4154 9.43484E-05-2.72675E-05-2.87433E-05-1.66898E-07 4.12454E-19-2.25439E-18
 -1      4155 9.47159E-05-2.77069E-05-2.87190E-05-2.00802E-07-5.31112E-19-4.38176E-19
 -1      4156 9.48106E-05-2.78302E-05-2.87074E-05-1.60328E-07-2.11598E-19-1.37093E-19
 -1      4157 9.46276E-05-2.75961E-05-2.87236E-05-1.21591E-07-4.49749E-20-1.95227E-18
 -1      4158 9.48986E-05-2.79419E-05-2.86963E-05-1.41396E-07-5.00964E-19-3.34832E-19
 -1      4159 9.49672E-05-2.80378E-05-2.86851E-05-1.10337E-07-9.59286E-19-9.43835E-19
 -1      4160 9.48348E-05-2.78564E-05-2.87020E-05-8.63698E-08-7.03032E-19-1.48318E-18
 -1      4161 9.50303E-05-2.81238E-05-2.86746E-05-9.64349E-08-1.73658E-18-6.83656E-19
 -1      4162 9.50788E-05-2.81969E-05-2.86644E-05-7.30359E-08-1.82529E-18-1.12394E-18
 -1      4163 9.49853E-05-2.80590E-05-2.86806E-05-5.95017E-08-1.60599E-18-1.43431E-18
 -1      4164 9.51228E-05-2.82619E-05-2.86549E-05-6.30632E-08-9.88025E-19-1.36145E-18
 -1      4165 9.51560E-05-2.83167E-05-2.86459E-05-4.57793E-08-7.83042E-19-9.32773E-19
 -1      4166 9.50920E-05-2.82137E-05-2.86607E-05-3.94094E-08-1.00575E-18-1.34990E-18
 -1      4167 9.51857E-05-2.83648E-05-2.86377E-05-3.88190E-08-7.40303E-19-7.48524E-19
 -1      4168 9.52075E-05-2.84050E-05-2.86300E-05-2.63284E-08-4.91452E-19-1.76604E-19
 -1      4169 9.51655E-05-2.83298E-05-2.86430E-05-2.47031E-08-7.57597E-19-2.01842E-18
 -1      4170 9.52267E-05-2.84399E-05-2.86230E-05-2.16315E-08-9.11722E-19-1.13589E-18
 -1      4171 9.52403E-05-2.84687E-05-2.86166E-05-1.28297E-08-1.07824E-18-6.73751E-19
 -1      4172 9.52141E-05-2.84150E-05-2.86276E-05-1.41946E-08-4.85427E-19-1.74445E-18
 -1      4173 9.52518E-05-2.84934E-05-2.86108E-05-9.79698E-09-9.14089E-19-9.13502E-19
 -1      4174 9.52595E-05-2.85135E-05-2.86056E-05-3.78167E-09-3.98971E-19-1.22634E-18
 -1      4175 9.52447E-05-2.84762E-05-2.86148E-05-6.89326E-09-9.33741E-19-1.76704E-18
 -1      4176 9.52656E-05-2.85304E-05-2.86008E-05-1.94356E-09 4.49640E-19-4.35608E-19
 -1      4177 9.52693E-05-2.85439E-05-2.85966E-05 2.00666E-09 8.81298E-19-2.60454E-19
 -1      4178 9.52623E-05-2.85189E-05-2.86041E-05-1.99210E-09 8.78063E-19-3.96004E-20
 -1      4179 9.52718E-05-2.85551E-05-2.85928E-05 3.00954E-09-5.81945E-20 1.50609E-19
 -1      4180 9.52727E-05-2.85639E-05-2.85895E-05 5.45710E-09 6.03245E-19 7.26218E-19
 -1      4181 9.52709E-05-2.85479E-05-2.85955E-05 1.15469E-09 1.01218E-18 1.32025E-18
 -1      4182 9.52728E-05-2.85709E-05-2.85865E-05 5.90723E-09 5.17798E-19-6.92899E-19
 -1      4183 9.52720E-05-2.85762E-05-2.85839E-05 7.19083E-09 6.91108E-19-5.54414E-19
 -1      4184 9.52735E-05-2.85666E-05-2.85887E-05 3.07491E-09-2.92345E-19 1.12078E-18
 -1      4185 9.52710E-05-2.85794E-05-2.85821E-05 7.13817E-09 3.35046E-19-1.12401E-18
 -1      4186 9.52693E-05-2.85826E-05-2.85800E-05 7.69456E-09-9.85822E-20-4.85066E-19
 -1      4187 9.52702E-05-2.85828E-05-2.85804E-05 3.96918E-09 7.70165E-19 7.75764E-19
 -1      4188 9.52725E-05-2.85771E-05-2.85838E-05 3.87207E-09 9.82026E-20 4.01401E-19
 -1      4189 8.99919E-05-2.35470E-05-2.84918E-05 2.35501E-06-2.80370E-20 1.19013E-18
 -1      4190 8.94179E-05-2.31664E-05-2.83954E-05 2.67569E-06 5.26089E-19 7.39727E-19
 -1      4191 8.86269E-05-2.27361E-05-2.82574E-05 2.98542E-06 5.28809E-19 3.39115E-19
 -1      4192 8.79693E-05-2.23798E-05-2.81084E-05 3.39956E-06 4.60202E-19 3.89486E-19
 -1      4193 8.85315E-05-2.25659E-05-2.82456E-05 2.11047E-06-8.89695E-20 5.92216E-19
 -1      4194 8.51370E-05-2.13025E-05-2.73832E-05 4.82058E-06-6.43249E-19-3.27683E-19
 -1      4195 8.42501E-05-2.10936E-05-2.70653E-05 5.55735E-06-2.55862E-19-6.01407E-19
 -1      4196 9.11336E-05-2.43381E-05-2.86389E-05 1.85557E-06 3.98832E-19 8.52020E-19
 -1      4197 9.06469E-05-2.39637E-05-2.85806E-05 2.11520E-06-3.73257E-20 1.30207E-18
 -1      4198 8.99582E-05-2.34412E-05-2.84783E-05 1.67071E-06 1.98592E-19 1.08510E-19
 -1      4199 9.20738E-05-2.50749E-05-2.87236E-05 1.45262E-06-4.40732E-19 1.13413E-18
 -1      4200 9.16709E-05-2.47266E-05-2.86922E-05 1.66577E-06 5.72626E-19 1.27606E-18
 -1      4201 9.11280E-05-2.42809E-05-2.86246E-05 1.31331E-06 5.02240E-19 3.02847E-19
 -1      4202 9.28380E-05-2.57374E-05-2.87652E-05 1.12557E-06-6.03158E-19-3.30860E-19
 -1      4203 9.25106E-05-2.54254E-05-2.87521E-05 1.30087E-06-7.00117E-19 3.49933E-19
 -1      4204 9.20828E-05-2.50490E-05-2.87095E-05 1.02410E-06 4.96352E-20 4.59895E-19
 -1      4205 9.34501E-05-2.63156E-05-2.87781E-05 8.61119E-07 3.61234E-20-1.49971E-18
 -1      4206 9.31886E-05-2.60445E-05-2.87770E-05 1.00447E-06-1.99697E-19-7.79549E-19
 -1      4207 9.28543E-05-2.57308E-05-2.87522E-05 7.90505E-07-1.02777E-20-5.37858E-19
 -1      4208 9.39326E-05-2.68075E-05-2.87728E-05 6.49117E-07-8.58033E-19-1.58536E-18
 -1      4209 9.37275E-05-2.65779E-05-2.87790E-05 7.65145E-07-3.11228E-19-1.68431E-18
 -1      4210 9.34692E-05-2.63203E-05-2.87665E-05 6.02742E-07-7.11257E-20-6.33671E-19
 -1      4211 9.43067E-05-2.72165E-05-2.87568E-05 4.81078E-07 4.56546E-20-1.58954E-18
 -1      4212 9.41487E-05-2.70264E-05-2.87670E-05 5.73812E-07-3.69636E-19-1.88151E-18
 -1      4213 9.39519E-05-2.68181E-05-2.87628E-05 4.53002E-07-5.64631E-19-2.51283E-18
 -1      4214 9.45918E-05-2.75498E-05-2.87353E-05 3.49636E-07 3.85878E-19-1.52393E-18
 -1      4215 9.44723E-05-2.73955E-05-2.87473E-05 4.22711E-07 1.13099E-19-1.67718E-18
 -1      4216 9.43247E-05-2.72298E-05-2.87484E-05 3.34829E-07 2.93590E-19-3.28022E-18
 -1      4217 9.48050E-05-2.78160E-05-2.87118E-05 2.48317E-07 8.20548E-19-1.40622E-18
 -1      4218 9.47164E-05-2.76933E-05-2.87242E-05 3.05030E-07 6.77988E-19-1.47225E-18
 -1      4219 9.46078E-05-2.75636E-05-2.87284E-05 2.42721E-07 6.10792E-19-2.53992E-18
 -1      4220 9.49612E-05-2.80249E-05-2.86887E-05 1.71456E-07-1.72338E-19-1.08786E-18
 -1      4221 9.48970E-05-2.79290E-05-2.87005E-05 2.14762E-07 5.78517E-19-1.82752E-18
 -1      4222 9.48186E-05-2.78292E-05-2.87063E-05 1.71934E-07 6.58887E-19-2.08366E-18
 -1      4223 9.50730E-05-2.81857E-05-2.86672E-05 1.14160E-07-2.37175E-19-7.52570E-19
 -1      4224 9.50276E-05-2.81122E-05-2.86779E-05 1.46657E-07-3.38986E-19-8.38931E-19
 -1      4225 9.49725E-05-2.80368E-05-2.86843E-05 1.18371E-07-3.27681E-19-1.76424E-18
 -1      4226 9.51509E-05-2.83073E-05-2.86481E-05 7.22719E-08 1.00583E-19-1.02109E-18
 -1      4227 9.51197E-05-2.82520E-05-2.86574E-05 9.61965E-08-1.93260E-19-5.22155E-19
 -1      4228 9.50822E-05-2.81961E-05-2.86638E-05 7.85353E-08-6.43877E-19-4.60068E-19
 -1      4229 9.52031E-05-2.83974E-05-2.86316E-05 4.23207E-08-1.87025E-18 1.93373E-19
 -1      4230 9.51826E-05-2.83566E-05-2.86396E-05 5.95607E-08-1.21568E-18-1.55656E-19
 -1      4231 9.51581E-05-2.83160E-05-2.86455E-05 4.94751E-08-1.53678E-18 2.69072E-19
 -1      4232 9.52366E-05-2.84627E-05-2.86178E-05 2.14609E-08 5.60959E-19 1.59327E-18
 -1      4233 9.52239E-05-2.84333E-05-2.86244E-05 3.35772E-08-3.94732E-19 5.97310E-19
 -1      4234 9.52087E-05-2.84045E-05-2.86297E-05 2.87421E-08-1.05664E-18 1.53495E-19
 -1      4235 9.52566E-05-2.85088E-05-2.86065E-05 7.40053E-09 7.22314E-19 1.27132E-18
 -1      4236 9.52494E-05-2.84882E-05-2.86118E-05 1.56594E-08 1.39942E-18 1.54508E-18
 -1      4237 9.52408E-05-2.84684E-05-2.86164E-05 1.43369E-08 5.54318E-19 3.37600E-19
 -1      4238 9.52670E-05-2.85404E-05-2.85973E-05-1.67397E-09 7.91210E-19 1.41761E-18
 -1      4239 9.52636E-05-2.85264E-05-2.86016E-05 3.73489E-09 5.95560E-19 1.15076E-18
 -1      4240 9.52596E-05-2.85133E-05-2.86054E-05 4.65371E-09 1.09910E-18 4.50553E-19
 -1      4241 9.52710E-05-2.85612E-05-2.85900E-05-7.16874E-09 5.26925E-19 6.29950E-20
 -1      4242 9.52702E-05-2.85521E-05-2.85934E-05-3.82606E-09 5.49831E-19 5.19938E-19
 -1      4243 9.52692E-05-2.85438E-05-2.85965E-05-1.57706E-09 9.50438E-19-1.48664E-18
 -1      4244 9.52709E-05-2.85743E-05-2.85843E-05-1.01105E-08 4.06734E-19 9.52484E-19
 -1      4245 9.52716E-05-2.85687E-05-2.85869E-05-8.26087E-09 8.47929E-19 3.77180E-19
 -1      4246 9.52725E-05-2.85638E-05-2.85894E-05-5.34307E-09 3.70857E-19-2.20240E-18
 -1      4247 9.52681E-05-2.85820E-05-2.85798E-05-1.13617E-08-5.73833E-20 5.36816E-19
 -1      4248 9.52697E-05-2.85787E-05-2.85818E-05-1.05783E-08 4.20396E-19 1.55697E-18
 -1      4249 9.52717E-05-2.85763E-05-2.85838E-05-7.24623E-09 5.19436E-19 2.77402E-19
 -1      4250 7.75220E-05-1.86368E-05-2.52867E-05-4.77419E-06 3.96683E-20 1.99569E-19
 -1      4251 8.31650E-05-2.09079E-05-2.67319E-05 6.19711E-06-5.03238E-19-5.72652E-19
 -1      4252 8.21969E-05-2.08994E-05-2.62931E-05 7.20807E-06-5.07424E-19-4.62321E-19
 -1      4253 8.02044E-05-1.96283E-05-2.59721E-05 5.83802E-06-4.87491E-19-1.19330E-18
 -1      4254 8.26758E-05-2.01752E-05-2.67387E-05 4.44352E-06-5.13453E-19-1.22587E-18
 -1      4255 8.70264E-05-2.19707E-05-2.79012E-05 3.77163E-06-3.60845E-19 2.85116E-19
 -1      4256 8.62569E-05-2.16667E-05-2.76815E-05 4.31225E-06-7.88134E-19-3.55433E-19
 -1      4257 8.48261E-05-2.08873E-05-2.73876E-05 3.49810E-06-1.08058E-18-1.06056E-18
 -1      4258 8.68752E-05-2.17260E-05-2.79029E-05 2.70574E-06 2.52745E-20 3.53743E-19
 -1      4259 8.01679E-05-1.92622E-05-2.61158E-05-4.23027E-06 1.26653E-19 6.01884E-19
 -1      4260 8.16153E-05-1.96543E-05-2.65916E-05-3.55854E-06 7.64038E-20 5.30382E-19
 -1      4261 8.18189E-05-1.94680E-05-2.66845E-05-1.76031E-06-1.97340E-20-2.08880E-20
 -1      4262 7.75398E-05-1.80864E-05-2.54276E-05-2.16599E-06 8.84637E-20 9.85654E-19
 -1      4263 7.16163E-05-1.67862E-05-2.35166E-05 2.70195E-06-7.24116E-20 1.28458E-19
 -1      4264 7.44070E-05-1.73775E-05-2.44736E-05 1.04985E-06 2.47653E-19 4.79558E-19
 -1      4265 7.77144E-05-1.83795E-05-2.54613E-05 1.89125E-06-5.14242E-20-1.70085E-20
 -1      4266 8.03132E-05-1.91119E-05-2.62498E-05 1.61185E-06-3.44775E-19-1.13787E-19
 -1      4267 9.52673E-05-2.85839E-05-2.85786E-05-9.48141E-09-1.29581E-19 8.46412E-19
 -1      4268 9.52698E-05-2.85829E-05-2.85801E-05-6.06896E-09 6.71366E-19 8.40923E-19
 -1      4269 9.52705E-05-2.85830E-05-2.85804E-05 8.71255E-10 7.94424E-19 3.61370E-19
 -1      4270 9.52703E-05-2.85829E-05-2.85804E-05-2.88615E-09 5.45284E-19-4.24450E-19
 -1      4271 9.52713E-05-2.85806E-05-2.85817E-05-5.06241E-09 6.33292E-19 4.27968E-19
 -1      4272 9.52719E-05-2.85804E-05-2.85820E-05 1.00230E-09 4.41377E-19 5.00060E-19
 -1      4273 8.19276E-05-1.96564E-05-2.66728E-05 3.10270E-06-3.28479E-19-6.86246E-19
 -1      4274 8.13405E-05-1.93068E-05-2.66002E-05-3.98485E-07-3.88020E-19 8.38683E-20
 -1      4275 8.29333E-05-1.98749E-05-2.70403E-05-2.69446E-07-2.56779E-19-4.60123E-19
 -1      4276 8.31520E-05-2.01137E-05-2.70252E-05 2.60212E-06-4.18959E-19-1.25778E-18
 -1      4277 8.60823E-05-2.12352E-05-2.78061E-05-1.29892E-07-4.58921E-19-1.52817E-18
 -1      4278 8.70402E-05-2.16906E-05-2.80084E-05-7.46697E-08-4.26740E-19-1.92562E-18
 -1      4279 8.82730E-05-2.24415E-05-2.82329E-05 4.98179E-07-3.28569E-19-1.43309E-18
 -1      4280 8.90938E-05-2.29351E-05-2.83702E-05 5.09672E-07 3.43530E-20-1.49380E-18
 -1      4281 8.97614E-05-2.33901E-05-2.84669E-05 3.63385E-07 4.89920E-19-1.39651E-18
 -1      4282 9.04309E-05-2.38375E-05-2.85548E-05 3.89393E-07 3.05559E-19-1.26532E-18
 -1      4283 9.09842E-05-2.42603E-05-2.86142E-05 2.70921E-07 2.57541E-20-1.12582E-18
 -1      4284 9.15297E-05-2.46665E-05-2.86674E-05 2.98711E-07 4.91752E-19-9.83863E-19
 -1      4285 9.19805E-05-2.50465E-05-2.87005E-05 2.02189E-07 2.82553E-19-1.27820E-18
 -1      4286 9.24203E-05-2.54062E-05-2.87294E-05 2.28327E-07 2.65379E-19-1.10931E-18
 -1      4287 9.27825E-05-2.57386E-05-2.87445E-05 1.49983E-07-1.04447E-19-1.79884E-18
 -1      4288 9.31327E-05-2.60496E-05-2.87568E-05 1.73394E-07 2.58616E-19-1.66360E-18
 -1      4289 9.34194E-05-2.63333E-05-2.87600E-05 1.10170E-07 3.72435E-19-1.99118E-18
 -1      4290 9.36945E-05-2.65961E-05-2.87616E-05 1.30476E-07 2.64579E-19-2.21012E-18
 -1      4291 9.39181E-05-2.68332E-05-2.87574E-05 7.98860E-08 3.57047E-19-2.59063E-18
 -1      4292 9.41308E-05-2.70508E-05-2.87524E-05 9.70345E-08 2.91532E-19-2.40330E-18
 -1      4293 9.43023E-05-2.72450E-05-2.87440E-05 5.69917E-08 7.01123E-20-2.44922E-18
 -1      4294 9.44643E-05-2.74217E-05-2.87353E-05 7.11301E-08 1.34453E-19-2.54385E-18
 -1      4295 9.45935E-05-2.75777E-05-2.87249E-05 3.98336E-08 7.24716E-19-2.31452E-18
 -1      4296 9.47146E-05-2.77186E-05-2.87145E-05 5.12334E-08 5.74235E-19-2.05726E-18
 -1      4297 9.48101E-05-2.78417E-05-2.87035E-05 2.71151E-08-1.02512E-19-1.64005E-18
 -1      4298 9.48988E-05-2.79520E-05-2.86928E-05 3.61143E-08-7.22925E-19-1.72387E-18
 -1      4299 9.49679E-05-2.80474E-05-2.86822E-05 1.78128E-08-1.31374E-18-1.13843E-18
 -1      4300 9.50314E-05-2.81323E-05-2.86719E-05 2.47723E-08-1.14329E-18-1.04564E-18
 -1      4301 9.50801E-05-2.82049E-05-2.86622E-05 1.11184E-08-9.01380E-19-3.46658E-19
 -1      4302 9.51244E-05-2.82690E-05-2.86529E-05 1.63904E-08-9.20057E-19-6.13625E-19
 -1      4303 9.51577E-05-2.83231E-05-2.86443E-05 6.39474E-09-1.21925E-18-6.56755E-19
 -1      4304 9.51875E-05-2.83706E-05-2.86362E-05 1.03037E-08-1.04472E-18-1.35967E-18
 -1      4305 9.52094E-05-2.84101E-05-2.86288E-05 3.14261E-09-3.14612E-19-1.20773E-18
 -1      4306 9.52285E-05-2.84445E-05-2.86219E-05 5.97455E-09-3.20326E-19-1.65649E-18
 -1      4307 9.52420E-05-2.84727E-05-2.86158E-05 9.73598E-10 1.82789E-19-9.64550E-19
 -1      4308 9.52535E-05-2.84970E-05-2.86100E-05 2.97225E-09 5.76172E-19-2.56833E-19
 -1      4309 9.52610E-05-2.85165E-05-2.86050E-05-4.11916E-10 5.55122E-19-5.08997E-19
 -1      4310 9.52671E-05-2.85331E-05-2.86003E-05 9.56248E-10 1.50398E-18 1.13288E-19
 -1      4311 9.52706E-05-2.85462E-05-2.85962E-05-1.24450E-09 1.63087E-18-4.80153E-19
 -1      4312 9.52730E-05-2.85572E-05-2.85924E-05-3.39697E-10 7.61106E-19-4.73663E-19
 -1      4313 9.52737E-05-2.85656E-05-2.85892E-05-1.72024E-09-2.46321E-19-1.05487E-19
 -1      4314 9.52736E-05-2.85723E-05-2.85862E-05-1.25193E-09-6.94435E-19 9.22499E-20
 -1      4315 9.52726E-05-2.85763E-05-2.85842E-05-4.53468E-09-1.88936E-19-1.97171E-19
 -1      4316 7.35706E-05-1.79950E-05-2.38521E-05 6.16252E-06-1.00482E-21-9.75544E-20
 -1      4317 8.39909E-05-2.02979E-05-2.73094E-05-2.23278E-07-5.67672E-19-7.53307E-19
 -1      4318 8.51981E-05-2.08079E-05-2.76096E-05-1.40617E-07-7.37807E-19-1.30662E-18
 -1      4319 8.58017E-05-2.10712E-05-2.77284E-05 1.02827E-06-8.71552E-19-1.71266E-18
 -1      4320 8.38857E-05-2.02130E-05-2.72670E-05 1.16185E-06-1.11022E-18-1.10800E-18
 -1      4321 8.74673E-05-2.19680E-05-2.80834E-05 6.45412E-07-3.33721E-19-1.11759E-18
 -1      4322 8.63376E-05-2.14098E-05-2.78287E-05 1.74373E-06-1.46045E-19-8.10238E-19
 -1      4323 8.53869E-05-2.09809E-05-2.76046E-05 2.04682E-06-1.24077E-18-9.11397E-19
 -1      4324 9.52730E-05-2.85774E-05-2.85839E-05 1.03967E-09 6.56388E-20 2.18836E-19
 -1      4325 7.84950E-05-1.88383E-05-2.54827E-05 5.03214E-06-1.43312E-19-3.32441E-19
 -1      4326 8.43086E-05-2.05158E-05-2.73469E-05 2.19177E-06-1.13899E-18-8.40416E-19
 -1      4327 7.72531E-05-1.87929E-05-2.50183E-05 5.79726E-06-1.00415E-19-6.44473E-19
 -1      4328 8.71420E-05-2.18297E-05-2.80049E-05 1.64180E-06-4.51109E-19-5.65559E-19
 -3
    1PSTEP                         4           1           1          
  100CL  101 1.000000000        4328                     0    1           1
 -4  ERROR       1    1
 -5  STR(%)      1    1    0    0
 -1         1 1.30422E+01
 -1         2 2.54523E+01
 -1         3 2.31253E-04
 -1         4 2.70749E-04
 -1         5 1.25938E+01
 -1         6 1.18524E+01
 -1         7 1.18524E+01
 -1         8 3.88459E+00
 -1         9 2.55004E+00
 -1        10 2.05517E+00
 -1        11 1.78074E+00
 -1        12 1.50689E+00
 -1        13 1.19423E+00
 -1        14 7.52814E-01
 -1        15 8.20760E-01
 -1        16 1.22806E+00
 -1        17 1.50369E+00
 -1        18 1.75564E+00
 -1        19 2.02519E+00
 -1        20 2.52365E+00
 -1        21 3.72755E+00
 -1        22 7.99742E+00
 -1        23 1.18524E+01
 -1        24 3.07625E+00
 -1        25 1.63976E+00
 -1        26 6.16881E-01
 -1        27 8.05244E-01
 -1        28 1.02361E+00
 -1        29 1.18090E+00
 -1        30 1.72821E+00
 -1        31 3.01649E+00
 -1        32 4.16960E+00
 -1        33 4.16960E+00
 -1        34 4.26272E+00
 -1        35 4.26272E+00
 -1        36 3.17762E+00
 -1        37 1.89574E+00
 -1        38 1.44725E+00
 -1        39 1.44725E+00
 -1        40 1.39443E+00
 -1        41 1.39443E+00
 -1        42 1.26029E+00
 -1        43 1.04234E+00
 -1        44 8.31304E-01
 -1        45 6.52929E-01
 -1        46 5.27112E-01
 -1        47 4.42095E-01
 -1        48 3.57781E-01
 -1        49 2.81020E-01
 -1        50 2.14920E-01
 -1        51 1.60248E-01
 -1        52 1.16435E-01
 -1        53 9.62693E-02
 -1        54 7.89412E-02
 -1        55 6.33706E-02
 -1        56 4.98851E-02
 -1        57 3.85352E-02
 -1        58 2.92061E-02
 -1        59 2.20598E-02
 -1        60 1.82991E-02
 -1        61 1.48564E-02
 -1        62 1.18204E-02
 -1        63 9.21474E-03
 -1        64 7.06237E-03
 -1        65 5.40490E-03
 -1        66 3.99217E-03
 -1        67 3.07457E-03
 -1        68 2.63252E-03
 -1        69 2.14287E-03
 -1        70 1.61421E-03
 -1        71 1.21156E-03
 -1        72 1.25938E+01
 -1        73 2.52899E+00
 -1        74 1.21685E+00
 -1        75 5.83734E-01
 -1        76 5.90394E-01
 -1        77 1.01447E+00
 -1        78 1.16138E+00
 -1        79 1.62619E+00
 -1        80 2.08481E+00
 -1        81 3.13649E+00
 -1        82 3.41739E+00
 -1        83 3.94371E+00
 -1        84 3.94371E+00
 -1        85 3.30585E+00
 -1        86 2.03343E+00
 -1        87 1.32626E+00
 -1        88 1.06020E+00
 -1        89 1.22531E+00
 -1        90 1.22978E+00
 -1        91 1.22978E+00
 -1        92 1.10676E+00
 -1        93 9.34156E-01
 -1        94 7.79557E-01
 -1        95 6.21472E-01
 -1        96 4.76252E-01
 -1        97 3.51708E-01
 -1        98 2.74380E-01
 -1        99 2.11229E-01
 -1       100 1.58382E-01
 -1       101 1.15646E-01
 -1       102 8.20587E-02
 -1       103 5.63242E-02
 -1       104 4.47491E-02
 -1       105 3.69901E-02
 -1       106 2.99172E-02
 -1       107 2.37190E-02
 -1       108 1.87203E-02
 -1       109 1.65463E-02
 -1       110 1.41833E-02
 -1       111 1.18555E-02
 -1       112 9.69245E-03
 -1       113 7.75651E-03
 -1       114 6.21599E-03
 -1       115 4.86542E-03
 -1       116 3.66694E-03
 -1       117 2.61161E-03
 -1       118 2.12700E-03
 -1       119 1.52502E-03
 -1       120 8.80322E-04
 -1       121 4.05779E-04
 -1       122 4.05779E-04
 -1       123 3.01550E-04
 -1       124 1.29335E-04
 -1       125 1.87512E-04
 -1       126 2.78075E-04
 -1       127 3.30063E-04
 -1       128 3.44568E-04
 -1       129 3.44568E-04
 -1       130 3.29471E-04
 -1       131 2.74611E-04
 -1       132 1.86865E-04
 -1       133 1.32004E-04
 -1       134 3.03655E-04
 -1       135 5.38435E-04
 -1       136 6.33608E-04
 -1       137 2.54523E+01
 -1       138 4.65361E+01
 -1       139 4.65361E+01
 -1       140 2.02398E+01
 -1       141 1.18363E+01
 -1       142 1.25564E+01
 -1       143 1.27063E+01
 -1       144 1.27063E+01
 -1       145 1.22529E+01
 -1       146 1.27854E+01
 -1       147 2.69039E+01
 -1       148 2.91323E+01
 -1       149 2.91323E+01
 -1       150 2.62018E+01
 -1       151 2.45518E+01
 -1       152 2.47609E+01
 -1       153 4.45475E+01
 -1       154 4.45475E+01
 -1       155 1.67719E+01
 -1       156 1.25176E+01
 -1       157 1.25176E+01
 -1       158 1.19042E+01
 -1       159 1.30422E+01
 -1       160 1.20680E+01
 -1       161 2.53628E+01
 -1       162 2.96009E+01
 -1       163 2.96009E+01
 -1       164 2.48619E+01
 -1       165 6.05308E+00
 -1       166 2.88948E+00
 -1       167 2.14745E+00
 -1       168 1.81304E+00
 -1       169 1.59336E+00
 -1       170 1.39380E+00
 -1       171 1.00933E+00
 -1       172 5.65827E-01
 -1       173 1.07260E+00
 -1       174 1.38242E+00
 -1       175 1.58558E+00
 -1       176 1.78979E+00
 -1       177 2.15316E+00
 -1       178 2.83077E+00
 -1       179 3.96510E+00
 -1       180 1.25938E+01
 -1       181 3.07625E+00
 -1       182 1.64817E+00
 -1       183 6.70461E-01
 -1       184 6.03775E-01
 -1       185 8.05244E-01
 -1       186 1.02361E+00
 -1       187 1.18090E+00
 -1       188 1.89529E+00
 -1       189 3.01649E+00
 -1       190 4.16960E+00
 -1       191 4.16461E+00
 -1       192 4.26272E+00
 -1       193 3.17762E+00
 -1       194 1.93807E+00
 -1       195 1.38021E+00
 -1       196 1.44725E+00
 -1       197 1.33186E+00
 -1       198 1.39443E+00
 -1       199 1.26029E+00
 -1       200 1.04234E+00
 -1       201 8.75974E-01
 -1       202 7.59981E-01
 -1       203 6.24318E-01
 -1       204 4.90719E-01
 -1       205 3.71108E-01
 -1       206 2.81020E-01
 -1       207 2.19093E-01
 -1       208 1.68979E-01
 -1       209 1.27345E-01
 -1       210 9.62693E-02
 -1       211 7.89412E-02
 -1       212 6.33706E-02
 -1       213 4.98851E-02
 -1       214 3.85352E-02
 -1       215 2.92635E-02
 -1       216 2.28906E-02
 -1       217 1.82991E-02
 -1       218 1.48564E-02
 -1       219 1.18204E-02
 -1       220 9.39438E-03
 -1       221 7.43313E-03
 -1       222 5.84706E-03
 -1       223 4.58114E-03
 -1       224 3.45848E-03
 -1       225 2.63252E-03
 -1       226 2.14287E-03
 -1       227 1.61421E-03
 -1       228 1.21156E-03
 -1       229 2.52899E+00
 -1       230 1.21685E+00
 -1       231 5.83734E-01
 -1       232 3.63702E-01
 -1       233 5.90394E-01
 -1       234 1.01447E+00
 -1       235 1.16138E+00
 -1       236 1.62619E+00
 -1       237 2.24812E+00
 -1       238 3.13649E+00
 -1       239 3.41739E+00
 -1       240 3.94371E+00
 -1       241 3.30585E+00
 -1       242 2.03343E+00
 -1       243 1.32626E+00
 -1       244 9.91257E-01
 -1       245 1.06020E+00
 -1       246 1.22531E+00
 -1       247 1.22978E+00
 -1       248 1.10676E+00
 -1       249 9.34156E-01
 -1       250 7.79918E-01
 -1       251 6.40648E-01
 -1       252 5.05355E-01
 -1       253 3.84528E-01
 -1       254 2.82671E-01
 -1       255 2.11229E-01
 -1       256 1.58382E-01
 -1       257 1.16197E-01
 -1       258 8.46881E-02
 -1       259 6.00518E-02
 -1       260 4.47491E-02
 -1       261 3.69901E-02
 -1       262 2.99172E-02
 -1       263 2.37190E-02
 -1       264 1.87203E-02
 -1       265 1.65463E-02
 -1       266 1.41833E-02
 -1       267 1.18555E-02
 -1       268 9.69245E-03
 -1       269 7.75651E-03
 -1       270 6.21599E-03
 -1       271 4.86542E-03
 -1       272 3.68872E-03
 -1       273 2.70748E-03
 -1       274 2.12700E-03
 -1       275 1.52502E-03
 -1       276 8.94750E-04
 -1       277 4.95661E-04
 -1       278 4.95661E-04
 -1       279 4.38288E-04
 -1       280 3.03056E-04
 -1       281 4.84394E-04
 -1       282 5.95179E-04
 -1       283 6.38742E-04
 -1       284 6.38742E-04
 -1       285 6.38545E-04
 -1       286 5.91917E-04
 -1       287 4.84007E-04
 -1       288 3.06571E-04
 -1       289 4.35883E-04
 -1       290 4.35883E-04
 -1       291 6.36854E-04
 -1       292 3.18083E+01
 -1       293 2.72708E+01
 -1       294 4.65361E+01
 -1       295 2.08903E+01
 -1       296 1.15465E+01
 -1       297 1.18363E+01
 -1       298 1.25564E+01
 -1       299 1.27063E+01
 -1       300 1.22529E+01
 -1       301 1.21060E+01
 -1       302 1.27854E+01
 -1       303 2.85533E+01
 -1       304 3.17721E+01
 -1       305 3.17721E+01
 -1       306 3.12799E+01
 -1       307 3.12799E+01
 -1       308 3.72614E+01
 -1       309 4.45475E+01
 -1       310 1.74048E+01
 -1       311 1.09769E+01
 -1       312 1.25176E+01
 -1       313 1.19042E+01
 -1       314 1.17615E+01
 -1       315 1.30422E+01
 -1       316 1.13997E+01
 -1       317 1.20680E+01
 -1       318 2.65496E+01
 -1       319 3.13994E+01
 -1       320 3.13994E+01
 -1       321 3.18083E+01
 -1       322 2.17912E+00
 -1       323 2.83750E+00
 -1       324 1.65795E+00
 -1       325 1.58638E+00
 -1       326 1.34329E+00
 -1       327 8.30533E-01
 -1       328 9.46425E-01
 -1       329 1.35515E+00
 -1       330 1.55654E+00
 -1       331 1.61199E+00
 -1       332 1.72758E+00
 -1       333 1.91433E+00
 -1       334 1.96645E+00
 -1       335 1.74046E+00
 -1       336 1.23311E+00
 -1       337 1.35464E+00
 -1       338 1.00839E+00
 -1       339 8.86827E-01
 -1       340 7.59879E-01
 -1       341 8.85302E-01
 -1       342 1.34470E+00
 -1       343 1.92269E+00
 -1       344 2.46392E+00
 -1       345 2.60828E+00
 -1       346 2.60765E+00
 -1       347 2.50180E+00
 -1       348 1.90244E+00
 -1       349 1.32062E+00
 -1       350 9.13893E-01
 -1       351 8.39383E-01
 -1       352 9.85287E-01
 -1       353 1.06618E+00
 -1       354 1.00556E+00
 -1       355 8.97378E-01
 -1       356 8.02653E-01
 -1       357 6.92628E-01
 -1       358 5.70842E-01
 -1       359 4.53209E-01
 -1       360 3.48350E-01
 -1       361 2.59823E-01
 -1       362 1.88052E-01
 -1       363 1.31740E-01
 -1       364 9.37586E-02
 -1       365 6.73282E-02
 -1       366 4.90602E-02
 -1       367 3.95622E-02
 -1       368 3.26165E-02
 -1       369 2.63280E-02
 -1       370 2.08349E-02
 -1       371 1.61682E-02
 -1       372 1.28569E-02
 -1       373 1.09121E-02
 -1       374 9.01888E-03
 -1       375 7.26742E-03
 -1       376 5.85039E-03
 -1       377 4.61382E-03
 -1       378 3.56268E-03
 -1       379 2.72882E-03
 -1       380 1.99865E-03
 -1       381 1.48680E-03
 -1       382 1.06258E-03
 -1       383 7.94784E-01
 -1       384 6.14416E-01
 -1       385 4.61512E-01
 -1       386 5.71336E-01
 -1       387 1.11429E+00
 -1       388 1.73691E+00
 -1       389 2.04145E+00
 -1       390 2.04145E+00
 -1       391 1.99362E+00
 -1       392 2.28215E+00
 -1       393 2.17001E+00
 -1       394 1.52328E+00
 -1       395 8.92444E-01
 -1       396 5.73819E-01
 -1       397 7.89719E-01
 -1       398 8.83995E-01
 -1       399 9.17581E-01
 -1       400 8.85053E-01
 -1       401 7.93869E-01
 -1       402 7.04870E-01
 -1       403 5.93430E-01
 -1       404 4.78943E-01
 -1       405 3.72921E-01
 -1       406 2.81051E-01
 -1       407 2.05278E-01
 -1       408 1.55487E-01
 -1       409 1.16197E-01
 -1       410 8.46881E-02
 -1       411 6.00518E-02
 -1       412 4.12322E-02
 -1       413 2.83265E-02
 -1       414 2.44745E-02
 -1       415 2.05734E-02
 -1       416 1.68861E-02
 -1       417 1.35578E-02
 -1       418 1.06522E-02
 -1       419 9.10181E-03
 -1       420 7.67755E-03
 -1       421 6.28785E-03
 -1       422 5.17598E-03
 -1       423 4.22166E-03
 -1       424 3.33034E-03
 -1       425 2.52083E-03
 -1       426 1.83681E-03
 -1       427 1.40130E-03
 -1       428 8.94750E-04
 -1       429 5.21165E-04
 -1       430 9.72488E-04
 -1       431 9.72488E-04
 -1       432 6.47817E-04
 -1       433 8.04919E-04
 -1       434 8.75402E-04
 -1       435 8.75402E-04
 -1       436 8.72987E-04
 -1       437 8.72987E-04
 -1       438 8.05689E-04
 -1       439 6.47659E-04
 -1       440 5.09609E-04
 -1       441 8.45043E-04
 -1       442 2.72708E+01
 -1       443 3.62380E+01
 -1       444 2.66380E+01
 -1       445 1.58616E+01
 -1       446 9.84576E+00
 -1       447 2.17912E+00
 -1       448 9.33140E+00
 -1       449 1.08259E+01
 -1       450 9.72896E+00
 -1       451 9.16304E+00
 -1       452 6.77852E+00
 -1       453 1.13164E+01
 -1       454 1.96574E+01
 -1       455 3.17721E+01
 -1       456 4.09528E+01
 -1       457 4.09528E+01
 -1       458 2.98270E+01
 -1       459 2.61040E+01
 -1       460 1.54917E+01
 -1       461 8.44251E+00
 -1       462 7.59846E+00
 -1       463 1.00065E+01
 -1       464 1.04044E+01
 -1       465 1.07144E+01
 -1       466 7.91272E+00
 -1       467 6.82745E+00
 -1       468 1.11584E+01
 -1       469 1.85138E+01
 -1       470 3.13994E+01
 -1       471 3.62380E+01
 -1       472 7.12396E+00
 -1       473 1.41190E+01
 -1       474 8.39971E+00
 -1       475 1.72649E+00
 -1       476 1.70791E+00
 -1       477 1.70791E+00
 -1       478 1.14533E+00
 -1       479 1.42132E+00
 -1       480 1.68367E+00
 -1       481 1.68367E+00
 -1       482 1.61542E+00
 -1       483 1.89475E+00
 -1       484 1.03958E+00
 -1       485 1.40678E+00
 -1       486 4.98411E+00
 -1       487 1.37572E+00
 -1       488 1.33816E+00
 -1       489 1.39624E+00
 -1       490 1.66431E+00
 -1       491 1.79047E+00
 -1       492 2.00695E+00
 -1       493 2.85668E+00
 -1       494 3.27460E+00
 -1       495 3.08035E+00
 -1       496 2.08660E+00
 -1       497 1.84617E+00
 -1       498 1.73548E+00
 -1       499 1.47717E+00
 -1       500 1.29174E+00
 -1       501 1.21859E+00
 -1       502 1.08359E+00
 -1       503 9.38739E-01
 -1       504 8.57122E-01
 -1       505 7.45361E-01
 -1       506 6.23247E-01
 -1       507 5.04774E-01
 -1       508 3.97791E-01
 -1       509 3.05809E-01
 -1       510 2.29571E-01
 -1       511 1.68213E-01
 -1       512 1.20061E-01
 -1       513 8.31326E-02
 -1       514 5.54347E-02
 -1       515 3.51348E-02
 -1       516 2.44749E-02
 -1       517 1.94907E-02
 -1       518 1.69938E-02
 -1       519 1.43843E-02
 -1       520 1.18670E-02
 -1       521 9.55912E-03
 -1       522 7.85945E-03
 -1       523 6.73611E-03
 -1       524 5.58504E-03
 -1       525 4.48031E-03
 -1       526 3.57881E-03
 -1       527 2.74868E-03
 -1       528 2.02990E-03
 -1       529 1.49305E-03
 -1       530 1.74423E+01
 -1       531 9.44467E-01
 -1       532 1.03547E+00
 -1       533 1.59165E+00
 -1       534 1.79685E+00
 -1       535 2.31582E+00
 -1       536 2.57253E+00
 -1       537 2.48447E+00
 -1       538 1.95491E+00
 -1       539 1.62756E+00
 -1       540 1.26652E+00
 -1       541 1.13156E+00
 -1       542 9.23899E-01
 -1       543 9.70388E-01
 -1       544 9.49791E-01
 -1       545 8.69815E-01
 -1       546 8.01559E-01
 -1       547 7.19363E-01
 -1       548 6.18984E-01
 -1       549 5.11189E-01
 -1       550 4.08044E-01
 -1       551 3.16130E-01
 -1       552 2.38189E-01
 -1       553 1.74545E-01
 -1       554 1.24163E-01
 -1       555 8.53502E-02
 -1       556 5.62082E-02
 -1       557 3.96198E-02
 -1       558 2.83265E-02
 -1       559 2.44745E-02
 -1       560 2.05734E-02
 -1       561 1.68861E-02
 -1       562 1.35578E-02
 -1       563 1.06522E-02
 -1       564 9.10181E-03
 -1       565 7.67755E-03
 -1       566 6.28785E-03
 -1       567 5.05640E-03
 -1       568 4.00875E-03
 -1       569 3.06546E-03
 -1       570 2.32449E-03
 -1       571 1.69661E-03
 -1       572 1.21380E-03
 -1       573 9.95244E-04
 -1       574 1.10966E-03
 -1       575 1.05284E-03
 -1       576 9.01098E-04
 -1       577 1.10966E-03
 -1       578 1.10226E-03
 -1       579 1.10900E-03
 -1       580 1.10900E-03
 -1       581 1.01074E-03
 -1       582 8.35500E-04
 -1       583 8.35500E-04
 -1       584 1.04321E+01
 -1       585 9.22575E-01
 -1       586 2.66380E+01
 -1       587 1.46515E+01
 -1       588 2.17912E+00
 -1       589 2.39046E+01
 -1       590 7.15921E+00
 -1       591 1.36230E+00
 -1       592 7.70773E+00
 -1       593 7.19343E+00
 -1       594 6.58468E+00
 -1       595 1.98379E+01
 -1       596 4.43117E+00
 -1       597 8.87044E+00
 -1       598 1.40720E+01
 -1       599 4.09528E+01
 -1       600 2.98270E+01
 -1       601 1.22040E+01
 -1       602 8.19138E+00
 -1       603 4.95763E+00
 -1       604 5.68945E+00
 -1       605 7.39447E+00
 -1       606 7.68358E+00
 -1       607 3.59289E+00
 -1       608 6.33742E+00
 -1       609 8.88557E+00
 -1       610 1.89475E+00
 -1       611 5.01422E+00
 -1       612 6.80521E+00
 -1       613 2.15567E+00
 -1       614 1.03230E+01
 -1       615 3.62380E+01
 -1       616 1.20986E+01
 -1       617 9.32100E-04
 -1       618 6.22332E+00
 -1       619 1.96936E+01
 -1       620 2.00840E+00
 -1       621 1.69031E+00
 -1       622 1.84843E+00
 -1       623 1.64202E+00
 -1       624 1.72649E+00
 -1       625 1.32153E+01
 -1       626 1.03958E+00
 -1       627 1.64699E+01
 -1       628 1.76851E+00
 -1       629 2.13519E+00
 -1       630 2.18797E+00
 -1       631 2.96405E+00
 -1       632 2.57342E+00
 -1       633 3.16582E+00
 -1       634 3.90245E+00
 -1       635 3.67621E+00
 -1       636 2.55505E+00
 -1       637 2.75842E+00
 -1       638 2.28894E+00
 -1       639 1.96632E+00
 -1       640 1.65017E+00
 -1       641 1.32839E+00
 -1       642 1.11269E+00
 -1       643 9.56106E-01
 -1       644 7.98275E-01
 -1       645 6.52279E-01
 -1       646 5.23432E-01
 -1       647 4.13065E-01
 -1       648 3.20639E-01
 -1       649 2.44725E-01
 -1       650 1.83486E-01
 -1       651 1.34935E-01
 -1       652 9.70956E-02
 -1       653 6.81077E-02
 -1       654 4.62960E-02
 -1       655 3.01986E-02
 -1       656 1.85727E-02
 -1       657 1.17924E-02
 -1       658 1.02184E-02
 -1       659 9.53998E-03
 -1       660 8.49610E-03
 -1       661 7.29179E-03
 -1       662 6.06073E-03
 -1       663 5.12232E-03
 -1       664 4.30357E-03
 -1       665 3.48263E-03
 -1       666 2.70707E-03
 -1       667 2.03001E-03
 -1       668 1.49305E-03
 -1       669 1.21760E+01
 -1       670 4.98408E+00
 -1       671 9.79658E-04
 -1       672 1.40332E+00
 -1       673 3.48636E+00
 -1       674 5.05177E+00
 -1       675 5.51369E+00
 -1       676 2.52568E+00
 -1       677 1.90008E+00
 -1       678 1.65523E+00
 -1       679 2.05058E+00
 -1       680 1.40071E+00
 -1       681 1.26911E+00
 -1       682 1.11821E+00
 -1       683 9.49791E-01
 -1       684 8.69815E-01
 -1       685 7.68761E-01
 -1       686 6.49899E-01
 -1       687 5.29949E-01
 -1       688 4.19338E-01
 -1       689 3.26067E-01
 -1       690 2.50588E-01
 -1       691 1.89120E-01
 -1       692 1.39625E-01
 -1       693 1.00644E-01
 -1       694 7.05792E-02
 -1       695 4.78632E-02
 -1       696 3.10629E-02
 -1       697 1.99901E-02
 -1       698 1.39031E-02
 -1       699 1.29156E-02
 -1       700 1.14771E-02
 -1       701 9.85092E-03
 -1       702 8.20819E-03
 -1       703 6.65297E-03
 -1       704 5.67811E-03
 -1       705 4.76103E-03
 -1       706 3.84893E-03
 -1       707 3.04924E-03
 -1       708 2.34153E-03
 -1       709 1.72931E-03
 -1       710 1.43104E-03
 -1       711 9.66001E+00
 -1       712 1.34772E-03
 -1       713 1.33168E-03
 -1       714 1.34845E-03
 -1       715 1.34772E-03
 -1       716 1.34845E-03
 -1       717 1.33871E-03
 -1       718 1.16751E-03
 -1       719 9.88283E-01
 -1       720 2.50492E+00
 -1       721 4.93961E+00
 -1       722 4.11696E+00
 -1       723 3.21059E+00
 -1       724 2.40535E+00
 -1       725 2.79720E+00
 -1       726 3.48636E+00
 -1       727 5.51369E+00
 -1       728 2.00840E+00
 -1       729 2.01708E+00
 -1       730 1.07518E+01
 -1       731 1.22927E+01
 -1       732 7.51367E+00
 -1       733 5.05177E+00
 -1       734 9.08939E+00
 -1       735 8.35066E+00
 -1       736 6.21845E+00
 -1       737 1.36446E+01
 -1       738 7.91840E+00
 -1       739 6.30645E+00
 -1       740 1.56348E+01
 -1       741 5.01924E+00
 -1       742 3.19956E+00
 -1       743 5.49489E+00
 -1       744 3.67621E+00
 -1       745 3.18369E+00
 -1       746 3.19819E+00
 -1       747 2.79720E+00
 -1       748 1.81932E+00
 -1       749 1.33141E+01
 -1       750 5.18988E+00
 -1       751 1.12244E+01
 -1       752 1.14881E-03
 -1       753 7.61359E+00
 -1       754 1.22709E-03
 -1       755 4.86115E+00
 -1       756 1.19619E-03
 -1       757 1.97541E+00
 -1       758 3.21059E+00
 -1       759 2.50496E+00
 -1       760 3.34298E+00
 -1       761 7.80368E+00
 -1       762 3.29201E+00
 -1       763 3.82085E+00
 -1       764 2.75842E+00
 -1       765 3.74269E+00
 -1       766 3.32168E+00
 -1       767 2.41552E+00
 -1       768 1.86477E+00
 -1       769 1.49568E+00
 -1       770 1.16565E+00
 -1       771 9.09697E-01
 -1       772 7.14498E-01
 -1       773 5.66685E-01
 -1       774 4.53365E-01
 -1       775 3.53946E-01
 -1       776 2.70209E-01
 -1       777 2.01771E-01
 -1       778 1.47208E-01
 -1       779 1.06332E-01
 -1       780 7.52413E-02
 -1       781 5.16912E-02
 -1       782 3.47592E-02
 -1       783 2.29330E-02
 -1       784 1.43646E-02
 -1       785 8.29989E-03
 -1       786 5.58962E-03
 -1       787 6.05126E-03
 -1       788 5.91893E-03
 -1       789 5.43116E-03
 -1       790 4.75439E-03
 -1       791 4.02032E-03
 -1       792 3.50019E-03
 -1       793 2.91530E-03
 -1       794 2.32202E-03
 -1       795 1.75209E-03
 -1       796 1.01146E+01
 -1       797 6.48292E+00
 -1       798 2.52568E+00
 -1       799 1.90008E+00
 -1       800 4.42918E+00
 -1       801 2.17893E+00
 -1       802 1.99640E+00
 -1       803 1.60303E+00
 -1       804 1.25319E+00
 -1       805 1.07266E+00
 -1       806 8.89869E-01
 -1       807 7.28680E-01
 -1       808 5.86157E-01
 -1       809 4.62365E-01
 -1       810 3.59535E-01
 -1       811 2.77588E-01
 -1       812 2.11212E-01
 -1       813 1.58134E-01
 -1       814 1.16270E-01
 -1       815 8.37301E-02
 -1       816 5.88271E-02
 -1       817 4.00871E-02
 -1       818 2.62441E-02
 -1       819 1.62316E-02
 -1       820 9.23019E-03
 -1       821 7.21960E-03
 -1       822 7.13577E-03
 -1       823 6.60658E-03
 -1       824 5.83634E-03
 -1       825 4.96379E-03
 -1       826 4.27876E-03
 -1       827 3.66220E-03
 -1       828 3.01016E-03
 -1       829 2.37379E-03
 -1       830 1.76627E-03
 -1       831 1.48935E-03
 -1       832 1.58812E-03
 -1       833 1.50183E-03
 -1       834 1.32755E+00
 -1       835 7.80368E+00
 -1       836 2.76605E+00
 -1       837 5.71391E+00
 -1       838 5.16477E+00
 -1       839 7.95861E+00
 -1       840 7.61359E+00
 -1       841 1.58812E-03
 -1       842 1.56575E-03
 -1       843 3.85922E+00
 -1       844 4.58353E+00
 -1       845 9.80674E+00
 -1       846 4.42918E+00
 -1       847 2.90550E+00
 -1       848 1.01146E+01
 -1       849 9.33799E+00
 -1       850 4.85271E+00
 -1       851 6.15378E+00
 -1       852 7.36647E+00
 -1       853 4.48122E+00
 -1       854 1.30556E+00
 -1       855 2.92593E+00
 -1       856 6.67980E+00
 -1       857 1.63182E-03
 -1       858 2.54787E+00
 -1       859 1.58216E-03
 -1       860 3.40064E+00
 -1       861 1.77871E+00
 -1       862 3.54589E+00
 -1       863 5.76338E+00
 -1       864 1.63182E-03
 -1       865 3.06226E+00
 -1       866 3.74269E+00
 -1       867 6.03538E+00
 -1       868 1.51982E-03
 -1       869 4.69317E+00
 -1       870 3.85131E+00
 -1       871 2.57559E+00
 -1       872 2.07618E+00
 -1       873 1.46705E+00
 -1       874 1.10879E+00
 -1       875 8.90889E-01
 -1       876 7.14498E-01
 -1       877 5.64819E-01
 -1       878 4.40792E-01
 -1       879 3.39485E-01
 -1       880 2.57666E-01
 -1       881 1.92403E-01
 -1       882 1.41067E-01
 -1       883 1.01263E-01
 -1       884 7.08691E-02
 -1       885 4.89141E-02
 -1       886 3.29242E-02
 -1       887 2.11903E-02
 -1       888 1.27670E-02
 -1       889 7.00470E-03
 -1       890 3.53135E-03
 -1       891 3.86914E-03
 -1       892 4.23816E-03
 -1       893 4.16287E-03
 -1       894 3.81937E-03
 -1       895 3.33057E-03
 -1       896 2.89274E-03
 -1       897 2.45279E-03
 -1       898 4.48122E+00
 -1       899 3.67492E+00
 -1       900 3.31182E+00
 -1       901 2.38453E+00
 -1       902 1.83193E+00
 -1       903 1.40768E+00
 -1       904 1.05806E+00
 -1       905 8.29485E-01
 -1       906 6.63028E-01
 -1       907 5.42138E-01
 -1       908 4.32633E-01
 -1       909 3.38039E-01
 -1       910 2.58874E-01
 -1       911 1.94237E-01
 -1       912 1.42610E-01
 -1       913 1.02203E-01
 -1       914 7.16728E-02
 -1       915 4.95375E-02
 -1       916 3.29916E-02
 -1       917 2.09171E-02
 -1       918 1.24189E-02
 -1       919 6.66896E-03
 -1       920 4.12198E-03
 -1       921 4.91005E-03
 -1       922 5.04854E-03
 -1       923 4.78059E-03
 -1       924 4.27876E-03
 -1       925 3.66220E-03
 -1       926 3.19485E-03
 -1       927 2.68052E-03
 -1       928 2.14424E-03
 -1       929 1.94320E-03
 -1       930 1.77542E-03
 -1       931 2.56700E+00
 -1       932 5.42850E+00
 -1       933 6.11530E+00
 -1       934 6.67980E+00
 -1       935 1.94320E-03
 -1       936 4.58353E+00
 -1       937 5.47830E+00
 -1       938 6.36179E+00
 -1       939 6.36179E+00
 -1       940 6.06310E+00
 -1       941 1.64235E-03
 -1       942 6.11530E+00
 -1       943 4.84508E+00
 -1       944 4.58353E+00
 -1       945 1.71598E-03
 -1       946 1.95094E-03
 -1       947 3.21561E+00
 -1       948 4.62373E+00
 -1       949 1.72651E-03
 -1       950 6.00557E+00
 -1       951 2.06502E-03
 -1       952 5.79379E+00
 -1       953 2.36349E+00
 -1       954 2.05202E+00
 -1       955 1.46705E+00
 -1       956 1.10879E+00
 -1       957 8.44434E-01
 -1       958 6.47071E-01
 -1       959 4.97056E-01
 -1       960 3.81162E-01
 -1       961 2.90408E-01
 -1       962 2.19029E-01
 -1       963 1.63138E-01
 -1       964 1.19636E-01
 -1       965 8.60844E-02
 -1       966 6.05172E-02
 -1       967 4.13145E-02
 -1       968 2.80759E-02
 -1       969 1.83554E-02
 -1       970 1.13321E-02
 -1       971 6.38904E-03
 -1       972 3.53135E-03
 -1       973 2.48206E-03
 -1       974 3.03943E-03
 -1       975 3.15907E-03
 -1       976 3.00260E-03
 -1       977 2.68526E-03
 -1       978 2.30741E-03
 -1       979 3.66762E+00
 -1       980 4.60845E+00
 -1       981 4.79191E+00
 -1       982 1.32702E+00
 -1       983 1.03366E+00
 -1       984 8.29485E-01
 -1       985 6.57454E-01
 -1       986 5.16352E-01
 -1       987 4.01655E-01
 -1       988 3.08917E-01
 -1       989 2.34413E-01
 -1       990 1.75198E-01
 -1       991 1.28675E-01
 -1       992 9.25863E-02
 -1       993 6.49936E-02
 -1       994 4.45648E-02
 -1       995 3.01508E-02
 -1       996 1.95416E-02
 -1       997 1.18992E-02
 -1       998 6.57424E-03
 -1       999 3.54487E-03
 -1      1000 3.14442E-03
 -1      1001 3.60754E-03
 -1      1002 3.63144E-03
 -1      1003 3.38345E-03
 -1      1004 2.98173E-03
 -1      1005 2.59082E-03
 -1      1006 4.62373E+00
 -1      1007 4.84508E+00
 -1      1008 3.47958E+00
 -1      1009 4.28455E+00
 -1      1010 4.28455E+00
 -1      1011 2.49129E+00
 -1      1012 2.04834E-03
 -1      1013 1.79565E-03
 -1      1014 2.21979E-03
 -1      1015 1.84398E-03
 -1      1016 1.85570E-03
 -1      1017 3.12608E+00
 -1      1018 2.05202E+00
 -1      1019 1.28158E+00
 -1      1020 9.20555E-01
 -1      1021 6.76327E-01
 -1      1022 5.09355E-01
 -1      1023 3.86517E-01
 -1      1024 2.93783E-01
 -1      1025 2.22226E-01
 -1      1026 1.66998E-01
 -1      1027 1.24083E-01
 -1      1028 9.08227E-02
 -1      1029 6.52449E-02
 -1      1030 4.57957E-02
 -1      1031 3.12124E-02
 -1      1032 2.17289E-02
 -1      1033 1.49113E-02
 -1      1034 9.84130E-03
 -1      1035 6.14475E-03
 -1      1036 3.50966E-03
 -1      1037 1.68758E-03
 -1      1038 2.23212E-03
 -1      1039 2.40256E-03
 -1      1040 2.33098E-03
 -1      1041 2.13957E-03
 -1      1042 7.54772E-01
 -1      1043 1.00675E+00
 -1      1044 1.32702E+00
 -1      1045 5.74769E-01
 -1      1046 4.40270E-01
 -1      1047 3.36253E-01
 -1      1048 2.55181E-01
 -1      1049 1.92034E-01
 -1      1050 1.42800E-01
 -1      1051 1.04575E-01
 -1      1052 7.51496E-02
 -1      1053 5.27605E-02
 -1      1054 3.59661E-02
 -1      1055 2.43390E-02
 -1      1056 1.59381E-02
 -1      1057 1.00761E-02
 -1      1058 6.29776E-03
 -1      1059 3.60135E-03
 -1      1060 2.08761E-03
 -1      1061 2.63111E-03
 -1      1062 2.77140E-03
 -1      1063 2.65384E-03
 -1      1064 2.38393E-03
 -1      1065 2.71541E+00
 -1      1066 3.66762E+00
 -1      1067 3.12608E+00
 -1      1068 2.44989E+00
 -1      1069 1.80937E-03
 -1      1070 2.67194E+00
 -1      1071 1.84278E-03
 -1      1072 2.37008E+00
 -1      1073 9.31337E-01
 -1      1074 6.95154E-01
 -1      1075 5.56866E-01
 -1      1076 4.44355E-01
 -1      1077 3.43543E-01
 -1      1078 2.62438E-01
 -1      1079 1.98623E-01
 -1      1080 1.48665E-01
 -1      1081 1.09741E-01
 -1      1082 7.96423E-02
 -1      1083 5.74683E-02
 -1      1084 4.07855E-02
 -1      1085 2.81712E-02
 -1      1086 1.96275E-02
 -1      1087 1.32218E-02
 -1      1088 8.50712E-03
 -1      1089 5.10879E-03
 -1      1090 2.71811E-03
 -1      1091 1.25233E-03
 -1      1092 1.82801E-03
 -1      1093 1.81258E-03
 -1      1094 2.13957E-03
 -1      1095 5.56866E-01
 -1      1096 7.77520E-01
 -1      1097 9.28879E-01
 -1      1098 4.44355E-01
 -1      1099 3.43543E-01
 -1      1100 2.62438E-01
 -1      1101 1.98623E-01
 -1      1102 1.48665E-01
 -1      1103 1.09741E-01
 -1      1104 7.96423E-02
 -1      1105 5.66067E-02
 -1      1106 3.99005E-02
 -1      1107 2.75739E-02
 -1      1108 1.84014E-02
 -1      1109 1.17021E-02
 -1      1110 6.91477E-03
 -1      1111 3.60135E-03
 -1      1112 1.72755E-03
 -1      1113 1.97179E-03
 -1      1114 2.11540E-03
 -1      1115 2.03667E-03
 -1      1116 2.67194E+00
 -1      1117 8.95337E-01
 -1      1118 1.74555E+00
 -1      1119 2.67194E+00
 -1      1120 1.70887E-03
 -1      1121 9.31337E-01
 -1      1122 7.38778E-01
 -1      1123 8.32233E-01
 -1      1124 1.18524E+01
 -1      1125 7.86851E+00
 -1      1126 3.21731E+00
 -1      1127 2.30260E+00
 -1      1128 1.91795E+00
 -1      1129 1.64381E+00
 -1      1130 1.35056E+00
 -1      1131 9.73524E-01
 -1      1132 7.86787E-01
 -1      1133 1.02441E+00
 -1      1134 1.36587E+00
 -1      1135 1.62967E+00
 -1      1136 1.89042E+00
 -1      1137 2.27442E+00
 -1      1138 3.12560E+00
 -1      1139 5.86248E+00
 -1      1140 1.02956E+01
 -1      1141 1.18524E+01
 -1      1142 7.46434E+00
 -1      1143 2.35800E+00
 -1      1144 1.12832E+00
 -1      1145 7.11063E-01
 -1      1146 9.14429E-01
 -1      1147 1.10226E+00
 -1      1148 1.45456E+00
 -1      1149 2.37235E+00
 -1      1150 3.59304E+00
 -1      1151 4.16960E+00
 -1      1152 4.21616E+00
 -1      1153 4.26272E+00
 -1      1154 3.72017E+00
 -1      1155 2.53668E+00
 -1      1156 1.67150E+00
 -1      1157 1.44725E+00
 -1      1158 1.42084E+00
 -1      1159 1.39443E+00
 -1      1160 1.32736E+00
 -1      1161 1.15131E+00
 -1      1162 9.36823E-01
 -1      1163 7.42116E-01
 -1      1164 5.90020E-01
 -1      1165 4.84604E-01
 -1      1166 3.99938E-01
 -1      1167 3.19401E-01
 -1      1168 2.47970E-01
 -1      1169 1.87584E-01
 -1      1170 1.38341E-01
 -1      1171 1.06352E-01
 -1      1172 8.76053E-02
 -1      1173 7.11559E-02
 -1      1174 5.66278E-02
 -1      1175 4.42101E-02
 -1      1176 3.38706E-02
 -1      1177 2.56330E-02
 -1      1178 2.01795E-02
 -1      1179 1.65778E-02
 -1      1180 1.33384E-02
 -1      1181 1.05176E-02
 -1      1182 8.13855E-03
 -1      1183 6.23364E-03
 -1      1184 4.69854E-03
 -1      1185 3.53337E-03
 -1      1186 2.85355E-03
 -1      1187 2.38770E-03
 -1      1188 1.87854E-03
 -1      1189 1.41288E-03
 -1      1190 7.41152E-04
 -1      1191 1.25938E+01
 -1      1192 7.56140E+00
 -1      1193 1.87292E+00
 -1      1194 9.00291E-01
 -1      1195 5.87064E-01
 -1      1196 8.02430E-01
 -1      1197 1.08792E+00
 -1      1198 1.39379E+00
 -1      1199 1.85550E+00
 -1      1200 2.61065E+00
 -1      1201 3.27694E+00
 -1      1202 3.68055E+00
 -1      1203 3.94371E+00
 -1      1204 3.62478E+00
 -1      1205 2.66964E+00
 -1      1206 1.67984E+00
 -1      1207 1.19323E+00
 -1      1208 1.14275E+00
 -1      1209 1.22754E+00
 -1      1210 1.22978E+00
 -1      1211 1.16827E+00
 -1      1212 1.02046E+00
 -1      1213 8.56856E-01
 -1      1214 7.00514E-01
 -1      1215 5.48862E-01
 -1      1216 4.13980E-01
 -1      1217 3.13044E-01
 -1      1218 2.42804E-01
 -1      1219 1.84805E-01
 -1      1220 1.37014E-01
 -1      1221 9.88525E-02
 -1      1222 6.91914E-02
 -1      1223 5.05366E-02
 -1      1224 4.08696E-02
 -1      1225 3.34536E-02
 -1      1226 2.68181E-02
 -1      1227 2.12196E-02
 -1      1228 1.76333E-02
 -1      1229 1.53648E-02
 -1      1230 1.30194E-02
 -1      1231 1.07740E-02
 -1      1232 8.72448E-03
 -1      1233 6.98625E-03
 -1      1234 5.54070E-03
 -1      1235 4.26618E-03
 -1      1236 3.13927E-03
 -1      1237 2.36931E-03
 -1      1238 1.82601E-03
 -1      1239 1.20267E-03
 -1      1240 5.55787E-04
 -1      1241 3.18516E-04
 -1      1242 4.05779E-04
 -1      1243 3.53665E-04
 -1      1244 2.15443E-04
 -1      1245 1.58423E-04
 -1      1246 2.32794E-04
 -1      1247 3.04069E-04
 -1      1248 3.37316E-04
 -1      1249 3.44568E-04
 -1      1250 3.37019E-04
 -1      1251 3.02041E-04
 -1      1252 2.30738E-04
 -1      1253 1.59435E-04
 -1      1254 2.17830E-04
 -1      1255 4.21045E-04
 -1      1256 5.86021E-04
 -1      1257 4.52178E-04
 -1      1258 2.54523E+01
 -1      1259 3.59942E+01
 -1      1260 4.65361E+01
 -1      1261 3.33880E+01
 -1      1262 1.60381E+01
 -1      1263 1.21964E+01
 -1      1264 1.26314E+01
 -1      1265 1.27063E+01
 -1      1266 1.24796E+01
 -1      1267 1.25191E+01
 -1      1268 1.98446E+01
 -1      1269 2.80181E+01
 -1      1270 2.91323E+01
 -1      1271 2.76671E+01
 -1      1272 2.53768E+01
 -1      1273 2.46564E+01
 -1      1274 3.46542E+01
 -1      1275 4.45475E+01
 -1      1276 3.06597E+01
 -1      1277 1.46447E+01
 -1      1278 1.25176E+01
 -1      1279 1.22109E+01
 -1      1280 1.24732E+01
 -1      1281 1.30422E+01
 -1      1282 1.25551E+01
 -1      1283 1.87154E+01
 -1      1284 2.74818E+01
 -1      1285 2.96009E+01
 -1      1286 2.72314E+01
 -1      1287 2.51571E+01
 -1      1288 1.18524E+01
 -1      1289 4.96883E+00
 -1      1290 8.95276E+00
 -1      1291 2.71976E+00
 -1      1292 3.38704E+00
 -1      1293 4.47128E+00
 -1      1294 2.10131E+00
 -1      1295 2.34874E+00
 -1      1296 2.51847E+00
 -1      1297 1.79689E+00
 -1      1298 1.93410E+00
 -1      1299 1.98024E+00
 -1      1300 1.55013E+00
 -1      1301 1.68705E+00
 -1      1302 1.70320E+00
 -1      1303 1.29402E+00
 -1      1304 1.45035E+00
 -1      1305 1.49358E+00
 -1      1306 8.81072E-01
 -1      1307 1.10178E+00
 -1      1308 1.20157E+00
 -1      1309 6.93293E-01
 -1      1310 6.59320E-01
 -1      1311 7.87579E-01
 -1      1312 1.15033E+00
 -1      1313 9.46680E-01
 -1      1314 8.19213E-01
 -1      1315 1.44306E+00
 -1      1316 1.30524E+00
 -1      1317 1.22751E+00
 -1      1318 1.67061E+00
 -1      1319 1.54463E+00
 -1      1320 1.48400E+00
 -1      1321 1.90749E+00
 -1      1322 1.77272E+00
 -1      1323 1.68769E+00
 -1      1324 2.33840E+00
 -1      1325 2.08917E+00
 -1      1326 1.97147E+00
 -1      1327 3.27916E+00
 -1      1328 2.67721E+00
 -1      1329 2.49197E+00
 -1      1330 5.98126E+00
 -1      1331 3.84633E+00
 -1      1332 3.39794E+00
 -1      1333 1.25938E+01
 -1      1334 1.02956E+01
 -1      1335 8.27946E+00
 -1      1336 1.25938E+01
 -1      1337 7.46434E+00
 -1      1338 3.07625E+00
 -1      1339 2.36221E+00
 -1      1340 1.64396E+00
 -1      1341 2.36221E+00
 -1      1342 1.15511E+00
 -1      1343 6.43671E-01
 -1      1344 1.15932E+00
 -1      1345 6.10328E-01
 -1      1346 7.04510E-01
 -1      1347 6.37118E-01
 -1      1348 8.05244E-01
 -1      1349 9.14429E-01
 -1      1350 7.04510E-01
 -1      1351 1.02361E+00
 -1      1352 1.10226E+00
 -1      1353 9.14429E-01
 -1      1354 1.18090E+00
 -1      1355 1.45456E+00
 -1      1356 1.10226E+00
 -1      1357 1.81175E+00
 -1      1358 2.45589E+00
 -1      1359 1.53810E+00
 -1      1360 3.01649E+00
 -1      1361 3.59304E+00
 -1      1362 2.45589E+00
 -1      1363 4.16960E+00
 -1      1364 4.16960E+00
 -1      1365 3.59304E+00
 -1      1366 4.16710E+00
 -1      1367 4.21366E+00
 -1      1368 4.16710E+00
 -1      1369 4.26272E+00
 -1      1370 4.26272E+00
 -1      1371 4.21366E+00
 -1      1372 3.72017E+00
 -1      1373 3.17762E+00
 -1      1374 3.72017E+00
 -1      1375 2.55785E+00
 -1      1376 1.91691E+00
 -1      1377 2.55785E+00
 -1      1378 1.63797E+00
 -1      1379 1.41373E+00
 -1      1380 1.65914E+00
 -1      1381 1.44725E+00
 -1      1382 1.44725E+00
 -1      1383 1.41373E+00
 -1      1384 1.38955E+00
 -1      1385 1.36314E+00
 -1      1386 1.38955E+00
 -1      1387 1.39443E+00
 -1      1388 1.39443E+00
 -1      1389 1.36314E+00
 -1      1390 1.32736E+00
 -1      1391 1.26029E+00
 -1      1392 1.32736E+00
 -1      1393 1.15131E+00
 -1      1394 1.04234E+00
 -1      1395 1.15131E+00
 -1      1396 9.59158E-01
 -1      1397 8.53639E-01
 -1      1398 9.59158E-01
 -1      1399 7.95643E-01
 -1      1400 7.06455E-01
 -1      1401 8.17978E-01
 -1      1402 6.38623E-01
 -1      1403 5.75715E-01
 -1      1404 6.92150E-01
 -1      1405 5.08915E-01
 -1      1406 4.66407E-01
 -1      1407 5.57518E-01
 -1      1408 4.06602E-01
 -1      1409 3.64445E-01
 -1      1410 4.30913E-01
 -1      1411 3.19401E-01
 -1      1412 2.81020E-01
 -1      1413 3.26064E-01
 -1      1414 2.50056E-01
 -1      1415 2.17006E-01
 -1      1416 2.50056E-01
 -1      1417 1.91949E-01
 -1      1418 1.64613E-01
 -1      1419 1.94036E-01
 -1      1420 1.43796E-01
 -1      1421 1.21890E-01
 -1      1422 1.48162E-01
 -1      1423 1.06352E-01
 -1      1424 9.62693E-02
 -1      1425 1.11807E-01
 -1      1426 8.76053E-02
 -1      1427 7.89412E-02
 -1      1428 8.76053E-02
 -1      1429 7.11559E-02
 -1      1430 6.33706E-02
 -1      1431 7.11559E-02
 -1      1432 5.66278E-02
 -1      1433 4.98851E-02
 -1      1434 5.66278E-02
 -1      1435 4.42101E-02
 -1      1436 3.85352E-02
 -1      1437 4.42101E-02
 -1      1438 3.38993E-02
 -1      1439 2.92348E-02
 -1      1440 3.38993E-02
 -1      1441 2.60483E-02
 -1      1442 2.24752E-02
 -1      1443 2.60770E-02
 -1      1444 2.01795E-02
 -1      1445 1.82991E-02
 -1      1446 2.05948E-02
 -1      1447 1.65778E-02
 -1      1448 1.48564E-02
 -1      1449 1.65778E-02
 -1      1450 1.33384E-02
 -1      1451 1.18204E-02
 -1      1452 1.33384E-02
 -1      1453 1.06074E-02
 -1      1454 9.30456E-03
 -1      1455 1.06074E-02
 -1      1456 8.32393E-03
 -1      1457 7.24775E-03
 -1      1458 8.41375E-03
 -1      1459 6.45472E-03
 -1      1460 5.62598E-03
 -1      1461 6.64009E-03
 -1      1462 4.99302E-03
 -1      1463 4.28666E-03
 -1      1464 5.21410E-03
 -1      1465 3.72533E-03
 -1      1466 3.26653E-03
 -1      1467 4.01981E-03
 -1      1468 2.85355E-03
 -1      1469 2.63252E-03
 -1      1470 3.04550E-03
 -1      1471 2.38770E-03
 -1      1472 2.14287E-03
 -1      1473 2.38770E-03
 -1      1474 1.87854E-03
 -1      1475 1.61421E-03
 -1      1476 1.87854E-03
 -1      1477 1.41288E-03
 -1      1478 1.21156E-03
 -1      1479 1.41288E-03
 -1      1480 9.22582E-04
 -1      1481 9.22582E-04
 -1      1482 2.52899E+00
 -1      1483 7.56140E+00
 -1      1484 7.56140E+00
 -1      1485 1.21685E+00
 -1      1486 1.87292E+00
 -1      1487 1.87292E+00
 -1      1488 5.83734E-01
 -1      1489 9.00291E-01
 -1      1490 9.00291E-01
 -1      1491 4.77048E-01
 -1      1492 4.73718E-01
 -1      1493 4.73718E-01
 -1      1494 8.02430E-01
 -1      1495 5.90394E-01
 -1      1496 4.77048E-01
 -1      1497 1.08792E+00
 -1      1498 1.01447E+00
 -1      1499 8.02430E-01
 -1      1500 1.39379E+00
 -1      1501 1.16138E+00
 -1      1502 1.08792E+00
 -1      1503 1.85550E+00
 -1      1504 1.62619E+00
 -1      1505 1.39379E+00
 -1      1506 2.69230E+00
 -1      1507 2.16646E+00
 -1      1508 1.93715E+00
 -1      1509 3.27694E+00
 -1      1510 3.13649E+00
 -1      1511 2.69230E+00
 -1      1512 3.68055E+00
 -1      1513 3.41739E+00
 -1      1514 3.27694E+00
 -1      1515 3.94371E+00
 -1      1516 3.94371E+00
 -1      1517 3.68055E+00
 -1      1518 3.30585E+00
 -1      1519 3.62478E+00
 -1      1520 3.62478E+00
 -1      1521 2.03343E+00
 -1      1522 2.66964E+00
 -1      1523 2.66964E+00
 -1      1524 1.32626E+00
 -1      1525 1.67984E+00
 -1      1526 1.67984E+00
 -1      1527 1.02573E+00
 -1      1528 1.15876E+00
 -1      1529 1.15876E+00
 -1      1530 1.14275E+00
 -1      1531 1.06020E+00
 -1      1532 1.02573E+00
 -1      1533 1.22754E+00
 -1      1534 1.22531E+00
 -1      1535 1.14275E+00
 -1      1536 1.22978E+00
 -1      1537 1.22978E+00
 -1      1538 1.22754E+00
 -1      1539 1.10676E+00
 -1      1540 1.16827E+00
 -1      1541 1.16827E+00
 -1      1542 9.34156E-01
 -1      1543 1.02046E+00
 -1      1544 1.02046E+00
 -1      1545 7.79737E-01
 -1      1546 8.57037E-01
 -1      1547 8.57037E-01
 -1      1548 6.31060E-01
 -1      1549 7.10102E-01
 -1      1550 7.10283E-01
 -1      1551 4.90803E-01
 -1      1552 5.63414E-01
 -1      1553 5.73001E-01
 -1      1554 3.68118E-01
 -1      1555 4.30390E-01
 -1      1556 4.44942E-01
 -1      1557 2.78525E-01
 -1      1558 3.17189E-01
 -1      1559 3.33599E-01
 -1      1560 2.11229E-01
 -1      1561 2.42804E-01
 -1      1562 2.46950E-01
 -1      1563 1.58382E-01
 -1      1564 1.84805E-01
 -1      1565 1.84805E-01
 -1      1566 1.15922E-01
 -1      1567 1.37290E-01
 -1      1568 1.37290E-01
 -1      1569 8.33734E-02
 -1      1570 1.00167E-01
 -1      1571 1.00443E-01
 -1      1572 5.81880E-02
 -1      1573 7.10553E-02
 -1      1574 7.23700E-02
 -1      1575 4.47491E-02
 -1      1576 5.05366E-02
 -1      1577 5.24005E-02
 -1      1578 3.69901E-02
 -1      1579 4.08696E-02
 -1      1580 4.08696E-02
 -1      1581 2.99172E-02
 -1      1582 3.34536E-02
 -1      1583 3.34536E-02
 -1      1584 2.37190E-02
 -1      1585 2.68181E-02
 -1      1586 2.68181E-02
 -1      1587 1.87203E-02
 -1      1588 2.12196E-02
 -1      1589 2.12196E-02
 -1      1590 1.65463E-02
 -1      1591 1.76333E-02
 -1      1592 1.76333E-02
 -1      1593 1.41833E-02
 -1      1594 1.53648E-02
 -1      1595 1.53648E-02
 -1      1596 1.18555E-02
 -1      1597 1.30194E-02
 -1      1598 1.30194E-02
 -1      1599 9.69245E-03
 -1      1600 1.07740E-02
 -1      1601 1.07740E-02
 -1      1602 7.75651E-03
 -1      1603 8.72448E-03
 -1      1604 8.72448E-03
 -1      1605 6.21599E-03
 -1      1606 6.98625E-03
 -1      1607 6.98625E-03
 -1      1608 4.86542E-03
 -1      1609 5.54070E-03
 -1      1610 5.54070E-03
 -1      1611 3.67783E-03
 -1      1612 4.27707E-03
 -1      1613 4.27707E-03
 -1      1614 2.65954E-03
 -1      1615 3.18721E-03
 -1      1616 3.19810E-03
 -1      1617 2.12700E-03
 -1      1618 2.36931E-03
 -1      1619 2.41724E-03
 -1      1620 1.52502E-03
 -1      1621 1.82601E-03
 -1      1622 1.82601E-03
 -1      1623 8.87536E-04
 -1      1624 1.20988E-03
 -1      1625 1.20988E-03
 -1      1626 6.43051E-04
 -1      1627 4.50720E-04
 -1      1628 4.50720E-04
 -1      1629 3.98606E-04
 -1      1630 4.50720E-04
 -1      1631 4.95661E-04
 -1      1632 2.83811E-04
 -1      1633 3.69919E-04
 -1      1634 4.66974E-04
 -1      1635 2.45284E-04
 -1      1636 2.16196E-04
 -1      1637 3.70672E-04
 -1      1638 3.81234E-04
 -1      1639 3.35953E-04
 -1      1640 3.93725E-04
 -1      1641 4.62621E-04
 -1      1642 4.36627E-04
 -1      1643 5.39786E-04
 -1      1644 4.91655E-04
 -1      1645 4.84403E-04
 -1      1646 6.16960E-04
 -1      1647 4.91655E-04
 -1      1648 4.91655E-04
 -1      1649 6.38742E-04
 -1      1650 4.84008E-04
 -1      1651 4.91556E-04
 -1      1652 6.38643E-04
 -1      1653 4.33264E-04
 -1      1654 4.60694E-04
 -1      1655 6.15231E-04
 -1      1656 3.35436E-04
 -1      1657 3.79309E-04
 -1      1658 5.37962E-04
 -1      1659 2.19288E-04
 -1      1660 2.46718E-04
 -1      1661 3.95289E-04
 -1      1662 3.69769E-04
 -1      1663 2.83944E-04
 -1      1664 3.71227E-04
 -1      1665 4.87159E-04
 -1      1666 3.69769E-04
 -1      1667 4.35883E-04
 -1      1668 6.35231E-04
 -1      1669 5.87644E-04
 -1      1670 5.36369E-04
 -1      1671 9.24205E-04
 -1      1672 2.86303E+01
 -1      1673 2.86303E+01
 -1      1674 3.69034E+01
 -1      1675 2.63616E+01
 -1      1676 4.65361E+01
 -1      1677 4.65361E+01
 -1      1678 2.05651E+01
 -1      1679 3.37132E+01
 -1      1680 1.16914E+01
 -1      1681 1.58932E+01
 -1      1682 1.21964E+01
 -1      1683 1.18363E+01
 -1      1684 1.26314E+01
 -1      1685 1.25564E+01
 -1      1686 1.27063E+01
 -1      1687 1.27063E+01
 -1      1688 1.22529E+01
 -1      1689 1.24796E+01
 -1      1690 1.24457E+01
 -1      1691 1.21794E+01
 -1      1692 1.98446E+01
 -1      1693 1.27854E+01
 -1      1694 2.88428E+01
 -1      1695 2.77286E+01
 -1      1696 3.04522E+01
 -1      1697 3.04522E+01
 -1      1698 2.89870E+01
 -1      1699 3.04522E+01
 -1      1700 2.79159E+01
 -1      1701 2.87409E+01
 -1      1702 2.80204E+01
 -1      1703 2.79159E+01
 -1      1704 4.09045E+01
 -1      1705 3.10112E+01
 -1      1706 4.45475E+01
 -1      1707 4.45475E+01
 -1      1708 1.70883E+01
 -1      1709 3.09762E+01
 -1      1710 1.17472E+01
 -1      1711 1.38744E+01
 -1      1712 1.25176E+01
 -1      1713 1.25176E+01
 -1      1714 1.19042E+01
 -1      1715 1.22109E+01
 -1      1716 1.24018E+01
 -1      1717 1.18328E+01
 -1      1718 1.30422E+01
 -1      1719 1.30422E+01
 -1      1720 1.17339E+01
 -1      1721 1.22210E+01
 -1      1722 1.87154E+01
 -1      1723 1.20680E+01
 -1      1724 2.80752E+01
 -1      1725 2.59562E+01
 -1      1726 3.05001E+01
 -1      1727 3.05001E+01
 -1      1728 2.81307E+01
 -1      1729 3.05001E+01
 -1      1730 2.86303E+01
 -1      1731 2.83351E+01
 -1      1732 1.62184E+01
 -1      1733 3.37132E+01
 -1      1734 6.50264E-04
 -1      1735 6.95205E-04
 -1      1736 2.95395E+01
 -1      1737 3.69034E+01
 -1      1738 3.18083E+01
 -1      1739 1.16914E+01
 -1      1740 1.21964E+01
 -1      1741 1.26314E+01
 -1      1742 1.24796E+01
 -1      1743 1.21794E+01
 -1      1744 1.24457E+01
 -1      1745 2.06693E+01
 -1      1746 3.01627E+01
 -1      1747 3.17721E+01
 -1      1748 3.15260E+01
 -1      1749 3.12799E+01
 -1      1750 3.42707E+01
 -1      1751 4.09045E+01
 -1      1752 3.09762E+01
 -1      1753 1.41908E+01
 -1      1754 1.17472E+01
 -1      1755 1.22109E+01
 -1      1756 1.18328E+01
 -1      1757 1.24018E+01
 -1      1758 1.22210E+01
 -1      1759 1.17339E+01
 -1      1760 1.93088E+01
 -1      1761 2.89745E+01
 -1      1762 3.13994E+01
 -1      1763 3.16039E+01
 -1      1764 8.95276E+00
 -1      1765 2.16329E+00
 -1      1766 2.53430E+00
 -1      1767 2.86349E+00
 -1      1768 4.44529E+00
 -1      1769 2.50831E+00
 -1      1770 1.62565E+00
 -1      1771 1.73549E+00
 -1      1772 1.49009E+00
 -1      1773 1.58987E+00
 -1      1774 1.62216E+00
 -1      1775 1.17631E+00
 -1      1776 1.36854E+00
 -1      1777 1.46484E+00
 -1      1778 6.98180E-01
 -1      1779 9.19932E-01
 -1      1780 1.08691E+00
 -1      1781 1.00951E+00
 -1      1782 7.56126E-01
 -1      1783 8.88479E-01
 -1      1784 1.36879E+00
 -1      1785 1.21387E+00
 -1      1786 1.15079E+00
 -1      1787 1.57106E+00
 -1      1788 1.46948E+00
 -1      1789 1.45585E+00
 -1      1790 1.70089E+00
 -1      1791 1.59878E+00
 -1      1792 1.58426E+00
 -1      1793 1.94037E+00
 -1      1794 1.75869E+00
 -1      1795 1.66978E+00
 -1      1796 2.37255E+00
 -1      1797 2.03374E+00
 -1      1798 1.82095E+00
 -1      1799 2.96577E+00
 -1      1800 2.39861E+00
 -1      1801 1.94039E+00
 -1      1802 7.16714E+00
 -1      1803 2.85278E+00
 -1      1804 1.85346E+00
 -1      1805 2.13473E+00
 -1      1806 4.56466E+00
 -1      1807 1.22498E+00
 -1      1808 1.88105E+00
 -1      1809 1.48679E+00
 -1      1810 2.95687E+00
 -1      1811 1.50141E+00
 -1      1812 1.01255E+00
 -1      1813 8.39425E-01
 -1      1814 8.06082E-01
 -1      1815 1.18151E+00
 -1      1816 7.45301E-01
 -1      1817 8.46035E-01
 -1      1818 9.47607E-01
 -1      1819 7.82561E-01
 -1      1820 8.91746E-01
 -1      1821 8.23353E-01
 -1      1822 9.54458E-01
 -1      1823 1.03310E+00
 -1      1824 8.22590E-01
 -1      1825 1.26280E+00
 -1      1826 1.61999E+00
 -1      1827 1.11500E+00
 -1      1828 1.90899E+00
 -1      1829 2.46959E+00
 -1      1830 1.63369E+00
 -1      1831 2.74020E+00
 -1      1832 3.31676E+00
 -1      1833 2.19330E+00
 -1      1834 3.38894E+00
 -1      1835 3.38644E+00
 -1      1836 2.53610E+00
 -1      1837 3.38613E+00
 -1      1838 3.43518E+00
 -1      1839 2.60796E+00
 -1      1840 3.38226E+00
 -1      1841 2.83971E+00
 -1      1842 2.55472E+00
 -1      1843 2.54003E+00
 -1      1844 1.92026E+00
 -1      1845 2.20212E+00
 -1      1846 1.62935E+00
 -1      1847 1.35042E+00
 -1      1848 1.61153E+00
 -1      1849 1.14705E+00
 -1      1850 1.18057E+00
 -1      1851 1.11726E+00
 -1      1852 1.14332E+00
 -1      1853 1.08562E+00
 -1      1854 8.76638E-01
 -1      1855 1.15857E+00
 -1      1856 1.18986E+00
 -1      1857 9.12335E-01
 -1      1858 1.23030E+00
 -1      1859 1.16323E+00
 -1      1860 1.02573E+00
 -1      1861 1.13293E+00
 -1      1862 1.02395E+00
 -1      1863 1.03587E+00
 -1      1864 9.69860E-01
 -1      1865 8.86676E-01
 -1      1866 9.51471E-01
 -1      1867 8.39313E-01
 -1      1868 7.81317E-01
 -1      1869 8.50015E-01
 -1      1870 7.26305E-01
 -1      1871 6.58473E-01
 -1      1872 7.47641E-01
 -1      1873 5.97580E-01
 -1      1874 5.30780E-01
 -1      1875 6.31735E-01
 -1      1876 4.71964E-01
 -1      1877 4.12158E-01
 -1      1878 5.12026E-01
 -1      1879 3.59729E-01
 -1      1880 3.14685E-01
 -1      1881 4.00780E-01
 -1      1882 2.70422E-01
 -1      1883 2.39458E-01
 -1      1884 3.04087E-01
 -1      1885 2.03572E-01
 -1      1886 1.78515E-01
 -1      1887 2.23938E-01
 -1      1888 1.50359E-01
 -1      1889 1.29542E-01
 -1      1890 1.59896E-01
 -1      1891 1.10552E-01
 -1      1892 9.50139E-02
 -1      1893 1.12749E-01
 -1      1894 8.17988E-02
 -1      1895 7.31347E-02
 -1      1896 8.05434E-02
 -1      1897 6.40007E-02
 -1      1898 5.62154E-02
 -1      1899 5.81942E-02
 -1      1900 5.14664E-02
 -1      1901 4.47236E-02
 -1      1902 4.43112E-02
 -1      1903 4.12508E-02
 -1      1904 3.55758E-02
 -1      1905 3.60894E-02
 -1      1906 3.24316E-02
 -1      1907 2.77957E-02
 -1      1908 2.94723E-02
 -1      1909 2.50492E-02
 -1      1910 2.18627E-02
 -1      1911 2.35814E-02
 -1      1912 1.95294E-02
 -1      1913 1.72336E-02
 -1      1914 1.85015E-02
 -1      1915 1.55780E-02
 -1      1916 1.38566E-02
 -1      1917 1.45125E-02
 -1      1918 1.28843E-02
 -1      1919 1.13663E-02
 -1      1920 1.18845E-02
 -1      1921 1.04196E-02
 -1      1922 9.20663E-03
 -1      1923 9.96551E-03
 -1      1924 8.33090E-03
 -1      1925 7.35027E-03
 -1      1926 8.14315E-03
 -1      1927 6.64176E-03
 -1      1928 5.84873E-03
 -1      1929 6.55891E-03
 -1      1930 5.23044E-03
 -1      1931 4.59748E-03
 -1      1932 5.23211E-03
 -1      1933 4.07191E-03
 -1      1934 3.51058E-03
 -1      1935 4.08825E-03
 -1      1936 3.09365E-03
 -1      1937 2.68067E-03
 -1      1938 3.14575E-03
 -1      1939 2.31559E-03
 -1      1940 2.07076E-03
 -1      1941 2.36374E-03
 -1      1942 1.81484E-03
 -1      1943 1.55051E-03
 -1      1944 1.74273E-03
 -1      1945 1.33839E-03
 -1      1946 1.13707E-03
 -1      1947 8.49715E-04
 -1      1948 1.27469E-03
 -1      1949 6.89259E-01
 -1      1950 1.00582E+00
 -1      1951 1.01395E+00
 -1      1952 4.89059E-01
 -1      1953 5.99075E-01
 -1      1954 7.04600E-01
 -1      1955 5.25953E-01
 -1      1956 4.12607E-01
 -1      1957 5.37964E-01
 -1      1958 7.92901E-01
 -1      1959 5.80865E-01
 -1      1960 5.16424E-01
 -1      1961 1.13783E+00
 -1      1962 1.06438E+00
 -1      1963 8.42812E-01
 -1      1964 1.68155E+00
 -1      1965 1.44914E+00
 -1      1966 1.42560E+00
 -1      1967 2.14478E+00
 -1      1968 1.83382E+00
 -1      1969 1.88918E+00
 -1      1970 2.58897E+00
 -1      1971 2.14478E+00
 -1      1972 2.04145E+00
 -1      1973 2.70551E+00
 -1      1974 2.56506E+00
 -1      1975 2.01754E+00
 -1      1976 3.11293E+00
 -1      1977 2.84977E+00
 -1      1978 2.13789E+00
 -1      1979 2.73793E+00
 -1      1980 3.05686E+00
 -1      1981 2.22608E+00
 -1      1982 1.77835E+00
 -1      1983 2.41457E+00
 -1      1984 1.84665E+00
 -1      1985 1.10935E+00
 -1      1986 1.46294E+00
 -1      1987 1.20786E+00
 -1      1988 7.82538E-01
 -1      1989 9.50038E-01
 -1      1990 7.33132E-01
 -1      1991 9.24960E-01
 -1      1992 8.90488E-01
 -1      1993 6.81769E-01
 -1      1994 1.05465E+00
 -1      1995 9.72098E-01
 -1      1996 8.36857E-01
 -1      1997 1.07368E+00
 -1      1998 1.07144E+00
 -1      1999 9.00788E-01
 -1      2000 9.95905E-01
 -1      2001 1.05741E+00
 -1      2002 9.01317E-01
 -1      2003 8.64012E-01
 -1      2004 9.50313E-01
 -1      2005 8.39461E-01
 -1      2006 7.42394E-01
 -1      2007 8.19513E-01
 -1      2008 7.49370E-01
 -1      2009 6.17039E-01
 -1      2010 6.86674E-01
 -1      2011 6.49150E-01
 -1      2012 4.92149E-01
 -1      2013 5.59795E-01
 -1      2014 5.36186E-01
 -1      2015 3.78724E-01
 -1      2016 4.39138E-01
 -1      2017 4.25932E-01
 -1      2018 2.81861E-01
 -1      2019 3.32790E-01
 -1      2020 3.26986E-01
 -1      2021 2.08253E-01
 -1      2022 2.43974E-01
 -1      2023 2.43164E-01
 -1      2024 1.56934E-01
 -1      2025 1.83358E-01
 -1      2026 1.80382E-01
 -1      2027 1.16197E-01
 -1      2028 1.37290E-01
 -1      2029 1.35842E-01
 -1      2030 8.46881E-02
 -1      2031 1.00443E-01
 -1      2032 1.00443E-01
 -1      2033 6.00518E-02
 -1      2034 7.23700E-02
 -1      2035 7.23700E-02
 -1      2036 4.29906E-02
 -1      2037 5.06420E-02
 -1      2038 5.06420E-02
 -1      2039 3.26583E-02
 -1      2040 3.65378E-02
 -1      2041 3.47793E-02
 -1      2042 2.71958E-02
 -1      2043 3.07323E-02
 -1      2044 2.64005E-02
 -1      2045 2.21462E-02
 -1      2046 2.52453E-02
 -1      2047 2.25240E-02
 -1      2048 1.78032E-02
 -1      2049 2.03025E-02
 -1      2050 1.87298E-02
 -1      2051 1.50520E-02
 -1      2052 1.61390E-02
 -1      2053 1.52219E-02
 -1      2054 1.24177E-02
 -1      2055 1.35992E-02
 -1      2056 1.21050E-02
 -1      2057 1.04787E-02
 -1      2058 1.16425E-02
 -1      2059 9.87699E-03
 -1      2060 8.68500E-03
 -1      2061 9.76653E-03
 -1      2062 8.38968E-03
 -1      2063 7.02218E-03
 -1      2064 7.99015E-03
 -1      2065 6.98270E-03
 -1      2066 5.69598E-03
 -1      2067 6.46624E-03
 -1      2068 5.73191E-03
 -1      2069 4.54354E-03
 -1      2070 5.21883E-03
 -1      2071 4.69882E-03
 -1      2072 3.50953E-03
 -1      2073 4.09788E-03
 -1      2074 3.77600E-03
 -1      2075 2.61415E-03
 -1      2076 3.10477E-03
 -1      2077 2.92558E-03
 -1      2078 1.98191E-03
 -1      2079 2.27215E-03
 -1      2080 2.17882E-03
 -1      2081 1.46316E-03
 -1      2082 1.76415E-03
 -1      2083 1.61906E-03
 -1      2084 8.94750E-04
 -1      2085 1.20988E-03
 -1      2086 1.14802E-03
 -1      2087 6.95205E-04
 -1      2088 4.12111E-04
 -1      2089 4.79726E-04
 -1      2090 7.05388E-04
 -1      2091 7.34074E-04
 -1      2092 7.46827E-04
 -1      2093 7.34074E-04
 -1      2094 7.34074E-04
 -1      2095 9.33619E-04
 -1      2096 9.72488E-04
 -1      2097 5.66105E-04
 -1      2098 4.75436E-04
 -1      2099 5.84491E-04
 -1      2100 7.00049E-04
 -1      2101 6.44656E-04
 -1      2102 7.26368E-04
 -1      2103 7.57072E-04
 -1      2104 7.35291E-04
 -1      2105 8.40160E-04
 -1      2106 7.57072E-04
 -1      2107 7.57072E-04
 -1      2108 8.75402E-04
 -1      2109 7.55766E-04
 -1      2110 7.55865E-04
 -1      2111 8.74195E-04
 -1      2112 7.32452E-04
 -1      2113 7.55766E-04
 -1      2114 8.72987E-04
 -1      2115 6.44848E-04
 -1      2116 6.98803E-04
 -1      2117 8.39338E-04
 -1      2118 4.77115E-04
 -1      2119 5.65833E-04
 -1      2120 7.26674E-04
 -1      2121 4.72746E-04
 -1      2122 4.08090E-04
 -1      2123 5.78634E-04
 -1      2124 6.40463E-04
 -1      2125 6.40463E-04
 -1      2126 6.77326E-04
 -1      2127 3.69034E+01
 -1      2128 2.72708E+01
 -1      2129 3.40231E+01
 -1      2130 3.40231E+01
 -1      2131 2.69544E+01
 -1      2132 2.92232E+01
 -1      2133 2.69544E+01
 -1      2134 1.83759E+01
 -1      2135 3.11988E+01
 -1      2136 1.06962E+01
 -1      2137 1.53680E+01
 -1      2138 1.99608E+00
 -1      2139 2.16329E+00
 -1      2140 2.17912E+00
 -1      2141 1.91853E+00
 -1      2142 1.09439E+01
 -1      2143 1.05839E+01
 -1      2144 1.17661E+01
 -1      2145 1.16912E+01
 -1      2146 1.09909E+01
 -1      2147 1.12176E+01
 -1      2148 1.06345E+01
 -1      2149 1.07080E+01
 -1      2150 9.44600E+00
 -1      2151 9.78194E+00
 -1      2152 9.44224E+00
 -1      2153 1.99348E+01
 -1      2154 1.20509E+01
 -1      2155 2.57147E+01
 -1      2156 2.41053E+01
 -1      2157 3.17721E+01
 -1      2158 3.17721E+01
 -1      2159 3.61163E+01
 -1      2160 3.63624E+01
 -1      2161 3.61163E+01
 -1      2162 3.61163E+01
 -1      2163 4.09528E+01
 -1      2164 3.35442E+01
 -1      2165 3.05535E+01
 -1      2166 3.53258E+01
 -1      2167 3.16827E+01
 -1      2168 1.64483E+01
 -1      2169 3.00196E+01
 -1      2170 9.70968E+00
 -1      2171 1.29237E+01
 -1      2172 1.00580E+01
 -1      2173 9.28765E+00
 -1      2174 1.09554E+01
 -1      2175 1.12620E+01
 -1      2176 1.10829E+01
 -1      2177 1.11543E+01
 -1      2178 1.18783E+01
 -1      2179 1.12380E+01
 -1      2180 9.65621E+00
 -1      2181 1.04775E+01
 -1      2182 9.44773E+00
 -1      2183 9.11358E+00
 -1      2184 1.88540E+01
 -1      2185 1.16132E+01
 -1      2186 2.49566E+01
 -1      2187 2.25317E+01
 -1      2188 3.13994E+01
 -1      2189 3.13994E+01
 -1      2190 3.40231E+01
 -1      2191 3.38187E+01
 -1      2192 3.38187E+01
 -1      2193 3.62380E+01
 -1      2194 9.48014E+00
 -1      2195 9.33525E+00
 -1      2196 8.48486E+00
 -1      2197 2.24284E+00
 -1      2198 8.22768E+00
 -1      2199 2.09607E+00
 -1      2200 3.14380E+01
 -1      2201 1.49903E+01
 -1      2202 3.03276E+01
 -1      2203 2.06949E+01
 -1      2204 7.40949E-04
 -1      2205 1.28537E+01
 -1      2206 2.49566E+01
 -1      2207 1.48361E+01
 -1      2208 8.99292E+00
 -1      2209 7.37009E+00
 -1      2210 1.07210E+01
 -1      2211 9.55708E+00
 -1      2212 8.15622E+00
 -1      2213 1.05594E+01
 -1      2214 1.02054E+01
 -1      2215 8.80249E+00
 -1      2216 8.02048E+00
 -1      2217 1.19671E+01
 -1      2218 2.07979E+01
 -1      2219 3.53899E+01
 -1      2220 3.63624E+01
 -1      2221 2.57147E+01
 -1      2222 1.54869E+01
 -1      2223 7.97078E+00
 -1      2224 1.00787E+01
 -1      2225 1.02774E+01
 -1      2226 9.04747E+00
 -1      2227 2.79655E+01
 -1      2228 1.26064E+00
 -1      2229 1.47980E+00
 -1      2230 1.52560E+00
 -1      2231 1.64715E+00
 -1      2232 1.64715E+00
 -1      2233 1.68293E+00
 -1      2234 1.70791E+00
 -1      2235 1.04588E+00
 -1      2236 9.87933E-01
 -1      2237 1.38823E+00
 -1      2238 1.18387E+00
 -1      2239 1.28332E+00
 -1      2240 1.62011E+00
 -1      2241 1.51941E+00
 -1      2242 1.55249E+00
 -1      2243 1.64783E+00
 -1      2244 1.62011E+00
 -1      2245 1.68367E+00
 -1      2246 1.67150E+00
 -1      2247 1.61370E+00
 -1      2248 1.64954E+00
 -1      2249 1.90454E+00
 -1      2250 1.81117E+00
 -1      2251 1.75508E+00
 -1      2252 8.26999E-01
 -1      2253 9.17183E-01
 -1      2254 1.38304E+00
 -1      2255 1.38071E+00
 -1      2256 1.20758E+00
 -1      2257 7.15775E+00
 -1      2258 6.05403E+00
 -1      2259 1.19205E+00
 -1      2260 1.13127E+00
 -1      2261 1.39125E+00
 -1      2262 1.11249E+00
 -1      2263 1.04902E+00
 -1      2264 1.35694E+00
 -1      2265 1.07806E+00
 -1      2266 1.14077E+00
 -1      2267 1.36720E+00
 -1      2268 1.27481E+00
 -1      2269 1.50450E+00
 -1      2270 1.53027E+00
 -1      2271 1.56758E+00
 -1      2272 1.85658E+00
 -1      2273 1.72739E+00
 -1      2274 1.96482E+00
 -1      2275 2.23544E+00
 -1      2276 1.89871E+00
 -1      2277 2.66030E+00
 -1      2278 2.73248E+00
 -1      2279 2.43182E+00
 -1      2280 2.94144E+00
 -1      2281 2.94113E+00
 -1      2282 3.06564E+00
 -1      2283 2.84400E+00
 -1      2284 2.79107E+00
 -1      2285 3.17748E+00
 -1      2286 2.29420E+00
 -1      2287 1.99452E+00
 -1      2288 2.58348E+00
 -1      2289 1.87431E+00
 -1      2290 1.58340E+00
 -1      2291 1.96639E+00
 -1      2292 1.52805E+00
 -1      2293 1.32468E+00
 -1      2294 1.79083E+00
 -1      2295 1.19553E+00
 -1      2296 1.15828E+00
 -1      2297 1.60632E+00
 -1      2298 1.06556E+00
 -1      2299 1.13852E+00
 -1      2300 1.38446E+00
 -1      2301 1.10194E+00
 -1      2302 1.14238E+00
 -1      2303 1.25517E+00
 -1      2304 1.07488E+00
 -1      2305 1.04457E+00
 -1      2306 1.15109E+00
 -1      2307 9.72151E-01
 -1      2308 9.18058E-01
 -1      2309 1.01116E+00
 -1      2310 8.77250E-01
 -1      2311 8.29887E-01
 -1      2312 8.97931E-01
 -1      2313 7.74007E-01
 -1      2314 7.18995E-01
 -1      2315 8.01241E-01
 -1      2316 6.57938E-01
 -1      2317 5.97045E-01
 -1      2318 6.84304E-01
 -1      2319 5.37808E-01
 -1      2320 4.78992E-01
 -1      2321 5.64011E-01
 -1      2322 4.25500E-01
 -1      2323 3.73071E-01
 -1      2324 4.51282E-01
 -1      2325 3.27080E-01
 -1      2326 2.82816E-01
 -1      2327 3.51800E-01
 -1      2328 2.44697E-01
 -1      2329 2.08811E-01
 -1      2330 2.67690E-01
 -1      2331 1.78132E-01
 -1      2332 1.49976E-01
 -1      2333 1.98892E-01
 -1      2334 1.25900E-01
 -1      2335 1.06910E-01
 -1      2336 1.44137E-01
 -1      2337 8.84456E-02
 -1      2338 7.52304E-02
 -1      2339 1.01597E-01
 -1      2340 6.13815E-02
 -1      2341 5.22475E-02
 -1      2342 6.92837E-02
 -1      2343 4.20975E-02
 -1      2344 3.73485E-02
 -1      2345 4.52848E-02
 -1      2346 3.20186E-02
 -1      2347 2.85457E-02
 -1      2348 2.98049E-02
 -1      2349 2.60536E-02
 -1      2350 2.29093E-02
 -1      2351 2.19828E-02
 -1      2352 2.16609E-02
 -1      2353 1.89143E-02
 -1      2354 1.82422E-02
 -1      2355 1.76096E-02
 -1      2356 1.52762E-02
 -1      2357 1.56891E-02
 -1      2358 1.40176E-02
 -1      2359 1.23619E-02
 -1      2360 1.31256E-02
 -1      2361 1.12080E-02
 -1      2362 1.02356E-02
 -1      2363 1.07130E-02
 -1      2364 9.38580E-03
 -1      2365 8.43917E-03
 -1      2366 8.70929E-03
 -1      2367 7.87749E-03
 -1      2368 7.00177E-03
 -1      2369 7.29778E-03
 -1      2370 6.42623E-03
 -1      2371 5.71772E-03
 -1      2372 6.16057E-03
 -1      2373 5.16535E-03
 -1      2374 4.54707E-03
 -1      2375 5.03268E-03
 -1      2376 4.09631E-03
 -1      2377 3.57075E-03
 -1      2378 4.02956E-03
 -1      2379 3.15568E-03
 -1      2380 2.73875E-03
 -1      2381 3.16375E-03
 -1      2382 2.37936E-03
 -1      2383 2.01428E-03
 -1      2384 2.38929E-03
 -1      2385 1.74585E-03
 -1      2386 1.48992E-03
 -1      2387 1.76147E-03
 -1      2388 2.23566E+01
 -1      2389 2.20402E+01
 -1      2390 7.57901E-01
 -1      2391 7.02989E-01
 -1      2392 1.07488E+00
 -1      2393 8.03401E-01
 -1      2394 9.89966E-01
 -1      2395 1.66428E+00
 -1      2396 1.35297E+00
 -1      2397 1.31356E+00
 -1      2398 1.91915E+00
 -1      2399 1.76688E+00
 -1      2400 1.69425E+00
 -1      2401 2.17863E+00
 -1      2402 2.17863E+00
 -1      2403 2.05633E+00
 -1      2404 2.28308E+00
 -1      2405 2.30699E+00
 -1      2406 2.44417E+00
 -1      2407 2.38331E+00
 -1      2408 2.23905E+00
 -1      2409 2.52850E+00
 -1      2410 2.06246E+00
 -1      2411 2.11853E+00
 -1      2412 2.21969E+00
 -1      2413 1.57542E+00
 -1      2414 1.89879E+00
 -1      2415 1.79123E+00
 -1      2416 1.07948E+00
 -1      2417 1.39490E+00
 -1      2418 1.44704E+00
 -1      2419 8.52691E-01
 -1      2420 1.01200E+00
 -1      2421 1.19904E+00
 -1      2422 8.56809E-01
 -1      2423 7.48859E-01
 -1      2424 1.02773E+00
 -1      2425 9.27192E-01
 -1      2426 8.80054E-01
 -1      2427 9.47144E-01
 -1      2428 9.33686E-01
 -1      2429 9.16893E-01
 -1      2430 9.60090E-01
 -1      2431 8.77434E-01
 -1      2432 8.93698E-01
 -1      2433 9.09803E-01
 -1      2434 7.97714E-01
 -1      2435 8.43306E-01
 -1      2436 8.35687E-01
 -1      2437 7.12116E-01
 -1      2438 7.56616E-01
 -1      2439 7.60461E-01
 -1      2440 6.06207E-01
 -1      2441 6.61927E-01
 -1      2442 6.69173E-01
 -1      2443 4.95066E-01
 -1      2444 5.52309E-01
 -1      2445 5.65086E-01
 -1      2446 3.90482E-01
 -1      2447 4.43494E-01
 -1      2448 4.59617E-01
 -1      2449 2.98591E-01
 -1      2450 3.44525E-01
 -1      2451 3.62087E-01
 -1      2452 2.21733E-01
 -1      2453 2.59620E-01
 -1      2454 2.77159E-01
 -1      2455 1.65016E-01
 -1      2456 1.89911E-01
 -1      2457 2.06367E-01
 -1      2458 1.20180E-01
 -1      2459 1.39825E-01
 -1      2460 1.49354E-01
 -1      2461 8.50192E-02
 -1      2462 1.00774E-01
 -1      2463 1.04756E-01
 -1      2464 5.81300E-02
 -1      2465 7.04482E-02
 -1      2466 7.07792E-02
 -1      2467 4.04260E-02
 -1      2468 4.98358E-02
 -1      2469 4.79140E-02
 -1      2470 2.83265E-02
 -1      2471 3.47793E-02
 -1      2472 3.39731E-02
 -1      2473 2.44745E-02
 -1      2474 2.64005E-02
 -1      2475 2.64005E-02
 -1      2476 2.05734E-02
 -1      2477 2.25240E-02
 -1      2478 2.25240E-02
 -1      2479 1.68861E-02
 -1      2480 1.87298E-02
 -1      2481 1.87298E-02
 -1      2482 1.35578E-02
 -1      2483 1.52219E-02
 -1      2484 1.52219E-02
 -1      2485 1.06522E-02
 -1      2486 1.21050E-02
 -1      2487 1.21050E-02
 -1      2488 9.10181E-03
 -1      2489 9.87699E-03
 -1      2490 9.87699E-03
 -1      2491 7.67755E-03
 -1      2492 8.38968E-03
 -1      2493 8.38968E-03
 -1      2494 6.28785E-03
 -1      2495 6.98270E-03
 -1      2496 6.98270E-03
 -1      2497 5.11619E-03
 -1      2498 5.67212E-03
 -1      2499 5.67212E-03
 -1      2500 4.11521E-03
 -1      2501 4.59236E-03
 -1      2502 4.53258E-03
 -1      2503 3.19790E-03
 -1      2504 3.64356E-03
 -1      2505 3.53711E-03
 -1      2506 2.42266E-03
 -1      2507 2.82742E-03
 -1      2508 2.69498E-03
 -1      2509 1.76671E-03
 -1      2510 2.10872E-03
 -1      2511 2.01055E-03
 -1      2512 1.30755E-03
 -1      2513 1.52531E-03
 -1      2514 1.45520E-03
 -1      2515 1.18689E-03
 -1      2516 9.00081E-04
 -1      2517 8.21530E-04
 -1      2518 9.92531E-04
 -1      2519 9.57289E-04
 -1      2520 1.05245E-03
 -1      2521 7.87003E-04
 -1      2522 1.01266E-03
 -1      2523 7.74457E-04
 -1      2524 7.11132E-04
 -1      2525 9.76970E-04
 -1      2526 9.48171E-04
 -1      2527 9.92531E-04
 -1      2528 9.92531E-04
 -1      2529 1.10966E-03
 -1      2530 9.87626E-04
 -1      2531 9.88833E-04
 -1      2532 1.10596E-03
 -1      2533 9.90993E-04
 -1      2534 9.90993E-04
 -1      2535 1.10563E-03
 -1      2536 9.57344E-04
 -1      2537 9.90993E-04
 -1      2538 1.10900E-03
 -1      2539 8.29201E-04
 -1      2540 9.08216E-04
 -1      2541 1.05987E-03
 -1      2542 6.72554E-04
 -1      2543 7.41580E-04
 -1      2544 9.23122E-04
 -1      2545 8.40272E-04
 -1      2546 6.72554E-04
 -1      2547 8.35500E-04
 -1      2548 9.53810E-04
 -1      2549 1.01389E+01
 -1      2550 1.31468E+01
 -1      2551 6.92043E-01
 -1      2552 7.68495E-01
 -1      2553 9.33521E-01
 -1      2554 2.66380E+01
 -1      2555 3.14380E+01
 -1      2556 2.30254E+01
 -1      2557 1.65826E+01
 -1      2558 2.50831E+00
 -1      2559 1.76688E+00
 -1      2560 1.79295E+00
 -1      2561 2.17912E+00
 -1      2562 3.24287E+01
 -1      2563 2.78383E+01
 -1      2564 8.99257E+00
 -1      2565 8.24530E+00
 -1      2566 6.07166E+00
 -1      2567 1.09642E+00
 -1      2568 1.35279E+00
 -1      2569 1.53510E+00
 -1      2570 1.25382E+00
 -1      2571 8.71834E+00
 -1      2572 9.26683E+00
 -1      2573 9.25492E+00
 -1      2574 6.98598E+00
 -1      2575 7.87386E+00
 -1      2576 8.15682E+00
 -1      2577 2.29710E+01
 -1      2578 2.48325E+01
 -1      2579 5.60485E+00
 -1      2580 6.79711E+00
 -1      2581 5.50793E+00
 -1      2582 1.42639E+01
 -1      2583 1.00934E+01
 -1      2584 2.29220E+01
 -1      2585 1.68647E+01
 -1      2586 1.14712E+01
 -1      2587 4.09528E+01
 -1      2588 4.09528E+01
 -1      2589 2.98270E+01
 -1      2590 3.53899E+01
 -1      2591 3.53899E+01
 -1      2592 1.38478E+01
 -1      2593 1.91540E+01
 -1      2594 8.31694E+00
 -1      2595 1.18415E+01
 -1      2596 6.27804E+00
 -1      2597 6.70007E+00
 -1      2598 7.84799E+00
 -1      2599 6.64395E+00
 -1      2600 8.89941E+00
 -1      2601 8.70050E+00
 -1      2602 9.19901E+00
 -1      2603 9.04397E+00
 -1      2604 7.53902E+00
 -1      2605 5.21017E+00
 -1      2606 5.75281E+00
 -1      2607 8.74790E+00
 -1      2608 6.58244E+00
 -1      2609 4.96515E+00
 -1      2610 1.36997E+01
 -1      2611 1.00220E+01
 -1      2612 1.56393E+00
 -1      2613 1.81761E+00
 -1      2614 1.93060E+00
 -1      2615 1.81062E+00
 -1      2616 6.06909E+00
 -1      2617 7.42999E+00
 -1      2618 7.72316E+00
 -1      2619 7.25647E+00
 -1      2620 8.81557E+00
 -1      2621 6.98221E+00
 -1      2622 1.93179E+00
 -1      2623 1.90681E+00
 -1      2624 2.16740E+00
 -1      2625 9.81078E-01
 -1      2626 1.90454E+00
 -1      2627 4.99916E+00
 -1      2628 3.24287E+01
 -1      2629 1.22755E+01
 -1      2630 1.87969E+01
 -1      2631 1.38827E+01
 -1      2632 1.22210E+01
 -1      2633 3.14380E+01
 -1      2634 3.62380E+01
 -1      2635 1.09314E-03
 -1      2636 2.17490E+01
 -1      2637 1.33750E+01
 -1      2638 1.09314E-03
 -1      2639 9.97338E-04
 -1      2640 8.88572E-04
 -1      2641 8.83800E-04
 -1      2642 1.20945E-03
 -1      2643 7.61150E+00
 -1      2644 1.89475E+00
 -1      2645 2.20402E+01
 -1      2646 1.17685E+01
 -1      2647 3.62380E+01
 -1      2648 8.46888E+00
 -1      2649 6.95345E+00
 -1      2650 7.31151E+00
 -1      2651 5.99630E+00
 -1      2652 6.54196E+00
 -1      2653 5.32354E+00
 -1      2654 6.57450E+00
 -1      2655 2.48325E+01
 -1      2656 1.89883E+01
 -1      2657 5.81230E+00
 -1      2658 1.60210E+01
 -1      2659 8.03193E+00
 -1      2660 2.17912E+00
 -1      2661 7.14621E+00
 -1      2662 1.01977E+01
 -1      2663 2.79658E+01
 -1      2664 2.55465E+01
 -1      2665 1.58961E+01
 -1      2666 2.79658E+01
 -1      2667 1.13332E-03
 -1      2668 1.21257E-03
 -1      2669 1.84604E+00
 -1      2670 1.71486E+00
 -1      2671 1.55581E+00
 -1      2672 1.41782E+00
 -1      2673 1.84935E+00
 -1      2674 1.73192E+00
 -1      2675 1.76605E+00
 -1      2676 1.76838E+00
 -1      2677 1.62872E+00
 -1      2678 1.74522E+00
 -1      2679 1.38304E+00
 -1      2680 1.72649E+00
 -1      2681 1.53288E+01
 -1      2682 1.99266E+01
 -1      2683 9.81078E-01
 -1      2684 1.03958E+00
 -1      2685 1.38304E+00
 -1      2686 2.87114E+01
 -1      2687 2.01873E+01
 -1      2688 1.57211E+00
 -1      2689 1.55333E+00
 -1      2690 1.73667E+00
 -1      2691 1.76571E+00
 -1      2692 1.95185E+00
 -1      2693 1.79211E+00
 -1      2694 1.92614E+00
 -1      2695 2.16158E+00
 -1      2696 2.31418E+00
 -1      2697 2.37726E+00
 -1      2698 2.57601E+00
 -1      2699 2.18195E+00
 -1      2700 2.29019E+00
 -1      2701 2.76874E+00
 -1      2702 2.58639E+00
 -1      2703 3.01125E+00
 -1      2704 2.86962E+00
 -1      2705 3.37956E+00
 -1      2706 3.58852E+00
 -1      2707 3.53413E+00
 -1      2708 3.37828E+00
 -1      2709 2.88141E+00
 -1      2710 2.32083E+00
 -1      2711 2.20061E+00
 -1      2712 3.11563E+00
 -1      2713 2.30230E+00
 -1      2714 2.24695E+00
 -1      2715 2.65673E+00
 -1      2716 2.01221E+00
 -1      2717 1.88306E+00
 -1      2718 2.52368E+00
 -1      2719 1.72174E+00
 -1      2720 1.62903E+00
 -1      2721 2.12763E+00
 -1      2722 1.47096E+00
 -1      2723 1.43438E+00
 -1      2724 1.80824E+00
 -1      2725 1.27349E+00
 -1      2726 1.20599E+00
 -1      2727 1.48928E+00
 -1      2728 1.09814E+00
 -1      2729 1.02572E+00
 -1      2730 1.22054E+00
 -1      2731 9.47423E-01
 -1      2732 9.06614E-01
 -1      2733 1.03440E+00
 -1      2734 8.27699E-01
 -1      2735 7.71818E-01
 -1      2736 8.77191E-01
 -1      2737 6.98820E-01
 -1      2738 6.37763E-01
 -1      2739 7.25277E-01
 -1      2740 5.73339E-01
 -1      2741 5.14103E-01
 -1      2742 5.87855E-01
 -1      2743 4.58919E-01
 -1      2744 4.05428E-01
 -1      2745 4.68248E-01
 -1      2746 3.59215E-01
 -1      2747 3.13224E-01
 -1      2748 3.66852E-01
 -1      2749 2.75267E-01
 -1      2750 2.37148E-01
 -1      2751 2.82682E-01
 -1      2752 2.06528E-01
 -1      2753 1.75849E-01
 -1      2754 2.14106E-01
 -1      2755 1.51574E-01
 -1      2756 1.27498E-01
 -1      2757 1.59211E-01
 -1      2758 1.08578E-01
 -1      2759 9.01141E-02
 -1      2760 1.16016E-01
 -1      2761 7.56201E-02
 -1      2762 6.17712E-02
 -1      2763 8.26017E-02
 -1      2764 5.08654E-02
 -1      2765 4.07154E-02
 -1      2766 5.72018E-02
 -1      2767 3.26667E-02
 -1      2768 2.73368E-02
 -1      2769 3.82473E-02
 -1      2770 2.15238E-02
 -1      2771 1.90317E-02
 -1      2772 2.43856E-02
 -1      2773 1.56415E-02
 -1      2774 1.43931E-02
 -1      2775 1.51825E-02
 -1      2776 1.36061E-02
 -1      2777 1.23013E-02
 -1      2778 1.10054E-02
 -1      2779 1.19621E-02
 -1      2780 1.07035E-02
 -1      2781 9.87918E-03
 -1      2782 1.01815E-02
 -1      2783 9.02761E-03
 -1      2784 9.01804E-03
 -1      2785 8.42545E-03
 -1      2786 7.57562E-03
 -1      2787 7.89394E-03
 -1      2788 6.96009E-03
 -1      2789 6.39842E-03
 -1      2790 6.67626E-03
 -1      2791 5.92921E-03
 -1      2792 5.35368E-03
 -1      2793 5.59153E-03
 -1      2794 4.94431E-03
 -1      2795 4.39194E-03
 -1      2796 4.71295E-03
 -1      2797 3.98147E-03
 -1      2798 3.53072E-03
 -1      2799 3.89310E-03
 -1      2800 3.14294E-03
 -1      2801 2.72788E-03
 -1      2802 3.09485E-03
 -1      2803 2.38935E-03
 -1      2804 2.02995E-03
 -1      2805 2.36854E-03
 -1      2806 1.76147E-03
 -1      2807 1.49305E-03
 -1      2808 1.76153E-03
 -1      2809 1.94070E+01
 -1      2810 2.42070E+01
 -1      2811 6.93483E+00
 -1      2812 5.66075E+00
 -1      2813 9.55879E-04
 -1      2814 9.07579E-04
 -1      2815 1.23635E-03
 -1      2816 1.21939E+00
 -1      2817 1.17389E+00
 -1      2818 2.90109E+00
 -1      2819 2.64161E+00
 -1      2820 3.81215E+00
 -1      2821 3.68380E+00
 -1      2822 4.26907E+00
 -1      2823 3.99908E+00
 -1      2824 4.04311E+00
 -1      2825 5.28273E+00
 -1      2826 2.24029E+00
 -1      2827 2.50507E+00
 -1      2828 4.01968E+00
 -1      2829 1.76382E+00
 -1      2830 1.92749E+00
 -1      2831 2.21288E+00
 -1      2832 1.46087E+00
 -1      2833 1.64140E+00
 -1      2834 1.77765E+00
 -1      2835 1.59107E+00
 -1      2836 1.65855E+00
 -1      2837 1.85291E+00
 -1      2838 1.16231E+00
 -1      2839 1.26614E+00
 -1      2840 1.72565E+00
 -1      2841 1.11975E+00
 -1      2842 1.09651E+00
 -1      2843 1.33491E+00
 -1      2844 1.03400E+00
 -1      2845 1.04430E+00
 -1      2846 1.19366E+00
 -1      2847 9.09803E-01
 -1      2848 9.49791E-01
 -1      2849 1.03400E+00
 -1      2850 8.35687E-01
 -1      2851 8.69815E-01
 -1      2852 9.09803E-01
 -1      2853 7.44062E-01
 -1      2854 7.85160E-01
 -1      2855 8.19288E-01
 -1      2856 6.34441E-01
 -1      2857 6.84631E-01
 -1      2858 7.09330E-01
 -1      2859 5.20569E-01
 -1      2860 5.74466E-01
 -1      2861 5.89924E-01
 -1      2862 4.13691E-01
 -1      2863 4.65264E-01
 -1      2864 4.74643E-01
 -1      2865 3.21098E-01
 -1      2866 3.67055E-01
 -1      2867 3.72703E-01
 -1      2868 2.44388E-01
 -1      2869 2.83359E-01
 -1      2870 2.88327E-01
 -1      2871 1.81832E-01
 -1      2872 2.13654E-01
 -1      2873 2.19854E-01
 -1      2874 1.31894E-01
 -1      2875 1.57085E-01
 -1      2876 1.64372E-01
 -1      2877 9.29973E-02
 -1      2878 1.12404E-01
 -1      2879 1.20135E-01
 -1      2880 6.33937E-02
 -1      2881 7.79647E-02
 -1      2882 8.56118E-02
 -1      2883 4.37415E-02
 -1      2884 5.20357E-02
 -1      2885 5.92212E-02
 -1      2886 2.96947E-02
 -1      2887 3.53413E-02
 -1      2888 3.94631E-02
 -1      2889 2.22323E-02
 -1      2890 2.41583E-02
 -1      2891 2.55265E-02
 -1      2892 1.72383E-02
 -1      2893 1.91888E-02
 -1      2894 1.69466E-02
 -1      2895 1.49009E-02
 -1      2896 1.67445E-02
 -1      2897 1.34093E-02
 -1      2898 1.25174E-02
 -1      2899 1.41816E-02
 -1      2900 1.21963E-02
 -1      2901 1.02515E-02
 -1      2902 1.17043E-02
 -1      2903 1.06640E-02
 -1      2904 8.65500E-03
 -1      2905 9.43018E-03
 -1      2906 9.02956E-03
 -1      2907 7.16526E-03
 -1      2908 7.87739E-03
 -1      2909 7.43058E-03
 -1      2910 5.98298E-03
 -1      2911 6.67783E-03
 -1      2912 6.16554E-03
 -1      2913 4.90872E-03
 -1      2914 5.52444E-03
 -1      2915 5.21957E-03
 -1      2916 3.92884E-03
 -1      2917 4.45266E-03
 -1      2918 4.30498E-03
 -1      2919 3.05735E-03
 -1      2920 3.52900E-03
 -1      2921 3.44908E-03
 -1      2922 2.33301E-03
 -1      2923 2.70350E-03
 -1      2924 2.69539E-03
 -1      2925 1.71296E-03
 -1      2926 2.02690E-03
 -1      2927 2.03542E-03
 -1      2928 1.32242E-03
 -1      2929 1.56382E-03
 -1      2930 1.58017E-03
 -1      2931 1.24194E-03
 -1      2932 1.08793E+01
 -1      2933 1.21558E+01
 -1      2934 1.22499E-03
 -1      2935 1.22869E-03
 -1      2936 1.22067E-03
 -1      2937 1.16346E-03
 -1      2938 1.22872E-03
 -1      2939 1.22536E-03
 -1      2940 1.34809E-03
 -1      2941 1.22869E-03
 -1      2942 1.22869E-03
 -1      2943 1.33970E-03
 -1      2944 1.34772E-03
 -1      2945 1.22872E-03
 -1      2946 1.22872E-03
 -1      2947 1.34845E-03
 -1      2948 1.17473E-03
 -1      2949 1.22386E-03
 -1      2950 1.34358E-03
 -1      2951 1.00151E-03
 -1      2952 1.08913E-03
 -1      2953 1.25311E-03
 -1      2954 9.07579E-04
 -1      2955 9.66375E-01
 -1      2956 9.55429E-01
 -1      2957 1.01393E+00
 -1      2958 1.19580E+00
 -1      2959 1.81062E+00
 -1      2960 2.34202E+00
 -1      2961 1.95585E+00
 -1      2962 6.16704E+00
 -1      2963 5.31453E+00
 -1      2964 5.63808E+00
 -1      2965 4.55053E+00
 -1      2966 2.50372E+00
 -1      2967 2.40112E+00
 -1      2968 3.34848E+00
 -1      2969 1.99850E+00
 -1      2970 1.72041E+00
 -1      2971 2.80797E+00
 -1      2972 2.10199E+00
 -1      2973 2.08646E+00
 -1      2974 2.28285E+00
 -1      2975 2.65106E+00
 -1      2976 2.34202E+00
 -1      2977 5.33989E+00
 -1      2978 3.95877E+00
 -1      2979 6.04919E+00
 -1      2980 6.61071E+00
 -1      2981 1.84604E+00
 -1      2982 1.84604E+00
 -1      2983 2.00840E+00
 -1      2984 1.92841E+00
 -1      2985 1.86249E+00
 -1      2986 1.86249E+00
 -1      2987 1.14779E+01
 -1      2988 1.52949E+01
 -1      2989 1.80987E+01
 -1      2990 1.31823E+01
 -1      2991 7.85252E+00
 -1      2992 9.85882E+00
 -1      2993 4.74147E+00
 -1      2994 5.81823E+00
 -1      2995 9.76074E+00
 -1      2996 1.16042E+01
 -1      2997 1.12113E+01
 -1      2998 8.61055E+00
 -1      2999 7.54444E+00
 -1      3000 6.70594E+00
 -1      3001 7.28455E+00
 -1      3002 2.17358E+01
 -1      3003 2.72987E+01
 -1      3004 1.12850E+01
 -1      3005 8.40199E+00
 -1      3006 8.78921E+00
 -1      3007 5.66034E+00
 -1      3008 8.36927E+00
 -1      3009 1.77364E+01
 -1      3010 2.27309E+01
 -1      3011 4.98843E+00
 -1      3012 6.60531E+00
 -1      3013 4.44450E+00
 -1      3014 4.07859E+00
 -1      3015 6.58923E+00
 -1      3016 6.44468E+00
 -1      3017 5.21725E+00
 -1      3018 5.85910E+00
 -1      3019 3.63455E+00
 -1      3020 6.03796E+00
 -1      3021 4.76056E+00
 -1      3022 3.38829E+00
 -1      3023 4.08389E+00
 -1      3024 4.09115E+00
 -1      3025 4.10621E+00
 -1      3026 3.65758E+00
 -1      3027 2.25255E+00
 -1      3028 2.47644E+00
 -1      3029 2.40714E+00
 -1      3030 1.75481E+00
 -1      3031 1.48233E+00
 -1      3032 1.59081E+00
 -1      3033 1.43813E+01
 -1      3034 1.26957E+01
 -1      3035 1.50573E+01
 -1      3036 4.06959E+00
 -1      3037 9.70617E+00
 -1      3038 1.27451E+01
 -1      3039 2.47760E+01
 -1      3040 4.23224E+00
 -1      3041 4.13512E+00
 -1      3042 4.43305E+00
 -1      3043 4.54616E+00
 -1      3044 1.23635E-03
 -1      3045 4.75232E+00
 -1      3046 1.90434E+00
 -1      3047 1.16615E+01
 -1      3048 1.04422E+01
 -1      3049 1.10082E-03
 -1      3050 1.28992E-03
 -1      3051 1.02495E-03
 -1      3052 1.81062E+00
 -1      3053 1.68426E+00
 -1      3054 8.96828E+00
 -1      3055 1.25280E+01
 -1      3056 1.04144E+01
 -1      3057 1.10337E-03
 -1      3058 1.03129E-03
 -1      3059 1.19730E-03
 -1      3060 1.36007E-03
 -1      3061 4.10940E+00
 -1      3062 1.31933E+01
 -1      3063 6.01018E+00
 -1      3064 4.48905E+00
 -1      3065 5.83318E+00
 -1      3066 4.26907E+00
 -1      3067 1.03217E+01
 -1      3068 7.69792E+00
 -1      3069 4.94977E+00
 -1      3070 2.33030E+00
 -1      3071 6.26646E+00
 -1      3072 6.45124E+00
 -1      3073 5.28273E+00
 -1      3074 1.09572E-03
 -1      3075 1.04864E-03
 -1      3076 1.17250E-03
 -1      3077 1.26393E-03
 -1      3078 1.66886E+00
 -1      3079 1.84166E+00
 -1      3080 1.99624E+00
 -1      3081 1.89737E+00
 -1      3082 5.20201E+00
 -1      3083 3.34848E+00
 -1      3084 4.71452E+00
 -1      3085 6.15945E+00
 -1      3086 9.13272E+00
 -1      3087 3.42995E+00
 -1      3088 1.65039E+01
 -1      3089 1.46397E+01
 -1      3090 1.54590E+01
 -1      3091 2.07349E+00
 -1      3092 2.17669E+00
 -1      3093 3.27127E+00
 -1      3094 4.18111E+00
 -1      3095 9.98986E+00
 -1      3096 1.05589E+01
 -1      3097 2.71360E+00
 -1      3098 2.73999E+00
 -1      3099 3.00441E+00
 -1      3100 3.39245E+00
 -1      3101 3.55643E+00
 -1      3102 3.15352E+00
 -1      3103 2.95820E+00
 -1      3104 4.05272E+00
 -1      3105 4.42103E+00
 -1      3106 2.65673E+00
 -1      3107 2.75842E+00
 -1      3108 3.25055E+00
 -1      3109 3.01582E+00
 -1      3110 3.25055E+00
 -1      3111 2.80531E+00
 -1      3112 2.64400E+00
 -1      3113 3.53218E+00
 -1      3114 2.19092E+00
 -1      3115 2.03285E+00
 -1      3116 2.86860E+00
 -1      3117 1.75747E+00
 -1      3118 1.59658E+00
 -1      3119 2.14015E+00
 -1      3120 1.41204E+00
 -1      3121 1.30419E+00
 -1      3122 1.68022E+00
 -1      3123 1.13917E+00
 -1      3124 1.06088E+00
 -1      3125 1.33066E+00
 -1      3126 9.32902E-01
 -1      3127 8.53986E-01
 -1      3128 1.03767E+00
 -1      3129 7.56386E-01
 -1      3130 6.83388E-01
 -1      3131 8.12097E-01
 -1      3132 6.09482E-01
 -1      3133 5.45058E-01
 -1      3134 6.40591E-01
 -1      3135 4.88398E-01
 -1      3136 4.33215E-01
 -1      3137 5.10025E-01
 -1      3138 3.83505E-01
 -1      3139 3.37293E-01
 -1      3140 4.03655E-01
 -1      3141 2.95424E-01
 -1      3142 2.57467E-01
 -1      3143 3.12077E-01
 -1      3144 2.23248E-01
 -1      3145 1.92628E-01
 -1      3146 2.35990E-01
 -1      3147 1.65347E-01
 -1      3148 1.41072E-01
 -1      3149 1.74489E-01
 -1      3150 1.20634E-01
 -1      3151 1.01714E-01
 -1      3152 1.26770E-01
 -1      3153 8.61685E-02
 -1      3154 7.16745E-02
 -1      3155 9.07868E-02
 -1      3156 5.98994E-02
 -1      3157 4.89936E-02
 -1      3158 6.34663E-02
 -1      3159 4.05276E-02
 -1      3160 3.24789E-02
 -1      3161 4.32252E-02
 -1      3162 2.65658E-02
 -1      3163 2.07529E-02
 -1      3164 2.88461E-02
 -1      3165 1.64686E-02
 -1      3166 1.30785E-02
 -1      3167 1.86488E-02
 -1      3168 1.00461E-02
 -1      3169 9.25913E-03
 -1      3170 1.13323E-02
 -1      3171 7.90400E-03
 -1      3172 7.56480E-03
 -1      3173 6.94475E-03
 -1      3174 7.79562E-03
 -1      3175 7.27368E-03
 -1      3176 5.82044E-03
 -1      3177 7.20751E-03
 -1      3178 6.60536E-03
 -1      3179 5.98510E-03
 -1      3180 6.36148E-03
 -1      3181 5.74595E-03
 -1      3182 5.67505E-03
 -1      3183 5.40756E-03
 -1      3184 4.93835E-03
 -1      3185 5.09277E-03
 -1      3186 4.57132E-03
 -1      3187 4.16195E-03
 -1      3188 4.38736E-03
 -1      3189 3.90188E-03
 -1      3190 3.49141E-03
 -1      3191 3.76026E-03
 -1      3192 3.19897E-03
 -1      3193 2.81119E-03
 -1      3194 3.20775E-03
 -1      3195 2.51455E-03
 -1      3196 2.17601E-03
 -1      3197 2.61866E-03
 -1      3198 1.89105E-03
 -1      3199 1.62257E-03
 -1      3200 1.48959E-03
 -1      3201 2.03706E-03
 -1      3202 1.18796E+01
 -1      3203 1.32923E+01
 -1      3204 8.85364E+00
 -1      3205 8.07146E+00
 -1      3206 5.05177E+00
 -1      3207 4.26907E+00
 -1      3208 2.21288E+00
 -1      3209 2.52568E+00
 -1      3210 1.77765E+00
 -1      3211 1.90008E+00
 -1      3212 2.21288E+00
 -1      3213 3.23988E+00
 -1      3214 3.04221E+00
 -1      3215 3.16463E+00
 -1      3216 1.78982E+00
 -1      3217 2.11476E+00
 -1      3218 3.30406E+00
 -1      3219 1.63276E+00
 -1      3220 1.69856E+00
 -1      3221 2.08767E+00
 -1      3222 1.36062E+00
 -1      3223 1.43607E+00
 -1      3224 1.79971E+00
 -1      3225 1.10149E+00
 -1      3226 1.18570E+00
 -1      3227 1.42811E+00
 -1      3228 9.71238E-01
 -1      3229 1.01123E+00
 -1      3230 1.16293E+00
 -1      3231 8.29315E-01
 -1      3232 8.79842E-01
 -1      3233 9.81265E-01
 -1      3234 6.89289E-01
 -1      3235 7.48721E-01
 -1      3236 8.09275E-01
 -1      3237 5.58053E-01
 -1      3238 6.18028E-01
 -1      3239 6.57419E-01
 -1      3240 4.40852E-01
 -1      3241 4.96157E-01
 -1      3242 5.24261E-01
 -1      3243 3.42801E-01
 -1      3244 3.89437E-01
 -1      3245 4.10950E-01
 -1      3246 2.64088E-01
 -1      3247 3.01828E-01
 -1      3248 3.18562E-01
 -1      3249 2.00166E-01
 -1      3250 2.30900E-01
 -1      3251 2.44400E-01
 -1      3252 1.48879E-01
 -1      3253 1.73627E-01
 -1      3254 1.84673E-01
 -1      3255 1.08457E-01
 -1      3256 1.27947E-01
 -1      3257 1.37202E-01
 -1      3258 7.71546E-02
 -1      3259 9.21872E-02
 -1      3260 1.00000E-01
 -1      3261 5.33452E-02
 -1      3262 6.47032E-02
 -1      3263 7.12786E-02
 -1      3264 3.55750E-02
 -1      3265 4.39751E-02
 -1      3266 4.94571E-02
 -1      3267 2.31171E-02
 -1      3268 2.86535E-02
 -1      3269 3.31656E-02
 -1      3270 1.50674E-02
 -1      3271 1.81109E-02
 -1      3272 2.12379E-02
 -1      3273 1.10729E-02
 -1      3274 1.15666E-02
 -1      3275 1.27309E-02
 -1      3276 9.34835E-03
 -1      3277 1.00676E-02
 -1      3278 8.22489E-03
 -1      3279 8.49334E-03
 -1      3280 9.30643E-03
 -1      3281 7.17769E-03
 -1      3282 7.40739E-03
 -1      3283 8.22875E-03
 -1      3284 6.87118E-03
 -1      3285 6.24466E-03
 -1      3286 7.02227E-03
 -1      3287 6.22146E-03
 -1      3288 5.32095E-03
 -1      3289 5.80838E-03
 -1      3290 5.40007E-03
 -1      3291 4.51990E-03
 -1      3292 4.97843E-03
 -1      3293 4.62128E-03
 -1      3294 3.75556E-03
 -1      3295 4.21162E-03
 -1      3296 3.97048E-03
 -1      3297 3.02970E-03
 -1      3298 3.42955E-03
 -1      3299 3.33618E-03
 -1      3300 2.35766E-03
 -1      3301 2.71152E-03
 -1      3302 2.69198E-03
 -1      3303 1.74779E-03
 -1      3304 2.05390E-03
 -1      3305 2.07003E-03
 -1      3306 1.46020E-03
 -1      3307 1.60933E-03
 -1      3308 1.62781E-03
 -1      3309 1.31908E-03
 -1      3310 1.46828E-03
 -1      3311 1.46828E-03
 -1      3312 1.42514E-03
 -1      3313 1.42478E-03
 -1      3314 1.54497E-03
 -1      3315 1.52702E+00
 -1      3316 1.48479E+00
 -1      3317 1.91626E+00
 -1      3318 1.18357E+00
 -1      3319 1.05095E+01
 -1      3320 9.98986E+00
 -1      3321 2.38723E+00
 -1      3322 2.22818E+00
 -1      3323 3.48636E+00
 -1      3324 3.34848E+00
 -1      3325 7.68696E+00
 -1      3326 6.81616E+00
 -1      3327 6.09841E+00
 -1      3328 6.75771E+00
 -1      3329 5.69161E+00
 -1      3330 1.01257E+01
 -1      3331 8.15463E+00
 -1      3332 6.56169E+00
 -1      3333 8.35149E+00
 -1      3334 8.96828E+00
 -1      3335 7.61359E+00
 -1      3336 2.65106E+00
 -1      3337 1.46342E-03
 -1      3338 1.46828E-03
 -1      3339 1.58812E-03
 -1      3340 1.36663E-03
 -1      3341 1.45223E-03
 -1      3342 1.57693E-03
 -1      3343 3.69341E+00
 -1      3344 5.18742E+00
 -1      3345 5.51369E+00
 -1      3346 5.28273E+00
 -1      3347 3.52871E+00
 -1      3348 5.08283E+00
 -1      3349 3.67621E+00
 -1      3350 3.11563E+00
 -1      3351 3.17602E+00
 -1      3352 3.35936E+00
 -1      3353 3.93777E+00
 -1      3354 1.31383E+01
 -1      3355 1.10497E+01
 -1      3356 3.18269E+00
 -1      3357 5.36782E+00
 -1      3358 6.75928E+00
 -1      3359 2.65542E+00
 -1      3360 2.15441E+00
 -1      3361 1.22692E+01
 -1      3362 1.28747E+01
 -1      3363 1.18796E+01
 -1      3364 1.00449E+01
 -1      3365 1.24864E+01
 -1      3366 3.87125E+00
 -1      3367 2.97106E+00
 -1      3368 4.93598E+00
 -1      3369 6.18319E+00
 -1      3370 3.32132E+00
 -1      3371 2.86194E+00
 -1      3372 4.94977E+00
 -1      3373 6.83373E+00
 -1      3374 8.45278E+00
 -1      3375 5.50325E+00
 -1      3376 4.69867E+00
 -1      3377 1.03403E+01
 -1      3378 9.29542E+00
 -1      3379 5.70660E+00
 -1      3380 3.08576E+00
 -1      3381 3.15027E+00
 -1      3382 3.62364E+00
 -1      3383 2.79720E+00
 -1      3384 4.09785E+00
 -1      3385 7.80368E+00
 -1      3386 5.34238E+00
 -1      3387 7.58507E+00
 -1      3388 3.58192E+00
 -1      3389 2.88649E+00
 -1      3390 9.96066E+00
 -1      3391 6.92469E+00
 -1      3392 1.14692E+00
 -1      3393 1.17257E+00
 -1      3394 1.31656E+00
 -1      3395 2.71544E+00
 -1      3396 2.38718E+00
 -1      3397 2.46717E+00
 -1      3398 3.69341E+00
 -1      3399 7.14670E+00
 -1      3400 9.94756E+00
 -1      3401 7.24174E+00
 -1      3402 1.48977E-03
 -1      3403 1.48175E-03
 -1      3404 2.26164E+00
 -1      3405 2.28247E+00
 -1      3406 1.46494E-03
 -1      3407 1.46494E-03
 -1      3408 1.60699E-03
 -1      3409 1.54200E-03
 -1      3410 2.70452E+00
 -1      3411 3.08335E+00
 -1      3412 2.70452E+00
 -1      3413 1.01146E+01
 -1      3414 1.59102E+00
 -1      3415 1.38350E+00
 -1      3416 1.54214E+00
 -1      3417 2.34210E+00
 -1      3418 6.15945E+00
 -1      3419 7.74588E+00
 -1      3420 8.88267E+00
 -1      3421 2.65720E+00
 -1      3422 4.06471E+00
 -1      3423 3.17154E+00
 -1      3424 7.42639E+00
 -1      3425 6.68849E+00
 -1      3426 5.09628E+00
 -1      3427 4.14420E+00
 -1      3428 2.86937E+00
 -1      3429 4.36338E+00
 -1      3430 1.48175E-03
 -1      3431 1.41400E-03
 -1      3432 1.63182E-03
 -1      3433 2.80797E+00
 -1      3434 3.05805E+00
 -1      3435 3.21059E+00
 -1      3436 2.80506E+00
 -1      3437 2.53967E+00
 -1      3438 2.92973E+00
 -1      3439 4.36338E+00
 -1      3440 3.74269E+00
 -1      3441 3.53218E+00
 -1      3442 5.83055E+00
 -1      3443 1.08351E+01
 -1      3444 8.07498E+00
 -1      3445 7.68668E+00
 -1      3446 1.37345E-03
 -1      3447 1.34367E-03
 -1      3448 1.54278E-03
 -1      3449 1.63595E-03
 -1      3450 4.33678E+00
 -1      3451 4.25701E+00
 -1      3452 4.77294E+00
 -1      3453 5.42347E+00
 -1      3454 3.58650E+00
 -1      3455 3.13342E+00
 -1      3456 2.49556E+00
 -1      3457 2.22018E+00
 -1      3458 3.21345E+00
 -1      3459 1.97047E+00
 -1      3460 1.78593E+00
 -1      3461 2.32588E+00
 -1      3462 1.48136E+00
 -1      3463 1.31635E+00
 -1      3464 1.77161E+00
 -1      3465 1.13722E+00
 -1      3466 1.00924E+00
 -1      3467 1.28792E+00
 -1      3468 9.00293E-01
 -1      3469 8.02693E-01
 -1      3470 9.99840E-01
 -1      3471 7.14498E-01
 -1      3472 6.40591E-01
 -1      3473 8.02693E-01
 -1      3474 5.65752E-01
 -1      3475 5.09092E-01
 -1      3476 6.39659E-01
 -1      3477 4.47078E-01
 -1      3478 3.97369E-01
 -1      3479 5.02806E-01
 -1      3480 3.46716E-01
 -1      3481 3.04847E-01
 -1      3482 3.90139E-01
 -1      3483 2.63938E-01
 -1      3484 2.29719E-01
 -1      3485 2.98576E-01
 -1      3486 1.97087E-01
 -1      3487 1.69806E-01
 -1      3488 2.25035E-01
 -1      3489 1.44138E-01
 -1      3490 1.23700E-01
 -1      3491 1.66735E-01
 -1      3492 1.03798E-01
 -1      3493 8.82521E-02
 -1      3494 1.21165E-01
 -1      3495 7.30552E-02
 -1      3496 6.12801E-02
 -1      3497 8.60660E-02
 -1      3498 5.03026E-02
 -1      3499 4.18366E-02
 -1      3500 5.98916E-02
 -1      3501 3.38417E-02
 -1      3502 2.79286E-02
 -1      3503 4.09192E-02
 -1      3504 2.20617E-02
 -1      3505 1.77774E-02
 -1      3506 2.70572E-02
 -1      3507 1.35658E-02
 -1      3508 1.05335E-02
 -1      3509 1.69787E-02
 -1      3510 7.65229E-03
 -1      3511 6.29716E-03
 -1      3512 9.88587E-03
 -1      3513 4.56048E-03
 -1      3514 4.79131E-03
 -1      3515 5.26802E-03
 -1      3516 4.96020E-03
 -1      3517 4.89404E-03
 -1      3518 3.70025E-03
 -1      3519 5.07855E-03
 -1      3520 4.83466E-03
 -1      3521 4.05365E-03
 -1      3522 4.79702E-03
 -1      3523 4.45863E-03
 -1      3524 4.20052E-03
 -1      3525 4.28688E-03
 -1      3526 3.91985E-03
 -1      3527 3.99112E-03
 -1      3528 3.67545E-03
 -1      3529 3.41538E-03
 -1      3530 3.57497E-03
 -1      3531 3.19646E-03
 -1      3532 2.90402E-03
 -1      3533 3.11166E-03
 -1      3534 2.68405E-03
 -1      3535 2.38741E-03
 -1      3536 2.67277E-03
 -1      3537 3.19245E+00
 -1      3538 3.15027E+00
 -1      3539 3.22832E+00
 -1      3540 3.51454E+00
 -1      3541 4.41985E+00
 -1      3542 4.94668E+00
 -1      3543 2.65411E+00
 -1      3544 2.74538E+00
 -1      3545 1.99378E+00
 -1      3546 2.19046E+00
 -1      3547 2.84817E+00
 -1      3548 1.54256E+00
 -1      3549 1.71748E+00
 -1      3550 2.10823E+00
 -1      3551 1.24017E+00
 -1      3552 1.33044E+00
 -1      3553 1.61980E+00
 -1      3554 9.73963E-01
 -1      3555 1.06536E+00
 -1      3556 1.23287E+00
 -1      3557 7.79083E-01
 -1      3558 8.59677E-01
 -1      3559 9.43771E-01
 -1      3560 6.24592E-01
 -1      3561 6.95854E-01
 -1      3562 7.46257E-01
 -1      3563 5.02252E-01
 -1      3564 5.64148E-01
 -1      3565 6.02583E-01
 -1      3566 3.96084E-01
 -1      3567 4.47499E-01
 -1      3568 4.87386E-01
 -1      3569 3.07814E-01
 -1      3570 3.48787E-01
 -1      3571 3.85336E-01
 -1      3572 2.35043E-01
 -1      3573 2.68231E-01
 -1      3574 2.98456E-01
 -1      3575 1.76185E-01
 -1      3576 2.02724E-01
 -1      3577 2.26555E-01
 -1      3578 1.29440E-01
 -1      3579 1.50372E-01
 -1      3580 1.68424E-01
 -1      3581 9.29665E-02
 -1      3582 1.09237E-01
 -1      3583 1.22407E-01
 -1      3584 6.52500E-02
 -1      3585 7.77014E-02
 -1      3586 8.69379E-02
 -1      3587 4.48123E-02
 -1      3588 5.41823E-02
 -1      3589 6.06052E-02
 -1      3590 2.96178E-02
 -1      3591 3.65393E-02
 -1      3592 4.12645E-02
 -1      3593 1.85744E-02
 -1      3594 2.35806E-02
 -1      3595 2.69543E-02
 -1      3596 1.08246E-02
 -1      3597 1.43253E-02
 -1      3598 1.66680E-02
 -1      3599 6.94428E-03
 -1      3600 7.94957E-03
 -1      3601 9.54394E-03
 -1      3602 5.62887E-03
 -1      3603 5.67079E-03
 -1      3604 5.39547E-03
 -1      3605 5.75832E-03
 -1      3606 6.02291E-03
 -1      3607 4.51601E-03
 -1      3608 5.44244E-03
 -1      3609 5.82756E-03
 -1      3610 4.97930E-03
 -1      3611 4.87219E-03
 -1      3612 5.30846E-03
 -1      3613 4.91457E-03
 -1      3614 4.27876E-03
 -1      3615 4.62128E-03
 -1      3616 4.52967E-03
 -1      3617 3.66220E-03
 -1      3618 3.97048E-03
 -1      3619 3.97048E-03
 -1      3620 3.10251E-03
 -1      3621 3.42853E-03
 -1      3622 3.42853E-03
 -1      3623 2.52715E-03
 -1      3624 2.84534E-03
 -1      3625 2.93769E-03
 -1      3626 1.95526E-03
 -1      3627 2.25902E-03
 -1      3628 2.41238E-03
 -1      3629 1.75447E-03
 -1      3630 1.76566E-03
 -1      3631 1.68177E-03
 -1      3632 1.63863E-03
 -1      3633 1.94728E+00
 -1      3634 2.53598E+00
 -1      3635 1.93628E+00
 -1      3636 3.17154E+00
 -1      3637 3.44276E+00
 -1      3638 6.69355E+00
 -1      3639 5.29663E+00
 -1      3640 6.95949E+00
 -1      3641 6.95949E+00
 -1      3642 5.16711E+00
 -1      3643 4.78261E+00
 -1      3644 7.14670E+00
 -1      3645 7.14670E+00
 -1      3646 3.97116E+00
 -1      3647 5.09628E+00
 -1      3648 1.76566E-03
 -1      3649 1.76566E-03
 -1      3650 1.85931E-03
 -1      3651 1.94320E-03
 -1      3652 4.58353E+00
 -1      3653 3.93777E+00
 -1      3654 5.81604E+00
 -1      3655 7.40815E+00
 -1      3656 5.75684E+00
 -1      3657 5.08574E+00
 -1      3658 8.23819E+00
 -1      3659 8.08426E+00
 -1      3660 8.23819E+00
 -1      3661 8.23819E+00
 -1      3662 3.99259E+00
 -1      3663 7.93492E+00
 -1      3664 7.01085E+00
 -1      3665 1.41927E-03
 -1      3666 1.39558E-03
 -1      3667 1.56585E-03
 -1      3668 1.63709E-03
 -1      3669 6.95949E+00
 -1      3670 6.74088E+00
 -1      3671 6.32438E+00
 -1      3672 5.48019E+00
 -1      3673 5.76244E+00
 -1      3674 3.56570E+00
 -1      3675 3.82290E+00
 -1      3676 4.48122E+00
 -1      3677 5.74580E+00
 -1      3678 1.60891E-03
 -1      3679 1.64907E-03
 -1      3680 1.74570E-03
 -1      3681 6.36179E+00
 -1      3682 2.13648E-03
 -1      3683 1.85151E-03
 -1      3684 1.73538E-03
 -1      3685 2.20187E-03
 -1      3686 4.19019E+00
 -1      3687 3.44527E+00
 -1      3688 2.74646E+00
 -1      3689 4.32206E+00
 -1      3690 4.53760E+00
 -1      3691 6.67980E+00
 -1      3692 4.63835E+00
 -1      3693 1.70431E-03
 -1      3694 6.11530E+00
 -1      3695 3.16329E+00
 -1      3696 4.72830E+00
 -1      3697 4.01218E+00
 -1      3698 3.69489E+00
 -1      3699 1.65434E-03
 -1      3700 1.67917E-03
 -1      3701 1.72125E-03
 -1      3702 4.27672E+00
 -1      3703 5.29455E+00
 -1      3704 5.24340E+00
 -1      3705 1.89576E-03
 -1      3706 1.84842E-03
 -1      3707 1.84842E-03
 -1      3708 6.13835E+00
 -1      3709 4.82255E+00
 -1      3710 4.18469E+00
 -1      3711 6.58013E+00
 -1      3712 3.06055E+00
 -1      3713 2.49716E+00
 -1      3714 6.22159E+00
 -1      3715 4.14420E+00
 -1      3716 2.87965E+00
 -1      3717 5.95454E+00
 -1      3718 4.42918E+00
 -1      3719 6.21244E+00
 -1      3720 1.89330E-03
 -1      3721 4.58353E+00
 -1      3722 4.58353E+00
 -1      3723 3.30408E+00
 -1      3724 4.06471E+00
 -1      3725 1.75834E-03
 -1      3726 8.06008E+00
 -1      3727 6.18368E+00
 -1      3728 3.79700E+00
 -1      3729 1.94707E-03
 -1      3730 2.19800E-03
 -1      3731 3.29021E+00
 -1      3732 2.46954E+00
 -1      3733 2.21983E+00
 -1      3734 2.06410E+00
 -1      3735 1.75953E+00
 -1      3736 2.20776E+00
 -1      3737 1.46705E+00
 -1      3738 1.28792E+00
 -1      3739 1.75953E+00
 -1      3740 1.10879E+00
 -1      3741 9.99840E-01
 -1      3742 1.28792E+00
 -1      3743 8.67661E-01
 -1      3744 7.79466E-01
 -1      3745 9.76612E-01
 -1      3746 6.80785E-01
 -1      3747 6.05945E-01
 -1      3748 7.45753E-01
 -1      3749 5.30937E-01
 -1      3750 4.68924E-01
 -1      3751 5.72064E-01
 -1      3752 4.10977E-01
 -1      3753 3.60324E-01
 -1      3754 4.39109E-01
 -1      3755 3.14946E-01
 -1      3756 2.74037E-01
 -1      3757 3.35785E-01
 -1      3758 2.38348E-01
 -1      3759 2.05716E-01
 -1      3760 2.54718E-01
 -1      3761 1.77771E-01
 -1      3762 1.52103E-01
 -1      3763 1.91083E-01
 -1      3764 1.30351E-01
 -1      3765 1.10449E-01
 -1      3766 1.41387E-01
 -1      3767 9.36736E-02
 -1      3768 7.84767E-02
 -1      3769 1.02860E-01
 -1      3770 6.56932E-02
 -1      3771 5.47157E-02
 -1      3772 7.33008E-02
 -1      3773 4.51143E-02
 -1      3774 3.71194E-02
 -1      3775 5.09159E-02
 -1      3776 3.05000E-02
 -1      3777 2.46331E-02
 -1      3778 3.46952E-02
 -1      3779 1.97728E-02
 -1      3780 1.55612E-02
 -1      3781 2.32156E-02
 -1      3782 1.20496E-02
 -1      3783 9.16838E-03
 -1      3784 1.48437E-02
 -1      3785 6.69687E-03
 -1      3786 4.96019E-03
 -1      3787 8.86055E-03
 -1      3788 3.53135E-03
 -1      3789 3.70025E-03
 -1      3790 4.96019E-03
 -1      3791 3.17560E-03
 -1      3792 3.36011E-03
 -1      3793 3.00670E-03
 -1      3794 3.63880E-03
 -1      3795 3.60115E-03
 -1      3796 2.76074E-03
 -1      3797 3.66097E-03
 -1      3798 3.48922E-03
 -1      3799 3.09925E-03
 -1      3800 3.41098E-03
 -1      3801 3.16659E-03
 -1      3802 3.08084E-03
 -1      3803 3.00792E-03
 -1      3804 2.78900E-03
 -1      3805 2.84393E-03
 -1      3806 2.60007E-03
 -1      3807 2.38010E-03
 -1      3808 2.49634E-03
 -1      3809 2.74977E+00
 -1      3810 3.02607E+00
 -1      3811 5.33578E+00
 -1      3812 5.01848E+00
 -1      3813 3.58772E+00
 -1      3814 3.76719E+00
 -1      3815 3.58822E+00
 -1      3816 4.05186E+00
 -1      3817 4.22976E+00
 -1      3818 1.19254E+00
 -1      3819 1.36735E+00
 -1      3820 9.31573E-01
 -1      3821 1.04586E+00
 -1      3822 1.18034E+00
 -1      3823 7.46257E-01
 -1      3824 8.29485E-01
 -1      3825 9.31573E-01
 -1      3826 5.99796E-01
 -1      3827 6.60241E-01
 -1      3828 7.43470E-01
 -1      3829 4.74493E-01
 -1      3830 5.29245E-01
 -1      3831 5.86903E-01
 -1      3832 3.69847E-01
 -1      3833 4.17144E-01
 -1      3834 4.59004E-01
 -1      3835 2.83895E-01
 -1      3836 3.23478E-01
 -1      3837 3.55286E-01
 -1      3838 2.14325E-01
 -1      3839 2.46643E-01
 -1      3840 2.71665E-01
 -1      3841 1.58904E-01
 -1      3842 1.84717E-01
 -1      3843 2.04805E-01
 -1      3844 1.15439E-01
 -1      3845 1.35643E-01
 -1      3846 1.51937E-01
 -1      3847 8.21295E-02
 -1      3848 9.73946E-02
 -1      3849 1.10631E-01
 -1      3850 5.72655E-02
 -1      3851 6.83332E-02
 -1      3852 7.87899E-02
 -1      3853 3.87782E-02
 -1      3854 4.70511E-02
 -1      3855 5.47792E-02
 -1      3856 2.55339E-02
 -1      3857 3.15712E-02
 -1      3858 3.73578E-02
 -1      3859 1.59803E-02
 -1      3860 2.02294E-02
 -1      3861 2.48462E-02
 -1      3862 9.28407E-03
 -1      3863 1.21590E-02
 -1      3864 1.57204E-02
 -1      3865 5.34811E-03
 -1      3866 6.62160E-03
 -1      3867 9.23671E-03
 -1      3868 4.22746E-03
 -1      3869 3.83342E-03
 -1      3870 5.05955E-03
 -1      3871 4.09648E-03
 -1      3872 4.02724E-03
 -1      3873 3.34465E-03
 -1      3874 4.19406E-03
 -1      3875 4.32804E-03
 -1      3876 3.37598E-03
 -1      3877 3.95510E-03
 -1      3878 4.20601E-03
 -1      3879 3.61949E-03
 -1      3880 3.52282E-03
 -1      3881 3.83110E-03
 -1      3882 3.50744E-03
 -1      3883 3.08829E-03
 -1      3884 3.32196E-03
 -1      3885 3.18259E-03
 -1      3886 2.63567E-03
 -1      3887 2.89283E-03
 -1      3888 2.78627E-03
 -1      3889 2.12531E-03
 -1      3890 5.49276E+00
 -1      3891 5.49276E+00
 -1      3892 5.42151E+00
 -1      3893 5.76244E+00
 -1      3894 5.76244E+00
 -1      3895 5.27764E+00
 -1      3896 5.73586E+00
 -1      3897 4.62373E+00
 -1      3898 3.69489E+00
 -1      3899 4.00455E+00
 -1      3900 5.03092E+00
 -1      3901 3.34760E+00
 -1      3902 2.62915E+00
 -1      3903 2.39257E+00
 -1      3904 4.45404E+00
 -1      3905 5.19993E+00
 -1      3906 5.03917E+00
 -1      3907 5.49276E+00
 -1      3908 1.88803E-03
 -1      3909 5.19993E+00
 -1      3910 5.19993E+00
 -1      3911 5.34341E+00
 -1      3912 6.02047E+00
 -1      3913 4.55248E+00
 -1      3914 1.94949E+00
 -1      3915 2.16161E+00
 -1      3916 1.90916E+00
 -1      3917 2.10463E-03
 -1      3918 5.42151E+00
 -1      3919 5.30945E+00
 -1      3920 4.61609E+00
 -1      3921 5.03092E+00
 -1      3922 1.88743E-03
 -1      3923 2.05668E-03
 -1      3924 3.02329E+00
 -1      3925 1.78553E-03
 -1      3926 1.75581E-03
 -1      3927 3.07946E+00
 -1      3928 4.04402E+00
 -1      3929 2.12531E-03
 -1      3930 2.18201E-03
 -1      3931 2.45015E-03
 -1      3932 2.40530E-03
 -1      3933 1.77998E-03
 -1      3934 1.78525E-03
 -1      3935 1.94616E-03
 -1      3936 1.81981E-03
 -1      3937 4.81849E+00
 -1      3938 1.89945E-03
 -1      3939 1.81556E-03
 -1      3940 1.82567E-03
 -1      3941 4.07864E+00
 -1      3942 4.62069E+00
 -1      3943 3.70532E+00
 -1      3944 3.98558E+00
 -1      3945 4.28455E+00
 -1      3946 4.84508E+00
 -1      3947 2.05202E+00
 -1      3948 1.75953E+00
 -1      3949 1.37431E+00
 -1      3950 1.19518E+00
 -1      3951 1.66680E+00
 -1      3952 1.01467E+00
 -1      3953 8.82494E-01
 -1      3954 1.10107E+00
 -1      3955 7.60381E-01
 -1      3956 6.61699E-01
 -1      3957 7.98441E-01
 -1      3958 5.78213E-01
 -1      3959 5.03205E-01
 -1      3960 5.92841E-01
 -1      3961 4.41786E-01
 -1      3962 3.83839E-01
 -1      3963 4.47936E-01
 -1      3964 3.37472E-01
 -1      3965 2.92095E-01
 -1      3966 3.40150E-01
 -1      3967 2.56317E-01
 -1      3968 2.20628E-01
 -1      3969 2.58005E-01
 -1      3970 1.93013E-01
 -1      3971 1.65068E-01
 -1      3972 1.94612E-01
 -1      3973 1.43611E-01
 -1      3974 1.21859E-01
 -1      3975 1.45540E-01
 -1      3976 1.05229E-01
 -1      3977 8.84535E-02
 -1      3978 1.07453E-01
 -1      3979 7.56646E-02
 -1      3980 6.28811E-02
 -1      3981 7.80338E-02
 -1      3982 5.31565E-02
 -1      3983 4.35551E-02
 -1      3984 5.55203E-02
 -1      3985 3.62635E-02
 -1      3986 2.96442E-02
 -1      3987 3.85041E-02
 -1      3988 2.49024E-02
 -1      3989 2.00421E-02
 -1      3990 2.64707E-02
 -1      3991 1.66333E-02
 -1      3992 1.31217E-02
 -1      3993 1.83201E-02
 -1      3994 1.05867E-02
 -1      3995 8.11517E-03
 -1      3996 1.23763E-02
 -1      3997 6.26690E-03
 -1      3998 4.83805E-03
 -1      3999 7.99303E-03
 -1      4000 3.52051E-03
 -1      4001 2.99586E-03
 -1      4002 4.82721E-03
 -1      4003 2.08482E-03
 -1      4004 2.36350E-03
 -1      4005 2.59862E-03
 -1      4006 2.63578E-03
 -1      4007 2.69560E-03
 -1      4008 1.95985E-03
 -1      4009 2.78082E-03
 -1      4010 2.70258E-03
 -1      4011 2.31734E-03
 -1      4012 2.66679E-03
 -1      4013 2.50812E-03
 -1      4014 2.36677E-03
 -1      4015 2.41242E-03
 -1      4016 2.22349E-03
 -1      4017 2.23527E-03
 -1      4018 7.06113E-01
 -1      4019 7.92129E-01
 -1      4020 9.18116E-01
 -1      4021 1.02020E+00
 -1      4022 8.80760E-01
 -1      4023 1.18034E+00
 -1      4024 1.32702E+00
 -1      4025 1.16688E+00
 -1      4026 5.45561E-01
 -1      4027 6.16112E-01
 -1      4028 6.64771E-01
 -1      4029 4.20963E-01
 -1      4030 4.78311E-01
 -1      4031 5.07519E-01
 -1      4032 3.22585E-01
 -1      4033 3.68954E-01
 -1      4034 3.88262E-01
 -1      4035 2.44797E-01
 -1      4036 2.82049E-01
 -1      4037 2.95717E-01
 -1      4038 1.83616E-01
 -1      4039 2.13223E-01
 -1      4040 2.23607E-01
 -1      4041 1.35738E-01
 -1      4042 1.58999E-01
 -1      4043 1.67417E-01
 -1      4044 9.85808E-02
 -1      4045 1.16625E-01
 -1      4046 1.23688E-01
 -1      4047 7.00716E-02
 -1      4048 8.38680E-02
 -1      4049 8.98624E-02
 -1      4050 4.86627E-02
 -1      4051 5.88771E-02
 -1      4052 6.39551E-02
 -1      4053 3.30584E-02
 -1      4054 4.02654E-02
 -1      4055 4.43633E-02
 -1      4056 2.19403E-02
 -1      4057 2.72449E-02
 -1      4058 3.01526E-02
 -1      4059 1.39187E-02
 -1      4060 1.77399E-02
 -1      4061 2.01386E-02
 -1      4062 8.32518E-03
 -1      4063 1.09876E-02
 -1      4064 1.30071E-02
 -1      4065 4.92131E-03
 -1      4066 6.43600E-03
 -1      4067 8.18693E-03
 -1      4068 3.37288E-03
 -1      4069 3.57311E-03
 -1      4070 4.94955E-03
 -1      4071 2.84758E-03
 -1      4072 2.61602E-03
 -1      4073 2.84448E-03
 -1      4074 3.13128E-03
 -1      4075 3.11933E-03
 -1      4076 2.35936E-03
 -1      4077 3.07743E-03
 -1      4078 3.20142E-03
 -1      4079 2.70126E-03
 -1      4080 2.81778E-03
 -1      4081 3.01864E-03
 -1      4082 2.71262E-03
 -1      4083 2.48737E-03
 -1      4084 2.68283E-03
 -1      4085 2.51888E-03
 -1      4086 2.14240E-03
 -1      4087 3.32402E+00
 -1      4088 4.25635E+00
 -1      4089 3.49998E+00
 -1      4090 2.53945E+00
 -1      4091 2.38372E+00
 -1      4092 3.49998E+00
 -1      4093 2.13406E-03
 -1      4094 3.07946E+00
 -1      4095 3.66762E+00
 -1      4096 4.25635E+00
 -1      4097 2.31958E-03
 -1      4098 3.98558E+00
 -1      4099 3.98558E+00
 -1      4100 3.12608E+00
 -1      4101 3.39685E+00
 -1      4102 1.88846E+00
 -1      4103 2.47059E+00
 -1      4104 1.88846E+00
 -1      4105 2.21614E-03
 -1      4106 2.38372E+00
 -1      4107 1.99764E-03
 -1      4108 2.08156E-03
 -1      4109 3.05876E+00
 -1      4110 2.11395E-03
 -1      4111 1.80251E-03
 -1      4112 1.82668E-03
 -1      4113 3.47825E+00
 -1      4114 2.69367E+00
 -1      4115 1.84924E-03
 -1      4116 1.81921E-03
 -1      4117 1.82607E-03
 -1      4118 1.99117E-03
 -1      4119 2.89901E+00
 -1      4120 2.40999E+00
 -1      4121 3.01885E+00
 -1      4122 2.74808E+00
 -1      4123 1.10646E+00
 -1      4124 9.25946E-01
 -1      4125 8.07855E-01
 -1      4126 6.85741E-01
 -1      4127 8.13246E-01
 -1      4128 6.16597E-01
 -1      4129 5.33110E-01
 -1      4130 6.26010E-01
 -1      4131 4.76855E-01
 -1      4132 4.15436E-01
 -1      4133 5.00610E-01
 -1      4134 3.65030E-01
 -1      4135 3.18663E-01
 -1      4136 3.93949E-01
 -1      4137 2.78110E-01
 -1      4138 2.42332E-01
 -1      4139 3.02990E-01
 -1      4140 2.10425E-01
 -1      4141 1.82810E-01
 -1      4142 2.30531E-01
 -1      4143 1.57831E-01
 -1      4144 1.36374E-01
 -1      4145 1.73644E-01
 -1      4146 1.16912E-01
 -1      4147 1.00282E-01
 -1      4148 1.29203E-01
 -1      4149 8.52325E-02
 -1      4150 7.24436E-02
 -1      4151 9.46918E-02
 -1      4152 6.13566E-02
 -1      4153 5.16320E-02
 -1      4154 6.85553E-02
 -1      4155 4.32906E-02
 -1      4156 3.59990E-02
 -1      4157 4.91269E-02
 -1      4158 2.96918E-02
 -1      4159 2.49500E-02
 -1      4160 3.44783E-02
 -1      4161 2.06782E-02
 -1      4162 1.72694E-02
 -1      4163 2.38993E-02
 -1      4164 1.40665E-02
 -1      4165 1.15315E-02
 -1      4166 1.64246E-02
 -1      4167 9.17421E-03
 -1      4168 7.32594E-03
 -1      4169 1.08645E-02
 -1      4170 5.62677E-03
 -1      4171 4.30923E-03
 -1      4172 6.80796E-03
 -1      4173 3.11389E-03
 -1      4174 2.20285E-03
 -1      4175 3.91345E-03
 -1      4176 1.46995E-03
 -1      4177 1.74222E-03
 -1      4178 1.98522E-03
 -1      4179 2.03007E-03
 -1      4180 2.11529E-03
 -1      4181 1.54017E-03
 -1      4182 2.10757E-03
 -1      4183 2.07178E-03
 -1      4184 1.82030E-03
 -1      4185 2.23527E-03
 -1      4186 2.13957E-03
 -1      4187 1.99117E-03
 -1      4188 1.97608E-03
 -1      4189 4.98568E-01
 -1      4190 5.65817E-01
 -1      4191 6.76144E-01
 -1      4192 7.66146E-01
 -1      4193 6.67193E-01
 -1      4194 9.67813E-01
 -1      4195 1.12795E+00
 -1      4196 3.90304E-01
 -1      4197 4.42312E-01
 -1      4198 5.00610E-01
 -1      4199 2.99362E-01
 -1      4200 3.39898E-01
 -1      4201 3.93949E-01
 -1      4202 2.27236E-01
 -1      4203 2.58809E-01
 -1      4204 3.02990E-01
 -1      4205 1.70712E-01
 -1      4206 1.95329E-01
 -1      4207 2.30531E-01
 -1      4208 1.26620E-01
 -1      4209 1.45733E-01
 -1      4210 1.73644E-01
 -1      4211 9.24455E-02
 -1      4212 1.07158E-01
 -1      4213 1.29203E-01
 -1      4214 6.62014E-02
 -1      4215 7.73960E-02
 -1      4216 9.46918E-02
 -1      4217 4.62864E-02
 -1      4218 5.46836E-02
 -1      4219 6.81245E-02
 -1      4220 3.21197E-02
 -1      4221 3.79333E-02
 -1      4222 4.82536E-02
 -1      4223 2.17560E-02
 -1      4224 2.59564E-02
 -1      4225 3.37372E-02
 -1      4226 1.42388E-02
 -1      4227 1.71698E-02
 -1      4228 2.29877E-02
 -1      4229 8.99994E-03
 -1      4230 1.08891E-02
 -1      4231 1.50518E-02
 -1      4232 5.25806E-03
 -1      4233 6.60626E-03
 -1      4234 9.30845E-03
 -1      4235 2.84448E-03
 -1      4236 3.60135E-03
 -1      4237 5.25806E-03
 -1      4238 2.17933E-03
 -1      4239 1.90758E-03
 -1      4240 2.66445E-03
 -1      4241 2.37159E-03
 -1      4242 2.30145E-03
 -1      4243 1.84967E-03
 -1      4244 2.38462E-03
 -1      4245 2.44340E-03
 -1      4246 2.04359E-03
 -1      4247 2.21030E-03
 -1      4248 2.34525E-03
 -1      4249 2.07603E-03
 -1      4250 2.36198E+00
 -1      4251 1.99948E+00
 -1      4252 2.56092E+00
 -1      4253 2.52101E+00
 -1      4254 1.80041E+00
 -1      4255 8.25055E-01
 -1      4256 9.51042E-01
 -1      4257 9.12108E-01
 -1      4258 8.36428E-01
 -1      4259 1.89879E+00
 -1      4260 1.51356E+00
 -1      4261 1.33844E+00
 -1      4262 2.20874E+00
 -1      4263 2.89901E+00
 -1      4264 2.67194E+00
 -1      4265 2.67194E+00
 -1      4266 2.20874E+00
 -1      4267 2.09665E-03
 -1      4268 1.92302E-03
 -1      4269 1.77582E-03
 -1      4270 1.75912E-03
 -1      4271 1.87277E-03
 -1      4272 1.92422E-03
 -1      4273 1.80164E+00
 -1      4274 1.33844E+00
 -1      4275 9.31337E-01
 -1      4276 9.30108E-01
 -1      4277 7.16966E-01
 -1      4278 6.47822E-01
 -1      4279 5.56866E-01
 -1      4280 5.00610E-01
 -1      4281 4.44355E-01
 -1      4282 3.93949E-01
 -1      4283 3.43543E-01
 -1      4284 3.02990E-01
 -1      4285 2.62438E-01
 -1      4286 2.30531E-01
 -1      4287 1.98623E-01
 -1      4288 1.73644E-01
 -1      4289 1.48665E-01
 -1      4290 1.29203E-01
 -1      4291 1.09741E-01
 -1      4292 9.46918E-02
 -1      4293 7.96423E-02
 -1      4294 6.85553E-02
 -1      4295 5.70375E-02
 -1      4296 4.86961E-02
 -1      4297 4.03430E-02
 -1      4298 3.40358E-02
 -1      4299 2.78725E-02
 -1      4300 2.36007E-02
 -1      4301 1.90145E-02
 -1      4302 1.58116E-02
 -1      4303 1.24620E-02
 -1      4304 1.01046E-02
 -1      4305 7.71095E-03
 -1      4306 6.01178E-03
 -1      4307 4.35507E-03
 -1      4308 3.15973E-03
 -1      4309 2.22283E-03
 -1      4310 1.48994E-03
 -1      4311 1.61206E-03
 -1      4312 1.89990E-03
 -1      4313 1.97171E-03
 -1      4314 1.96399E-03
 -1      4315 1.91213E-03
 -1      4316 2.89901E+00
 -1      4317 8.81785E-01
 -1      4318 7.63693E-01
 -1      4319 7.85505E-01
 -1      4320 8.81785E-01
 -1      4321 6.67193E-01
 -1      4322 8.04876E-01
 -1      4323 8.63785E-01
 -1      4324 1.76072E-03
 -1      4325 2.67194E+00
 -1      4326 9.13337E-01
 -1      4327 2.52101E+00
 -1      4328 7.58149E-01
 -3
 9999
