    1C
    1UUSER                                                              
    1UDATE              27.october.2022                                 
    1UTIME              00:37:10                                        
    1UHOST                                                              
    1UPGM               CalculiX                                        
    1UVERSION           Version 2.17                             
    1UCOMPILETIME       Thu Jul 23 21:43:50 CEST 2020                    
    1UDIR                                                               
    1UDBN                                                               
    1UMAT    1SOLIDMATERIAL                                             
    2C                          4336                                     1
 -1         1 9.78011E+01 3.06631E+01 0.00000E+00
 -1         2 1.06580E+02 2.38929E+01 0.00000E+00
 -1         3 1.50000E+02 0.00000E+00 0.00000E+00
 -1         4 1.50000E+02 5.00000E+01 0.00000E+00
 -1         5 0.00000E+00 0.00000E+00 0.00000E+00
 -1         6 0.00000E+00 5.00000E+01 0.00000E+00
 -1         7 0.00000E+00 4.70500E+01 0.00000E+00
 -1         8 0.00000E+00 4.41000E+01 0.00000E+00
 -1         9 0.00000E+00 4.11500E+01 0.00000E+00
 -1        10 0.00000E+00 3.82000E+01 0.00000E+00
 -1        11 0.00000E+00 3.52500E+01 0.00000E+00
 -1        12 0.00000E+00 3.23500E+01 0.00000E+00
 -1        13 0.00000E+00 2.94000E+01 0.00000E+00
 -1        14 0.00000E+00 2.64500E+01 0.00000E+00
 -1        15 0.00000E+00 2.35000E+01 0.00000E+00
 -1        16 0.00000E+00 2.05500E+01 0.00000E+00
 -1        17 0.00000E+00 1.76000E+01 0.00000E+00
 -1        18 0.00000E+00 1.47000E+01 0.00000E+00
 -1        19 0.00000E+00 1.17500E+01 0.00000E+00
 -1        20 0.00000E+00 8.80000E+00 0.00000E+00
 -1        21 0.00000E+00 5.85000E+00 0.00000E+00
 -1        22 0.00000E+00 2.90000E+00 0.00000E+00
 -1        23 3.15000E+00 5.00000E+01 0.00000E+00
 -1        24 6.15000E+00 5.00000E+01 0.00000E+00
 -1        25 9.15000E+00 5.00000E+01 0.00000E+00
 -1        26 1.21500E+01 5.00000E+01 0.00000E+00
 -1        27 1.51500E+01 5.00000E+01 0.00000E+00
 -1        28 1.81500E+01 5.00000E+01 0.00000E+00
 -1        29 2.11500E+01 5.00000E+01 0.00000E+00
 -1        30 2.41500E+01 5.00000E+01 0.00000E+00
 -1        31 2.71500E+01 5.00000E+01 0.00000E+00
 -1        32 3.01500E+01 5.00000E+01 0.00000E+00
 -1        33 3.31500E+01 5.00000E+01 0.00000E+00
 -1        34 3.61500E+01 5.00000E+01 0.00000E+00
 -1        35 3.91500E+01 5.00000E+01 0.00000E+00
 -1        36 4.21500E+01 5.00000E+01 0.00000E+00
 -1        37 4.51500E+01 5.00000E+01 0.00000E+00
 -1        38 4.81500E+01 5.00000E+01 0.00000E+00
 -1        39 5.11500E+01 5.00000E+01 0.00000E+00
 -1        40 5.41500E+01 5.00000E+01 0.00000E+00
 -1        41 5.71500E+01 5.00000E+01 0.00000E+00
 -1        42 6.01500E+01 5.00000E+01 0.00000E+00
 -1        43 6.31500E+01 5.00000E+01 0.00000E+00
 -1        44 6.61500E+01 5.00000E+01 0.00000E+00
 -1        45 6.91500E+01 5.00000E+01 0.00000E+00
 -1        46 7.21500E+01 5.00000E+01 0.00000E+00
 -1        47 7.51500E+01 5.00000E+01 0.00000E+00
 -1        48 7.81500E+01 5.00000E+01 0.00000E+00
 -1        49 8.11500E+01 5.00000E+01 0.00000E+00
 -1        50 8.41500E+01 5.00000E+01 0.00000E+00
 -1        51 8.71500E+01 5.00000E+01 0.00000E+00
 -1        52 9.01500E+01 5.00000E+01 0.00000E+00
 -1        53 9.31500E+01 5.00000E+01 0.00000E+00
 -1        54 9.61500E+01 5.00000E+01 0.00000E+00
 -1        55 9.91500E+01 5.00000E+01 0.00000E+00
 -1        56 1.02150E+02 5.00000E+01 0.00000E+00
 -1        57 1.05150E+02 5.00000E+01 0.00000E+00
 -1        58 1.08150E+02 5.00000E+01 0.00000E+00
 -1        59 1.11150E+02 5.00000E+01 0.00000E+00
 -1        60 1.14150E+02 5.00000E+01 0.00000E+00
 -1        61 1.17150E+02 5.00000E+01 0.00000E+00
 -1        62 1.20150E+02 5.00000E+01 0.00000E+00
 -1        63 1.23150E+02 5.00000E+01 0.00000E+00
 -1        64 1.26150E+02 5.00000E+01 0.00000E+00
 -1        65 1.29150E+02 5.00000E+01 0.00000E+00
 -1        66 1.32150E+02 5.00000E+01 0.00000E+00
 -1        67 1.35150E+02 5.00000E+01 0.00000E+00
 -1        68 1.38150E+02 5.00000E+01 0.00000E+00
 -1        69 1.41150E+02 5.00000E+01 0.00000E+00
 -1        70 1.44150E+02 5.00000E+01 0.00000E+00
 -1        71 1.47150E+02 5.00000E+01 0.00000E+00
 -1        72 3.15000E+00 0.00000E+00 0.00000E+00
 -1        73 6.15000E+00 0.00000E+00 0.00000E+00
 -1        74 9.15000E+00 0.00000E+00 0.00000E+00
 -1        75 1.21500E+01 0.00000E+00 0.00000E+00
 -1        76 1.51500E+01 0.00000E+00 0.00000E+00
 -1        77 1.81500E+01 0.00000E+00 0.00000E+00
 -1        78 2.11500E+01 0.00000E+00 0.00000E+00
 -1        79 2.41500E+01 0.00000E+00 0.00000E+00
 -1        80 2.71500E+01 0.00000E+00 0.00000E+00
 -1        81 3.01500E+01 0.00000E+00 0.00000E+00
 -1        82 3.31500E+01 0.00000E+00 0.00000E+00
 -1        83 3.61500E+01 0.00000E+00 0.00000E+00
 -1        84 3.91500E+01 0.00000E+00 0.00000E+00
 -1        85 4.21500E+01 0.00000E+00 0.00000E+00
 -1        86 4.51500E+01 0.00000E+00 0.00000E+00
 -1        87 4.81500E+01 0.00000E+00 0.00000E+00
 -1        88 5.11500E+01 0.00000E+00 0.00000E+00
 -1        89 5.41500E+01 0.00000E+00 0.00000E+00
 -1        90 5.71500E+01 0.00000E+00 0.00000E+00
 -1        91 6.01500E+01 0.00000E+00 0.00000E+00
 -1        92 6.31500E+01 0.00000E+00 0.00000E+00
 -1        93 6.61500E+01 0.00000E+00 0.00000E+00
 -1        94 6.91500E+01 0.00000E+00 0.00000E+00
 -1        95 7.21500E+01 0.00000E+00 0.00000E+00
 -1        96 7.51500E+01 0.00000E+00 0.00000E+00
 -1        97 7.81500E+01 0.00000E+00 0.00000E+00
 -1        98 8.11500E+01 0.00000E+00 0.00000E+00
 -1        99 8.41500E+01 0.00000E+00 0.00000E+00
 -1       100 8.71500E+01 0.00000E+00 0.00000E+00
 -1       101 9.01500E+01 0.00000E+00 0.00000E+00
 -1       102 9.31500E+01 0.00000E+00 0.00000E+00
 -1       103 9.61500E+01 0.00000E+00 0.00000E+00
 -1       104 9.91500E+01 0.00000E+00 0.00000E+00
 -1       105 1.02150E+02 0.00000E+00 0.00000E+00
 -1       106 1.05150E+02 0.00000E+00 0.00000E+00
 -1       107 1.08150E+02 0.00000E+00 0.00000E+00
 -1       108 1.11150E+02 0.00000E+00 0.00000E+00
 -1       109 1.14150E+02 0.00000E+00 0.00000E+00
 -1       110 1.17150E+02 0.00000E+00 0.00000E+00
 -1       111 1.20150E+02 0.00000E+00 0.00000E+00
 -1       112 1.23150E+02 0.00000E+00 0.00000E+00
 -1       113 1.26150E+02 0.00000E+00 0.00000E+00
 -1       114 1.29150E+02 0.00000E+00 0.00000E+00
 -1       115 1.32150E+02 0.00000E+00 0.00000E+00
 -1       116 1.35150E+02 0.00000E+00 0.00000E+00
 -1       117 1.38150E+02 0.00000E+00 0.00000E+00
 -1       118 1.41150E+02 0.00000E+00 0.00000E+00
 -1       119 1.44150E+02 0.00000E+00 0.00000E+00
 -1       120 1.47150E+02 0.00000E+00 0.00000E+00
 -1       121 1.50000E+02 2.95000E+00 0.00000E+00
 -1       122 1.50000E+02 5.90000E+00 0.00000E+00
 -1       123 1.50000E+02 8.85000E+00 0.00000E+00
 -1       124 1.50000E+02 1.18000E+01 0.00000E+00
 -1       125 1.50000E+02 1.47500E+01 0.00000E+00
 -1       126 1.50000E+02 1.76500E+01 0.00000E+00
 -1       127 1.50000E+02 2.06000E+01 0.00000E+00
 -1       128 1.50000E+02 2.35500E+01 0.00000E+00
 -1       129 1.50000E+02 2.65000E+01 0.00000E+00
 -1       130 1.50000E+02 2.94500E+01 0.00000E+00
 -1       131 1.50000E+02 3.24000E+01 0.00000E+00
 -1       132 1.50000E+02 3.53000E+01 0.00000E+00
 -1       133 1.50000E+02 3.82500E+01 0.00000E+00
 -1       134 1.50000E+02 4.12000E+01 0.00000E+00
 -1       135 1.50000E+02 4.41500E+01 0.00000E+00
 -1       136 1.50000E+02 4.71000E+01 0.00000E+00
 -1       137 1.06403E+02 2.23268E+01 0.00000E+00
 -1       138 1.05886E+02 2.08549E+01 0.00000E+00
 -1       139 1.05084E+02 1.95674E+01 0.00000E+00
 -1       140 1.04091E+02 1.85406E+01 0.00000E+00
 -1       141 1.02909E+02 1.77352E+01 0.00000E+00
 -1       142 1.01524E+02 1.71683E+01 0.00000E+00
 -1       143 1.00123E+02 1.69140E+01 0.00000E+00
 -1       144 9.85646E+01 1.69670E+01 0.00000E+00
 -1       145 9.71667E+01 1.73221E+01 0.00000E+00
 -1       146 9.59090E+01 1.79328E+01 0.00000E+00
 -1       147 9.47475E+01 1.88287E+01 0.00000E+00
 -1       148 9.38186E+01 1.99173E+01 0.00000E+00
 -1       149 9.31273E+01 2.11798E+01 0.00000E+00
 -1       150 9.27035E+01 2.25839E+01 0.00000E+00
 -1       151 9.25812E+01 2.40176E+01 0.00000E+00
 -1       152 9.27936E+01 2.56088E+01 0.00000E+00
 -1       153 9.32937E+01 2.69721E+01 0.00000E+00
 -1       154 9.40879E+01 2.82331E+01 0.00000E+00
 -1       155 9.51088E+01 2.92788E+01 0.00000E+00
 -1       156 9.63932E+01 3.01254E+01 0.00000E+00
 -1       157 9.91876E+01 3.08819E+01 0.00000E+00
 -1       158 1.00708E+02 3.08014E+01 0.00000E+00
 -1       159 1.02039E+02 3.04470E+01 0.00000E+00
 -1       160 1.03291E+02 2.98281E+01 0.00000E+00
 -1       161 1.04377E+02 2.89906E+01 0.00000E+00
 -1       162 1.05312E+02 2.79107E+01 0.00000E+00
 -1       163 1.06014E+02 2.66515E+01 0.00000E+00
 -1       164 1.06438E+02 2.52978E+01 0.00000E+00
 -1       165 2.59800E+00 4.55750E+01 0.00000E+00
 -1       166 2.59800E+00 4.26250E+01 0.00000E+00
 -1       167 2.59800E+00 3.96750E+01 0.00000E+00
 -1       168 2.59800E+00 3.67250E+01 0.00000E+00
 -1       169 2.59800E+00 3.38250E+01 0.00000E+00
 -1       170 2.59800E+00 3.08750E+01 0.00000E+00
 -1       171 2.59800E+00 2.79250E+01 0.00000E+00
 -1       172 2.59800E+00 2.49750E+01 0.00000E+00
 -1       173 2.59800E+00 2.20250E+01 0.00000E+00
 -1       174 2.59800E+00 1.90750E+01 0.00000E+00
 -1       175 2.59800E+00 1.61750E+01 0.00000E+00
 -1       176 2.59800E+00 1.32250E+01 0.00000E+00
 -1       177 2.59800E+00 1.02750E+01 0.00000E+00
 -1       178 2.59800E+00 7.32500E+00 0.00000E+00
 -1       179 2.59800E+00 4.37500E+00 0.00000E+00
 -1       180 2.87400E+00 2.18750E+00 0.00000E+00
 -1       181 4.65000E+00 4.74020E+01 0.00000E+00
 -1       182 7.65000E+00 4.74020E+01 0.00000E+00
 -1       183 1.06500E+01 4.74020E+01 0.00000E+00
 -1       184 1.36500E+01 4.74020E+01 0.00000E+00
 -1       185 1.66500E+01 4.74020E+01 0.00000E+00
 -1       186 1.96500E+01 4.74020E+01 0.00000E+00
 -1       187 2.26500E+01 4.74020E+01 0.00000E+00
 -1       188 2.56500E+01 4.74020E+01 0.00000E+00
 -1       189 2.86500E+01 4.74020E+01 0.00000E+00
 -1       190 3.16500E+01 4.74020E+01 0.00000E+00
 -1       191 3.46500E+01 4.74020E+01 0.00000E+00
 -1       192 3.76500E+01 4.74020E+01 0.00000E+00
 -1       193 4.06500E+01 4.74020E+01 0.00000E+00
 -1       194 4.36500E+01 4.74020E+01 0.00000E+00
 -1       195 4.66500E+01 4.74020E+01 0.00000E+00
 -1       196 4.96500E+01 4.74020E+01 0.00000E+00
 -1       197 5.26500E+01 4.74020E+01 0.00000E+00
 -1       198 5.56500E+01 4.74020E+01 0.00000E+00
 -1       199 5.86500E+01 4.74020E+01 0.00000E+00
 -1       200 6.16500E+01 4.74020E+01 0.00000E+00
 -1       201 6.46500E+01 4.74020E+01 0.00000E+00
 -1       202 6.76500E+01 4.74020E+01 0.00000E+00
 -1       203 7.06500E+01 4.74020E+01 0.00000E+00
 -1       204 7.36500E+01 4.74020E+01 0.00000E+00
 -1       205 7.66500E+01 4.74020E+01 0.00000E+00
 -1       206 7.96500E+01 4.74020E+01 0.00000E+00
 -1       207 8.26500E+01 4.74020E+01 0.00000E+00
 -1       208 8.56500E+01 4.74020E+01 0.00000E+00
 -1       209 8.86500E+01 4.74020E+01 0.00000E+00
 -1       210 9.16500E+01 4.74020E+01 0.00000E+00
 -1       211 9.46500E+01 4.74020E+01 0.00000E+00
 -1       212 9.76500E+01 4.74020E+01 0.00000E+00
 -1       213 1.00650E+02 4.74020E+01 0.00000E+00
 -1       214 1.03650E+02 4.74020E+01 0.00000E+00
 -1       215 1.06650E+02 4.74020E+01 0.00000E+00
 -1       216 1.09650E+02 4.74020E+01 0.00000E+00
 -1       217 1.12650E+02 4.74020E+01 0.00000E+00
 -1       218 1.15650E+02 4.74020E+01 0.00000E+00
 -1       219 1.18650E+02 4.74020E+01 0.00000E+00
 -1       220 1.21650E+02 4.74020E+01 0.00000E+00
 -1       221 1.24650E+02 4.74020E+01 0.00000E+00
 -1       222 1.27650E+02 4.74020E+01 0.00000E+00
 -1       223 1.30650E+02 4.74020E+01 0.00000E+00
 -1       224 1.33650E+02 4.74020E+01 0.00000E+00
 -1       225 1.36650E+02 4.74020E+01 0.00000E+00
 -1       226 1.39650E+02 4.74020E+01 0.00000E+00
 -1       227 1.42650E+02 4.74020E+01 0.00000E+00
 -1       228 1.45650E+02 4.74020E+01 0.00000E+00
 -1       229 5.87400E+00 2.18750E+00 0.00000E+00
 -1       230 8.87400E+00 2.18750E+00 0.00000E+00
 -1       231 1.18740E+01 2.18750E+00 0.00000E+00
 -1       232 1.48740E+01 2.18750E+00 0.00000E+00
 -1       233 1.78740E+01 2.18750E+00 0.00000E+00
 -1       234 2.08740E+01 2.18750E+00 0.00000E+00
 -1       235 2.38740E+01 2.18750E+00 0.00000E+00
 -1       236 2.68740E+01 2.18750E+00 0.00000E+00
 -1       237 2.98740E+01 2.18750E+00 0.00000E+00
 -1       238 3.28740E+01 2.18750E+00 0.00000E+00
 -1       239 3.58740E+01 2.18750E+00 0.00000E+00
 -1       240 3.88740E+01 2.18750E+00 0.00000E+00
 -1       241 4.18740E+01 2.18750E+00 0.00000E+00
 -1       242 4.48740E+01 2.18750E+00 0.00000E+00
 -1       243 4.78740E+01 2.18750E+00 0.00000E+00
 -1       244 5.08740E+01 2.18750E+00 0.00000E+00
 -1       245 5.38740E+01 2.18750E+00 0.00000E+00
 -1       246 5.68740E+01 2.18750E+00 0.00000E+00
 -1       247 5.98740E+01 2.18750E+00 0.00000E+00
 -1       248 6.28740E+01 2.18750E+00 0.00000E+00
 -1       249 6.58740E+01 2.18750E+00 0.00000E+00
 -1       250 6.88740E+01 2.18750E+00 0.00000E+00
 -1       251 7.18740E+01 2.18750E+00 0.00000E+00
 -1       252 7.48740E+01 2.18750E+00 0.00000E+00
 -1       253 7.78740E+01 2.18750E+00 0.00000E+00
 -1       254 8.08740E+01 2.18750E+00 0.00000E+00
 -1       255 8.38740E+01 2.18750E+00 0.00000E+00
 -1       256 8.68740E+01 2.18750E+00 0.00000E+00
 -1       257 8.98740E+01 2.18750E+00 0.00000E+00
 -1       258 9.28740E+01 2.18750E+00 0.00000E+00
 -1       259 9.58740E+01 2.18750E+00 0.00000E+00
 -1       260 9.88740E+01 2.18750E+00 0.00000E+00
 -1       261 1.01874E+02 2.18750E+00 0.00000E+00
 -1       262 1.04874E+02 2.18750E+00 0.00000E+00
 -1       263 1.07874E+02 2.18750E+00 0.00000E+00
 -1       264 1.10874E+02 2.18750E+00 0.00000E+00
 -1       265 1.13874E+02 2.18750E+00 0.00000E+00
 -1       266 1.16874E+02 2.18750E+00 0.00000E+00
 -1       267 1.19874E+02 2.18750E+00 0.00000E+00
 -1       268 1.22874E+02 2.18750E+00 0.00000E+00
 -1       269 1.25874E+02 2.18750E+00 0.00000E+00
 -1       270 1.28874E+02 2.18750E+00 0.00000E+00
 -1       271 1.31874E+02 2.18750E+00 0.00000E+00
 -1       272 1.34874E+02 2.18750E+00 0.00000E+00
 -1       273 1.37874E+02 2.18750E+00 0.00000E+00
 -1       274 1.40874E+02 2.18750E+00 0.00000E+00
 -1       275 1.43874E+02 2.18750E+00 0.00000E+00
 -1       276 1.46874E+02 2.18750E+00 0.00000E+00
 -1       277 1.47402E+02 4.42500E+00 0.00000E+00
 -1       278 1.47402E+02 7.37500E+00 0.00000E+00
 -1       279 1.47402E+02 1.03250E+01 0.00000E+00
 -1       280 1.47402E+02 1.32750E+01 0.00000E+00
 -1       281 1.47402E+02 1.61750E+01 0.00000E+00
 -1       282 1.47402E+02 1.91250E+01 0.00000E+00
 -1       283 1.47402E+02 2.20750E+01 0.00000E+00
 -1       284 1.47402E+02 2.50250E+01 0.00000E+00
 -1       285 1.47402E+02 2.79750E+01 0.00000E+00
 -1       286 1.47402E+02 3.09250E+01 0.00000E+00
 -1       287 1.47402E+02 3.38250E+01 0.00000E+00
 -1       288 1.47402E+02 3.67750E+01 0.00000E+00
 -1       289 1.47402E+02 3.97250E+01 0.00000E+00
 -1       290 1.47402E+02 4.26750E+01 0.00000E+00
 -1       291 1.46526E+02 4.50385E+01 0.00000E+00
 -1       292 1.07863E+02 2.29545E+01 0.00000E+00
 -1       293 1.07526E+02 2.11065E+01 0.00000E+00
 -1       294 1.06656E+02 1.94811E+01 0.00000E+00
 -1       295 1.05459E+02 1.82116E+01 0.00000E+00
 -1       296 1.04183E+02 1.71359E+01 0.00000E+00
 -1       297 1.02708E+02 1.62522E+01 0.00000E+00
 -1       298 1.01040E+02 1.58482E+01 0.00000E+00
 -1       299 9.92967E+01 1.55613E+01 0.00000E+00
 -1       300 9.75672E+01 1.59695E+01 0.00000E+00
 -1       301 9.60083E+01 1.65368E+01 0.00000E+00
 -1       302 9.44854E+01 1.72881E+01 0.00000E+00
 -1       303 9.32970E+01 1.85317E+01 0.00000E+00
 -1       304 9.23361E+01 1.99259E+01 0.00000E+00
 -1       305 9.16745E+01 2.15074E+01 0.00000E+00
 -1       306 9.13509E+01 2.31905E+01 0.00000E+00
 -1       307 9.11535E+01 2.50180E+01 0.00000E+00
 -1       308 9.19054E+01 2.67079E+01 0.00000E+00
 -1       309 9.25941E+01 2.82934E+01 0.00000E+00
 -1       310 9.36709E+01 2.96614E+01 0.00000E+00
 -1       311 9.50377E+01 3.07844E+01 0.00000E+00
 -1       312 9.66347E+01 3.16052E+01 0.00000E+00
 -1       313 9.83054E+01 3.19701E+01 0.00000E+00
 -1       314 1.00021E+02 3.22197E+01 0.00000E+00
 -1       315 1.01686E+02 3.17957E+01 0.00000E+00
 -1       316 1.03202E+02 3.12245E+01 0.00000E+00
 -1       317 1.04575E+02 3.03694E+01 0.00000E+00
 -1       318 1.05825E+02 2.92990E+01 0.00000E+00
 -1       319 1.06942E+02 2.79934E+01 0.00000E+00
 -1       320 1.07463E+02 2.63621E+01 0.00000E+00
 -1       321 1.07715E+02 2.47176E+01 0.00000E+00
 -1       322 5.19600E+00 4.11500E+01 0.00000E+00
 -1       323 5.19600E+00 4.41000E+01 0.00000E+00
 -1       324 5.19600E+00 3.52750E+01 0.00000E+00
 -1       325 5.19600E+00 3.23250E+01 0.00000E+00
 -1       326 5.19600E+00 2.93750E+01 0.00000E+00
 -1       327 5.19600E+00 2.64250E+01 0.00000E+00
 -1       328 5.19600E+00 2.34750E+01 0.00000E+00
 -1       329 5.19600E+00 2.05250E+01 0.00000E+00
 -1       330 5.19600E+00 1.76250E+01 0.00000E+00
 -1       331 5.19600E+00 1.46750E+01 0.00000E+00
 -1       332 5.19600E+00 1.17250E+01 0.00000E+00
 -1       333 5.19600E+00 8.77500E+00 0.00000E+00
 -1       334 5.19600E+00 5.82500E+00 0.00000E+00
 -1       335 5.53500E+00 4.00625E+00 0.00000E+00
 -1       336 8.53500E+00 4.00625E+00 0.00000E+00
 -1       337 9.15000E+00 4.48040E+01 0.00000E+00
 -1       338 1.21500E+01 4.48040E+01 0.00000E+00
 -1       339 1.51500E+01 4.48040E+01 0.00000E+00
 -1       340 1.81500E+01 4.48040E+01 0.00000E+00
 -1       341 2.11500E+01 4.48040E+01 0.00000E+00
 -1       342 2.41500E+01 4.48040E+01 0.00000E+00
 -1       343 2.71500E+01 4.48040E+01 0.00000E+00
 -1       344 3.01500E+01 4.48040E+01 0.00000E+00
 -1       345 3.31500E+01 4.48040E+01 0.00000E+00
 -1       346 3.61500E+01 4.48040E+01 0.00000E+00
 -1       347 3.91500E+01 4.48040E+01 0.00000E+00
 -1       348 4.21500E+01 4.48040E+01 0.00000E+00
 -1       349 4.51500E+01 4.48040E+01 0.00000E+00
 -1       350 4.81500E+01 4.48040E+01 0.00000E+00
 -1       351 5.11500E+01 4.48040E+01 0.00000E+00
 -1       352 5.41500E+01 4.48040E+01 0.00000E+00
 -1       353 5.71500E+01 4.48040E+01 0.00000E+00
 -1       354 6.01500E+01 4.48040E+01 0.00000E+00
 -1       355 6.31500E+01 4.48040E+01 0.00000E+00
 -1       356 6.61500E+01 4.48040E+01 0.00000E+00
 -1       357 6.91500E+01 4.48040E+01 0.00000E+00
 -1       358 7.21500E+01 4.48040E+01 0.00000E+00
 -1       359 7.51500E+01 4.48040E+01 0.00000E+00
 -1       360 7.81500E+01 4.48040E+01 0.00000E+00
 -1       361 8.11500E+01 4.48040E+01 0.00000E+00
 -1       362 8.41500E+01 4.48040E+01 0.00000E+00
 -1       363 8.71500E+01 4.48040E+01 0.00000E+00
 -1       364 9.01500E+01 4.48040E+01 0.00000E+00
 -1       365 9.31500E+01 4.48040E+01 0.00000E+00
 -1       366 9.61500E+01 4.48040E+01 0.00000E+00
 -1       367 9.91500E+01 4.48040E+01 0.00000E+00
 -1       368 1.02150E+02 4.48040E+01 0.00000E+00
 -1       369 1.05150E+02 4.48040E+01 0.00000E+00
 -1       370 1.08150E+02 4.48040E+01 0.00000E+00
 -1       371 1.11150E+02 4.48040E+01 0.00000E+00
 -1       372 1.14150E+02 4.48040E+01 0.00000E+00
 -1       373 1.17150E+02 4.48040E+01 0.00000E+00
 -1       374 1.20150E+02 4.48040E+01 0.00000E+00
 -1       375 1.23150E+02 4.48040E+01 0.00000E+00
 -1       376 1.26150E+02 4.48040E+01 0.00000E+00
 -1       377 1.29150E+02 4.48040E+01 0.00000E+00
 -1       378 1.32150E+02 4.48040E+01 0.00000E+00
 -1       379 1.35150E+02 4.48040E+01 0.00000E+00
 -1       380 1.38150E+02 4.48040E+01 0.00000E+00
 -1       381 1.41150E+02 4.48040E+01 0.00000E+00
 -1       382 1.43838E+02 4.49212E+01 0.00000E+00
 -1       383 1.15350E+01 4.00625E+00 0.00000E+00
 -1       384 1.45350E+01 4.00625E+00 0.00000E+00
 -1       385 1.75350E+01 4.00625E+00 0.00000E+00
 -1       386 2.05350E+01 4.00625E+00 0.00000E+00
 -1       387 2.35350E+01 4.00625E+00 0.00000E+00
 -1       388 2.65350E+01 4.00625E+00 0.00000E+00
 -1       389 2.95350E+01 4.00625E+00 0.00000E+00
 -1       390 3.25350E+01 4.00625E+00 0.00000E+00
 -1       391 3.55350E+01 4.00625E+00 0.00000E+00
 -1       392 3.85350E+01 4.00625E+00 0.00000E+00
 -1       393 4.15350E+01 4.00625E+00 0.00000E+00
 -1       394 4.45350E+01 4.00625E+00 0.00000E+00
 -1       395 4.75350E+01 4.00625E+00 0.00000E+00
 -1       396 5.05350E+01 4.00625E+00 0.00000E+00
 -1       397 5.35350E+01 4.00625E+00 0.00000E+00
 -1       398 5.65350E+01 4.00625E+00 0.00000E+00
 -1       399 5.95350E+01 4.00625E+00 0.00000E+00
 -1       400 6.25350E+01 4.00625E+00 0.00000E+00
 -1       401 6.55350E+01 4.00625E+00 0.00000E+00
 -1       402 6.85350E+01 4.00625E+00 0.00000E+00
 -1       403 7.15350E+01 4.00625E+00 0.00000E+00
 -1       404 7.45350E+01 4.00625E+00 0.00000E+00
 -1       405 7.75350E+01 4.00625E+00 0.00000E+00
 -1       406 8.05350E+01 4.00625E+00 0.00000E+00
 -1       407 8.35350E+01 4.00625E+00 0.00000E+00
 -1       408 8.65350E+01 4.00625E+00 0.00000E+00
 -1       409 8.95350E+01 4.00625E+00 0.00000E+00
 -1       410 9.25350E+01 4.00625E+00 0.00000E+00
 -1       411 9.55350E+01 4.00625E+00 0.00000E+00
 -1       412 9.85350E+01 4.00625E+00 0.00000E+00
 -1       413 1.01535E+02 4.00625E+00 0.00000E+00
 -1       414 1.04535E+02 4.00625E+00 0.00000E+00
 -1       415 1.07535E+02 4.00625E+00 0.00000E+00
 -1       416 1.10535E+02 4.00625E+00 0.00000E+00
 -1       417 1.13535E+02 4.00625E+00 0.00000E+00
 -1       418 1.16535E+02 4.00625E+00 0.00000E+00
 -1       419 1.19535E+02 4.00625E+00 0.00000E+00
 -1       420 1.22535E+02 4.00625E+00 0.00000E+00
 -1       421 1.25535E+02 4.00625E+00 0.00000E+00
 -1       422 1.28535E+02 4.00625E+00 0.00000E+00
 -1       423 1.31535E+02 4.00625E+00 0.00000E+00
 -1       424 1.34535E+02 4.00625E+00 0.00000E+00
 -1       425 1.37535E+02 4.00625E+00 0.00000E+00
 -1       426 1.40535E+02 4.00625E+00 0.00000E+00
 -1       427 1.43535E+02 4.00625E+00 0.00000E+00
 -1       428 1.45469E+02 4.21562E+00 0.00000E+00
 -1       429 1.44804E+02 1.18000E+01 0.00000E+00
 -1       430 1.44804E+02 8.85000E+00 0.00000E+00
 -1       431 1.45136E+02 6.53281E+00 0.00000E+00
 -1       432 1.44804E+02 1.47000E+01 0.00000E+00
 -1       433 1.44804E+02 1.76500E+01 0.00000E+00
 -1       434 1.44804E+02 2.06000E+01 0.00000E+00
 -1       435 1.44804E+02 2.35500E+01 0.00000E+00
 -1       436 1.44804E+02 2.65000E+01 0.00000E+00
 -1       437 1.44804E+02 2.94500E+01 0.00000E+00
 -1       438 1.44804E+02 3.23500E+01 0.00000E+00
 -1       439 1.44804E+02 3.53000E+01 0.00000E+00
 -1       440 1.44804E+02 3.82500E+01 0.00000E+00
 -1       441 1.44804E+02 4.12000E+01 0.00000E+00
 -1       442 1.08308E+02 1.96427E+01 0.00000E+00
 -1       443 1.09247E+02 2.39581E+01 0.00000E+00
 -1       444 1.09299E+02 2.17381E+01 0.00000E+00
 -1       445 1.07184E+02 1.77848E+01 0.00000E+00
 -1       446 1.05710E+02 1.66184E+01 0.00000E+00
 -1       447 5.19600E+00 3.82125E+01 0.00000E+00
 -1       448 1.02198E+02 1.47090E+01 0.00000E+00
 -1       449 1.00392E+02 1.43431E+01 0.00000E+00
 -1       450 9.80765E+01 1.42592E+01 0.00000E+00
 -1       451 9.63158E+01 1.49564E+01 0.00000E+00
 -1       452 9.46363E+01 1.56749E+01 0.00000E+00
 -1       453 9.28935E+01 1.69565E+01 0.00000E+00
 -1       454 9.16803E+01 1.84457E+01 0.00000E+00
 -1       455 9.04230E+01 2.00548E+01 0.00000E+00
 -1       456 9.02398E+01 2.21042E+01 0.00000E+00
 -1       457 8.97136E+01 2.39380E+01 0.00000E+00
 -1       458 9.03452E+01 2.63899E+01 0.00000E+00
 -1       459 9.10338E+01 2.79753E+01 0.00000E+00
 -1       460 9.20481E+01 2.98309E+01 0.00000E+00
 -1       461 9.33718E+01 3.14186E+01 0.00000E+00
 -1       462 9.50522E+01 3.27202E+01 0.00000E+00
 -1       463 9.71398E+01 3.32995E+01 0.00000E+00
 -1       464 9.88553E+01 3.35491E+01 0.00000E+00
 -1       465 1.01256E+02 3.35886E+01 0.00000E+00
 -1       466 1.02901E+02 3.27231E+01 0.00000E+00
 -1       467 1.04618E+02 3.19683E+01 0.00000E+00
 -1       468 1.06206E+02 3.10097E+01 0.00000E+00
 -1       469 1.07432E+02 2.95433E+01 0.00000E+00
 -1       470 1.08676E+02 2.76484E+01 0.00000E+00
 -1       471 1.08995E+02 2.56025E+01 0.00000E+00
 -1       472 1.04111E+02 1.55821E+01 0.00000E+00
 -1       473 8.89053E+01 2.53099E+01 0.00000E+00
 -1       474 1.00350E+01 6.60425E+00 0.00000E+00
 -1       475 7.79400E+00 3.08500E+01 0.00000E+00
 -1       476 7.79400E+00 3.38000E+01 0.00000E+00
 -1       477 7.79400E+00 2.49500E+01 0.00000E+00
 -1       478 7.79400E+00 2.20000E+01 0.00000E+00
 -1       479 7.79400E+00 1.91000E+01 0.00000E+00
 -1       480 7.79400E+00 1.61500E+01 0.00000E+00
 -1       481 7.79400E+00 1.32000E+01 0.00000E+00
 -1       482 7.79400E+00 1.02500E+01 0.00000E+00
 -1       483 1.30350E+01 6.60425E+00 0.00000E+00
 -1       484 1.06500E+01 4.22060E+01 0.00000E+00
 -1       485 1.05753E+02 1.48016E+01 0.00000E+00
 -1       486 1.36500E+01 4.22060E+01 0.00000E+00
 -1       487 1.66500E+01 4.22060E+01 0.00000E+00
 -1       488 1.96500E+01 4.22060E+01 0.00000E+00
 -1       489 2.26500E+01 4.22060E+01 0.00000E+00
 -1       490 2.56500E+01 4.22060E+01 0.00000E+00
 -1       491 2.86500E+01 4.22060E+01 0.00000E+00
 -1       492 3.16500E+01 4.22060E+01 0.00000E+00
 -1       493 3.46500E+01 4.22060E+01 0.00000E+00
 -1       494 3.76500E+01 4.22060E+01 0.00000E+00
 -1       495 4.06500E+01 4.22060E+01 0.00000E+00
 -1       496 4.36500E+01 4.22060E+01 0.00000E+00
 -1       497 4.66500E+01 4.22060E+01 0.00000E+00
 -1       498 4.96500E+01 4.22060E+01 0.00000E+00
 -1       499 5.26500E+01 4.22060E+01 0.00000E+00
 -1       500 5.56500E+01 4.22060E+01 0.00000E+00
 -1       501 5.86500E+01 4.22060E+01 0.00000E+00
 -1       502 6.16500E+01 4.22060E+01 0.00000E+00
 -1       503 6.46500E+01 4.22060E+01 0.00000E+00
 -1       504 6.76500E+01 4.22060E+01 0.00000E+00
 -1       505 7.06500E+01 4.22060E+01 0.00000E+00
 -1       506 7.36500E+01 4.22060E+01 0.00000E+00
 -1       507 7.66500E+01 4.22060E+01 0.00000E+00
 -1       508 7.96500E+01 4.22060E+01 0.00000E+00
 -1       509 8.26500E+01 4.22060E+01 0.00000E+00
 -1       510 8.56500E+01 4.22060E+01 0.00000E+00
 -1       511 8.86500E+01 4.22060E+01 0.00000E+00
 -1       512 9.16500E+01 4.22060E+01 0.00000E+00
 -1       513 9.46500E+01 4.22060E+01 0.00000E+00
 -1       514 9.76500E+01 4.22060E+01 0.00000E+00
 -1       515 1.00650E+02 4.22060E+01 0.00000E+00
 -1       516 1.03650E+02 4.22060E+01 0.00000E+00
 -1       517 1.06650E+02 4.22060E+01 0.00000E+00
 -1       518 1.09650E+02 4.22060E+01 0.00000E+00
 -1       519 1.12650E+02 4.22060E+01 0.00000E+00
 -1       520 1.15650E+02 4.22060E+01 0.00000E+00
 -1       521 1.18650E+02 4.22060E+01 0.00000E+00
 -1       522 1.21650E+02 4.22060E+01 0.00000E+00
 -1       523 1.24650E+02 4.22060E+01 0.00000E+00
 -1       524 1.27650E+02 4.22060E+01 0.00000E+00
 -1       525 1.30650E+02 4.22060E+01 0.00000E+00
 -1       526 1.33650E+02 4.22060E+01 0.00000E+00
 -1       527 1.36650E+02 4.22060E+01 0.00000E+00
 -1       528 1.39650E+02 4.22060E+01 0.00000E+00
 -1       529 1.90350E+01 6.60425E+00 0.00000E+00
 -1       530 2.20350E+01 6.60425E+00 0.00000E+00
 -1       531 2.50350E+01 6.60425E+00 0.00000E+00
 -1       532 2.80350E+01 6.60425E+00 0.00000E+00
 -1       533 3.10350E+01 6.60425E+00 0.00000E+00
 -1       534 3.40350E+01 6.60425E+00 0.00000E+00
 -1       535 3.70350E+01 6.60425E+00 0.00000E+00
 -1       536 4.00350E+01 6.60425E+00 0.00000E+00
 -1       537 4.30350E+01 6.60425E+00 0.00000E+00
 -1       538 4.60350E+01 6.60425E+00 0.00000E+00
 -1       539 4.90350E+01 6.60425E+00 0.00000E+00
 -1       540 5.20350E+01 6.60425E+00 0.00000E+00
 -1       541 5.50350E+01 6.60425E+00 0.00000E+00
 -1       542 5.80350E+01 6.60425E+00 0.00000E+00
 -1       543 6.10350E+01 6.60425E+00 0.00000E+00
 -1       544 6.40350E+01 6.60425E+00 0.00000E+00
 -1       545 6.70350E+01 6.60425E+00 0.00000E+00
 -1       546 7.00350E+01 6.60425E+00 0.00000E+00
 -1       547 7.30350E+01 6.60425E+00 0.00000E+00
 -1       548 7.60350E+01 6.60425E+00 0.00000E+00
 -1       549 7.90350E+01 6.60425E+00 0.00000E+00
 -1       550 8.20350E+01 6.60425E+00 0.00000E+00
 -1       551 8.50350E+01 6.60425E+00 0.00000E+00
 -1       552 8.80350E+01 6.60425E+00 0.00000E+00
 -1       553 9.10350E+01 6.60425E+00 0.00000E+00
 -1       554 9.40350E+01 6.60425E+00 0.00000E+00
 -1       555 9.70350E+01 6.60425E+00 0.00000E+00
 -1       556 1.00035E+02 6.60425E+00 0.00000E+00
 -1       557 1.03035E+02 6.60425E+00 0.00000E+00
 -1       558 1.06035E+02 6.60425E+00 0.00000E+00
 -1       559 1.09035E+02 6.60425E+00 0.00000E+00
 -1       560 1.12035E+02 6.60425E+00 0.00000E+00
 -1       561 1.15035E+02 6.60425E+00 0.00000E+00
 -1       562 1.18035E+02 6.60425E+00 0.00000E+00
 -1       563 1.21035E+02 6.60425E+00 0.00000E+00
 -1       564 1.24035E+02 6.60425E+00 0.00000E+00
 -1       565 1.27035E+02 6.60425E+00 0.00000E+00
 -1       566 1.30035E+02 6.60425E+00 0.00000E+00
 -1       567 1.33035E+02 6.60425E+00 0.00000E+00
 -1       568 1.36035E+02 6.60425E+00 0.00000E+00
 -1       569 1.39035E+02 6.60425E+00 0.00000E+00
 -1       570 1.42035E+02 6.60425E+00 0.00000E+00
 -1       571 1.42206E+02 1.61750E+01 0.00000E+00
 -1       572 1.42206E+02 1.91250E+01 0.00000E+00
 -1       573 1.42206E+02 1.03250E+01 0.00000E+00
 -1       574 1.42206E+02 1.32500E+01 0.00000E+00
 -1       575 1.42206E+02 2.20750E+01 0.00000E+00
 -1       576 1.42206E+02 2.50250E+01 0.00000E+00
 -1       577 1.42206E+02 2.79750E+01 0.00000E+00
 -1       578 1.42206E+02 3.08750E+01 0.00000E+00
 -1       579 1.42206E+02 3.38250E+01 0.00000E+00
 -1       580 1.42206E+02 3.67750E+01 0.00000E+00
 -1       581 1.42206E+02 3.97250E+01 0.00000E+00
 -1       582 1.10904E+02 2.28860E+01 0.00000E+00
 -1       583 1.09213E+02 1.78261E+01 0.00000E+00
 -1       584 1.60350E+01 6.60425E+00 0.00000E+00
 -1       585 1.03867E+02 1.35853E+01 0.00000E+00
 -1       586 1.10530E+02 2.68894E+01 0.00000E+00
 -1       587 1.10205E+02 1.99215E+01 0.00000E+00
 -1       588 1.10717E+02 2.48877E+01 0.00000E+00
 -1       589 9.56598E+01 3.45818E+01 0.00000E+00
 -1       590 7.79400E+00 2.79000E+01 0.00000E+00
 -1       591 9.92965E+01 1.25872E+01 0.00000E+00
 -1       592 9.14570E+01 3.16694E+01 0.00000E+00
 -1       593 1.01569E+02 1.31736E+01 0.00000E+00
 -1       594 9.66264E+01 1.31689E+01 0.00000E+00
 -1       595 9.49469E+01 1.38874E+01 0.00000E+00
 -1       596 9.26496E+01 1.47990E+01 0.00000E+00
 -1       597 9.09572E+01 1.66178E+01 0.00000E+00
 -1       598 8.96999E+01 1.82269E+01 0.00000E+00
 -1       599 8.86231E+01 2.09268E+01 0.00000E+00
 -1       600 8.80969E+01 2.27606E+01 0.00000E+00
 -1       601 8.91164E+01 2.78659E+01 0.00000E+00
 -1       602 1.02838E+02 3.45995E+01 0.00000E+00
 -1       603 9.01307E+01 2.97215E+01 0.00000E+00
 -1       604 9.31617E+01 3.34253E+01 0.00000E+00
 -1       605 9.77868E+01 3.48728E+01 0.00000E+00
 -1       606 1.00027E+02 3.52837E+01 0.00000E+00
 -1       607 1.04555E+02 3.38447E+01 0.00000E+00
 -1       608 1.06144E+02 3.28861E+01 0.00000E+00
 -1       609 1.08264E+02 3.14838E+01 0.00000E+00
 -1       610 1.09508E+02 2.95890E+01 0.00000E+00
 -1       611 7.92300E+00 4.16780E+01 0.00000E+00
 -1       612 7.61550E+00 6.21462E+00 0.00000E+00
 -1       613 1.07512E+02 1.58569E+01 0.00000E+00
 -1       614 7.79400E+00 3.67375E+01 0.00000E+00
 -1       615 1.11810E+02 2.10694E+01 0.00000E+00
 -1       616 1.41678E+02 4.22645E+01 0.00000E+00
 -1       617 1.01609E+02 3.62947E+01 0.00000E+00
 -1       618 8.72886E+01 2.41325E+01 0.00000E+00
 -1       619 8.79000E+01 1.90989E+01 0.00000E+00
 -1       620 7.85850E+00 3.92077E+01 0.00000E+00
 -1       621 1.03920E+01 2.05500E+01 0.00000E+00
 -1       622 1.03920E+01 2.35000E+01 0.00000E+00
 -1       623 1.03920E+01 1.46750E+01 0.00000E+00
 -1       624 1.03920E+01 1.17250E+01 0.00000E+00
 -1       625 1.15350E+01 9.20225E+00 0.00000E+00
 -1       626 1.03050E+02 1.15263E+01 0.00000E+00
 -1       627 1.11937E+02 2.89652E+01 0.00000E+00
 -1       628 1.51500E+01 3.96080E+01 0.00000E+00
 -1       629 1.81500E+01 3.96080E+01 0.00000E+00
 -1       630 2.11500E+01 3.96080E+01 0.00000E+00
 -1       631 2.41500E+01 3.96080E+01 0.00000E+00
 -1       632 2.71500E+01 3.96080E+01 0.00000E+00
 -1       633 3.01500E+01 3.96080E+01 0.00000E+00
 -1       634 3.31500E+01 3.96080E+01 0.00000E+00
 -1       635 3.61500E+01 3.96080E+01 0.00000E+00
 -1       636 3.91500E+01 3.96080E+01 0.00000E+00
 -1       637 4.21500E+01 3.96080E+01 0.00000E+00
 -1       638 4.51500E+01 3.96080E+01 0.00000E+00
 -1       639 4.81500E+01 3.96080E+01 0.00000E+00
 -1       640 5.11500E+01 3.96080E+01 0.00000E+00
 -1       641 5.41500E+01 3.96080E+01 0.00000E+00
 -1       642 5.71500E+01 3.96080E+01 0.00000E+00
 -1       643 6.01500E+01 3.96080E+01 0.00000E+00
 -1       644 6.31500E+01 3.96080E+01 0.00000E+00
 -1       645 6.61500E+01 3.96080E+01 0.00000E+00
 -1       646 6.91500E+01 3.96080E+01 0.00000E+00
 -1       647 7.21500E+01 3.96080E+01 0.00000E+00
 -1       648 7.51500E+01 3.96080E+01 0.00000E+00
 -1       649 7.81500E+01 3.96080E+01 0.00000E+00
 -1       650 8.11500E+01 3.96080E+01 0.00000E+00
 -1       651 8.41500E+01 3.96080E+01 0.00000E+00
 -1       652 8.71500E+01 3.96080E+01 0.00000E+00
 -1       653 9.01500E+01 3.96080E+01 0.00000E+00
 -1       654 9.31500E+01 3.96080E+01 0.00000E+00
 -1       655 9.61500E+01 3.96080E+01 0.00000E+00
 -1       656 9.91500E+01 3.96080E+01 0.00000E+00
 -1       657 1.02150E+02 3.96080E+01 0.00000E+00
 -1       658 1.05150E+02 3.96080E+01 0.00000E+00
 -1       659 1.08150E+02 3.96080E+01 0.00000E+00
 -1       660 1.11150E+02 3.96080E+01 0.00000E+00
 -1       661 1.14150E+02 3.96080E+01 0.00000E+00
 -1       662 1.17150E+02 3.96080E+01 0.00000E+00
 -1       663 1.20150E+02 3.96080E+01 0.00000E+00
 -1       664 1.23150E+02 3.96080E+01 0.00000E+00
 -1       665 1.26150E+02 3.96080E+01 0.00000E+00
 -1       666 1.29150E+02 3.96080E+01 0.00000E+00
 -1       667 1.32150E+02 3.96080E+01 0.00000E+00
 -1       668 1.35150E+02 3.96080E+01 0.00000E+00
 -1       669 1.38150E+02 3.96080E+01 0.00000E+00
 -1       670 2.35350E+01 9.20225E+00 0.00000E+00
 -1       671 9.64908E+01 3.64266E+01 0.00000E+00
 -1       672 2.05350E+01 9.20225E+00 0.00000E+00
 -1       673 2.95350E+01 9.20225E+00 0.00000E+00
 -1       674 3.25350E+01 9.20225E+00 0.00000E+00
 -1       675 3.55350E+01 9.20225E+00 0.00000E+00
 -1       676 3.85350E+01 9.20225E+00 0.00000E+00
 -1       677 4.15350E+01 9.20225E+00 0.00000E+00
 -1       678 4.45350E+01 9.20225E+00 0.00000E+00
 -1       679 4.75350E+01 9.20225E+00 0.00000E+00
 -1       680 5.05350E+01 9.20225E+00 0.00000E+00
 -1       681 5.35350E+01 9.20225E+00 0.00000E+00
 -1       682 5.65350E+01 9.20225E+00 0.00000E+00
 -1       683 5.95350E+01 9.20225E+00 0.00000E+00
 -1       684 6.25350E+01 9.20225E+00 0.00000E+00
 -1       685 6.55350E+01 9.20225E+00 0.00000E+00
 -1       686 6.85350E+01 9.20225E+00 0.00000E+00
 -1       687 7.15350E+01 9.20225E+00 0.00000E+00
 -1       688 7.45350E+01 9.20225E+00 0.00000E+00
 -1       689 7.75350E+01 9.20225E+00 0.00000E+00
 -1       690 8.05350E+01 9.20225E+00 0.00000E+00
 -1       691 8.35350E+01 9.20225E+00 0.00000E+00
 -1       692 8.65350E+01 9.20225E+00 0.00000E+00
 -1       693 8.95350E+01 9.20225E+00 0.00000E+00
 -1       694 9.25350E+01 9.20225E+00 0.00000E+00
 -1       695 9.55350E+01 9.20225E+00 0.00000E+00
 -1       696 9.85350E+01 9.20225E+00 0.00000E+00
 -1       697 1.04535E+02 9.15722E+00 0.00000E+00
 -1       698 1.07535E+02 9.15722E+00 0.00000E+00
 -1       699 1.10535E+02 9.15722E+00 0.00000E+00
 -1       700 1.13535E+02 9.15722E+00 0.00000E+00
 -1       701 1.16535E+02 9.15722E+00 0.00000E+00
 -1       702 1.19535E+02 9.15722E+00 0.00000E+00
 -1       703 1.22535E+02 9.15722E+00 0.00000E+00
 -1       704 1.25535E+02 9.15722E+00 0.00000E+00
 -1       705 1.28535E+02 9.15722E+00 0.00000E+00
 -1       706 1.31535E+02 9.15722E+00 0.00000E+00
 -1       707 1.34535E+02 9.15722E+00 0.00000E+00
 -1       708 1.37535E+02 9.15722E+00 0.00000E+00
 -1       709 1.39870E+02 9.74111E+00 0.00000E+00
 -1       710 1.09787E+02 1.56105E+01 0.00000E+00
 -1       711 1.39608E+02 2.35500E+01 0.00000E+00
 -1       712 1.40178E+02 3.96665E+01 0.00000E+00
 -1       713 1.39608E+02 1.76500E+01 0.00000E+00
 -1       714 1.39608E+02 2.65000E+01 0.00000E+00
 -1       715 1.39608E+02 2.06000E+01 0.00000E+00
 -1       716 1.39608E+02 2.94000E+01 0.00000E+00
 -1       717 1.39608E+02 3.23500E+01 0.00000E+00
 -1       718 1.39608E+02 3.53000E+01 0.00000E+00
 -1       719 9.36198E+01 3.57120E+01 0.00000E+00
 -1       720 1.08520E+02 3.41745E+01 0.00000E+00
 -1       721 1.06931E+02 3.51331E+01 0.00000E+00
 -1       722 9.29803E+01 1.22817E+01 0.00000E+00
 -1       723 8.71345E+01 2.67429E+01 0.00000E+00
 -1       724 9.75963E+01 1.12023E+01 0.00000E+00
 -1       725 1.11562E+02 1.79969E+01 0.00000E+00
 -1       726 1.75350E+01 9.20225E+00 0.00000E+00
 -1       727 2.65350E+01 9.20225E+00 0.00000E+00
 -1       728 1.21500E+01 3.96080E+01 0.00000E+00
 -1       729 1.45350E+01 9.20225E+00 0.00000E+00
 -1       730 1.07601E+02 1.37148E+01 0.00000E+00
 -1       731 1.03920E+01 1.76125E+01 0.00000E+00
 -1       732 1.03920E+01 3.23250E+01 0.00000E+00
 -1       733 9.52883E+01 1.17420E+01 0.00000E+00
 -1       734 8.89771E+01 1.63663E+01 0.00000E+00
 -1       735 1.05715E+02 1.24984E+01 0.00000E+00
 -1       736 8.65504E+01 2.13244E+01 0.00000E+00
 -1       737 9.87314E+01 3.68375E+01 0.00000E+00
 -1       738 9.04250E+01 1.44259E+01 0.00000E+00
 -1       739 8.81186E+01 2.96163E+01 0.00000E+00
 -1       740 8.93762E+01 3.16607E+01 0.00000E+00
 -1       741 9.07181E+01 3.40922E+01 0.00000E+00
 -1       742 1.05214E+02 3.58879E+01 0.00000E+00
 -1       743 1.00042E+01 3.94079E+01 0.00000E+00
 -1       744 1.10600E+02 3.16619E+01 0.00000E+00
 -1       745 1.00777E+02 1.09399E+01 0.00000E+00
 -1       746 1.03920E+01 3.52625E+01 0.00000E+00
 -1       747 1.03920E+01 2.64500E+01 0.00000E+00
 -1       748 1.12792E+02 2.68713E+01 0.00000E+00
 -1       749 1.39608E+02 1.47250E+01 0.00000E+00
 -1       750 1.39739E+02 1.22331E+01 0.00000E+00
 -1       751 1.13167E+02 1.91448E+01 0.00000E+00
 -1       752 8.71772E+01 1.72384E+01 0.00000E+00
 -1       753 1.12979E+02 2.48696E+01 0.00000E+00
 -1       754 1.03920E+01 2.93875E+01 0.00000E+00
 -1       755 8.57421E+01 2.26963E+01 0.00000E+00
 -1       756 1.13885E+02 2.30530E+01 0.00000E+00
 -1       757 1.38879E+02 3.74540E+01 0.00000E+00
 -1       758 1.14262E+02 2.86936E+01 0.00000E+00
 -1       759 1.29900E+01 1.32000E+01 0.00000E+00
 -1       760 8.80579E+01 1.41700E+01 0.00000E+00
 -1       761 1.11561E+02 3.45749E+01 0.00000E+00
 -1       762 1.36500E+01 3.70100E+01 0.00000E+00
 -1       763 8.71438E+01 3.16249E+01 0.00000E+00
 -1       764 1.96500E+01 3.70100E+01 0.00000E+00
 -1       765 2.26500E+01 3.70100E+01 0.00000E+00
 -1       766 2.56500E+01 3.70100E+01 0.00000E+00
 -1       767 2.86500E+01 3.70100E+01 0.00000E+00
 -1       768 3.16500E+01 3.70100E+01 0.00000E+00
 -1       769 3.46500E+01 3.70100E+01 0.00000E+00
 -1       770 3.76500E+01 3.70100E+01 0.00000E+00
 -1       771 4.06500E+01 3.70100E+01 0.00000E+00
 -1       772 4.36500E+01 3.70100E+01 0.00000E+00
 -1       773 4.66500E+01 3.70100E+01 0.00000E+00
 -1       774 4.96500E+01 3.70100E+01 0.00000E+00
 -1       775 5.26500E+01 3.70100E+01 0.00000E+00
 -1       776 5.56500E+01 3.70100E+01 0.00000E+00
 -1       777 5.86500E+01 3.70100E+01 0.00000E+00
 -1       778 6.16500E+01 3.70100E+01 0.00000E+00
 -1       779 6.46500E+01 3.70100E+01 0.00000E+00
 -1       780 6.76500E+01 3.70100E+01 0.00000E+00
 -1       781 7.06500E+01 3.70100E+01 0.00000E+00
 -1       782 7.36500E+01 3.70100E+01 0.00000E+00
 -1       783 7.66500E+01 3.70100E+01 0.00000E+00
 -1       784 7.96500E+01 3.70100E+01 0.00000E+00
 -1       785 8.26500E+01 3.70100E+01 0.00000E+00
 -1       786 8.56500E+01 3.70100E+01 0.00000E+00
 -1       787 8.86500E+01 3.70100E+01 0.00000E+00
 -1       788 1.09650E+02 3.70100E+01 0.00000E+00
 -1       789 1.15650E+02 3.70100E+01 0.00000E+00
 -1       790 1.18650E+02 3.70100E+01 0.00000E+00
 -1       791 1.21650E+02 3.70100E+01 0.00000E+00
 -1       792 1.24650E+02 3.70100E+01 0.00000E+00
 -1       793 1.27650E+02 3.70100E+01 0.00000E+00
 -1       794 1.30650E+02 3.70100E+01 0.00000E+00
 -1       795 1.33650E+02 3.70100E+01 0.00000E+00
 -1       796 1.36264E+02 3.72320E+01 0.00000E+00
 -1       797 1.10256E+02 1.28604E+01 0.00000E+00
 -1       798 3.40350E+01 1.18003E+01 0.00000E+00
 -1       799 3.10350E+01 1.18003E+01 0.00000E+00
 -1       800 4.00350E+01 1.18003E+01 0.00000E+00
 -1       801 4.30350E+01 1.18003E+01 0.00000E+00
 -1       802 4.60350E+01 1.18003E+01 0.00000E+00
 -1       803 4.90350E+01 1.18003E+01 0.00000E+00
 -1       804 5.20350E+01 1.18003E+01 0.00000E+00
 -1       805 5.50350E+01 1.18003E+01 0.00000E+00
 -1       806 5.80350E+01 1.18003E+01 0.00000E+00
 -1       807 6.10350E+01 1.18003E+01 0.00000E+00
 -1       808 6.40350E+01 1.18003E+01 0.00000E+00
 -1       809 6.70350E+01 1.18003E+01 0.00000E+00
 -1       810 7.00350E+01 1.18003E+01 0.00000E+00
 -1       811 7.30350E+01 1.18003E+01 0.00000E+00
 -1       812 7.60350E+01 1.18003E+01 0.00000E+00
 -1       813 7.90350E+01 1.18003E+01 0.00000E+00
 -1       814 8.20350E+01 1.18003E+01 0.00000E+00
 -1       815 8.50350E+01 1.18003E+01 0.00000E+00
 -1       816 1.15035E+02 1.17552E+01 0.00000E+00
 -1       817 1.18035E+02 1.17552E+01 0.00000E+00
 -1       818 1.21035E+02 1.17552E+01 0.00000E+00
 -1       819 1.24035E+02 1.17552E+01 0.00000E+00
 -1       820 1.27035E+02 1.17552E+01 0.00000E+00
 -1       821 1.30035E+02 1.17552E+01 0.00000E+00
 -1       822 1.33035E+02 1.17552E+01 0.00000E+00
 -1       823 1.36035E+02 1.17552E+01 0.00000E+00
 -1       824 1.37887E+02 1.19941E+01 0.00000E+00
 -1       825 1.37010E+02 2.79500E+01 0.00000E+00
 -1       826 1.37010E+02 3.38250E+01 0.00000E+00
 -1       827 1.37010E+02 2.50000E+01 0.00000E+00
 -1       828 8.84857E+01 3.40564E+01 0.00000E+00
 -1       829 1.90350E+01 1.18003E+01 0.00000E+00
 -1       830 8.56154E+01 1.92354E+01 0.00000E+00
 -1       831 1.37010E+02 3.08875E+01 0.00000E+00
 -1       832 1.12646E+02 1.23078E+01 0.00000E+00
 -1       833 3.70350E+01 1.18003E+01 0.00000E+00
 -1       834 2.20350E+01 1.18003E+01 0.00000E+00
 -1       835 8.58454E+01 2.87896E+01 0.00000E+00
 -1       836 8.53322E+01 2.53268E+01 0.00000E+00
 -1       837 1.13255E+02 3.12987E+01 0.00000E+00
 -1       838 1.01981E+01 3.73352E+01 0.00000E+00
 -1       839 1.66500E+01 3.70100E+01 0.00000E+00
 -1       840 1.37625E+01 1.12011E+01 0.00000E+00
 -1       841 9.08179E+01 3.68322E+01 0.00000E+00
 -1       842 1.12589E+02 1.53799E+01 0.00000E+00
 -1       843 1.14927E+02 2.60611E+01 0.00000E+00
 -1       844 1.29900E+01 2.20250E+01 0.00000E+00
 -1       845 1.29900E+01 2.49750E+01 0.00000E+00
 -1       846 1.29900E+01 1.61375E+01 0.00000E+00
 -1       847 1.37010E+02 1.61875E+01 0.00000E+00
 -1       848 1.14194E+02 1.65278E+01 0.00000E+00
 -1       849 1.12855E+02 3.70915E+01 0.00000E+00
 -1       850 2.50350E+01 1.18003E+01 0.00000E+00
 -1       851 2.80350E+01 1.18003E+01 0.00000E+00
 -1       852 8.97797E+01 1.23956E+01 0.00000E+00
 -1       853 1.06035E+02 1.15426E+01 0.00000E+00
 -1       854 1.37010E+02 1.91375E+01 0.00000E+00
 -1       855 1.37010E+02 2.20688E+01 0.00000E+00
 -1       856 8.40430E+01 2.73734E+01 0.00000E+00
 -1       857 1.36637E+02 3.55285E+01 0.00000E+00
 -1       858 1.63988E+01 1.15007E+01 0.00000E+00
 -1       859 1.29900E+01 3.08563E+01 0.00000E+00
 -1       860 1.29900E+01 1.90812E+01 0.00000E+00
 -1       861 1.15242E+02 2.11284E+01 0.00000E+00
 -1       862 1.29900E+01 3.37938E+01 0.00000E+00
 -1       863 1.15833E+02 2.42444E+01 0.00000E+00
 -1       864 8.62580E+01 1.50420E+01 0.00000E+00
 -1       865 8.48071E+01 2.06073E+01 0.00000E+00
 -1       866 2.41500E+01 3.44120E+01 0.00000E+00
 -1       867 2.71500E+01 3.44120E+01 0.00000E+00
 -1       868 3.01500E+01 3.44120E+01 0.00000E+00
 -1       869 3.31500E+01 3.44120E+01 0.00000E+00
 -1       870 3.61500E+01 3.44120E+01 0.00000E+00
 -1       871 3.91500E+01 3.44120E+01 0.00000E+00
 -1       872 4.21500E+01 3.44120E+01 0.00000E+00
 -1       873 4.51500E+01 3.44120E+01 0.00000E+00
 -1       874 4.81500E+01 3.44120E+01 0.00000E+00
 -1       875 5.11500E+01 3.44120E+01 0.00000E+00
 -1       876 5.41500E+01 3.44120E+01 0.00000E+00
 -1       877 5.71500E+01 3.44120E+01 0.00000E+00
 -1       878 6.01500E+01 3.44120E+01 0.00000E+00
 -1       879 6.31500E+01 3.44120E+01 0.00000E+00
 -1       880 6.61500E+01 3.44120E+01 0.00000E+00
 -1       881 6.91500E+01 3.44120E+01 0.00000E+00
 -1       882 7.21500E+01 3.44120E+01 0.00000E+00
 -1       883 7.51500E+01 3.44120E+01 0.00000E+00
 -1       884 7.81500E+01 3.44120E+01 0.00000E+00
 -1       885 8.11500E+01 3.44120E+01 0.00000E+00
 -1       886 8.41500E+01 3.44120E+01 0.00000E+00
 -1       887 1.16140E+02 3.09168E+01 0.00000E+00
 -1       888 1.20150E+02 3.44120E+01 0.00000E+00
 -1       889 1.23150E+02 3.44120E+01 0.00000E+00
 -1       890 1.26150E+02 3.44120E+01 0.00000E+00
 -1       891 1.29150E+02 3.44120E+01 0.00000E+00
 -1       892 1.32150E+02 3.44120E+01 0.00000E+00
 -1       893 2.05350E+01 1.43982E+01 0.00000E+00
 -1       894 8.36769E+01 2.37216E+01 0.00000E+00
 -1       895 4.45350E+01 1.43982E+01 0.00000E+00
 -1       896 4.15350E+01 1.43982E+01 0.00000E+00
 -1       897 5.05350E+01 1.43982E+01 0.00000E+00
 -1       898 5.35350E+01 1.43982E+01 0.00000E+00
 -1       899 5.65350E+01 1.43982E+01 0.00000E+00
 -1       900 5.95350E+01 1.43982E+01 0.00000E+00
 -1       901 6.25350E+01 1.43982E+01 0.00000E+00
 -1       902 6.55350E+01 1.43982E+01 0.00000E+00
 -1       903 6.85350E+01 1.43982E+01 0.00000E+00
 -1       904 7.15350E+01 1.43982E+01 0.00000E+00
 -1       905 7.45350E+01 1.43982E+01 0.00000E+00
 -1       906 7.75350E+01 1.43982E+01 0.00000E+00
 -1       907 8.05350E+01 1.43982E+01 0.00000E+00
 -1       908 8.35350E+01 1.43982E+01 0.00000E+00
 -1       909 1.34412E+02 2.64750E+01 0.00000E+00
 -1       910 1.16535E+02 1.43532E+01 0.00000E+00
 -1       911 1.25535E+02 1.43532E+01 0.00000E+00
 -1       912 1.28535E+02 1.43532E+01 0.00000E+00
 -1       913 1.31535E+02 1.43532E+01 0.00000E+00
 -1       914 1.34535E+02 1.43532E+01 0.00000E+00
 -1       915 1.37449E+02 1.40908E+01 0.00000E+00
 -1       916 1.19535E+02 1.43532E+01 0.00000E+00
 -1       917 1.22535E+02 1.43532E+01 0.00000E+00
 -1       918 4.75350E+01 1.43982E+01 0.00000E+00
 -1       919 3.25350E+01 1.43982E+01 0.00000E+00
 -1       920 1.51500E+01 3.44120E+01 0.00000E+00
 -1       921 1.17150E+02 3.44120E+01 0.00000E+00
 -1       922 8.46962E+01 1.70390E+01 0.00000E+00
 -1       923 2.11500E+01 3.44120E+01 0.00000E+00
 -1       924 1.29900E+01 2.79188E+01 0.00000E+00
 -1       925 1.14355E+02 3.44935E+01 0.00000E+00
 -1       926 1.81500E+01 3.44120E+01 0.00000E+00
 -1       927 1.16745E+02 2.79202E+01 0.00000E+00
 -1       928 8.28516E+01 3.15766E+01 0.00000E+00
 -1       929 1.55880E+01 1.46687E+01 0.00000E+00
 -1       930 1.55880E+01 2.93875E+01 0.00000E+00
 -1       931 1.16268E+02 1.85114E+01 0.00000E+00
 -1       932 1.75351E+01 1.43983E+01 0.00000E+00
 -1       933 2.35350E+01 1.43982E+01 0.00000E+00
 -1       934 1.34394E+02 3.49702E+01 0.00000E+00
 -1       935 2.95350E+01 1.43982E+01 0.00000E+00
 -1       936 8.27419E+01 2.16326E+01 0.00000E+00
 -1       937 3.85350E+01 1.43982E+01 0.00000E+00
 -1       938 1.17651E+02 2.61036E+01 0.00000E+00
 -1       939 1.34412E+02 2.94125E+01 0.00000E+00
 -1       940 1.34412E+02 2.35438E+01 0.00000E+00
 -1       941 3.55350E+01 1.43982E+01 0.00000E+00
 -1       942 1.34412E+02 1.76625E+01 0.00000E+00
 -1       943 8.23878E+01 2.57683E+01 0.00000E+00
 -1       944 8.38879E+01 1.84109E+01 0.00000E+00
 -1       945 1.55880E+01 2.05531E+01 0.00000E+00
 -1       946 1.55880E+01 2.35031E+01 0.00000E+00
 -1       947 1.53690E+01 3.18997E+01 0.00000E+00
 -1       948 1.34580E+02 3.26497E+01 0.00000E+00
 -1       949 2.56500E+01 3.18140E+01 0.00000E+00
 -1       950 1.14779E+02 1.40136E+01 0.00000E+00
 -1       951 2.86500E+01 3.18140E+01 0.00000E+00
 -1       952 3.16500E+01 3.18140E+01 0.00000E+00
 -1       953 3.46500E+01 3.18140E+01 0.00000E+00
 -1       954 3.76500E+01 3.18140E+01 0.00000E+00
 -1       955 4.06500E+01 3.18140E+01 0.00000E+00
 -1       956 4.36500E+01 3.18140E+01 0.00000E+00
 -1       957 4.66500E+01 3.18140E+01 0.00000E+00
 -1       958 4.96500E+01 3.18140E+01 0.00000E+00
 -1       959 5.26500E+01 3.18140E+01 0.00000E+00
 -1       960 5.56500E+01 3.18140E+01 0.00000E+00
 -1       961 5.86500E+01 3.18140E+01 0.00000E+00
 -1       962 6.16500E+01 3.18140E+01 0.00000E+00
 -1       963 6.46500E+01 3.18140E+01 0.00000E+00
 -1       964 6.76500E+01 3.18140E+01 0.00000E+00
 -1       965 7.06500E+01 3.18140E+01 0.00000E+00
 -1       966 7.36500E+01 3.18140E+01 0.00000E+00
 -1       967 7.66500E+01 3.18140E+01 0.00000E+00
 -1       968 7.96500E+01 3.18140E+01 0.00000E+00
 -1       969 1.21650E+02 3.18140E+01 0.00000E+00
 -1       970 1.90351E+01 1.69963E+01 0.00000E+00
 -1       971 1.24650E+02 3.18140E+01 0.00000E+00
 -1       972 1.27650E+02 3.18140E+01 0.00000E+00
 -1       973 1.30650E+02 3.18140E+01 0.00000E+00
 -1       974 5.50350E+01 1.69963E+01 0.00000E+00
 -1       975 5.20350E+01 1.69963E+01 0.00000E+00
 -1       976 6.10350E+01 1.69963E+01 0.00000E+00
 -1       977 6.40350E+01 1.69963E+01 0.00000E+00
 -1       978 6.70350E+01 1.69963E+01 0.00000E+00
 -1       979 7.00350E+01 1.69963E+01 0.00000E+00
 -1       980 7.30350E+01 1.69963E+01 0.00000E+00
 -1       981 7.60350E+01 1.69963E+01 0.00000E+00
 -1       982 7.90350E+01 1.69963E+01 0.00000E+00
 -1       983 8.18656E+01 1.70176E+01 0.00000E+00
 -1       984 1.21035E+02 1.69512E+01 0.00000E+00
 -1       985 8.09911E+01 2.87788E+01 0.00000E+00
 -1       986 1.24035E+02 1.69512E+01 0.00000E+00
 -1       987 1.27035E+02 1.69512E+01 0.00000E+00
 -1       988 1.34412E+02 2.06031E+01 0.00000E+00
 -1       989 1.18895E+02 3.13654E+01 0.00000E+00
 -1       990 1.96500E+01 3.18140E+01 0.00000E+00
 -1       991 1.30035E+02 1.69512E+01 0.00000E+00
 -1       992 5.80350E+01 1.69963E+01 0.00000E+00
 -1       993 1.55880E+01 1.76109E+01 0.00000E+00
 -1       994 1.17614E+02 1.67395E+01 0.00000E+00
 -1       995 4.30350E+01 1.69963E+01 0.00000E+00
 -1       996 2.65350E+01 1.43982E+01 0.00000E+00
 -1       997 2.26500E+01 3.18140E+01 0.00000E+00
 -1       998 1.55880E+01 2.64453E+01 0.00000E+00
 -1       999 1.17716E+02 2.22736E+01 0.00000E+00
 -1      1000 1.73115E+01 1.73036E+01 0.00000E+00
 -1      1001 1.81860E+01 2.79164E+01 0.00000E+00
 -1      1002 1.73115E+01 2.02458E+01 0.00000E+00
 -1      1003 1.18743E+02 1.96566E+01 0.00000E+00
 -1      1004 4.00350E+01 1.69963E+01 0.00000E+00
 -1      1005 2.20351E+01 1.69963E+01 0.00000E+00
 -1      1006 1.20024E+02 2.82674E+01 0.00000E+00
 -1      1007 8.14528E+01 2.36793E+01 0.00000E+00
 -1      1008 8.18227E+01 1.94363E+01 0.00000E+00
 -1      1009 1.19535E+02 2.41328E+01 0.00000E+00
 -1      1010 4.90350E+01 1.69963E+01 0.00000E+00
 -1      1011 4.60350E+01 1.69963E+01 0.00000E+00
 -1      1012 1.31814E+02 2.50094E+01 0.00000E+00
 -1      1013 1.30035E+02 1.98918E+01 0.00000E+00
 -1      1014 3.10350E+01 1.69963E+01 0.00000E+00
 -1      1015 1.31814E+02 2.79469E+01 0.00000E+00
 -1      1016 1.73115E+01 2.31958E+01 0.00000E+00
 -1      1017 3.40350E+01 1.69963E+01 0.00000E+00
 -1      1018 7.79911E+01 2.87788E+01 0.00000E+00
 -1      1019 3.01500E+01 2.92160E+01 0.00000E+00
 -1      1020 3.31500E+01 2.92160E+01 0.00000E+00
 -1      1021 3.61500E+01 2.92160E+01 0.00000E+00
 -1      1022 3.91500E+01 2.92160E+01 0.00000E+00
 -1      1023 4.21500E+01 2.92160E+01 0.00000E+00
 -1      1024 4.51500E+01 2.92160E+01 0.00000E+00
 -1      1025 4.81500E+01 2.92160E+01 0.00000E+00
 -1      1026 5.11500E+01 2.92160E+01 0.00000E+00
 -1      1027 5.41500E+01 2.92160E+01 0.00000E+00
 -1      1028 5.71500E+01 2.92160E+01 0.00000E+00
 -1      1029 6.01500E+01 2.92160E+01 0.00000E+00
 -1      1030 6.31500E+01 2.92160E+01 0.00000E+00
 -1      1031 6.61500E+01 2.92160E+01 0.00000E+00
 -1      1032 6.91500E+01 2.92160E+01 0.00000E+00
 -1      1033 7.21500E+01 2.92160E+01 0.00000E+00
 -1      1034 7.50706E+01 2.89974E+01 0.00000E+00
 -1      1035 1.23150E+02 2.92160E+01 0.00000E+00
 -1      1036 5.65350E+01 1.95942E+01 0.00000E+00
 -1      1037 2.50351E+01 1.69963E+01 0.00000E+00
 -1      1038 1.26150E+02 2.92160E+01 0.00000E+00
 -1      1039 1.29150E+02 2.92160E+01 0.00000E+00
 -1      1040 5.35350E+01 1.95942E+01 0.00000E+00
 -1      1041 6.55350E+01 1.95942E+01 0.00000E+00
 -1      1042 6.25350E+01 1.95942E+01 0.00000E+00
 -1      1043 7.15350E+01 1.95942E+01 0.00000E+00
 -1      1044 7.45350E+01 1.95942E+01 0.00000E+00
 -1      1045 7.75350E+01 1.95942E+01 0.00000E+00
 -1      1046 1.25535E+02 1.95492E+01 0.00000E+00
 -1      1047 3.70350E+01 1.69963E+01 0.00000E+00
 -1      1048 1.22535E+02 1.95492E+01 0.00000E+00
 -1      1049 2.71500E+01 2.92160E+01 0.00000E+00
 -1      1050 1.30924E+02 2.24506E+01 0.00000E+00
 -1      1051 2.41500E+01 2.92160E+01 0.00000E+00
 -1      1052 2.11860E+01 2.79164E+01 0.00000E+00
 -1      1053 6.85350E+01 1.95942E+01 0.00000E+00
 -1      1054 7.93878E+01 2.57683E+01 0.00000E+00
 -1      1055 5.95350E+01 1.95942E+01 0.00000E+00
 -1      1056 2.80350E+01 1.69963E+01 0.00000E+00
 -1      1057 1.77488E+01 2.55561E+01 0.00000E+00
 -1      1058 4.15350E+01 1.95942E+01 0.00000E+00
 -1      1059 5.05350E+01 1.95942E+01 0.00000E+00
 -1      1060 8.05336E+01 2.14829E+01 0.00000E+00
 -1      1061 2.05351E+01 1.95943E+01 0.00000E+00
 -1      1062 1.22359E+02 2.58946E+01 0.00000E+00
 -1      1063 1.89233E+01 1.99200E+01 0.00000E+00
 -1      1064 1.28915E+02 2.45831E+01 0.00000E+00
 -1      1065 2.07488E+01 2.55561E+01 0.00000E+00
 -1      1066 2.95350E+01 1.95943E+01 0.00000E+00
 -1      1067 1.21035E+02 2.18410E+01 0.00000E+00
 -1      1068 3.25350E+01 1.95943E+01 0.00000E+00
 -1      1069 4.45350E+01 1.95942E+01 0.00000E+00
 -1      1070 1.29033E+02 2.68995E+01 0.00000E+00
 -1      1071 1.27225E+02 2.20661E+01 0.00000E+00
 -1      1072 3.46500E+01 2.66180E+01 0.00000E+00
 -1      1073 3.76500E+01 2.66180E+01 0.00000E+00
 -1      1074 4.06500E+01 2.66180E+01 0.00000E+00
 -1      1075 4.36500E+01 2.66180E+01 0.00000E+00
 -1      1076 4.66500E+01 2.66180E+01 0.00000E+00
 -1      1077 4.96500E+01 2.66180E+01 0.00000E+00
 -1      1078 5.26500E+01 2.66180E+01 0.00000E+00
 -1      1079 5.56500E+01 2.66180E+01 0.00000E+00
 -1      1080 5.86500E+01 2.66180E+01 0.00000E+00
 -1      1081 6.16500E+01 2.66180E+01 0.00000E+00
 -1      1082 6.46500E+01 2.66180E+01 0.00000E+00
 -1      1083 6.76500E+01 2.66180E+01 0.00000E+00
 -1      1084 7.06500E+01 2.66180E+01 0.00000E+00
 -1      1085 6.40350E+01 2.21922E+01 0.00000E+00
 -1      1086 2.35351E+01 1.95943E+01 0.00000E+00
 -1      1087 5.50350E+01 2.21922E+01 0.00000E+00
 -1      1088 7.84686E+01 2.35719E+01 0.00000E+00
 -1      1089 6.10350E+01 2.21922E+01 0.00000E+00
 -1      1090 7.60350E+01 2.21922E+01 0.00000E+00
 -1      1091 7.30350E+01 2.21922E+01 0.00000E+00
 -1      1092 4.75350E+01 1.95942E+01 0.00000E+00
 -1      1093 7.00350E+01 2.21922E+01 0.00000E+00
 -1      1094 2.37112E+01 2.61869E+01 0.00000E+00
 -1      1095 2.86500E+01 2.66180E+01 0.00000E+00
 -1      1096 3.85350E+01 1.95942E+01 0.00000E+00
 -1      1097 6.70350E+01 2.21922E+01 0.00000E+00
 -1      1098 7.64672E+01 2.59869E+01 0.00000E+00
 -1      1099 2.65351E+01 1.95943E+01 0.00000E+00
 -1      1100 1.99095E+01 2.17208E+01 0.00000E+00
 -1      1101 2.03291E+01 2.36384E+01 0.00000E+00
 -1      1102 2.61806E+01 2.64024E+01 0.00000E+00
 -1      1103 1.24225E+02 2.20661E+01 0.00000E+00
 -1      1104 3.16500E+01 2.66180E+01 0.00000E+00
 -1      1105 5.80350E+01 2.21922E+01 0.00000E+00
 -1      1106 2.29095E+01 2.17208E+01 0.00000E+00
 -1      1107 1.26688E+02 2.56411E+01 0.00000E+00
 -1      1108 4.30350E+01 2.21922E+01 0.00000E+00
 -1      1109 4.00350E+01 2.21922E+01 0.00000E+00
 -1      1110 7.35466E+01 2.62055E+01 0.00000E+00
 -1      1111 5.20350E+01 2.21922E+01 0.00000E+00
 -1      1112 1.24650E+02 2.66180E+01 0.00000E+00
 -1      1113 3.10350E+01 2.21923E+01 0.00000E+00
 -1      1114 2.80351E+01 2.21923E+01 0.00000E+00
 -1      1115 3.55350E+01 1.95943E+01 0.00000E+00
 -1      1116 1.24397E+02 2.49177E+01 0.00000E+00
 -1      1117 3.61500E+01 2.40200E+01 0.00000E+00
 -1      1118 2.54723E+01 2.19565E+01 0.00000E+00
 -1      1119 4.81500E+01 2.40200E+01 0.00000E+00
 -1      1120 3.31500E+01 2.40200E+01 0.00000E+00
 -1      1121 4.55925E+01 2.31061E+01 0.00000E+00
 -1      1122 2.32916E+01 2.42692E+01 0.00000E+00
 -1      1123 2.98425E+01 2.44051E+01 0.00000E+00
 -1      1124 2.71078E+01 2.42973E+01 0.00000E+00
 -1      1125 2.51997E+01 2.42833E+01 0.00000E+00
 -1      1126 0.00000E+00 4.85250E+01 0.00000E+00
 -1      1127 0.00000E+00 4.55750E+01 0.00000E+00
 -1      1128 0.00000E+00 4.26250E+01 0.00000E+00
 -1      1129 0.00000E+00 3.96750E+01 0.00000E+00
 -1      1130 0.00000E+00 3.67250E+01 0.00000E+00
 -1      1131 0.00000E+00 3.38000E+01 0.00000E+00
 -1      1132 0.00000E+00 3.08750E+01 0.00000E+00
 -1      1133 0.00000E+00 2.79250E+01 0.00000E+00
 -1      1134 0.00000E+00 2.49750E+01 0.00000E+00
 -1      1135 0.00000E+00 2.20250E+01 0.00000E+00
 -1      1136 0.00000E+00 1.90750E+01 0.00000E+00
 -1      1137 0.00000E+00 1.61500E+01 0.00000E+00
 -1      1138 0.00000E+00 1.32250E+01 0.00000E+00
 -1      1139 0.00000E+00 1.02750E+01 0.00000E+00
 -1      1140 0.00000E+00 7.32500E+00 0.00000E+00
 -1      1141 0.00000E+00 4.37500E+00 0.00000E+00
 -1      1142 0.00000E+00 1.45000E+00 0.00000E+00
 -1      1143 1.57500E+00 5.00000E+01 0.00000E+00
 -1      1144 4.65000E+00 5.00000E+01 0.00000E+00
 -1      1145 7.65000E+00 5.00000E+01 0.00000E+00
 -1      1146 1.06500E+01 5.00000E+01 0.00000E+00
 -1      1147 1.36500E+01 5.00000E+01 0.00000E+00
 -1      1148 1.66500E+01 5.00000E+01 0.00000E+00
 -1      1149 1.96500E+01 5.00000E+01 0.00000E+00
 -1      1150 2.26500E+01 5.00000E+01 0.00000E+00
 -1      1151 2.56500E+01 5.00000E+01 0.00000E+00
 -1      1152 2.86500E+01 5.00000E+01 0.00000E+00
 -1      1153 3.16500E+01 5.00000E+01 0.00000E+00
 -1      1154 3.46500E+01 5.00000E+01 0.00000E+00
 -1      1155 3.76500E+01 5.00000E+01 0.00000E+00
 -1      1156 4.06500E+01 5.00000E+01 0.00000E+00
 -1      1157 4.36500E+01 5.00000E+01 0.00000E+00
 -1      1158 4.66500E+01 5.00000E+01 0.00000E+00
 -1      1159 4.96500E+01 5.00000E+01 0.00000E+00
 -1      1160 5.26500E+01 5.00000E+01 0.00000E+00
 -1      1161 5.56500E+01 5.00000E+01 0.00000E+00
 -1      1162 5.86500E+01 5.00000E+01 0.00000E+00
 -1      1163 6.16500E+01 5.00000E+01 0.00000E+00
 -1      1164 6.46500E+01 5.00000E+01 0.00000E+00
 -1      1165 6.76500E+01 5.00000E+01 0.00000E+00
 -1      1166 7.06500E+01 5.00000E+01 0.00000E+00
 -1      1167 7.36500E+01 5.00000E+01 0.00000E+00
 -1      1168 7.66500E+01 5.00000E+01 0.00000E+00
 -1      1169 7.96500E+01 5.00000E+01 0.00000E+00
 -1      1170 8.26500E+01 5.00000E+01 0.00000E+00
 -1      1171 8.56500E+01 5.00000E+01 0.00000E+00
 -1      1172 8.86500E+01 5.00000E+01 0.00000E+00
 -1      1173 9.16500E+01 5.00000E+01 0.00000E+00
 -1      1174 9.46500E+01 5.00000E+01 0.00000E+00
 -1      1175 9.76500E+01 5.00000E+01 0.00000E+00
 -1      1176 1.00650E+02 5.00000E+01 0.00000E+00
 -1      1177 1.03650E+02 5.00000E+01 0.00000E+00
 -1      1178 1.06650E+02 5.00000E+01 0.00000E+00
 -1      1179 1.09650E+02 5.00000E+01 0.00000E+00
 -1      1180 1.12650E+02 5.00000E+01 0.00000E+00
 -1      1181 1.15650E+02 5.00000E+01 0.00000E+00
 -1      1182 1.18650E+02 5.00000E+01 0.00000E+00
 -1      1183 1.21650E+02 5.00000E+01 0.00000E+00
 -1      1184 1.24650E+02 5.00000E+01 0.00000E+00
 -1      1185 1.27650E+02 5.00000E+01 0.00000E+00
 -1      1186 1.30650E+02 5.00000E+01 0.00000E+00
 -1      1187 1.33650E+02 5.00000E+01 0.00000E+00
 -1      1188 1.36650E+02 5.00000E+01 0.00000E+00
 -1      1189 1.39650E+02 5.00000E+01 0.00000E+00
 -1      1190 1.42650E+02 5.00000E+01 0.00000E+00
 -1      1191 1.45650E+02 5.00000E+01 0.00000E+00
 -1      1192 1.48575E+02 5.00000E+01 0.00000E+00
 -1      1193 1.57500E+00 0.00000E+00 0.00000E+00
 -1      1194 4.65000E+00 0.00000E+00 0.00000E+00
 -1      1195 7.65000E+00 0.00000E+00 0.00000E+00
 -1      1196 1.06500E+01 0.00000E+00 0.00000E+00
 -1      1197 1.36500E+01 0.00000E+00 0.00000E+00
 -1      1198 1.66500E+01 0.00000E+00 0.00000E+00
 -1      1199 1.96500E+01 0.00000E+00 0.00000E+00
 -1      1200 2.26500E+01 0.00000E+00 0.00000E+00
 -1      1201 2.56500E+01 0.00000E+00 0.00000E+00
 -1      1202 2.86500E+01 0.00000E+00 0.00000E+00
 -1      1203 3.16500E+01 0.00000E+00 0.00000E+00
 -1      1204 3.46500E+01 0.00000E+00 0.00000E+00
 -1      1205 3.76500E+01 0.00000E+00 0.00000E+00
 -1      1206 4.06500E+01 0.00000E+00 0.00000E+00
 -1      1207 4.36500E+01 0.00000E+00 0.00000E+00
 -1      1208 4.66500E+01 0.00000E+00 0.00000E+00
 -1      1209 4.96500E+01 0.00000E+00 0.00000E+00
 -1      1210 5.26500E+01 0.00000E+00 0.00000E+00
 -1      1211 5.56500E+01 0.00000E+00 0.00000E+00
 -1      1212 5.86500E+01 0.00000E+00 0.00000E+00
 -1      1213 6.16500E+01 0.00000E+00 0.00000E+00
 -1      1214 6.46500E+01 0.00000E+00 0.00000E+00
 -1      1215 6.76500E+01 0.00000E+00 0.00000E+00
 -1      1216 7.06500E+01 0.00000E+00 0.00000E+00
 -1      1217 7.36500E+01 0.00000E+00 0.00000E+00
 -1      1218 7.66500E+01 0.00000E+00 0.00000E+00
 -1      1219 7.96500E+01 0.00000E+00 0.00000E+00
 -1      1220 8.26500E+01 0.00000E+00 0.00000E+00
 -1      1221 8.56500E+01 0.00000E+00 0.00000E+00
 -1      1222 8.86500E+01 0.00000E+00 0.00000E+00
 -1      1223 9.16500E+01 0.00000E+00 0.00000E+00
 -1      1224 9.46500E+01 0.00000E+00 0.00000E+00
 -1      1225 9.76500E+01 0.00000E+00 0.00000E+00
 -1      1226 1.00650E+02 0.00000E+00 0.00000E+00
 -1      1227 1.03650E+02 0.00000E+00 0.00000E+00
 -1      1228 1.06650E+02 0.00000E+00 0.00000E+00
 -1      1229 1.09650E+02 0.00000E+00 0.00000E+00
 -1      1230 1.12650E+02 0.00000E+00 0.00000E+00
 -1      1231 1.15650E+02 0.00000E+00 0.00000E+00
 -1      1232 1.18650E+02 0.00000E+00 0.00000E+00
 -1      1233 1.21650E+02 0.00000E+00 0.00000E+00
 -1      1234 1.24650E+02 0.00000E+00 0.00000E+00
 -1      1235 1.27650E+02 0.00000E+00 0.00000E+00
 -1      1236 1.30650E+02 0.00000E+00 0.00000E+00
 -1      1237 1.33650E+02 0.00000E+00 0.00000E+00
 -1      1238 1.36650E+02 0.00000E+00 0.00000E+00
 -1      1239 1.39650E+02 0.00000E+00 0.00000E+00
 -1      1240 1.42650E+02 0.00000E+00 0.00000E+00
 -1      1241 1.45650E+02 0.00000E+00 0.00000E+00
 -1      1242 1.48575E+02 0.00000E+00 0.00000E+00
 -1      1243 1.50000E+02 1.47500E+00 0.00000E+00
 -1      1244 1.50000E+02 4.42500E+00 0.00000E+00
 -1      1245 1.50000E+02 7.37500E+00 0.00000E+00
 -1      1246 1.50000E+02 1.03250E+01 0.00000E+00
 -1      1247 1.50000E+02 1.32750E+01 0.00000E+00
 -1      1248 1.50000E+02 1.62000E+01 0.00000E+00
 -1      1249 1.50000E+02 1.91250E+01 0.00000E+00
 -1      1250 1.50000E+02 2.20750E+01 0.00000E+00
 -1      1251 1.50000E+02 2.50250E+01 0.00000E+00
 -1      1252 1.50000E+02 2.79750E+01 0.00000E+00
 -1      1253 1.50000E+02 3.09250E+01 0.00000E+00
 -1      1254 1.50000E+02 3.38500E+01 0.00000E+00
 -1      1255 1.50000E+02 3.67750E+01 0.00000E+00
 -1      1256 1.50000E+02 3.97250E+01 0.00000E+00
 -1      1257 1.50000E+02 4.26750E+01 0.00000E+00
 -1      1258 1.50000E+02 4.56250E+01 0.00000E+00
 -1      1259 1.50000E+02 4.85500E+01 0.00000E+00
 -1      1260 1.06536E+02 2.31048E+01 0.00000E+00
 -1      1261 1.06186E+02 2.15764E+01 0.00000E+00
 -1      1262 1.05520E+02 2.01894E+01 0.00000E+00
 -1      1263 1.04614E+02 1.90287E+01 0.00000E+00
 -1      1264 1.03521E+02 1.81077E+01 0.00000E+00
 -1      1265 1.02232E+02 1.74146E+01 0.00000E+00
 -1      1266 1.00830E+02 1.70054E+01 0.00000E+00
 -1      1267 9.93421E+01 1.68970E+01 0.00000E+00
 -1      1268 9.78565E+01 1.71084E+01 0.00000E+00
 -1      1269 9.65226E+01 1.75960E+01 0.00000E+00
 -1      1270 9.53047E+01 1.83503E+01 0.00000E+00
 -1      1271 9.42551E+01 1.93492E+01 0.00000E+00
 -1      1272 9.34404E+01 2.05307E+01 0.00000E+00
 -1      1273 9.28785E+01 2.18707E+01 0.00000E+00
 -1      1274 9.26054E+01 2.32976E+01 0.00000E+00
 -1      1275 9.26416E+01 2.48193E+01 0.00000E+00
 -1      1276 9.30082E+01 2.63034E+01 0.00000E+00
 -1      1277 9.36572E+01 2.76238E+01 0.00000E+00
 -1      1278 9.45710E+01 2.87827E+01 0.00000E+00
 -1      1279 9.57277E+01 2.97375E+01 0.00000E+00
 -1      1280 9.70827E+01 3.04323E+01 0.00000E+00
 -1      1281 9.84889E+01 3.08074E+01 0.00000E+00
 -1      1282 9.99501E+01 3.08831E+01 0.00000E+00
 -1      1283 1.01382E+02 3.06570E+01 0.00000E+00
 -1      1284 1.02680E+02 3.01689E+01 0.00000E+00
 -1      1285 1.03855E+02 2.94360E+01 0.00000E+00
 -1      1286 1.04872E+02 2.84746E+01 0.00000E+00
 -1      1287 1.05695E+02 2.72992E+01 0.00000E+00
 -1      1288 1.06260E+02 2.59854E+01 0.00000E+00
 -1      1289 1.06544E+02 2.45990E+01 0.00000E+00
 -1      1290 1.57500E+00 4.85250E+01 0.00000E+00
 -1      1291 1.29900E+00 4.48375E+01 0.00000E+00
 -1      1292 1.29900E+00 4.63125E+01 0.00000E+00
 -1      1293 1.29900E+00 4.18875E+01 0.00000E+00
 -1      1294 1.29900E+00 4.33625E+01 0.00000E+00
 -1      1295 2.59800E+00 4.41000E+01 0.00000E+00
 -1      1296 1.29900E+00 3.89375E+01 0.00000E+00
 -1      1297 1.29900E+00 4.04125E+01 0.00000E+00
 -1      1298 2.59800E+00 4.11500E+01 0.00000E+00
 -1      1299 1.29900E+00 3.59875E+01 0.00000E+00
 -1      1300 1.29900E+00 3.74625E+01 0.00000E+00
 -1      1301 2.59800E+00 3.82000E+01 0.00000E+00
 -1      1302 1.29900E+00 3.30875E+01 0.00000E+00
 -1      1303 1.29900E+00 3.45375E+01 0.00000E+00
 -1      1304 2.59800E+00 3.52750E+01 0.00000E+00
 -1      1305 1.29900E+00 3.01375E+01 0.00000E+00
 -1      1306 1.29900E+00 3.16125E+01 0.00000E+00
 -1      1307 2.59800E+00 3.23500E+01 0.00000E+00
 -1      1308 1.29900E+00 2.71875E+01 0.00000E+00
 -1      1309 1.29900E+00 2.86625E+01 0.00000E+00
 -1      1310 2.59800E+00 2.94000E+01 0.00000E+00
 -1      1311 1.29900E+00 2.42375E+01 0.00000E+00
 -1      1312 1.29900E+00 2.57125E+01 0.00000E+00
 -1      1313 2.59800E+00 2.64500E+01 0.00000E+00
 -1      1314 1.29900E+00 2.12875E+01 0.00000E+00
 -1      1315 1.29900E+00 2.27625E+01 0.00000E+00
 -1      1316 2.59800E+00 2.35000E+01 0.00000E+00
 -1      1317 1.29900E+00 1.83375E+01 0.00000E+00
 -1      1318 1.29900E+00 1.98125E+01 0.00000E+00
 -1      1319 2.59800E+00 2.05500E+01 0.00000E+00
 -1      1320 1.29900E+00 1.54375E+01 0.00000E+00
 -1      1321 1.29900E+00 1.68875E+01 0.00000E+00
 -1      1322 2.59800E+00 1.76250E+01 0.00000E+00
 -1      1323 1.29900E+00 1.24875E+01 0.00000E+00
 -1      1324 1.29900E+00 1.39625E+01 0.00000E+00
 -1      1325 2.59800E+00 1.47000E+01 0.00000E+00
 -1      1326 1.29900E+00 9.53750E+00 0.00000E+00
 -1      1327 1.29900E+00 1.10125E+01 0.00000E+00
 -1      1328 2.59800E+00 1.17500E+01 0.00000E+00
 -1      1329 1.29900E+00 6.58750E+00 0.00000E+00
 -1      1330 1.29900E+00 8.06250E+00 0.00000E+00
 -1      1331 2.59800E+00 8.80000E+00 0.00000E+00
 -1      1332 1.29900E+00 3.63750E+00 0.00000E+00
 -1      1333 1.29900E+00 5.11250E+00 0.00000E+00
 -1      1334 2.59800E+00 5.85000E+00 0.00000E+00
 -1      1335 1.43700E+00 1.09375E+00 0.00000E+00
 -1      1336 1.43700E+00 2.54375E+00 0.00000E+00
 -1      1337 2.73600E+00 3.28125E+00 0.00000E+00
 -1      1338 3.01200E+00 1.09375E+00 0.00000E+00
 -1      1339 3.90000E+00 4.87010E+01 0.00000E+00
 -1      1340 5.40000E+00 4.87010E+01 0.00000E+00
 -1      1341 6.90000E+00 4.87010E+01 0.00000E+00
 -1      1342 8.40000E+00 4.87010E+01 0.00000E+00
 -1      1343 6.15000E+00 4.74020E+01 0.00000E+00
 -1      1344 9.90000E+00 4.87010E+01 0.00000E+00
 -1      1345 1.14000E+01 4.87010E+01 0.00000E+00
 -1      1346 9.15000E+00 4.74020E+01 0.00000E+00
 -1      1347 1.29000E+01 4.87010E+01 0.00000E+00
 -1      1348 1.44000E+01 4.87010E+01 0.00000E+00
 -1      1349 1.21500E+01 4.74020E+01 0.00000E+00
 -1      1350 1.59000E+01 4.87010E+01 0.00000E+00
 -1      1351 1.74000E+01 4.87010E+01 0.00000E+00
 -1      1352 1.51500E+01 4.74020E+01 0.00000E+00
 -1      1353 1.89000E+01 4.87010E+01 0.00000E+00
 -1      1354 2.04000E+01 4.87010E+01 0.00000E+00
 -1      1355 1.81500E+01 4.74020E+01 0.00000E+00
 -1      1356 2.19000E+01 4.87010E+01 0.00000E+00
 -1      1357 2.34000E+01 4.87010E+01 0.00000E+00
 -1      1358 2.11500E+01 4.74020E+01 0.00000E+00
 -1      1359 2.49000E+01 4.87010E+01 0.00000E+00
 -1      1360 2.64000E+01 4.87010E+01 0.00000E+00
 -1      1361 2.41500E+01 4.74020E+01 0.00000E+00
 -1      1362 2.79000E+01 4.87010E+01 0.00000E+00
 -1      1363 2.94000E+01 4.87010E+01 0.00000E+00
 -1      1364 2.71500E+01 4.74020E+01 0.00000E+00
 -1      1365 3.09000E+01 4.87010E+01 0.00000E+00
 -1      1366 3.24000E+01 4.87010E+01 0.00000E+00
 -1      1367 3.01500E+01 4.74020E+01 0.00000E+00
 -1      1368 3.39000E+01 4.87010E+01 0.00000E+00
 -1      1369 3.54000E+01 4.87010E+01 0.00000E+00
 -1      1370 3.31500E+01 4.74020E+01 0.00000E+00
 -1      1371 3.69000E+01 4.87010E+01 0.00000E+00
 -1      1372 3.84000E+01 4.87010E+01 0.00000E+00
 -1      1373 3.61500E+01 4.74020E+01 0.00000E+00
 -1      1374 3.99000E+01 4.87010E+01 0.00000E+00
 -1      1375 4.14000E+01 4.87010E+01 0.00000E+00
 -1      1376 3.91500E+01 4.74020E+01 0.00000E+00
 -1      1377 4.29000E+01 4.87010E+01 0.00000E+00
 -1      1378 4.44000E+01 4.87010E+01 0.00000E+00
 -1      1379 4.21500E+01 4.74020E+01 0.00000E+00
 -1      1380 4.59000E+01 4.87010E+01 0.00000E+00
 -1      1381 4.74000E+01 4.87010E+01 0.00000E+00
 -1      1382 4.51500E+01 4.74020E+01 0.00000E+00
 -1      1383 4.89000E+01 4.87010E+01 0.00000E+00
 -1      1384 5.04000E+01 4.87010E+01 0.00000E+00
 -1      1385 4.81500E+01 4.74020E+01 0.00000E+00
 -1      1386 5.19000E+01 4.87010E+01 0.00000E+00
 -1      1387 5.34000E+01 4.87010E+01 0.00000E+00
 -1      1388 5.11500E+01 4.74020E+01 0.00000E+00
 -1      1389 5.49000E+01 4.87010E+01 0.00000E+00
 -1      1390 5.64000E+01 4.87010E+01 0.00000E+00
 -1      1391 5.41500E+01 4.74020E+01 0.00000E+00
 -1      1392 5.79000E+01 4.87010E+01 0.00000E+00
 -1      1393 5.94000E+01 4.87010E+01 0.00000E+00
 -1      1394 5.71500E+01 4.74020E+01 0.00000E+00
 -1      1395 6.09000E+01 4.87010E+01 0.00000E+00
 -1      1396 6.24000E+01 4.87010E+01 0.00000E+00
 -1      1397 6.01500E+01 4.74020E+01 0.00000E+00
 -1      1398 6.39000E+01 4.87010E+01 0.00000E+00
 -1      1399 6.54000E+01 4.87010E+01 0.00000E+00
 -1      1400 6.31500E+01 4.74020E+01 0.00000E+00
 -1      1401 6.69000E+01 4.87010E+01 0.00000E+00
 -1      1402 6.84000E+01 4.87010E+01 0.00000E+00
 -1      1403 6.61500E+01 4.74020E+01 0.00000E+00
 -1      1404 6.99000E+01 4.87010E+01 0.00000E+00
 -1      1405 7.14000E+01 4.87010E+01 0.00000E+00
 -1      1406 6.91500E+01 4.74020E+01 0.00000E+00
 -1      1407 7.29000E+01 4.87010E+01 0.00000E+00
 -1      1408 7.44000E+01 4.87010E+01 0.00000E+00
 -1      1409 7.21500E+01 4.74020E+01 0.00000E+00
 -1      1410 7.59000E+01 4.87010E+01 0.00000E+00
 -1      1411 7.74000E+01 4.87010E+01 0.00000E+00
 -1      1412 7.51500E+01 4.74020E+01 0.00000E+00
 -1      1413 7.89000E+01 4.87010E+01 0.00000E+00
 -1      1414 8.04000E+01 4.87010E+01 0.00000E+00
 -1      1415 7.81500E+01 4.74020E+01 0.00000E+00
 -1      1416 8.19000E+01 4.87010E+01 0.00000E+00
 -1      1417 8.34000E+01 4.87010E+01 0.00000E+00
 -1      1418 8.11500E+01 4.74020E+01 0.00000E+00
 -1      1419 8.49000E+01 4.87010E+01 0.00000E+00
 -1      1420 8.64000E+01 4.87010E+01 0.00000E+00
 -1      1421 8.41500E+01 4.74020E+01 0.00000E+00
 -1      1422 8.79000E+01 4.87010E+01 0.00000E+00
 -1      1423 8.94000E+01 4.87010E+01 0.00000E+00
 -1      1424 8.71500E+01 4.74020E+01 0.00000E+00
 -1      1425 9.09000E+01 4.87010E+01 0.00000E+00
 -1      1426 9.24000E+01 4.87010E+01 0.00000E+00
 -1      1427 9.01500E+01 4.74020E+01 0.00000E+00
 -1      1428 9.39000E+01 4.87010E+01 0.00000E+00
 -1      1429 9.54000E+01 4.87010E+01 0.00000E+00
 -1      1430 9.31500E+01 4.74020E+01 0.00000E+00
 -1      1431 9.69000E+01 4.87010E+01 0.00000E+00
 -1      1432 9.84000E+01 4.87010E+01 0.00000E+00
 -1      1433 9.61500E+01 4.74020E+01 0.00000E+00
 -1      1434 9.99000E+01 4.87010E+01 0.00000E+00
 -1      1435 1.01400E+02 4.87010E+01 0.00000E+00
 -1      1436 9.91500E+01 4.74020E+01 0.00000E+00
 -1      1437 1.02900E+02 4.87010E+01 0.00000E+00
 -1      1438 1.04400E+02 4.87010E+01 0.00000E+00
 -1      1439 1.02150E+02 4.74020E+01 0.00000E+00
 -1      1440 1.05900E+02 4.87010E+01 0.00000E+00
 -1      1441 1.07400E+02 4.87010E+01 0.00000E+00
 -1      1442 1.05150E+02 4.74020E+01 0.00000E+00
 -1      1443 1.08900E+02 4.87010E+01 0.00000E+00
 -1      1444 1.10400E+02 4.87010E+01 0.00000E+00
 -1      1445 1.08150E+02 4.74020E+01 0.00000E+00
 -1      1446 1.11900E+02 4.87010E+01 0.00000E+00
 -1      1447 1.13400E+02 4.87010E+01 0.00000E+00
 -1      1448 1.11150E+02 4.74020E+01 0.00000E+00
 -1      1449 1.14900E+02 4.87010E+01 0.00000E+00
 -1      1450 1.16400E+02 4.87010E+01 0.00000E+00
 -1      1451 1.14150E+02 4.74020E+01 0.00000E+00
 -1      1452 1.17900E+02 4.87010E+01 0.00000E+00
 -1      1453 1.19400E+02 4.87010E+01 0.00000E+00
 -1      1454 1.17150E+02 4.74020E+01 0.00000E+00
 -1      1455 1.20900E+02 4.87010E+01 0.00000E+00
 -1      1456 1.22400E+02 4.87010E+01 0.00000E+00
 -1      1457 1.20150E+02 4.74020E+01 0.00000E+00
 -1      1458 1.23900E+02 4.87010E+01 0.00000E+00
 -1      1459 1.25400E+02 4.87010E+01 0.00000E+00
 -1      1460 1.23150E+02 4.74020E+01 0.00000E+00
 -1      1461 1.26900E+02 4.87010E+01 0.00000E+00
 -1      1462 1.28400E+02 4.87010E+01 0.00000E+00
 -1      1463 1.26150E+02 4.74020E+01 0.00000E+00
 -1      1464 1.29900E+02 4.87010E+01 0.00000E+00
 -1      1465 1.31400E+02 4.87010E+01 0.00000E+00
 -1      1466 1.29150E+02 4.74020E+01 0.00000E+00
 -1      1467 1.32900E+02 4.87010E+01 0.00000E+00
 -1      1468 1.34400E+02 4.87010E+01 0.00000E+00
 -1      1469 1.32150E+02 4.74020E+01 0.00000E+00
 -1      1470 1.35900E+02 4.87010E+01 0.00000E+00
 -1      1471 1.37400E+02 4.87010E+01 0.00000E+00
 -1      1472 1.35150E+02 4.74020E+01 0.00000E+00
 -1      1473 1.38900E+02 4.87010E+01 0.00000E+00
 -1      1474 1.40400E+02 4.87010E+01 0.00000E+00
 -1      1475 1.38150E+02 4.74020E+01 0.00000E+00
 -1      1476 1.41900E+02 4.87010E+01 0.00000E+00
 -1      1477 1.43400E+02 4.87010E+01 0.00000E+00
 -1      1478 1.41150E+02 4.74020E+01 0.00000E+00
 -1      1479 1.44900E+02 4.87010E+01 0.00000E+00
 -1      1480 1.46400E+02 4.87010E+01 0.00000E+00
 -1      1481 1.44150E+02 4.74020E+01 0.00000E+00
 -1      1482 1.48575E+02 4.85500E+01 0.00000E+00
 -1      1483 1.47825E+02 4.72510E+01 0.00000E+00
 -1      1484 6.01200E+00 1.09375E+00 0.00000E+00
 -1      1485 4.51200E+00 1.09375E+00 0.00000E+00
 -1      1486 4.37400E+00 2.18750E+00 0.00000E+00
 -1      1487 9.01200E+00 1.09375E+00 0.00000E+00
 -1      1488 7.51200E+00 1.09375E+00 0.00000E+00
 -1      1489 7.37400E+00 2.18750E+00 0.00000E+00
 -1      1490 1.20120E+01 1.09375E+00 0.00000E+00
 -1      1491 1.05120E+01 1.09375E+00 0.00000E+00
 -1      1492 1.03740E+01 2.18750E+00 0.00000E+00
 -1      1493 1.50120E+01 1.09375E+00 0.00000E+00
 -1      1494 1.35120E+01 1.09375E+00 0.00000E+00
 -1      1495 1.33740E+01 2.18750E+00 0.00000E+00
 -1      1496 1.80120E+01 1.09375E+00 0.00000E+00
 -1      1497 1.65120E+01 1.09375E+00 0.00000E+00
 -1      1498 1.63740E+01 2.18750E+00 0.00000E+00
 -1      1499 2.10120E+01 1.09375E+00 0.00000E+00
 -1      1500 1.95120E+01 1.09375E+00 0.00000E+00
 -1      1501 1.93740E+01 2.18750E+00 0.00000E+00
 -1      1502 2.40120E+01 1.09375E+00 0.00000E+00
 -1      1503 2.25120E+01 1.09375E+00 0.00000E+00
 -1      1504 2.23740E+01 2.18750E+00 0.00000E+00
 -1      1505 2.70120E+01 1.09375E+00 0.00000E+00
 -1      1506 2.55120E+01 1.09375E+00 0.00000E+00
 -1      1507 2.53740E+01 2.18750E+00 0.00000E+00
 -1      1508 3.00120E+01 1.09375E+00 0.00000E+00
 -1      1509 2.85120E+01 1.09375E+00 0.00000E+00
 -1      1510 2.83740E+01 2.18750E+00 0.00000E+00
 -1      1511 3.30120E+01 1.09375E+00 0.00000E+00
 -1      1512 3.15120E+01 1.09375E+00 0.00000E+00
 -1      1513 3.13740E+01 2.18750E+00 0.00000E+00
 -1      1514 3.60120E+01 1.09375E+00 0.00000E+00
 -1      1515 3.45120E+01 1.09375E+00 0.00000E+00
 -1      1516 3.43740E+01 2.18750E+00 0.00000E+00
 -1      1517 3.90120E+01 1.09375E+00 0.00000E+00
 -1      1518 3.75120E+01 1.09375E+00 0.00000E+00
 -1      1519 3.73740E+01 2.18750E+00 0.00000E+00
 -1      1520 4.20120E+01 1.09375E+00 0.00000E+00
 -1      1521 4.05120E+01 1.09375E+00 0.00000E+00
 -1      1522 4.03740E+01 2.18750E+00 0.00000E+00
 -1      1523 4.50120E+01 1.09375E+00 0.00000E+00
 -1      1524 4.35120E+01 1.09375E+00 0.00000E+00
 -1      1525 4.33740E+01 2.18750E+00 0.00000E+00
 -1      1526 4.80120E+01 1.09375E+00 0.00000E+00
 -1      1527 4.65120E+01 1.09375E+00 0.00000E+00
 -1      1528 4.63740E+01 2.18750E+00 0.00000E+00
 -1      1529 5.10120E+01 1.09375E+00 0.00000E+00
 -1      1530 4.95120E+01 1.09375E+00 0.00000E+00
 -1      1531 4.93740E+01 2.18750E+00 0.00000E+00
 -1      1532 5.40120E+01 1.09375E+00 0.00000E+00
 -1      1533 5.25120E+01 1.09375E+00 0.00000E+00
 -1      1534 5.23740E+01 2.18750E+00 0.00000E+00
 -1      1535 5.70120E+01 1.09375E+00 0.00000E+00
 -1      1536 5.55120E+01 1.09375E+00 0.00000E+00
 -1      1537 5.53740E+01 2.18750E+00 0.00000E+00
 -1      1538 6.00120E+01 1.09375E+00 0.00000E+00
 -1      1539 5.85120E+01 1.09375E+00 0.00000E+00
 -1      1540 5.83740E+01 2.18750E+00 0.00000E+00
 -1      1541 6.30120E+01 1.09375E+00 0.00000E+00
 -1      1542 6.15120E+01 1.09375E+00 0.00000E+00
 -1      1543 6.13740E+01 2.18750E+00 0.00000E+00
 -1      1544 6.60120E+01 1.09375E+00 0.00000E+00
 -1      1545 6.45120E+01 1.09375E+00 0.00000E+00
 -1      1546 6.43740E+01 2.18750E+00 0.00000E+00
 -1      1547 6.90120E+01 1.09375E+00 0.00000E+00
 -1      1548 6.75120E+01 1.09375E+00 0.00000E+00
 -1      1549 6.73740E+01 2.18750E+00 0.00000E+00
 -1      1550 7.20120E+01 1.09375E+00 0.00000E+00
 -1      1551 7.05120E+01 1.09375E+00 0.00000E+00
 -1      1552 7.03740E+01 2.18750E+00 0.00000E+00
 -1      1553 7.50120E+01 1.09375E+00 0.00000E+00
 -1      1554 7.35120E+01 1.09375E+00 0.00000E+00
 -1      1555 7.33740E+01 2.18750E+00 0.00000E+00
 -1      1556 7.80120E+01 1.09375E+00 0.00000E+00
 -1      1557 7.65120E+01 1.09375E+00 0.00000E+00
 -1      1558 7.63740E+01 2.18750E+00 0.00000E+00
 -1      1559 8.10120E+01 1.09375E+00 0.00000E+00
 -1      1560 7.95120E+01 1.09375E+00 0.00000E+00
 -1      1561 7.93740E+01 2.18750E+00 0.00000E+00
 -1      1562 8.40120E+01 1.09375E+00 0.00000E+00
 -1      1563 8.25120E+01 1.09375E+00 0.00000E+00
 -1      1564 8.23740E+01 2.18750E+00 0.00000E+00
 -1      1565 8.70120E+01 1.09375E+00 0.00000E+00
 -1      1566 8.55120E+01 1.09375E+00 0.00000E+00
 -1      1567 8.53740E+01 2.18750E+00 0.00000E+00
 -1      1568 9.00120E+01 1.09375E+00 0.00000E+00
 -1      1569 8.85120E+01 1.09375E+00 0.00000E+00
 -1      1570 8.83740E+01 2.18750E+00 0.00000E+00
 -1      1571 9.30120E+01 1.09375E+00 0.00000E+00
 -1      1572 9.15120E+01 1.09375E+00 0.00000E+00
 -1      1573 9.13740E+01 2.18750E+00 0.00000E+00
 -1      1574 9.60120E+01 1.09375E+00 0.00000E+00
 -1      1575 9.45120E+01 1.09375E+00 0.00000E+00
 -1      1576 9.43740E+01 2.18750E+00 0.00000E+00
 -1      1577 9.90120E+01 1.09375E+00 0.00000E+00
 -1      1578 9.75120E+01 1.09375E+00 0.00000E+00
 -1      1579 9.73740E+01 2.18750E+00 0.00000E+00
 -1      1580 1.02012E+02 1.09375E+00 0.00000E+00
 -1      1581 1.00512E+02 1.09375E+00 0.00000E+00
 -1      1582 1.00374E+02 2.18750E+00 0.00000E+00
 -1      1583 1.05012E+02 1.09375E+00 0.00000E+00
 -1      1584 1.03512E+02 1.09375E+00 0.00000E+00
 -1      1585 1.03374E+02 2.18750E+00 0.00000E+00
 -1      1586 1.08012E+02 1.09375E+00 0.00000E+00
 -1      1587 1.06512E+02 1.09375E+00 0.00000E+00
 -1      1588 1.06374E+02 2.18750E+00 0.00000E+00
 -1      1589 1.11012E+02 1.09375E+00 0.00000E+00
 -1      1590 1.09512E+02 1.09375E+00 0.00000E+00
 -1      1591 1.09374E+02 2.18750E+00 0.00000E+00
 -1      1592 1.14012E+02 1.09375E+00 0.00000E+00
 -1      1593 1.12512E+02 1.09375E+00 0.00000E+00
 -1      1594 1.12374E+02 2.18750E+00 0.00000E+00
 -1      1595 1.17012E+02 1.09375E+00 0.00000E+00
 -1      1596 1.15512E+02 1.09375E+00 0.00000E+00
 -1      1597 1.15374E+02 2.18750E+00 0.00000E+00
 -1      1598 1.20012E+02 1.09375E+00 0.00000E+00
 -1      1599 1.18512E+02 1.09375E+00 0.00000E+00
 -1      1600 1.18374E+02 2.18750E+00 0.00000E+00
 -1      1601 1.23012E+02 1.09375E+00 0.00000E+00
 -1      1602 1.21512E+02 1.09375E+00 0.00000E+00
 -1      1603 1.21374E+02 2.18750E+00 0.00000E+00
 -1      1604 1.26012E+02 1.09375E+00 0.00000E+00
 -1      1605 1.24512E+02 1.09375E+00 0.00000E+00
 -1      1606 1.24374E+02 2.18750E+00 0.00000E+00
 -1      1607 1.29012E+02 1.09375E+00 0.00000E+00
 -1      1608 1.27512E+02 1.09375E+00 0.00000E+00
 -1      1609 1.27374E+02 2.18750E+00 0.00000E+00
 -1      1610 1.32012E+02 1.09375E+00 0.00000E+00
 -1      1611 1.30512E+02 1.09375E+00 0.00000E+00
 -1      1612 1.30374E+02 2.18750E+00 0.00000E+00
 -1      1613 1.35012E+02 1.09375E+00 0.00000E+00
 -1      1614 1.33512E+02 1.09375E+00 0.00000E+00
 -1      1615 1.33374E+02 2.18750E+00 0.00000E+00
 -1      1616 1.38012E+02 1.09375E+00 0.00000E+00
 -1      1617 1.36512E+02 1.09375E+00 0.00000E+00
 -1      1618 1.36374E+02 2.18750E+00 0.00000E+00
 -1      1619 1.41012E+02 1.09375E+00 0.00000E+00
 -1      1620 1.39512E+02 1.09375E+00 0.00000E+00
 -1      1621 1.39374E+02 2.18750E+00 0.00000E+00
 -1      1622 1.44012E+02 1.09375E+00 0.00000E+00
 -1      1623 1.42512E+02 1.09375E+00 0.00000E+00
 -1      1624 1.42374E+02 2.18750E+00 0.00000E+00
 -1      1625 1.47012E+02 1.09375E+00 0.00000E+00
 -1      1626 1.45512E+02 1.09375E+00 0.00000E+00
 -1      1627 1.45374E+02 2.18750E+00 0.00000E+00
 -1      1628 1.48575E+02 1.47500E+00 0.00000E+00
 -1      1629 1.48701E+02 5.16250E+00 0.00000E+00
 -1      1630 1.48701E+02 3.68750E+00 0.00000E+00
 -1      1631 1.48701E+02 8.11250E+00 0.00000E+00
 -1      1632 1.48701E+02 6.63750E+00 0.00000E+00
 -1      1633 1.47402E+02 5.90000E+00 0.00000E+00
 -1      1634 1.48701E+02 1.10625E+01 0.00000E+00
 -1      1635 1.48701E+02 9.58750E+00 0.00000E+00
 -1      1636 1.47402E+02 8.85000E+00 0.00000E+00
 -1      1637 1.48701E+02 1.40125E+01 0.00000E+00
 -1      1638 1.48701E+02 1.25375E+01 0.00000E+00
 -1      1639 1.47402E+02 1.18000E+01 0.00000E+00
 -1      1640 1.48701E+02 1.69125E+01 0.00000E+00
 -1      1641 1.48701E+02 1.54625E+01 0.00000E+00
 -1      1642 1.47402E+02 1.47250E+01 0.00000E+00
 -1      1643 1.48701E+02 1.98625E+01 0.00000E+00
 -1      1644 1.48701E+02 1.83875E+01 0.00000E+00
 -1      1645 1.47402E+02 1.76500E+01 0.00000E+00
 -1      1646 1.48701E+02 2.28125E+01 0.00000E+00
 -1      1647 1.48701E+02 2.13375E+01 0.00000E+00
 -1      1648 1.47402E+02 2.06000E+01 0.00000E+00
 -1      1649 1.48701E+02 2.57625E+01 0.00000E+00
 -1      1650 1.48701E+02 2.42875E+01 0.00000E+00
 -1      1651 1.47402E+02 2.35500E+01 0.00000E+00
 -1      1652 1.48701E+02 2.87125E+01 0.00000E+00
 -1      1653 1.48701E+02 2.72375E+01 0.00000E+00
 -1      1654 1.47402E+02 2.65000E+01 0.00000E+00
 -1      1655 1.48701E+02 3.16625E+01 0.00000E+00
 -1      1656 1.48701E+02 3.01875E+01 0.00000E+00
 -1      1657 1.47402E+02 2.94500E+01 0.00000E+00
 -1      1658 1.48701E+02 3.45625E+01 0.00000E+00
 -1      1659 1.48701E+02 3.31125E+01 0.00000E+00
 -1      1660 1.47402E+02 3.23750E+01 0.00000E+00
 -1      1661 1.48701E+02 3.75125E+01 0.00000E+00
 -1      1662 1.48701E+02 3.60375E+01 0.00000E+00
 -1      1663 1.47402E+02 3.53000E+01 0.00000E+00
 -1      1664 1.48701E+02 4.04625E+01 0.00000E+00
 -1      1665 1.48701E+02 3.89875E+01 0.00000E+00
 -1      1666 1.47402E+02 3.82500E+01 0.00000E+00
 -1      1667 1.48701E+02 4.34125E+01 0.00000E+00
 -1      1668 1.48701E+02 4.19375E+01 0.00000E+00
 -1      1669 1.47402E+02 4.12000E+01 0.00000E+00
 -1      1670 1.48263E+02 4.60692E+01 0.00000E+00
 -1      1671 1.48263E+02 4.45942E+01 0.00000E+00
 -1      1672 1.46964E+02 4.38568E+01 0.00000E+00
 -1      1673 1.46088E+02 4.62202E+01 0.00000E+00
 -1      1674 1.07133E+02 2.26406E+01 0.00000E+00
 -1      1675 1.07221E+02 2.34237E+01 0.00000E+00
 -1      1676 1.06706E+02 2.09807E+01 0.00000E+00
 -1      1677 1.06964E+02 2.17166E+01 0.00000E+00
 -1      1678 1.05870E+02 1.95243E+01 0.00000E+00
 -1      1679 1.06271E+02 2.01680E+01 0.00000E+00
 -1      1680 1.04775E+02 1.83761E+01 0.00000E+00
 -1      1681 1.05272E+02 1.88895E+01 0.00000E+00
 -1      1682 1.03546E+02 1.74356E+01 0.00000E+00
 -1      1683 1.04137E+02 1.78383E+01 0.00000E+00
 -1      1684 1.02116E+02 1.67102E+01 0.00000E+00
 -1      1685 1.02808E+02 1.69937E+01 0.00000E+00
 -1      1686 1.00581E+02 1.63811E+01 0.00000E+00
 -1      1687 1.01282E+02 1.65082E+01 0.00000E+00
 -1      1688 9.89306E+01 1.62641E+01 0.00000E+00
 -1      1689 9.97096E+01 1.62376E+01 0.00000E+00
 -1      1690 9.73669E+01 1.66458E+01 0.00000E+00
 -1      1691 9.80659E+01 1.64682E+01 0.00000E+00
 -1      1692 9.59586E+01 1.72348E+01 0.00000E+00
 -1      1693 9.65875E+01 1.69295E+01 0.00000E+00
 -1      1694 9.46164E+01 1.80584E+01 0.00000E+00
 -1      1695 9.51972E+01 1.76105E+01 0.00000E+00
 -1      1696 9.35578E+01 1.92245E+01 0.00000E+00
 -1      1697 9.40222E+01 1.86802E+01 0.00000E+00
 -1      1698 9.27317E+01 2.05528E+01 0.00000E+00
 -1      1699 9.30773E+01 1.99216E+01 0.00000E+00
 -1      1700 9.21890E+01 2.20457E+01 0.00000E+00
 -1      1701 9.24009E+01 2.13436E+01 0.00000E+00
 -1      1702 9.19660E+01 2.36040E+01 0.00000E+00
 -1      1703 9.20272E+01 2.28872E+01 0.00000E+00
 -1      1704 9.19735E+01 2.53134E+01 0.00000E+00
 -1      1705 9.18673E+01 2.45178E+01 0.00000E+00
 -1      1706 9.25995E+01 2.68400E+01 0.00000E+00
 -1      1707 9.23495E+01 2.61583E+01 0.00000E+00
 -1      1708 9.33410E+01 2.82632E+01 0.00000E+00
 -1      1709 9.29439E+01 2.76327E+01 0.00000E+00
 -1      1710 9.43898E+01 2.94701E+01 0.00000E+00
 -1      1711 9.38794E+01 2.89472E+01 0.00000E+00
 -1      1712 9.57154E+01 3.04549E+01 0.00000E+00
 -1      1713 9.50732E+01 3.00316E+01 0.00000E+00
 -1      1714 9.72179E+01 3.11341E+01 0.00000E+00
 -1      1715 9.65140E+01 3.08653E+01 0.00000E+00
 -1      1716 9.87465E+01 3.14260E+01 0.00000E+00
 -1      1717 9.80533E+01 3.13166E+01 0.00000E+00
 -1      1718 1.00365E+02 3.15106E+01 0.00000E+00
 -1      1719 9.96042E+01 3.15508E+01 0.00000E+00
 -1      1720 1.01862E+02 3.11214E+01 0.00000E+00
 -1      1721 1.01197E+02 3.12986E+01 0.00000E+00
 -1      1722 1.03247E+02 3.05263E+01 0.00000E+00
 -1      1723 1.02620E+02 3.08357E+01 0.00000E+00
 -1      1724 1.04476E+02 2.96800E+01 0.00000E+00
 -1      1725 1.03933E+02 3.00987E+01 0.00000E+00
 -1      1726 1.05568E+02 2.86049E+01 0.00000E+00
 -1      1727 1.05101E+02 2.91448E+01 0.00000E+00
 -1      1728 1.06478E+02 2.73224E+01 0.00000E+00
 -1      1729 1.06127E+02 2.79520E+01 0.00000E+00
 -1      1730 1.06950E+02 2.58299E+01 0.00000E+00
 -1      1731 1.06738E+02 2.65068E+01 0.00000E+00
 -1      1732 1.07148E+02 2.43053E+01 0.00000E+00
 -1      1733 1.07076E+02 2.50077E+01 0.00000E+00
 -1      1734 1.04821E+02 1.76737E+01 0.00000E+00
 -1      1735 1.06058E+02 1.88463E+01 0.00000E+00
 -1      1736 1.48437E+02 2.56875E+00 0.00000E+00
 -1      1737 1.47138E+02 3.30625E+00 0.00000E+00
 -1      1738 1.07694E+02 2.20305E+01 0.00000E+00
 -1      1739 1.07091E+02 2.02938E+01 0.00000E+00
 -1      1740 1.07789E+02 2.38361E+01 0.00000E+00
 -1      1741 1.03445E+02 1.66941E+01 0.00000E+00
 -1      1742 1.01874E+02 1.60502E+01 0.00000E+00
 -1      1743 1.00168E+02 1.57048E+01 0.00000E+00
 -1      1744 9.84319E+01 1.57654E+01 0.00000E+00
 -1      1745 9.67877E+01 1.62531E+01 0.00000E+00
 -1      1746 9.52468E+01 1.69125E+01 0.00000E+00
 -1      1747 9.38912E+01 1.79099E+01 0.00000E+00
 -1      1748 9.28165E+01 1.92288E+01 0.00000E+00
 -1      1749 9.20053E+01 2.07167E+01 0.00000E+00
 -1      1750 9.15127E+01 2.23490E+01 0.00000E+00
 -1      1751 9.12522E+01 2.41042E+01 0.00000E+00
 -1      1752 9.15294E+01 2.58629E+01 0.00000E+00
 -1      1753 9.22497E+01 2.75007E+01 0.00000E+00
 -1      1754 9.31325E+01 2.89774E+01 0.00000E+00
 -1      1755 9.43543E+01 3.02229E+01 0.00000E+00
 -1      1756 9.58362E+01 3.11948E+01 0.00000E+00
 -1      1757 9.74700E+01 3.17876E+01 0.00000E+00
 -1      1758 9.91631E+01 3.20949E+01 0.00000E+00
 -1      1759 1.00853E+02 3.20077E+01 0.00000E+00
 -1      1760 1.02444E+02 3.15101E+01 0.00000E+00
 -1      1761 1.03888E+02 3.07970E+01 0.00000E+00
 -1      1762 1.05200E+02 2.98342E+01 0.00000E+00
 -1      1763 1.06383E+02 2.86462E+01 0.00000E+00
 -1      1764 1.07202E+02 2.71777E+01 0.00000E+00
 -1      1765 1.07589E+02 2.55399E+01 0.00000E+00
 -1      1766 2.87400E+00 4.77875E+01 0.00000E+00
 -1      1767 3.89700E+00 4.04125E+01 0.00000E+00
 -1      1768 3.89700E+00 4.18875E+01 0.00000E+00
 -1      1769 3.89700E+00 4.33625E+01 0.00000E+00
 -1      1770 3.89700E+00 4.48375E+01 0.00000E+00
 -1      1771 5.19600E+00 4.26250E+01 0.00000E+00
 -1      1772 3.89700E+00 3.45500E+01 0.00000E+00
 -1      1773 3.89700E+00 3.60000E+01 0.00000E+00
 -1      1774 3.89700E+00 3.16000E+01 0.00000E+00
 -1      1775 3.89700E+00 3.30750E+01 0.00000E+00
 -1      1776 5.19600E+00 3.38000E+01 0.00000E+00
 -1      1777 3.89700E+00 2.86500E+01 0.00000E+00
 -1      1778 3.89700E+00 3.01250E+01 0.00000E+00
 -1      1779 5.19600E+00 3.08500E+01 0.00000E+00
 -1      1780 3.89700E+00 2.57000E+01 0.00000E+00
 -1      1781 3.89700E+00 2.71750E+01 0.00000E+00
 -1      1782 5.19600E+00 2.79000E+01 0.00000E+00
 -1      1783 3.89700E+00 2.27500E+01 0.00000E+00
 -1      1784 3.89700E+00 2.42250E+01 0.00000E+00
 -1      1785 5.19600E+00 2.49500E+01 0.00000E+00
 -1      1786 3.89700E+00 1.98000E+01 0.00000E+00
 -1      1787 3.89700E+00 2.12750E+01 0.00000E+00
 -1      1788 5.19600E+00 2.20000E+01 0.00000E+00
 -1      1789 3.89700E+00 1.69000E+01 0.00000E+00
 -1      1790 3.89700E+00 1.83500E+01 0.00000E+00
 -1      1791 5.19600E+00 1.90750E+01 0.00000E+00
 -1      1792 3.89700E+00 1.39500E+01 0.00000E+00
 -1      1793 3.89700E+00 1.54250E+01 0.00000E+00
 -1      1794 5.19600E+00 1.61500E+01 0.00000E+00
 -1      1795 3.89700E+00 1.10000E+01 0.00000E+00
 -1      1796 3.89700E+00 1.24750E+01 0.00000E+00
 -1      1797 5.19600E+00 1.32000E+01 0.00000E+00
 -1      1798 3.89700E+00 8.05000E+00 0.00000E+00
 -1      1799 3.89700E+00 9.52500E+00 0.00000E+00
 -1      1800 5.19600E+00 1.02500E+01 0.00000E+00
 -1      1801 3.89700E+00 5.10000E+00 0.00000E+00
 -1      1802 3.89700E+00 6.57500E+00 0.00000E+00
 -1      1803 5.19600E+00 7.30000E+00 0.00000E+00
 -1      1804 4.20450E+00 3.09687E+00 0.00000E+00
 -1      1805 4.06650E+00 4.19063E+00 0.00000E+00
 -1      1806 5.36550E+00 4.91563E+00 0.00000E+00
 -1      1807 5.70450E+00 3.09687E+00 0.00000E+00
 -1      1808 3.62400E+00 4.64885E+01 0.00000E+00
 -1      1809 8.70450E+00 3.09687E+00 0.00000E+00
 -1      1810 7.20450E+00 3.09687E+00 0.00000E+00
 -1      1811 7.03500E+00 4.00625E+00 0.00000E+00
 -1      1812 4.92300E+00 4.57510E+01 0.00000E+00
 -1      1813 8.40000E+00 4.61030E+01 0.00000E+00
 -1      1814 9.90000E+00 4.61030E+01 0.00000E+00
 -1      1815 1.14000E+01 4.61030E+01 0.00000E+00
 -1      1816 1.29000E+01 4.61030E+01 0.00000E+00
 -1      1817 1.06500E+01 4.48040E+01 0.00000E+00
 -1      1818 1.44000E+01 4.61030E+01 0.00000E+00
 -1      1819 1.59000E+01 4.61030E+01 0.00000E+00
 -1      1820 1.36500E+01 4.48040E+01 0.00000E+00
 -1      1821 1.74000E+01 4.61030E+01 0.00000E+00
 -1      1822 1.89000E+01 4.61030E+01 0.00000E+00
 -1      1823 1.66500E+01 4.48040E+01 0.00000E+00
 -1      1824 2.04000E+01 4.61030E+01 0.00000E+00
 -1      1825 2.19000E+01 4.61030E+01 0.00000E+00
 -1      1826 1.96500E+01 4.48040E+01 0.00000E+00
 -1      1827 2.34000E+01 4.61030E+01 0.00000E+00
 -1      1828 2.49000E+01 4.61030E+01 0.00000E+00
 -1      1829 2.26500E+01 4.48040E+01 0.00000E+00
 -1      1830 2.64000E+01 4.61030E+01 0.00000E+00
 -1      1831 2.79000E+01 4.61030E+01 0.00000E+00
 -1      1832 2.56500E+01 4.48040E+01 0.00000E+00
 -1      1833 2.94000E+01 4.61030E+01 0.00000E+00
 -1      1834 3.09000E+01 4.61030E+01 0.00000E+00
 -1      1835 2.86500E+01 4.48040E+01 0.00000E+00
 -1      1836 3.24000E+01 4.61030E+01 0.00000E+00
 -1      1837 3.39000E+01 4.61030E+01 0.00000E+00
 -1      1838 3.16500E+01 4.48040E+01 0.00000E+00
 -1      1839 3.54000E+01 4.61030E+01 0.00000E+00
 -1      1840 3.69000E+01 4.61030E+01 0.00000E+00
 -1      1841 3.46500E+01 4.48040E+01 0.00000E+00
 -1      1842 3.84000E+01 4.61030E+01 0.00000E+00
 -1      1843 3.99000E+01 4.61030E+01 0.00000E+00
 -1      1844 3.76500E+01 4.48040E+01 0.00000E+00
 -1      1845 4.14000E+01 4.61030E+01 0.00000E+00
 -1      1846 4.29000E+01 4.61030E+01 0.00000E+00
 -1      1847 4.06500E+01 4.48040E+01 0.00000E+00
 -1      1848 4.44000E+01 4.61030E+01 0.00000E+00
 -1      1849 4.59000E+01 4.61030E+01 0.00000E+00
 -1      1850 4.36500E+01 4.48040E+01 0.00000E+00
 -1      1851 4.74000E+01 4.61030E+01 0.00000E+00
 -1      1852 4.89000E+01 4.61030E+01 0.00000E+00
 -1      1853 4.66500E+01 4.48040E+01 0.00000E+00
 -1      1854 5.04000E+01 4.61030E+01 0.00000E+00
 -1      1855 5.19000E+01 4.61030E+01 0.00000E+00
 -1      1856 4.96500E+01 4.48040E+01 0.00000E+00
 -1      1857 5.34000E+01 4.61030E+01 0.00000E+00
 -1      1858 5.49000E+01 4.61030E+01 0.00000E+00
 -1      1859 5.26500E+01 4.48040E+01 0.00000E+00
 -1      1860 5.64000E+01 4.61030E+01 0.00000E+00
 -1      1861 5.79000E+01 4.61030E+01 0.00000E+00
 -1      1862 5.56500E+01 4.48040E+01 0.00000E+00
 -1      1863 5.94000E+01 4.61030E+01 0.00000E+00
 -1      1864 6.09000E+01 4.61030E+01 0.00000E+00
 -1      1865 5.86500E+01 4.48040E+01 0.00000E+00
 -1      1866 6.24000E+01 4.61030E+01 0.00000E+00
 -1      1867 6.39000E+01 4.61030E+01 0.00000E+00
 -1      1868 6.16500E+01 4.48040E+01 0.00000E+00
 -1      1869 6.54000E+01 4.61030E+01 0.00000E+00
 -1      1870 6.69000E+01 4.61030E+01 0.00000E+00
 -1      1871 6.46500E+01 4.48040E+01 0.00000E+00
 -1      1872 6.84000E+01 4.61030E+01 0.00000E+00
 -1      1873 6.99000E+01 4.61030E+01 0.00000E+00
 -1      1874 6.76500E+01 4.48040E+01 0.00000E+00
 -1      1875 7.14000E+01 4.61030E+01 0.00000E+00
 -1      1876 7.29000E+01 4.61030E+01 0.00000E+00
 -1      1877 7.06500E+01 4.48040E+01 0.00000E+00
 -1      1878 7.44000E+01 4.61030E+01 0.00000E+00
 -1      1879 7.59000E+01 4.61030E+01 0.00000E+00
 -1      1880 7.36500E+01 4.48040E+01 0.00000E+00
 -1      1881 7.74000E+01 4.61030E+01 0.00000E+00
 -1      1882 7.89000E+01 4.61030E+01 0.00000E+00
 -1      1883 7.66500E+01 4.48040E+01 0.00000E+00
 -1      1884 8.04000E+01 4.61030E+01 0.00000E+00
 -1      1885 8.19000E+01 4.61030E+01 0.00000E+00
 -1      1886 7.96500E+01 4.48040E+01 0.00000E+00
 -1      1887 8.34000E+01 4.61030E+01 0.00000E+00
 -1      1888 8.49000E+01 4.61030E+01 0.00000E+00
 -1      1889 8.26500E+01 4.48040E+01 0.00000E+00
 -1      1890 8.64000E+01 4.61030E+01 0.00000E+00
 -1      1891 8.79000E+01 4.61030E+01 0.00000E+00
 -1      1892 8.56500E+01 4.48040E+01 0.00000E+00
 -1      1893 8.94000E+01 4.61030E+01 0.00000E+00
 -1      1894 9.09000E+01 4.61030E+01 0.00000E+00
 -1      1895 8.86500E+01 4.48040E+01 0.00000E+00
 -1      1896 9.24000E+01 4.61030E+01 0.00000E+00
 -1      1897 9.39000E+01 4.61030E+01 0.00000E+00
 -1      1898 9.16500E+01 4.48040E+01 0.00000E+00
 -1      1899 9.54000E+01 4.61030E+01 0.00000E+00
 -1      1900 9.69000E+01 4.61030E+01 0.00000E+00
 -1      1901 9.46500E+01 4.48040E+01 0.00000E+00
 -1      1902 9.84000E+01 4.61030E+01 0.00000E+00
 -1      1903 9.99000E+01 4.61030E+01 0.00000E+00
 -1      1904 9.76500E+01 4.48040E+01 0.00000E+00
 -1      1905 1.01400E+02 4.61030E+01 0.00000E+00
 -1      1906 1.02900E+02 4.61030E+01 0.00000E+00
 -1      1907 1.00650E+02 4.48040E+01 0.00000E+00
 -1      1908 1.04400E+02 4.61030E+01 0.00000E+00
 -1      1909 1.05900E+02 4.61030E+01 0.00000E+00
 -1      1910 1.03650E+02 4.48040E+01 0.00000E+00
 -1      1911 1.07400E+02 4.61030E+01 0.00000E+00
 -1      1912 1.08900E+02 4.61030E+01 0.00000E+00
 -1      1913 1.06650E+02 4.48040E+01 0.00000E+00
 -1      1914 1.10400E+02 4.61030E+01 0.00000E+00
 -1      1915 1.11900E+02 4.61030E+01 0.00000E+00
 -1      1916 1.09650E+02 4.48040E+01 0.00000E+00
 -1      1917 1.13400E+02 4.61030E+01 0.00000E+00
 -1      1918 1.14900E+02 4.61030E+01 0.00000E+00
 -1      1919 1.12650E+02 4.48040E+01 0.00000E+00
 -1      1920 1.16400E+02 4.61030E+01 0.00000E+00
 -1      1921 1.17900E+02 4.61030E+01 0.00000E+00
 -1      1922 1.15650E+02 4.48040E+01 0.00000E+00
 -1      1923 1.19400E+02 4.61030E+01 0.00000E+00
 -1      1924 1.20900E+02 4.61030E+01 0.00000E+00
 -1      1925 1.18650E+02 4.48040E+01 0.00000E+00
 -1      1926 1.22400E+02 4.61030E+01 0.00000E+00
 -1      1927 1.23900E+02 4.61030E+01 0.00000E+00
 -1      1928 1.21650E+02 4.48040E+01 0.00000E+00
 -1      1929 1.25400E+02 4.61030E+01 0.00000E+00
 -1      1930 1.26900E+02 4.61030E+01 0.00000E+00
 -1      1931 1.24650E+02 4.48040E+01 0.00000E+00
 -1      1932 1.28400E+02 4.61030E+01 0.00000E+00
 -1      1933 1.29900E+02 4.61030E+01 0.00000E+00
 -1      1934 1.27650E+02 4.48040E+01 0.00000E+00
 -1      1935 1.31400E+02 4.61030E+01 0.00000E+00
 -1      1936 1.32900E+02 4.61030E+01 0.00000E+00
 -1      1937 1.30650E+02 4.48040E+01 0.00000E+00
 -1      1938 1.34400E+02 4.61030E+01 0.00000E+00
 -1      1939 1.35900E+02 4.61030E+01 0.00000E+00
 -1      1940 1.33650E+02 4.48040E+01 0.00000E+00
 -1      1941 1.37400E+02 4.61030E+01 0.00000E+00
 -1      1942 1.38900E+02 4.61030E+01 0.00000E+00
 -1      1943 1.36650E+02 4.48040E+01 0.00000E+00
 -1      1944 1.40400E+02 4.61030E+01 0.00000E+00
 -1      1945 1.41900E+02 4.61030E+01 0.00000E+00
 -1      1946 1.39650E+02 4.48040E+01 0.00000E+00
 -1      1947 1.43244E+02 4.61616E+01 0.00000E+00
 -1      1948 1.44744E+02 4.61616E+01 0.00000E+00
 -1      1949 1.45182E+02 4.49799E+01 0.00000E+00
 -1      1950 1.42494E+02 4.48626E+01 0.00000E+00
 -1      1951 1.17045E+01 3.09687E+00 0.00000E+00
 -1      1952 1.02045E+01 3.09687E+00 0.00000E+00
 -1      1953 1.00350E+01 4.00625E+00 0.00000E+00
 -1      1954 1.47045E+01 3.09687E+00 0.00000E+00
 -1      1955 1.32045E+01 3.09687E+00 0.00000E+00
 -1      1956 1.30350E+01 4.00625E+00 0.00000E+00
 -1      1957 1.77045E+01 3.09687E+00 0.00000E+00
 -1      1958 1.62045E+01 3.09687E+00 0.00000E+00
 -1      1959 1.60350E+01 4.00625E+00 0.00000E+00
 -1      1960 2.07045E+01 3.09687E+00 0.00000E+00
 -1      1961 1.92045E+01 3.09687E+00 0.00000E+00
 -1      1962 1.90350E+01 4.00625E+00 0.00000E+00
 -1      1963 2.37045E+01 3.09687E+00 0.00000E+00
 -1      1964 2.22045E+01 3.09687E+00 0.00000E+00
 -1      1965 2.20350E+01 4.00625E+00 0.00000E+00
 -1      1966 2.67045E+01 3.09687E+00 0.00000E+00
 -1      1967 2.52045E+01 3.09687E+00 0.00000E+00
 -1      1968 2.50350E+01 4.00625E+00 0.00000E+00
 -1      1969 2.97045E+01 3.09687E+00 0.00000E+00
 -1      1970 2.82045E+01 3.09687E+00 0.00000E+00
 -1      1971 2.80350E+01 4.00625E+00 0.00000E+00
 -1      1972 3.27045E+01 3.09687E+00 0.00000E+00
 -1      1973 3.12045E+01 3.09687E+00 0.00000E+00
 -1      1974 3.10350E+01 4.00625E+00 0.00000E+00
 -1      1975 3.57045E+01 3.09687E+00 0.00000E+00
 -1      1976 3.42045E+01 3.09687E+00 0.00000E+00
 -1      1977 3.40350E+01 4.00625E+00 0.00000E+00
 -1      1978 3.87045E+01 3.09687E+00 0.00000E+00
 -1      1979 3.72045E+01 3.09687E+00 0.00000E+00
 -1      1980 3.70350E+01 4.00625E+00 0.00000E+00
 -1      1981 4.17045E+01 3.09687E+00 0.00000E+00
 -1      1982 4.02045E+01 3.09687E+00 0.00000E+00
 -1      1983 4.00350E+01 4.00625E+00 0.00000E+00
 -1      1984 4.47045E+01 3.09687E+00 0.00000E+00
 -1      1985 4.32045E+01 3.09687E+00 0.00000E+00
 -1      1986 4.30350E+01 4.00625E+00 0.00000E+00
 -1      1987 4.77045E+01 3.09687E+00 0.00000E+00
 -1      1988 4.62045E+01 3.09687E+00 0.00000E+00
 -1      1989 4.60350E+01 4.00625E+00 0.00000E+00
 -1      1990 5.07045E+01 3.09687E+00 0.00000E+00
 -1      1991 4.92045E+01 3.09687E+00 0.00000E+00
 -1      1992 4.90350E+01 4.00625E+00 0.00000E+00
 -1      1993 5.37045E+01 3.09687E+00 0.00000E+00
 -1      1994 5.22045E+01 3.09687E+00 0.00000E+00
 -1      1995 5.20350E+01 4.00625E+00 0.00000E+00
 -1      1996 5.67045E+01 3.09687E+00 0.00000E+00
 -1      1997 5.52045E+01 3.09687E+00 0.00000E+00
 -1      1998 5.50350E+01 4.00625E+00 0.00000E+00
 -1      1999 5.97045E+01 3.09687E+00 0.00000E+00
 -1      2000 5.82045E+01 3.09687E+00 0.00000E+00
 -1      2001 5.80350E+01 4.00625E+00 0.00000E+00
 -1      2002 6.27045E+01 3.09687E+00 0.00000E+00
 -1      2003 6.12045E+01 3.09687E+00 0.00000E+00
 -1      2004 6.10350E+01 4.00625E+00 0.00000E+00
 -1      2005 6.57045E+01 3.09687E+00 0.00000E+00
 -1      2006 6.42045E+01 3.09687E+00 0.00000E+00
 -1      2007 6.40350E+01 4.00625E+00 0.00000E+00
 -1      2008 6.87045E+01 3.09687E+00 0.00000E+00
 -1      2009 6.72045E+01 3.09687E+00 0.00000E+00
 -1      2010 6.70350E+01 4.00625E+00 0.00000E+00
 -1      2011 7.17045E+01 3.09687E+00 0.00000E+00
 -1      2012 7.02045E+01 3.09687E+00 0.00000E+00
 -1      2013 7.00350E+01 4.00625E+00 0.00000E+00
 -1      2014 7.47045E+01 3.09687E+00 0.00000E+00
 -1      2015 7.32045E+01 3.09687E+00 0.00000E+00
 -1      2016 7.30350E+01 4.00625E+00 0.00000E+00
 -1      2017 7.77045E+01 3.09687E+00 0.00000E+00
 -1      2018 7.62045E+01 3.09687E+00 0.00000E+00
 -1      2019 7.60350E+01 4.00625E+00 0.00000E+00
 -1      2020 8.07045E+01 3.09687E+00 0.00000E+00
 -1      2021 7.92045E+01 3.09687E+00 0.00000E+00
 -1      2022 7.90350E+01 4.00625E+00 0.00000E+00
 -1      2023 8.37045E+01 3.09687E+00 0.00000E+00
 -1      2024 8.22045E+01 3.09687E+00 0.00000E+00
 -1      2025 8.20350E+01 4.00625E+00 0.00000E+00
 -1      2026 8.67045E+01 3.09687E+00 0.00000E+00
 -1      2027 8.52045E+01 3.09687E+00 0.00000E+00
 -1      2028 8.50350E+01 4.00625E+00 0.00000E+00
 -1      2029 8.97045E+01 3.09687E+00 0.00000E+00
 -1      2030 8.82045E+01 3.09687E+00 0.00000E+00
 -1      2031 8.80350E+01 4.00625E+00 0.00000E+00
 -1      2032 9.27045E+01 3.09687E+00 0.00000E+00
 -1      2033 9.12045E+01 3.09687E+00 0.00000E+00
 -1      2034 9.10350E+01 4.00625E+00 0.00000E+00
 -1      2035 9.57045E+01 3.09687E+00 0.00000E+00
 -1      2036 9.42045E+01 3.09687E+00 0.00000E+00
 -1      2037 9.40350E+01 4.00625E+00 0.00000E+00
 -1      2038 9.87045E+01 3.09687E+00 0.00000E+00
 -1      2039 9.72045E+01 3.09687E+00 0.00000E+00
 -1      2040 9.70350E+01 4.00625E+00 0.00000E+00
 -1      2041 1.01704E+02 3.09687E+00 0.00000E+00
 -1      2042 1.00204E+02 3.09687E+00 0.00000E+00
 -1      2043 1.00035E+02 4.00625E+00 0.00000E+00
 -1      2044 1.04704E+02 3.09687E+00 0.00000E+00
 -1      2045 1.03204E+02 3.09687E+00 0.00000E+00
 -1      2046 1.03035E+02 4.00625E+00 0.00000E+00
 -1      2047 1.07704E+02 3.09687E+00 0.00000E+00
 -1      2048 1.06204E+02 3.09687E+00 0.00000E+00
 -1      2049 1.06035E+02 4.00625E+00 0.00000E+00
 -1      2050 1.10704E+02 3.09687E+00 0.00000E+00
 -1      2051 1.09204E+02 3.09687E+00 0.00000E+00
 -1      2052 1.09035E+02 4.00625E+00 0.00000E+00
 -1      2053 1.13704E+02 3.09687E+00 0.00000E+00
 -1      2054 1.12204E+02 3.09687E+00 0.00000E+00
 -1      2055 1.12035E+02 4.00625E+00 0.00000E+00
 -1      2056 1.16704E+02 3.09687E+00 0.00000E+00
 -1      2057 1.15204E+02 3.09687E+00 0.00000E+00
 -1      2058 1.15035E+02 4.00625E+00 0.00000E+00
 -1      2059 1.19704E+02 3.09687E+00 0.00000E+00
 -1      2060 1.18204E+02 3.09687E+00 0.00000E+00
 -1      2061 1.18035E+02 4.00625E+00 0.00000E+00
 -1      2062 1.22704E+02 3.09687E+00 0.00000E+00
 -1      2063 1.21204E+02 3.09687E+00 0.00000E+00
 -1      2064 1.21035E+02 4.00625E+00 0.00000E+00
 -1      2065 1.25704E+02 3.09687E+00 0.00000E+00
 -1      2066 1.24204E+02 3.09687E+00 0.00000E+00
 -1      2067 1.24035E+02 4.00625E+00 0.00000E+00
 -1      2068 1.28704E+02 3.09687E+00 0.00000E+00
 -1      2069 1.27204E+02 3.09687E+00 0.00000E+00
 -1      2070 1.27035E+02 4.00625E+00 0.00000E+00
 -1      2071 1.31704E+02 3.09687E+00 0.00000E+00
 -1      2072 1.30204E+02 3.09687E+00 0.00000E+00
 -1      2073 1.30035E+02 4.00625E+00 0.00000E+00
 -1      2074 1.34704E+02 3.09687E+00 0.00000E+00
 -1      2075 1.33204E+02 3.09687E+00 0.00000E+00
 -1      2076 1.33035E+02 4.00625E+00 0.00000E+00
 -1      2077 1.37704E+02 3.09687E+00 0.00000E+00
 -1      2078 1.36204E+02 3.09687E+00 0.00000E+00
 -1      2079 1.36035E+02 4.00625E+00 0.00000E+00
 -1      2080 1.40704E+02 3.09687E+00 0.00000E+00
 -1      2081 1.39204E+02 3.09687E+00 0.00000E+00
 -1      2082 1.39035E+02 4.00625E+00 0.00000E+00
 -1      2083 1.43704E+02 3.09687E+00 0.00000E+00
 -1      2084 1.42204E+02 3.09687E+00 0.00000E+00
 -1      2085 1.42035E+02 4.00625E+00 0.00000E+00
 -1      2086 1.46171E+02 3.20156E+00 0.00000E+00
 -1      2087 1.44671E+02 3.20156E+00 0.00000E+00
 -1      2088 1.44502E+02 4.11094E+00 0.00000E+00
 -1      2089 1.46435E+02 4.32031E+00 0.00000E+00
 -1      2090 1.46103E+02 1.25375E+01 0.00000E+00
 -1      2091 1.46103E+02 1.10625E+01 0.00000E+00
 -1      2092 1.46103E+02 9.58750E+00 0.00000E+00
 -1      2093 1.46103E+02 8.11250E+00 0.00000E+00
 -1      2094 1.44804E+02 1.03250E+01 0.00000E+00
 -1      2095 1.46269E+02 6.95391E+00 0.00000E+00
 -1      2096 1.46269E+02 5.47891E+00 0.00000E+00
 -1      2097 1.45302E+02 5.37422E+00 0.00000E+00
 -1      2098 1.44970E+02 7.69141E+00 0.00000E+00
 -1      2099 1.46103E+02 1.54375E+01 0.00000E+00
 -1      2100 1.46103E+02 1.39875E+01 0.00000E+00
 -1      2101 1.44804E+02 1.32500E+01 0.00000E+00
 -1      2102 1.46103E+02 1.83875E+01 0.00000E+00
 -1      2103 1.46103E+02 1.69125E+01 0.00000E+00
 -1      2104 1.44804E+02 1.61750E+01 0.00000E+00
 -1      2105 1.46103E+02 2.13375E+01 0.00000E+00
 -1      2106 1.46103E+02 1.98625E+01 0.00000E+00
 -1      2107 1.44804E+02 1.91250E+01 0.00000E+00
 -1      2108 1.46103E+02 2.42875E+01 0.00000E+00
 -1      2109 1.46103E+02 2.28125E+01 0.00000E+00
 -1      2110 1.44804E+02 2.20750E+01 0.00000E+00
 -1      2111 1.46103E+02 2.72375E+01 0.00000E+00
 -1      2112 1.46103E+02 2.57625E+01 0.00000E+00
 -1      2113 1.44804E+02 2.50250E+01 0.00000E+00
 -1      2114 1.46103E+02 3.01875E+01 0.00000E+00
 -1      2115 1.46103E+02 2.87125E+01 0.00000E+00
 -1      2116 1.44804E+02 2.79750E+01 0.00000E+00
 -1      2117 1.46103E+02 3.30875E+01 0.00000E+00
 -1      2118 1.46103E+02 3.16375E+01 0.00000E+00
 -1      2119 1.44804E+02 3.09000E+01 0.00000E+00
 -1      2120 1.46103E+02 3.60375E+01 0.00000E+00
 -1      2121 1.46103E+02 3.45625E+01 0.00000E+00
 -1      2122 1.44804E+02 3.38250E+01 0.00000E+00
 -1      2123 1.46103E+02 3.89875E+01 0.00000E+00
 -1      2124 1.46103E+02 3.75125E+01 0.00000E+00
 -1      2125 1.44804E+02 3.67750E+01 0.00000E+00
 -1      2126 1.46103E+02 4.19375E+01 0.00000E+00
 -1      2127 1.46103E+02 4.04625E+01 0.00000E+00
 -1      2128 1.44804E+02 3.97250E+01 0.00000E+00
 -1      2129 1.07482E+02 1.95619E+01 0.00000E+00
 -1      2130 1.07917E+02 2.03746E+01 0.00000E+00
 -1      2131 1.08555E+02 2.34563E+01 0.00000E+00
 -1      2132 1.08481E+02 2.43378E+01 0.00000E+00
 -1      2133 1.08412E+02 2.14223E+01 0.00000E+00
 -1      2134 1.08581E+02 2.23463E+01 0.00000E+00
 -1      2135 1.06322E+02 1.79982E+01 0.00000E+00
 -1      2136 1.06920E+02 1.86330E+01 0.00000E+00
 -1      2137 1.04947E+02 1.68772E+01 0.00000E+00
 -1      2138 1.05585E+02 1.74150E+01 0.00000E+00
 -1      2139 3.89700E+00 3.74688E+01 0.00000E+00
 -1      2140 3.89700E+00 3.89437E+01 0.00000E+00
 -1      2141 5.19600E+00 3.96813E+01 0.00000E+00
 -1      2142 5.19600E+00 3.67438E+01 0.00000E+00
 -1      2143 1.01619E+02 1.52786E+01 0.00000E+00
 -1      2144 1.02453E+02 1.54806E+01 0.00000E+00
 -1      2145 9.98445E+01 1.49522E+01 0.00000E+00
 -1      2146 1.00716E+02 1.50957E+01 0.00000E+00
 -1      2147 9.78218E+01 1.51143E+01 0.00000E+00
 -1      2148 9.86866E+01 1.49103E+01 0.00000E+00
 -1      2149 9.61620E+01 1.57466E+01 0.00000E+00
 -1      2150 9.69415E+01 1.54629E+01 0.00000E+00
 -1      2151 9.45608E+01 1.64815E+01 0.00000E+00
 -1      2152 9.53223E+01 1.61059E+01 0.00000E+00
 -1      2153 9.30953E+01 1.77441E+01 0.00000E+00
 -1      2154 9.36894E+01 1.71223E+01 0.00000E+00
 -1      2155 9.20082E+01 1.91858E+01 0.00000E+00
 -1      2156 9.24887E+01 1.84887E+01 0.00000E+00
 -1      2157 9.10488E+01 2.07811E+01 0.00000E+00
 -1      2158 9.13795E+01 1.99903E+01 0.00000E+00
 -1      2159 9.07953E+01 2.26474E+01 0.00000E+00
 -1      2160 9.09571E+01 2.18058E+01 0.00000E+00
 -1      2161 9.04335E+01 2.44780E+01 0.00000E+00
 -1      2162 9.05322E+01 2.35643E+01 0.00000E+00
 -1      2163 9.11253E+01 2.65489E+01 0.00000E+00
 -1      2164 9.07493E+01 2.57039E+01 0.00000E+00
 -1      2165 9.18139E+01 2.81344E+01 0.00000E+00
 -1      2166 9.14696E+01 2.73416E+01 0.00000E+00
 -1      2167 9.06895E+01 2.71826E+01 0.00000E+00
 -1      2168 9.28595E+01 2.97461E+01 0.00000E+00
 -1      2169 9.23211E+01 2.90622E+01 0.00000E+00
 -1      2170 9.42048E+01 3.11015E+01 0.00000E+00
 -1      2171 9.35213E+01 3.05400E+01 0.00000E+00
 -1      2172 9.58435E+01 3.21627E+01 0.00000E+00
 -1      2173 9.50449E+01 3.17523E+01 0.00000E+00
 -1      2174 9.77226E+01 3.26348E+01 0.00000E+00
 -1      2175 9.68873E+01 3.24523E+01 0.00000E+00
 -1      2176 9.94381E+01 3.28844E+01 0.00000E+00
 -1      2177 9.85803E+01 3.27596E+01 0.00000E+00
 -1      2178 9.79975E+01 3.34243E+01 0.00000E+00
 -1      2179 1.01471E+02 3.26922E+01 0.00000E+00
 -1      2180 1.00638E+02 3.29041E+01 0.00000E+00
 -1      2181 1.03051E+02 3.19738E+01 0.00000E+00
 -1      2182 1.02293E+02 3.22594E+01 0.00000E+00
 -1      2183 1.04596E+02 3.11688E+01 0.00000E+00
 -1      2184 1.03910E+02 3.15964E+01 0.00000E+00
 -1      2185 1.06016E+02 3.01544E+01 0.00000E+00
 -1      2186 1.05391E+02 3.06895E+01 0.00000E+00
 -1      2187 1.07187E+02 2.87683E+01 0.00000E+00
 -1      2188 1.06628E+02 2.94212E+01 0.00000E+00
 -1      2189 1.08069E+02 2.70053E+01 0.00000E+00
 -1      2190 1.07809E+02 2.78209E+01 0.00000E+00
 -1      2191 1.08355E+02 2.51601E+01 0.00000E+00
 -1      2192 1.08229E+02 2.59823E+01 0.00000E+00
 -1      2193 1.09121E+02 2.47803E+01 0.00000E+00
 -1      2194 1.03409E+02 1.59171E+01 0.00000E+00
 -1      2195 1.04147E+02 1.63590E+01 0.00000E+00
 -1      2196 1.06447E+02 1.72016E+01 0.00000E+00
 -1      2197 6.42300E+00 4.57510E+01 0.00000E+00
 -1      2198 1.04911E+02 1.61003E+01 0.00000E+00
 -1      2199 1.03155E+02 1.51456E+01 0.00000E+00
 -1      2200 7.17300E+00 4.44520E+01 0.00000E+00
 -1      2201 1.08803E+02 2.06904E+01 0.00000E+00
 -1      2202 1.09273E+02 2.28481E+01 0.00000E+00
 -1      2203 1.45665E+02 4.31193E+01 0.00000E+00
 -1      2204 1.07746E+02 1.87138E+01 0.00000E+00
 -1      2205 1.08836E+02 2.66255E+01 0.00000E+00
 -1      2206 1.08054E+02 2.85959E+01 0.00000E+00
 -1      2207 1.06819E+02 3.02765E+01 0.00000E+00
 -1      2208 1.05412E+02 3.14890E+01 0.00000E+00
 -1      2209 1.03759E+02 3.23457E+01 0.00000E+00
 -1      2210 1.00056E+02 3.35689E+01 0.00000E+00
 -1      2211 9.60960E+01 3.30099E+01 0.00000E+00
 -1      2212 9.42120E+01 3.20694E+01 0.00000E+00
 -1      2213 9.15410E+01 2.89031E+01 0.00000E+00
 -1      2214 9.00294E+01 2.51639E+01 0.00000E+00
 -1      2215 8.93094E+01 2.46240E+01 0.00000E+00
 -1      2216 8.96252E+01 2.58499E+01 0.00000E+00
 -1      2217 8.99767E+01 2.30211E+01 0.00000E+00
 -1      2218 9.03314E+01 2.10795E+01 0.00000E+00
 -1      2219 9.10517E+01 1.92502E+01 0.00000E+00
 -1      2220 9.22869E+01 1.77011E+01 0.00000E+00
 -1      2221 9.37649E+01 1.63157E+01 0.00000E+00
 -1      2222 9.54760E+01 1.53156E+01 0.00000E+00
 -1      2223 9.71961E+01 1.46078E+01 0.00000E+00
 -1      2224 1.01295E+02 1.45260E+01 0.00000E+00
 -1      2225 9.92344E+01 1.43012E+01 0.00000E+00
 -1      2226 9.27100E+01 3.06248E+01 0.00000E+00
 -1      2227 1.02078E+02 3.31558E+01 0.00000E+00
 -1      2228 1.07850E+01 5.30525E+00 0.00000E+00
 -1      2229 9.28500E+00 5.30525E+00 0.00000E+00
 -1      2230 6.49500E+00 3.01125E+01 0.00000E+00
 -1      2231 6.49500E+00 3.15875E+01 0.00000E+00
 -1      2232 6.49500E+00 3.30625E+01 0.00000E+00
 -1      2233 6.49500E+00 3.45375E+01 0.00000E+00
 -1      2234 7.79400E+00 3.23250E+01 0.00000E+00
 -1      2235 6.49500E+00 2.42125E+01 0.00000E+00
 -1      2236 6.49500E+00 2.56875E+01 0.00000E+00
 -1      2237 6.49500E+00 2.12625E+01 0.00000E+00
 -1      2238 6.49500E+00 2.27375E+01 0.00000E+00
 -1      2239 7.79400E+00 2.34750E+01 0.00000E+00
 -1      2240 6.49500E+00 1.83625E+01 0.00000E+00
 -1      2241 6.49500E+00 1.98125E+01 0.00000E+00
 -1      2242 7.79400E+00 2.05500E+01 0.00000E+00
 -1      2243 6.49500E+00 1.54125E+01 0.00000E+00
 -1      2244 6.49500E+00 1.68875E+01 0.00000E+00
 -1      2245 7.79400E+00 1.76250E+01 0.00000E+00
 -1      2246 6.49500E+00 1.24625E+01 0.00000E+00
 -1      2247 6.49500E+00 1.39375E+01 0.00000E+00
 -1      2248 7.79400E+00 1.46750E+01 0.00000E+00
 -1      2249 6.49500E+00 9.51250E+00 0.00000E+00
 -1      2250 6.49500E+00 1.09875E+01 0.00000E+00
 -1      2251 7.79400E+00 1.17250E+01 0.00000E+00
 -1      2252 1.37850E+01 5.30525E+00 0.00000E+00
 -1      2253 1.22850E+01 5.30525E+00 0.00000E+00
 -1      2254 1.15350E+01 6.60425E+00 0.00000E+00
 -1      2255 9.90000E+00 4.35050E+01 0.00000E+00
 -1      2256 1.14000E+01 4.35050E+01 0.00000E+00
 -1      2257 1.04932E+02 1.51919E+01 0.00000E+00
 -1      2258 1.05731E+02 1.57100E+01 0.00000E+00
 -1      2259 1.29000E+01 4.35050E+01 0.00000E+00
 -1      2260 1.44000E+01 4.35050E+01 0.00000E+00
 -1      2261 1.21500E+01 4.22060E+01 0.00000E+00
 -1      2262 1.59000E+01 4.35050E+01 0.00000E+00
 -1      2263 1.74000E+01 4.35050E+01 0.00000E+00
 -1      2264 1.51500E+01 4.22060E+01 0.00000E+00
 -1      2265 1.89000E+01 4.35050E+01 0.00000E+00
 -1      2266 2.04000E+01 4.35050E+01 0.00000E+00
 -1      2267 1.81500E+01 4.22060E+01 0.00000E+00
 -1      2268 2.19000E+01 4.35050E+01 0.00000E+00
 -1      2269 2.34000E+01 4.35050E+01 0.00000E+00
 -1      2270 2.11500E+01 4.22060E+01 0.00000E+00
 -1      2271 2.49000E+01 4.35050E+01 0.00000E+00
 -1      2272 2.64000E+01 4.35050E+01 0.00000E+00
 -1      2273 2.41500E+01 4.22060E+01 0.00000E+00
 -1      2274 2.79000E+01 4.35050E+01 0.00000E+00
 -1      2275 2.94000E+01 4.35050E+01 0.00000E+00
 -1      2276 2.71500E+01 4.22060E+01 0.00000E+00
 -1      2277 3.09000E+01 4.35050E+01 0.00000E+00
 -1      2278 3.24000E+01 4.35050E+01 0.00000E+00
 -1      2279 3.01500E+01 4.22060E+01 0.00000E+00
 -1      2280 3.39000E+01 4.35050E+01 0.00000E+00
 -1      2281 3.54000E+01 4.35050E+01 0.00000E+00
 -1      2282 3.31500E+01 4.22060E+01 0.00000E+00
 -1      2283 3.69000E+01 4.35050E+01 0.00000E+00
 -1      2284 3.84000E+01 4.35050E+01 0.00000E+00
 -1      2285 3.61500E+01 4.22060E+01 0.00000E+00
 -1      2286 3.99000E+01 4.35050E+01 0.00000E+00
 -1      2287 4.14000E+01 4.35050E+01 0.00000E+00
 -1      2288 3.91500E+01 4.22060E+01 0.00000E+00
 -1      2289 4.29000E+01 4.35050E+01 0.00000E+00
 -1      2290 4.44000E+01 4.35050E+01 0.00000E+00
 -1      2291 4.21500E+01 4.22060E+01 0.00000E+00
 -1      2292 4.59000E+01 4.35050E+01 0.00000E+00
 -1      2293 4.74000E+01 4.35050E+01 0.00000E+00
 -1      2294 4.51500E+01 4.22060E+01 0.00000E+00
 -1      2295 4.89000E+01 4.35050E+01 0.00000E+00
 -1      2296 5.04000E+01 4.35050E+01 0.00000E+00
 -1      2297 4.81500E+01 4.22060E+01 0.00000E+00
 -1      2298 5.19000E+01 4.35050E+01 0.00000E+00
 -1      2299 5.34000E+01 4.35050E+01 0.00000E+00
 -1      2300 5.11500E+01 4.22060E+01 0.00000E+00
 -1      2301 5.49000E+01 4.35050E+01 0.00000E+00
 -1      2302 5.64000E+01 4.35050E+01 0.00000E+00
 -1      2303 5.41500E+01 4.22060E+01 0.00000E+00
 -1      2304 5.79000E+01 4.35050E+01 0.00000E+00
 -1      2305 5.94000E+01 4.35050E+01 0.00000E+00
 -1      2306 5.71500E+01 4.22060E+01 0.00000E+00
 -1      2307 6.09000E+01 4.35050E+01 0.00000E+00
 -1      2308 6.24000E+01 4.35050E+01 0.00000E+00
 -1      2309 6.01500E+01 4.22060E+01 0.00000E+00
 -1      2310 6.39000E+01 4.35050E+01 0.00000E+00
 -1      2311 6.54000E+01 4.35050E+01 0.00000E+00
 -1      2312 6.31500E+01 4.22060E+01 0.00000E+00
 -1      2313 6.69000E+01 4.35050E+01 0.00000E+00
 -1      2314 6.84000E+01 4.35050E+01 0.00000E+00
 -1      2315 6.61500E+01 4.22060E+01 0.00000E+00
 -1      2316 6.99000E+01 4.35050E+01 0.00000E+00
 -1      2317 7.14000E+01 4.35050E+01 0.00000E+00
 -1      2318 6.91500E+01 4.22060E+01 0.00000E+00
 -1      2319 7.29000E+01 4.35050E+01 0.00000E+00
 -1      2320 7.44000E+01 4.35050E+01 0.00000E+00
 -1      2321 7.21500E+01 4.22060E+01 0.00000E+00
 -1      2322 7.59000E+01 4.35050E+01 0.00000E+00
 -1      2323 7.74000E+01 4.35050E+01 0.00000E+00
 -1      2324 7.51500E+01 4.22060E+01 0.00000E+00
 -1      2325 7.89000E+01 4.35050E+01 0.00000E+00
 -1      2326 8.04000E+01 4.35050E+01 0.00000E+00
 -1      2327 7.81500E+01 4.22060E+01 0.00000E+00
 -1      2328 8.19000E+01 4.35050E+01 0.00000E+00
 -1      2329 8.34000E+01 4.35050E+01 0.00000E+00
 -1      2330 8.11500E+01 4.22060E+01 0.00000E+00
 -1      2331 8.49000E+01 4.35050E+01 0.00000E+00
 -1      2332 8.64000E+01 4.35050E+01 0.00000E+00
 -1      2333 8.41500E+01 4.22060E+01 0.00000E+00
 -1      2334 8.79000E+01 4.35050E+01 0.00000E+00
 -1      2335 8.94000E+01 4.35050E+01 0.00000E+00
 -1      2336 8.71500E+01 4.22060E+01 0.00000E+00
 -1      2337 9.09000E+01 4.35050E+01 0.00000E+00
 -1      2338 9.24000E+01 4.35050E+01 0.00000E+00
 -1      2339 9.01500E+01 4.22060E+01 0.00000E+00
 -1      2340 9.39000E+01 4.35050E+01 0.00000E+00
 -1      2341 9.54000E+01 4.35050E+01 0.00000E+00
 -1      2342 9.31500E+01 4.22060E+01 0.00000E+00
 -1      2343 9.69000E+01 4.35050E+01 0.00000E+00
 -1      2344 9.84000E+01 4.35050E+01 0.00000E+00
 -1      2345 9.61500E+01 4.22060E+01 0.00000E+00
 -1      2346 9.99000E+01 4.35050E+01 0.00000E+00
 -1      2347 1.01400E+02 4.35050E+01 0.00000E+00
 -1      2348 9.91500E+01 4.22060E+01 0.00000E+00
 -1      2349 1.02900E+02 4.35050E+01 0.00000E+00
 -1      2350 1.04400E+02 4.35050E+01 0.00000E+00
 -1      2351 1.02150E+02 4.22060E+01 0.00000E+00
 -1      2352 1.05900E+02 4.35050E+01 0.00000E+00
 -1      2353 1.07400E+02 4.35050E+01 0.00000E+00
 -1      2354 1.05150E+02 4.22060E+01 0.00000E+00
 -1      2355 1.08900E+02 4.35050E+01 0.00000E+00
 -1      2356 1.10400E+02 4.35050E+01 0.00000E+00
 -1      2357 1.08150E+02 4.22060E+01 0.00000E+00
 -1      2358 1.11900E+02 4.35050E+01 0.00000E+00
 -1      2359 1.13400E+02 4.35050E+01 0.00000E+00
 -1      2360 1.11150E+02 4.22060E+01 0.00000E+00
 -1      2361 1.14900E+02 4.35050E+01 0.00000E+00
 -1      2362 1.16400E+02 4.35050E+01 0.00000E+00
 -1      2363 1.14150E+02 4.22060E+01 0.00000E+00
 -1      2364 1.17900E+02 4.35050E+01 0.00000E+00
 -1      2365 1.19400E+02 4.35050E+01 0.00000E+00
 -1      2366 1.17150E+02 4.22060E+01 0.00000E+00
 -1      2367 1.20900E+02 4.35050E+01 0.00000E+00
 -1      2368 1.22400E+02 4.35050E+01 0.00000E+00
 -1      2369 1.20150E+02 4.22060E+01 0.00000E+00
 -1      2370 1.23900E+02 4.35050E+01 0.00000E+00
 -1      2371 1.25400E+02 4.35050E+01 0.00000E+00
 -1      2372 1.23150E+02 4.22060E+01 0.00000E+00
 -1      2373 1.26900E+02 4.35050E+01 0.00000E+00
 -1      2374 1.28400E+02 4.35050E+01 0.00000E+00
 -1      2375 1.26150E+02 4.22060E+01 0.00000E+00
 -1      2376 1.29900E+02 4.35050E+01 0.00000E+00
 -1      2377 1.31400E+02 4.35050E+01 0.00000E+00
 -1      2378 1.29150E+02 4.22060E+01 0.00000E+00
 -1      2379 1.32900E+02 4.35050E+01 0.00000E+00
 -1      2380 1.34400E+02 4.35050E+01 0.00000E+00
 -1      2381 1.32150E+02 4.22060E+01 0.00000E+00
 -1      2382 1.35900E+02 4.35050E+01 0.00000E+00
 -1      2383 1.37400E+02 4.35050E+01 0.00000E+00
 -1      2384 1.35150E+02 4.22060E+01 0.00000E+00
 -1      2385 1.38900E+02 4.35050E+01 0.00000E+00
 -1      2386 1.40400E+02 4.35050E+01 0.00000E+00
 -1      2387 1.38150E+02 4.22060E+01 0.00000E+00
 -1      2388 1.97850E+01 5.30525E+00 0.00000E+00
 -1      2389 1.82850E+01 5.30525E+00 0.00000E+00
 -1      2390 2.27850E+01 5.30525E+00 0.00000E+00
 -1      2391 2.12850E+01 5.30525E+00 0.00000E+00
 -1      2392 2.05350E+01 6.60425E+00 0.00000E+00
 -1      2393 2.57850E+01 5.30525E+00 0.00000E+00
 -1      2394 2.42850E+01 5.30525E+00 0.00000E+00
 -1      2395 2.35350E+01 6.60425E+00 0.00000E+00
 -1      2396 2.87850E+01 5.30525E+00 0.00000E+00
 -1      2397 2.72850E+01 5.30525E+00 0.00000E+00
 -1      2398 2.65350E+01 6.60425E+00 0.00000E+00
 -1      2399 3.17850E+01 5.30525E+00 0.00000E+00
 -1      2400 3.02850E+01 5.30525E+00 0.00000E+00
 -1      2401 2.95350E+01 6.60425E+00 0.00000E+00
 -1      2402 3.47850E+01 5.30525E+00 0.00000E+00
 -1      2403 3.32850E+01 5.30525E+00 0.00000E+00
 -1      2404 3.25350E+01 6.60425E+00 0.00000E+00
 -1      2405 3.77850E+01 5.30525E+00 0.00000E+00
 -1      2406 3.62850E+01 5.30525E+00 0.00000E+00
 -1      2407 3.55350E+01 6.60425E+00 0.00000E+00
 -1      2408 4.07850E+01 5.30525E+00 0.00000E+00
 -1      2409 3.92850E+01 5.30525E+00 0.00000E+00
 -1      2410 3.85350E+01 6.60425E+00 0.00000E+00
 -1      2411 4.37850E+01 5.30525E+00 0.00000E+00
 -1      2412 4.22850E+01 5.30525E+00 0.00000E+00
 -1      2413 4.15350E+01 6.60425E+00 0.00000E+00
 -1      2414 4.67850E+01 5.30525E+00 0.00000E+00
 -1      2415 4.52850E+01 5.30525E+00 0.00000E+00
 -1      2416 4.45350E+01 6.60425E+00 0.00000E+00
 -1      2417 4.97850E+01 5.30525E+00 0.00000E+00
 -1      2418 4.82850E+01 5.30525E+00 0.00000E+00
 -1      2419 4.75350E+01 6.60425E+00 0.00000E+00
 -1      2420 5.27850E+01 5.30525E+00 0.00000E+00
 -1      2421 5.12850E+01 5.30525E+00 0.00000E+00
 -1      2422 5.05350E+01 6.60425E+00 0.00000E+00
 -1      2423 5.57850E+01 5.30525E+00 0.00000E+00
 -1      2424 5.42850E+01 5.30525E+00 0.00000E+00
 -1      2425 5.35350E+01 6.60425E+00 0.00000E+00
 -1      2426 5.87850E+01 5.30525E+00 0.00000E+00
 -1      2427 5.72850E+01 5.30525E+00 0.00000E+00
 -1      2428 5.65350E+01 6.60425E+00 0.00000E+00
 -1      2429 6.17850E+01 5.30525E+00 0.00000E+00
 -1      2430 6.02850E+01 5.30525E+00 0.00000E+00
 -1      2431 5.95350E+01 6.60425E+00 0.00000E+00
 -1      2432 6.47850E+01 5.30525E+00 0.00000E+00
 -1      2433 6.32850E+01 5.30525E+00 0.00000E+00
 -1      2434 6.25350E+01 6.60425E+00 0.00000E+00
 -1      2435 6.77850E+01 5.30525E+00 0.00000E+00
 -1      2436 6.62850E+01 5.30525E+00 0.00000E+00
 -1      2437 6.55350E+01 6.60425E+00 0.00000E+00
 -1      2438 7.07850E+01 5.30525E+00 0.00000E+00
 -1      2439 6.92850E+01 5.30525E+00 0.00000E+00
 -1      2440 6.85350E+01 6.60425E+00 0.00000E+00
 -1      2441 7.37850E+01 5.30525E+00 0.00000E+00
 -1      2442 7.22850E+01 5.30525E+00 0.00000E+00
 -1      2443 7.15350E+01 6.60425E+00 0.00000E+00
 -1      2444 7.67850E+01 5.30525E+00 0.00000E+00
 -1      2445 7.52850E+01 5.30525E+00 0.00000E+00
 -1      2446 7.45350E+01 6.60425E+00 0.00000E+00
 -1      2447 7.97850E+01 5.30525E+00 0.00000E+00
 -1      2448 7.82850E+01 5.30525E+00 0.00000E+00
 -1      2449 7.75350E+01 6.60425E+00 0.00000E+00
 -1      2450 8.27850E+01 5.30525E+00 0.00000E+00
 -1      2451 8.12850E+01 5.30525E+00 0.00000E+00
 -1      2452 8.05350E+01 6.60425E+00 0.00000E+00
 -1      2453 8.57850E+01 5.30525E+00 0.00000E+00
 -1      2454 8.42850E+01 5.30525E+00 0.00000E+00
 -1      2455 8.35350E+01 6.60425E+00 0.00000E+00
 -1      2456 8.87850E+01 5.30525E+00 0.00000E+00
 -1      2457 8.72850E+01 5.30525E+00 0.00000E+00
 -1      2458 8.65350E+01 6.60425E+00 0.00000E+00
 -1      2459 9.17850E+01 5.30525E+00 0.00000E+00
 -1      2460 9.02850E+01 5.30525E+00 0.00000E+00
 -1      2461 8.95350E+01 6.60425E+00 0.00000E+00
 -1      2462 9.47850E+01 5.30525E+00 0.00000E+00
 -1      2463 9.32850E+01 5.30525E+00 0.00000E+00
 -1      2464 9.25350E+01 6.60425E+00 0.00000E+00
 -1      2465 9.77850E+01 5.30525E+00 0.00000E+00
 -1      2466 9.62850E+01 5.30525E+00 0.00000E+00
 -1      2467 9.55350E+01 6.60425E+00 0.00000E+00
 -1      2468 1.00785E+02 5.30525E+00 0.00000E+00
 -1      2469 9.92850E+01 5.30525E+00 0.00000E+00
 -1      2470 9.85350E+01 6.60425E+00 0.00000E+00
 -1      2471 1.03785E+02 5.30525E+00 0.00000E+00
 -1      2472 1.02285E+02 5.30525E+00 0.00000E+00
 -1      2473 1.01535E+02 6.60425E+00 0.00000E+00
 -1      2474 1.06785E+02 5.30525E+00 0.00000E+00
 -1      2475 1.05285E+02 5.30525E+00 0.00000E+00
 -1      2476 1.04535E+02 6.60425E+00 0.00000E+00
 -1      2477 1.09785E+02 5.30525E+00 0.00000E+00
 -1      2478 1.08285E+02 5.30525E+00 0.00000E+00
 -1      2479 1.07535E+02 6.60425E+00 0.00000E+00
 -1      2480 1.12785E+02 5.30525E+00 0.00000E+00
 -1      2481 1.11285E+02 5.30525E+00 0.00000E+00
 -1      2482 1.10535E+02 6.60425E+00 0.00000E+00
 -1      2483 1.15785E+02 5.30525E+00 0.00000E+00
 -1      2484 1.14285E+02 5.30525E+00 0.00000E+00
 -1      2485 1.13535E+02 6.60425E+00 0.00000E+00
 -1      2486 1.18785E+02 5.30525E+00 0.00000E+00
 -1      2487 1.17285E+02 5.30525E+00 0.00000E+00
 -1      2488 1.16535E+02 6.60425E+00 0.00000E+00
 -1      2489 1.21785E+02 5.30525E+00 0.00000E+00
 -1      2490 1.20285E+02 5.30525E+00 0.00000E+00
 -1      2491 1.19535E+02 6.60425E+00 0.00000E+00
 -1      2492 1.24785E+02 5.30525E+00 0.00000E+00
 -1      2493 1.23285E+02 5.30525E+00 0.00000E+00
 -1      2494 1.22535E+02 6.60425E+00 0.00000E+00
 -1      2495 1.27785E+02 5.30525E+00 0.00000E+00
 -1      2496 1.26285E+02 5.30525E+00 0.00000E+00
 -1      2497 1.25535E+02 6.60425E+00 0.00000E+00
 -1      2498 1.30785E+02 5.30525E+00 0.00000E+00
 -1      2499 1.29285E+02 5.30525E+00 0.00000E+00
 -1      2500 1.28535E+02 6.60425E+00 0.00000E+00
 -1      2501 1.33785E+02 5.30525E+00 0.00000E+00
 -1      2502 1.32285E+02 5.30525E+00 0.00000E+00
 -1      2503 1.31535E+02 6.60425E+00 0.00000E+00
 -1      2504 1.36785E+02 5.30525E+00 0.00000E+00
 -1      2505 1.35285E+02 5.30525E+00 0.00000E+00
 -1      2506 1.34535E+02 6.60425E+00 0.00000E+00
 -1      2507 1.39785E+02 5.30525E+00 0.00000E+00
 -1      2508 1.38285E+02 5.30525E+00 0.00000E+00
 -1      2509 1.37535E+02 6.60425E+00 0.00000E+00
 -1      2510 1.42785E+02 5.30525E+00 0.00000E+00
 -1      2511 1.41285E+02 5.30525E+00 0.00000E+00
 -1      2512 1.40535E+02 6.60425E+00 0.00000E+00
 -1      2513 1.44336E+02 5.26953E+00 0.00000E+00
 -1      2514 1.43505E+02 1.69125E+01 0.00000E+00
 -1      2515 1.43505E+02 1.54375E+01 0.00000E+00
 -1      2516 1.43505E+02 1.98625E+01 0.00000E+00
 -1      2517 1.43505E+02 1.83875E+01 0.00000E+00
 -1      2518 1.42206E+02 1.76500E+01 0.00000E+00
 -1      2519 1.43505E+02 1.10625E+01 0.00000E+00
 -1      2520 1.43505E+02 9.58750E+00 0.00000E+00
 -1      2521 1.43505E+02 1.39750E+01 0.00000E+00
 -1      2522 1.43505E+02 1.25250E+01 0.00000E+00
 -1      2523 1.42206E+02 1.17875E+01 0.00000E+00
 -1      2524 1.42206E+02 1.47125E+01 0.00000E+00
 -1      2525 1.43505E+02 2.28125E+01 0.00000E+00
 -1      2526 1.43505E+02 2.13375E+01 0.00000E+00
 -1      2527 1.42206E+02 2.06000E+01 0.00000E+00
 -1      2528 1.43505E+02 2.57625E+01 0.00000E+00
 -1      2529 1.43505E+02 2.42875E+01 0.00000E+00
 -1      2530 1.42206E+02 2.35500E+01 0.00000E+00
 -1      2531 1.43505E+02 2.87125E+01 0.00000E+00
 -1      2532 1.43505E+02 2.72375E+01 0.00000E+00
 -1      2533 1.42206E+02 2.65000E+01 0.00000E+00
 -1      2534 1.43505E+02 3.16125E+01 0.00000E+00
 -1      2535 1.43505E+02 3.01625E+01 0.00000E+00
 -1      2536 1.42206E+02 2.94250E+01 0.00000E+00
 -1      2537 1.43505E+02 3.45625E+01 0.00000E+00
 -1      2538 1.43505E+02 3.30875E+01 0.00000E+00
 -1      2539 1.42206E+02 3.23500E+01 0.00000E+00
 -1      2540 1.43505E+02 3.75125E+01 0.00000E+00
 -1      2541 1.43505E+02 3.60375E+01 0.00000E+00
 -1      2542 1.42206E+02 3.53000E+01 0.00000E+00
 -1      2543 1.43505E+02 4.04625E+01 0.00000E+00
 -1      2544 1.43505E+02 3.89875E+01 0.00000E+00
 -1      2545 1.42206E+02 3.82500E+01 0.00000E+00
 -1      2546 1.10102E+02 2.23120E+01 0.00000E+00
 -1      2547 1.10076E+02 2.34220E+01 0.00000E+00
 -1      2548 1.08199E+02 1.78055E+01 0.00000E+00
 -1      2549 1.08760E+02 1.87344E+01 0.00000E+00
 -1      2550 1.67850E+01 5.30525E+00 0.00000E+00
 -1      2551 1.52850E+01 5.30525E+00 0.00000E+00
 -1      2552 1.75350E+01 6.60425E+00 0.00000E+00
 -1      2553 1.03033E+02 1.41471E+01 0.00000E+00
 -1      2554 1.03989E+02 1.45837E+01 0.00000E+00
 -1      2555 1.44321E+02 4.30606E+01 0.00000E+00
 -1      2556 1.09763E+02 2.62460E+01 0.00000E+00
 -1      2557 1.09603E+02 2.72689E+01 0.00000E+00
 -1      2558 1.09256E+02 1.97821E+01 0.00000E+00
 -1      2559 1.09752E+02 2.08298E+01 0.00000E+00
 -1      2560 1.09709E+02 1.88738E+01 0.00000E+00
 -1      2561 1.09982E+02 2.44229E+01 0.00000E+00
 -1      2562 1.09856E+02 2.52451E+01 0.00000E+00
 -1      2563 1.10624E+02 2.58885E+01 0.00000E+00
 -1      2564 1.10811E+02 2.38868E+01 0.00000E+00
 -1      2565 9.63998E+01 3.39407E+01 0.00000E+00
 -1      2566 9.53560E+01 3.36510E+01 0.00000E+00
 -1      2567 6.49500E+00 2.71625E+01 0.00000E+00
 -1      2568 6.49500E+00 2.86375E+01 0.00000E+00
 -1      2569 7.79400E+00 2.93750E+01 0.00000E+00
 -1      2570 7.79400E+00 2.64250E+01 0.00000E+00
 -1      2571 9.86865E+01 1.34232E+01 0.00000E+00
 -1      2572 9.98444E+01 1.34651E+01 0.00000E+00
 -1      2573 9.24144E+01 3.15440E+01 0.00000E+00
 -1      2574 9.17526E+01 3.07502E+01 0.00000E+00
 -1      2575 1.00981E+02 1.37583E+01 0.00000E+00
 -1      2576 1.01884E+02 1.39413E+01 0.00000E+00
 -1      2577 9.64711E+01 1.40627E+01 0.00000E+00
 -1      2578 9.73514E+01 1.37141E+01 0.00000E+00
 -1      2579 9.47916E+01 1.47812E+01 0.00000E+00
 -1      2580 9.56313E+01 1.44219E+01 0.00000E+00
 -1      2581 9.57867E+01 1.35282E+01 0.00000E+00
 -1      2582 9.27715E+01 1.58777E+01 0.00000E+00
 -1      2583 9.36429E+01 1.52369E+01 0.00000E+00
 -1      2584 9.13188E+01 1.75317E+01 0.00000E+00
 -1      2585 9.19254E+01 1.67872E+01 0.00000E+00
 -1      2586 9.00615E+01 1.91408E+01 0.00000E+00
 -1      2587 9.06901E+01 1.83363E+01 0.00000E+00
 -1      2588 9.03286E+01 1.74223E+01 0.00000E+00
 -1      2589 8.94315E+01 2.15155E+01 0.00000E+00
 -1      2590 8.95231E+01 2.04908E+01 0.00000E+00
 -1      2591 8.89052E+01 2.33493E+01 0.00000E+00
 -1      2592 8.91684E+01 2.24324E+01 0.00000E+00
 -1      2593 8.83600E+01 2.18437E+01 0.00000E+00
 -1      2594 9.00751E+01 2.79206E+01 0.00000E+00
 -1      2595 8.97308E+01 2.71279E+01 0.00000E+00
 -1      2596 1.02869E+02 3.36613E+01 0.00000E+00
 -1      2597 1.02047E+02 3.40941E+01 0.00000E+00
 -1      2598 9.10894E+01 2.97762E+01 0.00000E+00
 -1      2599 9.05823E+01 2.88484E+01 0.00000E+00
 -1      2600 8.96235E+01 2.87937E+01 0.00000E+00
 -1      2601 9.41070E+01 3.30728E+01 0.00000E+00
 -1      2602 9.32668E+01 3.24219E+01 0.00000E+00
 -1      2603 9.83210E+01 3.42110E+01 0.00000E+00
 -1      2604 9.74633E+01 3.40862E+01 0.00000E+00
 -1      2605 1.00642E+02 3.44362E+01 0.00000E+00
 -1      2606 9.94413E+01 3.44164E+01 0.00000E+00
 -1      2607 1.04587E+02 3.29065E+01 0.00000E+00
 -1      2608 1.03728E+02 3.32839E+01 0.00000E+00
 -1      2609 1.03697E+02 3.42221E+01 0.00000E+00
 -1      2610 1.06175E+02 3.19479E+01 0.00000E+00
 -1      2611 1.05381E+02 3.24272E+01 0.00000E+00
 -1      2612 1.05349E+02 3.33654E+01 0.00000E+00
 -1      2613 1.07848E+02 3.05135E+01 0.00000E+00
 -1      2614 1.07235E+02 3.12467E+01 0.00000E+00
 -1      2615 1.09092E+02 2.86187E+01 0.00000E+00
 -1      2616 1.08470E+02 2.95661E+01 0.00000E+00
 -1      2617 1.08886E+02 3.05364E+01 0.00000E+00
 -1      2618 6.55950E+00 4.28890E+01 0.00000E+00
 -1      2619 8.53650E+00 4.32410E+01 0.00000E+00
 -1      2620 9.28650E+00 4.19420E+01 0.00000E+00
 -1      2621 6.55950E+00 4.14140E+01 0.00000E+00
 -1      2622 8.07525E+00 5.11044E+00 0.00000E+00
 -1      2623 6.57525E+00 5.11044E+00 0.00000E+00
 -1      2624 6.40575E+00 6.01981E+00 0.00000E+00
 -1      2625 8.82525E+00 6.40944E+00 0.00000E+00
 -1      2626 1.06611E+02 1.62377E+01 0.00000E+00
 -1      2627 1.07348E+02 1.68209E+01 0.00000E+00
 -1      2628 1.00433E+02 1.28804E+01 0.00000E+00
 -1      2629 7.79400E+00 3.52687E+01 0.00000E+00
 -1      2630 6.49500E+00 3.60062E+01 0.00000E+00
 -1      2631 6.49500E+00 3.74750E+01 0.00000E+00
 -1      2632 1.45350E+01 6.60425E+00 0.00000E+00
 -1      2633 6.40575E+00 7.49481E+00 0.00000E+00
 -1      2634 1.06632E+02 1.53292E+01 0.00000E+00
 -1      2635 1.10019E+02 2.82392E+01 0.00000E+00
 -1      2636 1.43586E+02 6.56853E+00 0.00000E+00
 -1      2637 1.08362E+02 1.68415E+01 0.00000E+00
 -1      2638 1.43419E+02 7.72713E+00 0.00000E+00
 -1      2639 9.44108E+01 3.40035E+01 0.00000E+00
 -1      2640 1.10554E+02 2.14037E+01 0.00000E+00
 -1      2641 1.11357E+02 2.19777E+01 0.00000E+00
 -1      2642 1.11007E+02 2.04954E+01 0.00000E+00
 -1      2643 1.07204E+02 3.21849E+01 0.00000E+00
 -1      2644 7.70475E+00 8.23231E+00 0.00000E+00
 -1      2645 1.02718E+02 1.33794E+01 0.00000E+00
 -1      2646 1.42758E+02 4.35929E+01 0.00000E+00
 -1      2647 1.43241E+02 4.17323E+01 0.00000E+00
 -1      2648 1.41942E+02 4.09948E+01 0.00000E+00
 -1      2649 1.41414E+02 4.35342E+01 0.00000E+00
 -1      2650 9.67233E+01 3.47273E+01 0.00000E+00
 -1      2651 1.01433E+02 3.49416E+01 0.00000E+00
 -1      2652 1.00818E+02 3.57892E+01 0.00000E+00
 -1      2653 1.02224E+02 3.54471E+01 0.00000E+00
 -1      2654 9.89071E+01 3.50783E+01 0.00000E+00
 -1      2655 9.07938E+01 3.06954E+01 0.00000E+00
 -1      2656 8.85011E+01 2.40353E+01 0.00000E+00
 -1      2657 8.76927E+01 2.34465E+01 0.00000E+00
 -1      2658 8.80969E+01 2.47212E+01 0.00000E+00
 -1      2659 8.91615E+01 1.95768E+01 0.00000E+00
 -1      2660 8.88000E+01 1.86629E+01 0.00000E+00
 -1      2661 8.82616E+01 2.00128E+01 0.00000E+00
 -1      2662 9.37982E+01 1.43432E+01 0.00000E+00
 -1      2663 8.90108E+01 2.65879E+01 0.00000E+00
 -1      2664 1.04810E+02 1.41935E+01 0.00000E+00
 -1      2665 9.23094E+01 3.25474E+01 0.00000E+00
 -1      2666 6.52725E+00 3.87101E+01 0.00000E+00
 -1      2667 6.52725E+00 4.01789E+01 0.00000E+00
 -1      2668 7.89075E+00 4.04429E+01 0.00000E+00
 -1      2669 7.82625E+00 3.79726E+01 0.00000E+00
 -1      2670 9.79614E+01 1.28781E+01 0.00000E+00
 -1      2671 9.18034E+01 1.57084E+01 0.00000E+00
 -1      2672 1.42120E+02 8.46463E+00 0.00000E+00
 -1      2673 1.40664E+02 4.22352E+01 0.00000E+00
 -1      2674 9.09300E+00 1.98250E+01 0.00000E+00
 -1      2675 9.09300E+00 2.12750E+01 0.00000E+00
 -1      2676 9.09300E+00 2.27500E+01 0.00000E+00
 -1      2677 9.09300E+00 2.42250E+01 0.00000E+00
 -1      2678 1.03920E+01 2.20250E+01 0.00000E+00
 -1      2679 9.09300E+00 1.39375E+01 0.00000E+00
 -1      2680 9.09300E+00 1.54125E+01 0.00000E+00
 -1      2681 9.09300E+00 1.09875E+01 0.00000E+00
 -1      2682 9.09300E+00 1.24625E+01 0.00000E+00
 -1      2683 1.03920E+01 1.32000E+01 0.00000E+00
 -1      2684 1.22850E+01 7.90325E+00 0.00000E+00
 -1      2685 1.07850E+01 7.90325E+00 0.00000E+00
 -1      2686 1.02310E+02 1.23499E+01 0.00000E+00
 -1      2687 1.03459E+02 1.25558E+01 0.00000E+00
 -1      2688 8.91450E+00 8.42712E+00 0.00000E+00
 -1      2689 1.11233E+02 2.79273E+01 0.00000E+00
 -1      2690 1.10722E+02 2.92771E+01 0.00000E+00
 -1      2691 1.44000E+01 4.09070E+01 0.00000E+00
 -1      2692 1.59000E+01 4.09070E+01 0.00000E+00
 -1      2693 1.74000E+01 4.09070E+01 0.00000E+00
 -1      2694 1.89000E+01 4.09070E+01 0.00000E+00
 -1      2695 1.66500E+01 3.96080E+01 0.00000E+00
 -1      2696 2.04000E+01 4.09070E+01 0.00000E+00
 -1      2697 2.19000E+01 4.09070E+01 0.00000E+00
 -1      2698 1.96500E+01 3.96080E+01 0.00000E+00
 -1      2699 2.34000E+01 4.09070E+01 0.00000E+00
 -1      2700 2.49000E+01 4.09070E+01 0.00000E+00
 -1      2701 2.26500E+01 3.96080E+01 0.00000E+00
 -1      2702 2.64000E+01 4.09070E+01 0.00000E+00
 -1      2703 2.79000E+01 4.09070E+01 0.00000E+00
 -1      2704 2.56500E+01 3.96080E+01 0.00000E+00
 -1      2705 2.94000E+01 4.09070E+01 0.00000E+00
 -1      2706 3.09000E+01 4.09070E+01 0.00000E+00
 -1      2707 2.86500E+01 3.96080E+01 0.00000E+00
 -1      2708 3.24000E+01 4.09070E+01 0.00000E+00
 -1      2709 3.39000E+01 4.09070E+01 0.00000E+00
 -1      2710 3.16500E+01 3.96080E+01 0.00000E+00
 -1      2711 3.54000E+01 4.09070E+01 0.00000E+00
 -1      2712 3.69000E+01 4.09070E+01 0.00000E+00
 -1      2713 3.46500E+01 3.96080E+01 0.00000E+00
 -1      2714 3.84000E+01 4.09070E+01 0.00000E+00
 -1      2715 3.99000E+01 4.09070E+01 0.00000E+00
 -1      2716 3.76500E+01 3.96080E+01 0.00000E+00
 -1      2717 4.14000E+01 4.09070E+01 0.00000E+00
 -1      2718 4.29000E+01 4.09070E+01 0.00000E+00
 -1      2719 4.06500E+01 3.96080E+01 0.00000E+00
 -1      2720 4.44000E+01 4.09070E+01 0.00000E+00
 -1      2721 4.59000E+01 4.09070E+01 0.00000E+00
 -1      2722 4.36500E+01 3.96080E+01 0.00000E+00
 -1      2723 4.74000E+01 4.09070E+01 0.00000E+00
 -1      2724 4.89000E+01 4.09070E+01 0.00000E+00
 -1      2725 4.66500E+01 3.96080E+01 0.00000E+00
 -1      2726 5.04000E+01 4.09070E+01 0.00000E+00
 -1      2727 5.19000E+01 4.09070E+01 0.00000E+00
 -1      2728 4.96500E+01 3.96080E+01 0.00000E+00
 -1      2729 5.34000E+01 4.09070E+01 0.00000E+00
 -1      2730 5.49000E+01 4.09070E+01 0.00000E+00
 -1      2731 5.26500E+01 3.96080E+01 0.00000E+00
 -1      2732 5.64000E+01 4.09070E+01 0.00000E+00
 -1      2733 5.79000E+01 4.09070E+01 0.00000E+00
 -1      2734 5.56500E+01 3.96080E+01 0.00000E+00
 -1      2735 5.94000E+01 4.09070E+01 0.00000E+00
 -1      2736 6.09000E+01 4.09070E+01 0.00000E+00
 -1      2737 5.86500E+01 3.96080E+01 0.00000E+00
 -1      2738 6.24000E+01 4.09070E+01 0.00000E+00
 -1      2739 6.39000E+01 4.09070E+01 0.00000E+00
 -1      2740 6.16500E+01 3.96080E+01 0.00000E+00
 -1      2741 6.54000E+01 4.09070E+01 0.00000E+00
 -1      2742 6.69000E+01 4.09070E+01 0.00000E+00
 -1      2743 6.46500E+01 3.96080E+01 0.00000E+00
 -1      2744 6.84000E+01 4.09070E+01 0.00000E+00
 -1      2745 6.99000E+01 4.09070E+01 0.00000E+00
 -1      2746 6.76500E+01 3.96080E+01 0.00000E+00
 -1      2747 7.14000E+01 4.09070E+01 0.00000E+00
 -1      2748 7.29000E+01 4.09070E+01 0.00000E+00
 -1      2749 7.06500E+01 3.96080E+01 0.00000E+00
 -1      2750 7.44000E+01 4.09070E+01 0.00000E+00
 -1      2751 7.59000E+01 4.09070E+01 0.00000E+00
 -1      2752 7.36500E+01 3.96080E+01 0.00000E+00
 -1      2753 7.74000E+01 4.09070E+01 0.00000E+00
 -1      2754 7.89000E+01 4.09070E+01 0.00000E+00
 -1      2755 7.66500E+01 3.96080E+01 0.00000E+00
 -1      2756 8.04000E+01 4.09070E+01 0.00000E+00
 -1      2757 8.19000E+01 4.09070E+01 0.00000E+00
 -1      2758 7.96500E+01 3.96080E+01 0.00000E+00
 -1      2759 8.34000E+01 4.09070E+01 0.00000E+00
 -1      2760 8.49000E+01 4.09070E+01 0.00000E+00
 -1      2761 8.26500E+01 3.96080E+01 0.00000E+00
 -1      2762 8.64000E+01 4.09070E+01 0.00000E+00
 -1      2763 8.79000E+01 4.09070E+01 0.00000E+00
 -1      2764 8.56500E+01 3.96080E+01 0.00000E+00
 -1      2765 8.94000E+01 4.09070E+01 0.00000E+00
 -1      2766 9.09000E+01 4.09070E+01 0.00000E+00
 -1      2767 8.86500E+01 3.96080E+01 0.00000E+00
 -1      2768 9.24000E+01 4.09070E+01 0.00000E+00
 -1      2769 9.39000E+01 4.09070E+01 0.00000E+00
 -1      2770 9.16500E+01 3.96080E+01 0.00000E+00
 -1      2771 9.54000E+01 4.09070E+01 0.00000E+00
 -1      2772 9.69000E+01 4.09070E+01 0.00000E+00
 -1      2773 9.46500E+01 3.96080E+01 0.00000E+00
 -1      2774 9.84000E+01 4.09070E+01 0.00000E+00
 -1      2775 9.99000E+01 4.09070E+01 0.00000E+00
 -1      2776 9.76500E+01 3.96080E+01 0.00000E+00
 -1      2777 1.01400E+02 4.09070E+01 0.00000E+00
 -1      2778 1.02900E+02 4.09070E+01 0.00000E+00
 -1      2779 1.00650E+02 3.96080E+01 0.00000E+00
 -1      2780 1.04400E+02 4.09070E+01 0.00000E+00
 -1      2781 1.05900E+02 4.09070E+01 0.00000E+00
 -1      2782 1.03650E+02 3.96080E+01 0.00000E+00
 -1      2783 1.07400E+02 4.09070E+01 0.00000E+00
 -1      2784 1.08900E+02 4.09070E+01 0.00000E+00
 -1      2785 1.06650E+02 3.96080E+01 0.00000E+00
 -1      2786 1.10400E+02 4.09070E+01 0.00000E+00
 -1      2787 1.11900E+02 4.09070E+01 0.00000E+00
 -1      2788 1.09650E+02 3.96080E+01 0.00000E+00
 -1      2789 1.13400E+02 4.09070E+01 0.00000E+00
 -1      2790 1.14900E+02 4.09070E+01 0.00000E+00
 -1      2791 1.12650E+02 3.96080E+01 0.00000E+00
 -1      2792 1.16400E+02 4.09070E+01 0.00000E+00
 -1      2793 1.17900E+02 4.09070E+01 0.00000E+00
 -1      2794 1.15650E+02 3.96080E+01 0.00000E+00
 -1      2795 1.19400E+02 4.09070E+01 0.00000E+00
 -1      2796 1.20900E+02 4.09070E+01 0.00000E+00
 -1      2797 1.18650E+02 3.96080E+01 0.00000E+00
 -1      2798 1.22400E+02 4.09070E+01 0.00000E+00
 -1      2799 1.23900E+02 4.09070E+01 0.00000E+00
 -1      2800 1.21650E+02 3.96080E+01 0.00000E+00
 -1      2801 1.25400E+02 4.09070E+01 0.00000E+00
 -1      2802 1.26900E+02 4.09070E+01 0.00000E+00
 -1      2803 1.24650E+02 3.96080E+01 0.00000E+00
 -1      2804 1.28400E+02 4.09070E+01 0.00000E+00
 -1      2805 1.29900E+02 4.09070E+01 0.00000E+00
 -1      2806 1.27650E+02 3.96080E+01 0.00000E+00
 -1      2807 1.31400E+02 4.09070E+01 0.00000E+00
 -1      2808 1.32900E+02 4.09070E+01 0.00000E+00
 -1      2809 1.30650E+02 3.96080E+01 0.00000E+00
 -1      2810 1.34400E+02 4.09070E+01 0.00000E+00
 -1      2811 1.35900E+02 4.09070E+01 0.00000E+00
 -1      2812 1.33650E+02 3.96080E+01 0.00000E+00
 -1      2813 1.37400E+02 4.09070E+01 0.00000E+00
 -1      2814 1.38900E+02 4.09070E+01 0.00000E+00
 -1      2815 1.36650E+02 3.96080E+01 0.00000E+00
 -1      2816 2.42850E+01 7.90325E+00 0.00000E+00
 -1      2817 2.27850E+01 7.90325E+00 0.00000E+00
 -1      2818 9.71388E+01 3.56497E+01 0.00000E+00
 -1      2819 9.60753E+01 3.55042E+01 0.00000E+00
 -1      2820 2.12850E+01 7.90325E+00 0.00000E+00
 -1      2821 1.97850E+01 7.90325E+00 0.00000E+00
 -1      2822 2.20350E+01 9.20225E+00 0.00000E+00
 -1      2823 3.02850E+01 7.90325E+00 0.00000E+00
 -1      2824 2.87850E+01 7.90325E+00 0.00000E+00
 -1      2825 3.32850E+01 7.90325E+00 0.00000E+00
 -1      2826 3.17850E+01 7.90325E+00 0.00000E+00
 -1      2827 3.10350E+01 9.20225E+00 0.00000E+00
 -1      2828 3.62850E+01 7.90325E+00 0.00000E+00
 -1      2829 3.47850E+01 7.90325E+00 0.00000E+00
 -1      2830 3.40350E+01 9.20225E+00 0.00000E+00
 -1      2831 3.92850E+01 7.90325E+00 0.00000E+00
 -1      2832 3.77850E+01 7.90325E+00 0.00000E+00
 -1      2833 3.70350E+01 9.20225E+00 0.00000E+00
 -1      2834 4.22850E+01 7.90325E+00 0.00000E+00
 -1      2835 4.07850E+01 7.90325E+00 0.00000E+00
 -1      2836 4.00350E+01 9.20225E+00 0.00000E+00
 -1      2837 4.52850E+01 7.90325E+00 0.00000E+00
 -1      2838 4.37850E+01 7.90325E+00 0.00000E+00
 -1      2839 4.30350E+01 9.20225E+00 0.00000E+00
 -1      2840 4.82850E+01 7.90325E+00 0.00000E+00
 -1      2841 4.67850E+01 7.90325E+00 0.00000E+00
 -1      2842 4.60350E+01 9.20225E+00 0.00000E+00
 -1      2843 5.12850E+01 7.90325E+00 0.00000E+00
 -1      2844 4.97850E+01 7.90325E+00 0.00000E+00
 -1      2845 4.90350E+01 9.20225E+00 0.00000E+00
 -1      2846 5.42850E+01 7.90325E+00 0.00000E+00
 -1      2847 5.27850E+01 7.90325E+00 0.00000E+00
 -1      2848 5.20350E+01 9.20225E+00 0.00000E+00
 -1      2849 5.72850E+01 7.90325E+00 0.00000E+00
 -1      2850 5.57850E+01 7.90325E+00 0.00000E+00
 -1      2851 5.50350E+01 9.20225E+00 0.00000E+00
 -1      2852 6.02850E+01 7.90325E+00 0.00000E+00
 -1      2853 5.87850E+01 7.90325E+00 0.00000E+00
 -1      2854 5.80350E+01 9.20225E+00 0.00000E+00
 -1      2855 6.32850E+01 7.90325E+00 0.00000E+00
 -1      2856 6.17850E+01 7.90325E+00 0.00000E+00
 -1      2857 6.10350E+01 9.20225E+00 0.00000E+00
 -1      2858 6.62850E+01 7.90325E+00 0.00000E+00
 -1      2859 6.47850E+01 7.90325E+00 0.00000E+00
 -1      2860 6.40350E+01 9.20225E+00 0.00000E+00
 -1      2861 6.92850E+01 7.90325E+00 0.00000E+00
 -1      2862 6.77850E+01 7.90325E+00 0.00000E+00
 -1      2863 6.70350E+01 9.20225E+00 0.00000E+00
 -1      2864 7.22850E+01 7.90325E+00 0.00000E+00
 -1      2865 7.07850E+01 7.90325E+00 0.00000E+00
 -1      2866 7.00350E+01 9.20225E+00 0.00000E+00
 -1      2867 7.52850E+01 7.90325E+00 0.00000E+00
 -1      2868 7.37850E+01 7.90325E+00 0.00000E+00
 -1      2869 7.30350E+01 9.20225E+00 0.00000E+00
 -1      2870 7.82850E+01 7.90325E+00 0.00000E+00
 -1      2871 7.67850E+01 7.90325E+00 0.00000E+00
 -1      2872 7.60350E+01 9.20225E+00 0.00000E+00
 -1      2873 8.12850E+01 7.90325E+00 0.00000E+00
 -1      2874 7.97850E+01 7.90325E+00 0.00000E+00
 -1      2875 7.90350E+01 9.20225E+00 0.00000E+00
 -1      2876 8.42850E+01 7.90325E+00 0.00000E+00
 -1      2877 8.27850E+01 7.90325E+00 0.00000E+00
 -1      2878 8.20350E+01 9.20225E+00 0.00000E+00
 -1      2879 8.72850E+01 7.90325E+00 0.00000E+00
 -1      2880 8.57850E+01 7.90325E+00 0.00000E+00
 -1      2881 8.50350E+01 9.20225E+00 0.00000E+00
 -1      2882 9.02850E+01 7.90325E+00 0.00000E+00
 -1      2883 8.87850E+01 7.90325E+00 0.00000E+00
 -1      2884 8.80350E+01 9.20225E+00 0.00000E+00
 -1      2885 9.32850E+01 7.90325E+00 0.00000E+00
 -1      2886 9.17850E+01 7.90325E+00 0.00000E+00
 -1      2887 9.10350E+01 9.20225E+00 0.00000E+00
 -1      2888 9.62850E+01 7.90325E+00 0.00000E+00
 -1      2889 9.47850E+01 7.90325E+00 0.00000E+00
 -1      2890 9.40350E+01 9.20225E+00 0.00000E+00
 -1      2891 9.92850E+01 7.90325E+00 0.00000E+00
 -1      2892 9.77850E+01 7.90325E+00 0.00000E+00
 -1      2893 9.70350E+01 9.20225E+00 0.00000E+00
 -1      2894 1.05285E+02 7.88073E+00 0.00000E+00
 -1      2895 1.03785E+02 7.88073E+00 0.00000E+00
 -1      2896 1.08285E+02 7.88073E+00 0.00000E+00
 -1      2897 1.06785E+02 7.88073E+00 0.00000E+00
 -1      2898 1.06035E+02 9.15722E+00 0.00000E+00
 -1      2899 1.11285E+02 7.88073E+00 0.00000E+00
 -1      2900 1.09785E+02 7.88073E+00 0.00000E+00
 -1      2901 1.09035E+02 9.15722E+00 0.00000E+00
 -1      2902 1.14285E+02 7.88073E+00 0.00000E+00
 -1      2903 1.12785E+02 7.88073E+00 0.00000E+00
 -1      2904 1.12035E+02 9.15722E+00 0.00000E+00
 -1      2905 1.17285E+02 7.88073E+00 0.00000E+00
 -1      2906 1.15785E+02 7.88073E+00 0.00000E+00
 -1      2907 1.15035E+02 9.15722E+00 0.00000E+00
 -1      2908 1.20285E+02 7.88073E+00 0.00000E+00
 -1      2909 1.18785E+02 7.88073E+00 0.00000E+00
 -1      2910 1.18035E+02 9.15722E+00 0.00000E+00
 -1      2911 1.23285E+02 7.88073E+00 0.00000E+00
 -1      2912 1.21785E+02 7.88073E+00 0.00000E+00
 -1      2913 1.21035E+02 9.15722E+00 0.00000E+00
 -1      2914 1.26285E+02 7.88073E+00 0.00000E+00
 -1      2915 1.24785E+02 7.88073E+00 0.00000E+00
 -1      2916 1.24035E+02 9.15722E+00 0.00000E+00
 -1      2917 1.29285E+02 7.88073E+00 0.00000E+00
 -1      2918 1.27785E+02 7.88073E+00 0.00000E+00
 -1      2919 1.27035E+02 9.15722E+00 0.00000E+00
 -1      2920 1.32285E+02 7.88073E+00 0.00000E+00
 -1      2921 1.30785E+02 7.88073E+00 0.00000E+00
 -1      2922 1.30035E+02 9.15722E+00 0.00000E+00
 -1      2923 1.35285E+02 7.88073E+00 0.00000E+00
 -1      2924 1.33785E+02 7.88073E+00 0.00000E+00
 -1      2925 1.33035E+02 9.15722E+00 0.00000E+00
 -1      2926 1.38285E+02 7.88073E+00 0.00000E+00
 -1      2927 1.36785E+02 7.88073E+00 0.00000E+00
 -1      2928 1.36035E+02 9.15722E+00 0.00000E+00
 -1      2929 1.40953E+02 8.17268E+00 0.00000E+00
 -1      2930 1.39453E+02 8.17268E+00 0.00000E+00
 -1      2931 1.38703E+02 9.44916E+00 0.00000E+00
 -1      2932 1.41038E+02 1.00331E+01 0.00000E+00
 -1      2933 1.08649E+02 1.57337E+01 0.00000E+00
 -1      2934 1.09500E+02 1.67183E+01 0.00000E+00
 -1      2935 1.40907E+02 2.42875E+01 0.00000E+00
 -1      2936 1.40907E+02 2.28125E+01 0.00000E+00
 -1      2937 1.39914E+02 4.09362E+01 0.00000E+00
 -1      2938 1.40928E+02 4.09655E+01 0.00000E+00
 -1      2939 1.39164E+02 3.96372E+01 0.00000E+00
 -1      2940 1.40907E+02 1.83875E+01 0.00000E+00
 -1      2941 1.40907E+02 1.69125E+01 0.00000E+00
 -1      2942 1.40907E+02 2.72375E+01 0.00000E+00
 -1      2943 1.40907E+02 2.57625E+01 0.00000E+00
 -1      2944 1.39608E+02 2.50250E+01 0.00000E+00
 -1      2945 1.40907E+02 2.13375E+01 0.00000E+00
 -1      2946 1.40907E+02 1.98625E+01 0.00000E+00
 -1      2947 1.39608E+02 1.91250E+01 0.00000E+00
 -1      2948 1.39608E+02 2.20750E+01 0.00000E+00
 -1      2949 1.40907E+02 3.01375E+01 0.00000E+00
 -1      2950 1.40907E+02 2.86875E+01 0.00000E+00
 -1      2951 1.39608E+02 2.79500E+01 0.00000E+00
 -1      2952 1.40907E+02 3.30875E+01 0.00000E+00
 -1      2953 1.40907E+02 3.16125E+01 0.00000E+00
 -1      2954 1.39608E+02 3.08750E+01 0.00000E+00
 -1      2955 1.40907E+02 3.60375E+01 0.00000E+00
 -1      2956 1.40907E+02 3.45625E+01 0.00000E+00
 -1      2957 1.39608E+02 3.38250E+01 0.00000E+00
 -1      2958 9.46398E+01 3.51469E+01 0.00000E+00
 -1      2959 9.33908E+01 3.45687E+01 0.00000E+00
 -1      2960 1.08392E+02 3.28291E+01 0.00000E+00
 -1      2961 1.07332E+02 3.35303E+01 0.00000E+00
 -1      2962 1.06537E+02 3.40096E+01 0.00000E+00
 -1      2963 1.05743E+02 3.44889E+01 0.00000E+00
 -1      2964 1.07725E+02 3.46538E+01 0.00000E+00
 -1      2965 9.28149E+01 1.35403E+01 0.00000E+00
 -1      2966 9.39636E+01 1.30846E+01 0.00000E+00
 -1      2967 8.81255E+01 2.73044E+01 0.00000E+00
 -1      2968 8.80199E+01 2.60264E+01 0.00000E+00
 -1      2969 9.71113E+01 1.21856E+01 0.00000E+00
 -1      2970 9.84464E+01 1.18947E+01 0.00000E+00
 -1      2971 1.10388E+02 1.79115E+01 0.00000E+00
 -1      2972 1.10883E+02 1.89592E+01 0.00000E+00
 -1      2973 1.82850E+01 7.90325E+00 0.00000E+00
 -1      2974 1.67850E+01 7.90325E+00 0.00000E+00
 -1      2975 1.90350E+01 9.20225E+00 0.00000E+00
 -1      2976 2.72850E+01 7.90325E+00 0.00000E+00
 -1      2977 2.57850E+01 7.90325E+00 0.00000E+00
 -1      2978 2.50350E+01 9.20225E+00 0.00000E+00
 -1      2979 2.80350E+01 9.20225E+00 0.00000E+00
 -1      2980 1.14000E+01 4.09070E+01 0.00000E+00
 -1      2981 1.29000E+01 4.09070E+01 0.00000E+00
 -1      2982 1.36500E+01 3.96080E+01 0.00000E+00
 -1      2983 1.52850E+01 7.90325E+00 0.00000E+00
 -1      2984 1.37850E+01 7.90325E+00 0.00000E+00
 -1      2985 1.30350E+01 9.20225E+00 0.00000E+00
 -1      2986 1.60350E+01 9.20225E+00 0.00000E+00
 -1      2987 1.06677E+02 1.42582E+01 0.00000E+00
 -1      2988 1.07556E+02 1.47858E+01 0.00000E+00
 -1      2989 9.09300E+00 1.68813E+01 0.00000E+00
 -1      2990 9.09300E+00 1.83563E+01 0.00000E+00
 -1      2991 1.03920E+01 1.90812E+01 0.00000E+00
 -1      2992 1.03920E+01 1.61437E+01 0.00000E+00
 -1      2993 9.09300E+00 3.15875E+01 0.00000E+00
 -1      2994 9.09300E+00 3.30625E+01 0.00000E+00
 -1      2995 1.41192E+02 3.96958E+01 0.00000E+00
 -1      2996 9.51176E+01 1.28147E+01 0.00000E+00
 -1      2997 9.59574E+01 1.24555E+01 0.00000E+00
 -1      2998 9.64423E+01 1.14721E+01 0.00000E+00
 -1      2999 9.41343E+01 1.20119E+01 0.00000E+00
 -1      3000 8.93385E+01 1.72966E+01 0.00000E+00
 -1      3001 8.99671E+01 1.64921E+01 0.00000E+00
 -1      3002 1.04791E+02 1.30419E+01 0.00000E+00
 -1      3003 1.05734E+02 1.36500E+01 0.00000E+00
 -1      3004 1.06658E+02 1.31066E+01 0.00000E+00
 -1      3005 8.73236E+01 2.20425E+01 0.00000E+00
 -1      3006 8.75867E+01 2.11256E+01 0.00000E+00
 -1      3007 9.93794E+01 3.60606E+01 0.00000E+00
 -1      3008 9.82591E+01 3.58552E+01 0.00000E+00
 -1      3009 9.76111E+01 3.66320E+01 0.00000E+00
 -1      3010 9.06911E+01 1.55219E+01 0.00000E+00
 -1      3011 9.15373E+01 1.46124E+01 0.00000E+00
 -1      3012 8.91246E+01 2.96689E+01 0.00000E+00
 -1      3013 8.86175E+01 2.87411E+01 0.00000E+00
 -1      3014 9.04166E+01 3.16651E+01 0.00000E+00
 -1      3015 8.97534E+01 3.06911E+01 0.00000E+00
 -1      3016 9.19399E+01 3.37588E+01 0.00000E+00
 -1      3017 9.10876E+01 3.28808E+01 0.00000E+00
 -1      3018 1.04885E+02 3.48663E+01 0.00000E+00
 -1      3019 1.04026E+02 3.52437E+01 0.00000E+00
 -1      3020 1.06073E+02 3.55105E+01 0.00000E+00
 -1      3021 8.96362E+00 4.05429E+01 0.00000E+00
 -1      3022 1.03271E+01 4.08069E+01 0.00000E+00
 -1      3023 1.10771E+01 3.95079E+01 0.00000E+00
 -1      3024 8.93137E+00 3.93078E+01 0.00000E+00
 -1      3025 1.10054E+02 3.06254E+01 0.00000E+00
 -1      3026 1.09432E+02 3.15728E+01 0.00000E+00
 -1      3027 1.00037E+02 1.17635E+01 0.00000E+00
 -1      3028 1.01173E+02 1.20567E+01 0.00000E+00
 -1      3029 1.01914E+02 1.12331E+01 0.00000E+00
 -1      3030 9.09300E+00 3.45313E+01 0.00000E+00
 -1      3031 9.09300E+00 3.60000E+01 0.00000E+00
 -1      3032 1.03920E+01 3.37938E+01 0.00000E+00
 -1      3033 1.03920E+01 2.49750E+01 0.00000E+00
 -1      3034 9.09300E+00 2.57000E+01 0.00000E+00
 -1      3035 9.09300E+00 2.71750E+01 0.00000E+00
 -1      3036 8.72252E+01 2.02116E+01 0.00000E+00
 -1      3037 1.04383E+02 1.20123E+01 0.00000E+00
 -1      3038 9.66450E+00 9.72612E+00 0.00000E+00
 -1      3039 1.11661E+02 2.68803E+01 0.00000E+00
 -1      3040 1.12364E+02 2.79182E+01 0.00000E+00
 -1      3041 1.39608E+02 1.61875E+01 0.00000E+00
 -1      3042 1.40907E+02 1.54500E+01 0.00000E+00
 -1      3043 1.40907E+02 1.39875E+01 0.00000E+00
 -1      3044 1.11268E+02 3.03135E+01 0.00000E+00
 -1      3045 9.50553E+01 3.60693E+01 0.00000E+00
 -1      3046 1.00406E+02 8.77207E+00 0.00000E+00
 -1      3047 9.96562E+01 1.00711E+01 0.00000E+00
 -1      3048 1.01906E+02 8.77207E+00 0.00000E+00
 -1      3049 1.08694E+02 1.46626E+01 0.00000E+00
 -1      3050 1.40973E+02 1.27415E+01 0.00000E+00
 -1      3051 1.40973E+02 1.12790E+01 0.00000E+00
 -1      3052 1.39805E+02 1.09871E+01 0.00000E+00
 -1      3053 1.39674E+02 1.34790E+01 0.00000E+00
 -1      3054 1.09560E+02 3.29182E+01 0.00000E+00
 -1      3055 9.21690E+01 3.49021E+01 0.00000E+00
 -1      3056 9.00471E+01 3.28765E+01 0.00000E+00
 -1      3057 1.41192E+02 3.82207E+01 0.00000E+00
 -1      3058 1.11686E+02 1.95331E+01 0.00000E+00
 -1      3059 1.12489E+02 2.01071E+01 0.00000E+00
 -1      3060 1.12365E+02 1.85709E+01 0.00000E+00
 -1      3061 1.11755E+02 2.58795E+01 0.00000E+00
 -1      3062 8.97011E+01 1.53961E+01 0.00000E+00
 -1      3063 1.10675E+02 1.68037E+01 0.00000E+00
 -1      3064 8.84386E+01 1.77326E+01 0.00000E+00
 -1      3065 8.80771E+01 1.68023E+01 0.00000E+00
 -1      3066 8.75386E+01 1.81686E+01 0.00000E+00
 -1      3067 8.76266E+01 2.81796E+01 0.00000E+00
 -1      3068 1.11942E+02 2.38778E+01 0.00000E+00
 -1      3069 1.11848E+02 2.48786E+01 0.00000E+00
 -1      3070 1.12886E+02 2.58704E+01 0.00000E+00
 -1      3071 8.72116E+01 2.54377E+01 0.00000E+00
 -1      3072 9.17027E+01 1.33538E+01 0.00000E+00
 -1      3073 9.09300E+00 2.86437E+01 0.00000E+00
 -1      3074 9.09300E+00 3.01187E+01 0.00000E+00
 -1      3075 1.03920E+01 3.08563E+01 0.00000E+00
 -1      3076 1.03920E+01 2.79188E+01 0.00000E+00
 -1      3077 8.87474E+01 3.06385E+01 0.00000E+00
 -1      3078 1.00170E+02 3.65661E+01 0.00000E+00
 -1      3079 8.65153E+01 2.34144E+01 0.00000E+00
 -1      3080 8.69195E+01 2.27284E+01 0.00000E+00
 -1      3081 8.61462E+01 2.20103E+01 0.00000E+00
 -1      3082 1.09635E+01 1.04636E+01 0.00000E+00
 -1      3083 1.12847E+02 2.20612E+01 0.00000E+00
 -1      3084 1.12394E+02 2.29695E+01 0.00000E+00
 -1      3085 1.13432E+02 2.39613E+01 0.00000E+00
 -1      3086 1.39529E+02 3.85602E+01 0.00000E+00
 -1      3087 1.40542E+02 3.71145E+01 0.00000E+00
 -1      3088 1.39243E+02 3.63770E+01 0.00000E+00
 -1      3089 1.38514E+02 3.85310E+01 0.00000E+00
 -1      3090 1.03412E+02 3.60913E+01 0.00000E+00
 -1      3091 1.13527E+02 2.77825E+01 0.00000E+00
 -1      3092 1.13100E+02 2.88294E+01 0.00000E+00
 -1      3093 1.16910E+01 1.24625E+01 0.00000E+00
 -1      3094 1.16910E+01 1.39375E+01 0.00000E+00
 -1      3095 8.85175E+01 1.52682E+01 0.00000E+00
 -1      3096 8.92415E+01 1.42979E+01 0.00000E+00
 -1      3097 1.11080E+02 3.31184E+01 0.00000E+00
 -1      3098 1.10040E+02 3.43747E+01 0.00000E+00
 -1      3099 1.29000E+01 3.83090E+01 0.00000E+00
 -1      3100 1.44000E+01 3.83090E+01 0.00000E+00
 -1      3101 8.82600E+01 3.16428E+01 0.00000E+00
 -1      3102 8.76312E+01 3.06206E+01 0.00000E+00
 -1      3103 1.89000E+01 3.83090E+01 0.00000E+00
 -1      3104 2.04000E+01 3.83090E+01 0.00000E+00
 -1      3105 2.19000E+01 3.83090E+01 0.00000E+00
 -1      3106 2.34000E+01 3.83090E+01 0.00000E+00
 -1      3107 2.11500E+01 3.70100E+01 0.00000E+00
 -1      3108 2.49000E+01 3.83090E+01 0.00000E+00
 -1      3109 2.64000E+01 3.83090E+01 0.00000E+00
 -1      3110 2.41500E+01 3.70100E+01 0.00000E+00
 -1      3111 2.79000E+01 3.83090E+01 0.00000E+00
 -1      3112 2.94000E+01 3.83090E+01 0.00000E+00
 -1      3113 2.71500E+01 3.70100E+01 0.00000E+00
 -1      3114 3.09000E+01 3.83090E+01 0.00000E+00
 -1      3115 3.24000E+01 3.83090E+01 0.00000E+00
 -1      3116 3.01500E+01 3.70100E+01 0.00000E+00
 -1      3117 3.39000E+01 3.83090E+01 0.00000E+00
 -1      3118 3.54000E+01 3.83090E+01 0.00000E+00
 -1      3119 3.31500E+01 3.70100E+01 0.00000E+00
 -1      3120 3.69000E+01 3.83090E+01 0.00000E+00
 -1      3121 3.84000E+01 3.83090E+01 0.00000E+00
 -1      3122 3.61500E+01 3.70100E+01 0.00000E+00
 -1      3123 3.99000E+01 3.83090E+01 0.00000E+00
 -1      3124 4.14000E+01 3.83090E+01 0.00000E+00
 -1      3125 3.91500E+01 3.70100E+01 0.00000E+00
 -1      3126 4.29000E+01 3.83090E+01 0.00000E+00
 -1      3127 4.44000E+01 3.83090E+01 0.00000E+00
 -1      3128 4.21500E+01 3.70100E+01 0.00000E+00
 -1      3129 4.59000E+01 3.83090E+01 0.00000E+00
 -1      3130 4.74000E+01 3.83090E+01 0.00000E+00
 -1      3131 4.51500E+01 3.70100E+01 0.00000E+00
 -1      3132 4.89000E+01 3.83090E+01 0.00000E+00
 -1      3133 5.04000E+01 3.83090E+01 0.00000E+00
 -1      3134 4.81500E+01 3.70100E+01 0.00000E+00
 -1      3135 5.19000E+01 3.83090E+01 0.00000E+00
 -1      3136 5.34000E+01 3.83090E+01 0.00000E+00
 -1      3137 5.11500E+01 3.70100E+01 0.00000E+00
 -1      3138 5.49000E+01 3.83090E+01 0.00000E+00
 -1      3139 5.64000E+01 3.83090E+01 0.00000E+00
 -1      3140 5.41500E+01 3.70100E+01 0.00000E+00
 -1      3141 5.79000E+01 3.83090E+01 0.00000E+00
 -1      3142 5.94000E+01 3.83090E+01 0.00000E+00
 -1      3143 5.71500E+01 3.70100E+01 0.00000E+00
 -1      3144 6.09000E+01 3.83090E+01 0.00000E+00
 -1      3145 6.24000E+01 3.83090E+01 0.00000E+00
 -1      3146 6.01500E+01 3.70100E+01 0.00000E+00
 -1      3147 6.39000E+01 3.83090E+01 0.00000E+00
 -1      3148 6.54000E+01 3.83090E+01 0.00000E+00
 -1      3149 6.31500E+01 3.70100E+01 0.00000E+00
 -1      3150 6.69000E+01 3.83090E+01 0.00000E+00
 -1      3151 6.84000E+01 3.83090E+01 0.00000E+00
 -1      3152 6.61500E+01 3.70100E+01 0.00000E+00
 -1      3153 6.99000E+01 3.83090E+01 0.00000E+00
 -1      3154 7.14000E+01 3.83090E+01 0.00000E+00
 -1      3155 6.91500E+01 3.70100E+01 0.00000E+00
 -1      3156 7.29000E+01 3.83090E+01 0.00000E+00
 -1      3157 7.44000E+01 3.83090E+01 0.00000E+00
 -1      3158 7.21500E+01 3.70100E+01 0.00000E+00
 -1      3159 7.59000E+01 3.83090E+01 0.00000E+00
 -1      3160 7.74000E+01 3.83090E+01 0.00000E+00
 -1      3161 7.51500E+01 3.70100E+01 0.00000E+00
 -1      3162 7.89000E+01 3.83090E+01 0.00000E+00
 -1      3163 8.04000E+01 3.83090E+01 0.00000E+00
 -1      3164 7.81500E+01 3.70100E+01 0.00000E+00
 -1      3165 8.19000E+01 3.83090E+01 0.00000E+00
 -1      3166 8.34000E+01 3.83090E+01 0.00000E+00
 -1      3167 8.11500E+01 3.70100E+01 0.00000E+00
 -1      3168 8.49000E+01 3.83090E+01 0.00000E+00
 -1      3169 8.64000E+01 3.83090E+01 0.00000E+00
 -1      3170 8.41500E+01 3.70100E+01 0.00000E+00
 -1      3171 8.79000E+01 3.83090E+01 0.00000E+00
 -1      3172 8.94000E+01 3.83090E+01 0.00000E+00
 -1      3173 8.71500E+01 3.70100E+01 0.00000E+00
 -1      3174 9.33849E+01 3.76600E+01 0.00000E+00
 -1      3175 9.48849E+01 3.76600E+01 0.00000E+00
 -1      3176 9.74407E+01 3.82227E+01 0.00000E+00
 -1      3177 9.89407E+01 3.82227E+01 0.00000E+00
 -1      3178 1.00380E+02 3.79513E+01 0.00000E+00
 -1      3179 1.01880E+02 3.79513E+01 0.00000E+00
 -1      3180 1.03682E+02 3.77480E+01 0.00000E+00
 -1      3181 1.05182E+02 3.77480E+01 0.00000E+00
 -1      3182 1.06682E+02 3.77480E+01 0.00000E+00
 -1      3183 1.08900E+02 3.83090E+01 0.00000E+00
 -1      3184 1.10400E+02 3.83090E+01 0.00000E+00
 -1      3185 1.14900E+02 3.83090E+01 0.00000E+00
 -1      3186 1.16400E+02 3.83090E+01 0.00000E+00
 -1      3187 1.17900E+02 3.83090E+01 0.00000E+00
 -1      3188 1.19400E+02 3.83090E+01 0.00000E+00
 -1      3189 1.17150E+02 3.70100E+01 0.00000E+00
 -1      3190 1.20900E+02 3.83090E+01 0.00000E+00
 -1      3191 1.22400E+02 3.83090E+01 0.00000E+00
 -1      3192 1.20150E+02 3.70100E+01 0.00000E+00
 -1      3193 1.23900E+02 3.83090E+01 0.00000E+00
 -1      3194 1.25400E+02 3.83090E+01 0.00000E+00
 -1      3195 1.23150E+02 3.70100E+01 0.00000E+00
 -1      3196 1.26900E+02 3.83090E+01 0.00000E+00
 -1      3197 1.28400E+02 3.83090E+01 0.00000E+00
 -1      3198 1.26150E+02 3.70100E+01 0.00000E+00
 -1      3199 1.29900E+02 3.83090E+01 0.00000E+00
 -1      3200 1.31400E+02 3.83090E+01 0.00000E+00
 -1      3201 1.29150E+02 3.70100E+01 0.00000E+00
 -1      3202 1.32900E+02 3.83090E+01 0.00000E+00
 -1      3203 1.34400E+02 3.83090E+01 0.00000E+00
 -1      3204 1.32150E+02 3.70100E+01 0.00000E+00
 -1      3205 1.35707E+02 3.84200E+01 0.00000E+00
 -1      3206 1.37207E+02 3.84200E+01 0.00000E+00
 -1      3207 1.37572E+02 3.73430E+01 0.00000E+00
 -1      3208 1.34957E+02 3.71210E+01 0.00000E+00
 -1      3209 1.08928E+02 1.32876E+01 0.00000E+00
 -1      3210 1.10022E+02 1.42354E+01 0.00000E+00
 -1      3211 3.47850E+01 1.05013E+01 0.00000E+00
 -1      3212 3.32850E+01 1.05013E+01 0.00000E+00
 -1      3213 3.17850E+01 1.05013E+01 0.00000E+00
 -1      3214 3.02850E+01 1.05013E+01 0.00000E+00
 -1      3215 3.25350E+01 1.18003E+01 0.00000E+00
 -1      3216 4.07850E+01 1.05013E+01 0.00000E+00
 -1      3217 3.92850E+01 1.05013E+01 0.00000E+00
 -1      3218 4.37850E+01 1.05013E+01 0.00000E+00
 -1      3219 4.22850E+01 1.05013E+01 0.00000E+00
 -1      3220 4.15350E+01 1.18003E+01 0.00000E+00
 -1      3221 4.67850E+01 1.05013E+01 0.00000E+00
 -1      3222 4.52850E+01 1.05013E+01 0.00000E+00
 -1      3223 4.45350E+01 1.18003E+01 0.00000E+00
 -1      3224 4.97850E+01 1.05013E+01 0.00000E+00
 -1      3225 4.82850E+01 1.05013E+01 0.00000E+00
 -1      3226 4.75350E+01 1.18003E+01 0.00000E+00
 -1      3227 5.27850E+01 1.05013E+01 0.00000E+00
 -1      3228 5.12850E+01 1.05013E+01 0.00000E+00
 -1      3229 5.05350E+01 1.18003E+01 0.00000E+00
 -1      3230 5.57850E+01 1.05013E+01 0.00000E+00
 -1      3231 5.42850E+01 1.05013E+01 0.00000E+00
 -1      3232 5.35350E+01 1.18003E+01 0.00000E+00
 -1      3233 5.87850E+01 1.05013E+01 0.00000E+00
 -1      3234 5.72850E+01 1.05013E+01 0.00000E+00
 -1      3235 5.65350E+01 1.18003E+01 0.00000E+00
 -1      3236 6.17850E+01 1.05013E+01 0.00000E+00
 -1      3237 6.02850E+01 1.05013E+01 0.00000E+00
 -1      3238 5.95350E+01 1.18003E+01 0.00000E+00
 -1      3239 6.47850E+01 1.05013E+01 0.00000E+00
 -1      3240 6.32850E+01 1.05013E+01 0.00000E+00
 -1      3241 6.25350E+01 1.18003E+01 0.00000E+00
 -1      3242 6.77850E+01 1.05013E+01 0.00000E+00
 -1      3243 6.62850E+01 1.05013E+01 0.00000E+00
 -1      3244 6.55350E+01 1.18003E+01 0.00000E+00
 -1      3245 7.07850E+01 1.05013E+01 0.00000E+00
 -1      3246 6.92850E+01 1.05013E+01 0.00000E+00
 -1      3247 6.85350E+01 1.18003E+01 0.00000E+00
 -1      3248 7.37850E+01 1.05013E+01 0.00000E+00
 -1      3249 7.22850E+01 1.05013E+01 0.00000E+00
 -1      3250 7.15350E+01 1.18003E+01 0.00000E+00
 -1      3251 7.67850E+01 1.05013E+01 0.00000E+00
 -1      3252 7.52850E+01 1.05013E+01 0.00000E+00
 -1      3253 7.45350E+01 1.18003E+01 0.00000E+00
 -1      3254 7.97850E+01 1.05013E+01 0.00000E+00
 -1      3255 7.82850E+01 1.05013E+01 0.00000E+00
 -1      3256 7.75350E+01 1.18003E+01 0.00000E+00
 -1      3257 8.27850E+01 1.05013E+01 0.00000E+00
 -1      3258 8.12850E+01 1.05013E+01 0.00000E+00
 -1      3259 8.05350E+01 1.18003E+01 0.00000E+00
 -1      3260 8.57850E+01 1.05013E+01 0.00000E+00
 -1      3261 8.42850E+01 1.05013E+01 0.00000E+00
 -1      3262 8.35350E+01 1.18003E+01 0.00000E+00
 -1      3263 8.87964E+01 1.16861E+01 0.00000E+00
 -1      3264 8.72964E+01 1.16861E+01 0.00000E+00
 -1      3265 9.27577E+01 1.07420E+01 0.00000E+00
 -1      3266 9.12577E+01 1.07420E+01 0.00000E+00
 -1      3267 9.42577E+01 1.07420E+01 0.00000E+00
 -1      3268 9.80657E+01 1.02023E+01 0.00000E+00
 -1      3269 9.65657E+01 1.02023E+01 0.00000E+00
 -1      3270 1.02656E+02 1.00485E+01 0.00000E+00
 -1      3271 1.10396E+02 1.10088E+01 0.00000E+00
 -1      3272 1.08896E+02 1.10088E+01 0.00000E+00
 -1      3273 1.15785E+02 1.04562E+01 0.00000E+00
 -1      3274 1.14285E+02 1.04562E+01 0.00000E+00
 -1      3275 1.18785E+02 1.04562E+01 0.00000E+00
 -1      3276 1.17285E+02 1.04562E+01 0.00000E+00
 -1      3277 1.16535E+02 1.17552E+01 0.00000E+00
 -1      3278 1.21785E+02 1.04562E+01 0.00000E+00
 -1      3279 1.20285E+02 1.04562E+01 0.00000E+00
 -1      3280 1.19535E+02 1.17552E+01 0.00000E+00
 -1      3281 1.24785E+02 1.04562E+01 0.00000E+00
 -1      3282 1.23285E+02 1.04562E+01 0.00000E+00
 -1      3283 1.22535E+02 1.17552E+01 0.00000E+00
 -1      3284 1.27785E+02 1.04562E+01 0.00000E+00
 -1      3285 1.26285E+02 1.04562E+01 0.00000E+00
 -1      3286 1.25535E+02 1.17552E+01 0.00000E+00
 -1      3287 1.30785E+02 1.04562E+01 0.00000E+00
 -1      3288 1.29285E+02 1.04562E+01 0.00000E+00
 -1      3289 1.28535E+02 1.17552E+01 0.00000E+00
 -1      3290 1.33785E+02 1.04562E+01 0.00000E+00
 -1      3291 1.32285E+02 1.04562E+01 0.00000E+00
 -1      3292 1.31535E+02 1.17552E+01 0.00000E+00
 -1      3293 1.36785E+02 1.04562E+01 0.00000E+00
 -1      3294 1.35285E+02 1.04562E+01 0.00000E+00
 -1      3295 1.34535E+02 1.17552E+01 0.00000E+00
 -1      3296 1.38879E+02 1.08676E+01 0.00000E+00
 -1      3297 1.37711E+02 1.05757E+01 0.00000E+00
 -1      3298 1.36961E+02 1.18747E+01 0.00000E+00
 -1      3299 1.38813E+02 1.21136E+01 0.00000E+00
 -1      3300 1.38309E+02 2.86750E+01 0.00000E+00
 -1      3301 1.38309E+02 2.72250E+01 0.00000E+00
 -1      3302 1.38309E+02 3.45625E+01 0.00000E+00
 -1      3303 1.38309E+02 3.30875E+01 0.00000E+00
 -1      3304 1.38309E+02 2.57500E+01 0.00000E+00
 -1      3305 1.38309E+02 2.42750E+01 0.00000E+00
 -1      3306 1.37010E+02 2.64750E+01 0.00000E+00
 -1      3307 8.96019E+01 3.40743E+01 0.00000E+00
 -1      3308 8.89310E+01 3.28586E+01 0.00000E+00
 -1      3309 8.78148E+01 3.28407E+01 0.00000E+00
 -1      3310 9.91869E+01 1.10711E+01 0.00000E+00
 -1      3311 1.09085E+02 3.55923E+01 0.00000E+00
 -1      3312 1.08291E+02 3.60715E+01 0.00000E+00
 -1      3313 1.97850E+01 1.05013E+01 0.00000E+00
 -1      3314 1.82850E+01 1.05013E+01 0.00000E+00
 -1      3315 8.60829E+01 2.02799E+01 0.00000E+00
 -1      3316 8.67577E+01 1.91671E+01 0.00000E+00
 -1      3317 1.38309E+02 3.16187E+01 0.00000E+00
 -1      3318 1.38309E+02 3.01437E+01 0.00000E+00
 -1      3319 1.37010E+02 2.94188E+01 0.00000E+00
 -1      3320 1.37010E+02 3.23563E+01 0.00000E+00
 -1      3321 1.13090E+02 1.07325E+01 0.00000E+00
 -1      3322 1.11590E+02 1.07325E+01 0.00000E+00
 -1      3323 1.11451E+02 1.25841E+01 0.00000E+00
 -1      3324 1.13840E+02 1.20315E+01 0.00000E+00
 -1      3325 3.77850E+01 1.05013E+01 0.00000E+00
 -1      3326 3.62850E+01 1.05013E+01 0.00000E+00
 -1      3327 3.55350E+01 1.18003E+01 0.00000E+00
 -1      3328 3.85350E+01 1.18003E+01 0.00000E+00
 -1      3329 2.27850E+01 1.05013E+01 0.00000E+00
 -1      3330 2.12850E+01 1.05013E+01 0.00000E+00
 -1      3331 2.05350E+01 1.18003E+01 0.00000E+00
 -1      3332 8.69820E+01 2.92029E+01 0.00000E+00
 -1      3333 8.64900E+01 2.77662E+01 0.00000E+00
 -1      3334 8.62334E+01 2.60348E+01 0.00000E+00
 -1      3335 8.63104E+01 2.47296E+01 0.00000E+00
 -1      3336 1.12596E+02 3.01319E+01 0.00000E+00
 -1      3337 1.11927E+02 3.14803E+01 0.00000E+00
 -1      3338 8.99606E+00 3.70363E+01 0.00000E+00
 -1      3339 9.02831E+00 3.82715E+01 0.00000E+00
 -1      3340 1.01012E+01 3.83715E+01 0.00000E+00
 -1      3341 1.02951E+01 3.62988E+01 0.00000E+00
 -1      3342 1.59000E+01 3.83090E+01 0.00000E+00
 -1      3343 1.74000E+01 3.83090E+01 0.00000E+00
 -1      3344 1.81500E+01 3.70100E+01 0.00000E+00
 -1      3345 1.26488E+01 1.02017E+01 0.00000E+00
 -1      3346 1.20772E+01 1.14631E+01 0.00000E+00
 -1      3347 1.33763E+01 1.22006E+01 0.00000E+00
 -1      3348 1.41488E+01 1.02017E+01 0.00000E+00
 -1      3349 9.22188E+01 3.62721E+01 0.00000E+00
 -1      3350 9.07680E+01 3.54622E+01 0.00000E+00
 -1      3351 8.96518E+01 3.54443E+01 0.00000E+00
 -1      3352 9.19839E+01 3.82201E+01 0.00000E+00
 -1      3353 1.11188E+02 1.54952E+01 0.00000E+00
 -1      3354 1.12075E+02 1.66884E+01 0.00000E+00
 -1      3355 1.13953E+02 2.54653E+01 0.00000E+00
 -1      3356 1.13860E+02 2.64662E+01 0.00000E+00
 -1      3357 1.16910E+01 2.12875E+01 0.00000E+00
 -1      3358 1.16910E+01 2.27625E+01 0.00000E+00
 -1      3359 1.16910E+01 2.42375E+01 0.00000E+00
 -1      3360 1.16910E+01 2.57125E+01 0.00000E+00
 -1      3361 1.29900E+01 2.35000E+01 0.00000E+00
 -1      3362 1.29900E+01 1.46687E+01 0.00000E+00
 -1      3363 1.16910E+01 1.54063E+01 0.00000E+00
 -1      3364 1.16910E+01 1.68750E+01 0.00000E+00
 -1      3365 1.38309E+02 1.69188E+01 0.00000E+00
 -1      3366 1.38309E+02 1.54563E+01 0.00000E+00
 -1      3367 1.10605E+02 3.57925E+01 0.00000E+00
 -1      3368 1.51500E+01 3.70100E+01 0.00000E+00
 -1      3369 8.64946E+01 3.02073E+01 0.00000E+00
 -1      3370 9.63204E+01 3.80173E+01 0.00000E+00
 -1      3371 8.97339E+01 3.69211E+01 0.00000E+00
 -1      3372 9.04839E+01 3.82201E+01 0.00000E+00
 -1      3373 1.13391E+02 1.59539E+01 0.00000E+00
 -1      3374 1.12878E+02 1.72624E+01 0.00000E+00
 -1      3375 1.13680E+02 1.78363E+01 0.00000E+00
 -1      3376 1.11253E+02 3.70507E+01 0.00000E+00
 -1      3377 1.12003E+02 3.83497E+01 0.00000E+00
 -1      3378 1.13503E+02 3.83497E+01 0.00000E+00
 -1      3379 1.12208E+02 3.58332E+01 0.00000E+00
 -1      3380 1.07432E+02 3.64490E+01 0.00000E+00
 -1      3381 1.11422E+02 1.41201E+01 0.00000E+00
 -1      3382 2.42850E+01 1.05013E+01 0.00000E+00
 -1      3383 2.35350E+01 1.18003E+01 0.00000E+00
 -1      3384 2.57850E+01 1.05013E+01 0.00000E+00
 -1      3385 2.95350E+01 1.18003E+01 0.00000E+00
 -1      3386 2.87850E+01 1.05013E+01 0.00000E+00
 -1      3387 2.72850E+01 1.05013E+01 0.00000E+00
 -1      3388 9.13800E+01 1.23386E+01 0.00000E+00
 -1      3389 8.96573E+01 1.07989E+01 0.00000E+00
 -1      3390 9.54117E+01 1.04721E+01 0.00000E+00
 -1      3391 1.03793E+02 1.03417E+01 0.00000E+00
 -1      3392 1.07568E+02 1.14360E+01 0.00000E+00
 -1      3393 1.06785E+02 1.03499E+01 0.00000E+00
 -1      3394 1.05285E+02 1.03499E+01 0.00000E+00
 -1      3395 1.38309E+02 1.98687E+01 0.00000E+00
 -1      3396 1.38309E+02 1.83937E+01 0.00000E+00
 -1      3397 1.37010E+02 1.76625E+01 0.00000E+00
 -1      3398 1.38309E+02 2.28094E+01 0.00000E+00
 -1      3399 1.38309E+02 2.13344E+01 0.00000E+00
 -1      3400 1.37010E+02 2.06031E+01 0.00000E+00
 -1      3401 1.37010E+02 2.35344E+01 0.00000E+00
 -1      3402 8.49442E+01 2.80815E+01 0.00000E+00
 -1      3403 8.55888E+01 2.70582E+01 0.00000E+00
 -1      3404 8.46876E+01 2.63501E+01 0.00000E+00
 -1      3405 1.14253E+02 3.70507E+01 0.00000E+00
 -1      3406 8.63963E+01 1.82369E+01 0.00000E+00
 -1      3407 1.37758E+02 3.64912E+01 0.00000E+00
 -1      3408 1.38123E+02 3.54142E+01 0.00000E+00
 -1      3409 1.36824E+02 3.46768E+01 0.00000E+00
 -1      3410 1.36451E+02 3.63802E+01 0.00000E+00
 -1      3411 1.13759E+02 2.99962E+01 0.00000E+00
 -1      3412 1.11741E+01 3.84716E+01 0.00000E+00
 -1      3413 1.19241E+01 3.71726E+01 0.00000E+00
 -1      3414 9.01024E+01 1.34107E+01 0.00000E+00
 -1      3415 8.55371E+01 2.40115E+01 0.00000E+00
 -1      3416 1.12408E+02 3.29368E+01 0.00000E+00
 -1      3417 1.69669E+01 1.03515E+01 0.00000E+00
 -1      3418 1.54669E+01 1.03515E+01 0.00000E+00
 -1      3419 1.50806E+01 1.13509E+01 0.00000E+00
 -1      3420 1.77169E+01 1.16505E+01 0.00000E+00
 -1      3421 1.16910E+01 3.01219E+01 0.00000E+00
 -1      3422 1.16910E+01 3.15906E+01 0.00000E+00
 -1      3423 1.16910E+01 1.83469E+01 0.00000E+00
 -1      3424 1.16910E+01 1.98156E+01 0.00000E+00
 -1      3425 1.29900E+01 2.05531E+01 0.00000E+00
 -1      3426 1.29900E+01 1.76094E+01 0.00000E+00
 -1      3427 1.14205E+02 2.01366E+01 0.00000E+00
 -1      3428 1.13526E+02 2.10989E+01 0.00000E+00
 -1      3429 1.14563E+02 2.20907E+01 0.00000E+00
 -1      3430 1.29900E+01 3.23250E+01 0.00000E+00
 -1      3431 1.16910E+01 3.30594E+01 0.00000E+00
 -1      3432 1.16910E+01 3.45281E+01 0.00000E+00
 -1      3433 1.14859E+02 2.36487E+01 0.00000E+00
 -1      3434 1.14406E+02 2.45570E+01 0.00000E+00
 -1      3435 1.15380E+02 2.51528E+01 0.00000E+00
 -1      3436 8.67176E+01 1.61402E+01 0.00000E+00
 -1      3437 8.76175E+01 1.57042E+01 0.00000E+00
 -1      3438 8.71579E+01 1.46060E+01 0.00000E+00
 -1      3439 1.14595E+02 2.73773E+01 0.00000E+00
 -1      3440 8.52746E+01 2.16518E+01 0.00000E+00
 -1      3441 8.56787E+01 2.09658E+01 0.00000E+00
 -1      3442 8.52113E+01 1.99213E+01 0.00000E+00
 -1      3443 8.89188E+01 1.32828E+01 0.00000E+00
 -1      3444 8.85679E+01 3.55332E+01 0.00000E+00
 -1      3445 2.34000E+01 3.57110E+01 0.00000E+00
 -1      3446 2.49000E+01 3.57110E+01 0.00000E+00
 -1      3447 2.64000E+01 3.57110E+01 0.00000E+00
 -1      3448 2.79000E+01 3.57110E+01 0.00000E+00
 -1      3449 2.56500E+01 3.44120E+01 0.00000E+00
 -1      3450 2.94000E+01 3.57110E+01 0.00000E+00
 -1      3451 3.09000E+01 3.57110E+01 0.00000E+00
 -1      3452 2.86500E+01 3.44120E+01 0.00000E+00
 -1      3453 3.24000E+01 3.57110E+01 0.00000E+00
 -1      3454 3.39000E+01 3.57110E+01 0.00000E+00
 -1      3455 3.16500E+01 3.44120E+01 0.00000E+00
 -1      3456 3.54000E+01 3.57110E+01 0.00000E+00
 -1      3457 3.69000E+01 3.57110E+01 0.00000E+00
 -1      3458 3.46500E+01 3.44120E+01 0.00000E+00
 -1      3459 3.84000E+01 3.57110E+01 0.00000E+00
 -1      3460 3.99000E+01 3.57110E+01 0.00000E+00
 -1      3461 3.76500E+01 3.44120E+01 0.00000E+00
 -1      3462 4.14000E+01 3.57110E+01 0.00000E+00
 -1      3463 4.29000E+01 3.57110E+01 0.00000E+00
 -1      3464 4.06500E+01 3.44120E+01 0.00000E+00
 -1      3465 4.44000E+01 3.57110E+01 0.00000E+00
 -1      3466 4.59000E+01 3.57110E+01 0.00000E+00
 -1      3467 4.36500E+01 3.44120E+01 0.00000E+00
 -1      3468 4.74000E+01 3.57110E+01 0.00000E+00
 -1      3469 4.89000E+01 3.57110E+01 0.00000E+00
 -1      3470 4.66500E+01 3.44120E+01 0.00000E+00
 -1      3471 5.04000E+01 3.57110E+01 0.00000E+00
 -1      3472 5.19000E+01 3.57110E+01 0.00000E+00
 -1      3473 4.96500E+01 3.44120E+01 0.00000E+00
 -1      3474 5.34000E+01 3.57110E+01 0.00000E+00
 -1      3475 5.49000E+01 3.57110E+01 0.00000E+00
 -1      3476 5.26500E+01 3.44120E+01 0.00000E+00
 -1      3477 5.64000E+01 3.57110E+01 0.00000E+00
 -1      3478 5.79000E+01 3.57110E+01 0.00000E+00
 -1      3479 5.56500E+01 3.44120E+01 0.00000E+00
 -1      3480 5.94000E+01 3.57110E+01 0.00000E+00
 -1      3481 6.09000E+01 3.57110E+01 0.00000E+00
 -1      3482 5.86500E+01 3.44120E+01 0.00000E+00
 -1      3483 6.24000E+01 3.57110E+01 0.00000E+00
 -1      3484 6.39000E+01 3.57110E+01 0.00000E+00
 -1      3485 6.16500E+01 3.44120E+01 0.00000E+00
 -1      3486 6.54000E+01 3.57110E+01 0.00000E+00
 -1      3487 6.69000E+01 3.57110E+01 0.00000E+00
 -1      3488 6.46500E+01 3.44120E+01 0.00000E+00
 -1      3489 6.84000E+01 3.57110E+01 0.00000E+00
 -1      3490 6.99000E+01 3.57110E+01 0.00000E+00
 -1      3491 6.76500E+01 3.44120E+01 0.00000E+00
 -1      3492 7.14000E+01 3.57110E+01 0.00000E+00
 -1      3493 7.29000E+01 3.57110E+01 0.00000E+00
 -1      3494 7.06500E+01 3.44120E+01 0.00000E+00
 -1      3495 7.44000E+01 3.57110E+01 0.00000E+00
 -1      3496 7.59000E+01 3.57110E+01 0.00000E+00
 -1      3497 7.36500E+01 3.44120E+01 0.00000E+00
 -1      3498 7.74000E+01 3.57110E+01 0.00000E+00
 -1      3499 7.89000E+01 3.57110E+01 0.00000E+00
 -1      3500 7.66500E+01 3.44120E+01 0.00000E+00
 -1      3501 8.04000E+01 3.57110E+01 0.00000E+00
 -1      3502 8.19000E+01 3.57110E+01 0.00000E+00
 -1      3503 7.96500E+01 3.44120E+01 0.00000E+00
 -1      3504 8.34000E+01 3.57110E+01 0.00000E+00
 -1      3505 8.49000E+01 3.57110E+01 0.00000E+00
 -1      3506 8.26500E+01 3.44120E+01 0.00000E+00
 -1      3507 8.70679E+01 3.55332E+01 0.00000E+00
 -1      3508 1.12617E+02 1.38439E+01 0.00000E+00
 -1      3509 1.15201E+02 2.98052E+01 0.00000E+00
 -1      3510 1.14698E+02 3.11077E+01 0.00000E+00
 -1      3511 1.19400E+02 3.57110E+01 0.00000E+00
 -1      3512 1.20900E+02 3.57110E+01 0.00000E+00
 -1      3513 1.22400E+02 3.57110E+01 0.00000E+00
 -1      3514 1.23900E+02 3.57110E+01 0.00000E+00
 -1      3515 1.21650E+02 3.44120E+01 0.00000E+00
 -1      3516 1.25400E+02 3.57110E+01 0.00000E+00
 -1      3517 1.26900E+02 3.57110E+01 0.00000E+00
 -1      3518 1.24650E+02 3.44120E+01 0.00000E+00
 -1      3519 1.28400E+02 3.57110E+01 0.00000E+00
 -1      3520 1.29900E+02 3.57110E+01 0.00000E+00
 -1      3521 1.27650E+02 3.44120E+01 0.00000E+00
 -1      3522 1.31400E+02 3.57110E+01 0.00000E+00
 -1      3523 1.32900E+02 3.57110E+01 0.00000E+00
 -1      3524 1.30650E+02 3.44120E+01 0.00000E+00
 -1      3525 2.12850E+01 1.30992E+01 0.00000E+00
 -1      3526 1.97850E+01 1.30992E+01 0.00000E+00
 -1      3527 8.45045E+01 2.45242E+01 0.00000E+00
 -1      3528 8.47095E+01 2.32090E+01 0.00000E+00
 -1      3529 4.52850E+01 1.30992E+01 0.00000E+00
 -1      3530 4.37850E+01 1.30992E+01 0.00000E+00
 -1      3531 4.22850E+01 1.30992E+01 0.00000E+00
 -1      3532 4.07850E+01 1.30992E+01 0.00000E+00
 -1      3533 4.30350E+01 1.43982E+01 0.00000E+00
 -1      3534 5.12850E+01 1.30992E+01 0.00000E+00
 -1      3535 4.97850E+01 1.30992E+01 0.00000E+00
 -1      3536 5.42850E+01 1.30992E+01 0.00000E+00
 -1      3537 5.27850E+01 1.30992E+01 0.00000E+00
 -1      3538 5.20350E+01 1.43982E+01 0.00000E+00
 -1      3539 5.72850E+01 1.30992E+01 0.00000E+00
 -1      3540 5.57850E+01 1.30992E+01 0.00000E+00
 -1      3541 5.50350E+01 1.43982E+01 0.00000E+00
 -1      3542 6.02850E+01 1.30992E+01 0.00000E+00
 -1      3543 5.87850E+01 1.30992E+01 0.00000E+00
 -1      3544 5.80350E+01 1.43982E+01 0.00000E+00
 -1      3545 6.32850E+01 1.30992E+01 0.00000E+00
 -1      3546 6.17850E+01 1.30992E+01 0.00000E+00
 -1      3547 6.10350E+01 1.43982E+01 0.00000E+00
 -1      3548 6.62850E+01 1.30992E+01 0.00000E+00
 -1      3549 6.47850E+01 1.30992E+01 0.00000E+00
 -1      3550 6.40350E+01 1.43982E+01 0.00000E+00
 -1      3551 6.92850E+01 1.30992E+01 0.00000E+00
 -1      3552 6.77850E+01 1.30992E+01 0.00000E+00
 -1      3553 6.70350E+01 1.43982E+01 0.00000E+00
 -1      3554 7.22850E+01 1.30992E+01 0.00000E+00
 -1      3555 7.07850E+01 1.30992E+01 0.00000E+00
 -1      3556 7.00350E+01 1.43982E+01 0.00000E+00
 -1      3557 7.52850E+01 1.30992E+01 0.00000E+00
 -1      3558 7.37850E+01 1.30992E+01 0.00000E+00
 -1      3559 7.30350E+01 1.43982E+01 0.00000E+00
 -1      3560 7.82850E+01 1.30992E+01 0.00000E+00
 -1      3561 7.67850E+01 1.30992E+01 0.00000E+00
 -1      3562 7.60350E+01 1.43982E+01 0.00000E+00
 -1      3563 8.12850E+01 1.30992E+01 0.00000E+00
 -1      3564 7.97850E+01 1.30992E+01 0.00000E+00
 -1      3565 7.90350E+01 1.43982E+01 0.00000E+00
 -1      3566 8.42850E+01 1.30992E+01 0.00000E+00
 -1      3567 8.27850E+01 1.30992E+01 0.00000E+00
 -1      3568 8.20350E+01 1.43982E+01 0.00000E+00
 -1      3569 8.65464E+01 1.29851E+01 0.00000E+00
 -1      3570 1.35711E+02 2.72125E+01 0.00000E+00
 -1      3571 1.35711E+02 2.57375E+01 0.00000E+00
 -1      3572 1.17285E+02 1.30542E+01 0.00000E+00
 -1      3573 1.15785E+02 1.30542E+01 0.00000E+00
 -1      3574 1.26285E+02 1.30542E+01 0.00000E+00
 -1      3575 1.24785E+02 1.30542E+01 0.00000E+00
 -1      3576 1.29285E+02 1.30542E+01 0.00000E+00
 -1      3577 1.27785E+02 1.30542E+01 0.00000E+00
 -1      3578 1.27035E+02 1.43532E+01 0.00000E+00
 -1      3579 1.32285E+02 1.30542E+01 0.00000E+00
 -1      3580 1.30785E+02 1.30542E+01 0.00000E+00
 -1      3581 1.30035E+02 1.43532E+01 0.00000E+00
 -1      3582 1.35285E+02 1.30542E+01 0.00000E+00
 -1      3583 1.33785E+02 1.30542E+01 0.00000E+00
 -1      3584 1.33035E+02 1.43532E+01 0.00000E+00
 -1      3585 1.38528E+02 1.44079E+01 0.00000E+00
 -1      3586 1.38594E+02 1.31619E+01 0.00000E+00
 -1      3587 1.37668E+02 1.30425E+01 0.00000E+00
 -1      3588 1.37229E+02 1.51392E+01 0.00000E+00
 -1      3589 1.20285E+02 1.30542E+01 0.00000E+00
 -1      3590 1.18785E+02 1.30542E+01 0.00000E+00
 -1      3591 1.18035E+02 1.43532E+01 0.00000E+00
 -1      3592 1.23285E+02 1.30542E+01 0.00000E+00
 -1      3593 1.21785E+02 1.30542E+01 0.00000E+00
 -1      3594 1.21035E+02 1.43532E+01 0.00000E+00
 -1      3595 4.82850E+01 1.30992E+01 0.00000E+00
 -1      3596 4.67850E+01 1.30992E+01 0.00000E+00
 -1      3597 4.60350E+01 1.43982E+01 0.00000E+00
 -1      3598 4.90350E+01 1.43982E+01 0.00000E+00
 -1      3599 3.32850E+01 1.30992E+01 0.00000E+00
 -1      3600 3.17850E+01 1.30992E+01 0.00000E+00
 -1      3601 1.44000E+01 3.57110E+01 0.00000E+00
 -1      3602 1.59000E+01 3.57110E+01 0.00000E+00
 -1      3603 1.16400E+02 3.57110E+01 0.00000E+00
 -1      3604 1.17900E+02 3.57110E+01 0.00000E+00
 -1      3605 1.18650E+02 3.44120E+01 0.00000E+00
 -1      3606 8.51558E+01 1.81372E+01 0.00000E+00
 -1      3607 8.59367E+01 1.71387E+01 0.00000E+00
 -1      3608 8.54771E+01 1.60405E+01 0.00000E+00
 -1      3609 1.20210E+01 3.61362E+01 0.00000E+00
 -1      3610 2.04000E+01 3.57110E+01 0.00000E+00
 -1      3611 2.19000E+01 3.57110E+01 0.00000E+00
 -1      3612 2.26500E+01 3.44120E+01 0.00000E+00
 -1      3613 1.16910E+01 2.71844E+01 0.00000E+00
 -1      3614 1.16910E+01 2.86531E+01 0.00000E+00
 -1      3615 1.29900E+01 2.93875E+01 0.00000E+00
 -1      3616 1.05125E+02 1.08278E+01 0.00000E+00
 -1      3617 1.13605E+02 3.57925E+01 0.00000E+00
 -1      3618 1.15003E+02 3.57517E+01 0.00000E+00
 -1      3619 1.12958E+02 3.45342E+01 0.00000E+00
 -1      3620 8.63179E+01 3.42342E+01 0.00000E+00
 -1      3621 8.56469E+01 3.30185E+01 0.00000E+00
 -1      3622 8.56465E+01 1.34211E+01 0.00000E+00
 -1      3623 1.13805E+02 3.28961E+01 0.00000E+00
 -1      3624 1.74000E+01 3.57110E+01 0.00000E+00
 -1      3625 1.89000E+01 3.57110E+01 0.00000E+00
 -1      3626 1.96500E+01 3.44120E+01 0.00000E+00
 -1      3627 1.05875E+02 1.20205E+01 0.00000E+00
 -1      3628 1.06818E+02 1.26287E+01 0.00000E+00
 -1      3629 1.15836E+02 2.69906E+01 0.00000E+00
 -1      3630 1.15504E+02 2.83069E+01 0.00000E+00
 -1      3631 8.49977E+01 3.16008E+01 0.00000E+00
 -1      3632 8.43485E+01 3.01831E+01 0.00000E+00
 -1      3633 8.35008E+01 3.29943E+01 0.00000E+00
 -1      3634 1.42890E+01 1.39344E+01 0.00000E+00
 -1      3635 1.42890E+01 1.54031E+01 0.00000E+00
 -1      3636 1.42890E+01 2.86531E+01 0.00000E+00
 -1      3637 1.42890E+01 3.01219E+01 0.00000E+00
 -1      3638 1.15231E+02 1.75196E+01 0.00000E+00
 -1      3639 1.14718E+02 1.88281E+01 0.00000E+00
 -1      3640 1.15755E+02 1.98199E+01 0.00000E+00
 -1      3641 1.16442E+02 2.94185E+01 0.00000E+00
 -1      3642 2.65350E+01 1.18003E+01 0.00000E+00
 -1      3643 1.90350E+01 1.43983E+01 0.00000E+00
 -1      3644 1.82850E+01 1.30993E+01 0.00000E+00
 -1      3645 2.27850E+01 1.30992E+01 0.00000E+00
 -1      3646 2.20350E+01 1.43982E+01 0.00000E+00
 -1      3647 2.42850E+01 1.30992E+01 0.00000E+00
 -1      3648 1.34022E+02 3.59901E+01 0.00000E+00
 -1      3649 1.35329E+02 3.61011E+01 0.00000E+00
 -1      3650 1.35515E+02 3.52494E+01 0.00000E+00
 -1      3651 1.33272E+02 3.46911E+01 0.00000E+00
 -1      3652 3.02850E+01 1.30992E+01 0.00000E+00
 -1      3653 2.87850E+01 1.30992E+01 0.00000E+00
 -1      3654 3.10350E+01 1.43982E+01 0.00000E+00
 -1      3655 8.32094E+01 2.26771E+01 0.00000E+00
 -1      3656 8.42420E+01 2.21644E+01 0.00000E+00
 -1      3657 8.37745E+01 2.11199E+01 0.00000E+00
 -1      3658 1.69669E+01 1.29495E+01 0.00000E+00
 -1      3659 4.00350E+01 1.43982E+01 0.00000E+00
 -1      3660 3.92850E+01 1.30992E+01 0.00000E+00
 -1      3661 3.77850E+01 1.30992E+01 0.00000E+00
 -1      3662 1.16289E+02 2.60823E+01 0.00000E+00
 -1      3663 1.17198E+02 2.70119E+01 0.00000E+00
 -1      3664 1.16742E+02 2.51740E+01 0.00000E+00
 -1      3665 8.48965E+01 1.47201E+01 0.00000E+00
 -1      3666 1.35711E+02 2.86812E+01 0.00000E+00
 -1      3667 1.34412E+02 2.79438E+01 0.00000E+00
 -1      3668 1.35711E+02 3.01500E+01 0.00000E+00
 -1      3669 1.34412E+02 2.50094E+01 0.00000E+00
 -1      3670 1.35711E+02 2.42719E+01 0.00000E+00
 -1      3671 1.35711E+02 2.28062E+01 0.00000E+00
 -1      3672 8.34473E+01 2.94750E+01 0.00000E+00
 -1      3673 3.62850E+01 1.30992E+01 0.00000E+00
 -1      3674 3.47850E+01 1.30992E+01 0.00000E+00
 -1      3675 3.40350E+01 1.43982E+01 0.00000E+00
 -1      3676 3.70350E+01 1.43982E+01 0.00000E+00
 -1      3677 1.35711E+02 1.84000E+01 0.00000E+00
 -1      3678 1.35711E+02 1.69250E+01 0.00000E+00
 -1      3679 1.24035E+02 1.43532E+01 0.00000E+00
 -1      3680 1.35773E+02 1.52704E+01 0.00000E+00
 -1      3681 1.35992E+02 1.42220E+01 0.00000E+00
 -1      3682 1.36742E+02 1.29230E+01 0.00000E+00
 -1      3683 1.15753E+02 3.44527E+01 0.00000E+00
 -1      3684 1.15248E+02 3.27051E+01 0.00000E+00
 -1      3685 8.32154E+01 2.65709E+01 0.00000E+00
 -1      3686 8.38600E+01 2.55475E+01 0.00000E+00
 -1      3687 8.30323E+01 2.47450E+01 0.00000E+00
 -1      3688 1.33200E+01 3.54019E+01 0.00000E+00
 -1      3689 1.40700E+01 3.41029E+01 0.00000E+00
 -1      3690 1.66500E+01 3.44120E+01 0.00000E+00
 -1      3691 8.47517E+01 1.88231E+01 0.00000E+00
 -1      3692 8.42921E+01 1.77249E+01 0.00000E+00
 -1      3693 8.43475E+01 1.95091E+01 0.00000E+00
 -1      3694 1.15537E+02 2.26864E+01 0.00000E+00
 -1      3695 1.29900E+01 2.64469E+01 0.00000E+00
 -1      3696 1.35702E+02 3.43976E+01 0.00000E+00
 -1      3697 1.34473E+02 1.60079E+01 0.00000E+00
 -1      3698 1.42890E+01 1.98172E+01 0.00000E+00
 -1      3699 1.42890E+01 2.12891E+01 0.00000E+00
 -1      3700 1.42890E+01 2.27641E+01 0.00000E+00
 -1      3701 1.42890E+01 2.42391E+01 0.00000E+00
 -1      3702 1.55880E+01 2.20281E+01 0.00000E+00
 -1      3703 1.41795E+01 3.13780E+01 0.00000E+00
 -1      3704 1.41795E+01 3.28467E+01 0.00000E+00
 -1      3705 1.52595E+01 3.31559E+01 0.00000E+00
 -1      3706 1.54785E+01 3.06436E+01 0.00000E+00
 -1      3707 1.34487E+02 3.38100E+01 0.00000E+00
 -1      3708 1.35795E+02 3.32374E+01 0.00000E+00
 -1      3709 1.35795E+02 3.17686E+01 0.00000E+00
 -1      3710 1.33365E+02 3.35309E+01 0.00000E+00
 -1      3711 2.49000E+01 3.31130E+01 0.00000E+00
 -1      3712 2.64000E+01 3.31130E+01 0.00000E+00
 -1      3713 1.16645E+02 3.26644E+01 0.00000E+00
 -1      3714 1.13684E+02 1.46968E+01 0.00000E+00
 -1      3715 1.14486E+02 1.52707E+01 0.00000E+00
 -1      3716 2.79000E+01 3.31130E+01 0.00000E+00
 -1      3717 2.94000E+01 3.31130E+01 0.00000E+00
 -1      3718 2.71500E+01 3.18140E+01 0.00000E+00
 -1      3719 3.09000E+01 3.31130E+01 0.00000E+00
 -1      3720 3.24000E+01 3.31130E+01 0.00000E+00
 -1      3721 3.01500E+01 3.18140E+01 0.00000E+00
 -1      3722 3.39000E+01 3.31130E+01 0.00000E+00
 -1      3723 3.54000E+01 3.31130E+01 0.00000E+00
 -1      3724 3.31500E+01 3.18140E+01 0.00000E+00
 -1      3725 3.69000E+01 3.31130E+01 0.00000E+00
 -1      3726 3.84000E+01 3.31130E+01 0.00000E+00
 -1      3727 3.61500E+01 3.18140E+01 0.00000E+00
 -1      3728 3.99000E+01 3.31130E+01 0.00000E+00
 -1      3729 4.14000E+01 3.31130E+01 0.00000E+00
 -1      3730 3.91500E+01 3.18140E+01 0.00000E+00
 -1      3731 4.29000E+01 3.31130E+01 0.00000E+00
 -1      3732 4.44000E+01 3.31130E+01 0.00000E+00
 -1      3733 4.21500E+01 3.18140E+01 0.00000E+00
 -1      3734 4.59000E+01 3.31130E+01 0.00000E+00
 -1      3735 4.74000E+01 3.31130E+01 0.00000E+00
 -1      3736 4.51500E+01 3.18140E+01 0.00000E+00
 -1      3737 4.89000E+01 3.31130E+01 0.00000E+00
 -1      3738 5.04000E+01 3.31130E+01 0.00000E+00
 -1      3739 4.81500E+01 3.18140E+01 0.00000E+00
 -1      3740 5.19000E+01 3.31130E+01 0.00000E+00
 -1      3741 5.34000E+01 3.31130E+01 0.00000E+00
 -1      3742 5.11500E+01 3.18140E+01 0.00000E+00
 -1      3743 5.49000E+01 3.31130E+01 0.00000E+00
 -1      3744 5.64000E+01 3.31130E+01 0.00000E+00
 -1      3745 5.41500E+01 3.18140E+01 0.00000E+00
 -1      3746 5.79000E+01 3.31130E+01 0.00000E+00
 -1      3747 5.94000E+01 3.31130E+01 0.00000E+00
 -1      3748 5.71500E+01 3.18140E+01 0.00000E+00
 -1      3749 6.09000E+01 3.31130E+01 0.00000E+00
 -1      3750 6.24000E+01 3.31130E+01 0.00000E+00
 -1      3751 6.01500E+01 3.18140E+01 0.00000E+00
 -1      3752 6.39000E+01 3.31130E+01 0.00000E+00
 -1      3753 6.54000E+01 3.31130E+01 0.00000E+00
 -1      3754 6.31500E+01 3.18140E+01 0.00000E+00
 -1      3755 6.69000E+01 3.31130E+01 0.00000E+00
 -1      3756 6.84000E+01 3.31130E+01 0.00000E+00
 -1      3757 6.61500E+01 3.18140E+01 0.00000E+00
 -1      3758 6.99000E+01 3.31130E+01 0.00000E+00
 -1      3759 7.14000E+01 3.31130E+01 0.00000E+00
 -1      3760 6.91500E+01 3.18140E+01 0.00000E+00
 -1      3761 7.29000E+01 3.31130E+01 0.00000E+00
 -1      3762 7.44000E+01 3.31130E+01 0.00000E+00
 -1      3763 7.21500E+01 3.18140E+01 0.00000E+00
 -1      3764 7.59000E+01 3.31130E+01 0.00000E+00
 -1      3765 7.74000E+01 3.31130E+01 0.00000E+00
 -1      3766 7.51500E+01 3.18140E+01 0.00000E+00
 -1      3767 7.89000E+01 3.31130E+01 0.00000E+00
 -1      3768 8.04000E+01 3.31130E+01 0.00000E+00
 -1      3769 7.81500E+01 3.18140E+01 0.00000E+00
 -1      3770 8.20008E+01 3.29943E+01 0.00000E+00
 -1      3771 1.20900E+02 3.31130E+01 0.00000E+00
 -1      3772 1.22400E+02 3.31130E+01 0.00000E+00
 -1      3773 8.41156E+01 1.57186E+01 0.00000E+00
 -1      3774 1.97850E+01 1.56973E+01 0.00000E+00
 -1      3775 1.82851E+01 1.56973E+01 0.00000E+00
 -1      3776 1.23900E+02 3.31130E+01 0.00000E+00
 -1      3777 1.25400E+02 3.31130E+01 0.00000E+00
 -1      3778 1.23150E+02 3.18140E+01 0.00000E+00
 -1      3779 1.26900E+02 3.31130E+01 0.00000E+00
 -1      3780 1.28400E+02 3.31130E+01 0.00000E+00
 -1      3781 1.26150E+02 3.18140E+01 0.00000E+00
 -1      3782 1.29900E+02 3.31130E+01 0.00000E+00
 -1      3783 1.31400E+02 3.31130E+01 0.00000E+00
 -1      3784 1.29150E+02 3.18140E+01 0.00000E+00
 -1      3785 5.57850E+01 1.56973E+01 0.00000E+00
 -1      3786 5.42850E+01 1.56973E+01 0.00000E+00
 -1      3787 5.27850E+01 1.56973E+01 0.00000E+00
 -1      3788 5.12850E+01 1.56973E+01 0.00000E+00
 -1      3789 5.35350E+01 1.69963E+01 0.00000E+00
 -1      3790 6.17850E+01 1.56973E+01 0.00000E+00
 -1      3791 6.02850E+01 1.56973E+01 0.00000E+00
 -1      3792 6.47850E+01 1.56973E+01 0.00000E+00
 -1      3793 6.32850E+01 1.56973E+01 0.00000E+00
 -1      3794 6.25350E+01 1.69963E+01 0.00000E+00
 -1      3795 6.77850E+01 1.56973E+01 0.00000E+00
 -1      3796 6.62850E+01 1.56973E+01 0.00000E+00
 -1      3797 6.55350E+01 1.69963E+01 0.00000E+00
 -1      3798 7.07850E+01 1.56973E+01 0.00000E+00
 -1      3799 6.92850E+01 1.56973E+01 0.00000E+00
 -1      3800 6.85350E+01 1.69963E+01 0.00000E+00
 -1      3801 7.37850E+01 1.56973E+01 0.00000E+00
 -1      3802 7.22850E+01 1.56973E+01 0.00000E+00
 -1      3803 7.15350E+01 1.69963E+01 0.00000E+00
 -1      3804 7.67850E+01 1.56973E+01 0.00000E+00
 -1      3805 7.52850E+01 1.56973E+01 0.00000E+00
 -1      3806 7.45350E+01 1.69963E+01 0.00000E+00
 -1      3807 7.97850E+01 1.56973E+01 0.00000E+00
 -1      3808 7.82850E+01 1.56973E+01 0.00000E+00
 -1      3809 7.75350E+01 1.69963E+01 0.00000E+00
 -1      3810 8.27003E+01 1.57079E+01 0.00000E+00
 -1      3811 8.12003E+01 1.57079E+01 0.00000E+00
 -1      3812 8.04503E+01 1.70069E+01 0.00000E+00
 -1      3813 8.32809E+01 1.70283E+01 0.00000E+00
 -1      3814 1.21785E+02 1.56522E+01 0.00000E+00
 -1      3815 1.20285E+02 1.56522E+01 0.00000E+00
 -1      3816 8.19214E+01 3.01777E+01 0.00000E+00
 -1      3817 8.25171E+01 2.80761E+01 0.00000E+00
 -1      3818 1.15657E+02 1.41834E+01 0.00000E+00
 -1      3819 1.14907E+02 1.28844E+01 0.00000E+00
 -1      3820 1.24785E+02 1.56522E+01 0.00000E+00
 -1      3821 1.23285E+02 1.56522E+01 0.00000E+00
 -1      3822 1.22535E+02 1.69512E+01 0.00000E+00
 -1      3823 1.27785E+02 1.56522E+01 0.00000E+00
 -1      3824 1.26285E+02 1.56522E+01 0.00000E+00
 -1      3825 1.25535E+02 1.69512E+01 0.00000E+00
 -1      3826 1.15364E+02 1.54405E+01 0.00000E+00
 -1      3827 1.13712E+02 1.31607E+01 0.00000E+00
 -1      3828 1.32973E+02 1.60079E+01 0.00000E+00
 -1      3829 1.35711E+02 2.13359E+01 0.00000E+00
 -1      3830 1.35711E+02 1.98703E+01 0.00000E+00
 -1      3831 1.34412E+02 1.91328E+01 0.00000E+00
 -1      3832 1.34412E+02 2.20734E+01 0.00000E+00
 -1      3833 1.67595E+01 3.31559E+01 0.00000E+00
 -1      3834 1.18022E+02 3.28887E+01 0.00000E+00
 -1      3835 1.19522E+02 3.28887E+01 0.00000E+00
 -1      3836 1.20272E+02 3.15897E+01 0.00000E+00
 -1      3837 1.17517E+02 3.11411E+01 0.00000E+00
 -1      3838 1.46944E+01 1.23503E+01 0.00000E+00
 -1      3839 1.59934E+01 1.30847E+01 0.00000E+00
 -1      3840 1.89000E+01 3.31130E+01 0.00000E+00
 -1      3841 2.04000E+01 3.31130E+01 0.00000E+00
 -1      3842 1.30785E+02 1.56522E+01 0.00000E+00
 -1      3843 1.29285E+02 1.56522E+01 0.00000E+00
 -1      3844 1.28535E+02 1.69512E+01 0.00000E+00
 -1      3845 5.87850E+01 1.56973E+01 0.00000E+00
 -1      3846 5.72850E+01 1.56973E+01 0.00000E+00
 -1      3847 5.95350E+01 1.69963E+01 0.00000E+00
 -1      3848 1.42890E+01 1.68742E+01 0.00000E+00
 -1      3849 1.42890E+01 1.83461E+01 0.00000E+00
 -1      3850 1.55880E+01 1.90820E+01 0.00000E+00
 -1      3851 1.55880E+01 1.61398E+01 0.00000E+00
 -1      3852 1.18575E+02 1.55464E+01 0.00000E+00
 -1      3853 1.17075E+02 1.55464E+01 0.00000E+00
 -1      3854 1.15904E+02 1.66337E+01 0.00000E+00
 -1      3855 1.19325E+02 1.68454E+01 0.00000E+00
 -1      3856 4.37850E+01 1.56973E+01 0.00000E+00
 -1      3857 4.22850E+01 1.56973E+01 0.00000E+00
 -1      3858 2.72850E+01 1.30992E+01 0.00000E+00
 -1      3859 2.57850E+01 1.30992E+01 0.00000E+00
 -1      3860 2.80350E+01 1.43982E+01 0.00000E+00
 -1      3861 1.17820E+02 2.96428E+01 0.00000E+00
 -1      3862 2.19000E+01 3.31130E+01 0.00000E+00
 -1      3863 2.34000E+01 3.31130E+01 0.00000E+00
 -1      3864 2.41500E+01 3.18140E+01 0.00000E+00
 -1      3865 1.65615E+01 1.45335E+01 0.00000E+00
 -1      3866 1.42890E+01 2.57102E+01 0.00000E+00
 -1      3867 1.42890E+01 2.71820E+01 0.00000E+00
 -1      3868 1.55880E+01 2.79164E+01 0.00000E+00
 -1      3869 1.55880E+01 2.49742E+01 0.00000E+00
 -1      3870 1.16479E+02 2.17010E+01 0.00000E+00
 -1      3871 1.16775E+02 2.32590E+01 0.00000E+00
 -1      3872 8.12508E+01 3.16953E+01 0.00000E+00
 -1      3873 1.32223E+02 1.73069E+01 0.00000E+00
 -1      3874 1.74233E+01 1.58509E+01 0.00000E+00
 -1      3875 1.64498E+01 1.59862E+01 0.00000E+00
 -1      3876 1.64498E+01 1.74573E+01 0.00000E+00
 -1      3877 1.81733E+01 1.71499E+01 0.00000E+00
 -1      3878 1.68870E+01 2.71809E+01 0.00000E+00
 -1      3879 1.68870E+01 2.86520E+01 0.00000E+00
 -1      3880 1.64498E+01 1.89284E+01 0.00000E+00
 -1      3881 1.64498E+01 2.03995E+01 0.00000E+00
 -1      3882 1.73115E+01 1.87747E+01 0.00000E+00
 -1      3883 1.17506E+02 1.90840E+01 0.00000E+00
 -1      3884 1.16992E+02 2.03925E+01 0.00000E+00
 -1      3885 1.18230E+02 2.09651E+01 0.00000E+00
 -1      3886 4.15350E+01 1.69963E+01 0.00000E+00
 -1      3887 4.07850E+01 1.56973E+01 0.00000E+00
 -1      3888 3.92850E+01 1.56973E+01 0.00000E+00
 -1      3889 2.12850E+01 1.56973E+01 0.00000E+00
 -1      3890 2.05351E+01 1.69963E+01 0.00000E+00
 -1      3891 2.27850E+01 1.56973E+01 0.00000E+00
 -1      3892 2.50350E+01 1.43982E+01 0.00000E+00
 -1      3893 1.32615E+02 3.22319E+01 0.00000E+00
 -1      3894 1.18385E+02 2.80938E+01 0.00000E+00
 -1      3895 1.19459E+02 2.98164E+01 0.00000E+00
 -1      3896 5.65350E+01 1.69963E+01 0.00000E+00
 -1      3897 8.25648E+01 2.37005E+01 0.00000E+00
 -1      3898 8.20974E+01 2.26560E+01 0.00000E+00
 -1      3899 8.19203E+01 2.47238E+01 0.00000E+00
 -1      3900 8.22823E+01 2.05344E+01 0.00000E+00
 -1      3901 8.33149E+01 2.00218E+01 0.00000E+00
 -1      3902 8.28553E+01 1.89236E+01 0.00000E+00
 -1      3903 1.17684E+02 2.41886E+01 0.00000E+00
 -1      3904 1.18593E+02 2.51182E+01 0.00000E+00
 -1      3905 1.18626E+02 2.32032E+01 0.00000E+00
 -1      3906 5.05350E+01 1.69963E+01 0.00000E+00
 -1      3907 4.97850E+01 1.56973E+01 0.00000E+00
 -1      3908 4.82850E+01 1.56973E+01 0.00000E+00
 -1      3909 8.28768E+01 1.77143E+01 0.00000E+00
 -1      3910 1.34496E+02 3.10311E+01 0.00000E+00
 -1      3911 4.52850E+01 1.56973E+01 0.00000E+00
 -1      3912 4.45350E+01 1.69963E+01 0.00000E+00
 -1      3913 4.67850E+01 1.56973E+01 0.00000E+00
 -1      3914 1.33113E+02 2.57422E+01 0.00000E+00
 -1      3915 1.33113E+02 2.42766E+01 0.00000E+00
 -1      3916 1.18837E+02 2.71855E+01 0.00000E+00
 -1      3917 1.16941E+02 1.76255E+01 0.00000E+00
 -1      3918 1.32223E+02 1.87772E+01 0.00000E+00
 -1      3919 1.30035E+02 1.84215E+01 0.00000E+00
 -1      3920 1.32223E+02 2.02475E+01 0.00000E+00
 -1      3921 8.16895E+01 2.72736E+01 0.00000E+00
 -1      3922 1.75095E+01 3.18569E+01 0.00000E+00
 -1      3923 3.17850E+01 1.56973E+01 0.00000E+00
 -1      3924 3.02850E+01 1.56973E+01 0.00000E+00
 -1      3925 2.11500E+01 3.18140E+01 0.00000E+00
 -1      3926 1.33113E+02 2.86797E+01 0.00000E+00
 -1      3927 1.33113E+02 2.72109E+01 0.00000E+00
 -1      3928 1.31814E+02 2.64781E+01 0.00000E+00
 -1      3929 1.64498E+01 2.18745E+01 0.00000E+00
 -1      3930 1.64498E+01 2.33495E+01 0.00000E+00
 -1      3931 1.73115E+01 2.17208E+01 0.00000E+00
 -1      3932 8.03206E+01 3.02964E+01 0.00000E+00
 -1      3933 1.76190E+01 3.06007E+01 0.00000E+00
 -1      3934 3.47850E+01 1.56973E+01 0.00000E+00
 -1      3935 3.32850E+01 1.56973E+01 0.00000E+00
 -1      3936 3.25350E+01 1.69963E+01 0.00000E+00
 -1      3937 1.89180E+01 2.98652E+01 0.00000E+00
 -1      3938 7.88206E+01 3.02964E+01 0.00000E+00
 -1      3939 7.94911E+01 2.87788E+01 0.00000E+00
 -1      3940 7.73206E+01 3.02964E+01 0.00000E+00
 -1      3941 2.94000E+01 3.05150E+01 0.00000E+00
 -1      3942 3.09000E+01 3.05150E+01 0.00000E+00
 -1      3943 3.24000E+01 3.05150E+01 0.00000E+00
 -1      3944 3.39000E+01 3.05150E+01 0.00000E+00
 -1      3945 3.16500E+01 2.92160E+01 0.00000E+00
 -1      3946 3.54000E+01 3.05150E+01 0.00000E+00
 -1      3947 3.69000E+01 3.05150E+01 0.00000E+00
 -1      3948 3.46500E+01 2.92160E+01 0.00000E+00
 -1      3949 3.84000E+01 3.05150E+01 0.00000E+00
 -1      3950 3.99000E+01 3.05150E+01 0.00000E+00
 -1      3951 3.76500E+01 2.92160E+01 0.00000E+00
 -1      3952 4.14000E+01 3.05150E+01 0.00000E+00
 -1      3953 4.29000E+01 3.05150E+01 0.00000E+00
 -1      3954 4.06500E+01 2.92160E+01 0.00000E+00
 -1      3955 4.44000E+01 3.05150E+01 0.00000E+00
 -1      3956 4.59000E+01 3.05150E+01 0.00000E+00
 -1      3957 4.36500E+01 2.92160E+01 0.00000E+00
 -1      3958 4.74000E+01 3.05150E+01 0.00000E+00
 -1      3959 4.89000E+01 3.05150E+01 0.00000E+00
 -1      3960 4.66500E+01 2.92160E+01 0.00000E+00
 -1      3961 5.04000E+01 3.05150E+01 0.00000E+00
 -1      3962 5.19000E+01 3.05150E+01 0.00000E+00
 -1      3963 4.96500E+01 2.92160E+01 0.00000E+00
 -1      3964 5.34000E+01 3.05150E+01 0.00000E+00
 -1      3965 5.49000E+01 3.05150E+01 0.00000E+00
 -1      3966 5.26500E+01 2.92160E+01 0.00000E+00
 -1      3967 5.64000E+01 3.05150E+01 0.00000E+00
 -1      3968 5.79000E+01 3.05150E+01 0.00000E+00
 -1      3969 5.56500E+01 2.92160E+01 0.00000E+00
 -1      3970 5.94000E+01 3.05150E+01 0.00000E+00
 -1      3971 6.09000E+01 3.05150E+01 0.00000E+00
 -1      3972 5.86500E+01 2.92160E+01 0.00000E+00
 -1      3973 6.24000E+01 3.05150E+01 0.00000E+00
 -1      3974 6.39000E+01 3.05150E+01 0.00000E+00
 -1      3975 6.16500E+01 2.92160E+01 0.00000E+00
 -1      3976 6.54000E+01 3.05150E+01 0.00000E+00
 -1      3977 6.69000E+01 3.05150E+01 0.00000E+00
 -1      3978 6.46500E+01 2.92160E+01 0.00000E+00
 -1      3979 6.84000E+01 3.05150E+01 0.00000E+00
 -1      3980 6.99000E+01 3.05150E+01 0.00000E+00
 -1      3981 6.76500E+01 2.92160E+01 0.00000E+00
 -1      3982 7.14000E+01 3.05150E+01 0.00000E+00
 -1      3983 7.29000E+01 3.05150E+01 0.00000E+00
 -1      3984 7.06500E+01 2.92160E+01 0.00000E+00
 -1      3985 7.43603E+01 3.04057E+01 0.00000E+00
 -1      3986 7.58603E+01 3.04057E+01 0.00000E+00
 -1      3987 7.65309E+01 2.88881E+01 0.00000E+00
 -1      3988 7.36103E+01 2.91067E+01 0.00000E+00
 -1      3989 1.22400E+02 3.05150E+01 0.00000E+00
 -1      3990 1.23900E+02 3.05150E+01 0.00000E+00
 -1      3991 1.28535E+02 1.84215E+01 0.00000E+00
 -1      3992 1.18178E+02 1.81981E+01 0.00000E+00
 -1      3993 5.72850E+01 1.82952E+01 0.00000E+00
 -1      3994 5.57850E+01 1.82952E+01 0.00000E+00
 -1      3995 2.57850E+01 1.56973E+01 0.00000E+00
 -1      3996 2.42850E+01 1.56973E+01 0.00000E+00
 -1      3997 2.35351E+01 1.69963E+01 0.00000E+00
 -1      3998 1.25400E+02 3.05150E+01 0.00000E+00
 -1      3999 1.26900E+02 3.05150E+01 0.00000E+00
 -1      4000 1.24650E+02 2.92160E+01 0.00000E+00
 -1      4001 1.28400E+02 3.05150E+01 0.00000E+00
 -1      4002 1.29900E+02 3.05150E+01 0.00000E+00
 -1      4003 1.27650E+02 2.92160E+01 0.00000E+00
 -1      4004 5.42850E+01 1.82952E+01 0.00000E+00
 -1      4005 5.27850E+01 1.82952E+01 0.00000E+00
 -1      4006 5.50350E+01 1.95942E+01 0.00000E+00
 -1      4007 6.62850E+01 1.82952E+01 0.00000E+00
 -1      4008 6.47850E+01 1.82952E+01 0.00000E+00
 -1      4009 6.32850E+01 1.82952E+01 0.00000E+00
 -1      4010 6.17850E+01 1.82952E+01 0.00000E+00
 -1      4011 6.40350E+01 1.95942E+01 0.00000E+00
 -1      4012 7.22850E+01 1.82952E+01 0.00000E+00
 -1      4013 7.07850E+01 1.82952E+01 0.00000E+00
 -1      4014 7.52850E+01 1.82952E+01 0.00000E+00
 -1      4015 7.37850E+01 1.82952E+01 0.00000E+00
 -1      4016 7.30350E+01 1.95942E+01 0.00000E+00
 -1      4017 7.82850E+01 1.82952E+01 0.00000E+00
 -1      4018 7.67850E+01 1.82952E+01 0.00000E+00
 -1      4019 7.60350E+01 1.95942E+01 0.00000E+00
 -1      4020 1.26285E+02 1.82502E+01 0.00000E+00
 -1      4021 1.24785E+02 1.82502E+01 0.00000E+00
 -1      4022 1.19779E+02 2.62001E+01 0.00000E+00
 -1      4023 3.77850E+01 1.56973E+01 0.00000E+00
 -1      4024 3.62850E+01 1.56973E+01 0.00000E+00
 -1      4025 3.55350E+01 1.69963E+01 0.00000E+00
 -1      4026 3.85350E+01 1.69963E+01 0.00000E+00
 -1      4027 1.23285E+02 1.82502E+01 0.00000E+00
 -1      4028 1.21785E+02 1.82502E+01 0.00000E+00
 -1      4029 1.24035E+02 1.95492E+01 0.00000E+00
 -1      4030 1.20837E+02 3.00407E+01 0.00000E+00
 -1      4031 2.64000E+01 3.05150E+01 0.00000E+00
 -1      4032 2.79000E+01 3.05150E+01 0.00000E+00
 -1      4033 2.86500E+01 2.92160E+01 0.00000E+00
 -1      4034 1.32668E+02 2.29972E+01 0.00000E+00
 -1      4035 1.32668E+02 2.15269E+01 0.00000E+00
 -1      4036 1.30480E+02 2.11712E+01 0.00000E+00
 -1      4037 1.31369E+02 2.37300E+01 0.00000E+00
 -1      4038 8.18442E+01 1.82269E+01 0.00000E+00
 -1      4039 2.34000E+01 3.05150E+01 0.00000E+00
 -1      4040 2.49000E+01 3.05150E+01 0.00000E+00
 -1      4041 2.56500E+01 2.92160E+01 0.00000E+00
 -1      4042 1.96860E+01 2.79164E+01 0.00000E+00
 -1      4043 2.04180E+01 2.98652E+01 0.00000E+00
 -1      4044 2.19180E+01 2.98652E+01 0.00000E+00
 -1      4045 6.92850E+01 1.82952E+01 0.00000E+00
 -1      4046 6.77850E+01 1.82952E+01 0.00000E+00
 -1      4047 6.70350E+01 1.95942E+01 0.00000E+00
 -1      4048 8.01895E+01 2.72736E+01 0.00000E+00
 -1      4049 8.08878E+01 2.57683E+01 0.00000E+00
 -1      4050 7.86895E+01 2.72736E+01 0.00000E+00
 -1      4051 6.02850E+01 1.82952E+01 0.00000E+00
 -1      4052 5.87850E+01 1.82952E+01 0.00000E+00
 -1      4053 5.80350E+01 1.95942E+01 0.00000E+00
 -1      4054 1.19889E+02 1.83039E+01 0.00000E+00
 -1      4055 2.87850E+01 1.56973E+01 0.00000E+00
 -1      4056 2.72850E+01 1.56973E+01 0.00000E+00
 -1      4057 2.65350E+01 1.69963E+01 0.00000E+00
 -1      4058 2.95350E+01 1.69963E+01 0.00000E+00
 -1      4059 1.32531E+02 3.06133E+01 0.00000E+00
 -1      4060 1.21587E+02 2.87417E+01 0.00000E+00
 -1      4061 1.66684E+01 2.45296E+01 0.00000E+00
 -1      4062 1.66684E+01 2.60007E+01 0.00000E+00
 -1      4063 1.79674E+01 2.67363E+01 0.00000E+00
 -1      4064 1.75301E+01 2.43759E+01 0.00000E+00
 -1      4065 7.00350E+01 1.95942E+01 0.00000E+00
 -1      4066 4.22850E+01 1.82952E+01 0.00000E+00
 -1      4067 4.07850E+01 1.82952E+01 0.00000E+00
 -1      4068 1.30482E+02 2.85814E+01 0.00000E+00
 -1      4069 1.31232E+02 2.98804E+01 0.00000E+00
 -1      4070 1.27785E+02 1.97205E+01 0.00000E+00
 -1      4071 5.20350E+01 1.95942E+01 0.00000E+00
 -1      4072 5.12850E+01 1.82952E+01 0.00000E+00
 -1      4073 4.97850E+01 1.82952E+01 0.00000E+00
 -1      4074 1.20639E+02 1.96029E+01 0.00000E+00
 -1      4075 8.04203E+01 2.47238E+01 0.00000E+00
 -1      4076 8.16378E+01 2.15578E+01 0.00000E+00
 -1      4077 8.11782E+01 2.04596E+01 0.00000E+00
 -1      4078 8.09932E+01 2.25811E+01 0.00000E+00
 -1      4079 2.12851E+01 1.82953E+01 0.00000E+00
 -1      4080 1.97851E+01 1.82953E+01 0.00000E+00
 -1      4081 6.10350E+01 1.95942E+01 0.00000E+00
 -1      4082 7.97843E+01 1.92396E+01 0.00000E+00
 -1      4083 7.90343E+01 2.05386E+01 0.00000E+00
 -1      4084 8.04289E+01 1.82163E+01 0.00000E+00
 -1      4085 1.20947E+02 2.50137E+01 0.00000E+00
 -1      4086 1.21192E+02 2.70810E+01 0.00000E+00
 -1      4087 4.75350E+01 1.69963E+01 0.00000E+00
 -1      4088 1.89792E+01 1.84581E+01 0.00000E+00
 -1      4089 1.81174E+01 1.86118E+01 0.00000E+00
 -1      4090 1.81174E+01 2.00829E+01 0.00000E+00
 -1      4091 1.97292E+01 1.97571E+01 0.00000E+00
 -1      4092 2.26680E+01 2.85662E+01 0.00000E+00
 -1      4093 1.30365E+02 2.47962E+01 0.00000E+00
 -1      4094 1.29920E+02 2.35168E+01 0.00000E+00
 -1      4095 1.22755E+02 2.75553E+01 0.00000E+00
 -1      4096 1.94674E+01 2.67363E+01 0.00000E+00
 -1      4097 2.09674E+01 2.67363E+01 0.00000E+00
 -1      4098 1.92488E+01 2.55561E+01 0.00000E+00
 -1      4099 3.02850E+01 1.82953E+01 0.00000E+00
 -1      4100 2.87850E+01 1.82953E+01 0.00000E+00
 -1      4101 1.19889E+02 2.07488E+01 0.00000E+00
 -1      4102 1.19376E+02 2.20573E+01 0.00000E+00
 -1      4103 1.20285E+02 2.29869E+01 0.00000E+00
 -1      4104 1.21785E+02 2.06951E+01 0.00000E+00
 -1      4105 3.32850E+01 1.82953E+01 0.00000E+00
 -1      4106 3.17850E+01 1.82953E+01 0.00000E+00
 -1      4107 3.10350E+01 1.95943E+01 0.00000E+00
 -1      4108 4.52850E+01 1.82952E+01 0.00000E+00
 -1      4109 4.37850E+01 1.82952E+01 0.00000E+00
 -1      4110 4.30350E+01 1.95942E+01 0.00000E+00
 -1      4111 1.30423E+02 2.74232E+01 0.00000E+00
 -1      4112 1.30423E+02 2.59545E+01 0.00000E+00
 -1      4113 1.28974E+02 2.57413E+01 0.00000E+00
 -1      4114 1.29091E+02 2.80578E+01 0.00000E+00
 -1      4115 1.29075E+02 2.22584E+01 0.00000E+00
 -1      4116 1.28630E+02 2.09790E+01 0.00000E+00
 -1      4117 1.26380E+02 2.08077E+01 0.00000E+00
 -1      4118 1.28070E+02 2.33246E+01 0.00000E+00
 -1      4119 3.39000E+01 2.79170E+01 0.00000E+00
 -1      4120 3.54000E+01 2.79170E+01 0.00000E+00
 -1      4121 3.69000E+01 2.79170E+01 0.00000E+00
 -1      4122 3.84000E+01 2.79170E+01 0.00000E+00
 -1      4123 3.61500E+01 2.66180E+01 0.00000E+00
 -1      4124 3.99000E+01 2.79170E+01 0.00000E+00
 -1      4125 4.14000E+01 2.79170E+01 0.00000E+00
 -1      4126 3.91500E+01 2.66180E+01 0.00000E+00
 -1      4127 4.29000E+01 2.79170E+01 0.00000E+00
 -1      4128 4.44000E+01 2.79170E+01 0.00000E+00
 -1      4129 4.21500E+01 2.66180E+01 0.00000E+00
 -1      4130 4.59000E+01 2.79170E+01 0.00000E+00
 -1      4131 4.74000E+01 2.79170E+01 0.00000E+00
 -1      4132 4.51500E+01 2.66180E+01 0.00000E+00
 -1      4133 4.89000E+01 2.79170E+01 0.00000E+00
 -1      4134 5.04000E+01 2.79170E+01 0.00000E+00
 -1      4135 4.81500E+01 2.66180E+01 0.00000E+00
 -1      4136 5.19000E+01 2.79170E+01 0.00000E+00
 -1      4137 5.34000E+01 2.79170E+01 0.00000E+00
 -1      4138 5.11500E+01 2.66180E+01 0.00000E+00
 -1      4139 5.49000E+01 2.79170E+01 0.00000E+00
 -1      4140 5.64000E+01 2.79170E+01 0.00000E+00
 -1      4141 5.41500E+01 2.66180E+01 0.00000E+00
 -1      4142 5.79000E+01 2.79170E+01 0.00000E+00
 -1      4143 5.94000E+01 2.79170E+01 0.00000E+00
 -1      4144 5.71500E+01 2.66180E+01 0.00000E+00
 -1      4145 6.09000E+01 2.79170E+01 0.00000E+00
 -1      4146 6.24000E+01 2.79170E+01 0.00000E+00
 -1      4147 6.01500E+01 2.66180E+01 0.00000E+00
 -1      4148 6.39000E+01 2.79170E+01 0.00000E+00
 -1      4149 6.54000E+01 2.79170E+01 0.00000E+00
 -1      4150 6.31500E+01 2.66180E+01 0.00000E+00
 -1      4151 6.69000E+01 2.79170E+01 0.00000E+00
 -1      4152 6.84000E+01 2.79170E+01 0.00000E+00
 -1      4153 6.61500E+01 2.66180E+01 0.00000E+00
 -1      4154 6.99000E+01 2.79170E+01 0.00000E+00
 -1      4155 7.14000E+01 2.79170E+01 0.00000E+00
 -1      4156 6.91500E+01 2.66180E+01 0.00000E+00
 -1      4157 6.47850E+01 2.08932E+01 0.00000E+00
 -1      4158 6.32850E+01 2.08932E+01 0.00000E+00
 -1      4159 2.42851E+01 1.82953E+01 0.00000E+00
 -1      4160 2.27851E+01 1.82953E+01 0.00000E+00
 -1      4161 2.20351E+01 1.95943E+01 0.00000E+00
 -1      4162 1.27591E+02 2.80578E+01 0.00000E+00
 -1      4163 5.57850E+01 2.08932E+01 0.00000E+00
 -1      4164 5.42850E+01 2.08932E+01 0.00000E+00
 -1      4165 7.99607E+01 2.36256E+01 0.00000E+00
 -1      4166 7.95011E+01 2.25274E+01 0.00000E+00
 -1      4167 7.89282E+01 2.46701E+01 0.00000E+00
 -1      4168 6.17850E+01 2.08932E+01 0.00000E+00
 -1      4169 6.02850E+01 2.08932E+01 0.00000E+00
 -1      4170 6.25350E+01 2.21922E+01 0.00000E+00
 -1      4171 7.67850E+01 2.08932E+01 0.00000E+00
 -1      4172 7.52850E+01 2.08932E+01 0.00000E+00
 -1      4173 7.37850E+01 2.08932E+01 0.00000E+00
 -1      4174 7.22850E+01 2.08932E+01 0.00000E+00
 -1      4175 7.45350E+01 2.21922E+01 0.00000E+00
 -1      4176 1.21697E+02 2.38678E+01 0.00000E+00
 -1      4177 4.82850E+01 1.82952E+01 0.00000E+00
 -1      4178 4.67850E+01 1.82952E+01 0.00000E+00
 -1      4179 4.90350E+01 1.95942E+01 0.00000E+00
 -1      4180 7.07850E+01 2.08932E+01 0.00000E+00
 -1      4181 6.92850E+01 2.08932E+01 0.00000E+00
 -1      4182 7.15350E+01 2.21922E+01 0.00000E+00
 -1      4183 2.24486E+01 2.70516E+01 0.00000E+00
 -1      4184 2.39306E+01 2.77014E+01 0.00000E+00
 -1      4185 2.79000E+01 2.79170E+01 0.00000E+00
 -1      4186 2.94000E+01 2.79170E+01 0.00000E+00
 -1      4187 4.00350E+01 1.95942E+01 0.00000E+00
 -1      4188 3.92850E+01 1.82952E+01 0.00000E+00
 -1      4189 3.77850E+01 1.82952E+01 0.00000E+00
 -1      4190 6.77850E+01 2.08932E+01 0.00000E+00
 -1      4191 6.62850E+01 2.08932E+01 0.00000E+00
 -1      4192 6.55350E+01 2.21922E+01 0.00000E+00
 -1      4193 6.85350E+01 2.21922E+01 0.00000E+00
 -1      4194 7.72292E+01 2.73829E+01 0.00000E+00
 -1      4195 7.79275E+01 2.58776E+01 0.00000E+00
 -1      4196 7.57689E+01 2.74922E+01 0.00000E+00
 -1      4197 2.80350E+01 1.95943E+01 0.00000E+00
 -1      4198 2.72850E+01 1.82953E+01 0.00000E+00
 -1      4199 2.57851E+01 1.82953E+01 0.00000E+00
 -1      4200 7.80018E+01 2.15831E+01 0.00000E+00
 -1      4201 1.86105E+01 2.09833E+01 0.00000E+00
 -1      4202 1.86105E+01 2.24583E+01 0.00000E+00
 -1      4203 1.94164E+01 2.08204E+01 0.00000E+00
 -1      4204 1.88203E+01 2.34171E+01 0.00000E+00
 -1      4205 1.90390E+01 2.45973E+01 0.00000E+00
 -1      4206 2.05390E+01 2.45973E+01 0.00000E+00
 -1      4207 2.01193E+01 2.26796E+01 0.00000E+00
 -1      4208 2.51653E+01 2.78092E+01 0.00000E+00
 -1      4209 2.66653E+01 2.78092E+01 0.00000E+00
 -1      4210 2.74153E+01 2.65102E+01 0.00000E+00
 -1      4211 2.49459E+01 2.62946E+01 0.00000E+00
 -1      4212 1.24880E+02 2.08077E+01 0.00000E+00
 -1      4213 1.23380E+02 2.08077E+01 0.00000E+00
 -1      4214 1.25725E+02 2.20661E+01 0.00000E+00
 -1      4215 3.09000E+01 2.79170E+01 0.00000E+00
 -1      4216 3.24000E+01 2.79170E+01 0.00000E+00
 -1      4217 3.01500E+01 2.66180E+01 0.00000E+00
 -1      4218 5.87850E+01 2.08932E+01 0.00000E+00
 -1      4219 5.72850E+01 2.08932E+01 0.00000E+00
 -1      4220 5.95350E+01 2.21922E+01 0.00000E+00
 -1      4221 2.02223E+01 2.06575E+01 0.00000E+00
 -1      4222 2.17223E+01 2.06575E+01 0.00000E+00
 -1      4223 2.14095E+01 2.17208E+01 0.00000E+00
 -1      4224 2.32223E+01 2.06575E+01 0.00000E+00
 -1      4225 1.27860E+02 2.62703E+01 0.00000E+00
 -1      4226 1.27801E+02 2.51121E+01 0.00000E+00
 -1      4227 1.26956E+02 2.38536E+01 0.00000E+00
 -1      4228 1.26419E+02 2.74285E+01 0.00000E+00
 -1      4229 4.37850E+01 2.08932E+01 0.00000E+00
 -1      4230 4.22850E+01 2.08932E+01 0.00000E+00
 -1      4231 2.50351E+01 1.95943E+01 0.00000E+00
 -1      4232 4.07850E+01 2.08932E+01 0.00000E+00
 -1      4233 3.92850E+01 2.08932E+01 0.00000E+00
 -1      4234 4.15350E+01 2.21922E+01 0.00000E+00
 -1      4235 7.28483E+01 2.77108E+01 0.00000E+00
 -1      4236 7.43086E+01 2.76015E+01 0.00000E+00
 -1      4237 7.50069E+01 2.60962E+01 0.00000E+00
 -1      4238 3.31500E+01 2.66180E+01 0.00000E+00
 -1      4239 5.27850E+01 2.08932E+01 0.00000E+00
 -1      4240 5.12850E+01 2.08932E+01 0.00000E+00
 -1      4241 5.35350E+01 2.21922E+01 0.00000E+00
 -1      4242 7.74679E+01 2.47794E+01 0.00000E+00
 -1      4243 1.23900E+02 2.79170E+01 0.00000E+00
 -1      4244 1.25400E+02 2.79170E+01 0.00000E+00
 -1      4245 5.65350E+01 2.21922E+01 0.00000E+00
 -1      4246 3.17850E+01 2.08933E+01 0.00000E+00
 -1      4247 3.02850E+01 2.08933E+01 0.00000E+00
 -1      4248 1.22630E+02 2.19536E+01 0.00000E+00
 -1      4249 7.72518E+01 2.28821E+01 0.00000E+00
 -1      4250 1.25669E+02 2.61295E+01 0.00000E+00
 -1      4251 2.16193E+01 2.26796E+01 0.00000E+00
 -1      4252 2.22300E+01 2.58715E+01 0.00000E+00
 -1      4253 2.95350E+01 2.21923E+01 0.00000E+00
 -1      4254 2.87850E+01 2.08933E+01 0.00000E+00
 -1      4255 2.72851E+01 2.08933E+01 0.00000E+00
 -1      4256 1.23505E+02 2.62563E+01 0.00000E+00
 -1      4257 7.20983E+01 2.64118E+01 0.00000E+00
 -1      4258 3.62850E+01 1.82953E+01 0.00000E+00
 -1      4259 3.47850E+01 1.82953E+01 0.00000E+00
 -1      4260 3.40350E+01 1.95943E+01 0.00000E+00
 -1      4261 3.70350E+01 1.95943E+01 0.00000E+00
 -1      4262 1.23378E+02 2.54062E+01 0.00000E+00
 -1      4263 1.24523E+02 2.57679E+01 0.00000E+00
 -1      4264 1.25542E+02 2.52794E+01 0.00000E+00
 -1      4265 4.60350E+01 1.95942E+01 0.00000E+00
 -1      4266 3.54000E+01 2.53190E+01 0.00000E+00
 -1      4267 3.69000E+01 2.53190E+01 0.00000E+00
 -1      4268 2.60037E+01 2.07754E+01 0.00000E+00
 -1      4269 2.45037E+01 2.07754E+01 0.00000E+00
 -1      4270 2.41909E+01 2.18387E+01 0.00000E+00
 -1      4271 2.67537E+01 2.20744E+01 0.00000E+00
 -1      4272 3.88425E+01 2.44051E+01 0.00000E+00
 -1      4273 4.03425E+01 2.44051E+01 0.00000E+00
 -1      4274 4.18425E+01 2.44051E+01 0.00000E+00
 -1      4275 4.33425E+01 2.44051E+01 0.00000E+00
 -1      4276 4.74000E+01 2.53190E+01 0.00000E+00
 -1      4277 4.89000E+01 2.53190E+01 0.00000E+00
 -1      4278 5.08425E+01 2.44051E+01 0.00000E+00
 -1      4279 5.23425E+01 2.44051E+01 0.00000E+00
 -1      4280 5.38425E+01 2.44051E+01 0.00000E+00
 -1      4281 5.53425E+01 2.44051E+01 0.00000E+00
 -1      4282 5.68425E+01 2.44051E+01 0.00000E+00
 -1      4283 5.83425E+01 2.44051E+01 0.00000E+00
 -1      4284 5.98425E+01 2.44051E+01 0.00000E+00
 -1      4285 6.13425E+01 2.44051E+01 0.00000E+00
 -1      4286 6.28425E+01 2.44051E+01 0.00000E+00
 -1      4287 6.43425E+01 2.44051E+01 0.00000E+00
 -1      4288 6.58425E+01 2.44051E+01 0.00000E+00
 -1      4289 6.73425E+01 2.44051E+01 0.00000E+00
 -1      4290 6.88425E+01 2.44051E+01 0.00000E+00
 -1      4291 7.03425E+01 2.44051E+01 0.00000E+00
 -1      4292 3.24000E+01 2.53190E+01 0.00000E+00
 -1      4293 3.39000E+01 2.53190E+01 0.00000E+00
 -1      4294 3.46500E+01 2.40200E+01 0.00000E+00
 -1      4295 1.25456E+02 2.38536E+01 0.00000E+00
 -1      4296 7.18425E+01 2.44051E+01 0.00000E+00
 -1      4297 7.32908E+01 2.41989E+01 0.00000E+00
 -1      4298 3.28425E+01 2.18071E+01 0.00000E+00
 -1      4299 3.20925E+01 2.31061E+01 0.00000E+00
 -1      4300 1.23292E+02 2.39804E+01 0.00000E+00
 -1      4301 7.47511E+01 2.40896E+01 0.00000E+00
 -1      4302 4.93425E+01 2.18071E+01 0.00000E+00
 -1      4303 4.78425E+01 2.18071E+01 0.00000E+00
 -1      4304 4.50638E+01 2.13502E+01 0.00000E+00
 -1      4305 4.43138E+01 2.26492E+01 0.00000E+00
 -1      4306 4.46213E+01 2.48621E+01 0.00000E+00
 -1      4307 4.65638E+01 2.13502E+01 0.00000E+00
 -1      4308 7.62511E+01 2.40896E+01 0.00000E+00
 -1      4309 2.18104E+01 2.39538E+01 0.00000E+00
 -1      4310 2.20202E+01 2.49127E+01 0.00000E+00
 -1      4311 2.35014E+01 2.52280E+01 0.00000E+00
 -1      4312 2.31006E+01 2.29950E+01 0.00000E+00
 -1      4313 2.43820E+01 2.31129E+01 0.00000E+00
 -1      4314 3.43425E+01 2.18071E+01 0.00000E+00
 -1      4315 5.00925E+01 2.31061E+01 0.00000E+00
 -1      4316 4.61213E+01 2.48621E+01 0.00000E+00
 -1      4317 4.68713E+01 2.35631E+01 0.00000E+00
 -1      4318 3.14963E+01 2.42126E+01 0.00000E+00
 -1      4319 3.04388E+01 2.32987E+01 0.00000E+00
 -1      4320 2.89388E+01 2.32987E+01 0.00000E+00
 -1      4321 3.07463E+01 2.55116E+01 0.00000E+00
 -1      4322 1.24311E+02 2.34919E+01 0.00000E+00
 -1      4323 2.92463E+01 2.55116E+01 0.00000E+00
 -1      4324 2.78789E+01 2.54577E+01 0.00000E+00
 -1      4325 2.84752E+01 2.43512E+01 0.00000E+00
 -1      4326 2.75714E+01 2.32448E+01 0.00000E+00
 -1      4327 2.66442E+01 2.53499E+01 0.00000E+00
 -1      4328 2.44555E+01 2.52351E+01 0.00000E+00
 -1      4329 2.56902E+01 2.53429E+01 0.00000E+00
 -1      4330 2.61538E+01 2.42903E+01 0.00000E+00
 -1      4331 2.42457E+01 2.42762E+01 0.00000E+00
 -1      4332 3.73425E+01 2.18071E+01 0.00000E+00
 -1      4333 3.58425E+01 2.18071E+01 0.00000E+00
 -1      4334 3.80925E+01 2.31061E+01 0.00000E+00
 -1      4335 2.53360E+01 2.31199E+01 0.00000E+00
 -1      4336 2.62901E+01 2.31269E+01 0.00000E+00
 -3
    3C                          2086                                     1
 -1       165    8    0    1
 -2         6         7        23      1126      1290      1143
 -1       166    8    0    1
 -2         7         8       165      1127      1291      1292
 -1       167    8    0    1
 -2         8         9       166      1128      1293      1294
 -1       168    8    0    1
 -2         8       166       165      1294      1295      1291
 -1       169    8    0    1
 -2         9        10       167      1129      1296      1297
 -1       170    8    0    1
 -2         9       167       166      1297      1298      1293
 -1       171    8    0    1
 -2        10        11       168      1130      1299      1300
 -1       172    8    0    1
 -2        10       168       167      1300      1301      1296
 -1       173    8    0    1
 -2        11        12       169      1131      1302      1303
 -1       174    8    0    1
 -2        11       169       168      1303      1304      1299
 -1       175    8    0    1
 -2        12        13       170      1132      1305      1306
 -1       176    8    0    1
 -2        12       170       169      1306      1307      1302
 -1       177    8    0    1
 -2        13        14       171      1133      1308      1309
 -1       178    8    0    1
 -2        13       171       170      1309      1310      1305
 -1       179    8    0    1
 -2        14        15       172      1134      1311      1312
 -1       180    8    0    1
 -2        14       172       171      1312      1313      1308
 -1       181    8    0    1
 -2        15        16       173      1135      1314      1315
 -1       182    8    0    1
 -2        15       173       172      1315      1316      1311
 -1       183    8    0    1
 -2        16        17       174      1136      1317      1318
 -1       184    8    0    1
 -2        16       174       173      1318      1319      1314
 -1       185    8    0    1
 -2        17        18       175      1137      1320      1321
 -1       186    8    0    1
 -2        17       175       174      1321      1322      1317
 -1       187    8    0    1
 -2        18        19       176      1138      1323      1324
 -1       188    8    0    1
 -2        18       176       175      1324      1325      1320
 -1       189    8    0    1
 -2        19        20       177      1139      1326      1327
 -1       190    8    0    1
 -2        19       177       176      1327      1328      1323
 -1       191    8    0    1
 -2        20        21       178      1140      1329      1330
 -1       192    8    0    1
 -2        20       178       177      1330      1331      1326
 -1       193    8    0    1
 -2        21        22       179      1141      1332      1333
 -1       194    8    0    1
 -2        21       179       178      1333      1334      1329
 -1       195    8    0    1
 -2        22         5       180      1142      1335      1336
 -1       196    8    0    1
 -2       179        22       180      1332      1336      1337
 -1       197    8    0    1
 -2         5        72       180      1193      1338      1335
 -1       198    8    0    1
 -2        24        23       181      1144      1339      1340
 -1       199    8    0    1
 -2        25        24       182      1145      1341      1342
 -1       200    8    0    1
 -2        24       181       182      1340      1343      1341
 -1       201    8    0    1
 -2        26        25       183      1146      1344      1345
 -1       202    8    0    1
 -2        25       182       183      1342      1346      1344
 -1       203    8    0    1
 -2        27        26       184      1147      1347      1348
 -1       204    8    0    1
 -2        26       183       184      1345      1349      1347
 -1       205    8    0    1
 -2        28        27       185      1148      1350      1351
 -1       206    8    0    1
 -2        27       184       185      1348      1352      1350
 -1       207    8    0    1
 -2        29        28       186      1149      1353      1354
 -1       208    8    0    1
 -2        28       185       186      1351      1355      1353
 -1       209    8    0    1
 -2        30        29       187      1150      1356      1357
 -1       210    8    0    1
 -2        29       186       187      1354      1358      1356
 -1       211    8    0    1
 -2        31        30       188      1151      1359      1360
 -1       212    8    0    1
 -2        30       187       188      1357      1361      1359
 -1       213    8    0    1
 -2        32        31       189      1152      1362      1363
 -1       214    8    0    1
 -2        31       188       189      1360      1364      1362
 -1       215    8    0    1
 -2        33        32       190      1153      1365      1366
 -1       216    8    0    1
 -2        32       189       190      1363      1367      1365
 -1       217    8    0    1
 -2        34        33       191      1154      1368      1369
 -1       218    8    0    1
 -2        33       190       191      1366      1370      1368
 -1       219    8    0    1
 -2        35        34       192      1155      1371      1372
 -1       220    8    0    1
 -2        34       191       192      1369      1373      1371
 -1       221    8    0    1
 -2        36        35       193      1156      1374      1375
 -1       222    8    0    1
 -2        35       192       193      1372      1376      1374
 -1       223    8    0    1
 -2        37        36       194      1157      1377      1378
 -1       224    8    0    1
 -2        36       193       194      1375      1379      1377
 -1       225    8    0    1
 -2        38        37       195      1158      1380      1381
 -1       226    8    0    1
 -2        37       194       195      1378      1382      1380
 -1       227    8    0    1
 -2        39        38       196      1159      1383      1384
 -1       228    8    0    1
 -2        38       195       196      1381      1385      1383
 -1       229    8    0    1
 -2        40        39       197      1160      1386      1387
 -1       230    8    0    1
 -2        39       196       197      1384      1388      1386
 -1       231    8    0    1
 -2        41        40       198      1161      1389      1390
 -1       232    8    0    1
 -2        40       197       198      1387      1391      1389
 -1       233    8    0    1
 -2        42        41       199      1162      1392      1393
 -1       234    8    0    1
 -2        41       198       199      1390      1394      1392
 -1       235    8    0    1
 -2        43        42       200      1163      1395      1396
 -1       236    8    0    1
 -2        42       199       200      1393      1397      1395
 -1       237    8    0    1
 -2        44        43       201      1164      1398      1399
 -1       238    8    0    1
 -2        43       200       201      1396      1400      1398
 -1       239    8    0    1
 -2        45        44       202      1165      1401      1402
 -1       240    8    0    1
 -2        44       201       202      1399      1403      1401
 -1       241    8    0    1
 -2        46        45       203      1166      1404      1405
 -1       242    8    0    1
 -2        45       202       203      1402      1406      1404
 -1       243    8    0    1
 -2        47        46       204      1167      1407      1408
 -1       244    8    0    1
 -2        46       203       204      1405      1409      1407
 -1       245    8    0    1
 -2        48        47       205      1168      1410      1411
 -1       246    8    0    1
 -2        47       204       205      1408      1412      1410
 -1       247    8    0    1
 -2        49        48       206      1169      1413      1414
 -1       248    8    0    1
 -2        48       205       206      1411      1415      1413
 -1       249    8    0    1
 -2        50        49       207      1170      1416      1417
 -1       250    8    0    1
 -2        49       206       207      1414      1418      1416
 -1       251    8    0    1
 -2        51        50       208      1171      1419      1420
 -1       252    8    0    1
 -2        50       207       208      1417      1421      1419
 -1       253    8    0    1
 -2        52        51       209      1172      1422      1423
 -1       254    8    0    1
 -2        51       208       209      1420      1424      1422
 -1       255    8    0    1
 -2        53        52       210      1173      1425      1426
 -1       256    8    0    1
 -2        52       209       210      1423      1427      1425
 -1       257    8    0    1
 -2        54        53       211      1174      1428      1429
 -1       258    8    0    1
 -2        53       210       211      1426      1430      1428
 -1       259    8    0    1
 -2        55        54       212      1175      1431      1432
 -1       260    8    0    1
 -2        54       211       212      1429      1433      1431
 -1       261    8    0    1
 -2        56        55       213      1176      1434      1435
 -1       262    8    0    1
 -2        55       212       213      1432      1436      1434
 -1       263    8    0    1
 -2        57        56       214      1177      1437      1438
 -1       264    8    0    1
 -2        56       213       214      1435      1439      1437
 -1       265    8    0    1
 -2        58        57       215      1178      1440      1441
 -1       266    8    0    1
 -2        57       214       215      1438      1442      1440
 -1       267    8    0    1
 -2        59        58       216      1179      1443      1444
 -1       268    8    0    1
 -2        58       215       216      1441      1445      1443
 -1       269    8    0    1
 -2        60        59       217      1180      1446      1447
 -1       270    8    0    1
 -2        59       216       217      1444      1448      1446
 -1       271    8    0    1
 -2        61        60       218      1181      1449      1450
 -1       272    8    0    1
 -2        60       217       218      1447      1451      1449
 -1       273    8    0    1
 -2        62        61       219      1182      1452      1453
 -1       274    8    0    1
 -2        61       218       219      1450      1454      1452
 -1       275    8    0    1
 -2        63        62       220      1183      1455      1456
 -1       276    8    0    1
 -2        62       219       220      1453      1457      1455
 -1       277    8    0    1
 -2        64        63       221      1184      1458      1459
 -1       278    8    0    1
 -2        63       220       221      1456      1460      1458
 -1       279    8    0    1
 -2        65        64       222      1185      1461      1462
 -1       280    8    0    1
 -2        64       221       222      1459      1463      1461
 -1       281    8    0    1
 -2        66        65       223      1186      1464      1465
 -1       282    8    0    1
 -2        65       222       223      1462      1466      1464
 -1       283    8    0    1
 -2        67        66       224      1187      1467      1468
 -1       284    8    0    1
 -2        66       223       224      1465      1469      1467
 -1       285    8    0    1
 -2        68        67       225      1188      1470      1471
 -1       286    8    0    1
 -2        67       224       225      1468      1472      1470
 -1       287    8    0    1
 -2        69        68       226      1189      1473      1474
 -1       288    8    0    1
 -2        68       225       226      1471      1475      1473
 -1       289    8    0    1
 -2        70        69       227      1190      1476      1477
 -1       290    8    0    1
 -2        69       226       227      1474      1478      1476
 -1       291    8    0    1
 -2        71        70       228      1191      1479      1480
 -1       292    8    0    1
 -2        70       227       228      1477      1481      1479
 -1       293    8    0    1
 -2         4        71       136      1192      1482      1259
 -1       294    8    0    1
 -2       136        71       228      1482      1480      1483
 -1       295    8    0    1
 -2        72        73       229      1194      1484      1485
 -1       296    8    0    1
 -2        72       229       180      1485      1486      1338
 -1       297    8    0    1
 -2        73        74       230      1195      1487      1488
 -1       298    8    0    1
 -2        73       230       229      1488      1489      1484
 -1       299    8    0    1
 -2        74        75       231      1196      1490      1491
 -1       300    8    0    1
 -2        74       231       230      1491      1492      1487
 -1       301    8    0    1
 -2        75        76       232      1197      1493      1494
 -1       302    8    0    1
 -2        75       232       231      1494      1495      1490
 -1       303    8    0    1
 -2        76        77       233      1198      1496      1497
 -1       304    8    0    1
 -2        76       233       232      1497      1498      1493
 -1       305    8    0    1
 -2        77        78       234      1199      1499      1500
 -1       306    8    0    1
 -2        77       234       233      1500      1501      1496
 -1       307    8    0    1
 -2        78        79       235      1200      1502      1503
 -1       308    8    0    1
 -2        78       235       234      1503      1504      1499
 -1       309    8    0    1
 -2        79        80       236      1201      1505      1506
 -1       310    8    0    1
 -2        79       236       235      1506      1507      1502
 -1       311    8    0    1
 -2        80        81       237      1202      1508      1509
 -1       312    8    0    1
 -2        80       237       236      1509      1510      1505
 -1       313    8    0    1
 -2        81        82       238      1203      1511      1512
 -1       314    8    0    1
 -2        81       238       237      1512      1513      1508
 -1       315    8    0    1
 -2        82        83       239      1204      1514      1515
 -1       316    8    0    1
 -2        82       239       238      1515      1516      1511
 -1       317    8    0    1
 -2        83        84       240      1205      1517      1518
 -1       318    8    0    1
 -2        83       240       239      1518      1519      1514
 -1       319    8    0    1
 -2        84        85       241      1206      1520      1521
 -1       320    8    0    1
 -2        84       241       240      1521      1522      1517
 -1       321    8    0    1
 -2        85        86       242      1207      1523      1524
 -1       322    8    0    1
 -2        85       242       241      1524      1525      1520
 -1       323    8    0    1
 -2        86        87       243      1208      1526      1527
 -1       324    8    0    1
 -2        86       243       242      1527      1528      1523
 -1       325    8    0    1
 -2        87        88       244      1209      1529      1530
 -1       326    8    0    1
 -2        87       244       243      1530      1531      1526
 -1       327    8    0    1
 -2        88        89       245      1210      1532      1533
 -1       328    8    0    1
 -2        88       245       244      1533      1534      1529
 -1       329    8    0    1
 -2        89        90       246      1211      1535      1536
 -1       330    8    0    1
 -2        89       246       245      1536      1537      1532
 -1       331    8    0    1
 -2        90        91       247      1212      1538      1539
 -1       332    8    0    1
 -2        90       247       246      1539      1540      1535
 -1       333    8    0    1
 -2        91        92       248      1213      1541      1542
 -1       334    8    0    1
 -2        91       248       247      1542      1543      1538
 -1       335    8    0    1
 -2        92        93       249      1214      1544      1545
 -1       336    8    0    1
 -2        92       249       248      1545      1546      1541
 -1       337    8    0    1
 -2        93        94       250      1215      1547      1548
 -1       338    8    0    1
 -2        93       250       249      1548      1549      1544
 -1       339    8    0    1
 -2        94        95       251      1216      1550      1551
 -1       340    8    0    1
 -2        94       251       250      1551      1552      1547
 -1       341    8    0    1
 -2        95        96       252      1217      1553      1554
 -1       342    8    0    1
 -2        95       252       251      1554      1555      1550
 -1       343    8    0    1
 -2        96        97       253      1218      1556      1557
 -1       344    8    0    1
 -2        96       253       252      1557      1558      1553
 -1       345    8    0    1
 -2        97        98       254      1219      1559      1560
 -1       346    8    0    1
 -2        97       254       253      1560      1561      1556
 -1       347    8    0    1
 -2        98        99       255      1220      1562      1563
 -1       348    8    0    1
 -2        98       255       254      1563      1564      1559
 -1       349    8    0    1
 -2        99       100       256      1221      1565      1566
 -1       350    8    0    1
 -2        99       256       255      1566      1567      1562
 -1       351    8    0    1
 -2       100       101       257      1222      1568      1569
 -1       352    8    0    1
 -2       100       257       256      1569      1570      1565
 -1       353    8    0    1
 -2       101       102       258      1223      1571      1572
 -1       354    8    0    1
 -2       101       258       257      1572      1573      1568
 -1       355    8    0    1
 -2       102       103       259      1224      1574      1575
 -1       356    8    0    1
 -2       102       259       258      1575      1576      1571
 -1       357    8    0    1
 -2       103       104       260      1225      1577      1578
 -1       358    8    0    1
 -2       103       260       259      1578      1579      1574
 -1       359    8    0    1
 -2       104       105       261      1226      1580      1581
 -1       360    8    0    1
 -2       104       261       260      1581      1582      1577
 -1       361    8    0    1
 -2       105       106       262      1227      1583      1584
 -1       362    8    0    1
 -2       105       262       261      1584      1585      1580
 -1       363    8    0    1
 -2       106       107       263      1228      1586      1587
 -1       364    8    0    1
 -2       106       263       262      1587      1588      1583
 -1       365    8    0    1
 -2       107       108       264      1229      1589      1590
 -1       366    8    0    1
 -2       107       264       263      1590      1591      1586
 -1       367    8    0    1
 -2       108       109       265      1230      1592      1593
 -1       368    8    0    1
 -2       108       265       264      1593      1594      1589
 -1       369    8    0    1
 -2       109       110       266      1231      1595      1596
 -1       370    8    0    1
 -2       109       266       265      1596      1597      1592
 -1       371    8    0    1
 -2       110       111       267      1232      1598      1599
 -1       372    8    0    1
 -2       110       267       266      1599      1600      1595
 -1       373    8    0    1
 -2       111       112       268      1233      1601      1602
 -1       374    8    0    1
 -2       111       268       267      1602      1603      1598
 -1       375    8    0    1
 -2       112       113       269      1234      1604      1605
 -1       376    8    0    1
 -2       112       269       268      1605      1606      1601
 -1       377    8    0    1
 -2       113       114       270      1235      1607      1608
 -1       378    8    0    1
 -2       113       270       269      1608      1609      1604
 -1       379    8    0    1
 -2       114       115       271      1236      1610      1611
 -1       380    8    0    1
 -2       114       271       270      1611      1612      1607
 -1       381    8    0    1
 -2       115       116       272      1237      1613      1614
 -1       382    8    0    1
 -2       115       272       271      1614      1615      1610
 -1       383    8    0    1
 -2       116       117       273      1238      1616      1617
 -1       384    8    0    1
 -2       116       273       272      1617      1618      1613
 -1       385    8    0    1
 -2       117       118       274      1239      1619      1620
 -1       386    8    0    1
 -2       117       274       273      1620      1621      1616
 -1       387    8    0    1
 -2       118       119       275      1240      1622      1623
 -1       388    8    0    1
 -2       118       275       274      1623      1624      1619
 -1       389    8    0    1
 -2       119       120       276      1241      1625      1626
 -1       390    8    0    1
 -2       119       276       275      1626      1627      1622
 -1       391    8    0    1
 -2       120         3       121      1242      1243      1628
 -1       392    8    0    1
 -2       121       122       277      1244      1629      1630
 -1       393    8    0    1
 -2       122       123       278      1245      1631      1632
 -1       394    8    0    1
 -2       122       278       277      1632      1633      1629
 -1       395    8    0    1
 -2       123       124       279      1246      1634      1635
 -1       396    8    0    1
 -2       123       279       278      1635      1636      1631
 -1       397    8    0    1
 -2       124       125       280      1247      1637      1638
 -1       398    8    0    1
 -2       124       280       279      1638      1639      1634
 -1       399    8    0    1
 -2       125       126       281      1248      1640      1641
 -1       400    8    0    1
 -2       125       281       280      1641      1642      1637
 -1       401    8    0    1
 -2       126       127       282      1249      1643      1644
 -1       402    8    0    1
 -2       126       282       281      1644      1645      1640
 -1       403    8    0    1
 -2       127       128       283      1250      1646      1647
 -1       404    8    0    1
 -2       127       283       282      1647      1648      1643
 -1       405    8    0    1
 -2       128       129       284      1251      1649      1650
 -1       406    8    0    1
 -2       128       284       283      1650      1651      1646
 -1       407    8    0    1
 -2       129       130       285      1252      1652      1653
 -1       408    8    0    1
 -2       129       285       284      1653      1654      1649
 -1       409    8    0    1
 -2       130       131       286      1253      1655      1656
 -1       410    8    0    1
 -2       130       286       285      1656      1657      1652
 -1       411    8    0    1
 -2       131       132       287      1254      1658      1659
 -1       412    8    0    1
 -2       131       287       286      1659      1660      1655
 -1       413    8    0    1
 -2       132       133       288      1255      1661      1662
 -1       414    8    0    1
 -2       132       288       287      1662      1663      1658
 -1       415    8    0    1
 -2       133       134       289      1256      1664      1665
 -1       416    8    0    1
 -2       133       289       288      1665      1666      1661
 -1       417    8    0    1
 -2       134       135       290      1257      1667      1668
 -1       418    8    0    1
 -2       134       290       289      1668      1669      1664
 -1       419    8    0    1
 -2       135       136       291      1258      1670      1671
 -1       420    8    0    1
 -2       290       135       291      1667      1671      1672
 -1       421    8    0    1
 -2       136       228       291      1483      1673      1670
 -1       422    8    0    1
 -2         2       137       292      1260      1674      1675
 -1       423    8    0    1
 -2       137       138       293      1261      1676      1677
 -1       424    8    0    1
 -2       138       139       294      1262      1678      1679
 -1       425    8    0    1
 -2       139       140       295      1263      1680      1681
 -1       426    8    0    1
 -2       140       141       296      1264      1682      1683
 -1       427    8    0    1
 -2       141       142       297      1265      1684      1685
 -1       428    8    0    1
 -2       142       143       298      1266      1686      1687
 -1       429    8    0    1
 -2       143       144       299      1267      1688      1689
 -1       430    8    0    1
 -2       144       145       300      1268      1690      1691
 -1       431    8    0    1
 -2       145       146       301      1269      1692      1693
 -1       432    8    0    1
 -2       146       147       302      1270      1694      1695
 -1       433    8    0    1
 -2       147       148       303      1271      1696      1697
 -1       434    8    0    1
 -2       148       149       304      1272      1698      1699
 -1       435    8    0    1
 -2       149       150       305      1273      1700      1701
 -1       436    8    0    1
 -2       150       151       306      1274      1702      1703
 -1       437    8    0    1
 -2       151       152       307      1275      1704      1705
 -1       438    8    0    1
 -2       152       153       308      1276      1706      1707
 -1       439    8    0    1
 -2       153       154       309      1277      1708      1709
 -1       440    8    0    1
 -2       154       155       310      1278      1710      1711
 -1       441    8    0    1
 -2       155       156       311      1279      1712      1713
 -1       442    8    0    1
 -2       156         1       312      1280      1714      1715
 -1       443    8    0    1
 -2         1       157       313      1281      1716      1717
 -1       444    8    0    1
 -2       157       158       314      1282      1718      1719
 -1       445    8    0    1
 -2       158       159       315      1283      1720      1721
 -1       446    8    0    1
 -2       159       160       316      1284      1722      1723
 -1       447    8    0    1
 -2       160       161       317      1285      1724      1725
 -1       448    8    0    1
 -2       161       162       318      1286      1726      1727
 -1       449    8    0    1
 -2       162       163       319      1287      1728      1729
 -1       450    8    0    1
 -2       163       164       320      1288      1730      1731
 -1       451    8    0    1
 -2       164         2       321      1289      1732      1733
 -1       452    8    0    1
 -2       295       140       296      1680      1683      1734
 -1       453    8    0    1
 -2       294       139       295      1678      1681      1735
 -1       454    8    0    1
 -2       120       121       276      1628      1736      1625
 -1       455    8    0    1
 -2       121       277       276      1630      1737      1736
 -1       456    8    0    1
 -2       292       137       293      1674      1677      1738
 -1       457    8    0    1
 -2       293       138       294      1676      1679      1739
 -1       458    8    0    1
 -2         2       292       321      1675      1740      1732
 -1       459    8    0    1
 -2       141       297       296      1685      1741      1682
 -1       460    8    0    1
 -2       142       298       297      1687      1742      1684
 -1       461    8    0    1
 -2       143       299       298      1689      1743      1686
 -1       462    8    0    1
 -2       144       300       299      1691      1744      1688
 -1       463    8    0    1
 -2       145       301       300      1693      1745      1690
 -1       464    8    0    1
 -2       146       302       301      1695      1746      1692
 -1       465    8    0    1
 -2       147       303       302      1697      1747      1694
 -1       466    8    0    1
 -2       148       304       303      1699      1748      1696
 -1       467    8    0    1
 -2       149       305       304      1701      1749      1698
 -1       468    8    0    1
 -2       150       306       305      1703      1750      1700
 -1       469    8    0    1
 -2       151       307       306      1705      1751      1702
 -1       470    8    0    1
 -2       152       308       307      1707      1752      1704
 -1       471    8    0    1
 -2       153       309       308      1709      1753      1706
 -1       472    8    0    1
 -2       154       310       309      1711      1754      1708
 -1       473    8    0    1
 -2       155       311       310      1713      1755      1710
 -1       474    8    0    1
 -2       156       312       311      1715      1756      1712
 -1       475    8    0    1
 -2         1       313       312      1717      1757      1714
 -1       476    8    0    1
 -2       157       314       313      1719      1758      1716
 -1       477    8    0    1
 -2       158       315       314      1721      1759      1718
 -1       478    8    0    1
 -2       159       316       315      1723      1760      1720
 -1       479    8    0    1
 -2       160       317       316      1725      1761      1722
 -1       480    8    0    1
 -2       161       318       317      1727      1762      1724
 -1       481    8    0    1
 -2       162       319       318      1729      1763      1726
 -1       482    8    0    1
 -2       163       320       319      1731      1764      1728
 -1       483    8    0    1
 -2       164       321       320      1733      1765      1730
 -1       484    8    0    1
 -2        23         7       165      1290      1292      1766
 -1       485    8    0    1
 -2       166       167       322      1298      1767      1768
 -1       486    8    0    1
 -2       165       166       323      1295      1769      1770
 -1       487    8    0    1
 -2       166       322       323      1768      1771      1769
 -1       488    8    0    1
 -2       168       169       324      1304      1772      1773
 -1       489    8    0    1
 -2       169       170       325      1307      1774      1775
 -1       490    8    0    1
 -2       169       325       324      1775      1776      1772
 -1       491    8    0    1
 -2       170       171       326      1310      1777      1778
 -1       492    8    0    1
 -2       170       326       325      1778      1779      1774
 -1       493    8    0    1
 -2       171       172       327      1313      1780      1781
 -1       494    8    0    1
 -2       171       327       326      1781      1782      1777
 -1       495    8    0    1
 -2       172       173       328      1316      1783      1784
 -1       496    8    0    1
 -2       172       328       327      1784      1785      1780
 -1       497    8    0    1
 -2       173       174       329      1319      1786      1787
 -1       498    8    0    1
 -2       173       329       328      1787      1788      1783
 -1       499    8    0    1
 -2       174       175       330      1322      1789      1790
 -1       500    8    0    1
 -2       174       330       329      1790      1791      1786
 -1       501    8    0    1
 -2       175       176       331      1325      1792      1793
 -1       502    8    0    1
 -2       175       331       330      1793      1794      1789
 -1       503    8    0    1
 -2       176       177       332      1328      1795      1796
 -1       504    8    0    1
 -2       176       332       331      1796      1797      1792
 -1       505    8    0    1
 -2       177       178       333      1331      1798      1799
 -1       506    8    0    1
 -2       177       333       332      1799      1800      1795
 -1       507    8    0    1
 -2       178       179       334      1334      1801      1802
 -1       508    8    0    1
 -2       178       334       333      1802      1803      1798
 -1       509    8    0    1
 -2       179       180       335      1337      1804      1805
 -1       510    8    0    1
 -2       334       179       335      1801      1805      1806
 -1       511    8    0    1
 -2       180       229       335      1486      1807      1804
 -1       512    8    0    1
 -2       181        23       165      1339      1766      1808
 -1       513    8    0    1
 -2       229       230       336      1489      1809      1810
 -1       514    8    0    1
 -2       229       336       335      1810      1811      1807
 -1       515    8    0    1
 -2       181       165       323      1808      1770      1812
 -1       516    8    0    1
 -2       183       182       337      1346      1813      1814
 -1       517    8    0    1
 -2       184       183       338      1349      1815      1816
 -1       518    8    0    1
 -2       183       337       338      1814      1817      1815
 -1       519    8    0    1
 -2       185       184       339      1352      1818      1819
 -1       520    8    0    1
 -2       184       338       339      1816      1820      1818
 -1       521    8    0    1
 -2       186       185       340      1355      1821      1822
 -1       522    8    0    1
 -2       185       339       340      1819      1823      1821
 -1       523    8    0    1
 -2       187       186       341      1358      1824      1825
 -1       524    8    0    1
 -2       186       340       341      1822      1826      1824
 -1       525    8    0    1
 -2       188       187       342      1361      1827      1828
 -1       526    8    0    1
 -2       187       341       342      1825      1829      1827
 -1       527    8    0    1
 -2       189       188       343      1364      1830      1831
 -1       528    8    0    1
 -2       188       342       343      1828      1832      1830
 -1       529    8    0    1
 -2       190       189       344      1367      1833      1834
 -1       530    8    0    1
 -2       189       343       344      1831      1835      1833
 -1       531    8    0    1
 -2       191       190       345      1370      1836      1837
 -1       532    8    0    1
 -2       190       344       345      1834      1838      1836
 -1       533    8    0    1
 -2       192       191       346      1373      1839      1840
 -1       534    8    0    1
 -2       191       345       346      1837      1841      1839
 -1       535    8    0    1
 -2       193       192       347      1376      1842      1843
 -1       536    8    0    1
 -2       192       346       347      1840      1844      1842
 -1       537    8    0    1
 -2       194       193       348      1379      1845      1846
 -1       538    8    0    1
 -2       193       347       348      1843      1847      1845
 -1       539    8    0    1
 -2       195       194       349      1382      1848      1849
 -1       540    8    0    1
 -2       194       348       349      1846      1850      1848
 -1       541    8    0    1
 -2       196       195       350      1385      1851      1852
 -1       542    8    0    1
 -2       195       349       350      1849      1853      1851
 -1       543    8    0    1
 -2       197       196       351      1388      1854      1855
 -1       544    8    0    1
 -2       196       350       351      1852      1856      1854
 -1       545    8    0    1
 -2       198       197       352      1391      1857      1858
 -1       546    8    0    1
 -2       197       351       352      1855      1859      1857
 -1       547    8    0    1
 -2       199       198       353      1394      1860      1861
 -1       548    8    0    1
 -2       198       352       353      1858      1862      1860
 -1       549    8    0    1
 -2       200       199       354      1397      1863      1864
 -1       550    8    0    1
 -2       199       353       354      1861      1865      1863
 -1       551    8    0    1
 -2       201       200       355      1400      1866      1867
 -1       552    8    0    1
 -2       200       354       355      1864      1868      1866
 -1       553    8    0    1
 -2       202       201       356      1403      1869      1870
 -1       554    8    0    1
 -2       201       355       356      1867      1871      1869
 -1       555    8    0    1
 -2       203       202       357      1406      1872      1873
 -1       556    8    0    1
 -2       202       356       357      1870      1874      1872
 -1       557    8    0    1
 -2       204       203       358      1409      1875      1876
 -1       558    8    0    1
 -2       203       357       358      1873      1877      1875
 -1       559    8    0    1
 -2       205       204       359      1412      1878      1879
 -1       560    8    0    1
 -2       204       358       359      1876      1880      1878
 -1       561    8    0    1
 -2       206       205       360      1415      1881      1882
 -1       562    8    0    1
 -2       205       359       360      1879      1883      1881
 -1       563    8    0    1
 -2       207       206       361      1418      1884      1885
 -1       564    8    0    1
 -2       206       360       361      1882      1886      1884
 -1       565    8    0    1
 -2       208       207       362      1421      1887      1888
 -1       566    8    0    1
 -2       207       361       362      1885      1889      1887
 -1       567    8    0    1
 -2       209       208       363      1424      1890      1891
 -1       568    8    0    1
 -2       208       362       363      1888      1892      1890
 -1       569    8    0    1
 -2       210       209       364      1427      1893      1894
 -1       570    8    0    1
 -2       209       363       364      1891      1895      1893
 -1       571    8    0    1
 -2       211       210       365      1430      1896      1897
 -1       572    8    0    1
 -2       210       364       365      1894      1898      1896
 -1       573    8    0    1
 -2       212       211       366      1433      1899      1900
 -1       574    8    0    1
 -2       211       365       366      1897      1901      1899
 -1       575    8    0    1
 -2       213       212       367      1436      1902      1903
 -1       576    8    0    1
 -2       212       366       367      1900      1904      1902
 -1       577    8    0    1
 -2       214       213       368      1439      1905      1906
 -1       578    8    0    1
 -2       213       367       368      1903      1907      1905
 -1       579    8    0    1
 -2       215       214       369      1442      1908      1909
 -1       580    8    0    1
 -2       214       368       369      1906      1910      1908
 -1       581    8    0    1
 -2       216       215       370      1445      1911      1912
 -1       582    8    0    1
 -2       215       369       370      1909      1913      1911
 -1       583    8    0    1
 -2       217       216       371      1448      1914      1915
 -1       584    8    0    1
 -2       216       370       371      1912      1916      1914
 -1       585    8    0    1
 -2       218       217       372      1451      1917      1918
 -1       586    8    0    1
 -2       217       371       372      1915      1919      1917
 -1       587    8    0    1
 -2       219       218       373      1454      1920      1921
 -1       588    8    0    1
 -2       218       372       373      1918      1922      1920
 -1       589    8    0    1
 -2       220       219       374      1457      1923      1924
 -1       590    8    0    1
 -2       219       373       374      1921      1925      1923
 -1       591    8    0    1
 -2       221       220       375      1460      1926      1927
 -1       592    8    0    1
 -2       220       374       375      1924      1928      1926
 -1       593    8    0    1
 -2       222       221       376      1463      1929      1930
 -1       594    8    0    1
 -2       221       375       376      1927      1931      1929
 -1       595    8    0    1
 -2       223       222       377      1466      1932      1933
 -1       596    8    0    1
 -2       222       376       377      1930      1934      1932
 -1       597    8    0    1
 -2       224       223       378      1469      1935      1936
 -1       598    8    0    1
 -2       223       377       378      1933      1937      1935
 -1       599    8    0    1
 -2       225       224       379      1472      1938      1939
 -1       600    8    0    1
 -2       224       378       379      1936      1940      1938
 -1       601    8    0    1
 -2       226       225       380      1475      1941      1942
 -1       602    8    0    1
 -2       225       379       380      1939      1943      1941
 -1       603    8    0    1
 -2       227       226       381      1478      1944      1945
 -1       604    8    0    1
 -2       226       380       381      1942      1946      1944
 -1       605    8    0    1
 -2       228       227       382      1481      1947      1948
 -1       606    8    0    1
 -2       291       228       382      1673      1948      1949
 -1       607    8    0    1
 -2       227       381       382      1945      1950      1947
 -1       608    8    0    1
 -2       230       231       383      1492      1951      1952
 -1       609    8    0    1
 -2       230       383       336      1952      1953      1809
 -1       610    8    0    1
 -2       231       232       384      1495      1954      1955
 -1       611    8    0    1
 -2       231       384       383      1955      1956      1951
 -1       612    8    0    1
 -2       232       233       385      1498      1957      1958
 -1       613    8    0    1
 -2       232       385       384      1958      1959      1954
 -1       614    8    0    1
 -2       233       234       386      1501      1960      1961
 -1       615    8    0    1
 -2       233       386       385      1961      1962      1957
 -1       616    8    0    1
 -2       234       235       387      1504      1963      1964
 -1       617    8    0    1
 -2       234       387       386      1964      1965      1960
 -1       618    8    0    1
 -2       235       236       388      1507      1966      1967
 -1       619    8    0    1
 -2       235       388       387      1967      1968      1963
 -1       620    8    0    1
 -2       236       237       389      1510      1969      1970
 -1       621    8    0    1
 -2       236       389       388      1970      1971      1966
 -1       622    8    0    1
 -2       237       238       390      1513      1972      1973
 -1       623    8    0    1
 -2       237       390       389      1973      1974      1969
 -1       624    8    0    1
 -2       238       239       391      1516      1975      1976
 -1       625    8    0    1
 -2       238       391       390      1976      1977      1972
 -1       626    8    0    1
 -2       239       240       392      1519      1978      1979
 -1       627    8    0    1
 -2       239       392       391      1979      1980      1975
 -1       628    8    0    1
 -2       240       241       393      1522      1981      1982
 -1       629    8    0    1
 -2       240       393       392      1982      1983      1978
 -1       630    8    0    1
 -2       241       242       394      1525      1984      1985
 -1       631    8    0    1
 -2       241       394       393      1985      1986      1981
 -1       632    8    0    1
 -2       242       243       395      1528      1987      1988
 -1       633    8    0    1
 -2       242       395       394      1988      1989      1984
 -1       634    8    0    1
 -2       243       244       396      1531      1990      1991
 -1       635    8    0    1
 -2       243       396       395      1991      1992      1987
 -1       636    8    0    1
 -2       244       245       397      1534      1993      1994
 -1       637    8    0    1
 -2       244       397       396      1994      1995      1990
 -1       638    8    0    1
 -2       245       246       398      1537      1996      1997
 -1       639    8    0    1
 -2       245       398       397      1997      1998      1993
 -1       640    8    0    1
 -2       246       247       399      1540      1999      2000
 -1       641    8    0    1
 -2       246       399       398      2000      2001      1996
 -1       642    8    0    1
 -2       247       248       400      1543      2002      2003
 -1       643    8    0    1
 -2       247       400       399      2003      2004      1999
 -1       644    8    0    1
 -2       248       249       401      1546      2005      2006
 -1       645    8    0    1
 -2       248       401       400      2006      2007      2002
 -1       646    8    0    1
 -2       249       250       402      1549      2008      2009
 -1       647    8    0    1
 -2       249       402       401      2009      2010      2005
 -1       648    8    0    1
 -2       250       251       403      1552      2011      2012
 -1       649    8    0    1
 -2       250       403       402      2012      2013      2008
 -1       650    8    0    1
 -2       251       252       404      1555      2014      2015
 -1       651    8    0    1
 -2       251       404       403      2015      2016      2011
 -1       652    8    0    1
 -2       252       253       405      1558      2017      2018
 -1       653    8    0    1
 -2       252       405       404      2018      2019      2014
 -1       654    8    0    1
 -2       253       254       406      1561      2020      2021
 -1       655    8    0    1
 -2       253       406       405      2021      2022      2017
 -1       656    8    0    1
 -2       254       255       407      1564      2023      2024
 -1       657    8    0    1
 -2       254       407       406      2024      2025      2020
 -1       658    8    0    1
 -2       255       256       408      1567      2026      2027
 -1       659    8    0    1
 -2       255       408       407      2027      2028      2023
 -1       660    8    0    1
 -2       256       257       409      1570      2029      2030
 -1       661    8    0    1
 -2       256       409       408      2030      2031      2026
 -1       662    8    0    1
 -2       257       258       410      1573      2032      2033
 -1       663    8    0    1
 -2       257       410       409      2033      2034      2029
 -1       664    8    0    1
 -2       258       259       411      1576      2035      2036
 -1       665    8    0    1
 -2       258       411       410      2036      2037      2032
 -1       666    8    0    1
 -2       259       260       412      1579      2038      2039
 -1       667    8    0    1
 -2       259       412       411      2039      2040      2035
 -1       668    8    0    1
 -2       260       261       413      1582      2041      2042
 -1       669    8    0    1
 -2       260       413       412      2042      2043      2038
 -1       670    8    0    1
 -2       261       262       414      1585      2044      2045
 -1       671    8    0    1
 -2       261       414       413      2045      2046      2041
 -1       672    8    0    1
 -2       262       263       415      1588      2047      2048
 -1       673    8    0    1
 -2       262       415       414      2048      2049      2044
 -1       674    8    0    1
 -2       263       264       416      1591      2050      2051
 -1       675    8    0    1
 -2       263       416       415      2051      2052      2047
 -1       676    8    0    1
 -2       264       265       417      1594      2053      2054
 -1       677    8    0    1
 -2       264       417       416      2054      2055      2050
 -1       678    8    0    1
 -2       265       266       418      1597      2056      2057
 -1       679    8    0    1
 -2       265       418       417      2057      2058      2053
 -1       680    8    0    1
 -2       266       267       419      1600      2059      2060
 -1       681    8    0    1
 -2       266       419       418      2060      2061      2056
 -1       682    8    0    1
 -2       267       268       420      1603      2062      2063
 -1       683    8    0    1
 -2       267       420       419      2063      2064      2059
 -1       684    8    0    1
 -2       268       269       421      1606      2065      2066
 -1       685    8    0    1
 -2       268       421       420      2066      2067      2062
 -1       686    8    0    1
 -2       269       270       422      1609      2068      2069
 -1       687    8    0    1
 -2       269       422       421      2069      2070      2065
 -1       688    8    0    1
 -2       270       271       423      1612      2071      2072
 -1       689    8    0    1
 -2       270       423       422      2072      2073      2068
 -1       690    8    0    1
 -2       271       272       424      1615      2074      2075
 -1       691    8    0    1
 -2       271       424       423      2075      2076      2071
 -1       692    8    0    1
 -2       272       273       425      1618      2077      2078
 -1       693    8    0    1
 -2       272       425       424      2078      2079      2074
 -1       694    8    0    1
 -2       273       274       426      1621      2080      2081
 -1       695    8    0    1
 -2       273       426       425      2081      2082      2077
 -1       696    8    0    1
 -2       274       275       427      1624      2083      2084
 -1       697    8    0    1
 -2       274       427       426      2084      2085      2080
 -1       698    8    0    1
 -2       275       276       428      1627      2086      2087
 -1       699    8    0    1
 -2       427       275       428      2083      2087      2088
 -1       700    8    0    1
 -2       276       277       428      1737      2089      2086
 -1       701    8    0    1
 -2       279       280       429      1639      2090      2091
 -1       702    8    0    1
 -2       278       279       430      1636      2092      2093
 -1       703    8    0    1
 -2       279       429       430      2091      2094      2092
 -1       704    8    0    1
 -2       277       278       431      1633      2095      2096
 -1       705    8    0    1
 -2       428       277       431      2089      2096      2097
 -1       706    8    0    1
 -2       278       430       431      2093      2098      2095
 -1       707    8    0    1
 -2       280       281       432      1642      2099      2100
 -1       708    8    0    1
 -2       280       432       429      2100      2101      2090
 -1       709    8    0    1
 -2       281       282       433      1645      2102      2103
 -1       710    8    0    1
 -2       281       433       432      2103      2104      2099
 -1       711    8    0    1
 -2       282       283       434      1648      2105      2106
 -1       712    8    0    1
 -2       282       434       433      2106      2107      2102
 -1       713    8    0    1
 -2       283       284       435      1651      2108      2109
 -1       714    8    0    1
 -2       283       435       434      2109      2110      2105
 -1       715    8    0    1
 -2       284       285       436      1654      2111      2112
 -1       716    8    0    1
 -2       284       436       435      2112      2113      2108
 -1       717    8    0    1
 -2       285       286       437      1657      2114      2115
 -1       718    8    0    1
 -2       285       437       436      2115      2116      2111
 -1       719    8    0    1
 -2       286       287       438      1660      2117      2118
 -1       720    8    0    1
 -2       286       438       437      2118      2119      2114
 -1       721    8    0    1
 -2       287       288       439      1663      2120      2121
 -1       722    8    0    1
 -2       287       439       438      2121      2122      2117
 -1       723    8    0    1
 -2       288       289       440      1666      2123      2124
 -1       724    8    0    1
 -2       288       440       439      2124      2125      2120
 -1       725    8    0    1
 -2       289       290       441      1669      2126      2127
 -1       726    8    0    1
 -2       289       441       440      2127      2128      2123
 -1       727    8    0    1
 -2       293       294       442      1739      2129      2130
 -1       728    8    0    1
 -2       321       292       443      1740      2131      2132
 -1       729    8    0    1
 -2       292       293       444      1738      2133      2134
 -1       730    8    0    1
 -2       294       295       445      1735      2135      2136
 -1       731    8    0    1
 -2       295       296       446      1734      2137      2138
 -1       732    8    0    1
 -2       167       168       447      1301      2139      2140
 -1       733    8    0    1
 -2       322       167       447      1767      2140      2141
 -1       734    8    0    1
 -2       168       324       447      1773      2142      2139
 -1       735    8    0    1
 -2       297       298       448      1742      2143      2144
 -1       736    8    0    1
 -2       298       299       449      1743      2145      2146
 -1       737    8    0    1
 -2       299       300       450      1744      2147      2148
 -1       738    8    0    1
 -2       300       301       451      1745      2149      2150
 -1       739    8    0    1
 -2       301       302       452      1746      2151      2152
 -1       740    8    0    1
 -2       302       303       453      1747      2153      2154
 -1       741    8    0    1
 -2       303       304       454      1748      2155      2156
 -1       742    8    0    1
 -2       304       305       455      1749      2157      2158
 -1       743    8    0    1
 -2       305       306       456      1750      2159      2160
 -1       744    8    0    1
 -2       306       307       457      1751      2161      2162
 -1       745    8    0    1
 -2       307       308       458      1752      2163      2164
 -1       746    8    0    1
 -2       308       309       459      1753      2165      2166
 -1       747    8    0    1
 -2       308       459       458      2166      2167      2163
 -1       748    8    0    1
 -2       309       310       460      1754      2168      2169
 -1       749    8    0    1
 -2       310       311       461      1755      2170      2171
 -1       750    8    0    1
 -2       311       312       462      1756      2172      2173
 -1       751    8    0    1
 -2       312       313       463      1757      2174      2175
 -1       752    8    0    1
 -2       313       314       464      1758      2176      2177
 -1       753    8    0    1
 -2       313       464       463      2177      2178      2174
 -1       754    8    0    1
 -2       314       315       465      1759      2179      2180
 -1       755    8    0    1
 -2       315       316       466      1760      2181      2182
 -1       756    8    0    1
 -2       316       317       467      1761      2183      2184
 -1       757    8    0    1
 -2       317       318       468      1762      2185      2186
 -1       758    8    0    1
 -2       318       319       469      1763      2187      2188
 -1       759    8    0    1
 -2       319       320       470      1764      2189      2190
 -1       760    8    0    1
 -2       320       321       471      1765      2191      2192
 -1       761    8    0    1
 -2       321       443       471      2132      2193      2191
 -1       762    8    0    1
 -2       296       297       472      1741      2194      2195
 -1       763    8    0    1
 -2       445       295       446      2135      2138      2196
 -1       764    8    0    1
 -2       181       323       182      1812      2197      1343
 -1       765    8    0    1
 -2       446       296       472      2137      2195      2198
 -1       766    8    0    1
 -2       297       448       472      2144      2199      2194
 -1       767    8    0    1
 -2       337       182       323      1813      2197      2200
 -1       768    8    0    1
 -2       444       293       442      2133      2130      2201
 -1       769    8    0    1
 -2       443       292       444      2131      2134      2202
 -1       770    8    0    1
 -2       441       290       291      2126      1672      2203
 -1       771    8    0    1
 -2       442       294       445      2129      2136      2204
 -1       772    8    0    1
 -2       470       320       471      2189      2192      2205
 -1       773    8    0    1
 -2       469       319       470      2187      2190      2206
 -1       774    8    0    1
 -2       468       318       469      2185      2188      2207
 -1       775    8    0    1
 -2       467       317       468      2183      2186      2208
 -1       776    8    0    1
 -2       466       316       467      2181      2184      2209
 -1       777    8    0    1
 -2       464       314       465      2176      2180      2210
 -1       778    8    0    1
 -2       462       312       463      2172      2175      2211
 -1       779    8    0    1
 -2       461       311       462      2170      2173      2212
 -1       780    8    0    1
 -2       459       309       460      2165      2169      2213
 -1       781    8    0    1
 -2       457       307       473      2161      2214      2215
 -1       782    8    0    1
 -2       307       458       473      2164      2216      2214
 -1       783    8    0    1
 -2       456       306       457      2159      2162      2217
 -1       784    8    0    1
 -2       455       305       456      2157      2160      2218
 -1       785    8    0    1
 -2       454       304       455      2155      2158      2219
 -1       786    8    0    1
 -2       453       303       454      2153      2156      2220
 -1       787    8    0    1
 -2       452       302       453      2151      2154      2221
 -1       788    8    0    1
 -2       451       301       452      2149      2152      2222
 -1       789    8    0    1
 -2       450       300       451      2147      2150      2223
 -1       790    8    0    1
 -2       448       298       449      2143      2146      2224
 -1       791    8    0    1
 -2       449       299       450      2145      2148      2225
 -1       792    8    0    1
 -2       460       310       461      2168      2171      2226
 -1       793    8    0    1
 -2       465       315       466      2179      2182      2227
 -1       794    8    0    1
 -2       336       383       474      1953      2228      2229
 -1       795    8    0    1
 -2       325       326       475      1779      2230      2231
 -1       796    8    0    1
 -2       324       325       476      1776      2232      2233
 -1       797    8    0    1
 -2       325       475       476      2231      2234      2232
 -1       798    8    0    1
 -2       327       328       477      1785      2235      2236
 -1       799    8    0    1
 -2       328       329       478      1788      2237      2238
 -1       800    8    0    1
 -2       328       478       477      2238      2239      2235
 -1       801    8    0    1
 -2       329       330       479      1791      2240      2241
 -1       802    8    0    1
 -2       329       479       478      2241      2242      2237
 -1       803    8    0    1
 -2       330       331       480      1794      2243      2244
 -1       804    8    0    1
 -2       330       480       479      2244      2245      2240
 -1       805    8    0    1
 -2       331       332       481      1797      2246      2247
 -1       806    8    0    1
 -2       331       481       480      2247      2248      2243
 -1       807    8    0    1
 -2       332       333       482      1800      2249      2250
 -1       808    8    0    1
 -2       332       482       481      2250      2251      2246
 -1       809    8    0    1
 -2       383       384       483      1956      2252      2253
 -1       810    8    0    1
 -2       383       483       474      2253      2254      2228
 -1       811    8    0    1
 -2       338       337       484      1817      2255      2256
 -1       812    8    0    1
 -2       446       472       485      2198      2257      2258
 -1       813    8    0    1
 -2       339       338       486      1820      2259      2260
 -1       814    8    0    1
 -2       338       484       486      2256      2261      2259
 -1       815    8    0    1
 -2       340       339       487      1823      2262      2263
 -1       816    8    0    1
 -2       339       486       487      2260      2264      2262
 -1       817    8    0    1
 -2       341       340       488      1826      2265      2266
 -1       818    8    0    1
 -2       340       487       488      2263      2267      2265
 -1       819    8    0    1
 -2       342       341       489      1829      2268      2269
 -1       820    8    0    1
 -2       341       488       489      2266      2270      2268
 -1       821    8    0    1
 -2       343       342       490      1832      2271      2272
 -1       822    8    0    1
 -2       342       489       490      2269      2273      2271
 -1       823    8    0    1
 -2       344       343       491      1835      2274      2275
 -1       824    8    0    1
 -2       343       490       491      2272      2276      2274
 -1       825    8    0    1
 -2       345       344       492      1838      2277      2278
 -1       826    8    0    1
 -2       344       491       492      2275      2279      2277
 -1       827    8    0    1
 -2       346       345       493      1841      2280      2281
 -1       828    8    0    1
 -2       345       492       493      2278      2282      2280
 -1       829    8    0    1
 -2       347       346       494      1844      2283      2284
 -1       830    8    0    1
 -2       346       493       494      2281      2285      2283
 -1       831    8    0    1
 -2       348       347       495      1847      2286      2287
 -1       832    8    0    1
 -2       347       494       495      2284      2288      2286
 -1       833    8    0    1
 -2       349       348       496      1850      2289      2290
 -1       834    8    0    1
 -2       348       495       496      2287      2291      2289
 -1       835    8    0    1
 -2       350       349       497      1853      2292      2293
 -1       836    8    0    1
 -2       349       496       497      2290      2294      2292
 -1       837    8    0    1
 -2       351       350       498      1856      2295      2296
 -1       838    8    0    1
 -2       350       497       498      2293      2297      2295
 -1       839    8    0    1
 -2       352       351       499      1859      2298      2299
 -1       840    8    0    1
 -2       351       498       499      2296      2300      2298
 -1       841    8    0    1
 -2       353       352       500      1862      2301      2302
 -1       842    8    0    1
 -2       352       499       500      2299      2303      2301
 -1       843    8    0    1
 -2       354       353       501      1865      2304      2305
 -1       844    8    0    1
 -2       353       500       501      2302      2306      2304
 -1       845    8    0    1
 -2       355       354       502      1868      2307      2308
 -1       846    8    0    1
 -2       354       501       502      2305      2309      2307
 -1       847    8    0    1
 -2       356       355       503      1871      2310      2311
 -1       848    8    0    1
 -2       355       502       503      2308      2312      2310
 -1       849    8    0    1
 -2       357       356       504      1874      2313      2314
 -1       850    8    0    1
 -2       356       503       504      2311      2315      2313
 -1       851    8    0    1
 -2       358       357       505      1877      2316      2317
 -1       852    8    0    1
 -2       357       504       505      2314      2318      2316
 -1       853    8    0    1
 -2       359       358       506      1880      2319      2320
 -1       854    8    0    1
 -2       358       505       506      2317      2321      2319
 -1       855    8    0    1
 -2       360       359       507      1883      2322      2323
 -1       856    8    0    1
 -2       359       506       507      2320      2324      2322
 -1       857    8    0    1
 -2       361       360       508      1886      2325      2326
 -1       858    8    0    1
 -2       360       507       508      2323      2327      2325
 -1       859    8    0    1
 -2       362       361       509      1889      2328      2329
 -1       860    8    0    1
 -2       361       508       509      2326      2330      2328
 -1       861    8    0    1
 -2       363       362       510      1892      2331      2332
 -1       862    8    0    1
 -2       362       509       510      2329      2333      2331
 -1       863    8    0    1
 -2       364       363       511      1895      2334      2335
 -1       864    8    0    1
 -2       363       510       511      2332      2336      2334
 -1       865    8    0    1
 -2       365       364       512      1898      2337      2338
 -1       866    8    0    1
 -2       364       511       512      2335      2339      2337
 -1       867    8    0    1
 -2       366       365       513      1901      2340      2341
 -1       868    8    0    1
 -2       365       512       513      2338      2342      2340
 -1       869    8    0    1
 -2       367       366       514      1904      2343      2344
 -1       870    8    0    1
 -2       366       513       514      2341      2345      2343
 -1       871    8    0    1
 -2       368       367       515      1907      2346      2347
 -1       872    8    0    1
 -2       367       514       515      2344      2348      2346
 -1       873    8    0    1
 -2       369       368       516      1910      2349      2350
 -1       874    8    0    1
 -2       368       515       516      2347      2351      2349
 -1       875    8    0    1
 -2       370       369       517      1913      2352      2353
 -1       876    8    0    1
 -2       369       516       517      2350      2354      2352
 -1       877    8    0    1
 -2       371       370       518      1916      2355      2356
 -1       878    8    0    1
 -2       370       517       518      2353      2357      2355
 -1       879    8    0    1
 -2       372       371       519      1919      2358      2359
 -1       880    8    0    1
 -2       371       518       519      2356      2360      2358
 -1       881    8    0    1
 -2       373       372       520      1922      2361      2362
 -1       882    8    0    1
 -2       372       519       520      2359      2363      2361
 -1       883    8    0    1
 -2       374       373       521      1925      2364      2365
 -1       884    8    0    1
 -2       373       520       521      2362      2366      2364
 -1       885    8    0    1
 -2       375       374       522      1928      2367      2368
 -1       886    8    0    1
 -2       374       521       522      2365      2369      2367
 -1       887    8    0    1
 -2       376       375       523      1931      2370      2371
 -1       888    8    0    1
 -2       375       522       523      2368      2372      2370
 -1       889    8    0    1
 -2       377       376       524      1934      2373      2374
 -1       890    8    0    1
 -2       376       523       524      2371      2375      2373
 -1       891    8    0    1
 -2       378       377       525      1937      2376      2377
 -1       892    8    0    1
 -2       377       524       525      2374      2378      2376
 -1       893    8    0    1
 -2       379       378       526      1940      2379      2380
 -1       894    8    0    1
 -2       378       525       526      2377      2381      2379
 -1       895    8    0    1
 -2       380       379       527      1943      2382      2383
 -1       896    8    0    1
 -2       379       526       527      2380      2384      2382
 -1       897    8    0    1
 -2       381       380       528      1946      2385      2386
 -1       898    8    0    1
 -2       380       527       528      2383      2387      2385
 -1       899    8    0    1
 -2       385       386       529      1962      2388      2389
 -1       900    8    0    1
 -2       386       387       530      1965      2390      2391
 -1       901    8    0    1
 -2       386       530       529      2391      2392      2388
 -1       902    8    0    1
 -2       387       388       531      1968      2393      2394
 -1       903    8    0    1
 -2       387       531       530      2394      2395      2390
 -1       904    8    0    1
 -2       388       389       532      1971      2396      2397
 -1       905    8    0    1
 -2       388       532       531      2397      2398      2393
 -1       906    8    0    1
 -2       389       390       533      1974      2399      2400
 -1       907    8    0    1
 -2       389       533       532      2400      2401      2396
 -1       908    8    0    1
 -2       390       391       534      1977      2402      2403
 -1       909    8    0    1
 -2       390       534       533      2403      2404      2399
 -1       910    8    0    1
 -2       391       392       535      1980      2405      2406
 -1       911    8    0    1
 -2       391       535       534      2406      2407      2402
 -1       912    8    0    1
 -2       392       393       536      1983      2408      2409
 -1       913    8    0    1
 -2       392       536       535      2409      2410      2405
 -1       914    8    0    1
 -2       393       394       537      1986      2411      2412
 -1       915    8    0    1
 -2       393       537       536      2412      2413      2408
 -1       916    8    0    1
 -2       394       395       538      1989      2414      2415
 -1       917    8    0    1
 -2       394       538       537      2415      2416      2411
 -1       918    8    0    1
 -2       395       396       539      1992      2417      2418
 -1       919    8    0    1
 -2       395       539       538      2418      2419      2414
 -1       920    8    0    1
 -2       396       397       540      1995      2420      2421
 -1       921    8    0    1
 -2       396       540       539      2421      2422      2417
 -1       922    8    0    1
 -2       397       398       541      1998      2423      2424
 -1       923    8    0    1
 -2       397       541       540      2424      2425      2420
 -1       924    8    0    1
 -2       398       399       542      2001      2426      2427
 -1       925    8    0    1
 -2       398       542       541      2427      2428      2423
 -1       926    8    0    1
 -2       399       400       543      2004      2429      2430
 -1       927    8    0    1
 -2       399       543       542      2430      2431      2426
 -1       928    8    0    1
 -2       400       401       544      2007      2432      2433
 -1       929    8    0    1
 -2       400       544       543      2433      2434      2429
 -1       930    8    0    1
 -2       401       402       545      2010      2435      2436
 -1       931    8    0    1
 -2       401       545       544      2436      2437      2432
 -1       932    8    0    1
 -2       402       403       546      2013      2438      2439
 -1       933    8    0    1
 -2       402       546       545      2439      2440      2435
 -1       934    8    0    1
 -2       403       404       547      2016      2441      2442
 -1       935    8    0    1
 -2       403       547       546      2442      2443      2438
 -1       936    8    0    1
 -2       404       405       548      2019      2444      2445
 -1       937    8    0    1
 -2       404       548       547      2445      2446      2441
 -1       938    8    0    1
 -2       405       406       549      2022      2447      2448
 -1       939    8    0    1
 -2       405       549       548      2448      2449      2444
 -1       940    8    0    1
 -2       406       407       550      2025      2450      2451
 -1       941    8    0    1
 -2       406       550       549      2451      2452      2447
 -1       942    8    0    1
 -2       407       408       551      2028      2453      2454
 -1       943    8    0    1
 -2       407       551       550      2454      2455      2450
 -1       944    8    0    1
 -2       408       409       552      2031      2456      2457
 -1       945    8    0    1
 -2       408       552       551      2457      2458      2453
 -1       946    8    0    1
 -2       409       410       553      2034      2459      2460
 -1       947    8    0    1
 -2       409       553       552      2460      2461      2456
 -1       948    8    0    1
 -2       410       411       554      2037      2462      2463
 -1       949    8    0    1
 -2       410       554       553      2463      2464      2459
 -1       950    8    0    1
 -2       411       412       555      2040      2465      2466
 -1       951    8    0    1
 -2       411       555       554      2466      2467      2462
 -1       952    8    0    1
 -2       412       413       556      2043      2468      2469
 -1       953    8    0    1
 -2       412       556       555      2469      2470      2465
 -1       954    8    0    1
 -2       413       414       557      2046      2471      2472
 -1       955    8    0    1
 -2       413       557       556      2472      2473      2468
 -1       956    8    0    1
 -2       414       415       558      2049      2474      2475
 -1       957    8    0    1
 -2       414       558       557      2475      2476      2471
 -1       958    8    0    1
 -2       415       416       559      2052      2477      2478
 -1       959    8    0    1
 -2       415       559       558      2478      2479      2474
 -1       960    8    0    1
 -2       416       417       560      2055      2480      2481
 -1       961    8    0    1
 -2       416       560       559      2481      2482      2477
 -1       962    8    0    1
 -2       417       418       561      2058      2483      2484
 -1       963    8    0    1
 -2       417       561       560      2484      2485      2480
 -1       964    8    0    1
 -2       418       419       562      2061      2486      2487
 -1       965    8    0    1
 -2       418       562       561      2487      2488      2483
 -1       966    8    0    1
 -2       419       420       563      2064      2489      2490
 -1       967    8    0    1
 -2       419       563       562      2490      2491      2486
 -1       968    8    0    1
 -2       420       421       564      2067      2492      2493
 -1       969    8    0    1
 -2       420       564       563      2493      2494      2489
 -1       970    8    0    1
 -2       421       422       565      2070      2495      2496
 -1       971    8    0    1
 -2       421       565       564      2496      2497      2492
 -1       972    8    0    1
 -2       422       423       566      2073      2498      2499
 -1       973    8    0    1
 -2       422       566       565      2499      2500      2495
 -1       974    8    0    1
 -2       423       424       567      2076      2501      2502
 -1       975    8    0    1
 -2       423       567       566      2502      2503      2498
 -1       976    8    0    1
 -2       424       425       568      2079      2504      2505
 -1       977    8    0    1
 -2       424       568       567      2505      2506      2501
 -1       978    8    0    1
 -2       425       426       569      2082      2507      2508
 -1       979    8    0    1
 -2       425       569       568      2508      2509      2504
 -1       980    8    0    1
 -2       426       427       570      2085      2510      2511
 -1       981    8    0    1
 -2       426       570       569      2511      2512      2507
 -1       982    8    0    1
 -2       427       428       431      2088      2097      2513
 -1       983    8    0    1
 -2       432       433       571      2104      2514      2515
 -1       984    8    0    1
 -2       433       434       572      2107      2516      2517
 -1       985    8    0    1
 -2       433       572       571      2517      2518      2514
 -1       986    8    0    1
 -2       430       429       573      2094      2519      2520
 -1       987    8    0    1
 -2       429       432       574      2101      2521      2522
 -1       988    8    0    1
 -2       573       429       574      2519      2522      2523
 -1       989    8    0    1
 -2       432       571       574      2515      2524      2521
 -1       990    8    0    1
 -2       434       435       575      2110      2525      2526
 -1       991    8    0    1
 -2       434       575       572      2526      2527      2516
 -1       992    8    0    1
 -2       435       436       576      2113      2528      2529
 -1       993    8    0    1
 -2       435       576       575      2529      2530      2525
 -1       994    8    0    1
 -2       436       437       577      2116      2531      2532
 -1       995    8    0    1
 -2       436       577       576      2532      2533      2528
 -1       996    8    0    1
 -2       437       438       578      2119      2534      2535
 -1       997    8    0    1
 -2       437       578       577      2535      2536      2531
 -1       998    8    0    1
 -2       438       439       579      2122      2537      2538
 -1       999    8    0    1
 -2       438       579       578      2538      2539      2534
 -1      1000    8    0    1
 -2       439       440       580      2125      2540      2541
 -1      1001    8    0    1
 -2       439       580       579      2541      2542      2537
 -1      1002    8    0    1
 -2       440       441       581      2128      2543      2544
 -1      1003    8    0    1
 -2       440       581       580      2544      2545      2540
 -1      1004    8    0    1
 -2       443       444       582      2202      2546      2547
 -1      1005    8    0    1
 -2       442       445       583      2204      2548      2549
 -1      1006    8    0    1
 -2       384       385       584      1959      2550      2551
 -1      1007    8    0    1
 -2       385       529       584      2389      2552      2550
 -1      1008    8    0    1
 -2       472       448       585      2199      2553      2554
 -1      1009    8    0    1
 -2       441       291       382      2203      1949      2555
 -1      1010    8    0    1
 -2       470       471       586      2205      2556      2557
 -1      1011    8    0    1
 -2       444       442       587      2201      2558      2559
 -1      1012    8    0    1
 -2       442       583       587      2549      2560      2558
 -1      1013    8    0    1
 -2       471       443       588      2193      2561      2562
 -1      1014    8    0    1
 -2       586       471       588      2556      2562      2563
 -1      1015    8    0    1
 -2       443       582       588      2547      2564      2561
 -1      1016    8    0    1
 -2       462       463       589      2211      2565      2566
 -1      1017    8    0    1
 -2       326       327       590      1782      2567      2568
 -1      1018    8    0    1
 -2       475       326       590      2230      2568      2569
 -1      1019    8    0    1
 -2       327       477       590      2236      2570      2567
 -1      1020    8    0    1
 -2       449       450       591      2225      2571      2572
 -1      1021    8    0    1
 -2       460       461       592      2226      2573      2574
 -1      1022    8    0    1
 -2       448       449       593      2224      2575      2576
 -1      1023    8    0    1
 -2       450       451       594      2223      2577      2578
 -1      1024    8    0    1
 -2       451       452       595      2222      2579      2580
 -1      1025    8    0    1
 -2       451       595       594      2580      2581      2577
 -1      1026    8    0    1
 -2       452       453       596      2221      2582      2583
 -1      1027    8    0    1
 -2       453       454       597      2220      2584      2585
 -1      1028    8    0    1
 -2       454       455       598      2219      2586      2587
 -1      1029    8    0    1
 -2       454       598       597      2587      2588      2584
 -1      1030    8    0    1
 -2       455       456       599      2218      2589      2590
 -1      1031    8    0    1
 -2       456       457       600      2217      2591      2592
 -1      1032    8    0    1
 -2       456       600       599      2592      2593      2589
 -1      1033    8    0    1
 -2       458       459       601      2167      2594      2595
 -1      1034    8    0    1
 -2       465       466       602      2227      2596      2597
 -1      1035    8    0    1
 -2       459       460       603      2213      2598      2599
 -1      1036    8    0    1
 -2       459       603       601      2599      2600      2594
 -1      1037    8    0    1
 -2       461       462       604      2212      2601      2602
 -1      1038    8    0    1
 -2       463       464       605      2178      2603      2604
 -1      1039    8    0    1
 -2       464       465       606      2210      2605      2606
 -1      1040    8    0    1
 -2       466       467       607      2209      2607      2608
 -1      1041    8    0    1
 -2       466       607       602      2608      2609      2596
 -1      1042    8    0    1
 -2       467       468       608      2208      2610      2611
 -1      1043    8    0    1
 -2       467       608       607      2611      2612      2607
 -1      1044    8    0    1
 -2       468       469       609      2207      2613      2614
 -1      1045    8    0    1
 -2       469       470       610      2206      2615      2616
 -1      1046    8    0    1
 -2       469       610       609      2616      2617      2613
 -1      1047    8    0    1
 -2       337       323       611      2200      2618      2619
 -1      1048    8    0    1
 -2       484       337       611      2255      2619      2620
 -1      1049    8    0    1
 -2       323       322       611      1771      2621      2618
 -1      1050    8    0    1
 -2       335       336       612      1811      2622      2623
 -1      1051    8    0    1
 -2       334       335       612      1806      2623      2624
 -1      1052    8    0    1
 -2       336       474       612      2229      2625      2622
 -1      1053    8    0    1
 -2       445       446       613      2196      2626      2627
 -1      1054    8    0    1
 -2       449       591       593      2572      2628      2575
 -1      1055    8    0    1
 -2       324       476       614      2233      2629      2630
 -1      1056    8    0    1
 -2       324       614       447      2630      2631      2142
 -1      1057    8    0    1
 -2       483       384       584      2252      2551      2632
 -1      1058    8    0    1
 -2       333       334       612      1803      2624      2633
 -1      1059    8    0    1
 -2       613       446       485      2626      2258      2634
 -1      1060    8    0    1
 -2       470       586       610      2557      2635      2615
 -1      1061    8    0    1
 -2       427       431       570      2513      2636      2510
 -1      1062    8    0    1
 -2       583       445       613      2548      2627      2637
 -1      1063    8    0    1
 -2       431       430       570      2098      2638      2636
 -1      1064    8    0    1
 -2       462       589       604      2566      2639      2601
 -1      1065    8    0    1
 -2       582       444       615      2546      2640      2641
 -1      1066    8    0    1
 -2       444       587       615      2559      2642      2640
 -1      1067    8    0    1
 -2       468       609       608      2614      2643      2610
 -1      1068    8    0    1
 -2       333       612       482      2633      2644      2249
 -1      1069    8    0    1
 -2       585       448       593      2553      2576      2645
 -1      1070    8    0    1
 -2       441       382       616      2555      2646      2647
 -1      1071    8    0    1
 -2       581       441       616      2543      2647      2648
 -1      1072    8    0    1
 -2       382       381       616      1950      2649      2646
 -1      1073    8    0    1
 -2       589       463       605      2565      2604      2650
 -1      1074    8    0    1
 -2       606       465       617      2605      2651      2652
 -1      1075    8    0    1
 -2       465       602       617      2597      2653      2651
 -1      1076    8    0    1
 -2       605       464       606      2603      2606      2654
 -1      1077    8    0    1
 -2       603       460       592      2598      2574      2655
 -1      1078    8    0    1
 -2       600       457       618      2591      2656      2657
 -1      1079    8    0    1
 -2       457       473       618      2215      2658      2656
 -1      1080    8    0    1
 -2       598       455       619      2586      2659      2660
 -1      1081    8    0    1
 -2       455       599       619      2590      2661      2659
 -1      1082    8    0    1
 -2       595       452       596      2579      2583      2662
 -1      1083    8    0    1
 -2       473       458       601      2216      2595      2663
 -1      1084    8    0    1
 -2       485       472       585      2257      2554      2664
 -1      1085    8    0    1
 -2       592       461       604      2573      2602      2665
 -1      1086    8    0    1
 -2       322       447       620      2141      2666      2667
 -1      1087    8    0    1
 -2       611       322       620      2621      2667      2668
 -1      1088    8    0    1
 -2       447       614       620      2631      2669      2666
 -1      1089    8    0    1
 -2       450       594       591      2578      2670      2571
 -1      1090    8    0    1
 -2       596       453       597      2582      2585      2671
 -1      1091    8    0    1
 -2       570       430       573      2638      2520      2672
 -1      1092    8    0    1
 -2       616       381       528      2649      2386      2673
 -1      1093    8    0    1
 -2       478       479       621      2242      2674      2675
 -1      1094    8    0    1
 -2       477       478       622      2239      2676      2677
 -1      1095    8    0    1
 -2       478       621       622      2675      2678      2676
 -1      1096    8    0    1
 -2       480       481       623      2248      2679      2680
 -1      1097    8    0    1
 -2       481       482       624      2251      2681      2682
 -1      1098    8    0    1
 -2       481       624       623      2682      2683      2679
 -1      1099    8    0    1
 -2       474       483       625      2254      2684      2685
 -1      1100    8    0    1
 -2       585       593       626      2645      2686      2687
 -1      1101    8    0    1
 -2       612       474       482      2625      2688      2644
 -1      1102    8    0    1
 -2       610       586       627      2635      2689      2690
 -1      1103    8    0    1
 -2       487       486       628      2264      2691      2692
 -1      1104    8    0    1
 -2       488       487       629      2267      2693      2694
 -1      1105    8    0    1
 -2       487       628       629      2692      2695      2693
 -1      1106    8    0    1
 -2       489       488       630      2270      2696      2697
 -1      1107    8    0    1
 -2       488       629       630      2694      2698      2696
 -1      1108    8    0    1
 -2       490       489       631      2273      2699      2700
 -1      1109    8    0    1
 -2       489       630       631      2697      2701      2699
 -1      1110    8    0    1
 -2       491       490       632      2276      2702      2703
 -1      1111    8    0    1
 -2       490       631       632      2700      2704      2702
 -1      1112    8    0    1
 -2       492       491       633      2279      2705      2706
 -1      1113    8    0    1
 -2       491       632       633      2703      2707      2705
 -1      1114    8    0    1
 -2       493       492       634      2282      2708      2709
 -1      1115    8    0    1
 -2       492       633       634      2706      2710      2708
 -1      1116    8    0    1
 -2       494       493       635      2285      2711      2712
 -1      1117    8    0    1
 -2       493       634       635      2709      2713      2711
 -1      1118    8    0    1
 -2       495       494       636      2288      2714      2715
 -1      1119    8    0    1
 -2       494       635       636      2712      2716      2714
 -1      1120    8    0    1
 -2       496       495       637      2291      2717      2718
 -1      1121    8    0    1
 -2       495       636       637      2715      2719      2717
 -1      1122    8    0    1
 -2       497       496       638      2294      2720      2721
 -1      1123    8    0    1
 -2       496       637       638      2718      2722      2720
 -1      1124    8    0    1
 -2       498       497       639      2297      2723      2724
 -1      1125    8    0    1
 -2       497       638       639      2721      2725      2723
 -1      1126    8    0    1
 -2       499       498       640      2300      2726      2727
 -1      1127    8    0    1
 -2       498       639       640      2724      2728      2726
 -1      1128    8    0    1
 -2       500       499       641      2303      2729      2730
 -1      1129    8    0    1
 -2       499       640       641      2727      2731      2729
 -1      1130    8    0    1
 -2       501       500       642      2306      2732      2733
 -1      1131    8    0    1
 -2       500       641       642      2730      2734      2732
 -1      1132    8    0    1
 -2       502       501       643      2309      2735      2736
 -1      1133    8    0    1
 -2       501       642       643      2733      2737      2735
 -1      1134    8    0    1
 -2       503       502       644      2312      2738      2739
 -1      1135    8    0    1
 -2       502       643       644      2736      2740      2738
 -1      1136    8    0    1
 -2       504       503       645      2315      2741      2742
 -1      1137    8    0    1
 -2       503       644       645      2739      2743      2741
 -1      1138    8    0    1
 -2       505       504       646      2318      2744      2745
 -1      1139    8    0    1
 -2       504       645       646      2742      2746      2744
 -1      1140    8    0    1
 -2       506       505       647      2321      2747      2748
 -1      1141    8    0    1
 -2       505       646       647      2745      2749      2747
 -1      1142    8    0    1
 -2       507       506       648      2324      2750      2751
 -1      1143    8    0    1
 -2       506       647       648      2748      2752      2750
 -1      1144    8    0    1
 -2       508       507       649      2327      2753      2754
 -1      1145    8    0    1
 -2       507       648       649      2751      2755      2753
 -1      1146    8    0    1
 -2       509       508       650      2330      2756      2757
 -1      1147    8    0    1
 -2       508       649       650      2754      2758      2756
 -1      1148    8    0    1
 -2       510       509       651      2333      2759      2760
 -1      1149    8    0    1
 -2       509       650       651      2757      2761      2759
 -1      1150    8    0    1
 -2       511       510       652      2336      2762      2763
 -1      1151    8    0    1
 -2       510       651       652      2760      2764      2762
 -1      1152    8    0    1
 -2       512       511       653      2339      2765      2766
 -1      1153    8    0    1
 -2       511       652       653      2763      2767      2765
 -1      1154    8    0    1
 -2       513       512       654      2342      2768      2769
 -1      1155    8    0    1
 -2       512       653       654      2766      2770      2768
 -1      1156    8    0    1
 -2       514       513       655      2345      2771      2772
 -1      1157    8    0    1
 -2       513       654       655      2769      2773      2771
 -1      1158    8    0    1
 -2       515       514       656      2348      2774      2775
 -1      1159    8    0    1
 -2       514       655       656      2772      2776      2774
 -1      1160    8    0    1
 -2       516       515       657      2351      2777      2778
 -1      1161    8    0    1
 -2       515       656       657      2775      2779      2777
 -1      1162    8    0    1
 -2       517       516       658      2354      2780      2781
 -1      1163    8    0    1
 -2       516       657       658      2778      2782      2780
 -1      1164    8    0    1
 -2       518       517       659      2357      2783      2784
 -1      1165    8    0    1
 -2       517       658       659      2781      2785      2783
 -1      1166    8    0    1
 -2       519       518       660      2360      2786      2787
 -1      1167    8    0    1
 -2       518       659       660      2784      2788      2786
 -1      1168    8    0    1
 -2       520       519       661      2363      2789      2790
 -1      1169    8    0    1
 -2       519       660       661      2787      2791      2789
 -1      1170    8    0    1
 -2       521       520       662      2366      2792      2793
 -1      1171    8    0    1
 -2       520       661       662      2790      2794      2792
 -1      1172    8    0    1
 -2       522       521       663      2369      2795      2796
 -1      1173    8    0    1
 -2       521       662       663      2793      2797      2795
 -1      1174    8    0    1
 -2       523       522       664      2372      2798      2799
 -1      1175    8    0    1
 -2       522       663       664      2796      2800      2798
 -1      1176    8    0    1
 -2       524       523       665      2375      2801      2802
 -1      1177    8    0    1
 -2       523       664       665      2799      2803      2801
 -1      1178    8    0    1
 -2       525       524       666      2378      2804      2805
 -1      1179    8    0    1
 -2       524       665       666      2802      2806      2804
 -1      1180    8    0    1
 -2       526       525       667      2381      2807      2808
 -1      1181    8    0    1
 -2       525       666       667      2805      2809      2807
 -1      1182    8    0    1
 -2       527       526       668      2384      2810      2811
 -1      1183    8    0    1
 -2       526       667       668      2808      2812      2810
 -1      1184    8    0    1
 -2       528       527       669      2387      2813      2814
 -1      1185    8    0    1
 -2       527       668       669      2811      2815      2813
 -1      1186    8    0    1
 -2       530       531       670      2395      2816      2817
 -1      1187    8    0    1
 -2       589       605       671      2650      2818      2819
 -1      1188    8    0    1
 -2       529       530       672      2392      2820      2821
 -1      1189    8    0    1
 -2       530       670       672      2817      2822      2820
 -1      1190    8    0    1
 -2       532       533       673      2401      2823      2824
 -1      1191    8    0    1
 -2       533       534       674      2404      2825      2826
 -1      1192    8    0    1
 -2       533       674       673      2826      2827      2823
 -1      1193    8    0    1
 -2       534       535       675      2407      2828      2829
 -1      1194    8    0    1
 -2       534       675       674      2829      2830      2825
 -1      1195    8    0    1
 -2       535       536       676      2410      2831      2832
 -1      1196    8    0    1
 -2       535       676       675      2832      2833      2828
 -1      1197    8    0    1
 -2       536       537       677      2413      2834      2835
 -1      1198    8    0    1
 -2       536       677       676      2835      2836      2831
 -1      1199    8    0    1
 -2       537       538       678      2416      2837      2838
 -1      1200    8    0    1
 -2       537       678       677      2838      2839      2834
 -1      1201    8    0    1
 -2       538       539       679      2419      2840      2841
 -1      1202    8    0    1
 -2       538       679       678      2841      2842      2837
 -1      1203    8    0    1
 -2       539       540       680      2422      2843      2844
 -1      1204    8    0    1
 -2       539       680       679      2844      2845      2840
 -1      1205    8    0    1
 -2       540       541       681      2425      2846      2847
 -1      1206    8    0    1
 -2       540       681       680      2847      2848      2843
 -1      1207    8    0    1
 -2       541       542       682      2428      2849      2850
 -1      1208    8    0    1
 -2       541       682       681      2850      2851      2846
 -1      1209    8    0    1
 -2       542       543       683      2431      2852      2853
 -1      1210    8    0    1
 -2       542       683       682      2853      2854      2849
 -1      1211    8    0    1
 -2       543       544       684      2434      2855      2856
 -1      1212    8    0    1
 -2       543       684       683      2856      2857      2852
 -1      1213    8    0    1
 -2       544       545       685      2437      2858      2859
 -1      1214    8    0    1
 -2       544       685       684      2859      2860      2855
 -1      1215    8    0    1
 -2       545       546       686      2440      2861      2862
 -1      1216    8    0    1
 -2       545       686       685      2862      2863      2858
 -1      1217    8    0    1
 -2       546       547       687      2443      2864      2865
 -1      1218    8    0    1
 -2       546       687       686      2865      2866      2861
 -1      1219    8    0    1
 -2       547       548       688      2446      2867      2868
 -1      1220    8    0    1
 -2       547       688       687      2868      2869      2864
 -1      1221    8    0    1
 -2       548       549       689      2449      2870      2871
 -1      1222    8    0    1
 -2       548       689       688      2871      2872      2867
 -1      1223    8    0    1
 -2       549       550       690      2452      2873      2874
 -1      1224    8    0    1
 -2       549       690       689      2874      2875      2870
 -1      1225    8    0    1
 -2       550       551       691      2455      2876      2877
 -1      1226    8    0    1
 -2       550       691       690      2877      2878      2873
 -1      1227    8    0    1
 -2       551       552       692      2458      2879      2880
 -1      1228    8    0    1
 -2       551       692       691      2880      2881      2876
 -1      1229    8    0    1
 -2       552       553       693      2461      2882      2883
 -1      1230    8    0    1
 -2       552       693       692      2883      2884      2879
 -1      1231    8    0    1
 -2       553       554       694      2464      2885      2886
 -1      1232    8    0    1
 -2       553       694       693      2886      2887      2882
 -1      1233    8    0    1
 -2       554       555       695      2467      2888      2889
 -1      1234    8    0    1
 -2       554       695       694      2889      2890      2885
 -1      1235    8    0    1
 -2       555       556       696      2470      2891      2892
 -1      1236    8    0    1
 -2       555       696       695      2892      2893      2888
 -1      1237    8    0    1
 -2       557       558       697      2476      2894      2895
 -1      1238    8    0    1
 -2       558       559       698      2479      2896      2897
 -1      1239    8    0    1
 -2       558       698       697      2897      2898      2894
 -1      1240    8    0    1
 -2       559       560       699      2482      2899      2900
 -1      1241    8    0    1
 -2       559       699       698      2900      2901      2896
 -1      1242    8    0    1
 -2       560       561       700      2485      2902      2903
 -1      1243    8    0    1
 -2       560       700       699      2903      2904      2899
 -1      1244    8    0    1
 -2       561       562       701      2488      2905      2906
 -1      1245    8    0    1
 -2       561       701       700      2906      2907      2902
 -1      1246    8    0    1
 -2       562       563       702      2491      2908      2909
 -1      1247    8    0    1
 -2       562       702       701      2909      2910      2905
 -1      1248    8    0    1
 -2       563       564       703      2494      2911      2912
 -1      1249    8    0    1
 -2       563       703       702      2912      2913      2908
 -1      1250    8    0    1
 -2       564       565       704      2497      2914      2915
 -1      1251    8    0    1
 -2       564       704       703      2915      2916      2911
 -1      1252    8    0    1
 -2       565       566       705      2500      2917      2918
 -1      1253    8    0    1
 -2       565       705       704      2918      2919      2914
 -1      1254    8    0    1
 -2       566       567       706      2503      2920      2921
 -1      1255    8    0    1
 -2       566       706       705      2921      2922      2917
 -1      1256    8    0    1
 -2       567       568       707      2506      2923      2924
 -1      1257    8    0    1
 -2       567       707       706      2924      2925      2920
 -1      1258    8    0    1
 -2       568       569       708      2509      2926      2927
 -1      1259    8    0    1
 -2       568       708       707      2927      2928      2923
 -1      1260    8    0    1
 -2       569       570       709      2512      2929      2930
 -1      1261    8    0    1
 -2       708       569       709      2926      2930      2931
 -1      1262    8    0    1
 -2       570       573       709      2672      2932      2929
 -1      1263    8    0    1
 -2       583       613       710      2637      2933      2934
 -1      1264    8    0    1
 -2       575       576       711      2530      2935      2936
 -1      1265    8    0    1
 -2       616       528       712      2673      2937      2938
 -1      1266    8    0    1
 -2       528       669       712      2814      2939      2937
 -1      1267    8    0    1
 -2       571       572       713      2518      2940      2941
 -1      1268    8    0    1
 -2       576       577       714      2533      2942      2943
 -1      1269    8    0    1
 -2       576       714       711      2943      2944      2935
 -1      1270    8    0    1
 -2       572       575       715      2527      2945      2946
 -1      1271    8    0    1
 -2       713       572       715      2940      2946      2947
 -1      1272    8    0    1
 -2       575       711       715      2936      2948      2945
 -1      1273    8    0    1
 -2       577       578       716      2536      2949      2950
 -1      1274    8    0    1
 -2       577       716       714      2950      2951      2942
 -1      1275    8    0    1
 -2       578       579       717      2539      2952      2953
 -1      1276    8    0    1
 -2       578       717       716      2953      2954      2949
 -1      1277    8    0    1
 -2       579       580       718      2542      2955      2956
 -1      1278    8    0    1
 -2       579       718       717      2956      2957      2952
 -1      1279    8    0    1
 -2       604       589       719      2639      2958      2959
 -1      1280    8    0    1
 -2       608       609       720      2643      2960      2961
 -1      1281    8    0    1
 -2       607       608       721      2612      2962      2963
 -1      1282    8    0    1
 -2       608       720       721      2961      2964      2962
 -1      1283    8    0    1
 -2       595       596       722      2662      2965      2966
 -1      1284    8    0    1
 -2       473       601       723      2663      2967      2968
 -1      1285    8    0    1
 -2       591       594       724      2670      2969      2970
 -1      1286    8    0    1
 -2       587       583       725      2560      2971      2972
 -1      1287    8    0    1
 -2       584       529       726      2552      2973      2974
 -1      1288    8    0    1
 -2       529       672       726      2821      2975      2973
 -1      1289    8    0    1
 -2       531       532       727      2398      2976      2977
 -1      1290    8    0    1
 -2       670       531       727      2816      2977      2978
 -1      1291    8    0    1
 -2       532       673       727      2824      2979      2976
 -1      1292    8    0    1
 -2       486       484       728      2261      2980      2981
 -1      1293    8    0    1
 -2       486       728       628      2981      2982      2691
 -1      1294    8    0    1
 -2       483       584       729      2632      2983      2984
 -1      1295    8    0    1
 -2       625       483       729      2684      2984      2985
 -1      1296    8    0    1
 -2       584       726       729      2974      2986      2983
 -1      1297    8    0    1
 -2       613       485       730      2634      2987      2988
 -1      1298    8    0    1
 -2       479       480       731      2245      2989      2990
 -1      1299    8    0    1
 -2       621       479       731      2674      2990      2991
 -1      1300    8    0    1
 -2       480       623       731      2680      2992      2989
 -1      1301    8    0    1
 -2       476       475       732      2234      2993      2994
 -1      1302    8    0    1
 -2       581       616       712      2648      2938      2995
 -1      1303    8    0    1
 -2       594       595       733      2581      2996      2997
 -1      1304    8    0    1
 -2       724       594       733      2969      2997      2998
 -1      1305    8    0    1
 -2       595       722       733      2966      2999      2996
 -1      1306    8    0    1
 -2       597       598       734      2588      3000      3001
 -1      1307    8    0    1
 -2       485       585       735      2664      3002      3003
 -1      1308    8    0    1
 -2       485       735       730      3003      3004      2987
 -1      1309    8    0    1
 -2       599       600       736      2593      3005      3006
 -1      1310    8    0    1
 -2       605       606       737      2654      3007      3008
 -1      1311    8    0    1
 -2       605       737       671      3008      3009      2818
 -1      1312    8    0    1
 -2       596       597       738      2671      3010      3011
 -1      1313    8    0    1
 -2       601       603       739      2600      3012      3013
 -1      1314    8    0    1
 -2       603       592       740      2655      3014      3015
 -1      1315    8    0    1
 -2       592       604       741      2665      3016      3017
 -1      1316    8    0    1
 -2       602       607       742      2609      3018      3019
 -1      1317    8    0    1
 -2       607       721       742      2963      3020      3018
 -1      1318    8    0    1
 -2       484       611       743      2620      3021      3022
 -1      1319    8    0    1
 -2       728       484       743      2980      3022      3023
 -1      1320    8    0    1
 -2       611       620       743      2668      3024      3021
 -1      1321    8    0    1
 -2       609       610       744      2617      3025      3026
 -1      1322    8    0    1
 -2       593       591       745      2628      3027      3028
 -1      1323    8    0    1
 -2       593       745       626      3028      3029      2686
 -1      1324    8    0    1
 -2       614       476       746      2629      3030      3031
 -1      1325    8    0    1
 -2       476       732       746      2994      3032      3030
 -1      1326    8    0    1
 -2       477       622       747      2677      3033      3034
 -1      1327    8    0    1
 -2       477       747       590      3034      3035      2570
 -1      1328    8    0    1
 -2       599       736       619      3006      3036      2661
 -1      1329    8    0    1
 -2       585       626       735      2687      3037      3002
 -1      1330    8    0    1
 -2       482       474       625      2688      2685      3038
 -1      1331    8    0    1
 -2       627       586       748      2689      3039      3040
 -1      1332    8    0    1
 -2       571       713       749      2941      3041      3042
 -1      1333    8    0    1
 -2       571       749       574      3042      3043      2524
 -1      1334    8    0    1
 -2       744       610       627      3025      2690      3044
 -1      1335    8    0    1
 -2       589       671       719      2819      3045      2958
 -1      1336    8    0    1
 -2       696       556       745      2891      3046      3047
 -1      1337    8    0    1
 -2       556       557       745      2473      3048      3046
 -1      1338    8    0    1
 -2       710       613       730      2933      2988      3049
 -1      1339    8    0    1
 -2       573       574       750      2523      3050      3051
 -1      1340    8    0    1
 -2       709       573       750      2932      3051      3052
 -1      1341    8    0    1
 -2       574       749       750      3043      3053      3050
 -1      1342    8    0    1
 -2       720       609       744      2960      3026      3054
 -1      1343    8    0    1
 -2       741       604       719      3016      2959      3055
 -1      1344    8    0    1
 -2       740       592       741      3014      3017      3056
 -1      1345    8    0    1
 -2       580       581       712      2545      2995      3057
 -1      1346    8    0    1
 -2       615       587       751      2642      3058      3059
 -1      1347    8    0    1
 -2       587       725       751      2972      3060      3058
 -1      1348    8    0    1
 -2       586       588       748      2563      3061      3039
 -1      1349    8    0    1
 -2       597       734       738      3001      3062      3010
 -1      1350    8    0    1
 -2       725       583       710      2971      2934      3063
 -1      1351    8    0    1
 -2       734       598       752      3000      3064      3065
 -1      1352    8    0    1
 -2       598       619       752      2660      3066      3064
 -1      1353    8    0    1
 -2       723       601       739      2967      3013      3067
 -1      1354    8    0    1
 -2       588       582       753      2564      3068      3069
 -1      1355    8    0    1
 -2       588       753       748      3069      3070      3061
 -1      1356    8    0    1
 -2       618       473       723      2658      2968      3071
 -1      1357    8    0    1
 -2       722       596       738      2965      3011      3072
 -1      1358    8    0    1
 -2       475       590       754      2569      3073      3074
 -1      1359    8    0    1
 -2       732       475       754      2993      3074      3075
 -1      1360    8    0    1
 -2       590       747       754      3035      3076      3073
 -1      1361    8    0    1
 -2       739       603       740      3012      3015      3077
 -1      1362    8    0    1
 -2       737       606       617      3007      2652      3078
 -1      1363    8    0    1
 -2       600       618       755      2657      3079      3080
 -1      1364    8    0    1
 -2       600       755       736      3080      3081      3005
 -1      1365    8    0    1
 -2       482       625       624      3038      3082      2681
 -1      1366    8    0    1
 -2       582       615       756      2641      3083      3084
 -1      1367    8    0    1
 -2       582       756       753      3084      3085      3068
 -1      1368    8    0    1
 -2       580       712       757      3057      3086      3087
 -1      1369    8    0    1
 -2       718       580       757      2955      3087      3088
 -1      1370    8    0    1
 -2       712       669       757      2939      3089      3086
 -1      1371    8    0    1
 -2       602       742       617      3019      3090      2653
 -1      1372    8    0    1
 -2       627       748       758      3040      3091      3092
 -1      1373    8    0    1
 -2       623       624       759      2683      3093      3094
 -1      1374    8    0    1
 -2       738       734       760      3062      3095      3096
 -1      1375    8    0    1
 -2       720       744       761      3054      3097      3098
 -1      1376    8    0    1
 -2       628       728       762      2982      3099      3100
 -1      1377    8    0    1
 -2       739       740       763      3077      3101      3102
 -1      1378    8    0    1
 -2       630       629       764      2698      3103      3104
 -1      1379    8    0    1
 -2       631       630       765      2701      3105      3106
 -1      1380    8    0    1
 -2       630       764       765      3104      3107      3105
 -1      1381    8    0    1
 -2       632       631       766      2704      3108      3109
 -1      1382    8    0    1
 -2       631       765       766      3106      3110      3108
 -1      1383    8    0    1
 -2       633       632       767      2707      3111      3112
 -1      1384    8    0    1
 -2       632       766       767      3109      3113      3111
 -1      1385    8    0    1
 -2       634       633       768      2710      3114      3115
 -1      1386    8    0    1
 -2       633       767       768      3112      3116      3114
 -1      1387    8    0    1
 -2       635       634       769      2713      3117      3118
 -1      1388    8    0    1
 -2       634       768       769      3115      3119      3117
 -1      1389    8    0    1
 -2       636       635       770      2716      3120      3121
 -1      1390    8    0    1
 -2       635       769       770      3118      3122      3120
 -1      1391    8    0    1
 -2       637       636       771      2719      3123      3124
 -1      1392    8    0    1
 -2       636       770       771      3121      3125      3123
 -1      1393    8    0    1
 -2       638       637       772      2722      3126      3127
 -1      1394    8    0    1
 -2       637       771       772      3124      3128      3126
 -1      1395    8    0    1
 -2       639       638       773      2725      3129      3130
 -1      1396    8    0    1
 -2       638       772       773      3127      3131      3129
 -1      1397    8    0    1
 -2       640       639       774      2728      3132      3133
 -1      1398    8    0    1
 -2       639       773       774      3130      3134      3132
 -1      1399    8    0    1
 -2       641       640       775      2731      3135      3136
 -1      1400    8    0    1
 -2       640       774       775      3133      3137      3135
 -1      1401    8    0    1
 -2       642       641       776      2734      3138      3139
 -1      1402    8    0    1
 -2       641       775       776      3136      3140      3138
 -1      1403    8    0    1
 -2       643       642       777      2737      3141      3142
 -1      1404    8    0    1
 -2       642       776       777      3139      3143      3141
 -1      1405    8    0    1
 -2       644       643       778      2740      3144      3145
 -1      1406    8    0    1
 -2       643       777       778      3142      3146      3144
 -1      1407    8    0    1
 -2       645       644       779      2743      3147      3148
 -1      1408    8    0    1
 -2       644       778       779      3145      3149      3147
 -1      1409    8    0    1
 -2       646       645       780      2746      3150      3151
 -1      1410    8    0    1
 -2       645       779       780      3148      3152      3150
 -1      1411    8    0    1
 -2       647       646       781      2749      3153      3154
 -1      1412    8    0    1
 -2       646       780       781      3151      3155      3153
 -1      1413    8    0    1
 -2       648       647       782      2752      3156      3157
 -1      1414    8    0    1
 -2       647       781       782      3154      3158      3156
 -1      1415    8    0    1
 -2       649       648       783      2755      3159      3160
 -1      1416    8    0    1
 -2       648       782       783      3157      3161      3159
 -1      1417    8    0    1
 -2       650       649       784      2758      3162      3163
 -1      1418    8    0    1
 -2       649       783       784      3160      3164      3162
 -1      1419    8    0    1
 -2       651       650       785      2761      3165      3166
 -1      1420    8    0    1
 -2       650       784       785      3163      3167      3165
 -1      1421    8    0    1
 -2       652       651       786      2764      3168      3169
 -1      1422    8    0    1
 -2       651       785       786      3166      3170      3168
 -1      1423    8    0    1
 -2       653       652       787      2767      3171      3172
 -1      1424    8    0    1
 -2       652       786       787      3169      3173      3171
 -1      1425    8    0    1
 -2       655       654       719      2773      3174      3175
 -1      1426    8    0    1
 -2       656       655       737      2776      3176      3177
 -1      1427    8    0    1
 -2       657       656       617      2779      3178      3179
 -1      1428    8    0    1
 -2       658       657       742      2782      3180      3181
 -1      1429    8    0    1
 -2       659       658       742      2785      3181      3182
 -1      1430    8    0    1
 -2       660       659       788      2788      3183      3184
 -1      1431    8    0    1
 -2       662       661       789      2794      3185      3186
 -1      1432    8    0    1
 -2       663       662       790      2797      3187      3188
 -1      1433    8    0    1
 -2       662       789       790      3186      3189      3187
 -1      1434    8    0    1
 -2       664       663       791      2800      3190      3191
 -1      1435    8    0    1
 -2       663       790       791      3188      3192      3190
 -1      1436    8    0    1
 -2       665       664       792      2803      3193      3194
 -1      1437    8    0    1
 -2       664       791       792      3191      3195      3193
 -1      1438    8    0    1
 -2       666       665       793      2806      3196      3197
 -1      1439    8    0    1
 -2       665       792       793      3194      3198      3196
 -1      1440    8    0    1
 -2       667       666       794      2809      3199      3200
 -1      1441    8    0    1
 -2       666       793       794      3197      3201      3199
 -1      1442    8    0    1
 -2       668       667       795      2812      3202      3203
 -1      1443    8    0    1
 -2       667       794       795      3200      3204      3202
 -1      1444    8    0    1
 -2       669       668       796      2815      3205      3206
 -1      1445    8    0    1
 -2       757       669       796      3089      3206      3207
 -1      1446    8    0    1
 -2       668       795       796      3203      3208      3205
 -1      1447    8    0    1
 -2       710       730       797      3049      3209      3210
 -1      1448    8    0    1
 -2       674       675       798      2830      3211      3212
 -1      1449    8    0    1
 -2       673       674       799      2827      3213      3214
 -1      1450    8    0    1
 -2       674       798       799      3212      3215      3213
 -1      1451    8    0    1
 -2       676       677       800      2836      3216      3217
 -1      1452    8    0    1
 -2       677       678       801      2839      3218      3219
 -1      1453    8    0    1
 -2       677       801       800      3219      3220      3216
 -1      1454    8    0    1
 -2       678       679       802      2842      3221      3222
 -1      1455    8    0    1
 -2       678       802       801      3222      3223      3218
 -1      1456    8    0    1
 -2       679       680       803      2845      3224      3225
 -1      1457    8    0    1
 -2       679       803       802      3225      3226      3221
 -1      1458    8    0    1
 -2       680       681       804      2848      3227      3228
 -1      1459    8    0    1
 -2       680       804       803      3228      3229      3224
 -1      1460    8    0    1
 -2       681       682       805      2851      3230      3231
 -1      1461    8    0    1
 -2       681       805       804      3231      3232      3227
 -1      1462    8    0    1
 -2       682       683       806      2854      3233      3234
 -1      1463    8    0    1
 -2       682       806       805      3234      3235      3230
 -1      1464    8    0    1
 -2       683       684       807      2857      3236      3237
 -1      1465    8    0    1
 -2       683       807       806      3237      3238      3233
 -1      1466    8    0    1
 -2       684       685       808      2860      3239      3240
 -1      1467    8    0    1
 -2       684       808       807      3240      3241      3236
 -1      1468    8    0    1
 -2       685       686       809      2863      3242      3243
 -1      1469    8    0    1
 -2       685       809       808      3243      3244      3239
 -1      1470    8    0    1
 -2       686       687       810      2866      3245      3246
 -1      1471    8    0    1
 -2       686       810       809      3246      3247      3242
 -1      1472    8    0    1
 -2       687       688       811      2869      3248      3249
 -1      1473    8    0    1
 -2       687       811       810      3249      3250      3245
 -1      1474    8    0    1
 -2       688       689       812      2872      3251      3252
 -1      1475    8    0    1
 -2       688       812       811      3252      3253      3248
 -1      1476    8    0    1
 -2       689       690       813      2875      3254      3255
 -1      1477    8    0    1
 -2       689       813       812      3255      3256      3251
 -1      1478    8    0    1
 -2       690       691       814      2878      3257      3258
 -1      1479    8    0    1
 -2       690       814       813      3258      3259      3254
 -1      1480    8    0    1
 -2       691       692       815      2881      3260      3261
 -1      1481    8    0    1
 -2       691       815       814      3261      3262      3257
 -1      1482    8    0    1
 -2       692       693       760      2884      3263      3264
 -1      1483    8    0    1
 -2       693       694       722      2887      3265      3266
 -1      1484    8    0    1
 -2       694       695       722      2890      3267      3265
 -1      1485    8    0    1
 -2       695       696       724      2893      3268      3269
 -1      1486    8    0    1
 -2       557       697       745      2895      3270      3048
 -1      1487    8    0    1
 -2       698       699       797      2901      3271      3272
 -1      1488    8    0    1
 -2       700       701       816      2907      3273      3274
 -1      1489    8    0    1
 -2       701       702       817      2910      3275      3276
 -1      1490    8    0    1
 -2       701       817       816      3276      3277      3273
 -1      1491    8    0    1
 -2       702       703       818      2913      3278      3279
 -1      1492    8    0    1
 -2       702       818       817      3279      3280      3275
 -1      1493    8    0    1
 -2       703       704       819      2916      3281      3282
 -1      1494    8    0    1
 -2       703       819       818      3282      3283      3278
 -1      1495    8    0    1
 -2       704       705       820      2919      3284      3285
 -1      1496    8    0    1
 -2       704       820       819      3285      3286      3281
 -1      1497    8    0    1
 -2       705       706       821      2922      3287      3288
 -1      1498    8    0    1
 -2       705       821       820      3288      3289      3284
 -1      1499    8    0    1
 -2       706       707       822      2925      3290      3291
 -1      1500    8    0    1
 -2       706       822       821      3291      3292      3287
 -1      1501    8    0    1
 -2       707       708       823      2928      3293      3294
 -1      1502    8    0    1
 -2       707       823       822      3294      3295      3290
 -1      1503    8    0    1
 -2       708       709       824      2931      3296      3297
 -1      1504    8    0    1
 -2       823       708       824      3293      3297      3298
 -1      1505    8    0    1
 -2       709       750       824      3052      3299      3296
 -1      1506    8    0    1
 -2       714       716       825      2951      3300      3301
 -1      1507    8    0    1
 -2       717       718       826      2957      3302      3303
 -1      1508    8    0    1
 -2       711       714       827      2944      3304      3305
 -1      1509    8    0    1
 -2       714       825       827      3301      3306      3304
 -1      1510    8    0    1
 -2       740       741       828      3056      3307      3308
 -1      1511    8    0    1
 -2       740       828       763      3308      3309      3101
 -1      1512    8    0    1
 -2       696       745       724      3047      3310      3268
 -1      1513    8    0    1
 -2       721       720       788      2964      3311      3312
 -1      1514    8    0    1
 -2       726       672       829      2975      3313      3314
 -1      1515    8    0    1
 -2       742       657       617      3180      3179      3090
 -1      1516    8    0    1
 -2       617       656       737      3178      3177      3078
 -1      1517    8    0    1
 -2       724       745       591      3310      3027      2970
 -1      1518    8    0    1
 -2       619       736       830      3036      3315      3316
 -1      1519    8    0    1
 -2       716       717       831      2954      3317      3318
 -1      1520    8    0    1
 -2       825       716       831      3300      3318      3319
 -1      1521    8    0    1
 -2       717       826       831      3303      3320      3317
 -1      1522    8    0    1
 -2       699       700       832      2904      3321      3322
 -1      1523    8    0    1
 -2       797       699       832      3271      3322      3323
 -1      1524    8    0    1
 -2       700       816       832      3274      3324      3321
 -1      1525    8    0    1
 -2       675       676       833      2833      3325      3326
 -1      1526    8    0    1
 -2       798       675       833      3211      3326      3327
 -1      1527    8    0    1
 -2       676       800       833      3217      3328      3325
 -1      1528    8    0    1
 -2       672       670       834      2822      3329      3330
 -1      1529    8    0    1
 -2       672       834       829      3330      3331      3313
 -1      1530    8    0    1
 -2       723       739       835      3067      3332      3333
 -1      1531    8    0    1
 -2       618       723       836      3071      3334      3335
 -1      1532    8    0    1
 -2       744       627       837      3044      3336      3337
 -1      1533    8    0    1
 -2       620       614       838      2669      3338      3339
 -1      1534    8    0    1
 -2       743       620       838      3024      3339      3340
 -1      1535    8    0    1
 -2       614       746       838      3031      3341      3338
 -1      1536    8    0    1
 -2       629       628       839      2695      3342      3343
 -1      1537    8    0    1
 -2       629       839       764      3343      3344      3103
 -1      1538    8    0    1
 -2       624       625       840      3082      3345      3346
 -1      1539    8    0    1
 -2       759       624       840      3093      3346      3347
 -1      1540    8    0    1
 -2       625       729       840      2985      3348      3345
 -1      1541    8    0    1
 -2       741       719       841      3055      3349      3350
 -1      1542    8    0    1
 -2       828       741       841      3307      3350      3351
 -1      1543    8    0    1
 -2       719       654       841      3174      3352      3349
 -1      1544    8    0    1
 -2       725       710       842      3063      3353      3354
 -1      1545    8    0    1
 -2       748       753       843      3070      3355      3356
 -1      1546    8    0    1
 -2       622       621       844      2678      3357      3358
 -1      1547    8    0    1
 -2       747       622       845      3033      3359      3360
 -1      1548    8    0    1
 -2       622       844       845      3358      3361      3359
 -1      1549    8    0    1
 -2       623       759       846      3094      3362      3363
 -1      1550    8    0    1
 -2       623       846       731      3363      3364      2992
 -1      1551    8    0    1
 -2       749       713       847      3041      3365      3366
 -1      1552    8    0    1
 -2       720       761       788      3098      3367      3311
 -1      1553    8    0    1
 -2       628       762       839      3100      3368      3342
 -1      1554    8    0    1
 -2       739       763       835      3102      3369      3332
 -1      1555    8    0    1
 -2       655       719       671      3175      3045      3370
 -1      1556    8    0    1
 -2       653       787       841      3172      3371      3372
 -1      1557    8    0    1
 -2       725       842       848      3354      3373      3374
 -1      1558    8    0    1
 -2       725       848       751      3374      3375      3060
 -1      1559    8    0    1
 -2       654       653       841      2770      3372      3352
 -1      1560    8    0    1
 -2       660       788       849      3184      3376      3377
 -1      1561    8    0    1
 -2       661       660       849      2791      3377      3378
 -1      1562    8    0    1
 -2       788       761       849      3367      3379      3376
 -1      1563    8    0    1
 -2       659       742       788      3182      3380      3183
 -1      1564    8    0    1
 -2       710       797       842      3210      3381      3353
 -1      1565    8    0    1
 -2       834       670       850      3329      3382      3383
 -1      1566    8    0    1
 -2       670       727       850      2978      3384      3382
 -1      1567    8    0    1
 -2       673       799       851      3214      3385      3386
 -1      1568    8    0    1
 -2       673       851       727      3386      3387      2979
 -1      1569    8    0    1
 -2       693       722       852      3266      3388      3389
 -1      1570    8    0    1
 -2       722       695       733      3267      3390      2999
 -1      1571    8    0    1
 -2       745       697       626      3270      3391      3029
 -1      1572    8    0    1
 -2       698       797       730      3272      3209      3392
 -1      1573    8    0    1
 -2       697       698       853      2898      3393      3394
 -1      1574    8    0    1
 -2       713       715       854      2947      3395      3396
 -1      1575    8    0    1
 -2       713       854       847      3396      3397      3365
 -1      1576    8    0    1
 -2       724       733       695      2998      3390      3269
 -1      1577    8    0    1
 -2       715       711       855      2948      3398      3399
 -1      1578    8    0    1
 -2       854       715       855      3395      3399      3400
 -1      1579    8    0    1
 -2       711       827       855      3305      3401      3398
 -1      1580    8    0    1
 -2       723       835       856      3333      3402      3403
 -1      1581    8    0    1
 -2       723       856       836      3403      3404      3334
 -1      1582    8    0    1
 -2       661       849       789      3378      3405      3185
 -1      1583    8    0    1
 -2       752       619       830      3066      3316      3406
 -1      1584    8    0    1
 -2       718       757       857      3088      3407      3408
 -1      1585    8    0    1
 -2       826       718       857      3302      3408      3409
 -1      1586    8    0    1
 -2       757       796       857      3207      3410      3407
 -1      1587    8    0    1
 -2       627       758       837      3092      3411      3336
 -1      1588    8    0    1
 -2       728       743       838      3023      3340      3412
 -1      1589    8    0    1
 -2       737       655       671      3176      3370      3009
 -1      1590    8    0    1
 -2       728       838       762      3412      3413      3099
 -1      1591    8    0    1
 -2       722       738       852      3072      3414      3388
 -1      1592    8    0    1
 -2       618       836       755      3335      3415      3079
 -1      1593    8    0    1
 -2       744       837       761      3337      3416      3097
 -1      1594    8    0    1
 -2       729       726       858      2986      3417      3418
 -1      1595    8    0    1
 -2       840       729       858      3348      3418      3419
 -1      1596    8    0    1
 -2       726       829       858      3314      3420      3417
 -1      1597    8    0    1
 -2       732       754       859      3075      3421      3422
 -1      1598    8    0    1
 -2       621       731       860      2991      3423      3424
 -1      1599    8    0    1
 -2       844       621       860      3357      3424      3425
 -1      1600    8    0    1
 -2       731       846       860      3364      3426      3423
 -1      1601    8    0    1
 -2       615       751       861      3059      3427      3428
 -1      1602    8    0    1
 -2       615       861       756      3428      3429      3083
 -1      1603    8    0    1
 -2       732       859       862      3422      3430      3431
 -1      1604    8    0    1
 -2       732       862       746      3431      3432      3032
 -1      1605    8    0    1
 -2       753       756       863      3085      3433      3434
 -1      1606    8    0    1
 -2       753       863       843      3434      3435      3355
 -1      1607    8    0    1
 -2       734       752       864      3065      3436      3437
 -1      1608    8    0    1
 -2       734       864       760      3437      3438      3095
 -1      1609    8    0    1
 -2       748       843       758      3356      3439      3091
 -1      1610    8    0    1
 -2       736       755       865      3081      3440      3441
 -1      1611    8    0    1
 -2       736       865       830      3441      3442      3315
 -1      1612    8    0    1
 -2       738       760       852      3096      3443      3414
 -1      1613    8    0    1
 -2       841       787       828      3371      3444      3351
 -1      1614    8    0    1
 -2       766       765       866      3110      3445      3446
 -1      1615    8    0    1
 -2       767       766       867      3113      3447      3448
 -1      1616    8    0    1
 -2       766       866       867      3446      3449      3447
 -1      1617    8    0    1
 -2       768       767       868      3116      3450      3451
 -1      1618    8    0    1
 -2       767       867       868      3448      3452      3450
 -1      1619    8    0    1
 -2       769       768       869      3119      3453      3454
 -1      1620    8    0    1
 -2       768       868       869      3451      3455      3453
 -1      1621    8    0    1
 -2       770       769       870      3122      3456      3457
 -1      1622    8    0    1
 -2       769       869       870      3454      3458      3456
 -1      1623    8    0    1
 -2       771       770       871      3125      3459      3460
 -1      1624    8    0    1
 -2       770       870       871      3457      3461      3459
 -1      1625    8    0    1
 -2       772       771       872      3128      3462      3463
 -1      1626    8    0    1
 -2       771       871       872      3460      3464      3462
 -1      1627    8    0    1
 -2       773       772       873      3131      3465      3466
 -1      1628    8    0    1
 -2       772       872       873      3463      3467      3465
 -1      1629    8    0    1
 -2       774       773       874      3134      3468      3469
 -1      1630    8    0    1
 -2       773       873       874      3466      3470      3468
 -1      1631    8    0    1
 -2       775       774       875      3137      3471      3472
 -1      1632    8    0    1
 -2       774       874       875      3469      3473      3471
 -1      1633    8    0    1
 -2       776       775       876      3140      3474      3475
 -1      1634    8    0    1
 -2       775       875       876      3472      3476      3474
 -1      1635    8    0    1
 -2       777       776       877      3143      3477      3478
 -1      1636    8    0    1
 -2       776       876       877      3475      3479      3477
 -1      1637    8    0    1
 -2       778       777       878      3146      3480      3481
 -1      1638    8    0    1
 -2       777       877       878      3478      3482      3480
 -1      1639    8    0    1
 -2       779       778       879      3149      3483      3484
 -1      1640    8    0    1
 -2       778       878       879      3481      3485      3483
 -1      1641    8    0    1
 -2       780       779       880      3152      3486      3487
 -1      1642    8    0    1
 -2       779       879       880      3484      3488      3486
 -1      1643    8    0    1
 -2       781       780       881      3155      3489      3490
 -1      1644    8    0    1
 -2       780       880       881      3487      3491      3489
 -1      1645    8    0    1
 -2       782       781       882      3158      3492      3493
 -1      1646    8    0    1
 -2       781       881       882      3490      3494      3492
 -1      1647    8    0    1
 -2       783       782       883      3161      3495      3496
 -1      1648    8    0    1
 -2       782       882       883      3493      3497      3495
 -1      1649    8    0    1
 -2       784       783       884      3164      3498      3499
 -1      1650    8    0    1
 -2       783       883       884      3496      3500      3498
 -1      1651    8    0    1
 -2       785       784       885      3167      3501      3502
 -1      1652    8    0    1
 -2       784       884       885      3499      3503      3501
 -1      1653    8    0    1
 -2       786       785       886      3170      3504      3505
 -1      1654    8    0    1
 -2       785       885       886      3502      3506      3504
 -1      1655    8    0    1
 -2       787       786       828      3173      3507      3444
 -1      1656    8    0    1
 -2       842       797       832      3381      3323      3508
 -1      1657    8    0    1
 -2       837       758       887      3411      3509      3510
 -1      1658    8    0    1
 -2       791       790       888      3192      3511      3512
 -1      1659    8    0    1
 -2       792       791       889      3195      3513      3514
 -1      1660    8    0    1
 -2       791       888       889      3512      3515      3513
 -1      1661    8    0    1
 -2       793       792       890      3198      3516      3517
 -1      1662    8    0    1
 -2       792       889       890      3514      3518      3516
 -1      1663    8    0    1
 -2       794       793       891      3201      3519      3520
 -1      1664    8    0    1
 -2       793       890       891      3517      3521      3519
 -1      1665    8    0    1
 -2       795       794       892      3204      3522      3523
 -1      1666    8    0    1
 -2       794       891       892      3520      3524      3522
 -1      1667    8    0    1
 -2       829       834       893      3331      3525      3526
 -1      1668    8    0    1
 -2       755       836       894      3415      3527      3528
 -1      1669    8    0    1
 -2       801       802       895      3223      3529      3530
 -1      1670    8    0    1
 -2       800       801       896      3220      3531      3532
 -1      1671    8    0    1
 -2       801       895       896      3530      3533      3531
 -1      1672    8    0    1
 -2       803       804       897      3229      3534      3535
 -1      1673    8    0    1
 -2       804       805       898      3232      3536      3537
 -1      1674    8    0    1
 -2       804       898       897      3537      3538      3534
 -1      1675    8    0    1
 -2       805       806       899      3235      3539      3540
 -1      1676    8    0    1
 -2       805       899       898      3540      3541      3536
 -1      1677    8    0    1
 -2       806       807       900      3238      3542      3543
 -1      1678    8    0    1
 -2       806       900       899      3543      3544      3539
 -1      1679    8    0    1
 -2       807       808       901      3241      3545      3546
 -1      1680    8    0    1
 -2       807       901       900      3546      3547      3542
 -1      1681    8    0    1
 -2       808       809       902      3244      3548      3549
 -1      1682    8    0    1
 -2       808       902       901      3549      3550      3545
 -1      1683    8    0    1
 -2       809       810       903      3247      3551      3552
 -1      1684    8    0    1
 -2       809       903       902      3552      3553      3548
 -1      1685    8    0    1
 -2       810       811       904      3250      3554      3555
 -1      1686    8    0    1
 -2       810       904       903      3555      3556      3551
 -1      1687    8    0    1
 -2       811       812       905      3253      3557      3558
 -1      1688    8    0    1
 -2       811       905       904      3558      3559      3554
 -1      1689    8    0    1
 -2       812       813       906      3256      3560      3561
 -1      1690    8    0    1
 -2       812       906       905      3561      3562      3557
 -1      1691    8    0    1
 -2       813       814       907      3259      3563      3564
 -1      1692    8    0    1
 -2       813       907       906      3564      3565      3560
 -1      1693    8    0    1
 -2       814       815       908      3262      3566      3567
 -1      1694    8    0    1
 -2       814       908       907      3567      3568      3563
 -1      1695    8    0    1
 -2       692       760       815      3264      3569      3260
 -1      1696    8    0    1
 -2       827       825       909      3306      3570      3571
 -1      1697    8    0    1
 -2       816       817       910      3277      3572      3573
 -1      1698    8    0    1
 -2       819       820       911      3286      3574      3575
 -1      1699    8    0    1
 -2       820       821       912      3289      3576      3577
 -1      1700    8    0    1
 -2       820       912       911      3577      3578      3574
 -1      1701    8    0    1
 -2       821       822       913      3292      3579      3580
 -1      1702    8    0    1
 -2       821       913       912      3580      3581      3576
 -1      1703    8    0    1
 -2       822       823       914      3295      3582      3583
 -1      1704    8    0    1
 -2       822       914       913      3583      3584      3579
 -1      1705    8    0    1
 -2       750       749       915      3053      3585      3586
 -1      1706    8    0    1
 -2       824       750       915      3299      3586      3587
 -1      1707    8    0    1
 -2       749       847       915      3366      3588      3585
 -1      1708    8    0    1
 -2       817       818       916      3280      3589      3590
 -1      1709    8    0    1
 -2       817       916       910      3590      3591      3572
 -1      1710    8    0    1
 -2       818       819       917      3283      3592      3593
 -1      1711    8    0    1
 -2       818       917       916      3593      3594      3589
 -1      1712    8    0    1
 -2       802       803       918      3226      3595      3596
 -1      1713    8    0    1
 -2       895       802       918      3529      3596      3597
 -1      1714    8    0    1
 -2       803       897       918      3535      3598      3595
 -1      1715    8    0    1
 -2       799       798       919      3215      3599      3600
 -1      1716    8    0    1
 -2       839       762       920      3368      3601      3602
 -1      1717    8    0    1
 -2       790       789       921      3189      3603      3604
 -1      1718    8    0    1
 -2       790       921       888      3604      3605      3511
 -1      1719    8    0    1
 -2       752       830       922      3406      3606      3607
 -1      1720    8    0    1
 -2       752       922       864      3607      3608      3436
 -1      1721    8    0    1
 -2       838       746       762      3341      3609      3413
 -1      1722    8    0    1
 -2       765       764       923      3107      3610      3611
 -1      1723    8    0    1
 -2       765       923       866      3611      3612      3445
 -1      1724    8    0    1
 -2       754       747       924      3076      3613      3614
 -1      1725    8    0    1
 -2       754       924       859      3614      3615      3421
 -1      1726    8    0    1
 -2       735       626       697      3037      3391      3616
 -1      1727    8    0    1
 -2       789       849       925      3405      3617      3618
 -1      1728    8    0    1
 -2       849       761       925      3379      3619      3617
 -1      1729    8    0    1
 -2       763       828       886      3309      3620      3621
 -1      1730    8    0    1
 -2       828       786       886      3507      3505      3620
 -1      1731    8    0    1
 -2       815       760       864      3569      3438      3622
 -1      1732    8    0    1
 -2       761       837       925      3416      3623      3619
 -1      1733    8    0    1
 -2       764       839       926      3344      3624      3625
 -1      1734    8    0    1
 -2       764       926       923      3625      3626      3610
 -1      1735    8    0    1
 -2       730       735       853      3004      3627      3628
 -1      1736    8    0    1
 -2       758       843       927      3439      3629      3630
 -1      1737    8    0    1
 -2       835       763       928      3369      3631      3632
 -1      1738    8    0    1
 -2       763       886       928      3621      3633      3631
 -1      1739    8    0    1
 -2       698       730       853      3392      3628      3393
 -1      1740    8    0    1
 -2       846       759       929      3362      3634      3635
 -1      1741    8    0    1
 -2       859       924       930      3615      3636      3637
 -1      1742    8    0    1
 -2       751       848       931      3375      3638      3639
 -1      1743    8    0    1
 -2       751       931       861      3639      3640      3427
 -1      1744    8    0    1
 -2       887       758       927      3509      3630      3641
 -1      1745    8    0    1
 -2       850       727       851      3384      3387      3642
 -1      1746    8    0    1
 -2       829       893       932      3526      3643      3644
 -1      1747    8    0    1
 -2       893       834       933      3525      3645      3646
 -1      1748    8    0    1
 -2       834       850       933      3383      3647      3645
 -1      1749    8    0    1
 -2       796       795       934      3208      3648      3649
 -1      1750    8    0    1
 -2       857       796       934      3410      3649      3650
 -1      1751    8    0    1
 -2       795       892       934      3523      3651      3648
 -1      1752    8    0    1
 -2       851       799       935      3385      3652      3653
 -1      1753    8    0    1
 -2       799       919       935      3600      3654      3652
 -1      1754    8    0    1
 -2       755       894       936      3528      3655      3656
 -1      1755    8    0    1
 -2       755       936       865      3656      3657      3440
 -1      1756    8    0    1
 -2       829       932       858      3644      3658      3420
 -1      1757    8    0    1
 -2       800       896       937      3532      3659      3660
 -1      1758    8    0    1
 -2       800       937       833      3660      3661      3328
 -1      1759    8    0    1
 -2       927       843       938      3629      3662      3663
 -1      1760    8    0    1
 -2       843       863       938      3435      3664      3662
 -1      1761    8    0    1
 -2       908       815       864      3566      3622      3665
 -1      1762    8    0    1
 -2       909       825       939      3570      3666      3667
 -1      1763    8    0    1
 -2       825       831       939      3319      3668      3666
 -1      1764    8    0    1
 -2       827       909       940      3571      3669      3670
 -1      1765    8    0    1
 -2       827       940       855      3670      3671      3401
 -1      1766    8    0    1
 -2       856       835       928      3402      3632      3672
 -1      1767    8    0    1
 -2       798       833       941      3327      3673      3674
 -1      1768    8    0    1
 -2       919       798       941      3599      3674      3675
 -1      1769    8    0    1
 -2       833       937       941      3661      3676      3673
 -1      1770    8    0    1
 -2       847       854       942      3397      3677      3678
 -1      1771    8    0    1
 -2       819       911       917      3575      3679      3592
 -1      1772    8    0    1
 -2       915       847       914      3588      3680      3681
 -1      1773    8    0    1
 -2       823       824       915      3298      3587      3682
 -1      1774    8    0    1
 -2       921       789       925      3603      3618      3683
 -1      1775    8    0    1
 -2       742       721       788      3020      3312      3380
 -1      1776    8    0    1
 -2       837       887       925      3510      3684      3623
 -1      1777    8    0    1
 -2       836       856       943      3404      3685      3686
 -1      1778    8    0    1
 -2       836       943       894      3686      3687      3527
 -1      1779    8    0    1
 -2       920       762       862      3601      3688      3689
 -1      1780    8    0    1
 -2       839       920       926      3602      3690      3624
 -1      1781    8    0    1
 -2       922       830       944      3606      3691      3692
 -1      1782    8    0    1
 -2       830       865       944      3442      3693      3691
 -1      1783    8    0    1
 -2       863       756       861      3433      3429      3694
 -1      1784    8    0    1
 -2       924       747       845      3613      3360      3695
 -1      1785    8    0    1
 -2       826       857       934      3409      3650      3696
 -1      1786    8    0    1
 -2       847       942       914      3678      3697      3680
 -1      1787    8    0    1
 -2       844       860       945      3425      3698      3699
 -1      1788    8    0    1
 -2       845       844       946      3361      3700      3701
 -1      1789    8    0    1
 -2       844       945       946      3699      3702      3700
 -1      1790    8    0    1
 -2       862       859       947      3430      3703      3704
 -1      1791    8    0    1
 -2       920       862       947      3689      3704      3705
 -1      1792    8    0    1
 -2       859       930       947      3637      3706      3703
 -1      1793    8    0    1
 -2       746       862       762      3432      3688      3609
 -1      1794    8    0    1
 -2       826       934       948      3696      3707      3708
 -1      1795    8    0    1
 -2       831       826       948      3320      3708      3709
 -1      1796    8    0    1
 -2       934       892       948      3651      3710      3707
 -1      1797    8    0    1
 -2       823       915       914      3682      3681      3582
 -1      1798    8    0    1
 -2       867       866       949      3449      3711      3712
 -1      1799    8    0    1
 -2       925       887       921      3684      3713      3683
 -1      1800    8    0    1
 -2       848       842       950      3373      3714      3715
 -1      1801    8    0    1
 -2       868       867       951      3452      3716      3717
 -1      1802    8    0    1
 -2       867       949       951      3712      3718      3716
 -1      1803    8    0    1
 -2       869       868       952      3455      3719      3720
 -1      1804    8    0    1
 -2       868       951       952      3717      3721      3719
 -1      1805    8    0    1
 -2       870       869       953      3458      3722      3723
 -1      1806    8    0    1
 -2       869       952       953      3720      3724      3722
 -1      1807    8    0    1
 -2       871       870       954      3461      3725      3726
 -1      1808    8    0    1
 -2       870       953       954      3723      3727      3725
 -1      1809    8    0    1
 -2       872       871       955      3464      3728      3729
 -1      1810    8    0    1
 -2       871       954       955      3726      3730      3728
 -1      1811    8    0    1
 -2       873       872       956      3467      3731      3732
 -1      1812    8    0    1
 -2       872       955       956      3729      3733      3731
 -1      1813    8    0    1
 -2       874       873       957      3470      3734      3735
 -1      1814    8    0    1
 -2       873       956       957      3732      3736      3734
 -1      1815    8    0    1
 -2       875       874       958      3473      3737      3738
 -1      1816    8    0    1
 -2       874       957       958      3735      3739      3737
 -1      1817    8    0    1
 -2       876       875       959      3476      3740      3741
 -1      1818    8    0    1
 -2       875       958       959      3738      3742      3740
 -1      1819    8    0    1
 -2       877       876       960      3479      3743      3744
 -1      1820    8    0    1
 -2       876       959       960      3741      3745      3743
 -1      1821    8    0    1
 -2       878       877       961      3482      3746      3747
 -1      1822    8    0    1
 -2       877       960       961      3744      3748      3746
 -1      1823    8    0    1
 -2       879       878       962      3485      3749      3750
 -1      1824    8    0    1
 -2       878       961       962      3747      3751      3749
 -1      1825    8    0    1
 -2       880       879       963      3488      3752      3753
 -1      1826    8    0    1
 -2       879       962       963      3750      3754      3752
 -1      1827    8    0    1
 -2       881       880       964      3491      3755      3756
 -1      1828    8    0    1
 -2       880       963       964      3753      3757      3755
 -1      1829    8    0    1
 -2       882       881       965      3494      3758      3759
 -1      1830    8    0    1
 -2       881       964       965      3756      3760      3758
 -1      1831    8    0    1
 -2       883       882       966      3497      3761      3762
 -1      1832    8    0    1
 -2       882       965       966      3759      3763      3761
 -1      1833    8    0    1
 -2       884       883       967      3500      3764      3765
 -1      1834    8    0    1
 -2       883       966       967      3762      3766      3764
 -1      1835    8    0    1
 -2       885       884       968      3503      3767      3768
 -1      1836    8    0    1
 -2       884       967       968      3765      3769      3767
 -1      1837    8    0    1
 -2       886       885       928      3506      3770      3633
 -1      1838    8    0    1
 -2       889       888       969      3515      3771      3772
 -1      1839    8    0    1
 -2       864       922       908      3608      3773      3665
 -1      1840    8    0    1
 -2       932       893       970      3643      3774      3775
 -1      1841    8    0    1
 -2       890       889       971      3518      3776      3777
 -1      1842    8    0    1
 -2       889       969       971      3772      3778      3776
 -1      1843    8    0    1
 -2       891       890       972      3521      3779      3780
 -1      1844    8    0    1
 -2       890       971       972      3777      3781      3779
 -1      1845    8    0    1
 -2       892       891       973      3524      3782      3783
 -1      1846    8    0    1
 -2       891       972       973      3780      3784      3782
 -1      1847    8    0    1
 -2       898       899       974      3541      3785      3786
 -1      1848    8    0    1
 -2       897       898       975      3538      3787      3788
 -1      1849    8    0    1
 -2       898       974       975      3786      3789      3787
 -1      1850    8    0    1
 -2       900       901       976      3547      3790      3791
 -1      1851    8    0    1
 -2       901       902       977      3550      3792      3793
 -1      1852    8    0    1
 -2       901       977       976      3793      3794      3790
 -1      1853    8    0    1
 -2       902       903       978      3553      3795      3796
 -1      1854    8    0    1
 -2       902       978       977      3796      3797      3792
 -1      1855    8    0    1
 -2       903       904       979      3556      3798      3799
 -1      1856    8    0    1
 -2       903       979       978      3799      3800      3795
 -1      1857    8    0    1
 -2       904       905       980      3559      3801      3802
 -1      1858    8    0    1
 -2       904       980       979      3802      3803      3798
 -1      1859    8    0    1
 -2       905       906       981      3562      3804      3805
 -1      1860    8    0    1
 -2       905       981       980      3805      3806      3801
 -1      1861    8    0    1
 -2       906       907       982      3565      3807      3808
 -1      1862    8    0    1
 -2       906       982       981      3808      3809      3804
 -1      1863    8    0    1
 -2       907       908       983      3568      3810      3811
 -1      1864    8    0    1
 -2       982       907       983      3807      3811      3812
 -1      1865    8    0    1
 -2       908       922       983      3773      3813      3810
 -1      1866    8    0    1
 -2       916       917       984      3594      3814      3815
 -1      1867    8    0    1
 -2       760       693       852      3263      3389      3443
 -1      1868    8    0    1
 -2       856       928       985      3672      3816      3817
 -1      1869    8    0    1
 -2       816       910       950      3573      3818      3819
 -1      1870    8    0    1
 -2       917       911       986      3679      3820      3821
 -1      1871    8    0    1
 -2       917       986       984      3821      3822      3814
 -1      1872    8    0    1
 -2       911       912       987      3578      3823      3824
 -1      1873    8    0    1
 -2       911       987       986      3824      3825      3820
 -1      1874    8    0    1
 -2       848       950       910      3715      3818      3826
 -1      1875    8    0    1
 -2       832       816       950      3324      3819      3827
 -1      1876    8    0    1
 -2       914       942       913      3697      3828      3584
 -1      1877    8    0    1
 -2       854       855       988      3400      3829      3830
 -1      1878    8    0    1
 -2       942       854       988      3677      3830      3831
 -1      1879    8    0    1
 -2       855       940       988      3671      3832      3829
 -1      1880    8    0    1
 -2       926       920       947      3690      3705      3833
 -1      1881    8    0    1
 -2       888       921       989      3605      3834      3835
 -1      1882    8    0    1
 -2       969       888       989      3771      3835      3836
 -1      1883    8    0    1
 -2       921       887       989      3713      3837      3834
 -1      1884    8    0    1
 -2       929       759       858      3634      3838      3839
 -1      1885    8    0    1
 -2       923       926       990      3626      3840      3841
 -1      1886    8    0    1
 -2       759       840       858      3347      3419      3838
 -1      1887    8    0    1
 -2       912       913       991      3581      3842      3843
 -1      1888    8    0    1
 -2       912       991       987      3843      3844      3823
 -1      1889    8    0    1
 -2       899       900       992      3544      3845      3846
 -1      1890    8    0    1
 -2       900       976       992      3791      3847      3845
 -1      1891    8    0    1
 -2       842       832       950      3508      3827      3714
 -1      1892    8    0    1
 -2       860       846       993      3426      3848      3849
 -1      1893    8    0    1
 -2       945       860       993      3698      3849      3850
 -1      1894    8    0    1
 -2       846       929       993      3635      3851      3848
 -1      1895    8    0    1
 -2       910       916       994      3591      3852      3853
 -1      1896    8    0    1
 -2       848       910       994      3826      3853      3854
 -1      1897    8    0    1
 -2       916       984       994      3815      3855      3852
 -1      1898    8    0    1
 -2       896       895       995      3533      3856      3857
 -1      1899    8    0    1
 -2       850       851       996      3642      3858      3859
 -1      1900    8    0    1
 -2       851       935       996      3653      3860      3858
 -1      1901    8    0    1
 -2       887       927       989      3641      3861      3837
 -1      1902    8    0    1
 -2       866       923       997      3612      3862      3863
 -1      1903    8    0    1
 -2       866       997       949      3863      3864      3711
 -1      1904    8    0    1
 -2       858       932       929      3658      3865      3839
 -1      1905    8    0    1
 -2       924       845       998      3695      3866      3867
 -1      1906    8    0    1
 -2       930       924       998      3636      3867      3868
 -1      1907    8    0    1
 -2       845       946       998      3701      3869      3866
 -1      1908    8    0    1
 -2       863       861       999      3694      3870      3871
 -1      1909    8    0    1
 -2       928       885       968      3770      3768      3872
 -1      1910    8    0    1
 -2       913       942       991      3828      3873      3842
 -1      1911    8    0    1
 -2       929       932      1000      3865      3874      3875
 -1      1912    8    0    1
 -2       993       929      1000      3851      3875      3876
 -1      1913    8    0    1
 -2       932       970      1000      3775      3877      3874
 -1      1914    8    0    1
 -2       930       998      1001      3868      3878      3879
 -1      1915    8    0    1
 -2       945       993      1002      3850      3880      3881
 -1      1916    8    0    1
 -2       993      1000      1002      3876      3882      3880
 -1      1917    8    0    1
 -2       861       931      1003      3640      3883      3884
 -1      1918    8    0    1
 -2       861      1003       999      3884      3885      3870
 -1      1919    8    0    1
 -2       896       995      1004      3857      3886      3887
 -1      1920    8    0    1
 -2       896      1004       937      3887      3888      3659
 -1      1921    8    0    1
 -2       970       893      1005      3774      3889      3890
 -1      1922    8    0    1
 -2       893       933      1005      3646      3891      3889
 -1      1923    8    0    1
 -2       933       850       996      3647      3859      3892
 -1      1924    8    0    1
 -2       892       973       948      3783      3893      3710
 -1      1925    8    0    1
 -2       989       927      1006      3861      3894      3895
 -1      1926    8    0    1
 -2       974       899       992      3785      3846      3896
 -1      1927    8    0    1
 -2       936       894      1007      3655      3897      3898
 -1      1928    8    0    1
 -2       894       943      1007      3687      3899      3897
 -1      1929    8    0    1
 -2       865       936      1008      3657      3900      3901
 -1      1930    8    0    1
 -2       865      1008       944      3901      3902      3693
 -1      1931    8    0    1
 -2       938       863      1009      3664      3903      3904
 -1      1932    8    0    1
 -2       863       999      1009      3871      3905      3903
 -1      1933    8    0    1
 -2       897       975      1010      3788      3906      3907
 -1      1934    8    0    1
 -2       897      1010       918      3907      3908      3598
 -1      1935    8    0    1
 -2       983       922       944      3813      3692      3909
 -1      1936    8    0    1
 -2       939       831       948      3668      3709      3910
 -1      1937    8    0    1
 -2       995       895      1011      3856      3911      3912
 -1      1938    8    0    1
 -2       895       918      1011      3597      3913      3911
 -1      1939    8    0    1
 -2       940       909      1012      3669      3914      3915
 -1      1940    8    0    1
 -2       927       938      1006      3663      3916      3894
 -1      1941    8    0    1
 -2       848       994       931      3854      3917      3638
 -1      1942    8    0    1
 -2       991       942      1013      3873      3918      3919
 -1      1943    8    0    1
 -2       942       988      1013      3831      3920      3918
 -1      1944    8    0    1
 -2       943       856       985      3685      3817      3921
 -1      1945    8    0    1
 -2       990       926       947      3840      3833      3922
 -1      1946    8    0    1
 -2       935       919      1014      3654      3923      3924
 -1      1947    8    0    1
 -2       923       990       997      3841      3925      3862
 -1      1948    8    0    1
 -2       909       939      1015      3667      3926      3927
 -1      1949    8    0    1
 -2       909      1015      1012      3927      3928      3914
 -1      1950    8    0    1
 -2       946       945      1016      3702      3929      3930
 -1      1951    8    0    1
 -2       945      1002      1016      3881      3931      3929
 -1      1952    8    0    1
 -2       985       928       968      3816      3872      3932
 -1      1953    8    0    1
 -2       947       930       990      3706      3933      3922
 -1      1954    8    0    1
 -2       735       697       853      3616      3394      3627
 -1      1955    8    0    1
 -2       919       941      1017      3675      3934      3935
 -1      1956    8    0    1
 -2       919      1017      1014      3935      3936      3923
 -1      1957    8    0    1
 -2       990       930      1001      3933      3879      3937
 -1      1958    8    0    1
 -2       985       968      1018      3932      3938      3939
 -1      1959    8    0    1
 -2       968       967      1018      3769      3940      3938
 -1      1960    8    0    1
 -2       952       951      1019      3721      3941      3942
 -1      1961    8    0    1
 -2       953       952      1020      3724      3943      3944
 -1      1962    8    0    1
 -2       952      1019      1020      3942      3945      3943
 -1      1963    8    0    1
 -2       954       953      1021      3727      3946      3947
 -1      1964    8    0    1
 -2       953      1020      1021      3944      3948      3946
 -1      1965    8    0    1
 -2       955       954      1022      3730      3949      3950
 -1      1966    8    0    1
 -2       954      1021      1022      3947      3951      3949
 -1      1967    8    0    1
 -2       956       955      1023      3733      3952      3953
 -1      1968    8    0    1
 -2       955      1022      1023      3950      3954      3952
 -1      1969    8    0    1
 -2       957       956      1024      3736      3955      3956
 -1      1970    8    0    1
 -2       956      1023      1024      3953      3957      3955
 -1      1971    8    0    1
 -2       958       957      1025      3739      3958      3959
 -1      1972    8    0    1
 -2       957      1024      1025      3956      3960      3958
 -1      1973    8    0    1
 -2       959       958      1026      3742      3961      3962
 -1      1974    8    0    1
 -2       958      1025      1026      3959      3963      3961
 -1      1975    8    0    1
 -2       960       959      1027      3745      3964      3965
 -1      1976    8    0    1
 -2       959      1026      1027      3962      3966      3964
 -1      1977    8    0    1
 -2       961       960      1028      3748      3967      3968
 -1      1978    8    0    1
 -2       960      1027      1028      3965      3969      3967
 -1      1979    8    0    1
 -2       962       961      1029      3751      3970      3971
 -1      1980    8    0    1
 -2       961      1028      1029      3968      3972      3970
 -1      1981    8    0    1
 -2       963       962      1030      3754      3973      3974
 -1      1982    8    0    1
 -2       962      1029      1030      3971      3975      3973
 -1      1983    8    0    1
 -2       964       963      1031      3757      3976      3977
 -1      1984    8    0    1
 -2       963      1030      1031      3974      3978      3976
 -1      1985    8    0    1
 -2       965       964      1032      3760      3979      3980
 -1      1986    8    0    1
 -2       964      1031      1032      3977      3981      3979
 -1      1987    8    0    1
 -2       966       965      1033      3763      3982      3983
 -1      1988    8    0    1
 -2       965      1032      1033      3980      3984      3982
 -1      1989    8    0    1
 -2       967       966      1034      3766      3985      3986
 -1      1990    8    0    1
 -2      1018       967      1034      3940      3986      3987
 -1      1991    8    0    1
 -2       966      1033      1034      3983      3988      3985
 -1      1992    8    0    1
 -2       971       969      1035      3778      3989      3990
 -1      1993    8    0    1
 -2       987       991      1013      3844      3919      3991
 -1      1994    8    0    1
 -2       931       994      1003      3917      3992      3883
 -1      1995    8    0    1
 -2       974       992      1036      3896      3993      3994
 -1      1996    8    0    1
 -2       933       996      1037      3892      3995      3996
 -1      1997    8    0    1
 -2       933      1037      1005      3996      3997      3891
 -1      1998    8    0    1
 -2       972       971      1038      3781      3998      3999
 -1      1999    8    0    1
 -2       971      1035      1038      3990      4000      3998
 -1      2000    8    0    1
 -2       973       972      1039      3784      4001      4002
 -1      2001    8    0    1
 -2       972      1038      1039      3999      4003      4001
 -1      2002    8    0    1
 -2       975       974      1040      3789      4004      4005
 -1      2003    8    0    1
 -2       974      1036      1040      3994      4006      4004
 -1      2004    8    0    1
 -2       977       978      1041      3797      4007      4008
 -1      2005    8    0    1
 -2       976       977      1042      3794      4009      4010
 -1      2006    8    0    1
 -2       977      1041      1042      4008      4011      4009
 -1      2007    8    0    1
 -2       979       980      1043      3803      4012      4013
 -1      2008    8    0    1
 -2       980       981      1044      3806      4014      4015
 -1      2009    8    0    1
 -2       980      1044      1043      4015      4016      4012
 -1      2010    8    0    1
 -2       981       982      1045      3809      4017      4018
 -1      2011    8    0    1
 -2       981      1045      1044      4018      4019      4014
 -1      2012    8    0    1
 -2       986       987      1046      3825      4020      4021
 -1      2013    8    0    1
 -2      1006       938      1009      3916      3904      4022
 -1      2014    8    0    1
 -2       941       937      1047      3676      4023      4024
 -1      2015    8    0    1
 -2      1017       941      1047      3934      4024      4025
 -1      2016    8    0    1
 -2       937      1004      1047      3888      4026      4023
 -1      2017    8    0    1
 -2       984       986      1048      3822      4027      4028
 -1      2018    8    0    1
 -2       986      1046      1048      4021      4029      4027
 -1      2019    8    0    1
 -2       969       989      1006      3836      3895      4030
 -1      2020    8    0    1
 -2       951       949      1049      3718      4031      4032
 -1      2021    8    0    1
 -2       951      1049      1019      4032      4033      3941
 -1      2022    8    0    1
 -2       988       940      1050      3832      4034      4035
 -1      2023    8    0    1
 -2      1013       988      1050      3920      4035      4036
 -1      2024    8    0    1
 -2       940      1012      1050      3915      4037      4034
 -1      2025    8    0    1
 -2       983       944      1008      3909      3902      4038
 -1      2026    8    0    1
 -2       949       997      1051      3864      4039      4040
 -1      2027    8    0    1
 -2       949      1051      1049      4040      4041      4031
 -1      2028    8    0    1
 -2       990      1001      1052      3937      4042      4043
 -1      2029    8    0    1
 -2       990      1052       997      4043      4044      3925
 -1      2030    8    0    1
 -2       978       979      1053      3800      4045      4046
 -1      2031    8    0    1
 -2       978      1053      1041      4046      4047      4007
 -1      2032    8    0    1
 -2       943       985      1054      3921      4048      4049
 -1      2033    8    0    1
 -2       985      1018      1054      3939      4050      4048
 -1      2034    8    0    1
 -2       992       976      1055      3847      4051      4052
 -1      2035    8    0    1
 -2       992      1055      1036      4052      4053      3993
 -1      2036    8    0    1
 -2       994       984      1003      3855      4054      3992
 -1      2037    8    0    1
 -2       996       935      1056      3860      4055      4056
 -1      2038    8    0    1
 -2      1037       996      1056      3995      4056      4057
 -1      2039    8    0    1
 -2       935      1014      1056      3924      4058      4055
 -1      2040    8    0    1
 -2       948       973       939      3893      4059      3910
 -1      2041    8    0    1
 -2       969      1006      1035      4030      4060      3989
 -1      2042    8    0    1
 -2       998       946      1057      3869      4061      4062
 -1      2043    8    0    1
 -2      1001       998      1057      3878      4062      4063
 -1      2044    8    0    1
 -2       946      1016      1057      3930      4064      4061
 -1      2045    8    0    1
 -2       979      1043      1053      4013      4065      4045
 -1      2046    8    0    1
 -2      1004       995      1058      3886      4066      4067
 -1      2047    8    0    1
 -2       973      1039      1015      4002      4068      4069
 -1      2048    8    0    1
 -2       987      1013      1046      3991      4070      4020
 -1      2049    8    0    1
 -2       975      1040      1059      4005      4071      4072
 -1      2050    8    0    1
 -2       975      1059      1010      4072      4073      3906
 -1      2051    8    0    1
 -2      1003       984      1048      4054      4028      4074
 -1      2052    8    0    1
 -2      1007       943      1054      3899      4049      4075
 -1      2053    8    0    1
 -2      1008       936      1060      3900      4076      4077
 -1      2054    8    0    1
 -2       936      1007      1060      3898      4078      4076
 -1      2055    8    0    1
 -2       970      1005      1061      3890      4079      4080
 -1      2056    8    0    1
 -2       976      1042      1055      4010      4081      4051
 -1      2057    8    0    1
 -2      1045       982      1060      4017      4082      4083
 -1      2058    8    0    1
 -2       982       983      1008      3812      4038      4084
 -1      2059    8    0    1
 -2      1006      1009      1062      4022      4085      4086
 -1      2060    8    0    1
 -2      1011       918      1010      3913      3908      4087
 -1      2061    8    0    1
 -2      1000       970      1063      3877      4088      4089
 -1      2062    8    0    1
 -2      1002      1000      1063      3882      4089      4090
 -1      2063    8    0    1
 -2       970      1061      1063      4080      4091      4088
 -1      2064    8    0    1
 -2       997      1052      1051      4044      4092      4039
 -1      2065    8    0    1
 -2      1050      1012      1064      4037      4093      4094
 -1      2066    8    0    1
 -2      1006      1062      1035      4086      4095      4060
 -1      2067    8    0    1
 -2      1052      1001      1065      4042      4096      4097
 -1      2068    8    0    1
 -2      1001      1057      1065      4063      4098      4096
 -1      2069    8    0    1
 -2       939       973      1015      4059      4069      3926
 -1      2070    8    0    1
 -2      1056      1014      1066      4058      4099      4100
 -1      2071    8    0    1
 -2       999      1003      1067      3885      4101      4102
 -1      2072    8    0    1
 -2      1009       999      1067      3905      4102      4103
 -1      2073    8    0    1
 -2      1003      1048      1067      4074      4104      4101
 -1      2074    8    0    1
 -2      1014      1017      1068      3936      4105      4106
 -1      2075    8    0    1
 -2      1014      1068      1066      4106      4107      4099
 -1      2076    8    0    1
 -2       995      1011      1069      3912      4108      4109
 -1      2077    8    0    1
 -2       995      1069      1058      4109      4110      4066
 -1      2078    8    0    1
 -2      1012      1015      1070      3928      4111      4112
 -1      2079    8    0    1
 -2      1064      1012      1070      4093      4112      4113
 -1      2080    8    0    1
 -2      1015      1039      1070      4068      4114      4111
 -1      2081    8    0    1
 -2      1013      1050      1071      4036      4115      4116
 -1      2082    8    0    1
 -2      1046      1013      1071      4070      4116      4117
 -1      2083    8    0    1
 -2      1050      1064      1071      4094      4118      4115
 -1      2084    8    0    1
 -2      1021      1020      1072      3948      4119      4120
 -1      2085    8    0    1
 -2      1022      1021      1073      3951      4121      4122
 -1      2086    8    0    1
 -2      1021      1072      1073      4120      4123      4121
 -1      2087    8    0    1
 -2      1023      1022      1074      3954      4124      4125
 -1      2088    8    0    1
 -2      1022      1073      1074      4122      4126      4124
 -1      2089    8    0    1
 -2      1024      1023      1075      3957      4127      4128
 -1      2090    8    0    1
 -2      1023      1074      1075      4125      4129      4127
 -1      2091    8    0    1
 -2      1025      1024      1076      3960      4130      4131
 -1      2092    8    0    1
 -2      1024      1075      1076      4128      4132      4130
 -1      2093    8    0    1
 -2      1026      1025      1077      3963      4133      4134
 -1      2094    8    0    1
 -2      1025      1076      1077      4131      4135      4133
 -1      2095    8    0    1
 -2      1027      1026      1078      3966      4136      4137
 -1      2096    8    0    1
 -2      1026      1077      1078      4134      4138      4136
 -1      2097    8    0    1
 -2      1028      1027      1079      3969      4139      4140
 -1      2098    8    0    1
 -2      1027      1078      1079      4137      4141      4139
 -1      2099    8    0    1
 -2      1029      1028      1080      3972      4142      4143
 -1      2100    8    0    1
 -2      1028      1079      1080      4140      4144      4142
 -1      2101    8    0    1
 -2      1030      1029      1081      3975      4145      4146
 -1      2102    8    0    1
 -2      1029      1080      1081      4143      4147      4145
 -1      2103    8    0    1
 -2      1031      1030      1082      3978      4148      4149
 -1      2104    8    0    1
 -2      1030      1081      1082      4146      4150      4148
 -1      2105    8    0    1
 -2      1032      1031      1083      3981      4151      4152
 -1      2106    8    0    1
 -2      1031      1082      1083      4149      4153      4151
 -1      2107    8    0    1
 -2      1033      1032      1084      3984      4154      4155
 -1      2108    8    0    1
 -2      1032      1083      1084      4152      4156      4154
 -1      2109    8    0    1
 -2      1042      1041      1085      4011      4157      4158
 -1      2110    8    0    1
 -2      1005      1037      1086      3997      4159      4160
 -1      2111    8    0    1
 -2      1005      1086      1061      4160      4161      4079
 -1      2112    8    0    1
 -2      1039      1038      1070      4003      4162      4114
 -1      2113    8    0    1
 -2      1040      1036      1087      4006      4163      4164
 -1      2114    8    0    1
 -2      1060      1007      1088      4078      4165      4166
 -1      2115    8    0    1
 -2      1007      1054      1088      4075      4167      4165
 -1      2116    8    0    1
 -2      1055      1042      1089      4081      4168      4169
 -1      2117    8    0    1
 -2      1042      1085      1089      4158      4170      4168
 -1      2118    8    0    1
 -2      1060       982      1008      4082      4084      4077
 -1      2119    8    0    1
 -2      1044      1045      1090      4019      4171      4172
 -1      2120    8    0    1
 -2      1043      1044      1091      4016      4173      4174
 -1      2121    8    0    1
 -2      1044      1090      1091      4172      4175      4173
 -1      2122    8    0    1
 -2      1062      1009      1067      4085      4103      4176
 -1      2123    8    0    1
 -2      1011      1010      1092      4087      4177      4178
 -1      2124    8    0    1
 -2      1010      1059      1092      4073      4179      4177
 -1      2125    8    0    1
 -2      1053      1043      1093      4065      4180      4181
 -1      2126    8    0    1
 -2      1043      1091      1093      4174      4182      4180
 -1      2127    8    0    1
 -2      1051      1052      1094      4092      4183      4184
 -1      2128    8    0    1
 -2      1019      1049      1095      4033      4185      4186
 -1      2129    8    0    1
 -2      1004      1058      1096      4067      4187      4188
 -1      2130    8    0    1
 -2      1004      1096      1047      4188      4189      4026
 -1      2131    8    0    1
 -2      1041      1053      1097      4047      4190      4191
 -1      2132    8    0    1
 -2      1085      1041      1097      4157      4191      4192
 -1      2133    8    0    1
 -2      1053      1093      1097      4181      4193      4190
 -1      2134    8    0    1
 -2      1054      1018      1098      4050      4194      4195
 -1      2135    8    0    1
 -2      1018      1034      1098      3987      4196      4194
 -1      2136    8    0    1
 -2      1056      1066      1099      4100      4197      4198
 -1      2137    8    0    1
 -2      1056      1099      1037      4198      4199      4057
 -1      2138    8    0    1
 -2      1045      1060      1088      4083      4166      4200
 -1      2139    8    0    1
 -2      1016      1002      1100      3931      4201      4202
 -1      2140    8    0    1
 -2      1002      1063      1100      4090      4203      4201
 -1      2141    8    0    1
 -2      1057      1016      1101      4064      4204      4205
 -1      2142    8    0    1
 -2      1065      1057      1101      4098      4205      4206
 -1      2143    8    0    1
 -2      1016      1100      1101      4202      4207      4204
 -1      2144    8    0    1
 -2      1049      1051      1102      4041      4208      4209
 -1      2145    8    0    1
 -2      1095      1049      1102      4185      4209      4210
 -1      2146    8    0    1
 -2      1051      1094      1102      4184      4211      4208
 -1      2147    8    0    1
 -2      1048      1046      1103      4029      4212      4213
 -1      2148    8    0    1
 -2      1046      1071      1103      4117      4214      4212
 -1      2149    8    0    1
 -2      1020      1019      1104      3945      4215      4216
 -1      2150    8    0    1
 -2      1019      1095      1104      4186      4217      4215
 -1      2151    8    0    1
 -2      1036      1055      1105      4053      4218      4219
 -1      2152    8    0    1
 -2      1055      1089      1105      4169      4220      4218
 -1      2153    8    0    1
 -2      1100      1063      1061      4203      4091      4221
 -1      2154    8    0    1
 -2      1100      1061      1106      4221      4222      4223
 -1      2155    8    0    1
 -2      1061      1086      1106      4161      4224      4222
 -1      2156    8    0    1
 -2      1064      1070      1107      4113      4225      4226
 -1      2157    8    0    1
 -2      1071      1064      1107      4118      4226      4227
 -1      2158    8    0    1
 -2      1070      1038      1107      4162      4228      4225
 -1      2159    8    0    1
 -2      1058      1069      1108      4110      4229      4230
 -1      2160    8    0    1
 -2      1037      1099      1086      4199      4231      4159
 -1      2161    8    0    1
 -2      1096      1058      1109      4187      4232      4233
 -1      2162    8    0    1
 -2      1058      1108      1109      4230      4234      4232
 -1      2163    8    0    1
 -2      1034      1033      1110      3988      4235      4236
 -1      2164    8    0    1
 -2      1034      1110      1098      4236      4237      4196
 -1      2165    8    0    1
 -2      1072      1020      1104      4119      4216      4238
 -1      2166    8    0    1
 -2      1059      1040      1111      4071      4239      4240
 -1      2167    8    0    1
 -2      1040      1087      1111      4164      4241      4239
 -1      2168    8    0    1
 -2      1088      1054      1098      4167      4195      4242
 -1      2169    8    0    1
 -2      1038      1035      1112      4000      4243      4244
 -1      2170    8    0    1
 -2      1087      1036      1105      4163      4219      4245
 -1      2171    8    0    1
 -2      1066      1068      1113      4107      4246      4247
 -1      2172    8    0    1
 -2      1048      1103      1067      4213      4248      4104
 -1      2173    8    0    1
 -2      1090      1045      1088      4171      4200      4249
 -1      2174    8    0    1
 -2      1038      1112      1107      4244      4250      4228
 -1      2175    8    0    1
 -2      1100      1106      1101      4223      4251      4207
 -1      2176    8    0    1
 -2      1094      1052      1065      4183      4097      4252
 -1      2177    8    0    1
 -2      1066      1113      1114      4247      4253      4254
 -1      2178    8    0    1
 -2      1066      1114      1099      4254      4255      4197
 -1      2179    8    0    1
 -2      1035      1062      1112      4095      4256      4243
 -1      2180    8    0    1
 -2      1033      1084      1110      4155      4257      4235
 -1      2181    8    0    1
 -2      1017      1047      1115      4025      4258      4259
 -1      2182    8    0    1
 -2      1068      1017      1115      4105      4259      4260
 -1      2183    8    0    1
 -2      1047      1096      1115      4189      4261      4258
 -1      2184    8    0    1
 -2      1112      1062      1116      4256      4262      4263
 -1      2185    8    0    1
 -2      1112      1116      1107      4263      4264      4250
 -1      2186    8    0    1
 -2      1011      1092      1069      4178      4265      4108
 -1      2187    8    0    1
 -2      1073      1072      1117      4123      4266      4267
 -1      2188    8    0    1
 -2      1086      1099      1118      4231      4268      4269
 -1      2189    8    0    1
 -2      1106      1086      1118      4224      4269      4270
 -1      2190    8    0    1
 -2      1099      1114      1118      4255      4271      4268
 -1      2191    8    0    1
 -2      1074      1073      1109      4126      4272      4273
 -1      2192    8    0    1
 -2      1075      1074      1108      4129      4274      4275
 -1      2193    8    0    1
 -2      1077      1076      1119      4135      4276      4277
 -1      2194    8    0    1
 -2      1078      1077      1111      4138      4278      4279
 -1      2195    8    0    1
 -2      1079      1078      1087      4141      4280      4281
 -1      2196    8    0    1
 -2      1080      1079      1105      4144      4282      4283
 -1      2197    8    0    1
 -2      1081      1080      1089      4147      4284      4285
 -1      2198    8    0    1
 -2      1082      1081      1085      4150      4286      4287
 -1      2199    8    0    1
 -2      1083      1082      1097      4153      4288      4289
 -1      2200    8    0    1
 -2      1084      1083      1093      4156      4290      4291
 -1      2201    8    0    1
 -2      1072      1104      1120      4238      4292      4293
 -1      2202    8    0    1
 -2      1072      1120      1117      4293      4294      4266
 -1      2203    8    0    1
 -2      1071      1107      1103      4227      4295      4214
 -1      2204    8    0    1
 -2      1093      1083      1097      4290      4289      4193
 -1      2205    8    0    1
 -2      1110      1084      1091      4257      4296      4297
 -1      2206    8    0    1
 -2      1087      1105      1079      4245      4282      4281
 -1      2207    8    0    1
 -2      1113      1068      1120      4246      4298      4299
 -1      2208    8    0    1
 -2      1089      1085      1081      4170      4286      4285
 -1      2209    8    0    1
 -2      1062      1067      1103      4176      4248      4300
 -1      2210    8    0    1
 -2      1098      1110      1091      4237      4297      4301
 -1      2211    8    0    1
 -2      1089      1080      1105      4284      4283      4220
 -1      2212    8    0    1
 -2      1092      1059      1119      4179      4302      4303
 -1      2213    8    0    1
 -2      1093      1091      1084      4182      4296      4291
 -1      2214    8    0    1
 -2      1087      1078      1111      4280      4279      4241
 -1      2215    8    0    1
 -2      1108      1069      1121      4229      4304      4305
 -1      2216    8    0    1
 -2      1075      1108      1121      4275      4305      4306
 -1      2217    8    0    1
 -2      1069      1092      1121      4265      4307      4304
 -1      2218    8    0    1
 -2      1090      1088      1098      4249      4242      4308
 -1      2219    8    0    1
 -2      1065      1101      1122      4206      4309      4310
 -1      2220    8    0    1
 -2      1065      1122      1094      4310      4311      4252
 -1      2221    8    0    1
 -2      1090      1098      1091      4308      4301      4175
 -1      2222    8    0    1
 -2      1101      1106      1122      4251      4312      4309
 -1      2223    8    0    1
 -2      1108      1074      1109      4274      4273      4234
 -1      2224    8    0    1
 -2      1082      1085      1097      4287      4192      4288
 -1      2225    8    0    1
 -2      1106      1118      1122      4270      4313      4312
 -1      2226    8    0    1
 -2      1068      1115      1120      4260      4314      4298
 -1      2227    8    0    1
 -2      1077      1119      1111      4277      4315      4278
 -1      2228    8    0    1
 -2      1076      1075      1121      4132      4306      4316
 -1      2229    8    0    1
 -2      1121      1092      1119      4307      4303      4317
 -1      2230    8    0    1
 -2      1113      1120      1123      4299      4318      4319
 -1      2231    8    0    1
 -2      1114      1113      1123      4253      4319      4320
 -1      2232    8    0    1
 -2      1120      1104      1123      4292      4321      4318
 -1      2233    8    0    1
 -2      1119      1059      1111      4302      4240      4315
 -1      2234    8    0    1
 -2      1062      1103      1116      4300      4322      4262
 -1      2235    8    0    1
 -2      1123      1104      1095      4321      4217      4323
 -1      2236    8    0    1
 -2      1123      1095      1124      4323      4324      4325
 -1      2237    8    0    1
 -2      1114      1123      1124      4320      4325      4326
 -1      2238    8    0    1
 -2      1095      1102      1124      4210      4327      4324
 -1      2239    8    0    1
 -2      1076      1121      1119      4316      4317      4276
 -1      2240    8    0    1
 -2      1102      1094      1125      4211      4328      4329
 -1      2241    8    0    1
 -2      1124      1102      1125      4327      4329      4330
 -1      2242    8    0    1
 -2      1094      1122      1125      4311      4331      4328
 -1      2243    8    0    1
 -2      1115      1096      1117      4261      4332      4333
 -1      2244    8    0    1
 -2      1109      1073      1117      4272      4267      4334
 -1      2245    8    0    1
 -2      1096      1109      1117      4233      4334      4332
 -1      2246    8    0    1
 -2      1117      1120      1115      4294      4314      4333
 -1      2247    8    0    1
 -2      1122      1118      1125      4313      4335      4331
 -1      2248    8    0    1
 -2      1116      1103      1107      4322      4295      4264
 -1      2249    8    0    1
 -2      1118      1114      1124      4271      4326      4336
 -1      2250    8    0    1
 -2      1118      1124      1125      4336      4330      4335
 -3
    1PSTEP                         1           1           1          
  100CL  101 1.000000000        4336                     0    1           1
 -4  DISP        4    1
 -5  D1          1    2    1    0
 -5  D2          1    2    2    0
 -5  D3          1    2    3    0
 -5  ALL         1    2    0    0    1ALL
 -1         1 9.33428E-03-7.22247E-04-1.05900E-13
 -1         2 1.20990E-02 1.08036E-04-1.22819E-13
 -1         3 1.52564E-02 8.88466E-04-2.18486E-13
 -1         4 1.49978E-02-3.60853E-04-2.26785E-13
 -1         5 0.00000E+00 0.00000E+00 0.00000E+00
 -1         6 0.00000E+00 0.00000E+00 0.00000E+00
 -1         7 0.00000E+00 0.00000E+00 0.00000E+00
 -1         8 0.00000E+00 0.00000E+00 0.00000E+00
 -1         9 0.00000E+00 0.00000E+00 0.00000E+00
 -1        10 0.00000E+00 0.00000E+00 0.00000E+00
 -1        11 0.00000E+00 0.00000E+00 0.00000E+00
 -1        12 0.00000E+00 0.00000E+00 0.00000E+00
 -1        13 0.00000E+00 0.00000E+00 0.00000E+00
 -1        14 0.00000E+00 0.00000E+00 0.00000E+00
 -1        15 0.00000E+00 0.00000E+00 0.00000E+00
 -1        16 0.00000E+00 0.00000E+00 0.00000E+00
 -1        17 0.00000E+00 0.00000E+00 0.00000E+00
 -1        18 0.00000E+00 0.00000E+00 0.00000E+00
 -1        19 0.00000E+00 0.00000E+00 0.00000E+00
 -1        20 0.00000E+00 0.00000E+00 0.00000E+00
 -1        21 0.00000E+00 0.00000E+00 0.00000E+00
 -1        22 0.00000E+00 0.00000E+00 0.00000E+00
 -1        23 4.11228E-04-2.60717E-04 5.92618E-17
 -1        24 7.03037E-04-4.00948E-04-1.50840E-16
 -1        25 9.72895E-04-4.98257E-04-6.20828E-16
 -1        26 1.23714E-03-5.66857E-04-1.34489E-15
 -1        27 1.50040E-03-6.15874E-04-2.31738E-15
 -1        28 1.76477E-03-6.50668E-04-3.53322E-15
 -1        29 2.03120E-03-6.74915E-04-4.98751E-15
 -1        30 2.30008E-03-6.91271E-04-6.67189E-15
 -1        31 2.57148E-03-7.01707E-04-8.58185E-15
 -1        32 2.84530E-03-7.07691E-04-1.07125E-14
 -1        33 3.12138E-03-7.10315E-04-1.30584E-14
 -1        34 3.39954E-03-7.10372E-04-1.56150E-14
 -1        35 3.67962E-03-7.08432E-04-1.83806E-14
 -1        36 3.96156E-03-7.04896E-04-2.13462E-14
 -1        37 4.24538E-03-7.00048E-04-2.45080E-14
 -1        38 4.53120E-03-6.94113E-04-2.78621E-14
 -1        39 4.81933E-03-6.87307E-04-3.14049E-14
 -1        40 5.11020E-03-6.79903E-04-3.51277E-14
 -1        41 5.40444E-03-6.72300E-04-3.90273E-14
 -1        42 5.70285E-03-6.65113E-04-4.30974E-14
 -1        43 6.00639E-03-6.59278E-04-4.73433E-14
 -1        44 6.31612E-03-6.56166E-04-5.17602E-14
 -1        45 6.63307E-03-6.57696E-04-5.63487E-14
 -1        46 6.95800E-03-6.66414E-04-6.11044E-14
 -1        47 7.29107E-03-6.85457E-04-6.60203E-14
 -1        48 7.63126E-03-7.18276E-04-7.10819E-14
 -1        49 7.97579E-03-7.67936E-04-7.62805E-14
 -1        50 8.31956E-03-8.35817E-04-8.16226E-14
 -1        51 8.65532E-03-9.19724E-04-8.71115E-14
 -1        52 8.97490E-03-1.01194E-03-9.27462E-14
 -1        53 9.27210E-03-1.09853E-03-9.85189E-14
 -1        54 9.54635E-03-1.16152E-03-1.04430E-13
 -1        55 9.80486E-03-1.18462E-03-1.10479E-13
 -1        56 1.00611E-02-1.16001E-03-1.16666E-13
 -1        57 1.03295E-02-1.09211E-03-1.22991E-13
 -1        58 1.06193E-02-9.95399E-04-1.29431E-13
 -1        59 1.09322E-02-8.88065E-04-1.35977E-13
 -1        60 1.12631E-02-7.85568E-04-1.42617E-13
 -1        61 1.16040E-02-6.97391E-04-1.49354E-13
 -1        62 1.19471E-02-6.27050E-04-1.56184E-13
 -1        63 1.22864E-02-5.73844E-04-1.63089E-13
 -1        64 1.26186E-02-5.34828E-04-1.70068E-13
 -1        65 1.29419E-02-5.06293E-04-1.77118E-13
 -1        66 1.32561E-02-4.84602E-04-1.84208E-13
 -1        67 1.35620E-02-4.66561E-04-1.91323E-13
 -1        68 1.38604E-02-4.49510E-04-1.98463E-13
 -1        69 1.41529E-02-4.31317E-04-2.05615E-13
 -1        70 1.44409E-02-4.10415E-04-2.12769E-13
 -1        71 1.47267E-02-3.86141E-04-2.19942E-13
 -1        72 4.13673E-04 2.61422E-04 1.09257E-16
 -1        73 7.02857E-04 4.03652E-04-1.24582E-17
 -1        74 9.73429E-04 5.00027E-04-3.61941E-16
 -1        75 1.23797E-03 5.68568E-04-9.42233E-16
 -1        76 1.50136E-03 6.17635E-04-1.75431E-15
 -1        77 1.76579E-03 6.52520E-04-2.79483E-15
 -1        78 2.03226E-03 6.76877E-04-4.06361E-15
 -1        79 2.30115E-03 6.93353E-04-5.55407E-15
 -1        80 2.57256E-03 7.03912E-04-7.25996E-15
 -1        81 2.84638E-03 7.10022E-04-9.17906E-15
 -1        82 3.12246E-03 7.12766E-04-1.13079E-14
 -1        83 3.40060E-03 7.12936E-04-1.36399E-14
 -1        84 3.68067E-03 7.11094E-04-1.61709E-14
 -1        85 3.96259E-03 7.07630E-04-1.88987E-14
 -1        86 4.24638E-03 7.02819E-04-2.18222E-14
 -1        87 4.53220E-03 6.96864E-04-2.49421E-14
 -1        88 4.82035E-03 6.89957E-04-2.82439E-14
 -1        89 5.11132E-03 6.82337E-04-3.17220E-14
 -1        90 5.40580E-03 6.74369E-04-3.53796E-14
 -1        91 5.70472E-03 6.66631E-04-3.92194E-14
 -1        92 6.00922E-03 6.60043E-04-4.32411E-14
 -1        93 6.32067E-03 6.56007E-04-4.74316E-14
 -1        94 6.64053E-03 6.56588E-04-5.17975E-14
 -1        95 6.97021E-03 6.64677E-04-5.63121E-14
 -1        96 7.31060E-03 6.84100E-04-6.09708E-14
 -1        97 7.66151E-03 7.19488E-04-6.57690E-14
 -1        98 8.02071E-03 7.75672E-04-7.07016E-14
 -1        99 8.38297E-03 8.56209E-04-7.57615E-14
 -1       100 8.73951E-03 9.60779E-04-8.09606E-14
 -1       101 9.07909E-03 1.08184E-03-8.63099E-14
 -1       102 9.39170E-03 1.20244E-03-9.18073E-14
 -1       103 9.67429E-03 1.29813E-03-9.74631E-14
 -1       104 9.93526E-03 1.34517E-03-1.03277E-13
 -1       105 1.01930E-02 1.33176E-03-1.09255E-13
 -1       106 1.04675E-02 1.26453E-03-1.15413E-13
 -1       107 1.07706E-02 1.16484E-03-1.21749E-13
 -1       108 1.11024E-02 1.05801E-03-1.28230E-13
 -1       109 1.14542E-02 9.63635E-04-1.34856E-13
 -1       110 1.18145E-02 8.91851E-04-1.41604E-13
 -1       111 1.21734E-02 8.44644E-04-1.48453E-13
 -1       112 1.25245E-02 8.19139E-04-1.55367E-13
 -1       113 1.28648E-02 8.10481E-04-1.62335E-13
 -1       114 1.31935E-02 8.13605E-04-1.69362E-13
 -1       115 1.35111E-02 8.24052E-04-1.76427E-13
 -1       116 1.38189E-02 8.38183E-04-1.83495E-13
 -1       117 1.41184E-02 8.53131E-04-1.90553E-13
 -1       118 1.44113E-02 8.66688E-04-1.97615E-13
 -1       119 1.46996E-02 8.77269E-04-2.04679E-13
 -1       120 1.49853E-02 8.84199E-04-2.11763E-13
 -1       121 1.52525E-02 8.03836E-04-2.19086E-13
 -1       122 1.52510E-02 7.19620E-04-2.19703E-13
 -1       123 1.52528E-02 6.37889E-04-2.20284E-13
 -1       124 1.52565E-02 5.60311E-04-2.20846E-13
 -1       125 1.52601E-02 4.87627E-04-2.21397E-13
 -1       126 1.52612E-02 4.20811E-04-2.21964E-13
 -1       127 1.52580E-02 3.56691E-04-2.22540E-13
 -1       128 1.52490E-02 2.95041E-04-2.23062E-13
 -1       129 1.52334E-02 2.34125E-04-2.23550E-13
 -1       130 1.52113E-02 1.72127E-04-2.24016E-13
 -1       131 1.51836E-02 1.07401E-04-2.24458E-13
 -1       132 1.51524E-02 3.98835E-05-2.24899E-13
 -1       133 1.51186E-02-3.34501E-05-2.25308E-13
 -1       134 1.50847E-02-1.11489E-04-2.25691E-13
 -1       135 1.50529E-02-1.93496E-04-2.26070E-13
 -1       136 1.50240E-02-2.77644E-04-2.26432E-13
 -1       137 1.20506E-02 2.89801E-04-1.22196E-13
 -1       138 1.18965E-02 4.61926E-04-1.20871E-13
 -1       139 1.16519E-02 6.15915E-04-1.18978E-13
 -1       140 1.13457E-02 7.41683E-04-1.16745E-13
 -1       141 1.09769E-02 8.42071E-04-1.14181E-13
 -1       142 1.05422E-02 9.13388E-04-1.11268E-13
 -1       143 1.00982E-02 9.43674E-04-1.08405E-13
 -1       144 9.60639E-03 9.31987E-04-1.05314E-13
 -1       145 9.16292E-03 8.80278E-04-1.02615E-13
 -1       146 8.76557E-03 7.96433E-04-1.00246E-13
 -1       147 8.40107E-03 6.78857E-04-9.81276E-14
 -1       148 8.11029E-03 5.41894E-04-9.65117E-14
 -1       149 7.89458E-03 3.88444E-04-9.53885E-14
 -1       150 7.76218E-03 2.22327E-04-9.47893E-14
 -1       151 7.72301E-03 5.48441E-05-9.47581E-14
 -1       152 7.78678E-03-1.26426E-04-9.53888E-14
 -1       153 7.93901E-03-2.85322E-04-9.65416E-14
 -1       154 8.18283E-03-4.32365E-04-9.82595E-14
 -1       155 8.49769E-03-5.56193E-04-1.00398E-13
 -1       156 8.89594E-03-6.57723E-04-1.03039E-13
 -1       157 9.76908E-03-7.46848E-04-1.08695E-13
 -1       158 1.02443E-02-7.32758E-04-1.11746E-13
 -1       159 1.06626E-02-6.84424E-04-1.14404E-13
 -1       160 1.10561E-02-6.03641E-04-1.16887E-13
 -1       161 1.13972E-02-4.97894E-04-1.19007E-13
 -1       162 1.16910E-02-3.65161E-04-1.20777E-13
 -1       163 1.19129E-02-2.15332E-04-1.22047E-13
 -1       164 1.20493E-02-5.62758E-05-1.22736E-13
 -1       165 2.40320E-04-1.25552E-04-5.48539E-17
 -1       166 2.25220E-04-9.46704E-05-8.94602E-17
 -1       167 2.19516E-04-7.28414E-05-1.07949E-16
 -1       168 2.16736E-04-5.51603E-05-1.17717E-16
 -1       169 2.15269E-04-4.00119E-05-1.22223E-16
 -1       170 2.14454E-04-2.59469E-05-1.23718E-16
 -1       171 2.14048E-04-1.26604E-05-1.23443E-16
 -1       172 2.13930E-04 2.72727E-07-1.21820E-16
 -1       173 2.14067E-04 1.32183E-05-1.19208E-16
 -1       174 2.14496E-04 2.65447E-05-1.15142E-16
 -1       175 2.15319E-04 4.04381E-05-1.09108E-16
 -1       176 2.16840E-04 5.59685E-05-9.96450E-17
 -1       177 2.19662E-04 7.38754E-05-8.47304E-17
 -1       178 2.25397E-04 9.60722E-05-6.02850E-17
 -1       179 2.39249E-04 1.27633E-04-1.95055E-17
 -1       180 2.97584E-04 1.85514E-04 2.45877E-17
 -1       181 4.68426E-04-2.63572E-04-1.47238E-16
 -1       182 7.66417E-04-3.82131E-04-5.35562E-16
 -1       183 1.05010E-03-4.64911E-04-1.16554E-15
 -1       184 1.32731E-03-5.23501E-04-2.03716E-15
 -1       185 1.60172E-03-5.64896E-04-3.14753E-15
 -1       186 1.87541E-03-5.93756E-04-4.49261E-15
 -1       187 2.14953E-03-6.13344E-04-6.06714E-15
 -1       188 2.42469E-03-6.26036E-04-7.86643E-15
 -1       189 2.70120E-03-6.33586E-04-9.88497E-15
 -1       190 2.97916E-03-6.37289E-04-1.21182E-14
 -1       191 3.25861E-03-6.38086E-04-1.45625E-14
 -1       192 3.53953E-03-6.36648E-04-1.72134E-14
 -1       193 3.82193E-03-6.33438E-04-2.00681E-14
 -1       194 4.10585E-03-6.28775E-04-2.31189E-14
 -1       195 4.39141E-03-6.22880E-04-2.63639E-14
 -1       196 4.67880E-03-6.15935E-04-2.97982E-14
 -1       197 4.96833E-03-6.08140E-04-3.34149E-14
 -1       198 5.26041E-03-5.99783E-04-3.72100E-14
 -1       199 5.55559E-03-5.91319E-04-4.11784E-14
 -1       200 5.85450E-03-5.83478E-04-4.53177E-14
 -1       201 6.15786E-03-5.77373E-04-4.96320E-14
 -1       202 6.46639E-03-5.74642E-04-5.41163E-14
 -1       203 6.78070E-03-5.77563E-04-5.87684E-14
 -1       204 7.10111E-03-5.89116E-04-6.35837E-14
 -1       205 7.42740E-03-6.12882E-04-6.85488E-14
 -1       206 7.75847E-03-6.52609E-04-7.36560E-14
 -1       207 8.09205E-03-7.11216E-04-7.89030E-14
 -1       208 8.42453E-03-7.89076E-04-8.42955E-14
 -1       209 8.75125E-03-8.81745E-04-8.98337E-14
 -1       210 9.06766E-03-9.78036E-04-9.55173E-14
 -1       211 9.37120E-03-1.06029E-03-1.01342E-13
 -1       212 9.66334E-03-1.10864E-03-1.07304E-13
 -1       213 9.95006E-03-1.10865E-03-1.13406E-13
 -1       214 1.02397E-02-1.05827E-03-1.19644E-13
 -1       215 1.05393E-02-9.68873E-04-1.26010E-13
 -1       216 1.08516E-02-8.59618E-04-1.32492E-13
 -1       217 1.11750E-02-7.49423E-04-1.39076E-13
 -1       218 1.15053E-02-6.51482E-04-1.45756E-13
 -1       219 1.18377E-02-5.71974E-04-1.52529E-13
 -1       220 1.21680E-02-5.11559E-04-1.59391E-13
 -1       221 1.24936E-02-4.67672E-04-1.66326E-13
 -1       222 1.28130E-02-4.36437E-04-1.73330E-13
 -1       223 1.31256E-02-4.13837E-04-1.80384E-13
 -1       224 1.34318E-02-3.96267E-04-1.87474E-13
 -1       225 1.37320E-02-3.80708E-04-1.94592E-13
 -1       226 1.40272E-02-3.64711E-04-2.01729E-13
 -1       227 1.43182E-02-3.46366E-04-2.08875E-13
 -1       228 1.46063E-02-3.24421E-04-2.16038E-13
 -1       229 6.04292E-04 3.31043E-04-1.34851E-16
 -1       230 8.93219E-04 4.32598E-04-5.08152E-16
 -1       231 1.17192E-03 5.04211E-04-1.10403E-15
 -1       232 1.44607E-03 5.55070E-04-1.92528E-15
 -1       233 1.71867E-03 5.90971E-04-2.97148E-15
 -1       234 1.99135E-03 6.15860E-04-4.24125E-15
 -1       235 2.26498E-03 6.32565E-04-5.73079E-15
 -1       236 2.53997E-03 6.43167E-04-7.43517E-15
 -1       237 2.81652E-03 6.49207E-04-9.35087E-15
 -1       238 3.09465E-03 6.51816E-04-1.14745E-14
 -1       239 3.37436E-03 6.51811E-04-1.38003E-14
 -1       240 3.65562E-03 6.49766E-04-1.63246E-14
 -1       241 3.93844E-03 6.46070E-04-1.90464E-14
 -1       242 4.22288E-03 6.40985E-04-2.19612E-14
 -1       243 4.50911E-03 6.34694E-04-2.50690E-14
 -1       244 4.79739E-03 6.27356E-04-2.83608E-14
 -1       245 5.08812E-03 6.19165E-04-3.18326E-14
 -1       246 5.38184E-03 6.10430E-04-3.54824E-14
 -1       247 5.67928E-03 6.01662E-04-3.93109E-14
 -1       248 5.98128E-03 5.93700E-04-4.33212E-14
 -1       249 6.28884E-03 5.87863E-04-4.75024E-14
 -1       250 6.60300E-03 5.86135E-04-5.18520E-14
 -1       251 6.92471E-03 5.91363E-04-5.63527E-14
 -1       252 7.25459E-03 6.07405E-04-6.10002E-14
 -1       253 7.59257E-03 6.39092E-04-6.57905E-14
 -1       254 7.93731E-03 6.91715E-04-7.07181E-14
 -1       255 8.28575E-03 7.69665E-04-7.57750E-14
 -1       256 8.63276E-03 8.73802E-04-8.09669E-14
 -1       257 8.97163E-03 9.97749E-04-8.63055E-14
 -1       258 9.29606E-03 1.12487E-03-9.17955E-14
 -1       259 9.60335E-03 1.22939E-03-9.74390E-14
 -1       260 9.89745E-03 1.28451E-03-1.03241E-13
 -1       261 1.01886E-02 1.27543E-03-1.09208E-13
 -1       262 1.04885E-02 1.20775E-03-1.15355E-13
 -1       263 1.08043E-02 1.10421E-03-1.21671E-13
 -1       264 1.11364E-02 9.92465E-04-1.28136E-13
 -1       265 1.14795E-02 8.93954E-04-1.34740E-13
 -1       266 1.18268E-02 8.19589E-04-1.41466E-13
 -1       267 1.21722E-02 7.71358E-04-1.48291E-13
 -1       268 1.25115E-02 7.46028E-04-1.55194E-13
 -1       269 1.28427E-02 7.38322E-04-1.62156E-13
 -1       270 1.31651E-02 7.42826E-04-1.69170E-13
 -1       271 1.34788E-02 7.54832E-04-1.76218E-13
 -1       272 1.37848E-02 7.70548E-04-1.83282E-13
 -1       273 1.40842E-02 7.87009E-04-1.90340E-13
 -1       274 1.43783E-02 8.01928E-04-1.97401E-13
 -1       275 1.46682E-02 8.13630E-04-2.04466E-13
 -1       276 1.49554E-02 8.21254E-04-2.11548E-13
 -1       277 1.50040E-02 7.58844E-04-2.13249E-13
 -1       278 1.50049E-02 6.77056E-04-2.13838E-13
 -1       279 1.50089E-02 5.98133E-04-2.14413E-13
 -1       280 1.50140E-02 5.22653E-04-2.14979E-13
 -1       281 1.50177E-02 4.51903E-04-2.15530E-13
 -1       282 1.50178E-02 3.83032E-04-2.16082E-13
 -1       283 1.50124E-02 3.16449E-04-2.16611E-13
 -1       284 1.50003E-02 2.51012E-04-2.17112E-13
 -1       285 1.49812E-02 1.85437E-04-2.17586E-13
 -1       286 1.49555E-02 1.18472E-04-2.18039E-13
 -1       287 1.49251E-02 5.02615E-05-2.18465E-13
 -1       288 1.48910E-02-2.22605E-05-2.18879E-13
 -1       289 1.48557E-02-9.82474E-05-2.19270E-13
 -1       290 1.48217E-02-1.77520E-04-2.19648E-13
 -1       291 1.47130E-02-2.50491E-04-2.17845E-13
 -1       292 1.21115E-02 1.58092E-04-1.25490E-13
 -1       293 1.19640E-02 2.58299E-04-1.24469E-13
 -1       294 1.16955E-02 3.97876E-04-1.22338E-13
 -1       295 1.13703E-02 5.69350E-04-1.19587E-13
 -1       296 1.10086E-02 7.36645E-04-1.16738E-13
 -1       297 1.06209E-02 8.90864E-04-1.13548E-13
 -1       298 1.02498E-02 9.92929E-04-1.10085E-13
 -1       299 9.87166E-03 1.02450E-03-1.06553E-13
 -1       300 9.48605E-03 9.55036E-04-1.03211E-13
 -1       301 9.11467E-03 8.27327E-04-1.00271E-13
 -1       302 8.75162E-03 6.53555E-04-9.74770E-14
 -1       303 8.37965E-03 4.79918E-04-9.54195E-14
 -1       304 8.06408E-03 3.25208E-04-9.38319E-14
 -1       305 7.82822E-03 2.01259E-04-9.28333E-14
 -1       306 7.70730E-03 1.03811E-04-9.24717E-14
 -1       307 7.71929E-03 1.76631E-05-9.23753E-14
 -1       308 7.87644E-03-9.80606E-05-9.39786E-14
 -1       309 8.13873E-03-2.23534E-04-9.54901E-14
 -1       310 8.47499E-03-3.82617E-04-9.77180E-14
 -1       311 8.85388E-03-5.55994E-04-1.00498E-13
 -1       312 9.24631E-03-7.10766E-04-1.03722E-13
 -1       313 9.61255E-03-8.01691E-04-1.07078E-13
 -1       314 9.97935E-03-8.24282E-04-1.10554E-13
 -1       315 1.03494E-02-7.54187E-04-1.13880E-13
 -1       316 1.07100E-02-6.31945E-04-1.16924E-13
 -1       317 1.10720E-02-4.74740E-04-1.19657E-13
 -1       318 1.14179E-02-3.03446E-04-1.22126E-13
 -1       319 1.17310E-02-1.38472E-04-1.24306E-13
 -1       320 1.19767E-02-2.67003E-05-1.25164E-13
 -1       321 1.21066E-02 6.72489E-05-1.25446E-13
 -1       322 4.55235E-04-1.64811E-04-3.65593E-16
 -1       323 4.74118E-04-2.13032E-04-3.09587E-16
 -1       324 4.40526E-04-9.40771E-05-4.16303E-16
 -1       325 4.37612E-04-6.49589E-05-4.24831E-16
 -1       326 4.36024E-04-3.79353E-05-4.26966E-16
 -1       327 4.35331E-04-1.20275E-05-4.24743E-16
 -1       328 4.35362E-04 1.35461E-05-4.18854E-16
 -1       329 4.36122E-04 3.95118E-05-4.08758E-16
 -1       330 4.37755E-04 6.61865E-05-3.93803E-16
 -1       331 4.40761E-04 9.54767E-05-3.71959E-16
 -1       332 4.46083E-04 1.28397E-04-3.40168E-16
 -1       333 4.55840E-04 1.67375E-04-2.93124E-16
 -1       334 4.75747E-04 2.17101E-04-2.22231E-16
 -1       335 5.31808E-04 2.70006E-04-1.91263E-16
 -1       336 8.24159E-04 3.73488E-04-5.76887E-16
 -1       337 8.62976E-04-3.57384E-04-9.62707E-16
 -1       338 1.14922E-03-4.25996E-04-1.74180E-15
 -1       339 1.43189E-03-4.74932E-04-2.75318E-15
 -1       340 1.71250E-03-5.09308E-04-3.99535E-15
 -1       341 1.99219E-03-5.32885E-04-5.46453E-15
 -1       342 2.27173E-03-5.48442E-04-7.15612E-15
 -1       343 2.55161E-03-5.58039E-04-9.06547E-15
 -1       344 2.83213E-03-5.63201E-04-1.11893E-14
 -1       345 3.11345E-03-5.65041E-04-1.35231E-14
 -1       346 3.39568E-03-5.64359E-04-1.60621E-14
 -1       347 3.67887E-03-5.61708E-04-1.88054E-14
 -1       348 3.96310E-03-5.57461E-04-2.17481E-14
 -1       349 4.24846E-03-5.51865E-04-2.48845E-14
 -1       350 4.53507E-03-5.45094E-04-2.82113E-14
 -1       351 4.82315E-03-5.37306E-04-3.17220E-14
 -1       352 5.11295E-03-5.28707E-04-3.54128E-14
 -1       353 5.40480E-03-5.19623E-04-3.92786E-14
 -1       354 5.69914E-03-5.10590E-04-4.33160E-14
 -1       355 5.99645E-03-5.02468E-04-4.75277E-14
 -1       356 6.29730E-03-4.96563E-04-5.19100E-14
 -1       357 6.60228E-03-4.94770E-04-5.64599E-14
 -1       358 6.91200E-03-4.99680E-04-6.11748E-14
 -1       359 7.22699E-03-5.14624E-04-6.60436E-14
 -1       360 7.54756E-03-5.43494E-04-7.10572E-14
 -1       361 7.87355E-03-5.90187E-04-7.62113E-14
 -1       362 8.20391E-03-6.57372E-04-8.15083E-14
 -1       363 8.53625E-03-7.44395E-04-8.69532E-14
 -1       364 8.86659E-03-8.44528E-04-9.25417E-14
 -1       365 9.19027E-03-9.42824E-04-9.82727E-14
 -1       366 9.50446E-03-1.01733E-03-1.04144E-13
 -1       367 9.81096E-03-1.04620E-03-1.10163E-13
 -1       368 1.01163E-02-1.01836E-03-1.16320E-13
 -1       369 1.04276E-02-9.40134E-04-1.22606E-13
 -1       370 1.07484E-02-8.31314E-04-1.29019E-13
 -1       371 1.10768E-02-7.14848E-04-1.35543E-13
 -1       372 1.14084E-02-6.08024E-04-1.42172E-13
 -1       373 1.17388E-02-5.19766E-04-1.48892E-13
 -1       374 1.20651E-02-4.52094E-04-1.55704E-13
 -1       375 1.23859E-02-4.02907E-04-1.62595E-13
 -1       376 1.27007E-02-3.68303E-04-1.69555E-13
 -1       377 1.30098E-02-3.44031E-04-1.76576E-13
 -1       378 1.33136E-02-3.26197E-04-1.83639E-13
 -1       379 1.36127E-02-3.11510E-04-1.90731E-13
 -1       380 1.39078E-02-2.97290E-04-1.97850E-13
 -1       381 1.41994E-02-2.81398E-04-2.04982E-13
 -1       382 1.44570E-02-2.67690E-04-2.11404E-13
 -1       383 1.10950E-03 4.47684E-04-1.17894E-15
 -1       384 1.39011E-03 5.00532E-04-2.00157E-15
 -1       385 1.66828E-03 5.37811E-04-3.04574E-15
 -1       386 1.94554E-03 5.63609E-04-4.30992E-15
 -1       387 2.22285E-03 5.80892E-04-5.79182E-15
 -1       388 2.50077E-03 5.91843E-04-7.48709E-15
 -1       389 2.77960E-03 5.98076E-04-9.39274E-15
 -1       390 3.05952E-03 6.00775E-04-1.15053E-14
 -1       391 3.34058E-03 6.00792E-04-1.38194E-14
 -1       392 3.62283E-03 5.98722E-04-1.63315E-14
 -1       393 3.90633E-03 5.94965E-04-1.90410E-14
 -1       394 4.19116E-03 5.89783E-04-2.19421E-14
 -1       395 4.47746E-03 5.83349E-04-2.50364E-14
 -1       396 4.76544E-03 5.75803E-04-2.83145E-14
 -1       397 5.05544E-03 5.67310E-04-3.17724E-14
 -1       398 5.34786E-03 5.58133E-04-3.54085E-14
 -1       399 5.64325E-03 5.48728E-04-3.92231E-14
 -1       400 5.94226E-03 5.39854E-04-4.32181E-14
 -1       401 6.24563E-03 5.32732E-04-4.73859E-14
 -1       402 6.55420E-03 5.29225E-04-5.17172E-14
 -1       403 6.86880E-03 5.32047E-04-5.62033E-14
 -1       404 7.19013E-03 5.44936E-04-6.08372E-14
 -1       405 7.51864E-03 5.72687E-04-6.56161E-14
 -1       406 7.85416E-03 6.20785E-04-7.05324E-14
 -1       407 8.19550E-03 6.94270E-04-7.55805E-14
 -1       408 8.53993E-03 7.95356E-04-8.07607E-14
 -1       409 8.88274E-03 9.19618E-04-8.60869E-14
 -1       410 9.21804E-03 1.05198E-03-9.15631E-14
 -1       411 9.54135E-03 1.16617E-03-9.71905E-14
 -1       412 9.85353E-03 1.23180E-03-1.02975E-13
 -1       413 1.01621E-02 1.22952E-03-1.08926E-13
 -1       414 1.04770E-02 1.16287E-03-1.15055E-13
 -1       415 1.08038E-02 1.05634E-03-1.21353E-13
 -1       416 1.11414E-02 9.40397E-04-1.27802E-13
 -1       417 1.14846E-02 8.38411E-04-1.34391E-13
 -1       418 1.18275E-02 7.61828E-04-1.41095E-13
 -1       419 1.21660E-02 7.12499E-04-1.47903E-13
 -1       420 1.24978E-02 6.86893E-04-1.54793E-13
 -1       421 1.28221E-02 6.79466E-04-1.61748E-13
 -1       422 1.31389E-02 6.84607E-04-1.68751E-13
 -1       423 1.34486E-02 6.97477E-04-1.75787E-13
 -1       424 1.37521E-02 7.14194E-04-1.82843E-13
 -1       425 1.40502E-02 7.31735E-04-1.89902E-13
 -1       426 1.43439E-02 7.47768E-04-1.96963E-13
 -1       427 1.46340E-02 7.60557E-04-2.04027E-13
 -1       428 1.48194E-02 7.60618E-04-2.08634E-13
 -1       429 1.47661E-02 5.53419E-04-2.08552E-13
 -1       430 1.47599E-02 6.30991E-04-2.07980E-13
 -1       431 1.47884E-02 6.95051E-04-2.08310E-13
 -1       432 1.47721E-02 4.80223E-04-2.09104E-13
 -1       433 1.47755E-02 4.08618E-04-2.09643E-13
 -1       434 1.47739E-02 3.39297E-04-2.10170E-13
 -1       435 1.47656E-02 2.71395E-04-2.10674E-13
 -1       436 1.47499E-02 2.03878E-04-2.11163E-13
 -1       437 1.47269E-02 1.35681E-04-2.11622E-13
 -1       438 1.46980E-02 6.70380E-05-2.12051E-13
 -1       439 1.46641E-02-5.16031E-06-2.12464E-13
 -1       440 1.46278E-02-8.02186E-05-2.12861E-13
 -1       441 1.45917E-02-1.58282E-04-2.13246E-13
 -1       442 1.18207E-02 2.74899E-04-1.25941E-13
 -1       443 1.21448E-02 1.14267E-04-1.28689E-13
 -1       444 1.20736E-02 1.70187E-04-1.28444E-13
 -1       445 1.14684E-02 4.30811E-04-1.23209E-13
 -1       446 1.11251E-02 6.10552E-04-1.19875E-13
 -1       447 4.45697E-04-1.26558E-04-3.98200E-16
 -1       448 1.03789E-02 9.71713E-04-1.12261E-13
 -1       449 1.00678E-02 1.04993E-03-1.08549E-13
 -1       450 9.69116E-03 1.02506E-03-1.03954E-13
 -1       451 9.36408E-03 9.04375E-04-1.00643E-13
 -1       452 9.02727E-03 7.33150E-04-9.75514E-14
 -1       453 8.61135E-03 5.08582E-04-9.44842E-14
 -1       454 8.25487E-03 3.33719E-04-9.24667E-14
 -1       455 7.94559E-03 1.91393E-04-9.04162E-14
 -1       456 7.74346E-03 1.16530E-04-9.03563E-14
 -1       457 7.67388E-03 6.37003E-05-8.96649E-14
 -1       458 7.79558E-03-9.57062E-06-9.11241E-14
 -1       459 7.99929E-03-9.42436E-05-9.25892E-14
 -1       460 8.34511E-03-2.42843E-04-9.47118E-14
 -1       461 8.72890E-03-4.28835E-04-9.74078E-14
 -1       462 9.11879E-03-6.28740E-04-1.00794E-13
 -1       463 9.48578E-03-7.89412E-04-1.04947E-13
 -1       464 9.76816E-03-8.53566E-04-1.08390E-13
 -1       465 1.01503E-02-8.21453E-04-1.13255E-13
 -1       466 1.04680E-02-7.03717E-04-1.16519E-13
 -1       467 1.08155E-02-5.30297E-04-1.19996E-13
 -1       468 1.11639E-02-3.40017E-04-1.23215E-13
 -1       469 1.15193E-02-1.66518E-04-1.25619E-13
 -1       470 1.18729E-02-1.07053E-05-1.28026E-13
 -1       471 1.20806E-02 6.78311E-05-1.28397E-13
 -1       472 1.07616E-02 8.00444E-04-1.16349E-13
 -1       473 7.68690E-03 3.72016E-05-8.84093E-14
 -1       474 9.31008E-04 3.45991E-04-1.00902E-15
 -1       475 6.66073E-04-7.51598E-05-9.04130E-16
 -1       476 6.69968E-04-1.15929E-04-8.94328E-16
 -1       477 6.63456E-04 1.10438E-06-8.96405E-16
 -1       478 6.64163E-04 3.87799E-05-8.80853E-16
 -1       479 6.66262E-04 7.68467E-05-8.57502E-16
 -1       480 6.70287E-04 1.17770E-04-8.23316E-16
 -1       481 6.77201E-04 1.62396E-04-7.75537E-16
 -1       482 6.88999E-04 2.12760E-04-7.08662E-16
 -1       483 1.21681E-03 4.06314E-04-1.76127E-15
 -1       484 9.76121E-04-3.28578E-04-1.43655E-15
 -1       485 1.09246E-02 7.02097E-04-1.19666E-13
 -1       486 1.26198E-03-3.83272E-04-2.35438E-15
 -1       487 1.54695E-03-4.22732E-04-3.49758E-15
 -1       488 1.83105E-03-4.50362E-04-4.86503E-15
 -1       489 2.11458E-03-4.69022E-04-6.45225E-15
 -1       490 2.39787E-03-4.80950E-04-8.25555E-15
 -1       491 2.68119E-03-4.87855E-04-1.02713E-14
 -1       492 2.96473E-03-4.91009E-04-1.24954E-14
 -1       493 3.24862E-03-4.91338E-04-1.49267E-14
 -1       494 3.53294E-03-4.89495E-04-1.75608E-14
 -1       495 3.81777E-03-4.85922E-04-2.03953E-14
 -1       496 4.10317E-03-4.80909E-04-2.34235E-14
 -1       497 4.38924E-03-4.74644E-04-2.66422E-14
 -1       498 4.67607E-03-4.67268E-04-3.00482E-14
 -1       499 4.96382E-03-4.58928E-04-3.36347E-14
 -1       500 5.25265E-03-4.49845E-04-3.73984E-14
 -1       501 5.54282E-03-4.40389E-04-4.13358E-14
 -1       502 5.83464E-03-4.31167E-04-4.54466E-14
 -1       503 6.12851E-03-4.23142E-04-4.97295E-14
 -1       504 6.42500E-03-4.17747E-04-5.41779E-14
 -1       505 6.72484E-03-4.17026E-04-5.87922E-14
 -1       506 7.02902E-03-4.23746E-04-6.35639E-14
 -1       507 7.33881E-03-4.41437E-04-6.84848E-14
 -1       508 7.65571E-03-4.74264E-04-7.35476E-14
 -1       509 7.98101E-03-5.26504E-04-7.87502E-14
 -1       510 8.31495E-03-6.01239E-04-8.40981E-14
 -1       511 8.65540E-03-6.97703E-04-8.95918E-14
 -1       512 8.99683E-03-8.07164E-04-9.52273E-14
 -1       513 9.33183E-03-9.09182E-04-1.01007E-13
 -1       514 9.65648E-03-9.74153E-04-1.06933E-13
 -1       515 9.97486E-03-9.76680E-04-1.13008E-13
 -1       516 1.02968E-02-9.12896E-04-1.19216E-13
 -1       517 1.06288E-02-8.03410E-04-1.25555E-13
 -1       518 1.09689E-02-6.78518E-04-1.32018E-13
 -1       519 1.13100E-02-5.61971E-04-1.38592E-13
 -1       520 1.16458E-02-4.65633E-04-1.45266E-13
 -1       521 1.19731E-02-3.92009E-04-1.52027E-13
 -1       522 1.22916E-02-3.38680E-04-1.58870E-13
 -1       523 1.26025E-02-3.01375E-04-1.65792E-13
 -1       524 1.29071E-02-2.75592E-04-1.72775E-13
 -1       525 1.32068E-02-2.57286E-04-1.79806E-13
 -1       526 1.35027E-02-2.43066E-04-1.86876E-13
 -1       527 1.37955E-02-2.30173E-04-1.93977E-13
 -1       528 1.40858E-02-2.16387E-04-2.01095E-13
 -1       529 1.78353E-03 4.80208E-04-3.91563E-15
 -1       530 2.06548E-03 5.00983E-04-5.31571E-15
 -1       531 2.34722E-03 5.14499E-04-6.92753E-15
 -1       532 2.62911E-03 5.22606E-04-8.74872E-15
 -1       533 2.91139E-03 5.26679E-04-1.07768E-14
 -1       534 3.19422E-03 5.27718E-04-1.30077E-14
 -1       535 3.47769E-03 5.26431E-04-1.54370E-14
 -1       536 3.76187E-03 5.23299E-04-1.80622E-14
 -1       537 4.04686E-03 5.18636E-04-2.08827E-14
 -1       538 4.33273E-03 5.12638E-04-2.38935E-14
 -1       539 4.61963E-03 5.05438E-04-2.70909E-14
 -1       540 4.90772E-03 4.97157E-04-3.04706E-14
 -1       541 5.19723E-03 4.87973E-04-3.40272E-14
 -1       542 5.48847E-03 4.78194E-04-3.77627E-14
 -1       543 5.78178E-03 4.68357E-04-4.16775E-14
 -1       544 6.07765E-03 4.59353E-04-4.57673E-14
 -1       545 6.37662E-03 4.52586E-04-5.00231E-14
 -1       546 6.67943E-03 4.50156E-04-5.44367E-14
 -1       547 6.98697E-03 4.55063E-04-5.90016E-14
 -1       548 7.30043E-03 4.71369E-04-6.37151E-14
 -1       549 7.62127E-03 5.04219E-04-6.85703E-14
 -1       550 7.95101E-03 5.59470E-04-7.35609E-14
 -1       551 8.29058E-03 6.42476E-04-7.86793E-14
 -1       552 8.63902E-03 7.55336E-04-8.39359E-14
 -1       553 8.99141E-03 8.91784E-04-8.93378E-14
 -1       554 9.33936E-03 1.03119E-03-9.48898E-14
 -1       555 9.67602E-03 1.13783E-03-1.00596E-13
 -1       556 1.00036E-02 1.17489E-03-1.06467E-13
 -1       557 1.03329E-02 1.13074E-03-1.12510E-13
 -1       558 1.06731E-02 1.02638E-03-1.18730E-13
 -1       559 1.10230E-02 9.01045E-04-1.25109E-13
 -1       560 1.13746E-02 7.86717E-04-1.31633E-13
 -1       561 1.17201E-02 6.99036E-04-1.38283E-13
 -1       562 1.20560E-02 6.41021E-04-1.45037E-13
 -1       563 1.23820E-02 6.09112E-04-1.51879E-13
 -1       564 1.26993E-02 5.97458E-04-1.58799E-13
 -1       565 1.30095E-02 6.00128E-04-1.65777E-13
 -1       566 1.33138E-02 6.11993E-04-1.72786E-13
 -1       567 1.36134E-02 6.28925E-04-1.79825E-13
 -1       568 1.39091E-02 6.47704E-04-1.86881E-13
 -1       569 1.42016E-02 6.65832E-04-1.93938E-13
 -1       570 1.44913E-02 6.81353E-04-2.01004E-13
 -1       571 1.45315E-02 4.32544E-04-2.03224E-13
 -1       572 1.45340E-02 3.61702E-04-2.03747E-13
 -1       573 1.45163E-02 5.81143E-04-2.02128E-13
 -1       574 1.45247E-02 5.05334E-04-2.02685E-13
 -1       575 1.45301E-02 2.92677E-04-2.04252E-13
 -1       576 1.45184E-02 2.24502E-04-2.04741E-13
 -1       577 1.44985E-02 1.56120E-04-2.05211E-13
 -1       578 1.44716E-02 8.77197E-05-2.05645E-13
 -1       579 1.44383E-02 1.61131E-05-2.06061E-13
 -1       580 1.44012E-02-5.81305E-05-2.06464E-13
 -1       581 1.43628E-02-1.35322E-04-2.06856E-13
 -1       582 1.21694E-02 1.35781E-04-1.32161E-13
 -1       583 1.16751E-02 3.24541E-04-1.27612E-13
 -1       584 1.50085E-03 4.49720E-04-2.73005E-15
 -1       585 1.05664E-02 8.96239E-04-1.15515E-13
 -1       586 1.20389E-02 6.05379E-05-1.31972E-13
 -1       587 1.19659E-02 2.10644E-04-1.30134E-13
 -1       588 1.21569E-02 1.04077E-04-1.32070E-13
 -1       589 9.32946E-03-7.36389E-04-1.02209E-13
 -1       590 6.64050E-04-3.65351E-05-9.04258E-16
 -1       591 9.90034E-03 1.07647E-03-1.06089E-13
 -1       592 8.51380E-03-3.06593E-04-9.38548E-14
 -1       593 1.02207E-02 1.03490E-03-1.10733E-13
 -1       594 9.51686E-03 9.73981E-04-1.00971E-13
 -1       595 9.23721E-03 8.34802E-04-9.78774E-14
 -1       596 8.83593E-03 6.08304E-04-9.37285E-14
 -1       597 8.42431E-03 3.87611E-04-9.09074E-14
 -1       598 8.10860E-03 2.43280E-04-8.88779E-14
 -1       599 7.77373E-03 1.18861E-04-8.73329E-14
 -1       600 7.65724E-03 7.70986E-05-8.66465E-14
 -1       601 7.87485E-03-3.14649E-05-8.91109E-14
 -1       602 1.03409E-02-7.59187E-04-1.16650E-13
 -1       603 8.14731E-03-1.36290E-04-9.11760E-14
 -1       604 8.90641E-03-5.16760E-04-9.72663E-14
 -1       605 9.63412E-03-8.46002E-04-1.06430E-13
 -1       606 9.93929E-03-8.74572E-04-1.10978E-13
 -1       607 1.06272E-02-6.15520E-04-1.20134E-13
 -1       608 1.09317E-02-4.45737E-04-1.23359E-13
 -1       609 1.13545E-02-2.21470E-04-1.27707E-13
 -1       610 1.17014E-02-6.33120E-05-1.30138E-13
 -1       611 7.12578E-04-2.51911E-04-8.12979E-16
 -1       612 7.03613E-04 2.90924E-04-5.42359E-16
 -1       613 1.12660E-02 5.18986E-04-1.23592E-13
 -1       614 6.76673E-04-1.60118E-04-8.71444E-16
 -1       615 1.21317E-02 1.68354E-04-1.33863E-13
 -1       616 1.42801E-02-2.07241E-04-2.05923E-13
 -1       617 1.01308E-02-8.50799E-04-1.14335E-13
 -1       618 7.61508E-03 5.53696E-05-8.53969E-14
 -1       619 7.88083E-03 1.64123E-04-8.58041E-14
 -1       620 6.91810E-04-2.02948E-04-8.51417E-16
 -1       621 9.00137E-04 7.41038E-05-1.49641E-15
 -1       622 8.98083E-04 2.51754E-05-1.52715E-15
 -1       623 9.12026E-04 1.78214E-04-1.39084E-15
 -1       624 9.24254E-04 2.36773E-04-1.30718E-15
 -1       625 1.04878E-03 3.13839E-04-1.49815E-15
 -1       626 1.03838E-02 1.00508E-03-1.13474E-13
 -1       627 1.19566E-02 1.48349E-05-1.35382E-13
 -1       628 1.38327E-03-3.36723E-04-3.00425E-15
 -1       629 1.66947E-03-3.67305E-04-4.27155E-15
 -1       630 1.95570E-03-3.88598E-04-5.75686E-15
 -1       631 2.24176E-03-4.02711E-04-7.45586E-15
 -1       632 2.52766E-03-4.11379E-04-9.36582E-15
 -1       633 2.81342E-03-4.15955E-04-1.14835E-14
 -1       634 3.09912E-03-4.17454E-04-1.38064E-14
 -1       635 3.38481E-03-4.16611E-04-1.63321E-14
 -1       636 3.67051E-03-4.13934E-04-1.90594E-14
 -1       637 3.95628E-03-4.09761E-04-2.19827E-14
 -1       638 4.24214E-03-4.04307E-04-2.50943E-14
 -1       639 4.52812E-03-3.97712E-04-2.83937E-14
 -1       640 4.81427E-03-3.90090E-04-3.18759E-14
 -1       641 5.10064E-03-3.81583E-04-3.55373E-14
 -1       642 5.38731E-03-3.72422E-04-3.93748E-14
 -1       643 5.67444E-03-3.62999E-04-4.33858E-14
 -1       644 5.96224E-03-3.53948E-04-4.75703E-14
 -1       645 6.25112E-03-3.46248E-04-5.19223E-14
 -1       646 6.54173E-03-3.41331E-04-5.64359E-14
 -1       647 6.83512E-03-3.41217E-04-6.11100E-14
 -1       648 7.13293E-03-3.48651E-04-6.59385E-14
 -1       649 7.43753E-03-3.67265E-04-7.09103E-14
 -1       650 7.75201E-03-4.01692E-04-7.60213E-14
 -1       651 8.07959E-03-4.57402E-04-8.12723E-14
 -1       652 8.42196E-03-5.39520E-04-8.66681E-14
 -1       653 8.77672E-03-6.49052E-04-9.22060E-14
 -1       654 9.13490E-03-7.74624E-04-9.78889E-14
 -1       655 9.48360E-03-8.83779E-04-1.03721E-13
 -1       656 9.82099E-03-9.32663E-04-1.09704E-13
 -1       657 1.01554E-02-8.93033E-04-1.15834E-13
 -1       658 1.05001E-02-7.82173E-04-1.22102E-13
 -1       659 1.08573E-02-6.41680E-04-1.28499E-13
 -1       660 1.12138E-02-5.10764E-04-1.35013E-13
 -1       661 1.15603E-02-4.05531E-04-1.41639E-13
 -1       662 1.18920E-02-3.27588E-04-1.48358E-13
 -1       663 1.22099E-02-2.72415E-04-1.55160E-13
 -1       664 1.25168E-02-2.34310E-04-1.62037E-13
 -1       665 1.28162E-02-2.08184E-04-1.68980E-13
 -1       666 1.31104E-02-1.89881E-04-1.75980E-13
 -1       667 1.34014E-02-1.76098E-04-1.83023E-13
 -1       668 1.36902E-02-1.64201E-04-1.90102E-13
 -1       669 1.39776E-02-1.52075E-04-1.97206E-13
 -1       670 2.19054E-03 4.35710E-04-6.35579E-15
 -1       671 9.49144E-03-8.25174E-04-1.04054E-13
 -1       672 1.90553E-03 4.19618E-04-4.82431E-15
 -1       673 2.76011E-03 4.51453E-04-1.00383E-14
 -1       674 3.04492E-03 4.53721E-04-1.21862E-14
 -1       675 3.32988E-03 4.53439E-04-1.45324E-14
 -1       676 3.61505E-03 4.51169E-04-1.70755E-14
 -1       677 3.90048E-03 4.47287E-04-1.98137E-14
 -1       678 4.18623E-03 4.42028E-04-2.27448E-14
 -1       679 4.47235E-03 4.35537E-04-2.58624E-14
 -1       680 4.75889E-03 4.27922E-04-2.91635E-14
 -1       681 5.04595E-03 4.19303E-04-3.26431E-14
 -1       682 5.33361E-03 4.09881E-04-3.63001E-14
 -1       683 5.62202E-03 4.00009E-04-4.01352E-14
 -1       684 5.91136E-03 3.90292E-04-4.41466E-14
 -1       685 6.20195E-03 3.81702E-04-4.83277E-14
 -1       686 6.49425E-03 3.75717E-04-5.26698E-14
 -1       687 6.78908E-03 3.74492E-04-5.71652E-14
 -1       688 7.08775E-03 3.81044E-04-6.18107E-14
 -1       689 7.39241E-03 3.99460E-04-6.66042E-14
 -1       690 7.70620E-03 4.35100E-04-7.15354E-14
 -1       691 8.03310E-03 4.94630E-04-7.65961E-14
 -1       692 8.37609E-03 5.85289E-04-8.17874E-14
 -1       693 8.73755E-03 7.11225E-04-8.71154E-14
 -1       694 9.10794E-03 8.66244E-04-9.25876E-14
 -1       695 9.47391E-03 1.01883E-03-9.82138E-14
 -1       696 9.82677E-03 1.11383E-03-1.04003E-13
 -1       697 1.05298E-02 1.00426E-03-1.16101E-13
 -1       698 1.08984E-02 8.63508E-04-1.22410E-13
 -1       699 1.12668E-02 7.31986E-04-1.28873E-13
 -1       700 1.16223E-02 6.32722E-04-1.35468E-13
 -1       701 1.19604E-02 5.68253E-04-1.42172E-13
 -1       702 1.22828E-02 5.32627E-04-1.48973E-13
 -1       703 1.25932E-02 5.18538E-04-1.55849E-13
 -1       704 1.28956E-02 5.19542E-04-1.62793E-13
 -1       705 1.31925E-02 5.30440E-04-1.69780E-13
 -1       706 1.34859E-02 5.47155E-04-1.76798E-13
 -1       707 1.37768E-02 5.66522E-04-1.83842E-13
 -1       708 1.40659E-02 5.86061E-04-1.90898E-13
 -1       709 1.42920E-02 5.84383E-04-1.96509E-13
 -1       710 1.15195E-02 4.24026E-04-1.28472E-13
 -1       711 1.42871E-02 2.45369E-04-1.98342E-13
 -1       712 1.41704E-02-1.44412E-04-2.02027E-13
 -1       713 1.42929E-02 3.82812E-04-1.97342E-13
 -1       714 1.42711E-02 1.77674E-04-1.98813E-13
 -1       715 1.42941E-02 3.13361E-04-1.97853E-13
 -1       716 1.42467E-02 1.10276E-04-1.99253E-13
 -1       717 1.42143E-02 3.98438E-05-1.99677E-13
 -1       718 1.41764E-02-3.32260E-05-2.00086E-13
 -1       719 9.09866E-03-6.52409E-04-9.84026E-14
 -1       720 1.11443E-02-3.62355E-04-1.28633E-13
 -1       721 1.08740E-02-5.07280E-04-1.25346E-13
 -1       722 9.05413E-03 7.61160E-04-9.39452E-14
 -1       723 7.68783E-03 1.30465E-05-8.54433E-14
 -1       724 9.69501E-03 1.05705E-03-1.02526E-13
 -1       725 1.19005E-02 2.64898E-04-1.32790E-13
 -1       726 1.62019E-03 3.95607E-04-3.50336E-15
 -1       727 2.47535E-03 4.45822E-04-8.09404E-15
 -1       728 1.09771E-03-2.94514E-04-1.95683E-15
 -1       729 1.33450E-03 3.61261E-04-2.39398E-15
 -1       730 1.10954E-02 6.37980E-04-1.23406E-13
 -1       731 9.04515E-04 1.24605E-04-1.45200E-15
 -1       732 9.04140E-04-1.22195E-04-1.54524E-15
 -1       733 9.38466E-03 9.32297E-04-9.81853E-14
 -1       734 8.22991E-03 3.12122E-04-8.73171E-14
 -1       735 1.07724E-02 8.16735E-04-1.19187E-13
 -1       736 7.65273E-03 9.39765E-05-8.37378E-14
 -1       737 9.77278E-03-8.91183E-04-1.08555E-13
 -1       738 8.57218E-03 4.85885E-04-8.96142E-14
 -1       739 7.96234E-03-8.28130E-05-8.75246E-14
 -1       740 8.26940E-03-2.12275E-04-9.00260E-14
 -1       741 8.62645E-03-4.06027E-04-9.27580E-14
 -1       742 1.06081E-02-6.50139E-04-1.21796E-13
 -1       743 8.93477E-04-2.51796E-04-1.34818E-15
 -1       744 1.15992E-02-1.31870E-04-1.32822E-13
 -1       745 1.00900E-02 1.08993E-03-1.08757E-13
 -1       746 9.11420E-04-1.75585E-04-1.52173E-15
 -1       747 8.98020E-04-2.31552E-05-1.54541E-15
 -1       748 1.21520E-02 7.91235E-05-1.36965E-13
 -1       749 1.42856E-02 4.54085E-04-1.96818E-13
 -1       750 1.42890E-02 5.18005E-04-1.96669E-13
 -1       751 1.21035E-02 2.15577E-04-1.36544E-13
 -1       752 7.97676E-03 2.24449E-04-8.42614E-14
 -1       753 1.22366E-02 1.13423E-04-1.37070E-13
 -1       754 8.99928E-04-7.18188E-05-1.55174E-15
 -1       755 7.56870E-03 6.98627E-05-8.25041E-14
 -1       756 1.22861E-02 1.39596E-04-1.38797E-13
 -1       757 1.40779E-02-9.17396E-05-1.98651E-13
 -1       758 1.21437E-02 4.17703E-05-1.40502E-13
 -1       759 1.16170E-03 2.43486E-04-2.08674E-15
 -1       760 8.30364E-03 3.96374E-04-8.53395E-14
 -1       761 1.14911E-02-2.52863E-04-1.35314E-13
 -1       762 1.22471E-03-2.54838E-04-2.52120E-15
 -1       763 8.03213E-03-1.56406E-04-8.59880E-14
 -1       764 1.79753E-03-3.08688E-04-5.07395E-15
 -1       765 2.08522E-03-3.24239E-04-6.66983E-15
 -1       766 2.37302E-03-3.34282E-04-8.47547E-15
 -1       767 2.66069E-03-3.40112E-04-1.04881E-14
 -1       768 2.94812E-03-3.42751E-04-1.27042E-14
 -1       769 3.23523E-03-3.42969E-04-1.51237E-14
 -1       770 3.52201E-03-3.41314E-04-1.77428E-14
 -1       771 3.80842E-03-3.38161E-04-2.05590E-14
 -1       772 4.09444E-03-3.33751E-04-2.35664E-14
 -1       773 4.38003E-03-3.28234E-04-2.67607E-14
 -1       774 4.66516E-03-3.21708E-04-3.01391E-14
 -1       775 4.94976E-03-3.14264E-04-3.36964E-14
 -1       776 5.23380E-03-3.06034E-04-3.74334E-14
 -1       777 5.51725E-03-2.97236E-04-4.13471E-14
 -1       778 5.80014E-03-2.88241E-04-4.54330E-14
 -1       779 6.08263E-03-2.79633E-04-4.96886E-14
 -1       780 6.36510E-03-2.72286E-04-5.41077E-14
 -1       781 6.64831E-03-2.67463E-04-5.86850E-14
 -1       782 6.93363E-03-2.66945E-04-6.34185E-14
 -1       783 7.22338E-03-2.73260E-04-6.82999E-14
 -1       784 7.52115E-03-2.90090E-04-7.33214E-14
 -1       785 7.83200E-03-3.22950E-04-7.84814E-14
 -1       786 8.16190E-03-3.79906E-04-8.37773E-14
 -1       787 8.51487E-03-4.70990E-04-8.92157E-14
 -1       788 1.11303E-02-4.54193E-04-1.31440E-13
 -1       789 1.18270E-02-2.55915E-04-1.44688E-13
 -1       790 1.21431E-02-2.01921E-04-1.51452E-13
 -1       791 1.24445E-02-1.65830E-04-1.58290E-13
 -1       792 1.27366E-02-1.41324E-04-1.65195E-13
 -1       793 1.30235E-02-1.24092E-04-1.72159E-13
 -1       794 1.33078E-02-1.11090E-04-1.79172E-13
 -1       795 1.35910E-02-1.00037E-04-1.86226E-13
 -1       796 1.38341E-02-9.63728E-05-1.92429E-13
 -1       797 1.13868E-02 5.58254E-04-1.28985E-13
 -1       798 3.18019E-03 3.79646E-04-1.36218E-14
 -1       799 2.89364E-03 3.78821E-04-1.13582E-14
 -1       800 3.75270E-03 3.75491E-04-1.87389E-14
 -1       801 4.03867E-03 3.71214E-04-2.15885E-14
 -1       802 4.32443E-03 3.65734E-04-2.46263E-14
 -1       803 4.60996E-03 3.59159E-04-2.78495E-14
 -1       804 4.89521E-03 3.51583E-04-3.12537E-14
 -1       805 5.18014E-03 3.43133E-04-3.48344E-14
 -1       806 5.46470E-03 3.34032E-04-3.85920E-14
 -1       807 5.74883E-03 3.24659E-04-4.25259E-14
 -1       808 6.03257E-03 3.15635E-04-4.66306E-14
 -1       809 6.31607E-03 3.07908E-04-5.09002E-14
 -1       810 6.59974E-03 3.02861E-04-5.53261E-14
 -1       811 6.88451E-03 3.02440E-04-5.99054E-14
 -1       812 7.17218E-03 3.09345E-04-6.46347E-14
 -1       813 7.46589E-03 3.27367E-04-6.95070E-14
 -1       814 7.77073E-03 3.62077E-04-7.45115E-14
 -1       815 8.09395E-03 4.21648E-04-7.96417E-14
 -1       816 1.18868E-02 4.86701E-04-1.39325E-13
 -1       817 1.22039E-02 4.51633E-04-1.46082E-13
 -1       818 1.25052E-02 4.38468E-04-1.52919E-13
 -1       819 1.27972E-02 4.39848E-04-1.59825E-13
 -1       820 1.30842E-02 4.50654E-04-1.66782E-13
 -1       821 1.33690E-02 4.67203E-04-1.73780E-13
 -1       822 1.36529E-02 4.86709E-04-1.80805E-13
 -1       823 1.39367E-02 5.06970E-04-1.87854E-13
 -1       824 1.41130E-02 5.12848E-04-1.92259E-13
 -1       825 1.40238E-02 1.32566E-04-1.92891E-13
 -1       826 1.39546E-02-6.84715E-06-1.93727E-13
 -1       827 1.40452E-02 1.99431E-04-1.92436E-13
 -1       828 8.34691E-03-3.12640E-04-8.86486E-14
 -1       829 1.74582E-03 3.38329E-04-4.32177E-15
 -1       830 7.71094E-03 1.37640E-04-8.18186E-14
 -1       831 1.39929E-02 6.42305E-05-1.93317E-13
 -1       832 1.16435E-02 5.11046E-04-1.34124E-13
 -1       833 3.46654E-03 3.78394E-04-1.60828E-14
 -1       834 2.03288E-03 3.56362E-04-5.77363E-15
 -1       835 7.72722E-03-3.69222E-05-8.33941E-14
 -1       836 7.55064E-03 3.44170E-05-8.21110E-14
 -1       837 1.18926E-02-5.67830E-05-1.38626E-13
 -1       838 9.01073E-04-2.12825E-04-1.44012E-15
 -1       839 1.51041E-03-2.86084E-04-3.69005E-15
 -1       840 1.24625E-03 3.00641E-04-2.24796E-15
 -1       841 8.77733E-03-5.53706E-04-9.32175E-14
 -1       842 1.18088E-02 3.65370E-04-1.34580E-13
 -1       843 1.23027E-02 1.00040E-04-1.41596E-13
 -1       844 1.13876E-03 5.90117E-05-2.30692E-15
 -1       845 1.13741E-03 1.19638E-06-2.34113E-15
 -1       846 1.15013E-03 1.78999E-04-2.18284E-15
 -1       847 1.40498E-02 4.02220E-04-1.90954E-13
 -1       848 1.20339E-02 2.99929E-04-1.38359E-13
 -1       849 1.15105E-02-3.34016E-04-1.38477E-13
 -1       850 2.31996E-03 3.68193E-04-7.43163E-15
 -1       851 2.60689E-03 3.75293E-04-9.29349E-15
 -1       852 8.62616E-03 5.65534E-04-8.81188E-14
 -1       853 1.07771E-02 8.39620E-04-1.19686E-13
 -1       854 1.40572E-02 3.32462E-04-1.91471E-13
 -1       855 1.40562E-02 2.65448E-04-1.91964E-13
 -1       856 7.53819E-03-4.45533E-06-8.00953E-14
 -1       857 1.38952E-02-5.09909E-05-1.93080E-13
 -1       858 1.49567E-03 3.23710E-04-3.20093E-15
 -1       859 1.14246E-03-1.15120E-04-2.35990E-15
 -1       860 1.14281E-03 1.17854E-04-2.25492E-15
 -1       861 1.23222E-02 1.74106E-04-1.41514E-13
 -1       862 1.14956E-03-1.76019E-04-2.34113E-15
 -1       863 1.23869E-02 1.29250E-04-1.43346E-13
 -1       864 8.04623E-03 3.03574E-04-8.23102E-14
 -1       865 7.58858E-03 1.02350E-04-8.06057E-14
 -1       866 2.21875E-03-2.57436E-04-7.60432E-15
 -1       867 2.50775E-03-2.64000E-04-9.51221E-15
 -1       868 2.79659E-03-2.67492E-04-1.16234E-14
 -1       869 3.08504E-03-2.68639E-04-1.39360E-14
 -1       870 3.37294E-03-2.67985E-04-1.64481E-14
 -1       871 3.66018E-03-2.65912E-04-1.91562E-14
 -1       872 3.94667E-03-2.62673E-04-2.20578E-14
 -1       873 4.23231E-03-2.58426E-04-2.51483E-14
 -1       874 4.51700E-03-2.53264E-04-2.84223E-14
 -1       875 4.80059E-03-2.47249E-04-3.18781E-14
 -1       876 5.08293E-03-2.40447E-04-3.55128E-14
 -1       877 5.36386E-03-2.32962E-04-3.93269E-14
 -1       878 5.64321E-03-2.24972E-04-4.33155E-14
 -1       879 5.92089E-03-2.16770E-04-4.74744E-14
 -1       880 6.19692E-03-2.08801E-04-5.17999E-14
 -1       881 6.47157E-03-2.01712E-04-5.62847E-14
 -1       882 6.74556E-03-1.96420E-04-6.09251E-14
 -1       883 7.02032E-03-1.94255E-04-6.57148E-14
 -1       884 7.29852E-03-1.97306E-04-7.06488E-14
 -1       885 7.58462E-03-2.09219E-04-7.57206E-14
 -1       886 7.88605E-03-2.36944E-04-8.09250E-14
 -1       887 1.21730E-02-1.38788E-05-1.45013E-13
 -1       888 1.23880E-02-9.56499E-05-1.54546E-13
 -1       889 1.26689E-02-7.50986E-05-1.61414E-13
 -1       890 1.29455E-02-6.02586E-05-1.68345E-13
 -1       891 1.32208E-02-4.85729E-05-1.75327E-13
 -1       892 1.34967E-02-3.83043E-05-1.82354E-13
 -1       893 1.87625E-03 2.77864E-04-5.18594E-15
 -1       894 7.45426E-03 5.17282E-05-7.90518E-14
 -1       895 4.17649E-03 2.95637E-04-2.33840E-14
 -1       896 3.89066E-03 2.99904E-04-2.04269E-14
 -1       897 4.74575E-03 2.84185E-04-2.98572E-14
 -1       898 5.02889E-03 2.77175E-04-3.33622E-14
 -1       899 5.31078E-03 2.69472E-04-3.70447E-14
 -1       900 5.59120E-03 2.61305E-04-4.09021E-14
 -1       901 5.86993E-03 2.53046E-04-4.49324E-14
 -1       902 6.14676E-03 2.45258E-04-4.91306E-14
 -1       903 6.42165E-03 2.38744E-04-5.34863E-14
 -1       904 6.69482E-03 2.34605E-04-5.79981E-14
 -1       905 6.96710E-03 2.34320E-04-6.26630E-14
 -1       906 7.24029E-03 2.39929E-04-6.74740E-14
 -1       907 7.51799E-03 2.54576E-04-7.24206E-14
 -1       908 7.80670E-03 2.84098E-04-7.74940E-14
 -1       909 1.38039E-02 1.54614E-04-1.86545E-13
 -1       910 1.21505E-02 3.66840E-04-1.43195E-13
 -1       911 1.29870E-02 3.74485E-04-1.63786E-13
 -1       912 1.32607E-02 3.91148E-04-1.70757E-13
 -1       913 1.35356E-02 4.10414E-04-1.77766E-13
 -1       914 1.38123E-02 4.30719E-04-1.84801E-13
 -1       915 1.40817E-02 4.56578E-04-1.91609E-13
 -1       916 1.24362E-02 3.58437E-04-1.49993E-13
 -1       917 1.27132E-02 3.62592E-04-1.56861E-13
 -1       918 4.46156E-03 2.90369E-04-2.65293E-14
 -1       919 3.02948E-03 3.05113E-04-1.27072E-14
 -1       920 1.35576E-03-2.09395E-04-3.12590E-15
 -1       921 1.20977E-02-1.26364E-04-1.47744E-13
 -1       922 7.77062E-03 1.99720E-04-7.99033E-14
 -1       923 1.92997E-03-2.46877E-04-5.90308E-15
 -1       924 1.13859E-03-5.64733E-05-2.35911E-15
 -1       925 1.18069E-02-1.75133E-04-1.41489E-13
 -1       926 1.64202E-03-2.31236E-04-4.40931E-15
 -1       927 1.23552E-02 6.84212E-05-1.45952E-13
 -1       928 7.62859E-03-1.19349E-04-7.84326E-14
 -1       929 1.40160E-03 2.36761E-04-3.04382E-15
 -1       930 1.38443E-03-9.69046E-05-3.33170E-15
 -1       931 1.23024E-02 2.34842E-04-1.43364E-13
 -1       932 1.58864E-03 2.59206E-04-3.81264E-15
 -1       933 2.16458E-03 2.90610E-04-6.76279E-15
 -1       934 1.36948E-02-4.48184E-05-1.87709E-13
 -1       935 2.74144E-03 3.03268E-04-1.05263E-14
 -1       936 7.42960E-03 8.09830E-05-7.71890E-14
 -1       937 3.60417E-03 3.03053E-04-1.76591E-14
 -1       938 1.24691E-02 1.05153E-04-1.47729E-13
 -1       939 1.37753E-02 8.86620E-05-1.86979E-13
 -1       940 1.38206E-02 2.18905E-04-1.86087E-13
 -1       941 3.31708E-03 3.04891E-04-1.50858E-14
 -1       942 1.38184E-02 3.50571E-04-1.85101E-13
 -1       943 7.39416E-03 1.88656E-05-7.70741E-14
 -1       944 7.62914E-03 1.51684E-04-7.87120E-14
 -1       945 1.38476E-03 9.99033E-05-3.22807E-15
 -1       946 1.38163E-03 3.39876E-05-3.28385E-15
 -1       947 1.36879E-03-1.52845E-04-3.23724E-15
 -1       948 1.37478E-02 1.32031E-05-1.87833E-13
 -1       949 2.35573E-03-1.88380E-04-8.55857E-15
 -1       950 1.19590E-02 3.94977E-04-1.39192E-13
 -1       951 2.64551E-03-1.92148E-04-1.05641E-14
 -1       952 2.93502E-03-1.93867E-04-1.27702E-14
 -1       953 3.22395E-03-1.94012E-04-1.51756E-14
 -1       954 3.51209E-03-1.92929E-04-1.77759E-14
 -1       955 3.79927E-03-1.90855E-04-2.05710E-14
 -1       956 4.08532E-03-1.87943E-04-2.35557E-14
 -1       957 4.37009E-03-1.84280E-04-2.67280E-14
 -1       958 4.65336E-03-1.79911E-04-3.00812E-14
 -1       959 4.93492E-03-1.74868E-04-3.36151E-14
 -1       960 5.21448E-03-1.69184E-04-3.73286E-14
 -1       961 5.49175E-03-1.62918E-04-4.12179E-14
 -1       962 5.76641E-03-1.56178E-04-4.52807E-14
 -1       963 6.03815E-03-1.49128E-04-4.95106E-14
 -1       964 6.30677E-03-1.42009E-04-5.39028E-14
 -1       965 6.57221E-03-1.35149E-04-5.84532E-14
 -1       966 6.83476E-03-1.28991E-04-6.31542E-14
 -1       967 7.09531E-03-1.24222E-04-6.80008E-14
 -1       968 7.35594E-03-1.22233E-04-7.29850E-14
 -1       969 1.26133E-02-1.08099E-05-1.57635E-13
 -1       970 1.72221E-03 2.01930E-04-4.59609E-15
 -1       971 1.28752E-02 6.13578E-07-1.64531E-13
 -1       972 1.31389E-02 1.06356E-05-1.71484E-13
 -1       973 1.34055E-02 2.02467E-05-1.78486E-13
 -1       974 5.16057E-03 2.05342E-04-3.54907E-14
 -1       975 4.88015E-03 2.11226E-04-3.18837E-14
 -1       976 5.71443E-03 1.92380E-04-4.32294E-14
 -1       977 5.98700E-03 1.85843E-04-4.73542E-14
 -1       978 6.25606E-03 1.79823E-04-5.16436E-14
 -1       979 6.52116E-03 1.74888E-04-5.60877E-14
 -1       980 6.78207E-03 1.71733E-04-6.06861E-14
 -1       981 7.03885E-03 1.71186E-04-6.54354E-14
 -1       982 7.29268E-03 1.74393E-04-7.03257E-14
 -1       983 7.52983E-03 1.82417E-04-7.50598E-14
 -1       984 1.26426E-02 2.89368E-04-1.53901E-13
 -1       985 7.37067E-03-4.28835E-05-7.49965E-14
 -1       986 1.28986E-02 3.03030E-04-1.60790E-13
 -1       987 1.31584E-02 3.19791E-04-1.67731E-13
 -1       988 1.38251E-02 2.83692E-04-1.85601E-13
 -1       989 1.23901E-02-1.12126E-05-1.51294E-13
 -1       990 1.77733E-03-1.72178E-04-5.15892E-15
 -1       991 1.34225E-02 3.38575E-04-1.74717E-13
 -1       992 5.43880E-03 1.98988E-04-3.92733E-14
 -1       993 1.39120E-03 1.67128E-04-3.14901E-15
 -1       994 1.23449E-02 2.86086E-04-1.46076E-13
 -1       995 4.02896E-03 2.24908E-04-2.21383E-14
 -1       996 2.45308E-03 2.98718E-04-8.54343E-15
 -1       997 2.06611E-03-1.81962E-04-6.75625E-15
 -1       998 1.38154E-03-3.12374E-05-3.31837E-15
 -1       999 1.24970E-02 1.64961E-04-1.47274E-13
 -1      1000 1.55624E-03 1.85032E-04-3.83999E-15
 -1      1001 1.62974E-03-6.99835E-05-4.45343E-15
 -1      1002 1.54907E-03 1.13666E-04-3.93298E-15
 -1      1003 1.25239E-02 2.17498E-04-1.49155E-13
 -1      1004 3.74270E-03 2.27883E-04-1.92616E-14
 -1      1005 2.01067E-03 2.14278E-04-6.09222E-15
 -1      1006 1.25853E-02 6.88480E-05-1.53429E-13
 -1      1007 7.32414E-03 4.79856E-05-7.52486E-14
 -1      1008 7.43217E-03 1.21318E-04-7.53338E-14
 -1      1009 1.26204E-02 1.42416E-04-1.51697E-13
 -1      1010 4.59789E-03 2.16503E-04-2.84540E-14
 -1      1011 4.31408E-03 2.21088E-04-2.52041E-14
 -1      1012 1.35869E-02 1.74884E-04-1.80214E-13
 -1      1013 1.34403E-02 2.73339E-04-1.75218E-13
 -1      1014 2.87865E-03 2.30090E-04-1.17911E-14
 -1      1015 1.35621E-02 1.11838E-04-1.80660E-13
 -1      1016 1.54540E-03 4.34681E-05-4.00008E-15
 -1      1017 3.16741E-03 2.30724E-04-1.40859E-14
 -1      1018 7.13920E-03-5.03900E-05-6.99733E-14
 -1      1019 2.78592E-03-1.19052E-04-1.16294E-14
 -1      1020 3.07568E-03-1.19603E-04-1.39269E-14
 -1      1021 3.36465E-03-1.19259E-04-1.64209E-14
 -1      1022 3.65259E-03-1.18201E-04-1.91073E-14
 -1      1023 3.93929E-03-1.16553E-04-2.19859E-14
 -1      1024 4.22452E-03-1.14382E-04-2.50545E-14
 -1      1025 4.50806E-03-1.11722E-04-2.83066E-14
 -1      1026 4.78963E-03-1.08583E-04-3.17391E-14
 -1      1027 5.06889E-03-1.04965E-04-3.53513E-14
 -1      1028 5.34545E-03-1.00862E-04-3.91400E-14
 -1      1029 5.61885E-03-9.62796E-05-4.31044E-14
 -1      1030 5.88858E-03-9.12309E-05-4.72378E-14
 -1      1031 6.15407E-03-8.57365E-05-5.15384E-14
 -1      1032 6.41469E-03-7.98129E-05-5.59977E-14
 -1      1033 6.66984E-03-7.34775E-05-6.06114E-14
 -1      1034 6.90898E-03-6.22032E-05-6.52266E-14
 -1      1035 1.28101E-02 5.65598E-05-1.60719E-13
 -1      1036 5.29132E-03 1.36536E-04-3.76381E-14
 -1      1037 2.29994E-03 2.22529E-04-7.79059E-15
 -1      1038 1.30593E-02 6.53658E-05-1.67639E-13
 -1      1039 1.33149E-02 7.47587E-05-1.74616E-13
 -1      1040 5.01390E-03 1.40743E-04-3.39309E-14
 -1      1041 6.10255E-03 1.23434E-04-4.97925E-14
 -1      1042 5.83629E-03 1.27656E-04-4.55734E-14
 -1      1043 6.61839E-03 1.16941E-04-5.87063E-14
 -1      1044 6.86583E-03 1.15340E-04-6.33920E-14
 -1      1045 7.10463E-03 1.15336E-04-6.82234E-14
 -1      1046 1.30579E-02 2.54406E-04-1.64703E-13
 -1      1047 3.45547E-03 2.29889E-04-1.65767E-14
 -1      1048 1.28144E-02 2.38070E-04-1.57793E-13
 -1      1049 2.49571E-03-1.17351E-04-9.53045E-15
 -1      1050 1.35199E-02 2.24261E-04-1.77722E-13
 -1      1051 2.20551E-03-1.14161E-04-7.63178E-15
 -1      1052 1.91765E-03-7.50972E-05-5.94641E-15
 -1      1053 6.36358E-03 1.19754E-04-5.41728E-14
 -1      1054 7.19585E-03 1.06002E-05-7.20078E-14
 -1      1055 5.56565E-03 1.32110E-04-4.15199E-14
 -1      1056 2.58941E-03 2.27552E-04-9.69132E-15
 -1      1057 1.58649E-03-1.24449E-05-4.23131E-15
 -1      1058 3.88214E-03 1.53320E-04-2.08903E-14
 -1      1059 4.73388E-03 1.44595E-04-3.04003E-14
 -1      1060 7.28822E-03 8.12638E-05-7.34317E-14
 -1      1061 1.85926E-03 1.40546E-04-5.42446E-15
 -1      1062 1.28080E-02 1.20850E-04-1.58417E-13
 -1      1063 1.70381E-03 1.27238E-04-4.65051E-15
 -1      1064 1.33429E-02 1.70835E-04-1.73368E-13
 -1      1065 1.87405E-03-1.34180E-05-5.68812E-15
 -1      1066 2.72853E-03 1.55005E-04-1.08737E-14
 -1      1067 1.27239E-02 1.86978E-04-1.54746E-13
 -1      1068 3.01821E-03 1.56121E-04-1.30865E-14
 -1      1069 4.16772E-03 1.50948E-04-2.38754E-14
 -1      1070 1.33342E-02 1.23827E-04-1.73999E-13
 -1      1071 1.32089E-02 2.12871E-04-1.69032E-13
 -1      1072 3.21830E-03-4.50787E-05-1.50902E-14
 -1      1073 3.50695E-03-4.47505E-05-1.76689E-14
 -1      1074 3.79437E-03-4.41639E-05-2.04401E-14
 -1      1075 4.08031E-03-4.33432E-05-2.34024E-14
 -1      1076 4.36451E-03-4.23003E-05-2.65534E-14
 -1      1077 4.64672E-03-4.10272E-05-2.98860E-14
 -1      1078 4.92651E-03-3.95304E-05-3.33952E-14
 -1      1079 5.20351E-03-3.77429E-05-3.70832E-14
 -1      1080 5.47721E-03-3.56399E-05-4.09470E-14
 -1      1081 5.74698E-03-3.31618E-05-4.49830E-14
 -1      1082 6.01209E-03-3.02321E-05-4.91902E-14
 -1      1083 6.27165E-03-2.67473E-05-5.35594E-14
 -1      1084 6.52453E-03-2.25639E-05-5.80830E-14
 -1      1085 5.95934E-03 6.71301E-05-4.79344E-14
 -1      1086 2.14851E-03 1.47720E-04-7.04004E-15
 -1      1087 5.14801E-03 7.29795E-05-3.59975E-14
 -1      1088 7.12449E-03 4.48404E-05-7.02426E-14
 -1      1089 5.69324E-03 6.89263E-05-4.37846E-14
 -1      1090 6.95368E-03 6.63297E-05-6.61114E-14
 -1      1091 6.71901E-03 6.49868E-05-6.13408E-14
 -1      1092 4.45173E-03 1.48028E-04-2.70468E-14
 -1      1093 6.47370E-03 6.50040E-05-5.67179E-14
 -1      1094 2.16008E-03-3.11843E-05-7.33719E-15
 -1      1095 2.63838E-03-4.47051E-05-1.05155E-14
 -1      1096 3.59524E-03 1.55062E-04-1.80952E-14
 -1      1097 6.21990E-03 6.57453E-05-5.22486E-14
 -1      1098 6.98438E-03 5.92340E-10-6.72184E-14
 -1      1099 2.43848E-03 1.52358E-04-8.85674E-15
 -1      1100 1.79549E-03 8.42369E-05-5.17904E-15
 -1      1101 1.83403E-03 3.57948E-05-5.43643E-15
 -1      1102 2.39914E-03-3.79997E-05-8.85820E-15
 -1      1103 1.29674E-02 1.97863E-04-1.62099E-13
 -1      1104 2.92866E-03-4.50905E-05-1.27043E-14
 -1      1105 5.42254E-03 7.09299E-05-3.98045E-14
 -1      1106 2.08451E-03 8.90758E-05-6.76496E-15
 -1      1107 1.31515E-02 1.40673E-04-1.68353E-13
 -1      1108 4.02255E-03 7.97362E-05-2.25452E-14
 -1      1109 3.73630E-03 8.07852E-05-1.96414E-14
 -1      1110 6.75853E-03-9.87115E-06-6.25561E-14
 -1      1111 4.87029E-03 7.49613E-05-3.23672E-14
 -1      1112 1.29768E-02 1.14195E-04-1.63790E-13
 -1      1113 2.87012E-03 8.14318E-05-1.20879E-14
 -1      1114 2.57984E-03 8.04174E-05-9.95828E-15
 -1      1115 3.30719E-03 1.56057E-04-1.54942E-14
 -1      1116 1.29743E-02 1.45790E-04-1.62946E-13
 -1      1117 3.36261E-03 2.93331E-05-1.62565E-14
 -1      1118 2.33201E-03 8.53627E-05-8.28739E-15
 -1      1119 4.50563E-03 2.81179E-05-2.80516E-14
 -1      1120 3.07340E-03 2.93206E-05-1.37868E-14
 -1      1121 4.26472E-03 5.35415E-05-2.52297E-14
 -1      1122 2.11940E-03 2.07200E-05-7.05429E-15
 -1      1123 2.75351E-03 1.81002E-05-1.13010E-14
 -1      1124 2.48872E-03 2.08190E-05-9.41091E-15
 -1      1125 2.30396E-03 2.08372E-05-8.19201E-15
 -1      1126 0.00000E+00 0.00000E+00 0.00000E+00
 -1      1127 0.00000E+00 0.00000E+00 0.00000E+00
 -1      1128 0.00000E+00 0.00000E+00 0.00000E+00
 -1      1129 0.00000E+00 0.00000E+00 0.00000E+00
 -1      1130 0.00000E+00 0.00000E+00 0.00000E+00
 -1      1131 0.00000E+00 0.00000E+00 0.00000E+00
 -1      1132 0.00000E+00 0.00000E+00 0.00000E+00
 -1      1133 0.00000E+00 0.00000E+00 0.00000E+00
 -1      1134 0.00000E+00 0.00000E+00 0.00000E+00
 -1      1135 0.00000E+00 0.00000E+00 0.00000E+00
 -1      1136 0.00000E+00 0.00000E+00 0.00000E+00
 -1      1137 0.00000E+00 0.00000E+00 0.00000E+00
 -1      1138 0.00000E+00 0.00000E+00 0.00000E+00
 -1      1139 0.00000E+00 0.00000E+00 0.00000E+00
 -1      1140 0.00000E+00 0.00000E+00 0.00000E+00
 -1      1141 0.00000E+00 0.00000E+00 0.00000E+00
 -1      1142 0.00000E+00 0.00000E+00 0.00000E+00
 -1      1143 2.11591E-04-1.48318E-04 2.50586E-17
 -1      1144 5.51387E-04-3.37497E-04-8.15049E-17
 -1      1145 8.33007E-04-4.58949E-04-4.15859E-16
 -1      1146 1.10235E-03-5.40524E-04-1.01514E-15
 -1      1147 1.36751E-03-5.97581E-04-1.86442E-15
 -1      1148 1.63204E-03-6.37995E-04-2.95902E-15
 -1      1149 1.89779E-03-6.66384E-04-4.29406E-15
 -1      1150 2.16563E-03-6.85832E-04-5.86251E-15
 -1      1151 2.43587E-03-6.98578E-04-7.65830E-15
 -1      1152 2.70853E-03-7.06295E-04-9.67829E-15
 -1      1153 2.98352E-03-7.10225E-04-1.19171E-14
 -1      1154 3.26066E-03-7.11287E-04-1.43677E-14
 -1      1155 3.53979E-03-7.10137E-04-1.70278E-14
 -1      1156 3.82083E-03-7.07241E-04-1.98933E-14
 -1      1157 4.10373E-03-7.02920E-04-2.29565E-14
 -1      1158 4.38858E-03-6.97410E-04-2.62131E-14
 -1      1159 4.67560E-03-6.90907E-04-2.96594E-14
 -1      1160 4.96516E-03-6.83630E-04-3.32928E-14
 -1      1161 5.25778E-03-6.75885E-04-3.71041E-14
 -1      1162 5.55418E-03-6.68147E-04-4.10889E-14
 -1      1163 5.85522E-03-6.61156E-04-4.52468E-14
 -1      1164 6.16191E-03-6.56033E-04-4.95793E-14
 -1      1165 6.47525E-03-6.54405E-04-5.40804E-14
 -1      1166 6.79614E-03-6.58525E-04-5.87515E-14
 -1      1167 7.12501E-03-6.71326E-04-6.35864E-14
 -1      1168 7.46143E-03-6.96309E-04-6.85724E-14
 -1      1169 7.80352E-03-7.37096E-04-7.37008E-14
 -1      1170 8.14744E-03-7.96426E-04-7.89708E-14
 -1      1171 8.48712E-03-8.74430E-04-8.43905E-14
 -1      1172 8.81489E-03-9.66423E-04-8.99546E-14
 -1      1173 9.12352E-03-1.06117E-03-9.56542E-14
 -1      1174 9.40940E-03-1.14143E-03-1.01494E-13
 -1      1175 9.67572E-03-1.18822E-03-1.07473E-13
 -1      1176 9.93289E-03-1.18798E-03-1.13590E-13
 -1      1177 1.01951E-02-1.13881E-03-1.19846E-13
 -1      1178 1.04743E-02-1.05135E-03-1.26227E-13
 -1      1179 1.07759E-02-9.43791E-04-1.32718E-13
 -1      1180 1.10979E-02-8.34478E-04-1.39313E-13
 -1      1181 1.14338E-02-7.36545E-04-1.46000E-13
 -1      1182 1.17756E-02-6.56380E-04-1.52780E-13
 -1      1183 1.21165E-02-5.94894E-04-1.59646E-13
 -1      1184 1.24520E-02-5.49728E-04-1.66587E-13
 -1      1185 1.27796E-02-5.17144E-04-1.73601E-13
 -1      1186 1.30983E-02-4.93224E-04-1.80670E-13
 -1      1187 1.34084E-02-4.74428E-04-1.87775E-13
 -1      1188 1.37106E-02-4.57777E-04-1.94897E-13
 -1      1189 1.40062E-02-4.40840E-04-2.02043E-13
 -1      1190 1.42965E-02-4.21714E-04-2.09197E-13
 -1      1191 1.45834E-02-3.99163E-04-2.16359E-13
 -1      1192 1.48617E-02-3.74082E-04-2.23368E-13
 -1      1193 2.28345E-04 1.60694E-04 5.58500E-17
 -1      1194 5.53557E-04 3.42128E-04 2.20906E-17
 -1      1195 8.33934E-04 4.61114E-04-2.14360E-16
 -1      1196 1.10325E-03 5.42209E-04-6.81448E-16
 -1      1197 1.36841E-03 5.99263E-04-1.37902E-15
 -1      1198 1.63299E-03 6.39766E-04-2.30611E-15
 -1      1199 1.89879E-03 6.68261E-04-3.46155E-15
 -1      1200 2.16667E-03 6.87826E-04-4.84045E-15
 -1      1201 2.43693E-03 7.00699E-04-6.43832E-15
 -1      1202 2.70960E-03 7.08544E-04-8.24972E-15
 -1      1203 2.98459E-03 7.12602E-04-1.02732E-14
 -1      1204 3.26172E-03 7.13786E-04-1.25031E-14
 -1      1205 3.54085E-03 7.12748E-04-1.49348E-14
 -1      1206 3.82186E-03 7.09944E-04-1.75648E-14
 -1      1207 4.10474E-03 7.05687E-04-2.03896E-14
 -1      1208 4.38959E-03 7.00194E-04-2.34100E-14
 -1      1209 4.67662E-03 6.93640E-04-2.66209E-14
 -1      1210 4.96625E-03 6.86214E-04-3.00100E-14
 -1      1211 5.25905E-03 6.78183E-04-3.35772E-14
 -1      1212 5.55584E-03 6.69981E-04-3.73279E-14
 -1      1213 5.85764E-03 6.62308E-04-4.12591E-14
 -1      1214 6.16570E-03 6.56275E-04-4.53618E-14
 -1      1215 6.48141E-03 6.53569E-04-4.96355E-14
 -1      1216 6.80617E-03 6.56650E-04-5.40762E-14
 -1      1217 7.14109E-03 6.68930E-04-5.86640E-14
 -1      1218 7.48653E-03 6.94832E-04-6.33910E-14
 -1      1219 7.84129E-03 7.39509E-04-6.82572E-14
 -1      1220 8.20175E-03 8.07853E-04-7.32517E-14
 -1      1221 8.56107E-03 9.02377E-04-7.83800E-14
 -1      1222 8.90934E-03 1.01984E-03-8.36560E-14
 -1      1223 9.23583E-03 1.14778E-03-8.90820E-14
 -1      1224 9.53364E-03 1.26378E-03-9.46601E-14
 -1      1225 9.80515E-03 1.34080E-03-1.00395E-13
 -1      1226 1.00639E-02 1.35836E-03-1.06292E-13
 -1      1227 1.03296E-02 1.31350E-03-1.12358E-13
 -1      1228 1.06185E-02 1.22237E-03-1.18601E-13
 -1      1229 1.09363E-02 1.11147E-03-1.25006E-13
 -1      1230 1.12784E-02 1.00548E-03-1.31563E-13
 -1      1231 1.16344E-02 9.19868E-04-1.38248E-13
 -1      1232 1.19937E-02 8.60095E-04-1.45043E-13
 -1      1233 1.23485E-02 8.24783E-04-1.51922E-13
 -1      1234 1.26940E-02 8.09292E-04-1.58862E-13
 -1      1235 1.30284E-02 8.08177E-04-1.65853E-13
 -1      1236 1.33515E-02 8.16443E-04-1.72898E-13
 -1      1237 1.36642E-02 8.29963E-04-1.79960E-13
 -1      1238 1.39680E-02 8.45476E-04-1.87021E-13
 -1      1239 1.42643E-02 8.60445E-04-1.94083E-13
 -1      1240 1.45550E-02 8.72938E-04-2.01147E-13
 -1      1241 1.48420E-02 8.81738E-04-2.08220E-13
 -1      1242 1.51203E-02 8.86967E-04-2.15128E-13
 -1      1243 1.52538E-02 8.46686E-04-2.18785E-13
 -1      1244 1.52509E-02 7.62118E-04-2.19400E-13
 -1      1245 1.52512E-02 6.79068E-04-2.19996E-13
 -1      1246 1.52544E-02 5.99411E-04-2.20566E-13
 -1      1247 1.52588E-02 5.24282E-04-2.21118E-13
 -1      1248 1.52618E-02 4.54521E-04-2.21672E-13
 -1      1249 1.52614E-02 3.88964E-04-2.22252E-13
 -1      1250 1.52557E-02 3.25976E-04-2.22801E-13
 -1      1251 1.52435E-02 2.64573E-04-2.23306E-13
 -1      1252 1.52245E-02 2.02997E-04-2.23780E-13
 -1      1253 1.51992E-02 1.39536E-04-2.24232E-13
 -1      1254 1.51692E-02 7.33306E-05-2.24678E-13
 -1      1255 1.51359E-02 2.89844E-06-2.25108E-13
 -1      1256 1.51014E-02-7.27811E-05-2.25498E-13
 -1      1257 1.50680E-02-1.52792E-04-2.25880E-13
 -1      1258 1.50375E-02-2.35936E-04-2.26254E-13
 -1      1259 1.50103E-02-3.19766E-04-2.26616E-13
 -1      1260 1.21267E-02 1.85253E-04-1.22603E-13
 -1      1261 1.20075E-02 3.41505E-04-1.21628E-13
 -1      1262 1.17810E-02 4.98776E-04-1.20021E-13
 -1      1263 1.14794E-02 6.49347E-04-1.17949E-13
 -1      1264 1.11271E-02 7.85037E-04-1.15547E-13
 -1      1265 1.07257E-02 8.97870E-04-1.12810E-13
 -1      1266 1.03007E-02 9.68944E-04-1.09914E-13
 -1      1267 9.85621E-03 9.83952E-04-1.06919E-13
 -1      1268 9.41048E-03 9.41017E-04-1.04007E-13
 -1      1269 9.00088E-03 8.50256E-04-1.01456E-13
 -1      1270 8.61458E-03 7.23055E-04-9.91821E-14
 -1      1271 8.26840E-03 5.75728E-04-9.72902E-14
 -1      1272 7.98924E-03 4.24327E-04-9.59015E-14
 -1      1273 7.79041E-03 2.74041E-04-9.50282E-14
 -1      1274 7.69112E-03 1.28759E-04-9.47069E-14
 -1      1275 7.70380E-03-2.01815E-05-9.49914E-14
 -1      1276 7.83159E-03-1.71116E-04-9.59120E-14
 -1      1277 8.05577E-03-3.19130E-04-9.73672E-14
 -1      1278 8.36034E-03-4.65642E-04-9.93232E-14
 -1      1279 8.73058E-03-6.02243E-04-1.01734E-13
 -1      1280 9.14779E-03-7.12475E-04-1.04508E-13
 -1      1281 9.56897E-03-7.75711E-04-1.07354E-13
 -1      1282 1.00008E-02-7.84891E-04-1.10290E-13
 -1      1283 1.04267E-02-7.41900E-04-1.13151E-13
 -1      1284 1.08229E-02-6.55292E-04-1.15729E-13
 -1      1285 1.11942E-02-5.36640E-04-1.18035E-13
 -1      1286 1.15298E-02-3.98043E-04-1.19984E-13
 -1      1287 1.18129E-02-2.49676E-04-1.21499E-13
 -1      1288 1.20167E-02-1.03478E-04-1.22470E-13
 -1      1289 1.21249E-02 3.79617E-05-1.22856E-13
 -1      1290 1.66629E-04-1.10346E-04-1.18856E-17
 -1      1291 1.12503E-04-5.70045E-05-5.41966E-17
 -1      1292 1.17576E-04-6.76047E-05-4.24601E-17
 -1      1293 1.08397E-04-4.35323E-05-7.32514E-17
 -1      1294 1.10250E-04-4.96409E-05-6.75729E-17
 -1      1295 2.26254E-04-1.07678E-04-1.58998E-16
 -1      1296 1.06846E-04-3.36625E-05-8.34565E-17
 -1      1297 1.07681E-04-3.83878E-05-8.05562E-17
 -1      1298 2.19069E-04-8.25412E-05-1.92866E-16
 -1      1299 1.06083E-04-2.53877E-05-8.92976E-17
 -1      1300 1.06508E-04-2.94223E-05-8.79288E-17
 -1      1301 2.15889E-04-6.33541E-05-2.12205E-16
 -1      1302 1.05687E-04-1.81224E-05-9.20894E-17
 -1      1303 1.05911E-04-2.16939E-05-9.16151E-17
 -1      1304 2.14252E-04-4.72496E-05-2.22939E-16
 -1      1305 1.05476E-04-1.12603E-05-9.32549E-17
 -1      1306 1.05595E-04-1.46501E-05-9.31872E-17
 -1      1307 2.13356E-04-3.28019E-05-2.28062E-16
 -1      1308 1.05381E-04-4.69867E-06-9.32685E-17
 -1      1309 1.05432E-04-7.95701E-06-9.34989E-17
 -1      1310 2.12877E-04-1.92207E-05-2.29783E-16
 -1      1311 1.05371E-04 1.74549E-06-9.21301E-17
 -1      1312 1.05369E-04-1.47309E-06-9.25367E-17
 -1      1313 2.12671E-04-6.17081E-06-2.28875E-16
 -1      1314 1.05440E-04 8.23924E-06-9.02869E-17
 -1      1315 1.05386E-04 4.97436E-06-9.08561E-17
 -1      1316 2.12679E-04 6.71881E-06-2.25568E-16
 -1      1317 1.05611E-04 1.49578E-05-8.72647E-17
 -1      1318 1.05487E-04 1.15531E-05-8.81863E-17
 -1      1319 2.12902E-04 1.97949E-05-2.20147E-16
 -1      1320 1.05933E-04 2.19862E-05-8.25755E-17
 -1      1321 1.05704E-04 1.83912E-05-8.40392E-17
 -1      1322 2.13397E-04 3.33158E-05-2.11731E-16
 -1      1323 1.06543E-04 2.98598E-05-7.57722E-17
 -1      1324 1.06111E-04 2.57805E-05-7.81981E-17
 -1      1325 2.14314E-04 4.78588E-05-1.99493E-16
 -1      1326 1.07716E-04 3.89611E-05-6.53503E-17
 -1      1327 1.06874E-04 3.41673E-05-6.93483E-17
 -1      1328 2.15987E-04 6.42814E-05-1.81807E-16
 -1      1329 1.10237E-04 5.03837E-05-4.86400E-17
 -1      1330 1.08408E-04 4.42031E-05-5.57009E-17
 -1      1331 2.19177E-04 8.37803E-05-1.54987E-16
 -1      1332 1.16892E-04 6.76424E-05-2.21448E-17
 -1      1333 1.12150E-04 5.78061E-05-3.49113E-17
 -1      1334 2.26249E-04 1.09504E-04-1.14953E-16
 -1      1335 1.57514E-04 1.09859E-04 1.95834E-17
 -1      1336 1.35603E-04 8.61059E-05-6.19350E-18
 -1      1337 2.55931E-04 1.52128E-04-6.68411E-17
 -1      1338 3.34937E-04 2.20740E-04 1.96512E-18
 -1      1339 4.21349E-04-2.61745E-04-1.06889E-16
 -1      1340 5.74361E-04-3.36799E-04-2.19808E-16
 -1      1341 7.21459E-04-3.97383E-04-4.02171E-16
 -1      1342 8.64533E-04-4.46644E-04-6.47946E-16
 -1      1343 6.11789E-04-3.30908E-04-3.78116E-16
 -1      1344 1.00446E-03-4.87664E-04-9.54369E-16
 -1      1345 1.14220E-03-5.21580E-04-1.32338E-15
 -1      1346 9.04859E-04-4.31539E-04-8.86552E-16
 -1      1347 1.27858E-03-5.50260E-04-1.75313E-15
 -1      1348 1.41411E-03-5.74177E-04-2.24415E-15
 -1      1349 1.18711E-03-5.00817E-04-1.63715E-15
 -1      1350 1.54924E-03-5.94395E-04-2.79513E-15
 -1      1351 1.68421E-03-6.11243E-04-3.40557E-15
 -1      1352 1.46386E-03-5.49352E-04-2.62800E-15
 -1      1353 1.81927E-03-6.25346E-04-4.07520E-15
 -1      1354 1.95453E-03-6.36990E-04-4.80321E-15
 -1      1355 1.73835E-03-5.83299E-04-3.85519E-15
 -1      1356 2.09012E-03-6.46573E-04-5.58859E-15
 -1      1357 2.22609E-03-6.54340E-04-6.43101E-15
 -1      1358 2.01248E-03-6.06601E-04-5.31465E-15
 -1      1359 2.36249E-03-6.60556E-04-7.32946E-15
 -1      1360 2.49932E-03-6.65423E-04-8.28276E-15
 -1      1361 2.28723E-03-6.22029E-04-7.00079E-15
 -1      1362 2.63663E-03-6.69126E-04-9.29237E-15
 -1      1363 2.77440E-03-6.71823E-04-1.03571E-14
 -1      1364 2.56312E-03-6.31603E-04-8.90877E-15
 -1      1365 2.91264E-03-6.73641E-04-1.14739E-14
 -1      1366 3.05133E-03-6.74705E-04-1.26449E-14
 -1      1367 2.84039E-03-6.36811E-04-1.10340E-14
 -1      1368 3.19048E-03-6.75099E-04-1.38684E-14
 -1      1369 3.33005E-03-6.74918E-04-1.51437E-14
 -1      1370 3.11911E-03-6.38745E-04-1.33717E-14
 -1      1371 3.47007E-03-6.74215E-04-1.64718E-14
 -1      1372 3.61051E-03-6.73063E-04-1.78507E-14
 -1      1373 3.39930E-03-6.38186E-04-1.59186E-14
 -1      1374 3.75137E-03-6.71492E-04-1.92802E-14
 -1      1375 3.89266E-03-6.69557E-04-2.07596E-14
 -1      1376 3.68097E-03-6.35683E-04-1.86715E-14
 -1      1377 4.03439E-03-6.67272E-04-2.22880E-14
 -1      1378 4.17655E-03-6.64683E-04-2.38654E-14
 -1      1379 3.96415E-03-6.31606E-04-2.16236E-14
 -1      1380 4.31919E-03-6.61794E-04-2.54901E-14
 -1      1381 4.46232E-03-6.58647E-04-2.71621E-14
 -1      1382 4.24892E-03-6.26206E-04-2.47707E-14
 -1      1383 4.60598E-03-6.55242E-04-2.88817E-14
 -1      1384 4.75020E-03-6.51629E-04-3.06484E-14
 -1      1385 4.53543E-03-6.19662E-04-2.81087E-14
 -1      1386 4.89504E-03-6.47807E-04-3.24606E-14
 -1      1387 5.04056E-03-6.43841E-04-3.43177E-14
 -1      1388 4.82395E-03-6.12142E-04-3.16336E-14
 -1      1389 5.18684E-03-6.39745E-04-3.62183E-14
 -1      1390 5.33393E-03-6.35605E-04-3.81635E-14
 -1      1391 5.11482E-03-6.03863E-04-3.53387E-14
 -1      1392 5.48194E-03-6.31460E-04-4.01519E-14
 -1      1393 5.63094E-03-6.27431E-04-4.21829E-14
 -1      1394 5.40854E-03-5.95167E-04-3.92198E-14
 -1      1395 5.78106E-03-6.23597E-04-4.42587E-14
 -1      1396 5.93237E-03-6.20126E-04-4.63773E-14
 -1      1397 5.70567E-03-5.86612E-04-4.32750E-14
 -1      1398 6.08501E-03-6.17157E-04-4.85385E-14
 -1      1399 6.23905E-03-6.14916E-04-5.07414E-14
 -1      1400 6.00688E-03-5.79086E-04-4.75028E-14
 -1      1401 6.39462E-03-6.13629E-04-5.29879E-14
 -1      1402 6.55178E-03-6.13585E-04-5.52767E-14
 -1      1403 6.31288E-03-5.73938E-04-5.19018E-14
 -1      1404 6.71062E-03-6.15121E-04-5.76074E-14
 -1      1405 6.87116E-03-6.18590E-04-5.99788E-14
 -1      1406 6.62430E-03-5.73122E-04-5.64693E-14
 -1      1407 7.03341E-03-6.24454E-04-6.23893E-14
 -1      1408 7.19730E-03-6.33106E-04-6.48401E-14
 -1      1409 6.94157E-03-5.79311E-04-6.12008E-14
 -1      1410 7.36274E-03-6.45119E-04-6.73276E-14
 -1      1411 7.52952E-03-6.60869E-04-6.98491E-14
 -1      1412 7.26473E-03-5.95919E-04-6.60886E-14
 -1      1413 7.69737E-03-6.80955E-04-7.24080E-14
 -1      1414 7.86589E-03-7.05622E-04-7.50029E-14
 -1      1415 7.59310E-03-6.26877E-04-7.11231E-14
 -1      1416 8.03462E-03-7.35302E-04-7.76340E-14
 -1      1417 8.20295E-03-7.69920E-04-8.02999E-14
 -1      1418 7.92504E-03-6.75953E-04-7.63016E-14
 -1      1419 8.37022E-03-8.09429E-04-8.30017E-14
 -1      1420 8.53569E-03-8.53179E-04-8.57433E-14
 -1      1421 8.25772E-03-7.45361E-04-8.16229E-14
 -1      1422 8.69865E-03-9.00277E-04-8.85188E-14
 -1      1423 8.85839E-03-9.49288E-04-9.13278E-14
 -1      1424 8.58715E-03-8.33574E-04-8.70885E-14
 -1      1425 9.01437E-03-9.98268E-04-9.41738E-14
 -1      1426 9.16623E-03-1.04503E-03-9.70549E-14
 -1      1427 8.90880E-03-9.32853E-04-9.26985E-14
 -1      1428 9.31392E-03-1.08687E-03-9.99709E-14
 -1      1429 9.45774E-03-1.12138E-03-1.02921E-13
 -1      1430 9.21904E-03-1.02796E-03-9.84512E-14
 -1      1431 9.59830E-03-1.14599E-03-1.05906E-13
 -1      1432 9.73661E-03-1.15895E-03-1.08926E-13
 -1      1433 9.51712E-03-1.09840E-03-1.04344E-13
 -1      1434 9.87383E-03-1.15900E-03-1.11979E-13
 -1      1435 1.00113E-02-1.14591E-03-1.15070E-13
 -1      1436 9.80668E-03-1.12500E-03-1.10375E-13
 -1      1437 1.01504E-02-1.12039E-03-1.18194E-13
 -1      1438 1.02921E-02-1.08380E-03-1.21348E-13
 -1      1439 1.00950E-02-1.09845E-03-1.16545E-13
 -1      1440 1.04373E-02-1.03845E-03-1.24534E-13
 -1      1441 1.05865E-02-9.86654E-04-1.27748E-13
 -1      1442 1.03898E-02-1.02404E-03-1.22846E-13
 -1      1443 1.07399E-02-9.31195E-04-1.30990E-13
 -1      1444 1.08972E-02-8.74402E-04-1.34259E-13
 -1      1445 1.06960E-02-9.18872E-04-1.29267E-13
 -1      1446 1.10579E-02-8.18501E-04-1.37553E-13
 -1      1447 1.12216E-02-7.65149E-04-1.40875E-13
 -1      1448 1.10140E-02-8.03936E-04-1.35800E-13
 -1      1449 1.13873E-02-7.15533E-04-1.44217E-13
 -1      1450 1.15545E-02-6.70505E-04-1.47580E-13
 -1      1451 1.13408E-02-6.96390E-04-1.42433E-13
 -1      1452 1.17223E-02-6.30313E-04-1.50968E-13
 -1      1453 1.18901E-02-5.95154E-04-1.54379E-13
 -1      1454 1.16718E-02-6.06061E-04-1.49159E-13
 -1      1455 1.20574E-02-5.64682E-04-1.57807E-13
 -1      1456 1.22237E-02-5.38698E-04-1.61258E-13
 -1      1457 1.20027E-02-5.35945E-04-1.55974E-13
 -1      1458 1.23887E-02-5.16604E-04-1.64729E-13
 -1      1459 1.25521E-02-4.98015E-04-1.68215E-13
 -1      1460 1.23303E-02-4.84513E-04-1.62870E-13
 -1      1461 1.27137E-02-4.82307E-04-1.71717E-13
 -1      1462 1.28734E-02-4.69041E-04-1.75234E-13
 -1      1463 1.26526E-02-4.48069E-04-1.69837E-13
 -1      1464 1.30313E-02-4.57673E-04-1.78764E-13
 -1      1465 1.31873E-02-4.47785E-04-1.82304E-13
 -1      1466 1.29685E-02-4.22354E-04-1.76863E-13
 -1      1467 1.33414E-02-4.38940E-04-1.85852E-13
 -1      1468 1.34938E-02-4.30767E-04-1.89407E-13
 -1      1469 1.32779E-02-4.03392E-04-1.83935E-13
 -1      1470 1.36446E-02-4.22927E-04-1.92968E-13
 -1      1471 1.37938E-02-4.15106E-04-1.96530E-13
 -1      1472 1.35812E-02-3.87798E-04-1.91038E-13
 -1      1473 1.39417E-02-4.07040E-04-2.00099E-13
 -1      1474 1.40883E-02-3.98474E-04-2.03674E-13
 -1      1475 1.38790E-02-3.72809E-04-1.98164E-13
 -1      1476 1.42339E-02-3.89219E-04-2.07250E-13
 -1      1477 1.43785E-02-3.79082E-04-2.10827E-13
 -1      1478 1.41722E-02-3.56217E-04-2.05304E-13
 -1      1479 1.45225E-02-3.67990E-04-2.14411E-13
 -1      1480 1.46659E-02-3.55875E-04-2.17998E-13
 -1      1481 1.44619E-02-3.36374E-04-2.12460E-13
 -1      1482 1.48745E-02-3.32674E-04-2.23192E-13
 -1      1483 1.48148E-02-3.02327E-04-2.21236E-13
 -1      1484 6.42759E-04 3.72001E-04-1.35390E-16
 -1      1485 4.92721E-04 3.03690E-04-3.80962E-17
 -1      1486 4.44677E-04 2.65913E-04-8.91350E-17
 -1      1487 9.28152E-04 4.71898E-04-4.99370E-16
 -1      1488 7.87388E-04 4.26448E-04-2.89224E-16
 -1      1489 7.44376E-04 3.90701E-04-3.51918E-16
 -1      1490 1.20283E-03 5.41178E-04-1.08895E-15
 -1      1491 1.06627E-03 5.09579E-04-7.65555E-16
 -1      1492 1.03025E-03 4.76045E-04-8.37939E-16
 -1      1493 1.47314E-03 5.90142E-04-1.90547E-15
 -1      1494 1.33821E-03 5.67813E-04-1.46877E-15
 -1      1495 1.30797E-03 5.35692E-04-1.54745E-15
 -1      1496 1.74241E-03 6.24684E-04-2.94945E-15
 -1      1497 1.60773E-03 6.08977E-04-2.39881E-15
 -1      1498 1.58199E-03 5.77697E-04-2.48145E-15
 -1      1499 2.01235E-03 6.48638E-04-4.21738E-15
 -1      1500 1.87721E-03 6.37815E-04-3.55555E-15
 -1      1501 1.85494E-03 6.07007E-04-3.63946E-15
 -1      1502 2.28378E-03 6.64710E-04-5.70563E-15
 -1      1503 2.14784E-03 6.57531E-04-4.93443E-15
 -1      1504 2.12825E-03 6.26965E-04-5.01873E-15
 -1      1505 2.55703E-03 6.74888E-04-7.40979E-15
 -1      1506 2.42016E-03 6.70438E-04-6.53087E-15
 -1      1507 2.40263E-03 6.39974E-04-6.61472E-15
 -1      1508 2.83222E-03 6.80653E-04-9.32609E-15
 -1      1509 2.69438E-03 6.78249E-04-8.34184E-15
 -1      1510 2.67844E-03 6.47801E-04-8.42416E-15
 -1      1511 3.10930E-03 6.83092E-04-1.14505E-14
 -1      1512 2.97053E-03 6.82233E-04-1.03625E-14
 -1      1513 2.95580E-03 6.51751E-04-1.04430E-14
 -1      1514 3.38821E-03 6.82994E-04-1.37789E-14
 -1      1515 3.24854E-03 6.83320E-04-1.25893E-14
 -1      1516 3.23473E-03 6.52771E-04-1.26673E-14
 -1      1517 3.66887E-03 6.80911E-04-1.63061E-14
 -1      1518 3.52833E-03 6.82171E-04-1.50175E-14
 -1      1519 3.51523E-03 6.51536E-04-1.50920E-14
 -1      1520 3.95127E-03 6.77221E-04-1.90302E-14
 -1      1521 3.80986E-03 6.79245E-04-1.76437E-14
 -1      1522 3.79728E-03 6.48508E-04-1.77149E-14
 -1      1523 4.23546E-03 6.72175E-04-2.19495E-14
 -1      1524 4.09313E-03 6.74849E-04-2.04654E-14
 -1      1525 4.08093E-03 6.43992E-04-2.05325E-14
 -1      1526 4.52160E-03 6.65951E-04-2.50591E-14
 -1      1527 4.37827E-03 6.69191E-04-2.34809E-14
 -1      1528 4.36631E-03 6.38190E-04-2.35436E-14
 -1      1529 4.80999E-03 6.58706E-04-2.83559E-14
 -1      1530 4.66549E-03 6.62433E-04-2.66849E-14
 -1      1531 4.65361E-03 6.31250E-04-2.67428E-14
 -1      1532 5.10107E-03 6.50637E-04-3.18299E-14
 -1      1533 4.95516E-03 6.54743E-04-3.00708E-14
 -1      1534 4.94319E-03 6.23325E-04-3.01239E-14
 -1      1535 5.39548E-03 6.42054E-04-3.54842E-14
 -1      1536 5.24782E-03 6.46363E-04-3.36344E-14
 -1      1537 5.23551E-03 6.14633E-04-3.36840E-14
 -1      1538 5.69402E-03 6.33473E-04-3.93213E-14
 -1      1539 5.54419E-03 6.37694E-04-3.73800E-14
 -1      1540 5.53120E-03 6.05547E-04-3.74251E-14
 -1      1541 5.99768E-03 6.25742E-04-4.33326E-14
 -1      1542 5.84515E-03 6.29401E-04-4.13046E-14
 -1      1543 5.83103E-03 5.96698E-04-4.13439E-14
 -1      1544 6.30759E-03 6.20191E-04-4.75161E-14
 -1      1545 6.15178E-03 6.22553E-04-4.54034E-14
 -1      1546 6.13593E-03 5.89117E-04-4.54374E-14
 -1      1547 6.62492E-03 6.18829E-04-5.18664E-14
 -1      1548 6.46525E-03 6.18797E-04-4.96715E-14
 -1      1549 6.44688E-03 5.84410E-04-4.97000E-14
 -1      1550 6.95074E-03 6.24547E-04-5.63764E-14
 -1      1551 6.78671E-03 6.20563E-04-5.41027E-14
 -1      1552 6.76484E-03 5.84970E-04-5.41244E-14
 -1      1553 7.28562E-03 6.41284E-04-6.10290E-14
 -1      1554 7.11702E-03 6.31258E-04-5.86849E-14
 -1      1555 7.09056E-03 5.94189E-04-5.86993E-14
 -1      1556 7.62923E-03 6.73990E-04-6.58204E-14
 -1      1557 7.45638E-03 6.55356E-04-6.34070E-14
 -1      1558 7.42426E-03 6.16569E-04-6.34180E-14
 -1      1559 7.97965E-03 7.28111E-04-7.07487E-14
 -1      1560 7.80376E-03 6.98168E-04-6.82677E-14
 -1      1561 7.76522E-03 6.57534E-04-6.82750E-14
 -1      1562 8.33279E-03 8.08144E-04-7.58072E-14
 -1      1563 8.15623E-03 7.64908E-04-7.32625E-14
 -1      1564 8.11133E-03 7.22562E-04-7.32659E-14
 -1      1565 8.68210E-03 9.14860E-04-8.10065E-14
 -1      1566 8.50844E-03 8.58610E-04-7.83894E-14
 -1      1567 8.45864E-03 8.15156E-04-7.83922E-14
 -1      1568 9.01952E-03 1.04141E-03-8.63510E-14
 -1      1569 8.85287E-03 9.76689E-04-8.36598E-14
 -1      1570 8.80143E-03 9.33368E-04-8.36582E-14
 -1      1571 9.33791E-03 1.17033E-03-9.18483E-14
 -1      1572 9.18147E-03 1.10715E-03-8.90798E-14
 -1      1573 9.13326E-03 1.06575E-03-8.90726E-14
 -1      1574 9.63497E-03 1.27498E-03-9.74973E-14
 -1      1575 9.48898E-03 1.22736E-03-9.46536E-14
 -1      1576 9.44945E-03 1.18967E-03-9.46402E-14
 -1      1577 9.91633E-03 1.32834E-03-1.03307E-13
 -1      1578 9.77690E-03 1.30910E-03-1.00382E-13
 -1      1579 9.75034E-03 1.27585E-03-1.00363E-13
 -1      1580 1.01948E-02 1.31599E-03-1.09284E-13
 -1      1581 1.00549E-02 1.33013E-03-1.06274E-13
 -1      1582 1.00430E-02 1.30040E-03-1.06248E-13
 -1      1583 1.04843E-02 1.24470E-03-1.15433E-13
 -1      1584 1.03374E-02 1.28633E-03-1.12336E-13
 -1      1585 1.03386E-02 1.25793E-03-1.12305E-13
 -1      1586 1.07939E-02 1.13795E-03-1.21748E-13
 -1      1587 1.06364E-02 1.19389E-03-1.18571E-13
 -1      1588 1.06468E-02 1.16466E-03-1.18534E-13
 -1      1589 1.11239E-02 1.02408E-03-1.28223E-13
 -1      1590 1.09566E-02 1.08040E-03-1.24967E-13
 -1      1591 1.09711E-02 1.04912E-03-1.24922E-13
 -1      1592 1.14687E-02 9.24659E-04-1.34835E-13
 -1      1593 1.12950E-02 9.71767E-04-1.31513E-13
 -1      1594 1.13086E-02 9.38315E-04-1.31459E-13
 -1      1595 1.18199E-02 8.50342E-04-1.41566E-13
 -1      1596 1.16440E-02 8.84200E-04-1.38187E-13
 -1      1597 1.16535E-02 8.49093E-04-1.38121E-13
 -1      1598 1.21702E-02 8.02670E-04-1.48394E-13
 -1      1599 1.19956E-02 8.23384E-04-1.44970E-13
 -1      1600 1.19993E-02 7.87342E-04-1.44894E-13
 -1      1601 1.25145E-02 7.78028E-04-1.55301E-13
 -1      1602 1.23433E-02 7.87824E-04-1.51839E-13
 -1      1603 1.23413E-02 7.51493E-04-1.51756E-13
 -1      1604 1.28499E-02 7.70908E-04-1.62261E-13
 -1      1605 1.26834E-02 7.72642E-04-1.58774E-13
 -1      1606 1.26762E-02 7.36502E-04-1.58685E-13
 -1      1607 1.31755E-02 7.75801E-04-1.69275E-13
 -1      1608 1.30139E-02 7.72169E-04-1.65762E-13
 -1      1609 1.30028E-02 7.36526E-04-1.65669E-13
 -1      1610 1.34915E-02 7.87989E-04-1.76326E-13
 -1      1611 1.33347E-02 7.81236E-04-1.72798E-13
 -1      1612 1.33209E-02 7.46257E-04-1.72697E-13
 -1      1613 1.37989E-02 8.03711E-04-1.83383E-13
 -1      1614 1.36462E-02 7.95605E-04-1.79855E-13
 -1      1615 1.36309E-02 7.61358E-04-1.79749E-13
 -1      1616 1.40990E-02 8.20037E-04-1.90447E-13
 -1      1617 1.39498E-02 8.11948E-04-1.86914E-13
 -1      1618 1.39337E-02 7.78439E-04-1.86809E-13
 -1      1619 1.43931E-02 8.34702E-04-1.97507E-13
 -1      1620 1.42467E-02 8.27684E-04-1.93976E-13
 -1      1621 1.42306E-02 7.94879E-04-1.93868E-13
 -1      1622 1.46828E-02 8.46045E-04-2.04576E-13
 -1      1623 1.45384E-02 8.40851E-04-2.01042E-13
 -1      1624 1.45228E-02 8.08682E-04-2.00934E-13
 -1      1625 1.49697E-02 8.53278E-04-2.11656E-13
 -1      1626 1.48265E-02 8.50154E-04-2.08114E-13
 -1      1627 1.48114E-02 8.18504E-04-2.08009E-13
 -1      1628 1.51180E-02 8.44843E-04-2.15424E-13
 -1      1629 1.51269E-02 7.40412E-04-2.16473E-13
 -1      1630 1.51276E-02 7.81994E-04-2.16173E-13
 -1      1631 1.51285E-02 6.59002E-04-2.17059E-13
 -1      1632 1.51273E-02 6.99357E-04-2.16770E-13
 -1      1633 1.50034E-02 7.18284E-04-2.13545E-13
 -1      1634 1.51328E-02 5.80860E-04-2.17628E-13
 -1      1635 1.51304E-02 6.19468E-04-2.17344E-13
 -1      1636 1.50063E-02 6.37952E-04-2.14126E-13
 -1      1637 1.51377E-02 5.06613E-04-2.18186E-13
 -1      1638 1.51353E-02 5.43233E-04-2.17909E-13
 -1      1639 1.50115E-02 5.60780E-04-2.14694E-13
 -1      1640 1.51406E-02 4.37434E-04-2.18739E-13
 -1      1641 1.51395E-02 4.71572E-04-2.18460E-13
 -1      1642 1.50167E-02 4.87670E-04-2.15250E-13
 -1      1643 1.51395E-02 3.70371E-04-2.19302E-13
 -1      1644 1.51407E-02 4.03538E-04-2.19021E-13
 -1      1645 1.50193E-02 4.17781E-04-2.15800E-13
 -1      1646 1.51325E-02 3.05611E-04-2.19827E-13
 -1      1647 1.51368E-02 3.37779E-04-2.19571E-13
 -1      1648 1.50171E-02 3.49944E-04-2.16341E-13
 -1      1649 1.51186E-02 2.41803E-04-2.20325E-13
 -1      1650 1.51264E-02 2.73675E-04-2.20081E-13
 -1      1651 1.50086E-02 2.83794E-04-2.16858E-13
 -1      1652 1.50978E-02 1.77485E-04-2.20793E-13
 -1      1653 1.51090E-02 2.09795E-04-2.20561E-13
 -1      1654 1.49930E-02 2.18138E-04-2.17347E-13
 -1      1655 1.50707E-02 1.11279E-04-2.21242E-13
 -1      1656 1.50849E-02 1.44694E-04-2.21020E-13
 -1      1657 1.49703E-02 1.51730E-04-2.17807E-13
 -1      1658 1.50394E-02 4.32754E-05-2.21673E-13
 -1      1659 1.50555E-02 7.76901E-05-2.21459E-13
 -1      1660 1.49417E-02 8.40277E-05-2.18247E-13
 -1      1661 1.50049E-02-2.95593E-05-2.22092E-13
 -1      1662 1.50224E-02 7.34208E-06-2.21888E-13
 -1      1663 1.49089E-02 1.36192E-05-2.18671E-13
 -1      1664 1.49699E-02-1.06262E-04-2.22479E-13
 -1      1665 1.49873E-02-6.74381E-05-2.22289E-13
 -1      1666 1.48734E-02-6.06380E-05-2.19078E-13
 -1      1667 1.49366E-02-1.86441E-04-2.22859E-13
 -1      1668 1.49529E-02-1.45967E-04-2.22670E-13
 -1      1669 1.48382E-02-1.38237E-04-2.19464E-13
 -1      1670 1.48678E-02-2.64914E-04-2.22142E-13
 -1      1671 1.48825E-02-2.23432E-04-2.21959E-13
 -1      1672 1.47666E-02-2.14512E-04-2.18754E-13
 -1      1673 1.46588E-02-2.87893E-04-2.16951E-13
 -1      1674 1.21205E-02 1.82837E-04-1.23847E-13
 -1      1675 1.21540E-02 1.36700E-04-1.24160E-13
 -1      1676 1.19411E-02 2.96373E-04-1.22683E-13
 -1      1677 1.20402E-02 2.40614E-04-1.23345E-13
 -1      1678 1.16513E-02 4.46664E-04-1.20686E-13
 -1      1679 1.17958E-02 3.75762E-04-1.21633E-13
 -1      1680 1.13141E-02 6.20201E-04-1.18205E-13
 -1      1681 1.14765E-02 5.42981E-04-1.19324E-13
 -1      1682 1.09427E-02 7.86997E-04-1.15508E-13
 -1      1683 1.11168E-02 7.10545E-04-1.16792E-13
 -1      1684 1.05464E-02 9.33456E-04-1.12469E-13
 -1      1685 1.07284E-02 8.69315E-04-1.13924E-13
 -1      1686 1.01703E-02 1.01870E-03-1.09318E-13
 -1      1687 1.03423E-02 9.88374E-04-1.10749E-13
 -1      1688 9.77668E-03 1.02666E-03-1.06002E-13
 -1      1689 9.95955E-03 1.03615E-03-1.07548E-13
 -1      1690 9.38531E-03 9.43388E-04-1.02979E-13
 -1      1691 9.56114E-03 9.89271E-04-1.04325E-13
 -1      1692 9.00824E-03 8.05914E-04-1.00320E-13
 -1      1693 9.18143E-03 8.75099E-04-1.01499E-13
 -1      1694 8.63474E-03 6.27062E-04-9.78532E-14
 -1      1695 8.81207E-03 7.11289E-04-9.89061E-14
 -1      1696 8.27081E-03 4.56713E-04-9.59939E-14
 -1      1697 8.42987E-03 5.34535E-04-9.68029E-14
 -1      1698 7.97012E-03 3.06633E-04-9.46295E-14
 -1      1699 8.09967E-03 3.72202E-04-9.51875E-14
 -1      1700 7.75756E-03 1.84740E-04-9.38226E-14
 -1      1701 7.84260E-03 2.37149E-04-9.41228E-14
 -1      1702 7.66670E-03 8.70020E-05-9.36205E-14
 -1      1703 7.69239E-03 1.29377E-04-9.36363E-14
 -1      1704 7.71538E-03-8.74046E-06-9.38873E-14
 -1      1705 7.67247E-03 3.61600E-05-9.35755E-14
 -1      1706 7.89742E-03-1.32803E-04-9.52749E-14
 -1      1707 7.80057E-03-7.81761E-05-9.47003E-14
 -1      1708 8.18313E-03-2.70330E-04-9.69029E-14
 -1      1709 8.04025E-03-2.01079E-04-9.60487E-14
 -1      1710 8.53186E-03-4.34556E-04-9.90991E-14
 -1      1711 8.36611E-03-3.57052E-04-9.80360E-14
 -1      1712 8.92409E-03-6.07878E-04-1.01821E-13
 -1      1713 8.73890E-03-5.28284E-04-1.00506E-13
 -1      1714 9.32208E-03-7.50644E-04-1.04869E-13
 -1      1715 9.14077E-03-6.90830E-04-1.03444E-13
 -1      1716 9.69112E-03-8.24845E-04-1.07947E-13
 -1      1717 9.52360E-03-7.99504E-04-1.06551E-13
 -1      1718 1.00723E-02-8.25200E-04-1.11210E-13
 -1      1719 9.89528E-03-8.37498E-04-1.09684E-13
 -1      1720 1.04460E-02-7.43969E-04-1.14197E-13
 -1      1721 1.02795E-02-7.87660E-04-1.12868E-13
 -1      1722 1.08157E-02-6.10889E-04-1.16954E-13
 -1      1723 1.06438E-02-6.78364E-04-1.15710E-13
 -1      1724 1.11796E-02-4.50904E-04-1.19374E-13
 -1      1725 1.10134E-02-5.26690E-04-1.18311E-13
 -1      1726 1.15266E-02-2.81023E-04-1.21487E-13
 -1      1727 1.13669E-02-3.57483E-04-1.20596E-13
 -1      1728 1.18269E-02-1.23324E-04-1.23196E-13
 -1      1729 1.16941E-02-1.87929E-04-1.22559E-13
 -1      1730 1.20485E-02-1.18018E-05-1.23957E-13
 -1      1731 1.19613E-02-6.29799E-05-1.23613E-13
 -1      1732 1.21510E-02 8.43504E-05-1.24137E-13
 -1      1733 1.21190E-02 4.07504E-05-1.24095E-13
 -1      1734 1.11560E-02 6.29205E-04-1.18203E-13
 -1      1735 1.15221E-02 4.40920E-04-1.20994E-13
 -1      1736 1.51035E-02 8.13448E-04-2.15322E-13
 -1      1737 1.49789E-02 7.90525E-04-2.12399E-13
 -1      1738 1.20825E-02 1.80895E-04-1.24989E-13
 -1      1739 1.18488E-02 2.83097E-04-1.23423E-13
 -1      1740 1.21625E-02 1.14011E-04-1.25474E-13
 -1      1741 1.07725E-02 8.16863E-04-1.15192E-13
 -1      1742 1.04050E-02 9.72500E-04-1.11875E-13
 -1      1743 1.00477E-02 1.05386E-03-1.08381E-13
 -1      1744 9.70026E-03 1.03135E-03-1.04940E-13
 -1      1745 9.33709E-03 9.13694E-04-1.01795E-13
 -1      1746 8.97215E-03 7.35767E-04-9.89183E-14
 -1      1747 8.59434E-03 5.35715E-04-9.64811E-14
 -1      1748 8.22542E-03 3.58017E-04-9.46444E-14
 -1      1749 7.92190E-03 2.20959E-04-9.33455E-14
 -1      1750 7.72203E-03 1.28347E-04-9.26601E-14
 -1      1751 7.65950E-03 6.10244E-05-9.24284E-14
 -1      1752 7.75586E-03-5.99448E-06-9.31838E-14
 -1      1753 7.99126E-03-1.17108E-04-9.47544E-14
 -1      1754 8.31903E-03-2.61731E-04-9.66362E-14
 -1      1755 8.69806E-03-4.46986E-04-9.91512E-14
 -1      1756 9.09067E-03-6.39442E-04-1.02161E-13
 -1      1757 9.45796E-03-7.88506E-04-1.05454E-13
 -1      1758 9.80632E-03-8.57512E-04-1.08869E-13
 -1      1759 1.01418E-02-8.28742E-04-1.12269E-13
 -1      1760 1.04928E-02-7.13961E-04-1.15448E-13
 -1      1761 1.08501E-02-5.47850E-04-1.18331E-13
 -1      1762 1.12159E-02-3.59381E-04-1.20925E-13
 -1      1763 1.15689E-02-1.76313E-04-1.23238E-13
 -1      1764 1.18753E-02-4.12919E-05-1.24748E-13
 -1      1765 1.20856E-02 4.49084E-05-1.25311E-13
 -1      1766 2.85115E-04-1.76250E-04-9.61823E-17
 -1      1767 3.32119E-04-1.16870E-04-3.06138E-16
 -1      1768 3.36190E-04-1.33069E-04-2.87896E-16
 -1      1769 3.42112E-04-1.52065E-04-2.65331E-16
 -1      1770 3.51644E-04-1.74063E-04-2.33402E-16
 -1      1771 4.58197E-04-1.88133E-04-4.17716E-16
 -1      1772 3.24630E-04-6.54457E-05-3.43340E-16
 -1      1773 3.25756E-04-7.67457E-05-3.37810E-16
 -1      1774 3.23179E-04-4.39348E-05-3.49479E-16
 -1      1775 3.23814E-04-5.44327E-05-3.47094E-16
 -1      1776 4.36616E-04-7.93479E-05-5.09141E-16
 -1      1777 3.22419E-04-2.37974E-05-3.50726E-16
 -1      1778 3.22740E-04-3.37205E-05-3.50523E-16
 -1      1779 4.34668E-04-5.13571E-05-5.15687E-16
 -1      1780 3.22136E-04-4.34246E-06-3.48205E-16
 -1      1781 3.22229E-04-1.40051E-05-3.49913E-16
 -1      1782 4.33676E-04-2.49440E-05-5.15972E-16
 -1      1783 3.22255E-04 1.49963E-05-3.42608E-16
 -1      1784 3.22145E-04 5.32356E-06-3.45874E-16
 -1      1785 4.33389E-04 7.57293E-07-5.11459E-16
 -1      1786 3.22804E-04 3.47655E-05-3.33297E-16
 -1      1787 3.22463E-04 2.48097E-05-3.38529E-16
 -1      1788 4.33735E-04 2.64876E-05-5.02094E-16
 -1      1789 3.23902E-04 5.52204E-05-3.19609E-16
 -1      1790 3.23256E-04 4.48495E-05-3.27375E-16
 -1      1791 4.34783E-04 5.27621E-05-4.87471E-16
 -1      1792 3.25915E-04 7.78852E-05-2.99945E-16
 -1      1793 3.24741E-04 6.62983E-05-3.11030E-16
 -1      1794 4.36792E-04 8.06582E-05-4.66519E-16
 -1      1795 3.29549E-04 1.03729E-04-2.70874E-16
 -1      1796 3.27429E-04 9.03772E-05-2.87178E-16
 -1      1797 4.40376E-04 1.11639E-04-4.36283E-16
 -1      1798 3.36520E-04 1.35183E-04-2.27655E-16
 -1      1799 3.32370E-04 1.18689E-04-2.52023E-16
 -1      1800 4.46768E-04 1.47411E-04-3.92427E-16
 -1      1801 3.52178E-04 1.77657E-04-1.63281E-16
 -1      1802 3.42717E-04 1.54824E-04-1.99317E-16
 -1      1803 4.59213E-04 1.91523E-04-3.28649E-16
 -1      1804 4.07520E-04 2.33714E-04-1.17812E-16
 -1      1805 3.77940E-04 2.02705E-04-1.47655E-16
 -1      1806 4.95675E-04 2.44040E-04-2.71416E-16
 -1      1807 5.58296E-04 3.02522E-04-2.24877E-16
 -1      1808 3.39880E-04-1.90944E-04-1.69501E-16
 -1      1809 8.53168E-04 4.07072E-04-6.06638E-16
 -1      1810 7.06840E-04 3.59371E-04-3.88646E-16
 -1      1811 6.73120E-04 3.28820E-04-4.18312E-16
 -1      1812 4.58778E-04-2.36761E-04-3.03035E-16
 -1      1813 8.06889E-04-3.74096E-04-8.11715E-16
 -1      1814 9.52086E-04-4.15226E-04-1.13474E-15
 -1      1815 1.09485E-03-4.49838E-04-1.51654E-15
 -1      1816 1.23645E-03-4.78637E-04-1.95804E-15
 -1      1817 1.00357E-03-3.97824E-04-1.39233E-15
 -1      1818 1.37679E-03-5.02998E-04-2.45808E-15
 -1      1819 1.51640E-03-5.23220E-04-3.01714E-15
 -1      1820 1.28915E-03-4.55593E-04-2.28618E-15
 -1      1821 1.65550E-03-5.40215E-04-3.63437E-15
 -1      1822 1.79427E-03-5.54219E-04-4.30897E-15
 -1      1823 1.57145E-03-4.96238E-04-3.41201E-15
 -1      1824 1.93292E-03-5.65833E-04-5.04024E-15
 -1      1825 2.07152E-03-5.75256E-04-5.82847E-15
 -1      1826 1.85197E-03-5.24339E-04-4.76663E-15
 -1      1827 2.21022E-03-5.82899E-04-6.67307E-15
 -1      1828 2.34903E-03-5.88927E-04-7.57220E-15
 -1      1829 2.13181E-03-5.43192E-04-6.34579E-15
 -1      1830 2.48805E-03-5.93627E-04-8.52584E-15
 -1      1831 2.62727E-03-5.97133E-04-9.53431E-15
 -1      1832 2.41165E-03-5.55201E-04-8.14560E-15
 -1      1833 2.76676E-03-5.99645E-04-1.05962E-14
 -1      1834 2.90650E-03-6.01270E-04-1.17111E-14
 -1      1835 2.69193E-03-5.62135E-04-1.01607E-14
 -1      1836 3.04654E-03-6.02146E-04-1.28787E-14
 -1      1837 3.18686E-03-6.02355E-04-1.40980E-14
 -1      1838 2.97291E-03-5.65291E-04-1.23885E-14
 -1      1839 3.32749E-03-6.01987E-04-1.53700E-14
 -1      1840 3.46840E-03-6.01106E-04-1.66930E-14
 -1      1841 3.25472E-03-5.65605E-04-1.48246E-14
 -1      1842 3.60964E-03-5.99768E-04-1.80665E-14
 -1      1843 3.75118E-03-5.98020E-04-1.94905E-14
 -1      1844 3.53746E-03-5.63735E-04-1.74660E-14
 -1      1845 3.89305E-03-5.95894E-04-2.09636E-14
 -1      1846 4.03526E-03-5.93427E-04-2.24861E-14
 -1      1847 3.82120E-03-5.60127E-04-2.03082E-14
 -1      1848 4.17782E-03-5.90633E-04-2.40568E-14
 -1      1849 4.32074E-03-5.87545E-04-2.56749E-14
 -1      1850 4.10602E-03-5.55071E-04-2.33467E-14
 -1      1851 4.46406E-03-5.84169E-04-2.73401E-14
 -1      1852 4.60781E-03-5.80536E-04-2.90526E-14
 -1      1853 4.39204E-03-5.48760E-04-2.65765E-14
 -1      1854 4.75200E-03-5.76654E-04-3.08120E-14
 -1      1855 4.89670E-03-5.72561E-04-3.26158E-14
 -1      1856 4.67943E-03-5.41338E-04-2.99946E-14
 -1      1857 5.04192E-03-5.68273E-04-3.44639E-14
 -1      1858 5.18775E-03-5.63844E-04-3.63565E-14
 -1      1859 4.96841E-03-5.32965E-04-3.35944E-14
 -1      1860 5.33420E-03-5.59314E-04-3.82934E-14
 -1      1861 5.48138E-03-5.54757E-04-4.02731E-14
 -1      1862 5.25929E-03-5.23878E-04-3.73719E-14
 -1      1863 5.62931E-03-5.50253E-04-4.22972E-14
 -1      1864 5.77812E-03-5.45910E-04-4.43644E-14
 -1      1865 5.55244E-03-5.14481E-04-4.13247E-14
 -1      1866 5.92781E-03-5.41867E-04-4.64737E-14
 -1      1867 6.07853E-03-5.38277E-04-4.86263E-14
 -1      1868 5.84830E-03-5.05441E-04-4.54502E-14
 -1      1869 6.23029E-03-5.35360E-04-5.08213E-14
 -1      1870 6.38323E-03-5.33328E-04-5.30588E-14
 -1      1871 6.14739E-03-4.97813E-04-4.97471E-14
 -1      1872 6.53735E-03-5.32507E-04-5.53379E-14
 -1      1873 6.69276E-03-5.33178E-04-5.76582E-14
 -1      1874 6.45027E-03-4.93183E-04-5.42125E-14
 -1      1875 6.84950E-03-5.35789E-04-6.00186E-14
 -1      1876 7.00758E-03-5.40696E-04-6.24182E-14
 -1      1877 6.75753E-03-4.93809E-04-5.88427E-14
 -1      1878 7.16706E-03-5.48459E-04-6.48566E-14
 -1      1879 7.32779E-03-5.59496E-04-6.73317E-14
 -1      1880 7.06972E-03-5.02723E-04-6.36314E-14
 -1      1881 7.48994E-03-5.74420E-04-6.98441E-14
 -1      1882 7.65306E-03-5.93658E-04-7.23910E-14
 -1      1883 7.38729E-03-5.23704E-04-6.85712E-14
 -1      1884 7.81744E-03-6.17729E-04-7.49766E-14
 -1      1885 7.98228E-03-6.46937E-04-7.75961E-14
 -1      1886 7.71038E-03-5.60953E-04-7.36576E-14
 -1      1887 8.14795E-03-6.81450E-04-8.02501E-14
 -1      1888 8.31329E-03-7.21199E-04-8.29408E-14
 -1      1889 8.03853E-03-6.18227E-04-7.88838E-14
 -1      1890 8.47870E-03-7.65655E-04-8.56680E-14
 -1      1891 8.64280E-03-8.14030E-04-8.84319E-14
 -1      1892 8.37019E-03-6.97125E-04-8.42545E-14
 -1      1893 8.80582E-03-8.64794E-04-9.12313E-14
 -1      1894 8.96662E-03-9.16122E-04-9.40656E-14
 -1      1895 8.70222E-03-7.94445E-04-8.97700E-14
 -1      1896 9.12514E-03-9.65492E-04-9.69366E-14
 -1      1897 9.28111E-03-1.01017E-03-9.98425E-14
 -1      1898 9.03001E-03-8.99252E-04-9.54282E-14
 -1      1899 9.43410E-03-1.04723E-03-1.02785E-13
 -1      1900 9.58536E-03-1.07398E-03-1.05762E-13
 -1      1901 9.34914E-03-9.91827E-04-1.01231E-13
 -1      1902 9.73420E-03-1.08822E-03-1.08772E-13
 -1      1903 9.88310E-03-1.08859E-03-1.11819E-13
 -1      1904 9.65865E-03-1.04797E-03-1.07174E-13
 -1      1905 1.00313E-02-1.07479E-03-1.14900E-13
 -1      1906 1.01815E-02-1.04758E-03-1.18015E-13
 -1      1907 9.96305E-03-1.04912E-03-1.13260E-13
 -1      1908 1.03329E-02-1.00872E-03-1.21163E-13
 -1      1909 1.04873E-02-9.60615E-04-1.24339E-13
 -1      1910 1.02703E-02-9.92593E-04-1.19481E-13
 -1      1911 1.06440E-02-9.06108E-04-1.27547E-13
 -1      1912 1.08033E-02-8.48092E-04-1.30784E-13
 -1      1913 1.05862E-02-8.93133E-04-1.25830E-13
 -1      1914 1.09649E-02-7.89298E-04-1.34046E-13
 -1      1915 1.11280E-02-7.31822E-04-1.37336E-13
 -1      1916 1.09115E-02-7.74551E-04-1.32298E-13
 -1      1917 1.12925E-02-6.77500E-04-1.40651E-13
 -1      1918 1.14573E-02-6.27408E-04-1.43990E-13
 -1      1919 1.12423E-02-6.58607E-04-1.38872E-13
 -1      1920 1.16225E-02-5.82329E-04-1.47352E-13
 -1      1921 1.17871E-02-5.42488E-04-1.50736E-13
 -1      1922 1.15737E-02-5.58772E-04-1.45547E-13
 -1      1923 1.19513E-02-5.07867E-04-1.54143E-13
 -1      1924 1.21142E-02-4.78220E-04-1.57568E-13
 -1      1925 1.19021E-02-4.80164E-04-1.52312E-13
 -1      1926 1.22762E-02-4.53078E-04-1.61012E-13
 -1      1927 1.24367E-02-4.32008E-04-1.64478E-13
 -1      1928 1.22255E-02-4.22141E-04-1.59161E-13
 -1      1929 1.25959E-02-4.14374E-04-1.67961E-13
 -1      1930 1.27536E-02-3.99714E-04-1.71457E-13
 -1      1931 1.25431E-02-3.81186E-04-1.66084E-13
 -1      1932 1.29098E-02-3.87401E-04-1.74966E-13
 -1      1933 1.30646E-02-3.77016E-04-1.78488E-13
 -1      1934 1.28549E-02-3.52873E-04-1.73073E-13
 -1      1935 1.32179E-02-3.68015E-04-1.82022E-13
 -1      1936 1.33699E-02-3.60044E-04-1.85564E-13
 -1      1937 1.31612E-02-3.32927E-04-1.80110E-13
 -1      1938 1.35206E-02-3.52662E-04-1.89110E-13
 -1      1939 1.36700E-02-3.45574E-04-1.92666E-13
 -1      1940 1.34627E-02-3.17661E-04-1.87188E-13
 -1      1941 1.38183E-02-3.38435E-04-1.96228E-13
 -1      1942 1.39656E-02-3.30996E-04-1.99791E-13
 -1      1943 1.37598E-02-3.04048E-04-1.94290E-13
 -1      1944 1.41119E-02-3.23004E-04-2.03363E-13
 -1      1945 1.42575E-02-3.14246E-04-2.06935E-13
 -1      1946 1.40532E-02-2.89666E-04-2.01421E-13
 -1      1947 1.43866E-02-3.07302E-04-2.10145E-13
 -1      1948 1.45307E-02-2.96656E-04-2.13728E-13
 -1      1949 1.45847E-02-2.60036E-04-2.14628E-13
 -1      1950 1.43278E-02-2.75242E-04-2.08198E-13
 -1      1951 1.13806E-03 4.79901E-04-1.20658E-15
 -1      1952 9.96371E-04 4.46728E-04-8.78515E-16
 -1      1953 9.64055E-04 4.17294E-04-9.12343E-16
 -1      1954 1.41701E-03 5.31155E-04-2.02847E-15
 -1      1955 1.27794E-03 5.07833E-04-1.58956E-15
 -1      1956 1.24839E-03 4.79724E-04-1.62469E-15
 -1      1957 1.69321E-03 5.67103E-04-3.07347E-15
 -1      1958 1.55527E-03 5.50799E-04-2.52294E-15
 -1      1959 1.52852E-03 5.23662E-04-2.55786E-15
 -1      1960 1.96861E-03 5.91888E-04-4.33946E-15
 -1      1961 1.83092E-03 5.80723E-04-3.67890E-15
 -1      1962 1.80662E-03 5.54233E-04-3.71179E-15
 -1      1963 2.24430E-03 6.08423E-04-5.82381E-15
 -1      1964 2.10637E-03 6.01064E-04-5.05474E-15
 -1      1965 2.08412E-03 5.74990E-04-5.08443E-15
 -1      1966 2.52087E-03 6.18830E-04-7.52237E-15
 -1      1967 2.38245E-03 6.14302E-04-6.64654E-15
 -1      1968 2.36186E-03 5.88487E-04-6.67219E-15
 -1      1969 2.79860E-03 6.24673E-04-9.43229E-15
 -1      1970 2.65958E-03 6.22255E-04-8.45098E-15
 -1      1971 2.64030E-03 5.96594E-04-8.47209E-15
 -1      1972 3.07764E-03 6.27097E-04-1.15483E-14
 -1      1973 2.93796E-03 6.26264E-04-1.04645E-14
 -1      1974 2.91972E-03 6.00687E-04-1.04800E-14
 -1      1975 3.35804E-03 6.26922E-04-1.38670E-14
 -1      1976 3.21768E-03 6.27299E-04-1.26825E-14
 -1      1977 3.20023E-03 6.01761E-04-1.26924E-14
 -1      1978 3.63981E-03 6.24720E-04-1.63853E-14
 -1      1979 3.49875E-03 6.26050E-04-1.51017E-14
 -1      1980 3.48191E-03 6.00520E-04-1.51053E-14
 -1      1981 3.92300E-03 6.20874E-04-1.90996E-14
 -1      1982 3.78122E-03 6.22985E-04-1.77181E-14
 -1      1983 3.76481E-03 5.97441E-04-1.77158E-14
 -1      1984 4.20769E-03 6.15632E-04-2.20083E-14
 -1      1985 4.06515E-03 6.18414E-04-2.05297E-14
 -1      1986 4.04900E-03 5.92839E-04-2.05211E-14
 -1      1987 4.49404E-03 6.09157E-04-2.51061E-14
 -1      1988 4.35064E-03 6.12536E-04-2.35339E-14
 -1      1989 4.33460E-03 5.86911E-04-2.35189E-14
 -1      1990 4.78230E-03 6.01581E-04-2.83903E-14
 -1      1991 4.63791E-03 6.05492E-04-2.67253E-14
 -1      1992 4.62179E-03 5.79791E-04-2.67037E-14
 -1      1993 5.07284E-03 5.93066E-04-3.18548E-14
 -1      1994 4.92726E-03 5.97419E-04-3.01006E-14
 -1      1995 4.91085E-03 5.71608E-04-3.00718E-14
 -1      1996 5.36613E-03 5.83874E-04-3.54977E-14
 -1      1997 5.21910E-03 5.88521E-04-3.36535E-14
 -1      1998 5.20213E-03 5.62547E-04-3.36186E-14
 -1      1999 5.66280E-03 5.74463E-04-3.93218E-14
 -1      2000 5.51399E-03 5.79145E-04-3.73871E-14
 -1      2001 5.49613E-03 5.52932E-04-3.73452E-14
 -1      2002 5.96358E-03 5.65605E-04-4.33203E-14
 -1      2003 5.81261E-03 5.69889E-04-4.12991E-14
 -1      2004 5.79341E-03 5.43328E-04-4.12493E-14
 -1      2005 6.26931E-03 5.58549E-04-4.74918E-14
 -1      2006 6.11575E-03 5.61742E-04-4.53846E-14
 -1      2007 6.09468E-03 5.34681E-04-4.53281E-14
 -1      2008 6.58088E-03 5.55208E-04-5.18282E-14
 -1      2009 6.42429E-03 5.56260E-04-4.96413E-14
 -1      2010 6.40070E-03 5.28489E-04-4.95763E-14
 -1      2011 6.89909E-03 5.58388E-04-5.63213E-14
 -1      2012 6.73908E-03 5.55776E-04-5.40556E-14
 -1      2013 6.71226E-03 5.27015E-04-5.39846E-14
 -1      2014 7.22453E-03 5.71980E-04-6.09625E-14
 -1      2015 7.06087E-03 5.63623E-04-5.86233E-14
 -1      2016 7.03010E-03 5.33509E-04-5.85439E-14
 -1      2017 7.55725E-03 6.00990E-04-6.57440E-14
 -1      2018 7.39001E-03 5.84263E-04-6.33359E-14
 -1      2019 7.35478E-03 5.52366E-04-6.32502E-14
 -1      2020 7.89650E-03 6.51142E-04-7.06638E-14
 -1      2021 7.72621E-03 6.23150E-04-6.81876E-14
 -1      2022 7.68645E-03 5.89039E-04-6.80963E-14
 -1      2023 8.24023E-03 7.27603E-04-7.57170E-14
 -1      2024 8.06812E-03 6.85955E-04-7.31735E-14
 -1      2025 8.02457E-03 6.49365E-04-7.30782E-14
 -1      2026 8.58479E-03 8.32369E-04-8.09072E-14
 -1      2027 8.41292E-03 7.76685E-04-7.82947E-14
 -1      2028 8.36740E-03 7.37849E-04-7.81933E-14
 -1      2029 8.92487E-03 9.60120E-04-8.62393E-14
 -1      2030 8.75598E-03 8.94194E-04-8.35542E-14
 -1      2031 8.71145E-03 8.54298E-04-8.34469E-14
 -1      2032 9.25478E-03 1.09449E-03-9.17229E-14
 -1      2033 9.09158E-03 1.02799E-03-8.89611E-14
 -1      2034 9.05136E-03 9.89289E-04-8.88471E-14
 -1      2035 9.57094E-03 1.20802E-03-9.73589E-14
 -1      2036 9.41453E-03 1.15565E-03-9.45216E-14
 -1      2037 9.38130E-03 1.12092E-03-9.43985E-14
 -1      2038 9.87554E-03 1.27065E-03-1.03154E-13
 -1      2039 9.72400E-03 1.24699E-03-1.00237E-13
 -1      2040 9.69866E-03 1.21782E-03-1.00106E-13
 -1      2041 1.01769E-02 1.26409E-03-1.09119E-13
 -1      2042 1.00255E-02 1.27587E-03-1.06115E-13
 -1      2043 1.00076E-02 1.25151E-03-1.05976E-13
 -1      2044 1.04854E-02 1.19374E-03-1.15254E-13
 -1      2045 1.03294E-02 1.23554E-03-1.12164E-13
 -1      2046 1.03181E-02 1.21316E-03-1.12018E-13
 -1      2047 1.08070E-02 1.08417E-03-1.21553E-13
 -1      2048 1.06443E-02 1.14195E-03-1.18385E-13
 -1      2049 1.06388E-02 1.11892E-03-1.18230E-13
 -1      2050 1.11411E-02 9.66125E-04-1.28008E-13
 -1      2051 1.09727E-02 1.02471E-03-1.24761E-13
 -1      2052 1.09718E-02 9.99696E-04-1.24599E-13
 -1      2053 1.14829E-02 8.62946E-04-1.34601E-13
 -1      2054 1.13116E-02 9.11926E-04-1.31289E-13
 -1      2055 1.13130E-02 8.84979E-04-1.31117E-13
 -1      2056 1.18265E-02 7.86064E-04-1.41312E-13
 -1      2057 1.16550E-02 8.21111E-04-1.37942E-13
 -1      2058 1.16563E-02 7.92816E-04-1.37761E-13
 -1      2059 1.21672E-02 7.37070E-04-1.48122E-13
 -1      2060 1.19976E-02 7.58320E-04-1.44706E-13
 -1      2061 1.19968E-02 7.29273E-04-1.44517E-13
 -1      2062 1.25021E-02 7.12124E-04-1.55014E-13
 -1      2063 1.23356E-02 7.21950E-04-1.51559E-13
 -1      2064 1.23317E-02 6.92586E-04-1.51362E-13
 -1      2065 1.28295E-02 7.05427E-04-1.61965E-13
 -1      2066 1.26668E-02 7.06847E-04-1.58481E-13
 -1      2067 1.26594E-02 6.77466E-04-1.58280E-13
 -1      2068 1.31491E-02 7.11200E-04-1.68968E-13
 -1      2069 1.29903E-02 7.07049E-04-1.65462E-13
 -1      2070 1.29798E-02 6.77857E-04-1.65253E-13
 -1      2071 1.34611E-02 7.24527E-04-1.76006E-13
 -1      2072 1.33060E-02 7.17148E-04-1.72484E-13
 -1      2073 1.32929E-02 6.88288E-04-1.72271E-13
 -1      2074 1.37662E-02 7.41506E-04-1.83059E-13
 -1      2075 1.36144E-02 7.32733E-04-1.79532E-13
 -1      2076 1.35996E-02 7.04301E-04-1.79314E-13
 -1      2077 1.40654E-02 7.59118E-04-1.90119E-13
 -1      2078 1.39165E-02 7.50364E-04-1.86588E-13
 -1      2079 1.39005E-02 7.22426E-04-1.86369E-13
 -1      2080 1.43597E-02 7.75035E-04-1.97180E-13
 -1      2081 1.42130E-02 7.67386E-04-1.93650E-13
 -1      2082 1.41965E-02 7.39988E-04-1.93429E-13
 -1      2083 1.46501E-02 7.87531E-04-2.04254E-13
 -1      2084 1.45053E-02 7.81773E-04-2.00717E-13
 -1      2085 1.44885E-02 7.54940E-04-2.00498E-13
 -1      2086 1.48866E-02 7.91538E-04-2.10097E-13
 -1      2087 1.47429E-02 7.87657E-04-2.06555E-13
 -1      2088 1.47262E-02 7.61292E-04-2.06338E-13
 -1      2089 1.49112E-02 7.60523E-04-2.10945E-13
 -1      2090 1.48905E-02 5.39171E-04-2.11764E-13
 -1      2091 1.48874E-02 5.77020E-04-2.11480E-13
 -1      2092 1.48844E-02 6.15698E-04-2.11196E-13
 -1      2093 1.48819E-02 6.55122E-04-2.10909E-13
 -1      2094 1.47628E-02 5.92317E-04-2.08266E-13
 -1      2095 1.48963E-02 6.87047E-04-2.11075E-13
 -1      2096 1.48954E-02 7.27724E-04-2.10781E-13
 -1      2097 1.48030E-02 7.28192E-04-2.08477E-13
 -1      2098 1.47735E-02 6.63326E-04-2.08147E-13
 -1      2099 1.48957E-02 4.67030E-04-2.12309E-13
 -1      2100 1.48933E-02 5.02733E-04-2.12038E-13
 -1      2101 1.47696E-02 5.16953E-04-2.08826E-13
 -1      2102 1.48978E-02 3.96476E-04-2.12855E-13
 -1      2103 1.48973E-02 4.31449E-04-2.12583E-13
 -1      2104 1.47750E-02 4.44534E-04-2.09370E-13
 -1      2105 1.48946E-02 3.28107E-04-2.13383E-13
 -1      2106 1.48970E-02 3.62101E-04-2.13122E-13
 -1      2107 1.47764E-02 3.74048E-04-2.09905E-13
 -1      2108 1.48844E-02 2.60980E-04-2.13890E-13
 -1      2109 1.48904E-02 2.94488E-04-2.13637E-13
 -1      2110 1.47718E-02 3.05395E-04-2.10421E-13
 -1      2111 1.48669E-02 1.94000E-04-2.14369E-13
 -1      2112 1.48766E-02 2.27576E-04-2.14133E-13
 -1      2113 1.47599E-02 2.37635E-04-2.10916E-13
 -1      2114 1.48423E-02 1.26068E-04-2.14822E-13
 -1      2115 1.48554E-02 1.60248E-04-2.14597E-13
 -1      2116 1.47404E-02 1.69726E-04-2.11388E-13
 -1      2117 1.48123E-02 5.74231E-05-2.15252E-13
 -1      2118 1.48279E-02 9.20468E-05-2.15040E-13
 -1      2119 1.47141E-02 1.01253E-04-2.11833E-13
 -1      2120 1.47778E-02-1.50097E-05-2.15671E-13
 -1      2121 1.47955E-02 2.15761E-05-2.15464E-13
 -1      2122 1.46822E-02 3.08128E-05-2.12259E-13
 -1      2123 1.47417E-02-9.04583E-05-2.16068E-13
 -1      2124 1.47598E-02-5.23520E-05-2.15870E-13
 -1      2125 1.46464E-02-4.28248E-05-2.12667E-13
 -1      2126 1.47062E-02-1.68971E-04-2.16448E-13
 -1      2127 1.47237E-02-1.29361E-04-2.16259E-13
 -1      2128 1.46095E-02-1.19382E-04-2.13057E-13
 -1      2129 1.17554E-02 2.82816E-04-1.24163E-13
 -1      2130 1.19025E-02 2.26022E-04-1.25226E-13
 -1      2131 1.21667E-02 1.21737E-04-1.27098E-13
 -1      2132 1.21632E-02 1.05603E-04-1.27077E-13
 -1      2133 1.20433E-02 1.71722E-04-1.26470E-13
 -1      2134 1.21242E-02 1.46733E-04-1.26982E-13
 -1      2135 1.13873E-02 4.52704E-04-1.21434E-13
 -1      2136 1.15597E-02 3.67001E-04-1.22811E-13
 -1      2137 1.10228E-02 6.50728E-04-1.18349E-13
 -1      2138 1.12001E-02 5.54474E-04-1.19777E-13
 -1      2139 3.27231E-04-8.90540E-05-3.30221E-16
 -1      2140 3.29311E-04-1.02233E-04-3.19474E-16
 -1      2141 4.46319E-04-1.45207E-04-4.65258E-16
 -1      2142 4.40090E-04-1.10028E-04-4.93556E-16
 -1      2143 1.02920E-02 1.01481E-03-1.11238E-13
 -1      2144 1.04467E-02 9.49362E-04-1.12965E-13
 -1      2145 9.97850E-03 1.07821E-03-1.07615E-13
 -1      2146 1.01273E-02 1.05945E-03-1.09386E-13
 -1      2147 9.63089E-03 1.02252E-03-1.03642E-13
 -1      2148 9.78240E-03 1.06428E-03-1.05309E-13
 -1      2149 9.29744E-03 8.75783E-04-1.00514E-13
 -1      2150 9.45531E-03 9.55130E-04-1.01980E-13
 -1      2151 8.94583E-03 6.76057E-04-9.75673E-14
 -1      2152 9.11683E-03 7.78607E-04-9.89600E-14
 -1      2153 8.53584E-03 4.53306E-04-9.49885E-14
 -1      2154 8.72060E-03 5.50264E-04-9.60172E-14
 -1      2155 8.17193E-03 2.81757E-04-9.31742E-14
 -1      2156 8.33878E-03 3.57007E-04-9.39647E-14
 -1      2157 7.87310E-03 1.57252E-04-9.16428E-14
 -1      2158 8.00185E-03 2.03146E-04-9.21384E-14
 -1      2159 7.69018E-03 9.71635E-05-9.14246E-14
 -1      2160 7.75814E-03 1.21420E-04-9.16067E-14
 -1      2161 7.65821E-03 5.70510E-05-9.10287E-14
 -1      2162 7.65428E-03 7.17627E-05-9.10793E-14
 -1      2163 7.81708E-03-8.70316E-06-9.25648E-14
 -1      2164 7.72556E-03 2.50832E-05-9.17639E-14
 -1      2165 8.07115E-03-1.05986E-04-9.40606E-14
 -1      2166 7.92950E-03-5.33415E-05-9.33077E-14
 -1      2167 7.87473E-03-1.44158E-05-9.18736E-14
 -1      2168 8.43888E-03-2.68093E-04-9.62475E-14
 -1      2169 8.26389E-03-1.85986E-04-9.51382E-14
 -1      2170 8.83522E-03-4.71119E-04-9.89957E-14
 -1      2171 8.65175E-03-3.71157E-04-9.76123E-14
 -1      2172 9.22315E-03-6.78780E-04-1.02308E-13
 -1      2173 9.05058E-03-5.83815E-04-1.00703E-13
 -1      2174 9.56827E-03-8.29884E-04-1.06066E-13
 -1      2175 9.41931E-03-7.70956E-04-1.04391E-13
 -1      2176 9.86144E-03-8.79797E-04-1.09526E-13
 -1      2177 9.71879E-03-8.65835E-04-1.07790E-13
 -1      2178 9.64538E-03-8.56388E-04-1.06714E-13
 -1      2179 1.02063E-02-8.19384E-04-1.13621E-13
 -1      2180 1.00614E-02-8.61625E-04-1.11955E-13
 -1      2181 1.05324E-02-6.76201E-04-1.16772E-13
 -1      2182 1.03779E-02-7.52851E-04-1.15248E-13
 -1      2183 1.08859E-02-4.84142E-04-1.19871E-13
 -1      2184 1.07182E-02-5.78437E-04-1.18500E-13
 -1      2185 1.12475E-02-2.81991E-04-1.22711E-13
 -1      2186 1.10743E-02-3.76687E-04-1.21471E-13
 -1      2187 1.16113E-02-1.06319E-04-1.24989E-13
 -1      2188 1.14440E-02-1.86156E-04-1.23899E-13
 -1      2189 1.19372E-02 2.08511E-05-1.26609E-13
 -1      2190 1.18060E-02-2.23047E-05-1.26179E-13
 -1      2191 1.21269E-02 8.32146E-05-1.26930E-13
 -1      2192 1.20572E-02 5.98486E-05-1.26788E-13
 -1      2193 1.21542E-02 1.03373E-04-1.28554E-13
 -1      2194 1.06507E-02 8.52232E-04-1.14999E-13
 -1      2195 1.08258E-02 7.57807E-04-1.16596E-13
 -1      2196 1.12739E-02 4.87628E-04-1.21578E-13
 -1      2197 6.07641E-04-2.98160E-04-4.92336E-16
 -1      2198 1.09057E-02 6.94475E-04-1.18153E-13
 -1      2199 1.05320E-02 9.03327E-04-1.14352E-13
 -1      2200 6.63389E-04-2.92451E-04-6.61567E-16
 -1      2201 1.19804E-02 1.84468E-04-1.27213E-13
 -1      2202 1.21574E-02 1.30897E-04-1.28584E-13
 -1      2203 1.46510E-02-2.04659E-04-2.15551E-13
 -1      2204 1.16468E-02 3.09682E-04-1.24604E-13
 -1      2205 1.20095E-02 5.94501E-05-1.28224E-13
 -1      2206 1.17070E-02-4.45635E-05-1.26840E-13
 -1      2207 1.13222E-02-2.18001E-04-1.24447E-13
 -1      2208 1.09559E-02-4.17695E-04-1.21641E-13
 -1      2209 1.06033E-02-6.24030E-04-1.18298E-13
 -1      2210 9.95556E-03-8.83506E-04-1.10861E-13
 -1      2211 9.33493E-03-7.28577E-04-1.02911E-13
 -1      2212 8.96275E-03-5.21251E-04-9.91412E-14
 -1      2213 8.17056E-03-1.25679E-04-9.36750E-14
 -1      2214 7.67790E-03 4.74247E-05-9.04046E-14
 -1      2215 7.64743E-03 5.59672E-05-8.90535E-14
 -1      2216 7.71231E-03 3.99402E-05-8.97795E-14
 -1      2217 7.66451E-03 7.69775E-05-9.00239E-14
 -1      2218 7.81268E-03 1.23782E-04-9.04022E-14
 -1      2219 8.08983E-03 2.18483E-04-9.14595E-14
 -1      2220 8.45003E-03 3.83659E-04-9.35026E-14
 -1      2221 8.85344E-03 6.03044E-04-9.60533E-14
 -1      2222 9.23386E-03 8.27088E-04-9.91410E-14
 -1      2223 9.55821E-03 9.95033E-04-1.02344E-13
 -1      2224 1.02019E-02 1.04677E-03-1.10459E-13
 -1      2225 9.88142E-03 1.08367E-03-1.06297E-13
 -1      2226 8.56196E-03-3.04591E-04-9.60940E-14
 -1      2227 1.02756E-02-7.90924E-04-1.14932E-13
 -1      2228 1.01623E-03 3.99716E-04-1.16134E-15
 -1      2229 8.71816E-04 3.63396E-04-8.49337E-16
 -1      2230 5.47993E-04-5.53354E-05-7.32026E-16
 -1      2231 5.49008E-04-7.20612E-05-7.29858E-16
 -1      2232 5.50398E-04-8.93935E-05-7.25548E-16
 -1      2233 5.52230E-04-1.07379E-04-7.18447E-16
 -1      2234 6.65499E-04-9.55292E-05-9.85174E-16
 -1      2235 5.46645E-04 8.86153E-06-7.22892E-16
 -1      2236 5.46625E-04-6.98646E-06-7.27635E-16
 -1      2237 5.47384E-04 4.08935E-05-7.08363E-16
 -1      2238 5.46894E-04 2.48086E-05-7.16563E-16
 -1      2239 6.61632E-04 1.99378E-05-9.74467E-16
 -1      2240 5.49173E-04 7.35346E-05-6.86923E-16
 -1      2241 5.48131E-04 5.70328E-05-6.98782E-16
 -1      2242 6.62932E-04 5.78085E-05-9.53732E-16
 -1      2243 5.52505E-04 1.09024E-04-6.55631E-16
 -1      2244 5.50614E-04 9.09411E-05-6.72463E-16
 -1      2245 6.65742E-04 9.72912E-05-9.22941E-16
 -1      2246 5.58305E-04 1.48368E-04-6.11490E-16
 -1      2247 5.55028E-04 1.28139E-04-6.35654E-16
 -1      2248 6.70754E-04 1.40073E-04-8.79302E-16
 -1      2249 5.68535E-04 1.93965E-04-5.49067E-16
 -1      2250 5.62747E-04 1.70249E-04-5.83192E-16
 -1      2251 6.79301E-04 1.87621E-04-8.18844E-16
 -1      2252 1.30158E-03 4.56460E-04-1.94819E-15
 -1      2253 1.15931E-03 4.30630E-04-1.52733E-15
 -1      2254 1.07148E-03 3.81211E-04-1.42314E-15
 -1      2255 9.14931E-04-3.46340E-04-1.26482E-15
 -1      2256 1.05898E-03-3.79584E-04-1.66017E-15
 -1      2257 1.08072E-02 7.42581E-04-1.18052E-13
 -1      2258 1.09792E-02 6.39529E-04-1.19820E-13
 -1      2259 1.20220E-03-4.07868E-04-2.11258E-15
 -1      2260 1.34497E-03-4.31620E-04-2.62252E-15
 -1      2261 1.11676E-03-3.60363E-04-1.93817E-15
 -1      2262 1.48711E-03-4.51688E-04-3.18930E-15
 -1      2263 1.62885E-03-4.68342E-04-3.81352E-15
 -1      2264 1.40304E-03-4.06886E-04-2.96711E-15
 -1      2265 1.77024E-03-4.82249E-04-4.49334E-15
 -1      2266 1.91139E-03-4.93621E-04-5.22903E-15
 -1      2267 1.68813E-03-4.39756E-04-4.22053E-15
 -1      2268 2.05240E-03-5.02945E-04-6.01988E-15
 -1      2269 2.19331E-03-5.10392E-04-6.86640E-15
 -1      2270 1.97229E-03-4.62271E-04-5.69618E-15
 -1      2271 2.33421E-03-5.16314E-04-7.76666E-15
 -1      2272 2.47512E-03-5.20847E-04-8.72074E-15
 -1      2273 2.25594E-03-4.77027E-04-7.38975E-15
 -1      2274 2.61610E-03-5.24244E-04-9.72788E-15
 -1      2275 2.75715E-03-5.26613E-04-1.07883E-14
 -1      2276 2.53940E-03-4.86003E-04-9.29809E-15
 -1      2277 2.89834E-03-5.28131E-04-1.19016E-14
 -1      2278 3.03964E-03-5.28883E-04-1.30663E-14
 -1      2279 2.82294E-03-4.90679E-04-1.14174E-14
 -1      2280 3.18111E-03-5.28991E-04-1.42824E-14
 -1      2281 3.32272E-03-5.28516E-04-1.55507E-14
 -1      2282 3.10673E-03-4.92142E-04-1.37444E-14
 -1      2283 3.46452E-03-5.27538E-04-1.68698E-14
 -1      2284 3.60649E-03-5.26104E-04-1.82384E-14
 -1      2285 3.39089E-03-4.91167E-04-1.62767E-14
 -1      2286 3.74866E-03-5.24263E-04-1.96564E-14
 -1      2287 3.89102E-03-5.22047E-04-2.11246E-14
 -1      2288 3.67551E-03-4.88286E-04-1.90102E-14
 -1      2289 4.03360E-03-5.19484E-04-2.26407E-14
 -1      2290 4.17641E-03-5.16600E-04-2.42053E-14
 -1      2291 3.96066E-03-4.83850E-04-2.19401E-14
 -1      2292 4.31946E-03-5.13407E-04-2.58182E-14
 -1      2293 4.46277E-03-5.09929E-04-2.74766E-14
 -1      2294 4.24644E-03-4.78081E-04-2.50629E-14
 -1      2295 4.60636E-03-5.06175E-04-2.91817E-14
 -1      2296 4.75025E-03-5.02170E-04-3.09336E-14
 -1      2297 4.53292E-03-4.71125E-04-2.83745E-14
 -1      2298 4.89446E-03-4.97927E-04-3.27301E-14
 -1      2299 5.03905E-03-4.93480E-04-3.45703E-14
 -1      2300 4.82024E-03-4.63107E-04-3.18695E-14
 -1      2301 5.18401E-03-4.88859E-04-3.64551E-14
 -1      2302 5.32942E-03-4.84115E-04-3.83839E-14
 -1      2303 5.10856E-03-4.54189E-04-3.55437E-14
 -1      2304 5.47528E-03-4.79306E-04-4.03565E-14
 -1      2305 5.62169E-03-4.74508E-04-4.23728E-14
 -1      2306 5.39809E-03-4.44640E-04-3.93939E-14
 -1      2307 5.76863E-03-4.69827E-04-4.44322E-14
 -1      2308 5.91623E-03-4.65377E-04-4.65344E-14
 -1      2309 5.68908E-03-4.34923E-04-4.34188E-14
 -1      2310 6.06449E-03-4.61329E-04-4.86779E-14
 -1      2311 6.21354E-03-4.57849E-04-5.08642E-14
 -1      2312 5.98190E-03-4.25797E-04-4.76152E-14
 -1      2313 6.36339E-03-4.55192E-04-5.30938E-14
 -1      2314 6.51418E-03-4.53597E-04-5.53632E-14
 -1      2315 6.27700E-03-4.18437E-04-5.19801E-14
 -1      2316 6.66596E-03-4.53417E-04-5.76752E-14
 -1      2317 6.81883E-03-4.54985E-04-6.00254E-14
 -1      2318 6.57503E-03-4.14576E-04-5.65120E-14
 -1      2319 6.97293E-03-4.58750E-04-6.24140E-14
 -1      2320 7.12830E-03-4.65161E-04-6.48410E-14
 -1      2321 6.87684E-03-4.16639E-04-6.12032E-14
 -1      2322 7.28518E-03-4.74732E-04-6.73058E-14
 -1      2323 7.44348E-03-4.88027E-04-6.98069E-14
 -1      2324 7.18359E-03-4.27846E-04-6.60474E-14
 -1      2325 7.60359E-03-5.05544E-04-7.23445E-14
 -1      2326 7.76517E-03-5.27914E-04-7.49185E-14
 -1      2327 7.49677E-03-4.52207E-04-7.10393E-14
 -1      2328 7.92877E-03-5.55465E-04-7.75254E-14
 -1      2329 8.09367E-03-5.88702E-04-8.01680E-14
 -1      2330 7.81795E-03-4.94261E-04-7.61725E-14
 -1      2331 8.26046E-03-6.27545E-04-8.28469E-14
 -1      2332 8.42793E-03-6.71975E-04-8.55631E-14
 -1      2333 8.14820E-03-5.58231E-04-8.14474E-14
 -1      2334 8.59651E-03-7.21192E-04-8.83155E-14
 -1      2335 8.76462E-03-7.74041E-04-9.11029E-14
 -1      2336 8.48675E-03-6.46048E-04-8.68670E-14
 -1      2337 8.93229E-03-8.28719E-04-9.39273E-14
 -1      2338 9.09807E-03-8.82355E-04-9.67862E-14
 -1      2339 8.82962E-03-7.53760E-04-9.24306E-14
 -1      2340 9.26145E-03-9.32327E-04-9.96810E-14
 -1      2341 9.42236E-03-9.74217E-04-1.02613E-13
 -1      2342 9.16923E-03-8.66800E-04-9.81381E-14
 -1      2343 9.58000E-03-1.00530E-03-1.05581E-13
 -1      2344 9.73642E-03-1.02213E-03-1.08584E-13
 -1      2345 9.49821E-03-9.57656E-04-1.03990E-13
 -1      2346 9.89074E-03-1.02323E-03-1.11623E-13
 -1      2347 1.00464E-02-1.00793E-03-1.14697E-13
 -1      2348 9.81629E-03-9.95253E-04-1.09988E-13
 -1      2349 1.02025E-02-9.77205E-04-1.17805E-13
 -1      2350 1.03619E-02-9.33879E-04-1.20945E-13
 -1      2351 1.01325E-02-9.62473E-04-1.16131E-13
 -1      2352 1.05236E-02-8.80354E-04-1.24116E-13
 -1      2353 1.06880E-02-8.21168E-04-1.27318E-13
 -1      2354 1.04578E-02-8.69078E-04-1.22405E-13
 -1      2355 1.08546E-02-7.59172E-04-1.30551E-13
 -1      2356 1.10221E-02-6.97623E-04-1.33810E-13
 -1      2357 1.07948E-02-7.44196E-04-1.28804E-13
 -1      2358 1.11906E-02-6.38586E-04-1.37094E-13
 -1      2359 1.13582E-02-5.83769E-04-1.40408E-13
 -1      2360 1.11373E-02-6.17980E-04-1.35320E-13
 -1      2361 1.15255E-02-5.34219E-04-1.43743E-13
 -1      2362 1.16909E-02-4.90178E-04-1.47102E-13
 -1      2363 1.14773E-02-5.08638E-04-1.41940E-13
 -1      2364 1.18551E-02-4.51899E-04-1.50487E-13
 -1      2365 1.20172E-02-4.18955E-04-1.53889E-13
 -1      2366 1.18097E-02-4.22817E-04-1.48660E-13
 -1      2367 1.21778E-02-3.91091E-04-1.57311E-13
 -1      2368 1.23365E-02-3.67672E-04-1.60751E-13
 -1      2369 1.21328E-02-3.59671E-04-1.55463E-13
 -1      2370 1.24937E-02-3.48200E-04-1.64211E-13
 -1      2371 1.26492E-02-3.32060E-04-1.67690E-13
 -1      2372 1.24474E-02-3.15244E-04-1.62343E-13
 -1      2373 1.28033E-02-3.18690E-04-1.71181E-13
 -1      2374 1.29561E-02-3.07576E-04-1.74685E-13
 -1      2375 1.27549E-02-2.84784E-04-1.69291E-13
 -1      2376 1.31076E-02-2.98192E-04-1.78202E-13
 -1      2377 1.32580E-02-2.90128E-04-1.81731E-13
 -1      2378 1.30569E-02-2.63822E-04-1.76295E-13
 -1      2379 1.34074E-02-2.82935E-04-1.85267E-13
 -1      2380 1.35558E-02-2.76289E-04-1.88810E-13
 -1      2381 1.33546E-02-2.48546E-04-1.83346E-13
 -1      2382 1.37033E-02-2.69828E-04-1.92357E-13
 -1      2383 1.38501E-02-2.63288E-04-1.95914E-13
 -1      2384 1.36489E-02-2.35847E-04-1.90427E-13
 -1      2385 1.39961E-02-2.56388E-04-1.99476E-13
 -1      2386 1.41414E-02-2.48906E-04-2.03043E-13
 -1      2387 1.39405E-02-2.23228E-04-1.97534E-13
 -1      2388 1.86453E-03 5.24185E-04-4.17681E-15
 -1      2389 1.72435E-03 5.11691E-04-3.53789E-15
 -1      2390 2.14454E-03 5.42797E-04-5.61642E-15
 -1      2391 2.00458E-03 5.34495E-04-4.86964E-15
 -1      2392 1.92405E-03 4.93443E-04-4.65070E-15
 -1      2393 2.42456E-03 5.54665E-04-7.26861E-15
 -1      2394 2.28453E-03 5.49472E-04-6.41619E-15
 -1      2395 2.20612E-03 5.09982E-04-6.15655E-15
 -1      2396 2.70501E-03 5.61527E-04-9.13072E-15
 -1      2397 2.56472E-03 5.58644E-04-8.17371E-15
 -1      2398 2.48808E-03 5.20302E-04-7.87224E-15
 -1      2399 2.98614E-03 5.64659E-04-1.11994E-14
 -1      2400 2.84549E-03 5.63501E-04-1.01395E-14
 -1      2401 2.77027E-03 5.26002E-04-9.79585E-15
 -1      2402 3.26808E-03 5.64979E-04-1.34700E-14
 -1      2403 3.12701E-03 5.65128E-04-1.23096E-14
 -1      2404 3.05289E-03 5.28253E-04-1.19243E-14
 -1      2405 3.55094E-03 5.63128E-04-1.59399E-14
 -1      2406 3.40940E-03 5.64294E-04-1.46798E-14
 -1      2407 3.33608E-03 5.27894E-04-1.42528E-14
 -1      2408 3.83479E-03 5.59534E-04-1.86066E-14
 -1      2409 3.69274E-03 5.61527E-04-1.72490E-14
 -1      2410 3.61995E-03 5.25501E-04-1.67792E-14
 -1      2411 4.11971E-03 5.54472E-04-2.14669E-14
 -1      2412 3.97711E-03 5.57171E-04-2.00120E-14
 -1      2413 3.90457E-03 5.21457E-04-1.95018E-14
 -1      2414 4.40582E-03 5.48111E-04-2.45176E-14
 -1      2415 4.26260E-03 5.51442E-04-2.29692E-14
 -1      2416 4.19004E-03 5.15998E-04-2.24167E-14
 -1      2417 4.69332E-03 5.40570E-04-2.77539E-14
 -1      2418 4.54938E-03 5.44476E-04-2.61128E-14
 -1      2419 4.47647E-03 5.09270E-04-2.55207E-14
 -1      2420 4.98243E-03 5.31971E-04-3.11720E-14
 -1      2421 4.83765E-03 5.36388E-04-2.94401E-14
 -1      2422 4.76401E-03 5.01379E-04-2.88084E-14
 -1      2423 5.27348E-03 5.22514E-04-3.47693E-14
 -1      2424 5.12768E-03 5.27328E-04-3.29491E-14
 -1      2425 5.05286E-03 4.92449E-04-3.22773E-14
 -1      2426 5.56688E-03 5.12551E-04-3.85451E-14
 -1      2427 5.41984E-03 5.17561E-04-3.66342E-14
 -1      2428 5.34328E-03 4.82694E-04-3.59244E-14
 -1      2429 5.86310E-03 5.02704E-04-4.24974E-14
 -1      2430 5.71458E-03 5.07558E-04-4.04997E-14
 -1      2431 5.63560E-03 4.72502E-04-3.97487E-14
 -1      2432 6.16275E-03 4.94003E-04-4.66227E-14
 -1      2433 6.01243E-03 4.98127E-04-4.45389E-14
 -1      2434 5.93022E-03 4.62549E-04-4.37495E-14
 -1      2435 6.46648E-03 4.88069E-04-5.09142E-14
 -1      2436 6.31403E-03 4.90568E-04-4.87482E-14
 -1      2437 6.22763E-03 4.53942E-04-4.79210E-14
 -1      2438 6.77504E-03 4.87323E-04-5.53625E-14
 -1      2439 6.62009E-03 4.86872E-04-5.31191E-14
 -1      2440 6.52844E-03 4.48401E-04-5.22545E-14
 -1      2441 7.08925E-03 4.95209E-04-5.99616E-14
 -1      2442 6.93139E-03 4.89944E-04-5.76432E-14
 -1      2443 6.83345E-03 4.48464E-04-5.67430E-14
 -1      2444 7.40997E-03 5.16334E-04-6.47057E-14
 -1      2445 7.24878E-03 5.03799E-04-6.23158E-14
 -1      2446 7.14369E-03 4.57706E-04-6.13810E-14
 -1      2447 7.73796E-03 5.56351E-04-6.95900E-14
 -1      2448 7.57312E-03 5.33602E-04-6.71313E-14
 -1      2449 7.46054E-03 4.80876E-04-6.61653E-14
 -1      2450 8.07365E-03 6.21234E-04-7.46077E-14
 -1      2451 7.90505E-03 5.85318E-04-7.20821E-14
 -1      2452 7.78564E-03 5.23808E-04-7.10864E-14
 -1      2453 8.41639E-03 7.15425E-04-7.97609E-14
 -1      2454 8.24454E-03 6.64474E-04-7.71675E-14
 -1      2455 8.12052E-03 5.92711E-04-7.61417E-14
 -1      2456 8.76336E-03 8.38247E-04-8.50519E-14
 -1      2457 8.59000E-03 7.73651E-04-8.23882E-14
 -1      2458 8.46557E-03 6.92393E-04-8.13300E-14
 -1      2459 9.10866E-03 9.78306E-04-9.04903E-14
 -1      2460 8.93691E-03 9.07313E-04-8.77521E-14
 -1      2461 8.81802E-03 8.21884E-04-8.66582E-14
 -1      2462 9.44492E-03 1.11067E-03-9.60805E-14
 -1      2463 9.27831E-03 1.04780E-03-9.32662E-14
 -1      2464 9.17034E-03 9.68229E-04-9.21340E-14
 -1      2465 9.76847E-03 1.19942E-03-1.01830E-13
 -1      2466 9.60762E-03 1.16279E-03-9.89352E-14
 -1      2467 9.51272E-03 1.10136E-03-9.77642E-14
 -1      2468 1.00851E-02 1.21579E-03-1.07745E-13
 -1      2469 9.92634E-03 1.21774E-03-1.04766E-13
 -1      2470 9.84177E-03 1.18003E-03-1.03555E-13
 -1      2471 1.04055E-02 1.15617E-03-1.13832E-13
 -1      2472 1.02432E-02 1.19416E-03-1.10768E-13
 -1      2473 1.01654E-02 1.17527E-03-1.09515E-13
 -1      2474 1.07387E-02 1.04614E-03-1.20086E-13
 -1      2475 1.05704E-02 1.10513E-03-1.16939E-13
 -1      2476 1.04974E-02 1.09231E-03-1.15648E-13
 -1      2477 1.10821E-02 9.21343E-04-1.26497E-13
 -1      2478 1.09097E-02 9.83455E-04-1.23273E-13
 -1      2479 1.08436E-02 9.67744E-04-1.21946E-13
 -1      2480 1.14287E-02 8.10108E-04-1.33047E-13
 -1      2481 1.12558E-02 8.62854E-04-1.29754E-13
 -1      2482 1.11966E-02 8.40364E-04-1.28395E-13
 -1      2483 1.17719E-02 7.26304E-04-1.39717E-13
 -1      2484 1.16013E-02 7.64510E-04-1.36368E-13
 -1      2485 1.15469E-02 7.35580E-04-1.34978E-13
 -1      2486 1.21082E-02 6.72055E-04-1.46494E-13
 -1      2487 1.19412E-02 6.95665E-04-1.43094E-13
 -1      2488 1.18884E-02 6.61805E-04-1.41675E-13
 -1      2489 1.24365E-02 6.43494E-04-1.53357E-13
 -1      2490 1.22735E-02 6.54915E-04-1.49916E-13
 -1      2491 1.22194E-02 6.17474E-04-1.48473E-13
 -1      2492 1.27571E-02 6.34614E-04-1.60288E-13
 -1      2493 1.25978E-02 6.36967E-04-1.56815E-13
 -1      2494 1.25408E-02 5.97019E-04-1.55351E-13
 -1      2495 1.30707E-02 6.39378E-04-1.67269E-13
 -1      2496 1.29148E-02 6.35615E-04-1.63771E-13
 -1      2497 1.28543E-02 5.94038E-04-1.62294E-13
 -1      2498 1.33781E-02 6.52631E-04-1.74290E-13
 -1      2499 1.32251E-02 6.45205E-04-1.70777E-13
 -1      2500 1.31613E-02 6.02739E-04-1.69283E-13
 -1      2501 1.36801E-02 6.70271E-04-1.81333E-13
 -1      2502 1.35297E-02 6.61108E-04-1.77810E-13
 -1      2503 1.34632E-02 6.18387E-04-1.76305E-13
 -1      2504 1.39775E-02 6.89127E-04-1.88388E-13
 -1      2505 1.38293E-02 6.79708E-04-1.84860E-13
 -1      2506 1.37608E-02 6.37284E-04-1.83351E-13
 -1      2507 1.42711E-02 7.06754E-04-1.95450E-13
 -1      2508 1.41247E-02 6.98227E-04-1.91918E-13
 -1      2509 1.40550E-02 6.56581E-04-1.90407E-13
 -1      2510 1.45614E-02 7.21281E-04-2.02523E-13
 -1      2511 1.44166E-02 7.14511E-04-1.98985E-13
 -1      2512 1.43461E-02 6.74057E-04-1.97472E-13
 -1      2513 1.47103E-02 7.28145E-04-2.06172E-13
 -1      2514 1.46544E-02 4.21083E-04-2.06428E-13
 -1      2515 1.46522E-02 4.57077E-04-2.06161E-13
 -1      2516 1.46551E-02 3.50810E-04-2.06953E-13
 -1      2517 1.46555E-02 3.85718E-04-2.06693E-13
 -1      2518 1.45342E-02 3.96974E-04-2.03485E-13
 -1      2519 1.46415E-02 5.67944E-04-2.05338E-13
 -1      2520 1.46377E-02 6.06833E-04-2.05053E-13
 -1      2521 1.46491E-02 4.93403E-04-2.05889E-13
 -1      2522 1.46454E-02 5.30138E-04-2.05616E-13
 -1      2523 1.45206E-02 5.43031E-04-2.02406E-13
 -1      2524 1.45289E-02 4.68749E-04-2.02953E-13
 -1      2525 1.46491E-02 2.82103E-04-2.07459E-13
 -1      2526 1.46530E-02 3.16346E-04-2.07210E-13
 -1      2527 1.45340E-02 3.27103E-04-2.04002E-13
 -1      2528 1.46353E-02 2.13995E-04-2.07950E-13
 -1      2529 1.46432E-02 2.48069E-04-2.07707E-13
 -1      2530 1.45264E-02 2.58570E-04-2.04502E-13
 -1      2531 1.46137E-02 1.45461E-04-2.08410E-13
 -1      2532 1.46255E-02 1.79873E-04-2.08183E-13
 -1      2533 1.45106E-02 1.90356E-04-2.04980E-13
 -1      2534 1.45855E-02 7.67513E-05-2.08843E-13
 -1      2535 1.46004E-02 1.11347E-04-2.08628E-13
 -1      2536 1.44869E-02 1.22013E-04-2.05429E-13
 -1      2537 1.45516E-02 4.72843E-06-2.09265E-13
 -1      2538 1.45691E-02 4.10618E-05-2.09056E-13
 -1      2539 1.44563E-02 5.20588E-05-2.05857E-13
 -1      2540 1.45145E-02-6.99667E-05-2.09665E-13
 -1      2541 1.45333E-02-3.22578E-05-2.09467E-13
 -1      2542 1.44205E-02-2.08408E-05-2.06271E-13
 -1      2543 1.44769E-02-1.47588E-04-2.10053E-13
 -1      2544 1.44956E-02-1.08414E-04-2.09860E-13
 -1      2545 1.43821E-02-9.65620E-05-2.06669E-13
 -1      2546 1.21515E-02 1.33466E-04-1.30319E-13
 -1      2547 1.21851E-02 1.23708E-04-1.30438E-13
 -1      2548 1.15617E-02 3.35831E-04-1.25439E-13
 -1      2549 1.17398E-02 2.62670E-04-1.26806E-13
 -1      2550 1.58389E-03 4.96473E-04-2.95366E-15
 -1      2551 1.44301E-03 4.78321E-04-2.42331E-15
 -1      2552 1.64138E-03 4.68535E-04-3.35924E-15
 -1      2553 1.04459E-02 9.49192E-04-1.13938E-13
 -1      2554 1.06147E-02 8.53502E-04-1.15984E-13
 -1      2555 1.45234E-02-2.12906E-04-2.12330E-13
 -1      2556 1.20786E-02 8.62514E-05-1.30198E-13
 -1      2557 1.19743E-02 6.02659E-05-1.30011E-13
 -1      2558 1.19026E-02 2.03524E-04-1.28056E-13
 -1      2559 1.20382E-02 1.65127E-04-1.29312E-13
 -1      2560 1.18334E-02 2.33324E-04-1.28898E-13
 -1      2561 1.21791E-02 1.12713E-04-1.30392E-13
 -1      2562 1.21464E-02 1.04777E-04-1.30244E-13
 -1      2563 1.21304E-02 9.96447E-05-1.32037E-13
 -1      2564 1.22001E-02 1.20982E-04-1.32132E-13
 -1      2565 9.43203E-03-7.80006E-04-1.03623E-13
 -1      2566 9.26762E-03-6.91956E-04-1.01552E-13
 -1      2567 5.46833E-04-2.29167E-05-7.30725E-16
 -1      2568 5.47279E-04-3.89676E-05-7.32284E-16
 -1      2569 6.62782E-04-5.58382E-05-9.90785E-16
 -1      2570 6.61579E-04-1.77132E-05-9.86909E-16
 -1      2571 9.81528E-03 1.08383E-03-1.05073E-13
 -1      2572 9.97173E-03 1.09701E-03-1.07376E-13
 -1      2573 8.64771E-03-3.39012E-04-9.56659E-14
 -1      2574 8.46052E-03-2.41745E-04-9.43241E-14
 -1      2575 1.01353E-02 1.07320E-03-1.09701E-13
 -1      2576 1.02676E-02 1.02861E-03-1.11558E-13
 -1      2577 9.47989E-03 9.57810E-04-1.00859E-13
 -1      2578 9.61986E-03 1.02534E-03-1.02508E-13
 -1      2579 9.17952E-03 7.84568E-04-9.77675E-14
 -1      2580 9.33301E-03 8.78601E-04-9.93064E-14
 -1      2581 9.40585E-03 9.21537E-04-9.94658E-14
 -1      2582 8.76812E-03 5.36194E-04-9.41501E-14
 -1      2583 8.96594E-03 6.55132E-04-9.56781E-14
 -1      2584 8.36436E-03 3.24523E-04-9.17191E-14
 -1      2585 8.54110E-03 4.12634E-04-9.27240E-14
 -1      2586 8.02741E-03 1.83240E-04-8.96697E-14
 -1      2587 8.18947E-03 2.45684E-04-9.06904E-14
 -1      2588 8.27020E-03 2.82043E-04-8.99177E-14
 -1      2589 7.74067E-03 9.55044E-05-8.88617E-14
 -1      2590 7.83986E-03 1.20131E-04-8.88909E-14
 -1      2591 7.63746E-03 6.80297E-05-8.81703E-14
 -1      2592 7.67469E-03 7.67369E-05-8.85157E-14
 -1      2593 7.68436E-03 8.04475E-05-8.70112E-14
 -1      2594 7.92958E-03-2.24023E-05-9.08678E-14
 -1      2595 7.82260E-03 8.53478E-06-9.01398E-14
 -1      2596 1.03636E-02-7.46784E-04-1.16634E-13
 -1      2597 1.02283E-02-8.14104E-04-1.14995E-13
 -1      2598 8.25619E-03-1.47318E-04-9.29686E-14
 -1      2599 8.08123E-03-7.70506E-05-9.19135E-14
 -1      2600 7.99895E-03-4.94318E-05-9.01667E-14
 -1      2601 9.04440E-03-5.66282E-04-9.90717E-14
 -1      2602 8.86285E-03-4.57844E-04-9.73862E-14
 -1      2603 9.70873E-03-8.79397E-04-1.07459E-13
 -1      2604 9.58882E-03-8.43512E-04-1.05737E-13
 -1      2605 1.00243E-02-8.80280E-04-1.12163E-13
 -1      2606 9.86500E-03-8.96718E-04-1.09731E-13
 -1      2607 1.06730E-02-5.70745E-04-1.20109E-13
 -1      2608 1.05152E-02-6.66154E-04-1.18366E-13
 -1      2609 1.04542E-02-7.01249E-04-1.18429E-13
 -1      2610 1.10061E-02-3.73554E-04-1.23327E-13
 -1      2611 1.08371E-02-4.74283E-04-1.21713E-13
 -1      2612 1.07479E-02-5.27724E-04-1.21781E-13
 -1      2613 1.14092E-02-1.59200E-04-1.26696E-13
 -1      2614 1.12346E-02-2.46969E-04-1.25490E-13
 -1      2615 1.17858E-02-2.04797E-06-1.29103E-13
 -1      2616 1.16034E-02-7.21353E-05-1.27898E-13
 -1      2617 1.15232E-02-1.10037E-04-1.28949E-13
 -1      2618 5.88388E-04-2.38053E-04-6.08956E-16
 -1      2619 7.81110E-04-3.04860E-04-9.65712E-16
 -1      2620 8.40617E-04-2.93611E-04-1.17655E-15
 -1      2621 5.78879E-04-2.10231E-04-6.44626E-16
 -1      2622 7.57609E-04 3.34227E-04-6.27238E-16
 -1      2623 6.11251E-04 2.84896E-04-4.12905E-16
 -1      2624 5.84569E-04 2.58139E-04-4.28802E-16
 -1      2625 8.13479E-04 3.22891E-04-8.22544E-16
 -1      2626 1.11641E-02 5.35139E-04-1.21773E-13
 -1      2627 1.13361E-02 4.43497E-04-1.23445E-13
 -1      2628 1.00493E-02 1.09455E-03-1.08453E-13
 -1      2629 6.70342E-04-1.38022E-04-9.67528E-16
 -1      2630 5.54668E-04-1.26291E-04-7.08526E-16
 -1      2631 5.57834E-04-1.46269E-04-6.94716E-16
 -1      2632 1.35742E-03 4.32393E-04-2.28294E-15
 -1      2633 5.72127E-04 2.27955E-04-4.80220E-16
 -1      2634 1.10702E-02 5.92494E-04-1.21668E-13
 -1      2635 1.18951E-02 3.33510E-05-1.31075E-13
 -1      2636 1.46396E-02 6.89220E-04-2.04657E-13
 -1      2637 1.14630E-02 3.88151E-04-1.25633E-13
 -1      2638 1.46255E-02 6.56705E-04-2.04490E-13
 -1      2639 9.14921E-03-6.34512E-04-9.97677E-14
 -1      2640 1.21152E-02 1.46788E-04-1.31168E-13
 -1      2641 1.21747E-02 1.39959E-04-1.33030E-13
 -1      2642 1.20697E-02 1.65185E-04-1.32017E-13
 -1      2643 1.11233E-02-3.10568E-04-1.25559E-13
 -1      2644 6.89418E-04 2.51288E-04-7.01059E-16
 -1      2645 1.03695E-02 9.91273E-04-1.13165E-13
 -1      2646 1.43675E-02-2.37916E-04-2.08667E-13
 -1      2647 1.44359E-02-1.83592E-04-2.09585E-13
 -1      2648 1.43211E-02-1.71195E-04-2.06397E-13
 -1      2649 1.42389E-02-2.44237E-04-2.05461E-13
 -1      2650 9.50276E-03-8.16785E-04-1.04355E-13
 -1      2651 1.01204E-02-8.59415E-04-1.13845E-13
 -1      2652 1.00312E-02-8.88365E-04-1.12694E-13
 -1      2653 1.02117E-02-8.27484E-04-1.15535E-13
 -1      2654 9.79507E-03-8.96889E-04-1.08738E-13
 -1      2655 8.33979E-03-1.88792E-04-9.25445E-14
 -1      2656 7.62376E-03 6.01879E-05-8.75452E-14
 -1      2657 7.60806E-03 6.20726E-05-8.60441E-14
 -1      2658 7.62378E-03 5.52061E-05-8.69195E-14
 -1      2659 7.91360E-03 1.42462E-04-8.81267E-14
 -1      2660 7.98481E-03 1.72270E-04-8.73600E-14
 -1      2661 7.81515E-03 1.17932E-04-8.65931E-14
 -1      2662 9.06552E-03 7.18711E-04-9.58352E-14
 -1      2663 7.74542E-03 2.70723E-05-8.87813E-14
 -1      2664 1.07115E-02 8.03323E-04-1.17631E-13
 -1      2665 8.73757E-03-3.95240E-04-9.55950E-14
 -1      2666 5.64288E-04-1.65034E-04-6.85527E-16
 -1      2667 5.69673E-04-1.88100E-04-6.62827E-16
 -1      2668 6.97762E-04-2.27809E-04-9.11977E-16
 -1      2669 6.80736E-04-1.81732E-04-9.43554E-16
 -1      2670 9.72511E-03 1.06524E-03-1.03564E-13
 -1      2671 8.65231E-03 4.74902E-04-9.23489E-14
 -1      2672 1.45029E-02 6.30824E-04-2.01569E-13
 -1      2673 1.41827E-02-2.12055E-04-2.03511E-13
 -1      2674 7.80505E-04 7.73460E-05-1.23611E-15
 -1      2675 7.79267E-04 5.54807E-05-1.25185E-15
 -1      2676 7.78436E-04 3.35649E-05-1.26505E-15
 -1      2677 7.78021E-04 1.18973E-05-1.27547E-15
 -1      2678 8.96892E-04 4.96743E-05-1.59326E-15
 -1      2679 7.91673E-04 1.73156E-04-1.13618E-15
 -1      2680 7.87724E-04 1.47739E-04-1.16758E-15
 -1      2681 8.03403E-04 2.28354E-04-1.05676E-15
 -1      2682 7.96851E-04 1.99963E-04-1.09990E-15
 -1      2683 9.14961E-04 2.07810E-04-1.42528E-15
 -1      2684 1.12959E-03 3.61816E-04-1.69839E-15
 -1      2685 9.86016E-04 3.32832E-04-1.31304E-15
 -1      2686 1.02878E-02 1.03906E-03-1.12157E-13
 -1      2687 1.04442E-02 9.67044E-04-1.14544E-13
 -1      2688 8.02955E-04 2.78258E-04-9.29581E-16
 -1      2689 1.20044E-02 5.99283E-05-1.33697E-13
 -1      2690 1.18380E-02 7.11453E-06-1.32774E-13
 -1      2691 1.31999E-03-3.62482E-04-2.74496E-15
 -1      2692 1.46321E-03-3.81318E-04-3.31950E-15
 -1      2693 1.60624E-03-3.97219E-04-3.94930E-15
 -1      2694 1.74918E-03-4.10413E-04-4.63440E-15
 -1      2695 1.52494E-03-3.54922E-04-3.67999E-15
 -1      2696 1.89195E-03-4.21361E-04-5.37404E-15
 -1      2697 2.03461E-03-4.30246E-04-6.16792E-15
 -1      2698 1.81164E-03-3.80404E-04-5.05437E-15
 -1      2699 2.17717E-03-4.37435E-04-7.01590E-15
 -1      2700 2.31965E-03-4.43075E-04-7.91707E-15
 -1      2701 2.09812E-03-3.97657E-04-6.64463E-15
 -1      2702 2.46209E-03-4.47446E-04-8.87112E-15
 -1      2703 2.60449E-03-4.50664E-04-9.87753E-15
 -1      2704 2.38434E-03-4.08648E-04-8.44734E-15
 -1      2705 2.74690E-03-4.52933E-04-1.09370E-14
 -1      2706 2.88929E-03-4.54342E-04-1.20482E-14
 -1      2707 2.67034E-03-4.14935E-04-1.04603E-14
 -1      2708 3.03172E-03-4.55039E-04-1.32104E-14
 -1      2709 3.17418E-03-4.55088E-04-1.44235E-14
 -1      2710 2.95619E-03-4.17698E-04-1.26800E-14
 -1      2711 3.31668E-03-4.54590E-04-1.56877E-14
 -1      2712 3.45923E-03-4.53592E-04-1.70032E-14
 -1      2713 3.24198E-03-4.17806E-04-1.51040E-14
 -1      2714 3.60184E-03-4.52160E-04-1.83675E-14
 -1      2715 3.74452E-03-4.50326E-04-1.97814E-14
 -1      2716 3.52774E-03-4.15870E-04-1.77291E-14
 -1      2717 3.88728E-03-4.48131E-04-2.12439E-14
 -1      2718 4.03012E-03-4.45596E-04-2.27546E-14
 -1      2719 3.81354E-03-4.12299E-04-2.05524E-14
 -1      2720 4.17305E-03-4.42745E-04-2.43127E-14
 -1      2721 4.31609E-03-4.39592E-04-2.59189E-14
 -1      2722 4.09940E-03-4.07358E-04-2.35683E-14
 -1      2723 4.45922E-03-4.36155E-04-2.75722E-14
 -1      2724 4.60248E-03-4.32444E-04-2.92703E-14
 -1      2725 4.38535E-03-4.01207E-04-2.67736E-14
 -1      2726 4.74587E-03-4.28476E-04-3.10142E-14
 -1      2727 4.88941E-03-4.24266E-04-3.28032E-14
 -1      2728 4.67145E-03-3.93959E-04-3.01645E-14
 -1      2729 5.03309E-03-4.19841E-04-3.46372E-14
 -1      2730 5.17697E-03-4.15225E-04-3.65146E-14
 -1      2731 4.95773E-03-3.85723E-04-3.37352E-14
 -1      2732 5.32102E-03-4.10465E-04-3.84365E-14
 -1      2733 5.46532E-03-4.05602E-04-4.04025E-14
 -1      2734 5.24425E-03-3.76665E-04-3.74843E-14
 -1      2735 5.60985E-03-4.00717E-04-4.24107E-14
 -1      2736 5.75469E-03-3.95880E-04-4.44633E-14
 -1      2737 5.53113E-03-3.67074E-04-4.14087E-14
 -1      2738 5.89984E-03-3.91216E-04-4.65580E-14
 -1      2739 6.04540E-03-3.86839E-04-4.86943E-14
 -1      2740 5.81854E-03-3.57440E-04-4.55051E-14
 -1      2741 6.19138E-03-3.82934E-04-5.08730E-14
 -1      2742 6.33792E-03-3.79679E-04-5.30939E-14
 -1      2743 6.10677E-03-3.48545E-04-4.97726E-14
 -1      2744 6.48506E-03-3.77326E-04-5.53554E-14
 -1      2745 6.63297E-03-3.76145E-04-5.76570E-14
 -1      2746 6.39633E-03-3.41575E-04-5.42052E-14
 -1      2747 6.78177E-03-3.76460E-04-5.99992E-14
 -1      2748 6.93166E-03-3.78670E-04-6.23775E-14
 -1      2749 6.68808E-03-3.38243E-04-5.87993E-14
 -1      2750 7.08286E-03-3.83156E-04-6.47947E-14
 -1      2751 7.23556E-03-3.90495E-04-6.72492E-14
 -1      2752 6.98338E-03-3.40931E-04-6.35499E-14
 -1      2753 7.39019E-03-4.01086E-04-6.97394E-14
 -1      2754 7.54684E-03-4.15726E-04-7.22662E-14
 -1      2755 7.28431E-03-3.52858E-04-6.84482E-14
 -1      2756 7.70613E-03-4.34760E-04-7.48282E-14
 -1      2757 7.86796E-03-4.59200E-04-7.74246E-14
 -1      2758 7.59378E-03-3.78253E-04-7.34898E-14
 -1      2759 8.03311E-03-4.89236E-04-8.00556E-14
 -1      2760 8.20090E-03-5.25812E-04-8.27221E-14
 -1      2761 7.91531E-03-4.22484E-04-7.86716E-14
 -1      2762 8.37212E-03-5.68788E-04-8.54261E-14
 -1      2763 8.54525E-03-6.18354E-04-8.81662E-14
 -1      2764 8.25184E-03-4.91607E-04-8.39934E-14
 -1      2765 8.72079E-03-6.73598E-04-9.09427E-14
 -1      2766 8.89616E-03-7.32889E-04-9.37542E-14
 -1      2767 8.60329E-03-5.89767E-04-8.94610E-14
 -1      2768 9.07112E-03-7.94497E-04-9.66007E-14
 -1      2769 9.24334E-03-8.52824E-04-9.94846E-14
 -1      2770 8.96309E-03-7.13899E-04-9.50706E-14
 -1      2771 9.41225E-03-9.04847E-04-1.02406E-13
 -1      2772 9.57777E-03-9.43669E-04-1.05364E-13
 -1      2773 9.31835E-03-8.42796E-04-1.00826E-13
 -1      2774 9.73858E-03-9.66439E-04-1.08359E-13
 -1      2775 9.89964E-03-9.68630E-04-1.11390E-13
 -1      2776 9.65742E-03-9.32192E-04-1.06732E-13
 -1      2777 1.00590E-02-9.50288E-04-1.14459E-13
 -1      2778 1.02226E-02-9.13153E-04-1.17562E-13
 -1      2779 9.98502E-03-9.39026E-04-1.12790E-13
 -1      2780 1.03889E-02-8.59692E-04-1.20696E-13
 -1      2781 1.05594E-02-7.97349E-04-1.23863E-13
 -1      2782 1.03194E-02-8.54825E-04-1.18988E-13
 -1      2783 1.07330E-02-7.29404E-04-1.27061E-13
 -1      2784 1.09079E-02-6.61426E-04-1.30289E-13
 -1      2785 1.06706E-02-7.16791E-04-1.25319E-13
 -1      2786 1.10838E-02-5.95758E-04-1.33548E-13
 -1      2787 1.12580E-02-5.35224E-04-1.36832E-13
 -1      2788 1.10304E-02-5.73556E-04-1.31775E-13
 -1      2789 1.14306E-02-4.80984E-04-1.40141E-13
 -1      2790 1.16000E-02-4.33162E-04-1.43476E-13
 -1      2791 1.13853E-02-4.51612E-04-1.38343E-13
 -1      2792 1.17668E-02-3.92065E-04-1.46833E-13
 -1      2793 1.19302E-02-3.56806E-04-1.50217E-13
 -1      2794 1.17263E-02-3.59445E-04-1.45011E-13
 -1      2795 1.20909E-02-3.27284E-04-1.53616E-13
 -1      2796 1.22487E-02-3.02451E-04-1.57034E-13
 -1      2797 1.20518E-02-2.93616E-04-1.51770E-13
 -1      2798 1.24043E-02-2.81971E-04-1.60474E-13
 -1      2799 1.25578E-02-2.64965E-04-1.63930E-13
 -1      2800 1.23643E-02-2.48124E-04-1.58607E-13
 -1      2801 1.27096E-02-2.51005E-04-1.67405E-13
 -1      2802 1.28599E-02-2.39432E-04-1.70889E-13
 -1      2803 1.26673E-02-2.17203E-04-1.65517E-13
 -1      2804 1.30090E-02-2.29809E-04-1.74388E-13
 -1      2805 1.31571E-02-2.21656E-04-1.77902E-13
 -1      2806 1.29638E-02-1.96095E-04-1.72486E-13
 -1      2807 1.33042E-02-2.14575E-04-1.81425E-13
 -1      2808 1.34507E-02-2.08217E-04-1.84957E-13
 -1      2809 1.32562E-02-1.81030E-04-1.79506E-13
 -1      2810 1.35965E-02-2.02237E-04-1.88497E-13
 -1      2811 1.37417E-02-1.96369E-04-1.92042E-13
 -1      2812 1.35459E-02-1.69037E-04-1.86565E-13
 -1      2813 1.38865E-02-1.90331E-04-1.95593E-13
 -1      2814 1.40308E-02-1.83908E-04-1.99151E-13
 -1      2815 1.38340E-02-1.57744E-04-1.93652E-13
 -1      2816 2.26885E-03 4.76522E-04-6.70414E-15
 -1      2817 2.12702E-03 4.70086E-04-5.89276E-15
 -1      2818 9.57526E-03-8.55181E-04-1.05287E-13
 -1      2819 9.43692E-03-7.98320E-04-1.03177E-13
 -1      2820 1.98511E-03 4.61967E-04-5.13424E-15
 -1      2821 1.84307E-03 4.52005E-04-4.42808E-15
 -1      2822 2.04747E-03 4.29904E-04-5.62663E-15
 -1      2823 2.83609E-03 4.90022E-04-1.04676E-14
 -1      2824 2.69425E-03 4.88171E-04-9.44959E-15
 -1      2825 3.11998E-03 4.91483E-04-1.26547E-14
 -1      2826 2.97800E-03 4.91101E-04-1.15361E-14
 -1      2827 2.90246E-03 4.53689E-04-1.11459E-14
 -1      2828 3.40424E-03 4.90530E-04-1.50415E-14
 -1      2829 3.26206E-03 4.91275E-04-1.38237E-14
 -1      2830 3.18743E-03 4.54438E-04-1.33921E-14
 -1      2831 3.68894E-03 4.87680E-04-1.76250E-14
 -1      2832 3.54653E-03 4.89319E-04-1.63087E-14
 -1      2833 3.47256E-03 4.52970E-04-1.58363E-14
 -1      2834 3.97416E-03 4.83266E-04-2.04036E-14
 -1      2835 3.83148E-03 4.85653E-04-1.89903E-14
 -1      2836 3.75791E-03 4.49738E-04-1.84761E-14
 -1      2837 4.25998E-03 4.77494E-04-2.33725E-14
 -1      2838 4.11699E-03 4.80540E-04-2.18634E-14
 -1      2839 4.04355E-03 4.45035E-04-2.13098E-14
 -1      2840 4.54650E-03 4.70487E-04-2.65286E-14
 -1      2841 4.40314E-03 4.74137E-04-2.49274E-14
 -1      2842 4.32953E-03 4.39033E-04-2.43322E-14
 -1      2843 4.83382E-03 4.62345E-04-2.98670E-14
 -1      2844 4.69004E-03 4.66551E-04-2.81752E-14
 -1      2845 4.61590E-03 4.31841E-04-2.75407E-14
 -1      2846 5.12210E-03 4.53198E-04-3.33869E-14
 -1      2847 4.97782E-03 4.57886E-04-3.16045E-14
 -1      2848 4.90274E-03 4.23554E-04-3.09309E-14
 -1      2849 5.41152E-03 4.43275E-04-3.70828E-14
 -1      2850 5.26664E-03 4.48313E-04-3.52127E-14
 -1      2851 5.19012E-03 4.14308E-04-3.45000E-14
 -1      2852 5.70233E-03 4.32998E-04-4.09569E-14
 -1      2853 5.55672E-03 4.38147E-04-3.89978E-14
 -1      2854 5.47817E-03 4.04351E-04-3.82459E-14
 -1      2855 5.99483E-03 4.23088E-04-4.50043E-14
 -1      2856 5.84832E-03 4.27942E-04-4.29591E-14
 -1      2857 5.76704E-03 3.94134E-04-4.21687E-14
 -1      2858 6.28945E-03 4.14709E-04-4.92207E-14
 -1      2859 6.14182E-03 4.18620E-04-4.70916E-14
 -1      2860 6.05694E-03 3.84408E-04-4.62626E-14
 -1      2861 6.58679E-03 4.09639E-04-5.35957E-14
 -1      2862 6.43771E-03 4.11628E-04-5.13890E-14
 -1      2863 6.34826E-03 3.76365E-04-5.05228E-14
 -1      2864 6.88773E-03 4.10471E-04-5.81266E-14
 -1      2865 6.73672E-03 4.09122E-04-5.58429E-14
 -1      2866 6.64161E-03 3.71793E-04-5.49414E-14
 -1      2867 7.19365E-03 4.20819E-04-6.28037E-14
 -1      2868 7.03997E-03 4.14174E-04-6.04462E-14
 -1      2869 6.93803E-03 3.73261E-04-5.95117E-14
 -1      2870 7.50654E-03 4.45489E-04-6.76271E-14
 -1      2871 7.34911E-03 4.30973E-04-6.51975E-14
 -1      2872 7.23931E-03 3.84335E-04-6.42298E-14
 -1      2873 7.82908E-03 4.90484E-04-7.25848E-14
 -1      2874 7.66653E-03 4.64937E-04-7.00886E-14
 -1      2875 7.54820E-03 4.09813E-04-6.90905E-14
 -1      2876 8.16413E-03 5.62471E-04-7.76772E-14
 -1      2877 7.99513E-03 5.22569E-04-7.51145E-14
 -1      2878 7.86861E-03 4.55972E-04-7.40872E-14
 -1      2879 8.51311E-03 6.67113E-04-8.28999E-14
 -1      2880 8.33723E-03 6.10322E-04-8.02710E-14
 -1      2881 8.20470E-03 5.30401E-04-7.92127E-14
 -1      2882 8.87408E-03 8.04022E-04-8.82658E-14
 -1      2883 8.69340E-03 7.32093E-04-8.55659E-14
 -1      2884 8.55965E-03 6.39958E-04-8.44718E-14
 -1      2885 9.23547E-03 9.58752E-04-9.37791E-14
 -1      2886 9.05575E-03 8.81071E-04-9.10040E-14
 -1      2887 8.93028E-03 7.86730E-04-8.98732E-14
 -1      2888 9.58528E-03 1.09486E-03-9.94476E-14
 -1      2889 9.41240E-03 1.03326E-03-9.65931E-14
 -1      2890 9.30126E-03 9.53465E-04-9.54228E-14
 -1      2891 9.91889E-03 1.16151E-03-1.05282E-13
 -1      2892 9.75224E-03 1.13981E-03-1.02344E-13
 -1      2893 9.65765E-03 1.09150E-03-1.01132E-13
 -1      2894 1.05953E-02 1.02151E-03-1.17463E-13
 -1      2895 1.04198E-02 1.08238E-03-1.14354E-13
 -1      2896 1.09547E-02 8.83495E-04-1.23807E-13
 -1      2897 1.07742E-02 9.52988E-04-1.20616E-13
 -1      2898 1.07038E-02 9.40837E-04-1.19284E-13
 -1      2899 1.13162E-02 7.57032E-04-1.30292E-13
 -1      2900 1.11368E-02 8.16764E-04-1.27032E-13
 -1      2901 1.10769E-02 7.93122E-04-1.25670E-13
 -1      2902 1.16677E-02 6.62007E-04-1.36906E-13
 -1      2903 1.14940E-02 7.05380E-04-1.33584E-13
 -1      2904 1.14427E-02 6.73316E-04-1.32193E-13
 -1      2905 1.20052E-02 6.00138E-04-1.43632E-13
 -1      2906 1.18385E-02 6.27318E-04-1.40256E-13
 -1      2907 1.17917E-02 5.91080E-04-1.38838E-13
 -1      2908 1.23297E-02 5.66364E-04-1.50448E-13
 -1      2909 1.21691E-02 5.80247E-04-1.47028E-13
 -1      2910 1.21227E-02 5.42089E-04-1.45588E-13
 -1      2911 1.26437E-02 5.53953E-04-1.57341E-13
 -1      2912 1.24879E-02 5.57961E-04-1.53886E-13
 -1      2913 1.24390E-02 5.18773E-04-1.52423E-13
 -1      2914 1.29500E-02 5.56486E-04-1.64291E-13
 -1      2915 1.27977E-02 5.53724E-04-1.60810E-13
 -1      2916 1.27451E-02 5.13823E-04-1.59328E-13
 -1      2917 1.32509E-02 5.68651E-04-1.71287E-13
 -1      2918 1.31010E-02 5.61647E-04-1.67785E-13
 -1      2919 1.30443E-02 5.21220E-04-1.66288E-13
 -1      2920 1.35477E-02 5.86247E-04-1.78315E-13
 -1      2921 1.33997E-02 5.76983E-04-1.74799E-13
 -1      2922 1.33392E-02 5.36272E-04-1.73289E-13
 -1      2923 1.38413E-02 6.06025E-04-1.85359E-13
 -1      2924 1.36948E-02 5.96026E-04-1.81835E-13
 -1      2925 1.36313E-02 5.55359E-04-1.80319E-13
 -1      2926 1.41325E-02 6.25470E-04-1.92417E-13
 -1      2927 1.39871E-02 6.15917E-04-1.88886E-13
 -1      2928 1.39212E-02 5.75680E-04-1.87366E-13
 -1      2929 1.43903E-02 6.32852E-04-1.98761E-13
 -1      2930 1.42461E-02 6.24462E-04-1.95226E-13
 -1      2931 1.41790E-02 5.85083E-04-1.93701E-13
 -1      2932 1.44042E-02 5.83050E-04-1.99319E-13
 -1      2933 1.13800E-02 4.43631E-04-1.26063E-13
 -1      2934 1.15814E-02 3.48608E-04-1.28077E-13
 -1      2935 1.44038E-02 2.34975E-04-2.01543E-13
 -1      2936 1.44096E-02 2.69013E-04-2.01299E-13
 -1      2937 1.41277E-02-1.80032E-04-2.01564E-13
 -1      2938 1.42245E-02-1.75808E-04-2.03979E-13
 -1      2939 1.40739E-02-1.48213E-04-1.99617E-13
 -1      2940 1.44145E-02 3.72435E-04-2.00543E-13
 -1      2941 1.44126E-02 4.07834E-04-2.00281E-13
 -1      2942 1.43857E-02 1.66835E-04-2.02008E-13
 -1      2943 1.43959E-02 2.00998E-04-2.01780E-13
 -1      2944 1.42814E-02 2.11556E-04-1.98583E-13
 -1      2945 1.44132E-02 3.03143E-04-2.01051E-13
 -1      2946 1.44148E-02 3.37607E-04-2.00798E-13
 -1      2947 1.42953E-02 3.47737E-04-1.97601E-13
 -1      2948 1.42928E-02 2.79201E-04-1.98102E-13
 -1      2949 1.43599E-02 9.88366E-05-2.02447E-13
 -1      2950 1.43737E-02 1.33045E-04-2.02231E-13
 -1      2951 1.42610E-02 1.44188E-04-1.99039E-13
 -1      2952 1.43267E-02 2.77336E-05-2.02872E-13
 -1      2953 1.43440E-02 6.35953E-05-2.02661E-13
 -1      2954 1.42322E-02 7.54286E-05-1.99472E-13
 -1      2955 1.42889E-02-4.59879E-05-2.03280E-13
 -1      2956 1.43082E-02-8.75492E-06-2.03077E-13
 -1      2957 1.41965E-02 3.77935E-06-1.99890E-13
 -1      2958 9.23512E-03-6.99456E-04-1.00345E-13
 -1      2959 9.03729E-03-5.85773E-04-9.78821E-14
 -1      2960 1.12199E-02-2.74773E-04-1.28207E-13
 -1      2961 1.10150E-02-3.85771E-04-1.26023E-13
 -1      2962 1.08690E-02-4.69102E-04-1.24389E-13
 -1      2963 1.07270E-02-5.55182E-04-1.22768E-13
 -1      2964 1.09914E-02-4.27068E-04-1.27018E-13
 -1      2965 8.98108E-03 6.81592E-04-9.38828E-14
 -1      2966 9.17099E-03 7.96357E-04-9.59509E-14
 -1      2967 7.76022E-03 1.62784E-05-8.72949E-14
 -1      2968 7.66983E-03 3.94808E-05-8.69493E-14
 -1      2969 9.62941E-03 1.03900E-03-1.01798E-13
 -1      2970 9.79998E-03 1.09375E-03-1.04351E-13
 -1      2971 1.17907E-02 2.63237E-04-1.30221E-13
 -1      2972 1.19337E-02 2.13182E-04-1.31488E-13
 -1      2973 1.70087E-03 4.39791E-04-3.77510E-15
 -1      2974 1.55843E-03 4.25121E-04-3.17567E-15
 -1      2975 1.76196E-03 4.10374E-04-4.20187E-15
 -1      2976 2.55243E-03 4.85389E-04-8.48296E-15
 -1      2977 2.41065E-03 4.81581E-04-7.56776E-15
 -1      2978 2.33262E-03 4.42552E-04-7.26045E-15
 -1      2979 2.61756E-03 4.50045E-04-9.10121E-15
 -1      2980 1.03357E-03-3.14157E-04-1.76360E-15
 -1      2981 1.17681E-03-3.40176E-04-2.22645E-15
 -1      2982 1.23838E-03-3.18870E-04-2.52480E-15
 -1      2983 1.41578E-03 4.07469E-04-2.62971E-15
 -1      2984 1.27276E-03 3.86574E-04-2.13706E-15
 -1      2985 1.18954E-03 3.41321E-04-1.98692E-15
 -1      2986 1.47596E-03 3.81756E-04-2.98798E-15
 -1      2987 1.09846E-02 6.55934E-04-1.21578E-13
 -1      2988 1.11510E-02 5.63220E-04-1.23547E-13
 -1      2989 7.84625E-04 1.23480E-04-1.19428E-15
 -1      2990 7.82278E-04 1.00040E-04-1.21726E-15
 -1      2991 8.99951E-04 9.94389E-05-1.55447E-15
 -1      2992 9.05599E-04 1.51576E-04-1.49982E-15
 -1      2993 7.82008E-04-9.79847E-05-1.28727E-15
 -1      2994 7.84278E-04-1.21342E-04-1.28048E-15
 -1      2995 1.42665E-02-1.40169E-04-2.04443E-13
 -1      2996 9.34417E-03 8.94550E-04-9.80818E-14
 -1      2997 9.46990E-03 9.66729E-04-9.96213E-14
 -1      2998 9.55645E-03 1.01879E-03-1.00389E-13
 -1      2999 9.23965E-03 8.55345E-04-9.60962E-14
 -1      3000 8.17971E-03 2.51675E-04-8.81245E-14
 -1      3001 8.33672E-03 3.20863E-04-8.91361E-14
 -1      3002 1.06459E-02 8.58979E-04-1.17394E-13
 -1      3003 1.08104E-02 7.57658E-04-1.19478E-13
 -1      3004 1.09118E-02 7.23231E-04-1.21335E-13
 -1      3005 7.63630E-03 7.48908E-05-8.52113E-14
 -1      3006 7.69667E-03 8.72768E-05-8.55528E-14
 -1      3007 9.85313E-03-9.08057E-04-1.09808E-13
 -1      3008 9.71834E-03-8.93590E-04-1.07535E-13
 -1      3009 9.64318E-03-8.85084E-04-1.06336E-13
 -1      3010 8.52458E-03 4.15853E-04-9.02997E-14
 -1      3011 8.72264E-03 5.27423E-04-9.17013E-14
 -1      3012 8.05349E-03-7.79869E-05-8.93752E-14
 -1      3013 7.91570E-03-3.15073E-05-8.83489E-14
 -1      3014 8.40300E-03-2.31007E-04-9.19708E-14
 -1      3015 8.22335E-03-1.47144E-04-9.06384E-14
 -1      3016 8.78631E-03-4.45854E-04-9.50459E-14
 -1      3017 8.60115E-03-3.39234E-04-9.33529E-14
 -1      3018 1.05872E-02-6.35778E-04-1.21005E-13
 -1      3019 1.04555E-02-7.13475E-04-1.19253E-13
 -1      3020 1.07207E-02-5.80274E-04-1.23600E-13
 -1      3021 7.99348E-04-2.55230E-04-1.14166E-15
 -1      3022 9.30626E-04-2.90758E-04-1.47042E-15
 -1      3023 9.92807E-04-2.75409E-04-1.71315E-15
 -1      3024 7.89245E-04-2.29276E-04-1.16301E-15
 -1      3025 1.16381E-02-7.21774E-05-1.31507E-13
 -1      3026 1.14688E-02-1.48210E-04-1.30287E-13
 -1      3027 9.99754E-03 1.11038E-03-1.07474E-13
 -1      3028 1.01372E-02 1.08738E-03-1.09804E-13
 -1      3029 1.02230E-02 1.07431E-03-1.11155E-13
 -1      3030 7.87277E-04-1.45492E-04-1.26989E-15
 -1      3031 7.91089E-04-1.70667E-04-1.25471E-15
 -1      3032 9.05123E-04-1.49050E-04-1.61481E-15
 -1      3033 8.95885E-04 1.00964E-06-1.61867E-15
 -1      3034 7.77991E-04-9.72332E-06-1.28326E-15
 -1      3035 7.78347E-04-3.13744E-05-1.28847E-15
 -1      3036 7.74041E-03 1.05961E-04-8.47940E-14
 -1      3037 1.05550E-02 9.26872E-04-1.16362E-13
 -1      3038 8.64785E-04 2.66558E-04-1.13714E-15
 -1      3039 1.21089E-02 8.87094E-05-1.34482E-13
 -1      3040 1.20741E-02 6.67449E-05-1.36195E-13
 -1      3041 1.42905E-02 4.17960E-04-1.97083E-13
 -1      3042 1.44094E-02 4.43518E-04-2.00018E-13
 -1      3043 1.44052E-02 4.79936E-04-1.99750E-13
 -1      3044 1.17870E-02-3.05790E-05-1.34125E-13
 -1      3045 9.31551E-03-7.56102E-04-1.01254E-13
 -1      3046 1.00399E-02 1.14667E-03-1.07673E-13
 -1      3047 9.95291E-03 1.12856E-03-1.06420E-13
 -1      3048 1.02104E-02 1.12188E-03-1.10690E-13
 -1      3049 1.12947E-02 5.10201E-04-1.25968E-13
 -1      3050 1.44073E-02 5.11915E-04-1.99672E-13
 -1      3051 1.44022E-02 5.49777E-04-1.99400E-13
 -1      3052 1.42904E-02 5.50753E-04-1.96591E-13
 -1      3053 1.42878E-02 4.85598E-04-1.96745E-13
 -1      3054 1.13617E-02-2.25039E-04-1.30750E-13
 -1      3055 8.88424E-03-5.24885E-04-9.56030E-14
 -1      3056 8.46463E-03-2.90305E-04-9.14281E-14
 -1      3057 1.42864E-02-1.01062E-04-2.04249E-13
 -1      3058 1.20373E-02 1.89108E-04-1.33351E-13
 -1      3059 1.21278E-02 1.75626E-04-1.35222E-13
 -1      3060 1.20138E-02 2.19179E-04-1.34686E-13
 -1      3061 1.21724E-02 1.03126E-04-1.34532E-13
 -1      3062 8.41141E-03 3.76744E-04-8.84953E-14
 -1      3063 1.17154E-02 3.14818E-04-1.30657E-13
 -1      3064 8.04779E-03 2.05629E-04-8.65873E-14
 -1      3065 8.10037E-03 2.43903E-04-8.58115E-14
 -1      3066 7.92692E-03 1.72902E-04-8.50601E-14
 -1      3067 7.79905E-03-7.96090E-06-8.65140E-14
 -1      3068 1.22311E-02 1.21570E-04-1.34632E-13
 -1      3069 1.22141E-02 1.15348E-04-1.34582E-13
 -1      3070 1.22193E-02 1.05928E-04-1.37040E-13
 -1      3071 7.61675E-03 4.45000E-05-8.54486E-14
 -1      3072 8.83649E-03 6.15279E-04-9.18060E-14
 -1      3073 7.79109E-04-5.31626E-05-1.29072E-15
 -1      3074 7.80303E-04-7.53551E-05-1.29035E-15
 -1      3075 8.99666E-04-9.70892E-05-1.63055E-15
 -1      3076 8.96761E-04-4.75232E-05-1.63102E-15
 -1      3077 8.11342E-03-1.19943E-04-8.88074E-14
 -1      3078 9.94635E-03-9.06415E-04-1.11470E-13
 -1      3079 7.57026E-03 6.05622E-05-8.39703E-14
 -1      3080 7.59742E-03 6.61677E-05-8.45906E-14
 -1      3081 7.58955E-03 7.26369E-05-8.31446E-14
 -1      3082 9.82921E-04 2.75745E-04-1.47481E-15
 -1      3083 1.22364E-02 1.42039E-04-1.36346E-13
 -1      3084 1.22408E-02 1.31288E-04-1.35489E-13
 -1      3085 1.22852E-02 1.26802E-04-1.37955E-13
 -1      3086 1.41239E-02-1.17837E-04-2.00342E-13
 -1      3087 1.42400E-02-7.53609E-05-2.02559E-13
 -1      3088 1.41278E-02-6.21024E-05-1.99374E-13
 -1      3089 1.40279E-02-1.21398E-04-1.97931E-13
 -1      3090 1.03512E-02-7.76273E-04-1.18078E-13
 -1      3091 1.21568E-02 7.33283E-05-1.38753E-13
 -1      3092 1.20591E-02 4.54497E-05-1.37957E-13
 -1      3093 1.04037E-03 2.43196E-04-1.74601E-15
 -1      3094 1.03384E-03 2.11478E-04-1.79597E-15
 -1      3095 8.28118E-03 3.37707E-04-8.63591E-14
 -1      3096 8.44612E-03 4.22255E-04-8.75011E-14
 -1      3097 1.15284E-02-1.78118E-04-1.34100E-13
 -1      3098 1.13112E-02-2.89288E-04-1.31992E-13
 -1      3099 1.15854E-03-2.76799E-04-2.30691E-15
 -1      3100 1.30144E-03-2.96476E-04-2.83272E-15
 -1      3101 8.15265E-03-1.61559E-04-8.80366E-14
 -1      3102 8.00171E-03-1.00026E-04-8.67957E-14
 -1      3103 1.73178E-03-3.39717E-04-4.73758E-15
 -1      3104 1.87547E-03-3.49685E-04-5.48032E-15
 -1      3105 2.01914E-03-3.57888E-04-6.27664E-15
 -1      3106 2.16280E-03-3.64476E-04-7.12585E-15
 -1      3107 1.94041E-03-3.18294E-04-5.91268E-15
 -1      3108 2.30641E-03-3.69718E-04-8.02751E-15
 -1      3109 2.44997E-03-3.73734E-04-8.98134E-15
 -1      3110 2.22847E-03-3.30769E-04-7.61157E-15
 -1      3111 2.59347E-03-3.76737E-04-9.98751E-15
 -1      3112 2.73692E-03-3.78818E-04-1.10456E-14
 -1      3113 2.51644E-03-3.38414E-04-9.51967E-15
 -1      3114 2.88031E-03-3.80138E-04-1.21541E-14
 -1      3115 3.02363E-03-3.80763E-04-1.33139E-14
 -1      3116 2.80417E-03-3.42399E-04-1.16332E-14
 -1      3117 3.16691E-03-3.80811E-04-1.45244E-14
 -1      3118 3.31013E-03-3.80328E-04-1.57853E-14
 -1      3119 3.09157E-03-3.43620E-04-1.39498E-14
 -1      3120 3.45331E-03-3.79395E-04-1.70963E-14
 -1      3121 3.59643E-03-3.78043E-04-1.84566E-14
 -1      3122 3.37862E-03-3.42732E-04-1.64684E-14
 -1      3123 3.73952E-03-3.76326E-04-1.98658E-14
 -1      3124 3.88255E-03-3.74261E-04-2.13234E-14
 -1      3125 3.66529E-03-3.40188E-04-1.91843E-14
 -1      3126 4.02554E-03-3.71885E-04-2.28284E-14
 -1      3127 4.16849E-03-3.69205E-04-2.43812E-14
 -1      3128 3.95157E-03-3.36286E-04-2.20940E-14
 -1      3129 4.31140E-03-3.66245E-04-2.59813E-14
 -1      3130 4.45426E-03-3.63009E-04-2.76283E-14
 -1      3131 4.23742E-03-3.31210E-04-2.51941E-14
 -1      3132 4.59707E-03-3.59517E-04-2.93193E-14
 -1      3133 4.73985E-03-3.55770E-04-3.10559E-14
 -1      3134 4.52281E-03-3.25070E-04-2.84797E-14
 -1      3135 4.88257E-03-3.51792E-04-3.28392E-14
 -1      3136 5.02526E-03-3.47590E-04-3.46658E-14
 -1      3137 4.80769E-03-3.17948E-04-3.19473E-14
 -1      3138 5.16788E-03-3.43198E-04-3.65366E-14
 -1      3139 5.31050E-03-3.38633E-04-3.84524E-14
 -1      3140 5.09201E-03-3.09938E-04-3.55947E-14
 -1      3141 5.45305E-03-3.33952E-04-4.04116E-14
 -1      3142 5.59562E-03-3.29187E-04-4.24139E-14
 -1      3143 5.37573E-03-3.01197E-04-3.94191E-14
 -1      3144 5.73815E-03-3.24428E-04-4.44591E-14
 -1      3145 5.88075E-03-3.19734E-04-4.65470E-14
 -1      3146 5.65883E-03-2.92001E-04-4.34178E-14
 -1      3147 6.02338E-03-3.15233E-04-4.86769E-14
 -1      3148 6.16617E-03-3.11031E-04-5.08487E-14
 -1      3149 5.94139E-03-2.82805E-04-4.75870E-14
 -1      3150 6.30912E-03-3.07300E-04-5.30619E-14
 -1      3151 6.45242E-03-3.04214E-04-5.53148E-14
 -1      3152 6.22367E-03-2.74315E-04-5.19232E-14
 -1      3153 6.59611E-03-3.01990E-04-5.76072E-14
 -1      3154 6.74046E-03-3.00909E-04-5.99398E-14
 -1      3155 6.50623E-03-2.67570E-04-5.64222E-14
 -1      3156 6.88561E-03-3.01225E-04-6.23104E-14
 -1      3157 7.03192E-03-3.03391E-04-6.47174E-14
 -1      3158 6.79013E-03-2.64056E-04-6.10764E-14
 -1      3159 7.17969E-03-3.07675E-04-6.71621E-14
 -1      3160 7.32938E-03-3.14806E-04-6.96423E-14
 -1      3161 7.07725E-03-2.65868E-04-6.58829E-14
 -1      3162 7.48151E-03-3.25035E-04-7.21578E-14
 -1      3163 7.63656E-03-3.39512E-04-7.47093E-14
 -1      3164 7.37066E-03-2.76032E-04-7.08336E-14
 -1      3165 7.79537E-03-3.58431E-04-7.72954E-14
 -1      3166 7.95818E-03-3.83530E-04-7.99148E-14
 -1      3167 7.67498E-03-2.99076E-04-7.59250E-14
 -1      3168 8.12613E-03-4.15034E-04-8.25693E-14
 -1      3169 8.29857E-03-4.54736E-04-8.52589E-14
 -1      3170 7.99635E-03-3.42178E-04-8.11530E-14
 -1      3171 8.47711E-03-5.02180E-04-8.79848E-14
 -1      3172 8.65876E-03-5.58993E-04-9.07483E-14
 -1      3173 8.34124E-03-4.15296E-04-8.65194E-14
 -1      3174 9.14006E-03-7.19499E-04-9.81991E-14
 -1      3175 9.32596E-03-7.94000E-04-1.01093E-13
 -1      3176 9.63039E-03-9.05247E-04-1.06173E-13
 -1      3177 9.80059E-03-9.28360E-04-1.09173E-13
 -1      3178 9.96089E-03-9.19161E-04-1.12057E-13
 -1      3179 1.01328E-02-8.86074E-04-1.15131E-13
 -1      3180 1.03478E-02-8.03720E-04-1.18844E-13
 -1      3181 1.05314E-02-7.24773E-04-1.21993E-13
 -1      3182 1.07182E-02-6.42396E-04-1.25175E-13
 -1      3183 1.09787E-02-5.49529E-04-1.30003E-13
 -1      3184 1.11625E-02-4.79704E-04-1.33260E-13
 -1      3185 1.16902E-02-3.24339E-04-1.43189E-13
 -1      3186 1.18557E-02-2.87954E-04-1.46547E-13
 -1      3187 1.20170E-02-2.58334E-04-1.49924E-13
 -1      3188 1.21741E-02-2.33590E-04-1.53325E-13
 -1      3189 1.19865E-02-2.21013E-04-1.48082E-13
 -1      3190 1.23280E-02-2.13543E-04-1.56744E-13
 -1      3191 1.24791E-02-1.96877E-04-1.60180E-13
 -1      3192 1.22955E-02-1.77905E-04-1.54880E-13
 -1      3193 1.26280E-02-1.83322E-04-1.63633E-13
 -1      3194 1.27753E-02-1.72032E-04-1.67102E-13
 -1      3195 1.25920E-02-1.49177E-04-1.61751E-13
 -1      3196 1.29211E-02-1.62702E-04-1.70584E-13
 -1      3197 1.30661E-02-1.54788E-04-1.74078E-13
 -1      3198 1.28811E-02-1.29546E-04-1.68682E-13
 -1      3199 1.32102E-02-1.47984E-04-1.77586E-13
 -1      3200 1.33538E-02-1.41935E-04-1.81104E-13
 -1      3201 1.31663E-02-1.15426E-04-1.75668E-13
 -1      3202 1.34971E-02-1.36355E-04-1.84633E-13
 -1      3203 1.36400E-02-1.30995E-04-1.88168E-13
 -1      3204 1.34498E-02-1.04222E-04-1.82701E-13
 -1      3205 1.37626E-02-1.29264E-04-1.91270E-13
 -1      3206 1.39053E-02-1.23662E-04-1.94817E-13
 -1      3207 1.39562E-02-9.38376E-05-1.95541E-13
 -1      3208 1.37128E-02-9.75015E-05-1.89328E-13
 -1      3209 1.12292E-02 5.82457E-04-1.26227E-13
 -1      3210 1.14332E-02 4.77478E-04-1.28769E-13
 -1      3211 3.25523E-03 4.17146E-04-1.41358E-14
 -1      3212 3.11232E-03 4.17372E-04-1.29588E-14
 -1      3213 2.96938E-03 4.17017E-04-1.18315E-14
 -1      3214 2.82644E-03 4.16025E-04-1.07544E-14
 -1      3215 3.03682E-03 3.80094E-04-1.25246E-14
 -1      3216 3.82688E-03 4.11732E-04-1.93336E-14
 -1      3217 3.68396E-03 4.13679E-04-1.79608E-14
 -1      3218 4.11275E-03 4.06833E-04-2.22204E-14
 -1      3219 3.96981E-03 4.09445E-04-2.07531E-14
 -1      3220 3.89583E-03 3.73736E-04-2.01954E-14
 -1      3221 4.39868E-03 4.00705E-04-2.52972E-14
 -1      3222 4.25570E-03 4.03917E-04-2.37355E-14
 -1      3223 4.18175E-03 3.68738E-04-2.31373E-14
 -1      3224 4.68468E-03 3.93441E-04-2.85574E-14
 -1      3225 4.54166E-03 3.97211E-04-2.69046E-14
 -1      3226 4.46743E-03 3.62586E-04-2.62666E-14
 -1      3227 4.97078E-03 3.85136E-04-3.19994E-14
 -1      3228 4.82771E-03 3.89414E-04-3.02559E-14
 -1      3229 4.75286E-03 3.55367E-04-2.95800E-14
 -1      3230 5.25699E-03 3.75932E-04-3.56183E-14
 -1      3231 5.11386E-03 3.80637E-04-3.37863E-14
 -1      3232 5.03797E-03 3.47173E-04-3.30715E-14
 -1      3233 5.54333E-03 3.66097E-04-3.94138E-14
 -1      3234 5.40012E-03 3.71075E-04-3.74936E-14
 -1      3235 5.32271E-03 3.38156E-04-3.67407E-14
 -1      3236 5.82987E-03 3.56096E-04-4.33851E-14
 -1      3237 5.68655E-03 3.61085E-04-4.13786E-14
 -1      3238 5.60702E-03 3.28594E-04-4.05866E-14
 -1      3239 6.11675E-03 3.46696E-04-4.75250E-14
 -1      3240 5.97323E-03 3.51267E-04-4.54341E-14
 -1      3241 5.89088E-03 3.18960E-04-4.46057E-14
 -1      3242 6.40430E-03 3.39078E-04-5.18285E-14
 -1      3243 6.26039E-03 3.42579E-04-4.96567E-14
 -1      3244 6.17434E-03 3.10007E-04-4.87909E-14
 -1      3245 6.69315E-03 3.34983E-04-5.62898E-14
 -1      3246 6.54848E-03 3.36460E-04-5.40396E-14
 -1      3247 6.45767E-03 3.02867E-04-5.31380E-14
 -1      3248 6.98452E-03 3.36875E-04-6.09005E-14
 -1      3249 6.83839E-03 3.34981E-04-5.85773E-14
 -1      3250 6.74152E-03 2.99166E-04-5.76405E-14
 -1      3251 7.28056E-03 3.48169E-04-6.56598E-14
 -1      3252 7.13175E-03 3.41041E-04-6.32617E-14
 -1      3253 7.02725E-03 3.01170E-04-6.22934E-14
 -1      3254 7.58483E-03 3.73583E-04-7.05576E-14
 -1      3255 7.43139E-03 3.58638E-04-6.80914E-14
 -1      3256 7.31739E-03 3.12035E-04-6.70916E-14
 -1      3257 7.90257E-03 4.19683E-04-7.55901E-14
 -1      3258 7.74170E-03 3.93314E-04-7.30575E-14
 -1      3259 7.61630E-03 3.36329E-04-7.20282E-14
 -1      3260 8.24025E-03 4.95411E-04-8.07506E-14
 -1      3261 8.06873E-03 4.52891E-04-7.81542E-14
 -1      3262 7.93069E-03 3.81167E-04-7.70950E-14
 -1      3263 8.54788E-03 5.49214E-04-8.62716E-14
 -1      3264 8.36486E-03 4.87411E-04-8.36084E-14
 -1      3265 9.10233E-03 8.17391E-04-9.33147E-14
 -1      3266 8.90862E-03 7.27746E-04-9.05559E-14
 -1      3267 9.29559E-03 9.10659E-04-9.61127E-14
 -1      3268 9.77000E-03 1.10537E-03-1.03314E-13
 -1      3269 9.59213E-03 1.05385E-03-1.00407E-13
 -1      3270 1.03051E-02 1.07115E-03-1.12451E-13
 -1      3271 1.13077E-02 6.42325E-04-1.28975E-13
 -1      3272 1.11182E-02 7.09238E-04-1.25729E-13
 -1      3273 1.19190E-02 5.22284E-04-1.40778E-13
 -1      3274 1.17510E-02 5.51352E-04-1.37427E-13
 -1      3275 1.22405E-02 4.87137E-04-1.47549E-13
 -1      3276 1.20821E-02 5.01659E-04-1.44152E-13
 -1      3277 1.20470E-02 4.59342E-04-1.42719E-13
 -1      3278 1.25472E-02 4.74105E-04-1.54402E-13
 -1      3279 1.23954E-02 4.78494E-04-1.50965E-13
 -1      3280 1.23565E-02 4.37470E-04-1.49511E-13
 -1      3281 1.28448E-02 4.76004E-04-1.61318E-13
 -1      3282 1.26969E-02 4.73606E-04-1.57854E-13
 -1      3283 1.26527E-02 4.33552E-04-1.56379E-13
 -1      3284 1.31370E-02 4.87604E-04-1.68286E-13
 -1      3285 1.29913E-02 4.80877E-04-1.64796E-13
 -1      3286 1.29417E-02 4.41201E-04-1.63306E-13
 -1      3287 1.34262E-02 5.04971E-04-1.75293E-13
 -1      3288 1.32818E-02 4.95768E-04-1.71784E-13
 -1      3289 1.32272E-02 4.56125E-04-1.70282E-13
 -1      3290 1.37138E-02 5.25102E-04-1.82323E-13
 -1      3291 1.35701E-02 5.14842E-04-1.78807E-13
 -1      3292 1.35112E-02 4.75163E-04-1.77292E-13
 -1      3293 1.40005E-02 5.45635E-04-1.89374E-13
 -1      3294 1.38572E-02 5.35432E-04-1.85847E-13
 -1      3295 1.37949E-02 4.95891E-04-1.84327E-13
 -1      3296 1.42019E-02 5.48270E-04-1.94386E-13
 -1      3297 1.40894E-02 5.48573E-04-1.91577E-13
 -1      3298 1.40250E-02 5.09430E-04-1.90055E-13
 -1      3299 1.42012E-02 5.15260E-04-1.94463E-13
 -1      3300 1.41360E-02 1.21577E-04-1.96072E-13
 -1      3301 1.41486E-02 1.55032E-04-1.95853E-13
 -1      3302 1.40657E-02-1.98918E-05-1.96911E-13
 -1      3303 1.40856E-02 1.66331E-05-1.96707E-13
 -1      3304 1.41592E-02 1.88687E-04-1.95623E-13
 -1      3305 1.41672E-02 2.22223E-04-1.95390E-13
 -1      3306 1.40370E-02 1.66229E-04-1.92668E-13
 -1      3307 8.49594E-03-3.43691E-04-9.07347E-14
 -1      3308 8.32596E-03-2.46501E-04-8.93805E-14
 -1      3309 8.19421E-03-2.16371E-04-8.73542E-14
 -1      3310 9.89622E-03 1.11337E-03-1.05668E-13
 -1      3311 1.11164E-02-4.01894E-04-1.30073E-13
 -1      3312 1.09883E-02-4.71719E-04-1.28417E-13
 -1      3313 1.82456E-03 3.80235E-04-4.63880E-15
 -1      3314 1.68120E-03 3.68878E-04-3.97210E-15
 -1      3315 7.66858E-03 1.01485E-04-8.28032E-14
 -1      3316 7.78665E-03 1.30861E-04-8.38288E-14
 -1      3317 1.41041E-02 5.22013E-05-1.96502E-13
 -1      3318 1.41210E-02 8.72767E-05-1.96289E-13
 -1      3319 1.40105E-02 9.89266E-05-1.93112E-13
 -1      3320 1.39754E-02 2.94394E-05-1.93531E-13
 -1      3321 1.16230E-02 5.67157E-04-1.34830E-13
 -1      3322 1.14445E-02 6.13132E-04-1.31529E-13
 -1      3323 1.15099E-02 5.22182E-04-1.31582E-13
 -1      3324 1.17634E-02 4.89041E-04-1.36750E-13
 -1      3325 3.54105E-03 4.15252E-04-1.66365E-14
 -1      3326 3.39815E-03 4.16427E-04-1.53615E-14
 -1      3327 3.32337E-03 3.79690E-04-1.48856E-14
 -1      3328 3.60971E-03 3.77457E-04-1.74439E-14
 -1      3329 2.11109E-03 3.97218E-04-6.12802E-15
 -1      3330 1.96785E-03 3.89626E-04-5.35746E-15
 -1      3331 1.88840E-03 3.49431E-04-5.08633E-15
 -1      3332 7.83339E-03-3.74908E-05-8.54825E-14
 -1      3333 7.69787E-03 3.69138E-06-8.44509E-14
 -1      3334 7.59740E-03 3.53690E-05-8.37989E-14
 -1      3335 7.56556E-03 4.85482E-05-8.37760E-14
 -1      3336 1.19220E-02-3.45476E-06-1.37026E-13
 -1      3337 1.17491E-02-7.21820E-05-1.35739E-13
 -1      3338 7.85518E-04-1.87543E-04-1.21813E-15
 -1      3339 7.93314E-04-2.11084E-04-1.20570E-15
 -1      3340 8.94213E-04-2.33251E-04-1.47216E-15
 -1      3341 9.03557E-04-1.94920E-04-1.55979E-15
 -1      3342 1.44466E-03-3.13361E-04-3.41346E-15
 -1      3343 1.58818E-03-3.27667E-04-4.04870E-15
 -1      3344 1.65259E-03-2.99533E-04-4.42472E-15
 -1      3345 1.14495E-03 3.10432E-04-1.92442E-15
 -1      3346 1.08240E-03 2.71548E-04-1.81628E-15
 -1      3347 1.20157E-03 2.72906E-04-2.23912E-15
 -1      3348 1.28811E-03 3.32293E-04-2.39105E-15
 -1      3349 8.95193E-03-5.97932E-04-9.58402E-14
 -1      3350 8.72582E-03-4.75887E-04-9.30341E-14
 -1      3351 8.57925E-03-4.23888E-04-9.09606E-14
 -1      3352 8.97635E-03-6.71654E-04-9.55815E-14
 -1      3353 1.16622E-02 3.71778E-04-1.31546E-13
 -1      3354 1.18475E-02 2.97051E-04-1.33714E-13
 -1      3355 1.22831E-02 1.11996E-04-1.39352E-13
 -1      3356 1.22424E-02 9.94137E-05-1.39296E-13
 -1      3357 1.01700E-03 6.81772E-05-1.95842E-15
 -1      3358 1.01585E-03 4.12063E-05-1.97749E-15
 -1      3359 1.01526E-03 1.44418E-05-1.99233E-15
 -1      3360 1.01523E-03-1.22233E-05-2.00374E-15
 -1      3361 1.13599E-03 3.01422E-05-2.40299E-15
 -1      3362 1.15332E-03 2.11685E-04-2.21062E-15
 -1      3363 1.02858E-03 1.81106E-04-1.83890E-15
 -1      3364 1.02446E-03 1.51785E-04-1.87652E-15
 -1      3365 1.41724E-02 3.92384E-04-1.94148E-13
 -1      3366 1.41678E-02 4.27872E-04-1.93885E-13
 -1      3367 1.12989E-02-3.43658E-04-1.33406E-13
 -1      3368 1.36562E-03-2.72837E-04-3.15041E-15
 -1      3369 7.86730E-03-7.39908E-05-8.47247E-14
 -1      3370 9.50217E-03-8.67524E-04-1.03938E-13
 -1      3371 8.65497E-03-5.05506E-04-9.12483E-14
 -1      3372 8.79070E-03-6.01506E-04-9.27597E-14
 -1      3373 1.19256E-02 3.16406E-04-1.36491E-13
 -1      3374 1.19640E-02 2.64982E-04-1.35591E-13
 -1      3375 1.20711E-02 2.42378E-04-1.37473E-13
 -1      3376 1.13168E-02-3.83137E-04-1.34976E-13
 -1      3377 1.13544E-02-4.17603E-04-1.36775E-13
 -1      3378 1.15294E-02-3.66162E-04-1.40086E-13
 -1      3379 1.14904E-02-2.86494E-04-1.36926E-13
 -1      3380 1.08602E-02-5.41182E-04-1.26621E-13
 -1      3381 1.15949E-02 4.41205E-04-1.31808E-13
 -1      3382 2.25427E-03 4.03316E-04-6.95073E-15
 -1      3383 2.17579E-03 3.63993E-04-6.63952E-15
 -1      3384 2.39738E-03 4.08055E-04-7.82534E-15
 -1      3385 2.75005E-03 3.78152E-04-1.03611E-14
 -1      3386 2.68345E-03 4.14269E-04-9.72735E-15
 -1      3387 2.54044E-03 4.11671E-04-8.75095E-15
 -1      3388 8.85145E-03 6.52302E-04-9.10497E-14
 -1      3389 8.69893E-03 6.36059E-04-8.76620E-14
 -1      3390 9.44819E-03 9.88901E-04-9.82478E-14
 -1      3391 1.04440E-02 1.01490E-03-1.14837E-13
 -1      3392 1.09603E-02 7.54433E-04-1.22965E-13
 -1      3393 1.08220E-02 8.51974E-04-1.21096E-13
 -1      3394 1.06307E-02 9.33952E-04-1.17938E-13
 -1      3395 1.41768E-02 3.22892E-04-1.94661E-13
 -1      3396 1.41755E-02 3.57357E-04-1.94406E-13
 -1      3397 1.40553E-02 3.66595E-04-1.91214E-13
 -1      3398 1.41728E-02 2.55480E-04-1.95152E-13
 -1      3399 1.41760E-02 2.89162E-04-1.94908E-13
 -1      3400 1.40590E-02 2.98506E-04-1.91720E-13
 -1      3401 1.40532E-02 2.32329E-04-1.92203E-13
 -1      3402 7.61829E-03-7.47139E-06-8.17702E-14
 -1      3403 7.60690E-03 1.64995E-05-8.27859E-14
 -1      3404 7.53019E-03 2.31146E-05-8.11332E-14
 -1      3405 1.16684E-02-2.85652E-04-1.41601E-13
 -1      3406 7.82928E-03 1.59483E-04-8.30643E-14
 -1      3407 1.39864E-02-7.10125E-05-1.95869E-13
 -1      3408 1.40363E-02-4.20588E-05-1.96586E-13
 -1      3409 1.39257E-02-2.83230E-05-1.93411E-13
 -1      3410 1.38652E-02-7.29909E-05-1.92760E-13
 -1      3411 1.20297E-02 1.04859E-05-1.39586E-13
 -1      3412 9.95885E-04-2.53972E-04-1.76676E-15
 -1      3413 1.06008E-03-2.36961E-04-2.01929E-15
 -1      3414 8.61834E-03 5.14707E-04-8.89059E-14
 -1      3415 7.53005E-03 5.26039E-05-8.23361E-14
 -1      3416 1.16910E-02-1.34501E-04-1.36995E-13
 -1      3417 1.55628E-03 3.60977E-04-3.42024E-15
 -1      3418 1.41291E-03 3.44958E-04-2.85336E-15
 -1      3419 1.36916E-03 3.14759E-04-2.77146E-15
 -1      3420 1.61939E-03 3.33298E-04-3.80684E-15
 -1      3421 1.01850E-03-9.29570E-05-2.01503E-15
 -1      3422 1.02084E-03-1.20662E-04-2.01092E-15
 -1      3423 1.02121E-03 1.23250E-04-1.90837E-15
 -1      3424 1.01878E-03 9.54875E-05-1.93544E-15
 -1      3425 1.13861E-03 8.85573E-05-2.35899E-15
 -1      3426 1.14413E-03 1.48672E-04-2.29599E-15
 -1      3427 1.22333E-02 1.80462E-04-1.39043E-13
 -1      3428 1.22359E-02 1.58722E-04-1.37694E-13
 -1      3429 1.23202E-02 1.50701E-04-1.40174E-13
 -1      3430 1.14366E-03-1.45805E-04-2.42948E-15
 -1      3431 1.02398E-03-1.49060E-04-2.00201E-15
 -1      3432 1.02798E-03-1.78297E-04-1.98778E-15
 -1      3433 1.23514E-02 1.33147E-04-1.41086E-13
 -1      3434 1.23235E-02 1.23342E-04-1.40217E-13
 -1      3435 1.23625E-02 1.18213E-04-1.42489E-13
 -1      3436 8.01665E-03 2.47986E-04-8.33170E-14
 -1      3437 8.14549E-03 2.87715E-04-8.48332E-14
 -1      3438 8.17611E-03 3.33373E-04-8.38513E-14
 -1      3439 1.22436E-02 8.30734E-05-1.41071E-13
 -1      3440 7.56038E-03 7.76007E-05-8.15796E-14
 -1      3441 7.60965E-03 8.74587E-05-8.21920E-14
 -1      3442 7.63549E-03 1.07384E-04-8.12374E-14
 -1      3443 8.47470E-03 4.67177E-04-8.67587E-14
 -1      3444 8.44793E-03-3.85473E-04-8.89759E-14
 -1      3445 2.15076E-03-2.91972E-04-7.20048E-15
 -1      3446 2.29512E-03-2.96527E-04-8.10236E-15
 -1      3447 2.43945E-03-3.00069E-04-9.05583E-15
 -1      3448 2.58373E-03-3.02688E-04-1.00609E-14
 -1      3449 2.36261E-03-2.61803E-04-8.59763E-15
 -1      3450 2.72795E-03-3.04539E-04-1.11165E-14
 -1      3451 2.87207E-03-3.05690E-04-1.22230E-14
 -1      3452 2.65176E-03-2.66624E-04-1.06053E-14
 -1      3453 3.01610E-03-3.06259E-04-1.33805E-14
 -1      3454 3.16000E-03-3.06294E-04-1.45879E-14
 -1      3455 2.94057E-03-2.68764E-04-1.28161E-14
 -1      3456 3.30379E-03-3.05884E-04-1.58449E-14
 -1      3457 3.44744E-03-3.05055E-04-1.71518E-14
 -1      3458 3.22888E-03-2.68861E-04-1.52273E-14
 -1      3459 3.59095E-03-3.03874E-04-1.85078E-14
 -1      3460 3.73432E-03-3.02353E-04-1.99121E-14
 -1      3461 3.51656E-03-2.67372E-04-1.78361E-14
 -1      3462 3.87754E-03-3.00538E-04-2.13643E-14
 -1      3463 4.02059E-03-2.98432E-04-2.28640E-14
 -1      3464 3.80350E-03-2.64609E-04-2.06398E-14
 -1      3465 4.16348E-03-2.96069E-04-2.44112E-14
 -1      3466 4.30620E-03-2.93442E-04-2.60054E-14
 -1      3467 4.08963E-03-2.60770E-04-2.36344E-14
 -1      3468 4.44872E-03-2.90579E-04-2.76457E-14
 -1      3469 4.59105E-03-2.87470E-04-2.93307E-14
 -1      3470 4.37484E-03-2.55970E-04-2.68161E-14
 -1      3471 4.73316E-03-2.84142E-04-3.10612E-14
 -1      3472 4.87505E-03-2.80583E-04-3.28374E-14
 -1      3473 4.65900E-03-2.50276E-04-3.01811E-14
 -1      3474 5.01670E-03-2.76827E-04-3.46582E-14
 -1      3475 5.15810E-03-2.72865E-04-3.65229E-14
 -1      3476 4.94197E-03-2.43740E-04-3.37263E-14
 -1      3477 5.29922E-03-2.68744E-04-3.84313E-14
 -1      3478 5.44009E-03-2.64462E-04-4.03847E-14
 -1      3479 5.22357E-03-2.36435E-04-3.74497E-14
 -1      3480 5.58064E-03-2.60085E-04-4.23812E-14
 -1      3481 5.72094E-03-2.55626E-04-4.44207E-14
 -1      3482 5.50364E-03-2.28485E-04-4.13493E-14
 -1      3483 5.86092E-03-2.51175E-04-4.65018E-14
 -1      3484 6.00067E-03-2.46767E-04-4.86249E-14
 -1      3485 5.78204E-03-2.20110E-04-4.54216E-14
 -1      3486 6.14015E-03-2.42523E-04-5.07908E-14
 -1      3487 6.27950E-03-2.38513E-04-5.29968E-14
 -1      3488 6.05870E-03-2.11655E-04-4.96630E-14
 -1      3489 6.41869E-03-2.34884E-04-5.52419E-14
 -1      3490 6.55796E-03-2.31772E-04-5.75272E-14
 -1      3491 6.33375E-03-2.03640E-04-5.40674E-14
 -1      3492 6.69733E-03-2.29340E-04-5.98500E-14
 -1      3493 6.83715E-03-2.27837E-04-6.22113E-14
 -1      3494 6.60768E-03-1.96801E-04-5.86291E-14
 -1      3495 6.97757E-03-2.27425E-04-6.46100E-14
 -1      3496 7.11913E-03-2.28569E-04-6.70446E-14
 -1      3497 6.88155E-03-1.92177E-04-6.33431E-14
 -1      3498 7.26212E-03-2.31406E-04-6.95161E-14
 -1      3499 7.40735E-03-2.36812E-04-7.20222E-14
 -1      3500 7.15746E-03-1.91315E-04-6.82044E-14
 -1      3501 7.55536E-03-2.44871E-04-7.45623E-14
 -1      3502 7.70725E-03-2.57232E-04-7.71380E-14
 -1      3503 7.43911E-03-1.96783E-04-7.32075E-14
 -1      3504 7.86400E-03-2.74021E-04-7.97452E-14
 -1      3505 8.02658E-03-2.98089E-04-8.23867E-14
 -1      3506 7.73277E-03-2.13356E-04-7.83457E-14
 -1      3507 8.26692E-03-3.37723E-04-8.62515E-14
 -1      3508 1.17160E-02 4.26667E-04-1.34385E-13
 -1      3509 1.21595E-02 2.45856E-05-1.42777E-13
 -1      3510 1.20391E-02-2.12005E-05-1.41831E-13
 -1      3511 1.22678E-02-1.41502E-04-1.53016E-13
 -1      3512 1.24149E-02-1.26777E-04-1.56435E-13
 -1      3513 1.25594E-02-1.14992E-04-1.59869E-13
 -1      3514 1.27022E-02-1.05046E-04-1.63320E-13
 -1      3515 1.25306E-02-8.05742E-05-1.57988E-13
 -1      3516 1.28436E-02-9.67969E-05-1.66785E-13
 -1      3517 1.29843E-02-8.96774E-05-1.70263E-13
 -1      3518 1.28088E-02-6.43850E-05-1.64886E-13
 -1      3519 1.31244E-02-8.34928E-05-1.73754E-13
 -1      3520 1.32643E-02-7.79226E-05-1.77257E-13
 -1      3521 1.30843E-02-5.21822E-05-1.71841E-13
 -1      3522 1.34040E-02-7.27523E-05-1.80771E-13
 -1      3523 1.35439E-02-6.78111E-05-1.84295E-13
 -1      3524 1.33595E-02-4.20047E-05-1.78843E-13
 -1      3525 1.95343E-03 3.17932E-04-5.54445E-15
 -1      3526 1.80943E-03 3.09598E-04-4.81351E-15
 -1      3527 7.48490E-03 4.56634E-05-8.06038E-14
 -1      3528 7.49691E-03 5.83442E-05-8.07976E-14
 -1      3529 4.25057E-03 3.30822E-04-2.40595E-14
 -1      3530 4.10774E-03 3.33459E-04-2.25378E-14
 -1      3531 3.96478E-03 3.35812E-04-2.10631E-14
 -1      3532 3.82171E-03 3.37881E-04-1.96366E-14
 -1      3533 4.03373E-03 2.98034E-04-2.19374E-14
 -1      3534 4.82047E-03 3.17723E-04-3.06064E-14
 -1      3535 4.67823E-03 3.21367E-04-2.89013E-14
 -1      3536 5.10438E-03 3.09785E-04-3.41497E-14
 -1      3537 4.96252E-03 3.13863E-04-3.23559E-14
 -1      3538 4.88757E-03 2.80581E-04-3.16380E-14
 -1      3539 5.38742E-03 3.01112E-04-3.78683E-14
 -1      3540 5.24601E-03 3.05533E-04-3.59869E-14
 -1      3541 5.17008E-03 2.73044E-04-3.52315E-14
 -1      3542 5.66944E-03 2.91987E-04-4.17633E-14
 -1      3543 5.52855E-03 2.96592E-04-3.97935E-14
 -1      3544 5.45120E-03 2.64870E-04-3.90006E-14
 -1      3545 5.95031E-03 2.82876E-04-4.58292E-14
 -1      3546 5.81000E-03 2.87404E-04-4.37752E-14
 -1      3547 5.73068E-03 2.56341E-04-4.29432E-14
 -1      3548 6.23001E-03 2.74496E-04-5.00598E-14
 -1      3549 6.09028E-03 2.78552E-04-4.79245E-14
 -1      3550 6.00831E-03 2.47899E-04-4.70572E-14
 -1      3551 6.50871E-03 2.67891E-04-5.44507E-14
 -1      3552 6.36942E-03 2.70904E-04-5.22360E-14
 -1      3553 6.28391E-03 2.40201E-04-5.13336E-14
 -1      3554 6.78702E-03 2.64516E-04-5.89961E-14
 -1      3555 6.64780E-03 2.65693E-04-5.67044E-14
 -1      3556 6.55757E-03 2.34158E-04-5.57677E-14
 -1      3557 7.06634E-03 2.66365E-04-6.36909E-14
 -1      3558 6.92636E-03 2.64615E-04-6.13249E-14
 -1      3559 6.82976E-03 2.30991E-04-6.03549E-14
 -1      3560 7.34942E-03 2.76233E-04-6.85267E-14
 -1      3561 7.20708E-03 2.69996E-04-6.60912E-14
 -1      3562 7.10181E-03 2.32324E-04-6.50902E-14
 -1      3563 7.64122E-03 2.98478E-04-7.35011E-14
 -1      3564 7.49372E-03 2.85249E-04-7.09977E-14
 -1      3565 7.37648E-03 2.40472E-04-6.99665E-14
 -1      3566 7.94963E-03 3.40733E-04-7.86031E-14
 -1      3567 7.79264E-03 3.16021E-04-7.60359E-14
 -1      3568 7.65912E-03 2.59545E-04-7.49761E-14
 -1      3569 8.20722E-03 3.98045E-04-8.25120E-14
 -1      3570 1.39148E-02 1.43921E-04-1.89717E-13
 -1      3571 1.39259E-02 1.76868E-04-1.89490E-13
 -1      3572 1.21743E-02 4.02723E-04-1.44662E-13
 -1      3573 1.20202E-02 4.15505E-04-1.41290E-13
 -1      3574 1.30353E-02 4.09302E-04-1.65292E-13
 -1      3575 1.28952E-02 4.02394E-04-1.61818E-13
 -1      3576 1.33146E-02 4.26677E-04-1.72273E-13
 -1      3577 1.31749E-02 4.17514E-04-1.68777E-13
 -1      3578 1.31250E-02 3.79925E-04-1.67273E-13
 -1      3579 1.35940E-02 4.46752E-04-1.79289E-13
 -1      3580 1.34542E-02 4.36482E-04-1.75777E-13
 -1      3581 1.33988E-02 3.98870E-04-1.74262E-13
 -1      3582 1.38744E-02 4.67657E-04-1.86329E-13
 -1      3583 1.37340E-02 4.57202E-04-1.82807E-13
 -1      3584 1.36744E-02 4.19453E-04-1.81283E-13
 -1      3585 1.41842E-02 4.55162E-04-1.94213E-13
 -1      3586 1.41851E-02 4.86977E-04-1.94141E-13
 -1      3587 1.40977E-02 4.84056E-04-1.91936E-13
 -1      3588 1.40665E-02 4.28717E-04-1.91284E-13
 -1      3589 1.24694E-02 3.93223E-04-1.51473E-13
 -1      3590 1.23234E-02 3.96077E-04-1.48057E-13
 -1      3591 1.22966E-02 3.53879E-04-1.46606E-13
 -1      3592 1.27546E-02 3.97068E-04-1.58355E-13
 -1      3593 1.26128E-02 3.93935E-04-1.54906E-13
 -1      3594 1.25772E-02 3.54525E-04-1.53434E-13
 -1      3595 4.53583E-03 3.24766E-04-2.72417E-14
 -1      3596 4.39327E-03 3.27926E-04-2.56272E-14
 -1      3597 4.31923E-03 2.93160E-04-2.49870E-14
 -1      3598 4.60389E-03 2.87318E-04-2.82220E-14
 -1      3599 3.10477E-03 3.42942E-04-1.32240E-14
 -1      3600 2.96109E-03 3.42625E-04-1.20884E-14
 -1      3601 1.28800E-03-2.33836E-04-2.89197E-15
 -1      3602 1.43090E-03-2.48040E-04-3.47750E-15
 -1      3603 1.19625E-02-1.81930E-04-1.46240E-13
 -1      3604 1.21173E-02-1.59186E-04-1.49618E-13
 -1      3605 1.22452E-02-1.03948E-04-1.51156E-13
 -1      3606 7.73661E-03 1.54934E-04-8.08905E-14
 -1      3607 7.87018E-03 1.94895E-04-8.21025E-14
 -1      3608 7.90221E-03 2.34343E-04-8.11367E-14
 -1      3609 1.06472E-03-2.15854E-04-2.06814E-15
 -1      3610 1.86221E-03-2.79133E-04-5.55301E-15
 -1      3611 2.00645E-03-2.86212E-04-6.35047E-15
 -1      3612 2.07343E-03-2.53467E-04-6.79430E-15
 -1      3613 1.01574E-03-3.89185E-05-2.01129E-15
 -1      3614 1.01681E-03-6.57480E-05-2.01480E-15
 -1      3615 1.13836E-03-8.59198E-05-2.43872E-15
 -1      3616 1.06208E-02 9.24589E-04-1.17694E-13
 -1      3617 1.16545E-02-2.44276E-04-1.40011E-13
 -1      3618 1.18114E-02-2.09358E-04-1.43115E-13
 -1      3619 1.16487E-02-1.99741E-04-1.38420E-13
 -1      3620 8.11361E-03-2.54907E-04-8.47921E-14
 -1      3621 7.97051E-03-1.85022E-04-8.34907E-14
 -1      3622 8.07995E-03 3.53738E-04-8.10133E-14
 -1      3623 1.18414E-02-1.04478E-04-1.40084E-13
 -1      3624 1.57432E-03-2.60216E-04-4.11600E-15
 -1      3625 1.71815E-03-2.70510E-04-4.80810E-15
 -1      3626 1.78468E-03-2.40594E-04-5.19875E-15
 -1      3627 1.07554E-02 8.30019E-04-1.19485E-13
 -1      3628 1.09108E-02 7.38355E-04-1.21588E-13
 -1      3629 1.23373E-02 9.11659E-05-1.43793E-13
 -1      3630 1.22597E-02 6.49910E-05-1.43240E-13
 -1      3631 7.82353E-03-1.18920E-04-8.22153E-14
 -1      3632 7.68364E-03-6.65188E-05-8.09419E-14
 -1      3633 7.75326E-03-1.64911E-04-7.97138E-14
 -1      3634 1.27952E-03 2.42681E-04-2.61405E-15
 -1      3635 1.27347E-03 2.08498E-04-2.66921E-15
 -1      3636 1.25923E-03-7.62447E-05-2.90162E-15
 -1      3637 1.26130E-03-1.07660E-04-2.90233E-15
 -1      3638 1.21811E-02 2.52577E-04-1.40878E-13
 -1      3639 1.22068E-02 2.13104E-04-1.39963E-13
 -1      3640 1.23232E-02 1.94997E-04-1.42460E-13
 -1      3641 1.22762E-02 3.89175E-05-1.45506E-13
 -1      3642 2.46303E-03 3.73123E-04-8.39879E-15
 -1      3643 1.73112E-03 2.70327E-04-4.54004E-15
 -1      3644 1.66556E-03 2.99499E-04-4.13432E-15
 -1      3645 2.09748E-03 3.24760E-04-6.32670E-15
 -1      3646 2.01948E-03 2.85768E-04-6.01311E-15
 -1      3647 2.24154E-03 3.30210E-04-7.16036E-15
 -1      3648 1.36438E-02-7.12791E-05-1.86974E-13
 -1      3649 1.37644E-02-6.97398E-05-1.90072E-13
 -1      3650 1.37953E-02-4.73463E-05-1.90400E-13
 -1      3651 1.35961E-02-4.06658E-05-1.85035E-13
 -1      3652 2.81733E-03 3.41704E-04-1.10024E-14
 -1      3653 2.67348E-03 3.40126E-04-9.96639E-15
 -1      3654 2.88523E-03 3.05003E-04-1.16519E-14
 -1      3655 7.42655E-03 6.30684E-05-7.81485E-14
 -1      3656 7.49153E-03 6.99230E-05-7.98590E-14
 -1      3657 7.49603E-03 8.41753E-05-7.89191E-14
 -1      3658 1.54009E-03 2.92910E-04-3.57241E-15
 -1      3659 3.74750E-03 3.01851E-04-1.90755E-14
 -1      3660 3.67853E-03 3.39631E-04-1.82569E-14
 -1      3661 3.53524E-03 3.41055E-04-1.69251E-14
 -1      3662 1.23934E-02 1.06820E-04-1.44671E-13
 -1      3663 1.24244E-02 9.24068E-05-1.46857E-13
 -1      3664 1.24396E-02 1.19754E-04-1.45549E-13
 -1      3665 7.92613E-03 2.81124E-04-7.99227E-14
 -1      3666 1.39010E-02 1.10740E-04-1.89936E-13
 -1      3667 1.37924E-02 1.22234E-04-1.86766E-13
 -1      3668 1.38847E-02 7.69236E-05-1.90151E-13
 -1      3669 1.38152E-02 1.86876E-04-1.86316E-13
 -1      3670 1.39341E-02 2.09320E-04-1.89258E-13
 -1      3671 1.39395E-02 2.41794E-04-1.89023E-13
 -1      3672 7.57668E-03-4.77928E-05-7.93060E-14
 -1      3673 3.39185E-03 3.42104E-04-1.56425E-14
 -1      3674 3.24836E-03 3.42756E-04-1.44090E-14
 -1      3675 3.17318E-03 3.05640E-04-1.39309E-14
 -1      3676 3.46063E-03 3.04466E-04-1.64060E-14
 -1      3677 1.39392E-02 3.41138E-04-1.88283E-13
 -1      3678 1.39343E-02 3.75662E-04-1.88027E-13
 -1      3679 1.28518E-02 3.64384E-04-1.60328E-13
 -1      3680 1.39325E-02 4.15784E-04-1.87879E-13
 -1      3681 1.39472E-02 4.43116E-04-1.88206E-13
 -1      3682 1.40101E-02 4.80937E-04-1.89732E-13
 -1      3683 1.19542E-02-1.40507E-04-1.44631E-13
 -1      3684 1.19967E-02-7.73382E-05-1.43276E-13
 -1      3685 7.45186E-03 1.36269E-05-7.86102E-14
 -1      3686 7.46488E-03 3.11153E-05-7.96083E-14
 -1      3687 7.40949E-03 3.77007E-05-7.80916E-14
 -1      3688 1.18431E-03-2.15317E-04-2.50891E-15
 -1      3689 1.25054E-03-1.93618E-04-2.79464E-15
 -1      3690 1.49709E-03-2.21978E-04-3.81264E-15
 -1      3691 7.66458E-03 1.33013E-04-8.02883E-14
 -1      3692 7.69207E-03 1.63355E-04-7.93380E-14
 -1      3693 7.59920E-03 1.15835E-04-7.96870E-14
 -1      3694 1.23807E-02 1.47225E-04-1.42451E-13
 -1      3695 1.13591E-03-2.76757E-05-2.42926E-15
 -1      3696 1.38257E-02-2.52780E-05-1.90723E-13
 -1      3697 1.38172E-02 3.89212E-04-1.84956E-13
 -1      3698 1.26164E-03 1.10536E-04-2.79454E-15
 -1      3699 1.25947E-03 7.90118E-05-2.82501E-15
 -1      3700 1.25802E-03 4.77653E-05-2.85038E-15
 -1      3701 1.25730E-03 1.67326E-05-2.87044E-15
 -1      3702 1.38122E-03 6.70597E-05-3.33244E-15
 -1      3703 1.25341E-03-1.34217E-04-2.85786E-15
 -1      3704 1.25703E-03-1.66473E-04-2.84797E-15
 -1      3705 1.36027E-03-1.81708E-04-3.25761E-15
 -1      3706 1.37472E-03-1.25296E-04-3.36077E-15
 -1      3707 1.37225E-02-1.47823E-05-1.87777E-13
 -1      3708 1.38515E-02 3.67920E-06-1.90783E-13
 -1      3709 1.38719E-02 3.91653E-05-1.90580E-13
 -1      3710 1.36240E-02-1.15357E-05-1.85097E-13
 -1      3711 2.28611E-03-2.23755E-04-8.14492E-15
 -1      3712 2.43094E-03-2.26604E-04-9.09698E-15
 -1      3713 1.21327E-02-6.12036E-05-1.46405E-13
 -1      3714 1.18806E-02 3.68119E-04-1.36908E-13
 -1      3715 1.19947E-02 3.36049E-04-1.38801E-13
 -1      3716 2.57575E-03-2.28744E-04-1.01001E-14
 -1      3717 2.72049E-03-2.30236E-04-1.11534E-14
 -1      3718 2.50001E-03-1.90984E-04-9.60058E-15
 -1      3719 2.86514E-03-2.31190E-04-1.22573E-14
 -1      3720 3.00966E-03-2.31645E-04-1.34119E-14
 -1      3721 2.78988E-03-1.93589E-04-1.17051E-14
 -1      3722 3.15402E-03-2.31691E-04-1.46153E-14
 -1      3723 3.29821E-03-2.31350E-04-1.58682E-14
 -1      3724 3.07927E-03-1.94401E-04-1.40090E-14
 -1      3725 3.44220E-03-2.30689E-04-1.71702E-14
 -1      3726 3.58599E-03-2.29720E-04-1.85210E-14
 -1      3727 3.36794E-03-1.93831E-04-1.65106E-14
 -1      3728 3.72955E-03-2.28491E-04-1.99208E-14
 -1      3729 3.87287E-03-2.27003E-04-2.13675E-14
 -1      3730 3.65570E-03-1.92167E-04-1.92065E-14
 -1      3731 4.01593E-03-2.25293E-04-2.28623E-14
 -1      3732 4.15872E-03-2.23352E-04-2.44043E-14
 -1      3733 3.94239E-03-1.89599E-04-2.20957E-14
 -1      3734 4.30121E-03-2.21210E-04-2.59916E-14
 -1      3735 4.44340E-03-2.18852E-04-2.76258E-14
 -1      3736 4.22786E-03-1.86240E-04-2.51736E-14
 -1      3737 4.58525E-03-2.16306E-04-2.93056E-14
 -1      3738 4.72675E-03-2.13553E-04-3.10301E-14
 -1      3739 4.51191E-03-1.82150E-04-2.84354E-14
 -1      3740 4.86785E-03-2.10622E-04-3.27997E-14
 -1      3741 5.00856E-03-2.07491E-04-3.46148E-14
 -1      3742 4.79434E-03-1.77358E-04-3.18789E-14
 -1      3743 5.14880E-03-2.04199E-04-3.64733E-14
 -1      3744 5.28859E-03-2.00722E-04-3.83759E-14
 -1      3745 5.07488E-03-1.71888E-04-3.55017E-14
 -1      3746 5.42785E-03-1.97113E-04-4.03233E-14
 -1      3747 5.56660E-03-1.93348E-04-4.23135E-14
 -1      3748 5.35324E-03-1.65777E-04-3.93019E-14
 -1      3749 5.70477E-03-1.89497E-04-4.43472E-14
 -1      3750 5.84238E-03-1.85541E-04-4.64223E-14
 -1      3751 5.62909E-03-1.59094E-04-4.32766E-14
 -1      3752 5.97935E-03-1.81570E-04-4.85396E-14
 -1      3753 6.11576E-03-1.77574E-04-5.06988E-14
 -1      3754 5.90211E-03-1.51960E-04-4.74217E-14
 -1      3755 6.25151E-03-1.73660E-04-5.28975E-14
 -1      3756 6.38675E-03-1.69837E-04-5.51354E-14
 -1      3757 6.17202E-03-1.44556E-04-5.17317E-14
 -1      3758 6.52140E-03-1.66224E-04-5.74128E-14
 -1      3759 6.65570E-03-1.62873E-04-5.97288E-14
 -1      3760 6.43868E-03-1.37129E-04-5.62015E-14
 -1      3761 6.78959E-03-1.59897E-04-6.20825E-14
 -1      3762 6.92350E-03-1.57441E-04-6.44727E-14
 -1      3763 6.70217E-03-1.30004E-04-6.08262E-14
 -1      3764 7.05739E-03-1.55586E-04-6.68985E-14
 -1      3765 7.19206E-03-1.54729E-04-6.93608E-14
 -1      3766 6.96306E-03-1.23607E-04-6.55992E-14
 -1      3767 7.32749E-03-1.54858E-04-7.18577E-14
 -1      3768 7.46508E-03-1.56972E-04-7.43884E-14
 -1      3769 7.22284E-03-1.18687E-04-7.05138E-14
 -1      3770 7.60957E-03-1.57206E-04-7.71160E-14
 -1      3771 1.25057E-02-4.66417E-05-1.56106E-13
 -1      3772 1.26416E-02-3.91205E-05-1.59539E-13
 -1      3773 7.79090E-03 2.31273E-04-7.87326E-14
 -1      3774 1.79770E-03 2.40279E-04-4.95696E-15
 -1      3775 1.65367E-03 2.31924E-04-4.26627E-15
 -1      3776 1.27764E-02-3.27371E-05-1.62988E-13
 -1      3777 1.29112E-02-2.69766E-05-1.66451E-13
 -1      3778 1.27466E-02-1.82283E-06-1.61089E-13
 -1      3779 1.30458E-02-2.17528E-05-1.69928E-13
 -1      3780 1.31807E-02-1.68518E-05-1.73416E-13
 -1      3781 1.30087E-02 7.76152E-06-1.68014E-13
 -1      3782 1.33160E-02-1.21255E-05-1.76916E-13
 -1      3783 1.34519E-02-7.50722E-06-1.80426E-13
 -1      3784 1.32733E-02 1.68082E-05-1.74989E-13
 -1      3785 5.23521E-03 2.37043E-04-3.63184E-14
 -1      3786 5.09494E-03 2.40623E-04-3.44749E-14
 -1      3787 4.95425E-03 2.44027E-04-3.26747E-14
 -1      3788 4.81314E-03 2.47274E-04-3.09184E-14
 -1      3789 5.02058E-03 2.08123E-04-3.37156E-14
 -1      3790 5.79104E-03 2.21759E-04-4.41287E-14
 -1      3791 5.65294E-03 2.25669E-04-4.21116E-14
 -1      3792 6.06522E-03 2.14142E-04-4.82887E-14
 -1      3793 5.92846E-03 2.17918E-04-4.61882E-14
 -1      3794 5.85068E-03 1.88287E-04-4.53179E-14
 -1      3795 6.33649E-03 2.07254E-04-5.26101E-14
 -1      3796 6.20120E-03 2.10585E-04-5.04290E-14
 -1      3797 6.12126E-03 1.81642E-04-4.95244E-14
 -1      3798 6.60474E-03 2.01852E-04-5.70871E-14
 -1      3799 6.47095E-03 2.04334E-04-5.48287E-14
 -1      3800 6.38799E-03 1.75685E-04-5.38900E-14
 -1      3801 6.87022E-03 1.98897E-04-6.17182E-14
 -1      3802 6.73772E-03 2.00014E-04-5.93843E-14
 -1      3803 6.65049E-03 1.70995E-04-5.84114E-14
 -1      3804 7.13394E-03 1.99607E-04-6.64924E-14
 -1      3805 7.00208E-03 1.98687E-04-6.40872E-14
 -1      3806 6.90862E-03 1.68236E-04-6.30831E-14
 -1      3807 7.39833E-03 2.05701E-04-7.14068E-14
 -1      3808 7.26564E-03 2.01783E-04-6.89327E-14
 -1      3809 7.16288E-03 1.68106E-04-6.78986E-14
 -1      3810 7.66003E-03 2.20132E-04-7.63108E-14
 -1      3811 7.52378E-03 2.11043E-04-7.37748E-14
 -1      3812 7.40714E-03 1.71442E-04-7.27124E-14
 -1      3813 7.64518E-03 1.80013E-04-7.75012E-14
 -1      3814 1.26789E-02 3.21163E-04-1.55394E-13
 -1      3815 1.25460E-02 3.16160E-04-1.51962E-13
 -1      3816 7.48598E-03-6.94933E-05-7.67446E-14
 -1      3817 7.45213E-03-1.66479E-05-7.75663E-14
 -1      3818 1.20569E-02 3.70917E-04-1.41217E-13
 -1      3819 1.19197E-02 4.32651E-04-1.39289E-13
 -1      3820 1.29439E-02 3.35202E-04-1.62298E-13
 -1      3821 1.28112E-02 3.27643E-04-1.58839E-13
 -1      3822 1.27731E-02 2.92132E-04-1.57350E-13
 -1      3823 1.32105E-02 3.52806E-04-1.69253E-13
 -1      3824 1.30768E-02 3.43626E-04-1.65771E-13
 -1      3825 1.30302E-02 3.08699E-04-1.64265E-13
 -1      3826 1.20888E-02 3.23714E-04-1.40797E-13
 -1      3827 1.18020E-02 4.39203E-04-1.36682E-13
 -1      3828 1.36806E-02 3.78937E-04-1.81432E-13
 -1      3829 1.39420E-02 2.74483E-04-1.88781E-13
 -1      3830 1.39418E-02 3.07513E-04-1.88534E-13
 -1      3831 1.38242E-02 3.16227E-04-1.85353E-13
 -1      3832 1.38257E-02 2.50902E-04-1.85844E-13
 -1      3833 1.50314E-03-1.91903E-04-3.87574E-15
 -1      3834 1.22506E-02-5.79441E-05-1.49540E-13
 -1      3835 1.23888E-02-4.76650E-05-1.52939E-13
 -1      3836 1.25039E-02-6.31901E-06-1.54473E-13
 -1      3837 1.22844E-02-5.06253E-06-1.48165E-13
 -1      3838 1.32626E-03 2.85329E-04-2.68574E-15
 -1      3839 1.44625E-03 2.80604E-04-3.19651E-15
 -1      3840 1.70797E-03-2.02955E-04-4.84995E-15
 -1      3841 1.85216E-03-2.09779E-04-5.59597E-15
 -1      3842 1.34798E-02 3.72516E-04-1.76245E-13
 -1      3843 1.33447E-02 3.62501E-04-1.72743E-13
 -1      3844 1.32915E-02 3.27401E-04-1.71227E-13
 -1      3845 5.51425E-03 2.29530E-04-4.01370E-14
 -1      3846 5.37498E-03 2.33350E-04-3.82057E-14
 -1      3847 5.57672E-03 1.95141E-04-4.12779E-14
 -1      3848 1.26853E-03 1.75151E-04-2.71717E-15
 -1      3849 1.26465E-03 1.42523E-04-2.75886E-15
 -1      3850 1.38592E-03 1.33768E-04-3.26404E-15
 -1      3851 1.39421E-03 2.02385E-04-3.17102E-15
 -1      3852 1.23900E-02 3.15796E-04-1.48052E-13
 -1      3853 1.22535E-02 3.15963E-04-1.44662E-13
 -1      3854 1.21956E-02 2.80515E-04-1.42226E-13
 -1      3855 1.24981E-02 2.80787E-04-1.49995E-13
 -1      3856 4.10269E-03 2.60459E-04-2.28169E-14
 -1      3857 3.95978E-03 2.62439E-04-2.13355E-14
 -1      3858 2.52955E-03 3.37752E-04-8.98069E-15
 -1      3859 2.38557E-03 3.34507E-04-8.04492E-15
 -1      3860 2.59685E-03 3.02015E-04-9.57100E-15
 -1      3861 1.23746E-02 3.66569E-05-1.48642E-13
 -1      3862 1.99664E-03-2.15454E-04-6.39388E-15
 -1      3863 2.14132E-03-2.20066E-04-7.24376E-15
 -1      3864 2.21004E-03-1.86041E-04-7.69819E-15
 -1      3865 1.49351E-03 2.49274E-04-3.48673E-15
 -1      3866 1.25725E-03-1.41497E-05-2.88547E-15
 -1      3867 1.25789E-03-4.51033E-05-2.89589E-15
 -1      3868 1.38103E-03-6.41913E-05-3.40215E-15
 -1      3869 1.37964E-03 1.37458E-06-3.37812E-15
 -1      3870 1.24209E-02 1.64873E-04-1.44405E-13
 -1      3871 1.24547E-02 1.45435E-04-1.45324E-13
 -1      3872 7.48914E-03-1.13357E-04-7.57273E-14
 -1      3873 1.36212E-02 3.43499E-04-1.79902E-13
 -1      3874 1.57052E-03 2.22579E-04-3.89941E-15
 -1      3875 1.47692E-03 2.12519E-04-3.50302E-15
 -1      3876 1.47207E-03 1.76857E-04-3.55705E-15
 -1      3877 1.63780E-03 1.94293E-04-4.27840E-15
 -1      3878 1.50371E-03-5.01431E-05-3.93935E-15
 -1      3879 1.50523E-03-8.47196E-05-3.94712E-15
 -1      3880 1.46819E-03 1.41792E-04-3.60401E-15
 -1      3881 1.46525E-03 1.07189E-04-3.64436E-15
 -1      3882 1.55076E-03 1.49667E-04-3.96039E-15
 -1      3883 1.24227E-02 2.18555E-04-1.46270E-13
 -1      3884 1.24251E-02 1.89493E-04-1.45339E-13
 -1      3885 1.25210E-02 1.86084E-04-1.48231E-13
 -1      3886 3.88593E-03 2.26639E-04-2.07331E-14
 -1      3887 3.81664E-03 2.64164E-04-1.99012E-14
 -1      3888 3.67328E-03 2.65636E-04-1.85146E-14
 -1      3889 1.94201E-03 2.47239E-04-5.69889E-15
 -1      3890 1.86519E-03 2.09339E-04-5.38521E-15
 -1      3891 2.08651E-03 2.52934E-04-6.49169E-15
 -1      3892 2.30819E-03 2.95928E-04-7.69035E-15
 -1      3893 1.35766E-02 1.75049E-05-1.83157E-13
 -1      3894 1.24741E-02 7.31885E-05-1.49699E-13
 -1      3895 1.24983E-02 3.64992E-05-1.52379E-13
 -1      3896 5.29987E-03 2.01838E-04-3.74099E-14
 -1      3897 7.38064E-03 4.94482E-05-7.71699E-14
 -1      3898 7.36221E-03 6.17442E-05-7.62484E-14
 -1      3899 7.34473E-03 3.50101E-05-7.61913E-14
 -1      3900 7.42071E-03 9.43933E-05-7.62924E-14
 -1      3901 7.50672E-03 1.03729E-04-7.79835E-14
 -1      3902 7.52069E-03 1.27041E-04-7.70471E-14
 -1      3903 1.25079E-02 1.35760E-04-1.47522E-13
 -1      3904 1.25559E-02 1.25137E-04-1.49723E-13
 -1      3905 1.25692E-02 1.52772E-04-1.49497E-13
 -1      3906 4.73924E-03 2.13829E-04-3.01978E-14
 -1      3907 4.67168E-03 2.50318E-04-2.92067E-14
 -1      3908 4.52987E-03 2.53178E-04-2.75407E-14
 -1      3909 7.57700E-03 1.58349E-04-7.69118E-14
 -1      3910 1.37639E-02 5.20381E-05-1.87412E-13
 -1      3911 4.24535E-03 2.58256E-04-2.43456E-14
 -1      3912 4.17168E-03 2.23156E-04-2.37027E-14
 -1      3913 4.38776E-03 2.55819E-04-2.59200E-14
 -1      3914 1.36967E-02 1.65091E-04-1.83380E-13
 -1      3915 1.37052E-02 1.96567E-04-1.83151E-13
 -1      3916 1.25330E-02 9.09828E-05-1.50589E-13
 -1      3917 1.23271E-02 2.52647E-04-1.44741E-13
 -1      3918 1.36286E-02 3.10347E-04-1.80159E-13
 -1      3919 1.34347E-02 3.04209E-04-1.74977E-13
 -1      3920 1.36331E-02 2.78007E-04-1.80406E-13
 -1      3921 7.37176E-03-5.13259E-06-7.60713E-14
 -1      3922 1.57097E-03-1.64304E-04-4.21618E-15
 -1      3923 2.95374E-03 2.68068E-04-1.23089E-14
 -1      3924 2.80938E-03 2.67285E-04-1.12147E-14
 -1      3925 1.92049E-03-1.78081E-04-6.00000E-15
 -1      3926 1.36696E-02 1.00906E-04-1.83822E-13
 -1      3927 1.36847E-02 1.33323E-04-1.83603E-13
 -1      3928 1.35781E-02 1.43897E-04-1.80447E-13
 -1      3929 1.46315E-03 7.28692E-05-3.67841E-15
 -1      3930 1.46186E-03 3.87913E-05-3.70685E-15
 -1      3931 1.54540E-03 7.87180E-05-4.04130E-15
 -1      3932 7.35974E-03-7.57779E-05-7.40318E-14
 -1      3933 1.57846E-03-1.34050E-04-4.27088E-15
 -1      3934 3.24206E-03 2.68218E-04-1.46448E-14
 -1      3935 3.09797E-03 2.68368E-04-1.34522E-14
 -1      3936 3.02280E-03 2.30969E-04-1.29733E-14
 -1      3937 1.70135E-03-1.20408E-04-4.87596E-15
 -1      3938 7.23762E-03-7.92025E-05-7.15138E-14
 -1      3939 7.25076E-03-4.25711E-05-7.25039E-14
 -1      3940 7.11402E-03-8.28299E-05-6.90279E-14
 -1      3941 2.71490E-03-1.56039E-04-1.11583E-14
 -1      3942 2.85989E-03-1.56707E-04-1.22587E-14
 -1      3943 3.00473E-03-1.57042E-04-1.34090E-14
 -1      3944 3.14940E-03-1.57061E-04-1.46085E-14
 -1      3945 2.93046E-03-1.19654E-04-1.28149E-14
 -1      3946 3.29385E-03-1.56825E-04-1.58567E-14
 -1      3947 3.43807E-03-1.56337E-04-1.71537E-14
 -1      3948 3.21999E-03-1.19690E-04-1.52093E-14
 -1      3949 3.58203E-03-1.55647E-04-1.84996E-14
 -1      3950 3.72570E-03-1.54750E-04-1.98935E-14
 -1      3951 3.50857E-03-1.18931E-04-1.77985E-14
 -1      3952 3.86907E-03-1.53684E-04-2.13350E-14
 -1      3953 4.01211E-03-1.52437E-04-2.28242E-14
 -1      3954 3.79599E-03-1.17528E-04-2.05802E-14
 -1      3955 4.15479E-03-1.51041E-04-2.43602E-14
 -1      3956 4.29709E-03-1.49477E-04-2.59425E-14
 -1      3957 4.08202E-03-1.15573E-04-2.35525E-14
 -1      3958 4.43899E-03-1.47773E-04-2.75701E-14
 -1      3959 4.58044E-03-1.45904E-04-2.92443E-14
 -1      3960 4.36646E-03-1.13113E-04-2.67115E-14
 -1      3961 4.72141E-03-1.43902E-04-3.09635E-14
 -1      3962 4.86188E-03-1.41735E-04-3.27273E-14
 -1      3963 4.64903E-03-1.10164E-04-3.00531E-14
 -1      3964 5.00178E-03-1.39439E-04-3.45359E-14
 -1      3965 5.14110E-03-1.36976E-04-3.63886E-14
 -1      3966 4.92944E-03-1.06727E-04-3.35753E-14
 -1      3967 5.27975E-03-1.34392E-04-3.82858E-14
 -1      3968 5.41773E-03-1.31643E-04-4.02264E-14
 -1      3969 5.20731E-03-1.02793E-04-3.72745E-14
 -1      3970 5.55494E-03-1.28786E-04-4.22110E-14
 -1      3971 5.69137E-03-1.25771E-04-4.42381E-14
 -1      3972 5.48220E-03-9.83535E-05-4.11502E-14
 -1      3973 5.82691E-03-1.22671E-04-4.63073E-14
 -1      3974 5.96158E-03-1.19425E-04-4.84184E-14
 -1      3975 5.75362E-03-9.34089E-05-4.51975E-14
 -1      3976 6.09524E-03-1.16123E-04-5.05706E-14
 -1      3977 6.22792E-03-1.12692E-04-5.27628E-14
 -1      3978 6.02099E-03-8.79629E-05-4.94133E-14
 -1      3979 6.35949E-03-1.09238E-04-5.49944E-14
 -1      3980 6.49003E-03-1.05678E-04-5.72652E-14
 -1      3981 6.28371E-03-8.20103E-05-5.37921E-14
 -1      3982 6.61934E-03-1.02132E-04-5.95746E-14
 -1      3983 6.74764E-03-9.85002E-05-6.19213E-14
 -1      3984 6.54111E-03-7.55161E-05-5.83270E-14
 -1      3985 6.86945E-03-9.25652E-05-6.42321E-14
 -1      3986 6.99531E-03-8.88633E-05-6.66488E-14
 -1      3987 7.02157E-03-5.39048E-05-6.76210E-14
 -1      3988 6.78775E-03-6.62391E-05-6.29407E-14
 -1      3989 1.27188E-02 2.75806E-05-1.59190E-13
 -1      3990 1.28452E-02 3.17163E-05-1.62638E-13
 -1      3991 1.33045E-02 2.94627E-04-1.71483E-13
 -1      3992 1.24463E-02 2.42532E-04-1.47637E-13
 -1      3993 5.36429E-03 1.67482E-04-3.85059E-14
 -1      3994 5.22584E-03 1.70261E-04-3.66123E-14
 -1      3995 2.37573E-03 2.61146E-04-8.23003E-15
 -1      3996 2.23110E-03 2.57538E-04-7.33550E-15
 -1      3997 2.15441E-03 2.19464E-04-6.98068E-15
 -1      3998 1.29725E-02 3.59641E-05-1.66098E-13
 -1      3999 1.31012E-02 4.02019E-05-1.69572E-13
 -1      4000 1.29369E-02 6.27800E-05-1.64182E-13
 -1      4001 1.32309E-02 4.46029E-05-1.73060E-13
 -1      4002 1.33620E-02 4.90787E-05-1.76558E-13
 -1      4003 1.31886E-02 7.11604E-05-1.71128E-13
 -1      4004 5.08673E-03 1.72919E-04-3.47620E-14
 -1      4005 4.94699E-03 1.75487E-04-3.29557E-14
 -1      4006 5.15279E-03 1.38459E-04-3.58129E-14
 -1      4007 6.17693E-03 1.50459E-04-5.07637E-14
 -1      4008 6.04400E-03 1.53188E-04-4.86170E-14
 -1      4009 5.90998E-03 1.55975E-04-4.65115E-14
 -1      4010 5.77490E-03 1.58875E-04-4.44467E-14
 -1      4011 5.96921E-03 1.24841E-04-4.77088E-14
 -1      4012 6.69559E-03 1.41786E-04-5.97401E-14
 -1      4013 6.56800E-03 1.43574E-04-5.74377E-14
 -1      4014 6.94590E-03 1.39455E-04-6.44531E-14
 -1      4015 6.82147E-03 1.40463E-04-6.20790E-14
 -1      4016 6.74049E-03 1.14251E-04-6.10718E-14
 -1      4017 7.18921E-03 1.38839E-04-6.93095E-14
 -1      4018 7.06832E-03 1.39035E-04-6.68642E-14
 -1      4019 6.98261E-03 1.12595E-04-6.58278E-14
 -1      4020 1.31107E-02 2.84466E-04-1.66229E-13
 -1      4021 1.29842E-02 2.75476E-04-1.62759E-13
 -1      4022 1.26200E-02 1.09797E-04-1.52584E-13
 -1      4023 3.52972E-03 2.66815E-04-1.71760E-14
 -1      4024 3.38598E-03 2.67694E-04-1.58863E-14
 -1      4025 3.31135E-03 2.30747E-04-1.53657E-14
 -1      4026 3.59910E-03 2.29221E-04-1.79529E-14
 -1      4027 1.28597E-02 2.66917E-04-1.59301E-13
 -1      4028 1.27366E-02 2.58650E-04-1.55860E-13
 -1      4029 1.29385E-02 2.44007E-04-1.61252E-13
 -1      4030 1.26032E-02 3.44150E-05-1.55547E-13
 -1      4031 2.42468E-03-1.53453E-04-9.10739E-15
 -1      4032 2.56981E-03-1.54966E-04-1.01078E-14
 -1      4033 2.64027E-03-1.18606E-04-1.06183E-14
 -1      4034 1.36712E-02 2.21579E-04-1.81902E-13
 -1      4035 1.36732E-02 2.53046E-04-1.81662E-13
 -1      4036 1.34837E-02 2.48072E-04-1.76479E-13
 -1      4037 1.35567E-02 1.99569E-04-1.78977E-13
 -1      4038 7.47248E-03 1.43076E-04-7.52337E-14
 -1      4039 2.13453E-03-1.48814E-04-7.25815E-15
 -1      4040 2.27956E-03-1.51420E-04-8.15736E-15
 -1      4041 2.34982E-03-1.16244E-04-8.62099E-15
 -1      4042 1.77220E-03-7.29781E-05-5.24420E-15
 -1      4043 1.84551E-03-1.24680E-04-5.62182E-15
 -1      4044 1.99010E-03-1.28216E-04-6.41944E-15
 -1      4045 6.43904E-03 1.45593E-04-5.51740E-14
 -1      4046 6.30860E-03 1.47954E-04-5.29494E-14
 -1      4047 6.23254E-03 1.20609E-04-5.20069E-14
 -1      4048 7.26808E-03-1.05310E-05-7.35344E-14
 -1      4049 7.28965E-03 1.71303E-05-7.45565E-14
 -1      4050 7.15958E-03-1.59502E-05-7.10282E-14
 -1      4051 5.63889E-03 1.61756E-04-4.24235E-14
 -1      4052 5.50198E-03 1.64659E-04-4.04429E-14
 -1      4053 5.42860E-03 1.34009E-04-3.96066E-14
 -1      4054 1.25854E-02 2.47824E-04-1.51538E-13
 -1      4055 2.66490E-03 2.65918E-04-1.01700E-14
 -1      4056 2.52034E-03 2.63915E-04-9.17467E-15
 -1      4057 2.44406E-03 2.25917E-04-8.77868E-15
 -1      4058 2.73363E-03 2.29529E-04-1.07772E-14
 -1      4059 1.35933E-02 5.52064E-05-1.82734E-13
 -1      4060 1.26997E-02 6.54207E-05-1.57079E-13
 -1      4061 1.48216E-03 1.17280E-05-3.81714E-15
 -1      4062 1.48227E-03-2.23667E-05-3.83505E-15
 -1      4063 1.60645E-03-4.11321E-05-4.41517E-15
 -1      4064 1.56427E-03 1.57393E-05-4.18872E-15
 -1      4065 6.49001E-03 1.16996E-04-5.64628E-14
 -1      4066 3.95540E-03 1.89321E-04-2.15716E-14
 -1      4067 3.81223E-03 1.90629E-04-2.01303E-14
 -1      4068 1.34407E-02 9.38782E-05-1.77641E-13
 -1      4069 1.34885E-02 6.75820E-05-1.79586E-13
 -1      4070 1.32498E-02 2.62386E-04-1.69957E-13
 -1      4071 4.87410E-03 1.42594E-04-3.21945E-14
 -1      4072 4.80669E-03 1.77906E-04-3.11936E-14
 -1      4073 4.66587E-03 1.80204E-04-2.94757E-14
 -1      4074 1.26719E-02 2.23988E-04-1.53475E-13
 -1      4075 7.25052E-03 3.06593E-05-7.36568E-14
 -1      4076 7.35202E-03 7.72538E-05-7.53312E-14
 -1      4077 7.34851E-03 9.54491E-05-7.44142E-14
 -1      4078 7.29450E-03 6.21341E-05-7.43708E-14
 -1      4079 1.93356E-03 1.77544E-04-5.82372E-15
 -1      4080 1.78914E-03 1.72289E-04-5.07190E-15
 -1      4081 5.70096E-03 1.29398E-04-4.35734E-14
 -1      4082 7.28042E-03 1.19523E-04-7.19159E-14
 -1      4083 7.19370E-03 9.42276E-05-7.08453E-14
 -1      4084 7.36136E-03 1.41652E-04-7.28499E-14
 -1      4085 1.27192E-02 1.32747E-04-1.55063E-13
 -1      4086 1.27062E-02 9.76769E-05-1.55935E-13
 -1      4087 4.45619E-03 2.18865E-04-2.68589E-14
 -1      4088 1.71129E-03 1.64906E-04-4.69553E-15
 -1      4089 1.62825E-03 1.57354E-04-4.30772E-15
 -1      4090 1.62498E-03 1.20878E-04-4.35497E-15
 -1      4091 1.78025E-03 1.34367E-04-5.09865E-15
 -1      4092 2.06041E-03-9.47128E-05-6.83175E-15
 -1      4093 1.34661E-02 1.72865E-04-1.76795E-13
 -1      4094 1.34341E-02 1.96924E-04-1.75552E-13
 -1      4095 1.28168E-02 9.20076E-05-1.59582E-13
 -1      4096 1.75017E-03-4.28170E-05-5.12562E-15
 -1      4097 1.89446E-03-4.42381E-05-5.88715E-15
 -1      4098 1.72869E-03-1.30168E-05-5.00431E-15
 -1      4099 2.80302E-03 1.92867E-04-1.13924E-14
 -1      4100 2.65813E-03 1.91817E-04-1.03395E-14
 -1      4101 1.26346E-02 1.98196E-04-1.51960E-13
 -1      4102 1.26139E-02 1.73487E-04-1.51013E-13
 -1      4103 1.26809E-02 1.62973E-04-1.53231E-13
 -1      4104 1.27748E-02 2.09466E-04-1.56278E-13
 -1      4105 3.09241E-03 1.93733E-04-1.36454E-14
 -1      4106 2.94779E-03 1.93497E-04-1.24946E-14
 -1      4107 2.87301E-03 1.55998E-04-1.20158E-14
 -1      4108 4.24074E-03 1.86170E-04-2.45952E-14
 -1      4109 4.09824E-03 1.87840E-04-2.30598E-14
 -1      4110 4.02504E-03 1.52269E-04-2.24164E-14
 -1      4111 1.34493E-02 1.18475E-04-1.77333E-13
 -1      4112 1.34630E-02 1.49283E-04-1.77109E-13
 -1      4113 1.33422E-02 1.47771E-04-1.73693E-13
 -1      4114 1.33279E-02 1.00401E-04-1.74315E-13
 -1      4115 1.33653E-02 2.18008E-04-1.73380E-13
 -1      4116 1.33263E-02 2.41557E-04-1.72134E-13
 -1      4117 1.31388E-02 2.32235E-04-1.66882E-13
 -1      4118 1.32803E-02 1.91706E-04-1.71213E-13
 -1      4119 3.14643E-03-8.24703E-05-1.45679E-14
 -1      4120 3.29104E-03-8.23172E-05-1.58109E-14
 -1      4121 3.43539E-03-8.20453E-05-1.71029E-14
 -1      4122 3.57944E-03-8.16416E-05-1.84433E-14
 -1      4123 3.36250E-03-4.50044E-05-1.64141E-14
 -1      4124 3.72318E-03-8.11416E-05-1.98317E-14
 -1      4125 3.86656E-03-8.05299E-05-2.12674E-14
 -1      4126 3.65065E-03-4.45211E-05-1.90888E-14
 -1      4127 4.00957E-03-7.98331E-05-2.27512E-14
 -1      4128 4.15216E-03-7.90332E-05-2.42813E-14
 -1      4129 3.93742E-03-4.38009E-05-2.19548E-14
 -1      4130 4.29432E-03-7.81529E-05-2.58576E-14
 -1      4131 4.43601E-03-7.71719E-05-2.74805E-14
 -1      4132 4.22255E-03-4.28561E-05-2.50097E-14
 -1      4133 4.57718E-03-7.61129E-05-2.91484E-14
 -1      4134 4.71780E-03-7.49445E-05-3.08619E-14
 -1      4135 4.50579E-03-4.16856E-05-2.82495E-14
 -1      4136 4.85781E-03-7.37047E-05-3.26202E-14
 -1      4137 4.99717E-03-7.23489E-05-3.44223E-14
 -1      4138 4.78680E-03-4.02880E-05-3.16702E-14
 -1      4139 5.13582E-03-7.09087E-05-3.62695E-14
 -1      4140 5.27372E-03-6.93451E-05-3.81600E-14
 -1      4141 5.06517E-03-3.86211E-05-3.52689E-14
 -1      4142 5.41077E-03-6.76962E-05-4.00945E-14
 -1      4143 5.54692E-03-6.59099E-05-4.20726E-14
 -1      4144 5.34046E-03-3.66520E-05-3.90444E-14
 -1      4145 5.68208E-03-6.40351E-05-4.40927E-14
 -1      4146 5.81619E-03-6.20053E-05-4.61556E-14
 -1      4147 5.61207E-03-3.43266E-05-4.29928E-14
 -1      4148 5.94912E-03-5.98829E-05-4.82611E-14
 -1      4149 6.08083E-03-5.75799E-05-5.04072E-14
 -1      4150 5.87932E-03-3.15722E-05-4.71128E-14
 -1      4151 6.21112E-03-5.51766E-05-5.25940E-14
 -1      4152 6.34000E-03-5.25496E-05-5.48195E-14
 -1      4153 6.14138E-03-2.82892E-05-5.13991E-14
 -1      4154 6.46718E-03-4.98049E-05-5.70830E-14
 -1      4155 6.59270E-03-4.67675E-05-5.93856E-14
 -1      4156 6.39718E-03-2.43316E-05-5.58435E-14
 -1      4157 6.02884E-03 9.48534E-05-4.89096E-14
 -1      4158 5.89669E-03 9.64450E-05-4.67983E-14
 -1      4159 2.22315E-03 1.85372E-04-7.47964E-15
 -1      4160 2.07826E-03 1.81875E-04-6.62648E-15
 -1      4161 2.00274E-03 1.44904E-04-6.27341E-15
 -1      4162 1.32012E-02 9.56423E-05-1.70823E-13
 -1      4163 5.21897E-03 1.04753E-04-3.68684E-14
 -1      4164 5.08066E-03 1.06375E-04-3.50121E-14
 -1      4165 7.21963E-03 4.57811E-05-7.27624E-14
 -1      4166 7.19646E-03 6.13703E-05-7.18659E-14
 -1      4167 7.15034E-03 2.83105E-05-7.11598E-14
 -1      4168 5.76329E-03 9.80524E-05-4.47280E-14
 -1      4169 5.62871E-03 9.97478E-05-4.26986E-14
 -1      4170 5.82613E-03 6.77191E-05-4.58854E-14
 -1      4171 7.02034E-03 8.79856E-05-6.72046E-14
 -1      4172 6.90486E-03 8.83238E-05-6.47883E-14
 -1      4173 6.78649E-03 8.84720E-05-6.24073E-14
 -1      4174 6.66527E-03 8.91220E-05-6.00622E-14
 -1      4175 6.83424E-03 6.45416E-05-6.37460E-14
 -1      4176 1.27803E-02 1.54096E-04-1.56596E-13
 -1      4177 4.52459E-03 1.82348E-04-2.78028E-14
 -1      4178 4.38286E-03 1.84347E-04-2.61759E-14
 -1      4179 4.59301E-03 1.46322E-04-2.87533E-14
 -1      4180 6.54182E-03 8.98843E-05-5.77551E-14
 -1      4181 6.41621E-03 9.09381E-05-5.54853E-14
 -1      4182 6.59506E-03 6.42493E-05-5.90500E-14
 -1      4183 2.03760E-03-5.38337E-05-6.69358E-15
 -1      4184 2.18147E-03-7.27096E-05-7.55434E-15
 -1      4185 2.56610E-03-8.13782E-05-1.00848E-14
 -1      4186 2.71138E-03-8.19427E-05-1.11313E-14
 -1      4187 3.73873E-03 1.54389E-04-1.95268E-14
 -1      4188 3.66878E-03 1.91725E-04-1.87363E-14
 -1      4189 3.52505E-03 1.92616E-04-1.73910E-14
 -1      4190 6.28876E-03 9.20562E-05-5.32545E-14
 -1      4191 6.15955E-03 9.34261E-05-5.10621E-14
 -1      4192 6.08920E-03 6.60076E-05-5.01156E-14
 -1      4193 6.34601E-03 6.47948E-05-5.45064E-14
 -1      4194 7.05227E-03-2.21921E-05-6.86302E-14
 -1      4195 7.08666E-03 6.49782E-06-6.96318E-14
 -1      4196 6.94108E-03-2.84236E-05-6.62626E-14
 -1      4197 2.58294E-03 1.54222E-04-9.90275E-15
 -1      4198 2.51315E-03 1.90257E-04-9.33654E-15
 -1      4199 2.36814E-03 1.88143E-04-8.38311E-15
 -1      4200 7.10181E-03 7.61147E-05-6.92754E-14
 -1      4201 1.67063E-03 1.00104E-04-4.60562E-15
 -1      4202 1.66874E-03 6.35433E-05-4.64310E-15
 -1      4203 1.74821E-03 1.06341E-04-4.98137E-15
 -1      4204 1.68807E-03 4.01040E-05-4.76228E-15
 -1      4205 1.70856E-03 1.09282E-05-4.88811E-15
 -1      4206 1.85270E-03 1.13268E-05-5.63144E-15
 -1      4207 1.81338E-03 6.02941E-05-5.37682E-15
 -1      4208 2.30109E-03-7.67036E-05-8.30424E-15
 -1      4209 2.44639E-03-7.76973E-05-9.25959E-15
 -1      4210 2.51808E-03-4.14642E-05-9.73359E-15
 -1      4211 2.27872E-03-3.46878E-05-8.14607E-15
 -1      4212 1.30173E-02 2.24077E-04-1.63413E-13
 -1      4213 1.28985E-02 2.15811E-04-1.59958E-13
 -1      4214 1.30901E-02 2.04445E-04-1.65573E-13
 -1      4215 2.85656E-03-8.23039E-05-1.22275E-14
 -1      4216 3.00159E-03-8.24637E-05-1.33735E-14
 -1      4217 2.78306E-03-4.50403E-05-1.16472E-14
 -1      4218 5.49308E-03 1.01417E-04-4.07118E-14
 -1      4219 5.35646E-03 1.03115E-04-3.87687E-14
 -1      4220 5.55791E-03 6.97164E-05-4.18220E-14
 -1      4221 1.82596E-03 1.12522E-04-5.37091E-15
 -1      4222 1.97050E-03 1.15840E-04-6.14516E-15
 -1      4223 1.93871E-03 8.71262E-05-6.01410E-15
 -1      4224 2.11536E-03 1.18573E-04-6.97024E-15
 -1      4225 1.32448E-02 1.32921E-04-1.71181E-13
 -1      4226 1.32496E-02 1.55655E-04-1.70868E-13
 -1      4227 1.31875E-02 1.76360E-04-1.68711E-13
 -1      4228 1.31125E-02 1.04768E-04-1.68011E-13
 -1      4229 4.09490E-03 1.15515E-04-2.32671E-14
 -1      4230 3.95212E-03 1.16445E-04-2.17717E-14
 -1      4231 2.29267E-03 1.50696E-04-7.98795E-15
 -1      4232 3.80897E-03 1.17244E-04-2.03237E-14
 -1      4233 3.66545E-03 1.17932E-04-1.89230E-14
 -1      4234 3.87949E-03 8.03420E-05-2.11264E-14
 -1      4235 6.71009E-03-3.96641E-05-6.16276E-14
 -1      4236 6.82699E-03-3.40655E-05-6.39285E-14
 -1      4237 6.86919E-03-4.19536E-06-6.49079E-14
 -1      4238 3.07321E-03-4.51994E-05-1.39334E-14
 -1      4239 4.94162E-03 1.07916E-04-3.32002E-14
 -1      4240 4.80189E-03 1.09407E-04-3.14319E-14
 -1      4241 5.00933E-03 7.38962E-05-3.42100E-14
 -1      4242 7.04733E-03 2.34289E-05-6.87634E-14
 -1      4243 1.29007E-02 8.78246E-05-1.62268E-13
 -1      4244 1.30220E-02 9.18030E-05-1.65726E-13
 -1      4245 5.28540E-03 7.18205E-05-3.79286E-14
 -1      4246 2.94358E-03 1.18950E-04-1.26471E-14
 -1      4247 2.79856E-03 1.18539E-04-1.15375E-14
 -1      4248 1.28484E-02 1.91054E-04-1.58425E-13
 -1      4249 7.03487E-03 5.39772E-05-6.82013E-14
 -1      4250 1.30675E-02 1.27962E-04-1.66081E-13
 -1      4251 1.95788E-03 6.21234E-05-6.15310E-15
 -1      4252 2.01584E-03-2.22075E-05-6.55490E-15
 -1      4253 2.72449E-03 8.11801E-05-1.10604E-14
 -1      4254 2.65341E-03 1.17843E-04-1.04772E-14
 -1      4255 2.50818E-03 1.16840E-04-9.46683E-15
 -1      4256 1.28954E-02 1.18637E-04-1.61110E-13
 -1      4257 6.64001E-03-1.55816E-05-6.03432E-14
 -1      4258 3.38106E-03 1.93260E-04-1.60940E-14
 -1      4259 3.23684E-03 1.93652E-04-1.48452E-14
 -1      4260 3.16250E-03 1.56425E-04-1.43249E-14
 -1      4261 3.45115E-03 1.55819E-04-1.68288E-14
 -1      4262 1.28952E-02 1.33677E-04-1.60692E-13
 -1      4263 1.29803E-02 1.30817E-04-1.63382E-13
 -1      4264 1.30656E-02 1.43566E-04-1.65659E-13
 -1      4265 4.30989E-03 1.49559E-04-2.54924E-14
 -1      4266 3.28997E-03-7.84920E-06-1.57322E-14
 -1      4267 3.43436E-03-7.78059E-06-1.70180E-14
 -1      4268 2.38429E-03 1.18992E-04-8.63741E-15
 -1      4269 2.23909E-03 1.17239E-04-7.71903E-15
 -1      4270 2.20731E-03 8.76147E-05-7.57307E-15
 -1      4271 2.45521E-03 8.32028E-05-9.16853E-15
 -1      4272 3.62095E-03 1.82828E-05-1.87149E-14
 -1      4273 3.76460E-03 1.82391E-05-2.01093E-14
 -1      4274 3.90787E-03 1.81586E-05-2.15513E-14
 -1      4275 4.05073E-03 1.80883E-05-2.30412E-14
 -1      4276 4.43482E-03-6.87625E-06-2.73550E-14
 -1      4277 4.57585E-03-6.66338E-06-2.90179E-14
 -1      4278 4.75765E-03 1.75741E-05-3.11806E-14
 -1      4279 4.89726E-03 1.75098E-05-3.29440E-14
 -1      4280 5.03615E-03 1.74176E-05-3.47508E-14
 -1      4281 5.17426E-03 1.73888E-05-3.66022E-14
 -1      4282 5.31151E-03 1.73468E-05-3.84976E-14
 -1      4283 5.44783E-03 1.73991E-05-4.04363E-14
 -1      4284 5.58312E-03 1.74480E-05-4.24188E-14
 -1      4285 5.71731E-03 1.76336E-05-4.44425E-14
 -1      4286 5.85025E-03 1.78287E-05-4.65095E-14
 -1      4287 5.98187E-03 1.82178E-05-4.86186E-14
 -1      4288 6.11199E-03 1.86306E-05-5.07684E-14
 -1      4289 6.24050E-03 1.93149E-05-5.29581E-14
 -1      4290 6.36718E-03 2.00333E-05-5.51869E-14
 -1      4291 6.49188E-03 2.11365E-05-5.74524E-14
 -1      4292 3.00040E-03-7.93429E-06-1.33058E-14
 -1      4293 3.14530E-03-7.89375E-06-1.44944E-14
 -1      4294 3.21781E-03 2.93964E-05-1.50570E-14
 -1      4295 1.30671E-02 1.69693E-04-1.65236E-13
 -1      4296 6.61431E-03 2.22485E-05-5.97571E-14
 -1      4297 6.73009E-03 2.77920E-05-6.19970E-14
 -1      4298 3.04475E-03 9.28689E-05-1.35058E-14
 -1      4299 2.97125E-03 5.55290E-05-1.29858E-14
 -1      4300 1.28987E-02 1.58680E-04-1.60271E-13
 -1      4301 6.84395E-03 3.12592E-05-6.42981E-14
 -1      4302 4.61900E-03 8.68176E-05-2.92809E-14
 -1      4303 4.47799E-03 8.78156E-05-2.76124E-14
 -1      4304 4.21584E-03 1.02055E-04-2.46119E-14
 -1      4305 4.14369E-03 6.65716E-05-2.39259E-14
 -1      4306 4.17213E-03 5.39891E-06-2.43729E-14
 -1      4307 4.35780E-03 1.01054E-04-2.61934E-14
 -1      4308 6.95771E-03 3.27440E-05-6.67084E-14
 -1      4309 1.97545E-03 2.86279E-05-6.28734E-15
 -1      4310 1.99547E-03 3.29660E-06-6.42205E-15
 -1      4311 2.13862E-03-5.16657E-06-7.26281E-15
 -1      4312 2.10068E-03 5.51193E-05-6.97803E-15
 -1      4313 2.22456E-03 5.28087E-05-7.72766E-15
 -1      4314 3.18950E-03 9.28838E-05-1.47007E-14
 -1      4315 4.68815E-03 5.19387E-05-3.02284E-14
 -1      4316 4.31415E-03 5.44334E-06-2.59492E-14
 -1      4317 4.38526E-03 4.07153E-05-2.66769E-14
 -1      4318 2.91310E-03 2.37606E-05-1.25757E-14
 -1      4319 2.81115E-03 4.98030E-05-1.17557E-14
 -1      4320 2.66589E-03 4.95062E-05-1.06846E-14
 -1      4321 2.84044E-03-1.34483E-05-1.20569E-14
 -1      4322 1.29784E-02 1.71660E-04-1.62538E-13
 -1      4323 2.69518E-03-1.34146E-05-1.09702E-14
 -1      4324 2.56268E-03-1.18186E-05-1.00216E-14
 -1      4325 2.62052E-03 1.95301E-05-1.03981E-14
 -1      4326 2.53344E-03 5.06372E-05-9.74879E-15
 -1      4327 2.44301E-03-8.71989E-06-9.19935E-15
 -1      4328 2.23096E-03-5.41611E-06-7.82661E-15
 -1      4329 2.35055E-03-8.46288E-06-8.58891E-15
 -1      4330 2.39557E-03 2.08934E-05-8.85570E-15
 -1      4331 2.21076E-03 2.08584E-05-7.67844E-15
 -1      4332 3.47827E-03 9.24949E-05-1.72360E-14
 -1      4333 3.33402E-03 9.27673E-05-1.59443E-14
 -1      4334 3.54943E-03 5.53114E-05-1.79723E-14
 -1      4335 2.31693E-03 5.31680E-05-8.30737E-15
 -1      4336 2.40935E-03 5.34486E-05-8.90736E-15
 -3
    1PSTEP                         2           1           1          
  100CL  101 1.000000000        4336                     0    1           1
 -4  STRESS      6    1
 -5  SXX         1    4    1    1
 -5  SYY         1    4    2    2
 -5  SZZ         1    4    3    3
 -5  SXY         1    4    1    2
 -5  SYZ         1    4    2    3
 -5  SZX         1    4    3    1
 -1         1 5.61002E+01 4.35960E+00 3.03581E+00 1.42277E+01-5.55105E-13-1.59073E-12
 -1         2-7.27356E-01-2.44155E+01-3.35155E+00-1.71696E-01 9.09212E-14 3.19987E-14
 -1         3 1.99904E+01-1.01377E-02 2.71763E-02-1.01227E-02-6.02072E-13-6.81554E-13
 -1         4 1.99915E+01-8.60543E-03 2.63414E-02 8.77634E-03 2.75351E-13-4.69475E-14
 -1         5 3.27563E+01 6.14038E+00 2.74196E+00 6.22322E+00-7.84303E-14 5.21790E-12
 -1         6 3.57406E+01 1.22596E+01 5.12461E+00-8.64510E+00-3.16192E-13 4.76780E-12
 -1         7 2.08096E+01 6.09715E+00-1.28969E-01-4.72622E+00-4.30767E-14 7.36682E-13
 -1         8 1.96656E+01 5.93311E+00 5.06451E-02-3.27673E+00-5.81132E-14-4.70864E-13
 -1         9 1.91343E+01 5.77113E+00 4.89987E-02-2.52940E+00-4.82028E-14-1.10753E-12
 -1        10 1.88965E+01 5.69242E+00 5.13235E-02-1.95386E+00-3.24298E-14-1.41366E-12
 -1        11 1.87770E+01 5.65230E+00 5.05242E-02-1.45829E+00-2.13497E-14-1.54745E-12
 -1        12 1.87156E+01 5.63120E+00 4.89243E-02-1.01689E+00-9.43191E-15-1.58901E-12
 -1        13 1.86835E+01 5.62021E+00 4.75736E-02-5.96438E-01-1.77126E-15-1.58767E-12
 -1        14 1.86702E+01 5.61560E+00 4.68535E-02-1.91575E-01 3.62145E-15-1.56054E-12
 -1        15 1.86707E+01 5.61576E+00 4.68946E-02 2.08565E-01 1.38666E-14-1.51941E-12
 -1        16 1.86851E+01 5.62070E+00 4.77097E-02 6.14261E-01 1.95675E-14-1.46999E-12
 -1        17 1.87184E+01 5.63196E+00 4.92107E-02 1.03669E+00 2.65165E-14-1.38427E-12
 -1        18 1.87811E+01 5.65335E+00 5.09344E-02 1.48131E+00 3.62930E-14-1.24367E-12
 -1        19 1.89015E+01 5.69391E+00 5.15995E-02 1.98278E+00 5.18995E-14-1.00180E-12
 -1        20 1.91398E+01 5.77369E+00 4.87787E-02 2.56641E+00 6.37598E-14-5.79446E-13
 -1        21 1.96614E+01 5.94782E+00 4.57983E-02 3.31092E+00 7.47319E-14 2.09164E-13
 -1        22 2.11926E+01 6.37894E+00 1.39440E-01 4.52392E+00 9.14546E-15 1.76918E-12
 -1        23 2.30172E+01-1.37856E+00-9.37979E-01-7.11596E-01-2.19966E-13 3.66493E-12
 -1        24 1.93521E+01-9.94609E-02-3.09827E-01 6.30599E-02-5.79667E-14 2.68771E-12
 -1        25 1.86616E+01-5.63286E-02-6.87813E-02 6.06465E-02-2.61219E-14 1.73533E-12
 -1        26 1.84572E+01-2.21078E-02-6.43016E-03 3.28605E-02-2.97288E-16 1.08990E-12
 -1        27 1.84664E+01-1.18394E-02 1.60657E-03 2.24469E-02-2.37214E-14 6.47744E-13
 -1        28 1.85787E+01-6.31269E-03 1.76938E-03 1.61102E-02-1.22390E-15 3.07586E-13
 -1        29 1.87374E+01-3.20876E-03 1.67011E-03 1.19208E-02-1.69623E-16 3.45162E-14
 -1        30 1.89117E+01-1.42747E-03 1.78934E-03 8.92235E-03 1.16328E-15-1.44008E-13
 -1        31 1.90850E+01-4.33803E-04 1.85631E-03 6.66234E-03-3.28758E-15-3.88314E-13
 -1        32 1.92488E+01 5.53468E-05 1.75443E-03 4.91560E-03-4.60909E-15-6.16759E-13
 -1        33 1.94001E+01 2.01359E-04 1.47954E-03 3.56229E-03 5.05826E-14-6.96555E-13
 -1        34 1.95398E+01 1.01284E-04 1.05615E-03 2.53512E-03-1.10791E-14-7.75333E-13
 -1        35 1.96714E+01-1.84289E-04 5.04640E-04 1.79743E-03 2.65467E-14-9.29582E-13
 -1        36 1.98009E+01-6.16084E-04-1.65004E-04 1.33487E-03 7.80278E-15-9.98229E-13
 -1        37 1.99359E+01-1.16613E-03-9.50919E-04 1.15295E-03-1.38468E-14-1.02633E-12
 -1        38 2.00855E+01-1.80915E-03-1.85380E-03 1.27711E-03-4.19987E-14-1.13015E-12
 -1        39 2.02607E+01-2.51306E-03-2.86817E-03 1.75348E-03-7.14950E-15-1.38681E-12
 -1        40 2.04732E+01-3.22687E-03-3.96812E-03 2.64806E-03 3.33140E-14-1.42316E-12
 -1        41 2.07356E+01-3.86431E-03-5.08388E-03 4.04097E-03 4.12829E-14-1.34227E-12
 -1        42 2.10598E+01-4.28226E-03-6.06355E-03 6.00958E-03-9.61890E-14-1.36045E-12
 -1        43 2.14551E+01-4.25509E-03-6.61430E-03 8.58898E-03-2.65406E-14-1.32904E-12
 -1        44 2.19247E+01-3.45189E-03-6.22236E-03 1.16910E-02 3.53318E-14-1.19793E-12
 -1        45 2.24597E+01-1.43634E-03-4.07204E-03 1.49557E-02-3.93773E-14-1.21014E-12
 -1        46 2.30306E+01 2.26771E-03 9.61331E-04 1.75133E-02 1.39543E-14-1.36545E-12
 -1        47 2.35767E+01 7.97120E-03 1.00695E-02 1.76807E-02 2.06850E-14-9.64369E-13
 -1        48 2.39963E+01 1.53990E-02 2.37341E-02 1.27595E-02-3.69671E-14-1.04174E-12
 -1        49 2.41450E+01 2.30598E-02 4.01476E-02-5.92343E-04 3.24927E-14-1.24122E-12
 -1        50 2.38581E+01 2.77357E-02 5.33272E-02-2.46501E-02-1.00950E-13-1.41740E-12
 -1        51 2.30127E+01 2.49463E-02 5.28789E-02-5.70817E-02 8.17753E-14-1.20111E-12
 -1        52 2.16302E+01 1.13317E-02 2.84353E-02-8.69984E-02-3.45599E-14-9.23945E-13
 -1        53 1.99739E+01-1.15372E-02-2.00797E-02-9.58429E-02 6.37728E-15-9.05706E-13
 -1        54 1.85406E+01-3.49301E-02-7.35632E-02-6.86761E-02-3.35014E-14-8.93334E-13
 -1        55 1.78688E+01-4.66973E-02-1.01504E-01-9.73930E-03-3.27156E-14-1.18403E-12
 -1        56 1.82377E+01-3.99680E-02-8.55226E-02 5.39984E-02 2.80600E-14-1.30853E-12
 -1        57 1.94870E+01-1.86308E-02-3.61815E-02 9.19379E-02-2.36119E-14-1.25647E-12
 -1        58 2.11218E+01 5.63873E-03 1.67382E-02 9.25079E-02 1.78217E-14-1.34646E-12
 -1        59 2.26035E+01 2.24879E-02 4.89570E-02 6.64669E-02 2.56099E-14-1.26680E-12
 -1        60 2.35915E+01 2.82824E-02 5.57012E-02 3.30546E-02-6.65353E-15-1.14408E-12
 -1        61 2.40009E+01 2.53225E-02 4.53007E-02 5.79312E-03 1.43895E-14-1.26448E-12
 -1        62 2.39237E+01 1.81400E-02 2.90707E-02-1.08140E-02 3.38119E-15-1.13879E-12
 -1        63 2.35203E+01 1.03980E-02 1.43480E-02-1.81713E-02-9.05950E-14-1.17475E-12
 -1        64 2.29444E+01 4.02735E-03 3.90711E-03-1.95815E-02 3.67852E-14-1.36325E-12
 -1        65 2.23114E+01-4.60733E-04-2.33623E-03-1.79996E-02-6.43238E-14-1.16284E-12
 -1        66 2.16956E+01-3.32660E-03-5.61882E-03-1.53480E-02 1.26795E-13-1.13145E-12
 -1        67 2.11401E+01-5.10694E-03-7.38955E-03-1.25686E-02 1.05633E-13-7.00931E-13
 -1        68 2.06697E+01-6.32670E-03-8.96656E-03-9.81158E-03 8.21066E-15-3.29853E-13
 -1        69 2.03029E+01-7.24756E-03-1.11761E-02-6.44384E-03-2.02103E-14-1.10193E-13
 -1        70 2.00621E+01-6.69070E-03-1.22365E-02-9.49119E-05 3.59751E-14 2.73172E-13
 -1        71 1.99751E+01 1.35362E-03-1.38048E-03 8.61633E-03-1.49246E-13 2.84545E-13
 -1        72 2.10299E+01-4.04739E-01-9.80154E-01-3.11241E-01 7.73409E-14 4.78095E-12
 -1        73 1.93166E+01-6.58802E-02-2.91124E-01-5.37371E-02 2.96304E-14 3.67152E-12
 -1        74 1.86711E+01-2.05136E-02-6.42713E-02-2.02635E-02 2.34783E-14 2.84311E-12
 -1        75 1.84661E+01-9.89721E-03-9.30028E-03-1.53406E-02 8.92840E-15 2.23743E-12
 -1        76 1.84752E+01-5.20292E-03 6.84255E-04-1.22307E-02 1.36305E-14 1.80239E-12
 -1        77 1.85866E+01-2.68054E-03 1.72374E-03-9.90441E-03 1.91169E-14 1.47062E-12
 -1        78 1.87441E+01-1.25263E-03 1.81604E-03-8.09550E-03-1.17116E-14 1.26951E-12
 -1        79 1.89173E+01-4.47944E-04 1.94171E-03-6.57719E-03 3.88415E-15 1.09381E-12
 -1        80 1.90893E+01-2.97775E-05 1.98389E-03-5.24293E-03-5.24216E-15 9.75415E-13
 -1        81 1.92519E+01 1.31276E-04 1.85524E-03-4.05082E-03 2.91382E-14 7.86415E-13
 -1        82 1.94021E+01 1.10542E-04 1.55394E-03-2.98345E-03-3.97821E-15 6.12022E-13
 -1        83 1.95407E+01-4.71792E-05 1.10223E-03-2.03282E-03 6.07842E-15 4.35309E-13
 -1        84 1.96714E+01-3.15374E-04 5.17097E-04-1.19598E-03 1.91331E-14 3.46585E-13
 -1        85 1.98001E+01-6.78717E-04-1.96759E-04-4.75570E-04 4.37343E-15 3.27720E-13
 -1        86 1.99350E+01-1.12789E-03-1.04605E-03 1.16729E-04-2.30533E-15 1.77222E-13
 -1        87 2.00858E+01-1.65438E-03-2.04526E-03 5.54479E-04 3.77724E-14-9.72199E-15
 -1        88 2.02643E+01-2.24364E-03-3.21017E-03 7.87980E-04-5.08619E-14 1.17644E-13
 -1        89 2.04842E+01-2.86504E-03-4.54612E-03 7.32469E-04 3.91755E-14 1.30510E-13
 -1        90 2.07607E+01-3.45624E-03-6.02604E-03 2.52813E-04-3.52900E-15-1.04026E-13
 -1        91 2.11101E+01-3.89975E-03-7.54943E-03-8.54073E-04-1.98986E-15-1.13139E-13
 -1        92 2.15484E+01-3.99048E-03-8.86847E-03-2.87256E-03 8.00607E-15 6.63657E-14
 -1        93 2.20875E+01-3.39861E-03-9.46429E-03-6.15773E-03 6.25260E-14-4.36803E-15
 -1        94 2.27299E+01-1.64802E-03-8.36877E-03-1.10541E-02 7.83485E-15-4.60747E-13
 -1        95 2.34576E+01 1.83439E-03-3.98590E-03-1.76508E-02-1.20703E-15-3.68776E-13
 -1        96 2.42176E+01 7.49054E-03 5.87257E-03-2.52317E-02 4.40993E-14-1.04767E-13
 -1        97 2.49014E+01 1.50837E-02 2.32251E-02-3.13319E-02-3.61341E-14 3.21704E-14
 -1        98 2.53297E+01 2.27593E-02 4.76611E-02-3.06130E-02-8.89850E-14 4.54919E-13
 -1        99 2.52610E+01 2.61914E-02 7.21143E-02-1.48462E-02-1.05786E-14 5.42014E-13
 -1       100 2.44607E+01 1.98020E-02 8.00964E-02 2.26926E-02 3.88814E-14 3.78083E-13
 -1       101 2.28579E+01 1.04837E-03 5.11703E-02 7.71836E-02 2.58313E-14 9.50559E-14
 -1       102 2.07383E+01-2.38295E-02-2.02371E-02 1.23685E-01-6.38889E-14 3.17177E-14
 -1       103 1.88028E+01-4.04553E-02-1.05026E-01 1.24439E-01 4.30246E-14 3.49377E-13
 -1       104 1.78956E+01-3.84956E-02-1.48570E-01 6.23966E-02-5.93189E-15 4.23162E-13
 -1       105 1.84615E+01-2.00002E-02-1.19273E-01-3.07571E-02 8.47879E-14 2.79443E-13
 -1       106 2.02166E+01 2.62388E-03-3.63854E-02-1.00864E-01-1.64253E-13 3.88370E-14
 -1       107 2.23574E+01 1.86324E-02 4.15576E-02-1.16784E-01-1.24819E-14-3.33206E-13
 -1       108 2.41066E+01 2.41151E-02 7.91889E-02-8.98100E-02-9.08410E-15-9.46538E-13
 -1       109 2.50742E+01 2.13800E-02 7.65277E-02-4.83729E-02 2.60980E-14-9.18363E-13
 -1       110 2.52656E+01 1.47793E-02 5.37365E-02-1.36542E-02-3.91169E-14-1.03655E-12
 -1       111 2.48940E+01 7.86377E-03 2.85369E-02 7.79289E-03 1.17997E-13-8.51361E-13
 -1       112 2.42066E+01 2.44579E-03 9.48917E-03 1.77953E-02-1.60451E-13-6.52369E-13
 -1       113 2.33985E+01-1.09826E-03-1.90509E-03 2.05165E-02 1.38371E-13-3.12418E-13
 -1       114 2.25942E+01-3.11955E-03-7.42313E-03 1.95823E-02-6.46474E-14-8.05654E-13
 -1       115 2.18606E+01-4.17170E-03-9.47632E-03 1.73372E-02 4.68416E-14-5.68747E-13
 -1       116 2.12281E+01-4.75283E-03-1.01169E-02 1.49961E-02-9.14330E-14-8.10447E-13
 -1       117 2.07096E+01-5.22630E-03-1.09254E-02 1.29474E-02 6.53462E-14-1.18266E-12
 -1       118 2.03146E+01-5.66866E-03-1.27879E-02 1.08241E-02-6.55718E-14-9.90652E-13
 -1       119 2.00607E+01-5.04076E-03-1.36024E-02 6.16016E-03 4.12504E-14-9.78728E-13
 -1       120 1.99759E+01 5.10862E-03-7.26208E-06-5.90530E-03 3.14752E-13-1.16999E-12
 -1       121 1.99997E+01-1.75000E-02-9.56814E-04-9.86761E-03-1.28332E-12 8.36581E-14
 -1       122 1.99936E+01 7.27481E-02-1.28030E-02 2.72977E-03-6.74655E-13 1.27845E-14
 -1       123 1.99956E+01 3.18312E-01-8.71552E-03 9.83647E-03 2.40313E-13 2.16082E-14
 -1       124 1.99988E+01 6.49141E-01-2.34501E-03 1.24111E-02 4.89900E-13 3.68212E-13
 -1       125 2.00021E+01 9.99280E-01 3.22648E-03 1.19480E-02 5.30869E-15-3.05935E-13
 -1       126 2.00050E+01 1.30695E+00 7.41307E-03 9.72252E-03-1.58425E-12-1.85559E-13
 -1       127 2.00068E+01 1.53679E+00 1.01224E-02 6.09778E-03-1.07314E-12 3.85103E-14
 -1       128 2.00077E+01 1.65236E+00 1.13390E-02 1.76517E-03-5.74934E-13 1.09529E-13
 -1       129 2.00075E+01 1.63954E+00 1.10262E-02-2.68995E-03 3.61453E-13 3.49038E-14
 -1       130 2.00063E+01 1.50166E+00 9.28365E-03-6.71111E-03 1.57311E-13-1.11097E-13
 -1       131 2.00042E+01 1.25859E+00 6.25588E-03-9.90910E-03-5.55920E-13-1.21320E-13
 -1       132 2.00015E+01 9.49556E-01 2.23501E-03-1.15410E-02-7.46919E-13 2.94852E-13
 -1       133 1.99985E+01 6.08885E-01-2.86207E-03-1.15323E-02 2.67779E-13 1.94011E-13
 -1       134 1.99948E+01 2.93358E-01-9.10430E-03-9.77132E-03-1.73119E-13-1.62412E-13
 -1       135 1.99949E+01 6.85934E-02-1.06274E-02-3.38480E-03-2.15762E-13-4.72640E-14
 -1       136 1.99949E+01-1.34903E-02-4.30894E-04 1.65900E-02-2.41096E-13 1.92496E-13
 -1       137-1.56008E+00-1.93056E+01-3.05991E+00-3.86978E+00 1.52728E-12 3.77587E-13
 -1       138-1.31548E+00-7.39172E+00-2.19324E+00-2.45025E+00 2.37649E-12 1.32894E-12
 -1       139 4.12089E+00 4.51891E+00-9.43520E-01 4.59494E+00 2.31581E-12 1.75310E-12
 -1       140 1.68116E+01 1.06226E+01 4.64042E-01 1.32613E+01 1.97475E-12 2.36400E-12
 -1       141 3.55807E+01 9.84259E+00 1.86492E+00 1.81867E+01 1.35472E-12 2.38465E-12
 -1       142 5.48235E+01 4.97931E+00 3.01061E+00 1.52523E+01 4.46782E-13 1.44795E-12
 -1       143 6.56783E+01 1.20745E+00 3.60453E+00 4.66099E+00 8.38669E-14-4.10241E-13
 -1       144 6.33300E+01 2.04898E+00 3.48338E+00-8.67107E+00 4.09861E-13-2.19946E-12
 -1       145 4.89975E+01 6.67112E+00 2.67282E+00-1.71997E+01 1.60634E-12-4.15501E-12
 -1       146 2.98867E+01 1.06092E+01 1.46076E+00-1.74114E+01 3.16114E-12-5.11813E-12
 -1       147 1.23526E+01 9.34292E+00 3.51394E-02-1.07155E+01 3.93180E-12-4.12281E-12
 -1       148 1.76687E+00 1.52765E+00-1.33117E+00-2.07803E+00 3.25467E-12-2.47719E-12
 -1       149-1.72422E+00-1.03295E+01-2.43312E+00 3.51381E+00 2.19441E-12-8.14099E-13
 -1       150-1.29262E+00-2.07924E+01-3.12995E+00 3.52339E+00 1.15283E-12-2.45644E-13
 -1       151-8.35728E-01-2.40965E+01-3.31049E+00-5.73914E-01-9.79671E-13-1.60854E-13
 -1       152-1.47167E+00-1.81736E+01-2.94316E+00-3.71905E+00-3.73973E-12-1.09295E-12
 -1       153-1.24468E+00-6.40146E+00-2.09112E+00-2.33487E+00-5.48156E-12-2.89854E-12
 -1       154 4.44002E+00 5.03314E+00-8.46413E-01 4.94024E+00-5.42161E-12-4.24683E-12
 -1       155 1.76781E+01 1.07513E+01 5.70939E-01 1.36558E+01-4.07363E-12-4.80777E-12
 -1       156 3.75674E+01 9.46385E+00 1.99515E+00 1.82268E+01-2.01042E-12-3.74539E-12
 -1       157 6.53732E+01 1.03430E+00 3.51928E+00 3.29583E+00-2.49800E-16 1.87794E-13
 -1       158 6.19816E+01 2.28094E+00 3.35268E+00-9.46637E+00-3.07836E-13 1.85477E-12
 -1       159 4.81157E+01 6.85852E+00 2.60679E+00-1.72729E+01-9.64659E-13 2.61913E-12
 -1       160 2.94271E+01 1.07683E+01 1.46121E+00-1.74422E+01-2.00368E-12 3.07682E-12
 -1       161 1.29142E+01 9.82750E+00 1.37457E-01-1.12348E+01-3.34816E-12 3.51164E-12
 -1       162 2.32386E+00 2.17414E+00-1.21229E+00-2.71435E+00-4.01223E-12 2.98422E-12
 -1       163-1.57921E+00-9.44923E+00-2.33171E+00 3.16598E+00-2.75940E-12 1.49430E-12
 -1       164-1.30546E+00-2.00940E+01-3.07669E+00 3.70979E+00-9.29201E-13 2.02754E-13
 -1       165 2.10051E+01 3.69315E+00-5.74044E-02-3.61176E+00-7.23706E-13 1.08604E-13
 -1       166 1.99853E+01 4.20782E+00-4.59427E-02-2.81048E+00-6.47525E-13-6.35266E-13
 -1       167 1.95092E+01 4.47623E+00-3.13297E-02-2.19810E+00-5.08130E-13-1.03780E-12
 -1       168 1.92699E+01 4.61532E+00-2.34919E-02-1.67668E+00-3.66605E-13-1.23710E-12
 -1       169 1.91419E+01 4.69743E+00-1.95338E-02-1.22071E+00-2.36128E-13-1.31595E-12
 -1       170 1.90701E+01 4.74878E+00-1.74354E-02-7.93195E-01-1.16445E-13-1.34074E-12
 -1       171 1.90341E+01 4.77690E+00-1.64230E-02-3.87456E-01 1.30850E-15-1.32192E-12
 -1       172 1.90237E+01 4.78552E+00-1.61314E-02 8.26438E-03 1.02587E-13-1.29133E-12
 -1       173 1.90358E+01 4.77562E+00-1.64640E-02 4.04325E-01 2.16017E-13-1.25021E-12
 -1       174 1.90738E+01 4.74582E+00-1.75163E-02 8.11126E-01 3.20820E-13-1.18958E-12
 -1       175 1.91465E+01 4.69302E+00-1.96822E-02 1.23310E+00 4.26214E-13-1.08338E-12
 -1       176 1.92793E+01 4.60544E+00-2.39989E-02 1.70018E+00 5.61169E-13-8.93412E-13
 -1       177 1.95229E+01 4.45923E+00-3.28417E-02 2.22874E+00 6.77813E-13-6.02234E-13
 -1       178 2.00087E+01 4.18324E+00-4.72076E-02 2.84890E+00 7.59151E-13-7.72368E-14
 -1       179 2.11266E+01 3.46313E+00-5.97916E-02 3.53837E+00 7.12805E-13 8.67223E-13
 -1       180 2.24083E+01 1.14351E+00-3.36415E-01 3.01601E+00 5.30813E-13 2.10974E-12
 -1       181 2.19608E+01 8.58238E-01 6.84007E-04-1.96061E+00-6.31235E-13 1.02813E-12
 -1       182 2.04352E+01 1.90386E-01-9.93855E-03-7.65717E-01-5.46008E-13 7.25525E-13
 -1       183 1.96587E+01 1.01652E-01 1.36050E-02-2.87109E-01-4.03793E-13 4.71422E-13
 -1       184 1.93181E+01 4.72284E-02 1.00277E-02-6.93215E-02-2.99732E-13 1.93687E-13
 -1       185 1.91879E+01 2.27171E-02 5.17889E-03 3.83035E-02-2.24995E-13 3.04698E-14
 -1       186 1.91748E+01 9.84083E-03 2.46651E-03 9.16452E-02-1.75831E-13-7.88807E-14
 -1       187 1.92250E+01 2.69329E-03 1.18230E-03 1.15320E-01-1.18897E-13-1.66192E-13
 -1       188 1.93078E+01-1.18234E-03 5.73312E-04 1.22366E-01-1.38878E-13-2.55364E-13
 -1       189 1.94056E+01-2.98913E-03 2.71344E-04 1.20523E-01-1.41892E-13-3.00682E-13
 -1       190 1.95085E+01-3.39128E-03 1.27849E-04 1.14803E-01-3.59377E-14-3.17351E-13
 -1       191 1.96122E+01-2.78530E-03 8.13897E-05 1.08666E-01-8.81394E-14-4.43099E-13
 -1       192 1.97158E+01-1.41443E-03 1.01901E-04 1.04633E-01-1.14165E-13-5.49408E-13
 -1       193 1.98211E+01 5.73568E-04 1.71509E-04 1.04646E-01-4.09952E-14-6.12156E-13
 -1       194 1.99319E+01 3.08953E-03 2.77611E-04 1.10285E-01-2.67967E-14-6.07446E-13
 -1       195 2.00538E+01 6.07183E-03 4.09302E-04 1.22886E-01-9.41296E-14-6.29183E-13
 -1       196 2.01933E+01 9.45223E-03 5.54413E-04 1.43579E-01-6.92829E-14-5.83770E-13
 -1       197 2.03583E+01 1.31105E-02 6.96245E-04 1.73204E-01-5.37560E-14-5.63702E-13
 -1       198 2.05566E+01 1.68084E-02 8.09745E-04 2.12100E-01 5.12559E-14-6.49072E-13
 -1       199 2.07959E+01 2.00916E-02 8.57377E-04 2.59679E-01-8.68964E-14-7.39061E-13
 -1       200 2.10823E+01 2.21509E-02 7.86039E-04 3.13718E-01-3.03266E-14-7.25055E-13
 -1       201 2.14185E+01 2.16401E-02 5.28391E-04 3.69266E-01 1.07224E-13-6.37153E-13
 -1       202 2.18003E+01 1.64901E-02 1.48347E-05 4.17143E-01 8.63480E-15-5.63938E-13
 -1       203 2.22134E+01 3.84781E-03-7.95101E-04 4.42191E-01 3.30381E-14-4.61404E-13
 -1       204 2.26283E+01-1.95427E-02-1.85607E-03 4.21979E-01 2.04297E-13-3.18914E-13
 -1       205 2.29956E+01-5.59250E-02-2.96419E-03 3.27728E-01-2.88710E-14-3.85472E-13
 -1       206 2.32446E+01-1.03311E-01-3.70690E-03 1.30726E-01-8.14242E-14-3.94593E-13
 -1       207 2.32899E+01-1.50443E-01-3.59475E-03-1.81550E-01-1.00038E-13-5.89338E-13
 -1       208 2.30527E+01-1.72655E-01-2.36055E-03-5.78464E-01 9.48169E-14-5.70820E-13
 -1       209 2.25014E+01-1.36065E-01-2.18121E-04-9.59011E-01 1.85926E-13-4.80439E-13
 -1       210 2.17059E+01-1.97608E-02 1.91784E-03-1.15486E+00-1.72930E-15-3.93085E-13
 -1       211 2.08704E+01 1.49130E-01 2.76286E-03-1.00231E+00-7.36937E-14-3.58474E-13
 -1       212 2.02887E+01 2.87816E-01 2.63954E-03-4.71141E-01-2.15956E-13-4.64444E-13
 -1       213 2.02024E+01 3.08267E-01 2.49823E-03 2.57443E-01 2.57520E-15-5.41132E-13
 -1       214 2.06472E+01 1.96528E-01 2.81882E-03 8.72516E-01 3.27243E-14-4.97673E-13
 -1       215 2.14279E+01 2.56267E-02 2.31368E-03 1.13901E+00-2.02677E-13-6.03787E-13
 -1       216 2.22468E+01-1.12015E-01 3.31190E-04 1.02737E+00 3.21401E-14-8.59044E-13
 -1       217 2.28637E+01-1.71263E-01-1.84828E-03 6.77211E-01 5.49348E-14-1.11198E-12
 -1       218 2.31701E+01-1.62910E-01-3.48859E-03 2.66369E-01 4.63388E-15-6.96529E-13
 -1       219 2.31731E+01-1.20055E-01-3.90000E-03-8.16424E-02 2.70452E-14-5.34881E-13
 -1       220 2.29428E+01-7.11832E-02-3.31699E-03-3.17836E-01-1.05355E-13-7.93168E-13
 -1       221 2.25658E+01-3.10493E-02-2.22456E-03-4.44987E-01-6.52348E-14-8.41549E-13
 -1       222 2.21188E+01-3.55340E-03-1.05537E-03-4.88465E-01 2.65703E-13-7.26690E-13
 -1       223 2.16593E+01 1.30430E-02-5.68060E-05-4.76608E-01 8.63924E-14-4.60476E-13
 -1       224 2.12257E+01 2.23657E-02 6.82234E-04-4.31627E-01 2.99495E-13-4.00057E-13
 -1       225 2.08419E+01 2.81198E-02 1.13800E-03-3.67151E-01 4.46263E-13-1.68332E-13
 -1       226 2.05226E+01 3.34560E-02 1.26408E-03-2.88819E-01 1.20384E-13-1.87362E-13
 -1       227 2.02774E+01 4.06006E-02 1.23147E-03-1.96749E-01 1.36184E-13-1.95922E-13
 -1       228 2.01053E+01 4.79313E-02 9.27203E-04-9.20129E-02-4.38397E-15-5.06735E-14
 -1       229 2.09514E+01 2.77052E-01-5.13408E-02 1.16620E+00 5.32449E-13 1.79961E-12
 -1       230 1.98555E+01 1.26841E-01 8.30910E-03 4.44499E-01 4.29847E-13 1.37177E-12
 -1       231 1.93479E+01 5.80663E-02 1.27435E-02 1.51422E-01 3.17746E-13 1.04023E-12
 -1       232 1.91372E+01 2.77620E-02 7.64501E-03 1.20188E-02 2.29807E-13 7.94507E-13
 -1       233 1.90869E+01 1.31994E-02 3.84754E-03-5.74649E-02 1.74761E-13 6.07471E-13
 -1       234 1.91231E+01 5.38746E-03 1.94077E-03-9.06164E-02 9.19366E-14 4.95957E-13
 -1       235 1.92041E+01 1.04461E-03 1.05190E-03-1.03653E-01 7.81473E-14 4.11516E-13
 -1       236 1.93062E+01-1.25601E-03 6.10308E-04-1.05530E-01 8.04145E-14 3.23039E-13
 -1       237 1.94158E+01-2.23554E-03 3.71183E-04-1.01761E-01 9.64884E-14 2.24927E-13
 -1       238 1.95263E+01-2.29972E-03 2.40988E-04-9.60095E-02 8.99092E-14 1.70652E-13
 -1       239 1.96353E+01-1.68951E-03 1.80398E-04-9.08739E-02 1.20769E-13 1.10876E-13
 -1       240 1.97436E+01-5.47030E-04 1.68709E-04-8.83121E-02 6.17697E-14-2.87122E-15
 -1       241 1.98546E+01 1.05076E-03 1.92486E-04-8.99096E-02 7.23024E-14-1.01685E-13
 -1       242 1.99735E+01 3.07069E-03 2.41399E-04-9.70525E-02 7.62589E-14-1.36721E-13
 -1       243 2.01075E+01 5.50529E-03 3.05760E-04-1.11033E-01 8.28786E-14-1.07441E-13
 -1       244 2.02650E+01 8.35167E-03 3.74202E-04-1.33094E-01-8.70014E-14-2.21385E-13
 -1       245 2.04559E+01 1.15798E-02 4.31052E-04-1.64379E-01 7.47911E-14-2.23191E-13
 -1       246 2.06909E+01 1.50806E-02 4.53316E-04-2.05765E-01 6.30600E-14-2.90173E-13
 -1       247 2.09812E+01 1.85797E-02 4.08043E-04-2.57472E-01-3.67792E-14-1.42252E-13
 -1       248 2.13364E+01 2.14939E-02 2.52789E-04-3.18340E-01-6.11386E-14-1.34674E-13
 -1       249 2.17632E+01 2.27106E-02-5.45790E-05-3.84584E-01 7.59164E-14-1.71413E-13
 -1       250 2.22602E+01 2.02883E-02-5.25907E-04-4.47831E-01 1.73231E-13-2.02040E-13
 -1       251 2.28124E+01 1.11679E-02-1.08000E-03-4.92400E-01-6.81013E-14-3.04718E-13
 -1       252 2.33828E+01-8.77800E-03-1.45235E-03-4.92399E-01-9.74894E-14-2.64132E-13
 -1       253 2.39029E+01-4.35633E-02-1.13381E-03-4.10758E-01-1.53242E-13 6.42802E-14
 -1       254 2.42673E+01-9.35954E-02 4.33111E-04-2.05186E-01-1.84347E-13 2.92357E-14
 -1       255 2.43417E+01-1.48263E-01 3.36824E-03 1.51284E-01-3.53224E-14 6.93438E-14
 -1       256 2.39985E+01-1.77758E-01 6.04541E-03 6.27657E-01 5.93384E-14 1.54572E-13
 -1       257 2.31945E+01-1.37653E-01 5.33258E-03 1.08588E+00 7.30470E-14 1.44126E-13
 -1       258 2.20697E+01-1.80035E-03-1.29945E-03 1.28551E+00-3.87450E-14 1.62365E-13
 -1       259 2.09914E+01 1.89073E-01-1.07891E-02 1.00433E+00-6.01507E-14 2.30329E-13
 -1       260 2.04317E+01 3.14669E-01-1.63757E-02 2.56266E-01 2.97306E-14 7.51308E-14
 -1       261 2.06717E+01 2.81756E-01-1.27311E-02-6.18074E-01 1.30108E-13-9.77282E-14
 -1       262 2.15891E+01 1.15080E-01-8.66660E-04-1.18352E+00-3.23994E-14-6.35794E-14
 -1       263 2.27436E+01-6.25212E-02 7.26822E-03-1.23448E+00 3.27271E-13-3.67630E-13
 -1       264 2.36950E+01-1.61230E-01 7.88761E-03-8.86039E-01 1.50952E-13-8.45574E-13
 -1       265 2.42065E+01-1.69848E-01 3.86112E-03-3.92357E-01-1.62483E-13-5.21246E-13
 -1       266 2.42622E+01-1.27937E-01-1.06339E-04 4.36807E-02-6.55274E-14-2.28244E-13
 -1       267 2.39679E+01-7.49387E-02-2.21283E-03 3.37551E-01 3.78374E-14-4.50768E-14
 -1       268 2.34611E+01-3.14429E-02-2.56231E-03 4.89705E-01-7.59410E-14-5.03564E-14
 -1       269 2.28605E+01-2.81435E-03-1.90552E-03 5.36453E-01 1.15611E-14-3.26649E-13
 -1       270 2.22499E+01 1.30917E-02-9.61661E-04 5.18009E-01 6.34873E-14-3.59847E-14
 -1       271 2.16803E+01 2.05840E-02-1.29739E-04 4.65068E-01 9.40662E-14-8.54594E-14
 -1       272 2.11793E+01 2.37109E-02 4.26475E-04 3.96286E-01 1.47353E-13-3.76221E-13
 -1       273 2.07606E+01 2.55787E-02 5.85273E-04 3.20040E-01 2.80206E-13-4.04459E-13
 -1       274 2.04319E+01 2.85002E-02 2.23526E-04 2.37323E-01-1.76363E-14-6.47936E-13
 -1       275 2.01987E+01 3.46195E-02 2.68170E-04 1.44445E-01-3.63886E-14-7.49971E-13
 -1       276 2.00578E+01 3.37160E-02 1.59269E-03 4.52490E-02-3.78247E-14-5.49427E-13
 -1       277 2.00489E+01 1.16926E-01 1.03739E-03 1.02665E-01-1.31356E-13 4.30084E-13
 -1       278 2.00356E+01 2.85226E-01 3.66583E-04 1.98892E-01-6.21767E-14 3.36706E-13
 -1       279 2.00150E+01 5.07196E-01 1.39214E-04 2.58446E-01 4.63127E-14 1.85541E-13
 -1       280 1.99960E+01 7.52717E-01-1.70916E-04 2.71229E-01-2.77654E-13-1.58498E-13
 -1       281 1.99803E+01 9.83211E-01-6.75181E-04 2.41901E-01-3.43806E-13-9.47486E-13
 -1       282 1.99683E+01 1.17425E+00-1.11477E-03 1.77508E-01-3.28525E-13-6.30881E-14
 -1       283 1.99613E+01 1.29532E+00-1.41073E-03 8.91899E-02-3.47185E-13 2.72746E-13
 -1       284 1.99596E+01 1.33085E+00-1.49677E-03-1.00977E-02-1.02212E-13 6.13918E-13
 -1       285 1.99633E+01 1.27697E+00-1.36754E-03-1.06842E-01 6.34998E-14-1.30131E-13
 -1       286 1.99718E+01 1.14175E+00-1.04229E-03-1.88336E-01-3.79394E-14-2.82219E-13
 -1       287 1.99839E+01 9.47705E-01-5.65667E-04-2.43067E-01 1.77160E-13 1.47586E-13
 -1       288 1.99991E+01 7.14345E-01-9.81386E-05-2.64600E-01 2.39225E-13 3.18984E-13
 -1       289 2.00160E+01 4.76400E-01 2.37398E-04-2.46279E-01 1.28140E-13-3.20275E-13
 -1       290 2.00351E+01 2.67443E-01 9.67869E-04-1.85395E-01 4.99284E-14-1.09017E-15
 -1       291 2.00728E+01 1.48161E-01 1.14225E-03-1.56141E-01 3.08443E-14-2.45044E-13
 -1       292-6.74863E-01-9.70383E+00-8.05630E-01 1.31896E+00 2.30371E-14 6.44984E-13
 -1       293 3.71531E+00-7.68665E+00-5.89282E-01 4.21493E+00 3.44169E-13 6.14155E-13
 -1       294 1.09253E+01-4.86967E+00-4.02905E-01 5.95515E+00 6.30357E-13 6.18852E-13
 -1       295 1.94436E+01-6.88807E-01-8.63925E-02 7.17140E+00 8.81184E-13 8.09602E-13
 -1       296 2.95906E+01 2.60984E+00 3.50949E-01 7.55368E+00 6.95277E-13 5.60496E-13
 -1       297 3.87214E+01 4.83111E+00 6.86849E-01 5.69436E+00 6.32976E-13 3.13249E-13
 -1       298 4.53605E+01 6.26475E+00 1.00148E+00 3.22906E+00 8.76813E-13-2.73281E-13
 -1       299 4.54952E+01 7.02487E+00 9.14784E-01-5.01535E-01 8.74883E-13-8.40394E-13
 -1       300 4.37068E+01 5.93602E+00 9.39539E-01-4.30095E+00 1.31128E-12-1.19943E-12
 -1       301 3.63224E+01 4.28345E+00 6.16665E-01-6.67447E+00 1.70114E-12-1.73395E-12
 -1       302 2.70513E+01 9.55214E-01 1.74815E-01-6.88445E+00 1.46611E-12-2.12394E-12
 -1       303 1.69580E+01-2.10927E+00-1.85154E-01-6.81434E+00 1.29988E-12-2.23785E-12
 -1       304 8.34701E+00-5.68590E+00-5.27198E-01-5.31786E+00 1.03720E-12-1.65256E-12
 -1       305 2.09082E+00-8.63553E+00-7.72945E-01-3.18088E+00 5.66713E-13-8.70637E-13
 -1       306-9.41124E-01-1.02319E+01-8.76495E-01-8.57003E-01-3.02827E-13-1.01044E-12
 -1       307-9.81573E-02-8.52552E+00-6.16220E-01 2.03820E+00-8.89705E-13-1.68301E-12
 -1       308 3.34794E+00-7.98748E+00-7.75361E-01 3.59900E+00-1.93912E-12-1.92306E-12
 -1       309 1.07200E+01-4.37604E+00-4.22530E-01 5.93361E+00-2.23280E-12-1.86239E-12
 -1       310 2.01125E+01-7.27264E-01-4.77096E-02 7.20205E+00-2.19236E-12-1.76945E-12
 -1       311 3.02899E+01 2.61434E+00 3.52344E-01 7.13777E+00-2.10003E-12-1.35111E-12
 -1       312 3.92021E+01 5.14227E+00 6.99261E-01 5.43394E+00-1.58606E-12-9.17488E-13
 -1       313 4.53031E+01 6.35591E+00 9.72536E-01 2.86438E+00-1.13236E-12-5.01876E-13
 -1       314 4.49537E+01 7.02220E+00 8.76882E-01-8.05585E-01-9.74193E-13 2.12670E-13
 -1       315 4.30078E+01 5.91961E+00 8.95661E-01-4.54446E+00-6.54518E-13 7.70023E-13
 -1       316 3.58585E+01 4.40795E+00 6.20151E-01-6.91280E+00-1.07294E-12 1.06909E-12
 -1       317 2.65857E+01 1.90524E+00 2.32258E-01-7.63638E+00-1.66367E-12 1.20351E-12
 -1       318 1.73617E+01-1.80442E+00-1.57917E-01-6.93502E+00-1.50335E-12 1.36652E-12
 -1       319 9.55662E+00-5.48908E+00-3.99329E-01-5.92861E+00-8.44963E-13 1.57023E-12
 -1       320 2.46442E+00-8.38507E+00-7.42623E-01-3.50977E+00-9.41525E-13 1.41927E-12
 -1       321-8.53269E-01-1.07738E+01-9.67464E-01-1.09364E+00-4.65031E-13 6.64413E-13
 -1       322 2.01336E+01 3.00066E+00-2.20023E-02-2.09903E+00-6.69145E-13-5.99253E-13
 -1       323 2.07497E+01 2.20810E+00-1.76798E-02-2.36632E+00-7.46475E-13-1.49887E-13
 -1       324 1.95874E+01 3.69191E+00-1.56238E-02-1.31863E+00-3.75525E-13-9.79144E-13
 -1       325 1.94667E+01 3.84920E+00-1.37222E-02-9.24677E-01-2.32591E-13-1.03581E-12
 -1       326 1.93993E+01 3.94038E+00-1.27257E-02-5.44478E-01-7.97593E-14-1.03683E-12
 -1       327 1.93695E+01 3.98187E+00-1.23052E-02-1.73456E-01 6.97914E-14-1.02538E-12
 -1       328 1.93709E+01 3.98025E+00-1.23230E-02 1.94595E-01 1.94906E-13-9.85124E-13
 -1       329 1.94035E+01 3.93517E+00-1.27682E-02 5.65984E-01 3.25054E-13-9.42673E-13
 -1       330 1.94727E+01 3.84159E+00-1.37731E-02 9.40348E-01 4.54421E-13-8.65138E-13
 -1       331 1.95972E+01 3.67898E+00-1.56569E-02 1.33480E+00 5.99796E-13-7.00001E-13
 -1       332 1.98097E+01 3.40997E+00-1.88294E-02 1.74043E+00 7.34058E-13-4.95629E-13
 -1       333 2.01765E+01 2.95503E+00-2.29349E-02 2.12922E+00 8.25689E-13-1.86842E-13
 -1       334 2.07421E+01 2.12930E+00-3.04648E-02 2.32418E+00 8.32696E-13 4.07964E-13
 -1       335 2.10860E+01 1.18771E+00-2.49251E-02 1.92375E+00 7.30863E-13 9.56376E-13
 -1       336 2.03817E+01 4.89296E-01 8.33339E-03 9.29229E-01 6.14024E-13 7.16949E-13
 -1       337 2.04503E+01 6.75385E-01 1.25829E-02-1.02689E+00-6.05822E-13-2.43632E-14
 -1       338 2.00284E+01 3.37075E-01 7.17420E-03-4.59591E-01-4.81288E-13-8.75672E-14
 -1       339 1.97745E+01 1.77108E-01 4.10849E-03-1.49996E-01-3.56789E-13-1.70852E-13
 -1       340 1.96400E+01 9.16841E-02 1.90258E-03 2.23837E-02-2.42659E-13-2.42396E-13
 -1       341 1.95865E+01 4.34819E-02 8.15112E-04 1.15642E-01-1.80307E-13-2.48891E-13
 -1       342 1.95846E+01 1.58388E-02 3.15120E-04 1.62230E-01-1.79737E-13-2.69735E-13
 -1       343 1.96144E+01 6.83865E-04 8.06433E-05 1.81537E-01-1.44471E-13-2.62522E-13
 -1       344 1.96628E+01-6.30080E-03-2.40347E-05 1.85952E-01-1.14628E-13-2.64711E-13
 -1       345 1.97221E+01-7.62716E-03-5.23031E-05 1.83844E-01-1.32106E-13-3.78298E-13
 -1       346 1.97882E+01-4.83350E-03-2.83611E-05 1.81143E-01-1.14636E-13-4.02969E-13
 -1       347 1.98600E+01 1.11753E-03 3.44524E-05 1.82238E-01-1.24415E-13-3.60782E-13
 -1       348 1.99380E+01 9.61545E-03 1.27650E-04 1.90528E-01-9.71696E-16-3.21734E-13
 -1       349 2.00246E+01 2.02460E-02 2.44954E-04 2.08743E-01-5.79887E-14-2.72168E-13
 -1       350 2.01233E+01 3.26501E-02 3.80258E-04 2.39097E-01-6.19044E-14-3.20996E-13
 -1       351 2.02383E+01 4.63618E-02 5.25331E-04 2.83278E-01-7.07711E-14-3.90795E-13
 -1       352 2.03744E+01 6.05933E-02 6.66852E-04 3.42235E-01-7.85412E-14-3.34457E-13
 -1       353 2.05367E+01 7.39336E-02 7.82503E-04 4.15705E-01-4.44480E-14-4.56546E-13
 -1       354 2.07297E+01 8.39277E-02 8.36168E-04 5.01398E-01-8.66141E-14-4.77683E-13
 -1       355 2.09571E+01 8.65273E-02 7.73180E-04 5.93722E-01 8.85802E-14-2.72770E-13
 -1       356 2.12208E+01 7.54830E-02 5.18384E-04 6.81989E-01 1.50071E-13-3.00602E-13
 -1       357 2.15198E+01 4.19556E-02-1.74203E-05 7.48175E-01 1.28009E-13-1.25552E-13
 -1       358 2.18488E+01-2.49302E-02-9.12092E-04 7.64725E-01 1.74500E-13-4.10579E-14
 -1       359 2.21958E+01-1.35123E-01-2.17449E-03 6.93798E-01 3.51915E-14-2.80193E-13
 -1       360 2.25393E+01-2.89999E-01-3.63822E-03 4.90982E-01-3.35062E-14-3.91346E-13
 -1       361 2.28418E+01-4.68079E-01-4.79982E-03 1.18677E-01-9.39060E-14-2.62075E-13
 -1       362 2.30446E+01-6.07291E-01-5.05079E-03-4.24470E-01 7.54936E-14 3.47534E-14
 -1       363 2.30697E+01-5.99999E-01-3.99205E-03-1.05829E+00 6.99365E-14 5.47257E-14
 -1       364 2.28503E+01-3.31934E-01-1.32218E-03-1.58229E+00 5.94869E-14-6.30938E-14
 -1       365 2.24042E+01 2.08649E-01 2.08300E-03-1.70366E+00-9.84553E-14-3.26688E-13
 -1       366 2.19090E+01 8.15492E-01 3.29367E-03-1.20511E+00-1.42071E-13-2.80721E-13
 -1       367 2.16443E+01 1.14009E+00 3.16858E-03-1.78266E-01-1.22865E-13-1.13637E-13
 -1       368 2.17889E+01 9.52385E-01 3.54072E-03 9.28194E-01 1.30317E-14-2.43370E-13
 -1       369 2.22367E+01 3.90218E-01 2.96606E-03 1.60546E+00-1.79818E-13-2.02795E-13
 -1       370 2.27127E+01-2.04346E-01-6.16599E-04 1.64651E+00-2.48384E-13-1.39372E-13
 -1       371 2.29933E+01-5.58711E-01-3.23339E-03 1.20224E+00-1.03700E-13-2.64787E-13
 -1       372 2.30196E+01-6.33275E-01-5.20412E-03 5.66800E-01 2.26974E-13-3.74803E-13
 -1       373 2.28428E+01-5.24571E-01-5.24617E-03-2.37989E-02 1.72659E-13-3.94985E-13
 -1       374 2.25427E+01-3.49765E-01-4.15005E-03-4.56777E-01-6.28703E-14-7.89055E-14
 -1       375 2.21845E+01-1.84444E-01-2.66762E-03-7.14547E-01-2.03654E-13-1.35374E-13
 -1       376 2.18118E+01-5.94472E-02-1.29390E-03-8.26924E-01 5.73409E-14-7.77788E-14
 -1       377 2.14511E+01 2.26080E-02-2.33399E-04-8.36512E-01 2.44043E-13-1.26042E-13
 -1       378 2.11181E+01 7.15127E-02 5.00393E-04-7.80947E-01 3.70072E-13-9.84269E-14
 -1       379 2.08218E+01 1.00023E-01 9.73615E-04-6.86747E-01 3.63364E-13-1.61429E-13
 -1       380 2.05668E+01 1.19629E-01 1.26227E-03-5.69174E-01 1.27612E-14-2.71468E-13
 -1       381 2.03556E+01 1.38832E-01 1.67961E-03-4.34846E-01-1.94630E-14-2.42458E-13
 -1       382 2.02023E+01 1.47252E-01 1.47038E-03-2.97185E-01 1.00514E-13-2.48827E-13
 -1       383 1.98796E+01 2.28549E-01 1.08006E-02 4.00490E-01 4.70343E-13 5.31316E-13
 -1       384 1.95907E+01 1.15571E-01 6.18501E-03 1.21494E-01 3.52248E-13 3.78345E-13
 -1       385 1.94564E+01 5.81945E-02 2.82491E-03-2.80492E-02 2.45466E-13 2.33504E-13
 -1       386 1.94178E+01 2.67919E-02 1.20584E-03-1.06273E-01 1.36304E-13 1.71764E-13
 -1       387 1.94363E+01 9.05347E-03 4.93320E-04-1.43773E-01 1.04770E-13 1.18411E-13
 -1       388 1.94873E+01-6.35414E-04 1.68867E-04-1.57885E-01 1.44064E-13 6.46712E-14
 -1       389 1.95558E+01-5.15497E-03 1.81895E-05-1.59330E-01 1.66823E-13 1.93054E-14
 -1       390 1.96333E+01-6.12702E-03-3.61987E-05-1.55206E-01 1.47601E-13 2.45883E-14
 -1       391 1.97156E+01-4.51665E-03-2.59700E-05-1.50500E-01 1.74896E-13-7.74474E-14
 -1       392 1.98015E+01-9.03062E-04 3.26954E-05-1.48918E-01 1.40224E-13-1.26492E-13
 -1       393 1.98926E+01 4.38169E-03 1.30169E-04-1.53388E-01 1.81532E-13-2.53598E-13
 -1       394 1.99921E+01 1.11660E-02 2.60245E-04-1.66385E-01 5.41507E-14-2.23354E-13
 -1       395 2.01046E+01 1.93679E-02 4.18048E-04-1.90117E-01 7.02171E-14-2.16362E-13
 -1       396 2.02363E+01 2.89170E-02 5.97695E-04-2.26609E-01 3.18719E-14-2.40908E-13
 -1       397 2.03940E+01 3.96433E-02 7.89079E-04-2.77633E-01 5.38871E-14-3.06144E-13
 -1       398 2.05855E+01 5.11028E-02 9.73202E-04-3.44439E-01 9.83644E-14-2.23022E-13
 -1       399 2.08185E+01 6.22997E-02 1.11549E-03-4.27176E-01-4.52967E-14-2.79641E-13
 -1       400 2.11000E+01 7.12449E-02 1.15762E-03-5.23827E-01-2.05200E-14-2.57500E-13
 -1       401 2.14350E+01 7.43026E-02 1.01058E-03-6.28450E-01 3.76488E-14-2.43450E-13
 -1       402 2.18243E+01 6.53569E-02 5.56352E-04-7.28489E-01 1.79632E-13-2.09746E-13
 -1       403 2.22619E+01 3.50889E-02-3.26599E-04-8.01154E-01-4.31105E-14-1.69929E-13
 -1       404 2.27311E+01-2.86735E-02-1.69141E-03-8.09621E-01-9.55149E-14-2.23478E-13
 -1       405 2.31996E+01-1.37313E-01-3.39783E-03-7.01705E-01-2.80052E-13-1.58117E-13
 -1       406 2.36142E+01-2.90993E-01-4.94796E-03-4.17240E-01-8.10688E-14-1.79482E-13
 -1       407 2.38972E+01-4.59346E-01-5.60504E-03 8.62861E-02-4.71507E-14-5.25814E-14
 -1       408 2.39479E+01-5.55303E-01-4.19516E-03 7.78998E-01-1.80472E-14 2.33992E-13
 -1       409 2.36718E+01-4.45894E-01-2.78970E-03 1.48294E+00 7.74437E-14 5.83103E-13
 -1       410 2.30690E+01-4.34138E-02-1.69561E-03 1.85712E+00-2.87329E-14 6.08018E-13
 -1       411 2.23338E+01 5.49620E-01-2.11044E-03 1.54080E+00 1.16870E-13 2.71525E-13
 -1       412 2.18603E+01 9.75989E-01 1.22348E-04 4.89915E-01 2.20751E-13-9.91349E-14
 -1       413 2.19506E+01 9.08225E-01-2.72493E-03-8.13432E-01 1.55880E-13-2.81361E-13
 -1       414 2.25575E+01 3.93228E-01 1.77169E-03-1.69471E+00 2.12443E-14-2.77385E-13
 -1       415 2.32805E+01-1.74783E-01 1.79388E-03-1.79530E+00 3.94745E-13-2.76250E-13
 -1       416 2.37802E+01-5.07096E-01-2.48107E-03-1.28313E+00 3.65979E-13-3.83314E-13
 -1       417 2.39234E+01-5.49189E-01-6.51766E-03-5.44671E-01-3.35882E-13-5.14907E-13
 -1       418 2.37614E+01-4.22323E-01-7.08795E-03 1.12896E-01-2.42578E-13-2.70950E-13
 -1       419 2.33975E+01-2.52961E-01-5.67483E-03 5.61857E-01-2.01077E-13 4.00914E-14
 -1       420 2.29276E+01-1.09942E-01-3.57912E-03 7.99392E-01 7.09620E-14 1.99487E-13
 -1       421 2.24222E+01-1.33187E-02-1.57126E-03 8.76367E-01 9.38168E-14 1.98719E-14
 -1       422 2.19275E+01 4.20351E-02-7.64523E-05 8.51155E-01-1.54075E-13 1.17857E-13
 -1       423 2.14714E+01 6.92180E-02 8.71943E-04 7.69639E-01 7.88702E-14 4.50297E-14
 -1       424 2.10691E+01 8.10288E-02 1.40566E-03 6.60919E-01 2.32774E-13 9.93408E-15
 -1       425 2.07281E+01 8.74064E-02 1.64441E-03 5.39482E-01 3.54776E-13-4.73395E-14
 -1       426 2.04514E+01 9.47539E-02 1.58153E-03 4.09613E-01 6.50194E-14-1.65887E-13
 -1       427 2.02375E+01 1.05388E-01 1.35239E-03 2.70898E-01-7.40829E-14 1.28329E-14
 -1       428 2.01319E+01 1.17413E-01 1.02482E-03 1.87816E-01-1.40639E-13 2.54182E-13
 -1       429 2.00171E+01 5.95987E-01 2.63941E-04 4.66195E-01-4.19809E-13-1.12456E-13
 -1       430 2.00885E+01 3.94634E-01 1.09476E-03 4.17431E-01-2.34588E-13 4.12095E-13
 -1       431 2.01239E+01 2.46762E-01 1.47078E-03 3.14152E-01-2.92860E-13 4.39686E-13
 -1       432 1.99513E+01 7.88847E-01-4.06561E-04 4.45487E-01-3.30532E-13-7.92614E-13
 -1       433 1.98965E+01 9.58097E-01-9.28899E-04 3.61611E-01-8.26926E-15-3.01556E-13
 -1       434 1.98588E+01 1.07983E+00-1.31022E-03 2.28804E-01 2.77501E-14 4.28502E-14
 -1       435 1.98415E+01 1.13933E+00-1.49524E-03 6.66988E-02-2.86790E-13 4.47102E-13
 -1       436 1.98457E+01 1.12973E+00-1.46866E-03-1.02352E-01-4.94361E-13 3.57313E-13
 -1       437 1.98700E+01 1.05310E+00-1.23510E-03-2.55994E-01-1.79525E-13 1.20000E-13
 -1       438 1.99104E+01 9.22635E-01-8.23337E-04-3.72817E-01 2.53835E-13-8.73155E-14
 -1       439 1.99642E+01 7.50183E-01-3.14525E-04-4.41656E-01 3.72986E-13 5.65475E-13
 -1       440 2.00260E+01 5.57822E-01 2.92270E-04-4.50260E-01 2.62566E-13-1.99440E-13
 -1       441 2.00905E+01 3.65423E-01 1.07814E-03-3.96777E-01 9.16465E-14-4.79195E-13
 -1       442 1.15531E+01-5.56337E+00-2.12382E-02 6.93953E+00 1.06928E-13 4.59174E-13
 -1       443 1.31769E+00-4.10551E+00-3.95232E-02-2.11931E-01-3.67522E-13 9.02389E-13
 -1       444 4.59151E+00-4.02517E+00 4.65604E-02 4.54193E+00-3.47708E-13 6.78707E-13
 -1       445 2.06052E+01-5.34837E+00-4.25115E-03 6.25703E+00 3.19883E-14 1.92249E-13
 -1       446 2.71890E+01-2.95800E+00 2.14693E-04 4.22368E+00 3.70079E-13 7.04714E-14
 -1       447 1.97915E+01 3.43326E+00-1.87146E-02-1.72169E+00-5.28124E-13-8.55613E-13
 -1       448 3.54781E+01 5.34369E+00 9.08245E-02 3.82843E-02 8.08076E-13-3.02466E-13
 -1       449 3.62342E+01 7.72176E+00 8.28281E-02-1.55353E-01 9.34114E-13-2.51528E-13
 -1       450 3.52465E+01 7.10991E+00 2.70167E-02 4.54665E-01 1.03159E-12-4.39607E-13
 -1       451 3.47976E+01 3.94206E+00 6.43086E-02-4.20369E-01 1.18395E-12-1.59428E-13
 -1       452 3.14824E+01-1.19907E-01 4.20999E-02-2.05405E+00 9.09570E-13-9.31477E-14
 -1       453 2.50643E+01-4.06461E+00-1.90328E-02-4.89507E+00 2.13982E-13-1.13905E-12
 -1       454 1.73229E+01-5.56371E+00-3.15060E-02-6.74924E+00 2.27596E-15-1.50416E-12
 -1       455 1.00376E+01-5.08126E+00 3.64509E-02-6.75134E+00-5.38181E-14-1.12034E-12
 -1       456 2.95704E+00-4.81772E+00-8.14263E-02-3.76506E+00-1.29161E-13-1.26438E-12
 -1       457 1.84505E+00-3.43985E+00 4.81128E-02 1.75989E-01-3.32117E-13-1.44895E-12
 -1       458 4.91832E+00-4.91773E+00-6.57422E-02 5.15798E+00-4.07605E-13-1.69878E-12
 -1       459 1.07395E+01-5.59655E+00-8.53176E-02 6.86982E+00-5.39013E-13-1.34969E-12
 -1       460 1.98610E+01-5.06568E+00-1.89860E-02 6.48532E+00-6.32938E-13-4.05592E-13
 -1       461 2.75274E+01-2.91203E+00-3.18382E-03 3.82282E+00-8.46656E-13 1.23304E-13
 -1       462 3.19843E+01 1.12600E+00-3.02255E-02 7.08648E-01-1.23489E-12 3.15747E-13
 -1       463 3.45926E+01 5.74385E+00 1.66772E-02-2.86571E-01-1.21091E-12-2.49356E-13
 -1       464 3.53996E+01 7.85517E+00 3.95195E-02-1.55390E-01-1.31450E-12-2.17455E-13
 -1       465 3.44190E+01 6.97716E+00-1.03018E-02 4.98726E-01-9.63979E-13-5.41650E-14
 -1       466 3.46041E+01 4.01759E+00 8.85760E-02-8.79801E-01-6.41903E-13 3.26267E-13
 -1       467 3.09322E+01-1.65337E-01 2.96792E-02-2.53124E+00-7.93976E-13 8.46823E-14
 -1       468 2.56680E+01-3.76338E+00-3.29703E-03-4.67918E+00-5.82451E-13-1.47118E-13
 -1       469 1.83599E+01-5.40105E+00-3.39971E-03-6.78688E+00 9.20097E-15 6.45095E-13
 -1       470 9.61123E+00-5.17233E+00-5.71283E-03-6.79991E+00-9.38832E-14 1.13570E-12
 -1       471 2.98478E+00-4.72825E+00-7.19025E-02-3.81937E+00-3.25767E-13 1.18312E-12
 -1       472 3.25385E+01 9.59008E-01 5.32432E-02 1.87815E+00 5.03753E-13-1.74610E-13
 -1       473 4.74902E+00-2.20768E+00 1.37026E-01 3.17542E+00 6.99232E-14-1.62728E-12
 -1       474 2.03674E+01 8.32160E-01 4.01057E-03 9.73986E-01 6.28165E-13 1.14827E-13
 -1       475 1.97405E+01 3.10550E+00-5.40375E-03-6.34456E-01-1.59652E-13-9.24904E-13
 -1       476 1.98347E+01 2.93160E+00-6.00073E-03-9.51460E-01-2.96448E-13-9.04924E-13
 -1       477 1.96744E+01 3.22853E+00-5.03061E-03 8.79651E-03 1.23809E-13-9.03805E-13
 -1       478 1.96925E+01 3.19540E+00-5.10961E-03 3.30674E-01 2.52528E-13-8.58532E-13
 -1       479 1.97451E+01 3.09827E+00-5.41923E-03 6.46384E-01 3.76954E-13-8.11622E-13
 -1       480 1.98417E+01 2.91998E+00-5.94922E-03 9.62391E-01 5.15514E-13-6.97838E-13
 -1       481 1.99943E+01 2.63446E+00-6.52898E-03 1.25803E+00 6.36522E-13-5.15803E-13
 -1       482 2.02329E+01 2.18796E+00-5.70245E-03 1.50327E+00 7.21395E-13-3.17718E-13
 -1       483 2.01060E+01 4.54154E-01 5.07871E-03 4.65657E-01 5.05638E-13 4.72872E-14
 -1       484 2.03394E+01 9.73688E-01 2.65032E-03-9.43277E-01-5.37612E-13-3.73106E-13
 -1       485 2.93789E+01-2.46966E+00-6.51985E-02 6.97912E-01 3.80568E-14-5.73402E-13
 -1       486 2.01685E+01 5.44903E-01 1.89866E-03-4.68625E-01-4.39191E-13-3.37065E-13
 -1       487 2.00221E+01 3.05811E-01 1.05050E-03-1.66126E-01-3.13845E-13-2.87034E-13
 -1       488 1.99229E+01 1.65522E-01 4.53485E-04 1.76794E-02-2.29951E-13-2.96313E-13
 -1       489 1.98667E+01 8.17090E-02 1.70199E-04 1.24198E-01-1.88376E-13-3.20227E-13
 -1       490 1.98434E+01 3.23996E-02 4.37980E-05 1.81531E-01-1.91306E-13-3.33690E-13
 -1       491 1.98432E+01 5.52583E-03-1.36770E-05 2.08975E-01-1.41544E-13-3.80421E-13
 -1       492 1.98590E+01-6.01354E-03-3.42886E-05 2.19994E-01-1.43483E-13-4.18847E-13
 -1       493 1.98859E+01-6.60904E-03-3.05753E-05 2.24208E-01-1.50479E-13-3.36841E-13
 -1       494 1.99209E+01 9.45317E-04-8.86173E-06 2.28680E-01-7.16331E-14-3.24814E-13
 -1       495 1.99629E+01 1.48424E-02 2.69588E-05 2.38767E-01-2.37437E-14-2.70955E-13
 -1       496 2.00118E+01 3.38723E-02 7.41767E-05 2.58652E-01 2.19328E-15-2.81322E-13
 -1       497 2.00685E+01 5.71149E-02 1.30580E-04 2.91672E-01-6.17622E-14-2.23986E-13
 -1       498 2.01347E+01 8.36332E-02 1.93594E-04 3.40439E-01-1.07106E-13-1.50475E-13
 -1       499 2.02128E+01 1.12108E-01 2.59198E-04 4.06764E-01-8.05756E-14-1.31463E-13
 -1       500 2.03055E+01 1.40350E-01 3.20475E-04 4.91342E-01-1.36422E-13-2.24923E-13
 -1       501 2.04159E+01 1.64642E-01 3.65661E-04 5.93129E-01-5.26837E-14-2.13667E-13
 -1       502 2.05482E+01 1.78865E-01 3.75655E-04 7.08350E-01 5.32980E-14-1.08879E-13
 -1       503 2.07074E+01 1.73444E-01 3.21591E-04 8.29032E-01 1.06908E-13-2.22910E-13
 -1       504 2.09007E+01 1.34367E-01 1.63546E-04 9.41012E-01 2.38983E-13-2.17614E-13
 -1       505 2.11383E+01 4.29996E-02-1.48901E-04 1.02147E+00 1.32336E-13-1.49689E-13
 -1       506 2.14339E+01-1.21602E-01-6.66192E-04 1.03636E+00 5.10106E-15-1.50274E-13
 -1       507 2.18032E+01-3.74678E-01-1.40480E-03 9.38954E-01-6.14884E-14-1.79491E-13
 -1       508 2.22562E+01-7.07407E-01-2.23427E-03 6.72723E-01 2.01830E-15-1.76768E-13
 -1       509 2.27773E+01-1.05480E+00-2.58570E-03 1.85831E-01 1.47780E-13 8.80298E-14
 -1       510 2.32941E+01-1.25988E+00-2.61961E-03-5.28166E-01 2.18949E-14 4.39527E-14
 -1       511 2.36572E+01-1.07884E+00-4.15772E-03-1.35643E+00-1.47666E-15-8.41622E-14
 -1       512 2.36884E+01-2.99438E-01-6.60265E-03-1.98272E+00-1.65929E-13-1.83156E-14
 -1       513 2.33619E+01 9.65402E-01-6.84129E-03-1.93273E+00-1.84186E-13-2.13031E-14
 -1       514 2.29429E+01 2.08700E+00-1.34924E-02-9.75540E-01-1.59125E-13-2.32282E-13
 -1       515 2.28744E+01 2.25598E+00-1.22574E-02 5.35014E-01-1.77231E-13-2.84292E-13
 -1       516 2.32223E+01 1.34057E+00-7.73371E-03 1.71733E+00-1.29621E-13-2.99435E-13
 -1       517 2.36093E+01 2.82784E-02-7.26744E-03 2.03000E+00-5.82034E-14-3.39307E-13
 -1       518 2.36869E+01-9.27992E-01-2.99904E-03 1.53923E+00-2.02349E-13-3.11739E-14
 -1       519 2.33942E+01-1.27379E+00-3.94357E-03 7.21323E-01-7.77099E-14-1.65653E-13
 -1       520 2.28940E+01-1.15394E+00-3.36964E-03-5.42434E-02 2.21261E-14-4.53988E-13
 -1       521 2.23538E+01-8.28211E-01-2.55166E-03-6.19548E-01 2.44362E-13-5.69835E-13
 -1       522 2.18670E+01-4.81499E-01-1.65502E-03-9.55571E-01 3.69522E-14-1.22222E-13
 -1       523 2.14623E+01-2.01075E-01-8.71369E-04-1.10547E+00 3.67248E-14 2.64901E-13
 -1       524 2.11351E+01-6.86569E-03-2.90202E-04-1.12507E+00 3.77417E-14 1.45654E-13
 -1       525 2.08704E+01 1.13794E-01 1.06921E-04-1.06210E+00 1.73184E-13 4.45888E-14
 -1       526 2.06537E+01 1.83943E-01 3.68891E-04-9.50660E-01 2.21666E-13 3.30332E-14
 -1       527 2.04737E+01 2.25979E-01 5.18489E-04-8.11991E-01 2.36810E-13-2.06547E-13
 -1       528 2.03230E+01 2.57796E-01 6.98411E-04-6.56732E-01 5.17838E-14-2.58968E-13
 -1       529 1.98058E+01 1.31357E-01 1.01406E-03-2.08891E-02 2.56437E-13-6.15393E-14
 -1       530 1.97504E+01 6.35967E-02 3.86191E-04-1.22461E-01 1.57341E-13-1.35246E-13
 -1       531 1.97355E+01 2.42032E-02 1.17496E-04-1.75407E-01 1.55571E-13-1.56382E-13
 -1       532 1.97477E+01 2.69618E-03-2.50742E-06-1.99286E-01 1.68353E-13-1.72290E-13
 -1       533 1.97774E+01-6.80009E-03-5.02236E-05-2.07254E-01 1.33422E-13-1.28427E-13
 -1       534 1.98184E+01-7.79442E-03-5.34383E-05-2.08529E-01 1.87189E-13-4.80921E-14
 -1       535 1.98675E+01-2.44575E-03-2.46980E-05-2.09832E-01 2.36331E-13-7.76375E-14
 -1       536 1.99235E+01 7.92465E-03 2.89877E-05-2.16282E-01 2.59114E-13-2.12830E-13
 -1       537 1.99868E+01 2.25366E-02 1.03297E-04-2.31985E-01 1.03987E-13-2.61548E-13
 -1       538 2.00590E+01 4.09390E-02 1.95469E-04-2.60399E-01 5.90807E-14-3.10173E-13
 -1       539 2.01429E+01 6.28164E-02 3.02963E-04-3.04539E-01 4.01383E-14-1.98999E-13
 -1       540 2.02417E+01 8.77546E-02 4.21888E-04-3.67012E-01 4.51635E-14-2.37746E-13
 -1       541 2.03593E+01 1.14900E-01 5.44945E-04-4.49826E-01 1.52500E-14-1.53202E-13
 -1       542 2.05000E+01 1.42448E-01 6.58070E-04-5.53918E-01-1.34786E-14 4.07935E-15
 -1       543 2.06681E+01 1.66857E-01 7.35500E-04-6.78247E-01-4.94019E-14-4.68646E-14
 -1       544 2.08685E+01 1.81676E-01 7.33671E-04-8.18291E-01 7.24315E-14-8.49234E-14
 -1       545 2.11064E+01 1.75969E-01 5.85585E-04-9.63718E-01 7.50241E-14-1.84661E-13
 -1       546 2.13888E+01 1.32626E-01 1.99977E-04-1.09506E+00 6.24420E-14-5.52688E-14
 -1       547 2.17250E+01 2.76582E-02-5.22085E-04-1.17947E+00-8.91491E-15-1.05887E-13
 -1       548 2.21278E+01-1.66556E-01-1.62580E-03-1.16642E+00-7.71800E-14-2.16539E-13
 -1       549 2.26101E+01-4.67848E-01-3.00152E-03-9.86280E-01-1.93316E-13-4.03284E-13
 -1       550 2.31695E+01-8.52542E-01-4.32436E-03-5.61083E-01-1.84379E-13-1.79775E-13
 -1       551 2.37674E+01-1.21101E+00-4.85308E-03 1.62197E-01-2.73440E-13 9.13673E-15
 -1       552 2.42639E+01-1.27544E+00-2.22914E-03 1.12901E+00-2.60750E-13 2.58331E-13
 -1       553 2.44384E+01-7.37422E-01-9.21705E-03 2.03564E+00 5.23203E-15 1.83904E-13
 -1       554 2.41515E+01 5.12241E-01-1.41449E-02 2.31559E+00 2.53113E-13 1.61376E-13
 -1       555 2.36411E+01 1.88829E+00-2.31839E-02 1.46537E+00 4.66972E-13 1.99753E-14
 -1       556 2.34089E+01 2.32694E+00-2.23367E-02-2.84379E-01 4.23534E-13-2.10865E-13
 -1       557 2.37593E+01 1.50883E+00-1.08503E-02-1.82402E+00 4.07764E-14-4.01928E-13
 -1       558 2.42659E+01 8.42534E-02-8.52897E-03-2.29868E+00 2.21874E-13-4.49855E-13
 -1       559 2.44111E+01-9.94838E-01-5.46039E-03-1.76892E+00 3.24264E-13-2.84757E-13
 -1       560 2.40954E+01-1.31852E+00-7.06393E-03-7.84787E-01-2.08633E-14 2.38753E-13
 -1       561 2.35414E+01-1.12938E+00-5.64243E-03 1.32444E-01-2.75692E-13 8.67631E-14
 -1       562 2.29356E+01-7.47143E-01-4.15480E-03 7.74701E-01-3.80988E-13-1.11086E-14
 -1       563 2.23812E+01-3.80624E-01-2.81513E-03 1.12889E+00-3.15094E-13-1.44474E-13
 -1       564 2.19072E+01-1.10585E-01-1.36809E-03 1.26028E+00-5.34819E-14 4.77017E-13
 -1       565 2.15085E+01 5.73689E-02-2.53570E-04 1.24573E+00-1.35706E-13 4.78696E-13
 -1       566 2.11720E+01 1.47815E-01 4.52550E-04 1.14706E+00 2.04724E-13 1.23635E-13
 -1       567 2.08868E+01 1.90156E-01 8.38539E-04 1.00577E+00 3.36888E-13 1.57243E-13
 -1       568 2.06454E+01 2.08935E-01 1.09878E-03 8.45695E-01 1.12585E-13 1.70289E-13
 -1       569 2.04427E+01 2.22294E-01 1.52681E-03 6.78522E-01 1.91464E-13 3.10144E-13
 -1       570 2.02709E+01 2.37785E-01 1.50517E-03 5.05439E-01-2.76520E-14 5.41290E-13
 -1       571 1.98331E+01 8.21445E-01-3.20445E-04 5.50821E-01 1.95955E-13-3.81061E-13
 -1       572 1.97368E+01 9.51697E-01-4.96903E-04 3.99951E-01 2.07060E-13 2.55704E-13
 -1       573 2.00975E+01 4.71228E-01 1.40577E-04 6.23546E-01-3.65973E-13 8.62362E-14
 -1       574 1.99580E+01 6.55800E-01-1.33957E-04 6.28835E-01-3.77590E-13-2.39157E-13
 -1       575 1.96792E+01 1.03068E+00-6.36153E-04 1.97807E-01 9.72590E-14 1.31283E-13
 -1       576 1.96657E+01 1.04956E+00-6.79061E-04-2.78940E-02-8.38793E-14 6.07438E-14
 -1       577 1.96964E+01 1.00700E+00-6.18431E-04-2.47127E-01-1.77500E-13 5.62855E-13
 -1       578 1.97645E+01 9.11644E-01-4.63172E-04-4.29053E-01 2.67491E-13 4.21952E-13
 -1       579 1.98639E+01 7.72227E-01-2.92325E-04-5.57647E-01 2.53607E-13 1.58945E-13
 -1       580 1.99814E+01 6.05543E-01-1.11736E-04-6.14961E-01 5.71735E-14-4.36815E-14
 -1       581 2.01087E+01 4.28820E-01 3.14291E-04-5.92277E-01-1.09580E-13-4.96701E-13
 -1       582 5.36583E+00-1.25414E+00 1.71126E-01 1.85683E+00-3.32087E-13 8.89677E-13
 -1       583 1.85256E+01-5.37066E+00 7.07226E-02 6.38117E+00-2.60805E-13 3.54248E-14
 -1       584 1.99193E+01 2.47616E-01 2.46521E-03 1.59353E-01 3.82291E-13-1.41053E-14
 -1       585 3.07632E+01 1.79601E+00-1.24217E-01-1.64322E+00 3.09877E-13-7.43176E-13
 -1       586 8.77902E+00-2.69528E+00 1.53659E-01-5.51328E+00 3.63598E-15 8.21003E-13
 -1       587 1.14104E+01-3.55201E+00 1.37253E-01 6.29489E+00-3.82333E-13 4.66384E-13
 -1       588 5.13978E+00-1.52280E+00 1.79691E-01-2.19030E+00-2.87199E-13 9.77773E-13
 -1       589 3.01661E+01 2.78382E+00-1.24579E-01-1.78768E+00-8.78742E-13 3.71030E-13
 -1       590 1.96896E+01 3.19984E+00-5.11827E-03-3.13157E-01-4.85756E-15-9.11642E-13
 -1       591 3.01317E+01 7.10385E+00-1.69488E-01 2.99791E-01 7.32386E-13-1.34294E-13
 -1       592 2.47861E+01-5.19605E+00-9.08655E-04 4.05363E+00 9.22179E-15 5.75949E-13
 -1       593 3.12932E+01 6.00080E+00-1.41956E-01-1.41622E+00 7.68691E-13-5.30603E-13
 -1       594 3.08734E+01 4.44201E+00-1.50032E-01 1.86302E+00 8.62366E-13 2.88783E-13
 -1       595 3.08392E+01 9.14463E-01-1.01417E-01 1.26261E+00 8.66682E-13 3.79169E-13
 -1       596 2.83020E+01-3.62272E+00-5.94099E-02-1.15626E+00 2.42069E-13 2.72032E-13
 -1       597 2.30844E+01-5.60077E+00 1.73287E-02-4.85413E+00-4.46032E-13-8.76899E-13
 -1       598 1.70392E+01-5.00078E+00 8.84409E-02-6.50410E+00-4.07743E-13-1.12474E-12
 -1       599 8.54971E+00-2.52124E+00 1.52586E-01-5.15105E+00-2.36866E-13-1.04200E-12
 -1       600 5.87817E+00-1.10132E+00 1.99985E-01-2.12426E+00-1.39782E-13-1.37826E-12
 -1       601 1.12184E+01-3.64413E+00 1.45902E-01 6.55189E+00 4.14058E-13-1.06210E-12
 -1       602 3.03051E+01 4.12135E+00-1.40342E-01 1.70581E+00-6.71227E-13-4.54060E-13
 -1       603 1.78397E+01-5.30399E+00 7.33606E-02 6.64257E+00 3.21264E-13 5.58460E-14
 -1       604 2.88556E+01-2.41012E+00-7.28203E-02 3.52665E-01-4.97025E-13 7.77829E-13
 -1       605 3.04504E+01 6.26128E+00-1.54558E-01-1.30136E+00-1.06158E-12-5.82139E-14
 -1       606 2.95265E+01 7.16612E+00-1.84024E-01 3.24734E-01-1.04081E-12-3.57322E-13
 -1       607 3.01866E+01 3.60833E-01-1.19702E-01 8.87970E-01-3.39284E-13 4.61436E-14
 -1       608 2.85733E+01-3.02083E+00-4.65214E-02-1.29116E+00-3.35388E-13-2.19595E-13
 -1       609 2.36262E+01-5.47089E+00 1.03466E-02-4.57813E+00 2.14093E-13-8.98760E-14
 -1       610 1.70995E+01-5.00267E+00 1.04489E-01-6.73125E+00 3.68330E-13 4.30191E-13
 -1       611 2.03871E+01 1.75710E+00-5.27927E-03-1.52597E+00-6.33767E-13-4.76048E-13
 -1       612 2.05786E+01 1.30524E+00-9.98988E-04 1.55001E+00 7.53337E-13 2.24158E-13
 -1       613 2.56969E+01-5.13982E+00 6.24847E-03 3.50007E+00-1.88904E-13-3.28015E-13
 -1       614 1.99812E+01 2.65396E+00-6.75489E-03-1.24528E+00-4.27870E-13-8.21459E-13
 -1       615 9.71253E+00-1.32509E+00 1.50074E-01 4.28594E+00-3.69614E-13 5.95669E-13
 -1       616 2.02347E+01 2.75800E-01 8.65095E-04-5.42008E-01 1.17190E-14-1.02210E-13
 -1       617 2.76821E+01 5.28645E+00-1.39829E-01 1.64954E+00-6.22648E-13-8.14120E-13
 -1       618 6.70373E+00-3.25123E-01 1.72022E-01 5.53688E-01 1.39064E-13-1.36433E-12
 -1       619 1.40197E+01-3.05594E+00 1.20440E-01-5.88353E+00-3.74763E-13-8.88449E-13
 -1       620 2.01630E+01 2.28283E+00-6.10369E-03-1.43736E+00-5.31471E-13-6.96398E-13
 -1       621 1.99689E+01 2.45244E+00-1.58538E-03 3.94232E-01 2.81011E-13-7.35789E-13
 -1       622 1.99378E+01 2.52769E+00-1.51773E-03 1.35754E-01 1.83509E-13-7.75369E-13
 -1       623 2.01252E+01 2.04774E+00-1.58541E-03 8.51049E-01 5.07334E-13-5.07550E-13
 -1       624 2.02411E+01 1.67636E+00-2.22118E-03 9.93048E-01 5.83107E-13-3.61978E-13
 -1       625 2.03176E+01 1.03763E+00 2.86434E-03 8.33034E-01 5.97721E-13-1.89526E-13
 -1       626 2.81293E+01 3.07221E+00-1.40646E-01-2.32428E+00 2.97332E-13-1.85438E-13
 -1       627 1.47733E+01-2.83559E+00 9.10709E-02-5.71939E+00 3.50098E-13 4.11088E-13
 -1       628 2.02413E+01 6.76172E-01 4.34555E-04-3.92824E-01-3.39123E-13-4.37584E-13
 -1       629 2.01698E+01 3.96914E-01 1.77177E-04-1.37332E-01-2.55851E-13-4.01142E-13
 -1       630 2.01058E+01 2.21092E-01 5.16955E-05 2.83177E-02-2.14837E-13-3.49898E-13
 -1       631 2.00579E+01 1.11665E-01 9.97702E-06 1.29110E-01-2.18118E-13-3.84262E-13
 -1       632 2.00259E+01 4.65846E-02-7.06733E-06 1.86386E-01-1.74995E-13-4.00063E-13
 -1       633 2.00076E+01 1.20883E-02-1.41363E-05 2.16658E-01-1.37351E-13-3.56913E-13
 -1       634 2.00001E+01-6.33205E-04-1.45254E-05 2.32347E-01-1.21620E-13-3.34762E-13
 -1       635 2.00008E+01 2.65817E-03-9.51345E-06 2.42797E-01-8.00373E-14-2.46112E-13
 -1       636 2.00081E+01 1.81479E-02 6.51668E-08 2.55117E-01-2.84317E-14-1.97003E-13
 -1       637 2.00207E+01 4.32723E-02 1.34811E-05 2.74819E-01-2.24961E-14-1.99965E-13
 -1       638 2.00379E+01 7.62007E-02 3.01498E-05 3.06266E-01 2.28152E-14-1.59151E-13
 -1       639 2.00594E+01 1.15374E-01 4.96097E-05 3.52934E-01-6.91012E-15-1.71536E-13
 -1       640 2.00856E+01 1.59011E-01 7.11372E-05 4.17504E-01-1.11867E-13-1.39619E-13
 -1       641 2.01170E+01 2.04496E-01 9.34357E-05 5.01766E-01-1.94978E-13-9.10045E-14
 -1       642 2.01551E+01 2.47584E-01 1.14312E-04 6.06314E-01-8.34597E-14-9.00646E-14
 -1       643 2.02028E+01 2.81350E-01 1.29902E-04 7.30000E-01 2.42521E-14-9.24126E-14
 -1       644 2.02652E+01 2.94862E-01 1.33618E-04 8.69090E-01 4.28306E-15-6.35770E-14
 -1       645 2.03517E+01 2.71681E-01 1.15100E-04 1.01604E+00 1.80984E-13-8.91215E-14
 -1       646 2.04784E+01 1.88617E-01 5.80552E-05 1.15774E+00 2.44893E-13-2.37339E-13
 -1       647 2.06714E+01 1.59302E-02-7.19111E-05 1.27280E+00 1.43491E-13-8.84193E-14
 -1       648 2.09692E+01-2.78309E-01-3.33261E-04 1.32736E+00-1.52522E-14 2.96503E-14
 -1       649 2.14221E+01-7.14345E-01-7.85998E-04 1.26912E+00 2.95211E-14 1.27576E-13
 -1       650 2.20778E+01-1.26875E+00-1.30327E-03 1.02150E+00 1.57469E-13 1.89211E-13
 -1       651 2.29442E+01-1.81456E+00-4.91501E-04 4.88846E-01 6.42043E-14 2.11655E-13
 -1       652 2.39123E+01-2.04884E+00-1.70963E-03-3.83052E-01-6.07026E-14 1.83776E-13
 -1       653 2.47141E+01-1.48956E+00-1.04932E-02-1.49450E+00 3.05940E-14 2.48688E-13
 -1       654 2.50042E+01 1.82552E-01-2.06885E-02-2.33131E+00-2.03033E-13 2.64991E-13
 -1       655 2.44875E+01 2.53212E+00-7.57840E-02-2.00723E+00-3.73776E-13 5.22963E-14
 -1       656 2.42045E+01 3.84355E+00-7.50163E-02-3.00325E-01-2.28127E-13-2.56100E-13
 -1       657 2.44399E+01 3.09060E+00-6.99539E-02 1.60335E+00-4.05393E-13-4.15370E-13
 -1       658 2.49208E+01 8.46620E-01-2.29253E-02 2.34889E+00-1.96959E-13-5.03101E-13
 -1       659 2.48098E+01-1.19178E+00-8.36950E-03 1.71990E+00-7.21914E-14-5.40289E-13
 -1       660 2.41744E+01-2.02330E+00-6.47517E-03 6.55373E-01-2.46840E-13-4.34286E-13
 -1       661 2.32106E+01-1.95418E+00-2.27990E-03-3.25754E-01-6.93478E-14-2.34284E-13
 -1       662 2.22948E+01-1.46218E+00-1.50788E-03-9.64395E-01-6.43492E-14-3.07944E-13
 -1       663 2.15736E+01-8.91987E-01-7.85544E-04-1.29488E+00 3.84154E-13-3.64174E-13
 -1       664 2.10645E+01-4.14952E-01-3.53335E-04-1.40920E+00 1.48338E-13-5.65898E-13
 -1       665 2.07260E+01-7.55340E-02-1.14306E-04-1.38964E+00 7.83818E-14-4.76895E-13
 -1       666 2.05063E+01 1.40558E-01 2.74584E-05-1.29331E+00 1.69579E-13-3.08743E-13
 -1       667 2.03621E+01 2.67100E-01 1.17515E-04-1.15594E+00 1.49188E-13-2.96900E-13
 -1       668 2.02635E+01 3.38740E-01 1.98118E-04-9.98142E-01-8.27487E-14-1.90545E-13
 -1       669 2.01900E+01 3.83716E-01 2.53421E-04-8.30530E-01-5.33909E-14-3.37751E-13
 -1       670 1.99778E+01 9.76992E-02 6.55801E-05-1.28901E-01 2.14328E-13-2.10131E-13
 -1       671 2.76705E+01 3.83406E+00-1.19292E-01-2.17058E+00-6.34909E-13 4.43725E-13
 -1       672 2.00289E+01 1.95464E-01 1.78422E-04-2.54893E-02 2.34447E-13-1.90032E-13
 -1       673 1.99395E+01 8.61128E-03-9.08768E-06-2.15419E-01 1.31261E-13-1.34348E-13
 -1       674 1.99423E+01-3.60439E-03-1.62677E-05-2.29129E-01 1.41203E-13-1.66245E-13
 -1       675 1.99549E+01-1.99371E-03-1.17323E-05-2.37035E-01 1.94322E-13-1.31369E-13
 -1       676 1.99750E+01 1.02125E-02 2.19145E-06-2.46382E-01 2.41514E-13-1.41915E-13
 -1       677 2.00013E+01 3.09881E-02 2.39222E-05-2.62827E-01 1.98305E-13 1.40866E-15
 -1       678 2.00335E+01 5.90829E-02 5.25195E-05-2.90959E-01 1.23857E-13-2.24136E-14
 -1       679 2.00717E+01 9.36739E-02 8.77003E-05-3.34632E-01 4.53322E-14-1.40821E-13
 -1       680 2.01164E+01 1.34016E-01 1.28416E-04-3.97127E-01 3.66229E-14-2.86740E-13
 -1       681 2.01685E+01 1.78984E-01 1.73131E-04-4.81146E-01 1.57477E-16-2.21777E-13
 -1       682 2.02294E+01 2.26404E-01 2.19263E-04-5.88576E-01-8.64947E-14-1.46066E-13
 -1       683 2.03007E+01 2.72114E-01 2.61621E-04-7.19971E-01-6.04399E-14-7.80574E-14
 -1       684 2.03855E+01 3.08545E-01 2.89958E-04-8.73717E-01-7.46697E-15-1.15317E-13
 -1       685 2.04893E+01 3.22715E-01 2.85893E-04-1.04468E+00 1.03970E-13-5.56983E-14
 -1       686 2.06231E+01 2.93748E-01 2.18463E-04-1.22223E+00 1.08889E-13-1.16644E-13
 -1       687 2.08067E+01 1.90536E-01 3.98625E-05-1.38728E+00 4.18213E-14-1.67528E-13
 -1       688 2.10748E+01-2.84438E-02-3.02490E-04-1.50795E+00-5.70559E-14-5.43197E-14
 -1       689 2.14816E+01-4.07985E-01-8.01399E-04-1.53240E+00-8.94846E-14 4.31463E-14
 -1       690 2.20972E+01-9.69558E-01-1.37884E-03-1.37890E+00-2.93550E-13 1.45808E-13
 -1       691 2.29749E+01-1.64336E+00-1.31182E-03-9.29351E-01-2.31960E-13 1.05206E-13
 -1       692 2.41088E+01-2.18325E+00-1.17773E-02-4.10083E-02-4.18535E-13 3.32985E-13
 -1       693 2.52315E+01-2.13438E+00-1.31037E-02 1.18553E+00-1.56173E-14 4.33635E-13
 -1       694 2.57959E+01-6.09578E-01-2.68927E-02 2.36616E+00 2.38042E-13 4.26170E-13
 -1       695 2.56664E+01 1.98134E+00-8.30853E-02 2.49981E+00 4.68150E-13 2.54623E-14
 -1       696 2.52795E+01 3.98214E+00-9.99215E-02 8.96176E-01 5.77528E-13-2.09995E-13
 -1       697 2.56761E+01 1.18092E+00-6.42181E-02-2.67405E+00-5.71071E-15-5.03203E-13
 -1       698 2.57894E+01-1.25564E+00-3.22279E-02-2.12113E+00 1.40572E-13-2.36495E-13
 -1       699 2.49115E+01-2.19070E+00-4.04066E-03-7.66785E-01 2.41040E-14-1.37005E-13
 -1       700 2.37391E+01-2.06516E+00 5.12669E-04 4.06640E-01-1.95972E-13-1.78889E-13
 -1       701 2.26729E+01-1.45393E+00 3.17534E-05 1.15276E+00-2.46111E-13-3.47598E-14
 -1       702 2.18702E+01-8.01767E-01-1.04376E-03 1.51032E+00-3.78157E-13-1.05148E-13
 -1       703 2.13194E+01-2.97274E-01-7.06027E-04 1.61293E+00-4.49942E-13 1.11929E-13
 -1       704 2.09538E+01 3.11952E-02-2.22218E-04 1.56452E+00-1.51006E-14 1.49985E-13
 -1       705 2.07077E+01 2.17955E-01 9.12699E-05 1.43426E+00 2.38372E-13 1.29299E-13
 -1       706 2.05339E+01 3.10121E-01 2.37245E-04 1.26468E+00 1.02112E-13 1.61183E-13
 -1       707 2.04021E+01 3.49985E-01 3.40536E-04 1.07980E+00 3.81208E-13 2.46015E-13
 -1       708 2.02950E+01 3.68829E-01 5.28968E-04 8.91394E-01 2.21546E-13-5.03058E-14
 -1       709 2.01815E+01 4.17742E-01 4.74677E-04 7.60720E-01-2.85891E-14 7.15717E-14
 -1       710 2.30398E+01-5.10663E+00 2.47214E-02 4.04051E+00-4.69329E-13-3.63677E-13
 -1       711 1.94429E+01 1.01881E+00-2.43586E-04 1.00706E-01 2.51810E-13 2.09194E-13
 -1       712 2.01490E+01 4.06544E-01 3.85783E-04-7.13185E-01-2.58848E-14-5.51677E-13
 -1       713 1.96296E+01 8.69065E-01-7.74427E-05 5.96723E-01 2.38224E-13-4.31697E-13
 -1       714 1.94588E+01 1.00192E+00-2.41880E-04-1.79663E-01 1.94514E-13 2.64084E-13
 -1       715 1.95016E+01 9.72835E-01-1.57544E-04 3.71720E-01 2.44842E-13-2.39596E-15
 -1       716 1.95427E+01 9.27728E-01-1.56608E-04-4.28702E-01 1.86958E-13 6.20001E-13
 -1       717 1.96839E+01 8.05104E-01-1.53913E-04-6.24352E-01 2.44789E-13 2.13324E-13
 -1       718 1.98657E+01 6.50354E-01-1.62744E-04-7.39098E-01 1.13076E-13-1.19267E-13
 -1       719 2.78675E+01-3.38942E-01-8.42383E-02-1.92330E+00-4.22148E-13 6.39180E-13
 -1       720 2.61643E+01-4.17466E+00-3.38724E-03-1.29659E+00-9.85739E-14-5.34446E-13
 -1       721 2.73496E+01-2.50148E+00-7.36746E-02 6.11532E-01-2.82109E-14-4.78360E-13
 -1       722 2.80385E+01-1.60347E+00-7.22458E-02 1.64414E+00 4.42994E-13 4.94892E-13
 -1       723 9.91037E+00-1.24935E+00 1.45523E-01 4.43698E+00 4.90441E-13-1.18983E-12
 -1       724 2.75530E+01 4.90320E+00-1.52532E-01 1.67793E+00 7.03028E-13 4.86260E-14
 -1       725 1.68127E+01-3.53674E+00 8.04572E-02 5.62973E+00-5.91763E-13 7.54813E-14
 -1       726 2.01055E+01 3.56655E-01 6.14736E-04 1.47701E-01 3.70518E-13-1.94583E-13
 -1       727 1.99498E+01 3.97159E-02 1.40975E-05-1.86323E-01 1.49417E-13-2.23741E-13
 -1       728 2.02926E+01 1.11739E+00-4.05400E-04-7.64138E-01-4.12073E-13-4.95577E-13
 -1       729 2.02050E+01 6.15709E-01 9.77885E-04 4.20892E-01 4.69475E-13-2.02364E-13
 -1       730 2.73446E+01-3.79391E+00-1.59249E-02 5.08612E-01-1.16047E-13-5.76539E-13
 -1       731 2.00313E+01 2.29730E+00-1.65413E-03 6.38154E-01 3.98055E-13-6.32547E-13
 -1       732 2.00259E+01 2.30762E+00-1.63516E-03-6.29779E-01-2.10415E-13-8.11858E-13
 -1       733 2.82710E+01 1.97028E+00-1.11448E-01 2.57253E+00 8.61623E-13 2.96409E-13
 -1       734 2.12291E+01-4.88592E+00 3.69533E-02-4.79686E+00-5.88925E-13-5.97844E-13
 -1       735 2.85117E+01-9.79175E-01-6.51320E-02-1.82457E+00 2.34101E-13-5.94635E-13
 -1       736 1.00590E+01-6.91415E-01 1.45973E-01-3.58815E+00-2.44671E-13-1.02030E-12
 -1       737 2.68442E+01 5.68024E+00-1.71348E-01-7.66446E-01-7.21159E-13 3.99021E-14
 -1       738 2.56281E+01-4.76100E+00-2.29748E-02-2.13102E+00-4.64451E-13 1.37701E-13
 -1       739 1.63829E+01-3.80111E+00 9.77223E-02 6.09601E+00 6.45196E-13-8.08867E-14
 -1       740 2.20604E+01-5.06708E+00 4.21211E-02 4.69237E+00 3.90354E-13 4.76661E-13
 -1       741 2.61983E+01-4.18233E+00-2.98308E-02 1.24244E+00 2.29886E-14 6.81427E-13
 -1       742 2.76964E+01 1.25252E-01-1.03608E-01 2.11386E+00-2.65784E-13-8.37878E-13
 -1       743 2.02699E+01 1.62813E+00 7.11965E-04-1.09018E+00-4.82966E-13-5.98899E-13
 -1       744 2.12636E+01-4.76324E+00 3.72234E-02-4.79744E+00 3.49023E-13 2.03856E-13
 -1       745 2.70425E+01 5.27703E+00-1.36555E-01-1.10982E+00 5.87273E-13-1.53114E-13
 -1       746 2.01220E+01 2.06006E+00-6.79984E-04-8.44654E-01-3.08231E-13-7.71557E-13
 -1       747 1.99369E+01 2.52931E+00-1.51461E-03-1.26626E-01 4.07291E-14-7.92098E-13
 -1       748 1.09547E+01-8.79265E-01 1.24137E-01-4.09756E+00 1.20251E-14 4.89216E-13
 -1       749 1.98124E+01 7.20774E-01-2.86157E-04 7.44721E-01 2.59693E-13 1.78043E-13
 -1       750 1.99970E+01 5.74152E-01 1.84992E-07 7.89156E-01-1.62422E-14-3.50680E-13
 -1       751 1.43854E+01-1.69441E+00 8.30788E-02 4.75036E+00-5.53368E-13 8.41618E-14
 -1       752 1.81479E+01-3.44714E+00 6.71564E-02-5.11489E+00-4.23127E-13-7.70602E-13
 -1       753 8.86154E+00 8.25210E-02 1.52245E-01-1.55201E+00-2.19902E-13 7.24407E-13
 -1       754 1.99657E+01 2.45817E+00-1.57356E-03-3.84469E-01-9.90570E-14-7.87049E-13
 -1       755 9.51925E+00 2.10472E-01 1.16017E-01-1.56093E+00 1.01503E-13-9.57213E-13
 -1       756 9.92380E+00 4.22286E-01 1.11028E-01 1.01546E+00-5.88217E-14 7.16434E-13
 -1       757 2.00094E+01 5.18083E-01 5.07150E-05-8.09754E-01-3.45841E-13-3.87371E-13
 -1       758 1.46823E+01-1.24546E+00 5.45068E-02-4.30983E+00 2.30101E-13 4.02402E-13
 -1       759 2.02756E+01 1.30407E+00 8.41820E-04 6.30907E-01 4.77833E-13-3.64044E-13
 -1       760 2.34823E+01-4.24408E+00-3.28146E-03-2.66922E+00-4.93947E-13 3.68846E-14
 -1       761 2.35604E+01-3.91402E+00 1.62627E-02-2.30772E+00 3.02658E-13-5.40735E-13
 -1       762 2.02858E+01 1.16624E+00-4.81718E-04-5.67555E-01-3.32911E-13-5.79296E-13
 -1       763 1.99620E+01-3.80119E+00 4.31453E-02 4.64752E+00 4.40436E-13 2.15650E-13
 -1       764 2.02674E+01 4.43185E-01 1.03710E-05-8.86058E-02-1.95930E-13-4.69072E-13
 -1       765 2.02281E+01 2.50234E-01-1.31793E-05 4.59126E-02-2.23222E-13-4.30896E-13
 -1       766 2.01874E+01 1.27881E-01-8.76591E-06 1.30427E-01-1.78860E-13-3.71142E-13
 -1       767 2.01504E+01 5.56957E-02-6.92477E-06 1.80561E-01-1.11924E-13-3.44924E-13
 -1       768 2.01187E+01 1.97480E-02-5.92162E-06 2.09357E-01-5.85220E-14-2.88501E-13
 -1       769 2.00922E+01 1.04996E-02-4.79208E-06 2.27248E-01-1.68524E-14-1.75351E-13
 -1       770 2.00701E+01 2.14100E-02-2.84342E-06 2.42409E-01-1.87776E-15-1.56128E-13
 -1       771 2.00511E+01 4.79959E-02-4.39728E-08 2.61242E-01-2.59374E-14-7.38487E-14
 -1       772 2.00339E+01 8.71219E-02 3.63355E-06 2.88831E-01 2.52371E-14-1.15505E-13
 -1       773 2.00171E+01 1.36387E-01 8.11274E-06 3.29269E-01-5.30000E-14-1.51142E-13
 -1       774 1.99993E+01 1.93531E-01 1.35861E-05 3.85873E-01-1.04649E-13-1.93346E-13
 -1       775 1.99794E+01 2.55765E-01 1.99187E-05 4.61284E-01-8.78101E-14-1.19272E-13
 -1       776 1.99568E+01 3.18924E-01 2.72281E-05 5.57454E-01-9.53981E-14-4.82463E-14
 -1       777 1.99321E+01 3.76404E-01 3.58208E-05 6.75503E-01-1.46337E-14 4.37378E-14
 -1       778 1.99082E+01 4.17814E-01 4.57696E-05 8.15511E-01 1.20943E-13 1.28697E-13
 -1       779 1.98918E+01 4.27296E-01 5.68100E-05 9.76202E-01 4.04183E-14 7.90685E-14
 -1       780 1.98967E+01 3.81663E-01 6.95712E-05 1.15440E+00 9.58810E-14-4.46944E-14
 -1       781 1.99480E+01 2.48774E-01 8.51894E-05 1.34388E+00 2.88165E-13-1.71797E-13
 -1       782 2.00877E+01-1.26008E-02 6.71354E-05 1.53235E+00 1.99652E-13-1.14795E-13
 -1       783 2.03819E+01-4.48069E-01-6.44177E-05 1.69428E+00 3.94412E-14 1.19218E-13
 -1       784 2.09247E+01-1.09062E+00-3.10785E-04 1.77525E+00 5.61908E-14 4.94102E-14
 -1       785 2.18245E+01-1.91270E+00-5.10988E-04 1.66450E+00 2.10378E-13 1.20475E-13
 -1       786 2.31627E+01-2.73951E+00 1.32989E-03 1.16451E+00 1.33476E-13 3.78647E-13
 -1       787 2.47041E+01-2.93839E+00-2.20134E-02 1.29277E-01-4.93095E-14 5.81739E-13
 -1       788 2.52202E+01-2.95243E+00-1.23837E-02 2.66029E-01 5.05490E-14-5.53981E-13
 -1       789 2.21784E+01-2.19471E+00 6.51910E-04-1.63172E+00-9.91234E-14-1.07946E-13
 -1       790 2.11605E+01-1.34850E+00 5.16285E-04-1.83765E+00 1.37405E-13 1.16928E-13
 -1       791 2.05309E+01-6.46903E-01 2.53481E-04-1.80657E+00 2.51462E-13 1.59009E-13
 -1       792 2.01830E+01-1.49458E-01 1.37557E-04-1.66933E+00 7.26136E-14 1.77382E-13
 -1       793 2.00150E+01 1.68188E-01 9.79113E-05-1.49215E+00 1.92601E-13-9.89192E-14
 -1       794 1.99516E+01 3.54104E-01 5.47547E-05-1.30443E+00 1.18997E-13-3.13300E-13
 -1       795 1.99450E+01 4.55786E-01 8.07348E-05-1.11824E+00 2.49401E-13-3.56472E-13
 -1       796 1.99838E+01 4.93804E-01 2.04647E-04-9.61004E-01-1.50735E-13-1.89722E-13
 -1       797 2.50521E+01-3.99901E+00-3.48467E-03 1.29868E+00-1.71967E-13-2.62499E-13
 -1       798 2.00556E+01 5.21964E-03-5.55277E-06-2.32083E-01 1.15067E-13-1.97152E-13
 -1       799 2.00734E+01 1.58725E-02-7.09424E-06-2.14959E-01 1.23408E-13-2.30421E-13
 -1       800 2.00368E+01 3.55980E-02 2.56664E-06-2.62338E-01 1.55795E-13-1.29601E-13
 -1       801 2.00329E+01 7.00869E-02 8.63583E-06-2.87754E-01 1.56514E-13-1.31502E-13
 -1       802 2.00307E+01 1.14905E-01 1.69537E-05-3.26312E-01 1.86809E-13-9.69074E-14
 -1       803 2.00290E+01 1.68780E-01 2.82760E-05-3.81736E-01 7.36417E-14-1.19928E-13
 -1       804 2.00264E+01 2.30361E-01 4.13018E-05-4.57155E-01-1.63606E-14-7.59503E-14
 -1       805 2.00214E+01 2.97458E-01 5.55512E-05-5.55146E-01-1.36428E-13-1.44258E-13
 -1       806 2.00132E+01 3.66092E-01 7.18433E-05-6.77521E-01-1.03599E-13-2.00038E-13
 -1       807 2.00016E+01 4.29182E-01 8.99921E-05-8.25142E-01-1.19129E-14-1.78213E-13
 -1       808 1.99891E+01 4.74542E-01 1.08586E-04-9.97584E-01-2.23047E-14-1.43618E-13
 -1       809 1.99833E+01 4.82242E-01 1.20215E-04-1.19267E+00 4.58685E-14-1.18851E-14
 -1       810 2.00011E+01 4.21421E-01 1.07076E-04-1.40571E+00 4.11095E-14 1.15039E-13
 -1       811 2.00761E+01 2.47348E-01 4.27082E-05-1.62788E+00-1.00355E-13 2.25521E-13
 -1       812 2.02685E+01-9.93852E-02-5.96257E-05-1.84212E+00-1.41688E-13 1.54820E-13
 -1       813 2.06796E+01-6.85676E-01 1.49131E-04-2.00965E+00-1.94006E-13 1.08505E-13
 -1       814 2.14538E+01-1.54627E+00 1.00215E-03-2.04181E+00-3.15486E-13-2.30978E-14
 -1       815 2.27739E+01-2.57848E+00 4.04997E-03-1.77469E+00-4.73766E-13 1.36613E-13
 -1       816 2.23119E+01-2.27764E+00 8.82794E-03 1.94328E+00-3.97421E-13 5.84975E-14
 -1       817 2.11984E+01-1.28925E+00 1.65823E-03 2.10551E+00-2.64731E-13 7.84717E-14
 -1       818 2.05511E+01-5.14856E-01 2.74013E-05 2.03669E+00-6.10594E-13-1.06556E-13
 -1       819 2.02196E+01-6.34621E-03 2.54978E-05 1.86322E+00-2.84519E-13-1.69517E-13
 -1       820 2.00715E+01 2.89410E-01 1.31418E-04 1.65435E+00 1.10654E-13-1.22013E-13
 -1       821 2.00199E+01 4.40450E-01 1.35486E-04 1.43829E+00 7.24636E-14-9.70799E-14
 -1       822 2.00133E+01 5.05229E-01 1.69973E-04 1.22884E+00 1.44995E-13-1.63405E-14
 -1       823 2.00218E+01 5.27731E-01 8.70305E-05 1.02779E+00 3.98878E-13 1.16801E-13
 -1       824 2.00054E+01 5.49741E-01-1.96249E-04 9.06686E-01 2.34737E-13-8.10403E-14
 -1       825 1.92469E+01 9.70212E-01-6.10690E-05-3.81750E-01 3.11953E-13 5.91623E-13
 -1       826 1.96594E+01 7.02157E-01-1.89859E-04-8.31512E-01-1.08460E-13-1.17912E-13
 -1       827 1.91680E+01 1.02706E+00-1.98701E-04-5.56672E-02 1.63207E-13-2.00338E-14
 -1       828 2.39717E+01-4.23802E+00 1.22737E-02 2.39169E+00 1.53672E-13 3.06888E-13
 -1       829 2.02246E+01 4.21266E-01-1.54366E-04 1.07206E-01 3.01370E-13-2.29677E-13
 -1       830 1.42366E+01-1.43334E+00 7.40590E-02-4.49029E+00-2.97028E-13-7.69015E-13
 -1       831 1.94188E+01 8.55351E-01-1.04028E-04-6.50270E-01 2.00338E-13 5.04086E-13
 -1       832 2.33842E+01-3.23504E+00-4.66867E-03 1.79794E+00-3.97092E-13-1.30914E-13
 -1       833 2.00439E+01 1.31221E-02-2.07510E-06-2.45598E-01 1.86375E-13-1.13146E-13
 -1       834 2.01762E+01 2.36384E-01 1.00712E-05-4.07462E-02 2.19808E-13-2.36332E-13
 -1       835 1.45299E+01-1.78542E+00 4.76017E-02 4.79023E+00 6.03188E-13-4.53131E-13
 -1       836 1.01459E+01 2.72670E-01 1.03707E-01 1.89858E+00 2.87989E-13-1.18974E-12
 -1       837 1.88648E+01-3.04686E+00 3.60149E-02-4.57330E+00 4.33091E-13 1.91674E-13
 -1       838 2.01922E+01 1.87250E+00-1.30652E-05-9.85772E-01-4.02817E-13-6.91283E-13
 -1       839 2.02938E+01 7.35164E-01-7.59044E-05-2.89178E-01-2.49732E-13-5.17902E-13
 -1       840 2.02780E+01 9.46079E-01 2.60714E-05 5.53212E-01 5.02786E-13-2.53862E-13
 -1       841 2.60296E+01-2.40403E+00-6.55648E-03-9.16963E-01-1.32705E-13 4.15098E-13
 -1       842 2.08696E+01-3.59930E+00 2.27957E-02 3.93031E+00-5.91381E-13-2.52858E-13
 -1       843 1.19282E+01 2.45743E-01 6.57267E-02-2.32170E+00 1.82392E-13 3.03360E-13
 -1       844 2.01478E+01 1.89484E+00-3.52228E-04 1.98833E-01 1.90215E-13-6.69651E-13
 -1       845 2.01365E+01 1.93340E+00-3.26724E-04 3.28977E-03 8.97699E-14-6.74360E-13
 -1       846 2.02255E+01 1.58635E+00-2.76826E-04 5.33844E-01 3.75383E-13-5.01117E-13
 -1       847 1.95680E+01 7.99930E-01 2.06601E-04 8.14460E-01 9.28723E-14-3.95218E-13
 -1       848 1.85404E+01-2.32421E+00 3.33945E-02 4.12363E+00-6.26874E-13-1.17321E-13
 -1       849 2.35285E+01-2.86176E+00 3.14604E-03-1.00624E+00 5.25172E-14-1.60718E-13
 -1       850 2.01331E+01 1.20064E-01-4.08283E-06-1.32209E-01 2.05317E-13-2.57396E-13
 -1       851 2.00988E+01 5.11292E-02-6.74381E-06-1.85446E-01 1.00744E-13-2.65118E-13
 -1       852 2.58553E+01-3.50727E+00 6.59267E-02-3.40509E-01-3.29004E-13 3.08958E-13
 -1       853 2.74550E+01-1.01767E+00-1.26106E-01-1.80632E+00-2.89855E-14-5.69388E-13
 -1       854 1.93360E+01 9.36546E-01 2.26125E-05 5.85049E-01 1.11054E-13-1.50275E-14
 -1       855 1.91981E+01 1.01551E+00-1.58971E-04 2.81246E-01 2.66794E-13 9.31334E-14
 -1       856 1.33623E+01-2.17330E-01 4.21822E-02 3.28327E+00 5.10909E-13-8.07014E-13
 -1       857 1.98133E+01 5.99018E-01 4.17141E-04-9.13171E-01-3.75431E-13-7.79328E-13
 -1       858 2.02571E+01 6.35193E-01-4.10640E-04 2.96027E-01 4.11126E-13-2.52387E-13
 -1       859 2.01757E+01 1.78765E+00-4.89091E-04-3.74542E-01-1.47559E-13-7.19709E-13
 -1       860 2.01793E+01 1.78065E+00-3.66241E-04 3.81182E-01 3.08896E-13-6.03069E-13
 -1       861 1.27133E+01 1.81479E-01 5.99376E-02 2.58924E+00-4.10899E-13 8.72618E-14
 -1       862 2.02211E+01 1.59706E+00-7.79359E-04-5.28189E-01-2.38145E-13-7.32463E-13
 -1       863 1.19462E+01 7.98321E-01 5.31425E-02-3.90422E-01 1.21826E-13 8.05495E-13
 -1       864 2.10375E+01-3.35216E+00 3.69566E-02-3.61141E+00-5.06330E-13-1.58424E-13
 -1       865 1.26366E+01-3.14677E-01 7.11834E-02-3.31335E+00-1.02783E-13-8.06447E-13
 -1       866 2.03099E+01 2.53410E-01-6.40427E-06 6.06096E-02-1.43258E-13-4.09597E-13
 -1       867 2.02717E+01 1.30137E-01-1.83816E-07 1.24536E-01-1.08472E-13-3.50832E-13
 -1       868 2.02290E+01 5.97001E-02-2.45364E-06 1.63835E-01-6.30194E-14-3.44417E-13
 -1       869 2.01852E+01 2.87420E-02-2.74692E-06 1.88298E-01 1.36773E-14-3.04297E-13
 -1       870 2.01417E+01 2.76502E-02-2.90529E-06 2.06044E-01 1.72446E-14-2.54538E-13
 -1       871 2.00983E+01 4.96087E-02-2.71215E-06 2.23620E-01-1.02723E-14-2.48376E-13
 -1       872 2.00540E+01 8.98233E-02-2.23588E-06 2.46285E-01-3.08582E-14-2.73440E-13
 -1       873 2.00070E+01 1.44804E-01-1.42338E-06 2.78324E-01-5.64089E-15-3.26674E-13
 -1       874 1.99548E+01 2.11679E-01-8.05790E-07 3.23294E-01-1.12272E-13-2.50755E-13
 -1       875 1.98951E+01 2.87540E-01-6.65257E-07 3.84212E-01-6.15243E-14-1.79760E-13
 -1       876 1.98253E+01 3.68611E-01-3.81181E-07 4.63768E-01-3.46058E-14-7.95462E-14
 -1       877 1.97436E+01 4.49237E-01 1.10126E-06 5.64422E-01 8.94365E-16 4.39733E-14
 -1       878 1.96493E+01 5.20725E-01 4.41988E-06 6.88617E-01 1.08984E-13 1.70196E-14
 -1       879 1.95443E+01 5.69856E-01 1.08035E-05 8.39140E-01 5.94589E-14-3.51320E-14
 -1       880 1.94354E+01 5.77047E-01 2.26135E-05 1.01964E+00 6.36051E-14-1.32918E-13
 -1       881 1.93374E+01 5.14231E-01 5.38077E-05 1.23529E+00 1.19938E-13-3.81854E-14
 -1       882 1.92788E+01 3.42471E-01 1.62846E-04 1.49298E+00 2.50903E-13-4.93663E-14
 -1       883 1.93113E+01 9.50303E-03 3.42611E-04 1.79905E+00 1.66207E-13-2.25299E-13
 -1       884 1.95239E+01-5.48336E-01 8.07440E-04 2.14917E+00 1.57963E-13-8.90706E-14
 -1       885 2.00601E+01-1.39423E+00 3.55542E-04 2.50440E+00 1.86494E-13 5.13754E-14
 -1       886 2.11488E+01-2.54232E+00 9.79894E-03 2.71536E+00 3.31154E-13 2.06718E-13
 -1       887 1.77029E+01-1.42728E+00 1.90311E-02-3.69061E+00 2.05599E-13-7.28775E-14
 -1       888 1.96880E+01-8.05870E-01 8.28803E-04-2.31734E+00 1.63960E-13 2.82377E-13
 -1       889 1.94130E+01-1.66092E-01 6.87861E-04-1.96697E+00-4.67739E-14 3.96319E-14
 -1       890 1.93557E+01 2.32504E-01 2.33924E-04-1.65531E+00 2.42216E-14 5.23952E-14
 -1       891 1.94109E+01 4.63286E-01 1.52046E-04-1.38964E+00-8.49851E-14-6.81484E-14
 -1       892 1.95175E+01 5.85663E-01-3.76342E-05-1.16322E+00 1.50435E-13-4.80728E-13
 -1       893 2.03070E+01 4.43342E-01-4.01681E-05 5.70706E-02 2.57315E-13-2.80789E-13
 -1       894 1.15072E+01 7.91278E-01 5.32824E-02-1.17372E-01 1.70857E-13-1.01622E-12
 -1       895 2.00209E+01 1.24340E-01 7.71880E-07-2.88201E-01 1.33320E-13-1.66064E-13
 -1       896 2.00558E+01 7.37603E-02 1.50883E-06-2.57052E-01 1.55092E-13-1.10885E-13
 -1       897 1.99368E+01 2.62202E-01 3.28714E-06-3.93645E-01 2.90505E-15-4.11104E-14
 -1       898 1.98813E+01 3.45754E-01 1.16736E-05-4.73890E-01 3.02813E-14-9.17426E-14
 -1       899 1.98123E+01 4.34824E-01 1.64688E-05-5.75792E-01-3.20154E-14-2.16319E-13
 -1       900 1.97266E+01 5.23708E-01 2.32350E-05-7.01418E-01-1.49212E-13-3.24638E-13
 -1       901 1.96221E+01 6.02634E-01 3.49618E-05-8.52955E-01-8.36466E-14-1.68666E-13
 -1       902 1.94995E+01 6.55677E-01 5.19275E-05-1.03324E+00-4.27200E-14-1.32220E-13
 -1       903 1.93654E+01 6.57827E-01 6.04196E-05-1.24685E+00-2.82122E-14-1.20703E-13
 -1       904 1.92375E+01 5.71394E-01 3.14231E-05-1.50141E+00-1.01832E-13 4.76142E-14
 -1       905 1.91541E+01 3.42072E-01 8.85738E-05-1.80852E+00-1.50437E-14 5.18408E-14
 -1       906 1.91847E+01-1.02841E-01 2.70795E-04-2.18255E+00-2.06358E-13-6.39164E-14
 -1       907 1.94752E+01-8.71125E-01 2.22382E-03-2.61989E+00-2.02374E-13-3.84573E-14
 -1       908 2.02524E+01-2.02872E+00 7.87281E-03-3.04275E+00-3.25144E-13-8.51934E-14
 -1       909 1.88787E+01 1.03111E+00-3.17254E-04-2.81191E-01 4.09602E-13 5.21033E-13
 -1       910 2.00364E+01-1.69374E+00 2.09704E-03 2.95154E+00-3.30813E-13-4.03228E-14
 -1       911 1.92451E+01 3.91962E-01 1.90326E-04 1.79420E+00-1.20673E-13-1.52122E-13
 -1       912 1.93573E+01 5.88299E-01 4.63478E-04 1.51235E+00 3.42098E-13-1.66099E-13
 -1       913 1.94968E+01 6.69274E-01-1.64013E-04 1.27164E+00 1.90165E-13-4.28322E-13
 -1       914 1.96424E+01 6.90588E-01 2.00213E-04 1.06510E+00 6.60884E-14-3.00082E-13
 -1       915 1.97905E+01 6.78286E-01 7.19045E-05 8.91723E-01 4.19219E-13 1.85603E-13
 -1       916 1.94165E+01-6.47744E-01 4.93418E-04 2.54076E+00-3.09813E-13 1.68991E-13
 -1       917 1.92258E+01 1.10674E-02-6.17214E-05 2.13737E+00-4.89901E-13-1.72118E-13
 -1       918 1.99822E+01 1.87751E-01 1.17727E-06-3.32675E-01 4.54160E-14-6.97852E-14
 -1       919 2.01590E+01 2.44735E-02-2.99296E-06-2.00323E-01 9.43790E-14-3.16570E-13
 -1       920 2.03006E+01 1.15516E+00 6.99969E-04-3.84631E-01-2.23139E-13-6.36767E-13
 -1       921 2.03467E+01-1.75260E+00-2.22176E-04-2.65863E+00 3.43397E-13 3.21805E-13
 -1       922 1.77020E+01-1.97786E+00 2.99789E-02-4.12239E+00-3.65297E-13-6.26508E-13
 -1       923 2.03370E+01 4.47347E-01-1.63202E-05-3.86707E-02-1.46209E-13-4.82871E-13
 -1       924 2.01470E+01 1.89748E+00-3.41633E-04-1.92531E-01-2.27245E-14-6.90804E-13
 -1       925 2.16044E+01-2.87757E+00 9.06431E-03-2.75372E+00 1.74941E-13-6.70774E-14
 -1       926 2.03416E+01 7.32288E-01-5.33715E-04-1.86267E-01-1.82395E-13-5.49220E-13
 -1       927 1.47650E+01-4.43445E-02 2.37304E-02-2.88009E+00 1.83379E-13 1.80368E-13
 -1       928 1.82981E+01-1.47123E+00 2.50385E-02 3.53609E+00 3.53556E-13-4.43764E-14
 -1       929 2.03078E+01 1.01044E+00-5.05081E-04 3.64770E-01 3.87799E-13-3.46594E-13
 -1       930 2.02957E+01 1.34845E+00 5.07066E-04-1.93597E-01-5.94042E-14-5.98032E-13
 -1       931 1.59521E+01-5.97271E-01 2.35598E-02 3.40157E+00-5.62717E-13-2.03109E-13
 -1       932 2.03193E+01 7.36742E-01 3.85078E-04 2.27626E-01 3.16951E-13-2.98658E-13
 -1       933 2.02754E+01 2.50853E-01-1.44144E-05-5.72894E-02 2.17418E-13-2.86957E-13
 -1       934 1.96831E+01 5.98144E-01 2.98765E-04-1.03285E+00 6.46991E-15-6.47082E-13
 -1       935 2.01971E+01 5.74264E-02-8.27319E-06-1.73900E-01 8.36488E-14-2.99705E-13
 -1       936 1.31447E+01 6.05866E-01 3.14480E-02-1.80526E+00 9.24958E-14-6.65892E-13
 -1       937 2.00892E+01 3.80819E-02 3.61669E-06-2.35338E-01 1.51966E-13-2.64342E-13
 -1       938 1.39810E+01 6.87421E-01 1.43510E-02-1.56995E+00 2.05961E-13 3.29806E-13
 -1       939 1.90602E+01 9.25275E-01 1.95026E-04-6.35998E-01 1.97173E-13 2.18853E-13
 -1       940 1.88404E+01 1.06497E+00-3.77371E-04 1.20980E-01 1.92851E-13-2.21256E-14
 -1       941 2.01232E+01 2.02095E-02 3.79078E-06-2.18361E-01 1.07191E-13-2.71330E-13
 -1       942 1.92158E+01 8.92853E-01-3.83600E-04 8.40829E-01 4.53245E-14-2.07969E-13
 -1       943 1.31622E+01 6.98928E-01 2.41469E-02 1.56073E+00 2.41101E-13-7.82507E-13
 -1       944 1.58835E+01-9.87089E-01 4.18356E-02-3.76046E+00-2.08646E-13-5.92598E-13
 -1       945 2.02923E+01 1.35014E+00-7.58127E-05 1.95145E-01 2.38967E-13-5.54043E-13
 -1       946 2.02826E+01 1.41788E+00-3.17870E-04 6.72825E-02 1.14758E-13-5.72661E-13
 -1       947 2.03001E+01 1.27539E+00 9.81147E-04-2.97135E-01-1.27022E-13-6.39081E-13
 -1       948 1.94060E+01 7.44083E-01-4.44123E-04-9.07684E-01 1.01598E-13-1.20658E-13
 -1       949 2.03611E+01 2.35128E-01-1.03963E-05 6.47791E-02-7.51488E-14-3.84729E-13
 -1       950 2.09922E+01-2.50084E+00 6.98133E-03 2.99198E+00-3.71305E-13-5.21391E-14
 -1       951 2.03203E+01 1.21174E-01-1.89887E-06 1.07680E-01-6.90690E-15-3.12583E-13
 -1       952 2.02701E+01 6.01751E-02-2.12915E-06 1.34923E-01 9.92312E-15-2.51628E-13
 -1       953 2.02144E+01 3.97458E-02-4.36373E-06 1.53432E-01 2.45396E-14-2.24412E-13
 -1       954 2.01551E+01 5.05967E-02-5.32453E-06 1.68951E-01-5.50347E-15-2.48643E-13
 -1       955 2.00921E+01 8.60530E-02-5.18617E-06 1.86186E-01-2.66909E-14-2.96172E-13
 -1       956 2.00238E+01 1.41323E-01-5.97174E-06 2.09060E-01-5.25540E-14-2.50549E-13
 -1       957 1.99477E+01 2.12786E-01-5.45306E-06 2.40876E-01 3.05706E-15-2.15805E-13
 -1       958 1.98606E+01 2.97213E-01-1.37029E-05 2.84492E-01-4.18867E-16-1.16739E-13
 -1       959 1.97583E+01 3.91321E-01-2.21980E-05 3.42616E-01 4.43982E-14-2.46105E-14
 -1       960 1.96371E+01 4.90464E-01-3.25409E-05 4.18086E-01-5.18391E-15-4.25636E-14
 -1       961 1.94932E+01 5.87945E-01-4.23614E-05 5.14079E-01 7.34820E-14-8.04725E-14
 -1       962 1.93234E+01 6.73848E-01-5.54620E-05 6.34845E-01 2.71157E-14-5.61413E-14
 -1       963 1.91266E+01 7.33634E-01-7.31073E-05 7.86696E-01-1.06839E-15-1.92263E-13
 -1       964 1.89049E+01 7.46469E-01-8.82806E-05 9.79499E-01 8.11036E-14-1.57102E-13
 -1       965 1.86660E+01 6.83502E-01-1.02239E-04 1.22901E+00 1.78207E-13-3.30401E-13
 -1       966 1.84289E+01 5.03694E-01 1.70451E-04 1.56183E+00 1.87425E-13-2.75581E-13
 -1       967 1.82356E+01 1.46073E-01 6.73795E-04 2.01250E+00 2.59504E-13-1.16146E-13
 -1       968 1.81731E+01-4.72448E-01 2.20543E-03 2.62846E+00 2.10973E-13-1.55556E-13
 -1       969 1.82944E+01-5.44223E-02 8.85861E-04-2.22993E+00 9.15934E-15-8.93158E-14
 -1       970 2.03629E+01 7.10419E-01 2.47444E-05 1.31392E-01 2.79697E-13-3.97560E-13
 -1       971 1.84721E+01 3.77299E-01-1.52556E-04-1.73633E+00-9.13706E-14-1.86888E-14
 -1       972 1.87255E+01 6.16109E-01 2.06677E-04-1.38085E+00-1.41360E-13-5.10743E-14
 -1       973 1.89831E+01 7.39499E-01 1.14134E-04-1.11409E+00-3.04617E-14 2.23047E-13
 -1       974 1.96961E+01 4.70957E-01 1.35695E-06-4.38559E-01 5.74197E-14-1.07059E-13
 -1       975 1.98062E+01 3.67114E-01-3.86251E-06-3.63457E-01 2.93624E-14-1.10881E-13
 -1       976 1.93930E+01 6.86826E-01-1.44313E-05-6.47337E-01-1.37994E-13-1.67258E-13
 -1       977 1.91884E+01 7.80301E-01-1.76570E-05-7.87614E-01-1.97123E-14-2.21054E-13
 -1       978 1.89420E+01 8.43121E-01-2.44285E-05-9.60220E-01-1.07151E-13-1.85443E-13
 -1       979 1.86525E+01 8.49260E-01-7.88772E-05-1.17826E+00-1.87089E-13-9.90871E-14
 -1       980 1.83256E+01 7.60803E-01-2.32125E-04-1.46440E+00-9.94637E-14-1.25727E-13
 -1       981 1.79759E+01 5.23639E-01-8.71198E-04-1.86368E+00 3.45057E-14-7.61879E-14
 -1       982 1.76811E+01 5.05515E-02 3.02390E-03-2.45915E+00-1.68225E-13-3.62822E-13
 -1       983 1.75189E+01-7.15721E-01 1.44821E-02-3.16795E+00-2.63259E-13-5.20530E-13
 -1       984 1.78516E+01 1.71637E-01 4.63834E-04 2.29037E+00-1.07530E-13 1.34316E-13
 -1       985 1.58737E+01 6.01062E-02 1.48570E-02 2.66319E+00 2.72285E-13-4.44860E-13
 -1       986 1.81908E+01 5.64379E-01 3.55799E-04 1.79832E+00 1.13002E-13-3.04363E-13
 -1       987 1.85427E+01 7.67639E-01-1.85973E-04 1.44400E+00 8.32645E-14-3.97418E-13
 -1       988 1.89617E+01 1.01602E+00 5.24882E-05 5.16077E-01-9.11166E-14 2.81840E-13
 -1       989 1.79860E+01-6.03622E-01 2.41728E-03-2.83958E+00 2.06877E-13-2.41934E-14
 -1       990 2.03861E+01 6.85541E-01-1.85882E-04-9.90257E-02-1.17269E-13-5.22601E-13
 -1       991 1.88864E+01 8.43208E-01 1.23012E-03 1.18636E+00 2.29210E-13-2.49568E-13
 -1       992 1.95603E+01 5.79955E-01-9.74093E-06-5.32283E-01 6.38283E-15-7.86832E-14
 -1       993 2.03053E+01 1.21378E+00-3.83126E-05 3.00077E-01 2.97384E-13-4.90039E-13
 -1       994 1.77919E+01-7.29980E-01 1.12357E-02 3.11836E+00-4.33706E-13 9.75214E-14
 -1       995 2.00380E+01 1.22674E-01 5.22215E-06-2.29037E-01 1.42259E-13-2.12064E-13
 -1       996 2.02368E+01 1.28437E-01-9.37660E-06-1.29947E-01 1.57568E-13-2.61071E-13
 -1       997 2.03859E+01 4.18879E-01 1.77377E-06-1.42556E-03-6.94617E-14-5.06736E-13
 -1       998 2.02825E+01 1.41854E+00-2.26024E-04-6.60571E-02 2.44363E-14-6.00431E-13
 -1       999 1.37724E+01 8.44318E-01 1.04363E-02 1.11794E+00-5.23343E-13-5.43897E-14
 -1      1000 2.03446E+01 9.41725E-01 2.05329E-04 2.12437E-01 2.98480E-13-4.25280E-13
 -1      1001 2.03760E+01 9.83371E-01-6.00609E-04-7.35527E-02-2.66175E-14-5.35484E-13
 -1      1002 2.03494E+01 1.06612E+00-1.96795E-04 1.45101E-01 2.10290E-13-5.22256E-13
 -1      1003 1.57279E+01 4.03369E-01 6.20957E-03 2.24473E+00-4.18839E-13-1.15088E-13
 -1      1004 2.00967E+01 7.19702E-02 6.71099E-06-2.06020E-01 1.06492E-13-3.27819E-13
 -1      1005 2.03649E+01 4.29185E-01-2.83509E-05 1.39209E-02 2.14603E-13-3.65972E-13
 -1      1006 1.61521E+01 4.86293E-01 7.04717E-03-2.03944E+00 1.83561E-13 2.16775E-13
 -1      1007 1.34061E+01 1.02343E+00 2.57371E-02-1.06021E-01 6.75476E-14-8.71456E-13
 -1      1008 1.53256E+01 7.88675E-02 8.54493E-03-2.67401E+00-5.40121E-14-3.91568E-13
 -1      1009 1.46315E+01 1.07040E+00 2.16515E-03-1.67431E-01-2.50304E-13-1.55754E-13
 -1      1010 1.98968E+01 2.72402E-01-2.66402E-05-3.05217E-01-1.48010E-14-8.45199E-14
 -1      1011 1.99724E+01 1.90366E-01-1.42583E-05-2.61030E-01 1.68749E-14-9.88044E-14
 -1      1012 1.84470E+01 1.09920E+00 4.85255E-04-1.17503E-01 1.05636E-13 3.71235E-13
 -1      1013 1.84052E+01 1.03803E+00-1.06061E-03 7.87564E-01 2.04982E-13-7.88886E-15
 -1      1014 2.02543E+01 5.95389E-02-1.79863E-05-1.50619E-01 8.40148E-14-3.04040E-13
 -1      1015 1.86099E+01 1.00216E+00 3.86772E-04-5.77714E-01-5.36231E-14 1.32691E-13
 -1      1016 2.03496E+01 1.13178E+00-1.03770E-04 5.87849E-02 1.13259E-13-4.92638E-13
 -1      1017 2.02040E+01 3.47770E-02-1.58042E-05-1.71707E-01 9.64973E-14-3.16250E-13
 -1      1018 1.66151E+01 5.51895E-01 4.86945E-04 1.86775E+00 2.24242E-13-5.02802E-13
 -1      1019 2.03388E+01 1.05064E-01-6.87751E-06 7.73595E-02 8.91870E-15-3.26725E-13
 -1      1020 2.02799E+01 5.93597E-02-4.77034E-06 9.30663E-02 6.49368E-14-2.54925E-13
 -1      1021 2.02131E+01 5.33418E-02-6.47992E-06 1.04875E-01-1.12667E-14-2.20254E-13
 -1      1022 2.01400E+01 7.83115E-02-2.48177E-05 1.16230E-01-9.40511E-15-1.87009E-13
 -1      1023 2.00596E+01 1.28314E-01-3.06917E-05 1.30110E-01 1.43427E-14-1.05073E-13
 -1      1024 1.99700E+01 1.98663E-01-1.36557E-05 1.48934E-01-7.09201E-14-2.01731E-13
 -1      1025 1.98674E+01 2.85943E-01-5.25311E-06 1.74968E-01 9.02945E-14-2.10907E-13
 -1      1026 1.97476E+01 3.86357E-01-5.14209E-05 2.10117E-01 5.36121E-14-1.92995E-13
 -1      1027 1.96049E+01 4.97085E-01-9.61469E-05 2.57281E-01 4.60690E-15-1.81083E-13
 -1      1028 1.94338E+01 6.12442E-01-1.11872E-04 3.18771E-01-2.58733E-14-1.74545E-13
 -1      1029 1.92274E+01 7.25592E-01-1.45711E-04 3.98444E-01 8.81853E-14-2.39671E-13
 -1      1030 1.89787E+01 8.26497E-01-1.99609E-04 5.01940E-01-4.56659E-14-1.95434E-13
 -1      1031 1.86799E+01 9.01320E-01-2.98981E-04 6.38237E-01 8.80145E-14-1.54712E-13
 -1      1032 1.83221E+01 9.30857E-01-5.69109E-04 8.22466E-01 5.02772E-14-1.43722E-13
 -1      1033 1.78948E+01 8.91639E-01-5.70687E-04 1.07856E+00 1.22077E-13-1.21331E-13
 -1      1034 1.73340E+01 7.82178E-01 3.31941E-04 1.40059E+00 2.67662E-13-3.25381E-13
 -1      1035 1.73501E+01 6.17626E-01-7.39829E-04-1.62266E+00-5.28683E-14 1.57716E-13
 -1      1036 1.94920E+01 5.94512E-01-6.18254E-05-3.45091E-01 4.82125E-16-3.87094E-14
 -1      1037 2.03401E+01 2.42015E-01-9.12543E-06-6.64475E-02 1.43429E-13-3.35290E-13
 -1      1038 1.78913E+01 8.24424E-01-6.12461E-04-1.21197E+00-9.12369E-14 1.92338E-13
 -1      1039 1.83756E+01 9.05719E-01-1.07393E-03-9.31526E-01-1.14592E-13 7.32830E-14
 -1      1040 1.96549E+01 4.73413E-01-9.30815E-06-2.86718E-01 3.34320E-14-1.09246E-13
 -1      1041 1.87375E+01 9.46086E-01-1.58614E-04-6.12975E-01-7.01187E-14-1.44391E-13
 -1      1042 1.90440E+01 8.40183E-01-1.18289E-04-5.04719E-01-6.43713E-14-2.26557E-13
 -1      1043 1.78852E+01 1.04379E+00-4.46558E-04-9.38822E-01-3.20546E-14-3.29042E-13
 -1      1044 1.72939E+01 9.84357E-01-1.31305E-03-1.20478E+00-1.61593E-13-3.79189E-13
 -1      1045 1.65559E+01 8.01439E-01 3.11267E-03-1.62346E+00-2.58562E-14-2.15536E-13
 -1      1046 1.76300E+01 9.64660E-01-1.07425E-03 1.16960E+00 2.04315E-13 1.07711E-14
 -1      1047 2.01516E+01 4.11337E-02-3.61074E-06-1.88396E-01 8.23436E-14-2.99264E-13
 -1      1048 1.69229E+01 8.14343E-01-1.74563E-03 1.52520E+00 2.25447E-14-5.90240E-16
 -1      1049 2.03861E+01 2.02496E-01 3.76333E-05 5.38936E-02-1.21598E-14-3.19571E-13
 -1      1050 1.83308E+01 1.11199E+00-2.43544E-04 3.25843E-01-4.09140E-14 5.20237E-13
 -1      1051 2.04154E+01 3.65210E-01 4.03269E-05 1.73800E-02-5.36107E-15-3.76800E-13
 -1      1052 2.04243E+01 6.32608E-01 3.84574E-04-2.63828E-02-1.49448E-14-4.14457E-13
 -1      1053 1.83571E+01 1.02166E+00-2.48420E-04-7.51310E-01-1.12019E-13-1.22578E-13
 -1      1054 1.49259E+01 1.00193E+00 7.55570E-03 1.02854E+00 2.46932E-13-6.52036E-13
 -1      1055 1.92916E+01 7.19305E-01-8.71897E-05-4.16971E-01-2.97909E-15-9.43744E-14
 -1      1056 2.03009E+01 1.24354E-01-1.22762E-05-1.18226E-01 1.10720E-13-3.61805E-13
 -1      1057 2.03640E+01 1.07562E+00 1.13302E-04-1.57711E-02 5.92787E-14-5.34732E-13
 -1      1058 2.00741E+01 1.12510E-01-7.55978E-06-1.57448E-01 1.12955E-13-1.65237E-13
 -1      1059 1.97866E+01 3.62446E-01-6.88344E-05-2.39879E-01 1.67270E-14-1.66809E-13
 -1      1060 1.45675E+01 8.52766E-01 1.29278E-02-1.46248E+00 1.18764E-14-4.77800E-13
 -1      1061 2.04009E+01 6.43782E-01-7.91825E-05 5.69958E-02 1.87639E-13-4.18665E-13
 -1      1062 1.61148E+01 1.07271E+00 3.75140E-03-7.69965E-01 9.22028E-14-1.95764E-13
 -1      1063 2.03833E+01 8.39628E-01 2.69071E-04 1.02618E-01 1.78648E-13-4.58770E-13
 -1      1064 1.78950E+01 1.14197E+00-3.41664E-05-9.17813E-02-1.52149E-13 2.18453E-13
 -1      1065 2.04246E+01 6.95555E-01 1.14647E-04-4.69670E-03 6.31819E-14-4.20212E-13
 -1      1066 2.03325E+01 1.11410E-01-1.75714E-05-9.38480E-02 6.44856E-14-3.03333E-13
 -1      1067 1.56680E+01 1.02791E+00 1.07490E-03 9.17213E-01-1.72940E-13-1.01812E-14
 -1      1068 2.02775E+01 6.03410E-02-2.01961E-05-1.14469E-01 5.66291E-14-2.88949E-13
 -1      1069 1.99921E+01 1.78571E-01-4.08581E-06-1.77721E-01 2.60934E-14-1.13104E-13
 -1      1070 1.80537E+01 1.06155E+00-2.79535E-04-5.41292E-01-1.46554E-13 2.46529E-13
 -1      1071 1.76060E+01 1.14278E+00 1.22730E-03 4.90132E-01 1.39927E-13 8.74599E-15
 -1      1072 2.02642E+01 5.91258E-02-2.83407E-05 3.90364E-02 4.11902E-14-3.43251E-13
 -1      1073 2.01889E+01 6.94139E-02 7.03356E-05 4.39524E-02-1.75955E-14-3.09988E-13
 -1      1074 2.01045E+01 1.10058E-01 5.68781E-05 4.94917E-02 4.18424E-15-3.24886E-13
 -1      1075 2.00103E+01 1.73867E-01 6.39202E-06 5.65479E-02-4.27107E-14-2.65884E-13
 -1      1076 1.99040E+01 2.56853E-01-5.52206E-05 6.64919E-02-1.57001E-14-2.02621E-13
 -1      1077 1.97796E+01 3.58176E-01 2.82382E-04 8.18018E-02 1.07910E-13-3.00690E-13
 -1      1078 1.96300E+01 4.73406E-01 1.90496E-04 1.02043E-01 7.60487E-14-2.40496E-13
 -1      1079 1.94513E+01 5.97171E-01 1.03713E-04 1.28618E-01 7.41424E-15-1.82108E-13
 -1      1080 1.92341E+01 7.25890E-01 1.44417E-04 1.65236E-01 6.24342E-14-1.36786E-13
 -1      1081 1.89684E+01 8.52230E-01 1.88896E-04 2.14957E-01 4.71625E-14-1.15710E-13
 -1      1082 1.86415E+01 9.66999E-01 2.27086E-04 2.82942E-01-1.43560E-14-1.41654E-13
 -1      1083 1.82358E+01 1.05863E+00 1.81740E-04 3.77120E-01 1.70483E-14-2.15800E-13
 -1      1084 1.77233E+01 1.11062E+00-1.31112E-03 5.12335E-01 1.16971E-14-3.30129E-13
 -1      1085 1.87136E+01 9.65858E-01-2.10998E-04-2.65580E-01-2.42673E-14-3.62670E-13
 -1      1086 2.04031E+01 3.86667E-01 7.25645E-05-1.39827E-02 1.59815E-13-3.39895E-13
 -1      1087 1.94995E+01 5.72302E-01-1.05460E-04-1.61507E-01 4.31690E-14-2.25688E-13
 -1      1088 1.51180E+01 1.18318E+00 1.44999E-03-1.44074E-01-4.11483E-15-6.18588E-13
 -1      1089 1.90336E+01 8.38193E-01-1.57263E-04-2.25281E-01 8.46253E-14-2.95485E-13
 -1      1090 1.63046E+01 1.17322E+00 7.65345E-03-6.16227E-01-2.78964E-14-6.08111E-13
 -1      1091 1.71147E+01 1.21123E+00-4.88060E-03-4.68087E-01-4.18338E-14-3.73615E-13
 -1      1092 1.98978E+01 2.63344E-01 1.09868E-04-2.04257E-01-3.91276E-14-1.27507E-13
 -1      1093 1.78033E+01 1.16290E+00 3.14589E-04-3.72349E-01-9.70967E-14-3.96823E-13
 -1      1094 2.04356E+01 4.25777E-01-1.01646E-05 2.82608E-03 5.04610E-15-3.68640E-13
 -1      1095 2.03860E+01 1.61013E-01-4.25356E-05 2.53563E-02 2.35609E-14-2.99024E-13
 -1      1096 2.01480E+01 6.72348E-02-1.01192E-04-1.42365E-01 7.10859E-14-2.20583E-13
 -1      1097 1.83128E+01 1.07733E+00-2.37507E-04-3.13531E-01-1.05277E-13-4.39654E-13
 -1      1098 1.61335E+01 1.11711E+00-3.07332E-03 7.51723E-01 1.61229E-14-5.58572E-13
 -1      1099 2.03767E+01 2.15645E-01 3.56489E-05-6.22612E-02 1.36233E-13-2.96847E-13
 -1      1100 2.04079E+01 7.62496E-01 7.15299E-04 5.05626E-02 1.45996E-13-4.18041E-13
 -1      1101 2.04198E+01 7.36201E-01 3.19325E-04 1.97366E-02 1.12360E-13-4.40420E-13
 -1      1102 2.04195E+01 2.69080E-01 1.12210E-05 1.39913E-02 3.90051E-14-3.54243E-13
 -1      1103 1.67472E+01 1.13872E+00-7.19232E-03 6.15313E-01 2.35336E-13-2.47944E-13
 -1      1104 2.03310E+01 8.59537E-02-4.71977E-05 3.32877E-02 1.05590E-13-2.63455E-13
 -1      1105 1.92910E+01 7.04353E-01-1.16163E-04-1.90812E-01 4.80731E-14-2.61930E-13
 -1      1106 2.04264E+01 4.68040E-01-1.51384E-04 2.38203E-03 9.56267E-14-3.83933E-13
 -1      1107 1.74177E+01 1.13542E+00 1.02823E-03-4.06193E-01-1.99087E-13 3.64903E-13
 -1      1108 2.00307E+01 1.57178E-01-1.67993E-05-8.92179E-02 6.51667E-14-1.58535E-13
 -1      1109 2.01205E+01 9.75953E-02 3.11035E-05-7.96881E-02 5.77440E-14-2.48542E-13
 -1      1110 1.70903E+01 1.13494E+00 7.46858E-03 5.80351E-01 3.05472E-14-5.45860E-13
 -1      1111 1.96694E+01 4.47638E-01-1.39050E-04-1.36447E-01 2.45951E-16-1.86070E-13
 -1      1112 1.70251E+01 1.04031E+00 1.98344E-03-7.84442E-01-2.24699E-13 3.93004E-13
 -1      1113 2.03366E+01 9.37066E-02 7.70512E-05-5.59493E-02 8.09552E-14-2.39918E-13
 -1      1114 2.03878E+01 1.77790E-01 6.85114E-06-4.15024E-02 8.00476E-14-3.04659E-13
 -1      1115 2.02164E+01 4.79632E-02 1.19688E-05-1.29107E-01 7.56440E-14-2.30329E-13
 -1      1116 1.68057E+01 1.12394E+00 1.35507E-02-3.08910E-01 4.66774E-14-1.04632E-13
 -1      1117 2.02291E+01 6.17056E-02 2.07262E-05-2.47657E-02 2.25646E-14-3.23358E-13
 -1      1118 2.04167E+01 2.96391E-01-1.73057E-05-2.51783E-02 8.90010E-14-3.43205E-13
 -1      1119 1.98367E+01 3.11312E-01-2.42933E-04-3.66313E-02 5.75657E-16-1.66447E-13
 -1      1120 2.03021E+01 6.85199E-02 3.51016E-05-2.22811E-02 2.14178E-14-2.97101E-13
 -1      1121 1.99418E+01 2.27909E-01 1.17032E-04-6.68412E-02 3.15235E-14-1.82193E-13
 -1      1122 2.04369E+01 4.59276E-01-9.26972E-05 4.92439E-04 5.56930E-14-4.28613E-13
 -1      1123 2.03688E+01 1.26280E-01-1.34389E-05-1.10233E-02 7.63122E-14-3.32751E-13
 -1      1124 2.04106E+01 2.25339E-01 4.33417E-07-9.28739E-03 4.99944E-14-3.27429E-13
 -1      1125 2.04282E+01 3.28201E-01-2.41406E-05-5.31122E-03 3.03182E-14-3.71743E-13
 -1      1126 2.79528E+01 9.08331E+00 2.32469E+00-6.69782E+00-8.70970E-14 2.69987E-12
 -1      1127 2.05398E+01 6.22476E+00 2.09364E-01-3.90558E+00-4.82947E-14 2.60840E-13
 -1      1128 1.94299E+01 5.85150E+00 7.50433E-02-2.89055E+00-3.30708E-14-7.58199E-13
 -1      1129 1.90250E+01 5.72562E+00 6.03842E-02-2.23807E+00-2.11012E-14-1.23238E-12
 -1      1130 1.88421E+01 5.67001E+00 5.79245E-02-1.70399E+00-1.33366E-14-1.45246E-12
 -1      1131 1.87504E+01 5.64182E+00 5.57113E-02-1.23624E+00-7.92161E-15-1.54156E-12
 -1      1132 1.87032E+01 5.62716E+00 5.39503E-02-8.05833E-01-2.82673E-15-1.56114E-12
 -1      1133 1.86803E+01 5.61992E+00 5.27185E-02-3.93614E-01-1.88868E-16-1.54900E-12
 -1      1134 1.86739E+01 5.61787E+00 5.23256E-02 8.47510E-03 3.33468E-15-1.51157E-12
 -1      1135 1.86814E+01 5.62028E+00 5.28339E-02 4.10974E-01 7.75920E-15-1.46802E-12
 -1      1136 1.87054E+01 5.62789E+00 5.42090E-02 8.24544E-01 9.64420E-15-1.40151E-12
 -1      1137 1.87543E+01 5.64320E+00 5.63897E-02 1.25760E+00 1.46714E-14-1.28535E-12
 -1      1138 1.88470E+01 5.67167E+00 5.85540E-02 1.72986E+00 2.03830E-14-1.09359E-12
 -1      1139 1.90304E+01 5.72727E+00 6.04283E-02 2.27113E+00 2.75613E-14-7.61828E-13
 -1      1140 1.94268E+01 5.84877E+00 6.91184E-02 2.93108E+00 3.71786E-14-1.53853E-13
 -1      1141 2.04460E+01 6.17972E+00 1.52993E-01 3.88027E+00 4.17166E-14 9.96293E-13
 -1      1142 2.52072E+01 7.99113E+00 1.42983E+00 5.84644E+00 8.42659E-14 3.35920E-12
 -1      1143 2.88013E+01 3.61564E+00 1.27133E+00-4.21675E+00-3.63265E-13 4.24211E-12
 -1      1144 2.02145E+01-1.77635E-01-6.16147E-01-1.10193E-01-1.25559E-13 3.38152E-12
 -1      1145 1.88177E+01-9.63858E-02-2.36368E-01 6.24124E-02-4.94674E-14 2.21104E-12
 -1      1146 1.84816E+01-4.80741E-02-5.95711E-02 4.04170E-02-2.76333E-14 1.40415E-12
 -1      1147 1.84245E+01-2.46569E-02-1.51834E-02 2.66567E-02-1.99101E-14 8.67889E-13
 -1      1148 1.85042E+01-1.31458E-02-5.02234E-03 1.88933E-02-1.95009E-14 4.84817E-13
 -1      1149 1.86495E+01-6.76903E-03-1.59599E-03 1.39120E-02-6.14721E-15 1.48390E-13
 -1      1150 1.88214E+01-3.10283E-03 3.34302E-04 1.04440E-02-5.35412E-15-4.76147E-14
 -1      1151 1.89982E+01-1.01448E-03 1.49546E-03 7.87125E-03-5.75718E-15-2.45890E-13
 -1      1152 1.91682E+01 8.19113E-05 2.01987E-03 5.89194E-03-4.91838E-15-5.18354E-13
 -1      1153 1.93262E+01 5.14902E-04 2.02544E-03 4.35107E-03 3.88802E-15-6.95731E-13
 -1      1154 1.94714E+01 4.80027E-04 1.62574E-03 3.16417E-03 1.58612E-14-6.99148E-13
 -1      1155 1.96063E+01 9.81341E-05 9.05891E-04 2.28432E-03 4.48703E-15-8.78453E-13
 -1      1156 1.97356E+01-5.54413E-04-7.99670E-05 1.68909E-03 7.95769E-15-9.75779E-13
 -1      1157 1.98662E+01-1.42738E-03-1.30084E-03 1.37594E-03-3.57711E-15-1.04514E-12
 -1      1158 2.00066E+01-2.48247E-03-2.73740E-03 1.36136E-03-2.38306E-14-1.03949E-12
 -1      1159 2.01669E+01-3.67909E-03-4.36713E-03 1.68123E-03-2.87869E-14-1.30940E-12
 -1      1160 2.03584E+01-4.95694E-03-6.14329E-03 2.39033E-03 2.78760E-14-1.41134E-12
 -1      1161 2.05935E+01-6.21231E-03-7.96276E-03 3.55845E-03 1.75536E-14-1.44571E-12
 -1      1162 2.08848E+01-7.26549E-03-9.61655E-03 5.25802E-03-3.54225E-14-1.29869E-12
 -1      1163 2.12435E+01-7.81751E-03-1.07160E-02 7.53468E-03-4.09541E-14-1.37941E-12
 -1      1164 2.16766E+01-7.39944E-03-1.05932E-02 1.03463E-02-7.49455E-15-1.26348E-12
 -1      1165 2.21826E+01-5.33052E-03-8.19270E-03 1.34491E-02 3.07447E-15-1.21565E-12
 -1      1166 2.27440E+01-7.30218E-04-2.03025E-03 1.62096E-02-2.79288E-14-1.26620E-12
 -1      1167 2.33177E+01 7.31870E-03 9.60314E-03 1.73465E-02 2.52827E-14-1.22314E-12
 -1      1168 2.38233E+01 1.92910E-02 2.78602E-02 1.46970E-02-3.84246E-14-9.77175E-13
 -1      1169 2.41360E+01 3.42569E-02 5.15911E-02 5.31692E-03 2.38147E-14-1.17584E-12
 -1      1170 2.40936E+01 4.84620E-02 7.47492E-02-1.34951E-02-4.96608E-14-1.34863E-12
 -1      1171 2.35375E+01 5.43307E-02 8.46974E-02-4.16495E-02 1.71061E-14-1.38801E-12
 -1      1172 2.23982E+01 4.20225E-02 6.51844E-02-7.26133E-02 5.30327E-14-1.10939E-12
 -1      1173 2.08089E+01 5.90275E-03 7.56787E-03-9.18104E-02-4.45965E-14-9.86822E-13
 -1      1174 1.91676E+01-4.56651E-02-7.37168E-02-8.25420E-02 1.69626E-14-8.38246E-13
 -1      1175 1.80381E+01-8.76240E-02-1.39071E-01-3.93577E-02 4.59442E-15-1.09112E-12
 -1      1176 1.78753E+01-9.38589E-02-1.48709E-01 2.22101E-02-1.02175E-15-1.28002E-12
 -1      1177 1.87463E+01-5.99798E-02-9.61666E-02 7.32001E-02 2.81173E-14-1.32065E-12
 -1      1178 2.02851E+01-7.92914E-03-1.44608E-02 9.25654E-02-4.94071E-16-1.26534E-12
 -1      1179 2.19245E+01 3.44522E-02 5.29502E-02 7.99799E-02 5.05173E-14-1.37851E-12
 -1      1180 2.31977E+01 5.36893E-02 8.35757E-02 5.04654E-02 8.16361E-15-1.19386E-12
 -1      1181 2.38950E+01 5.21438E-02 8.06918E-02 2.02679E-02-2.77296E-14-1.20748E-12
 -1      1182 2.40375E+01 3.94765E-02 5.98758E-02-1.72346E-03 2.47610E-14-1.23729E-12
 -1      1183 2.37682E+01 2.42069E-02 3.55056E-02-1.39226E-02-1.56869E-14-9.78884E-13
 -1      1184 2.32536E+01 1.11043E-02 1.53883E-02-1.85810E-02-2.15225E-15-1.22663E-12
 -1      1185 2.26315E+01 1.69898E-03 1.70709E-03-1.87349E-02-2.85172E-16-1.33345E-12
 -1      1186 2.19960E+01-4.29654E-03-6.40996E-03-1.67789E-02-2.50169E-15-1.08458E-12
 -1      1187 2.14039E+01-7.86959E-03-1.09038E-02-1.41395E-02 9.15719E-14-8.30299E-13
 -1      1188 2.08869E+01-1.00933E-02-1.37953E-02-1.13787E-02 2.39551E-14-4.75116E-13
 -1      1189 2.04647E+01-1.18212E-02-1.66774E-02-8.30050E-03-1.15162E-14-3.59110E-13
 -1      1190 2.01569E+01-1.32083E-02-1.95098E-02-3.74997E-03 9.17560E-15 1.14781E-13
 -1      1191 1.99933E+01-1.50434E-02-1.62051E-02 4.89381E-03-2.98946E-14 2.94771E-13
 -1      1192 1.99809E+01 6.61515E-03 1.37573E-02 6.69789E-03 6.87332E-14 1.31458E-13
 -1      1193 2.77811E+01 5.25629E-01 3.77336E-01 1.96642E+00-6.17423E-14 5.28655E-12
 -1      1194 2.00718E+01-6.62099E-02-5.73523E-01 1.29561E-01 2.87201E-14 4.28357E-12
 -1      1195 1.88924E+01-4.05930E-02-1.93214E-01 1.94796E-02 1.70749E-14 3.28230E-12
 -1      1196 1.85105E+01-2.14194E-02-5.05457E-02 1.53178E-03 2.09411E-14 2.57360E-12
 -1      1197 1.84371E+01-1.24297E-02-1.34020E-02-3.97695E-03 1.68589E-14 2.03574E-12
 -1      1198 1.85105E+01-7.46181E-03-4.68681E-03-5.38686E-03 1.02792E-14 1.65642E-12
 -1      1199 1.86526E+01-4.44107E-03-2.01436E-03-5.51282E-03 7.09356E-15 1.38019E-12
 -1      1200 1.88228E+01-2.55281E-03-5.19364E-04-5.15043E-03 5.73475E-15 1.21327E-12
 -1      1201 1.89985E+01-1.40009E-03 4.62637E-04-4.54813E-03-5.51005E-15 1.05505E-12
 -1      1202 1.91677E+01-7.61886E-04 9.76198E-04-3.81704E-03 1.53461E-14 9.08807E-13
 -1      1203 1.93252E+01-5.05198E-04 1.06620E-03-3.02125E-03 2.27463E-14 6.89760E-13
 -1      1204 1.94700E+01-5.48527E-04 7.96572E-04-2.20077E-03 4.46684E-15 5.21657E-13
 -1      1205 1.96046E+01-8.43882E-04 2.17805E-04-1.38085E-03 9.88286E-15 3.90076E-13
 -1      1206 1.97337E+01-1.36640E-03-6.43921E-04-5.78486E-04-6.09149E-15 3.42706E-13
 -1      1207 1.98645E+01-2.10684E-03-1.78545E-03 1.91591E-04 4.50341E-15 2.79811E-13
 -1      1208 2.00058E+01-3.06441E-03-3.22088E-03 9.10161E-04 2.13276E-14 6.28484E-14
 -1      1209 2.01684E+01-4.23727E-03-4.97217E-03 1.54478E-03-1.24944E-14-2.38039E-14
 -1      1210 2.03649E+01-5.60749E-03-7.05310E-03 2.03764E-03 7.99171E-15 1.80658E-13
 -1      1211 2.06099E+01-7.11610E-03-9.44014E-03 2.28847E-03 1.31592E-14 5.67480E-14
 -1      1212 2.09193E+01-8.62174E-03-1.20195E-02 2.13121E-03 5.85653E-15-1.17824E-13
 -1      1213 2.13094E+01-9.83479E-03-1.44934E-02 1.30495E-03 8.39129E-15-5.42587E-14
 -1      1214 2.17949E+01-1.02224E-02-1.62237E-02-5.72466E-04 2.06445E-14 1.12485E-13
 -1      1215 2.23844E+01-8.89587E-03-1.60028E-02-4.00187E-03 3.90851E-14-2.64455E-13
 -1      1216 2.30724E+01-4.54196E-03-1.17939E-02-9.50549E-03-1.44535E-15-4.60243E-13
 -1      1217 2.38271E+01 4.43147E-03-6.51901E-04-1.73071E-02 4.68516E-15-2.52104E-13
 -1      1218 2.45716E+01 1.92111E-02 2.06458E-02-2.66184E-02 4.46431E-15-6.45664E-15
 -1      1219 2.51652E+01 3.89418E-02 5.33547E-02-3.44540E-02-5.11895E-14 2.17441E-13
 -1      1220 2.53939E+01 5.80914E-02 9.20320E-02-3.44544E-02-1.96735E-14 5.61723E-13
 -1      1221 2.50032E+01 6.46331E-02 1.19194E-01-1.78188E-02-2.67911E-14 4.73600E-13
 -1      1222 2.38100E+01 4.48204E-02 1.07210E-01 2.07406E-02 1.70055E-14 2.07875E-13
 -1      1223 2.18922E+01-4.35824E-03 3.60137E-02 7.28659E-02 5.08491E-16-9.46465E-15
 -1      1224 1.97464E+01-6.19361E-02-7.83986E-02 1.11559E-01 8.21565E-15 1.87558E-13
 -1      1225 1.82004E+01-9.12866E-02-1.74874E-01 1.05421E-01 8.32320E-15 3.43905E-13
 -1      1226 1.79751E+01-7.48039E-02-1.90712E-01 4.82501E-02-3.19458E-14 3.98345E-13
 -1      1227 1.91773E+01-2.81337E-02-1.16800E-01-2.81822E-02 9.70578E-16 1.98702E-13
 -1      1228 2.12218E+01 1.43474E-02-8.33617E-03-8.26287E-02-4.48056E-14-1.57721E-13
 -1      1229 2.32537E+01 3.60042E-02 7.07518E-02-9.50328E-02 1.75181E-14-6.72101E-13
 -1      1230 2.46568E+01 3.77730E-02 9.70936E-02-7.51418E-02 2.56392E-14-9.44404E-13
 -1      1231 2.52421E+01 2.94280E-02 8.39051E-02-4.35798E-02 3.13638E-14-1.02338E-12
 -1      1232 2.51375E+01 1.86517E-02 5.53955E-02-1.57619E-02 6.72682E-15-9.84464E-13
 -1      1233 2.45885E+01 9.42987E-03 2.81599E-02 2.76391E-03 2.28086E-14-8.43034E-13
 -1      1234 2.38240E+01 2.92359E-03 8.76518E-03 1.25568E-02-4.67790E-14-3.15810E-13
 -1      1235 2.30058E+01-1.15349E-03-2.61410E-03 1.63250E-02 7.80443E-14-5.71900E-13
 -1      1236 2.22292E+01-3.57765E-03-8.31060E-03 1.67578E-02-6.14152E-14-7.90226E-13
 -1      1237 2.15413E+01-5.17481E-03-1.09649E-02 1.57726E-02-2.93729E-14-6.10246E-13
 -1      1238 2.09619E+01-6.64509E-03-1.28098E-02 1.44651E-02 2.27935E-14-9.85864E-13
 -1      1239 2.05006E+01-8.54211E-03-1.54910E-02 1.31891E-02 1.90009E-14-1.19324E-12
 -1      1240 2.01694E+01-1.05572E-02-1.87449E-02 1.10413E-02-2.19162E-14-8.52917E-13
 -1      1241 1.99930E+01-8.47605E-03-1.49264E-02 4.48235E-03 1.36491E-13-1.16097E-12
 -1      1242 1.99824E+01 6.17863E-03 1.50142E-02-6.37848E-03 1.46099E-14-9.79344E-13
 -1      1243 2.00059E+01-1.84165E-02 1.39519E-02-6.10187E-03-1.05204E-12-1.34411E-13
 -1      1244 1.99884E+01-2.22758E-03-1.60261E-02-4.43365E-03-1.24492E-12 4.10043E-14
 -1      1245 1.99895E+01 1.74882E-01-1.69556E-02 6.39557E-03 1.63394E-14 2.40089E-14
 -1      1246 1.99951E+01 4.74290E-01-8.30454E-03 1.10971E-02 3.49986E-13 1.00238E-13
 -1      1247 2.00013E+01 8.26530E-01 1.28625E-03 1.21212E-02 4.75175E-13-1.18444E-14
 -1      1248 2.00069E+01 1.16530E+00 9.29271E-03 1.06896E-02-1.01318E-12-2.22399E-13
 -1      1249 2.00111E+01 1.44151E+00 1.50270E-02 7.88817E-03-1.65975E-12 9.17311E-15
 -1      1250 2.00136E+01 1.61872E+00 1.84269E-02 3.92275E-03-6.26192E-13-1.11313E-13
 -1      1251 2.00142E+01 1.67117E+00 1.92163E-02-4.51783E-04 2.32583E-14 1.26046E-13
 -1      1252 2.00129E+01 1.59352E+00 1.74544E-02-4.68009E-03 1.61811E-13 3.99676E-14
 -1      1253 2.00098E+01 1.39769E+00 1.33657E-02-8.23771E-03 5.70334E-14-2.22947E-13
 -1      1254 2.00056E+01 1.11380E+00 7.44263E-03-1.06773E-02-9.87216E-13 1.08239E-13
 -1      1255 2.00003E+01 7.79692E-01-6.64950E-05-1.15022E-02-1.85872E-13 1.98557E-13
 -1      1256 1.99945E+01 4.41214E-01-8.86208E-03-1.03852E-02 1.79428E-13-6.46266E-15
 -1      1257 1.99896E+01 1.55139E-01-1.75917E-02-6.99313E-03-3.38981E-13-7.15069E-14
 -1      1258 1.99861E+01 2.54295E-03-1.37423E-02 8.71690E-03-5.29431E-14 1.81540E-14
 -1      1259 2.00064E+01-1.94438E-02 1.32971E-02 6.54818E-03-3.36784E-14 7.44801E-14
 -1      1260-1.18820E+00-2.37381E+01-3.71292E+00-2.35548E+00 9.26814E-13 2.88183E-13
 -1      1261-1.86857E+00-1.45373E+01-3.06180E+00-3.90484E+00 1.99973E-12 8.63587E-13
 -1      1262 7.27993E-01-1.64598E+00-1.81238E+00 4.90524E-01 2.53486E-12 1.58917E-12
 -1      1263 9.99996E+00 8.08267E+00-2.28501E-01 8.93025E+00 2.13007E-12 2.05636E-12
 -1      1264 2.64512E+01 1.10101E+01 1.46056E+00 1.63132E+01 1.78269E-12 2.57705E-12
 -1      1265 4.64381E+01 8.00856E+00 2.94335E+00 1.75320E+01 8.86236E-13 2.05103E-12
 -1      1266 6.25811E+01 3.29583E+00 4.01979E+00 1.05593E+01 2.68813E-13 6.18838E-13
 -1      1267 6.69295E+01 1.82687E+00 4.25870E+00-2.11447E+00 1.82646E-13-1.37967E-12
 -1      1268 5.81568E+01 4.68239E+00 3.72879E+00-1.36892E+01 9.58900E-13-3.17535E-12
 -1      1269 4.03481E+01 9.28713E+00 2.49901E+00-1.81185E+01 2.50333E-12-4.93450E-12
 -1      1270 2.11111E+01 1.07558E+01 9.63937E-01-1.44658E+01 3.66218E-12-4.81970E-12
 -1      1271 6.54716E+00 5.86111E+00-6.60536E-01-6.23127E+00 3.80873E-12-3.46789E-12
 -1      1272-5.53056E-01-4.78251E+00-2.14007E+00 1.32365E+00 2.70939E-12-1.66156E-12
 -1      1273-1.79168E+00-1.68211E+01-3.19733E+00 4.16509E+00 1.73173E-12-5.81674E-13
 -1      1274-1.10502E+00-2.44625E+01-3.78987E+00 1.71386E+00 2.39309E-13-2.26853E-13
 -1      1275-1.33966E+00-2.28086E+01-3.61332E+00-2.48030E+00-2.45493E-12-6.11948E-13
 -1      1276-1.71263E+00-1.34539E+01-2.94004E+00-3.79651E+00-4.80704E-12-2.01944E-12
 -1      1277 1.04217E+00-7.30555E-01-1.62247E+00 8.15983E-01-5.70077E-12-3.76432E-12
 -1      1278 1.06675E+01 8.50042E+00-6.88522E-02 9.32486E+00-4.92206E-12-4.66760E-12
 -1      1279 2.79496E+01 1.09399E+01 1.60818E+00 1.66154E+01-3.05955E-12-4.46887E-12
 -1      1280 4.82409E+01 7.44479E+00 3.04765E+00 1.70679E+01-1.26588E-12-2.68474E-12
 -1      1281 6.30882E+01 2.87110E+00 3.98911E+00 9.27360E+00-1.87919E-13-6.89782E-13
 -1      1282 6.60007E+01 1.89860E+00 4.13820E+00-3.25810E+00-1.56347E-13 1.09657E-12
 -1      1283 5.69560E+01 4.94847E+00 3.62899E+00-1.40814E+01-6.67216E-13 2.37810E-12
 -1      1284 3.96459E+01 9.45816E+00 2.45904E+00-1.81150E+01-1.46538E-12 2.80376E-12
 -1      1285 2.11858E+01 1.10169E+01 1.00649E+00-1.47608E+01-2.63434E-12 3.33467E-12
 -1      1286 7.05769E+00 6.36349E+00-5.94948E-01-6.80275E+00-4.02300E-12 3.57003E-12
 -1      1287-2.29749E-01-3.96280E+00-2.02174E+00 7.86215E-01-3.61600E-12 2.20624E-12
 -1      1288-1.74992E+00-1.59297E+01-3.09912E+00 4.08687E+00-1.66811E-12 8.30558E-13
 -1      1289-1.03751E+00-2.40548E+01-3.71488E+00 2.06931E+00-5.11424E-13 8.85472E-14
 -1      1290 2.22561E+01 1.83762E+00-7.25734E-01-2.79124E+00-1.34892E-13 2.15705E-12
 -1      1291 2.03522E+01 4.68902E+00-4.87531E-02-3.30877E+00-3.68636E-13-2.23689E-13
 -1      1292 2.08580E+01 4.80917E+00-1.13504E-01-4.16255E+00-4.73482E-13 3.14297E-13
 -1      1293 1.95275E+01 4.99324E+00-1.96900E-02-2.65696E+00-3.55875E-13-9.68999E-13
 -1      1294 1.98239E+01 5.08912E+00-4.46284E-05-3.04759E+00-4.08090E-13-6.52541E-13
 -1      1295 2.05193E+01 3.95210E+00-2.60244E-02-3.07638E+00-6.40224E-13-2.02338E-13
 -1      1296 1.91848E+01 5.08405E+00-3.34498E-03-2.07332E+00-2.76050E-13-1.33128E-12
 -1      1297 1.93313E+01 5.13872E+00 1.04953E-02-2.36667E+00-3.21024E-13-1.17060E-12
 -1      1298 1.97520E+01 4.36667E+00-2.38633E-02-2.49269E+00-5.54348E-13-8.19476E-13
 -1      1299 1.90120E+01 5.13149E+00 3.52558E-03-1.56680E+00-1.96362E-13-1.50125E-12
 -1      1300 1.90886E+01 5.16076E+00 1.28198E-02-1.81693E+00-2.30231E-13-1.42811E-12
 -1      1301 1.93936E+01 4.55501E+00-1.94768E-02-1.93356E+00-4.16925E-13-1.12516E-12
 -1      1302 1.89207E+01 5.16168E+00 6.62137E-03-1.11882E+00-1.21589E-13-1.56176E-12
 -1      1303 1.89619E+01 5.17771E+00 1.27996E-02-1.34050E+00-1.49254E-13-1.53483E-12
 -1      1304 1.92092E+01 4.66180E+00-1.60246E-02-1.44660E+00-2.87280E-13-1.26416E-12
 -1      1305 1.88710E+01 5.18186E+00 8.24700E-03-6.94992E-01-5.36144E-14-1.57108E-12
 -1      1306 1.88932E+01 5.19049E+00 1.20422E-02-9.05495E-01-7.47145E-14-1.57130E-12
 -1      1307 1.91087E+01 4.72756E+00-1.39742E-02-1.00569E+00-1.67789E-13-1.32288E-12
 -1      1308 1.88480E+01 5.19401E+00 9.34198E-03-2.89677E-01 9.81824E-15-1.55273E-12
 -1      1309 1.88575E+01 5.19772E+00 1.11144E-02-4.92102E-01-8.65627E-15-1.56304E-12
 -1      1310 1.90546E+01 4.76683E+00-1.28973E-02-5.89651E-01-5.55042E-14-1.31859E-12
 -1      1311 1.88445E+01 5.19900E+00 1.02726E-02 1.08370E-01 7.24815E-14-1.51015E-12
 -1      1312 1.88442E+01 5.19886E+00 1.02006E-02-9.16142E-02 4.70797E-14-1.53382E-12
 -1      1313 1.90312E+01 4.78502E+00-1.24462E-02-1.89393E-01 4.49135E-14-1.30069E-12
 -1      1314 1.88593E+01 5.19736E+00 1.12079E-02 5.09447E-01 1.36210E-13-1.46244E-12
 -1      1315 1.88490E+01 5.19337E+00 9.27850E-03 3.06601E-01 1.14849E-13-1.49264E-12
 -1      1316 1.90321E+01 4.78438E+00-1.24635E-02 2.06056E-01 1.51812E-13-1.26209E-12
 -1      1317 1.88965E+01 5.18933E+00 1.21357E-02 9.24328E-01 1.96393E-13-1.38765E-12
 -1      1318 1.88735E+01 5.18054E+00 8.18844E-03 7.12862E-01 1.73928E-13-1.43499E-12
 -1      1319 1.90572E+01 4.76476E+00-1.29508E-02 6.07006E-01 2.54699E-13-1.20789E-12
 -1      1320 1.89663E+01 5.17584E+00 1.29301E-02 1.35807E+00 2.60631E-13-1.25981E-12
 -1      1321 1.89242E+01 5.15943E+00 6.50283E-03 1.13494E+00 2.35032E-13-1.33807E-12
 -1      1322 1.91131E+01 4.72401E+00-1.39759E-02 1.02085E+00 3.55306E-13-1.12860E-12
 -1      1323 1.90962E+01 5.15676E+00 1.28391E-02 1.84311E+00 3.44016E-13-1.04311E-12
 -1      1324 1.90182E+01 5.12685E+00 3.19499E-03 1.59016E+00 3.09188E-13-1.17132E-12
 -1      1325 1.92162E+01 4.65522E+00-1.61246E-02 1.46441E+00 4.69493E-13-9.74412E-13
 -1      1326 1.93417E+01 5.13285E+00 1.01515E-02 2.40034E+00 4.21642E-13-6.80615E-13
 -1      1327 1.91933E+01 5.07623E+00-4.33426E-03 2.10305E+00 3.83367E-13-9.02979E-13
 -1      1328 1.94059E+01 4.54234E+00-1.99711E-02 1.96039E+00 5.89731E-13-7.38472E-13
 -1      1329 1.98497E+01 5.09822E+00 5.98022E-03 3.08620E+00 4.78173E-13-1.91097E-14
 -1      1330 1.95395E+01 4.98373E+00-2.05180E-02 2.69903E+00 4.26520E-13-4.14967E-13
 -1      1331 1.97717E+01 4.34594E+00-2.45635E-02 2.53033E+00 6.80983E-13-3.19300E-13
 -1      1332 2.10941E+01 4.90556E+00 8.20326E-03 4.05540E+00 4.03011E-13 1.21488E-12
 -1      1333 2.03268E+01 4.73277E+00-4.79805E-02 3.41832E+00 4.02345E-13 4.61554E-13
 -1      1334 2.05576E+01 3.91527E+00-2.24444E-02 3.18042E+00 7.09328E-13 4.14002E-13
 -1      1335 2.71910E+01 3.20451E+00 9.28874E-01 4.58243E+00 1.96523E-13 3.52574E-12
 -1      1336 2.20098E+01 3.52129E+00-1.81985E-01 3.88605E+00 2.03337E-13 1.92471E-12
 -1      1337 2.21021E+01 2.56137E+00-3.26327E-02 3.45814E+00 6.48049E-13 1.53025E-12
 -1      1338 2.14148E+01 3.59677E-01-7.63408E-01 1.18482E+00 3.58782E-13 3.39151E-12
 -1      1339 2.19890E+01 1.31392E-01-4.00819E-01-1.28674E+00-3.96974E-13 2.30380E-12
 -1      1340 2.06652E+01 3.06772E-01-1.64817E-01-8.06713E-01-3.61468E-13 1.83654E-12
 -1      1341 2.00669E+01 1.53527E-01-7.35262E-02-4.03000E-01-2.90632E-13 1.65139E-12
 -1      1342 1.95960E+01 9.12398E-02-1.49077E-02-3.30798E-01-2.75113E-13 1.22969E-12
 -1      1343 2.09606E+01 3.69374E-01-1.04170E-01-1.27565E+00-6.28969E-13 8.90694E-13
 -1      1344 1.92380E+01 6.45081E-02 3.06725E-03-1.36135E-01-2.23019E-13 1.07610E-12
 -1      1345 1.90827E+01 4.12763E-02 1.32567E-02-1.18341E-01-1.94823E-13 7.73985E-13
 -1      1346 1.99087E+01 1.33925E-01-3.51175E-02-5.05520E-01-4.87461E-13 6.25595E-13
 -1      1347 1.89218E+01 3.15365E-02 1.32809E-02-2.87935E-02-1.51428E-13 6.28834E-13
 -1      1348 1.89013E+01 1.94340E-02 1.10902E-02-1.94100E-02-1.56718E-13 4.19583E-13
 -1      1349 1.94304E+01 5.54554E-02-8.50545E-03-1.71486E-01-3.58897E-13 3.40304E-13
 -1      1350 1.88449E+01 1.60675E-02 8.81335E-03 2.43645E-02-1.22947E-13 3.34394E-13
 -1      1351 1.88864E+01 9.18651E-03 6.46719E-03 2.90273E-02-1.02775E-13 1.76791E-13
 -1      1352 1.92206E+01 2.44487E-02-3.53136E-03-1.24600E-02-2.67871E-13 1.10583E-13
 -1      1353 1.88864E+01 7.98426E-03 4.71694E-03 5.04771E-02-9.88810E-14 9.78263E-14
 -1      1354 1.89563E+01 3.70801E-03 3.69053E-03 5.24411E-02-8.26300E-14-2.91833E-14
 -1      1355 1.91635E+01 1.03535E-02-2.26494E-03 6.67331E-02-2.12947E-13-2.20822E-14
 -1      1356 1.89864E+01 3.42606E-03 2.50313E-03 6.17570E-02-5.43631E-14-5.75963E-14
 -1      1357 1.90672E+01 6.72655E-04 2.27999E-03 6.21585E-02-5.41995E-14-1.54488E-13
 -1      1358 1.91903E+01 3.08565E-03-1.40120E-03 1.04544E-01-1.38805E-13-1.19350E-13
 -1      1359 1.91124E+01 8.41797E-04 1.40945E-03 6.47029E-02-6.62944E-14-1.96922E-13
 -1      1360 1.91946E+01-9.28822E-04 1.53259E-03 6.42418E-02-6.24748E-14-3.06193E-13
 -1      1361 1.92617E+01-7.66108E-04-6.82599E-04 1.19488E-01-1.37201E-13-2.11413E-13
 -1      1362 1.92463E+01-5.17926E-04 8.42825E-04 6.31928E-02-7.62897E-14-3.63074E-13
 -1      1363 1.93253E+01-1.60832E-03 1.09387E-03 6.23357E-02-7.00994E-14-4.50654E-13
 -1      1364 1.93547E+01-2.64235E-03-1.87439E-04 1.21815E-01-1.42080E-13-2.93490E-13
 -1      1365 1.93789E+01-1.05929E-03 5.26236E-04 5.97488E-02-3.67799E-14-4.48915E-13
 -1      1366 1.94527E+01-1.65644E-03 8.18859E-04 5.88233E-02-4.04645E-15-5.16339E-13
 -1      1367 1.94565E+01-3.25058E-03 7.88519E-05 1.17840E-01-9.58574E-14-2.95256E-13
 -1      1368 1.95061E+01-1.02098E-03 3.42534E-04 5.61163E-02-1.20815E-15-5.48263E-13
 -1      1369 1.95749E+01-1.24980E-03 6.46665E-04 5.53622E-02-4.47235E-14-6.01684E-13
 -1      1370 1.95603E+01-2.98239E-03 1.55587E-04 1.11769E-01-4.96274E-14-3.90641E-13
 -1      1371 1.96278E+01-5.48826E-04 2.37148E-04 5.35685E-02-7.25154E-14-6.68103E-13
 -1      1372 1.96931E+01-4.98013E-04 5.46284E-04 5.31703E-02-4.44830E-14-7.34001E-13
 -1      1373 1.96638E+01-2.06919E-03 8.52434E-05 1.06575E-01-1.19790E-13-5.05494E-13
 -1      1374 1.97466E+01 2.67892E-04 1.78715E-04 5.30866E-02-3.62396E-15-7.60427E-13
 -1      1375 1.98113E+01 5.30878E-04 4.97528E-04 5.31948E-02-1.98718E-14-7.86517E-13
 -1      1376 1.97677E+01-6.48878E-04-9.98246E-05 1.04480E-01-6.27232E-14-5.95432E-13
 -1      1377 1.98674E+01 1.37489E-03 1.44834E-04 5.54712E-02-1.33341E-14-7.97966E-13
 -1      1378 1.99351E+01 1.79307E-03 4.84061E-04 5.62164E-02-2.30340E-14-8.20222E-13
 -1      1379 1.98748E+01 1.19835E-03-3.77561E-04 1.07237E-01-5.16997E-14-6.26380E-13
 -1      1380 1.99967E+01 2.73665E-03 1.16327E-04 6.14057E-02-5.87686E-14-8.20981E-13
 -1      1381 2.00719E+01 3.25342E-03 4.89907E-04 6.29056E-02-8.55000E-14-8.69816E-13
 -1      1382 1.99899E+01 3.42431E-03-7.32835E-04 1.16303E-01-4.73978E-14-6.19782E-13
 -1      1383 2.01424E+01 4.32007E-03 7.42392E-05 7.14755E-02-6.63115E-14-8.70224E-13
 -1      1384 2.02303E+01 4.86769E-03 4.96897E-04 7.38338E-02-5.52279E-14-9.66658E-13
 -1      1385 2.01191E+01 5.98770E-03-1.15329E-03 1.32911E-01-9.32080E-14-6.32575E-13
 -1      1386 2.03136E+01 6.07396E-03-1.90306E-06 8.61356E-02-3.16742E-14-9.52265E-13
 -1      1387 2.04200E+01 6.55876E-03 4.82545E-04 8.94304E-02-7.21873E-15-9.78959E-13
 -1      1388 2.02697E+01 8.82254E-03-1.62442E-03 1.58052E-01-6.04419E-14-5.57406E-13
 -1      1389 2.05204E+01 7.89987E-03-1.34480E-04 1.05607E-01 4.03349E-14-1.02317E-12
 -1      1390 2.06511E+01 8.18260E-03 4.18918E-04 1.09863E-01 4.88822E-14-9.94703E-13
 -1      1391 2.04497E+01 1.17927E-02-2.12316E-03 1.92332E-01-1.56806E-14-6.38287E-13
 -1      1392 2.07726E+01 9.60917E-03-3.45499E-04 1.29670E-01 5.83236E-15-1.02438E-12
 -1      1393 2.09333E+01 9.47941E-03 2.74177E-04 1.34806E-01-9.78212E-14-1.05032E-12
 -1      1394 2.06671E+01 1.46241E-02-2.60869E-03 2.35648E-01 4.06988E-15-6.96546E-13
 -1      1395 2.10791E+01 1.08611E-02-6.48859E-04 1.57316E-01-5.80575E-14-1.05191E-12
 -1      1396 2.12738E+01 1.00073E-02 2.03532E-05 1.63058E-01-2.58236E-14-1.02166E-12
 -1      1397 2.09290E+01 1.68041E-02-3.00908E-03 2.86636E-01-8.73284E-14-7.36396E-13
 -1      1398 2.14454E+01 1.10802E-02-1.03245E-03 1.86194E-01 3.10147E-14-9.51252E-13
 -1      1399 2.16750E+01 9.06343E-03-3.47007E-04 1.91939E-01 6.76798E-14-8.95137E-13
 -1      1400 2.12404E+01 1.74448E-02-3.20205E-03 3.41766E-01 4.01990E-14-6.84646E-13
 -1      1401 2.18706E+01 9.36379E-03-1.42447E-03 2.11843E-01 4.06055E-14-8.71496E-13
 -1      1402 2.21299E+01 5.62037E-03-7.71425E-04 2.16467E-01-2.06932E-14-8.91176E-13
 -1      1403 2.16012E+01 1.51237E-02-2.98983E-03 3.94049E-01 7.42989E-14-6.17949E-13
 -1      1404 2.23421E+01 4.42873E-03-1.64283E-03 2.26755E-01-2.34126E-14-8.55534E-13
 -1      1405 2.26157E+01-1.64293E-03-1.08186E-03 2.28385E-01 2.73608E-15-8.97917E-13
 -1      1406 2.20032E+01 7.77511E-03-2.07382E-03 4.31394E-01 7.46717E-15-4.97583E-13
 -1      1407 2.28294E+01-5.28069E-03-1.34515E-03 2.19606E-01 1.13835E-13-8.24375E-13
 -1      1408 2.30870E+01-1.40446E-02-9.48698E-04 2.15461E-01 1.36917E-13-6.42904E-13
 -1      1409 2.24253E+01-7.17292E-03-5.06626E-05 4.35038E-01 1.02364E-13-3.84732E-13
 -1      1410 2.32763E+01-2.10757E-02-3.97642E-05 1.75499E-01-1.68949E-14-6.61669E-13
 -1      1411 2.34687E+01-3.20563E-02 7.94810E-05 1.62044E-01-6.19131E-14-6.88415E-13
 -1      1412 2.28288E+01-3.20185E-02 3.51736E-03 3.79246E-01 1.05899E-13-3.90937E-13
 -1      1413 2.35964E+01-4.27342E-02 2.72276E-03 7.88750E-02-5.52110E-14-7.29625E-13
 -1      1414 2.36563E+01-5.36407E-02 2.31670E-03 5.28180E-02-3.23084E-14-8.49903E-13
 -1      1415 2.31531E+01-6.67819E-02 8.86199E-03 2.34776E-01-6.85675E-14-3.46213E-13
 -1      1416 2.36767E+01-6.62841E-02 6.80984E-03-7.86252E-02-3.47743E-14-8.94045E-13
 -1      1417 2.35304E+01-7.20486E-02 5.39076E-03-1.17910E-01-1.06637E-13-9.55345E-13
 -1      1418 2.33174E+01-1.05644E-01 1.54759E-02-2.00777E-02-9.24998E-14-5.47477E-13
 -1      1419 2.34009E+01-8.17207E-02 1.07913E-02-2.84351E-01 9.72833E-15-9.59163E-13
 -1      1420 2.29980E+01-7.48134E-02 7.69175E-03-3.30970E-01 8.01442E-14-8.88706E-13
 -1      1421 2.32330E+01-1.33231E-01 2.12996E-02-3.77863E-01 2.04229E-14-5.77289E-13
 -1      1422 2.27008E+01-7.35987E-02 1.17782E-02-4.89547E-01 8.56823E-14-7.92484E-13
 -1      1423 2.20596E+01-4.76188E-02 6.51091E-03-5.27894E-01 4.92748E-14-7.00655E-13
 -1      1424 2.28348E+01-1.25145E-01 2.23429E-02-7.73933E-01 1.13122E-13-5.81103E-13
 -1      1425 2.16311E+01-2.92167E-02 6.76714E-03-6.08103E-01-4.96199E-14-6.41757E-13
 -1      1426 2.08769E+01 1.38247E-02-2.43396E-04-6.15654E-01-2.82630E-14-6.47010E-13
 -1      1427 2.21332E+01-5.98297E-02 1.39434E-02-1.07217E+00 1.00124E-13-4.95291E-13
 -1      1428 2.04265E+01 4.54186E-02-4.21578E-03-5.50102E-01 1.72093E-14-5.67775E-13
 -1      1429 1.97821E+01 8.98920E-02-1.08235E-02-5.10994E-01-5.32803E-14-5.78336E-13
 -1      1430 2.12664E+01 5.75917E-02-5.35656E-03-1.10057E+00-1.09526E-14-3.30432E-13
 -1      1431 1.94682E+01 1.17586E-01-1.55155E-02-2.88256E-01-1.16813E-13-6.72080E-13
 -1      1432 1.91681E+01 1.40249E-01-1.87652E-02-2.09951E-01-1.05811E-13-8.07236E-13
 -1      1433 2.05027E+01 1.81301E-01-2.83396E-02-7.54845E-01-1.66865E-13-4.27856E-13
 -1      1434 1.91217E+01 1.44388E-01-1.95430E-02 9.42458E-02-2.56253E-14-8.26345E-13
 -1      1435 1.92858E+01 1.31416E-01-1.77426E-02 1.78364E-01 3.41741E-16-9.29295E-13
 -1      1436 2.01400E+01 2.44000E-01-4.10286E-02-1.09529E-01-7.27786E-14-5.21249E-13
 -1      1437 1.95262E+01 1.08895E-01-1.37249E-02 4.35777E-01 1.78095E-14-8.82482E-13
 -1      1438 2.00857E+01 6.83314E-02-7.82449E-03 4.88229E-01 9.46899E-15-8.69770E-13
 -1      1439 2.03358E+01 2.08192E-01-3.36649E-02 5.79591E-01-1.93196E-14-5.78761E-13
 -1      1440 2.05071E+01 3.55249E-02-3.09963E-03 6.01164E-01-1.43097E-13-9.32081E-13
 -1      1441 2.12476E+01-1.02336E-02 4.05105E-03 6.06036E-01-7.91996E-14-9.69523E-13
 -1      1442 2.09993E+01 9.52039E-02-1.20407E-02 1.02801E+00-8.68403E-14-5.41000E-13
 -1      1443 2.16893E+01-3.36756E-02 5.15775E-03 5.61257E-01 4.28637E-14-1.07396E-12
 -1      1444 2.23717E+01-6.54276E-02 1.09618E-02 5.29075E-01 5.18700E-14-1.06128E-12
 -1      1445 2.18546E+01-3.08809E-02 9.48354E-03 1.10113E+00-5.39054E-14-7.18214E-13
 -1      1446 2.27045E+01-7.13284E-02 7.85271E-03 3.83546E-01 5.45380E-14-1.14234E-12
 -1      1447 2.31704E+01-8.33301E-02 1.15369E-02 3.36856E-01 3.74041E-14-1.13771E-12
 -1      1448 2.26083E+01-1.13839E-01 2.12704E-02 8.60315E-01 3.99515E-14-1.03180E-12
 -1      1449 2.33373E+01-7.60936E-02 6.28987E-03 1.64840E-01 8.75168E-15-9.08648E-13
 -1      1450 2.35396E+01-7.31517E-02 8.03338E-03 1.21911E-01 3.91093E-15-9.81860E-13
 -1      1451 2.30803E+01-1.37267E-01 2.25350E-02 4.71356E-01 2.33806E-14-9.61171E-13
 -1      1452 2.35453E+01-6.08370E-02 3.21967E-03-2.44276E-02 1.63584E-15-9.08419E-13
 -1      1453 2.35191E+01-5.06923E-02 3.77921E-03-5.50283E-02-1.25230E-14-9.30797E-13
 -1      1454 2.32270E+01-1.17498E-01 1.76143E-02 8.75761E-02 3.68542E-15-5.73145E-13
 -1      1455 2.34017E+01-3.93120E-02 7.11453E-04-1.54644E-01-8.18920E-15-9.85507E-13
 -1      1456 2.32176E+01-2.78652E-02 6.27166E-04-1.72083E-01-9.63912E-14-1.08824E-12
 -1      1457 2.30971E+01-7.99875E-02 1.09786E-02-2.05439E-01-2.47042E-14-6.22046E-13
 -1      1458 2.30233E+01-1.99026E-02-5.81165E-04-2.25889E-01-1.21803E-13-1.11177E-12
 -1      1459 2.27523E+01-1.01246E-02-1.00521E-03-2.32963E-01-6.65787E-15-1.13982E-12
 -1      1460 2.27764E+01-4.31382E-02 5.17829E-03-3.86243E-01-1.36611E-13-8.41825E-13
 -1      1461 2.25220E+01-5.69632E-03-8.45194E-04-2.51550E-01 1.29934E-13-1.07093E-12
 -1      1462 2.22195E+01 1.58741E-03-1.46225E-03-2.51781E-01 1.16512E-13-9.38256E-13
 -1      1463 2.23505E+01-1.50658E-02 1.06443E-03-4.70180E-01 1.14529E-13-8.26015E-13
 -1      1464 2.19830E+01 3.38846E-03-5.36803E-04-2.47071E-01-4.51245E-15-8.03422E-13
 -1      1465 2.16859E+01 8.46152E-03-1.26875E-03-2.43330E-01 1.04037E-13-8.00821E-13
 -1      1466 2.18874E+01 3.19169E-03-1.46771E-03-4.84765E-01 2.06799E-13-5.77420E-13
 -1      1467 2.14631E+01 8.73877E-03-7.34456E-05-2.24682E-01 1.66058E-13-8.57435E-13
 -1      1468 2.11935E+01 1.22795E-02-8.81345E-04-2.18811E-01 1.33381E-13-6.46708E-13
 -1      1469 2.14345E+01 1.38649E-02-2.87564E-03-4.55498E-01 1.93735E-13-4.16498E-13
 -1      1470 2.09966E+01 1.20098E-02 2.14036E-04-1.91952E-01 3.12937E-13-4.72663E-13
 -1      1471 2.07677E+01 1.47224E-02-6.68070E-04-1.84805E-01 2.37348E-13-1.76672E-13
 -1      1472 2.10218E+01 2.00601E-02-3.66228E-03-4.00318E-01 3.53262E-13-3.81699E-13
 -1      1473 2.06042E+01 1.46885E-02 2.02527E-05-1.52074E-01 5.36307E-14-2.36111E-13
 -1      1474 2.04256E+01 1.70665E-02-8.94775E-04-1.43653E-01 4.09360E-14-1.43805E-13
 -1      1475 2.06678E+01 2.47278E-02-4.25277E-03-3.28812E-01 2.64345E-13-1.37102E-13
 -1      1476 2.03006E+01 1.77535E-02-8.23055E-04-1.05128E-01 6.67764E-14-6.56888E-14
 -1      1477 2.01823E+01 1.97135E-02-1.16637E-03-9.47388E-02 8.79492E-14 1.11185E-13
 -1      1478 2.03841E+01 3.01745E-02-4.75524E-03-2.43654E-01 1.00357E-13-2.64186E-13
 -1      1479 2.00968E+01 2.28192E-02-1.04676E-03-5.00743E-02 4.51692E-14 1.55657E-13
 -1      1480 2.00471E+01 1.96968E-02 9.74819E-04-3.78499E-02-9.26971E-14 1.65302E-13
 -1      1481 2.01767E+01 3.72606E-02-4.71172E-03-1.45556E-01 1.54268E-13-1.41088E-13
 -1      1482 1.99960E+01 3.24007E-03 3.39422E-03 5.99541E-03-2.08073E-13 2.63304E-13
 -1      1483 2.00361E+01 2.71392E-02-1.25841E-03-3.39782E-02-1.53880E-13 7.09439E-14
 -1      1484 2.02456E+01 7.54917E-02-1.52115E-01 4.84652E-01 3.05426E-13 2.70063E-12
 -1      1485 2.15170E+01 2.16082E-01-2.29282E-01 7.21663E-01 2.70381E-13 3.18655E-12
 -1      1486 2.17168E+01 8.81824E-01-8.54077E-02 2.06617E+00 5.33476E-13 2.08454E-12
 -1      1487 1.93155E+01 3.23829E-02-2.13456E-02 1.86791E-01 2.34422E-13 2.07724E-12
 -1      1488 1.97373E+01 1.13594E-01-6.27159E-02 2.38787E-01 2.25577E-13 2.44909E-12
 -1      1489 2.02903E+01 1.87719E-01-5.51692E-02 7.87605E-01 4.74426E-13 1.62382E-12
 -1      1490 1.89319E+01 1.51107E-02 5.66629E-03 5.42790E-02 1.66530E-13 1.61903E-12
 -1      1491 1.90716E+01 5.16070E-02 9.72190E-04 8.05664E-02 1.70571E-13 1.89690E-12
 -1      1492 1.95438E+01 7.18533E-02-1.21385E-02 3.00403E-01 3.69338E-13 1.23265E-12
 -1      1493 1.88197E+01 7.14471E-03 6.97897E-03-8.26946E-03 1.31127E-13 1.28375E-12
 -1      1494 1.88354E+01 2.58572E-02 1.10951E-02 6.10750E-03 1.20032E-13 1.48247E-12
 -1      1495 1.92072E+01 3.10618E-02-2.44542E-03 8.48361E-02 2.74740E-13 9.37174E-13
 -1      1496 1.88443E+01 3.26783E-03 4.78188E-03-3.86840E-02 9.79462E-14 1.02197E-12
 -1      1497 1.88015E+01 1.38448E-02 8.53425E-03-3.05679E-02 8.96408E-14 1.17624E-12
 -1      1498 1.90897E+01 1.33374E-02-1.60515E-03-2.03689E-02 2.01661E-13 7.18451E-13
 -1      1499 1.89379E+01 1.16424E-03 3.28512E-03-5.24605E-02 4.37100E-14 8.64435E-13
 -1      1500 1.88680E+01 7.38268E-03 5.38869E-03-4.79543E-02 6.12358E-14 9.65679E-13
 -1      1501 1.90906E+01 4.69922E-03-1.63083E-03-7.23678E-02 1.35923E-13 5.70082E-13
 -1      1502 1.90630E+01-4.88935E-06 2.48964E-03-5.70347E-02 4.71062E-14 7.46164E-13
 -1      1503 1.89828E+01 3.65230E-03 3.46125E-03-5.47267E-02 3.77037E-14 8.23817E-13
 -1      1504 1.91542E+01 1.77056E-04-1.39485E-03-9.59603E-02 8.33678E-14 4.67434E-13
 -1      1505 1.91989E+01-5.99354E-04 2.00582E-03-5.65650E-02 3.96939E-14 6.40011E-13
 -1      1506 1.91175E+01 1.47441E-03 2.37123E-03-5.55843E-02 3.30056E-14 6.94094E-13
 -1      1507 1.92490E+01-2.14964E-03-1.05042E-03-1.03759E-01 7.10941E-14 3.82300E-13
 -1      1508 1.93344E+01-8.06527E-04 1.63466E-03-5.36476E-02 5.64723E-14 5.08709E-13
 -1      1509 1.92564E+01 2.86669E-04 1.70960E-03-5.34096E-02 4.53343E-14 5.82199E-13
 -1      1510 1.93569E+01-3.15022E-03-7.54923E-04-1.03037E-01 9.40861E-14 2.79011E-13
 -1      1511 1.94644E+01-7.35587E-04 1.30748E-03-5.00274E-02 3.68456E-14 4.18583E-13
 -1      1512 1.93916E+01-2.16421E-04 1.27106E-03-5.01147E-02 6.33150E-14 4.67094E-13
 -1      1513 1.94682E+01-3.28454E-03-5.60046E-04-9.84102E-02 1.07054E-13 1.86726E-13
 -1      1514 1.95882E+01-4.52853E-04 1.00342E-03-4.69517E-02 6.33504E-14 2.83765E-13
 -1      1515 1.95204E+01-2.13560E-04 9.67274E-04-4.70477E-02 4.71127E-14 3.58015E-13
 -1      1516 1.95786E+01-2.81759E-03-4.69525E-04-9.30282E-02 9.56088E-14 1.53121E-13
 -1      1517 1.97079E+01 2.81824E-06 7.14218E-04-4.53712E-02 5.14737E-14 1.54756E-13
 -1      1518 1.96435E+01 1.89283E-04 7.57344E-04-4.52182E-02 3.97874E-14 2.02895E-13
 -1      1519 1.96874E+01-1.90684E-03-4.77212E-04-8.91782E-02 9.54007E-14 7.67858E-14
 -1      1520 1.98282E+01 6.11391E-04 4.33292E-04-4.60663E-02 2.10258E-14 1.05138E-13
 -1      1521 1.97644E+01 9.33149E-04 6.18405E-04-4.54370E-02 2.30742E-14 1.18200E-13
 -1      1522 1.97968E+01-6.42831E-04-5.79641E-04-8.86374E-02 7.02051E-14-4.42190E-14
 -1      1523 1.99558E+01 1.36535E-03 1.52902E-04-4.97312E-02 3.12458E-14 2.44619E-14
 -1      1524 1.98886E+01 1.99118E-03 5.34889E-04-4.84085E-02 4.52177E-14 7.78148E-14
 -1      1525 1.99112E+01 9.28284E-04-7.78557E-04-9.28930E-02 7.87667E-14-1.22066E-13
 -1      1526 2.00989E+01 2.26350E-03-1.36394E-04-5.70263E-02 6.08572E-14-3.98179E-14
 -1      1527 2.00236E+01 3.35732E-03 4.94113E-04-5.47883E-02 4.55349E-14 2.36978E-14
 -1      1528 2.00367E+01 2.78864E-03-1.08060E-03-1.03284E-01 7.07960E-14-1.05665E-13
 -1      1529 2.02679E+01 3.30284E-03-4.45425E-04-6.85974E-02-7.27577E-14-8.58506E-14
 -1      1530 2.01788E+01 5.03419E-03 4.83621E-04-6.52099E-02-1.24809E-14-9.49334E-14
 -1      1531 2.01810E+01 4.93299E-03-1.49592E-03-1.21076E-01 2.20802E-14-1.43063E-13
 -1      1532 2.04744E+01 4.46579E-03-7.84908E-04-8.50519E-02 6.55719E-14-4.55196E-14
 -1      1533 2.03649E+01 7.01576E-03 4.88847E-04-8.02708E-02 1.80966E-14-5.81458E-14
 -1      1534 2.03535E+01 7.34810E-03-2.03520E-03-1.47465E-01-2.34564E-14-2.77683E-13
 -1      1535 2.07314E+01 5.69921E-03-1.16149E-03-1.06865E-01 2.25936E-14-1.94784E-13
 -1      1536 2.05941E+01 9.25884E-03 4.90818E-04-1.00457E-01 5.46006E-14-1.12221E-13
 -1      1537 2.05643E+01 9.98045E-03-2.70376E-03-1.83472E-01 8.98934E-14-2.37630E-13
 -1      1538 2.10525E+01 6.87975E-03-1.56836E-03-1.34171E-01-1.82109E-14-1.33406E-13
 -1      1539 2.08796E+01 1.16349E-02 4.64475E-04-1.25967E-01-1.21327E-14-1.62760E-13
 -1      1540 2.08246E+01 1.26829E-02-3.49002E-03-2.29670E-01 1.01494E-14-2.20242E-13
 -1      1541 2.14503E+01 7.75786E-03-1.96407E-03-1.66373E-01-3.37939E-14-3.71370E-14
 -1      1542 2.12346E+01 1.38492E-02 3.80049E-04-1.56375E-01-4.99514E-14-1.11672E-13
 -1      1543 2.11450E+01 1.51261E-02-4.34326E-03-2.85647E-01-6.27679E-14-9.99973E-14
 -1      1544 2.19336E+01 7.87505E-03-2.22986E-03-2.01455E-01 7.75413E-14-8.79375E-14
 -1      1545 2.16697E+01 1.53136E-02 2.13203E-04-1.90043E-01 4.05826E-14-2.51023E-14
 -1      1546 2.15340E+01 1.66559E-02-5.13342E-03-3.49043E-01 9.78341E-15-1.39636E-13
 -1      1547 2.25023E+01 6.46061E-03-2.09457E-03-2.34897E-01 7.70112E-14-3.10717E-13
 -1      1548 2.21899E+01 1.49673E-02-2.58236E-05-2.23174E-01 1.21246E-13-7.81267E-14
 -1      1549 2.19953E+01 1.60865E-02-5.58509E-03-4.13969E-01 1.44789E-13-1.51914E-13
 -1      1550 2.31389E+01 2.35434E-03-1.03222E-03-2.58156E-01-1.76232E-14-3.45375E-13
 -1      1551 2.27879E+01 1.10851E-02-2.31534E-04-2.48470E-01-1.64367E-14-3.44641E-13
 -1      1552 2.25219E+01 1.14563E-02-5.18673E-03-4.68697E-01 3.89723E-14-2.69127E-13
 -1      1553 2.37970E+01-5.89753E-03 1.80232E-03-2.57014E-01-5.04467E-14-2.20542E-13
 -1      1554 2.34344E+01 1.23234E-03-1.12066E-04-2.53591E-01-6.13186E-14-2.86311E-13
 -1      1555 2.30898E+01-9.76433E-05-3.11311E-03-4.92822E-01-6.83692E-14-2.81735E-13
 -1      1556 2.43873E+01-1.94583E-02 7.39293E-03-2.11029E-01-8.28062E-14 3.64101E-14
 -1      1557 2.40660E+01-1.72291E-02 8.76200E-04-2.20363E-01-3.34012E-14-1.55466E-14
 -1      1558 2.36485E+01-2.19214E-02 1.70671E-03-4.55188E-01-1.35321E-13-8.25668E-14
 -1      1559 2.47680E+01-3.77277E-02 1.60565E-02-9.68568E-02-1.43170E-13 2.71649E-13
 -1      1560 2.45728E+01-4.54258E-02 3.37846E-03-1.26977E-01-1.22861E-13 8.22484E-14
 -1      1561 2.41123E+01-5.60272E-02 1.01152E-02-3.15995E-01-1.60915E-13 7.81424E-14
 -1      1562 2.47556E+01-5.55766E-02 2.56450E-02 9.99918E-02-3.77103E-14 3.65038E-13
 -1      1563 2.47972E+01-7.92555E-02 7.51390E-03 4.30253E-02-8.38947E-14 2.31454E-13
 -1      1564 2.43594E+01-9.89223E-02 2.14843E-02-3.94264E-02-1.11819E-13-3.34394E-14
 -1      1565 2.41782E+01-6.10154E-02 2.96516E-02 3.60938E-01 4.58279E-14 2.94993E-13
 -1      1566 2.45591E+01-1.04631E-01 1.14858E-02 2.80933E-01-3.17975E-15 3.14117E-13
 -1      1567 2.42508E+01-1.34544E-01 3.20194E-02 3.75501E-01-8.43423E-15 1.98709E-13
 -1      1568 2.29890E+01-3.90235E-02 1.85870E-02 6.07533E-01 4.73840E-14 1.53738E-13
 -1      1569 2.37329E+01-9.78629E-02 1.08385E-02 5.27015E-01 5.32048E-14 2.43500E-13
 -1      1570 2.36853E+01-1.32394E-01 3.36777E-02 8.47638E-01 7.02962E-14 1.55251E-13
 -1      1571 2.14036E+01 1.50366E-02-1.19751E-02 7.06132E-01-5.35450E-14 7.98805E-14
 -1      1572 2.23729E+01-3.97676E-02 7.88275E-04 6.65339E-01 3.13280E-14 9.23428E-14
 -1      1573 2.26967E+01-5.93577E-02 1.97461E-02 1.18848E+00 6.00449E-14 1.07876E-13
 -1      1574 1.99419E+01 7.96038E-02-5.06560E-02 5.37674E-01-6.54251E-15 2.96443E-13
 -1      1575 2.08181E+01 5.95377E-02-1.79600E-02 5.73165E-01-6.57530E-14 1.33768E-13
 -1      1576 2.15385E+01 8.29557E-02-8.26246E-03 1.16012E+00-6.60930E-14 1.77271E-13
 -1      1577 1.92364E+01 1.11633E-01-7.10220E-02 1.17050E-01 1.98643E-14 2.64540E-13
 -1      1578 1.96428E+01 1.47575E-01-3.47614E-02 2.25962E-01-6.80532E-15 2.50105E-13
 -1      1579 2.06564E+01 2.30574E-01-3.41144E-02 6.48167E-01-5.08898E-14 1.59078E-13
 -1      1580 1.96326E+01 8.64003E-02-5.57738E-02-3.62172E-01 1.20551E-13 6.67313E-14
 -1      1581 1.93738E+01 1.65475E-01-3.60843E-02-2.33043E-01 1.01048E-13 1.46279E-13
 -1      1582 2.04610E+01 2.76790E-01-4.37127E-02-1.73167E-01 1.10811E-13-8.94337E-15
 -1      1583 2.09352E+01 2.38166E-02-1.19610E-02-6.62165E-01-1.68449E-13 1.30174E-14
 -1      1584 2.01373E+01 1.04520E-01-1.78136E-02-5.76065E-01 4.11355E-14 8.46823E-14
 -1      1585 2.10463E+01 1.86294E-01-3.09645E-02-9.04887E-01 6.26582E-14-6.83030E-14
 -1      1586 2.25454E+01-3.30632E-02 2.76287E-02-6.76455E-01 1.26042E-13-2.60431E-13
 -1      1587 2.15672E+01 1.19912E-02 7.46324E-03-6.60972E-01 6.57280E-14-1.32672E-13
 -1      1588 2.21153E+01 1.85884E-02-1.07101E-02-1.21678E+00 1.15754E-13-1.99594E-13
 -1      1589 2.38720E+01-5.90721E-02 4.41873E-02-4.76373E-01 5.47652E-14-8.46954E-13
 -1      1590 2.30650E+01-5.72538E-02 2.29019E-02-5.14504E-01 1.31402E-13-6.28331E-13
 -1      1591 2.32059E+01-1.15633E-01 4.43295E-03-1.06523E+00 3.29394E-13-6.62338E-13
 -1      1592 2.46053E+01-5.61624E-02 3.90773E-02-2.04522E-01-5.47808E-14-7.19196E-13
 -1      1593 2.41524E+01-8.21657E-02 2.42835E-02-2.62373E-01-8.35790E-14-7.66782E-13
 -1      1594 2.39644E+01-1.65325E-01 1.05077E-02-6.40077E-01-5.89893E-14-6.34309E-13
 -1      1595 2.47341E+01-3.94155E-02 2.46966E-02 2.95164E-02-6.01437E-14-6.18450E-13
 -1      1596 2.46399E+01-7.32906E-02 1.67958E-02-2.23522E-02-9.19403E-17-6.23945E-13
 -1      1597 2.42609E+01-1.44705E-01 1.05552E-02-1.73391E-01-6.23338E-14-4.16078E-13
 -1      1598 2.44108E+01-2.13444E-02 1.07616E-02 1.83330E-01 5.65715E-14-4.82881E-13
 -1      1599 2.45824E+01-5.04709E-02 7.70044E-03 1.47591E-01-3.49894E-14-5.64474E-13
 -1      1600 2.41433E+01-9.53957E-02 8.06693E-03 1.91546E-01-7.65169E-14-1.37864E-13
 -1      1601 2.38230E+01-7.56388E-03 1.27068E-03 2.60291E-01-1.13401E-13-4.26298E-13
 -1      1602 2.41477E+01-2.75191E-02 9.52720E-04 2.40553E-01 7.41534E-14-4.56314E-13
 -1      1603 2.37380E+01-4.72990E-02 5.23604E-03 4.13950E-01 6.72500E-14-5.20885E-14
 -1      1604 2.31256E+01 1.02420E-03-3.65751E-03 2.81679E-01 9.63601E-14-3.15518E-13
 -1      1605 2.35117E+01-1.02342E-02-2.59211E-03 2.73778E-01-9.88950E-14-3.14943E-13
 -1      1606 2.31774E+01-1.25099E-02 3.03529E-03 5.12900E-01-7.78754E-14-1.46020E-13
 -1      1607 2.24227E+01 5.54515E-03-5.44349E-03 2.69629E-01 4.15780E-14-3.98060E-13
 -1      1608 2.28101E+01 7.04254E-04-3.68904E-03 2.69082E-01 1.13865E-13-1.88113E-13
 -1      1609 2.25652E+01 8.15811E-03 1.59726E-03 5.26851E-01 4.02046E-14-2.05356E-13
 -1      1610 2.17738E+01 7.55326E-03-5.56570E-03 2.40460E-01 5.80684E-14-3.34045E-13
 -1      1611 2.21291E+01 6.78811E-03-3.44271E-03 2.43939E-01 6.25585E-15-3.66696E-13
 -1      1612 2.19698E+01 1.83721E-02 7.00106E-04 4.91223E-01 8.86706E-14-8.89046E-17
 -1      1613 2.12087E+01 8.38530E-03-5.12397E-03 2.03761E-01 1.06555E-14-5.85653E-13
 -1      1614 2.15162E+01 9.97791E-03-2.70638E-03 2.09343E-01 1.19218E-13-4.20389E-13
 -1      1615 2.14304E+01 2.24131E-02 5.14330E-05 4.30618E-01 1.43298E-13-2.21013E-13
 -1      1616 2.07414E+01 9.01255E-03-4.89339E-03 1.63569E-01 1.95841E-13-7.53793E-13
 -1      1617 2.09939E+01 1.20208E-02-2.04580E-03 1.70559E-01 1.01325E-13-6.46943E-13
 -1      1618 2.09674E+01 2.37765E-02-6.59188E-04 3.58530E-01 1.72811E-13-4.62839E-13
 -1      1619 2.03812E+01 1.01256E-02-5.26474E-03 1.19936E-01-9.31937E-14-8.40870E-13
 -1      1620 2.05734E+01 1.43008E-02-1.83799E-03 1.28653E-01-7.34178E-15-9.31030E-13
 -1      1621 2.05906E+01 2.49973E-02-1.73604E-03 2.79646E-01 1.52015E-13-4.87923E-13
 -1      1622 2.01385E+01 1.20668E-02-5.16992E-03 7.01566E-02 2.35202E-14-8.15046E-13
 -1      1623 2.02628E+01 1.77698E-02-1.97904E-03 8.21223E-02-3.97085E-14-7.93765E-13
 -1      1624 2.03061E+01 2.81506E-02-3.00605E-03 1.92853E-01-7.91554E-14-7.14373E-13
 -1      1625 2.00240E+01 1.30934E-02 1.24583E-03 1.76498E-02 4.44562E-14-8.57708E-13
 -1      1626 2.00700E+01 1.95623E-02-9.63239E-04 3.11060E-02 3.97114E-14-7.43593E-13
 -1      1627 2.01159E+01 3.10243E-02-3.31766E-03 9.59495E-02 4.15299E-14-6.18670E-13
 -1      1628 1.99987E+01 4.10482E-03 4.06341E-03-3.81597E-03-4.58562E-13-4.75800E-13
 -1      1629 2.00201E+01 1.05319E-01-2.86118E-03 5.62292E-02-4.14786E-13 2.08406E-13
 -1      1630 2.00216E+01 5.29636E-02 1.32162E-03 4.25301E-02-6.88965E-13 2.42553E-13
 -1      1631 2.00133E+01 3.08065E-01-1.93948E-03 1.06421E-01 1.00020E-13 1.10040E-13
 -1      1632 2.00180E+01 1.91084E-01-1.93052E-03 9.75672E-02-2.66633E-13 2.34330E-13
 -1      1633 2.00381E+01 1.89156E-01-3.64182E-03 1.51528E-01-6.77207E-14 4.54953E-13
 -1      1634 2.00041E+01 5.77900E-01-6.84059E-04 1.35273E-01 1.97481E-13 2.28088E-13
 -1      1635 2.00096E+01 4.21970E-01-1.35749E-03 1.31442E-01 6.94549E-14 1.51460E-13
 -1      1636 2.00208E+01 3.88012E-01-3.09703E-03 2.31009E-01-1.19854E-14 1.42451E-13
 -1      1637 1.99955E+01 8.70286E-01 1.04470E-04 1.39783E-01-1.33756E-13-3.13955E-13
 -1      1638 2.00006E+01 7.04928E-01-5.09715E-04 1.40861E-01 3.81162E-14 2.08616E-13
 -1      1639 2.00050E+01 6.28429E-01-5.90808E-04 2.67208E-01-8.97225E-14 8.51313E-14
 -1      1640 1.99885E+01 1.13524E+00 4.04062E-04 1.22678E-01-8.83395E-13-4.68192E-13
 -1      1641 1.99926E+01 9.89603E-01-4.76325E-05 1.27631E-01-2.01127E-13-6.14678E-13
 -1      1642 1.99908E+01 8.73873E-01 1.88009E-03 2.58491E-01-3.45519E-13-8.19267E-13
 -1      1643 1.99834E+01 1.34338E+00 4.88926E-04 8.78318E-02-7.77248E-13 5.99549E-14
 -1      1644 1.99864E+01 1.23437E+00 2.11782E-04 9.58932E-02-8.52091E-13-1.27542E-13
 -1      1645 1.99797E+01 1.09100E+00 3.82506E-03 2.11269E-01-3.79766E-13-4.65044E-13
 -1      1646 1.99809E+01 1.46109E+00 4.50623E-04 4.12474E-02-4.65029E-13 7.97741E-14
 -1      1647 1.99823E+01 1.40615E+00 3.09894E-04 5.10616E-02-6.11663E-13 1.08786E-13
 -1      1648 1.99722E+01 1.25150E+00 5.17762E-03 1.34265E-01-4.49124E-13 1.90372E-13
 -1      1649 1.99809E+01 1.47358E+00 3.62713E-04-1.03125E-02 1.51117E-13 2.75652E-13
 -1      1650 1.99806E+01 1.47952E+00 3.61737E-04-9.69502E-05-2.78858E-13 4.76557E-13
 -1      1651 1.99687E+01 1.33191E+00 5.78657E-03 3.97667E-02-1.34391E-13 4.71297E-13
 -1      1652 1.99834E+01 1.38034E+00 2.40495E-04-5.98759E-02 1.14362E-15-7.95479E-14
 -1      1653 1.99816E+01 1.44567E+00 3.86902E-04-5.06034E-02 2.27517E-13 4.45202E-14
 -1      1654 1.99695E+01 1.32228E+00 5.62490E-03-5.89438E-02 5.37881E-14 2.62164E-13
 -1      1655 1.99881E+01 1.19504E+00 8.11716E-05-1.00943E-01-2.13501E-13-2.51569E-13
 -1      1656 1.99850E+01 1.31032E+00 4.02774E-04-9.38212E-02 5.49799E-14-1.90993E-13
 -1      1657 1.99742E+01 1.22487E+00 4.73185E-03-1.48684E-01-6.96589E-14-2.02766E-13
 -1      1658 1.99943E+01 9.48163E-01-1.11726E-04-1.27721E-01-3.00472E-13 2.30837E-13
 -1      1659 1.99902E+01 1.09453E+00 3.12711E-04-1.23760E-01-2.15251E-13-1.06281E-13
 -1      1660 1.99826E+01 1.05520E+00 3.28571E-03-2.17236E-01 5.13198E-14-2.46347E-13
 -1      1661 2.00019E+01 6.66084E-01-5.27290E-04-1.36896E-01 1.83557E-13 1.75722E-13
 -1      1662 1.99970E+01 8.27331E-01 3.99455E-05-1.36622E-01-2.01353E-13 3.24481E-13
 -1      1663 1.99933E+01 8.35384E-01 1.32694E-03-2.55768E-01 1.40922E-13 4.68392E-13
 -1      1664 2.00097E+01 3.94401E-01-1.34737E-03-1.25198E-01-3.32243E-14-2.39589E-13
 -1      1665 2.00049E+01 5.43219E-01-6.23117E-04-1.29083E-01 1.74218E-13 1.10950E-14
 -1      1666 2.00065E+01 5.92798E-01-9.31575E-04-2.57608E-01 1.55642E-13-3.49304E-14
 -1      1667 2.00188E+01 1.79885E-01-4.51119E-04-9.18123E-02-1.40966E-13 5.77728E-14
 -1      1668 2.00123E+01 2.87393E-01-1.78947E-03-1.00402E-01-6.95676E-14-1.01431E-13
 -1      1669 2.00205E+01 3.63041E-01-3.03473E-03-2.18362E-01 8.43008E-14-3.22183E-13
 -1      1670 2.00322E+01 7.17092E-02 2.43807E-03-6.21009E-02-1.17839E-13-6.72674E-14
 -1      1671 2.00301E+01 1.22468E-01-1.53751E-03-8.05793E-02-1.44664E-14-1.20819E-13
 -1      1672 2.00500E+01 2.00551E-01-2.48811E-03-1.70894E-01 9.16643E-14 5.85278E-14
 -1      1673 2.00910E+01 9.64588E-02 8.20392E-04-1.24984E-01-5.12862E-14-2.75221E-13
 -1      1674-5.63011E-01-1.39276E+01-1.56818E+00-9.02873E-01 7.60392E-13 4.97991E-13
 -1      1675-5.61033E-01-1.62057E+01-1.77957E+00 3.10746E-01 1.17240E-13 3.87107E-13
 -1      1676 1.95068E+00-7.33663E+00-1.06058E+00 1.03853E+00 1.26699E-12 9.79578E-13
 -1      1677 9.96911E-01-1.24749E+01-1.57584E+00 2.50345E-01 8.62643E-13 4.74898E-13
 -1      1678 8.07709E+00-1.57850E-01-4.46790E-01 5.07232E+00 1.49947E-12 1.10734E-12
 -1      1679 4.71542E+00-5.50821E+00-1.18709E+00 2.13988E+00 1.45628E-12 9.59455E-13
 -1      1680 1.80754E+01 5.12133E+00 2.65442E-01 9.82358E+00 1.40976E-12 1.50535E-12
 -1      1681 1.16140E+01 1.96328E+00-6.00678E-01 6.26679E+00 1.53466E-12 1.29330E-12
 -1      1682 3.18918E+01 6.36520E+00 9.86759E-01 1.25226E+01 1.04072E-12 1.39155E-12
 -1      1683 2.30869E+01 6.06906E+00 1.62260E-01 1.06161E+01 1.25611E-12 1.46327E-12
 -1      1684 4.56510E+01 5.00842E+00 1.57828E+00 1.03771E+01 5.76900E-13 8.25340E-13
 -1      1685 3.69931E+01 6.47122E+00 9.23648E-01 1.17865E+01 9.79883E-13 1.27875E-12
 -1      1686 5.42939E+01 3.56844E+00 1.89753E+00 4.26466E+00 5.23664E-13-3.15858E-13
 -1      1687 4.94673E+01 4.90361E+00 1.58043E+00 8.84439E+00 6.75918E-13 5.29687E-13
 -1      1688 5.34959E+01 4.00044E+00 1.74749E+00-4.01665E+00 6.38045E-13-1.48720E-12
 -1      1689 5.45277E+01 3.71456E+00 1.81478E+00 1.59505E+00 4.87943E-13-6.93529E-13
 -1      1690 4.58962E+01 5.53754E+00 1.41014E+00-1.04649E+01 1.41449E-12-2.58593E-12
 -1      1691 5.22572E+01 3.92463E+00 1.83184E+00-6.73724E+00 9.09592E-13-1.68854E-12
 -1      1692 3.29035E+01 6.72705E+00 7.20131E-01-1.20562E+01 2.29261E-12-3.34710E-12
 -1      1693 4.17317E+01 5.67006E+00 1.45761E+00-1.17904E+01 1.69487E-12-2.87470E-12
 -1      1694 1.97920E+01 4.62779E+00-8.40502E-02-9.10038E+00 2.54075E-12-3.05533E-12
 -1      1695 2.80504E+01 5.79798E+00 7.52361E-01-1.16435E+01 2.30305E-12-3.43547E-12
 -1      1696 9.22664E+00-1.81542E-01-8.13874E-01-4.85288E+00 2.26441E-12-2.39542E-12
 -1      1697 1.47197E+01 3.61925E+00-1.53392E-03-8.37283E+00 2.62279E-12-3.05367E-12
 -1      1698 3.12376E+00-7.36929E+00-1.38523E+00-1.14507E+00 1.60938E-12-1.26676E-12
 -1      1699 5.59554E+00-2.01392E+00-7.01847E-01-3.54786E+00 2.09721E-12-2.00717E-12
 -1      1700 3.40809E-01-1.38366E+01-1.72368E+00 1.89542E-01 8.24008E-13-5.55320E-13
 -1      1701 8.38988E-01-9.20266E+00-1.28452E+00-2.58658E-02 1.36291E-12-7.79654E-13
 -1      1702-6.51974E-01-1.62439E+01-1.74878E+00-4.19794E-01-5.73736E-13-6.07375E-13
 -1      1703-6.80380E-01-1.48791E+01-1.66673E+00 1.01000E+00 3.77198E-13-5.40623E-13
 -1      1704-2.46750E-01-1.28259E+01-1.41705E+00-4.63324E-01-2.18792E-12-1.31176E-12
 -1      1705-3.55441E-01-1.52917E+01-1.61826E+00 4.89402E-01-1.00578E-12-8.70692E-13
 -1      1706 1.62298E+00-6.95418E+00-1.15625E+00 6.97095E-01-3.68372E-12-2.26380E-12
 -1      1707 8.16684E-01-1.21562E+01-1.64533E+00-4.39272E-02-2.84628E-12-1.48612E-12
 -1      1708 7.99813E+00 3.01614E-01-4.65122E-01 5.20035E+00-3.82583E-12-2.92544E-12
 -1      1709 4.58248E+00-4.93993E+00-1.21301E+00 2.16715E+00-3.73823E-12-2.42745E-12
 -1      1710 1.87840E+01 5.07507E+00 3.02846E-01 9.99167E+00-3.18723E-12-3.20033E-12
 -1      1711 1.21753E+01 2.06095E+00-5.55474E-01 6.48178E+00-3.62799E-12-3.01770E-12
 -1      1712 3.31570E+01 6.24029E+00 1.05013E+00 1.23779E+01-2.12996E-12-2.52376E-12
 -1      1713 2.38728E+01 6.07523E+00 1.93335E-01 1.06279E+01-2.94131E-12-3.07865E-12
 -1      1714 4.65807E+01 4.84306E+00 1.60086E+00 9.82452E+00-1.06379E-12-1.34448E-12
 -1      1715 3.81513E+01 6.38474E+00 9.54272E-01 1.16481E+01-1.64493E-12-2.24543E-12
 -1      1716 5.41899E+01 3.48246E+00 1.84474E+00 3.40700E+00-5.22804E-13-2.48690E-13
 -1      1717 5.00506E+01 4.66373E+00 1.57785E+00 8.13146E+00-7.93615E-13-1.01352E-12
 -1      1718 5.26058E+01 4.07946E+00 1.66746E+00-4.59486E+00-6.32161E-13 9.49463E-13
 -1      1719 5.40977E+01 3.65232E+00 1.76145E+00 7.90092E-01-5.51281E-13 2.46851E-13
 -1      1720 4.51005E+01 5.64234E+00 1.36149E+00-1.06449E+01-7.77725E-13 1.68499E-12
 -1      1721 5.12258E+01 4.04161E+00 1.74641E+00-7.21839E+00-5.13048E-13 1.32361E-12
 -1      1722 3.24877E+01 6.83731E+00 7.26073E-01-1.21569E+01-1.50469E-12 2.11187E-12
 -1      1723 4.10715E+01 5.75244E+00 1.40798E+00-1.19130E+01-1.07045E-12 1.85418E-12
 -1      1724 1.96286E+01 5.46467E+00-2.02786E-02-9.70465E+00-2.37410E-12 2.35922E-12
 -1      1725 2.75685E+01 6.49396E+00 8.04782E-01-1.21680E+01-1.89504E-12 2.14406E-12
 -1      1726 9.75460E+00 3.50077E-01-7.10112E-01-5.23574E+00-2.66742E-12 2.22378E-12
 -1      1727 1.52736E+01 4.09542E+00 1.06498E-01-8.71719E+00-2.53630E-12 2.28673E-12
 -1      1728 3.95674E+00-6.85579E+00-1.24003E+00-1.79329E+00-1.79468E-12 1.49825E-12
 -1      1729 6.58878E+00-1.73051E+00-5.78185E-01-4.21009E+00-2.31992E-12 2.11675E-12
 -1      1730 4.64826E-01-1.33998E+01-1.71418E+00 9.35942E-02-9.53349E-13 7.91811E-13
 -1      1731 1.05458E+00-8.65828E+00-1.24083E+00-3.09710E-01-1.74827E-12 1.45059E-12
 -1      1732-6.26380E-01-1.67778E+01-1.86842E+00-3.41640E-01-1.98563E-13 3.44336E-13
 -1      1733-6.42465E-01-1.48988E+01-1.71400E+00 1.02501E+00-7.42906E-13 3.99236E-13
 -1      1734 2.47641E+01 1.19527E+00 2.67873E-01 7.47929E+00 7.90590E-13 7.12097E-13
 -1      1735 1.49911E+01-3.03717E+00-3.52790E-01 6.43118E+00 8.34111E-13 7.50400E-13
 -1      1736 2.00208E+01 1.59442E-02-6.01470E-04 1.58352E-02-5.95956E-13-3.84349E-13
 -1      1737 2.00512E+01 7.30769E-02-5.22734E-04 7.25439E-02-1.92090E-13-2.73627E-14
 -1      1738 1.01947E+00-9.46910E+00-1.03918E+00 2.72806E+00 2.31204E-13 5.78815E-13
 -1      1739 6.95638E+00-6.88620E+00-7.51376E-01 4.97414E+00 5.03153E-13 7.28723E-13
 -1      1740-1.30508E+00-1.12050E+01-1.28767E+00 8.86908E-02-1.38937E-13 7.80709E-13
 -1      1741 3.49741E+01 4.16950E+00 8.65056E-01 6.83936E+00 7.41240E-13 4.95382E-13
 -1      1742 4.30933E+01 6.19872E+00 1.32339E+00 4.59594E+00 7.55229E-13 6.66134E-14
 -1      1743 4.68421E+01 7.32104E+00 1.53252E+00 1.35680E+00 8.74412E-13-6.20642E-13
 -1      1744 4.59812E+01 7.18334E+00 1.49872E+00-2.42889E+00 1.05732E-12-1.01108E-12
 -1      1745 4.10802E+01 5.67950E+00 1.23349E+00-5.69218E+00 1.57491E-12-1.50069E-12
 -1      1746 3.20804E+01 3.00116E+00 6.28075E-01-6.82464E+00 1.66001E-12-2.02294E-12
 -1      1747 2.22604E+01-4.10675E-01 1.08713E-01-6.99041E+00 1.43530E-12-2.27540E-12
 -1      1748 1.24604E+01-4.10959E+00-4.60651E-01-6.02047E+00 1.20137E-12-2.04359E-12
 -1      1749 4.83242E+00-7.73073E+00-9.06448E-01-4.16663E+00 8.38329E-13-1.28428E-12
 -1      1750 8.58847E-02-1.03491E+01-1.20071E+00-1.92726E+00 1.29619E-13-9.05720E-13
 -1      1751-1.09332E+00-1.02598E+01-1.12723E+00 5.52145E-01-6.51833E-13-1.38528E-12
 -1      1752 1.13301E+00-9.25850E+00-1.06713E+00 2.70513E+00-1.42553E-12-1.79751E-12
 -1      1753 6.71027E+00-6.54993E+00-7.88105E-01 4.73858E+00-2.16105E-12-1.98094E-12
 -1      1754 1.53829E+01-2.61981E+00-2.51908E-01 6.56390E+00-2.32525E-12-1.91208E-12
 -1      1755 2.55588E+01 1.20496E+00 3.32168E-01 7.28233E+00-2.22322E-12-1.67200E-12
 -1      1756 3.55924E+01 4.42155E+00 9.10612E-01 6.45402E+00-1.86545E-12-1.09890E-12
 -1      1757 4.34450E+01 6.43113E+00 1.35874E+00 4.32447E+00-1.35944E-12-7.77045E-13
 -1      1758 4.65690E+01 7.36967E+00 1.51065E+00 1.03055E+00-1.08880E-12-1.08621E-13
 -1      1759 4.53182E+01 7.16132E+00 1.44796E+00-2.70352E+00-8.02580E-13 5.47562E-13
 -1      1760 4.04807E+01 5.72357E+00 1.20977E+00-5.94309E+00-8.63261E-13 8.79852E-13
 -1      1761 3.17812E+01 3.56820E+00 6.96624E-01-7.45386E+00-1.39555E-12 1.17029E-12
 -1      1762 2.20572E+01 1.61659E-01 9.96220E-02-7.29715E+00-1.71840E-12 1.32938E-12
 -1      1763 1.32375E+01-3.98717E+00-4.14831E-01-6.27880E+00-1.20903E-12 1.62903E-12
 -1      1764 5.69800E+00-7.32645E+00-7.71599E-01-4.71601E+00-8.61977E-13 1.61249E-12
 -1      1765 3.26984E-01-1.03743E+01-1.19917E+00-2.23811E+00-7.94032E-13 9.08273E-13
 -1      1766 2.28490E+01 1.98454E+00-2.35762E-02-2.72342E+00-4.77379E-13 1.73966E-12
 -1      1767 1.98202E+01 3.71831E+00-3.48860E-02-2.15715E+00-5.79134E-13-7.22138E-13
 -1      1768 2.00475E+01 3.56016E+00-4.29592E-02-2.44361E+00-6.70575E-13-5.32113E-13
 -1      1769 2.03594E+01 3.18200E+00-4.51730E-02-2.58706E+00-6.75306E-13-2.80241E-13
 -1      1770 2.05764E+01 2.80883E+00-1.42637E-01-2.85514E+00-7.34978E-13 6.94028E-14
 -1      1771 2.04250E+01 2.69085E+00-3.11060E-03-2.22336E+00-7.02283E-13-3.63605E-13
 -1      1772 1.93592E+01 4.18938E+00-2.01999E-02-1.27202E+00-3.04072E-13-1.04236E-12
 -1      1773 1.94311E+01 4.14944E+00-1.71992E-02-1.49660E+00-3.76786E-13-1.00469E-12
 -1      1774 1.92647E+01 4.29542E+00-1.68192E-02-8.60708E-01-1.72415E-13-1.08318E-12
 -1      1775 1.93064E+01 4.27130E+00-1.43769E-02-1.07169E+00-2.37867E-13-1.07184E-12
 -1      1776 1.95317E+01 3.78347E+00-9.30150E-03-1.12079E+00-2.99163E-13-1.01057E-12
 -1      1777 1.92146E+01 4.35612E+00-1.48224E-02-4.67370E-01-3.77940E-14-1.06805E-12
 -1      1778 1.92359E+01 4.34315E+00-1.33402E-02-6.67884E-01-1.01405E-13-1.08091E-12
 -1      1779 1.94367E+01 3.90416E+00-9.20917E-03-7.33979E-01-1.52931E-13-1.04116E-12
 -1      1780 1.91957E+01 4.38186E+00-1.36863E-02-8.37515E-02 8.82865E-14-1.04996E-12
 -1      1781 1.92020E+01 4.37789E+00-1.32355E-02-2.79415E-01 3.31446E-14-1.06377E-12
 -1      1782 1.93876E+01 3.96889E+00-9.14733E-03-3.58678E-01-7.63566E-15-1.03407E-12
 -1      1783 1.92036E+01 4.37651E+00-1.31869E-02 2.98465E-01 2.09604E-13-1.01218E-12
 -1      1784 1.91962E+01 4.38102E+00-1.37695E-02 1.02638E-01 1.52626E-13-1.03441E-12
 -1      1785 1.93732E+01 3.98838E+00-9.12990E-03 1.05567E-02 1.30163E-13-1.01320E-12
 -1      1786 1.92400E+01 4.33911E+00-1.33433E-02 6.87664E-01 3.27410E-13-9.59337E-13
 -1      1787 1.92173E+01 4.35293E+00-1.49310E-02 4.86645E-01 2.74271E-13-9.93584E-13
 -1      1788 1.93903E+01 3.96557E+00-9.17168E-03 3.79993E-01 2.56186E-13-9.70076E-13
 -1      1789 1.93118E+01 4.26539E+00-1.44219E-02 1.08576E+00 4.47127E-13-8.71660E-13
 -1      1790 1.92694E+01 4.29004E+00-1.69813E-02 8.77598E-01 3.90353E-13-9.28806E-13
 -1      1791 1.94419E+01 3.89783E+00-9.17931E-03 7.52556E-01 3.80720E-13-9.07420E-13
 -1      1792 1.94410E+01 4.13781E+00-1.74119E-02 1.51615E+00 5.89149E-13-7.00540E-13
 -1      1793 1.93658E+01 4.18061E+00-2.05014E-02 1.28646E+00 5.08916E-13-7.98332E-13
 -1      1794 1.95397E+01 3.77359E+00-9.22968E-03 1.13672E+00 5.17105E-13-7.84102E-13
 -1      1795 1.96671E+01 3.92092E+00-2.52007E-02 1.98149E+00 7.13539E-13-4.60833E-13
 -1      1796 1.95359E+01 3.99790E+00-2.68906E-02 1.72407E+00 6.40287E-13-6.00041E-13
 -1      1797 1.97104E+01 3.56617E+00-8.69124E-03 1.53679E+00 6.54158E-13-5.95701E-13
 -1      1798 2.00722E+01 3.52239E+00-4.51929E-02 2.47399E+00 8.00734E-13-6.20719E-14
 -1      1799 1.98340E+01 3.68301E+00-3.96979E-02 2.18492E+00 7.39511E-13-3.03799E-13
 -1      1800 2.00035E+01 3.22277E+00-5.27390E-03 1.93640E+00 7.72459E-13-3.34769E-13
 -1      1801 2.09137E+01 2.68150E+00-5.76541E-02 2.85949E+00 7.71455E-13 6.87304E-13
 -1      1802 2.04083E+01 3.09664E+00-5.03995E-02 2.61789E+00 7.79143E-13 2.38511E-13
 -1      1803 2.05130E+01 2.60975E+00 3.18577E-03 2.24648E+00 8.17963E-13 1.12858E-13
 -1      1804 2.17216E+01 1.21295E+00-1.22080E-01 2.33126E+00 6.41057E-13 1.59736E-12
 -1      1805 2.12664E+01 2.26283E+00 1.25580E-04 2.74204E+00 7.05267E-13 9.99964E-13
 -1      1806 2.09298E+01 1.68494E+00-2.29741E-02 2.14201E+00 7.85859E-13 6.81701E-13
 -1      1807 2.09424E+01 7.78670E-01-6.24708E-02 1.52569E+00 6.45956E-13 1.39385E-12
 -1      1808 2.17882E+01 2.45777E+00 9.09186E-02-3.04967E+00-6.43201E-13 6.76875E-13
 -1      1809 2.00908E+01 2.97957E-01-8.92937E-03 6.58539E-01 5.32914E-13 1.05677E-12
 -1      1810 2.06434E+01 4.40424E-01-1.24678E-02 1.03554E+00 5.54279E-13 1.25719E-12
 -1      1811 2.07359E+01 8.45137E-01 2.25780E-03 1.41687E+00 6.64632E-13 8.51477E-13
 -1      1812 2.14994E+01 1.74218E+00 7.95261E-02-2.33907E+00-6.81392E-13 4.33292E-13
 -1      1813 2.05115E+01 5.00863E-01 3.24997E-02-9.23262E-01-5.57859E-13 3.53099E-13
 -1      1814 2.00795E+01 3.52096E-01 7.66059E-03-6.31305E-01-4.93399E-13 2.15679E-13
 -1      1815 1.98850E+01 2.57376E-01 2.74531E-02-3.92873E-01-4.37733E-13 1.89440E-13
 -1      1816 1.96936E+01 1.78205E-01 1.04357E-02-2.54974E-01-3.81513E-13 5.02879E-14
 -1      1817 2.01914E+01 4.83469E-01-5.91815E-03-7.24456E-01-5.58357E-13-5.08486E-14
 -1      1818 1.95717E+01 1.32995E-01 1.66794E-02-1.21202E-01-3.29467E-13 1.15567E-14
 -1      1819 1.94933E+01 9.34832E-02 6.99152E-03-5.02058E-02-2.85055E-13-8.79366E-14
 -1      1820 1.98655E+01 2.44211E-01-5.83316E-03-2.97150E-01-4.30558E-13-1.20220E-13
 -1      1821 1.94289E+01 6.89734E-02 8.72127E-03 2.37790E-02-2.38334E-13-9.90839E-14
 -1      1822 1.94145E+01 4.75148E-02 4.18366E-03 6.03735E-02-1.96174E-13-1.50816E-13
 -1      1823 1.96834E+01 1.25997E-01-4.69352E-03-5.95282E-02-3.06587E-13-2.13673E-13
 -1      1824 1.93893E+01 3.34357E-02 4.29647E-03 9.98986E-02-1.81183E-13-1.48892E-13
 -1      1825 1.94099E+01 2.13549E-02 2.55882E-03 1.17422E-01-1.48606E-13-2.14546E-13
 -1      1826 1.95981E+01 6.23234E-02-3.53526E-03 7.15162E-02-2.20588E-13-2.41959E-13
 -1      1827 1.94097E+01 1.30945E-02 1.94432E-03 1.36708E-01-1.53642E-13-2.27410E-13
 -1      1828 1.94486E+01 6.43064E-03 1.64550E-03 1.43370E-01-1.48544E-13-2.69029E-13
 -1      1829 1.95762E+01 2.64572E-02-2.44437E-03 1.40423E-01-1.81640E-13-2.63780E-13
 -1      1830 1.94637E+01 1.76135E-03 6.80957E-04 1.50896E-01-1.54806E-13-2.55962E-13
 -1      1831 1.95113E+01-1.50394E-03 1.12726E-03 1.51599E-01-1.34034E-13-2.89299E-13
 -1      1832 1.95939E+01 6.38081E-03-1.58885E-03 1.72739E-01-1.78404E-13-2.55616E-13
 -1      1833 1.95355E+01-3.78440E-03 7.21744E-06 1.52770E-01-1.19140E-13-2.75354E-13
 -1      1834 1.95865E+01-4.77620E-03 8.57595E-04 1.50694E-01-6.15248E-14-3.01487E-13
 -1      1835 1.96353E+01-3.87542E-03-1.00185E-03 1.84180E-01-1.17314E-13-2.82399E-13
 -1      1836 1.96158E+01-5.37935E-03-3.19543E-04 1.49162E-01-5.97471E-14-3.68987E-13
 -1      1837 1.96678E+01-4.76572E-03 7.68918E-04 1.46500E-01-8.44905E-14-4.18322E-13
 -1      1838 1.96904E+01-7.57927E-03-6.43886E-04 1.85040E-01-1.46912E-13-3.29144E-13
 -1      1839 1.97005E+01-4.13636E-03-4.27566E-04 1.44851E-01-1.20715E-13-4.06115E-13
 -1      1840 1.97528E+01-2.32537E-03 8.25067E-04 1.43197E-01-1.06929E-13-4.53281E-13
 -1      1841 1.97537E+01-6.65806E-03-4.63140E-04 1.82420E-01-1.15766E-13-3.84799E-13
 -1      1842 1.97881E+01-7.48740E-04-3.92801E-04 1.43349E-01-1.20844E-13-4.24522E-13
 -1      1843 1.98416E+01 2.00992E-03 1.00354E-03 1.43920E-01-8.52980E-14-4.74174E-13
 -1      1844 1.98228E+01-2.29497E-03-4.16064E-04 1.81452E-01-1.21849E-13-3.80513E-13
 -1      1845 1.98800E+01 4.34699E-03-2.64527E-04 1.47360E-01-3.23251E-14-4.89423E-13
 -1      1846 1.99365E+01 7.89894E-03 1.28804E-03 1.51136E-01-9.72383E-15-4.54045E-13
 -1      1847 1.98973E+01 4.77074E-03-4.69774E-04 1.86015E-01-6.83713E-14-3.72260E-13
 -1      1848 1.99791E+01 1.08644E-02-7.71432E-05 1.59067E-01-3.10048E-14-4.46512E-13
 -1      1849 2.00414E+01 1.51007E-02 1.66324E-03 1.66861E-01-4.84085E-14-4.38984E-13
 -1      1850 1.99790E+01 1.40614E-02-5.99529E-04 1.99160E-01-2.62424E-14-2.92465E-13
 -1      1851 2.00899E+01 1.85766E-02 1.43168E-04 1.80265E-01-6.83222E-14-4.72821E-13
 -1      1852 2.01612E+01 2.33825E-02 2.10891E-03 1.92748E-01-3.55183E-14-4.47103E-13
 -1      1853 2.00709E+01 2.52185E-02-7.85613E-04 2.23359E-01-6.99751E-14-3.15469E-13
 -1      1854 2.02177E+01 2.72182E-02 3.73853E-04 2.12380E-01-6.09336E-14-4.72931E-13
 -1      1855 2.03018E+01 3.24087E-02 2.59221E-03 2.30033E-01-5.22749E-14-4.67588E-13
 -1      1856 2.01767E+01 3.78560E-02-1.01064E-03 2.60568E-01-6.33174E-14-3.55198E-13
 -1      1857 2.03689E+01 3.63581E-02 5.92463E-04 2.56328E-01-6.69605E-14-4.74653E-13
 -1      1858 2.04697E+01 4.15878E-02 3.05697E-03 2.79322E-01-1.74508E-14-5.05864E-13
 -1      1859 2.03013E+01 5.13786E-02-1.25732E-03 3.12117E-01-7.93879E-14-3.87586E-13
 -1      1860 2.05497E+01 4.52209E-02 7.74055E-04 3.12177E-01 1.20509E-14-5.65557E-13
 -1      1861 2.06709E+01 4.98570E-02 3.40970E-03 3.40126E-01-6.06099E-14-6.07930E-13
 -1      1862 2.04495E+01 6.47284E-02-1.50681E-03 3.78380E-01-5.51445E-14-3.90014E-13
 -1      1863 2.07663E+01 5.24365E-02 8.90051E-04 3.78529E-01-1.03512E-13-5.97132E-13
 -1      1864 2.09107E+01 5.53832E-02 3.50280E-03 4.10093E-01-5.74193E-14-5.80721E-13
 -1      1865 2.06264E+01 7.60309E-02-1.73791E-03 4.58123E-01-8.28879E-14-4.84704E-13
 -1      1866 2.10235E+01 5.57022E-02 9.09850E-04 4.51537E-01 3.47333E-14-5.09210E-13
 -1      1867 2.11919E+01 5.51836E-02 3.11935E-03 4.83813E-01 1.08133E-13-4.82522E-13
 -1      1868 2.08363E+01 8.21158E-02-1.92715E-03 5.47476E-01 4.24574E-16-3.66209E-13
 -1      1869 2.13233E+01 5.13847E-02 8.06834E-04 5.23468E-01 1.30689E-13-4.91638E-13
 -1      1870 2.15130E+01 4.47375E-02 1.97011E-03 5.51171E-01 8.19151E-14-4.55744E-13
 -1      1871 2.10822E+01 7.79419E-02-2.04876E-03 6.38391E-01 1.18506E-13-2.66786E-13
 -1      1872 2.16630E+01 3.41938E-02 5.68884E-04 5.80831E-01 4.83476E-14-3.38153E-13
 -1      1873 2.18660E+01 1.78359E-02-2.73618E-04 5.95364E-01 9.59019E-14-2.51997E-13
 -1      1874 2.13649E+01 5.60984E-02-2.07099E-03 7.16628E-01 1.26346E-13-2.28472E-13
 -1      1875 2.20325E+01-2.68932E-03 2.08257E-04 6.02404E-01 1.33653E-13-2.29252E-13
 -1      1876 2.22331E+01-3.27353E-02-3.87150E-03 5.91211E-01 1.99766E-13-1.70203E-13
 -1      1877 2.16814E+01 6.87814E-03-1.94050E-03 7.59495E-01 1.54297E-13-5.76225E-14
 -1      1878 2.24109E+01-6.62071E-02-2.46819E-04 5.58213E-01 9.61139E-14-2.97675E-13
 -1      1879 2.25839E+01-1.12548E-01-8.77682E-03 5.05353E-01 1.21513E-14-3.27705E-13
 -1      1880 2.20235E+01-7.99798E-02-1.54001E-03 7.34287E-01 1.11844E-13-1.61521E-13
 -1      1881 2.27625E+01-1.59355E-01-8.06285E-04 4.11837E-01-2.67160E-14-3.69595E-13
 -1      1882 2.28730E+01-2.19359E-01-1.42247E-02 3.01510E-01-7.68209E-14-3.15696E-13
 -1      1883 2.23747E+01-2.10000E-01-6.07294E-04 5.99585E-01 4.32120E-15-3.54459E-13
 -1      1884 2.30334E+01-2.72950E-01-1.61232E-03 1.30284E-01-7.64111E-14-3.37294E-13
 -1      1885 2.30413E+01-3.32735E-01-1.82979E-02-4.44740E-02-9.73926E-14-4.14462E-13
 -1      1886 2.27055E+01-3.73046E-01 1.35698E-03 3.13485E-01-7.88857E-14-3.60679E-13
 -1      1887 2.31515E+01-3.74135E-01-3.13466E-03-2.93421E-01-4.82244E-14-2.72548E-13
 -1      1888 2.30236E+01-4.03591E-01-1.80080E-02-5.16157E-01 7.45515E-14-2.20823E-13
 -1      1889 2.29674E+01-5.27266E-01 4.89576E-03-1.45345E-01-1.55449E-14-1.11619E-13
 -1      1890 2.30401E+01-3.99724E-01-5.87413E-03-8.04685E-01 8.08173E-14-2.41495E-13
 -1      1891 2.27697E+01-3.57315E-01-1.04618E-02-1.02041E+00 1.63600E-13-1.84783E-13
 -1      1892 2.30897E+01-5.88516E-01 9.54782E-03-7.40073E-01 7.35991E-14-1.07513E-14
 -1      1893 2.26533E+01-2.72764E-01-8.93907E-03-1.25533E+00 1.75499E-13-2.87473E-13
 -1      1894 2.22823E+01-1.32008E-01 4.06451E-03-1.37043E+00 7.58256E-14-2.57995E-13
 -1      1895 2.29941E+01-4.48408E-01 1.28278E-02-1.33200E+00 4.85809E-14 5.75234E-15
 -1      1896 2.20402E+01 3.69853E-02-9.10999E-03-1.41929E+00-2.39167E-14-3.80423E-13
 -1      1897 2.16647E+01 2.43909E-01 1.83312E-02-1.33917E+00-1.13608E-13-3.59912E-13
 -1      1898 2.26470E+01-4.94937E-02 9.78042E-03-1.67067E+00 4.11218E-14-2.01545E-13
 -1      1899 2.13937E+01 4.33386E-01-3.02520E-03-1.10795E+00-1.78727E-13-4.04247E-13
 -1      1900 2.11394E+01 6.04540E-01 2.24180E-02-8.12243E-01-2.40344E-13-3.54644E-13
 -1      1901 2.21439E+01 5.07402E-01-2.92182E-03-1.48793E+00-1.57044E-13-3.39792E-13
 -1      1902 2.09943E+01 7.05822E-01 9.58020E-03-3.45814E-01-1.96064E-13-2.84944E-13
 -1      1903 2.09563E+01 7.31074E-01 1.33324E-02 6.41281E-02-3.66096E-14-3.17064E-13
 -1      1904 2.17315E+01 9.51768E-01-1.90454E-02-7.10803E-01-1.18348E-13-1.87035E-13
 -1      1905 2.10362E+01 6.72601E-01 2.10522E-02 5.65693E-01 1.98661E-14-3.87779E-13
 -1      1906 2.12289E+01 5.34381E-01 1.42209E-04 9.09637E-01 5.73742E-14-3.62465E-13
 -1      1907 2.16662E+01 1.01722E+00-2.13912E-02 3.86342E-01-5.42170E-14-1.95513E-13
 -1      1908 2.14748E+01 3.59009E-01 2.11035E-02 1.22068E+00-7.07394E-14-3.49269E-13
 -1      1909 2.18216E+01 1.48995E-01-8.20116E-03 1.36549E+00-1.81051E-13-3.53311E-13
 -1      1910 2.19895E+01 6.60184E-01-7.60516E-03 1.29832E+00-7.69211E-14-2.73436E-13
 -1      1911 2.20815E+01-3.67677E-02 8.67061E-03 1.39069E+00-1.82237E-13-3.81217E-13
 -1      1912 2.24579E+01-2.04194E-01-9.85121E-03 1.32207E+00-5.63299E-14-4.35766E-13
 -1      1913 2.24871E+01 1.01357E-01 7.08066E-03 1.65748E+00-1.78723E-13-1.68038E-13
 -1      1914 2.26086E+01-3.15294E-01-6.84968E-03 1.12446E+00-1.17611E-13-5.66743E-13
 -1      1915 2.29059E+01-3.85616E-01-7.01943E-03 9.24916E-01-6.59204E-14-6.84975E-13
 -1      1916 2.28852E+01-3.64071E-01 1.30139E-02 1.44079E+00-2.18218E-13-1.58374E-13
 -1      1917 2.29179E+01-4.10270E-01-1.67654E-02 6.36653E-01 1.39208E-13-6.96937E-13
 -1      1918 2.30770E+01-3.97759E-01-4.24570E-03 4.05538E-01 1.30410E-13-5.30832E-13
 -1      1919 2.30410E+01-5.79528E-01 1.08917E-02 8.86398E-01 9.47727E-14-3.91458E-13
 -1      1920 2.29807E+01-3.65736E-01-1.89881E-02 1.35282E-01 5.42361E-14-4.95894E-13
 -1      1921 2.29960E+01-3.11197E-01-2.38923E-03-5.96052E-02 1.20619E-13-3.63670E-13
 -1      1922 2.29585E+01-5.66918E-01 6.07923E-03 2.65121E-01 1.74302E-13-4.33094E-13
 -1      1923 2.28367E+01-2.58635E-01-1.57449E-02-2.58531E-01 2.80036E-14-2.97896E-13
 -1      1924 2.27362E+01-1.96797E-01-1.36890E-03-3.90802E-01-8.47057E-14-2.79235E-13
 -1      1925 2.27107E+01-4.29727E-01 2.23540E-03-2.48966E-01 1.00328E-13-2.52622E-13
 -1      1926 2.25496E+01-1.46828E-01-1.03763E-02-5.09510E-01-1.69392E-13-3.89947E-13
 -1      1927 2.23728E+01-9.57764E-02-6.99383E-04-5.80799E-01-6.65379E-14-3.86412E-13
 -1      1928 2.23733E+01-2.63430E-01-8.07031E-05-5.93428E-01-1.71554E-13-5.22922E-14
 -1      1929 2.21815E+01-5.78119E-02-5.13512E-03-6.32822E-01-2.65439E-14-3.82401E-13
 -1      1930 2.19660E+01-2.25000E-02-9.54300E-05-6.57039E-01 1.42831E-13-3.73282E-13
 -1      1931 2.20012E+01-1.21110E-01-1.27770E-03-7.76473E-01-5.76416E-14-1.70407E-13
 -1      1932 2.17831E+01 2.63693E-03-1.04999E-03-6.62030E-01 2.71000E-13-4.35442E-13
 -1      1933 2.15581E+01 2.41792E-02 5.34633E-04-6.54788E-01 2.02411E-13-3.00934E-13
 -1      1934 2.16296E+01-1.96125E-02-1.86085E-03-8.35470E-01 1.61001E-13-1.39896E-13
 -1      1935 2.13906E+01 3.94070E-02 1.67681E-03-6.30113E-01 2.02784E-13-2.10291E-13
 -1      1936 2.11763E+01 5.15513E-02 1.20175E-03-6.03779E-01 4.16410E-13-4.32608E-15
 -1      1937 2.12792E+01 4.44978E-02-2.14151E-03-8.10988E-01 3.11480E-13-9.79852E-14
 -1      1938 2.10280E+01 6.06813E-02 3.22155E-03-5.61611E-01 3.64945E-13-3.43904E-14
 -1      1939 2.08373E+01 6.79099E-02 1.88893E-03-5.23934E-01 3.45872E-13-1.08810E-13
 -1      1940 2.09622E+01 8.23282E-02-2.26826E-03-7.35179E-01 3.97907E-13-8.14267E-14
 -1      1941 2.07099E+01 7.43966E-02 3.83332E-03-4.71170E-01 1.92889E-13-2.57278E-13
 -1      1942 2.05508E+01 8.03550E-02 2.51130E-03-4.25654E-01 7.98099E-14-3.18036E-13
 -1      1943 2.06853E+01 1.05880E-01-2.28615E-03-6.28850E-01 1.82652E-13-2.71939E-13
 -1      1944 2.04440E+01 8.66225E-02 3.67001E-03-3.65217E-01 4.72840E-14-2.99725E-13
 -1      1945 2.03216E+01 9.30792E-02 2.90528E-03-3.12442E-01 2.12250E-14-2.88185E-13
 -1      1946 2.04514E+01 1.24927E-01-2.06835E-03-5.02791E-01-2.85888E-14-2.69464E-13
 -1      1947 2.02440E+01 9.63021E-02 3.16295E-03-2.49005E-01 1.61324E-13-3.22747E-13
 -1      1948 2.01582E+01 1.01119E-01 3.38360E-03-1.91921E-01 1.22772E-13-2.72164E-13
 -1      1949 2.01345E+01 1.40331E-01-1.78639E-03-2.26824E-01 7.97463E-14-3.32982E-13
 -1      1950 2.02684E+01 1.39195E-01-2.62648E-03-3.65588E-01 4.50152E-14-2.30551E-13
 -1      1951 1.96073E+01 1.42093E-01 7.88057E-03 2.60832E-01 3.99110E-13 7.84248E-13
 -1      1952 1.98799E+01 2.04130E-01 1.64412E-02 4.33831E-01 4.36231E-13 9.50129E-13
 -1      1953 2.00930E+01 3.50604E-01-1.53054E-03 6.56671E-01 5.42580E-13 6.39938E-13
 -1      1954 1.93644E+01 7.20902E-02 6.95796E-03 5.76091E-02 2.91565E-13 5.77895E-13
 -1      1955 1.94798E+01 1.01918E-01 1.42151E-02 1.46194E-01 3.28980E-13 7.06854E-13
 -1      1956 1.96999E+01 1.65341E-01-1.94946E-03 2.57700E-01 4.13374E-13 4.69009E-13
 -1      1957 1.92739E+01 3.65498E-02 4.45527E-03-4.84258E-02 2.08666E-13 4.25896E-13
 -1      1958 1.93042E+01 5.22658E-02 8.37104E-03-1.00842E-03 2.23839E-13 5.07324E-13
 -1      1959 1.94997E+01 8.10632E-02-2.84024E-03 4.51770E-02 3.04278E-13 3.05223E-13
 -1      1960 1.92731E+01 1.69521E-02 2.90806E-03-1.02017E-01 1.10273E-13 3.34869E-13
 -1      1961 1.92576E+01 2.56725E-02 4.40734E-03-7.69561E-02 1.56110E-13 4.10508E-13
 -1      1962 1.94214E+01 3.82485E-02-2.87152E-03-6.78005E-02 1.96349E-13 2.23699E-13
 -1      1963 1.93228E+01 5.81753E-03 2.06476E-03-1.25973E-01 8.98968E-14 2.61627E-13
 -1      1964 1.92833E+01 1.06508E-02 2.23137E-03-1.13765E-01 9.03181E-14 3.07634E-13
 -1      1965 1.94168E+01 1.49940E-02-2.36207E-03-1.25228E-01 1.25794E-13 1.41483E-13
 -1      1966 1.93991E+01-2.67304E-04 1.56760E-03-1.33139E-01 1.13877E-13 1.90319E-13
 -1      1967 1.93482E+01 2.20399E-03 1.07319E-03-1.28368E-01 1.03332E-13 2.46556E-13
 -1      1968 1.94551E+01 2.23695E-03-1.77005E-03-1.50799E-01 1.22864E-13 1.02883E-13
 -1      1969 1.94879E+01-3.07248E-03 1.24918E-03-1.31467E-01 1.30112E-13 9.96495E-14
 -1      1970 1.94328E+01-2.11692E-03 4.54811E-04-1.30730E-01 1.20109E-13 1.53490E-13
 -1      1971 1.95172E+01-4.21630E-03-1.28543E-03-1.58437E-01 1.57846E-13 4.61114E-14
 -1      1972 1.95817E+01-3.60347E-03 1.05026E-03-1.26247E-01 1.15122E-13 7.21257E-14
 -1      1973 1.95258E+01-3.65911E-03 1.43235E-04-1.27238E-01 1.24360E-13 1.21616E-13
 -1      1974 1.95917E+01-6.55699E-03-9.43660E-04-1.57000E-01 1.61838E-13 3.75651E-14
 -1      1975 1.96772E+01-2.46179E-03 9.49702E-04-1.21218E-01 1.57833E-13-9.91488E-15
 -1      1976 1.96219E+01-3.21412E-03 2.67920E-05-1.22272E-01 1.29475E-13 3.61947E-14
 -1      1977 1.96723E+01-6.02830E-03-7.29020E-04-1.52504E-01 1.60819E-13-1.66598E-14
 -1      1978 1.97743E+01-7.95838E-06 9.38838E-04-1.19178E-01 1.00573E-13-6.17391E-14
 -1      1979 1.97192E+01-1.25880E-03 4.57514E-05-1.19015E-01 1.34087E-13-1.62402E-14
 -1      1980 1.97567E+01-3.36492E-03-6.19030E-04-1.49280E-01 1.52718E-13-1.07812E-13
 -1      1981 1.98755E+01 3.55331E-03 1.01390E-03-1.22365E-01 1.30457E-13-1.73083E-13
 -1      1982 1.98189E+01 1.92711E-03 1.64399E-04-1.19932E-01 1.06358E-13-1.18634E-13
 -1      1983 1.98450E+01 1.00354E-03-5.95679E-04-1.50633E-01 1.77904E-13-2.01492E-13
 -1      1984 1.99849E+01 8.11832E-03 1.17327E-03-1.32698E-01 8.24176E-14-1.81574E-13
 -1      1985 1.99243E+01 6.19271E-03 3.59608E-04-1.27062E-01 8.98855E-14-1.51781E-13
 -1      1986 1.99398E+01 6.84226E-03-6.46441E-04-1.59256E-01 1.12466E-13-2.32108E-13
 -1      1987 2.01086E+01 1.36381E-02 1.41504E-03-1.51926E-01 4.44064E-14-1.61408E-13
 -1      1988 2.00404E+01 1.14654E-02 6.14818E-04-1.42208E-01 4.99438E-14-1.48567E-13
 -1      1989 2.00451E+01 1.40354E-02-7.62984E-04-1.77486E-01 5.56725E-14-2.22932E-13
 -1      1990 2.02538E+01 2.00653E-02 1.73316E-03-1.81678E-01-4.03039E-14-2.17433E-13
 -1      1991 2.01736E+01 1.77006E-02 9.15414E-04-1.67027E-01 4.56726E-14-1.75328E-13
 -1      1992 2.01661E+01 2.25146E-02-9.39894E-04-2.07437E-01 6.03121E-14-2.34672E-13
 -1      1993 2.04288E+01 2.72765E-02 2.11098E-03-2.23405E-01 5.82596E-14-2.77034E-13
 -1      1994 2.03319E+01 2.48146E-02 1.24386E-03-2.03027E-01-3.17898E-14-2.76390E-13
 -1      1995 2.03096E+01 3.21678E-02-1.17348E-03-2.51012E-01 4.90571E-14-2.68415E-13
 -1      1996 2.06429E+01 3.49510E-02 2.51109E-03-2.78152E-01 8.28476E-14-2.42989E-13
 -1      1997 2.05239E+01 3.25821E-02 1.57357E-03-2.51413E-01 8.11903E-14-1.92911E-13
 -1      1998 2.04829E+01 4.27024E-02-1.46038E-03-3.09737E-01 7.01830E-14-2.63711E-13
 -1      1999 2.09054E+01 4.23744E-02 2.85967E-03-3.46056E-01-3.75524E-14-2.45991E-13
 -1      2000 2.07589E+01 4.04728E-02 1.86101E-03-3.12722E-01 5.66821E-16-2.41755E-13
 -1      2001 2.06937E+01 5.34274E-02-1.79617E-03-3.84345E-01 3.95255E-14-2.37034E-13
 -1      2002 2.12245E+01 4.81294E-02 3.02569E-03-4.25436E-01-1.30744E-14-2.36751E-13
 -1      2003 2.10457E+01 4.73888E-02 2.03626E-03-3.86116E-01-4.86694E-14-1.64831E-13
 -1      2004 2.09497E+01 6.29042E-02-2.17327E-03-4.73968E-01-5.76093E-14-2.91159E-13
 -1      2005 2.16055E+01 4.96416E-02 2.80032E-03-5.11254E-01 4.77765E-14-2.64204E-13
 -1      2006 2.13919E+01 5.12669E-02 1.99455E-03-4.68170E-01-4.47992E-16-2.31155E-13
 -1      2007 2.12571E+01 6.84177E-02-2.57561E-03-5.74745E-01 1.62574E-14-2.56365E-13
 -1      2008 2.20476E+01 4.26153E-02 1.89308E-03-5.92748E-01 1.79342E-13-2.72531E-13
 -1      2009 2.18005E+01 4.85386E-02 1.59559E-03-5.50939E-01 1.35758E-13-2.17594E-13
 -1      2010 2.16193E+01 6.52561E-02-2.96593E-03-6.77619E-01 1.35660E-13-2.08403E-13
 -1      2011 2.25395E+01 2.05896E-02-1.67607E-05-6.50225E-01-6.42069E-14-2.77741E-13
 -1      2012 2.22676E+01 3.35707E-02 6.84014E-04-6.19224E-01 7.92769E-14-2.49462E-13
 -1      2013 2.20343E+01 4.59591E-02-3.25730E-03-7.65192E-01 5.77366E-14-1.97663E-13
 -1      2014 2.30535E+01-2.46559E-02-3.10803E-03-6.51713E-01-9.57656E-14-2.63435E-13
 -1      2015 2.27764E+01-1.43864E-03-8.50411E-04-6.47363E-01-9.78800E-14-2.81001E-13
 -1      2016 2.24916E+01 1.51830E-04-3.25602E-03-8.07981E-01-6.00829E-14-2.06981E-13
 -1      2017 2.35387E+01-1.00253E-01-7.06467E-03-5.51956E-01-2.39011E-13-4.06775E-14
 -1      2018 2.32912E+01-6.49043E-02-2.96769E-03-5.97093E-01-1.76242E-13-1.92526E-13
 -1      2019 2.29674E+01-8.34527E-02-2.57204E-03-7.61678E-01-1.91924E-13-1.58607E-13
 -1      2020 2.39173E+01-2.04638E-01-1.06509E-02-2.99564E-01-1.15541E-13-9.23437E-14
 -1      2021 2.37504E+01-1.60465E-01-5.34155E-03-4.20527E-01-1.15628E-13-5.69141E-14
 -1      2022 2.34194E+01-2.10119E-01-5.62687E-04-5.69719E-01-1.61363E-13-1.86849E-13
 -1      2023 2.40880E+01-3.13718E-01-1.14537E-02 1.39169E-01-1.32359E-14-7.31216E-14
 -1      2024 2.40626E+01-2.75861E-01-7.42033E-03-7.54256E-02-1.30786E-13-9.60104E-14
 -1      2025 2.37815E+01-3.64632E-01 3.41616E-03-1.79237E-01-8.07011E-14-9.79648E-14
 -1      2026 2.39440E+01-3.65680E-01-7.05025E-03 7.30226E-01 3.68169E-14 1.44881E-13
 -1      2027 2.41134E+01-3.65510E-01-8.27767E-03 4.38757E-01 9.35016E-16 1.25309E-13
 -1      2028 2.39624E+01-4.89260E-01 9.59629E-03 4.20190E-01-3.32009E-14 1.03488E-13
 -1      2029 2.34212E+01-2.73568E-01 8.34480E-04 1.30918E+00 7.67832E-14 3.54692E-13
 -1      2030 2.37971E+01-3.46565E-01-8.23013E-03 1.02334E+00 6.10813E-14 3.07547E-13
 -1      2031 2.38578E+01-4.74785E-01 1.57825E-02 1.12958E+00-5.09402E-15 3.97286E-13
 -1      2032 2.25812E+01 9.29453E-03 6.03107E-03 1.58108E+00-5.52139E-14 3.85258E-13
 -1      2033 2.31000E+01-1.41169E-01-6.19567E-03 1.44637E+00 6.65657E-15 3.11095E-13
 -1      2034 2.34098E+01-2.22251E-01 1.39631E-02 1.68850E+00 4.89487E-14 5.60205E-13
 -1      2035 2.16868E+01 3.93436E-01 7.95859E-04 1.25984E+00 2.97522E-14 2.53275E-13
 -1      2036 2.21914E+01 2.30074E-01-1.64122E-03 1.41095E+00-7.23900E-15 2.87499E-13
 -1      2037 2.27106E+01 2.57191E-01 1.43584E-03 1.73508E+00 3.25694E-14 4.45068E-13
 -1      2038 2.11582E+01 6.40797E-01-1.17426E-02 3.45460E-01 1.35076E-13-5.19396E-14
 -1      2039 2.14446E+01 5.78361E-01 6.87706E-03 7.70491E-01 6.18498E-14 1.18320E-13
 -1      2040 2.20702E+01 7.38374E-01-1.56735E-02 1.04437E+00 1.61239E-13 9.82903E-14
 -1      2041 2.13044E+01 5.62755E-01-2.12206E-02-7.42904E-01 1.24624E-13-1.62549E-13
 -1      2042 2.12311E+01 6.53274E-01 1.06396E-02-2.48808E-01 1.50761E-13-1.24721E-13
 -1      2043 2.18664E+01 9.11419E-01-1.99810E-02-1.64377E-01 2.08368E-13-2.18153E-13
 -1      2044 2.20600E+01 2.20865E-01-1.14927E-02-1.45350E+00 1.60635E-14-1.68011E-13
 -1      2045 2.16542E+01 4.02226E-01 1.02096E-02-1.13832E+00-5.06539E-16-1.63059E-13
 -1      2046 2.22272E+01 6.35323E-01-1.14624E-02-1.28687E+00 4.09273E-14-2.79174E-13
 -1      2047 2.30120E+01-1.36552E-01 4.08769E-03-1.51803E+00 3.29215E-13-3.80918E-13
 -1      2048 2.24601E+01 1.31753E-02 2.92660E-03-1.48449E+00 1.60924E-13-2.35222E-13
 -1      2049 2.29154E+01 1.18325E-01 4.64067E-03-1.77459E+00 2.14062E-13-3.10942E-13
 -1      2050 2.37528E+01-3.33286E-01 1.31739E-02-1.08040E+00 1.99217E-13-6.62283E-13
 -1      2051 2.32697E+01-2.75057E-01-6.70333E-03-1.26042E+00 4.09492E-13-4.75998E-13
 -1      2052 2.35410E+01-3.23371E-01 8.38092E-03-1.55225E+00 4.50289E-13-2.97852E-13
 -1      2053 2.40861E+01-3.48998E-01 1.28571E-02-4.60469E-01-3.08248E-13-5.53334E-13
 -1      2054 2.38052E+01-3.69588E-01-1.28573E-02-7.17104E-01-1.65753E-13-7.20702E-13
 -1      2055 2.38642E+01-5.17120E-01 2.04091E-03-9.10477E-01-9.39353E-15-4.41060E-13
 -1      2056 2.40292E+01-2.63595E-01 8.01225E-03 8.70810E-02-9.42042E-14-1.61197E-13
 -1      2057 2.39747E+01-3.18348E-01-1.35477E-02-1.41548E-01-1.84833E-13-3.23692E-13
 -1      2058 2.38538E+01-4.80416E-01-2.71958E-03-2.06263E-01-3.23913E-13-4.54193E-13
 -1      2059 2.36925E+01-1.55318E-01 2.80038E-03 4.57191E-01-1.49242E-13 3.14696E-14
 -1      2060 2.38198E+01-2.10447E-01-1.07496E-02 3.00285E-01-1.80527E-13-2.55746E-14
 -1      2061 2.35894E+01-3.36165E-01-3.98214E-03 3.46622E-01-1.89246E-13-5.64644E-14
 -1      2062 2.31971E+01-6.55480E-02-7.34043E-04 6.49836E-01-6.90953E-14 1.23653E-13
 -1      2063 2.34391E+01-1.06438E-01-6.79384E-03 5.65500E-01 1.11500E-13 1.07163E-13
 -1      2064 2.31704E+01-1.81749E-01-3.25034E-03 6.87060E-01-4.49909E-14 6.03350E-14
 -1      2065 2.26393E+01-5.54556E-03-2.33334E-03 7.09466E-01 3.79041E-14-2.93407E-13
 -1      2066 2.29351E+01-3.03991E-02-3.06753E-03 6.80126E-01 1.71846E-14-2.06623E-14
 -1      2067 2.26800E+01-6.25582E-02-1.94953E-03 8.41448E-01 9.49139E-14 1.33181E-13
 -1      2068 2.20843E+01 2.85746E-02-2.59753E-03 6.85807E-01-4.22083E-14-4.82739E-14
 -1      2069 2.23894E+01 1.61220E-02-1.95030E-04 6.91414E-01-6.15081E-14-1.90113E-13
 -1      2070 2.21768E+01 1.31411E-02-9.03096E-04 8.65271E-01-8.27722E-14 3.43666E-14
 -1      2071 2.15709E+01 4.53013E-02-2.14135E-03 6.17231E-01 4.02647E-14-9.30397E-14
 -1      2072 2.18577E+01 4.05693E-02 1.71040E-03 6.42190E-01 4.34975E-14 2.98845E-14
 -1      2073 2.16986E+01 5.41765E-02-3.36842E-04 8.10733E-01-1.82840E-14 1.59677E-13
 -1      2074 2.11199E+01 5.27730E-02-1.37083E-03 5.27501E-01 2.26766E-13-1.86401E-13
 -1      2075 2.13732E+01 5.18075E-02 2.81797E-03 5.62179E-01 2.28627E-13-3.05457E-14
 -1      2076 2.12670E+01 7.34044E-02-1.64137E-04 7.15140E-01 1.72603E-13 6.11083E-14
 -1      2077 2.07415E+01 5.72636E-02-5.74287E-04 4.27842E-01 2.99291E-13-2.75458E-13
 -1      2078 2.09534E+01 5.72594E-02 3.34511E-03 4.67903E-01 1.95577E-13-2.77426E-13
 -1      2079 2.08936E+01 8.21838E-02-2.48997E-04 6.00091E-01 2.70834E-13-6.97671E-14
 -1      2080 2.04405E+01 6.29156E-02-4.49980E-06 3.20836E-01 4.60027E-14-4.08629E-13
 -1      2081 2.06070E+01 6.20743E-02 3.37283E-03 3.65708E-01 1.78147E-13-3.17349E-13
 -1      2082 2.05833E+01 8.85028E-02-6.04154E-04 4.74724E-01 2.40597E-13-1.42243E-13
 -1      2083 2.02200E+01 7.17385E-02 1.15164E-03 2.04973E-01-9.69021E-14-4.39246E-13
 -1      2084 2.03368E+01 6.87341E-02 2.76293E-03 2.55908E-01 1.05350E-14-3.85311E-13
 -1      2085 2.03373E+01 9.75442E-02-9.14277E-04 3.40927E-01-1.67533E-14-6.95791E-14
 -1      2086 2.00961E+01 7.73229E-02 2.41769E-03 1.13347E-01-1.04220E-13-1.38218E-13
 -1      2087 2.01697E+01 7.80893E-02 2.05100E-03 1.66929E-01-1.13688E-13-3.18751E-13
 -1      2088 2.01796E+01 1.09099E-01-1.11717E-03 2.29174E-01-1.08557E-13 1.02526E-13
 -1      2089 2.00897E+01 1.15372E-01-1.11062E-04 1.44418E-01-1.68718E-13 3.76164E-13
 -1      2090 1.99997E+01 6.71723E-01-1.48277E-03 3.67554E-01-2.36127E-13-7.60609E-14
 -1      2091 2.00233E+01 5.54408E-01 1.84195E-03 3.60888E-01-9.73628E-14 4.95246E-14
 -1      2092 2.00463E+01 4.50299E-01-3.66566E-04 3.38788E-01-3.52906E-14 2.28551E-13
 -1      2093 2.00689E+01 3.43362E-01 2.52628E-03 3.04838E-01-1.45381E-13 3.50607E-13
 -1      2094 2.00522E+01 4.93780E-01-5.00520E-05 4.46006E-01-2.78761E-13 4.91749E-14
 -1      2095 2.00772E+01 2.67737E-01 4.74215E-04 2.56729E-01-1.92714E-13 3.83059E-13
 -1      2096 2.00913E+01 1.82090E-01 2.31974E-03 2.03995E-01-1.86019E-13 3.78394E-13
 -1      2097 2.01306E+01 1.81285E-01 1.60180E-03 2.49947E-01-1.64267E-13 4.09056E-13
 -1      2098 2.01011E+01 3.18829E-01-8.47650E-04 3.65718E-01-2.94055E-13 4.17720E-13
 -1      2099 1.99588E+01 8.80986E-01-2.65735E-03 3.41056E-01-3.73425E-13-8.97965E-13
 -1      2100 1.99791E+01 7.70576E-01 1.51118E-04 3.58499E-01-3.08307E-13-3.94851E-13
 -1      2101 1.99853E+01 6.95327E-01 1.00808E-03 4.58973E-01-4.46654E-13-4.23636E-13
 -1      2102 1.99260E+01 1.05916E+00-3.62853E-03 2.65785E-01-1.86675E-13-2.93458E-13
 -1      2103 1.99416E+01 9.67660E-01-1.50540E-03 3.03656E-01-1.96413E-13-5.82143E-13
 -1      2104 1.99271E+01 8.80872E-01 2.19631E-03 4.06266E-01-7.62402E-14-5.94496E-13
 -1      2105 1.99050E+01 1.17955E+00-4.14063E-03 1.54603E-01-2.03307E-13 1.68958E-13
 -1      2106 1.99142E+01 1.12138E+00-2.94288E-03 2.06412E-01-1.78733E-13 3.08011E-14
 -1      2107 1.98826E+01 1.03009E+00 3.22134E-03 2.97074E-01-2.33919E-14-1.45071E-13
 -1      2108 1.98974E+01 1.22711E+00-4.11259E-03 2.38770E-02-2.21364E-13 3.97575E-13
 -1      2109 1.98996E+01 1.20989E+00-3.91729E-03 8.21121E-02-2.29231E-13 3.44342E-13
 -1      2110 1.98562E+01 1.12305E+00 3.84328E-03 1.48609E-01-7.15737E-14 2.74444E-13
 -1      2111 1.99035E+01 1.19646E+00-3.55313E-03-1.08472E-01-1.14605E-13 8.42178E-14
 -1      2112 1.98987E+01 1.22212E+00-4.31749E-03-5.17295E-02-3.00173E-13 5.50280E-13
 -1      2113 1.98499E+01 1.14855E+00 3.96780E-03-1.80443E-02-4.84118E-13 4.25288E-13
 -1      2114 1.99222E+01 1.09249E+00-2.55641E-03-2.24968E-01-9.58736E-14-1.77636E-14
 -1      2115 1.99112E+01 1.15726E+00-4.09796E-03-1.77211E-01-1.17877E-13-6.08873E-14
 -1      2116 1.98634E+01 1.10418E+00 3.57739E-03-1.80407E-01-2.64573E-13 1.07908E-13
 -1      2117 1.99506E+01 9.32751E-01-1.17381E-03-3.09343E-01 2.42187E-13 1.42963E-15
 -1      2118 1.99348E+01 1.02578E+00-3.38131E-03-2.77206E-01 9.47359E-14-1.35603E-13
 -1      2119 1.98947E+01 9.97656E-01 2.83080E-03-3.16399E-01-1.60891E-14 1.13966E-13
 -1      2120 1.99871E+01 7.32674E-01 3.86312E-04-3.52992E-01 3.25895E-13 4.48520E-13
 -1      2121 1.99675E+01 8.44560E-01-2.29997E-03-3.40120E-01 2.96194E-13 5.04020E-13
 -1      2122 1.99398E+01 8.42406E-01 1.71127E-03-4.09877E-01 3.67760E-13 2.28671E-13
 -1      2123 2.00279E+01 5.19909E-01 1.85255E-03-3.46661E-01 2.40367E-13-2.85394E-13
 -1      2124 2.00064E+01 6.34168E-01-1.09092E-03-3.56606E-01 3.06113E-13 2.35730E-14
 -1      2125 1.99956E+01 6.55626E-01 5.24917E-04-4.48891E-01 2.91620E-13 1.62213E-13
 -1      2126 2.00681E+01 3.14922E-01 1.07963E-03-2.88851E-01 7.60955E-14-1.87123E-13
 -1      2127 2.00472E+01 4.21047E-01-2.07492E-04-3.21707E-01 1.32859E-13-4.55218E-13
 -1      2128 2.00563E+01 4.60028E-01-3.01408E-04-4.25698E-01 1.19464E-13-4.23982E-13
 -1      2129 1.13963E+01-5.13721E+00-1.17680E-01 6.56928E+00 3.26406E-13 5.74332E-13
 -1      2130 7.56622E+00-6.41928E+00-3.13235E-01 5.47693E+00 2.14773E-13 5.11952E-13
 -1      2131 4.01351E-01-6.59244E+00-3.14054E-01 7.19118E-01-2.24418E-13 7.21201E-13
 -1      2132 3.61812E-01-7.18410E+00-4.08483E-01-9.01401E-01-3.90826E-13 8.39051E-13
 -1      2133 4.28966E+00-5.70334E+00-1.62075E-01 4.57232E+00 3.02536E-14 5.76650E-13
 -1      2134 1.99917E+00-6.54064E+00-3.12872E-01 2.77715E+00-2.16133E-13 6.50147E-13
 -1      2135 2.02496E+01-3.10214E+00 4.67222E-02 6.71829E+00 4.66960E-13 4.39371E-13
 -1      2136 1.57968E+01-5.04465E+00-2.47847E-01 6.14499E+00 3.14693E-13 3.83887E-13
 -1      2137 2.82433E+01-1.37342E-01 2.00353E-01 5.85332E+00 5.38236E-13 3.14970E-13
 -1      2138 2.33029E+01-2.03238E+00-1.63965E-01 5.68540E+00 6.29496E-13 3.29792E-13
 -1      2139 1.95244E+01 4.01602E+00-2.56536E-02-1.70269E+00-4.41855E-13-9.44880E-13
 -1      2140 1.96510E+01 3.94227E+00-2.43563E-02-1.95793E+00-5.24889E-13-8.49282E-13
 -1      2141 1.99721E+01 3.25296E+00-8.05459E-03-1.91100E+00-5.92111E-13-7.32976E-13
 -1      2142 1.96959E+01 3.58321E+00-9.28877E-03-1.51918E+00-4.43952E-13-9.22901E-13
 -1      2143 3.98806E+01 5.74252E+00 4.17723E-01 1.79799E+00 8.24896E-13-2.45415E-13
 -1      2144 3.68696E+01 4.77017E+00 2.03875E-01 2.54974E+00 6.44096E-13-3.39728E-14
 -1      2145 4.03024E+01 7.21155E+00 3.03613E-01-4.02397E-02 9.03722E-13-5.05870E-13
 -1      2146 4.04679E+01 6.77178E+00 3.94297E-01 1.16317E+00 8.59035E-13-2.64233E-13
 -1      2147 3.91646E+01 6.24474E+00 3.19579E-01-1.47955E+00 1.10667E-12-7.55396E-13
 -1      2148 3.97594E+01 6.93908E+00 2.86765E-01-3.18696E-01 9.67948E-13-5.59400E-13
 -1      2149 3.53690E+01 3.75107E+00 1.47784E-01-3.28269E+00 1.36213E-12-8.98837E-13
 -1      2150 3.86604E+01 4.89473E+00 3.62061E-01-2.44122E+00 1.26860E-12-6.80567E-13
 -1      2151 2.91343E+01 2.02262E-01-4.34451E-02-4.35835E+00 1.17947E-12-1.07336E-12
 -1      2152 3.36649E+01 2.09653E+00 3.18258E-01-4.35238E+00 1.37543E-12-9.06164E-13
 -1      2153 2.10016E+01-3.24865E+00-2.04090E-01-5.81972E+00 7.17981E-13-1.68510E-12
 -1      2154 2.58795E+01-1.48455E+00 1.00830E-01-5.93437E+00 8.64531E-13-1.66633E-12
 -1      2155 1.27562E+01-5.52391E+00-3.24149E-01-6.04338E+00 5.06484E-13-1.57306E-12
 -1      2156 1.72274E+01-3.77718E+00-2.15103E-02-6.81236E+00 6.85230E-13-1.80286E-12
 -1      2157 6.09886E+00-6.54783E+00-3.25928E-01-4.97652E+00 2.46192E-13-1.09227E-12
 -1      2158 9.45005E+00-5.35819E+00-1.18346E-01-6.21556E+00 4.77285E-13-1.38402E-12
 -1      2159 1.02386E+00-7.26741E+00-4.23434E-01-2.13056E+00-2.43777E-13-1.07409E-12
 -1      2160 2.66169E+00-6.56287E+00-3.29334E-01-3.62504E+00 2.34701E-13-1.05804E-12
 -1      2161 8.98268E-01-5.77145E+00-2.14949E-01 1.22572E+00-5.69683E-13-1.60172E-12
 -1      2162 5.09222E-01-6.74894E+00-3.78086E-01-5.83677E-01-3.01578E-13-1.23773E-12
 -1      2163 4.35205E+00-6.51418E+00-3.59132E-01 4.60633E+00-1.19382E-12-1.82571E-12
 -1      2164 2.39341E+00-6.47045E+00-3.04453E-01 3.56276E+00-7.04409E-13-1.67799E-12
 -1      2165 1.08082E+01-4.92670E+00-1.71416E-01 6.46079E+00-1.39733E-12-1.53522E-12
 -1      2166 7.02714E+00-6.63157E+00-4.40554E-01 5.17234E+00-1.19293E-12-1.67014E-12
 -1      2167 7.71693E+00-5.53565E+00-1.62660E-01 5.99437E+00-5.16365E-13-1.59656E-12
 -1      2168 1.99613E+01-2.91445E+00 1.37592E-03 6.83155E+00-1.44157E-12-1.00564E-12
 -1      2169 1.52539E+01-4.74725E+00-2.93911E-01 6.17508E+00-1.39921E-12-1.19321E-12
 -1      2170 2.86334E+01-2.37551E-01 1.32924E-01 5.39328E+00-1.46486E-12-5.65825E-13
 -1      2171 2.38280E+01-2.07060E+00-1.54731E-01 5.43182E+00-1.41237E-12-8.03579E-13
 -1      2172 3.50561E+01 3.09900E+00 2.36779E-01 3.03774E+00-1.47612E-12-1.81466E-13
 -1      2173 3.11165E+01 1.43228E+00-2.08153E-02 3.63019E+00-1.58358E-12-4.19886E-13
 -1      2174 3.93279E+01 6.01608E+00 3.48755E-01 1.42885E+00-1.20676E-12-3.62155E-13
 -1      2175 3.65179E+01 5.11513E+00 1.26692E-01 2.22978E+00-1.45770E-12-5.78038E-13
 -1      2176 3.95787E+01 7.28941E+00 2.46856E-01-2.04643E-01-1.11083E-12-6.02608E-14
 -1      2177 3.98938E+01 6.88498E+00 3.30924E-01 9.97156E-01-1.27992E-12-3.59351E-13
 -1      2178 3.55925E+01 7.20570E+00 3.14702E-01-2.11957E-01-1.28542E-12-2.24931E-13
 -1      2179 3.84460E+01 6.18508E+00 2.82761E-01-1.60395E+00-8.39218E-13 3.64542E-13
 -1      2180 3.90652E+01 6.89019E+00 2.39160E-01-4.58501E-01-9.47853E-13 2.73392E-14
 -1      2181 3.50153E+01 3.87913E+00 1.64138E-01-3.65452E+00-7.96849E-13 5.79758E-13
 -1      2182 3.82537E+01 4.90554E+00 3.48472E-01-2.77861E+00-6.51729E-13 4.94882E-13
 -1      2183 2.86822E+01 5.43674E-01-3.08568E-02-4.97740E+00-1.10378E-12 5.48783E-13
 -1      2184 3.31022E+01 2.18738E+00 3.10372E-01-4.73131E+00-9.13006E-13 5.38458E-13
 -1      2185 2.15652E+01-2.96464E+00-1.86758E-01-5.81507E+00-9.68448E-13 6.24001E-13
 -1      2186 2.61403E+01-9.77205E-01 1.63487E-01-6.08255E+00-1.17084E-12 4.41758E-13
 -1      2187 1.38424E+01-5.32120E+00-2.47058E-01-6.28936E+00-4.85390E-13 1.10231E-12
 -1      2188 1.79998E+01-3.58039E+00 7.78459E-05-6.90464E+00-7.30860E-13 1.02296E-12
 -1      2189 6.11247E+00-6.61467E+00-3.64570E-01-5.11729E+00-5.11258E-13 1.32017E-12
 -1      2190 9.65986E+00-5.24056E+00-1.21757E-01-6.45332E+00-4.65072E-13 1.40597E-12
 -1      2191 1.13343E+00-7.45628E+00-4.50955E-01-2.30554E+00-4.08618E-13 8.65530E-13
 -1      2192 2.82535E+00-6.41961E+00-3.09961E-01-3.81636E+00-6.98275E-13 1.23046E-12
 -1      2193 1.94987E+00-4.78001E+00-2.05765E-01-2.02406E+00-2.35811E-13 1.05294E-12
 -1      2194 3.51901E+01 2.92283E+00 2.98471E-01 3.88871E+00 5.40627E-13 1.33227E-13
 -1      2195 3.09956E+01 1.44244E+00 4.80264E-02 4.54621E+00 5.89473E-13 1.95066E-13
 -1      2196 2.39855E+01-4.23690E+00 1.65008E-02 5.17730E+00 2.43972E-13 1.10134E-13
 -1      2197 2.07270E+01 1.10873E+00-2.05691E-02-1.61786E+00-6.46632E-13 2.75814E-13
 -1      2198 3.02167E+01-8.64871E-01 1.64374E-01 3.09362E+00 4.33625E-13-1.70974E-14
 -1      2199 3.46150E+01 3.40496E+00 2.78638E-01 9.83237E-01 6.17867E-13-2.22433E-13
 -1      2200 2.06189E+01 1.32942E+00-1.88351E-02-1.67951E+00-6.82333E-13-5.66092E-14
 -1      2201 7.80001E+00-5.14926E+00-9.54805E-02 5.78109E+00-1.02529E-13 5.76983E-13
 -1      2202 2.62107E+00-4.34299E+00-1.16290E-01 2.20171E+00-4.00929E-13 8.02414E-13
 -1      2203 2.00887E+01 2.54914E-01 1.60673E-03-2.76768E-01 1.40447E-13-1.29890E-13
 -1      2204 1.60958E+01-5.64177E+00-5.14933E-02 6.70455E+00 6.46705E-14 3.82000E-13
 -1      2205 6.14630E+00-5.13097E+00-1.06819E-01-5.41596E+00-3.42837E-13 1.15208E-12
 -1      2206 1.39572E+01-5.53573E+00-3.67629E-02-6.81803E+00 1.36557E-14 9.74301E-13
 -1      2207 2.21757E+01-4.64821E+00 1.51204E-02-5.78960E+00-2.71116E-13 3.39118E-13
 -1      2208 2.85226E+01-1.88323E+00 1.08570E-01-3.57116E+00-7.54952E-13-4.90163E-14
 -1      2209 3.32452E+01 2.18052E+00 2.54767E-01-1.75762E+00-7.52717E-13 2.50022E-13
 -1      2210 3.56358E+01 7.76840E+00 2.39455E-01 1.55711E-01-1.09313E-12-1.47236E-13
 -1      2211 3.38116E+01 3.73107E+00 2.07904E-01 1.87184E-01-1.21758E-12-6.65579E-14
 -1      2212 3.02744E+01-7.61676E-01 1.47621E-01 2.31571E+00-1.12486E-12 2.01450E-13
 -1      2213 1.53111E+01-5.44093E+00-5.75363E-02 6.78637E+00-6.40266E-13-9.56429E-13
 -1      2214 2.62866E+00-4.98725E+00-1.29277E-01 2.65049E+00-3.67845E-13-1.72651E-12
 -1      2215 3.30366E+00-2.81216E+00 8.27191E-02 1.76409E+00-1.98709E-13-1.56974E-12
 -1      2216 4.59993E+00-3.64999E+00-4.37488E-02 4.14943E+00-8.49598E-14-1.64485E-12
 -1      2217 2.08095E+00-4.52937E+00-1.72049E-01-1.75370E+00-2.91211E-13-1.33765E-12
 -1      2218 6.27746E+00-5.12236E+00-1.12096E-01-5.37100E+00-3.99125E-14-1.24822E-12
 -1      2219 1.35050E+01-5.68046E+00-9.65542E-02-6.71960E+00-1.85962E-14-1.37830E-12
 -1      2220 2.13359E+01-4.85456E+00 1.05447E-02-5.89755E+00 1.59373E-13-1.36743E-12
 -1      2221 2.86206E+01-2.07188E+00 1.08349E-01-3.50749E+00 5.85587E-13-6.49591E-13
 -1      2222 3.35790E+01 2.16585E+00 2.39055E-01-1.23944E+00 1.01574E-12-1.07414E-13
 -1      2223 3.56726E+01 5.86481E+00 3.08408E-01 1.52058E-02 1.14009E-12-4.05342E-13
 -1      2224 3.64378E+01 6.90306E+00 3.46345E-01-6.46900E-02 8.99503E-13-2.54019E-13
 -1      2225 3.64175E+01 7.79753E+00 2.98784E-01 1.46613E-01 1.00492E-12-4.01047E-13
 -1      2226 2.39778E+01-3.96116E+00 7.05429E-02 5.25150E+00-7.63833E-13-1.82854E-13
 -1      2227 3.52094E+01 5.86482E+00 3.06140E-01-2.21718E-01-8.11351E-13 2.39309E-13
 -1      2228 2.01399E+01 5.06629E-01 3.74507E-03 6.79802E-01 5.44096E-13 3.24221E-13
 -1      2229 2.04080E+01 7.00074E-01 2.07917E-02 9.71479E-01 6.06534E-13 4.12852E-13
 -1      2230 1.95676E+01 3.51729E+00-1.11507E-02-5.92133E-01-1.14636E-13-9.88690E-13
 -1      2231 1.96024E+01 3.47127E+00-1.05327E-02-7.76673E-01-2.01635E-13-9.91098E-13
 -1      2232 1.96481E+01 3.38298E+00-1.28218E-02-9.41414E-01-2.58263E-13-9.74806E-13
 -1      2233 1.97077E+01 3.30224E+00-1.28905E-02-1.13085E+00-3.41021E-13-9.48490E-13
 -1      2234 1.97934E+01 3.03468E+00 1.97228E-04-7.93016E-01-2.26849E-13-9.17690E-13
 -1      2235 1.95215E+01 3.60006E+00-9.64067E-03 9.95243E-02 1.64823E-13-9.49406E-13
 -1      2236 1.95208E+01 3.60089E+00-9.64926E-03-8.01473E-02 9.40933E-14-9.76877E-13
 -1      2237 1.95471E+01 3.56051E+00-9.73867E-03 4.45993E-01 2.96591E-13-9.08204E-13
 -1      2238 1.95300E+01 3.58316E+00-1.01616E-02 2.64963E-01 2.17367E-13-9.26400E-13
 -1      2239 1.96878E+01 3.22327E+00-8.75367E-04 1.69725E-01 1.83445E-13-8.80036E-13
 -1      2240 1.96076E+01 3.46369E+00-1.06201E-02 7.90407E-01 4.18579E-13-8.46032E-13
 -1      2241 1.95721E+01 3.51083E+00-1.12303E-02 6.08764E-01 3.47587E-13-8.87376E-13
 -1      2242 1.97238E+01 3.15953E+00-4.78809E-04 4.88519E-01 3.17270E-13-8.41043E-13
 -1      2243 1.97162E+01 3.28956E+00-1.29561E-02 1.14424E+00 5.65670E-13-7.07405E-13
 -1      2244 1.96547E+01 3.37306E+00-1.28878E-02 9.54756E-01 4.78560E-13-7.95822E-13
 -1      2245 1.97993E+01 3.02547E+00 2.87975E-04 8.04615E-01 4.36245E-13-7.58582E-13
 -1      2246 1.98925E+01 3.00363E+00-1.81703E-02 1.49170E+00 6.94124E-13-5.14429E-13
 -1      2247 1.97945E+01 3.14507E+00-1.51843E-02 1.30113E+00 6.13997E-13-6.09662E-13
 -1      2248 1.99262E+01 2.79987E+00 1.96858E-03 1.11134E+00 5.67847E-13-6.00006E-13
 -1      2249 2.01674E+01 2.54381E+00-2.84108E-02 1.79642E+00 7.88115E-13-2.67335E-13
 -1      2250 2.00180E+01 2.78328E+00-1.70834E-02 1.62181E+00 7.22582E-13-4.16236E-13
 -1      2251 2.01178E+01 2.44877E+00 5.82240E-03 1.37754E+00 6.73569E-13-4.10671E-13
 -1      2252 1.98629E+01 2.68708E-01 4.76414E-03 2.86844E-01 4.24091E-13 2.12706E-13
 -1      2253 2.00236E+01 3.68291E-01 2.01843E-02 4.44204E-01 4.81479E-13 2.92845E-13
 -1      2254 2.02049E+01 6.34954E-01-2.27199E-03 7.06586E-01 5.71003E-13 9.49813E-14
 -1      2255 2.03958E+01 8.54690E-01 1.31907E-02-1.00245E+00-5.60445E-13-2.00101E-13
 -1      2256 2.01835E+01 6.27611E-01-4.49551E-03-6.93042E-01-5.05129E-13-2.30433E-13
 -1      2257 3.06643E+01-9.02797E-01-8.51275E-02 1.35333E+00 3.19491E-13-4.19331E-13
 -1      2258 2.83141E+01-2.67740E+00-5.17954E-02 2.37522E+00 1.79107E-13-2.28373E-13
 -1      2259 2.01189E+01 4.70105E-01 1.62014E-02-4.76653E-01-4.53505E-13-2.03244E-13
 -1      2260 1.99777E+01 3.45473E-01-4.56774E-06-3.04663E-01-3.88330E-13-2.45301E-13
 -1      2261 2.02397E+01 7.46354E-01-2.23836E-03-6.94586E-01-5.00309E-13-3.50856E-13
 -1      2262 1.99149E+01 2.60789E-01 1.08401E-02-1.66575E-01-3.29405E-13-2.23569E-13
 -1      2263 1.98366E+01 1.89793E-01 7.56206E-04-6.87134E-02-2.73439E-13-2.70245E-13
 -1      2264 2.00772E+01 4.17930E-01-3.80069E-03-3.10803E-01-3.83444E-13-3.08367E-13
 -1      2265 1.97930E+01 1.40883E-01 6.39314E-03 1.43607E-02-2.32564E-13-2.64433E-13
 -1      2266 1.97589E+01 9.93245E-02 8.29718E-04 6.88047E-02-1.91418E-13-2.72761E-13
 -1      2267 1.99578E+01 2.30040E-01-3.71620E-03-7.01541E-02-2.72150E-13-2.88792E-13
 -1      2268 1.97342E+01 7.02642E-02 3.59396E-03 1.16228E-01-1.80023E-13-2.86901E-13
 -1      2269 1.97287E+01 4.58304E-02 7.93828E-04 1.44629E-01-1.75948E-13-2.99818E-13
 -1      2270 1.98840E+01 1.19642E-01-3.02341E-03 7.35303E-02-2.22642E-13-3.01905E-13
 -1      2271 1.97188E+01 2.87449E-02 1.87977E-03 1.69532E-01-1.90794E-13-2.90625E-13
 -1      2272 1.97310E+01 1.50149E-02 7.53590E-04 1.82469E-01-1.57894E-13-2.95326E-13
 -1      2273 1.98475E+01 5.43329E-02-2.24110E-03 1.54475E-01-1.89741E-13-3.24502E-13
 -1      2274 1.97318E+01 5.69138E-03 8.24753E-04 1.93799E-01-1.29021E-13-3.09281E-13
 -1      2275 1.97546E+01-9.42388E-04 7.41926E-04 1.98110E-01-1.12235E-13-3.31417E-13
 -1      2276 1.98381E+01 1.71261E-02-1.59287E-03 1.96191E-01-1.72292E-13-3.47144E-13
 -1      2277 1.97626E+01-4.95414E-03 1.81946E-04 2.02091E-01-1.46350E-13-3.39389E-13
 -1      2278 1.97919E+01-6.65246E-03 7.78892E-04 2.02424E-01-1.66979E-13-3.74308E-13
 -1      2279 1.98475E+01-1.48792E-03-1.12278E-03 2.14950E-01-1.40190E-13-4.39253E-13
 -1      2280 1.98050E+01-6.86270E-03-1.93670E-04 2.03493E-01-1.48097E-13-3.57784E-13
 -1      2281 1.98383E+01-4.97122E-03 8.75228E-04 2.03149E-01-1.02787E-13-3.90022E-13
 -1      2282 1.98699E+01-7.19184E-03-8.13316E-04 2.22222E-01-1.52014E-13-3.61604E-13
 -1      2283 1.98552E+01-2.34232E-03-3.93327E-04 2.04565E-01-8.60101E-14-3.95564E-13
 -1      2284 1.98918E+01 2.28567E-03 1.03529E-03 2.05986E-01-6.39862E-14-3.54755E-13
 -1      2285 1.99014E+01-3.52474E-03-6.33261E-04 2.26308E-01-1.17076E-13-3.40544E-13
 -1      2286 1.99118E+01 7.12888E-03-4.77792E-04 2.10223E-01-6.67872E-14-3.17058E-13
 -1      2287 1.99520E+01 1.39448E-02 1.25937E-03 2.15292E-01-6.91077E-15-2.85026E-13
 -1      2288 1.99401E+01 7.25504E-03-5.52989E-04 2.33390E-01-4.82776E-14-2.82554E-13
 -1      2289 1.99753E+01 2.05811E-02-4.88589E-04 2.24290E-01 1.04923E-14-2.71497E-13
 -1      2290 2.00201E+01 2.92089E-02 1.54390E-03 2.34507E-01-3.50750E-14-2.43057E-13
 -1      2291 1.99855E+01 2.36722E-02-5.47765E-04 2.48218E-01-2.53620E-15-2.72092E-13
 -1      2292 2.00470E+01 3.73138E-02-4.53806E-04 2.49822E-01-7.98667E-14-2.25681E-13
 -1      2293 2.00982E+01 4.74328E-02 1.87962E-03 2.66387E-01-6.90637E-14-2.33524E-13
 -1      2294 2.00380E+01 4.46885E-02-5.97472E-04 2.74544E-01-4.24626E-14-2.92463E-13
 -1      2295 2.01297E+01 5.66712E-02-3.91106E-04 2.89250E-01-9.41074E-14-2.46568E-13
 -1      2296 2.01892E+01 6.78854E-02 2.24767E-03 3.13063E-01-8.59701E-14-2.77691E-13
 -1      2297 2.00992E+01 6.93983E-02-6.85920E-04 3.15342E-01-8.49731E-14-1.79924E-13
 -1      2298 2.02265E+01 7.77803E-02-3.08604E-04 3.44336E-01-6.32210E-14-2.71640E-13
 -1      2299 2.02967E+01 8.94512E-02 2.61371E-03 3.75889E-01-5.87480E-14-2.11054E-13
 -1      2300 2.01709E+01 9.66939E-02-8.01028E-04 3.72832E-01-1.02530E-13-1.58668E-13
 -1      2301 2.03412E+01 9.92079E-02-2.03741E-04 4.15913E-01-1.04827E-13-2.59990E-13
 -1      2302 2.04244E+01 1.10225E-01 2.91985E-03 4.55046E-01-8.08766E-14-3.09748E-13
 -1      2303 2.02558E+01 1.24840E-01-9.36291E-04 4.48286E-01-1.13137E-13-1.96053E-13
 -1      2304 2.04779E+01 1.18490E-01-5.99372E-05 5.03332E-01-6.28305E-14-3.41790E-13
 -1      2305 2.05763E+01 1.26961E-01 3.07456E-03 5.48823E-01-6.71378E-14-3.39773E-13
 -1      2306 2.03569E+01 1.50900E-01-1.09461E-03 5.41563E-01-9.26829E-14-2.70748E-13
 -1      2307 2.06409E+01 1.31499E-01 1.59190E-04 6.03559E-01 6.58544E-16-3.26904E-13
 -1      2308 2.07560E+01 1.34344E-01 2.94161E-03 6.52488E-01 8.55797E-14-2.00153E-13
 -1      2309 2.04778E+01 1.69962E-01-1.29558E-03 6.50308E-01-9.08437E-15-1.56243E-13
 -1      2310 2.08348E+01 1.31651E-01 5.17241E-04 7.09796E-01 1.04913E-13-2.25656E-13
 -1      2311 2.09668E+01 1.24164E-01 2.33115E-03 7.56658E-01 1.48712E-13-2.30987E-13
 -1      2312 2.06231E+01 1.74169E-01-1.58590E-03 7.68722E-01 9.05475E-14-1.61726E-13
 -1      2313 2.10641E+01 1.09104E-01 1.10957E-03 8.09580E-01 1.73388E-13-2.51986E-13
 -1      2314 2.12118E+01 8.46531E-02 1.00005E-03 8.45205E-01 1.75190E-13-1.68579E-13
 -1      2315 2.07987E+01 1.51684E-01-2.04894E-03 8.85838E-01 1.64622E-13-2.43024E-13
 -1      2316 2.13335E+01 5.04101E-02 2.05114E-03 8.82429E-01 1.69267E-13-1.60312E-13
 -1      2317 2.14933E+01 7.69115E-04-1.32341E-03 8.92935E-01 1.67734E-13-9.83770E-14
 -1      2318 2.10131E+01 8.60933E-02-2.80216E-03 9.83283E-01 1.96250E-13-1.78540E-13
 -1      2319 2.16473E+01-6.02315E-02 3.42046E-03 8.97488E-01 6.65520E-14-1.28327E-13
 -1      2320 2.18120E+01-1.42921E-01-4.85602E-03 8.63941E-01 5.39887E-14-2.30603E-13
 -1      2321 2.12779E+01-4.25266E-02-3.95260E-03 1.03274E+00 5.76356E-14-1.26852E-13
 -1      2322 2.20073E+01-2.35903E-01 5.11383E-03 8.12540E-01-2.49209E-14-2.53814E-13
 -1      2323 2.21650E+01-3.53875E-01-9.54340E-03 7.12710E-01-3.31592E-14-2.97605E-13
 -1      2324 2.16080E+01-2.52366E-01-5.45215E-03 9.93876E-01-3.12854E-14-1.73554E-13
 -1      2325 2.24065E+01-4.74755E-01 6.58230E-03 5.77553E-01-2.61987E-15-3.12477E-13
 -1      2326 2.25386E+01-6.14296E-01-1.45398E-02 3.92152E-01-3.97625E-14-2.09292E-13
 -1      2327 2.20170E+01-5.46456E-01-6.77813E-03 8.14848E-01-3.62702E-14-2.03044E-13
 -1      2328 2.28163E+01-7.37898E-01 6.57797E-03 1.49034E-01 3.79501E-14-8.44817E-14
 -1      2329 2.28968E+01-8.54970E-01-1.75760E-02-1.24386E-01 1.51303E-13 8.88818E-14
 -1      2330 2.25050E+01-8.87089E-01-6.43616E-03 4.40542E-01 9.58281E-14-5.06563E-14
 -1      2331 2.31680E+01-9.22807E-01 2.55746E-03-4.74880E-01 8.34810E-14 4.07833E-15
 -1      2332 2.31673E+01-9.35524E-01-1.52408E-02-7.99429E-01 5.14341E-14 2.26147E-14
 -1      2333 2.30323E+01-1.16051E+00-2.20597E-03-1.60914E-01 6.14769E-14 8.99497E-14
 -1      2334 2.33472E+01-8.59580E-01-7.97824E-03-1.19604E+00 6.46636E-14-2.92647E-14
 -1      2335 2.32476E+01-6.71384E-01-4.15954E-03-1.47440E+00 2.91650E-17-1.97496E-14
 -1      2336 2.34905E+01-1.16482E+00 5.46613E-03-9.40620E-01 1.76786E-14-3.33772E-14
 -1      2337 2.32383E+01-3.79722E-01-2.19687E-02-1.76041E+00-6.14168E-14-2.66813E-14
 -1      2338 2.30587E+01 3.53126E-02 1.37443E-02-1.84174E+00-1.09268E-13-1.11924E-13
 -1      2339 2.37076E+01-6.75802E-01 1.06174E-02-1.68790E+00-7.95509E-14-3.70056E-14
 -1      2340 2.28470E+01 4.96301E-01-2.86326E-02-1.79831E+00-1.61954E-13-2.11147E-13
 -1      2341 2.26633E+01 9.80893E-01 2.38305E-02-1.55525E+00-1.21547E-13-1.27740E-13
 -1      2342 2.35584E+01 3.55816E-01 8.25475E-03-2.00220E+00-1.91418E-13-4.29353E-14
 -1      2343 2.24155E+01 1.37913E+00-2.04518E-02-1.08738E+00-9.56353E-14-2.58746E-13
 -1      2344 2.23190E+01 1.64520E+00 1.02212E-02-5.57864E-01-1.40188E-13-1.74782E-13
 -1      2345 2.31693E+01 1.52987E+00-9.41926E-03-1.50507E+00-1.58215E-13-1.40043E-13
 -1      2346 2.22787E+01 1.70708E+00 4.81468E-03 1.61190E-01-1.52101E-13-2.37461E-13
 -1      2347 2.23268E+01 1.55117E+00-1.42677E-02 7.35181E-01-9.14633E-14-2.81979E-13
 -1      2348 2.29079E+01 2.16275E+00-2.36841E-02-2.25938E-01-1.70544E-13-2.66752E-13
 -1      2349 2.25352E+01 1.22724E+00 2.32057E-02 1.30692E+00-7.02381E-14-3.28154E-13
 -1      2350 2.26973E+01 7.74378E-01-2.79305E-02 1.64594E+00-1.28078E-13-3.14241E-13
 -1      2351 2.30563E+01 1.80438E+00-1.16993E-02 1.16961E+00-1.70025E-13-3.07937E-13
 -1      2352 2.29433E+01 2.98733E-01 1.87958E-02 1.81275E+00-1.53058E-13-2.82879E-13
 -1      2353 2.31270E+01-1.65788E-01-2.61489E-02 1.81395E+00-1.89243E-13-2.82168E-13
 -1      2354 2.34458E+01 7.00954E-01 2.88943E-03 1.92316E+00-8.80910E-14-2.87110E-13
 -1      2355 2.31978E+01-5.18231E-01 1.22610E-03 1.59653E+00-3.22103E-13-1.59374E-13
 -1      2356 2.33176E+01-7.75925E-01-1.17741E-02 1.35654E+00-1.43506E-13-7.48470E-14
 -1      2357 2.36884E+01-4.31076E-01 1.37849E-02 1.81228E+00-1.21832E-13-2.43479E-13
 -1      2358 2.31810E+01-9.11842E-01-1.29979E-02 9.68639E-01-4.81204E-14-2.06334E-13
 -1      2359 2.32017E+01-9.49925E-01-5.92218E-04 6.40198E-01 4.67068E-14-2.58152E-13
 -1      2360 2.35614E+01-1.09126E+00 8.30770E-03 1.13405E+00-1.51509E-13-3.33932E-14
 -1      2361 2.29418E+01-9.14177E-01-1.80983E-02 2.61750E-01 1.27981E-13-4.04719E-13
 -1      2362 2.28734E+01-8.17946E-01 5.31524E-03-3.67927E-02 1.38060E-13-4.45111E-13
 -1      2363 2.31451E+01-1.21572E+00-1.28708E-03 3.24493E-01-3.89568E-14-3.41843E-13
 -1      2364 2.25866E+01-7.03255E-01-1.58752E-02-3.17636E-01 2.36863E-13-5.31037E-13
 -1      2365 2.24567E+01-5.64478E-01 6.48942E-03-5.34014E-01 9.67577E-14-4.01209E-13
 -1      2366 2.26137E+01-9.96511E-01-6.01161E-03-3.48294E-01 1.07006E-13-4.77837E-13
 -1      2367 2.21973E+01-4.39052E-01-1.09883E-02-7.03488E-01-1.12687E-13-1.68375E-13
 -1      2368 2.20339E+01-3.12293E-01 5.39066E-03-8.31047E-01-1.49446E-13-1.53094E-13
 -1      2369 2.20975E+01-6.60500E-01-6.94971E-03-7.97347E-01 1.52745E-13-3.49752E-13
 -1      2370 2.18196E+01-2.09520E-01-6.05873E-03-9.08501E-01-1.00504E-13-1.46777E-14
 -1      2371 2.16437E+01-1.15291E-01 3.76244E-03-9.62864E-01 1.10618E-13 9.32374E-14
 -1      2372 2.16533E+01-3.45854E-01-5.89107E-03-1.03759E+00 1.29692E-14 9.73077E-14
 -1      2373 2.14725E+01-4.34943E-02-2.18152E-03-9.75532E-01 1.12655E-13 2.88866E-14
 -1      2374 2.12983E+01 1.77727E-02 2.43204E-03-9.78045E-01 1.40564E-13 6.64274E-15
 -1      2375 2.12897E+01-1.07508E-01-4.40863E-03-1.11988E+00 7.96724E-14 1.97438E-13
 -1      2376 2.11619E+01 6.27633E-02 4.46951E-04-9.49701E-01 1.84997E-13-4.16711E-14
 -1      2377 2.09984E+01 9.89543E-02 1.63771E-03-9.19130E-01 2.75032E-13-1.41983E-13
 -1      2378 2.09955E+01 5.05700E-02-3.18677E-03-1.09636E+00 7.67491E-14 9.20269E-14
 -1      2379 2.08883E+01 1.25457E-01 1.98360E-03-8.66830E-01 2.57606E-13-2.12788E-13
 -1      2380 2.07414E+01 1.46145E-01 1.33547E-03-8.16481E-01 3.23392E-13-2.43302E-13
 -1      2381 2.07558E+01 1.46289E-01-2.34526E-03-1.00796E+00 1.64411E-13 1.02898E-13
 -1      2382 2.06508E+01 1.62444E-01 2.66306E-03-7.50744E-01 3.51209E-13-2.58648E-13
 -1      2383 2.05237E+01 1.76020E-01 1.38681E-03-6.88483E-01 1.69527E-13-1.72413E-13
 -1      2384 2.05580E+01 2.02572E-01-1.78290E-03-8.82209E-01 2.76719E-13-9.02282E-14
 -1      2385 2.04472E+01 1.88656E-01 2.70956E-03-6.14630E-01 3.49254E-14-2.14405E-13
 -1      2386 2.03428E+01 2.00680E-01 1.88708E-03-5.43980E-01-6.50998E-15-2.21558E-13
 -1      2387 2.03927E+01 2.39677E-01-1.30407E-03-7.35093E-01 1.58912E-13-2.68186E-13
 -1      2388 1.96173E+01 7.44919E-02 2.17116E-03-6.71645E-02 1.79277E-13 3.82663E-14
 -1      2389 1.96439E+01 1.05728E-01 6.94337E-03-2.01911E-02 2.48271E-13 9.27051E-14
 -1      2390 1.95964E+01 3.39013E-02 1.49265E-03-1.35614E-01 1.24489E-13-2.33696E-14
 -1      2391 1.95918E+01 5.21084E-02 3.72873E-03-1.11741E-01 1.47874E-13-5.05818E-15
 -1      2392 1.97656E+01 9.29916E-02-3.25724E-03-7.42268E-02 2.09987E-13-1.07192E-13
 -1      2393 1.96131E+01 1.06453E-02 1.10197E-03-1.68392E-01 1.44973E-13-4.70347E-14
 -1      2394 1.95904E+01 2.08970E-02 1.88095E-03-1.58020E-01 1.22306E-13-1.10483E-14
 -1      2395 1.97345E+01 4.09582E-02-2.40170E-03-1.50488E-01 1.54992E-13-1.39017E-13
 -1      2396 1.96527E+01-1.52592E-03 8.83083E-04-1.80566E-01 1.64292E-13-7.09061E-14
 -1      2397 1.96199E+01 3.54553E-03 8.07832E-04-1.77690E-01 1.53210E-13-5.64409E-14
 -1      2398 1.97361E+01 1.15521E-02-1.67594E-03-1.88255E-01 1.70594E-13-1.63495E-13
 -1      2399 1.97059E+01-6.15475E-03 7.93672E-04-1.82209E-01 1.39285E-13-5.48772E-14
 -1      2400 1.96678E+01-4.65564E-03 1.87364E-04-1.82815E-01 1.57949E-13-4.40475E-14
 -1      2401 1.97589E+01-3.27486E-03-1.15513E-03-2.03731E-01 1.58054E-13-1.52250E-13
 -1      2402 1.97676E+01-5.36766E-03 8.16342E-04-1.80384E-01 1.73267E-13-5.61994E-14
 -1      2403 1.97264E+01-6.46644E-03-1.47649E-04-1.81633E-01 1.73390E-13-2.31498E-14
 -1      2404 1.97954E+01-8.12477E-03-8.20984E-04-2.08030E-01 1.56447E-13-9.95394E-14
 -1      2405 1.98353E+01-4.69158E-04 9.41847E-04-1.80274E-01 1.76778E-13-1.20483E-13
 -1      2406 1.97918E+01-3.57117E-03-2.94564E-04-1.80053E-01 2.08458E-13-9.37876E-14
 -1      2407 1.98411E+01-5.76406E-03-6.36453E-04-2.09076E-01 2.32259E-13-6.35488E-14
 -1      2408 1.99093E+01 7.75383E-03 1.16463E-03-1.85884E-01 2.38893E-13-2.43359E-13
 -1      2409 1.98628E+01 2.99966E-03-3.15515E-04-1.82524E-01 2.04607E-13-1.86573E-13
 -1      2410 1.98937E+01 2.11729E-03-5.67393E-04-2.12763E-01 2.25578E-13-1.48679E-13
 -1      2411 1.99912E+01 1.88483E-02 1.48087E-03-2.00490E-01 5.73752E-14-2.57324E-13
 -1      2412 1.99403E+01 1.26365E-02-2.52518E-04-1.92588E-01 1.47292E-13-2.57239E-13
 -1      2413 1.99532E+01 1.45054E-02-5.86583E-04-2.23682E-01 1.87867E-13-2.44080E-13
 -1      2414 2.00842E+01 3.25556E-02 1.88607E-03-2.26915E-01 8.21565E-14-2.60513E-13
 -1      2415 2.00265E+01 2.49944E-02-1.34962E-04-2.13230E-01 4.63409E-14-2.54346E-13
 -1      2416 2.00205E+01 3.08126E-02-6.72390E-04-2.45605E-01 7.04383E-14-3.01776E-13
 -1      2417 2.01927E+01 4.86723E-02 2.37081E-03-2.67669E-01 4.99041E-14-2.40419E-13
 -1      2418 2.01252E+01 3.98591E-02 1.57413E-05-2.47079E-01 1.02585E-13-2.32771E-13
 -1      2419 2.00979E+01 5.06795E-02-8.06714E-04-2.81764E-01 7.55164E-14-2.71057E-13
 -1      2420 2.03216E+01 6.68684E-02 2.91382E-03-3.24921E-01 5.05938E-14-2.76132E-13
 -1      2421 2.02411E+01 5.69923E-02 1.83387E-04-2.96461E-01 3.51206E-14-2.38573E-13
 -1      2422 2.01885E+01 7.37625E-02-9.74262E-04-3.34972E-01 2.12375E-14-1.90664E-13
 -1      2423 2.04768E+01 8.64165E-02 3.47168E-03-4.00268E-01 5.41326E-14-1.99667E-13
 -1      2424 2.03794E+01 7.59147E-02 3.55532E-04-3.63280E-01 4.21987E-14-2.09473E-13
 -1      2425 2.02959E+01 9.94507E-02-1.16210E-03-4.07550E-01 4.40737E-14-2.07029E-13
 -1      2426 2.06640E+01 1.05777E-01 3.96377E-03-4.94192E-01-2.58903E-14-1.24645E-13
 -1      2427 2.05460E+01 9.55739E-02 5.23211E-04-4.48638E-01 4.67378E-14-1.30482E-13
 -1      2428 2.04242E+01 1.26443E-01-1.36068E-03-5.00999E-01-5.95151E-15-7.98907E-14
 -1      2429 2.08889E+01 1.21953E-01 4.25119E-03-6.05066E-01-6.56003E-14-1.42051E-13
 -1      2430 2.07471E+01 1.13834E-01 6.83189E-04-5.52090E-01-7.12981E-14-1.49060E-13
 -1      2431 2.05780E+01 1.52096E-01-1.57016E-03-6.15317E-01-4.01728E-14-2.78018E-14
 -1      2432 2.11560E+01 1.29552E-01 4.11222E-03-7.27503E-01 2.16639E-14-1.79060E-13
 -1      2433 2.09883E+01 1.26692E-01 8.44251E-04-6.70358E-01 1.62970E-14-1.75726E-13
 -1      2434 2.07617E+01 1.71446E-01-1.81101E-03-7.47803E-01 1.90288E-14-4.75981E-14
 -1      2435 2.14682E+01 1.19562E-01 3.22260E-03-8.49832E-01 1.20526E-13-1.79079E-13
 -1      2436 2.12749E+01 1.27195E-01 1.03842E-03-7.95262E-01 7.49938E-14-2.10617E-13
 -1      2437 2.09805E+01 1.75819E-01-2.14003E-03-8.91155E-01 7.87719E-14-1.70318E-13
 -1      2438 2.18256E+01 7.81997E-02 1.16032E-03-9.50630E-01-5.40415E-15-7.43359E-14
 -1      2439 2.16104E+01 1.04167E-01 1.33549E-03-9.10694E-01 1.00839E-13-9.59673E-14
 -1      2440 2.12404E+01 1.51178E-01-2.66733E-03-1.03064E+00 6.81512E-14-9.29171E-14
 -1      2441 2.22244E+01-1.30483E-02-2.52004E-03-9.94739E-01-5.89077E-14-1.94446E-13
 -1      2442 2.19968E+01 4.14040E-02 1.84811E-03-9.88667E-01-3.13947E-14-1.55567E-13
 -1      2443 2.15493E+01 7.68938E-02-3.55244E-03-1.14032E+00 2.97552E-14-9.74023E-14
 -1      2444 2.26550E+01-1.73351E-01-8.04954E-03-9.30523E-01-2.06667E-13-2.02821E-13
 -1      2445 2.24319E+01-8.08739E-02 2.68579E-03-9.85287E-01-1.09892E-13-1.76204E-13
 -1      2446 2.19179E+01-7.30068E-02-4.91453E-03-1.17870E+00-7.58191E-14-1.57557E-13
 -1      2447 2.30976E+01-4.09281E-01-1.48532E-02-6.93053E-01-1.62538E-13-2.86171E-13
 -1      2448 2.29056E+01-2.78344E-01 3.75269E-03-8.39632E-01-2.32826E-13-2.88172E-13
 -1      2449 2.23593E+01-3.21358E-01-6.53461E-03-1.08570E+00-1.11124E-13-3.25613E-13
 -1      2450 2.35138E+01-6.88204E-01-2.10816E-02-2.23001E-01-1.16648E-13-7.09956E-14
 -1      2451 2.33900E+01-5.42922E-01 4.37913E-03-4.83186E-01-1.48686E-13-1.79975E-13
 -1      2452 2.28804E+01-6.64810E-01-7.37260E-03-7.86556E-01-1.94207E-13-3.21496E-13
 -1      2453 2.38351E+01-8.98571E-01-2.19716E-02 4.89430E-01-1.42409E-13 1.60689E-13
 -1      2454 2.38226E+01-8.09778E-01 2.72918E-03 1.29246E-01-1.44174E-13 5.13478E-15
 -1      2455 2.34614E+01-1.03408E+00-5.69800E-03-2.15338E-01-2.09667E-13-7.28952E-14
 -1      2456 2.39541E+01-8.33599E-01-1.21952E-02 1.32589E+00-1.11485E-13 4.81342E-13
 -1      2457 2.40879E+01-9.17174E-01-2.65280E-03 9.52896E-01-1.74718E-13 3.17952E-13
 -1      2458 2.40233E+01-1.24783E+00 5.54122E-04 6.37295E-01-2.75243E-13 1.38526E-13
 -1      2459 2.37645E+01-3.01986E-01 4.86465E-03 1.95445E+00 2.78813E-14 4.79319E-13
 -1      2460 2.40257E+01-6.39165E-01-1.85444E-02 1.74464E+00 6.15031E-14 4.67923E-13
 -1      2461 2.43837E+01-9.86715E-01 1.23598E-02 1.59286E+00-1.26988E-13 2.36207E-13
 -1      2462 2.32810E+01 6.46469E-01 1.89326E-02 1.91164E+00 2.15236E-13 2.13557E-13
 -1      2463 2.35855E+01 1.37412E-01-3.16044E-02 2.06512E+00 1.38687E-13 4.31767E-13
 -1      2464 2.43342E+01-9.50228E-02 5.03327E-03 2.22463E+00 1.14660E-13 1.75418E-13
 -1      2465 2.27985E+01 1.49009E+00 1.25591E-02 9.46889E-01 3.72445E-13-5.86215E-14
 -1      2466 2.29906E+01 1.12539E+00-2.90188E-02 1.48987E+00 3.01207E-13 1.28975E-13
 -1      2467 2.39151E+01 1.21376E+00-1.40833E-02 1.95329E+00 3.38268E-13 1.30943E-13
 -1      2468 2.27098E+01 1.57227E+00-2.10033E-02-5.47070E-01 2.37768E-13-2.17145E-13
 -1      2469 2.26902E+01 1.64528E+00-5.25135E-03 1.17664E-01 3.09879E-13-1.80030E-13
 -1      2470 2.35370E+01 2.12051E+00-3.30832E-02 6.14317E-01 4.73795E-13-1.15750E-13
 -1      2471 2.31423E+01 8.39574E-01-3.61992E-02-1.74636E+00 2.98147E-14-2.96469E-13
 -1      2472 2.29048E+01 1.29855E+00 1.26099E-02-1.30739E+00 1.06696E-13-3.53641E-13
 -1      2473 2.35872E+01 1.89275E+00-2.39539E-02-1.08376E+00 2.50328E-13-3.52342E-13
 -1      2474 2.37262E+01-1.37890E-01-2.62687E-02-2.02296E+00 3.08807E-13-3.33486E-13
 -1      2475 2.34320E+01 3.35408E-01 1.80376E-02-1.99394E+00 1.38866E-13-3.69011E-13
 -1      2476 2.40557E+01 8.18560E-01-4.45138E-03-2.13095E+00 1.03313E-13-3.84547E-13
 -1      2477 2.40557E+01-7.78134E-01-9.95992E-03-1.50945E+00 3.57460E-13-3.29051E-13
 -1      2478 2.38263E+01-5.20592E-01-1.69686E-04-1.78883E+00 4.00718E-13-2.52410E-13
 -1      2479 2.43768E+01-4.25291E-01 1.38731E-02-2.07502E+00 2.99402E-13-4.29946E-13
 -1      2480 2.39866E+01-9.17315E-01-1.39179E-04-6.62364E-01-1.15706E-13-7.06908E-14
 -1      2481 2.39019E+01-9.03358E-01-1.83474E-02-1.03946E+00 2.15225E-13-2.66349E-14
 -1      2482 2.42726E+01-1.15355E+00 3.53627E-03-1.27615E+00 1.80142E-13-4.54166E-14
 -1      2483 2.36418E+01-7.42255E-01 4.36820E-03 1.18067E-01-3.78052E-13-2.16841E-13
 -1      2484 2.36986E+01-8.57197E-01-2.25703E-02-2.11436E-01-2.85262E-13-1.04124E-13
 -1      2485 2.38206E+01-1.22531E+00-3.51346E-03-3.13966E-01-1.07097E-13 2.06528E-13
 -1      2486 2.31656E+01-4.67761E-01 4.53550E-03 6.62900E-01-2.49874E-13-1.59000E-14
 -1      2487 2.33245E+01-6.10002E-01-1.85762E-02 4.39585E-01-3.20835E-13-1.57792E-13
 -1      2488 2.32304E+01-9.42036E-01-7.13849E-03 4.67983E-01-3.94196E-13-1.37139E-14
 -1      2489 2.26581E+01-2.21389E-01 3.07631E-03 9.60285E-01-1.08848E-13-4.14165E-15
 -1      2490 2.28762E+01-3.38766E-01-1.19886E-02 8.42695E-01-2.42380E-13-5.79777E-14
 -1      2491 2.26481E+01-5.68421E-01-7.66022E-03 9.63450E-01-3.55468E-13-5.71797E-14
 -1      2492 2.21707E+01-4.69734E-02 1.85416E-03 1.06599E+00 4.64336E-14 3.28675E-13
 -1      2493 2.24128E+01-1.25703E-01-5.75450E-03 1.02869E+00 7.31565E-14 3.41052E-13
 -1      2494 2.21349E+01-2.49357E-01-6.14987E-03 1.20252E+00-1.78202E-13 7.67370E-14
 -1      2495 2.17252E+01 5.79401E-02 1.19516E-03 1.04698E+00-2.37145E-13 2.56865E-13
 -1      2496 2.19667E+01 1.27744E-02-1.07184E-03 1.06122E+00-5.30228E-14 2.88410E-13
 -1      2497 2.16999E+01-2.98417E-02-4.33604E-03 1.25778E+00-4.09983E-14 5.79079E-13
 -1      2498 2.13294E+01 1.12579E-01 1.02843E-03 9.57150E-01 1.74842E-13 1.40128E-13
 -1      2499 2.15548E+01 9.02616E-02 1.89790E-03 1.00025E+00 5.55550E-14 2.56633E-13
 -1      2500 2.13330E+01 9.95079E-02-3.03594E-03 1.19897E+00-7.71230E-15 3.19675E-13
 -1      2501 2.09858E+01 1.37572E-01 1.19989E-03 8.32005E-01 2.42333E-13 6.71876E-14
 -1      2502 2.11862E+01 1.27877E-01 3.47767E-03 8.89433E-01 2.35416E-13 9.44457E-14
 -1      2503 2.10222E+01 1.65882E-01-2.27683E-03 1.07767E+00 2.47585E-13 1.28383E-13
 -1      2504 2.06945E+01 1.49617E-01 1.61929E-03 6.90874E-01 2.14735E-13 1.26959E-13
 -1      2505 2.08650E+01 1.44655E-01 4.09671E-03 7.55245E-01 1.12202E-13 7.54363E-14
 -1      2506 2.07587E+01 1.96343E-01-1.87380E-03 9.26264E-01 2.09415E-13 1.63376E-13
 -1      2507 2.04530E+01 1.59928E-01 1.91167E-03 5.40933E-01 1.56644E-13 1.66683E-13
 -1      2508 2.05923E+01 1.55025E-01 4.10618E-03 6.10167E-01 3.28357E-13 2.14071E-13
 -1      2509 2.05355E+01 2.11913E-01-1.79187E-03 7.62330E-01 1.73205E-13 2.35141E-13
 -1      2510 2.02589E+01 1.73433E-01 2.25499E-03 3.84801E-01-8.92051E-14 3.34401E-13
 -1      2511 2.03678E+01 1.66154E-01 3.62357E-03 4.57879E-01 2.53718E-14 1.75798E-13
 -1      2512 2.03479E+01 2.25320E-01-2.40704E-03 5.91297E-01 6.95377E-14 3.57692E-13
 -1      2513 2.01849E+01 1.75705E-01 2.56022E-03 2.93908E-01-1.87482E-13 2.67900E-13
 -1      2514 1.98560E+01 8.83682E-01-3.94362E-03 4.53061E-01 1.03252E-13-2.70705E-13
 -1      2515 1.98992E+01 8.05155E-01 7.73020E-04 4.98232E-01-5.56942E-14-5.89546E-13
 -1      2516 1.97909E+01 1.00921E+00-4.02083E-03 3.10887E-01 1.65619E-13 1.38872E-13
 -1      2517 1.98209E+01 9.52720E-01-7.09177E-04 3.82066E-01 6.54022E-14 8.28777E-14
 -1      2518 1.97881E+01 8.93978E-01 2.60186E-03 4.78314E-01 2.12827E-13-9.95236E-14
 -1      2519 2.00463E+01 5.30521E-01-2.61691E-03 5.42337E-01-4.56397E-13-5.16703E-14
 -1      2520 2.01015E+01 4.36155E-01 3.37923E-03 5.20397E-01-3.59371E-13 2.76783E-13
 -1      2521 1.99447E+01 7.17550E-01-3.37780E-03 5.34620E-01-4.17615E-13-5.14543E-13
 -1      2522 1.99962E+01 6.27622E-01 2.15226E-03 5.46662E-01-4.85376E-13-1.67759E-13
 -1      2523 2.00293E+01 5.66460E-01 1.36948E-03 6.29058E-01-3.13659E-13-1.50814E-13
 -1      2524 1.98969E+01 7.43482E-01 1.62201E-03 5.93287E-01-1.35455E-13-2.29719E-13
 -1      2525 1.97562E+01 1.07881E+00-3.60260E-03 1.28869E-01-7.95055E-14 3.82297E-13
 -1      2526 1.97700E+01 1.05105E+00-2.15005E-03 2.15673E-01 8.38185E-14-1.55155E-14
 -1      2527 1.97123E+01 1.00073E+00 3.34142E-03 3.00627E-01 1.70859E-13 6.27639E-15
 -1      2528 1.97547E+01 1.08456E+00-2.74598E-03-6.79650E-02-3.89346E-13 2.19735E-13
 -1      2529 1.97513E+01 1.08876E+00-3.27308E-03 2.25198E-02-2.47376E-13 3.74455E-13
 -1      2530 1.96772E+01 1.05065E+00 3.65004E-03 8.53379E-02 8.55935E-15 2.95811E-13
 -1      2531 1.97853E+01 1.02662E+00-1.61086E-03-2.53481E-01-1.46943E-13 2.54005E-13
 -1      2532 1.97658E+01 1.06199E+00-3.89809E-03-1.71318E-01-3.82054E-13 3.94172E-13
 -1      2533 1.96856E+01 1.03846E+00 3.47557E-03-1.38507E-01-1.77432E-13 2.19236E-13
 -1      2534 1.98423E+01 9.15692E-01-2.64867E-04-4.01768E-01 2.21758E-13 2.46455E-13
 -1      2535 1.98100E+01 9.76063E-01-4.01151E-03-3.39252E-01 2.47466E-14 3.43247E-13
 -1      2536 1.97345E+01 9.67697E-01 2.93370E-03-3.40170E-01 6.14298E-14 4.33320E-13
 -1      2537 1.99211E+01 7.61795E-01 1.03724E-03-4.99322E-01 3.12778E-13 3.14721E-13
 -1      2538 1.98786E+01 8.41981E-01-3.64568E-03-4.62431E-01 2.83908E-13-1.07948E-14
 -1      2539 1.98167E+01 8.47935E-01 1.99933E-03-4.96410E-01 2.89006E-13 3.36346E-13
 -1      2540 2.00127E+01 5.83522E-01 2.01613E-03-5.30859E-01 1.07575E-13-1.29443E-14
 -1      2541 1.99650E+01 6.74080E-01-2.79242E-03-5.26040E-01 1.58185E-13 3.02987E-13
 -1      2542 1.99238E+01 6.92154E-01 8.05294E-04-5.89560E-01 1.06839E-13 5.44169E-14
 -1      2543 2.01069E+01 3.99768E-01 2.71564E-03-4.91719E-01-6.58769E-14-5.57335E-13
 -1      2544 2.00598E+01 4.91690E-01-1.46561E-03-5.20439E-01 3.80389E-14-3.21126E-13
 -1      2545 2.00429E+01 5.17814E-01-2.26161E-04-6.06412E-01-4.94053E-14-3.32938E-13
 -1      2546 4.85768E+00-2.61826E+00 8.97591E-02 3.19237E+00-3.62183E-13 7.89979E-13
 -1      2547 3.43837E+00-2.61335E+00 1.01550E-01 7.89518E-01-4.03608E-13 8.94507E-13
 -1      2548 1.93304E+01-5.47652E+00-3.07340E-02 6.39783E+00-1.27010E-13 1.38296E-13
 -1      2549 1.52152E+01-5.33199E+00 5.27115E-02 6.59435E+00-3.04201E-14 1.65423E-13
 -1      2550 1.96970E+01 1.44388E-01 3.33284E-03 6.05900E-02 3.10876E-13 1.07241E-13
 -1      2551 1.97753E+01 1.98873E-01 1.24026E-02 1.47257E-01 3.61443E-13 1.91204E-13
 -1      2552 1.98447E+01 1.82724E-01-3.91928E-03 6.51239E-02 3.29682E-13-3.11055E-14
 -1      2553 3.27718E+01 3.39683E+00-1.18483E-01-7.05128E-01 5.78204E-13-5.43704E-13
 -1      2554 3.17082E+01 1.36043E+00-5.15950E-02-7.65823E-02 4.31183E-13-4.57967E-13
 -1      2555 2.01477E+01 2.54369E-01 1.80266E-03-3.51012E-01 1.60309E-13-1.42364E-13
 -1      2556 6.02432E+00-3.58439E+00 7.77197E-02-4.56021E+00-2.00895E-13 1.03895E-12
 -1      2557 8.96505E+00-3.94044E+00 2.98904E-02-6.23015E+00-7.57450E-14 8.80462E-13
 -1      2558 1.13750E+01-4.58937E+00 4.71115E-02 6.70497E+00-1.08358E-13 4.80976E-13
 -1      2559 8.01978E+00-3.67890E+00 1.02441E-01 5.45247E+00-2.95930E-13 6.00658E-13
 -1      2560 1.49844E+01-4.55402E+00 1.13191E-01 6.44005E+00-2.87853E-13 2.18797E-13
 -1      2561 3.26782E+00-2.74197E+00 7.82415E-02-1.08359E+00-3.20173E-13 9.06941E-13
 -1      2562 4.05880E+00-3.03825E+00 7.16041E-02-3.05761E+00-2.62457E-13 1.12904E-12
 -1      2563 6.87343E+00-2.16278E+00 1.46421E-01-3.84353E+00-1.84422E-13 1.03587E-12
 -1      2564 5.07126E+00-1.55589E+00 1.15411E-01-8.42208E-02-3.29086E-13 8.77964E-13
 -1      2565 3.21597E+01 4.09232E+00-1.23111E-01-8.97346E-01-1.03023E-12 9.21763E-14
 -1      2566 3.10931E+01 2.07200E+00-6.53503E-02-6.69031E-01-1.04286E-12 3.12306E-13
 -1      2567 1.95279E+01 3.58622E+00-1.01203E-02-2.45582E-01 3.66652E-14-9.76901E-13
 -1      2568 1.95436E+01 3.56546E+00-9.69301E-03-4.26486E-01-4.77373E-14-9.85038E-13
 -1      2569 1.97198E+01 3.16531E+00-5.70098E-04-4.73812E-01-8.07438E-14-9.18379E-13
 -1      2570 1.96863E+01 3.22540E+00-8.98860E-04-1.52176E-01 5.77244E-14-9.15952E-13
 -1      2571 3.25487E+01 7.09933E+00-1.12747E-01 5.18880E-01 9.08329E-13-2.54421E-13
 -1      2572 3.30180E+01 7.33913E+00-8.64680E-02-1.02378E-01 8.57148E-13-2.52527E-13
 -1      2573 2.57878E+01-4.21130E+00-1.05064E-01 4.02020E+00-4.46088E-13 3.84692E-13
 -1      2574 2.25129E+01-5.05075E+00 2.44091E-02 5.15212E+00-2.62013E-13 9.59233E-14
 -1      2575 3.34784E+01 6.73328E+00-1.21637E-01-6.52420E-01 8.60145E-13-3.91395E-13
 -1      2576 3.32696E+01 5.65473E+00-6.30685E-02-8.38033E-01 8.26450E-13-4.23883E-13
 -1      2577 3.28004E+01 4.13146E+00-6.44254E-02 8.83558E-01 9.81465E-13 3.62488E-14
 -1      2578 3.27573E+01 5.64206E+00-1.56308E-01 1.05799E+00 9.10050E-13-7.76601E-14
 -1      2579 3.11173E+01 4.47786E-01-6.00936E-02-2.44336E-01 7.95988E-13 1.60927E-13
 -1      2580 3.25448E+01 2.29547E+00-9.75671E-02 3.13490E-01 1.02873E-12 1.53988E-13
 -1      2581 3.11219E+01 2.80925E+00-2.04842E-02 1.56695E+00 8.80046E-13 2.88741E-13
 -1      2582 2.68773E+01-3.77888E+00-1.84198E-02-2.90345E+00 1.98702E-13-3.34788E-13
 -1      2583 2.95898E+01-2.09266E+00-9.57782E-02-1.66561E+00 5.91596E-13 7.05824E-14
 -1      2584 2.03295E+01-5.49113E+00 3.99684E-03-5.73875E+00-2.23765E-13-1.16748E-12
 -1      2585 2.38458E+01-4.97084E+00-6.31960E-02-4.94586E+00-1.10079E-13-1.02852E-12
 -1      2586 1.36067E+01-4.90030E+00 7.86093E-02-6.64303E+00-2.10165E-13-1.06783E-12
 -1      2587 1.71458E+01-5.32690E+00 3.64950E-02-6.72754E+00-1.96565E-13-1.35273E-12
 -1      2588 2.01036E+01-5.38561E+00 6.37014E-02-5.73937E+00-3.94851E-13-1.04569E-12
 -1      2589 5.90101E+00-3.60069E+00 5.48068E-02-4.42784E+00-1.87683E-13-1.18106E-12
 -1      2590 9.09915E+00-3.77659E+00 6.90798E-02-5.90123E+00-1.72334E-13-1.03706E-12
 -1      2591 3.86379E+00-2.15119E+00 1.45493E-01-9.51750E-01-1.84509E-13-1.32172E-12
 -1      2592 4.43278E+00-2.86680E+00 8.24871E-02-3.01414E+00-1.31173E-13-1.35036E-12
 -1      2593 7.16739E+00-1.94647E+00 1.55968E-01-3.65114E+00-2.19991E-13-1.24623E-12
 -1      2594 1.09473E+01-4.64963E+00 1.01439E-02 6.79288E+00-5.84532E-14-1.16213E-12
 -1      2595 8.24225E+00-4.14001E+00 9.50872E-02 5.79794E+00 5.45952E-14-1.35902E-12
 -1      2596 3.24791E+01 3.98833E+00-4.32029E-02 6.07719E-01-6.44179E-13-6.43929E-15
 -1      2597 3.20709E+01 5.47648E+00-1.46070E-01 1.10696E+00-7.91922E-13-1.58873E-13
 -1      2598 1.86108E+01-5.30111E+00-3.49440E-02 6.63224E+00-1.59761E-13-9.95315E-14
 -1      2599 1.44519E+01-5.32048E+00 2.77703E-02 6.72723E+00-7.50511E-14-6.45921E-13
 -1      2600 1.46056E+01-4.56923E+00 1.20440E-01 6.58868E+00 3.37064E-13-5.70780E-13
 -1      2601 3.00736E+01-8.55570E-01-1.65442E-01 6.63634E-01-9.33937E-13 4.87665E-13
 -1      2602 2.83499E+01-2.57646E+00 5.18098E-04 1.91916E+00-6.64115E-13 4.44256E-13
 -1      2603 3.26896E+01 6.94093E+00-1.25202E-01-6.04423E-01-1.23179E-12-1.07081E-13
 -1      2604 3.23982E+01 5.95880E+00-1.12893E-01-8.98864E-01-1.11772E-12-6.79734E-14
 -1      2605 3.18791E+01 7.05455E+00-1.27849E-01 4.89935E-01-9.69336E-13-2.63276E-13
 -1      2606 3.24147E+01 7.48211E+00-8.47251E-02-7.28265E-02-1.12854E-12-2.48926E-13
 -1      2607 3.05384E+01 7.88110E-02-9.74971E-02-6.90300E-01-5.51933E-13 1.16518E-13
 -1      2608 3.21216E+01 2.08479E+00-7.99330E-02-5.92961E-02-5.04791E-13 2.03337E-13
 -1      2609 3.05575E+01 2.32548E+00-3.55851E-02 1.24244E+00-5.58553E-13-2.68258E-13
 -1      2610 2.71428E+01-3.28655E+00-3.67101E-02-2.88565E+00-4.13156E-13-2.17271E-13
 -1      2611 2.95900E+01-1.66131E+00-4.52880E-02-1.98462E+00-5.59344E-13-3.15858E-14
 -1      2612 2.96136E+01-1.22799E+00-7.22188E-03-2.05307E-01-3.42596E-13 4.99323E-14
 -1      2613 2.11721E+01-5.34681E+00 2.28079E-02-5.58992E+00 1.69920E-13 2.50133E-13
 -1      2614 2.44120E+01-4.76254E+00-5.87119E-02-4.70951E+00-1.74583E-13-1.24900E-13
 -1      2615 1.35252E+01-4.94486E+00 9.35347E-02-6.71882E+00 2.12830E-13 7.13749E-13
 -1      2616 1.75609E+01-5.33536E+00-8.57799E-03-6.81821E+00 2.02116E-13 5.38073E-13
 -1      2617 2.05564E+01-5.30764E+00 9.21383E-02-5.70352E+00 3.09835E-13 2.33287E-13
 -1      2618 2.05420E+01 1.95536E+00-1.36800E-02-1.90379E+00-6.74089E-13-3.29185E-13
 -1      2619 2.04049E+01 1.21678E+00-6.34627E-03-1.28970E+00-6.29413E-13-2.63727E-13
 -1      2620 2.03703E+01 1.37635E+00 3.96042E-03-1.23376E+00-5.91079E-13-4.11494E-13
 -1      2621 2.02841E+01 2.36492E+00-7.73241E-03-1.82824E+00-6.33316E-13-5.21350E-13
 -1      2622 2.04821E+01 8.74971E-01-7.31055E-03 1.22875E+00 6.81755E-13 4.60862E-13
 -1      2623 2.08329E+01 1.25691E+00-6.04972E-03 1.72942E+00 7.29534E-13 5.67778E-13
 -1      2624 2.06401E+01 1.71556E+00-1.57963E-02 1.92367E+00 7.92576E-13 3.20095E-13
 -1      2625 2.04428E+01 1.05811E+00-9.41410E-03 1.24359E+00 7.06614E-13 1.75893E-13
 -1      2626 2.63071E+01-4.19144E+00-3.83713E-02 3.92767E+00 8.80962E-14-1.24734E-13
 -1      2627 2.32769E+01-5.12721E+00 1.99010E-02 4.77843E+00-8.39329E-14-7.84650E-14
 -1      2628 3.09787E+01 6.71942E+00-6.25929E-02-5.75091E-01 7.51177E-13-3.57124E-13
 -1      2629 1.99160E+01 2.81424E+00 1.14270E-03-1.10019E+00-3.57800E-13-8.68020E-13
 -1      2630 1.97852E+01 3.16204E+00-1.47408E-02-1.28809E+00-3.93704E-13-9.11655E-13
 -1      2631 1.98799E+01 3.02604E+00-1.71581E-02-1.47781E+00-4.85270E-13-8.47281E-13
 -1      2632 1.99894E+01 3.41135E-01-3.56970E-03 3.05714E-01 4.50312E-13 2.10331E-14
 -1      2633 2.04179E+01 2.11571E+00-1.27605E-02 1.87668E+00 7.79181E-13 2.01297E-14
 -1      2634 2.76876E+01-3.81249E+00 2.26176E-02 2.04884E+00-7.42184E-14-4.42590E-13
 -1      2635 1.28259E+01-3.92638E+00 1.30070E-01-6.33333E+00 2.49190E-13 5.79453E-13
 -1      2636 2.01937E+01 2.41989E-01 8.73678E-04 4.09037E-01-2.00484E-13 5.34824E-13
 -1      2637 2.22808E+01-5.38864E+00 6.61375E-02 5.03006E+00-2.73725E-13-3.74631E-14
 -1      2638 2.01701E+01 3.13924E-01-2.35735E-04 4.61985E-01-1.40918E-13 5.48958E-13
 -1      2639 2.98076E+01 2.01750E-01-3.91113E-02-8.06332E-01-7.54757E-13 5.08427E-13
 -1      2640 7.51320E+00-2.56778E+00 1.56625E-01 4.42181E+00-3.26836E-13 7.18869E-13
 -1      2641 7.47440E+00-1.33431E+00 1.26213E-01 3.25682E+00-3.28668E-13 7.61474E-13
 -1      2642 1.04194E+01-2.47464E+00 1.08194E-01 5.19946E+00-3.73979E-13 6.39350E-13
 -1      2643 2.63081E+01-4.33370E+00 3.21015E-02-2.88877E+00-1.44856E-13-2.00673E-13
 -1      2644 2.04330E+01 1.80811E+00 1.25412E-02 1.56435E+00 7.32971E-13-4.95775E-14
 -1      2645 3.13145E+01 4.05231E+00-2.71282E-02-1.58384E+00 5.40179E-13-6.77541E-13
 -1      2646 2.02248E+01 2.14609E-01 3.02897E-03-4.18197E-01-3.46218E-15-3.66068E-14
 -1      2647 2.01534E+01 3.18441E-01-1.28474E-03-4.69811E-01 1.18983E-13-3.65583E-13
 -1      2648 2.01726E+01 3.51691E-01 8.33797E-04-5.68983E-01 1.33688E-14-2.79750E-13
 -1      2649 2.03015E+01 2.08272E-01 3.27419E-03-4.88894E-01-2.50964E-14-1.24406E-13
 -1      2650 3.05010E+01 4.66293E+00-5.79402E-02-1.58174E+00-9.37223E-13 1.17184E-13
 -1      2651 3.07349E+01 5.88614E+00-1.39013E-01 1.13961E+00-7.58310E-13-4.15543E-13
 -1      2652 2.85176E+01 6.17894E+00-1.84703E-01 9.68521E-01-8.61172E-13-5.35419E-13
 -1      2653 2.91319E+01 4.83529E+00-7.14384E-02 1.76718E+00-6.18477E-13-6.59278E-13
 -1      2654 3.02924E+01 6.87751E+00-7.43495E-02-4.79651E-01-1.04944E-12-2.12757E-13
 -1      2655 2.14802E+01-5.29542E+00 8.18538E-02 5.45555E+00 1.53794E-13 2.69708E-13
 -1      2656 4.56425E+00-1.78921E+00 1.53788E-01 3.39674E-01-6.03389E-14-1.39494E-12
 -1      2657 6.27590E+00-7.90863E-01 1.57045E-01-7.10330E-01-3.75307E-15-1.35086E-12
 -1      2658 5.55901E+00-1.25897E+00 1.00510E-01 1.76564E+00 1.00808E-13-1.44798E-12
 -1      2659 1.23264E+01-4.03147E+00 1.11513E-01-6.28196E+00-2.60597E-13-9.89361E-13
 -1      2660 1.53984E+01-4.08324E+00 6.50560E-02-6.11509E+00-4.19498E-13-9.86503E-13
 -1      2661 1.13146E+01-2.77407E+00 1.33286E-01-5.62432E+00-3.09169E-13-9.78412E-13
 -1      2662 2.98004E+01-1.35335E+00-9.56271E-03 1.57073E-01 5.40023E-13 2.99732E-13
 -1      2663 7.85780E+00-2.98329E+00 1.41121E-01 5.02068E+00 2.32064E-13-1.41678E-12
 -1      2664 3.04329E+01-2.82489E-01-3.04585E-03-4.84964E-01 2.00104E-13-6.38850E-13
 -1      2665 2.71155E+01-3.83766E+00 2.58262E-02 2.25548E+00-2.16271E-13 6.66273E-13
 -1      2666 1.99865E+01 2.83952E+00-1.50520E-02-1.58818E+00-5.18982E-13-7.80997E-13
 -1      2667 2.01301E+01 2.61386E+00-2.20093E-02-1.75480E+00-6.00810E-13-6.65183E-13
 -1      2668 2.02779E+01 2.05048E+00 1.28864E-03-1.48746E+00-5.88426E-13-5.81024E-13
 -1      2669 2.00837E+01 2.49349E+00 2.56654E-03-1.34326E+00-4.81172E-13-7.56535E-13
 -1      2670 3.07969E+01 5.96477E+00-8.62695E-02 1.13083E+00 8.38773E-13 1.19876E-13
 -1      2671 2.59804E+01-4.68813E+00 2.91683E-02-3.09284E+00-1.28578E-13-3.22103E-13
 -1      2672 2.01879E+01 3.55355E-01 1.85729E-03 5.70592E-01-2.04282E-13 4.05977E-13
 -1      2673 2.02738E+01 2.63413E-01-1.75861E-03-5.98281E-01-2.49021E-14-2.03612E-13
 -1      2674 1.98532E+01 2.76723E+00-6.30867E-03 5.16569E-01 3.35956E-13-7.68178E-13
 -1      2675 1.98290E+01 2.81712E+00-5.72594E-03 3.65587E-01 2.63474E-13-7.96868E-13
 -1      2676 1.98124E+01 2.85482E+00-5.63237E-03 2.29971E-01 2.21843E-13-8.18974E-13
 -1      2677 1.98041E+01 2.87177E+00-5.45538E-03 7.52614E-02 1.51625E-13-8.34275E-13
 -1      2678 1.99588E+01 2.50445E+00 3.68827E-03 2.65269E-01 2.29586E-13-7.62799E-13
 -1      2679 2.00475E+01 2.32510E+00-1.07259E-02 1.04705E+00 5.78107E-13-5.17592E-13
 -1      2680 1.99848E+01 2.47425E+00-6.32742E-03 9.11271E-01 5.11723E-13-5.96545E-13
 -1      2681 2.02175E+01 1.90872E+00-1.20314E-02 1.22885E+00 6.51920E-13-3.46487E-13
 -1      2682 2.01268E+01 2.14702E+00-4.81022E-03 1.13519E+00 6.04659E-13-4.39173E-13
 -1      2683 2.01927E+01 1.88800E+00 6.44566E-03 9.27466E-01 5.43393E-13-4.27176E-13
 -1      2684 2.02092E+01 7.27710E-01-3.45713E-03 6.44259E-01 5.52296E-13-7.22557E-14
 -1      2685 2.03510E+01 9.52271E-01 9.15319E-03 9.08354E-01 6.02197E-13-3.71512E-14
 -1      2686 2.94967E+01 4.44479E+00-1.87190E-01-1.77760E+00 5.25802E-13-3.55757E-13
 -1      2687 2.94316E+01 2.61882E+00-1.01103E-01-2.09805E+00 2.80553E-13-4.84141E-13
 -1      2688 2.03349E+01 1.50051E+00-1.87671E-03 1.26902E+00 6.79757E-13-1.02532E-13
 -1      2689 1.19144E+01-2.67126E+00 1.51034E-01-5.60856E+00 2.29261E-13 5.27828E-13
 -1      2690 1.55985E+01-4.02592E+00 1.87525E-03-6.29190E+00 3.67040E-13 4.24188E-13
 -1      2691 2.02159E+01 6.29823E-01 8.58696E-03-4.37152E-01-3.79619E-13-3.77428E-13
 -1      2692 2.01320E+01 4.78106E-01-3.31582E-03-2.77965E-01-3.20173E-13-3.64524E-13
 -1      2693 2.01063E+01 3.66081E-01 6.57540E-03-1.57282E-01-2.80517E-13-3.37497E-13
 -1      2694 2.00481E+01 2.72601E-01-1.67680E-03-5.83092E-02-2.38161E-13-3.63880E-13
 -1      2695 2.01972E+01 5.32761E-01-1.68112E-03-2.60504E-01-3.06783E-13-4.09696E-13
 -1      2696 2.00226E+01 2.03738E-01 4.48724E-03 1.88010E-02-2.27667E-13-3.29909E-13
 -1      2697 1.99883E+01 1.45930E-01-6.91742E-04 7.75055E-02-2.02045E-13-3.37968E-13
 -1      2698 2.01294E+01 3.05657E-01-2.15038E-03-5.11702E-02-2.37383E-13-3.76060E-13
 -1      2699 1.99683E+01 1.03679E-01 2.85248E-03 1.23659E-01-1.87205E-13-3.45695E-13
 -1      2700 1.99525E+01 6.87837E-02-8.77776E-05 1.56313E-01-1.95819E-13-3.57898E-13
 -1      2701 2.00748E+01 1.63698E-01-1.97061E-03 8.09902E-02-2.22262E-13-3.65663E-13
 -1      2702 1.99388E+01 4.39066E-02 1.66543E-03 1.81889E-01-1.92205E-13-3.59626E-13
 -1      2703 1.99362E+01 2.43756E-02 2.89990E-04 1.98474E-01-1.58565E-13-3.83545E-13
 -1      2704 2.00363E+01 7.70600E-02-1.61191E-03 1.59205E-01-2.12137E-13-3.85341E-13
 -1      2705 1.99281E+01 1.13403E-02 8.29992E-04 2.11426E-01-1.46090E-13-3.74087E-13
 -1      2706 1.99348E+01 2.49313E-03 5.46347E-04 2.18990E-01-1.26343E-13-3.83667E-13
 -1      2707 2.00125E+01 2.77873E-02-1.25305E-03 2.02371E-01-1.61059E-13-4.01223E-13
 -1      2708 1.99313E+01-2.15887E-03 2.51283E-04 2.25260E-01-1.12905E-13-3.71650E-13
 -1      2709 1.99444E+01-3.31183E-03 7.46595E-04 2.28875E-01-1.31485E-13-3.40312E-13
 -1      2710 2.00006E+01 4.56787E-03-9.57149E-04 2.24899E-01-1.22572E-13-3.24079E-13
 -1      2711 1.99444E+01-1.81214E-03-1.46117E-04 2.32920E-01-1.43180E-13-3.06161E-13
 -1      2712 1.99623E+01 2.78234E-03 9.29353E-04 2.36323E-01-9.20215E-14-3.04207E-13
 -1      2713 1.99980E+01 1.28612E-04-7.34821E-04 2.37628E-01-1.07097E-13-3.00033E-13
 -1      2714 1.99651E+01 8.96827E-03-4.20201E-04 2.41530E-01-5.99846E-14-2.51722E-13
 -1      2715 1.99870E+01 1.80291E-02 1.11725E-03 2.47554E-01-2.49846E-14-2.53069E-13
 -1      2716 2.00025E+01 9.70196E-03-5.78242E-04 2.48752E-01-4.93806E-14-2.07421E-13
 -1      2717 1.99920E+01 2.79204E-02-6.14016E-04 2.56554E-01-1.75037E-14-2.60021E-13
 -1      2718 2.00178E+01 4.05796E-02 1.32258E-03 2.67405E-01 5.61061E-15-2.34700E-13
 -1      2719 2.00128E+01 3.01201E-02-4.74496E-04 2.64557E-01-3.69551E-14-2.35658E-13
 -1      2720 2.00249E+01 5.34751E-02-7.57735E-04 2.82289E-01 6.30165E-15-2.72591E-13
 -1      2721 2.00550E+01 6.90741E-02 1.54967E-03 2.99714E-01-8.54496E-15-2.48003E-13
 -1      2722 2.00279E+01 5.92054E-02-4.10657E-04 2.89968E-01 4.52941E-15-1.51143E-13
 -1      2723 2.00639E+01 8.43688E-02-8.69727E-04 3.22158E-01-2.96652E-14-2.13791E-13
 -1      2724 2.00991E+01 1.02259E-01 1.79536E-03 3.47512E-01-6.14623E-14-1.43230E-13
 -1      2725 2.00474E+01 9.52800E-02-3.75922E-04 3.28896E-01 1.19742E-14-1.87853E-13
 -1      2726 2.01101E+01 1.19246E-01-9.56206E-04 3.78818E-01-1.04315E-13-1.07679E-13
 -1      2727 2.01514E+01 1.38552E-01 2.04776E-03 4.13030E-01-9.92833E-14-9.02160E-14
 -1      2728 2.00712E+01 1.36687E-01-3.63890E-04 3.84421E-01-7.91874E-14-1.48790E-13
 -1      2729 2.01648E+01 1.56174E-01-1.00861E-03 4.54073E-01-1.34397E-13-1.06640E-13
 -1      2730 2.02136E+01 1.75494E-01 2.28438E-03 4.97495E-01-1.58865E-13-1.54181E-13
 -1      2731 2.01000E+01 1.81234E-01-3.76379E-04 4.58785E-01-1.37938E-13-1.12711E-13
 -1      2732 2.02303E+01 1.92011E-01-9.98656E-04 5.48558E-01-1.14749E-13-1.60268E-13
 -1      2733 2.02880E+01 2.09010E-01 2.47014E-03 6.00672E-01-5.85216E-14-1.53244E-13
 -1      2734 2.01347E+01 2.25487E-01-4.28549E-04 5.53199E-01-1.50044E-13-7.91731E-14
 -1      2735 2.03097E+01 2.21566E-01-8.70375E-04 6.61149E-01-2.01365E-14-1.04404E-13
 -1      2736 2.03780E+01 2.32448E-01 2.55466E-03 7.20096E-01 2.15019E-14-6.22847E-14
 -1      2737 2.01774E+01 2.63836E-01-5.58947E-04 6.67416E-01-1.48833E-14-1.13597E-13
 -1      2738 2.04077E+01 2.36512E-01-5.28738E-04 7.88033E-01 8.08414E-15-7.18599E-14
 -1      2739 2.04889E+01 2.35381E-01 2.46828E-03 8.49936E-01 4.34956E-14-1.69347E-13
 -1      2740 2.02319E+01 2.87294E-01-8.44759E-04 7.99037E-01 7.58967E-15-8.02275E-14
 -1      2741 2.05317E+01 2.24130E-01 1.73836E-04 9.21350E-01 1.23793E-13-1.32116E-13
 -1      2742 2.06290E+01 2.02353E-01 2.11345E-03 9.79398E-01 2.32423E-13-1.68479E-13
 -1      2743 2.03051E+01 2.82056E-01-1.42076E-03 9.42486E-01 9.85569E-14-5.47453E-14
 -1      2744 2.06938E+01 1.66214E-01 1.44634E-03 1.04728E+00 2.42915E-13-2.30877E-13
 -1      2745 2.08114E+01 1.12159E-01 1.34155E-03 1.09062E+00 1.54234E-13-2.14012E-13
 -1      2746 2.04093E+01 2.28100E-01-2.49681E-03 1.08752E+00 2.09566E-13-2.01521E-13
 -1      2747 2.09125E+01 3.90665E-02 3.53983E-03 1.14348E+00 9.85477E-14-1.22199E-13
 -1      2748 2.10562E+01-6.09143E-02-9.42262E-05 1.15604E+00 7.67094E-14-8.77751E-14
 -1      2749 2.05647E+01 9.86388E-02-4.35720E-03 1.21703E+00 1.93505E-13-1.87172E-13
 -1      2750 2.12143E+01-1.83280E-01 6.65989E-03 1.17574E+00-6.14459E-15-8.18221E-14
 -1      2751 2.13903E+01-3.40808E-01-2.58976E-03 1.13547E+00-1.49071E-14-7.33043E-14
 -1      2752 2.08028E+01-1.37573E-01-7.29078E-03 1.30362E+00 4.69309E-14-3.28872E-14
 -1      2753 2.16317E+01-5.18573E-01 1.07220E-02 1.09450E+00 1.54195E-15-4.83142E-14
 -1      2754 2.18427E+01-7.33088E-01-6.60062E-03 9.74335E-01 1.27214E-14-5.36150E-14
 -1      2755 2.11677E+01-5.06981E-01-1.13356E-02 1.30457E+00 1.04962E-14 5.48224E-14
 -1      2756 2.21915E+01-9.52476E-01 1.48554E-02 8.34038E-01 7.27193E-14-1.36559E-14
 -1      2757 2.24281E+01-1.19137E+00-1.18865E-02 6.07584E-01 1.61396E-13 8.20516E-14
 -1      2758 2.17103E+01-1.00779E+00-1.56326E-02 1.15582E+00 6.86373E-14 1.67351E-13
 -1      2759 2.28846E+01-1.39540E+00 1.68335E-02 3.23410E-01 9.59021E-14 1.20999E-13
 -1      2760 2.31136E+01-1.56505E+00-1.60109E-02-1.78809E-02 2.20839E-14 6.88358E-14
 -1      2761 2.24647E+01-1.56376E+00-1.71458E-02 7.71137E-01 1.56615E-13 1.94027E-13
 -1      2762 2.36120E+01-1.62971E+00 9.87088E-03-4.62901E-01-3.15427E-14 6.67058E-14
 -1      2763 2.37725E+01-1.56931E+00-1.75375E-02-8.70966E-01-5.15911E-14-1.84982E-14
 -1      2764 2.33916E+01-1.94832E+00-1.02215E-02 6.88608E-02-1.01204E-14 1.81364E-13
 -1      2765 2.41627E+01-1.30978E+00-1.12754E-02-1.40880E+00 6.14482E-15 6.30563E-14
 -1      2766 2.41731E+01-8.47190E-01-1.36881E-02-1.73152E+00-9.23116E-14 9.45988E-14
 -1      2767 2.43093E+01-1.79878E+00-5.43297E-03-9.32519E-01 1.62223E-14 2.24163E-13
 -1      2768 2.42794E+01-1.53765E-01-3.94985E-02-2.10563E+00-1.65564E-13 1.22208E-13
 -1      2769 2.41547E+01 7.10269E-01 1.01887E-02-2.10935E+00-1.80078E-13 1.96774E-13
 -1      2770 2.48712E+01-6.88419E-01-1.57042E-02-1.92042E+00-1.20537E-13 2.49079E-13
 -1      2771 2.39164E+01 1.56154E+00-7.33260E-02-1.89389E+00-2.45907E-13 8.63112E-14
 -1      2772 2.37736E+01 2.36989E+00-1.03966E-02-1.45554E+00-2.27297E-13-3.73384E-14
 -1      2773 2.48319E+01 1.44580E+00-1.55981E-02-2.23555E+00-3.15498E-13 1.79027E-13
 -1      2774 2.35982E+01 2.88724E+00-4.75313E-02-6.32053E-01-1.90556E-13-1.62249E-13
 -1      2775 2.35273E+01 3.00198E+00-5.38500E-02 8.89792E-02-1.93210E-13-1.88080E-13
 -1      2776 2.45385E+01 3.22186E+00-1.25208E-02-1.14548E+00-2.78774E-13-8.20945E-14
 -1      2777 2.36923E+01 2.71599E+00-6.37390E-03 1.05063E+00-2.87836E-13-2.77423E-13
 -1      2778 2.37800E+01 2.03051E+00-7.47791E-02 1.59310E+00-2.55391E-13-3.12576E-13
 -1      2779 2.44410E+01 3.60862E+00-3.97102E-03 7.26683E-01-3.54182E-13-3.45066E-13
 -1      2780 2.40597E+01 1.23437E+00 1.03928E-02 2.01552E+00-2.03306E-13-3.30678E-13
 -1      2781 2.41968E+01 3.08733E-01-5.34820E-02 2.14267E+00-1.00760E-13-3.26256E-13
 -1      2782 2.47386E+01 2.09784E+00-2.12773E-02 2.04449E+00-3.25975E-13-5.15763E-13
 -1      2783 2.42231E+01-4.87717E-01-1.91980E-03 1.87596E+00-9.90744E-15-3.73897E-13
 -1      2784 2.42179E+01-1.08776E+00-2.57876E-02 1.60852E+00-6.41874E-14-2.02870E-13
 -1      2785 2.49311E+01-2.57396E-01-2.44562E-03 2.07010E+00-9.89018E-14-5.53030E-13
 -1      2786 2.39205E+01-1.45413E+00-1.21802E-02 1.10368E+00-2.26020E-13-2.32212E-13
 -1      2787 2.37833E+01-1.63227E+00 2.74580E-03 6.90012E-01-1.72966E-13-2.91045E-13
 -1      2788 2.45020E+01-1.56606E+00 8.13436E-04 1.20722E+00-1.50381E-13-5.12042E-13
 -1      2789 2.32928E+01-1.63968E+00-1.91335E-02 1.95901E-01-4.89594E-14-2.80780E-13
 -1      2790 2.30734E+01-1.51659E+00 1.48319E-02-1.76612E-01-4.08133E-14-3.99216E-13
 -1      2791 2.36592E+01-2.01251E+00-1.35740E-02 1.42952E-01-1.66820E-13-3.25751E-13
 -1      2792 2.25936E+01-1.33856E+00-1.37949E-02-5.12952E-01-6.50569E-14-4.53338E-13
 -1      2793 2.23495E+01-1.10756E+00 1.54667E-02-7.78112E-01 7.44396E-14-4.64774E-13
 -1      2794 2.27071E+01-1.73042E+00-1.70380E-02-6.61226E-01-8.16209E-14-2.59598E-13
 -1      2795 2.19668E+01-8.84643E-01-7.90698E-03-9.60921E-01 3.08191E-13-4.07934E-13
 -1      2796 2.17412E+01-6.57856E-01 1.19256E-02-1.11456E+00 2.88938E-13-2.80464E-13
 -1      2797 2.18914E+01-1.19504E+00-1.65670E-02-1.14154E+00 1.41334E-13-2.84997E-13
 -1      2798 2.14699E+01-4.64768E-01-3.41417E-03-1.18504E+00 1.72555E-13-2.92639E-13
 -1      2799 2.12780E+01-2.88635E-01 7.73242E-03-1.25020E+00 9.52115E-14-1.34763E-13
 -1      2800 2.12873E+01-6.65726E-01-1.25798E-02-1.35947E+00 2.86039E-13-5.06051E-13
 -1      2801 2.10980E+01-1.48247E-01-5.96951E-04-1.24924E+00 3.50880E-15-7.19926E-14
 -1      2802 2.09399E+01-2.92824E-02 4.36640E-03-1.25289E+00 3.66532E-14-1.02409E-13
 -1      2803 2.08746E+01-2.52839E-01-8.40429E-03-1.40374E+00 9.01481E-14-5.24926E-13
 -1      2804 2.08239E+01 6.15338E-02 1.00024E-03-1.21031E+00 6.93826E-14-5.83110E-14
 -1      2805 2.06940E+01 1.34042E-01 2.13577E-03-1.17494E+00 1.91443E-13-1.14692E-13
 -1      2806 2.06036E+01 2.80356E-02-5.18791E-03-1.34386E+00 1.57008E-13-3.86570E-13
 -1      2807 2.06190E+01 1.88045E-01 1.80641E-03-1.10990E+00 1.52203E-13-1.07052E-13
 -1      2808 2.05113E+01 2.29315E-01 8.76146E-04-1.05152E+00 1.73783E-13 3.76568E-14
 -1      2809 2.04268E+01 2.01215E-01-3.02867E-03-1.22588E+00 1.65622E-13-3.05743E-13
 -1      2810 2.04606E+01 2.60572E-01 2.11911E-03-9.75272E-01 1.44495E-13-6.48108E-14
 -1      2811 2.03706E+01 2.84473E-01 3.33215E-04-9.03852E-01 9.20632E-14-2.08372E-13
 -1      2812 2.03083E+01 3.01482E-01-1.57882E-03-1.07764E+00 4.67527E-14-2.43221E-13
 -1      2813 2.03326E+01 3.04831E-01 1.93307E-03-8.22537E-01 3.00673E-14-3.01761E-13
 -1      2814 2.02583E+01 3.22414E-01 5.18079E-04-7.43097E-01 4.60268E-14-3.24565E-13
 -1      2815 2.02229E+01 3.60104E-01-1.08151E-03-9.14602E-01-7.53700E-14-2.30524E-13
 -1      2816 1.98590E+01 5.78343E-02 2.47699E-04-1.53304E-01 1.81492E-13-1.91425E-13
 -1      2817 1.98707E+01 8.79616E-02 3.14724E-03-1.22373E-01 1.84038E-13-1.47221E-13
 -1      2818 2.89199E+01 4.93756E+00-1.76831E-01-1.64399E+00-8.05023E-13 1.78940E-13
 -1      2819 2.88665E+01 3.50273E+00-8.73697E-02-2.07673E+00-7.09682E-13 4.10644E-13
 -1      2820 1.98925E+01 1.24184E-01-1.19062E-04-7.55451E-02 1.92071E-13-1.54798E-13
 -1      2821 1.99268E+01 1.74558E-01 5.19395E-03-1.83564E-02 2.53607E-13-1.17424E-13
 -1      2822 1.99948E+01 1.43389E-01-2.42244E-03-7.96007E-02 2.23243E-13-1.94947E-13
 -1      2823 1.98600E+01 4.00188E-04 6.30271E-04-2.11997E-01 1.33155E-13-1.32908E-13
 -1      2824 1.98464E+01 8.26951E-03 8.41299E-04-2.05925E-01 1.65523E-13-1.49722E-13
 -1      2825 1.98818E+01-5.39053E-03 7.74066E-04-2.19401E-01 1.52846E-13-1.01697E-13
 -1      2826 1.98616E+01-3.97244E-03 2.36981E-04-2.17286E-01 1.33424E-13-1.30659E-13
 -1      2827 1.99375E+01 1.29246E-03-1.03588E-03-2.22699E-01 1.34273E-13-1.50642E-13
 -1      2828 1.99126E+01-1.25846E-03 9.33696E-04-2.23995E-01 2.29789E-13-8.50437E-14
 -1      2829 1.98877E+01-4.66095E-03-1.53291E-04-2.22213E-01 2.00576E-13-6.46814E-14
 -1      2830 1.99461E+01-3.70308E-03-7.80468E-04-2.33159E-01 1.62928E-13-1.58634E-13
 -1      2831 1.99507E+01 1.05895E-02 1.12717E-03-2.31945E-01 2.38353E-13-1.48998E-13
 -1      2832 1.99218E+01 3.38639E-03-4.01012E-04-2.27737E-01 2.39469E-13-6.59996E-14
 -1      2833 1.99629E+01 3.38393E-03-6.18527E-04-2.41519E-01 2.33242E-13-1.39021E-13
 -1      2834 1.99958E+01 2.87934E-02 1.36495E-03-2.48118E-01 1.67213E-13-1.17305E-13
 -1      2835 1.99628E+01 1.84087E-02-5.58074E-04-2.39285E-01 2.40076E-13-9.31456E-14
 -1      2836 1.99864E+01 1.99558E-02-5.28904E-04-2.54202E-01 2.04932E-13-9.95403E-14
 -1      2837 2.00482E+01 5.25249E-02 1.65191E-03-2.76525E-01 6.43889E-14-1.89039E-13
 -1      2838 2.00104E+01 3.93319E-02-6.61978E-04-2.61230E-01 1.07927E-13-1.18812E-13
 -1      2839 2.00157E+01 4.44002E-02-4.92107E-04-2.76314E-01 1.73221E-13 1.13183E-14
 -1      2840 2.01096E+01 8.12185E-02 1.98747E-03-3.20584E-01 1.86190E-14-1.76600E-13
 -1      2841 2.00655E+01 6.54832E-02-7.39075E-04-2.97252E-01 5.59942E-14-2.20237E-13
 -1      2842 2.00508E+01 7.57035E-02-4.90093E-04-3.12068E-01 9.22565E-14-9.42508E-14
 -1      2843 2.01817E+01 1.14275E-01 2.36301E-03-3.83221E-01 4.65542E-14-2.44145E-13
 -1      2844 2.01299E+01 9.63200E-02-8.06519E-04-3.50514E-01 1.50428E-14-1.98174E-13
 -1      2845 2.00922E+01 1.13105E-01-5.06801E-04-3.65025E-01 3.70924E-14-2.07754E-13
 -1      2846 2.02669E+01 1.50654E-01 2.75764E-03-4.66771E-01-9.93021E-16-1.98190E-13
 -1      2847 2.02054E+01 1.31088E-01-8.70288E-04-4.23682E-01 3.74995E-14-2.40778E-13
 -1      2848 2.01405E+01 1.55686E-01-5.32289E-04-4.38183E-01 2.36752E-14-2.77348E-13
 -1      2849 2.03679E+01 1.88274E-01 3.13403E-03-5.72617E-01-2.65119E-14-6.40358E-14
 -1      2850 2.02947E+01 1.68330E-01-9.21205E-04-5.18710E-01-3.68255E-14-1.46731E-13
 -1      2851 2.01968E+01 2.01812E-01-5.63276E-04-5.33853E-01-5.85652E-14-1.71949E-13
 -1      2852 2.04878E+01 2.23139E-01 3.43134E-03-7.00491E-01-3.45887E-14-7.02503E-14
 -1      2853 2.04009E+01 2.05171E-01-9.27771E-04-6.36336E-01-2.33253E-14-1.93325E-14
 -1      2854 2.02628E+01 2.48321E-01-6.12266E-04-6.53283E-01-7.40545E-14-1.07265E-13
 -1      2855 2.06304E+01 2.48021E-01 3.55589E-03-8.47308E-01 3.96379E-14-9.27617E-14
 -1      2856 2.05277E+01 2.36247E-01-8.21534E-04-7.75204E-01-3.46218E-15-6.60048E-14
 -1      2857 2.03407E+01 2.89327E-01-7.26476E-04-7.95989E-01-2.34925E-14-8.74229E-14
 -1      2858 2.08013E+01 2.50655E-01 3.37130E-03-1.00535E+00 9.14529E-14-8.94291E-14
 -1      2859 2.06805E+01 2.52148E-01-4.76332E-04-9.30416E-01 1.24937E-13-4.67524E-14
 -1      2860 2.04345E+01 3.14487E-01-1.01256E-03-9.58668E-01 5.04130E-14-1.27230E-13
 -1      2861 2.10092E+01 2.11639E-01 2.68465E-03-1.15962E+00 8.08473E-14-8.27612E-14
 -1      2862 2.08677E+01 2.37424E-01 3.17223E-04-1.09134E+00 9.43457E-14-7.60480E-14
 -1      2863 2.05520E+01 3.06712E-01-1.67527E-03-1.13354E+00 1.24221E-13-5.26223E-14
 -1      2864 2.12692E+01 1.02907E-01 1.22001E-03-1.28435E+00 2.30538E-14-7.82071E-14
 -1      2865 2.11033E+01 1.68603E-01 1.87301E-03-1.23843E+00 5.52538E-14-1.21974E-13
 -1      2866 2.07078E+01 2.39704E-01-3.05587E-03-1.30589E+00 7.07634E-14-1.69682E-13
 -1      2867 2.16050E+01-1.10741E-01-1.43243E-03-1.33860E+00-5.45721E-14-1.24690E-13
 -1      2868 2.14099E+01 1.37193E-02 4.59720E-03-1.33893E+00-1.78942E-14-3.55605E-14
 -1      2869 2.09277E+01 7.66344E-02-5.63344E-03-1.45046E+00-1.59461E-14-1.01557E-13
 -1      2870 2.20495E+01-4.60947E-01-5.81962E-03-1.26181E+00-1.30405E-13-1.91837E-13
 -1      2871 2.18215E+01-2.62786E-01 8.84010E-03-1.34121E+00-1.60047E-14-1.10674E-13
 -1      2872 2.12548E+01-2.26454E-01-9.86419E-03-1.52582E+00-6.05771E-14-2.05029E-14
 -1      2873 2.26345E+01-9.45128E-01-1.23739E-02-9.73517E-01-2.39821E-13-5.47924E-14
 -1      2874 2.23781E+01-6.81231E-01 1.42582E-02-1.16972E+00-2.16616E-13-1.42900E-13
 -1      2875 2.17511E+01-7.03235E-01-1.55492E-02-1.46581E+00-2.09209E-13 1.29538E-13
 -1      2876 2.33688E+01-1.46466E+00-1.77893E-02-3.90130E-01-2.38230E-13 6.32029E-14
 -1      2877 2.30999E+01-1.19988E+00 1.88912E-02-7.29541E-01-1.93387E-13-1.35794E-14
 -1      2878 2.24834E+01-1.33197E+00-2.10782E-02-1.17083E+00-2.57674E-13 1.21943E-13
 -1      2879 2.41583E+01-1.75690E+00-2.12704E-02 4.90726E-01-2.92917E-13 2.55519E-13
 -1      2880 2.39308E+01-1.64741E+00 1.55508E-02 4.16595E-02-3.42477E-13 2.12803E-13
 -1      2881 2.34243E+01-1.95332E+00-3.83707E-02-5.08814E-01-3.23457E-13 2.03180E-13
 -1      2882 2.48106E+01-1.36387E+00-1.17102E-02 1.59962E+00-9.57893E-16 2.02663E-13
 -1      2883 2.47644E+01-1.66651E+00 1.69837E-02 1.15462E+00-1.20539E-13 2.85766E-13
 -1      2884 2.46528E+01-2.21161E+00-3.97119E-02 5.62456E-01-2.11363E-13 3.68650E-13
 -1      2885 2.49650E+01 7.31254E-02-7.89853E-03 2.32799E+00 2.43038E-13 2.20586E-13
 -1      2886 2.50732E+01-7.80775E-01-4.50237E-02 2.17029E+00 9.14702E-14 2.23238E-13
 -1      2887 2.54930E+01-1.48179E+00-1.88559E-02 1.76158E+00 7.98094E-14 4.71038E-13
 -1      2888 2.46593E+01 2.06816E+00-1.40259E-02 1.93859E+00 4.55386E-13 2.81572E-14
 -1      2889 2.48625E+01 1.06937E+00-7.64235E-02 2.34078E+00 3.52085E-13 6.09250E-14
 -1      2890 2.58172E+01 7.04464E-01-3.91531E-02 2.49739E+00 4.05759E-13 2.62054E-13
 -1      2891 2.42846E+01 3.21920E+00-4.08041E-02 2.64489E-01 5.47520E-13-1.50087E-13
 -1      2892 2.44142E+01 2.84590E+00-8.02805E-02 1.14796E+00 5.42608E-13-4.67378E-14
 -1      2893 2.55263E+01 2.99343E+00-8.03880E-02 1.71894E+00 5.17558E-13-1.61902E-13
 -1      2894 2.49262E+01 4.02736E-01-8.83517E-02-2.37769E+00 1.41741E-13-4.76894E-13
 -1      2895 2.47273E+01 1.44790E+00-4.84006E-04-2.19340E+00 4.18207E-14-4.47542E-13
 -1      2896 2.50373E+01-1.16488E+00-1.50152E-02-1.88281E+00 2.02921E-13-1.80882E-13
 -1      2897 2.49942E+01-4.34094E-01 1.35931E-02-2.16025E+00 2.09634E-13-3.71568E-13
 -1      2898 2.57883E+01-5.42658E-02-1.28957E-02-2.38975E+00 5.78149E-14-4.20834E-13
 -1      2899 2.44829E+01-1.72675E+00 1.06705E-02-7.63107E-01-8.33379E-14 6.99015E-14
 -1      2900 2.45982E+01-1.58821E+00-2.51702E-02-1.22480E+00 1.52767E-13-9.96148E-14
 -1      2901 2.52311E+01-1.85049E+00-7.11429E-02-1.39381E+00 1.35761E-13-1.43873E-13
 -1      2902 2.36535E+01-1.54897E+00 1.82289E-02 2.62193E-01-1.70438E-13-4.83598E-15
 -1      2903 2.38944E+01-1.72717E+00-2.48003E-02-1.71735E-01-1.12264E-13 5.63397E-14
 -1      2904 2.42297E+01-2.20973E+00-3.91047E-02-1.51342E-01-8.45183E-14-1.68381E-13
 -1      2905 2.28310E+01-1.05436E+00 1.81335E-02 9.48343E-01-3.71563E-13-2.06035E-14
 -1      2906 2.31036E+01-1.32939E+00-1.67649E-02 6.47030E-01-2.49044E-13 4.92090E-14
 -1      2907 2.31345E+01-1.78937E+00-2.24375E-02 7.99776E-01-2.25721E-13-9.28251E-14
 -1      2908 2.21475E+01-5.57597E-01 1.23733E-02 1.30844E+00-3.62750E-13-4.91707E-14
 -1      2909 2.24045E+01-8.04504E-01-1.00273E-02 1.14576E+00-3.74908E-13-3.93703E-14
 -1      2910 2.22227E+01-1.14783E+00-1.83761E-02 1.34580E+00-3.02941E-13-1.13738E-13
 -1      2911 2.16275E+01-1.82678E-01 7.17242E-03 1.42950E+00-3.20221E-13 2.54443E-13
 -1      2912 2.18535E+01-3.58486E-01-4.43604E-03 1.37280E+00-3.64160E-13-2.14066E-14
 -1      2913 2.15619E+01-5.61733E-01-1.35116E-02 1.57013E+00-3.99549E-13-2.00649E-14
 -1      2914 2.12396E+01 5.63525E-02 3.56554E-03 1.40076E+00-1.89521E-14 3.22897E-13
 -1      2915 2.14338E+01-5.07993E-02-6.11774E-04 1.41340E+00-2.36385E-14 3.03720E-13
 -1      2916 2.11169E+01-1.39905E-01-8.39104E-03 1.59346E+00-2.42633E-13 1.70894E-13
 -1      2917 2.09447E+01 1.89052E-01 1.42823E-03 1.28783E+00 2.19060E-13 2.69823E-14
 -1      2918 2.11114E+01 1.32363E-01 1.66052E-03 1.34076E+00 1.20323E-13 2.59410E-13
 -1      2919 2.08196E+01 1.20780E-01-4.76575E-03 1.50184E+00 1.01050E-13 1.48053E-13
 -1      2920 2.07134E+01 2.53041E-01 3.85219E-04 1.13317E+00 1.86132E-13 1.65245E-13
 -1      2921 2.08563E+01 2.27296E-01 2.82018E-03 1.20673E+00 1.27797E-13 3.00010E-14
 -1      2922 2.06142E+01 2.61723E-01-2.66359E-03 1.35054E+00 1.58998E-13 1.11006E-13
 -1      2923 2.05262E+01 2.80957E-01 2.21021E-04 9.61013E-01 1.88664E-13 2.41840E-13
 -1      2924 2.06477E+01 2.70279E-01 3.22095E-03 1.04378E+00 3.01055E-13 2.47476E-13
 -1      2925 2.04636E+01 3.28359E-01-1.54940E-03 1.17260E+00 2.54778E-13 2.25115E-13
 -1      2926 2.03734E+01 2.96367E-01 1.41675E-03 7.82696E-01 1.75244E-13 1.37053E-13
 -1      2927 2.04735E+01 2.89523E-01 3.33259E-03 8.68757E-01 2.37208E-13-2.45842E-14
 -1      2928 2.03440E+01 3.57684E-01-1.19372E-03 9.85564E-01 3.15458E-13 7.80064E-14
 -1      2929 2.02358E+01 3.29924E-01 2.18551E-03 6.32749E-01-3.48054E-14 3.19613E-13
 -1      2930 2.03170E+01 3.21716E-01 3.56095E-03 7.23149E-01 4.61713E-14 1.37363E-13
 -1      2931 2.02269E+01 3.88409E-01-3.45380E-03 8.24837E-01 7.53129E-14 5.75763E-14
 -1      2932 2.01303E+01 4.38696E-01-3.81977E-03 6.91018E-01-1.85203E-13 9.94262E-14
 -1      2933 2.40686E+01-5.31345E+00-9.39313E-02 3.86332E+00-3.49928E-13-3.28317E-13
 -1      2934 2.09740E+01-5.09013E+00 1.07058E-01 5.11976E+00-3.62571E-13-1.88813E-13
 -1      2935 1.95523E+01 1.02968E+00-2.29800E-03 3.39561E-02 1.13786E-13 1.55443E-13
 -1      2936 1.95612E+01 1.02107E+00-1.69140E-03 1.51314E-01 1.95613E-13 3.48444E-13
 -1      2937 2.02399E+01 3.33861E-01 2.12154E-03-6.85673E-01 7.13228E-14-3.89350E-13
 -1      2938 2.01952E+01 3.42953E-01 8.31993E-04-6.27508E-01 6.51378E-14-2.79855E-13
 -1      2939 2.01668E+01 3.93561E-01-1.12742E-03-7.71441E-01-7.33750E-14-5.15129E-13
 -1      2940 1.96741E+01 9.04022E-01-4.11240E-03 4.95155E-01 2.11776E-13-6.22697E-14
 -1      2941 1.97390E+01 8.45551E-01 1.28807E-03 5.73637E-01 2.87982E-13-4.72036E-13
 -1      2942 1.95796E+01 1.00176E+00-9.19831E-04-2.14940E-01 4.26854E-14 4.99156E-13
 -1      2943 1.95584E+01 1.02060E+00-2.96868E-03-1.01033E-01 9.32961E-14 6.18070E-14
 -1      2944 1.94548E+01 1.01888E+00 3.55202E-03-3.99244E-02 1.34320E-13 3.99887E-14
 -1      2945 1.95844E+01 9.95952E-01-3.43769E-03 2.81739E-01 1.41578E-13 1.29768E-15
 -1      2946 1.96235E+01 9.60581E-01-1.18145E-04 3.86896E-01 1.71077E-13 9.33754E-14
 -1      2947 1.95689E+01 9.27931E-01 3.03437E-03 4.87123E-01 1.80626E-13-1.12590E-13
 -1      2948 1.94761E+01 1.00417E+00 3.52959E-03 2.37485E-01 3.10551E-13 1.65792E-13
 -1      2949 1.96592E+01 9.19027E-01 5.58173E-04-4.29350E-01 2.52054E-13 4.05857E-13
 -1      2950 1.96125E+01 9.61408E-01-3.76751E-03-3.34964E-01 5.73437E-14 6.20227E-13
 -1      2951 1.95044E+01 9.72069E-01 3.12226E-03-3.06152E-01 2.05552E-13 5.26290E-13
 -1      2952 1.97821E+01 7.89923E-01 1.72358E-03-5.90468E-01 2.53988E-13 1.85049E-13
 -1      2953 1.97148E+01 8.52572E-01-4.04619E-03-5.23855E-01 3.00579E-13 2.53127E-13
 -1      2954 1.96155E+01 8.71791E-01 2.19796E-03-5.29802E-01 1.95732E-13 4.09828E-13
 -1      2955 1.99307E+01 6.29876E-01 1.47107E-03-6.74750E-01 9.44317E-14-1.29294E-13
 -1      2956 1.98547E+01 7.06751E-01-3.44392E-03-6.46916E-01 2.01797E-13 3.62983E-14
 -1      2957 1.97744E+01 7.31273E-01 9.92920E-04-6.86531E-01 1.88675E-13 1.39619E-13
 -1      2958 2.87486E+01 9.11499E-01-2.28681E-01-1.70404E+00-6.67924E-13 5.13575E-13
 -1      2959 2.85182E+01-1.18247E+00 2.31954E-03-8.76809E-01-4.31211E-13 7.48054E-13
 -1      2960 2.51224E+01-4.65065E+00 6.44878E-02-2.81230E+00-8.53484E-15-3.01280E-13
 -1      2961 2.71273E+01-3.76618E+00-9.78353E-02-1.34460E+00-2.36026E-13-4.27020E-13
 -1      2962 2.79037E+01-2.67192E+00-6.72312E-02-2.17731E-01-1.45893E-13-3.39645E-13
 -1      2963 2.85634E+01-1.11677E+00-1.19218E-01 7.27710E-01-1.40540E-13-1.84811E-13
 -1      2964 2.68404E+01-3.33537E+00-1.96811E-02-2.91281E-01-4.21677E-14-5.01099E-13
 -1      2965 2.83191E+01-2.35032E+00 9.40213E-03 3.86591E-01 3.40929E-13 2.89019E-13
 -1      2966 2.92090E+01-5.63956E-01-1.63455E-01 1.35718E+00 6.86166E-13 3.59809E-13
 -1      2967 1.01925E+01-2.53706E+00 4.15227E-02 5.52358E+00 4.64531E-13-1.09621E-12
 -1      2968 7.52446E+00-1.60344E+00 2.12040E-01 3.74811E+00 3.00288E-13-1.40279E-12
 -1      2969 2.92057E+01 4.74650E+00-1.38812E-01 1.84080E+00 8.09547E-13 2.12275E-13
 -1      2970 2.87477E+01 5.97534E+00-1.88266E-01 9.43451E-01 6.73961E-13-2.27839E-14
 -1      2971 1.73963E+01-4.51223E+00 7.75309E-03 6.09083E+00-4.37608E-13 2.70062E-14
 -1      2972 1.42188E+01-3.45912E+00 1.28441E-01 5.92840E+00-5.38111E-13 2.14315E-13
 -1      2973 1.99596E+01 2.34461E-01-6.86450E-04 6.12567E-02 3.13072E-13-1.20296E-13
 -1      2974 2.00243E+01 3.17454E-01 7.81119E-03 1.60069E-01 3.78176E-13-9.86388E-14
 -1      2975 2.00572E+01 2.70743E-01-2.79911E-03 5.75791E-02 3.07351E-13-1.92813E-13
 -1      2976 1.98506E+01 1.96166E-02 4.71804E-04-1.93652E-01 1.61758E-13-1.96001E-13
 -1      2977 1.98471E+01 3.65237E-02 1.76112E-03-1.78665E-01 1.64509E-13-1.90994E-13
 -1      2978 1.99574E+01 6.63649E-02-1.88242E-03-1.59141E-01 1.90554E-13-2.28460E-13
 -1      2979 1.99400E+01 2.24835E-02-1.40297E-03-2.01762E-01 1.41498E-13-1.72430E-13
 -1      2980 2.03195E+01 1.06142E+00 5.89671E-03-8.57920E-01-4.68849E-13-4.40123E-13
 -1      2981 2.02262E+01 8.16739E-01-5.67069E-03-6.15413E-01-4.27641E-13-4.28512E-13
 -1      2982 2.02615E+01 8.95143E-01 3.74427E-05-5.71900E-01-3.84325E-13-4.61651E-13
 -1      2983 2.00673E+01 4.17239E-01-1.48323E-03 2.88411E-01 4.27265E-13-1.08183E-13
 -1      2984 2.01680E+01 5.54932E-01 1.04317E-02 4.51681E-01 4.80084E-13-7.59329E-14
 -1      2985 2.02523E+01 8.22824E-01 5.76814E-04 6.18328E-01 5.40516E-13-1.95744E-13
 -1      2986 2.01455E+01 4.79662E-01-2.23742E-03 2.80080E-01 4.29041E-13-1.91696E-13
 -1      2987 2.80053E+01-3.33091E+00-1.51982E-01 7.67310E-01-6.90142E-14-5.35114E-13
 -1      2988 2.65877E+01-4.33049E+00 3.31269E-02 1.96233E+00-1.23172E-13-4.83696E-13
 -1      2989 1.99300E+01 2.59763E+00-7.88612E-03 7.95126E-01 4.64026E-13-6.66264E-13
 -1      2990 1.98872E+01 2.68998E+00-6.14723E-03 6.45967E-01 3.82539E-13-7.21110E-13
 -1      2991 2.00064E+01 2.39139E+00 4.36984E-03 5.16966E-01 3.35305E-13-6.83341E-13
 -1      2992 2.00859E+01 2.19289E+00 5.62029E-03 7.46267E-01 4.54415E-13-5.70439E-13
 -1      2993 1.98822E+01 2.69873E+00-6.12910E-03-6.35774E-01-1.78953E-13-8.71013E-13
 -1      2994 1.99242E+01 2.60885E+00-7.75058E-03-7.85310E-01-2.57084E-13-8.61922E-13
 -1      2995 2.01286E+01 4.17414E-01 3.45506E-04-6.52861E-01-2.50134E-14-5.22321E-13
 -1      2996 2.94677E+01 1.56912E+00-1.00525E-01 1.97570E+00 9.04929E-13 3.26350E-13
 -1      2997 2.93888E+01 3.05296E+00-1.84301E-01 2.11977E+00 9.05026E-13 2.74183E-13
 -1      2998 2.80587E+01 3.40005E+00-1.08474E-01 2.14220E+00 7.95905E-13 1.65618E-13
 -1      2999 2.82327E+01 2.98420E-01-5.20236E-02 2.17344E+00 6.95971E-13 4.11476E-13
 -1      3000 1.92024E+01-4.86447E+00 7.78177E-02-5.61094E+00-5.01460E-13-8.49827E-13
 -1      3001 2.19385E+01-5.32249E+00-3.32981E-02-4.91250E+00-5.16087E-13-7.60787E-13
 -1      3002 2.93402E+01 1.51416E-01-2.06526E-01-1.61327E+00 2.63817E-13-6.96290E-13
 -1      3003 2.90051E+01-1.61324E+00-3.08961E-02-6.61636E-01 1.47667E-13-5.89667E-13
 -1      3004 2.80600E+01-2.38044E+00 8.02447E-03-7.15951E-01 5.68920E-14-5.46771E-13
 -1      3005 7.96327E+00-8.85575E-01 1.53820E-01-2.85248E+00-1.98085E-13-1.18738E-12
 -1      3006 9.33638E+00-1.57016E+00 1.68317E-01-4.39892E+00-2.20712E-13-1.02648E-12
 -1      3007 2.82306E+01 6.37321E+00-1.84927E-01-8.92356E-02-9.15601E-13-1.49801E-13
 -1      3008 2.86124E+01 5.97095E+00-1.68615E-01-1.10013E+00-8.61256E-13 4.86972E-14
 -1      3009 2.73354E+01 4.80953E+00-1.14748E-01-1.42333E+00-6.91350E-13 3.50844E-13
 -1      3010 2.45697E+01-4.98665E+00 7.83746E-02-3.35929E+00-4.70707E-13-3.27315E-13
 -1      3011 2.66929E+01-4.40576E+00-1.52389E-01-1.74633E+00-1.05298E-13 1.79301E-13
 -1      3012 1.68633E+01-4.64642E+00-5.78452E-03 6.40517E+00 4.70207E-13 4.60743E-14
 -1      3013 1.40026E+01-3.64151E+00 1.73703E-01 6.23390E+00 5.52974E-13-5.34989E-13
 -1      3014 2.30849E+01-5.28356E+00-8.90942E-02 4.44711E+00 2.02949E-13 5.64524E-13
 -1      3015 2.01454E+01-5.05208E+00 1.21255E-01 5.56963E+00 3.63320E-13 2.82011E-13
 -1      3016 2.71681E+01-3.56591E+00-1.80991E-01 9.23623E-01-1.74825E-13 8.12600E-13
 -1      3017 2.57345E+01-4.48625E+00 8.01951E-02 2.49564E+00 5.47618E-14 6.72518E-13
 -1      3018 2.89145E+01 1.72692E-01-1.24611E-01 1.53083E+00-3.09433E-13-5.03014E-13
 -1      3019 2.88515E+01 1.91082E+00-2.04278E-01 1.80720E+00-5.02459E-13-7.11819E-13
 -1      3020 2.76796E+01-1.19402E+00-2.67426E-02 1.23963E+00-1.88029E-13-6.95749E-13
 -1      3021 2.03139E+01 1.68928E+00-6.79369E-03-1.29685E+00-5.52439E-13-5.44805E-13
 -1      3022 2.02961E+01 1.30319E+00-3.03219E-03-1.02196E+00-5.15326E-13-4.98147E-13
 -1      3023 2.02806E+01 1.37481E+00 6.07945E-04-9.24880E-01-4.53049E-13-5.39299E-13
 -1      3024 2.02230E+01 1.95346E+00-4.35789E-04-1.26759E+00-5.00241E-13-6.36674E-13
 -1      3025 1.94156E+01-4.71878E+00 1.44950E-01-5.61610E+00 3.17676E-13 1.84283E-13
 -1      3026 2.21132E+01-5.27362E+00-9.60770E-02-4.77338E+00 3.19522E-13 1.79518E-14
 -1      3027 2.84688E+01 6.15469E+00-2.00779E-01-3.23313E-01 5.81563E-13-1.09883E-13
 -1      3028 2.90909E+01 5.64803E+00-1.58584E-01-1.35083E+00 6.40987E-13-2.99510E-13
 -1      3029 2.77220E+01 4.38205E+00-5.98004E-02-1.70955E+00 4.75175E-13-1.36467E-13
 -1      3030 1.99776E+01 2.48899E+00-6.04323E-03-9.03105E-01-2.98176E-13-8.33951E-13
 -1      3031 2.00409E+01 2.34469E+00-8.98234E-03-1.03602E+00-3.71264E-13-7.93676E-13
 -1      3032 2.00800E+01 2.20704E+00 6.11286E-03-7.40181E-01-2.57394E-13-7.89285E-13
 -1      3033 1.99426E+01 2.54215E+00 3.47817E-03 4.58371E-03 1.14299E-13-7.80137E-13
 -1      3034 1.98034E+01 2.87259E+00-5.51164E-03-6.19642E-02 8.82735E-14-8.43242E-13
 -1      3035 1.98107E+01 2.85792E+00-5.57011E-03-2.16772E-01 1.17275E-14-8.51896E-13
 -1      3036 1.18723E+01-1.91693E+00 1.23489E-01-4.77106E+00-3.30437E-13-9.39651E-13
 -1      3037 2.85109E+01 1.09355E+00-5.73105E-02-2.19300E+00 2.23793E-13-4.43923E-13
 -1      3038 2.02894E+01 1.58840E+00-1.14597E-03 1.16771E+00 6.62853E-13-2.31866E-13
 -1      3039 9.87961E+00-1.74373E+00 1.23354E-01-4.81816E+00-6.59195E-15 7.07434E-13
 -1      3040 1.29215E+01-1.84068E+00 1.46545E-01-4.87179E+00 2.08250E-13 4.31377E-13
 -1      3041 1.97215E+01 8.00314E-01 1.87754E-03 6.75018E-01 2.29680E-13-1.72875E-13
 -1      3042 1.98115E+01 7.65582E-01-4.08834E-03 6.45180E-01 1.92639E-13-1.55534E-13
 -1      3043 1.98936E+01 6.89506E-01 1.73232E-03 6.85375E-01-6.34563E-14-3.51104E-14
 -1      3044 1.80781E+01-3.82674E+00 1.01860E-01-5.42152E+00 3.15303E-13 3.21562E-13
 -1      3045 2.78900E+01 1.90426E+00-5.12564E-02-2.19191E+00-5.77732E-13 5.31020E-13
 -1      3046 2.50945E+01 3.72760E+00-6.48950E-02-6.60827E-01 5.45189E-13-1.86431E-13
 -1      3047 2.61747E+01 4.70546E+00-1.22938E-01-3.23592E-02 5.46313E-13-1.87555E-13
 -1      3048 2.52163E+01 3.11687E+00-9.84455E-02-1.49828E+00 3.33199E-13-3.27627E-13
 -1      3049 2.53990E+01-4.60420E+00 3.81999E-02 2.37447E+00-2.93016E-13-4.07924E-13
 -1      3050 1.99670E+01 6.10023E-01-3.67227E-03 7.06753E-01-1.63976E-13-3.63605E-13
 -1      3051 2.00560E+01 5.24215E-01 1.97877E-03 7.04131E-01-1.48358E-13-1.26070E-13
 -1      3052 2.00957E+01 5.00295E-01 3.47871E-03 7.77229E-01-5.35242E-14-4.94236E-14
 -1      3053 1.99076E+01 6.51792E-01 2.17726E-03 7.70033E-01 1.40987E-13-4.24141E-14
 -1      3054 2.39798E+01-4.58288E+00 4.94517E-02-3.08085E+00 1.50907E-13-1.07601E-13
 -1      3055 2.72889E+01-2.40483E+00-1.75730E-02-3.63465E-01-1.69544E-13 6.64746E-13
 -1      3056 2.43393E+01-4.64582E+00 3.84355E-02 3.03771E+00 2.07050E-13 5.58165E-13
 -1      3057 2.00592E+01 5.04051E-01 1.84066E-05-6.65552E-01 3.15921E-14-4.01437E-13
 -1      3058 1.30899E+01-2.59000E+00 1.34668E-01 5.49778E+00-5.03236E-13 3.29348E-13
 -1      3059 1.20062E+01-1.52591E+00 8.52909E-02 4.59294E+00-4.51333E-13 3.74659E-13
 -1      3060 1.55183E+01-2.60071E+00 7.26835E-02 5.11886E+00-5.57828E-13 9.50975E-14
 -1      3061 8.07610E+00-1.11500E+00 1.44425E-01-3.24742E+00-1.53301E-13 7.81181E-13
 -1      3062 2.35742E+01-4.86294E+00 4.03485E-02-3.53409E+00-5.52343E-13-2.77067E-13
 -1      3063 2.00023E+01-4.38691E+00 9.12859E-02 4.98749E+00-4.87527E-13-1.51228E-13
 -1      3064 1.76797E+01-4.26341E+00 7.46512E-02-5.77162E+00-4.27727E-13-9.12055E-13
 -1      3065 1.96390E+01-4.15384E+00 5.80021E-02-4.90977E+00-5.16635E-13-6.69079E-13
 -1      3066 1.60739E+01-3.22356E+00 8.39401E-02-5.52502E+00-3.44086E-13-8.38302E-13
 -1      3067 1.30145E+01-2.56695E+00 1.23879E-01 5.44865E+00 5.94733E-13-6.65537E-13
 -1      3068 7.00422E+00-5.24246E-01 1.53304E-01 9.54777E-03-2.75393E-13 7.79571E-13
 -1      3069 7.16388E+00-6.44542E-01 2.07709E-01-1.92253E+00-2.89678E-13 7.55229E-13
 -1      3070 9.85848E+00-4.51002E-01 1.27684E-01-2.80228E+00-1.89446E-13 6.28733E-13
 -1      3071 8.21918E+00-7.68192E-01 1.82735E-01 2.55903E+00 2.71880E-13-1.37074E-12
 -1      3072 2.71043E+01-3.30257E+00-3.66123E-02-2.24660E-01-2.41820E-15 2.58196E-13
 -1      3073 1.98259E+01 2.82229E+00-5.73204E-03-3.52009E-01-3.94187E-14-8.36377E-13
 -1      3074 1.98495E+01 2.77387E+00-6.21215E-03-5.05729E-01-1.31748E-13-8.50363E-13
 -1      3075 2.00022E+01 2.39905E+00 4.31015E-03-5.07894E-01-1.61520E-13-8.13032E-13
 -1      3076 1.99568E+01 2.50796E+00 3.66292E-03-2.55866E-01-2.67571E-14-7.92572E-13
 -1      3077 1.93487E+01-4.47136E+00 1.06262E-01 5.41367E+00 4.83683E-13 1.80647E-13
 -1      3078 2.74576E+01 5.72116E+00-9.38492E-02 4.37650E-01-7.23477E-13-4.39253E-13
 -1      3079 7.97986E+00-8.62293E-02 9.63736E-02-5.50736E-01 9.96182E-14-1.15954E-12
 -1      3080 7.91257E+00-4.51758E-01 1.82941E-01-1.85729E+00-2.34951E-14-1.21406E-12
 -1      3081 9.71598E+00-3.11060E-01 9.18216E-02-2.51984E+00-4.57880E-14-9.73999E-13
 -1      3082 2.02804E+01 1.36757E+00 2.33437E-03 9.21323E-01 5.98302E-13-2.77635E-13
 -1      3083 9.67977E+00-4.08282E-01 1.29615E-01 2.51340E+00-2.90168E-13 5.61884E-13
 -1      3084 7.96958E+00-3.02240E-01 2.13785E-01 1.39731E+00-1.99887E-13 7.75269E-13
 -1      3085 9.31645E+00 2.17012E-01 1.08577E-01-1.66124E-01-6.42355E-14 7.85899E-13
 -1      3086 2.00784E+01 4.62922E-01-6.43047E-05-7.60374E-01-2.29146E-13-4.24552E-13
 -1      3087 1.99900E+01 5.60445E-01-1.00164E-03-7.11917E-01-3.85268E-14-1.47146E-13
 -1      3088 1.99396E+01 5.84112E-01 1.04376E-03-7.75776E-01-1.51469E-13-2.71176E-13
 -1      3089 2.01028E+01 4.52046E-01 1.78478E-03-8.19688E-01-1.87931E-13-4.27998E-13
 -1      3090 2.79925E+01 2.93064E+00-4.60245E-02 2.14807E+00-4.39773E-13-8.51333E-13
 -1      3091 1.28632E+01-1.08192E+00 8.86069E-02-4.16687E+00 2.14568E-13 3.76532E-13
 -1      3092 1.45775E+01-2.09113E+00 8.90249E-03-4.99709E+00 2.89754E-13 4.26797E-13
 -1      3093 2.02426E+01 1.47717E+00-8.00701E-03 8.01766E-01 5.26691E-13-3.67327E-13
 -1      3094 2.02047E+01 1.67204E+00-4.97161E-04 7.46639E-01 4.79545E-13-4.27987E-13
 -1      3095 2.23836E+01-4.45333E+00 5.17647E-02-3.72626E+00-5.16046E-13-2.00994E-13
 -1      3096 2.42087E+01-4.56608E+00-8.30842E-02-2.54360E+00-4.82229E-13 1.11705E-13
 -1      3097 2.26987E+01-4.18250E+00 1.18557E-01-3.42270E+00 3.87043E-13-1.11274E-13
 -1      3098 2.45600E+01-4.19318E+00-9.13438E-02-1.88137E+00 1.12144E-13-5.45702E-13
 -1      3099 2.02953E+01 1.15738E+00 5.75251E-03-6.67307E-01-3.66808E-13-5.35049E-13
 -1      3100 2.02588E+01 9.12898E-01-4.78361E-03-4.80120E-01-3.39154E-13-5.27046E-13
 -1      3101 2.07194E+01-4.57924E+00-6.58891E-02 4.72220E+00 4.00548E-13 3.27276E-13
 -1      3102 1.84136E+01-3.67992E+00 1.49281E-01 5.27738E+00 5.52218E-13 6.43131E-14
 -1      3103 2.02250E+01 4.30633E-01 4.10847E-03-1.16454E-01-2.33045E-13-4.25433E-13
 -1      3104 2.01864E+01 3.24920E-01-2.21247E-03-2.96422E-02-2.03147E-13-4.10246E-13
 -1      3105 2.01725E+01 2.43718E-01 3.10134E-03 3.42411E-02-2.21218E-13-3.79101E-13
 -1      3106 2.01436E+01 1.76111E-01-1.15660E-03 8.81512E-02-2.36271E-13-3.99854E-13
 -1      3107 2.02433E+01 3.45022E-01-8.47680E-04-1.88009E-02-2.04554E-13-4.57597E-13
 -1      3108 2.01270E+01 1.25406E-01 2.12255E-03 1.27533E-01-2.07642E-13-3.60282E-13
 -1      3109 2.01077E+01 8.43086E-02-4.18082E-04 1.59064E-01-1.65171E-13-3.83492E-13
 -1      3110 2.02034E+01 1.87372E-01-1.04129E-03 8.99552E-02-2.13296E-13-3.88377E-13
 -1      3111 2.00913E+01 5.47807E-02 1.30601E-03 1.81828E-01-1.36688E-13-3.85992E-13
 -1      3112 2.00802E+01 3.24219E-02 8.44486E-05 1.99245E-01-1.25579E-13-3.61720E-13
 -1      3113 2.01650E+01 9.03407E-02-9.90519E-04 1.56658E-01-1.46905E-13-3.67524E-13
 -1      3114 2.00653E+01 1.79854E-02 6.59682E-04 2.11846E-01-1.02495E-13-3.07714E-13
 -1      3115 2.00606E+01 9.18659E-03 4.34516E-04 2.21458E-01-1.01861E-13-3.09873E-13
 -1      3116 2.01313E+01 3.65313E-02-8.56052E-04 1.95622E-01-8.84441E-14-2.91361E-13
 -1      3117 2.00475E+01 5.78255E-03 1.61043E-04 2.29017E-01-8.34953E-14-2.54327E-13
 -1      3118 2.00478E+01 7.04638E-03 6.91012E-04 2.35603E-01-2.54985E-14-2.09727E-13
 -1      3119 2.01028E+01 1.41778E-02-6.97216E-04 2.18575E-01-4.24093E-14-2.45583E-13
 -1      3120 2.00362E+01 1.19400E-02-2.25685E-04 2.42118E-01-1.90687E-14-1.75653E-13
 -1      3121 2.00404E+01 2.08995E-02 8.94356E-04 2.49325E-01-7.90727E-15-1.61426E-13
 -1      3122 2.00791E+01 1.52267E-02-5.38674E-04 2.34797E-01-4.17062E-15-1.74006E-13
 -1      3123 2.00299E+01 3.22368E-02-5.35177E-04 2.57923E-01-4.01024E-14-1.37356E-13
 -1      3124 2.00372E+01 4.72774E-02 1.07140E-03 2.68582E-01-2.73284E-14-1.56036E-13
 -1      3125 2.00591E+01 3.41679E-02-3.87681E-04 2.51556E-01-2.41444E-14-1.14296E-13
 -1      3126 2.00272E+01 6.37677E-02-7.95642E-04 2.81749E-01-9.17737E-15-1.27525E-13
 -1      3127 2.00373E+01 8.37315E-02 1.23906E-03 2.98089E-01 2.96120E-14-1.08211E-13
 -1      3128 2.00415E+01 6.71981E-02-2.44540E-04 2.74577E-01 1.94231E-15-9.16787E-14
 -1      3129 2.00270E+01 1.04381E-01-1.02676E-03 3.17838E-01-1.98278E-15-1.19961E-13
 -1      3130 2.00397E+01 1.28298E-01 1.40708E-03 3.41627E-01-8.24972E-15-1.55585E-13
 -1      3131 2.00250E+01 1.11557E-01-1.07214E-04 3.08436E-01-1.25582E-14-1.62750E-13
 -1      3132 2.00286E+01 1.52152E-01-1.23841E-03 3.69598E-01-4.69008E-14-1.86732E-13
 -1      3133 2.00439E+01 1.78957E-01 1.58033E-03 4.02188E-01-1.06828E-13-1.97063E-13
 -1      3134 2.00081E+01 1.64923E-01 2.53784E-05 3.56834E-01-7.87647E-14-1.87127E-13
 -1      3135 2.00315E+01 2.04802E-01-1.42847E-03 4.39690E-01-1.03772E-13-1.87890E-13
 -1      3136 2.00496E+01 2.32991E-01 1.76000E-03 4.81985E-01-1.41579E-13-1.30850E-13
 -1      3137 1.99897E+01 2.24772E-01 1.47497E-04 4.22747E-01-1.07404E-13-1.63027E-13
 -1      3138 2.00357E+01 2.58977E-01-1.57842E-03 5.29977E-01-1.58420E-13-6.74051E-14
 -1      3139 2.00574E+01 2.86164E-01 1.94717E-03 5.82295E-01-9.59369E-14-6.49504E-14
 -1      3140 1.99688E+01 2.87617E-01 2.41514E-04 5.08475E-01-8.04770E-14-7.41386E-14
 -1      3141 2.00424E+01 3.09319E-01-1.64776E-03 6.41290E-01-5.93013E-14-8.28679E-15
 -1      3142 2.00690E+01 3.31677E-01 2.14756E-03 7.03123E-01 1.66094E-14-3.08270E-14
 -1      3143 1.99454E+01 3.48048E-01 2.70110E-04 6.15562E-01-7.34059E-14-1.71906E-14
 -1      3144 2.00546E+01 3.47285E-01-1.56401E-03 7.73037E-01 8.25514E-14 1.40711E-14
 -1      3145 2.00885E+01 3.58821E-01 2.37575E-03 8.42695E-01 8.82105E-14 4.83392E-14
 -1      3146 1.99210E+01 3.97507E-01 1.59388E-04 7.44620E-01 7.08307E-14 7.35901E-14
 -1      3147 2.00784E+01 3.59662E-01-1.20638E-03 9.22604E-01 2.20797E-14 4.41281E-14
 -1      3148 2.01243E+01 3.51388E-01 2.65634E-03 9.96702E-01 1.06000E-13-8.00182E-16
 -1      3149 1.99001E+01 4.22748E-01-2.21946E-04 8.95063E-01 7.20360E-14 1.11186E-13
 -1      3150 2.01259E+01 3.26936E-01-3.80074E-04 1.08445E+00 1.31140E-13-8.03442E-14
 -1      3151 2.01915E+01 2.86066E-01 3.00883E-03 1.15717E+00 2.14604E-13-1.30259E-13
 -1      3152 1.98924E+01 4.04040E-01-1.09090E-03 1.06469E+00 4.52106E-14-8.75549E-15
 -1      3153 2.02183E+01 2.21951E-01 1.22135E-03 1.24858E+00 2.68146E-13-1.65827E-13
 -1      3154 2.03161E+01 1.31601E-01 3.37699E-03 1.31054E+00 2.27685E-13-1.39908E-13
 -1      3155 1.99163E+01 3.13368E-01-2.78617E-03 1.24886E+00 2.01875E-13-9.83089E-14
 -1      3156 2.03903E+01 1.01052E-02 4.03687E-03 1.39768E+00 1.57253E-13-1.16754E-13
 -1      3157 2.05387E+01-1.49340E-01 3.46278E-03 1.43407E+00 7.63425E-14-1.37276E-15
 -1      3158 2.00038E+01 1.13500E-01-5.80595E-03 1.43848E+00 2.51135E-13-2.02839E-13
 -1      3159 2.06954E+01-3.45952E-01 8.62577E-03 1.50143E+00 5.79739E-15 9.75013E-14
 -1      3160 2.09170E+01-5.91214E-01 2.45084E-03 1.48905E+00 3.63082E-14 1.65940E-13
 -1      3161 2.02073E+01-2.39748E-01-1.07783E-02 1.61508E+00 1.13370E-13 8.01410E-15
 -1      3162 2.12055E+01-8.70916E-01 1.54845E-02 1.50599E+00 2.15691E-14 1.36162E-13
 -1      3163 2.15197E+01-1.20073E+00-1.17291E-03 1.40991E+00 8.26403E-14 1.40888E-13
 -1      3164 2.06048E+01-7.86616E-01-1.82009E-02 1.73974E+00 5.19337E-14 1.06618E-13
 -1      3165 2.19966E+01-1.53955E+00 2.42898E-02 1.31891E+00 1.85880E-13 1.75467E-13
 -1      3166 2.24002E+01-1.90086E+00-8.40233E-03 1.09226E+00 1.33706E-13 2.53458E-13
 -1      3167 2.12990E+01-1.53217E+00-2.77881E-02 1.73179E+00 1.20900E-13 4.33377E-15
 -1      3168 2.30995E+01-2.20405E+00 3.14643E-02 8.02152E-01 6.05265E-14 3.67180E-13
 -1      3169 2.35528E+01-2.42192E+00-1.10064E-02 4.01868E-01 1.27910E-14 3.47129E-13
 -1      3170 2.23869E+01-2.37230E+00-3.73295E-02 1.44529E+00 1.77064E-13 2.53866E-13
 -1      3171 2.43656E+01-2.46313E+00 1.78609E-02-1.38553E-01-5.68161E-14 4.26151E-13
 -1      3172 2.47515E+01-2.27489E+00-3.48598E-02-6.75743E-01 2.29851E-16 4.12872E-13
 -1      3173 2.38920E+01-2.82403E+00-5.66706E-03 6.32668E-01 5.33913E-14 5.06982E-13
 -1      3174 2.63315E+01-1.39983E-02-5.53373E-02-2.18840E+00-3.30513E-13 3.55584E-13
 -1      3175 2.62320E+01 1.43906E+00-6.14121E-02-2.10995E+00-4.62380E-13 2.88169E-13
 -1      3176 2.54820E+01 4.07171E+00-1.22856E-01-1.43221E+00-5.36668E-13-3.20577E-15
 -1      3177 2.53546E+01 4.68139E+00-1.64952E-01-5.76981E-01-4.31544E-13-2.47698E-13
 -1      3178 2.57164E+01 4.69962E+00-1.35852E-01 5.57475E-01-4.62158E-13-6.00660E-13
 -1      3179 2.58555E+01 4.00381E+00-1.79815E-01 1.55940E+00-5.25455E-13-6.27663E-13
 -1      3180 2.61133E+01 2.03161E+00-8.39634E-02 2.01517E+00-3.66832E-13-6.58647E-13
 -1      3181 2.61837E+01 5.54730E-01-9.92032E-02 2.22202E+00-2.07612E-13-6.77781E-13
 -1      3182 2.61104E+01-7.32501E-01-5.20697E-02 1.84570E+00-1.73549E-13-6.73387E-13
 -1      3183 2.50301E+01-2.02716E+00-7.96745E-03 9.94937E-01-7.13058E-14-5.64560E-13
 -1      3184 2.47409E+01-2.43797E+00 2.35503E-03 4.65405E-01-4.93295E-14-4.70001E-13
 -1      3185 2.27117E+01-2.11571E+00-1.10449E-02-9.90751E-01-1.11178E-13-1.30451E-13
 -1      3186 2.22835E+01-1.77398E+00 2.59962E-02-1.27060E+00-5.41307E-14-1.31697E-13
 -1      3187 2.17471E+01-1.43044E+00-2.20172E-03-1.41351E+00 3.74306E-14-5.79474E-14
 -1      3188 2.14028E+01-1.08374E+00 1.80477E-02-1.54740E+00 2.16792E-13-1.30737E-13
 -1      3189 2.15867E+01-1.80358E+00-2.80657E-02-1.74871E+00 7.02602E-14 4.46049E-14
 -1      3190 2.10689E+01-7.81924E-01 2.24884E-03-1.55921E+00 2.91311E-13-1.63856E-13
 -1      3191 2.08209E+01-5.10045E-01 1.05036E-02-1.59656E+00 1.54844E-13-2.28752E-13
 -1      3192 2.07893E+01-1.01736E+00-2.00780E-02-1.82832E+00 1.57333E-13 1.21819E-13
 -1      3193 2.06355E+01-2.87539E-01 3.57719E-03-1.54436E+00 7.80687E-14-2.29457E-13
 -1      3194 2.04679E+01-1.01615E-01 5.23135E-03-1.52332E+00 1.33785E-13-1.74796E-13
 -1      3195 2.03235E+01-4.09589E-01-1.25883E-02-1.74045E+00 1.49499E-13 1.25550E-13
 -1      3196 2.03780E+01 4.45587E-02 3.52832E-03-1.44365E+00 1.48188E-13-3.17122E-13
 -1      3197 2.02675E+01 1.59519E-01 2.00807E-03-1.38960E+00 1.68212E-13-2.78296E-13
 -1      3198 2.00811E+01 3.40165E-03-7.10984E-03-1.58152E+00 1.20039E-13 9.20659E-14
 -1      3199 2.02335E+01 2.47180E-01 3.02784E-03-1.30031E+00 7.39281E-14-2.86685E-13
 -1      3200 2.01600E+01 3.12648E-01 2.27372E-04-1.22885E+00 1.45651E-13-3.23656E-13
 -1      3201 1.99747E+01 2.58486E-01-3.60855E-03-1.39837E+00 1.20242E-13-2.89480E-13
 -1      3202 2.01551E+01 3.61926E-01 2.38745E-03-1.13823E+00 1.74489E-13-3.49894E-13
 -1      3203 2.01056E+01 3.97672E-01-4.14572E-04-1.05795E+00 3.04838E-14-2.43803E-13
 -1      3204 1.99446E+01 4.05022E-01-1.10595E-03-1.21134E+00 2.10426E-13-3.34248E-13
 -1      3205 2.01252E+01 4.16861E-01 1.94115E-03-9.80019E-01-1.45352E-13-1.47417E-13
 -1      3206 2.00885E+01 4.39308E-01-2.15515E-04-8.94968E-01-7.13280E-14-1.91653E-13
 -1      3207 1.99951E+01 5.04765E-01-9.32121E-04-8.84579E-01-3.17178E-13-3.71965E-13
 -1      3208 1.99635E+01 4.74030E-01-5.12285E-04-1.03942E+00 6.52978E-14-3.16822E-13
 -1      3209 2.59228E+01-4.12292E+00-1.18977E-01 9.90295E-01-1.62519E-13-3.94807E-13
 -1      3210 2.41813E+01-4.38346E+00 7.84805E-02 2.55175E+00-3.86854E-13-3.30496E-13
 -1      3211 2.00066E+01 2.04696E-03 7.35874E-04-2.35164E-01 1.46216E-13-1.86773E-13
 -1      3212 2.00005E+01 1.77846E-03 2.04106E-04-2.29763E-01 1.45358E-13-1.84820E-13
 -1      3213 2.00092E+01 5.70409E-03 4.93011E-04-2.22684E-01 1.29158E-13-1.97256E-13
 -1      3214 2.00089E+01 1.45066E-02 7.39573E-04-2.13925E-01 1.15322E-13-1.88051E-13
 -1      3215 2.00616E+01 9.50027E-03-8.11533E-04-2.23841E-01 1.32637E-13-2.01696E-13
 -1      3216 2.00205E+01 3.49784E-02 1.13456E-03-2.63188E-01 1.41116E-13-6.94495E-14
 -1      3217 2.00063E+01 2.21248E-02-5.01561E-04-2.54048E-01 1.82718E-13-1.39293E-13
 -1      3218 2.00347E+01 6.67584E-02 1.33321E-03-2.89987E-01 1.46528E-13-4.57144E-14
 -1      3219 2.00171E+01 4.91397E-02-7.54810E-04-2.75143E-01 1.71095E-13-4.26962E-14
 -1      3220 2.00335E+01 5.23754E-02-3.39198E-04-2.74581E-01 1.41714E-13-1.66748E-13
 -1      3221 2.00528E+01 1.06891E-01 1.54555E-03-3.31129E-01 1.13913E-13-1.09510E-13
 -1      3222 2.00318E+01 8.50814E-02-9.81550E-04-3.08613E-01 1.71157E-13-6.46405E-14
 -1      3223 2.00309E+01 9.21619E-02-2.17174E-04-3.06398E-01 1.75707E-13-1.14045E-13
 -1      3224 2.00744E+01 1.54371E-01 1.77532E-03-3.90101E-01 6.21678E-14-2.23136E-13
 -1      3225 2.00498E+01 1.28873E-01-1.20094E-03-3.58265E-01 8.31836E-14-1.23242E-13
 -1      3226 2.00294E+01 1.41636E-01-9.48678E-05-3.53248E-01 1.25542E-13-1.09674E-13
 -1      3227 2.00993E+01 2.07944E-01 2.01934E-03-4.69812E-01-6.48754E-15-1.68846E-13
 -1      3228 2.00706E+01 1.79457E-01-1.42427E-03-4.27316E-01 3.98909E-15-1.98968E-13
 -1      3229 2.00276E+01 1.99511E-01 4.02405E-05-4.18549E-01 2.95761E-14-1.00866E-13
 -1      3230 2.01272E+01 2.65386E-01 2.27011E-03-5.72476E-01-1.25534E-13-1.49470E-13
 -1      3231 2.00939E+01 2.35199E-01-1.64695E-03-5.18411E-01-6.52458E-14-1.49351E-13
 -1      3232 2.00242E+01 2.64015E-01 1.81963E-04-5.05163E-01-7.59867E-14-1.13203E-13
 -1      3233 2.01587E+01 3.22579E-01 2.52290E-03-6.99277E-01-1.04608E-13-1.25687E-13
 -1      3234 2.01200E+01 2.93077E-01-1.84608E-03-6.33393E-01-1.00339E-13-1.49673E-13
 -1      3235 2.00181E+01 3.32075E-01 3.23979E-04-6.15294E-01-1.24022E-13-1.69822E-13
 -1      3236 2.01954E+01 3.72129E-01 2.77747E-03-8.49856E-01-3.33442E-14-1.17432E-13
 -1      3237 2.01498E+01 3.47564E-01-1.96921E-03-7.72940E-01-5.61946E-14-1.34425E-13
 -1      3238 2.00086E+01 3.98128E-01 4.20195E-04-7.50287E-01-6.36240E-14-2.12689E-13
 -1      3239 2.02414E+01 4.01370E-01 3.04601E-03-1.02150E+00 1.86247E-14-1.48796E-13
 -1      3240 2.01863E+01 3.88955E-01-1.91432E-03-9.35955E-01-3.82581E-16-1.89088E-13
 -1      3241 1.99967E+01 4.52473E-01 3.74236E-04-9.10379E-01 1.60096E-15-1.70209E-13
 -1      3242 2.03061E+01 3.89792E-01 3.35445E-03-1.20796E+00 9.51961E-14-1.21611E-13
 -1      3243 2.02363E+01 4.01072E-01-1.50499E-03-1.11863E+00 9.16226E-14-8.12006E-14
 -1      3244 1.99869E+01 4.78885E-01-8.84955E-06-1.09429E+00 1.33865E-15-6.04540E-14
 -1      3245 2.04087E+01 3.06226E-01 3.72280E-03-1.39762E+00 5.35889E-14-5.46556E-14
 -1      3246 2.03144E+01 3.58510E-01-4.47714E-04-1.31300E+00 8.96790E-14-4.66715E-14
 -1      3247 1.99905E+01 4.51651E-01-1.07922E-03-1.29861E+00 5.85826E-14 2.31316E-14
 -1      3248 2.05838E+01 1.07077E-01 4.08550E-03-1.57058E+00-9.90813E-14 6.11922E-14
 -1      3249 2.04484E+01 2.24148E-01 1.73679E-03-1.50462E+00-2.23717E-14 2.83860E-14
 -1      3250 2.00311E+01 3.32423E-01-3.40718E-03-1.51668E+00-2.11882E-14 1.88360E-13
 -1      3251 2.08894E+01-2.61255E-01 3.99268E-03-1.69305E+00-1.20398E-13 9.63212E-14
 -1      3252 2.06873E+01-5.10049E-02 5.84029E-03-1.66812E+00-6.89345E-14 2.59708E-14
 -1      3253 2.01532E+01 6.82820E-02-7.81969E-03-1.73573E+00-1.28057E-13 1.44446E-13
 -1      3254 2.14105E+01-8.45179E-01 2.45451E-03-1.70498E+00-2.80288E-13 8.20165E-14
 -1      3255 2.11101E+01-5.20298E-01 1.30423E-02-1.75703E+00-1.60743E-13 6.40726E-14
 -1      3256 2.04340E+01-4.05725E-01-1.53191E-02-1.92898E+00-1.71059E-13 1.80356E-13
 -1      3257 2.22480E+01-1.62939E+00-8.72350E-04-1.50014E+00-3.01989E-13 2.44902E-14
 -1      3258 2.18247E+01-1.21050E+00 2.41024E-02-1.68595E+00-3.07226E-13-1.16580E-14
 -1      3259 2.09938E+01-1.14087E+00-2.55489E-02-2.03472E+00-2.33961E-13-2.62190E-14
 -1      3260 2.35814E+01-2.39751E+00 2.03046E-02-8.67844E-01-4.65914E-13 2.18527E-13
 -1      3261 2.29585E+01-2.05070E+00 4.18773E-02-1.31492E+00-3.36448E-13 1.21944E-13
 -1      3262 2.19977E+01-2.10594E+00-3.29026E-02-1.93330E+00-3.92100E-13 8.48939E-14
 -1      3263 2.47616E+01-3.22491E+00 2.35009E-03-6.17858E-01-2.59995E-13 2.43933E-13
 -1      3264 2.40147E+01-3.13895E+00 2.10622E-02-1.19045E+00-4.81091E-13 1.53353E-13
 -1      3265 2.68152E+01-1.00688E+00-5.58192E-02 2.02417E+00 3.40811E-13 5.30246E-13
 -1      3266 2.63940E+01-2.03121E+00-4.65152E-02 1.30147E+00 1.38439E-13 5.30357E-13
 -1      3267 2.69935E+01 4.62420E-01-6.48761E-02 2.24263E+00 5.33198E-13 3.89591E-13
 -1      3268 2.64138E+01 4.46792E+00-1.18927E-01 1.30010E+00 5.99687E-13-1.15283E-13
 -1      3269 2.64763E+01 3.32127E+00-1.33814E-01 2.05112E+00 5.71487E-13-1.14526E-14
 -1      3270 2.63314E+01 3.11177E+00-1.03279E-01-2.02895E+00 3.51275E-13-3.85733E-13
 -1      3271 2.51820E+01-2.94548E+00 5.97110E-02 1.46464E-01-4.24313E-15-2.73531E-13
 -1      3272 2.57432E+01-2.62042E+00 1.30941E-02-5.26883E-01 4.53001E-14-2.63862E-13
 -1      3273 2.25595E+01-1.81658E+00 3.32754E-02 1.51410E+00-2.96383E-13-6.02094E-14
 -1      3274 2.31084E+01-2.20346E+00 1.27878E-02 1.16480E+00-3.52647E-13-5.90136E-14
 -1      3275 2.15760E+01-1.00552E+00 2.04756E-02 1.78735E+00-3.87971E-13-2.43165E-14
 -1      3276 2.19649E+01-1.39734E+00 2.54292E-03 1.64223E+00-2.46107E-13-2.99796E-14
 -1      3277 2.16571E+01-1.81423E+00-2.74385E-02 2.04102E+00-2.54999E-13 3.19345E-14
 -1      3278 2.09601E+01-3.84293E-01 1.04327E-02 1.81334E+00-5.37522E-13-5.39998E-15
 -1      3279 2.12300E+01-6.72406E-01 3.19189E-03 1.78259E+00-4.69267E-13-8.84283E-14
 -1      3280 2.08130E+01-9.24300E-01-2.22439E-02 2.07897E+00-4.90061E-13 1.43366E-14
 -1      3281 2.05995E+01 2.30079E-02 4.41074E-03 1.70826E+00-1.90349E-13 2.97717E-14
 -1      3282 2.07818E+01-1.57747E-01 4.12362E-03 1.74279E+00-4.03288E-13 3.57296E-15
 -1      3283 2.03524E+01-2.71384E-01-1.27966E-02 1.95219E+00-4.66067E-13-1.81230E-13
 -1      3284 2.03954E+01 2.58126E-01 1.11250E-03 1.54187E+00 1.61130E-13 5.80905E-15
 -1      3285 2.05198E+01 1.58383E-01 4.00045E-03 1.61162E+00 7.96878E-14-3.68905E-14
 -1      3286 2.01300E+01 1.36919E-01-6.36067E-03 1.75938E+00-8.43816E-14-9.00361E-14
 -1      3287 2.02791E+01 3.76249E-01-6.16503E-04 1.35065E+00 1.08218E-13 3.84239E-15
 -1      3288 2.03679E+01 3.29212E-01 3.53553E-03 1.43741E+00 1.48411E-13 2.07652E-16
 -1      3289 2.00397E+01 3.63313E-01-2.69856E-03 1.54640E+00 9.32186E-14-1.05716E-13
 -1      3290 2.02082E+01 4.27310E-01-1.21242E-03 1.15396E+00 3.42142E-13 1.40365E-13
 -1      3291 2.02761E+01 4.08516E-01 3.02702E-03 1.24727E+00 1.53121E-13 9.79097E-14
 -1      3292 2.00155E+01 4.72628E-01-6.54277E-04 1.33320E+00 9.14216E-14-1.08720E-13
 -1      3293 2.01616E+01 4.48708E-01-4.75673E-05 9.60243E-01 2.78618E-13 7.58572E-15
 -1      3294 2.02138E+01 4.39912E-01 2.52894E-03 1.05382E+00 4.37140E-13 1.28438E-13
 -1      3295 2.00178E+01 5.17437E-01 2.30364E-04 1.12784E+00 3.24619E-13 5.59621E-14
 -1      3296 2.00999E+01 4.84538E-01 1.07723E-03 8.32783E-01 9.07929E-14-3.37215E-14
 -1      3297 2.01551E+01 4.62003E-01 2.66782E-03 9.02206E-01 1.78776E-13-2.60989E-15
 -1      3298 2.00108E+01 5.38045E-01-6.20713E-04 9.66499E-01 2.86707E-13 1.50232E-13
 -1      3299 1.99944E+01 5.57536E-01-3.39237E-03 8.46066E-01 1.19606E-13-2.90226E-13
 -1      3300 1.94008E+01 9.48721E-01 9.85476E-04-4.05470E-01 2.34680E-13 6.62788E-13
 -1      3301 1.93465E+01 9.80558E-01-3.49015E-03-2.77971E-01 2.11062E-13 5.32620E-13
 -1      3302 1.97706E+01 6.78397E-01 1.66906E-03-7.83884E-01-1.47606E-14-1.30586E-13
 -1      3303 1.96615E+01 7.48176E-01-3.98552E-03-7.27046E-01 1.21151E-13 7.98319E-14
 -1      3304 1.93143E+01 1.01196E+00-9.93667E-04-1.19300E-01 1.85409E-13 8.75049E-14
 -1      3305 1.93037E+01 1.01902E+00-2.09442E-03 2.45336E-02 2.19044E-13-1.45871E-14
 -1      3306 1.92107E+01 1.00547E+00 3.33416E-03-2.20256E-01 1.71556E-13 2.74024E-13
 -1      3307 2.47943E+01-4.39460E+00-1.32906E-01 1.91638E+00 8.09665E-14 4.55610E-13
 -1      3308 2.32525E+01-4.46416E+00 1.21144E-01 3.43307E+00 3.12902E-13 4.56385E-13
 -1      3309 2.20674E+01-4.10018E+00 3.45823E-02 3.58765E+00 2.75301E-13 2.90280E-13
 -1      3310 2.74327E+01 5.30036E+00-1.33816E-01 3.21626E-01 5.93803E-13-7.86732E-14
 -1      3311 2.57244E+01-3.33466E+00 4.85787E-02-4.07845E-01 2.75821E-14-6.10526E-13
 -1      3312 2.61769E+01-2.85881E+00-7.84695E-02 4.13584E-01-1.95607E-14-5.40717E-13
 -1      3313 2.01275E+01 3.00884E-01-1.90271E-03 3.98202E-02 2.57901E-13-2.22748E-13
 -1      3314 2.01723E+01 4.00212E-01 4.47290E-03 1.32112E-01 3.37913E-13-2.14135E-13
 -1      3315 1.21063E+01-1.09253E+00 8.51345E-02-4.09072E+00-2.91822E-13-9.15851E-13
 -1      3316 1.40774E+01-2.19304E+00 1.06392E-01-5.17376E+00-3.14686E-13-8.32209E-13
 -1      3317 1.95609E+01 8.32511E-01 2.45983E-03-6.36276E-01 1.98574E-13 3.59153E-13
 -1      3318 1.94713E+01 8.85528E-01-4.25138E-03-5.36577E-01 1.65120E-13 6.11828E-13
 -1      3319 1.93359E+01 9.17282E-01 2.47636E-03-5.19650E-01 2.83502E-13 5.65467E-13
 -1      3320 1.95373E+01 7.80774E-01 3.61446E-04-7.46788E-01 1.26037E-13 1.41824E-13
 -1      3321 2.36945E+01-2.58374E+00 4.23616E-02 1.05222E+00-3.31321E-13-2.32832E-13
 -1      3322 2.43565E+01-2.76375E+00 2.06155E-02 4.82914E-01-1.62786E-13-1.88762E-13
 -1      3323 2.39760E+01-3.74108E+00-8.90946E-02 1.62609E+00-2.18534E-13-1.85503E-13
 -1      3324 2.27070E+01-2.79185E+00-3.92762E-02 1.90006E+00-4.63900E-13 1.99719E-14
 -1      3325 2.00108E+01 1.27855E-02 9.40906E-04-2.46585E-01 2.14947E-13-1.35520E-13
 -1      3326 2.00003E+01 5.55010E-03-1.94304E-04-2.40781E-01 1.93087E-13-1.36154E-13
 -1      3327 2.00475E+01 8.36346E-03-6.27274E-04-2.38836E-01 1.39425E-13-1.79658E-13
 -1      3328 2.00386E+01 2.37409E-02-4.72151E-04-2.53709E-01 1.86754E-13-9.72226E-14
 -1      3329 2.00782E+01 1.61935E-01-9.80865E-04-8.57135E-02 2.21806E-13-2.25849E-13
 -1      3330 2.01092E+01 2.24923E-01 3.65270E-03-2.96894E-02 2.23998E-13-2.04549E-13
 -1      3331 2.01943E+01 3.26142E-01-1.52889E-03 2.99223E-02 2.57097E-13-2.30629E-13
 -1      3332 1.51636E+01-2.89823E+00-1.68275E-02 5.49711E+00 6.22224E-13-3.01092E-13
 -1      3333 1.23355E+01-1.44740E+00 1.27809E-01 4.63478E+00 5.58636E-13-7.77184E-13
 -1      3334 9.83072E+00-5.10137E-01 6.51322E-02 3.07652E+00 3.79991E-13-1.19060E-12
 -1      3335 8.51517E+00 2.70525E-02 1.78044E-01 1.25565E+00 2.09727E-13-1.29045E-12
 -1      3336 1.69962E+01-2.84764E+00 1.15389E-01-5.09149E+00 4.19761E-13 3.21784E-13
 -1      3337 1.97066E+01-4.04561E+00-8.56321E-02-4.75660E+00 3.79877E-13 3.53710E-13
 -1      3338 2.00875E+01 2.25167E+00-6.08786E-03-1.11902E+00-4.07161E-13-7.47688E-13
 -1      3339 2.01644E+01 2.06843E+00-8.25800E-03-1.20157E+00-4.63349E-13-6.96792E-13
 -1      3340 2.02357E+01 1.76725E+00 5.80995E-03-1.03986E+00-4.44059E-13-6.48341E-13
 -1      3341 2.01708E+01 1.98198E+00 8.00824E-03-9.16318E-01-3.56658E-13-7.26899E-13
 -1      3342 2.02737E+01 7.17828E-01 4.63261E-03-3.44646E-01-2.95099E-13-4.88049E-13
 -1      3343 2.02302E+01 5.56399E-01-3.61281E-03-2.13195E-01-2.44788E-13-4.64515E-13
 -1      3344 2.02771E+01 5.87754E-01-3.16883E-04-1.85613E-01-2.26773E-13-4.75378E-13
 -1      3345 2.02898E+01 9.91284E-01-7.83078E-04 6.90924E-01 5.45460E-13-2.36979E-13
 -1      3346 2.02703E+01 1.31304E+00 4.55001E-03 7.74111E-01 5.40177E-13-3.04491E-13
 -1      3347 2.02860E+01 1.13360E+00 5.35564E-03 5.97465E-01 5.01000E-13-3.06802E-13
 -1      3348 2.02326E+01 7.78029E-01-3.80120E-03 4.83226E-01 4.84435E-13-2.34053E-13
 -1      3349 2.67618E+01-1.56822E+00-9.39020E-02-1.32793E+00-2.64948E-13 4.95215E-13
 -1      3350 2.63168E+01-3.08344E+00 8.34134E-02 3.98657E-02-8.20663E-14 5.03562E-13
 -1      3351 2.51900E+01-3.42626E+00 2.35623E-03 7.12398E-01-1.10918E-14 3.30475E-13
 -1      3352 2.55232E+01-1.12607E+00-3.94709E-02-1.63279E+00-1.96587E-13 3.31590E-13
 -1      3353 2.17041E+01-4.44410E+00-5.04457E-02 4.07465E+00-5.31318E-13-2.96055E-13
 -1      3354 1.89576E+01-3.52660E+00 6.87054E-02 4.76081E+00-6.22172E-13-1.47313E-13
 -1      3355 1.04078E+01 1.10466E-01 8.33758E-02-1.89652E+00-1.40946E-14 5.92040E-13
 -1      3356 1.13604E+01-3.42217E-01 7.11437E-02-3.19828E+00 1.01235E-13 3.32553E-13
 -1      3357 2.00539E+01 2.16514E+00-4.29814E-03 2.92491E-01 2.40197E-13-7.06842E-13
 -1      3358 2.00410E+01 2.20406E+00-3.35560E-03 1.70796E-01 1.82687E-13-7.22898E-13
 -1      3359 2.00341E+01 2.22301E+00-3.69692E-03 6.59585E-02 1.39053E-13-7.16571E-13
 -1      3360 2.00338E+01 2.22388E+00-3.64745E-03-5.80441E-02 5.70604E-14-7.25525E-13
 -1      3361 2.01479E+01 1.92869E+00 4.94831E-03 1.01326E-01 1.44855E-13-6.74814E-13
 -1      3362 2.02562E+01 1.46582E+00 6.26752E-03 5.86195E-01 4.27204E-13-4.28655E-13
 -1      3363 2.01645E+01 1.80408E+00-6.95867E-03 6.85747E-01 4.42816E-13-5.14187E-13
 -1      3364 2.01304E+01 1.93399E+00-2.54629E-03 5.90038E-01 3.81029E-13-5.65365E-13
 -1      3365 1.95881E+01 8.27763E-01-4.30100E-03 7.03257E-01 1.53129E-13-4.75580E-13
 -1      3366 1.96989E+01 7.61703E-01 1.73188E-03 7.78222E-01 2.19479E-13-1.12224E-13
 -1      3367 2.44681E+01-3.45949E+00-3.78150E-03-1.03932E+00 1.44368E-13-5.41016E-13
 -1      3368 2.02876E+01 9.50514E-01 2.71002E-04-4.23554E-01-2.98326E-13-5.49760E-13
 -1      3369 1.73263E+01-2.84576E+00 7.80176E-02 4.86658E+00 5.43648E-13-1.37029E-13
 -1      3370 2.58721E+01 3.06012E+00-1.72661E-01-2.09300E+00-5.23304E-13 1.48503E-13
 -1      3371 2.52707E+01-2.76885E+00-6.01576E-02-3.50546E-01-7.64883E-14 4.97625E-13
 -1      3372 2.53866E+01-1.86642E+00 1.59927E-02-1.23962E+00-4.72365E-14 3.39518E-13
 -1      3373 1.96673E+01-2.91182E+00 3.66008E-02 3.97085E+00-6.73126E-13-2.74052E-13
 -1      3374 1.78104E+01-2.92267E+00 6.82606E-02 4.84955E+00-6.36852E-13-3.70329E-14
 -1      3375 1.64646E+01-2.07063E+00 2.90367E-02 4.51485E+00-6.14751E-13-6.17492E-14
 -1      3376 2.42860E+01-2.94671E+00-3.84334E-02-4.25180E-01 5.37764E-14-3.33985E-13
 -1      3377 2.38557E+01-2.48906E+00-2.03462E-02-1.92840E-01-8.20902E-14-2.07825E-13
 -1      3378 2.34223E+01-2.33558E+00 3.29354E-02-6.36320E-01 1.51632E-14-1.24879E-13
 -1      3379 2.36433E+01-3.25314E+00 7.04128E-02-1.57659E+00 1.45321E-13-4.06539E-13
 -1      3380 2.64594E+01-1.71494E+00-3.34682E-02 1.14412E+00-1.22204E-13-6.54643E-13
 -1      3381 2.30736E+01-3.85988E+00 5.11184E-02 2.72650E+00-3.76154E-13-2.03003E-13
 -1      3382 2.00605E+01 1.15085E-01 2.42362E-03-1.28009E-01 2.10053E-13-2.31092E-13
 -1      3383 2.01492E+01 1.76115E-01-1.42984E-03-8.84854E-02 2.17059E-13-2.59076E-13
 -1      3384 2.00428E+01 7.68188E-02-2.90409E-04-1.60060E-01 1.68179E-13-2.45636E-13
 -1      3385 2.00824E+01 3.21535E-02-1.02639E-03-2.00943E-01 1.12235E-13-2.53440E-13
 -1      3386 2.00205E+01 2.83105E-02 1.71828E-04-2.01138E-01 1.07036E-13-2.13833E-13
 -1      3387 2.00279E+01 4.93956E-02 1.46299E-03-1.84059E-01 1.17603E-13-2.50889E-13
 -1      3388 2.68818E+01-2.83659E+00-4.84989E-02 5.87150E-01 1.71824E-15 4.07181E-13
 -1      3389 2.55835E+01-2.73868E+00 4.46497E-02 4.35438E-01-1.24296E-13 4.35384E-13
 -1      3390 2.69442E+01 1.99261E+00-1.08022E-01 2.54739E+00 6.06418E-13 1.83097E-13
 -1      3391 2.67001E+01 1.86431E+00-2.06270E-01-2.49546E+00 1.19356E-13-3.44468E-13
 -1      3392 2.67331E+01-2.25286E+00 3.23183E-02-1.04328E+00-2.52368E-14-4.67529E-13
 -1      3393 2.64280E+01-1.26905E+00-1.54990E-01-1.95174E+00-1.25976E-14-3.91153E-13
 -1      3394 2.66850E+01 3.22937E-01-2.92497E-02-2.29026E+00-6.99718E-14-4.76275E-13
 -1      3395 1.94104E+01 9.48369E-01-3.98276E-03 4.75367E-01 2.03463E-13 2.42627E-14
 -1      3396 1.94911E+01 9.03510E-01 1.71771E-03 5.90935E-01 1.75973E-13-2.36372E-13
 -1      3397 1.94542E+01 8.72156E-01 2.32866E-03 7.05603E-01 1.06921E-13-2.90571E-13
 -1      3398 1.93165E+01 1.01247E+00-2.70303E-03 1.88406E-01 2.66098E-13 2.23373E-13
 -1      3399 1.93533E+01 9.92385E-01-2.35352E-04 3.27534E-01 3.51632E-13 3.67126E-14
 -1      3400 1.92704E+01 9.82207E-01 3.19330E-03 4.35485E-01 2.17294E-13 9.77853E-14
 -1      3401 1.91867E+01 1.02876E+00 3.58754E-03 1.13097E-01 1.75108E-13-7.38899E-15
 -1      3402 1.38261E+01-9.87434E-01 1.41511E-02 4.00814E+00 5.46384E-13-6.29580E-13
 -1      3403 1.18942E+01-6.90155E-01 1.28910E-01 3.79284E+00 4.90830E-13-9.45355E-13
 -1      3404 1.17368E+01 2.04379E-02 5.87164E-02 2.63791E+00 4.14500E-13-9.86780E-13
 -1      3405 2.27546E+01-2.57924E+00-3.51100E-02-1.34480E+00-2.61386E-14-1.95445E-13
 -1      3406 1.61578E+01-2.44748E+00 8.65694E-02-4.84278E+00-3.52850E-13-8.18540E-13
 -1      3407 1.99135E+01 5.58815E-01-3.29760E-04-8.60435E-01-4.54575E-13-6.60014E-13
 -1      3408 1.98348E+01 6.22519E-01-1.85917E-03-8.25415E-01-1.40984E-13-4.63670E-13
 -1      3409 1.97360E+01 6.50281E-01 3.54964E-04-8.73565E-01-2.78985E-13-4.19752E-13
 -1      3410 1.99007E+01 5.47357E-01 1.41640E-03-9.36521E-01-2.96532E-13-5.21190E-13
 -1      3411 1.68640E+01-2.10761E+00 9.52598E-02-4.48188E+00 3.30010E-13 2.68893E-13
 -1      3412 2.02399E+01 1.48478E+00-5.27156E-03-8.78951E-01-4.07253E-13-5.98482E-13
 -1      3413 2.02358E+01 1.50568E+00-2.77770E-03-7.70544E-01-3.72999E-13-6.23462E-13
 -1      3414 2.58045E+01-4.05282E+00 5.44303E-02-1.18356E+00-4.13399E-13 2.29476E-13
 -1      3415 9.70583E+00 2.77675E-01 1.28258E-01 2.16125E-01 1.61669E-13-1.15506E-12
 -1      3416 2.14093E+01-3.53550E+00 6.46296E-02-3.51019E+00 3.70134E-13-7.84000E-14
 -1      3417 2.01778E+01 4.93058E-01-2.08583E-03 2.19407E-01 3.92339E-13-2.29021E-13
 -1      3418 2.02337E+01 6.38277E-01 4.21980E-03 3.62124E-01 4.37247E-13-2.33827E-13
 -1      3419 2.02586E+01 7.80181E-01-4.86223E-03 4.19216E-01 4.65160E-13-2.47108E-13
 -1      3420 2.02321E+01 5.28686E-01-2.04121E-03 1.96691E-01 3.61523E-13-2.25919E-13
 -1      3421 2.00710E+01 2.11512E+00-3.11262E-03-3.83376E-01-1.27371E-13-7.55591E-13
 -1      3422 2.00948E+01 2.03730E+00-5.18017E-03-4.98135E-01-1.90319E-13-7.67858E-13
 -1      3423 2.00983E+01 2.02861E+00-5.39783E-03 5.04668E-01 3.54687E-13-6.12967E-13
 -1      3424 2.00738E+01 2.10913E+00-3.10079E-03 3.91304E-01 2.94869E-13-6.69140E-13
 -1      3425 2.01696E+01 1.85314E+00 5.20776E-03 2.90828E-01 2.49710E-13-6.40561E-13
 -1      3426 2.02092E+01 1.70051E+00 5.74625E-03 4.59232E-01 3.36208E-13-5.44130E-13
 -1      3427 1.34308E+01-7.52151E-01 6.41189E-02 3.60934E+00-4.44046E-13 1.15144E-13
 -1      3428 1.13742E+01-4.88301E-01 1.45655E-01 3.39531E+00-3.39291E-13 2.99136E-13
 -1      3429 1.11787E+01 2.48540E-01 3.66212E-02 1.84969E+00-2.33065E-13 3.93970E-13
 -1      3430 2.02046E+01 1.70708E+00 4.62334E-03-4.52336E-01-1.96411E-13-7.25369E-13
 -1      3431 2.01269E+01 1.94290E+00-2.68795E-03-5.83589E-01-2.18182E-13-7.53546E-13
 -1      3432 2.01632E+01 1.81427E+00-6.48607E-03-6.83104E-01-2.77426E-13-7.53879E-13
 -1      3433 1.08883E+01 5.78131E-01 6.17286E-02 3.02410E-01 9.95551E-14 8.30704E-13
 -1      3434 1.05150E+01 4.50290E-01 1.10911E-01-9.66172E-01 1.51060E-14 8.58466E-13
 -1      3435 1.19426E+01 5.16284E-01 6.44112E-02-1.30450E+00 1.58257E-13 7.07448E-13
 -1      3436 1.96002E+01-3.37414E+00 4.43261E-02-4.36429E+00-4.71411E-13-4.55174E-13
 -1      3437 2.10912E+01-4.12801E+00 1.98006E-02-4.20896E+00-5.19688E-13-3.48728E-13
 -1      3438 2.22500E+01-3.70273E+00 7.05469E-02-3.13788E+00-4.80786E-13-2.65846E-14
 -1      3439 1.32592E+01-4.49632E-01 8.76457E-02-3.36684E+00 1.83001E-13 2.51417E-13
 -1      3440 1.10610E+01-6.91394E-02 9.10448E-02-2.52860E+00 1.91999E-14-8.29878E-13
 -1      3441 1.15202E+01-4.70405E-01 1.55190E-01-3.45293E+00-1.89296E-13-9.55791E-13
 -1      3442 1.33195E+01-8.99412E-01 4.00885E-02-3.86081E+00-2.14391E-13-8.09748E-13
 -1      3443 2.47034E+01-4.02028E+00-5.49202E-03-1.60138E+00-4.15758E-13 1.53596E-13
 -1      3444 2.45005E+01-3.53435E+00 2.76624E-02 1.19476E+00 3.80113E-14 4.13719E-13
 -1      3445 2.02726E+01 2.57548E-01 2.01025E-03 5.13448E-02-1.74901E-13-4.22548E-13
 -1      3446 2.02487E+01 1.86832E-01-1.13820E-03 9.58088E-02-1.62800E-13-3.98183E-13
 -1      3447 2.02325E+01 1.33143E-01 1.44386E-03 1.25908E-01-1.44119E-13-3.65115E-13
 -1      3448 2.02116E+01 9.06313E-02-4.66037E-04 1.52985E-01-1.03768E-13-3.43287E-13
 -1      3449 2.02882E+01 1.90797E-01-3.83237E-04 9.38687E-02-1.33888E-13-3.80089E-13
 -1      3450 2.01919E+01 6.03630E-02 8.85465E-04 1.70981E-01-8.76926E-14-3.34874E-13
 -1      3451 2.01747E+01 3.86571E-02 1.76140E-05 1.87095E-01-5.77357E-14-3.12353E-13
 -1      3452 2.02478E+01 9.39574E-02-5.09373E-04 1.45013E-01-7.85408E-14-3.40801E-13
 -1      3453 2.01535E+01 2.56776E-02 4.00574E-04 1.97948E-01-1.21321E-14-3.07575E-13
 -1      3454 2.01397E+01 1.94958E-02 3.59719E-04 2.08284E-01 2.27841E-15-2.42458E-13
 -1      3455 2.02048E+01 4.33720E-02-5.05052E-04 1.76511E-01-3.31927E-14-3.29587E-13
 -1      3456 2.01179E+01 1.94992E-02-1.11514E-05 2.16068E-01-3.82723E-15-2.13762E-13
 -1      3457 2.01069E+01 2.51253E-02 6.02448E-04 2.24716E-01 9.40564E-15-2.14533E-13
 -1      3458 2.01616E+01 2.75115E-02-4.21647E-04 1.97306E-01 1.45223E-14-2.89438E-13
 -1      3459 2.00846E+01 3.51092E-02-3.64969E-04 2.32705E-01-8.10845E-15-2.04642E-13
 -1      3460 2.00757E+01 4.99515E-02 7.80035E-04 2.42875E-01-3.06684E-15-1.51188E-13
 -1      3461 2.01187E+01 3.81448E-02-2.86308E-04 2.14721E-01 6.56637E-15-2.41918E-13
 -1      3462 2.00524E+01 6.78223E-02-6.80957E-04 2.53698E-01-3.29368E-14-1.60721E-13
 -1      3463 2.00449E+01 9.00536E-02 9.18091E-04 2.67936E-01 6.19849E-16-1.65772E-13
 -1      3464 2.00754E+01 6.94564E-02-1.14395E-04 2.34644E-01-2.83140E-14-2.57214E-13
 -1      3465 2.00198E+01 1.14288E-01-9.76188E-04 2.83740E-01 8.92999E-15-2.23680E-13
 -1      3466 2.00129E+01 1.42515E-01 1.03464E-03 3.04090E-01-2.61255E-14-2.43561E-13
 -1      3467 2.00304E+01 1.17303E-01 8.58427E-05 2.61833E-01-2.40056E-14-3.05751E-13
 -1      3468 1.99849E+01 1.71846E-01-1.26328E-03 3.26664E-01-9.32030E-14-1.98872E-13
 -1      3469 1.99778E+01 2.04794E-01 1.14476E-03 3.54771E-01-1.27460E-13-1.88832E-13
 -1      3470 1.99815E+01 1.78502E-01 3.08692E-04 3.00203E-01-3.11363E-14-3.16685E-13
 -1      3471 1.99457E+01 2.37892E-01-1.54869E-03 3.85642E-01-8.93437E-14-1.74385E-13
 -1      3472 1.99378E+01 2.74056E-01 1.26296E-03 4.22813E-01-5.68695E-14-1.23639E-13
 -1      3473 1.99264E+01 2.50168E-01 5.48283E-04 3.53032E-01-1.17272E-13-2.01940E-13
 -1      3474 1.99004E+01 3.09143E-01-1.82861E-03 4.63335E-01-7.16661E-14-7.26016E-14
 -1      3475 1.98915E+01 3.46343E-01 1.40724E-03 5.10542E-01-7.83904E-14-5.33842E-14
 -1      3476 1.98624E+01 3.28944E-01 7.87260E-04 4.23165E-01-2.14816E-14-1.49613E-13
 -1      3477 1.98479E+01 3.80702E-01-2.08775E-03 5.61935E-01-6.95526E-14-1.70900E-14
 -1      3478 1.98382E+01 4.15551E-01 1.60965E-03 6.19772E-01-2.16939E-14-1.72986E-14
 -1      3479 1.97874E+01 4.10107E-01 1.00460E-03 5.13175E-01-4.04485E-14-7.89169E-15
 -1      3480 1.97881E+01 4.44943E-01-2.29649E-03 6.83190E-01 3.92485E-14 2.78144E-14
 -1      3481 1.97792E+01 4.72189E-01 1.92567E-03 7.51815E-01 1.19124E-13 7.70279E-14
 -1      3482 1.97000E+01 4.86443E-01 1.15090E-03 6.25501E-01 4.59177E-14 2.13763E-14
 -1      3483 1.97238E+01 4.90106E-01-2.39942E-03 8.28464E-01 6.01180E-14 8.84889E-14
 -1      3484 1.97191E+01 5.01798E-01 2.44625E-03 9.07522E-01 4.95466E-14 1.37002E-14
 -1      3485 1.96006E+01 5.46916E-01 1.13684E-03 7.62737E-01 1.05171E-13 8.62358E-15
 -1      3486 1.96618E+01 4.98567E-01-2.29601E-03 9.98817E-01 6.22571E-14-8.54705E-15
 -1      3487 1.96685E+01 4.83101E-01 3.31085E-03 1.08729E+00 7.35553E-14-6.29770E-14
 -1      3488 1.94932E+01 5.74986E-01 8.09706E-04 9.28074E-01 4.79555E-14-1.10536E-13
 -1      3489 1.96171E+01 4.44925E-01-1.79219E-03 1.19500E+00 9.45997E-14-2.80619E-14
 -1      3490 1.96479E+01 3.86037E-01 4.70220E-03 1.29086E+00 2.04810E-13-1.00810E-13
 -1      3491 1.93878E+01 5.46596E-01-8.33272E-05 1.12588E+00 1.02495E-13-1.20559E-13
 -1      3492 1.96174E+01 2.94214E-01-4.91189E-04 1.41691E+00 2.82128E-13-1.17543E-13
 -1      3493 1.96934E+01 1.70202E-01 6.73897E-03 1.51596E+00 2.54321E-13-7.66873E-14
 -1      3494 1.93046E+01 4.27817E-01-1.95690E-03 1.36215E+00 1.84716E-13-2.77413E-14
 -1      3495 1.97109E+01 1.06552E-03 2.31160E-03 1.66074E+00 1.66748E-13-1.36065E-13
 -1      3496 1.98648E+01-2.14609E-01 9.21910E-03 1.75351E+00 9.76345E-14-8.29843E-14
 -1      3497 1.92816E+01 1.72477E-01-5.47177E-03 1.64364E+00 2.00345E-13-1.15537E-13
 -1      3498 1.99777E+01-4.86352E-01 7.99216E-03 1.91025E+00 8.29569E-14-9.90909E-15
 -1      3499 2.02548E+01-8.19885E-01 1.14654E-02 1.97510E+00 1.00799E-13 1.99559E-14
 -1      3500 1.93857E+01-2.78669E-01-1.16448E-02 1.97179E+00 1.97253E-13-2.01639E-13
 -1      3501 2.05407E+01-1.20965E+00 1.93872E-02 2.11739E+00 1.36371E-13 3.42121E-14
 -1      3502 2.09859E+01-1.67409E+00 8.98872E-03 2.11019E+00 2.08977E-13 9.46608E-14
 -1      3503 1.97257E+01-9.91603E-01-2.26214E-02 2.32504E+00 1.47002E-13 4.00114E-15
 -1      3504 2.15758E+01-2.14255E+00 4.54067E-02 2.14832E+00 2.97296E-13 1.51065E-13
 -1      3505 2.21859E+01-2.69655E+00 1.78214E-03 1.99747E+00 2.59914E-13 2.38849E-13
 -1      3506 2.04864E+01-2.03729E+00-4.65740E-02 2.62327E+00 2.55407E-13 1.51218E-13
 -1      3507 2.35549E+01-3.41957E+00 2.47376E-02 1.73159E+00 1.66419E-13 3.09564E-13
 -1      3508 2.22605E+01-3.38615E+00 4.11812E-02 2.83387E+00-4.16059E-13-1.12637E-13
 -1      3509 1.62935E+01-1.30450E+00 5.80049E-02-3.94293E+00 1.98232E-13 1.78357E-13
 -1      3510 1.80218E+01-2.30074E+00-5.85467E-02-4.14593E+00 2.92795E-13 8.40647E-15
 -1      3511 2.04618E+01-1.07773E+00 1.40715E-02-2.09121E+00 1.84363E-13 2.43259E-13
 -1      3512 2.01380E+01-7.11155E-01 9.85034E-03-2.04835E+00 2.48654E-13 3.33275E-13
 -1      3513 1.99936E+01-4.02140E-01 1.06242E-02-1.89509E+00 1.13006E-13 1.44182E-13
 -1      3514 1.98129E+01-1.53199E-01 3.71898E-03-1.81159E+00 1.34286E-14 1.43240E-13
 -1      3515 1.95086E+01-4.95255E-01-1.39338E-02-2.14078E+00 4.67389E-14 1.86974E-13
 -1      3516 1.97816E+01 4.67739E-02 7.58691E-03-1.66658E+00 5.48999E-14 1.55350E-13
 -1      3517 1.96914E+01 2.00306E-01 2.30342E-04-1.57117E+00 1.32974E-13 6.15255E-14
 -1      3518 1.93662E+01 2.75562E-02-7.08243E-03-1.80887E+00 6.22316E-15 1.96988E-14
 -1      3519 1.97193E+01 3.20141E-01 5.24196E-03-1.44279E+00 4.99243E-14-8.92944E-14
 -1      3520 1.96826E+01 4.06909E-01-1.32238E-03-1.34657E+00 4.48493E-14-2.36107E-13
 -1      3521 1.93767E+01 3.46372E-01-2.94201E-03-1.52049E+00-5.46410E-14 2.05392E-14
 -1      3522 1.97366E+01 4.71439E-01 2.83270E-03-1.23493E+00 1.51977E-13-3.30261E-13
 -1      3523 1.97331E+01 5.17997E-01-1.30137E-03-1.14229E+00 2.10252E-13-4.08523E-13
 -1      3524 1.94640E+01 5.25704E-01-1.43495E-04-1.27514E+00 4.55763E-14-2.15774E-13
 -1      3525 2.02412E+01 3.33712E-01-2.04720E-03 7.93353E-03 2.29586E-13-2.51177E-13
 -1      3526 2.02709E+01 4.40247E-01 3.00281E-03 8.41837E-02 2.71016E-13-2.49092E-13
 -1      3527 1.07258E+01 4.93012E-01 4.48023E-02 8.47782E-01 2.23902E-13-1.09221E-12
 -1      3528 1.05148E+01 5.22189E-01 8.79162E-02-7.92498E-01 1.31705E-13-9.56860E-13
 -1      3529 2.00269E+01 1.21681E-01 1.14234E-03-3.07652E-01 1.48096E-13-1.33332E-13
 -1      3530 2.00264E+01 9.55477E-02-9.56434E-04-2.88059E-01 1.62251E-13-1.37728E-13
 -1      3531 2.00454E+01 7.35919E-02 1.00587E-03-2.72861E-01 1.53110E-13-1.43318E-13
 -1      3532 2.00463E+01 5.36389E-02-6.49758E-04-2.59555E-01 1.60498E-13-1.37859E-13
 -1      3533 2.00379E+01 9.89197E-02-1.42903E-05-2.72143E-01 1.64825E-13-1.34546E-13
 -1      3534 1.99824E+01 2.48906E-01 1.39667E-03-4.25581E-01-4.52274E-15-4.69508E-14
 -1      3535 1.99815E+01 2.12785E-01-1.56917E-03-3.88205E-01 2.55744E-14-5.77054E-14
 -1      3536 1.99519E+01 3.24397E-01 1.53007E-03-5.14536E-01-5.13426E-14-1.15312E-13
 -1      3537 1.99519E+01 2.84878E-01-1.89808E-03-4.66265E-01 1.05072E-14-5.78131E-14
 -1      3538 1.99110E+01 3.04738E-01 7.53728E-04-4.32904E-01 1.40083E-14-6.21213E-14
 -1      3539 1.99130E+01 4.03363E-01 1.68635E-03-6.26470E-01-8.27435E-14-2.38699E-13
 -1      3540 1.99144E+01 3.62553E-01-2.23987E-03-5.66465E-01-7.52207E-14-1.84018E-13
 -1      3541 1.98498E+01 3.91460E-01 1.08604E-03-5.23905E-01 1.81391E-15-1.58559E-13
 -1      3542 1.98642E+01 4.79431E-01 1.90601E-03-7.62874E-01-6.71186E-14-2.41152E-13
 -1      3543 1.98669E+01 4.40947E-01-2.58334E-03-6.90720E-01-1.15315E-13-2.69148E-13
 -1      3544 1.97735E+01 4.80877E-01 1.41918E-03-6.37587E-01-9.09898E-14-2.76894E-13
 -1      3545 1.98057E+01 5.41698E-01 2.26984E-03-9.24690E-01-6.67272E-14-8.09641E-14
 -1      3546 1.98085E+01 5.11670E-01-2.88726E-03-8.40520E-01-1.19805E-14-1.48236E-13
 -1      3547 1.96795E+01 5.65240E-01 1.71122E-03-7.76083E-01-1.15158E-13-2.51615E-13
 -1      3548 1.97421E+01 5.72375E-01 2.91873E-03-1.11239E+00-5.74440E-14 1.41227E-14
 -1      3549 1.97409E+01 5.60710E-01-3.08095E-03-1.01698E+00-6.48913E-14-9.79412E-14
 -1      3550 1.95667E+01 6.31602E-01 1.84534E-03-9.41861E-01-6.86551E-14-1.69576E-13
 -1      3551 1.96857E+01 5.43721E-01 4.06730E-03-1.32619E+00-6.88195E-15 1.96754E-14
 -1      3552 1.96718E+01 5.65713E-01-3.03103E-03-1.22110E+00 2.83246E-15-5.29980E-14
 -1      3553 1.94381E+01 6.59300E-01 1.58911E-03-1.13857E+00-2.64753E-14-1.01700E-13
 -1      3554 1.96631E+01 4.14663E-01 5.99782E-03-1.56592E+00-9.50184E-14 1.69403E-13
 -1      3555 1.96192E+01 4.92715E-01-2.47393E-03-1.45399E+00-4.39133E-14 9.26938E-14
 -1      3556 1.93048E+01 6.16627E-01 5.21444E-04-1.37223E+00-6.43124E-14-5.50108E-14
 -1      3557 1.97251E+01 1.28166E-01 9.08832E-03-1.82954E+00-1.21428E-13 9.89791E-14
 -1      3558 1.96205E+01 2.93102E-01-7.99199E-04-1.71633E+00-6.41433E-14 1.40224E-13
 -1      3559 1.91926E+01 4.56992E-01-2.02627E-03-1.65243E+00-6.50201E-14 3.86431E-14
 -1      3560 1.99593E+01-3.89832E-01 1.30004E-02-2.10640E+00-1.93547E-13 6.85250E-14
 -1      3561 1.97449E+01-9.79540E-02 3.46051E-03-2.00522E+00-1.68728E-13 1.03556E-13
 -1      3562 1.91532E+01 1.14747E-01-7.07404E-03-1.99132E+00-1.10145E-13 2.58234E-14
 -1      3563 2.05083E+01-1.21078E+00 1.70101E-02-2.35081E+00-2.27512E-13 3.82342E-14
 -1      3564 2.01166E+01-7.59629E-01 1.29641E-02-2.29738E+00-1.64372E-13 9.87775E-14
 -1      3565 1.92836E+01-5.00343E-01-1.64800E-02-2.40059E+00-1.94426E-13-1.01279E-13
 -1      3566 2.15797E+01-2.30765E+00 2.76330E-02-2.43778E+00-4.19666E-13 1.58027E-14
 -1      3567 2.09177E+01-1.74657E+00 2.70159E-02-2.50589E+00-3.24779E-13 2.42172E-14
 -1      3568 1.97663E+01-1.47288E+00-2.59585E-02-2.84100E+00-2.63477E-13-6.89527E-14
 -1      3569 2.29720E+01-3.40794E+00-3.43256E-02-2.20129E+00-4.83480E-13 6.30364E-14
 -1      3570 1.90683E+01 1.00092E+00 8.30291E-04-3.31886E-01 4.02098E-13 5.21529E-13
 -1      3571 1.90181E+01 1.02427E+00-3.45051E-03-1.65970E-01 2.47771E-13 3.08046E-13
 -1      3572 2.06697E+01-1.45503E+00 2.31116E-02 2.50053E+00-2.64484E-13 3.90673E-14
 -1      3573 2.12031E+01-1.99499E+00 1.63753E-02 2.47955E+00-3.58654E-13-1.20453E-14
 -1      3574 1.96625E+01 3.38529E-01-1.23254E-03 1.72310E+00-6.38437E-14-6.73569E-14
 -1      3575 1.97439E+01 1.98714E-01 8.17076E-03 1.83224E+00-1.74209E-13-9.87099E-14
 -1      3576 1.96877E+01 5.11185E-01-2.45392E-03 1.47547E+00 1.98499E-13-1.29199E-13
 -1      3577 1.97195E+01 4.42991E-01 5.52711E-03 1.58413E+00 2.12274E-13-1.46392E-13
 -1      3578 1.93003E+01 4.90522E-01-8.97391E-04 1.65104E+00 9.58677E-14-1.04285E-13
 -1      3579 1.97531E+01 5.82389E-01-3.74876E-03 1.25305E+00 1.53811E-13-2.75614E-13
 -1      3580 1.97624E+01 5.56441E-01 3.30394E-03 1.35472E+00 9.90630E-14-2.80486E-13
 -1      3581 1.94331E+01 6.30196E-01 1.13366E-03 1.38972E+00 2.55459E-13-2.71333E-13
 -1      3582 1.98328E+01 6.07163E-01-1.80604E-03 1.04761E+00 2.74474E-13-1.67577E-13
 -1      3583 1.98288E+01 6.00758E-01 2.55565E-03 1.14450E+00 1.61299E-13-2.32021E-13
 -1      3584 1.95763E+01 6.87511E-01 3.80612E-03 1.16697E+00 1.77462E-13-4.02615E-13
 -1      3585 1.97943E+01 6.94460E-01-3.67337E-03 8.16194E-01 3.84647E-13 2.64903E-13
 -1      3586 1.98997E+01 6.25997E-01 3.81558E-04 8.39182E-01 3.15000E-13-1.01305E-13
 -1      3587 1.98985E+01 6.15974E-01 8.72646E-04 8.99401E-01 4.18210E-13-1.55335E-14
 -1      3588 1.96776E+01 7.42056E-01 5.16343E-04 8.56097E-01 2.07648E-13-1.16464E-14
 -1      3589 2.00165E+01-5.64720E-01 1.06992E-02 2.27552E+00-4.77055E-13-5.49063E-14
 -1      3590 2.03402E+01-9.69613E-01 1.41310E-02 2.34484E+00-2.83272E-13 9.77855E-14
 -1      3591 1.96327E+01-1.20034E+00-3.12441E-02 2.75328E+00-3.46836E-13 1.19403E-13
 -1      3592 1.97364E+01 4.93787E-03 1.98944E-03 1.99494E+00-3.31135E-13-1.99708E-13
 -1      3593 1.99106E+01-2.46470E-01 1.13890E-02 2.09558E+00-5.12329E-13-6.99761E-14
 -1      3594 1.92838E+01-3.32908E-01-1.50272E-02 2.33675E+00-3.78189E-13-8.68392E-15
 -1      3595 2.00066E+01 1.80632E-01 1.26795E-03-3.57514E-01 4.38541E-14-8.24467E-14
 -1      3596 2.00055E+01 1.49116E-01-1.25846E-03-3.29786E-01 1.22664E-13-6.95004E-14
 -1      3597 2.00018E+01 1.56175E-01 2.06229E-04-3.09808E-01 7.53721E-14-1.21444E-13
 -1      3598 1.99605E+01 2.25395E-01 4.58699E-04-3.62417E-01 2.52877E-14-4.36462E-14
 -1      3599 2.01084E+01 1.46375E-02 4.01965E-04-2.16758E-01 1.21829E-13-2.36608E-13
 -1      3600 2.01180E+01 2.18635E-02 5.07578E-04-2.06640E-01 1.24316E-13-2.56528E-13
 -1      3601 2.02906E+01 1.16631E+00-6.13371E-05-4.76296E-01-2.79096E-13-6.16405E-13
 -1      3602 2.02928E+01 9.36459E-01-3.97612E-03-3.36033E-01-2.40560E-13-5.87689E-13
 -1      3603 2.13145E+01-1.99288E+00 1.16998E-02-2.16501E+00 1.28708E-13 5.62488E-14
 -1      3604 2.08021E+01-1.51012E+00 2.06417E-02-2.21831E+00 3.09403E-13 2.22347E-13
 -1      3605 1.99324E+01-1.29410E+00-2.56122E-02-2.48806E+00 2.71378E-13 3.48239E-13
 -1      3606 1.59975E+01-1.73067E+00 4.23024E-02-4.32660E+00-3.39357E-13-7.04117E-13
 -1      3607 1.78461E+01-2.69864E+00 3.51617E-02-4.61993E+00-4.14266E-13-6.92897E-13
 -1      3608 1.94296E+01-2.65609E+00 6.87691E-02-3.90906E+00-4.66210E-13-3.81918E-13
 -1      3609 2.02089E+01 1.59761E+00-2.77925E-03-7.11259E-01-3.16564E-13-6.68010E-13
 -1      3610 2.03062E+01 4.52934E-01 2.66382E-03-6.56108E-02-1.71650E-13-4.82763E-13
 -1      3611 2.02816E+01 3.43275E-01-2.05771E-03 3.56319E-03-1.78785E-13-4.68636E-13
 -1      3612 2.03213E+01 3.49573E-01-8.34652E-05 1.25885E-02-1.45404E-13-4.34988E-13
 -1      3613 2.00399E+01 2.20631E+00-3.38639E-03-1.62916E-01 1.33864E-14-7.41444E-13
 -1      3614 2.00516E+01 2.16951E+00-4.30221E-03-2.84502E-01-6.62688E-14-7.37431E-13
 -1      3615 2.01678E+01 1.85763E+00 5.17124E-03-2.84537E-01-8.49176E-14-6.92806E-13
 -1      3616 2.70703E+01 3.57429E-01-5.14646E-02-2.27640E+00 3.78586E-14-4.61721E-13
 -1      3617 2.26041E+01-2.91297E+00 1.95480E-03-1.89812E+00 4.81117E-14-1.94382E-13
 -1      3618 2.19648E+01-2.44599E+00 4.53571E-02-2.13551E+00-2.22201E-14-1.64831E-13
 -1      3619 2.23374E+01-3.50660E+00-7.76280E-02-2.57295E+00 2.34510E-13-3.24071E-13
 -1      3620 2.22439E+01-3.41544E+00-4.38327E-02 2.61570E+00 2.52259E-13 2.74045E-13
 -1      3621 2.06909E+01-3.05115E+00 7.34949E-02 3.55280E+00 3.63059E-13 2.17352E-13
 -1      3622 2.18924E+01-2.94248E+00 8.26276E-03-2.63010E+00-4.80188E-13-3.88925E-15
 -1      3623 2.04504E+01-2.89082E+00 8.02783E-02-3.61239E+00 3.33985E-13-4.73146E-16
 -1      3624 2.03222E+01 7.43879E-01 3.15156E-03-2.39999E-01-2.17813E-13-5.34613E-13
 -1      3625 2.03011E+01 5.82981E-01-3.15556E-03-1.37783E-01-1.83489E-13-5.26983E-13
 -1      3626 2.03369E+01 5.93094E-01 7.38319E-04-1.09454E-01-1.71852E-13-5.14432E-13
 -1      3627 2.79597E+01-1.02117E+00-1.09952E-01-1.76107E+00 1.32172E-13-5.52586E-13
 -1      3628 2.76903E+01-2.24466E+00 2.00299E-02-8.63437E-01-8.44047E-14-6.32827E-13
 -1      3629 1.33514E+01 8.70858E-02 3.60824E-02-2.60647E+00 1.33532E-13 2.03372E-13
 -1      3630 1.45894E+01-6.64633E-01-4.05996E-04-3.57763E+00 1.47514E-13 3.68296E-13
 -1      3631 1.88298E+01-2.62118E+00-3.01642E-02 4.07553E+00 4.05261E-13 7.78232E-14
 -1      3632 1.67278E+01-1.54243E+00 1.10818E-01 4.12343E+00 4.45140E-13-2.53559E-13
 -1      3633 1.97615E+01-2.06379E+00 1.93884E-02 3.15783E+00 3.50166E-13 6.85381E-14
 -1      3634 2.02829E+01 1.14586E+00-4.89654E-03 4.92533E-01 4.36376E-13-3.64258E-13
 -1      3635 2.02721E+01 1.29092E+00-2.31391E-04 4.52675E-01 3.77345E-13-4.21181E-13
 -1      3636 2.02183E+01 1.61839E+00-2.12457E-03-1.95514E-01-3.93974E-14-6.41287E-13
 -1      3637 2.02279E+01 1.56024E+00-4.25158E-03-2.77087E-01-9.90319E-14-6.58927E-13
 -1      3638 1.71762E+01-1.44138E+00 3.66256E-02 3.77673E+00-6.14072E-13-1.57060E-13
 -1      3639 1.52618E+01-1.08195E+00 8.88262E-02 4.04298E+00-5.66637E-13-1.94064E-13
 -1      3640 1.43236E+01-2.64841E-01 1.90591E-02 3.08602E+00-4.83769E-13-3.11001E-14
 -1      3641 1.62656E+01-6.80817E-01 5.85110E-02-3.31381E+00 1.89376E-13 9.58868E-14
 -1      3642 2.01114E+01 8.38913E-02-1.25152E-03-1.60116E-01 1.54956E-13-2.73409E-13
 -1      3643 2.03115E+01 5.85838E-01-1.18811E-04 1.38966E-01 2.83684E-13-2.89997E-13
 -1      3644 2.02729E+01 5.71145E-01-2.02118E-03 1.67728E-01 3.12089E-13-2.65652E-13
 -1      3645 2.02302E+01 2.50308E-01 2.46427E-03-4.67476E-02 2.11031E-13-2.53614E-13
 -1      3646 2.02881E+01 3.45882E-01-4.29042E-04-2.26235E-03 2.42500E-13-2.81851E-13
 -1      3647 2.02045E+01 1.81226E-01-1.15265E-03-9.51729E-02 2.09177E-13-2.54971E-13
 -1      3648 1.98162E+01 5.27896E-01 1.42882E-03-1.07402E+00 1.35979E-13-4.69444E-13
 -1      3649 1.98355E+01 5.45180E-01-7.03085E-04-9.97083E-01-4.55996E-14-5.18837E-13
 -1      3650 1.97505E+01 5.99068E-01 8.35427E-04-9.70920E-01-1.76087E-13-7.72317E-13
 -1      3651 1.96063E+01 5.94848E-01 2.31627E-03-1.09648E+00 8.77877E-14-5.31843E-13
 -1      3652 2.01362E+01 3.54200E-02 4.77462E-05-1.94988E-01 8.75531E-14-2.61256E-13
 -1      3653 2.01506E+01 5.73506E-02 1.05951E-03-1.78278E-01 7.77272E-14-2.52690E-13
 -1      3654 2.01753E+01 3.99491E-02-6.56282E-04-1.87646E-01 7.80537E-14-3.12117E-13
 -1      3655 1.23354E+01 6.72425E-01 4.00119E-02-1.02162E+00 1.34464E-13-8.11906E-13
 -1      3656 1.14908E+01 4.35461E-01 9.03576E-02-1.67040E+00 8.30312E-14-7.05762E-13
 -1      3657 1.27950E+01 1.36522E-01 1.73391E-02-2.52558E+00-1.12293E-14-6.77881E-13
 -1      3658 2.02909E+01 6.92712E-01 1.10757E-03 2.65589E-01 3.59587E-13-2.85747E-13
 -1      3659 2.00715E+01 5.55463E-02-2.12329E-04-2.45891E-01 1.49149E-13-1.85236E-13
 -1      3660 2.00641E+01 3.80225E-02 8.50799E-04-2.49344E-01 1.77059E-13-1.72470E-13
 -1      3661 2.00671E+01 2.52944E-02-3.19932E-04-2.40086E-01 1.76668E-13-1.71389E-13
 -1      3662 1.30387E+01 4.73126E-01 5.09700E-02-1.94270E+00 1.80818E-13 4.19439E-13
 -1      3663 1.44234E+01 3.34839E-01 4.30764E-02-2.16439E+00 2.04507E-13 2.74544E-13
 -1      3664 1.29341E+01 7.17381E-01 1.34780E-02-1.03976E+00 1.16862E-13 5.90767E-13
 -1      3665 2.05455E+01-2.74464E+00-1.88147E-02-3.31578E+00-4.17386E-13-1.39586E-13
 -1      3666 1.91453E+01 9.39873E-01-4.74024E-03-5.05790E-01 3.31655E-13 3.62176E-13
 -1      3667 1.89749E+01 9.80280E-01 2.67923E-03-4.62324E-01 3.52034E-13 3.89615E-13
 -1      3668 1.92537E+01 8.94980E-01 4.42582E-03-6.41864E-01 1.88188E-13 3.96689E-13
 -1      3669 1.88616E+01 1.05570E+00 3.64295E-03-8.09920E-02 3.19072E-13 2.49833E-13
 -1      3670 1.90032E+01 1.04344E+00-1.45912E-03 3.14117E-02 1.72949E-13 4.22335E-15
 -1      3671 1.90195E+01 1.03717E+00-1.47230E-03 2.02550E-01 1.49121E-13-6.33223E-14
 -1      3672 1.59226E+01-9.31379E-01 2.44612E-02 3.54809E+00 3.91291E-13-3.99000E-13
 -1      3673 2.00847E+01 1.72362E-02 6.58623E-04-2.32519E-01 1.30817E-13-1.86886E-13
 -1      3674 2.00905E+01 1.32923E-02 5.62127E-05-2.24557E-01 9.48330E-14-2.28056E-13
 -1      3675 2.01389E+01 2.15516E-02-5.28430E-04-2.09526E-01 1.13259E-13-3.08257E-13
 -1      3676 2.01046E+01 2.85618E-02-3.78782E-04-2.26766E-01 1.34856E-13-2.60282E-13
 -1      3677 1.92646E+01 9.06150E-01-5.22985E-03 7.09219E-01 9.15215E-14-1.93142E-13
 -1      3678 1.94055E+01 8.50520E-01 4.32093E-03 8.26314E-01 7.74485E-14-2.83931E-13
 -1      3679 1.92224E+01 1.98799E-01-5.62868E-03 1.96265E+00-3.01252E-13-2.04541E-13
 -1      3680 1.95915E+01 7.40953E-01-3.70548E-03 9.38011E-01 2.32036E-14-2.43891E-13
 -1      3681 1.97234E+01 6.85959E-01 2.02164E-03 9.76843E-01 1.41518E-13-6.41536E-14
 -1      3682 1.99028E+01 6.03377E-01 6.29732E-04 9.58911E-01 4.11261E-13 1.17649E-13
 -1      3683 2.08310E+01-2.37996E+00-4.83761E-02-2.72003E+00 2.47064E-13 1.19741E-13
 -1      3684 1.97506E+01-2.15145E+00 5.39172E-02-3.30892E+00 2.69064E-13-3.04034E-14
 -1      3685 1.30958E+01 2.26693E-01-7.72503E-03 2.34291E+00 3.98880E-13-8.37878E-13
 -1      3686 1.18776E+01 5.16213E-01 1.05704E-01 1.71788E+00 2.72497E-13-9.59788E-13
 -1      3687 1.22854E+01 7.26468E-01 2.18663E-02 7.87288E-01 1.86674E-13-9.02826E-13
 -1      3688 2.02590E+01 1.39631E+00 3.19337E-03-5.53951E-01-2.88189E-13-6.67307E-13
 -1      3689 2.02618E+01 1.37925E+00 1.21848E-03-4.60084E-01-2.26654E-13-6.82946E-13
 -1      3690 2.03206E+01 9.36036E-01-1.16607E-03-2.80685E-01-2.04694E-13-5.83634E-13
 -1      3691 1.51669E+01-1.20121E+00 7.94181E-02-4.11516E+00-2.46473E-13-6.40162E-13
 -1      3692 1.68009E+01-1.48283E+00 4.20053E-02-3.92376E+00-2.78489E-13-6.81590E-13
 -1      3693 1.42472E+01-6.83991E-01 4.10067E-02-3.59315E+00-1.57662E-13-6.86069E-13
 -1      3694 1.21450E+01 5.34900E-01 6.26398E-02 1.11387E+00-1.31280E-13 3.65048E-13
 -1      3695 2.01475E+01 1.93024E+00 5.01805E-03-9.46756E-02 2.89177E-14-6.86628E-13
 -1      3696 1.96618E+01 6.48387E-01-2.32295E-03-9.30265E-01-1.41099E-13-3.65028E-13
 -1      3697 1.94159E+01 7.91265E-01-2.17020E-03 9.61236E-01 4.01721E-14-1.26968E-13
 -1      3698 2.02310E+01 1.55538E+00-3.83194E-03 2.84757E-01 2.76891E-13-5.91167E-13
 -1      3699 2.02206E+01 1.61403E+00-2.02166E-03 2.00460E-01 2.05806E-13-6.05599E-13
 -1      3700 2.02121E+01 1.64794E+00-3.18323E-03 1.30378E-01 1.59176E-13-6.24614E-13
 -1      3701 2.02083E+01 1.66765E+00-2.59986E-03 3.93976E-02 1.00106E-13-6.37610E-13
 -1      3702 2.02916E+01 1.39449E+00 3.38300E-03 1.31262E-01 1.81102E-13-5.51215E-13
 -1      3703 2.02373E+01 1.52619E+00-1.55509E-03-3.39142E-01-1.30644E-13-6.82265E-13
 -1      3704 2.02525E+01 1.43357E+00-3.00015E-03-4.07031E-01-1.88566E-13-6.98268E-13
 -1      3705 2.03040E+01 1.22930E+00 5.32439E-03-3.42605E-01-1.72844E-13-6.45655E-13
 -1      3706 2.03073E+01 1.32313E+00 6.42367E-03-2.46023E-01-9.32952E-14-6.11038E-13
 -1      3707 1.95391E+01 6.69211E-01-1.32727E-03-9.73312E-01 1.10628E-13-4.45946E-13
 -1      3708 1.95439E+01 7.28120E-01 3.72971E-03-8.67978E-01 3.12290E-14-1.26334E-13
 -1      3709 1.93977E+01 7.93534E-01-5.31365E-03-7.79277E-01 1.42586E-13 2.47749E-13
 -1      3710 1.94544E+01 6.67472E-01-8.78282E-04-1.02988E+00 1.58853E-13-4.37456E-13
 -1      3711 2.03377E+01 2.48041E-01 1.16746E-03 6.15171E-02-1.13869E-13-4.05953E-13
 -1      3712 2.03163E+01 1.79959E-01-9.21616E-04 9.48026E-02-1.04713E-13-3.91505E-13
 -1      3713 1.91192E+01-1.59169E+00 2.33170E-02-3.17593E+00 2.68988E-13 4.26282E-14
 -1      3714 2.09178E+01-3.03981E+00 7.47004E-03 3.44886E+00-4.65062E-13-1.07454E-13
 -1      3715 1.97885E+01-2.44133E+00 1.02056E-02 3.56033E+00-4.49278E-13-8.67752E-14
 -1      3716 2.02979E+01 1.28394E-01 8.50508E-04 1.15045E-01-6.19320E-14-3.40672E-13
 -1      3717 2.02750E+01 8.88907E-02-3.82862E-04 1.36063E-01-3.60884E-14-3.36357E-13
 -1      3718 2.03392E+01 1.77579E-01-1.92352E-05 8.70473E-02-4.21647E-14-3.45254E-13
 -1      3719 2.02510E+01 6.16503E-02 4.87079E-04 1.48535E-01-2.31846E-14-2.85043E-13
 -1      3720 2.02282E+01 4.38425E-02 1.40010E-05 1.62002E-01 7.50810E-15-2.71366E-13
 -1      3721 2.02935E+01 9.00528E-02-1.87324E-04 1.21812E-01-3.91579E-15-2.81136E-13
 -1      3722 2.02008E+01 3.50476E-02 1.38052E-04 1.70259E-01 2.20071E-14-2.52298E-13
 -1      3723 2.01788E+01 3.37965E-02 2.89079E-04 1.80137E-01 2.68388E-14-2.41999E-13
 -1      3724 2.02407E+01 4.93969E-02-2.31213E-04 1.44418E-01 1.76296E-14-2.39622E-13
 -1      3725 2.01489E+01 3.91443E-02-1.88907E-04 1.87140E-01-4.51791E-15-2.17079E-13
 -1      3726 2.01275E+01 5.07382E-02 4.71907E-04 1.96633E-01-2.11712E-14-2.42873E-13
 -1      3727 2.01836E+01 4.47517E-02-1.66243E-04 1.61212E-01 7.02234E-15-2.33049E-13
 -1      3728 2.00952E+01 6.71707E-02-5.01005E-04 2.04804E-01-2.54973E-14-2.79635E-13
 -1      3729 2.00737E+01 8.89764E-02 5.90164E-04 2.16492E-01-1.80305E-14-2.70465E-13
 -1      3730 2.01230E+01 6.81285E-02-1.34670E-05 1.77409E-01-2.51368E-14-2.95087E-13
 -1      3731 2.00383E+01 1.14307E-01-8.08496E-04 2.27837E-01-5.60823E-14-2.75310E-13
 -1      3732 2.00158E+01 1.44405E-01 6.66003E-04 2.43816E-01-5.08662E-14-2.85702E-13
 -1      3733 2.00581E+01 1.13762E-01 1.99641E-04 1.97315E-01-3.91018E-14-2.62552E-13
 -1      3734 1.99762E+01 1.76969E-01-1.12120E-03 2.60040E-01-1.45189E-15-2.64949E-13
 -1      3735 1.99514E+01 2.13797E-01 7.16364E-04 2.82044E-01-3.08221E-14-2.64001E-13
 -1      3736 1.99868E+01 1.77465E-01 4.72676E-04 2.24530E-01-1.81202E-14-2.19502E-13
 -1      3737 1.99059E+01 2.52092E-01-1.45339E-03 3.04628E-01-5.76044E-14-2.08002E-13
 -1      3738 1.98777E+01 2.94136E-01 7.61195E-04 3.34110E-01-5.73676E-14-1.25626E-13
 -1      3739 1.99061E+01 2.55793E-01 7.86417E-04 2.62144E-01-5.14044E-15-2.22281E-13
 -1      3740 1.98243E+01 3.36533E-01-1.81276E-03 3.64460E-01-6.64010E-15-1.02818E-13
 -1      3741 1.97913E+01 3.81904E-01 8.22383E-04 4.02733E-01 3.90399E-14-6.27672E-14
 -1      3742 1.98125E+01 3.45499E-01 1.13395E-03 3.12893E-01 1.06565E-14-4.53745E-14
 -1      3743 1.97282E+01 4.26078E-01-2.19867E-03 4.42303E-01-1.48636E-14-4.18410E-14
 -1      3744 1.96896E+01 4.72004E-01 9.34605E-04 4.90561E-01 1.67362E-14 3.85731E-14
 -1      3745 1.97020E+01 4.42595E-01 1.50235E-03 3.79574E-01 2.19233E-14-5.85956E-14
 -1      3746 1.96146E+01 5.14506E-01-2.61990E-03 5.40970E-01 3.29393E-14 2.78006E-14
 -1      3747 1.95702E+01 5.56833E-01 1.15819E-03 6.00443E-01 6.72848E-14-5.94699E-15
 -1      3748 1.95707E+01 5.41425E-01 1.88383E-03 4.65165E-01 3.60473E-14-6.56396E-14
 -1      3749 1.94819E+01 5.92454E-01-3.08421E-03 6.63782E-01 9.57964E-14-3.72334E-14
 -1      3750 1.94329E+01 6.24970E-01 1.59013E-03 7.35955E-01 8.94354E-14-4.58645E-14
 -1      3751 1.94152E+01 6.33638E-01 2.23367E-03 5.73340E-01 4.38384E-14-8.55088E-14
 -1      3752 1.93306E+01 6.45968E-01-3.59409E-03 8.15241E-01 4.20943E-14-1.12538E-13
 -1      3753 1.92806E+01 6.59575E-01 2.38775E-03 9.02190E-01 2.88136E-14-1.45742E-13
 -1      3754 1.92330E+01 7.06972E-01 2.49266E-03 7.09330E-01 1.78233E-14-1.21891E-13
 -1      3755 1.91652E+01 6.54760E-01-4.13362E-03 1.00201E+00 6.64130E-14-1.54589E-13
 -1      3756 1.91223E+01 6.36550E-01 3.82095E-03 1.10683E+00 1.19873E-13-1.28024E-13
 -1      3757 1.90245E+01 7.43644E-01 2.55006E-03 8.81152E-01 2.89065E-14-1.58509E-13
 -1      3758 1.89977E+01 5.90203E-01-4.60883E-03 1.23436E+00 1.75593E-13-1.27001E-13
 -1      3759 1.89771E+01 5.22331E-01 6.34504E-03 1.36145E+00 2.19015E-13-1.80287E-13
 -1      3760 1.87941E+01 7.18591E-01 2.24260E-03 1.10143E+00 1.39072E-13-2.36259E-13
 -1      3761 1.88531E+01 4.12448E-01-4.67324E-03 1.52785E+00 1.87593E-13-1.69304E-13
 -1      3762 1.88825E+01 2.70375E-01 1.07049E-02 1.68202E+00 1.79445E-13-2.30792E-13
 -1      3763 1.85545E+01 5.97315E-01 1.59463E-03 1.39112E+00 1.88814E-13-3.40953E-13
 -1      3764 1.87801E+01 6.59356E-02-3.89132E-03 1.90232E+00 2.40490E-13-1.97616E-13
 -1      3765 1.89081E+01-1.82240E-01 1.78452E-02 2.08397E+00 2.49349E-13-1.31965E-13
 -1      3766 1.83342E+01 3.30036E-01 7.75613E-04 1.78072E+00 2.16577E-13-1.82453E-13
 -1      3767 1.88728E+01-5.20058E-01 5.76215E-04 2.37354E+00 1.72278E-13-1.57654E-13
 -1      3768 1.91766E+01-9.18054E-01 2.65038E-02 2.56752E+00 1.85239E-13-9.03352E-14
 -1      3769 1.81932E+01-1.56006E-01-9.69825E-04 2.30833E+00 2.24064E-13-1.20688E-13
 -1      3770 1.92344E+01-1.39945E+00 3.03899E-02 2.96319E+00 2.80817E-13-1.84444E-14
 -1      3771 1.90220E+01-4.09620E-01 1.93367E-02-2.27231E+00 6.71135E-14-2.95122E-14
 -1      3772 1.88640E+01-1.20854E-01-2.09818E-03-2.08700E+00-1.28484E-14-3.74349E-14
 -1      3773 1.90229E+01-2.01167E+00 1.93773E-02-3.56338E+00-3.23961E-13-2.94932E-13
 -1      3774 2.03336E+01 5.70748E-01-2.20637E-03 9.46139E-02 2.68459E-13-3.49892E-13
 -1      3775 2.03414E+01 7.26754E-01 8.70469E-04 1.79822E-01 2.92671E-13-3.55796E-13
 -1      3776 1.89573E+01 1.19752E-01 1.18043E-02-1.85540E+00-6.37854E-14 4.93448E-15
 -1      3777 1.89157E+01 2.94440E-01-4.29975E-03-1.69583E+00-2.14891E-14 1.51593E-14
 -1      3778 1.83828E+01 1.66184E-01 7.16410E-04-1.97559E+00-6.90821E-14 1.10404E-15
 -1      3779 1.90468E+01 4.34801E-01 7.52346E-03-1.51922E+00-7.84080E-14-1.14710E-14
 -1      3780 1.90649E+01 5.31569E-01-4.32587E-03-1.38665E+00-1.07201E-13-5.40014E-15
 -1      3781 1.86029E+01 4.99348E-01 5.74479E-04-1.55351E+00-1.06441E-13-3.30720E-14
 -1      3782 1.92016E+01 6.04337E-01 3.90798E-03-1.25134E+00-6.81205E-14 4.14457E-14
 -1      3783 1.92521E+01 6.54980E-01-3.27560E-03-1.14171E+00 4.92058E-14-1.35695E-13
 -1      3784 1.88634E+01 6.78526E-01 1.56519E-03-1.24461E+00-8.77939E-14 5.31766E-14
 -1      3785 1.97532E+01 4.54900E-01 8.84529E-04-5.06436E-01 2.21238E-15-1.49376E-13
 -1      3786 1.97856E+01 4.04953E-01-2.23561E-03-4.57579E-01 5.06718E-14-1.05397E-13
 -1      3787 1.98433E+01 3.58330E-01 8.59941E-04-4.18276E-01 2.99364E-14-1.25722E-13
 -1      3788 1.98692E+01 3.11689E-01-1.84433E-03-3.79529E-01 1.07153E-14-8.19516E-14
 -1      3789 1.97555E+01 4.20701E-01 1.57247E-03-4.00333E-01 5.74369E-14-1.07213E-13
 -1      3790 1.95055E+01 6.47076E-01 1.14239E-03-7.48665E-01-1.49637E-13-2.36522E-13
 -1      3791 1.95549E+01 6.00561E-01-3.24861E-03-6.76613E-01-1.59637E-13-2.60438E-13
 -1      3792 1.93417E+01 7.20982E-01 1.61149E-03-9.08626E-01-1.80260E-14-2.82857E-13
 -1      3793 1.93994E+01 6.85827E-01-3.88493E-03-8.23031E-01-3.03212E-14-2.35360E-13
 -1      3794 1.93005E+01 7.37413E-01 3.25868E-03-7.16354E-01-7.62354E-14-1.81130E-13
 -1      3795 1.91518E+01 7.54894E-01 2.59970E-03-1.10164E+00-6.82943E-14-1.56429E-13
 -1      3796 1.92140E+01 7.42409E-01-4.65218E-03-9.99978E-01-4.82758E-14-1.88157E-13
 -1      3797 1.90772E+01 8.16445E-01 3.84519E-03-8.72409E-01-9.32145E-14-2.35658E-13
 -1      3798 1.89450E+01 7.17511E-01 4.48162E-03-1.33834E+00-1.46455E-13-4.14195E-14
 -1      3799 1.90018E+01 7.44592E-01-5.58621E-03-1.21615E+00-9.65818E-14-1.08430E-13
 -1      3800 1.88111E+01 8.51751E-01 4.24207E-03-1.06701E+00-1.24878E-13-1.23032E-13
 -1      3801 1.87450E+01 5.63945E-01 8.23623E-03-1.63635E+00-4.88872E-14-3.86290E-14
 -1      3802 1.87751E+01 6.54387E-01-6.63949E-03-1.48659E+00-9.44038E-14-2.73277E-14
 -1      3803 1.85038E+01 8.11169E-01 4.17433E-03-1.31796E+00-1.42834E-13-1.17094E-13
 -1      3804 1.85950E+01 2.26285E-01 1.26949E-02-2.02463E+00-8.88186E-14-5.11143E-14
 -1      3805 1.85650E+01 4.16941E-01-7.15421E-03-1.83739E+00 3.73653E-14 4.60016E-14
 -1      3806 1.81648E+01 6.49483E-01 3.41347E-03-1.65677E+00-5.79654E-14-5.90024E-14
 -1      3807 1.85834E+01-3.93355E-01 1.64780E-02-2.52666E+00-2.09127E-13-2.78936E-13
 -1      3808 1.84451E+01-3.90108E-02-8.01961E-04-2.29459E+00-1.74451E-13-2.20422E-13
 -1      3809 1.78541E+01 2.95394E-01 1.07388E-02-2.14677E+00-1.94486E-14-2.22612E-13
 -1      3810 1.88975E+01-1.34788E+00 3.51141E-02-3.14713E+00-2.79081E-13-2.76373E-13
 -1      3811 1.85209E+01-7.95681E-01 1.04663E-02-2.88212E+00-2.76426E-13-2.76465E-13
 -1      3812 1.75296E+01-3.65417E-01-2.67576E-02-2.79226E+00-2.70115E-13-4.94204E-13
 -1      3813 1.75411E+01-1.35792E+00-2.20862E-03-3.62639E+00-2.54608E-13-5.54633E-13
 -1      3814 1.85432E+01 7.96898E-02-3.95283E-03 2.21486E+00-3.65537E-13-3.18343E-15
 -1      3815 1.86578E+01-2.19403E-01 1.94644E-02 2.43021E+00-2.18276E-13 1.16377E-13
 -1      3816 1.69666E+01-7.28900E-01-3.28483E-03 3.11744E+00 3.07623E-13-2.62422E-13
 -1      3817 1.47982E+01-1.41626E-02 8.19947E-02 2.96935E+00 3.97325E-13-6.49055E-13
 -1      3818 2.04341E+01-2.14065E+00-3.14183E-02 2.98259E+00-3.30719E-13-9.34149E-14
 -1      3819 2.17062E+01-2.36038E+00 3.26154E-02 2.43842E+00-4.00709E-13-1.78607E-14
 -1      3820 1.87141E+01 4.65318E-01-6.55592E-03 1.79852E+00-3.64106E-14-3.29481E-13
 -1      3821 1.87198E+01 3.03860E-01 1.21084E-02 1.96955E+00-2.31145E-13-2.89667E-13
 -1      3822 1.80256E+01 3.69473E-01 8.47317E-04 2.03549E+00 3.46902E-14 8.34028E-15
 -1      3823 1.89443E+01 6.63266E-01-7.35088E-03 1.48517E+00 1.85931E-13-2.98706E-13
 -1      3824 1.89003E+01 5.85238E-01 6.31938E-03 1.61941E+00-3.50401E-14-3.99229E-13
 -1      3825 1.83834E+01 6.70146E-01 4.15163E-03 1.61584E+00 4.23370E-14-4.38493E-13
 -1      3826 1.93455E+01-1.97362E+00 3.01497E-02 3.46869E+00-4.22740E-13-4.91378E-14
 -1      3827 2.22141E+01-2.83192E+00 3.12957E-02 2.39514E+00-4.41733E-13-2.14499E-14
 -1      3828 1.93390E+01 7.85362E-01 5.68593E-04 1.05643E+00 1.12555E-13-2.64935E-13
 -1      3829 1.90716E+01 1.01037E+00-3.23336E-03 3.96237E-01 7.18675E-14 9.57994E-14
 -1      3830 1.91552E+01 9.75747E-01 1.56790E-03 5.49668E-01 2.04208E-14 8.41410E-14
 -1      3831 1.90977E+01 9.56312E-01 3.15806E-03 6.82429E-01 4.38694E-14-1.24596E-14
 -1      3832 1.89033E+01 1.04764E+00 3.85682E-03 3.19828E-01-6.45144E-14 1.38072E-13
 -1      3833 2.03185E+01 9.90225E-01-4.10943E-03-2.43591E-01-1.45349E-13-5.89390E-13
 -1      3834 1.92229E+01-1.14403E+00 3.54511E-02-2.77283E+00 2.17502E-13 3.65171E-14
 -1      3835 1.88607E+01-7.16347E-01 1.33091E-03-2.57035E+00 1.46676E-13-2.28822E-14
 -1      3836 1.81339E+01-3.30596E-01-1.22019E-03-2.52229E+00 1.22381E-13-6.94054E-14
 -1      3837 1.77875E+01-1.05934E+00-2.46357E-02-3.24575E+00 2.17748E-13-5.79068E-14
 -1      3838 2.02753E+01 9.59718E-01 1.86193E-03 4.62772E-01 4.52400E-13-2.96089E-13
 -1      3839 2.02899E+01 8.28420E-01 1.93843E-03 3.36292E-01 4.04105E-13-2.93966E-13
 -1      3840 2.03684E+01 7.19785E-01 3.86682E-03-1.42452E-01-1.47970E-13-5.27159E-13
 -1      3841 2.03568E+01 5.63268E-01-2.86953E-03-6.80073E-02-1.23790E-13-5.07275E-13
 -1      3842 1.91802E+01 7.49684E-01-5.47770E-03 1.22889E+00 2.30025E-13-3.02211E-13
 -1      3843 1.91217E+01 7.25498E-01 5.80393E-03 1.34499E+00 3.40165E-13-2.14781E-13
 -1      3844 1.87286E+01 8.17735E-01 7.05887E-03 1.30989E+00 1.87448E-13-2.31537E-13
 -1      3845 1.96419E+01 5.53933E-01 9.50417E-04-6.15751E-01-7.25101E-14-2.24356E-13
 -1      3846 1.96823E+01 5.03382E-01-2.71069E-03-5.55802E-01-1.42312E-15-1.33680E-13
 -1      3847 1.94844E+01 6.36421E-01 2.64791E-03-5.88884E-01-6.77345E-14-1.30747E-13
 -1      3848 2.02583E+01 1.38901E+00-4.57953E-03 4.12722E-01 3.39991E-13-4.92541E-13
 -1      3849 2.02449E+01 1.48868E+00-1.35488E-03 3.43814E-01 2.89491E-13-5.43109E-13
 -1      3850 2.03028E+01 1.29167E+00 3.25242E-03 2.48465E-01 2.67215E-13-5.43593E-13
 -1      3851 2.03109E+01 1.12173E+00 2.95472E-03 3.34516E-01 3.46712E-13-4.19207E-13
 -1      3852 1.86461E+01-6.77365E-01 1.16488E-02 2.80109E+00-3.80980E-13 1.81276E-13
 -1      3853 1.89511E+01-1.20706E+00 2.35679E-02 3.06196E+00-3.50464E-13 9.19620E-15
 -1      3854 1.80453E+01-1.50229E+00 5.97807E-03 3.61644E+00-4.79021E-13 6.19123E-14
 -1      3855 1.77773E+01-2.94482E-01-1.47216E-02 2.69448E+00-2.97587E-13 7.05872E-14
 -1      3856 2.00300E+01 1.24938E-01 7.58912E-04-2.58821E-01 1.52603E-13-1.75853E-13
 -1      3857 2.00464E+01 9.69892E-02-7.81904E-04-2.43129E-01 1.66290E-13-1.42883E-13
 -1      3858 2.01685E+01 8.72288E-02-4.49967E-04-1.58221E-01 1.27320E-13-2.45632E-13
 -1      3859 2.01885E+01 1.29008E-01 1.72216E-03-1.29234E-01 1.89598E-13-2.46589E-13
 -1      3860 2.02138E+01 9.17718E-02-7.12572E-04-1.52892E-01 1.17019E-13-2.78175E-13
 -1      3861 1.64057E+01-3.43838E-01 1.89303E-03-2.90382E+00 2.54305E-13 1.22780E-13
 -1      3862 2.03634E+01 4.37621E-01 1.48459E-03-2.13695E-02-1.01037E-13-4.96120E-13
 -1      3863 2.03467E+01 3.32192E-01-1.51953E-03 2.96554E-02-1.08429E-13-4.68531E-13
 -1      3864 2.03726E+01 3.26422E-01 4.23140E-04 3.29271E-02-7.90758E-14-4.35932E-13
 -1      3865 2.03113E+01 8.79456E-01 1.11456E-03 2.96838E-01 3.55544E-13-2.94945E-13
 -1      3866 2.02077E+01 1.66861E+00-2.61859E-03-3.41739E-02 6.53915E-14-6.46129E-13
 -1      3867 2.02115E+01 1.64960E+00-3.30482E-03-1.24701E-01 2.93819E-17-6.64234E-13
 -1      3868 2.02937E+01 1.40114E+00 5.73673E-03-1.30867E-01-1.98454E-14-5.95055E-13
 -1      3869 2.02876E+01 1.43041E+00 4.08960E-03 2.27776E-04 6.71445E-14-5.89549E-13
 -1      3870 1.31947E+01 5.16140E-01 2.48877E-02 1.81251E+00-4.97935E-13-8.93036E-15
 -1      3871 1.28088E+01 8.06132E-01 2.00624E-02 4.12266E-01-2.56951E-13 2.99403E-13
 -1      3872 1.82030E+01-9.69730E-01 8.38925E-03 3.05162E+00 3.05238E-13-1.04076E-13
 -1      3873 1.90496E+01 8.66438E-01-2.08093E-03 1.01162E+00 9.78381E-14-2.53434E-13
 -1      3874 2.03305E+01 8.40666E-01-4.78128E-04 2.20204E-01 3.08691E-13-3.57626E-13
 -1      3875 2.03234E+01 9.75845E-01-1.46065E-03 2.86693E-01 3.33820E-13-3.90351E-13
 -1      3876 2.03253E+01 1.07999E+00 1.17784E-03 2.58107E-01 2.93205E-13-4.41010E-13
 -1      3877 2.03543E+01 8.27899E-01 1.17047E-03 1.73312E-01 2.96881E-13-4.03348E-13
 -1      3878 2.03290E+01 1.19598E+00-1.47909E-03-7.38405E-02 2.69018E-17-5.57323E-13
 -1      3879 2.03320E+01 1.15606E+00-3.71045E-03-1.33200E-01-4.76378E-14-5.66659E-13
 -1      3880 2.03236E+01 1.13948E+00-1.87648E-03 2.20615E-01 2.58170E-13-5.40033E-13
 -1      3881 2.03209E+01 1.20963E+00 4.29047E-04 1.73032E-01 2.19767E-13-5.26940E-13
 -1      3882 2.03473E+01 1.00879E+00 8.71611E-04 1.78423E-01 2.62780E-13-5.07125E-13
 -1      3883 1.57357E+01-1.27693E-01-2.19259E-02 2.81824E+00-5.04743E-13-7.00967E-14
 -1      3884 1.43916E+01 3.00023E-01 5.06745E-02 2.37850E+00-5.14559E-13-2.78458E-14
 -1      3885 1.47689E+01 6.04066E-01 7.88832E-03 1.73949E+00-4.60108E-13-5.56144E-14
 -1      3886 2.00672E+01 9.72775E-02 1.11566E-04-2.17223E-01 1.19707E-13-2.94262E-13
 -1      3887 2.00770E+01 7.39595E-02 6.72073E-04-2.31861E-01 1.17814E-13-2.16155E-13
 -1      3888 2.00931E+01 5.44552E-02-4.58014E-04-2.20486E-01 1.15958E-13-2.96695E-13
 -1      3889 2.03387E+01 4.41909E-01 1.78523E-03 3.70439E-02 2.35149E-13-3.35309E-13
 -1      3890 2.03643E+01 5.67586E-01 5.81882E-04 7.04528E-02 2.44626E-13-3.73950E-13
 -1      3891 2.03193E+01 3.35387E-01-1.78086E-03-2.16282E-02 2.12935E-13-3.46434E-13
 -1      3892 2.02528E+01 1.88385E-01-6.62726E-04-9.51108E-02 1.96221E-13-2.84937E-13
 -1      3893 1.92144E+01 7.47099E-01 4.04176E-03-1.00342E+00 3.60378E-15 1.09080E-13
 -1      3894 1.55101E+01 2.13308E-01 1.26703E-02-2.44468E+00 2.57732E-13 1.75113E-13
 -1      3895 1.70612E+01-3.96761E-02 1.59076E-02-2.43890E+00 1.65923E-13 1.86713E-13
 -1      3896 1.96341E+01 5.27750E-01 2.07382E-03-4.84600E-01 2.68519E-14-9.33540E-14
 -1      3897 1.25855E+01 9.72856E-01 8.97410E-02-1.05597E-01 1.06201E-13-9.61141E-13
 -1      3898 1.31742E+01 7.86271E-01 6.25324E-03-9.15680E-01 5.86319E-14-7.92724E-13
 -1      3899 1.32219E+01 8.42977E-01 1.24925E-02 6.75724E-01 1.79206E-13-8.00662E-13
 -1      3900 1.41733E+01 3.27665E-01 1.47300E-03-2.29334E+00 2.32245E-14-5.52542E-13
 -1      3901 1.41135E+01-8.52713E-02 6.28849E-02-2.95136E+00-7.57762E-14-5.82014E-13
 -1      3902 1.55018E+01-4.76398E-01-7.03752E-03-3.20313E+00-1.26625E-13-4.84019E-13
 -1      3903 1.34690E+01 9.24420E-01 4.65163E-02-2.56977E-01-1.58474E-13 3.44678E-13
 -1      3904 1.42288E+01 8.50845E-01-1.84174E-02-8.43444E-01-4.99618E-14 1.62821E-14
 -1      3905 1.41872E+01 9.67577E-01 1.64311E-03 4.28702E-01-4.09789E-13-5.85669E-14
 -1      3906 1.98544E+01 3.20856E-01 1.09814E-03-3.33593E-01 1.20243E-14-9.65823E-14
 -1      3907 1.99167E+01 2.69160E-01 8.33754E-04-3.49261E-01 1.58725E-14-8.68232E-14
 -1      3908 1.99378E+01 2.27773E-01-1.47458E-03-3.19576E-01 2.17456E-14-8.26519E-14
 -1      3909 1.67473E+01-8.31786E-01 4.07276E-02-3.42130E+00-1.99383E-13-5.84310E-13
 -1      3910 1.92265E+01 8.35402E-01-1.18910E-03-7.80583E-01 8.65008E-14 1.78496E-13
 -1      3911 1.99956E+01 1.55523E-01-1.11874E-03-2.74983E-01 7.88223E-14-1.41757E-13
 -1      3912 2.00059E+01 1.56816E-01 3.92017E-04-2.44587E-01 9.50680E-14-1.47152E-13
 -1      3913 1.99776E+01 1.90735E-01 8.09936E-04-2.96899E-01 1.48346E-14-1.17351E-13
 -1      3914 1.86678E+01 1.06376E+00 5.97471E-04-2.00067E-01 2.78608E-13 3.85792E-13
 -1      3915 1.86377E+01 1.07378E+00-4.72896E-03 1.45140E-03 2.37562E-13 2.00257E-13
 -1      3916 1.51089E+01 5.96649E-01 2.17497E-02-1.82390E+00 2.76449E-13 1.84876E-13
 -1      3917 1.68741E+01-6.70364E-01 1.81107E-02 3.23482E+00-4.99194E-13 1.87819E-14
 -1      3918 1.88322E+01 9.67251E-01 8.12621E-04 8.15011E-01 1.21736E-13-1.12995E-13
 -1      3919 1.86331E+01 9.33477E-01-3.15280E-03 9.96861E-01 2.19279E-13-1.36203E-13
 -1      3920 1.86893E+01 1.02322E+00-2.08101E-03 6.49580E-01 5.63578E-14 2.11918E-13
 -1      3921 1.44592E+01 3.47521E-01-7.35021E-03 2.19489E+00 2.82118E-13-6.24192E-13
 -1      3922 2.03422E+01 9.64391E-01-1.95385E-03-1.93078E-01-1.26748E-13-5.71256E-13
 -1      3923 2.02073E+01 4.12071E-02 9.61474E-06-1.75920E-01 7.28920E-14-3.19874E-13
 -1      3924 2.02275E+01 6.05940E-02 6.40996E-04-1.61266E-01 9.92229E-14-3.06294E-13
 -1      3925 2.03833E+01 5.55943E-01 5.96508E-04-4.76711E-02-9.85437E-14-5.12417E-13
 -1      3926 1.88452E+01 9.66589E-01 3.29559E-03-6.06470E-01 1.72055E-14 1.51261E-13
 -1      3927 1.87331E+01 1.00913E+00-5.86482E-03-4.28421E-01 1.93391E-13 3.38948E-13
 -1      3928 1.85277E+01 1.05528E+00 2.82958E-03-3.50592E-01 4.81947E-14 2.81031E-13
 -1      3929 2.03176E+01 1.24109E+00-1.74307E-03 1.23653E-01 1.81538E-13-5.08951E-13
 -1      3930 2.03143E+01 1.27317E+00-1.24652E-03 6.44870E-02 1.11695E-13-5.16684E-13
 -1      3931 2.03514E+01 1.10716E+00 2.12391E-03 1.02015E-01 1.59741E-13-4.86050E-13
 -1      3932 1.69527E+01-2.56691E-01-2.77870E-02 2.64876E+00 2.27347E-13-2.56174E-13
 -1      3933 2.03446E+01 1.00168E+00-1.63067E-03-1.51695E-01-8.05163E-14-5.61786E-13
 -1      3934 2.01644E+01 2.75539E-02 3.27552E-04-1.95474E-01 1.07570E-13-3.37697E-13
 -1      3935 2.01827E+01 3.07152E-02 2.45172E-04-1.85315E-01 9.24291E-14-3.30456E-13
 -1      3936 2.02273E+01 4.64119E-02-3.86251E-04-1.61522E-01 9.85522E-14-2.89127E-13
 -1      3937 2.03856E+01 8.44506E-01 2.22288E-03-9.14706E-02-7.25354E-14-5.28348E-13
 -1      3938 1.73792E+01 7.33010E-02 1.51953E-02 2.25623E+00 2.29776E-13-2.67669E-13
 -1      3939 1.63025E+01 3.40366E-01 3.17303E-02 2.23737E+00 2.07583E-13-4.26113E-13
 -1      3940 1.74064E+01 3.10372E-01-1.80575E-02 1.95484E+00 2.61812E-13-2.75477E-13
 -1      3941 2.03307E+01 1.14623E-01 3.56556E-04 9.18264E-02 1.18193E-14-3.33509E-13
 -1      3942 2.03047E+01 8.17727E-02-2.56873E-04 1.06414E-01 1.50221E-14-3.13803E-13
 -1      3943 2.02759E+01 6.06751E-02 1.70591E-04 1.13442E-01 3.85153E-14-2.87557E-13
 -1      3944 2.02476E+01 4.93175E-02 1.86507E-05 1.23562E-01 4.01377E-14-2.64033E-13
 -1      3945 2.03083E+01 8.18406E-02 1.00784E-05 8.54871E-02 4.54719E-14-2.89696E-13
 -1      3946 2.02143E+01 4.68432E-02-6.56859E-05 1.28787E-01-6.98741E-16-2.45933E-13
 -1      3947 2.01846E+01 5.21934E-02 1.94252E-04 1.37194E-01 8.37137E-15-2.66049E-13
 -1      3948 2.02456E+01 5.60288E-02-2.72237E-05 9.90621E-02 1.71312E-14-2.29557E-13
 -1      3949 2.01476E+01 6.42154E-02-3.22930E-04 1.42461E-01 6.26945E-15-2.48672E-13
 -1      3950 2.01164E+01 8.27673E-02 2.92184E-04 1.51382E-01-2.80958E-14-2.49295E-13
 -1      3951 2.01760E+01 6.56796E-02 4.80123E-05 1.10524E-01-1.05681E-14-2.09906E-13
 -1      3952 2.00754E+01 1.06411E-01-5.98122E-04 1.58253E-01-1.19930E-14-2.09582E-13
 -1      3953 2.00418E+01 1.35622E-01 3.25060E-04 1.69594E-01 7.48646E-15-1.73181E-13
 -1      3954 2.00999E+01 1.03373E-01 1.95934E-04 1.22990E-01-4.26143E-15-1.29331E-13
 -1      3955 1.99958E+01 1.68695E-01-8.85538E-04 1.79387E-01-5.09590E-14-2.07946E-13
 -1      3956 1.99586E+01 2.06670E-01 3.25194E-04 1.94702E-01-3.84323E-14-1.73583E-13
 -1      3957 2.00158E+01 1.63891E-01 4.83261E-04 1.39241E-01-1.66527E-14-1.38770E-13
 -1      3958 1.99059E+01 2.47469E-01-1.20341E-03 2.08619E-01 2.27147E-14-1.93823E-13
 -1      3959 1.98633E+01 2.92511E-01 2.80008E-04 2.29274E-01 3.24452E-14-1.42167E-13
 -1      3960 1.99209E+01 2.43103E-01 8.76630E-04 1.61530E-01 4.03643E-15-2.16565E-13
 -1      3961 1.98016E+01 3.39410E-01-1.59556E-03 2.48412E-01 3.86626E-14-1.32668E-13
 -1      3962 1.97518E+01 3.90003E-01 2.38061E-04 2.75651E-01 4.31603E-14-1.06582E-13
 -1      3963 1.98110E+01 3.37581E-01 1.33134E-03 1.92194E-01 7.36656E-14-2.11538E-13
 -1      3964 1.96783E+01 4.41141E-01-2.04799E-03 3.01434E-01 2.93114E-14-1.22824E-13
 -1      3965 1.96193E+01 4.94990E-01 2.10898E-04 3.36610E-01 1.88216E-14-1.61132E-13
 -1      3966 1.96811E+01 4.43731E-01 1.72995E-03 2.33090E-01 1.59006E-14-1.90647E-13
 -1      3967 1.95312E+01 5.47619E-01-2.56719E-03 3.70391E-01-3.36730E-14-1.30470E-13
 -1      3968 1.94612E+01 6.01633E-01 2.49096E-04 4.14995E-01 3.96477E-14-1.96913E-13
 -1      3969 1.95261E+01 5.57432E-01 2.29760E-03 2.87319E-01-4.57075E-15-1.69129E-13
 -1      3970 1.93549E+01 6.51922E-01-3.21485E-03 4.58762E-01 1.14721E-13-1.99717E-13
 -1      3971 1.92726E+01 7.01611E-01 4.06299E-04 5.14841E-01 4.33051E-14-1.41856E-13
 -1      3972 1.93394E+01 6.72480E-01 2.92613E-03 3.57700E-01 3.89077E-14-2.54442E-13
 -1      3973 1.91443E+01 7.43929E-01-4.05671E-03 5.71522E-01-5.71449E-14-1.28584E-13
 -1      3974 1.90494E+01 7.82859E-01 7.91860E-04 6.42156E-01-4.15325E-14-2.35354E-13
 -1      3975 1.91143E+01 7.80443E-01 3.64115E-03 4.48986E-01 1.45407E-14-2.23459E-13
 -1      3976 1.88950E+01 8.09191E-01-5.20762E-03 7.16341E-01 2.88830E-14-1.66749E-13
 -1      3977 1.87891E+01 8.28374E-01 1.59155E-03 8.06444E-01 8.92447E-14-1.35065E-13
 -1      3978 1.88435E+01 8.69429E-01 4.46465E-03 5.68387E-01 1.40732E-14-1.75033E-13
 -1      3979 1.86036E+01 8.27385E-01-6.84545E-03 9.05591E-01 6.24180E-14-1.39033E-13
 -1      3980 1.84909E+01 8.14286E-01 2.81253E-03 1.02316E+00 9.08379E-14-2.56851E-13
 -1      3981 1.85187E+01 9.23166E-01 5.40349E-03 7.27743E-01 8.62067E-14-1.58118E-13
 -1      3982 1.82691E+01 7.71329E-01-9.07416E-03 1.15756E+00 1.33107E-13-2.80538E-13
 -1      3983 1.81575E+01 7.09466E-01 4.53283E-03 1.31608E+00 1.76732E-13-2.42587E-13
 -1      3984 1.81336E+01 9.19310E-01 7.17398E-03 9.46552E-01 8.75510E-14-1.31845E-13
 -1      3985 1.78654E+01 6.19357E-01-1.24875E-02 1.48895E+00 2.37041E-13-2.84829E-13
 -1      3986 1.77766E+01 4.83865E-01 8.35544E-03 1.70595E+00 2.86999E-13-1.90692E-13
 -1      3987 1.70324E+01 6.88061E-01 1.88944E-02 1.62190E+00 2.71093E-13-4.61555E-13
 -1      3988 1.76518E+01 8.51946E-01 1.21449E-02 1.23365E+00 1.79464E-13-2.19443E-13
 -1      3989 1.78001E+01 3.02534E-01 3.57353E-03-1.92412E+00-1.72518E-15-5.22827E-14
 -1      3990 1.78923E+01 4.78012E-01-1.32287E-02-1.67780E+00-2.36531E-14-2.64941E-14
 -1      3991 1.84496E+01 9.13987E-01 5.17325E-05 1.10676E+00 2.40952E-13-1.74950E-13
 -1      3992 1.67367E+01-1.46173E-01 2.41887E-02 2.71858E+00-4.17592E-13 3.93565E-15
 -1      3993 1.95234E+01 5.88069E-01 1.53033E-05-4.37117E-01 1.08350E-14-3.50126E-14
 -1      3994 1.95899E+01 5.29255E-01-2.46380E-03-3.93727E-01 3.53232E-14-8.77967E-14
 -1      3995 2.02884E+01 1.82060E-01-1.01828E-03-9.83905E-02 1.49227E-13-3.09520E-13
 -1      3996 2.03105E+01 2.51045E-01 1.52711E-03-6.03788E-02 1.86545E-13-3.19120E-13
 -1      3997 2.03512E+01 3.35050E-01 1.70795E-04-2.77173E-02 1.83195E-13-3.48521E-13
 -1      3998 1.81840E+01 6.10946E-01 5.55885E-03-1.47197E+00-9.14582E-14 9.50474E-14
 -1      3999 1.83027E+01 7.00767E-01-9.16461E-03-1.30204E+00-1.16988E-13 6.23193E-14
 -1      4000 1.76572E+01 7.27990E-01 8.60737E-03-1.41032E+00-1.46613E-14 2.00217E-13
 -1      4001 1.85499E+01 7.71766E-01 4.42346E-03-1.15141E+00-1.11946E-13 2.10694E-14
 -1      4002 1.86753E+01 8.17378E-01-3.32444E-03-1.02724E+00-2.28151E-14 1.54577E-13
 -1      4003 1.81570E+01 8.71070E-01 4.85468E-03-1.05997E+00-1.56295E-13 1.27550E-13
 -1      4004 1.96736E+01 4.73160E-01 1.58866E-04-3.61542E-01 4.22019E-14-1.19981E-13
 -1      4005 1.97273E+01 4.17463E-01-1.99186E-03-3.26572E-01 2.34096E-14-1.21052E-13
 -1      4006 1.95800E+01 5.36614E-01 2.37064E-03-3.15332E-01 3.05439E-14-8.07874E-14
 -1      4007 1.88339E+01 8.96583E-01 2.45916E-04-7.83124E-01-8.67342E-14-1.30851E-13
 -1      4008 1.89540E+01 8.56098E-01-4.97761E-03-7.04464E-01-3.25463E-14-1.31708E-13
 -1      4009 1.91114E+01 8.11311E-01-6.11290E-05-6.43397E-01-6.64374E-14-1.90623E-13
 -1      4010 1.92115E+01 7.58141E-01-3.86808E-03-5.79261E-01-7.91666E-14-1.99651E-13
 -1      4011 1.89064E+01 8.99092E-01 5.15010E-03-5.57868E-01-6.81540E-14-1.78731E-13
 -1      4012 1.80982E+01 9.10273E-01 2.69536E-03-1.19694E+00-9.75420E-14-3.03008E-13
 -1      4013 1.82540E+01 9.32320E-01-9.16225E-03-1.06529E+00-1.16038E-13-2.58700E-13
 -1      4014 1.76229E+01 7.67846E-01 3.50618E-03-1.52924E+00-7.51530E-14-2.98729E-13
 -1      4015 1.77910E+01 8.50750E-01-1.33060E-02-1.34309E+00-1.21125E-13-3.15987E-13
 -1      4016 1.76256E+01 1.02787E+00 1.09402E-02-1.06652E+00-1.23181E-13-3.56576E-13
 -1      4017 1.70198E+01 4.15910E-01-2.06294E-02-2.04669E+00-8.17202E-14-2.56919E-13
 -1      4018 1.72258E+01 6.40182E-01-1.90260E-02-1.73732E+00 1.03594E-14-2.26040E-13
 -1      4019 1.69845E+01 9.09313E-01 1.84110E-02-1.39836E+00-8.66631E-14-3.13501E-13
 -1      4020 1.80665E+01 8.51446E-01-1.13796E-02 1.31422E+00 1.09465E-13-1.37513E-13
 -1      4021 1.79034E+01 7.80586E-01 6.44041E-03 1.47932E+00 1.38236E-13-8.64991E-14
 -1      4022 1.53063E+01 8.05817E-01 1.08756E-02-1.15117E+00 5.59015E-14-7.24100E-14
 -1      4023 2.01212E+01 4.02720E-02 5.41091E-04-2.12255E-01 1.18843E-13-2.93001E-13
 -1      4024 2.01380E+01 3.08834E-02-1.17629E-04-2.02931E-01 1.06584E-13-2.77064E-13
 -1      4025 2.01763E+01 3.74205E-02-2.99493E-04-1.80122E-01 7.81654E-14-3.25327E-13
 -1      4026 2.01233E+01 5.62222E-02-1.26853E-04-1.97044E-01 9.46584E-14-3.01029E-13
 -1      4027 1.75337E+01 6.60099E-01-1.58966E-02 1.67453E+00 1.21836E-13-1.26242E-13
 -1      4028 1.73981E+01 5.16160E-01 1.38518E-02 1.90028E+00 3.89155E-14 2.89569E-15
 -1      4029 1.73116E+01 9.06890E-01 1.23277E-02 1.34200E+00 1.05416E-13 5.20098E-14
 -1      4030 1.72296E+01 1.64017E-01-1.29027E-02-2.15792E+00 4.18079E-14 8.79083E-14
 -1      4031 2.03744E+01 2.20685E-01 4.05445E-04 5.84413E-02-2.42655E-14-3.54960E-13
 -1      4032 2.03531E+01 1.60153E-01-5.81042E-04 8.09317E-02-1.53100E-15-3.11786E-13
 -1      4033 2.03616E+01 1.52986E-01 1.24345E-04 6.61122E-02-8.34554E-15-3.25033E-13
 -1      4034 1.85890E+01 1.08606E+00-1.06586E-03 2.22032E-01 5.42785E-14 2.86888E-13
 -1      4035 1.86456E+01 1.05875E+00-3.68976E-03 4.22341E-01-9.95528E-14 4.25265E-13
 -1      4036 1.83738E+01 1.07720E+00 3.53831E-03 5.54951E-01 5.48212E-14 2.95900E-13
 -1      4037 1.83862E+01 1.10869E+00 2.07560E-03 9.93075E-02 1.07886E-14 4.50956E-13
 -1      4038 1.64816E+01-3.31880E-01 3.06791E-02-2.95211E+00-1.47384E-13-4.85332E-13
 -1      4039 2.04002E+01 3.92568E-01-4.04381E-04 6.68218E-03-2.58731E-14-4.39575E-13
 -1      4040 2.03873E+01 2.97933E-01-9.81353E-04 4.13742E-02-3.10613E-14-3.69008E-13
 -1      4041 2.04001E+01 2.82817E-01 2.97929E-04 3.66011E-02-1.24664E-14-3.41993E-13
 -1      4042 2.03990E+01 8.11276E-01 1.06251E-03-5.02212E-02-1.89034E-14-4.71251E-13
 -1      4043 2.04041E+01 6.65488E-01-4.48094E-04-6.34165E-02-6.96486E-14-4.71519E-13
 -1      4044 2.04064E+01 5.25335E-01-7.74125E-04-1.55228E-02-4.12855E-14-4.54777E-13
 -1      4045 1.84981E+01 9.39473E-01 1.05382E-03-9.60668E-01-1.50664E-13-9.32289E-14
 -1      4046 1.86382E+01 9.22446E-01-6.61703E-03-8.61169E-01-9.67371E-14-1.31558E-13
 -1      4047 1.85678E+01 9.91601E-01 6.61112E-03-6.80584E-01-8.77834E-14-1.46367E-13
 -1      4048 1.53052E+01 5.43264E-01 3.67599E-03 1.83822E+00 3.03250E-13-5.60256E-13
 -1      4049 1.41514E+01 9.17585E-01 5.88054E-02 1.28698E+00 2.50145E-13-6.87284E-13
 -1      4050 1.56882E+01 7.28924E-01-3.05943E-02 1.47707E+00 2.44568E-13-6.09084E-13
 -1      4051 1.93386E+01 7.03880E-01-8.18459E-05-5.30022E-01-6.29897E-14-1.41944E-13
 -1      4052 1.94205E+01 6.45376E-01-3.07357E-03-4.77130E-01-4.55433E-15-6.38434E-14
 -1      4053 1.94008E+01 6.60430E-01 3.11314E-03-3.80432E-01 1.03598E-14-4.19548E-14
 -1      4054 1.68008E+01 2.67776E-01-4.57132E-03 2.28368E+00-2.43149E-13-1.06395E-14
 -1      4055 2.02494E+01 8.90376E-02-4.22389E-04-1.46421E-01 1.14910E-13-3.31757E-13
 -1      4056 2.02712E+01 1.29712E-01 1.08591E-03-1.22817E-01 1.32658E-13-3.02201E-13
 -1      4057 2.03186E+01 1.82426E-01-1.74621E-04-9.33504E-02 1.28294E-13-3.53584E-13
 -1      4058 2.02756E+01 9.11916E-02-3.31674E-04-1.35064E-01 9.86102E-14-3.39553E-13
 -1      4059 1.89983E+01 8.35598E-01-3.93484E-03-8.68642E-01 7.87073E-14 2.89236E-13
 -1      4060 1.68485E+01 5.58867E-01 2.53104E-02-1.80206E+00-2.15912E-14 2.02509E-13
 -1      4061 2.03211E+01 1.24507E+00-1.44706E-03 2.15660E-02 9.18738E-14-5.51276E-13
 -1      4062 2.03202E+01 1.24164E+00-2.39854E-03-3.95646E-02 2.76970E-14-5.54653E-13
 -1      4063 2.03743E+01 1.03843E+00 3.28652E-03-4.49964E-02 1.22185E-14-5.34066E-13
 -1      4064 2.03601E+01 1.11284E+00 3.29200E-03 2.07855E-02 8.99238E-14-5.28311E-13
 -1      4065 1.81477E+01 1.04304E+00 8.42505E-03-8.42538E-01-5.49849E-14-2.11446E-13
 -1      4066 2.00563E+01 1.18393E-01 3.96472E-04-1.93319E-01 9.72404E-14-2.23072E-13
 -1      4067 2.00851E+01 9.15558E-02-5.34811E-04-1.81746E-01 1.07097E-13-2.60598E-13
 -1      4068 1.84830E+01 9.46804E-01-5.29445E-03-7.54914E-01-6.32470E-14 9.61296E-14
 -1      4069 1.87783E+01 8.77999E-01 1.14406E-03-8.54713E-01-3.66193E-14 1.46280E-13
 -1      4070 1.80471E+01 1.01340E+00 6.56641E-03 9.70281E-01 2.01198E-13-8.52994E-14
 -1      4071 1.97271E+01 4.19558E-01 2.06969E-03-2.62771E-01 2.02145E-14-1.40975E-13
 -1      4072 1.97961E+01 3.65267E-01 2.89295E-04-3.01340E-01 3.74283E-14-1.47423E-13
 -1      4073 1.98391E+01 3.14326E-01-1.97182E-03-2.74224E-01 1.23239E-15-1.35129E-13
 -1      4074 1.63723E+01 6.20933E-01 1.13962E-02 1.86191E+00-1.53442E-13-1.22197E-13
 -1      4075 1.41186E+01 9.79598E-01-1.21559E-02 4.96198E-01 1.70659E-13-7.38672E-13
 -1      4076 1.39770E+01 7.94296E-01 7.78523E-02-1.61375E+00 6.34128E-14-6.44644E-13
 -1      4077 1.48207E+01 4.33151E-01-2.46251E-02-2.07750E+00-2.02385E-14-4.41785E-13
 -1      4078 1.39261E+01 9.22586E-01 2.99954E-03-7.91034E-01-1.50227E-15-7.23362E-13
 -1      4079 2.03824E+01 5.33185E-01-1.38919E-03 3.65821E-02 2.15116E-13-3.87680E-13
 -1      4080 2.03818E+01 6.79948E-01 2.17318E-04 9.40336E-02 2.42415E-13-3.96373E-13
 -1      4081 1.91798E+01 7.84353E-01 4.01952E-03-4.60117E-01-4.22797E-14-2.07143E-13
 -1      4082 1.61451E+01 4.17705E-01 5.86474E-03-2.05580E+00-7.75768E-14-3.51765E-13
 -1      4083 1.56872E+01 8.67795E-01 4.46613E-02-1.55865E+00-4.33464E-15-2.52358E-13
 -1      4084 1.66411E+01 1.06512E-01 4.66897E-02-2.57827E+00-1.50536E-13-3.43823E-13
 -1      4085 1.54546E+01 1.12284E+00 4.17487E-02-4.94476E-01-2.92142E-14-3.15452E-13
 -1      4086 1.60342E+01 7.54669E-01-2.46340E-02-1.38384E+00 1.53016E-13 5.43636E-14
 -1      4087 1.99362E+01 2.32152E-01 6.96682E-04-2.82591E-01-2.07122E-14-6.65429E-14
 -1      4088 2.03719E+01 7.77455E-01-4.23879E-04 1.16982E-01 2.39052E-13-4.32676E-13
 -1      4089 2.03620E+01 8.88722E-01-1.20992E-03 1.56147E-01 2.46108E-13-4.61219E-13
 -1      4090 2.03668E+01 9.48475E-01-5.44486E-04 1.23922E-01 1.88149E-13-4.87576E-13
 -1      4091 2.03913E+01 7.45726E-01 1.13286E-03 8.09237E-02 1.84312E-13-4.19987E-13
 -1      4092 2.04209E+01 4.95839E-01 4.30550E-04-6.13405E-03-4.76246E-15-4.01906E-13
 -1      4093 1.81888E+01 1.12435E+00 4.65602E-03-1.01318E-01-6.72522E-14 3.11479E-13
 -1      4094 1.80938E+01 1.12605E+00-5.90564E-03 1.24094E-01-1.17733E-13 3.46132E-13
 -1      4095 1.66998E+01 8.08936E-01-1.69716E-02-1.23463E+00-2.96829E-14 2.61273E-13
 -1      4096 2.03976E+01 8.35290E-01-2.28368E-03-3.49951E-02 2.54029E-14-4.82598E-13
 -1      4097 2.04249E+01 6.70725E-01 2.18069E-03-1.46481E-02 2.50139E-14-4.27031E-13
 -1      4098 2.03947E+01 8.81983E-01-1.19951E-04-1.11209E-02 6.59367E-14-4.80855E-13
 -1      4099 2.02937E+01 8.43333E-02-3.11877E-04-1.22521E-01 7.00202E-14-3.08972E-13
 -1      4100 2.03181E+01 1.19875E-01 5.37692E-04-1.05189E-01 8.31480E-14-3.41233E-13
 -1      4101 1.56579E+01 7.21049E-01 9.68179E-04 1.55251E+00-2.78548E-13-2.01469E-14
 -1      4102 1.48650E+01 9.77133E-01 4.69593E-02 1.00885E+00-3.44868E-13-1.81560E-14
 -1      4103 1.50559E+01 1.00470E+00-3.56392E-02 4.05723E-01-2.08408E-13-7.43724E-14
 -1      4104 1.62372E+01 8.84889E-01-2.93438E-02 1.24850E+00-1.25979E-13 1.37158E-14
 -1      4105 2.02412E+01 4.66420E-02-3.20403E-05-1.43755E-01 7.92935E-14-2.75565E-13
 -1      4106 2.02669E+01 6.09044E-02 3.10887E-04-1.31927E-01 7.33136E-14-2.89092E-13
 -1      4107 2.03035E+01 8.50028E-02-1.18428E-04-1.04451E-01 5.60570E-14-3.13008E-13
 -1      4108 1.99822E+01 1.85292E-01 3.54882E-04-2.18964E-01 2.35185E-14-1.14293E-13
 -1      4109 2.00144E+01 1.49298E-01-8.18461E-04-2.03416E-01 7.55690E-14-1.59030E-13
 -1      4110 2.00341E+01 1.45732E-01 4.86622E-04-1.67279E-01 6.47116E-14-1.20336E-13
 -1      4111 1.83508E+01 1.03624E+00 4.68438E-03-5.54495E-01-9.15238E-14 2.12685E-13
 -1      4112 1.82427E+01 1.07653E+00-3.80675E-03-3.21646E-01-6.17505E-14 3.81178E-13
 -1      4113 1.79868E+01 1.09705E+00 2.52358E-03-3.20493E-01-1.18929E-13 2.35637E-13
 -1      4114 1.82074E+01 9.80538E-01-2.85999E-03-7.45263E-01-1.60500E-13 3.40009E-14
 -1      4115 1.79939E+01 1.12769E+00 4.37278E-03 4.10317E-01 2.38160E-14 2.82651E-13
 -1      4116 1.80003E+01 1.08045E+00-7.70121E-03 6.44616E-01 1.43420E-13-1.30081E-14
 -1      4117 1.76095E+01 1.06146E+00 1.16879E-03 8.14907E-01 2.72913E-13-3.04094E-14
 -1      4118 1.77223E+01 1.13698E+00-6.41415E-03 1.98465E-01-4.19713E-14 1.04868E-13
 -1      4119 2.02725E+01 5.96698E-02-2.05352E-05 6.57339E-02 5.53497E-14-2.61828E-13
 -1      4120 2.02390E+01 5.63010E-02 8.81493E-06 7.21648E-02 1.05031E-14-2.58927E-13
 -1      4121 2.02009E+01 6.14553E-02-1.68404E-04 7.41807E-02-2.04442E-14-2.34613E-13
 -1      4122 2.01647E+01 7.41316E-02 1.52894E-04 8.02961E-02-2.06282E-14-2.38838E-13
 -1      4123 2.02257E+01 6.41956E-02 8.85899E-05 4.13848E-02 1.21248E-14-3.17353E-13
 -1      4124 2.01217E+01 9.34856E-02-4.28795E-04 8.25137E-02 9.79882E-15-2.33424E-13
 -1      4125 2.00822E+01 1.19413E-01 1.99394E-04 8.97287E-02 4.56056E-16-2.29735E-13
 -1      4126 2.01466E+01 8.97361E-02 2.34135E-04 4.62357E-02 1.31710E-15-2.94841E-13
 -1      4127 2.00340E+01 1.49939E-01-7.08010E-04 9.34146E-02-4.26170E-14-2.02818E-13
 -1      4128 1.99901E+01 1.86521E-01 1.42322E-04 1.02522E-01-6.69528E-14-2.30936E-13
 -1      4129 2.00584E+01 1.42149E-01 5.60077E-04 5.26910E-02-1.88878E-14-3.32392E-13
 -1      4130 1.99355E+01 2.26418E-01-9.64909E-04 1.08355E-01-4.94119E-14-2.18772E-13
 -1      4131 1.98850E+01 2.71742E-01-4.96748E-05 1.20254E-01 4.15740E-14-2.16872E-13
 -1      4132 1.99594E+01 2.16198E-01 9.75113E-04 6.13238E-02-2.35088E-14-2.03154E-13
 -1      4133 1.98221E+01 3.19528E-01-1.16693E-03 1.28454E-01 1.23567E-13-2.62653E-13
 -1      4134 1.97621E+01 3.71674E-01-4.54835E-04 1.43745E-01 8.66434E-14-2.30470E-13
 -1      4135 1.98472E+01 3.08364E-01 1.83255E-03 7.38605E-02 4.34056E-14-2.71046E-13
 -1      4136 1.96868E+01 4.26568E-01-1.80168E-03 1.56624E-01 4.03366E-14-1.85062E-13
 -1      4137 1.96168E+01 4.84634E-01-3.29742E-04 1.77242E-01 5.69586E-15-1.51734E-13
 -1      4138 1.97114E+01 4.19714E-01 3.06997E-03 9.17910E-02 8.94610E-14-2.64696E-13
 -1      4139 1.95256E+01 5.42422E-01-2.52615E-03 1.94049E-01 2.28834E-16-1.20211E-13
 -1      4140 1.94419E+01 6.03850E-01-5.12552E-04 2.20569E-01 1.34416E-14-9.84622E-14
 -1      4141 1.95531E+01 5.40120E-01 4.70402E-03 1.15243E-01 4.02957E-14-2.09281E-13
 -1      4142 1.93308E+01 6.63041E-01-3.25187E-03 2.43535E-01 1.86303E-15-7.96584E-14
 -1      4143 1.92301E+01 7.24491E-01-6.54985E-04 2.77672E-01 4.46653E-14-1.32747E-13
 -1      4144 1.93597E+01 6.68401E-01 6.34991E-03 1.47033E-01 2.66358E-14-1.56894E-13
 -1      4145 1.90940E+01 7.80855E-01-4.24969E-03 3.08717E-01 2.76237E-14-9.18833E-14
 -1      4146 1.89729E+01 8.37933E-01-7.55444E-04 3.52945E-01 1.23003E-15-1.09568E-13
 -1      4147 1.91240E+01 7.98223E-01 8.37433E-03 1.90319E-01 6.93514E-14-9.84285E-14
 -1      4148 1.88051E+01 8.85944E-01-5.67022E-03 3.95028E-01-6.42313E-15-9.71120E-14
 -1      4149 1.86601E+01 9.32785E-01-7.84726E-04 4.53325E-01 3.69119E-14-1.15454E-13
 -1      4150 1.88351E+01 9.21761E-01 1.10091E-02 2.49280E-01 9.75608E-15-1.66460E-13
 -1      4151 1.84510E+01 9.65174E-01-7.81668E-03 5.11109E-01 6.55013E-14-1.86779E-13
 -1      4152 1.82781E+01 9.94049E-01-7.73430E-04 5.90304E-01 5.44279E-14-1.71104E-13
 -1      4153 1.84789E+01 1.02894E+00 1.45251E-02 3.30421E-01 1.07108E-15-1.59221E-13
 -1      4154 1.80124E+01 1.00164E+00-1.14490E-02 6.71597E-01 3.67537E-14-1.83423E-13
 -1      4155 1.77976E+01 9.96687E-01-5.26263E-03 7.86270E-01 9.16395E-14-1.80766E-13
 -1      4156 1.80338E+01 1.10693E+00 1.88275E-02 4.43575E-01 2.36436E-14-2.35681E-13
 -1      4157 1.87215E+01 9.52468E-01-2.37220E-03-4.34992E-01-8.11593E-14-2.37362E-13
 -1      4158 1.88744E+01 8.95353E-01-4.58703E-03-3.90957E-01-1.87468E-14-2.37685E-13
 -1      4159 2.03713E+01 3.11350E-01-1.15493E-03-3.98654E-02 1.45191E-13-3.41822E-13
 -1      4160 2.03849E+01 4.11137E-01 6.68672E-04 1.09295E-03 1.82850E-13-3.45304E-13
 -1      4161 2.04028E+01 5.13604E-01 6.53939E-04 2.07606E-02 1.69141E-13-3.89684E-13
 -1      4162 1.79501E+01 9.50715E-01-2.67160E-03-8.66457E-01-1.40518E-13 1.93693E-13
 -1      4163 1.94940E+01 5.82029E-01-9.34185E-04-2.51468E-01 1.63224E-15-8.08478E-14
 -1      4164 1.95752E+01 5.19318E-01-2.06682E-03-2.26275E-01 3.85262E-14-1.20103E-13
 -1      4165 1.43995E+01 1.12262E+00 4.61633E-02-1.07955E-01 4.00348E-14-7.60234E-13
 -1      4166 1.47256E+01 9.85740E-01-3.51706E-02-7.51403E-01 1.52870E-14-5.91711E-13
 -1      4167 1.50160E+01 1.07358E+00-1.54884E-03 4.19650E-01 6.11799E-14-6.43767E-13
 -1      4168 1.90357E+01 8.36394E-01-1.82305E-03-3.61767E-01 7.31495E-15-2.48088E-13
 -1      4169 1.91593E+01 7.72920E-01-3.48912E-03-3.25480E-01 4.34490E-14-1.68439E-13
 -1      4170 1.89012E+01 9.12760E-01 9.47653E-03-2.44370E-01 3.13034E-14-3.29617E-13
 -1      4171 1.63492E+01 9.66125E-01-1.85187E-02-1.11619E+00-5.17774E-14-4.37799E-13
 -1      4172 1.67466E+01 1.06492E+00-1.70785E-02-9.21961E-01-1.23362E-13-4.24106E-13
 -1      4173 1.72053E+01 1.08557E+00-5.39347E-03-8.24400E-01-1.19580E-13-3.24958E-13
 -1      4174 1.74958E+01 1.09646E+00-1.47308E-02-7.18654E-01-7.35528E-15-2.70682E-13
 -1      4175 1.67837E+01 1.20259E+00 2.00980E-02-5.46913E-01-2.01930E-14-4.80410E-13
 -1      4176 1.58301E+01 1.06790E+00 2.63065E-03 4.29088E-02-4.89149E-15-2.17254E-13
 -1      4177 1.98970E+01 2.68903E-01 4.22629E-04-2.53979E-01-3.61184E-14-1.15580E-13
 -1      4178 1.99339E+01 2.24784E-01-1.16174E-03-2.32959E-01 3.18382E-15-9.43351E-14
 -1      4179 1.98453E+01 3.15518E-01 1.61405E-03-2.21682E-01-1.63676E-14-1.60372E-13
 -1      4180 1.78361E+01 1.10088E+00-2.94811E-03-6.48685E-01-2.30952E-14-2.93726E-13
 -1      4181 1.80706E+01 1.07710E+00-8.68272E-03-5.73358E-01-7.71830E-14-2.43947E-13
 -1      4182 1.75352E+01 1.21002E+00 2.24833E-02-4.13227E-01-8.06453E-14-3.47106E-13
 -1      4183 2.04280E+01 5.22237E-01-1.80288E-03-9.79003E-03-4.65208E-15-4.02380E-13
 -1      4184 2.04268E+01 4.00856E-01 1.23359E-03 1.01442E-02-1.44336E-16-3.84091E-13
 -1      4185 2.03868E+01 1.82294E-01-4.71898E-05 3.93900E-02 7.89692E-15-3.02800E-13
 -1      4186 2.03625E+01 1.32346E-01-3.60431E-04 5.15392E-02 1.09479E-14-2.96103E-13
 -1      4187 2.01105E+01 9.00112E-02 7.63799E-05-1.49792E-01 9.74317E-14-2.02371E-13
 -1      4188 2.01226E+01 7.04289E-02 3.74340E-04-1.74261E-01 1.07678E-13-2.85252E-13
 -1      4189 2.01500E+01 5.41908E-02-2.27721E-04-1.64811E-01 8.33630E-14-2.76223E-13
 -1      4190 1.83293E+01 1.04551E+00-3.01504E-03-5.26721E-01-1.27770E-13-2.46410E-13
 -1      4191 1.85190E+01 1.00121E+00-6.22309E-03-4.71083E-01-1.03611E-13-2.81480E-13
 -1      4192 1.85502E+01 1.03582E+00 1.25880E-02-2.88022E-01-6.57243E-14-4.09031E-13
 -1      4193 1.81083E+01 1.13820E+00 1.70184E-02-3.41026E-01-9.72829E-14-4.22358E-13
 -1      4194 1.63491E+01 8.34233E-01-3.57249E-03 1.30664E+00 1.26887E-13-5.80406E-13
 -1      4195 1.56595E+01 1.07468E+00 3.69821E-02 8.91580E-01 1.49986E-13-5.75770E-13
 -1      4196 1.67001E+01 9.05345E-01-2.35725E-02 1.10768E+00 1.08613E-13-4.81099E-13
 -1      4197 2.03537E+01 1.62749E-01 6.22329E-05-7.86313E-02 1.06941E-13-2.87300E-13
 -1      4198 2.03388E+01 1.67844E-01-7.27834E-04-9.03688E-02 1.21106E-13-3.47434E-13
 -1      4199 2.03598E+01 2.31454E-01 6.87384E-04-6.33611E-02 1.41379E-13-3.25987E-13
 -1      4200 1.58192E+01 1.00392E+00 1.05154E-02-9.40495E-01 8.85143E-15-4.63929E-13
 -1      4201 2.03773E+01 9.07571E-01-1.48919E-03 9.56744E-02 1.73463E-13-4.45759E-13
 -1      4202 2.03783E+01 9.38717E-01-1.75211E-03 5.74114E-02 1.24772E-13-4.60648E-13
 -1      4203 2.03967E+01 8.04562E-01 1.79456E-03 7.62718E-02 1.61409E-13-4.27728E-13
 -1      4204 2.03842E+01 9.27661E-01-9.76166E-04 3.76008E-02 1.19271E-13-4.71031E-13
 -1      4205 2.03887E+01 8.98639E-01-2.64106E-03 5.37791E-03 8.45684E-14-4.91360E-13
 -1      4206 2.04255E+01 7.24981E-01 3.48332E-03 7.64980E-03 7.25041E-14-4.30484E-13
 -1      4207 2.04170E+01 7.56441E-01 3.25888E-03 3.53339E-02 1.29697E-13-4.34401E-13
 -1      4208 2.04180E+01 3.16180E-01-5.11698E-04 1.72757E-02 2.46053E-14-3.51168E-13
 -1      4209 2.04030E+01 2.36340E-01-1.80891E-04 3.43744E-02 1.65262E-14-3.28879E-13
 -1      4210 2.04020E+01 2.15574E-01 2.85399E-04 1.95725E-02 2.43888E-14-3.40903E-13
 -1      4211 2.04269E+01 3.47576E-01 1.35711E-04 7.63065E-03 3.03791E-14-3.59369E-13
 -1      4212 1.71780E+01 1.01776E+00-1.81475E-02 9.06261E-01 2.46903E-13-1.36086E-13
 -1      4213 1.68397E+01 9.86192E-01 2.05985E-03 1.05041E+00 7.05695E-14-6.37885E-14
 -1      4214 1.72475E+01 1.15955E+00 1.93907E-02 5.44088E-01 2.14052E-13-1.12872E-13
 -1      4215 2.03357E+01 9.63151E-02 9.25153E-05 5.50066E-02 4.62828E-14-2.73437E-13
 -1      4216 2.03057E+01 7.24356E-02-1.89286E-04 6.34364E-02 9.31418E-14-2.55859E-13
 -1      4217 2.03580E+01 1.23066E-01 2.07357E-04 2.97157E-02 5.64503E-14-2.46948E-13
 -1      4218 1.92890E+01 7.09761E-01-1.34760E-03-3.01476E-01 2.43999E-14-1.15235E-13
 -1      4219 1.93889E+01 6.44891E-01-2.70104E-03-2.71183E-01 1.32343E-14-1.24356E-13
 -1      4220 1.91830E+01 7.79339E-01 7.17939E-03-2.07307E-01 7.47237E-14-2.52979E-13
 -1      4221 2.04024E+01 7.05229E-01-1.27455E-04 5.37565E-02 1.61638E-13-4.20392E-13
 -1      4222 2.04146E+01 5.54083E-01-2.52834E-04 2.73592E-02 1.30519E-13-4.14966E-13
 -1      4223 2.04168E+01 6.11229E-01-2.76414E-04 2.56833E-02 1.20352E-13-4.10300E-13
 -1      4224 2.04128E+01 4.29761E-01-2.80474E-04-6.76740E-03 1.31669E-13-3.61816E-13
 -1      4225 1.77558E+01 1.09566E+00 3.16285E-03-4.71221E-01-1.27913E-13 3.23561E-13
 -1      4226 1.76703E+01 1.14692E+00 5.83782E-03-2.46955E-01-1.59887E-13 3.54994E-13
 -1      4227 1.74585E+01 1.13995E+00-8.24708E-03 4.98570E-02-9.05701E-14 1.62198E-13
 -1      4228 1.76335E+01 9.77021E-01-2.16980E-03-8.12952E-01-1.30318E-13 1.94201E-13
 -1      4229 2.00098E+01 1.67518E-01-4.19344E-04-1.33646E-01 3.51829E-14-1.30980E-13
 -1      4230 2.00517E+01 1.34001E-01-5.41854E-04-1.23430E-01 9.39199E-14-1.60710E-13
 -1      4231 2.03897E+01 3.00090E-01 3.51980E-04-3.87489E-02 1.51616E-13-3.15279E-13
 -1      4232 2.00971E+01 1.05238E-01 1.16372E-04-1.18963E-01 1.06913E-13-1.90324E-13
 -1      4233 2.01347E+01 8.16491E-02-2.50248E-04-1.10960E-01 5.44028E-14-2.25286E-13
 -1      4234 2.00762E+01 1.27369E-01 3.29877E-04-8.48394E-02 6.63683E-14-1.99721E-13
 -1      4235 1.74551E+01 9.98675E-01-1.15362E-02 8.48831E-01 7.17535E-14-2.80538E-13
 -1      4236 1.71700E+01 9.68593E-01-2.35967E-03 9.88643E-01 1.16672E-13-3.82765E-13
 -1      4237 1.66696E+01 1.13495E+00 1.64291E-02 6.45512E-01 1.75524E-14-5.85320E-13
 -1      4238 2.02968E+01 7.25833E-02 8.61596E-05 3.62636E-02 7.46184E-14-3.26418E-13
 -1      4239 1.96607E+01 4.60090E-01-5.63534E-04-2.10255E-01 1.84249E-14-1.24068E-13
 -1      4240 1.97250E+01 4.01936E-01-2.12562E-03-1.88597E-01-4.70778E-15-1.78307E-13
 -1      4241 1.95948E+01 5.13982E-01 3.58496E-03-1.49164E-01 2.20189E-14-1.83441E-13
 -1      4242 1.55735E+01 1.12578E+00-2.44569E-02 3.39217E-01-6.46705E-15-5.27682E-13
 -1      4243 1.71444E+01 8.34204E-01-5.11119E-03-1.20454E+00-1.59165E-13 3.86981E-13
 -1      4244 1.74331E+01 9.23989E-01-8.51746E-03-1.00912E+00-1.30202E-13 2.91596E-13
 -1      4245 1.94106E+01 6.44257E-01 5.36903E-03-1.75647E-01 5.18934E-14-2.57976E-13
 -1      4246 2.03078E+01 7.65594E-02-1.50399E-04-8.46298E-02 5.85631E-14-2.62455E-13
 -1      4247 2.03351E+01 1.03404E-01 1.10879E-04-7.41982E-02 6.90343E-14-2.78278E-13
 -1      4248 1.62919E+01 1.12505E+00 2.92479E-02 7.58029E-01 4.37827E-14-1.80933E-13
 -1      4249 1.57589E+01 1.20844E+00 2.61679E-02-3.92417E-01 4.67378E-15-6.01718E-13
 -1      4250 1.72270E+01 1.07148E+00-3.56741E-03-5.84161E-01-2.13751E-13 3.76737E-13
 -1      4251 2.04224E+01 5.96731E-01-1.54998E-03 1.36231E-02 1.06088E-13-4.19588E-13
 -1      4252 2.04299E+01 5.56078E-01-6.28873E-04-2.58520E-03 3.42880E-14-3.93906E-13
 -1      4253 2.03617E+01 1.35211E-01 3.26420E-04-4.87728E-02 7.75084E-14-2.71444E-13
 -1      4254 2.03605E+01 1.43599E-01-3.57048E-04-6.76417E-02 9.19381E-14-2.78043E-13
 -1      4255 2.03829E+01 1.97899E-01 9.10688E-05-5.13294E-02 1.15230E-13-2.76761E-13
 -1      4256 1.66238E+01 1.06590E+00 1.48453E-02-7.76863E-01-5.82579E-14 1.98823E-13
 -1      4257 1.74602E+01 1.13638E+00 1.98448E-02 5.50425E-01 2.81021E-14-4.68517E-13
 -1      4258 2.01841E+01 4.47847E-02 2.97559E-04-1.59201E-01 6.83631E-14-2.78511E-13
 -1      4259 2.02107E+01 4.19916E-02 1.75192E-04-1.49642E-01 8.14058E-14-2.61721E-13
 -1      4260 2.02454E+01 5.28179E-02-4.34621E-04-1.22373E-01 7.61564E-14-2.55189E-13
 -1      4261 2.01808E+01 5.71114E-02-3.40245E-04-1.36355E-01 6.46411E-14-2.17706E-13
 -1      4262 1.64856E+01 1.10490E+00 1.48330E-02-5.08074E-01 4.40381E-14-1.74320E-13
 -1      4263 1.69312E+01 1.08095E+00 1.02185E-02-5.53661E-01-9.63923E-14 1.24059E-13
 -1      4264 1.71373E+01 1.13974E+00 1.52429E-02-3.66376E-01-6.91808E-14 1.53834E-13
 -1      4265 1.99479E+01 2.21711E-01 1.15586E-03-1.90750E-01-4.60337E-15-1.07895E-13
 -1      4266 2.02464E+01 6.01295E-02-1.89529E-04 6.51208E-03 3.15295E-14-3.37987E-13
 -1      4267 2.02093E+01 6.51661E-02 4.99261E-05 9.99633E-03 6.78500E-16-3.27182E-13
 -1      4268 2.03960E+01 2.56105E-01-3.67547E-04-4.40976E-02 1.09511E-13-3.06684E-13
 -1      4269 2.04104E+01 3.41652E-01 7.56225E-06-1.99937E-02 1.30648E-13-3.21059E-13
 -1      4270 2.04203E+01 3.83119E-01 9.21944E-05-1.22920E-02 9.34668E-14-3.40171E-13
 -1      4271 2.04010E+01 2.37954E-01 2.66604E-04-3.39296E-02 9.08307E-14-3.33148E-13
 -1      4272 2.01552E+01 8.35669E-02-8.88385E-05-1.75018E-02 1.66674E-14-3.17207E-13
 -1      4273 2.01127E+01 1.05217E-01 8.41891E-06-1.49451E-02 1.96707E-14-2.78772E-13
 -1      4274 2.00673E+01 1.33121E-01-4.35371E-04-1.87371E-02 3.11029E-14-2.71007E-13
 -1      4275 2.00199E+01 1.66871E-01-6.33814E-05-1.64699E-02 4.38289E-14-2.13327E-13
 -1      4276 1.98678E+01 2.82138E-01-1.57117E-03 1.55748E-02-1.19689E-14-1.81867E-13
 -1      4277 1.98045E+01 3.33208E-01-1.43563E-03 2.30797E-02 4.59490E-14-2.36852E-13
 -1      4278 1.97186E+01 4.03012E-01-1.08661E-03-2.46422E-02 4.37081E-14-2.64928E-13
 -1      4279 1.96405E+01 4.60410E-01-1.96313E-03-1.88602E-02 5.44468E-14-2.40014E-13
 -1      4280 1.95529E+01 5.20564E-01-3.16518E-03-2.65849E-02 8.20557E-14-2.96987E-13
 -1      4281 1.94611E+01 5.84678E-01-2.92803E-03-1.80099E-02 3.54693E-14-2.79844E-13
 -1      4282 1.93541E+01 6.47648E-01-4.53956E-03-2.69404E-02 1.05608E-14-2.94174E-13
 -1      4283 1.92428E+01 7.14690E-01-3.99359E-03-1.48100E-02 7.40224E-14-2.71086E-13
 -1      4284 1.91106E+01 7.77859E-01-6.06059E-03-2.46539E-02 9.45553E-14-2.76384E-13
 -1      4285 1.89743E+01 8.44315E-01-5.32210E-03-7.81982E-03 8.94801E-14-2.63224E-13
 -1      4286 1.88099E+01 9.03468E-01-8.05547E-03-1.83287E-02 2.40968E-14-3.22972E-13
 -1      4287 1.86418E+01 9.64957E-01-7.09716E-03 5.20405E-03-1.28895E-14-3.28500E-13
 -1      4288 1.84354E+01 1.01468E+00-1.07655E-02-6.00520E-03-4.80841E-14-3.46853E-13
 -1      4289 1.82262E+01 1.06587E+00-9.44964E-03 2.71504E-02-4.59616E-14-3.72170E-13
 -1      4290 1.79643E+01 1.10015E+00-1.41427E-02 1.51744E-02-8.00139E-14-3.44969E-13
 -1      4291 1.77017E+01 1.13425E+00-1.22192E-02 6.32979E-02-7.36763E-14-4.05822E-13
 -1      4292 2.03164E+01 7.79671E-02 1.46024E-04 5.43887E-03 7.12498E-14-3.15992E-13
 -1      4293 2.02832E+01 6.39282E-02 2.05287E-05 9.07375E-03 3.92042E-14-3.42262E-13
 -1      4294 2.02642E+01 6.43192E-02-2.12235E-04-2.42382E-02 3.29336E-14-2.94919E-13
 -1      4295 1.70509E+01 1.14603E+00-6.35681E-03 7.40907E-02 3.78455E-14-1.57608E-14
 -1      4296 1.73676E+01 1.16450E+00-1.11338E-02 5.49374E-02-7.13069E-14-4.32195E-13
 -1      4297 1.70245E+01 1.16820E+00-1.54770E-02 5.50035E-02-2.32019E-15-5.22700E-13
 -1      4298 2.02924E+01 6.74389E-02 4.42001E-04-6.80908E-02 2.50395E-14-2.82559E-13
 -1      4299 2.03188E+01 8.03699E-02-3.41470E-04-4.00900E-02 5.08867E-14-2.67352E-13
 -1      4300 1.63537E+01 1.09850E+00-1.81921E-02-3.25570E-02 1.39624E-13-2.83480E-13
 -1      4301 1.65875E+01 1.19457E+00-4.46373E-03 8.13751E-02 1.82796E-15-5.09641E-13
 -1      4302 1.98088E+01 3.38390E-01-1.20628E-04-1.36572E-01-1.56816E-15-1.75041E-13
 -1      4303 1.98642E+01 2.87103E-01-9.77125E-04-1.22550E-01-1.76656E-14-1.68056E-13
 -1      4304 1.99652E+01 2.02869E-01-6.74737E-04-1.23263E-01 3.05461E-14-1.63181E-13
 -1      4305 1.99888E+01 1.93685E-01 1.11569E-03-7.85743E-02 5.44576E-14-1.57661E-13
 -1      4306 1.99745E+01 1.99500E-01-9.22103E-04-4.00469E-03 1.82404E-14-2.10013E-13
 -1      4307 1.99164E+01 2.44658E-01-8.92596E-04-1.35461E-01-2.02152E-14-1.38802E-13
 -1      4308 1.61699E+01 1.16175E+00 1.27989E-03 6.41135E-02 9.15804E-15-5.96786E-13
 -1      4309 2.04273E+01 5.93769E-01-7.88493E-04 7.71765E-03 8.21971E-14-4.36286E-13
 -1      4310 2.04276E+01 5.70636E-01-2.43919E-03-1.91398E-03 5.50671E-14-4.19867E-13
 -1      4311 2.04389E+01 4.48637E-01 2.30903E-03 1.83451E-03 3.05732E-14-3.90124E-13
 -1      4312 2.04340E+01 4.70395E-01 1.88319E-03 2.29147E-03 7.21644E-14-4.07634E-13
 -1      4313 2.04266E+01 3.76307E-01-6.84874E-04-1.00072E-02 6.83637E-14-3.88072E-13
 -1      4314 2.02612E+01 5.79365E-02 1.47711E-05-7.53758E-02 3.79755E-14-2.60814E-13
 -1      4315 1.97595E+01 3.81145E-01 2.07145E-03-8.46000E-02-5.16622E-15-1.83920E-13
 -1      4316 1.99219E+01 2.42992E-01-1.13412E-04-5.76011E-04 1.81480E-14-1.80160E-13
 -1      4317 1.98933E+01 2.71652E-01 1.64099E-03-5.27347E-02 1.60310E-14-1.69302E-13
 -1      4318 2.03341E+01 9.60907E-02 4.49854E-05-1.62449E-02 3.71906E-14-3.29927E-13
 -1      4319 2.03527E+01 1.10695E-01 2.14425E-04-3.37760E-02 7.56446E-14-2.96236E-13
 -1      4320 2.03782E+01 1.51343E-01-3.75230E-04-2.64234E-02 6.53208E-14-3.29174E-13
 -1      4321 2.03497E+01 1.05070E-01-4.37044E-04 1.11917E-02 9.07673E-14-2.90611E-13
 -1      4322 1.66776E+01 1.11688E+00-2.30436E-02 1.60580E-01 1.66495E-13-1.60154E-13
 -1      4323 2.03777E+01 1.44515E-01 9.94413E-05 6.82705E-03 5.22024E-14-3.00948E-13
 -1      4324 2.03981E+01 1.92678E-01-3.30096E-04 7.91676E-03 2.53642E-14-3.14811E-13
 -1      4325 2.03894E+01 1.75686E-01 3.05490E-04-1.00416E-02 6.57589E-14-3.15144E-13
 -1      4326 2.03993E+01 2.02102E-01 5.66435E-05-2.56246E-02 6.22269E-14-3.32295E-13
 -1      4327 2.04148E+01 2.47958E-01-3.21509E-05 1.93545E-03 2.88775E-14-3.39358E-13
 -1      4328 2.04307E+01 3.74926E-01-1.13484E-03-1.13382E-03 1.39894E-14-3.60894E-13
 -1      4329 2.04243E+01 2.99334E-01 2.16407E-04 4.51304E-03 2.68365E-14-3.64973E-13
 -1      4330 2.04190E+01 2.77693E-01 2.76319E-04-6.70990E-03 4.45087E-14-3.48732E-13
 -1      4331 2.04318E+01 3.93171E-01-3.32632E-04-3.26284E-03 4.72708E-14-3.90989E-13
 -1      4332 2.01898E+01 6.47114E-02 9.50362E-05-8.35802E-02 3.03749E-14-2.51627E-13
 -1      4333 2.02248E+01 5.67484E-02 2.92054E-04-7.66568E-02 4.99068E-14-2.73101E-13
 -1      4334 2.01740E+01 7.81497E-02-3.84105E-05-5.14223E-02 2.99067E-14-3.04735E-13
 -1      4335 2.04236E+01 3.15485E-01 8.46345E-04-1.45112E-02 5.67455E-14-3.75344E-13
 -1      4336 2.04133E+01 2.61020E-01-3.37800E-04-1.81177E-02 8.10053E-14-3.52777E-13
 -3
    1PSTEP                         3           1           1          
  100CL  101 1.000000000        4336                     0    1           1
 -4  TOSTRAIN    6    1
 -5  EXX         1    4    1    1
 -5  EYY         1    4    2    2
 -5  EZZ         1    4    3    3
 -5  EXY         1    4    1    2
 -5  EYZ         1    4    2    3
 -5  EZX         1    4    3    1
 -1         1 2.56579E-04-6.37201E-05-7.19149E-05 8.80765E-05-3.43615E-18-9.84718E-18
 -1         2 3.62036E-05-1.10437E-04 1.99585E-05-1.06288E-06 5.62800E-19 1.98285E-19
 -1         3 9.51680E-05-2.86448E-05-2.84138E-05-6.26641E-08-3.72711E-18-4.21914E-18
 -1         4 9.51724E-05-2.86379E-05-2.84216E-05 5.43298E-08 1.70456E-18-2.90633E-19
 -1         5 1.43293E-04-2.14719E-05-4.25098E-05 3.85247E-05-4.85297E-19 3.23011E-17
 -1         6 1.45359E-04 2.57436E-10-4.41689E-05-5.35173E-05-1.95749E-18 2.95136E-17
 -1         7 9.05674E-05-5.09714E-07-3.90524E-05-2.92576E-05-2.66498E-19 4.56048E-18
 -1         8 8.50975E-05 8.68647E-08-3.63284E-05-2.02845E-05-3.59857E-19-2.91489E-18
 -1         9 8.28012E-05 7.68811E-08-3.53458E-05-1.56582E-05-2.98341E-19-6.85611E-18
 -1        10 8.17778E-05 3.84834E-08-3.48826E-05-1.20954E-05-2.00734E-19-8.75120E-18
 -1        11 8.12676E-05 1.91750E-08-3.46585E-05-9.02753E-06-1.32147E-19-9.57948E-18
 -1        12 8.10072E-05 8.84581E-09-3.45481E-05-6.29502E-06-5.83890E-20-9.83676E-18
 -1        13 8.08723E-05 4.19300E-09-3.44931E-05-3.69224E-06-1.09635E-20-9.82845E-18
 -1        14 8.08164E-05 2.31694E-09-3.44709E-05-1.18594E-06 2.24195E-20-9.66050E-18
 -1        15 8.08185E-05 2.30401E-09-3.44716E-05 1.29112E-06 8.58421E-20-9.40585E-18
 -1        16 8.08788E-05 4.10927E-09-3.44953E-05 3.80257E-06 1.21135E-19-9.09997E-18
 -1        17 8.10191E-05 8.03263E-09-3.45518E-05 6.41760E-06 1.64149E-19-8.56927E-18
 -1        18 8.12847E-05 1.78642E-08-3.46638E-05 9.17000E-06 2.24682E-19-7.69891E-18
 -1        19 8.17993E-05 3.79995E-08-3.48906E-05 1.22743E-05 3.21290E-19-6.20162E-18
 -1        20 8.28240E-05 8.15147E-08-3.53584E-05 1.58873E-05 3.94770E-19-3.58703E-18
 -1        21 8.50634E-05 1.69814E-07-3.63665E-05 2.04962E-05 4.62612E-19 1.29481E-18
 -1        22 9.16052E-05-9.84326E-08-3.87239E-05 2.80052E-05 5.64336E-20 1.09521E-17
 -1        23 1.12915E-04-3.81063E-05-3.53789E-05-4.40512E-06-1.36179E-18 2.26878E-17
 -1        24 9.27377E-05-2.76769E-05-2.89792E-05 3.90371E-07-3.58861E-19 1.66381E-17
 -1        25 8.90436E-05-2.68294E-05-2.69065E-05 3.75431E-07-1.61701E-19 1.07425E-17
 -1        26 8.79320E-05-2.64635E-05-2.63664E-05 2.03422E-07-1.83634E-21 6.74701E-18
 -1        27 8.79500E-05-2.64393E-05-2.63561E-05 1.38957E-07-1.46846E-19 4.00983E-18
 -1        28 8.84766E-05-2.65736E-05-2.65236E-05 9.97299E-08-7.57718E-21 1.90409E-18
 -1        29 8.92277E-05-2.67853E-05-2.67551E-05 7.37954E-08-1.05042E-21 2.13671E-19
 -1        30 9.00552E-05-2.70261E-05-2.70062E-05 5.52336E-08 7.20118E-21-8.91482E-19
 -1        31 9.08788E-05-2.72690E-05-2.72548E-05 4.12430E-08-2.03517E-20-2.40385E-18
 -1        32 9.16582E-05-2.75005E-05-2.74900E-05 3.04299E-08-2.85324E-20-3.81804E-18
 -1        33 9.23789E-05-2.77156E-05-2.77076E-05 2.20523E-08 3.13130E-19-4.31200E-18
 -1        34 9.30449E-05-2.79150E-05-2.79091E-05 1.56936E-08-6.85849E-20-4.79968E-18
 -1        35 9.36731E-05-2.81037E-05-2.80994E-05 1.11270E-08 1.64337E-19-5.75455E-18
 -1        36 9.42912E-05-2.82897E-05-2.82869E-05 8.26351E-09 4.83029E-20-6.17951E-18
 -1        37 9.49357E-05-2.84840E-05-2.84827E-05 7.13729E-09-8.57187E-20-6.35345E-18
 -1        38 9.56507E-05-2.86996E-05-2.86999E-05 7.90591E-09-2.59992E-19-6.99619E-18
 -1        39 9.64873E-05-2.89517E-05-2.89539E-05 1.08549E-08-4.42596E-20-8.58500E-18
 -1        40 9.75019E-05-2.92572E-05-2.92618E-05 1.63927E-08 2.06229E-19-8.81002E-18
 -1        41 9.87538E-05-2.96335E-05-2.96410E-05 2.50155E-08 2.55561E-19-8.30931E-18
 -1        42 1.00300E-04-3.00972E-05-3.01082E-05 3.72022E-08-5.95455E-19-8.42183E-18
 -1        43 1.02183E-04-3.06610E-05-3.06756E-05 5.31699E-08-1.64300E-19-8.22738E-18
 -1        44 1.04417E-04-3.13286E-05-3.13457E-05 7.23729E-08 2.18721E-19-7.41576E-18
 -1        45 1.06959E-04-3.20863E-05-3.21026E-05 9.25829E-08-2.43764E-19-7.49135E-18
 -1        46 1.09665E-04-3.28914E-05-3.28995E-05 1.08416E-07 8.63840E-20-8.45278E-18
 -1        47 1.12244E-04-3.36574E-05-3.36445E-05 1.09452E-07 1.28047E-19-5.96989E-18
 -1        48 1.14212E-04-3.42410E-05-3.41894E-05 7.89874E-08-2.28842E-19-6.44887E-18
 -1        49 1.14886E-04-3.44403E-05-3.43345E-05-3.66689E-09 2.01143E-19-7.68376E-18
 -1        50 1.13494E-04-3.40271E-05-3.38687E-05-1.52596E-07-6.24927E-19-8.77440E-18
 -1        51 1.09473E-04-3.28321E-05-3.26592E-05-3.53363E-07 5.06231E-19-7.43543E-18
 -1        52 1.02944E-04-3.08870E-05-3.07811E-05-5.38562E-07-2.13940E-19-5.71964E-18
 -1        53 9.51589E-05-2.85604E-05-2.86133E-05-5.93313E-07 3.94809E-20-5.60696E-18
 -1        54 8.84437E-05-2.65479E-05-2.67870E-05-4.25138E-07-2.07394E-19-5.53021E-18
 -1        55 8.53012E-05-2.56042E-05-2.59435E-05-6.02909E-08-2.02520E-19-7.32974E-18
 -1        56 8.70254E-05-2.61220E-05-2.64040E-05 3.34276E-07 1.73705E-19-8.10043E-18
 -1        57 9.28737E-05-2.78756E-05-2.79843E-05 5.69139E-07-1.46172E-19-7.77812E-18
 -1        58 1.00548E-04-3.01711E-05-3.01024E-05 5.72668E-07 1.10321E-19-8.33512E-18
 -1        59 1.07534E-04-3.22536E-05-3.20897E-05 4.11462E-07 1.58531E-19-7.84202E-18
 -1        60 1.12221E-04-3.36471E-05-3.34773E-05 2.04623E-07-4.11886E-20-7.08244E-18
 -1        61 1.14189E-04-3.42312E-05-3.41075E-05 3.58622E-08 8.90832E-20-7.82775E-18
 -1        62 1.13855E-04-3.41319E-05-3.40643E-05-6.69439E-08 2.09293E-20-7.04964E-18
 -1        63 1.11966E-04-3.35715E-05-3.35470E-05-1.12489E-07-5.60827E-19-7.27224E-18
 -1        64 1.09248E-04-3.27641E-05-3.27648E-05-1.21219E-07 2.27719E-19-8.43918E-18
 -1        65 1.06249E-04-3.18722E-05-3.18838E-05-1.11426E-07-3.98195E-19-7.19856E-18
 -1        66 1.03325E-04-3.10015E-05-3.10157E-05-9.50113E-08 7.84920E-19-7.00420E-18
 -1        67 1.00685E-04-3.02140E-05-3.02281E-05-7.78056E-08 6.53917E-19-4.33910E-18
 -1        68 9.84492E-05-2.95455E-05-2.95619E-05-6.07383E-08 5.08327E-20-2.04195E-18
 -1        69 9.67066E-05-2.90226E-05-2.90470E-05-3.98905E-08-1.25111E-19-6.82138E-19
 -1        70 9.55607E-05-2.86745E-05-2.87088E-05-5.87550E-10 2.22702E-19 1.69107E-18
 -1        71 9.51196E-05-2.85274E-05-2.85444E-05 5.33392E-08-9.23903E-19 1.76146E-18
 -1        72 1.02121E-04-3.05698E-05-3.41319E-05-1.92673E-06 4.78732E-19 2.95962E-17
 -1        73 9.24939E-05-2.74930E-05-2.88874E-05-3.32658E-07 1.83399E-19 2.27285E-17
 -1        74 8.90310E-05-2.66788E-05-2.69497E-05-1.25441E-07 1.45339E-19 1.76002E-17
 -1        75 8.79612E-05-2.64140E-05-2.64103E-05-9.49656E-08 5.52701E-20 1.38507E-17
 -1        76 8.79837E-05-2.64189E-05-2.63825E-05-7.57140E-08 8.43799E-20 1.11577E-17
 -1        77 8.85091E-05-2.65675E-05-2.65403E-05-6.13130E-08 1.18343E-19 9.10383E-18
 -1        78 8.92569E-05-2.67859E-05-2.67669E-05-5.01150E-08-7.24995E-20 7.85887E-18
 -1        79 9.00801E-05-2.70296E-05-2.70148E-05-4.07160E-08 2.40446E-20 6.77117E-18
 -1        80 9.08988E-05-2.72734E-05-2.72610E-05-3.24562E-08-3.24514E-20 6.03828E-18
 -1        81 9.16730E-05-2.75048E-05-2.74941E-05-2.50765E-08 1.80380E-19 4.86829E-18
 -1        82 9.23885E-05-2.77190E-05-2.77100E-05-1.84690E-08-2.46269E-20 3.78871E-18
 -1        83 9.30493E-05-2.79170E-05-2.79099E-05-1.25841E-08 3.76284E-20 2.69478E-18
 -1        84 9.36728E-05-2.81042E-05-2.80990E-05-7.40369E-09 1.18443E-19 2.14553E-18
 -1        85 9.42877E-05-2.82889E-05-2.82859E-05-2.94401E-09 2.70738E-20 2.02874E-18
 -1        86 9.49317E-05-2.84825E-05-2.84820E-05 7.22608E-10-1.42710E-20 1.09709E-18
 -1        87 9.56520E-05-2.86990E-05-2.87014E-05 3.43249E-09 2.33829E-19-6.01824E-20
 -1        88 9.65046E-05-2.89551E-05-2.89611E-05 4.87797E-09-3.14859E-19 7.28271E-19
 -1        89 9.75543E-05-2.92702E-05-2.92807E-05 4.53433E-09 2.42514E-19 8.07914E-19
 -1        90 9.88738E-05-2.96659E-05-2.96818E-05 1.56503E-09-2.18460E-20-6.43968E-19
 -1        91 1.00541E-04-3.01651E-05-3.01877E-05-5.28712E-09-1.23188E-20-7.00385E-19
 -1        92 1.02630E-04-3.07898E-05-3.08200E-05-1.77825E-08 4.95618E-20 4.10834E-19
 -1        93 1.05197E-04-3.15563E-05-3.15939E-05-3.81193E-08 3.87066E-19-2.70290E-20
 -1        94 1.08252E-04-3.24671E-05-3.25087E-05-6.84305E-08 4.85024E-20-2.85223E-18
 -1        95 1.11706E-04-3.34965E-05-3.35325E-05-1.09267E-07-7.47218E-21-2.28291E-18
 -1        96 1.15303E-04-3.45693E-05-3.45793E-05-1.56196E-07 2.72995E-19-6.48569E-19
 -1        97 1.18523E-04-3.55347E-05-3.54844E-05-1.93959E-07-2.23685E-19 1.99159E-19
 -1        98 1.20517E-04-3.61450E-05-3.59908E-05-1.89509E-07-5.50861E-19 2.81616E-18
 -1        99 1.20150E-04-3.60654E-05-3.57811E-05-9.19051E-08-6.54879E-20 3.35536E-18
 -1       100 1.16337E-04-3.49639E-05-3.45907E-05 1.40478E-07 2.40688E-19 2.34046E-18
 -1       101 1.08773E-04-3.27223E-05-3.24120E-05 4.77803E-07 1.59907E-19 5.88450E-19
 -1       102 9.88167E-05-2.97107E-05-2.96884E-05 7.65668E-07-3.95506E-19 1.96088E-19
 -1       103 8.97451E-05-2.69038E-05-2.73035E-05 7.70336E-07 2.66355E-19 2.16287E-18
 -1       104 8.54843E-05-2.55362E-05-2.62176E-05 3.86265E-07-3.67202E-20 2.61956E-18
 -1       105 8.81107E-05-2.62984E-05-2.69129E-05-1.90401E-07 5.24881E-19 1.72980E-18
 -1       106 9.63176E-05-2.88163E-05-2.90578E-05-6.24394E-07-1.01680E-18 2.40372E-19
 -1       107 1.06378E-04-3.19098E-05-3.17678E-05-7.22950E-07-7.72686E-20-2.06268E-18
 -1       108 1.14646E-04-3.44364E-05-3.40954E-05-5.55967E-07-5.62359E-20-5.85943E-18
 -1       109 1.19261E-04-3.58278E-05-3.54864E-05-2.99451E-07 1.61562E-19-5.68507E-18
 -1       110 1.20214E-04-3.61001E-05-3.58589E-05-8.45260E-08-2.42154E-19-6.41675E-18
 -1       111 1.18491E-04-3.55662E-05-3.54382E-05 4.82417E-08 7.30455E-19-5.27034E-18
 -1       112 1.15253E-04-3.45828E-05-3.45392E-05 1.10161E-07-9.93268E-19-4.03848E-18
 -1       113 1.11426E-04-3.34290E-05-3.34340E-05 1.27007E-07 8.56585E-19-1.93401E-18
 -1       114 1.07606E-04-3.22817E-05-3.23083E-05 1.21224E-07-4.00198E-19-4.98738E-18
 -1       115 1.04117E-04-3.12357E-05-3.12685E-05 1.07326E-07 2.89972E-19-3.52082E-18
 -1       116 1.01108E-04-3.03341E-05-3.03673E-05 9.28327E-08-5.66015E-19-5.01707E-18
 -1       117 9.86403E-05-2.95945E-05-2.96297E-05 8.01507E-08 4.04524E-19-7.32121E-18
 -1       118 9.67624E-05-2.90295E-05-2.90736E-05 6.70063E-08-4.05919E-19-6.13261E-18
 -1       119 9.55539E-05-2.86627E-05-2.87157E-05 3.81343E-08 2.55361E-19-6.05880E-18
 -1       120 9.51160E-05-2.85126E-05-2.85443E-05-3.65566E-08 1.94846E-18-7.24276E-18
 -1       121 9.52631E-05-2.86530E-05-2.85506E-05-6.10852E-08-7.94436E-18 5.17883E-19
 -1       122 9.51220E-05-2.81976E-05-2.87272E-05 1.68986E-08-4.17644E-18 7.91405E-20
 -1       123 9.47750E-05-2.70369E-05-2.90614E-05 6.08924E-08 1.48764E-18 1.33766E-19
 -1       124 9.43086E-05-2.54753E-05-2.95083E-05 7.68304E-08 3.03271E-18 2.27941E-18
 -1       125 9.38158E-05-2.38205E-05-2.99866E-05 7.39636E-08 3.28722E-20-1.89388E-18
 -1       126 9.33841E-05-2.23655E-05-3.04103E-05 6.01870E-08-9.80729E-18-1.14870E-18
 -1       127 9.30606E-05-2.12776E-05-3.07284E-05 3.77482E-08-6.64326E-18 2.38399E-19
 -1       128 9.28981E-05-2.07302E-05-3.08890E-05 1.09272E-08-3.55911E-18 6.78035E-19
 -1       129 9.29159E-05-2.07906E-05-3.08719E-05-1.66521E-08 2.23757E-18 2.16070E-19
 -1       130 9.31097E-05-2.14430E-05-3.06815E-05-4.15450E-08 9.73831E-19-6.87743E-19
 -1       131 9.34511E-05-2.25931E-05-3.03456E-05-6.13421E-08-3.44141E-18-7.51025E-19
 -1       132 9.38857E-05-2.40551E-05-2.99195E-05-7.14442E-08-4.62379E-18 1.82528E-18
 -1       133 9.43651E-05-2.56657E-05-2.94527E-05-7.13902E-08 1.65768E-18 1.20102E-18
 -1       134 9.48073E-05-2.71541E-05-2.90264E-05-6.04891E-08-1.07169E-18-1.00541E-18
 -1       135 9.51312E-05-2.82224E-05-2.87128E-05-2.09535E-08-1.33567E-18-2.92586E-19
 -1       136 9.52335E-05-2.86277E-05-2.85469E-05 1.02700E-07-1.49250E-18 1.19164E-18
 -1       137 2.45218E-05-8.53315E-05 1.52372E-05-2.39558E-05 9.45543E-18 2.33739E-18
 -1       138 7.42861E-06-3.01862E-05 1.99487E-06-1.51682E-05 1.47134E-17 8.22702E-18
 -1       139 1.45156E-05 1.69795E-05-1.68355E-05 2.84449E-05 1.43343E-17 1.08530E-17
 -1       140 6.42170E-05 2.59045E-05-3.69820E-05 8.20936E-05 1.22252E-17 1.46346E-17
 -1       141 1.52707E-04-6.62425E-06-5.60098E-05 1.12584E-04 8.38647E-18 1.47608E-17
 -1       142 2.49650E-04-5.89092E-05-7.10963E-05 9.44193E-05 2.76540E-18 8.96373E-18
 -1       143 3.05879E-04-9.32257E-05-7.83866E-05 2.88538E-05 5.19125E-19-2.53951E-18
 -1       144 2.93668E-04-8.56907E-05-7.68110E-05-5.36780E-05 2.53729E-18-1.36152E-17
 -1       145 2.19973E-04-4.20476E-05-6.67989E-05-1.06474E-04 9.94374E-18-2.57193E-17
 -1       146 1.25075E-04 5.73797E-06-5.08953E-05-1.07785E-04 1.95671E-17-3.16833E-17
 -1       147 4.54245E-05 2.67934E-05-3.08262E-05-6.63339E-05 2.43412E-17-2.55245E-17
 -1       148 8.13298E-06 6.65212E-06-1.10454E-05-1.28640E-05 2.01505E-17-1.53351E-17
 -1       149 1.00217E-05-4.32489E-05 5.63328E-06 2.17522E-05 1.35839E-17-5.04038E-18
 -1       150 2.80195E-05-9.26936E-05 1.66456E-05 2.18114E-05 7.13731E-18-1.52068E-18
 -1       151 3.51731E-05-1.08822E-04 1.98532E-05-3.55280E-06-6.06460E-18-9.95687E-19
 -1       152 2.31588E-05-8.02339E-05 1.40496E-05-2.30227E-05-2.31494E-17-6.76583E-18
 -1       153 6.20521E-06-2.57177E-05 9.65370E-07-1.44540E-05-3.39351E-17-1.79442E-17
 -1       154 1.51619E-05 1.88336E-05-1.75636E-05 3.05824E-05-3.35633E-17-2.62906E-17
 -1       155 6.80070E-05 2.51267E-05-3.78948E-05 8.45358E-05-2.52187E-17-2.97622E-17
 -1       156 1.62522E-04-1.14519E-05-5.76868E-05 1.12833E-04-1.24457E-17-2.31863E-17
 -1       157 3.04796E-04-9.34926E-05-7.81094E-05 2.04028E-05-1.50878E-21 1.16245E-18
 -1       158 2.87103E-04-8.24731E-05-7.58385E-05-5.86014E-05-1.90578E-18 1.14813E-17
 -1       159 2.15600E-04-3.98011E-05-6.61213E-05-1.06928E-04-5.97105E-18 1.62135E-17
 -1       160 1.22658E-04 7.15146E-06-5.04638E-05-1.07975E-04-1.24029E-17 1.90468E-17
 -1       161 4.72605E-05 2.81524E-05-3.18336E-05-6.95490E-05-2.07252E-17 2.17378E-17
 -1       162 9.69194E-06 8.76511E-06-1.21985E-05-1.68031E-05-2.48380E-17 1.84744E-17
 -1       163 9.30986E-06-3.94093E-05 4.65152E-06 1.95989E-05-1.70808E-17 9.25013E-18
 -1       164 2.68845E-05-8.94254E-05 1.59197E-05 2.29654E-05-5.75072E-18 1.25499E-18
 -1       165 9.48303E-05-1.23388E-05-3.55566E-05-2.23585E-05-4.48000E-18 6.72200E-19
 -1       166 8.92226E-05-8.44757E-06-3.47804E-05-1.73982E-05-4.00848E-18-3.93262E-18
 -1       167 8.65512E-05-6.51018E-06-3.44141E-05-1.36073E-05-3.14557E-18-6.42449E-18
 -1       168 8.52018E-05-5.51718E-06-3.42336E-05-1.03794E-05-2.26946E-18-7.65826E-18
 -1       169 8.44694E-05-4.94900E-06-3.41493E-05-7.55675E-06-1.46174E-18-8.14635E-18
 -1       170 8.40510E-05-4.60486E-06-3.41100E-05-4.91026E-06-7.20851E-19-8.29981E-18
 -1       171 8.38380E-05-4.42100E-06-3.40940E-05-2.39854E-06 8.10058E-21-8.18330E-18
 -1       172 8.37754E-05-4.36540E-06-3.40899E-05 5.11605E-08 6.35065E-19-7.99397E-18
 -1       173 8.38480E-05-4.42948E-06-3.40948E-05 2.50296E-06 1.33725E-18-7.73939E-18
 -1       174 8.40731E-05-4.62417E-06-3.41115E-05 5.02126E-06 1.98603E-18-7.36405E-18
 -1       175 8.44975E-05-4.97626E-06-3.41501E-05 7.63349E-06 2.63847E-18-6.70664E-18
 -1       176 8.52615E-05-5.57699E-06-3.42354E-05 1.05249E-05 3.47391E-18-5.53066E-18
 -1       177 8.66428E-05-6.60853E-06-3.44166E-05 1.37970E-05 4.19599E-18-3.72807E-18
 -1       178 8.93709E-05-8.59622E-06-3.47847E-05 1.76360E-05 4.69953E-18-4.78057E-19
 -1       179 9.57409E-05-1.36043E-05-3.54129E-05 2.19042E-05 4.41263E-18 5.36863E-18
 -1       180 1.05553E-04-2.60859E-05-3.52474E-05 1.86705E-05 3.28595E-18 1.30602E-17
 -1       181 1.03348E-04-2.72866E-05-3.25953E-05-1.21371E-05-3.90763E-18 6.36461E-18
 -1       182 9.70528E-05-2.82724E-05-2.95125E-05-4.74015E-06-3.38001E-18 4.49136E-18
 -1       183 9.34482E-05-2.76192E-05-2.81643E-05-1.77734E-06-2.49967E-18 2.91835E-18
 -1       184 9.19090E-05-2.73867E-05-2.76169E-05-4.29133E-07-1.85548E-18 1.19902E-18
 -1       185 9.13311E-05-2.73105E-05-2.74191E-05 2.37117E-07-1.39283E-18 1.88624E-19
 -1       186 9.12909E-05-2.73492E-05-2.73948E-05 5.67327E-07-1.08848E-18-4.88310E-19
 -1       187 9.15421E-05-2.74531E-05-2.74625E-05 7.13884E-07-7.36028E-19-1.02880E-18
 -1       188 9.19429E-05-2.75891E-05-2.75782E-05 7.57502E-07-8.59718E-19-1.58082E-18
 -1       189 9.24114E-05-2.77369E-05-2.77167E-05 7.46093E-07-8.78378E-19-1.86137E-18
 -1       190 9.29024E-05-2.78857E-05-2.78639E-05 7.10686E-07-2.22472E-19-1.96455E-18
 -1       191 9.33953E-05-2.80308E-05-2.80131E-05 6.72695E-07-5.45625E-19-2.74299E-18
 -1       192 9.38865E-05-2.81723E-05-2.81629E-05 6.47731E-07-7.06737E-19-3.40110E-18
 -1       193 9.43849E-05-2.83133E-05-2.83158E-05 6.47811E-07-2.53779E-19-3.78954E-18
 -1       194 9.49090E-05-2.84598E-05-2.84772E-05 6.82714E-07-1.65884E-19-3.76038E-18
 -1       195 9.54848E-05-2.86199E-05-2.86550E-05 7.60724E-07-5.82708E-19-3.89494E-18
 -1       196 9.61445E-05-2.88034E-05-2.88585E-05 8.88821E-07-4.28894E-19-3.61381E-18
 -1       197 9.69244E-05-2.90218E-05-2.90986E-05 1.07221E-06-3.32776E-19-3.48959E-18
 -1       198 9.78632E-05-2.92876E-05-2.93867E-05 1.31300E-06 3.17299E-19-4.01807E-18
 -1       199 9.89981E-05-2.96140E-05-2.97330E-05 1.60754E-06-5.37930E-19-4.57514E-18
 -1       200 1.00359E-04-3.00133E-05-3.01455E-05 1.94206E-06-1.87736E-19-4.48843E-18
 -1       201 1.01961E-04-3.04955E-05-3.06262E-05 2.28593E-06 6.63770E-19-3.94428E-18
 -1       202 1.03787E-04-3.10647E-05-3.11667E-05 2.58232E-06 5.34532E-20-3.49105E-18
 -1       203 1.05774E-04-3.17140E-05-3.17428E-05 2.73737E-06 2.04521E-19-2.85631E-18
 -1       204 1.07784E-04-3.24166E-05-3.23071E-05 2.61225E-06 1.26470E-18-1.97423E-18
 -1       205 1.09587E-04-3.31129E-05-3.27850E-05 2.02879E-06-1.78724E-19-2.38625E-18
 -1       206 1.10841E-04-3.36932E-05-3.30766E-05 8.09257E-07-5.04056E-19-2.44271E-18
 -1       207 1.11125E-04-3.39826E-05-3.30735E-05-1.12388E-06-6.19294E-19-3.64829E-18
 -1       208 1.10025E-04-3.37512E-05-3.26970E-05-3.58097E-06 5.86967E-19-3.53365E-18
 -1       209 1.07344E-04-3.27925E-05-3.19515E-05-5.93673E-06 1.15097E-18-2.97415E-18
 -1       210 1.03387E-04-3.11053E-05-3.09711E-05-7.14915E-06-1.07066E-20-2.43337E-18
 -1       211 9.91659E-05-2.91087E-05-3.00147E-05-6.20480E-06-4.56200E-19-2.21911E-18
 -1       212 9.61980E-05-2.76171E-05-2.93825E-05-2.91659E-06-1.33687E-18-2.87512E-18
 -1       213 9.57578E-05-2.73962E-05-2.92890E-05 1.59369E-06 1.59414E-20-3.34986E-18
 -1       214 9.80351E-05-2.85641E-05-2.97633E-05 5.40129E-06 2.02573E-19-3.08083E-18
 -1       215 1.01998E-04-3.04926E-05-3.06369E-05 7.05100E-06-1.25466E-18-3.73772E-18
 -1       216 1.06097E-04-3.23151E-05-3.16196E-05 6.35992E-06 1.98967E-19-5.31789E-18
 -1       217 1.09122E-04-3.34753E-05-3.24266E-05 4.19226E-06 3.40070E-19-6.88366E-18
 -1       218 1.10572E-04-3.38709E-05-3.28840E-05 1.64895E-06 2.86932E-20-4.31184E-18
 -1       219 1.10525E-04-3.36706E-05-3.29515E-05-5.05405E-07 1.67426E-19-3.31117E-18
 -1       220 1.09358E-04-3.31097E-05-3.26896E-05-1.96756E-06-6.52194E-19-4.91009E-18
 -1       221 1.07504E-04-3.23815E-05-3.22030E-05-2.75468E-06-4.03836E-19-5.20959E-18
 -1       222 1.05334E-04-3.16137E-05-3.15982E-05-3.02383E-06 1.64483E-18-4.49856E-18
 -1       223 1.03121E-04-3.08797E-05-3.09608E-05-2.95043E-06 5.34810E-19-2.85057E-18
 -1       224 1.01042E-04-3.02169E-05-3.03512E-05-2.67198E-06 1.85402E-18-2.47654E-18
 -1       225 9.92055E-05-2.96419E-05-2.98090E-05-2.27284E-06 2.76258E-18-1.04206E-18
 -1       226 9.76773E-05-2.91606E-05-2.93598E-05-1.78793E-06 7.45233E-19-1.15986E-18
 -1       227 9.64993E-05-2.87762E-05-2.90199E-05-1.21797E-06 8.43047E-19-1.21285E-18
 -1       228 9.56695E-05-2.84949E-05-2.87859E-05-5.69604E-07-2.71394E-20-3.13693E-19
 -1       229 9.94462E-05-2.85379E-05-3.05709E-05 7.21934E-06 3.29607E-18 1.11404E-17
 -1       230 9.43567E-05-2.77728E-05-2.85066E-05 2.75166E-06 2.66098E-18 8.49190E-18
 -1       231 9.20317E-05-2.73816E-05-2.76621E-05 9.37374E-07 1.96701E-18 6.43955E-18
 -1       232 9.10791E-05-2.72176E-05-2.73422E-05 7.44021E-08 1.42262E-18 4.91838E-18
 -1       233 9.08658E-05-2.72097E-05-2.72676E-05-3.55735E-07 1.08186E-18 3.76054E-18
 -1       234 9.10520E-05-2.72959E-05-2.73172E-05-5.60959E-07 5.69132E-19 3.07021E-18
 -1       235 9.14453E-05-2.74310E-05-2.74310E-05-6.41661E-07 4.83768E-19 2.54748E-18
 -1       236 9.19351E-05-2.75871E-05-2.75756E-05-6.53282E-07 4.97804E-19 1.99976E-18
 -1       237 9.24590E-05-2.77481E-05-2.77319E-05-6.29946E-07 5.97309E-19 1.39240E-18
 -1       238 9.29853E-05-2.79060E-05-2.78903E-05-5.94345E-07 5.56581E-19 1.05642E-18
 -1       239 9.35033E-05-2.80587E-05-2.80471E-05-5.62553E-07 7.47620E-19 6.86372E-19
 -1       240 9.40175E-05-2.82079E-05-2.82035E-05-5.46694E-07 3.82384E-19-1.77745E-20
 -1       241 9.45437E-05-2.83589E-05-2.83642E-05-5.56583E-07 4.47586E-19-6.29481E-19
 -1       242 9.51073E-05-2.85193E-05-2.85369E-05-6.00801E-07 4.72079E-19-8.46368E-19
 -1       243 9.57418E-05-2.86992E-05-2.87314E-05-6.87350E-07 5.13058E-19-6.65114E-19
 -1       244 9.64876E-05-2.89108E-05-2.89602E-05-8.23914E-07-5.38579E-19-1.37048E-18
 -1       245 9.73919E-05-2.91682E-05-2.92372E-05-1.01758E-06 4.62991E-19-1.38166E-18
 -1       246 9.85061E-05-2.94873E-05-2.95779E-05-1.27378E-06 3.90371E-19-1.79631E-18
 -1       247 9.98831E-05-2.98852E-05-2.99977E-05-1.59387E-06-2.27678E-19-8.80611E-19
 -1       248 1.01571E-04-3.03786E-05-3.05101E-05-1.97068E-06-3.78478E-19-8.33700E-19
 -1       249 1.03602E-04-3.09820E-05-3.11230E-05-2.38076E-06 4.69959E-19-1.06113E-18
 -1       250 1.05973E-04-3.17029E-05-3.18317E-05-2.77229E-06 1.07238E-18-1.25073E-18
 -1       251 1.08616E-04-3.25344E-05-3.26102E-05-3.04819E-06-4.21579E-19-1.88636E-18
 -1       252 1.11361E-04-3.34438E-05-3.33984E-05-3.04819E-06-6.03506E-19-1.63511E-18
 -1       253 1.13887E-04-3.43529E-05-3.40902E-05-2.54279E-06-9.48645E-19 3.97933E-19
 -1       254 1.15692E-04-3.51139E-05-3.45318E-05-1.27020E-06-1.14118E-18 1.80987E-19
 -1       255 1.16120E-04-3.54847E-05-3.45460E-05 9.36517E-07-2.18660E-19 4.29274E-19
 -1       256 1.14524E-04-3.51387E-05-3.40008E-05 3.88549E-06 3.67328E-19 9.56849E-19
 -1       257 1.10639E-04-3.37982E-05-3.29130E-05 6.72213E-06 4.52192E-19 8.92190E-19
 -1       258 1.05098E-04-3.15349E-05-3.15318E-05 7.95790E-06-2.39845E-19 1.00510E-18
 -1       259 9.97046E-05-2.90720E-05-3.03093E-05 6.21727E-06-3.72374E-19 1.42585E-18
 -1       260 9.68675E-05-2.76663E-05-2.97156E-05 1.58641E-06 1.84031E-19 4.65089E-19
 -1       261 9.80525E-05-2.81712E-05-2.99942E-05-3.82617E-06 8.05409E-19-6.04993E-19
 -1       262 1.02642E-04-3.02923E-05-3.10101E-05-7.32656E-06-2.00563E-19-3.93579E-19
 -1       263 1.08382E-04-3.27989E-05-3.23669E-05-7.64200E-06 2.02597E-18-2.27580E-18
 -1       264 1.13052E-04-3.46290E-05-3.35821E-05-5.48501E-06 9.34469E-19-5.23449E-18
 -1       265 1.15506E-04-3.53951E-05-3.43197E-05-2.42888E-06-1.00584E-18-3.22676E-18
 -1       266 1.15717E-04-3.52693E-05-3.44780E-05 2.70404E-07-4.05646E-19-1.41294E-18
 -1       267 1.14243E-04-3.45936E-05-3.41434E-05 2.08960E-06 2.34239E-19-2.79039E-19
 -1       268 1.11768E-04-3.36620E-05-3.34832E-05 3.03151E-06-4.70109E-19-3.11730E-19
 -1       269 1.08866E-04-3.26686E-05-3.26629E-05 3.32090E-06 7.15692E-20-2.02211E-18
 -1       270 1.05935E-04-3.17218E-05-3.18088E-05 3.20672E-06 3.93015E-19-2.22765E-19
 -1       271 1.03210E-04-3.08736E-05-3.10018E-05 2.87899E-06 5.82314E-19-5.29029E-19
 -1       272 1.00819E-04-3.01438E-05-3.02879E-05 2.45320E-06 9.12188E-19-2.32899E-18
 -1       273 9.88227E-05-2.95370E-05-2.96918E-05 1.98120E-06 1.73460E-18-2.50379E-18
 -1       274 9.72536E-05-2.90530E-05-2.92280E-05 1.46914E-06-1.09172E-19-4.01103E-18
 -1       275 9.61344E-05-2.86908E-05-2.89034E-05 8.94185E-07-2.25264E-19-4.64268E-18
 -1       276 9.54631E-05-2.84958E-05-2.86946E-05 2.80113E-07-2.34152E-19-3.40121E-18
 -1       277 9.53026E-05-2.80860E-05-2.88034E-05 6.35542E-07-8.13155E-19 2.66243E-18
 -1       278 9.49997E-05-2.72646E-05-2.90280E-05 1.23123E-06-3.84905E-19 2.08437E-18
 -1       279 9.45849E-05-2.61779E-05-2.93168E-05 1.59991E-06 2.86697E-19 1.14858E-18
 -1       280 9.41442E-05-2.49812E-05-2.96419E-05 1.67904E-06-1.71881E-18-9.81178E-19
 -1       281 9.37405E-05-2.38603E-05-2.99510E-05 1.49748E-06-2.12832E-18-5.86539E-18
 -1       282 9.34112E-05-2.29329E-05-3.02090E-05 1.09886E-06-2.03373E-18-3.90545E-19
 -1       283 9.32052E-05-2.23459E-05-3.03733E-05 5.52128E-07-2.14924E-18 1.68843E-18
 -1       284 9.31467E-05-2.21742E-05-3.04221E-05-6.25095E-08-6.32744E-19 3.80044E-18
 -1       285 9.32410E-05-2.24362E-05-3.03498E-05-6.61405E-07 3.93095E-19-8.05575E-19
 -1       286 9.34741E-05-2.30927E-05-3.01671E-05-1.16589E-06-2.34863E-19-1.74707E-18
 -1       287 9.38082E-05-2.40347E-05-2.99049E-05-1.50470E-06 1.09671E-18 9.13631E-19
 -1       288 9.42134E-05-2.51683E-05-2.95911E-05-1.63800E-06 1.48092E-18 1.97466E-18
 -1       289 9.46336E-05-2.63261E-05-2.92738E-05-1.52458E-06 7.93247E-19-1.98265E-18
 -1       290 9.50218E-05-2.73494E-05-2.89990E-05-1.14768E-06 3.09080E-19-6.74731E-21
 -1       291 9.53716E-05-2.79716E-05-2.88817E-05-9.66588E-07 1.90941E-19-1.51694E-18
 -1       292 1.17999E-05-4.40937E-05 1.09904E-05 8.16500E-06 1.43043E-19 3.99270E-18
 -1       293 2.95147E-05-4.10688E-05 2.86724E-06 2.60924E-05 2.13008E-18 3.80185E-18
 -1       294 5.95574E-05-3.82209E-05-1.05695E-05 3.68652E-05 3.90228E-18 3.83071E-18
 -1       295 9.36958E-05-3.09331E-05-2.72039E-05 4.43944E-05 5.45447E-18 5.01105E-18
 -1       296 1.36678E-04-3.03458E-05-4.43294E-05 4.67609E-05 4.30409E-18 3.46924E-18
 -1       297 1.76505E-04-3.32923E-05-5.89472E-05 3.52508E-05 3.91824E-18 1.93886E-18
 -1       298 2.05622E-04-3.63992E-05-6.89814E-05 1.99894E-05 5.42779E-18-1.69163E-18
 -1       299 2.05302E-04-3.28483E-05-7.06726E-05-3.10474E-06 5.41656E-18-5.20240E-18
 -1       300 1.98305E-04-3.55137E-05-6.64443E-05-2.66249E-05 8.11733E-18-7.42467E-18
 -1       301 1.65964E-04-3.23728E-05-5.50719E-05-4.13182E-05 1.05310E-17-1.07340E-17
 -1       302 1.27201E-04-3.43458E-05-3.91769E-05-4.26180E-05 9.07543E-18-1.31487E-17
 -1       303 8.40300E-05-3.40053E-05-2.20941E-05-4.21840E-05 8.04702E-18-1.38534E-17
 -1       304 4.86235E-05-3.82469E-05-6.31206E-06-3.29201E-05 6.42072E-18-1.02298E-17
 -1       305 2.33970E-05-4.30043E-05 5.66890E-06-1.96912E-05 3.50841E-18-5.38956E-18
 -1       306 1.13876E-05-4.61266E-05 1.17876E-05-5.30525E-06-1.87448E-18-6.25502E-18
 -1       307 1.25922E-05-3.95772E-05 9.38516E-06 1.26174E-05-5.50783E-18-1.04185E-17
 -1       308 2.84609E-05-4.17107E-05 2.93571E-06 2.22795E-05-1.20037E-17-1.19047E-17
 -1       309 5.79028E-05-3.55490E-05-1.10749E-05 3.67319E-05-1.38221E-17-1.15289E-17
 -1       310 9.68807E-05-3.21271E-05-2.79203E-05 4.45841E-05-1.35714E-17-1.09534E-17
 -1       311 1.40000E-04-3.13254E-05-4.53283E-05 4.41862E-05-1.30003E-17-8.36382E-18
 -1       312 1.78331E-04-3.25149E-05-6.00192E-05 3.36387E-05-9.81859E-18-5.67936E-18
 -1       313 2.05260E-04-3.58418E-05-6.91674E-05 1.77319E-05-7.01026E-18-3.10639E-18
 -1       314 2.02781E-04-3.20333E-05-7.00757E-05-4.98696E-06-6.03172E-18 1.31671E-18
 -1       315 1.95063E-04-3.45306E-05-6.56312E-05-2.81324E-05-4.05199E-18 4.76647E-18
 -1       316 1.63572E-04-3.11221E-05-5.45704E-05-4.27935E-05-6.64193E-18 6.61850E-18
 -1       317 1.23545E-04-2.92388E-05-3.95954E-05-4.72728E-05-1.02990E-17 7.45071E-18
 -1       318 8.54782E-05-3.31693E-05-2.29767E-05-4.29311E-05-9.30677E-18 8.45911E-18
 -1       319 5.39197E-05-3.92203E-05-7.71235E-06-3.67009E-05-5.23043E-18 9.72066E-18
 -1       320 2.47749E-05-4.23886E-05 4.92177E-06-2.17272E-05-5.82843E-18 8.78585E-18
 -1       321 1.27101E-05-4.87028E-05 1.20032E-05-6.77015E-06-2.87869E-18 4.11277E-18
 -1       322 9.16189E-05-1.44419E-05-3.31537E-05-1.29940E-05-4.14232E-18-3.70964E-18
 -1       323 9.56790E-05-1.91025E-05-3.28811E-05-1.46486E-05-4.62104E-18-9.27865E-19
 -1       324 8.80217E-05-1.03792E-05-3.33306E-05-8.16296E-06-2.32468E-18-6.06137E-18
 -1       325 8.72192E-05-9.46041E-06-3.33737E-05-5.72419E-06-1.43985E-18-6.41213E-18
 -1       326 8.67665E-05-8.93135E-06-3.34030E-05-3.37058E-06-4.93748E-19-6.41846E-18
 -1       327 8.65651E-05-8.69189E-06-3.34177E-05-1.07377E-06 4.32042E-19-6.34763E-18
 -1       328 8.65737E-05-8.70150E-06-3.34174E-05 1.20463E-06 1.20656E-18-6.09839E-18
 -1       329 8.67940E-05-8.96209E-06-3.34017E-05 3.50371E-06 2.01224E-18-5.83559E-18
 -1       330 8.72589E-05-9.50520E-06-3.33717E-05 5.82120E-06 2.81308E-18-5.35562E-18
 -1       331 8.80869E-05-1.04547E-05-3.33263E-05 8.26303E-06 3.71302E-18-4.33335E-18
 -1       332 8.94872E-05-1.20347E-05-3.32606E-05 1.07741E-05 4.54417E-18-3.06818E-18
 -1       333 9.18897E-05-1.47192E-05-3.31542E-05 1.31809E-05 5.11141E-18-1.15666E-18
 -1       334 9.57734E-05-1.94485E-05-3.28184E-05 1.43878E-05 5.15479E-18 2.52549E-18
 -1       335 9.87482E-05-2.44314E-05-3.19382E-05 1.19089E-05 4.52440E-18 5.92043E-18
 -1       336 9.63449E-05-2.67987E-05-2.97761E-05 5.75237E-06 3.80114E-18 4.43826E-18
 -1       337 9.63996E-05-2.60166E-05-3.01196E-05-6.35696E-06-3.75032E-18-1.50819E-19
 -1       338 9.48818E-05-2.70172E-05-2.90594E-05-2.84509E-06-2.97939E-18-5.42084E-19
 -1       339 9.39054E-05-2.74118E-05-2.84827E-05-9.28549E-07-2.20869E-18-1.05766E-18
 -1       340 9.33900E-05-2.76232E-05-2.81790E-05 1.38566E-07-1.50217E-18-1.50055E-18
 -1       341 9.32057E-05-2.77748E-05-2.80389E-05 7.15881E-07-1.11619E-18-1.54075E-18
 -1       342 9.32371E-05-2.79031E-05-2.79992E-05 1.00428E-06-1.11266E-18-1.66979E-18
 -1       343 9.34008E-05-2.80174E-05-2.80211E-05 1.12380E-06-8.94343E-19-1.62513E-18
 -1       344 9.36413E-05-2.81197E-05-2.80808E-05 1.15113E-06-7.09602E-19-1.63868E-18
 -1       345 9.39256E-05-2.82106E-05-2.81638E-05 1.13808E-06-8.17799E-19-2.34185E-18
 -1       346 9.42367E-05-2.82919E-05-2.82621E-05 1.12136E-06-7.09652E-19-2.49457E-18
 -1       347 9.45697E-05-2.83661E-05-2.83728E-05 1.12814E-06-7.70186E-19-2.23341E-18
 -1       348 9.49290E-05-2.84373E-05-2.84960E-05 1.17946E-06-6.01531E-21-1.99169E-18
 -1       349 9.53262E-05-2.85106E-05-2.86344E-05 1.29222E-06-3.58978E-19-1.68485E-18
 -1       350 9.57781E-05-2.85926E-05-2.87924E-05 1.48012E-06-3.83217E-19-1.98712E-18
 -1       351 9.63058E-05-2.86918E-05-2.89756E-05 1.75363E-06-4.38107E-19-2.41921E-18
 -1       352 9.69335E-05-2.88187E-05-2.91897E-05 2.11860E-06-4.86207E-19-2.07045E-18
 -1       353 9.76869E-05-2.89871E-05-2.94400E-05 2.57341E-06-2.75155E-19-2.82624E-18
 -1       354 9.85916E-05-2.92153E-05-2.97297E-05 3.10389E-06-5.36183E-19-2.95708E-18
 -1       355 9.96710E-05-2.95278E-05-3.00586E-05 3.67542E-06 5.48354E-19-1.68858E-18
 -1       356 1.00943E-04-2.99568E-05-3.04208E-05 4.22184E-06 9.29010E-19-1.86087E-18
 -1       357 1.02415E-04-3.05428E-05-3.08026E-05 4.63156E-06 7.92435E-19-7.77226E-19
 -1       358 1.04079E-04-3.13299E-05-3.11812E-05 4.73401E-06 1.08024E-18-2.54167E-19
 -1       359 1.05891E-04-3.23487E-05-3.15256E-05 4.29494E-06 2.17852E-19-1.73453E-18
 -1       360 1.07749E-04-3.35747E-05-3.18020E-05 3.03941E-06-2.07419E-19-2.42262E-18
 -1       361 1.09446E-04-3.48533E-05-3.19854E-05 7.34670E-07-5.81325E-19-1.62237E-18
 -1       362 1.10611E-04-3.58055E-05-3.20774E-05-2.62767E-06 4.67341E-19 2.15140E-19
 -1       363 1.10719E-04-3.58081E-05-3.21186E-05-6.55130E-06 4.32936E-19 3.38778E-19
 -1       364 1.09287E-04-3.42221E-05-3.21754E-05-9.79512E-06 3.68251E-19-3.90583E-19
 -1       365 1.06386E-04-3.10154E-05-3.22941E-05-1.05465E-05-6.09484E-19-2.02236E-18
 -1       366 1.03159E-04-2.74200E-05-3.24479E-05-7.46020E-06-8.79483E-19-1.73780E-18
 -1       367 1.01435E-04-2.54959E-05-3.25341E-05-1.10355E-06-7.60599E-19-7.03464E-19
 -1       368 1.02391E-04-2.65969E-05-3.24707E-05 5.74597E-06 8.06766E-20-1.50658E-18
 -1       369 1.05328E-04-2.99128E-05-3.23101E-05 9.93859E-06-1.11316E-18-1.25540E-18
 -1       370 1.08449E-04-3.34190E-05-3.21578E-05 1.01927E-05-1.53761E-18-8.62777E-19
 -1       371 1.10294E-04-3.55034E-05-3.20647E-05 7.44243E-06-6.41953E-19-1.63916E-18
 -1       372 1.10529E-04-3.58933E-05-3.20052E-05 3.50876E-06 1.40508E-18-2.32021E-18
 -1       373 1.09532E-04-3.51230E-05-3.19082E-05-1.47326E-07 1.06884E-18-2.44515E-18
 -1       374 1.07852E-04-3.38634E-05-3.17239E-05-2.82767E-06-3.89200E-19-4.88463E-19
 -1       375 1.05908E-04-3.25667E-05-3.14414E-05-4.42338E-06-1.26072E-18-8.38030E-19
 -1       376 1.03953E-04-3.14410E-05-3.10810E-05-5.11905E-06 3.54967E-19-4.81488E-19
 -1       377 1.02116E-04-3.05364E-05-3.06778E-05-5.17841E-06 1.51074E-18-7.80260E-19
 -1       378 1.00459E-04-2.98288E-05-3.02684E-05-4.83443E-06 2.29092E-18-6.09309E-19
 -1       379 9.90069E-05-2.92705E-05-2.98836E-05-4.25129E-06 2.24939E-18-9.99322E-19
 -1       380 9.77645E-05-2.88133E-05-2.95461E-05-3.52346E-06 7.89978E-20-1.68052E-18
 -1       381 9.67309E-05-2.84208E-05-2.92698E-05-2.69190E-06-1.20484E-19-1.50093E-18
 -1       382 9.59888E-05-2.81613E-05-2.90637E-05-1.83972E-06 6.22231E-19-1.54036E-18
 -1       383 9.43228E-05-2.73265E-05-2.86745E-05 2.47922E-06 2.91164E-18 3.28910E-18
 -1       384 9.31153E-05-2.74453E-05-2.81224E-05 7.52105E-07 2.18058E-18 2.34214E-18
 -1       385 9.25623E-05-2.75218E-05-2.78645E-05-1.73638E-07 1.51955E-18 1.44550E-18
 -1       386 9.24257E-05-2.76139E-05-2.77722E-05-6.57879E-07 8.43787E-19 1.06330E-18
 -1       387 9.25400E-05-2.77237E-05-2.77767E-05-8.90024E-07 6.48578E-19 7.33017E-19
 -1       388 9.27972E-05-2.78422E-05-2.78372E-05-9.77383E-07 8.91823E-19 4.00345E-19
 -1       389 9.31304E-05-2.79615E-05-2.79295E-05-9.86326E-07 1.03271E-18 1.19510E-19
 -1       390 9.35009E-05-2.80768E-05-2.80390E-05-9.60798E-07 9.13719E-19 1.52213E-19
 -1       391 9.38902E-05-2.81866E-05-2.81588E-05-9.31668E-07 1.08269E-18-4.79436E-19
 -1       392 9.42943E-05-2.82923E-05-2.82865E-05-9.21873E-07 8.68052E-19-7.83049E-19
 -1       393 9.47204E-05-2.83974E-05-2.84237E-05-9.49548E-07 1.12377E-18-1.56989E-18
 -1       394 9.51840E-05-2.85073E-05-2.85748E-05-1.03000E-06 3.35219E-19-1.38267E-18
 -1       395 9.57080E-05-2.86292E-05-2.87466E-05-1.17691E-06 4.34677E-19-1.33938E-18
 -1       396 9.63211E-05-2.87721E-05-2.89474E-05-1.40282E-06 1.97303E-19-1.49133E-18
 -1       397 9.70567E-05-2.89467E-05-2.91872E-05-1.71868E-06 3.33586E-19-1.89517E-18
 -1       398 9.79520E-05-2.91660E-05-2.94763E-05-2.13224E-06 6.08923E-19-1.38061E-18
 -1       399 9.90452E-05-2.94457E-05-2.98244E-05-2.64442E-06-2.80408E-19-1.73111E-18
 -1       400 1.00373E-04-2.98053E-05-3.02392E-05-3.24274E-06-1.27028E-19-1.59405E-18
 -1       401 1.01964E-04-3.02690E-05-3.07227E-05-3.89040E-06 2.33064E-19-1.50707E-18
 -1       402 1.03831E-04-3.08672E-05-3.12683E-05-4.50969E-06 1.11201E-18-1.29843E-18
 -1       403 1.05960E-04-3.16352E-05-3.18545E-05-4.95953E-06-2.66874E-19-1.05194E-18
 -1       404 1.08287E-04-3.26072E-05-3.24401E-05-5.01194E-06-5.91283E-19-1.38343E-18
 -1       405 1.10675E-04-3.37913E-05-3.29623E-05-4.34389E-06-1.73365E-18-9.78819E-19
 -1       406 1.12871E-04-3.51131E-05-3.33424E-05-2.58291E-06-5.01852E-19-1.11108E-18
 -1       407 1.14460E-04-3.63182E-05-3.35093E-05 5.34152E-07-2.91877E-19-3.25504E-19
 -1       408 1.14837E-04-3.68496E-05-3.34380E-05 4.82237E-06-1.11712E-19 1.44853E-18
 -1       409 1.13364E-04-3.59361E-05-3.31931E-05 9.18013E-06 4.79417E-19 3.60968E-18
 -1       410 1.09917E-04-3.31600E-05-3.29017E-05 1.14964E-05-1.77871E-19 3.76395E-18
 -1       411 1.05569E-04-2.92852E-05-3.27006E-05 9.53828E-06 7.23479E-19 1.68089E-18
 -1       412 1.02702E-04-2.65816E-05-3.26227E-05 3.03281E-06 1.36656E-18-6.13693E-19
 -1       413 1.03233E-04-2.70293E-05-3.26685E-05-5.03553E-06 9.64976E-19-1.74175E-18
 -1       414 1.06853E-04-3.03551E-05-3.27784E-05-1.04911E-05 1.31522E-19-1.71712E-18
 -1       415 1.11107E-04-3.40927E-05-3.29996E-05-1.11138E-05 2.44365E-18-1.71012E-18
 -1       416 1.13967E-04-3.63829E-05-3.32591E-05-7.94319E-06 2.26558E-18-2.37290E-18
 -1       417 1.14715E-04-3.67822E-05-3.34228E-05-3.37177E-06-2.07927E-18-3.18752E-18
 -1       418 1.13763E-04-3.59457E-05-3.33752E-05 6.98878E-07-1.50166E-18-1.67731E-18
 -1       419 1.11786E-04-3.46215E-05-3.30907E-05 3.47816E-06-1.24476E-18 2.48187E-19
 -1       420 1.09341E-04-3.32722E-05-3.26137E-05 4.94862E-06 4.39289E-19 1.23492E-18
 -1       421 1.06794E-04-3.20929E-05-3.20202E-05 5.42513E-06 5.80771E-19 1.23017E-19
 -1       422 1.04357E-04-3.11248E-05-3.13854E-05 5.26906E-06-9.53798E-19 7.29591E-19
 -1       423 1.02145E-04-3.03450E-05-3.07681E-05 4.76443E-06 4.88243E-19 2.78755E-19
 -1       424 1.00211E-04-2.97149E-05-3.02078E-05 4.09140E-06 1.44098E-18 6.14963E-20
 -1       425 9.85782E-05-2.91978E-05-2.97287E-05 3.33965E-06 2.19624E-18-2.93054E-19
 -1       426 9.72498E-05-2.87673E-05-2.93441E-05 2.53570E-06 4.02502E-19-1.02692E-18
 -1       427 9.62165E-05-2.84108E-05-2.90548E-05 1.67699E-06-4.58609E-19 7.94414E-20
 -1       428 9.56971E-05-2.82023E-05-2.89228E-05 1.16267E-06-8.70620E-19 1.57351E-18
 -1       429 9.44677E-05-2.57582E-05-2.94460E-05 2.88597E-06-2.59882E-18-6.96154E-19
 -1       430 9.50942E-05-2.68202E-05-2.92564E-05 2.58410E-06-1.45221E-18 2.55106E-18
 -1       431 9.54734E-05-2.75754E-05-2.90939E-05 1.94475E-06-1.81294E-18 2.72187E-18
 -1       432 9.38797E-05-2.47448E-05-2.96307E-05 2.75777E-06-2.04615E-18-4.90666E-18
 -1       433 9.33777E-05-2.38598E-05-2.97967E-05 2.23855E-06-5.11910E-20-1.86677E-18
 -1       434 9.30251E-05-2.32259E-05-2.99186E-05 1.41640E-06 1.71786E-19 2.65264E-19
 -1       435 9.28581E-05-2.29176E-05-2.99798E-05 4.12898E-07-1.77537E-18 2.76778E-18
 -1       436 9.28913E-05-2.29692E-05-2.99718E-05-6.33609E-07-3.06033E-18 2.21194E-18
 -1       437 9.31163E-05-2.33692E-05-2.98960E-05-1.58473E-06-1.11135E-18 7.42856E-19
 -1       438 9.34947E-05-2.40488E-05-2.97654E-05-2.30791E-06 1.57136E-18-5.40525E-19
 -1       439 9.39966E-05-2.49476E-05-2.95935E-05-2.73406E-06 2.30896E-18 3.50056E-18
 -1       440 9.45647E-05-2.59527E-05-2.94041E-05-2.78732E-06 1.62541E-18-1.23463E-18
 -1       441 9.51457E-05-2.69622E-05-2.92177E-05-2.45624E-06 5.67335E-19-2.96644E-18
 -1       442 6.29930E-05-4.29664E-05-8.65795E-06 4.29590E-05 6.61956E-19 2.84259E-18
 -1       443 1.21962E-05-2.13760E-05 3.79439E-06-1.31195E-06-2.27516E-18 5.58661E-18
 -1       444 2.75480E-05-2.57933E-05-5.87329E-07 2.81167E-05-2.15231E-18 4.20171E-18
 -1       445 1.05767E-04-5.48984E-05-2.18157E-05 3.87340E-05 1.98206E-19 1.19003E-18
 -1       446 1.33697E-04-5.29275E-05-3.46147E-05 2.61466E-05 2.29091E-18 4.36540E-19
 -1       447 8.93671E-05-1.18979E-05-3.32673E-05-1.06581E-05-3.26934E-18-5.29667E-18
 -1       448 1.61180E-04-2.53666E-05-5.78844E-05 2.36998E-07 5.00236E-18-1.87247E-18
 -1       449 1.61394E-04-1.51111E-05-6.23998E-05-9.61709E-07 5.78291E-18-1.55698E-18
 -1       450 1.57645E-04-1.65341E-05-6.03806E-05 2.81459E-06 6.38568E-18-2.72136E-18
 -1       451 1.59980E-04-3.10311E-05-5.50362E-05-2.60228E-06 7.32932E-18-9.86582E-19
 -1       452 1.50027E-04-4.56060E-05-4.46031E-05-1.27156E-05 5.63072E-18-5.76406E-19
 -1       453 1.25187E-04-5.51342E-05-3.00902E-05-3.03028E-05 1.32465E-18-7.05113E-18
 -1       454 9.04831E-05-5.11958E-05-1.69488E-05-4.17810E-05 1.47172E-20-9.31138E-18
 -1       455 5.50051E-05-3.85880E-05-6.90694E-06-4.17940E-05-3.33307E-19-6.93540E-18
 -1       456 2.10799E-05-2.70495E-05 2.27037E-06-2.33075E-05-7.99123E-19-7.82743E-18
 -1       457 1.36313E-05-1.90848E-05 2.50740E-06 1.08946E-06-2.05600E-18-8.96966E-18
 -1       458 3.05398E-05-3.03500E-05-3.13911E-07 3.19304E-05-2.52310E-18-1.05162E-17
 -1       459 5.92575E-05-4.18705E-05-7.75336E-06 4.25275E-05-3.33667E-18-8.35516E-18
 -1       460 1.01840E-04-5.24680E-05-2.12266E-05 4.01472E-05-3.91795E-18-2.51071E-18
 -1       461 1.35247E-04-5.31870E-05-3.51799E-05 2.36651E-05-5.24107E-18 7.63071E-19
 -1       462 1.50741E-04-4.02867E-05-4.74443E-05 4.38687E-06-7.64450E-18 1.95474E-18
 -1       463 1.56497E-04-2.20902E-05-5.75441E-05-1.77401E-06-7.49614E-18-1.54329E-18
 -1       464 1.57291E-04-1.32217E-05-6.16044E-05-9.61937E-07-8.13734E-18-1.34615E-18
 -1       465 1.53948E-04-1.59308E-05-5.91865E-05 3.08735E-06-5.96756E-18-3.35213E-19
 -1       466 1.58915E-04-3.04295E-05-5.47520E-05-5.44638E-06-3.97343E-18 2.01986E-18
 -1       467 1.47490E-04-4.50185E-05-4.38113E-05-1.56696E-05-4.91509E-18 5.23996E-19
 -1       468 1.27610E-04-5.45848E-05-3.13081E-05-2.89663E-05-3.60524E-18-9.10878E-19
 -1       469 9.51487E-05-5.19428E-05-1.85288E-05-4.20140E-05 5.68571E-20 3.99352E-18
 -1       470 5.31649E-05-3.83523E-05-6.36849E-06-4.20947E-05-5.80959E-19 7.03032E-18
 -1       471 2.10706E-05-2.66767E-05 2.14828E-06-2.36437E-05-2.01684E-18 7.32429E-18
 -1       472 1.53499E-04-4.19930E-05-4.76001E-05 1.16267E-05 3.11841E-18-1.08081E-18
 -1       473 2.55724E-05-1.74928E-05-2.97797E-06 1.96574E-05 4.32940E-19-1.00737E-17
 -1       474 9.57931E-05-2.51394E-05-3.02660E-05 6.02944E-06 3.88863E-18 7.10828E-19
 -1       475 8.95736E-05-1.34049E-05-3.26629E-05-3.92758E-06-9.88322E-19-5.72560E-18
 -1       476 9.02716E-05-1.43668E-05-3.25519E-05-5.88999E-06-1.83515E-18-5.60191E-18
 -1       477 8.90827E-05-1.27252E-05-3.27424E-05 5.44546E-08 7.66438E-19-5.59498E-18
 -1       478 8.92163E-05-1.29087E-05-3.27214E-05 2.04703E-06 1.56327E-18-5.31472E-18
 -1       479 8.96061E-05-1.34459E-05-3.26593E-05 4.00142E-06 2.33353E-18-5.02433E-18
 -1       480 9.03215E-05-1.44321E-05-3.25451E-05 5.95766E-06 3.19128E-18-4.31995E-18
 -1       481 9.14567E-05-1.60089E-05-3.23578E-05 7.78782E-06 3.94037E-18-3.19306E-18
 -1       482 9.32297E-05-1.84772E-05-3.20570E-05 9.30598E-06 4.46577E-18-1.96683E-18
 -1       483 9.50869E-05-2.65675E-05-2.93475E-05 2.88264E-06 3.13014E-18 2.92727E-19
 -1       484 9.54597E-05-2.44235E-05-3.04347E-05-5.83933E-06-3.32808E-18-2.30970E-18
 -1       485 1.43521E-04-5.36370E-05-3.87522E-05 4.32041E-06 2.35606E-19-3.54970E-18
 -1       486 9.52591E-05-2.62200E-05-2.95815E-05-2.90101E-06-2.71880E-18-2.08659E-18
 -1       487 9.49047E-05-2.71482E-05-2.90348E-05-1.02840E-06-1.94285E-18-1.77688E-18
 -1       488 9.46338E-05-2.76737E-05-2.86956E-05 1.09444E-07-1.42351E-18-1.83432E-18
 -1       489 9.44865E-05-2.79922E-05-2.84970E-05 7.68844E-07-1.16614E-18-1.98236E-18
 -1       490 9.44459E-05-2.81934E-05-2.83937E-05 1.12377E-06-1.18427E-18-2.06570E-18
 -1       491 9.44836E-05-2.83211E-05-2.83554E-05 1.29366E-06-8.76222E-19-2.35499E-18
 -1       492 9.45754E-05-2.83986E-05-2.83616E-05 1.36187E-06-8.88230E-19-2.59286E-18
 -1       493 9.47042E-05-2.84398E-05-2.83991E-05 1.38795E-06-9.31536E-19-2.08521E-18
 -1       494 9.48602E-05-2.84540E-05-2.84599E-05 1.41564E-06-4.43443E-19-2.01075E-18
 -1       495 9.50402E-05-2.84478E-05-2.85395E-05 1.47808E-06-1.46985E-19-1.67734E-18
 -1       496 9.52456E-05-2.84270E-05-2.86363E-05 1.60118E-06 1.35774E-20-1.74152E-18
 -1       497 9.54824E-05-2.83975E-05-2.87502E-05 1.80559E-06-3.82337E-19-1.38658E-18
 -1       498 9.57600E-05-2.83659E-05-2.88825E-05 2.10748E-06-6.63039E-19-9.31514E-19
 -1       499 9.60910E-05-2.83420E-05-2.90344E-05 2.51807E-06-4.98801E-19-8.13819E-19
 -1       500 9.64917E-05-2.83399E-05-2.92068E-05 3.04164E-06-8.44519E-19-1.39238E-18
 -1       501 9.69830E-05-2.83821E-05-2.93991E-05 3.67175E-06-3.26137E-19-1.32270E-18
 -1       502 9.75925E-05-2.85034E-05-2.96083E-05 4.38502E-06 3.29940E-19-6.74014E-19
 -1       503 9.83586E-05-2.87566E-05-2.98283E-05 5.13210E-06 6.61811E-19-1.37992E-18
 -1       504 9.93352E-05-2.92186E-05-3.00494E-05 5.82531E-06 1.47942E-18-1.34713E-18
 -1       505 1.00597E-04-2.99926E-05-3.02597E-05 6.32338E-06 8.19224E-19-9.26646E-19
 -1       506 1.02241E-04-3.11979E-05-3.04493E-05 6.41555E-06 3.15780E-20-9.30266E-19
 -1       507 1.04362E-04-3.29297E-05-3.06189E-05 5.81257E-06-3.80643E-19-1.11113E-18
 -1       508 1.06996E-04-3.51600E-05-3.07947E-05 4.16448E-06 1.24941E-20-1.09428E-18
 -1       509 1.09974E-04-3.75582E-05-3.10445E-05 1.15038E-06 9.14829E-19 5.44946E-19
 -1       510 1.12728E-04-3.92729E-05-3.14899E-05-3.26960E-06 1.35539E-19 2.72087E-19
 -1       511 1.14201E-04-3.89274E-05-3.22746E-05-8.39695E-06-9.14303E-21-5.21005E-19
 -1       512 1.13239E-04-3.52570E-05-3.34442E-05-1.22740E-05-1.02717E-18-1.13383E-19
 -1       513 1.09878E-04-2.87673E-05-3.47859E-05-1.19645E-05-1.14019E-18-1.31868E-19
 -1       514 1.06290E-04-2.28181E-05-3.58212E-05-6.03906E-06-9.85063E-19-1.43793E-18
 -1       515 1.05720E-04-2.19174E-05-3.59589E-05 3.31199E-06-1.09712E-18-1.75990E-18
 -1       516 1.08678E-04-2.67800E-05-3.51266E-05 1.06311E-05-8.02416E-19-1.85364E-18
 -1       517 1.12395E-04-3.35826E-05-3.38026E-05 1.25667E-05-3.60309E-19-2.10046E-18
 -1       518 1.14125E-04-3.82532E-05-3.25271E-05 9.52859E-06-1.25264E-18-1.92981E-19
 -1       519 1.13226E-04-3.94804E-05-3.16194E-05 4.46533E-06-4.81060E-19-1.02547E-18
 -1       520 1.10672E-04-3.81958E-05-3.10733E-05-3.35792E-07 1.36973E-19-2.81040E-18
 -1       521 1.07633E-04-3.58742E-05-3.07630E-05-3.83530E-06 1.51272E-18-3.52755E-18
 -1       522 1.04819E-04-3.35290E-05-3.05585E-05-5.91544E-06 2.28752E-19-7.56612E-19
 -1       523 1.02490E-04-3.16167E-05-3.03773E-05-6.84340E-06 2.27344E-19 1.63986E-18
 -1       524 1.00654E-04-3.02253E-05-3.01846E-05-6.96474E-06 2.33639E-19 9.01670E-19
 -1       525 9.92202E-05-2.92732E-05-2.99769E-05-6.57490E-06 1.07209E-18 2.76026E-19
 -1       526 9.80877E-05-2.86299E-05-2.97663E-05-5.88504E-06 1.37222E-18 2.04491E-19
 -1       527 9.71703E-05-2.81728E-05-2.95685E-05-5.02661E-06 1.46597E-18-1.27863E-18
 -1       528 9.64069E-05-2.78062E-05-2.93978E-05-4.06548E-06 3.20567E-19-1.60314E-18
 -1       529 9.41245E-05-2.76700E-05-2.84769E-05-1.29314E-07 1.58747E-18-3.80956E-19
 -1       530 9.39579E-05-2.79125E-05-2.83038E-05-7.58095E-07 9.74013E-19-8.37238E-19
 -1       531 9.39440E-05-2.80785E-05-2.82276E-05-1.08585E-06 9.63057E-19-9.68080E-19
 -1       532 9.40330E-05-2.81982E-05-2.82149E-05-1.23368E-06 1.04219E-18-1.06656E-18
 -1       533 9.41878E-05-2.82857E-05-2.82439E-05-1.28300E-06 8.25944E-19-7.95024E-19
 -1       534 9.43847E-05-2.83491E-05-2.83012E-05-1.29090E-06 1.15879E-18-2.97713E-19
 -1       535 9.46109E-05-2.83938E-05-2.83788E-05-1.29896E-06 1.46300E-18-4.80613E-19
 -1       536 9.48625E-05-2.84245E-05-2.84734E-05-1.33889E-06 1.60404E-18-1.31752E-18
 -1       537 9.51429E-05-2.84454E-05-2.85843E-05-1.43610E-06 6.43727E-19-1.61911E-18
 -1       538 9.54605E-05-2.84611E-05-2.87133E-05-1.61199E-06 3.65737E-19-1.92012E-18
 -1       539 9.58283E-05-2.84769E-05-2.88638E-05-1.88524E-06 2.48475E-19-1.23190E-18
 -1       540 9.62630E-05-2.84994E-05-2.90400E-05-2.27198E-06 2.79583E-19-1.47176E-18
 -1       541 9.67841E-05-2.85383E-05-2.92463E-05-2.78464E-06 9.44047E-20-9.48394E-19
 -1       542 9.74144E-05-2.86083E-05-2.94860E-05-3.42902E-06-8.34389E-20 2.52532E-20
 -1       543 9.81801E-05-2.87324E-05-2.97607E-05-4.19867E-06-3.05822E-19-2.90114E-19
 -1       544 9.91132E-05-2.89480E-05-3.00682E-05-5.06561E-06 4.48386E-19-5.25716E-19
 -1       545 1.00255E-04-2.93150E-05-3.04007E-05-5.96587E-06 4.64435E-19-1.14314E-18
 -1       546 1.01662E-04-2.99242E-05-3.07439E-05-6.77893E-06 3.86546E-19-3.42140E-19
 -1       547 1.03414E-04-3.09032E-05-3.10777E-05-7.30148E-06-5.51875E-20-6.55492E-19
 -1       548 1.05611E-04-3.24020E-05-3.13810E-05-7.22069E-06-4.77781E-19-1.34048E-18
 -1       549 1.08340E-04-3.45237E-05-3.16461E-05-6.10554E-06-1.19672E-18-2.49652E-18
 -1       550 1.11555E-04-3.71529E-05-3.19020E-05-3.47337E-06-1.14139E-18-1.11289E-18
 -1       551 1.14915E-04-3.97132E-05-3.22465E-05 1.00408E-06-1.69272E-18 5.65583E-20
 -1       552 1.17368E-04-4.07331E-05-3.28513E-05 6.98912E-06-1.61417E-18 1.59919E-18
 -1       553 1.17440E-04-3.84104E-05-3.39025E-05 1.26016E-05 3.23874E-20 1.13845E-18
 -1       554 1.14296E-04-3.20427E-05-3.53013E-05 1.43346E-05 1.56689E-18 9.98993E-19
 -1       555 1.09912E-04-2.47481E-05-3.65810E-05 9.07135E-06 2.89078E-18 1.23654E-19
 -1       556 1.08179E-04-2.23287E-05-3.68718E-05-1.76044E-06 2.62185E-18-1.30536E-18
 -1       557 1.11000E-04-2.67415E-05-3.61491E-05-1.12915E-05 2.52482E-19-2.48814E-18
 -1       558 1.15444E-04-3.42522E-05-3.48265E-05-1.42299E-05 1.37351E-18-2.78482E-18
 -1       559 1.17672E-04-3.96025E-05-3.34778E-05-1.09505E-05 2.00735E-18-1.76278E-18
 -1       560 1.16633E-04-4.06905E-05-3.25720E-05-4.85821E-06-1.29153E-19 1.47799E-18
 -1       561 1.13723E-04-3.90004E-05-3.20440E-05 8.19889E-07-1.70667E-18 5.37104E-19
 -1       562 1.10290E-04-3.63170E-05-3.17175E-05 4.79577E-06-2.35850E-18-6.87658E-20
 -1       563 1.07125E-04-3.37817E-05-3.14428E-05 6.98837E-06-1.95059E-18-8.94365E-19
 -1       564 1.04480E-04-3.18207E-05-3.11446E-05 7.80171E-06-3.31078E-19 2.95296E-18
 -1       565 1.02340E-04-3.04529E-05-3.08096E-05 7.71166E-06-8.40084E-19 2.96336E-18
 -1       566 1.00607E-04-2.95425E-05-3.04548E-05 7.10088E-06 1.26734E-18 7.65362E-19
 -1       567 9.91882E-05-2.89340E-05-3.01060E-05 6.22621E-06 2.08550E-18 9.73408E-19
 -1       568 9.80115E-05-2.85001E-05-2.97867E-05 5.23525E-06 6.96955E-19 1.05417E-18
 -1       569 9.70265E-05-2.81475E-05-2.95142E-05 4.20038E-06 1.18525E-18 1.91994E-18
 -1       570 9.61862E-05-2.78282E-05-2.92909E-05 3.12891E-06-1.71179E-19 3.35085E-18
 -1       571 9.32705E-05-2.44210E-05-2.95081E-05 3.40984E-06 1.21305E-18-2.35895E-18
 -1       572 9.26258E-05-2.36628E-05-2.95573E-05 2.47589E-06 1.28180E-18 1.58293E-18
 -1       573 9.50292E-05-2.64670E-05-2.93833E-05 3.86005E-06-2.26555E-18 5.33843E-19
 -1       574 9.41015E-05-2.53884E-05-2.94489E-05 3.89279E-06-2.33746E-18-1.48049E-18
 -1       575 9.22390E-05-2.32042E-05-2.95886E-05 1.22452E-06 6.02079E-19 8.12704E-19
 -1       576 9.21480E-05-2.30950E-05-2.95965E-05-1.72677E-07-5.19253E-19 3.76033E-19
 -1       577 9.23549E-05-2.33417E-05-2.95793E-05-1.52983E-06-1.09881E-18 3.48434E-18
 -1       578 9.28151E-05-2.38932E-05-2.95396E-05-2.65604E-06 1.65590E-18 2.61208E-18
 -1       579 9.34871E-05-2.46993E-05-2.94815E-05-3.45210E-06 1.56995E-18 9.83946E-19
 -1       580 9.42845E-05-2.56611E-05-2.94104E-05-3.80690E-06 3.53931E-19-2.70409E-19
 -1       581 9.51425E-05-2.66851E-05-2.93378E-05-3.66648E-06-6.78353E-19-3.07481E-18
 -1       582 2.70987E-05-1.38820E-05-5.05895E-06 1.14946E-05-2.05576E-18 5.50783E-18
 -1       583 9.57883E-05-5.21407E-05-1.84559E-05 3.95025E-05-1.61450E-18 2.19262E-19
 -1       584 9.44967E-05-2.72806E-05-2.87982E-05 9.86468E-07 2.36656E-18-8.73184E-20
 -1       585 1.44103E-04-3.52175E-05-4.71047E-05-1.01723E-05 1.91821E-18-4.60050E-18
 -1       586 4.54357E-05-2.55956E-05-7.95935E-06-3.41298E-05 2.26052E-20 5.08236E-18
 -1       587 5.92133E-05-3.34109E-05-1.05726E-05 3.89684E-05-2.36693E-18 2.88722E-18
 -1       588 2.63939E-05-1.48507E-05-4.31145E-06-1.35590E-05-1.77788E-18 6.05300E-18
 -1       589 1.39849E-04-2.96602E-05-4.76646E-05-1.10666E-05-5.43980E-18 2.29678E-18
 -1       590 8.91961E-05-1.28833E-05-3.27236E-05-1.93859E-06-3.00707E-20-5.64350E-18
 -1       591 1.33578E-04-8.97534E-06-5.40007E-05 1.85585E-06 4.53343E-18-8.31343E-19
 -1       592 1.25453E-04-6.01505E-05-2.79901E-05 2.50939E-05 5.70159E-20 3.56543E-18
 -1       593 1.40646E-04-1.59266E-05-5.39532E-05-8.76706E-06 4.75853E-18-3.28466E-18
 -1       594 1.40885E-04-2.27382E-05-5.11651E-05 1.15330E-05 5.33853E-18 1.78772E-18
 -1       595 1.45692E-04-3.95566E-05-4.58454E-05 7.81616E-06 5.36508E-18 2.34718E-18
 -1       596 1.40031E-04-5.75975E-05-3.55390E-05-7.15780E-06 1.49851E-18 1.68406E-18
 -1       597 1.17902E-04-5.96727E-05-2.48940E-05-3.00494E-05-2.76117E-18-5.42844E-18
 -1       598 8.81566E-05-4.82813E-05-1.67766E-05-4.02635E-05-2.52395E-18-6.96261E-18
 -1       599 4.40967E-05-2.44378E-05-7.88550E-06-3.18875E-05-1.46632E-18-6.45047E-18
 -1       600 2.92789E-05-1.39275E-05-5.87176E-06-1.31502E-05-8.65310E-19-8.53211E-18
 -1       601 5.84182E-05-3.35876E-05-1.01255E-05 4.05593E-05 2.56323E-18-6.57499E-18
 -1       602 1.38623E-04-2.34670E-05-4.98489E-05 1.05598E-05-4.15533E-18-2.81083E-18
 -1       603 9.24232E-05-5.08472E-05-1.75588E-05 4.11207E-05 1.98867E-18 3.45735E-19
 -1       604 1.40954E-04-5.25949E-05-3.81259E-05 2.18316E-06-3.07684E-18 4.81496E-18
 -1       605 1.36278E-04-1.34641E-05-5.31812E-05-8.05606E-06-6.57192E-18-3.60413E-19
 -1       606 1.30628E-04-7.79342E-06-5.32943E-05 2.01026E-06-6.44349E-18-2.21201E-18
 -1       607 1.43401E-04-4.12345E-05-4.42092E-05 5.49696E-06-2.10040E-18 2.85768E-19
 -1       608 1.40445E-04-5.51375E-05-3.67251E-05-7.99292E-06-2.07621E-18-1.35943E-18
 -1       609 1.20307E-04-5.98184E-05-2.58869E-05-2.83408E-05 1.32521E-18-5.56421E-19
 -1       610 8.84236E-05-4.83994E-05-1.67836E-05-4.16697E-05 2.28032E-18 2.66310E-18
 -1       611 9.45787E-05-2.07497E-05-3.16597E-05-9.44646E-06-3.92333E-18-2.94696E-18
 -1       612 9.61303E-05-2.31812E-05-3.12674E-05 9.59527E-06 4.66352E-18 1.38764E-18
 -1       613 1.29700E-04-6.11941E-05-2.93375E-05 2.16671E-05-1.16946E-18-2.03063E-18
 -1       614 9.13670E-05-1.58971E-05-3.23682E-05-7.70889E-06-2.64872E-18-5.08522E-18
 -1       615 4.79287E-05-2.03994E-05-1.12674E-05 2.65320E-05-2.28809E-18 3.68745E-18
 -1       616 9.59603E-05-2.75946E-05-2.92965E-05-3.35529E-06 7.25458E-20-6.32729E-19
 -1       617 1.24467E-04-1.41726E-05-4.77638E-05 1.02114E-05-3.85453E-18-5.03977E-18
 -1       618 3.21412E-05-1.13707E-05-8.29314E-06 3.42759E-06 8.60870E-19-8.44592E-18
 -1       619 7.09542E-05-3.47523E-05-1.50890E-05-3.64219E-05-2.31994E-18-5.49997E-18
 -1       620 9.27618E-05-1.79249E-05-3.20945E-05-8.89794E-06-3.29006E-18-4.31103E-18
 -1       621 9.15889E-05-1.68465E-05-3.20381E-05 2.44049E-06 1.73959E-18-4.55488E-18
 -1       622 9.13330E-05-1.64438E-05-3.21008E-05 8.40383E-07 1.13601E-18-4.79990E-18
 -1       623 9.29111E-05-1.89969E-05-3.16832E-05 5.26840E-06 3.14064E-18-3.14198E-18
 -1       624 9.39947E-05-2.09301E-05-3.13213E-05 6.14744E-06 3.60971E-18-2.24082E-18
 -1       625 9.52640E-05-2.40881E-05-3.04938E-05 5.15688E-06 3.70018E-18-1.17325E-18
 -1       626 1.29761E-04-2.53543E-05-4.52434E-05-1.43884E-05 1.84066E-18-1.14797E-18
 -1       627 7.42698E-05-3.47376E-05-1.66202E-05-3.54058E-05 2.16733E-18 2.54486E-18
 -1       628 9.54207E-05-2.56969E-05-2.98801E-05-2.43177E-06-2.09933E-18-2.70886E-18
 -1       629 9.54792E-05-2.69241E-05-2.93801E-05-8.50153E-07-1.58384E-18-2.48326E-18
 -1       630 9.54262E-05-2.76699E-05-2.90382E-05 1.75300E-07-1.32994E-18-2.16603E-18
 -1       631 9.53541E-05-2.81224E-05-2.88136E-05 7.99255E-07-1.35026E-18-2.37876E-18
 -1       632 9.52950E-05-2.83866E-05-2.86750E-05 1.15382E-06-1.08330E-18-2.47658E-18
 -1       633 9.52571E-05-2.85247E-05-2.85996E-05 1.34121E-06-8.50267E-19-2.20946E-18
 -1       634 9.52393E-05-2.85745E-05-2.85707E-05 1.43834E-06-7.52885E-19-2.07234E-18
 -1       635 9.52383E-05-2.85600E-05-2.85765E-05 1.50303E-06-4.95469E-19-1.52355E-18
 -1       636 9.52508E-05-2.84966E-05-2.86090E-05 1.57930E-06-1.76006E-19-1.21954E-18
 -1       637 9.52748E-05-2.83950E-05-2.86628E-05 1.70126E-06-1.39261E-19-1.23788E-18
 -1       638 9.53096E-05-2.82627E-05-2.87343E-05 1.89593E-06 1.41237E-19-9.85220E-19
 -1       639 9.53563E-05-2.81070E-05-2.88209E-05 2.18483E-06-4.27769E-20-1.06189E-18
 -1       640 9.54183E-05-2.79366E-05-2.89205E-05 2.58455E-06-6.92512E-19-8.64308E-19
 -1       641 9.55028E-05-2.77649E-05-2.90302E-05 3.10617E-06-1.20701E-18-5.63361E-19
 -1       642 9.56227E-05-2.76142E-05-2.91461E-05 3.75338E-06-5.16655E-19-5.57543E-19
 -1       643 9.58015E-05-2.75215E-05-2.92624E-05 4.51905E-06 1.50132E-19-5.72078E-19
 -1       644 9.60794E-05-2.75463E-05-2.93709E-05 5.38008E-06 2.65143E-20-3.93572E-19
 -1       645 9.65247E-05-2.77803E-05-2.94615E-05 6.28980E-06 1.12038E-18-5.51704E-19
 -1       646 9.72468E-05-2.83568E-05-2.95241E-05 7.16699E-06 1.51600E-18-1.46924E-18
 -1       647 9.84124E-05-2.94546E-05-2.95536E-05 7.87922E-06 8.88278E-19-5.47358E-19
 -1       648 1.00252E-04-3.12809E-05-2.95601E-05 8.21702E-06-9.44181E-20 1.83550E-19
 -1       649 1.03032E-04-3.40035E-05-2.95862E-05 7.85644E-06 1.82749E-19 7.89755E-19
 -1       650 1.06947E-04-3.75795E-05-2.97334E-05 6.32360E-06 9.74810E-19 1.17131E-18
 -1       651 1.11851E-04-4.14175E-05-3.01875E-05 3.02619E-06 3.97454E-19 1.31025E-18
 -1       652 1.16798E-04-4.39144E-05-3.12417E-05-2.37127E-06-3.75780E-19 1.13766E-18
 -1       653 1.19829E-04-4.23840E-05-3.32278E-05-9.25166E-06 1.89395E-19 1.53949E-18
 -1       654 1.18836E-04-3.48214E-05-3.60796E-05-1.44319E-05-1.25688E-18 1.64044E-18
 -1       655 1.13098E-04-2.28161E-05-3.89603E-05-1.24257E-05-2.31387E-18 3.23725E-19
 -1       656 1.09876E-04-1.61681E-05-4.04259E-05-1.85915E-06-1.41219E-18-1.58538E-18
 -1       657 1.12065E-04-2.00971E-05-3.96624E-05 9.92551E-06-2.50955E-18-2.57133E-18
 -1       658 1.17494E-04-3.15368E-05-3.69197E-05 1.45407E-05-1.21925E-18-3.11443E-18
 -1       659 1.19857E-04-4.11058E-05-3.37800E-05 1.06470E-05-4.46889E-19-3.34465E-18
 -1       660 1.18016E-04-4.41604E-05-3.16752E-05 4.05707E-06-1.52806E-18-2.68844E-18
 -1       661 1.13322E-04-4.24604E-05-3.03772E-05-2.01657E-06-4.29297E-19-1.45033E-18
 -1       662 1.08257E-04-3.88103E-05-2.97681E-05-5.97006E-06-3.98351E-19-1.90632E-18
 -1       663 1.04007E-04-3.50658E-05-2.95489E-05-8.01595E-06 2.37810E-18-2.25441E-18
 -1       664 1.00900E-04-3.20675E-05-2.95010E-05-8.72364E-06 9.18284E-19-3.50318E-18
 -1       665 9.88033E-05-2.99681E-05-2.95012E-05-8.60254E-06 4.85221E-19-2.95221E-18
 -1       666 9.74482E-05-2.86254E-05-2.94954E-05-8.00622E-06 1.04977E-18-1.91126E-18
 -1       667 9.65807E-05-2.78170E-05-2.94697E-05-7.15584E-06 9.23545E-19-1.83795E-18
 -1       668 9.60084E-05-2.73350E-05-2.94308E-05-6.17898E-06-5.12254E-19-1.17957E-18
 -1       669 9.55942E-05-2.70160E-05-2.93898E-05-5.14138E-06-3.30515E-19-2.09084E-18
 -1       670 9.49928E-05-2.80746E-05-2.86790E-05-7.97959E-07 1.32679E-18-1.30081E-18
 -1       671 1.26457E-04-2.11014E-05-4.55746E-05-1.34369E-05-3.93044E-18 2.74685E-18
 -1       672 9.50962E-05-2.76822E-05-2.88911E-05-1.57791E-07 1.45134E-18-1.17639E-18
 -1       673 9.49376E-05-2.84440E-05-2.84973E-05-1.33354E-06 8.12567E-19-8.31675E-19
 -1       674 9.49687E-05-2.85062E-05-2.84840E-05-1.41842E-06 8.74112E-19-1.02914E-18
 -1       675 9.50263E-05-2.85165E-05-2.85042E-05-1.46736E-06 1.20295E-18-8.13240E-19
 -1       676 9.51044E-05-2.84871E-05-2.85503E-05-1.52522E-06 1.49509E-18-8.78520E-19
 -1       677 9.52001E-05-2.84258E-05-2.86175E-05-1.62702E-06 1.22761E-18 8.72025E-21
 -1       678 9.53131E-05-2.83380E-05-2.87034E-05-1.80117E-06 7.66736E-19-1.38751E-19
 -1       679 9.54454E-05-2.82279E-05-2.88072E-05-2.07153E-06 2.80628E-19-8.71747E-19
 -1       680 9.56006E-05-2.80997E-05-2.89285E-05-2.45840E-06 2.26713E-19-1.77506E-18
 -1       681 9.57847E-05-2.79601E-05-2.90671E-05-2.97852E-06 9.74832E-22-1.37290E-18
 -1       682 9.60066E-05-2.78213E-05-2.92215E-05-3.64356E-06-5.35443E-19-9.04221E-19
 -1       683 9.62808E-05-2.77056E-05-2.93885E-05-4.45697E-06-3.74152E-19-4.83212E-19
 -1       684 9.66324E-05-2.76532E-05-2.95615E-05-5.40872E-06-4.62241E-20-7.13864E-19
 -1       685 9.71069E-05-2.77342E-05-2.97302E-05-6.46709E-06 6.43621E-19-3.44799E-19
 -1       686 9.77853E-05-2.80631E-05-2.98802E-05-7.56619E-06 6.74074E-19-7.22083E-19
 -1       687 9.88074E-05-2.88166E-05-2.99959E-05-8.58794E-06 2.58894E-19-1.03708E-18
 -1       688 1.00397E-04-3.02419E-05-3.00677E-05-9.33494E-06-3.53203E-19-3.36265E-19
 -1       689 1.02878E-04-3.26297E-05-3.01090E-05-9.48629E-06-5.53953E-19 2.67097E-19
 -1       690 1.06612E-04-3.61824E-05-3.01889E-05-8.53606E-06-1.81721E-18 9.02620E-19
 -1       691 1.11754E-04-4.06449E-05-3.04798E-05-5.75312E-06-1.43594E-18 6.51274E-19
 -1       692 1.17939E-04-4.48207E-05-3.13783E-05-2.53861E-07-2.59093E-18 2.06134E-18
 -1       693 1.23218E-04-4.61900E-05-3.30583E-05 7.33902E-06-9.66925E-20 2.68440E-18
 -1       694 1.23747E-04-3.97156E-05-3.61085E-05 1.46477E-05 1.47364E-18 2.63820E-18
 -1       695 1.19509E-04-2.71127E-05-3.98925E-05 1.54750E-05 2.89810E-18 1.57641E-19
 -1       696 1.14833E-04-1.70083E-05-4.22782E-05 5.54776E-06 3.57517E-18-1.30002E-18
 -1       697 1.20672E-04-3.09649E-05-3.86729E-05-1.65537E-05-3.53636E-20-3.11508E-18
 -1       698 1.24647E-04-4.27752E-05-3.52017E-05-1.31308E-05 8.70207E-19-1.46402E-18
 -1       699 1.21761E-04-4.60139E-05-3.24775E-05-4.74677E-06 1.49217E-19-8.48125E-19
 -1       700 1.15993E-04-4.37478E-05-3.09603E-05 2.51729E-06-1.21316E-18-1.10740E-18
 -1       701 1.10043E-04-3.93133E-05-3.03126E-05 7.13616E-06-1.52354E-18-2.15182E-19
 -1       702 1.05291E-04-3.50596E-05-3.01027E-05 9.34957E-06-2.34097E-18-6.50917E-19
 -1       703 1.01947E-04-3.18709E-05-3.00350E-05 9.98482E-06-2.78536E-18 6.92893E-19
 -1       704 9.97356E-05-2.97851E-05-2.99796E-05 9.68512E-06-9.34798E-20 9.28477E-19
 -1       705 9.82967E-05-2.85447E-05-2.98934E-05 8.87874E-06 1.47564E-18 8.00423E-19
 -1       706 9.73370E-05-2.78577E-05-2.97760E-05 7.82895E-06 6.32120E-19 9.97798E-19
 -1       707 9.66524E-05-2.74797E-05-2.96442E-05 6.68446E-06 2.35986E-18 1.52295E-18
 -1       708 9.61152E-05-2.72373E-05-2.95172E-05 5.51815E-06 1.37148E-18-3.11417E-19
 -1       709 9.55049E-05-2.68421E-05-2.94252E-05 4.70922E-06-1.76981E-19 4.43063E-19
 -1       710 1.16973E-04-5.72666E-05-2.55011E-05 2.50127E-05-2.90535E-18-2.25134E-18
 -1       711 9.11301E-05-2.29237E-05-2.92322E-05 6.23420E-07 1.55882E-18 1.29501E-18
 -1       712 9.53664E-05-2.68490E-05-2.93633E-05-4.41496E-06-1.60239E-19-3.41514E-18
 -1       713 9.22330E-05-2.39038E-05-2.92842E-05 3.69400E-06 1.47472E-18-2.67241E-18
 -1       714 9.12302E-05-2.30269E-05-2.92308E-05-1.11220E-06 1.20414E-18 1.63481E-18
 -1       715 9.14753E-05-2.32267E-05-2.92500E-05 2.30112E-06 1.51569E-18-1.48322E-20
 -1       716 9.17354E-05-2.35002E-05-2.92442E-05-2.65387E-06 1.15736E-18 3.83810E-18
 -1       717 9.25830E-05-2.42858E-05-2.92708E-05-3.86504E-06 1.51536E-18 1.32057E-18
 -1       718 9.36695E-05-2.52824E-05-2.93094E-05-4.57537E-06 6.99993E-19-7.38318E-19
 -1       719 1.33307E-04-4.13044E-05-3.97276E-05-1.19061E-05-2.61337E-18 3.95676E-18
 -1       720 1.30560E-04-5.72520E-05-3.14299E-05-8.02653E-06-6.10238E-19-3.30848E-18
 -1       721 1.33915E-04-5.08775E-05-3.58482E-05 3.78567E-06-1.74638E-19-2.96127E-18
 -1       722 1.35910E-04-4.75873E-05-3.81083E-05 1.01780E-05 2.74233E-18 3.06364E-18
 -1       723 4.87691E-05-2.03148E-05-1.16799E-05 2.74670E-05 3.03610E-18-7.36575E-18
 -1       724 1.24418E-04-1.57949E-05-4.70924E-05 1.03872E-05 4.35221E-18 3.01028E-19
 -1       725 8.49982E-05-4.09748E-05-1.85826E-05 3.48507E-05-3.66331E-18 4.67258E-19
 -1       726 9.52303E-05-2.70247E-05-2.92288E-05 9.14337E-07 2.29368E-18-1.20456E-18
 -1       727 9.49422E-05-2.83106E-05-2.85564E-05-1.15343E-06 9.24960E-19-1.38507E-18
 -1       728 9.50359E-05-2.36680E-05-3.05877E-05-4.73038E-06-2.55093E-18-3.06786E-18
 -1       729 9.53333E-05-2.59337E-05-2.97392E-05 2.60552E-06 2.90627E-18-1.25273E-18
 -1       730 1.35655E-04-5.71072E-05-3.37196E-05 3.14855E-06-7.18380E-19-3.56900E-18
 -1       731 9.21075E-05-1.76742E-05-3.19058E-05 3.95048E-06 2.46415E-18-3.91577E-18
 -1       732 9.20673E-05-1.76175E-05-3.19128E-05-3.89863E-06-1.30257E-18-5.02579E-18
 -1       733 1.31968E-04-3.08456E-05-4.37325E-05 1.59252E-05 5.33390E-18 1.83489E-18
 -1       734 1.08018E-04-5.36464E-05-2.31714E-05-2.96948E-05-3.64571E-18-3.70092E-18
 -1       735 1.37262E-04-4.53007E-05-3.96423E-05-1.12950E-05 1.44909E-18-3.68105E-18
 -1       736 4.86794E-05-1.78711E-05-1.26872E-05-2.22123E-05-1.51464E-18-6.31617E-18
 -1       737 1.19959E-04-1.10552E-05-4.72794E-05-4.74467E-06-4.46445E-18 2.47029E-19
 -1       738 1.28873E-04-5.92502E-05-2.99195E-05-1.31920E-05-2.87520E-18 8.52433E-19
 -1       739 8.33044E-05-4.16443E-05-1.75087E-05 3.77372E-05 3.99413E-18-5.00702E-19
 -1       740 1.12228E-04-5.57040E-05-2.40757E-05 2.90480E-05 2.41648E-18 2.95074E-18
 -1       741 1.30771E-04-5.72993E-05-3.15934E-05 7.69131E-06 1.42275E-19 4.21830E-18
 -1       742 1.31857E-04-3.88218E-05-4.02386E-05 1.30858E-05-1.64528E-18-5.18681E-18
 -1       743 9.41964E-05-2.12050E-05-3.12795E-05-6.74871E-06-2.98979E-18-3.70747E-18
 -1       744 1.08007E-04-5.31118E-05-2.33947E-05-2.96984E-05 2.16064E-18 1.26199E-18
 -1       745 1.21430E-04-1.33084E-05-4.68211E-05-6.87033E-06 3.63562E-18-9.47843E-19
 -1       746 9.28772E-05-1.89350E-05-3.16919E-05-5.22881E-06-1.90810E-18-4.77630E-18
 -1       747 9.13263E-05-1.64347E-05-3.21017E-05-7.83873E-07 2.52133E-19-4.90347E-18
 -1       748 5.32440E-05-2.00139E-05-1.38024E-05-2.53658E-05 7.44463E-20 3.02857E-18
 -1       749 9.33156E-05-2.48708E-05-2.93345E-05 4.61018E-06 1.60762E-18 1.10217E-18
 -1       750 9.44034E-05-2.58330E-05-2.93873E-05 4.88525E-06-1.00547E-19-2.17088E-18
 -1       751 7.08038E-05-2.87379E-05-1.77344E-05 2.94070E-05-3.42561E-18 5.21031E-19
 -1       752 9.12471E-05-4.24365E-05-2.06813E-05-3.16636E-05-2.61942E-18-4.77040E-18
 -1       753 4.18624E-05-1.24839E-05-1.20523E-05-9.60766E-06-1.36129E-18 4.48459E-18
 -1       754 9.15655E-05-1.68146E-05-3.20416E-05-2.38005E-06-6.13210E-19-4.87221E-18
 -1       755 4.48634E-05-1.27624E-05-1.33471E-05-9.66288E-06 6.28363E-19-5.92555E-18
 -1       756 4.64943E-05-1.23246E-05-1.42514E-05 6.28619E-06-3.64139E-19 4.43512E-18
 -1       757 9.45425E-05-2.61178E-05-2.93247E-05-5.01276E-06-2.14092E-18-2.39801E-18
 -1       758 7.16170E-05-2.69833E-05-1.89359E-05-2.66799E-05 1.42444E-18 2.49106E-18
 -1       759 9.46865E-05-2.27566E-05-3.08242E-05 3.90561E-06 2.95801E-18-2.25361E-18
 -1       760 1.17888E-04-5.37514E-05-2.74989E-05-1.65237E-05-3.05778E-18 2.28325E-19
 -1       761 1.17761E-04-5.23192E-05-2.79888E-05-1.42859E-05 1.87358E-18-3.34740E-18
 -1       762 9.49337E-05-2.34255E-05-3.06481E-05-3.51344E-06-2.06088E-18-3.58612E-18
 -1       763 1.00426E-04-4.66797E-05-2.28814E-05 2.87703E-05 2.72653E-18 1.33498E-18
 -1       764 9.58783E-05-2.68431E-05-2.95865E-05-5.48512E-07-1.21290E-18-2.90378E-18
 -1       765 9.59668E-05-2.77057E-05-2.92548E-05 2.84221E-07-1.38185E-18-2.66745E-18
 -1       766 9.59477E-05-2.82301E-05-2.90218E-05 8.07404E-07-1.10723E-18-2.29755E-18
 -1       767 9.58746E-05-2.85210E-05-2.88658E-05 1.11776E-06-6.92865E-19-2.13525E-18
 -1       768 9.57749E-05-2.86469E-05-2.87692E-05 1.29602E-06-3.62279E-19-1.78596E-18
 -1       769 9.56620E-05-2.86531E-05-2.87181E-05 1.40678E-06-1.04324E-19-1.08551E-18
 -1       770 9.55411E-05-2.85695E-05-2.87021E-05 1.50062E-06-1.16243E-20-9.66504E-19
 -1       771 9.54128E-05-2.84159E-05-2.87130E-05 1.61721E-06-1.60565E-19-4.57159E-19
 -1       772 9.52752E-05-2.82050E-05-2.87443E-05 1.78800E-06 1.56230E-19-7.15031E-19
 -1       773 9.51248E-05-2.79464E-05-2.87907E-05 2.03833E-06-3.28095E-19-9.35639E-19
 -1       774 9.49585E-05-2.76489E-05-2.88469E-05 2.38873E-06-6.47828E-19-1.19690E-18
 -1       775 9.47748E-05-2.73242E-05-2.89073E-05 2.85557E-06-5.43586E-19-7.38353E-19
 -1       776 9.45769E-05-2.69911E-05-2.89653E-05 3.45091E-06-5.90560E-19-2.98668E-19
 -1       777 9.43772E-05-2.66821E-05-2.90120E-05 4.18168E-06-9.05896E-20 2.70758E-19
 -1       778 9.42038E-05-2.64507E-05-2.90369E-05 5.04840E-06 7.48697E-19 7.96695E-19
 -1       779 9.41122E-05-2.63822E-05-2.90270E-05 6.04316E-06 2.50208E-19 4.89471E-19
 -1       780 9.42010E-05-2.66066E-05-2.89688E-05 7.14630E-06 5.93549E-19-2.76680E-19
 -1       781 9.46351E-05-2.73127E-05-2.88522E-05 8.31923E-06 1.78388E-18-1.06351E-18
 -1       782 9.56738E-05-2.87569E-05-2.86785E-05 9.48600E-06 1.23594E-18-7.10638E-19
 -1       783 9.76970E-05-3.12506E-05-2.84772E-05 1.04884E-05 2.44160E-19 7.38019E-19
 -1       784 1.01200E-04-3.50855E-05-2.83359E-05 1.09897E-05 3.47847E-19 3.05873E-19
 -1       785 1.06659E-04-4.02852E-05-2.84478E-05 1.03041E-05 1.30234E-18 7.45795E-19
 -1       786 1.14210E-04-4.61368E-05-2.91697E-05 7.20885E-06 8.26271E-19 2.34401E-18
 -1       787 1.21868E-04-4.92524E-05-3.11987E-05 8.00288E-07-3.05256E-19 3.60122E-18
 -1       788 1.24332E-04-5.00704E-05-3.18701E-05 1.64685E-06 3.12932E-19-3.42940E-18
 -1       789 1.08746E-04-4.21354E-05-2.85451E-05-1.01011E-05-6.13619E-19-6.68233E-19
 -1       790 1.02690E-04-3.66515E-05-2.83004E-05-1.13760E-05 8.50601E-19 7.23839E-19
 -1       791 9.86899E-05-3.24107E-05-2.84045E-05-1.11835E-05 1.55667E-18 9.84339E-19
 -1       792 9.63228E-05-2.95447E-05-2.86187E-05-1.03340E-05 4.49512E-19 1.09808E-18
 -1       793 9.50689E-05-2.77920E-05-2.88326E-05-9.23710E-06 1.19229E-18-6.12357E-19
 -1       794 9.45017E-05-2.68162E-05-2.90079E-05-8.07504E-06 7.36646E-19-1.93947E-18
 -1       795 9.43249E-05-2.63225E-05-2.91436E-05-6.92243E-06 1.54391E-18-2.20673E-18
 -1       796 9.44552E-05-2.61971E-05-2.92528E-05-5.94907E-06-9.33124E-19-1.17447E-18
 -1       797 1.25013E-04-5.48266E-05-3.00924E-05 8.03943E-06-1.06457E-18-1.62499E-18
 -1       798 9.54952E-05-2.86259E-05-2.86583E-05-1.43670E-06 7.12318E-19-1.22046E-18
 -1       799 9.55648E-05-2.86007E-05-2.86990E-05-1.33070E-06 7.63953E-19-1.42641E-18
 -1       800 9.53624E-05-2.84545E-05-2.86748E-05-1.62400E-06 9.64447E-19-8.02290E-19
 -1       801 9.52944E-05-2.82846E-05-2.87184E-05-1.78133E-06 9.68898E-19-8.14063E-19
 -1       802 9.52203E-05-2.80682E-05-2.87794E-05-2.02003E-06 1.15644E-18-5.99903E-19
 -1       803 9.51353E-05-2.78093E-05-2.88539E-05-2.36313E-06 4.55877E-19-7.42414E-19
 -1       804 9.50346E-05-2.75122E-05-2.89380E-05-2.83001E-06-1.01280E-19-4.70168E-19
 -1       805 9.49151E-05-2.71857E-05-2.90267E-05-3.43662E-06-8.44553E-19-8.93024E-19
 -1       806 9.47777E-05-2.68470E-05-2.91129E-05-4.19418E-06-6.41327E-19-1.23833E-18
 -1       807 9.46324E-05-2.65301E-05-2.91864E-05-5.10802E-06-7.37463E-20-1.10322E-18
 -1       808 9.45083E-05-2.62963E-05-2.92333E-05-6.17552E-06-1.38077E-19-8.89064E-19
 -1       809 9.44695E-05-2.62514E-05-2.92359E-05-7.38319E-06 2.83948E-19-7.35741E-20
 -1       810 9.46412E-05-2.65664E-05-2.91745E-05-8.70201E-06 2.54488E-19 7.12145E-19
 -1       811 9.52468E-05-2.75023E-05-2.90332E-05-1.00774E-05-6.21243E-19 1.39608E-18
 -1       812 9.66589E-05-2.94282E-05-2.88133E-05-1.14036E-05-8.77118E-19 9.58410E-19
 -1       813 9.94538E-05-3.28077E-05-2.85621E-05-1.24407E-05-1.20099E-18 6.71695E-19
 -1       814 1.04368E-04-3.80129E-05-2.84345E-05-1.26398E-05-1.95302E-18-1.42983E-19
 -1       815 1.12125E-04-4.48184E-05-2.88313E-05-1.09862E-05-2.93284E-18 8.45711E-19
 -1       816 1.09488E-04-4.27326E-05-2.85783E-05 1.20298E-05-2.46021E-18 3.62133E-19
 -1       817 1.02784E-04-3.64251E-05-2.84338E-05 1.30341E-05-1.63881E-18 4.85777E-19
 -1       818 9.85977E-05-3.18104E-05-2.86230E-05 1.26081E-05-3.77987E-18-6.59631E-19
 -1       819 9.62928E-05-2.89154E-05-2.88759E-05 1.15342E-05-1.76131E-18-1.04939E-18
 -1       820 9.51649E-05-2.72956E-05-2.90864E-05 1.02412E-05 6.85000E-19-7.55320E-19
 -1       821 9.47035E-05-2.65027E-05-2.92284E-05 8.90368E-06 4.48584E-19-6.00971E-19
 -1       822 9.45796E-05-2.61849E-05-2.93114E-05 7.60710E-06 8.97586E-19-1.01156E-19
 -1       823 9.45878E-05-2.60897E-05-2.93560E-05 6.36249E-06 2.46925E-18 7.23051E-19
 -1       824 9.44785E-05-2.59610E-05-2.93654E-05 5.61282E-06 1.45314E-18-5.01678E-19
 -1       825 9.02658E-05-2.28754E-05-2.88818E-05-2.36321E-06 1.93114E-18 3.66243E-18
 -1       826 9.26135E-05-2.47410E-05-2.90889E-05-5.14745E-06-6.71418E-19-7.29933E-19
 -1       827 8.98093E-05-2.24918E-05-2.88511E-05-3.44606E-07 1.01033E-18-1.24019E-19
 -1       828 1.20188E-04-5.44438E-05-2.81325E-05 1.48057E-05 9.51311E-19 1.89979E-18
 -1       829 9.57061E-05-2.68861E-05-2.94948E-05 6.63659E-07 1.86562E-18-1.42181E-18
 -1       830 6.97353E-05-2.72693E-05-1.79377E-05-2.77970E-05-1.83874E-18-4.76063E-18
 -1       831 9.12485E-05-2.36679E-05-2.89635E-05-4.02548E-06 1.24019E-18 3.12053E-18
 -1       832 1.15982E-04-4.88043E-05-2.88067E-05 1.11301E-05-2.45819E-18-8.10412E-19
 -1       833 9.54282E-05-2.85716E-05-2.86529E-05-1.52037E-06 1.15375E-18-7.00427E-19
 -1       834 9.57395E-05-2.76975E-05-2.91608E-05-2.52238E-07 1.36072E-18-1.46301E-18
 -1       835 7.16726E-05-2.93270E-05-1.79797E-05 2.96538E-05 3.73400E-18-2.80508E-18
 -1       836 4.77760E-05-1.33438E-05-1.43898E-05 1.17531E-05 1.78278E-18-7.36503E-18
 -1       837 9.41338E-05-4.15101E-05-2.24256E-05-2.83109E-05 2.68104E-18 1.18658E-18
 -1       838 9.34785E-05-1.99293E-05-3.15211E-05-6.10240E-06-2.49363E-18-4.27937E-18
 -1       839 9.55872E-05-2.54903E-05-3.00418E-05-1.79015E-06-1.54596E-18-3.20606E-18
 -1       840 9.52103E-05-2.44635E-05-3.03200E-05 3.42464E-06 3.11248E-18-1.57153E-18
 -1       841 1.27394E-04-4.86234E-05-3.37820E-05-5.67644E-06-8.21519E-19 2.56965E-18
 -1       842 1.04488E-04-4.69858E-05-2.45633E-05 2.43305E-05-3.66096E-18-1.56531E-18
 -1       843 5.63561E-05-1.59640E-05-1.70784E-05-1.43724E-05 1.12911E-18 1.87792E-18
 -1       844 9.32356E-05-1.97591E-05-3.14912E-05 1.23087E-06 1.17752E-18-4.14546E-18
 -1       845 9.31268E-05-1.95594E-05-3.15300E-05 2.03652E-08 5.55719E-19-4.17461E-18
 -1       846 9.40463E-05-2.13392E-05-3.11612E-05 3.30475E-06 2.32380E-18-3.10215E-18
 -1       847 9.20378E-05-2.41454E-05-2.90960E-05 5.04189E-06 5.74924E-19-2.44659E-18
 -1       848 9.15602E-05-3.76017E-05-2.30069E-05 2.55273E-05-3.88065E-18-7.26265E-19
 -1       849 1.16124E-04-4.72441E-05-2.95090E-05-6.22911E-06 3.25103E-19-9.94914E-19
 -1       850 9.57004E-05-2.81898E-05-2.89331E-05-8.18437E-07 1.27101E-18-1.59340E-18
 -1       851 9.56356E-05-2.84691E-05-2.87857E-05-1.14800E-06 6.23654E-19-1.64120E-18
 -1       852 1.28036E-04-5.37316E-05-3.16118E-05-2.10791E-06-2.03666E-18 1.91255E-18
 -1       853 1.32372E-04-4.38874E-05-3.83682E-05-1.11820E-05-1.79432E-19-3.52474E-18
 -1       854 9.07381E-05-2.31631E-05-2.89606E-05 3.62173E-06 6.87475E-19-9.30275E-20
 -1       855 8.99692E-05-2.25899E-05-2.88774E-05 1.74105E-06 1.65158E-18 5.76540E-19
 -1       856 6.38800E-05-2.01841E-05-1.85776E-05 2.03250E-05 3.16275E-18-4.99583E-18
 -1       857 9.34926E-05-2.54528E-05-2.91584E-05-5.65296E-06-2.32409E-18-4.82441E-18
 -1       858 9.55553E-05-2.59133E-05-2.98480E-05 1.83255E-06 2.54507E-18-1.56239E-18
 -1       859 9.35218E-05-2.03092E-05-3.13786E-05-2.31859E-06-9.13462E-19-4.45534E-18
 -1       860 9.35485E-05-2.03477E-05-3.13731E-05 2.35969E-06 1.91221E-18-3.73329E-18
 -1       861 6.01946E-05-1.73833E-05-1.81357E-05 1.60286E-05-2.54366E-18 5.40189E-19
 -1       862 9.40107E-05-2.12812E-05-3.11726E-05-3.26974E-06-1.47423E-18-4.53429E-18
 -1       863 5.56703E-05-1.33404E-05-1.79534E-05-2.41690E-06 7.54157E-19 4.98641E-18
 -1       864 1.04914E-04-4.60690E-05-2.50887E-05-2.23563E-05-3.13443E-18-9.80722E-19
 -1       865 6.05223E-05-1.96525E-05-1.72638E-05-2.05112E-05-6.36274E-19-4.99228E-18
 -1       866 9.63518E-05-2.78074E-05-2.93762E-05 3.75202E-07-8.86833E-19-2.53560E-18
 -1       867 9.63461E-05-2.83399E-05-2.91455E-05 7.70935E-07-6.71495E-19-2.17182E-18
 -1       868 9.62431E-05-2.86142E-05-2.89838E-05 1.01422E-06-3.90120E-19-2.13211E-18
 -1       869 9.60788E-05-2.86991E-05-2.88770E-05 1.16565E-06 8.46693E-20-1.88374E-18
 -1       870 9.58732E-05-2.86421E-05-2.88133E-05 1.27551E-06 1.06753E-19-1.57571E-18
 -1       871 9.56354E-05-2.84757E-05-2.87828E-05 1.38432E-06-6.35907E-20-1.53756E-18
 -1       872 9.53671E-05-2.82209E-05-2.87770E-05 1.52462E-06-1.91027E-19-1.69272E-18
 -1       873 9.50644E-05-2.78918E-05-2.87883E-05 1.72296E-06-3.49197E-20-2.02227E-18
 -1       874 9.47207E-05-2.74989E-05-2.88093E-05 2.00134E-06-6.95017E-19-1.55229E-18
 -1       875 9.43279E-05-2.70524E-05-2.88324E-05 2.37846E-06-3.80865E-19-1.11280E-18
 -1       876 9.38798E-05-2.65666E-05-2.88485E-05 2.87094E-06-2.14226E-19-4.92429E-19
 -1       877 9.33753E-05-2.60659E-05-2.88469E-05 3.49404E-06 5.53656E-21 2.72216E-19
 -1       878 9.28240E-05-2.55907E-05-2.88142E-05 4.26287E-06 6.74665E-19 1.05360E-19
 -1       879 9.22541E-05-2.52069E-05-2.87345E-05 5.19467E-06 3.68079E-19-2.17484E-19
 -1       880 9.17254E-05-2.50171E-05-2.85892E-05 6.31207E-06 3.93746E-19-8.22824E-19
 -1       881 9.13482E-05-2.51762E-05-2.83592E-05 7.64701E-06 7.42475E-19-2.36386E-19
 -1       882 9.13141E-05-2.59105E-05-2.80296E-05 9.24223E-06 1.55321E-18-3.05601E-19
 -1       883 9.19443E-05-2.75427E-05-2.75994E-05 1.11370E-05 1.02890E-18-1.39471E-18
 -1       884 9.37534E-05-3.05036E-05-2.71042E-05 1.33044E-05 9.77865E-19-5.51391E-19
 -1       885 9.75154E-05-3.52969E-05-2.66638E-05 1.55034E-05 1.15449E-18 3.18039E-19
 -1       886 1.04326E-04-4.23328E-05-2.65340E-05 1.68094E-05 2.04999E-18 1.27968E-18
 -1       887 8.63115E-05-3.21137E-05-2.31603E-05-2.28466E-05 1.27276E-18-4.51141E-19
 -1       888 9.49024E-05-3.19644E-05-2.69705E-05-1.43454E-05 1.01499E-18 1.74805E-18
 -1       889 9.26790E-05-2.85247E-05-2.74923E-05-1.21765E-05-2.89552E-19 2.45340E-19
 -1       890 9.18376E-05-2.65442E-05-2.79821E-05-1.02472E-05 1.49943E-19 3.24352E-19
 -1       891 9.17707E-05-2.55239E-05-2.83910E-05-8.60255E-06-5.26099E-19-4.21871E-19
 -1       892 9.21038E-05-2.50932E-05-2.87190E-05-7.20090E-06 9.31262E-19-2.97593E-18
 -1       893 9.60665E-05-2.68987E-05-2.96435E-05 3.53294E-07 1.59290E-18-1.73822E-18
 -1       894 5.35898E-05-1.27470E-05-1.73156E-05-7.26586E-07 1.05770E-18-6.29087E-18
 -1       895 9.51600E-05-2.80092E-05-2.87789E-05-1.78410E-06 8.25316E-19-1.02801E-18
 -1       896 9.53983E-05-2.82999E-05-2.87565E-05-1.59127E-06 9.60091E-19-6.86433E-19
 -1       897 9.45625E-05-2.72325E-05-2.88557E-05-2.43685E-06 1.79836E-20-2.54493E-19
 -1       898 9.41788E-05-2.67554E-05-2.88957E-05-2.93361E-06 1.87456E-19-5.67930E-19
 -1       899 9.37232E-05-2.62327E-05-2.89244E-05-3.56443E-06-1.98191E-19-1.33912E-18
 -1       900 9.31881E-05-2.56871E-05-2.89289E-05-4.34211E-06-9.23694E-19-2.00966E-18
 -1       901 9.25776E-05-2.51619E-05-2.88923E-05-5.28019E-06-5.17812E-19-1.04412E-18
 -1       902 9.19179E-05-2.47342E-05-2.87928E-05-6.39625E-06-2.64457E-19-8.18502E-19
 -1       903 9.12761E-05-2.45324E-05-2.86043E-05-7.71858E-06-1.74647E-19-7.47212E-19
 -1       904 9.07907E-05-2.47612E-05-2.82982E-05-9.29446E-06-6.30390E-19 2.94755E-19
 -1       905 9.07214E-05-2.57343E-05-2.78513E-05-1.11956E-05-9.31274E-20 3.20920E-19
 -1       906 9.15021E-05-2.78968E-05-2.72585E-05-1.35110E-05-1.27745E-18-3.95674E-19
 -1       907 9.39801E-05-3.19730E-05-2.65666E-05-1.62184E-05-1.25279E-18-2.38068E-19
 -1       908 9.93268E-05-3.86038E-05-2.59963E-05-1.88361E-05-2.01279E-18-5.27381E-19
 -1       909 8.84262E-05-2.20591E-05-2.84442E-05-1.74070E-06 2.53563E-18 3.22544E-18
 -1       910 9.78280E-05-3.66918E-05-2.61938E-05 1.82714E-05-2.04790E-18-2.49617E-19
 -1       911 9.10833E-05-2.56269E-05-2.80521E-05 1.11070E-05-7.47021E-19-9.41708E-19
 -1       912 9.13363E-05-2.48525E-05-2.84914E-05 9.36217E-06 2.11775E-18-1.02823E-18
 -1       913 9.18860E-05-2.46653E-05-2.88095E-05 7.87205E-06 1.17721E-18-2.65151E-18
 -1       914 9.25486E-05-2.47724E-05-2.90462E-05 6.59350E-06 4.09119E-19-1.85765E-18
 -1       915 9.32713E-05-2.50423E-05-2.92407E-05 5.52019E-06 2.59516E-18 1.14897E-18
 -1       916 9.33842E-05-3.08231E-05-2.68102E-05 1.57285E-05-1.91789E-18 1.04613E-18
 -1       917 9.15359E-05-2.74127E-05-2.74816E-05 1.32313E-05-3.03272E-18-1.06549E-18
 -1       918 9.48851E-05-2.76519E-05-2.88142E-05-2.05942E-06 2.81146E-19-4.32004E-19
 -1       919 9.59601E-05-2.86820E-05-2.88335E-05-1.24009E-06 5.84251E-19-1.95972E-18
 -1       920 9.50181E-05-2.35010E-05-3.06477E-05-2.38105E-06-1.38134E-18-3.94189E-18
 -1       921 9.93930E-05-3.74121E-05-2.65640E-05-1.64582E-05 2.12579E-18 1.99213E-18
 -1       922 8.70780E-05-3.47498E-05-2.23203E-05-2.55196E-05-2.26136E-18-3.87841E-18
 -1       923 9.62040E-05-2.69227E-05-2.96920E-05-2.39390E-07-9.05105E-19-2.98920E-18
 -1       924 9.32278E-05-1.97453E-05-3.14937E-05-1.19186E-06-1.40676E-19-4.27640E-18
 -1       925 1.06976E-04-4.45791E-05-2.67094E-05-1.70468E-05 1.08298E-18-4.15238E-19
 -1       926 9.58196E-05-2.55716E-05-3.01082E-05-1.15308E-06-1.12911E-18-3.39993E-18
 -1       927 7.03391E-05-2.13380E-05-2.09166E-05-1.78291E-05 1.13520E-18 1.11657E-18
 -1       928 8.91999E-05-3.31818E-05-2.39192E-05 2.18901E-05 2.18869E-18-2.74707E-19
 -1       929 9.52612E-05-2.41989E-05-3.04571E-05 2.25810E-06 2.40066E-18-2.14558E-18
 -1       930 9.47190E-05-2.25733E-05-3.09178E-05-1.19846E-06-3.67740E-19-3.70210E-18
 -1       931 7.67818E-05-2.56665E-05-2.18232E-05 2.10573E-05-3.48348E-18-1.25734E-18
 -1       932 9.57057E-05-2.55199E-05-3.00783E-05 1.40911E-06 1.96208E-18-1.84883E-18
 -1       933 9.61913E-05-2.77703E-05-2.93233E-05-3.54649E-07 1.34592E-18-1.77640E-18
 -1       934 9.28739E-05-2.52708E-05-2.89717E-05-6.39385E-06 4.00519E-20-4.00574E-18
 -1       935 9.60945E-05-2.85795E-05-2.89350E-05-1.07653E-06 5.17826E-19-1.85532E-18
 -1       936 6.16836E-05-1.59381E-05-1.94940E-05-1.11754E-05 5.72598E-19-4.12217E-18
 -1       937 9.56085E-05-2.85175E-05-2.87532E-05-1.45685E-06 9.40743E-19-1.63640E-18
 -1       938 6.55738E-05-1.67200E-05-2.08866E-05-9.71875E-06 1.27500E-18 2.04167E-18
 -1       939 8.94409E-05-2.28231E-05-2.85498E-05-3.93713E-06 1.22059E-18 1.35480E-18
 -1       940 8.81953E-05-2.18430E-05-2.84380E-05 7.48921E-07 1.19384E-18-1.36968E-19
 -1       941 9.57957E-05-2.86511E-05-2.87762E-05-1.35176E-06 6.63562E-19-1.67966E-18
 -1       942 9.02289E-05-2.31989E-05-2.87285E-05 5.20513E-06 2.80580E-19-1.28742E-18
 -1       943 6.16443E-05-1.55095E-05-1.96867E-05 9.66166E-06 1.49252E-18-4.84409E-18
 -1       944 7.69861E-05-2.74509E-05-2.10814E-05-2.32790E-05-1.29164E-18-3.66845E-18
 -1       945 9.47014E-05-2.25597E-05-3.09182E-05 1.20804E-06 1.47932E-18-3.42979E-18
 -1       946 9.45589E-05-2.22229E-05-3.10022E-05 4.16511E-07 7.10408E-19-3.54504E-18
 -1       947 9.48438E-05-2.29283E-05-3.08174E-05-1.83941E-06-7.86326E-19-3.95622E-18
 -1       948 9.13472E-05-2.41790E-05-2.87879E-05-5.61900E-06 6.28941E-19-7.46930E-19
 -1       949 9.66219E-05-2.79676E-05-2.94233E-05 4.01014E-07-4.65207E-19-2.38165E-18
 -1       950 1.03525E-04-4.19076E-05-2.63830E-05 1.85218E-05-2.29855E-18-3.22763E-19
 -1       951 9.65903E-05-2.84520E-05-2.92021E-05 6.66593E-07-4.27570E-20-1.93504E-18
 -1       952 9.64381E-05-2.86707E-05-2.90432E-05 8.35236E-07 6.14288E-20-1.55770E-18
 -1       953 9.62023E-05-2.86884E-05-2.89345E-05 9.49820E-07 1.51912E-19-1.38922E-18
 -1       954 9.59045E-05-2.85521E-05-2.88653E-05 1.04589E-06-3.40690E-20-1.53922E-18
 -1       955 9.55538E-05-2.82932E-05-2.88260E-05 1.15258E-06-1.65230E-19-1.83345E-18
 -1       956 9.51497E-05-2.79325E-05-2.88074E-05 1.29418E-06-3.25334E-19-1.55102E-18
 -1       957 9.46853E-05-2.74835E-05-2.88008E-05 1.49114E-06 1.89246E-20-1.33593E-18
 -1       958 9.41495E-05-2.69569E-05-2.87969E-05 1.76114E-06-2.59303E-21-7.22670E-19
 -1       959 9.35283E-05-2.63627E-05-2.87853E-05 2.12095E-06 2.74846E-19-1.52351E-19
 -1       960 9.28096E-05-2.57175E-05-2.87539E-05 2.58815E-06-3.20911E-20-2.63489E-19
 -1       961 9.19848E-05-2.50476E-05-2.86875E-05 3.18240E-06 4.54888E-19-4.98163E-19
 -1       962 9.10536E-05-2.43960E-05-2.85678E-05 3.93000E-06 1.67859E-19-3.47542E-19
 -1       963 9.00311E-05-2.38301E-05-2.83721E-05 4.87002E-06-6.61384E-21-1.19020E-18
 -1       964 8.89572E-05-2.34523E-05-2.80738E-05 6.06357E-06 5.02070E-19-9.72538E-19
 -1       965 8.79093E-05-2.34108E-05-2.76426E-05 7.60815E-06 1.10319E-18-2.04534E-18
 -1       966 8.70369E-05-2.39287E-05-2.70458E-05 9.66846E-06 1.16025E-18-1.70598E-18
 -1       967 8.66264E-05-2.53562E-05-2.62563E-05 1.24583E-05 1.60645E-18-7.19000E-19
 -1       968 8.72106E-05-2.82145E-05-2.52762E-05 1.62714E-05 1.30602E-18-9.62964E-19
 -1       969 8.71929E-05-2.63953E-05-2.60529E-05-1.38044E-05 5.67003E-20-5.52907E-19
 -1       970 9.59514E-05-2.57070E-05-3.01047E-05 8.13376E-07 1.73146E-18-2.46109E-18
 -1       971 8.74235E-05-2.45918E-05-2.69284E-05-1.07487E-05-5.65627E-19-1.15692E-19
 -1       972 8.82886E-05-2.38172E-05-2.76299E-05-8.54811E-06-8.75083E-19-3.16174E-19
 -1       973 8.93389E-05-2.35974E-05-2.81745E-05-6.89674E-06-1.88573E-19 1.38077E-18
 -1       974 9.31184E-05-2.58947E-05-2.88101E-05-2.71489E-06 3.55455E-19-6.62745E-19
 -1       975 9.37909E-05-2.65464E-05-2.88191E-05-2.24997E-06 1.81767E-19-6.86404E-19
 -1       976 9.13664E-05-2.44336E-05-2.86855E-05-4.00732E-06-8.54248E-19-1.03540E-18
 -1       977 9.02586E-05-2.36962E-05-2.85268E-05-4.87570E-06-1.22028E-19-1.36843E-18
 -1       978 8.89956E-05-2.30451E-05-2.82646E-05-5.94422E-06-6.63316E-19-1.14798E-18
 -1       979 8.76085E-05-2.26023E-05-2.78601E-05-7.29397E-06-1.15817E-18-6.13396E-19
 -1       980 8.61780E-05-2.25562E-05-2.72673E-05-9.06531E-06-6.15727E-19-7.78313E-19
 -1       981 8.48529E-05-2.31851E-05-2.64321E-05-1.15371E-05 2.13606E-19-4.71639E-19
 -1       982 8.41194E-05-2.50224E-05-2.53166E-05-1.52233E-05-1.04139E-18-2.24604E-18
 -1       983 8.44249E-05-2.84558E-05-2.39355E-05-1.96111E-05-1.62970E-18-3.22233E-18
 -1       984 8.47616E-05-2.46856E-05-2.57452E-05 1.41785E-05-6.65659E-19 8.31477E-19
 -1       985 7.54821E-05-2.24118E-05-2.26919E-05 1.64864E-05 1.68558E-18-2.75389E-18
 -1       986 8.58161E-05-2.32998E-05-2.67914E-05 1.11324E-05 6.99537E-19-1.88415E-18
 -1       987 8.72020E-05-2.28338E-05-2.75870E-05 8.93902E-06 5.15448E-19-2.46020E-18
 -1       988 8.88421E-05-2.22500E-05-2.85393E-05 3.19476E-06-5.64055E-19 1.74472E-18
 -1       989 8.65063E-05-2.85721E-05-2.48204E-05-1.75784E-05 1.28067E-18-1.49768E-19
 -1       990 9.60976E-05-2.58582E-05-3.01032E-05-6.13016E-07-7.25952E-19-3.23515E-18
 -1       991 8.87290E-05-2.29671E-05-2.81793E-05 7.34416E-06 1.41892E-18-1.54494E-18
 -1       992 9.23159E-05-2.51816E-05-2.87719E-05-3.29509E-06 3.95129E-20-4.87087E-19
 -1       993 9.49579E-05-2.32276E-05-3.07417E-05 1.85762E-06 1.84095E-18-3.03358E-18
 -1       994 8.57500E-05-2.89091E-05-2.43206E-05 1.93042E-05-2.68485E-18 6.03708E-19
 -1       995 9.52436E-05-2.80415E-05-2.88009E-05-1.41785E-06 8.80650E-19-1.31278E-18
 -1       996 9.61822E-05-2.82981E-05-2.90932E-05-8.04433E-07 9.75419E-19-1.61616E-18
 -1       997 9.64773E-05-2.71280E-05-2.97211E-05-8.82487E-09-4.30001E-19-3.13694E-18
 -1       998 9.45570E-05-2.22197E-05-3.10025E-05-4.08925E-07 1.51272E-19-3.71695E-18
 -1       999 6.43619E-05-1.56693E-05-2.08314E-05 6.92057E-06-3.23974E-18-3.36696E-19
 -1      1000 9.55333E-05-2.45796E-05-3.04080E-05 1.31508E-06 1.84774E-18-2.63269E-18
 -1      1001 9.56246E-05-2.44250E-05-3.05162E-05-4.55326E-07-1.64775E-19-3.31490E-18
 -1      1002 9.53790E-05-2.39935E-05-3.05945E-05 8.98245E-07 1.30180E-18-3.23301E-18
 -1      1003 7.43097E-05-2.05565E-05-2.30151E-05 1.38959E-05-2.59281E-18-7.12446E-19
 -1      1004 9.55958E-05-2.83669E-05-2.88124E-05-1.27536E-06 6.59238E-19-2.02935E-18
 -1      1005 9.63626E-05-2.70489E-05-2.97060E-05 8.61771E-08 1.32850E-18-2.26554E-18
 -1      1006 7.62098E-05-2.07688E-05-2.37355E-05-1.26251E-05 1.13633E-18 1.34194E-18
 -1      1007 6.23397E-05-1.43149E-05-2.04910E-05-6.56322E-07 4.18159E-19-5.39471E-18
 -1      1008 7.28544E-05-2.15304E-05-2.19658E-05-1.65534E-05-3.34356E-19-2.42400E-18
 -1      1009 6.81416E-05-1.58081E-05-2.24210E-05-1.03648E-06-1.54950E-18-9.64195E-19
 -1      1010 9.43574E-05-2.71268E-05-2.88132E-05-1.88944E-06-9.16253E-20-5.23219E-19
 -1      1011 9.48349E-05-2.76255E-05-2.88041E-05-1.61590E-06 1.04463E-19-6.11646E-19
 -1      1012 8.62720E-05-2.11193E-05-2.79209E-05-7.27397E-07 6.53935E-19 2.29812E-18
 -1      1013 8.61626E-05-2.13487E-05-2.77811E-05 4.87539E-06 1.26894E-18-4.88358E-20
 -1      1014 9.63638E-05-2.86511E-05-2.90198E-05-9.32404E-07 5.20091E-19-1.88215E-18
 -1      1015 8.71862E-05-2.18139E-05-2.80153E-05-3.57632E-06-3.31952E-19 8.21420E-19
 -1      1016 9.52863E-05-2.36813E-05-3.06882E-05 3.63907E-07 7.01130E-19-3.04966E-18
 -1      1017 9.61601E-05-2.86973E-05-2.89127E-05-1.06295E-06 5.97364E-19-1.95774E-18
 -1      1018 7.83306E-05-2.11085E-05-2.45220E-05 1.15623E-05 1.38816E-18-3.11259E-18
 -1      1019 9.67015E-05-2.85551E-05-2.92056E-05 4.78892E-07 5.52110E-20-2.02258E-18
 -1      1020 9.64862E-05-2.86886E-05-2.90561E-05 5.76125E-07 4.01990E-19-1.57811E-18
 -1      1021 9.61769E-05-2.86219E-05-2.89522E-05 6.49228E-07-6.97464E-20-1.36348E-18
 -1      1022 9.57927E-05-2.83984E-05-2.88834E-05 7.19521E-07-5.82221E-20-1.15767E-18
 -1      1023 9.53386E-05-2.80455E-05-2.88400E-05 8.05441E-07 8.87884E-20-6.50450E-19
 -1      1024 9.48114E-05-2.75825E-05-2.88124E-05 9.21970E-07-4.39029E-19-1.24881E-18
 -1      1025 9.41981E-05-2.70203E-05-2.87905E-05 1.08313E-06 5.58966E-19-1.30562E-18
 -1      1026 9.34845E-05-2.63711E-05-2.87631E-05 1.30073E-06 3.31885E-19-1.19473E-18
 -1      1027 9.26466E-05-2.56398E-05-2.87176E-05 1.59269E-06 2.85188E-20-1.12099E-18
 -1      1028 9.16670E-05-2.48460E-05-2.86380E-05 1.97334E-06-1.60168E-19-1.08052E-18
 -1      1029 9.05227E-05-2.40123E-05-2.85050E-05 2.46656E-06 5.45909E-19-1.48368E-18
 -1      1030 8.91946E-05-2.31765E-05-2.82942E-05 3.10725E-06-2.82694E-19-1.20983E-18
 -1      1031 8.76648E-05-2.23932E-05-2.79746E-05 3.95099E-06 5.44852E-19-9.57744E-19
 -1      1032 8.59192E-05-2.17410E-05-2.75069E-05 5.09146E-06 3.11239E-19-8.89705E-19
 -1      1033 8.39402E-05-2.13172E-05-2.68404E-05 6.67680E-06 7.55711E-19-7.51098E-19
 -1      1034 8.14248E-05-2.10386E-05-2.58786E-05 8.67031E-06 1.65696E-18-2.01427E-18
 -1      1035 8.17384E-05-2.18438E-05-2.56718E-05-1.00450E-05-3.27279E-19 9.76338E-19
 -1      1036 9.19697E-05-2.50146E-05-2.86953E-05-2.13628E-06 2.98442E-21-2.39630E-19
 -1      1037 9.65121E-05-2.79049E-05-2.94031E-05-4.11342E-07 8.87896E-19-2.07561E-18
 -1      1038 8.40199E-05-2.16323E-05-2.67397E-05-7.50266E-06-5.64800E-19 1.19066E-18
 -1      1039 8.62107E-05-2.19364E-05-2.75499E-05-5.76659E-06-7.09379E-19 4.53656E-19
 -1      1040 9.29185E-05-2.58241E-05-2.87548E-05-1.77492E-06 2.06960E-19-6.76285E-19
 -1      1041 8.78748E-05-2.22624E-05-2.81201E-05-3.79461E-06-4.34068E-19-8.93852E-19
 -1      1042 8.94856E-05-2.32047E-05-2.84065E-05-3.12445E-06-3.98489E-19-1.40250E-18
 -1      1043 8.36772E-05-2.05792E-05-2.70435E-05-5.81176E-06-1.98433E-19-2.03693E-18
 -1      1044 8.09476E-05-2.00163E-05-2.61181E-05-7.45818E-06-1.00033E-18-2.34736E-18
 -1      1045 7.76885E-05-1.98394E-05-2.47814E-05-1.00500E-05-1.60064E-19-1.33427E-18
 -1      1046 8.25759E-05-2.05906E-05-2.65689E-05 7.24039E-06 1.26481E-18 6.66784E-20
 -1      1047 9.59012E-05-2.85921E-05-2.88468E-05-1.16626E-06 5.09746E-19-1.85259E-18
 -1      1048 7.94246E-05-2.02953E-05-2.53473E-05 9.44174E-06 1.39564E-19-3.65035E-21
 -1      1049 9.67872E-05-2.81587E-05-2.94121E-05 3.33627E-07-7.52750E-20-1.97830E-18
 -1      1050 8.57015E-05-2.08914E-05-2.77766E-05 2.01712E-06-2.53278E-19 3.22051E-18
 -1      1051 9.66943E-05-2.74258E-05-2.96864E-05 1.07591E-07-3.31876E-20-2.33257E-18
 -1      1052 9.63541E-05-2.61656E-05-3.00794E-05-1.63322E-07-9.25152E-20-2.56569E-18
 -1      1053 8.59555E-05-2.13590E-05-2.76851E-05-4.65097E-06-6.93452E-19-7.58815E-19
 -1      1054 6.96335E-05-1.65624E-05-2.27180E-05 6.36714E-06 1.52863E-18-4.03642E-18
 -1      1055 9.08374E-05-2.41341E-05-2.85875E-05-2.58125E-06-1.84420E-20-5.84222E-19
 -1      1056 9.64935E-05-2.84092E-05-2.91790E-05-7.31872E-07 6.85407E-19-2.23974E-18
 -1      1057 9.54346E-05-2.39696E-05-3.06275E-05-9.76305E-08 3.66963E-19-3.31025E-18
 -1      1058 9.54301E-05-2.81415E-05-2.88380E-05-9.74677E-07 6.99243E-19-1.02289E-18
 -1      1059 9.37044E-05-2.65406E-05-2.87847E-05-1.48496E-06 1.03548E-19-1.03263E-18
 -1      1060 6.81324E-05-1.67684E-05-2.19674E-05-9.05343E-06 7.35148E-20-2.95782E-18
 -1      1061 9.62273E-05-2.60783E-05-3.00641E-05 3.52831E-07 1.16157E-18-2.59173E-18
 -1      1062 7.51995E-05-1.79184E-05-2.45358E-05-4.76645E-06 5.70775E-19-1.21187E-18
 -1      1063 9.58634E-05-2.51211E-05-3.03172E-05 6.35253E-07 1.10591E-18-2.84001E-18
 -1      1064 8.35827E-05-2.01262E-05-2.71958E-05-5.68170E-07-9.41874E-19 1.35233E-18
 -1      1065 9.62661E-05-2.58660E-05-3.01711E-05-2.90748E-08 3.91126E-19-2.60132E-18
 -1      1066 9.66624E-05-2.85159E-05-2.92057E-05-5.80964E-07 3.99196E-19-1.87778E-18
 -1      1067 7.31397E-05-1.74897E-05-2.38462E-05 5.67798E-06-1.07058E-18-6.30303E-20
 -1      1068 9.64734E-05-2.86805E-05-2.90542E-05-7.08619E-07 3.50561E-19-1.78873E-18
 -1      1069 9.49453E-05-2.77098E-05-2.88153E-05-1.10018E-06 1.61530E-19-7.00165E-19
 -1      1070 8.44538E-05-2.07356E-05-2.73088E-05-3.35085E-06-9.07241E-19 1.52613E-18
 -1      1071 8.22040E-05-1.97114E-05-2.67782E-05 3.03415E-06 8.66215E-19 5.41415E-20
 -1      1072 9.64119E-05-2.86673E-05-2.90335E-05 2.41654E-07 2.54987E-19-2.12489E-18
 -1      1073 9.60385E-05-2.85109E-05-2.89402E-05 2.72086E-07-1.08925E-19-1.91897E-18
 -1      1074 9.55786E-05-2.81968E-05-2.88777E-05 3.06377E-07 2.59025E-20-2.01120E-18
 -1      1075 9.50389E-05-2.77583E-05-2.88346E-05 3.50058E-07-2.64400E-19-1.64595E-18
 -1      1076 9.44140E-05-2.72111E-05-2.88015E-05 4.11617E-07-9.71910E-20-1.25432E-18
 -1      1077 9.36764E-05-2.65513E-05-2.87669E-05 5.06392E-07 6.68015E-19-1.86141E-18
 -1      1078 9.27997E-05-2.57888E-05-2.87183E-05 6.31696E-07 4.70777E-19-1.48879E-18
 -1      1079 9.17718E-05-2.49440E-05-2.86401E-05 7.96209E-07 4.58973E-20-1.12733E-18
 -1      1080 9.05536E-05-2.40208E-05-2.85135E-05 1.02289E-06 3.86497E-19-8.46771E-19
 -1      1081 8.91080E-05-2.30398E-05-2.83143E-05 1.33069E-06 2.91958E-19-7.16302E-19
 -1      1082 8.73874E-05-2.20263E-05-2.80111E-05 1.75155E-06-8.88719E-20-8.76908E-19
 -1      1083 8.53246E-05-2.10103E-05-2.75626E-05 2.33455E-06 1.05538E-19-1.33591E-18
 -1      1084 8.28118E-05-2.00284E-05-2.69118E-05 3.17160E-06 7.24116E-20-2.04366E-18
 -1      1085 8.77331E-05-2.21341E-05-2.81146E-05-1.64407E-06-1.50226E-19-2.24510E-18
 -1      1086 9.66050E-05-2.73061E-05-2.96993E-05-8.65594E-08 9.89334E-19-2.10411E-18
 -1      1087 9.20371E-05-2.51310E-05-2.86744E-05-9.99804E-07 2.67237E-19-1.39712E-18
 -1      1088 7.02983E-05-1.59651E-05-2.32805E-05-8.91888E-07-2.54710E-20-3.82935E-18
 -1      1089 8.94388E-05-2.31992E-05-2.83890E-05-1.39460E-06 5.23871E-19-1.82919E-18
 -1      1090 7.59539E-05-1.77164E-05-2.49318E-05-3.81474E-06-1.72692E-19-3.76450E-18
 -1      1091 7.97752E-05-1.86748E-05-2.62031E-05-2.89768E-06-2.58972E-19-2.31286E-18
 -1      1092 9.43750E-05-2.71716E-05-2.88011E-05-1.26445E-06-2.42218E-19-7.89326E-19
 -1      1093 8.31157E-05-1.98961E-05-2.70930E-05-2.30502E-06-6.01073E-19-2.45653E-18
 -1      1094 9.67043E-05-2.71662E-05-2.98021E-05 1.74948E-08 3.12377E-20-2.28206E-18
 -1      1095 9.68462E-05-2.83561E-05-2.93531E-05 1.56967E-07 1.45853E-19-1.85110E-18
 -1      1096 9.58471E-05-2.84626E-05-2.88794E-05-8.81305E-07 4.40055E-19-1.36551E-18
 -1      1097 8.56651E-05-2.10307E-05-2.77013E-05-1.94091E-06-6.51715E-19-2.72166E-18
 -1      1098 7.52346E-05-1.77238E-05-2.46583E-05 4.65353E-06 9.98069E-20-3.45783E-18
 -1      1099 9.67240E-05-2.80828E-05-2.94175E-05-3.85427E-07 8.43347E-19-1.83762E-18
 -1      1100 9.60904E-05-2.55243E-05-3.02401E-05 3.13007E-07 9.03786E-19-2.58787E-18
 -1      1101 9.61848E-05-2.56658E-05-3.02213E-05 1.22179E-07 6.95561E-19-2.72641E-18
 -1      1102 9.68514E-05-2.78894E-05-2.95551E-05 8.66130E-08 2.41460E-19-2.19293E-18
 -1      1103 7.81320E-05-1.84918E-05-2.55855E-05 3.80908E-06 1.45684E-18-1.53490E-18
 -1      1104 9.66915E-05-2.86349E-05-2.91673E-05 2.06067E-07 6.53653E-19-1.63091E-18
 -1      1105 9.08560E-05-2.42044E-05-2.85654E-05-1.18122E-06 2.97596E-19-1.62147E-18
 -1      1106 9.66002E-05-2.69516E-05-2.98499E-05 1.47459E-08 5.91975E-19-2.37673E-18
 -1      1107 8.13182E-05-1.94772E-05-2.64996E-05-2.51453E-06-1.23244E-18 2.25892E-18
 -1      1108 9.51598E-05-2.78668E-05-2.88399E-05-5.52301E-07 4.03413E-19-9.81406E-19
 -1      1109 9.56725E-05-2.82789E-05-2.88829E-05-4.93307E-07 3.57463E-19-1.53859E-18
 -1      1110 7.97502E-05-1.90209E-05-2.60004E-05 3.59265E-06 1.89099E-19-3.37913E-18
 -1      1111 9.30246E-05-2.59673E-05-2.87393E-05-8.44674E-07 1.52263E-21-1.15186E-18
 -1      1112 7.95831E-05-1.93706E-05-2.57984E-05-4.85607E-06-1.39099E-18 2.43288E-18
 -1      1113 9.67070E-05-2.86062E-05-2.91858E-05-3.46353E-07 5.01151E-19-1.48521E-18
 -1      1114 9.68307E-05-2.82788E-05-2.93794E-05-2.56920E-07 4.95533E-19-1.88599E-18
 -1      1115 9.62002E-05-2.86522E-05-2.89491E-05-7.99236E-07 4.68272E-19-1.42585E-18
 -1      1116 7.84022E-05-1.86754E-05-2.55493E-05-1.91230E-06 2.88957E-19-6.47724E-19
 -1      1117 9.62410E-05-2.86049E-05-2.89868E-05-1.53311E-07 1.39686E-19-2.00174E-18
 -1      1118 9.67989E-05-2.77553E-05-2.95902E-05-1.55866E-07 5.50959E-19-2.12460E-18
 -1      1119 9.40162E-05-2.68554E-05-2.87841E-05-2.26765E-07 3.56360E-21-1.03039E-18
 -1      1120 9.65788E-05-2.86768E-05-2.91007E-05-1.37931E-07 1.32586E-19-1.83920E-18
 -1      1121 9.46352E-05-2.74032E-05-2.88133E-05-4.13779E-07 1.95146E-19-1.12786E-18
 -1      1122 9.66625E-05-2.70084E-05-2.98521E-05 3.04844E-09 3.44766E-19-2.65332E-18
 -1      1123 9.68138E-05-2.84969E-05-2.92787E-05-6.82393E-08 4.72409E-19-2.05989E-18
 -1      1124 9.68714E-05-2.80850E-05-2.94799E-05-5.74934E-08 3.09489E-19-2.02694E-18
 -1      1125 9.68084E-05-2.76203E-05-2.96521E-05-3.28790E-08 1.87684E-19-2.30126E-18
 -1      1126 1.16812E-04 2.57436E-10-4.18388E-05-4.14627E-05-5.38713E-19 1.67128E-17
 -1      1127 8.86169E-05 7.18661E-11-3.72381E-05-2.41774E-05-2.99214E-19 1.61476E-18
 -1      1128 8.40570E-05 4.14139E-11-3.57590E-05-1.78939E-05-2.04717E-19-4.69361E-18
 -1      1129 8.23295E-05 3.20356E-11-3.50705E-05-1.38547E-05-1.30602E-19-7.62897E-18
 -1      1130 8.15414E-05 2.73531E-11-3.47414E-05-1.05485E-05-8.25195E-20-8.99139E-18
 -1      1131 8.11480E-05 2.46307E-11-3.45807E-05-7.65292E-06-4.90286E-20-9.54300E-18
 -1      1132 8.09471E-05 2.29817E-11-3.45008E-05-4.98849E-06-1.74998E-20-9.66422E-18
 -1      1133 8.08502E-05 2.20905E-11-3.44636E-05-2.43666E-06-1.17129E-21-9.58903E-18
 -1      1134 8.08230E-05 2.18209E-11-3.44533E-05 5.24649E-08 2.06448E-20-9.35732E-18
 -1      1135 8.08546E-05 2.21348E-11-3.44651E-05 2.54413E-06 4.80360E-20-9.08773E-18
 -1      1136 8.09561E-05 2.30822E-11-3.45037E-05 5.10432E-06 5.97026E-20-8.67601E-18
 -1      1137 8.11638E-05 2.47931E-11-3.45850E-05 7.78513E-06 9.08178E-20-7.95692E-18
 -1      1138 8.15616E-05 2.76566E-11-3.47479E-05 1.07087E-05 1.26195E-19-6.76986E-18
 -1      1139 8.23530E-05 3.25006E-11-3.50804E-05 1.40594E-05 1.70704E-19-4.71608E-18
 -1      1140 8.40543E-05 4.19026E-11-3.57788E-05 1.81448E-05 2.30234E-19-9.52436E-19
 -1      1141 8.83153E-05 6.66867E-11-3.73082E-05 2.40207E-05 2.58133E-19 6.16751E-18
 -1      1142 1.06576E-04 1.63816E-10-4.06174E-05 3.61923E-05 5.21984E-19 2.07953E-17
 -1      1143 1.30167E-04-2.57435E-05-4.02559E-05-2.61037E-05-2.24887E-18 2.62601E-17
 -1      1144 9.73934E-05-2.88435E-05-3.15581E-05-6.82149E-07-7.77338E-19 2.09329E-17
 -1      1145 9.00833E-05-2.70037E-05-2.78703E-05 3.86363E-07-3.06229E-19 1.36874E-17
 -1      1146 8.81616E-05-2.65462E-05-2.66174E-05 2.50200E-07-1.71054E-19 8.69228E-18
 -1      1147 8.77925E-05-2.64164E-05-2.63577E-05 1.65018E-07-1.23255E-19 5.37265E-18
 -1      1148 8.81413E-05-2.64900E-05-2.64397E-05 1.16959E-07-1.20720E-19 3.00122E-18
 -1      1149 8.88191E-05-2.66721E-05-2.66401E-05 8.61216E-08-3.80549E-20 9.18607E-19
 -1      1150 8.96298E-05-2.69030E-05-2.68817E-05 6.46531E-08-3.31449E-20-2.94754E-19
 -1      1151 9.04669E-05-2.71473E-05-2.71317E-05 4.87268E-08-3.56397E-20-1.52218E-18
 -1      1152 9.12741E-05-2.73856E-05-2.73736E-05 3.64739E-08-3.04471E-20-3.20887E-18
 -1      1153 9.20258E-05-2.76093E-05-2.75999E-05 2.69352E-08 2.40687E-20-4.30690E-18
 -1      1154 9.27179E-05-2.78163E-05-2.78092E-05 1.95877E-08 9.81887E-20-4.32805E-18
 -1      1155 9.33617E-05-2.80098E-05-2.80048E-05 1.41410E-08 2.77768E-20-5.43804E-18
 -1      1156 9.39799E-05-2.81962E-05-2.81933E-05 1.04563E-08 4.92618E-20-6.04054E-18
 -1      1157 9.46048E-05-2.83852E-05-2.83844E-05 8.51771E-09-2.21440E-20-6.46990E-18
 -1      1158 9.52770E-05-2.85888E-05-2.85903E-05 8.42749E-09-1.47522E-19-6.43494E-18
 -1      1159 9.60442E-05-2.88211E-05-2.88254E-05 1.04076E-08-1.78205E-19-8.10581E-18
 -1      1160 9.69606E-05-2.90983E-05-2.91056E-05 1.47973E-08 1.72566E-19-8.73685E-18
 -1      1161 9.80848E-05-2.94376E-05-2.94484E-05 2.20285E-08 1.08666E-19-8.94966E-18
 -1      1162 9.94758E-05-2.98564E-05-2.98709E-05 3.25496E-08-2.19280E-19-8.03952E-18
 -1      1163 1.01186E-04-3.03698E-05-3.03877E-05 4.66432E-08-2.53528E-19-8.53919E-18
 -1      1164 1.03248E-04-3.09867E-05-3.10065E-05 6.40485E-08-4.63945E-20-7.82158E-18
 -1      1165 1.05651E-04-3.17031E-05-3.17208E-05 8.32563E-08 1.90326E-20-7.52544E-18
 -1      1166 1.08309E-04-3.24921E-05-3.25001E-05 1.00345E-07-1.72893E-19-7.83836E-18
 -1      1167 1.11012E-04-3.32899E-05-3.32757E-05 1.07383E-07 1.56512E-19-7.57179E-18
 -1      1168 1.13377E-04-3.39812E-05-3.39282E-05 9.09813E-08-2.37871E-19-6.04915E-18
 -1      1169 1.14810E-04-3.43905E-05-3.42832E-05 3.29143E-08 1.47427E-19-7.27901E-18
 -1      1170 1.14555E-04-3.42954E-05-3.41327E-05-8.35409E-08-3.07430E-19-8.34867E-18
 -1      1171 1.11885E-04-3.34873E-05-3.32993E-05-2.57830E-07 1.05899E-19-8.59251E-18
 -1      1172 1.06505E-04-3.18904E-05-3.17470E-05-4.49511E-07 3.28298E-19-6.86774E-18
 -1      1173 9.90709E-05-2.97097E-05-2.96994E-05-5.68350E-07-2.76074E-19-6.10901E-18
 -1      1174 9.14450E-05-2.74945E-05-2.76681E-05-5.10974E-07 1.05006E-19-5.18924E-18
 -1      1175 8.62193E-05-2.59872E-05-2.63057E-05-2.43643E-07 2.84352E-20-6.75456E-18
 -1      1176 8.54672E-05-2.57707E-05-2.61103E-05 1.37491E-07-6.31304E-21-7.92393E-18
 -1      1177 8.94912E-05-2.69287E-05-2.71527E-05 4.53143E-07 1.74052E-19-8.17540E-18
 -1      1178 9.66275E-05-2.89958E-05-2.90362E-05 5.73024E-07-3.05891E-21-7.83299E-18
 -1      1179 1.04277E-04-3.12322E-05-3.11177E-05 4.95114E-07 3.12722E-19-8.53365E-18
 -1      1180 1.10269E-04-3.30033E-05-3.28183E-05 3.12405E-07 5.05308E-20-7.39052E-18
 -1      1181 1.13596E-04-3.40027E-05-3.38260E-05 1.25468E-07-1.71663E-19-7.47485E-18
 -1      1182 1.14323E-04-3.42369E-05-3.41106E-05-1.06690E-08 1.53277E-19-7.65942E-18
 -1      1183 1.13097E-04-3.38901E-05-3.38201E-05-8.61875E-08-9.71093E-20-6.05977E-18
 -1      1184 1.10694E-04-3.31886E-05-3.31621E-05-1.15026E-07-1.33226E-20-7.59339E-18
 -1      1185 1.07764E-04-3.23250E-05-3.23249E-05-1.15978E-07-1.76562E-21-8.25472E-18
 -1      1186 1.04758E-04-3.14341E-05-3.14472E-05-1.03869E-07-1.54869E-20-6.71405E-18
 -1      1187 1.01950E-04-3.05989E-05-3.06176E-05-8.75301E-08 5.66875E-19-5.13993E-18
 -1      1188 9.94954E-05-2.98667E-05-2.98897E-05-7.04395E-08 1.48293E-19-2.94119E-18
 -1      1189 9.74919E-05-2.92678E-05-2.92979E-05-5.13840E-08-7.12873E-20-2.22306E-18
 -1      1190 9.60321E-05-2.88306E-05-2.88696E-05-2.32141E-08 5.68000E-20 7.10542E-19
 -1      1191 9.52506E-05-2.86103E-05-2.86175E-05 3.02950E-08-1.85061E-19 1.82477E-18
 -1      1192 9.51181E-05-2.85323E-05-2.84881E-05 4.14631E-08 4.25491E-19 8.13780E-19
 -1      1193 1.31001E-04-3.77234E-05-3.86414E-05 1.21731E-05-3.82144E-19 3.27260E-17
 -1      1194 9.64940E-05-2.81700E-05-3.13105E-05 8.02044E-07 1.77771E-19 2.65174E-17
 -1      1195 9.02977E-05-2.69064E-05-2.78512E-05 1.20588E-07 1.05700E-19 2.03190E-17
 -1      1196 8.82482E-05-2.64734E-05-2.66537E-05 9.48242E-09 1.29639E-19 1.59318E-17
 -1      1197 8.78325E-05-2.63787E-05-2.63848E-05-2.46192E-08 1.04364E-19 1.26022E-17
 -1      1198 8.81625E-05-2.64724E-05-2.64552E-05-3.33472E-08 6.36334E-20 1.02541E-17
 -1      1199 8.88313E-05-2.66649E-05-2.66499E-05-3.41270E-08 4.39125E-20 8.54409E-18
 -1      1200 8.96367E-05-2.69011E-05-2.68885E-05-3.18836E-08 3.55011E-20 7.51072E-18
 -1      1201 9.04703E-05-2.71480E-05-2.71365E-05-2.81551E-08-3.41098E-20 6.53125E-18
 -1      1202 9.12747E-05-2.73875E-05-2.73768E-05-2.36293E-08 9.49996E-20 5.62595E-18
 -1      1203 9.20240E-05-2.76114E-05-2.76017E-05-1.87030E-08 1.40810E-19 4.26994E-18
 -1      1204 9.27141E-05-2.78181E-05-2.78097E-05-1.36238E-08 2.76519E-20 3.22931E-18
 -1      1205 9.33560E-05-2.80109E-05-2.80043E-05-8.54811E-09 6.11796E-20 2.41476E-18
 -1      1206 9.39730E-05-2.81966E-05-2.81921E-05-3.58110E-09-3.77092E-20 2.12152E-18
 -1      1207 9.45983E-05-2.83853E-05-2.83833E-05 1.18604E-09 2.78782E-20 1.73216E-18
 -1      1208 9.52745E-05-2.85897E-05-2.85906E-05 5.63433E-09 1.32029E-19 3.89061E-19
 -1      1209 9.60529E-05-2.88250E-05-2.88296E-05 9.56292E-09-7.73461E-20-1.47356E-19
 -1      1210 9.69939E-05-2.91094E-05-2.91183E-05 1.26139E-08 4.94733E-20 1.11836E-18
 -1      1211 9.81661E-05-2.94631E-05-2.94775E-05 1.41667E-08 8.14607E-20 3.51297E-19
 -1      1212 9.96452E-05-2.99086E-05-2.99296E-05 1.31932E-08 3.62553E-20-7.29395E-19
 -1      1213 1.01508E-04-3.04682E-05-3.04970E-05 8.07824E-09 5.19461E-20-3.35902E-19
 -1      1214 1.03823E-04-3.11611E-05-3.11983E-05-3.54383E-09 1.27799E-19 6.96340E-19
 -1      1215 1.06628E-04-3.19972E-05-3.20412E-05-2.47735E-08 2.41956E-19-1.63710E-18
 -1      1216 1.09892E-04-3.29654E-05-3.30103E-05-5.88435E-08-8.94637E-21-2.84915E-18
 -1      1217 1.13457E-04-3.40166E-05-3.40481E-05-1.07139E-07 2.90034E-20-1.56068E-18
 -1      1218 1.16951E-04-3.50404E-05-3.50315E-05-1.64780E-07 2.76369E-20-3.99429E-20
 -1      1219 1.19702E-04-3.58411E-05-3.57518E-05-2.13287E-07-3.16886E-19 1.34607E-18
 -1      1220 1.20709E-04-3.61318E-05-3.59217E-05-2.13289E-07-1.21797E-19 3.47732E-18
 -1      1221 1.18800E-04-3.55814E-05-3.52436E-05-1.10307E-07-1.65846E-19 2.93185E-18
 -1      1222 1.13164E-04-3.39540E-05-3.35677E-05 1.28394E-07 1.05267E-19 1.28664E-18
 -1      1223 1.04204E-04-3.13468E-05-3.10969E-05 4.51075E-07 3.14494E-21-5.85512E-20
 -1      1224 9.42308E-05-2.83920E-05-2.84940E-05 6.90603E-07 5.08551E-20 1.16096E-18
 -1      1225 8.70490E-05-2.61855E-05-2.67030E-05 6.52604E-07 5.15433E-20 2.12896E-18
 -1      1226 8.59750E-05-2.57625E-05-2.64800E-05 2.98691E-07-1.97742E-19 2.46590E-18
 -1      1227 9.15274E-05-2.73632E-05-2.79121E-05-1.74461E-07 6.00864E-21 1.22989E-18
 -1      1228 1.01047E-04-3.02366E-05-3.03770E-05-5.11511E-07-2.77369E-19-9.76417E-19
 -1      1229 1.10580E-04-3.31492E-05-3.29341E-05-5.88298E-07 1.08447E-19-4.16063E-18
 -1      1230 1.17221E-04-3.51829E-05-3.48156E-05-4.65164E-07 1.58719E-19-5.84622E-18
 -1      1231 1.20038E-04-3.60398E-05-3.57026E-05-2.69780E-07 1.94162E-19-6.33517E-18
 -1      1232 1.19596E-04-3.59010E-05-3.56735E-05-9.75734E-08 4.16370E-20-6.09432E-18
 -1      1233 1.17034E-04-3.51218E-05-3.50058E-05 1.71099E-08 1.41195E-19-5.21881E-18
 -1      1234 1.13431E-04-3.40329E-05-3.39967E-05 7.77325E-08-2.89586E-19-1.95500E-18
 -1      1235 1.09557E-04-3.28672E-05-3.28763E-05 1.01060E-07 4.83131E-19-3.54033E-18
 -1      1236 1.05870E-04-3.17612E-05-3.17905E-05 1.03739E-07-3.80190E-19-4.89180E-18
 -1      1237 1.02600E-04-3.07822E-05-3.08180E-05 9.76401E-08-1.81832E-19-3.77770E-18
 -1      1238 9.98465E-05-2.99590E-05-2.99971E-05 8.95458E-08 1.41103E-19-6.10295E-18
 -1      1239 9.76564E-05-2.93052E-05-2.93482E-05 8.16466E-08 1.17625E-19-7.38671E-18
 -1      1240 9.60867E-05-2.88369E-05-2.88876E-05 6.83512E-08-1.35672E-19-5.27996E-18
 -1      1241 9.52380E-05-2.85804E-05-2.86203E-05 2.77479E-08 8.44948E-19-7.18698E-18
 -1      1242 9.51241E-05-2.85383E-05-2.84836E-05-3.94858E-08 9.04414E-20-6.06260E-18
 -1      1243 9.52726E-05-2.86875E-05-2.84871E-05-3.77735E-08-6.51261E-18-8.32068E-19
 -1      1244 9.52091E-05-2.85426E-05-2.86280E-05-2.74464E-08-7.70667E-18 2.53834E-19
 -1      1245 9.49625E-05-2.76994E-05-2.88870E-05 3.95916E-08 1.01134E-19 1.48628E-19
 -1      1246 9.45488E-05-2.62940E-05-2.92815E-05 6.86960E-08 2.16656E-18 6.20522E-19
 -1      1247 9.40619E-05-2.46393E-05-2.97480E-05 7.50358E-08 2.94157E-18-7.33223E-20
 -1      1248 9.35928E-05-2.30455E-05-3.02017E-05 6.61735E-08-6.27205E-18-1.37675E-18
 -1      1249 9.32100E-05-2.17443E-05-3.05750E-05 4.88315E-08-1.02747E-17 5.67868E-20
 -1      1250 9.29640E-05-2.09090E-05-3.08156E-05 2.42837E-08-3.87642E-18-6.89084E-19
 -1      1251 9.28909E-05-2.06612E-05-3.08876E-05-2.79675E-09 1.43979E-19 7.80283E-19
 -1      1252 9.29981E-05-2.10266E-05-3.07832E-05-2.89720E-08 1.00168E-18 2.47417E-19
 -1      1253 9.32689E-05-2.19489E-05-3.05185E-05-5.09953E-08 3.53067E-19-1.38015E-18
 -1      1254 9.36632E-05-2.32863E-05-3.01352E-05-6.60979E-08-6.11133E-18 6.70051E-19
 -1      1255 9.41256E-05-2.48589E-05-2.96860E-05-7.12043E-08-1.15064E-18 1.22916E-18
 -1      1256 9.45945E-05-2.64500E-05-2.92361E-05-6.42892E-08 1.11074E-18-4.00070E-20
 -1      1257 9.49921E-05-2.77927E-05-2.88620E-05-4.32908E-08-2.09845E-18-4.42664E-19
 -1      1258 9.51881E-05-2.85199E-05-2.86207E-05 5.39617E-08-3.27737E-19 1.12382E-19
 -1      1259 9.52772E-05-2.86921E-05-2.84894E-05 4.05363E-08-2.08486E-19 4.61064E-19
 -1      1260 3.35576E-05-1.06037E-04 1.79285E-05-1.45816E-05 5.73780E-18 1.78409E-18
 -1      1261 1.62436E-05-6.21819E-05 8.85697E-06-2.41728E-05 1.23811E-17 5.34605E-18
 -1      1262 8.40715E-06-6.28890E-06-7.31895E-06 3.03658E-06 1.56904E-17 9.83744E-18
 -1      1263 3.63986E-05 2.45297E-05-2.69204E-05 5.52825E-05 1.31866E-17 1.27326E-17
 -1      1264 1.08143E-04 1.25552E-05-4.65611E-05 1.00986E-04 1.10343E-17 1.59496E-17
 -1      1265 2.05488E-04-3.24089E-05-6.37650E-05 1.08532E-04 5.48623E-18 1.26979E-17
 -1      1266 2.87554E-04-7.94497E-05-7.49681E-05 6.53669E-05 1.66389E-18 3.83028E-18
 -1      1267 3.10018E-04-9.29980E-05-7.79438E-05-1.30896E-05 1.13074E-18-8.54148E-18
 -1      1268 2.64921E-04-6.61109E-05-7.20141E-05-8.47428E-05 5.93580E-18-1.96562E-17
 -1      1269 1.75297E-04-1.69858E-05-5.90075E-05-1.12162E-04 1.54965E-17-3.05474E-17
 -1      1270 8.37865E-05 1.96823E-05-4.09339E-05-8.95503E-05 2.26700E-17-2.98376E-17
 -1      1271 2.37475E-05 1.95006E-05-2.08715E-05-3.85745E-05 2.35780E-17-2.14697E-17
 -1      1272 7.25581E-06-1.89265E-05-2.56857E-06 8.19404E-06 1.67746E-17-1.02872E-17
 -1      1273 2.00660E-05-7.29735E-05 1.13644E-05 2.57839E-05 1.07200E-17-3.60116E-18
 -1      1274 3.50985E-05-1.09495E-04 1.84780E-05 1.06096E-05 1.48146E-18-1.40443E-18
 -1      1275 3.13663E-05-1.01537E-04 1.72912E-05-1.53543E-05-1.51970E-17-3.78830E-18
 -1      1276 1.52645E-05-5.74194E-05 7.66626E-06-2.35022E-05-2.97563E-17-1.25018E-17
 -1      1277 8.32420E-06-2.64984E-06-8.17121E-06 5.05132E-06-3.52942E-17-2.33061E-17
 -1      1278 3.87525E-05 2.53373E-05-2.77106E-05 5.77254E-05-3.04712E-17-2.88940E-17
 -1      1279 1.15167E-04 9.86966E-06-4.78984E-05 1.02857E-04-1.89405E-17-2.76641E-17
 -1      1280 2.14729E-04-3.78180E-05-6.50383E-05 1.05658E-04-7.83633E-18-1.66222E-17
 -1      1281 2.90620E-04-8.21529E-05-7.52318E-05 5.74080E-05-1.16324E-18-4.26905E-18
 -1      1282 3.05665E-04-9.11575E-05-7.72933E-05-2.01692E-05-9.67788E-19 6.78812E-18
 -1      1283 2.58965E-04-6.29858E-05-7.11540E-05-8.71709E-05-4.13034E-18 1.47206E-17
 -1      1284 1.71765E-04-1.51110E-05-5.84389E-05-1.12141E-04-9.07003E-18 1.73574E-17
 -1      1285 8.37083E-05 2.07584E-05-4.12111E-05-9.13766E-05-1.63054E-17 2.06405E-17
 -1      1286 2.53673E-05 2.10698E-05-2.20062E-05-4.21123E-05-2.49028E-17 2.20982E-17
 -1      1287 7.45530E-06-1.56541E-05-3.63797E-06 4.86705E-06-2.23837E-17 1.36576E-17
 -1      1288 1.88511E-05-6.89287E-05 1.04990E-05 2.52997E-05-1.03270E-17 5.14085E-18
 -1      1289 3.47305E-05-1.07758E-04 1.81563E-05 1.28100E-05-3.16536E-18 5.48189E-19
 -1      1290 1.04393E-04-2.20072E-05-3.78755E-05-1.72791E-05-8.34963E-19 1.33535E-17
 -1      1291 9.02862E-05-6.67623E-06-3.60053E-05-2.04829E-05-2.28212E-18-1.38479E-18
 -1      1292 9.26159E-05-6.73425E-06-3.72079E-05-2.57681E-05-2.93116E-18 1.94569E-18
 -1      1293 8.58828E-05-4.09089E-06-3.51233E-05-1.64479E-05-2.20305E-18-5.99855E-18
 -1      1294 8.71292E-05-4.08581E-06-3.55902E-05-1.88660E-05-2.52633E-18-4.03958E-18
 -1      1295 9.21023E-05-1.04566E-05-3.50831E-05-1.90443E-05-3.96327E-18-1.25266E-18
 -1      1296 8.40983E-05-3.19237E-06-3.46858E-05-1.28348E-05-1.70889E-18-8.24123E-18
 -1      1297 8.46976E-05-3.16100E-06-3.49071E-05-1.46508E-05-1.98722E-18-7.24655E-18
 -1      1298 8.78532E-05-7.38941E-06-3.45689E-05-1.54309E-05-3.43171E-18-5.07293E-18
 -1      1299 8.31976E-05-2.72934E-06-3.44739E-05-9.69926E-06-1.21557E-18-9.29346E-18
 -1      1300 8.35074E-05-2.71274E-06-3.45809E-05-1.12477E-05-1.42523E-18-8.84069E-18
 -1      1301 8.58711E-05-5.98676E-06-3.43050E-05-1.19697E-05-2.58096E-18-6.96534E-18
 -1      1302 8.27151E-05-2.45956E-06-3.43718E-05-6.92604E-06-7.52698E-19-9.66809E-18
 -1      1303 8.28799E-05-2.45100E-06-3.44242E-05-8.29832E-06-9.23948E-19-9.50133E-18
 -1      1304 8.48356E-05-5.21979E-06-3.41778E-05-8.95517E-06-1.77840E-18-7.82574E-18
 -1      1305 8.24474E-05-2.29481E-06-3.43219E-05-4.30233E-06-3.31898E-19-9.72571E-18
 -1      1306 8.25352E-05-2.29082E-06-3.43478E-05-5.60545E-06-4.62513E-19-9.72707E-18
 -1      1307 8.42601E-05-4.76600E-06-3.41183E-05-6.22569E-06-1.03870E-18-8.18925E-18
 -1      1308 8.23192E-05-2.20572E-06-3.43013E-05-1.79324E-06 6.07802E-20-9.61216E-18
 -1      1309 8.23565E-05-2.20413E-06-3.43117E-05-3.04634E-06-5.35815E-20-9.67595E-18
 -1      1310 8.39447E-05-4.50320E-06-3.40920E-05-3.65022E-06-3.43598E-19-8.16270E-18
 -1      1311 8.22941E-05-2.17829E-06-3.42990E-05 6.70862E-07 4.48696E-19-9.34854E-18
 -1      1312 8.22927E-05-2.17833E-06-3.42986E-05-5.67135E-07 2.91447E-19-9.49504E-18
 -1      1313 8.38069E-05-4.38387E-06-3.40825E-05-1.17243E-06 2.78036E-19-8.05187E-18
 -1      1314 8.23652E-05-2.20847E-06-3.43132E-05 3.15372E-06 8.43206E-19-9.05319E-18
 -1      1315 8.23250E-05-2.21011E-06-3.43021E-05 1.89800E-06 7.10973E-19-9.24015E-18
 -1      1316 8.38119E-05-4.38810E-06-3.40828E-05 1.27558E-06 9.39790E-19-7.81295E-18
 -1      1317 8.25526E-05-2.30121E-06-3.43505E-05 5.72203E-06 1.21576E-18-8.59018E-18
 -1      1318 8.24613E-05-2.30462E-06-3.43239E-05 4.41295E-06 1.07670E-18-8.88327E-18
 -1      1319 8.39604E-05-4.51676E-06-3.40931E-05 3.75766E-06 1.57671E-18-7.47746E-18
 -1      1320 8.29033E-05-2.46635E-06-3.44272E-05 8.40711E-06 1.61343E-18-7.79884E-18
 -1      1321 8.27352E-05-2.47509E-06-3.43742E-05 7.02583E-06 1.45497E-18-8.28329E-18
 -1      1322 8.42861E-05-4.78914E-06-3.41195E-05 6.31953E-06 2.19951E-18-6.98659E-18
 -1      1323 8.35494E-05-2.74267E-06-3.45860E-05 1.14097E-05 2.12961E-18-6.45738E-18
 -1      1324 8.32342E-05-2.75987E-06-3.44777E-05 9.84382E-06 1.91405E-18-7.25100E-18
 -1      1325 8.48786E-05-5.26100E-06-3.41789E-05 9.06538E-06 2.90639E-18-6.03207E-18
 -1      1326 8.47560E-05-3.20331E-06-3.49153E-05 1.48593E-05 2.61018E-18-4.21330E-18
 -1      1327 8.41509E-05-3.24021E-06-3.46913E-05 1.30189E-05 2.37325E-18-5.58985E-18
 -1      1328 8.59484E-05-6.06399E-06-3.43068E-05 1.21358E-05 3.65071E-18-4.57154E-18
 -1      1329 8.72307E-05-4.08804E-06-3.56114E-05 1.91050E-05 2.96006E-18-1.18293E-19
 -1      1330 8.59550E-05-4.15223E-06-3.51309E-05 1.67083E-05 2.64036E-18-2.56881E-18
 -1      1331 8.79775E-05-7.51523E-06-3.45707E-05 1.56639E-05 4.21560E-18-1.97658E-18
 -1      1332 9.34286E-05-6.78639E-06-3.71034E-05 2.51049E-05 2.49462E-18 7.52081E-18
 -1      1333 9.01016E-05-6.43269E-06-3.60278E-05 2.11610E-05 2.49070E-18 2.85720E-18
 -1      1334 9.23324E-05-1.06919E-05-3.50682E-05 1.96883E-05 4.39112E-18 2.56286E-18
 -1      1335 1.23576E-04-2.49117E-05-3.89990E-05 2.83674E-05 1.21666E-18 2.18263E-17
 -1      1336 1.00038E-04-1.44145E-05-3.73395E-05 2.40565E-05 1.25827E-18 1.19150E-17
 -1      1337 1.01636E-04-1.93308E-05-3.53889E-05 2.14075E-05 4.01176E-18 9.47322E-18
 -1      1338 1.02552E-04-2.77893E-05-3.47417E-05 7.33463E-06 2.22097E-18 2.09948E-17
 -1      1339 1.05094E-04-3.02146E-05-3.35092E-05-7.96555E-06-2.45745E-18 1.42617E-17
 -1      1340 9.82029E-05-2.78254E-05-3.07448E-05-4.99394E-06-2.23765E-18 1.13690E-17
 -1      1341 9.54424E-05-2.78309E-05-2.92364E-05-2.49476E-06-1.79918E-18 1.02229E-17
 -1      1342 9.32054E-05-2.75386E-05-2.81957E-05-2.04780E-06-1.70309E-18 7.61236E-18
 -1      1343 9.94335E-05-2.80360E-05-3.09674E-05-7.89691E-06-3.89365E-18 5.51384E-18
 -1      1344 9.15132E-05-2.71801E-05-2.75605E-05-8.42739E-07-1.38058E-18 6.66157E-18
 -1      1345 9.07921E-05-2.70834E-05-2.72568E-05-7.32585E-07-1.20604E-18 4.79132E-18
 -1      1346 9.46621E-05-2.77531E-05-2.87995E-05-3.12941E-06-3.01761E-18 3.87277E-18
 -1      1347 9.00398E-05-2.68999E-05-2.70129E-05-1.78245E-07-9.37411E-19 3.89280E-18
 -1      1348 8.99628E-05-2.69252E-05-2.69769E-05-1.20157E-07-9.70157E-19 2.59739E-18
 -1      1349 9.24584E-05-2.74814E-05-2.78774E-05-1.06158E-06-2.22174E-18 2.10666E-18
 -1      1350 8.97021E-05-2.68574E-05-2.69023E-05 1.50828E-07-7.61102E-19 2.07006E-18
 -1      1351 8.99129E-05-2.69461E-05-2.69629E-05 1.79693E-07-6.36228E-19 1.09442E-18
 -1      1352 9.14968E-05-2.73365E-05-2.75097E-05-7.71332E-08-1.65824E-18 6.84555E-19
 -1      1353 8.99173E-05-2.69493E-05-2.69696E-05 3.12478E-07-6.12120E-19 6.05602E-19
 -1      1354 9.02575E-05-2.70680E-05-2.70681E-05 3.24635E-07-5.11519E-19-1.80669E-19
 -1      1355 9.12432E-05-2.73239E-05-2.74020E-05 4.13110E-07-1.31824E-18-1.36700E-19
 -1      1356 9.04029E-05-2.71107E-05-2.71164E-05 3.82305E-07-3.36533E-19-3.56548E-19
 -1      1357 9.07917E-05-2.72388E-05-2.72289E-05 3.84791E-07-3.35521E-19-9.56360E-19
 -1      1358 9.13801E-05-2.73981E-05-2.74258E-05 6.47179E-07-8.59267E-19-7.38836E-19
 -1      1359 9.10080E-05-2.73014E-05-2.72979E-05 4.00542E-07-4.10394E-19-1.21905E-18
 -1      1360 9.14020E-05-2.74275E-05-2.74122E-05 3.97687E-07-3.86749E-19-1.89548E-18
 -1      1361 9.17243E-05-2.75193E-05-2.75188E-05 7.39687E-07-8.49341E-19-1.30875E-18
 -1      1362 9.16488E-05-2.74984E-05-2.74900E-05 3.91194E-07-4.72270E-19-2.24760E-18
 -1      1363 9.20259E-05-2.76168E-05-2.76000E-05 3.85887E-07-4.33949E-19-2.78977E-18
 -1      1364 9.21693E-05-2.76619E-05-2.76467E-05 7.54090E-07-8.79541E-19-1.81684E-18
 -1      1365 9.22812E-05-2.76899E-05-2.76801E-05 3.69873E-07-2.27685E-19-2.77900E-18
 -1      1366 9.26330E-05-2.77986E-05-2.77833E-05 3.64144E-07-2.50495E-20-3.19638E-18
 -1      1367 9.26544E-05-2.78106E-05-2.77900E-05 7.29483E-07-5.93403E-19-1.82777E-18
 -1      1368 9.28871E-05-2.78712E-05-2.78628E-05 3.47386E-07-7.47906E-21-3.39401E-18
 -1      1369 9.32144E-05-2.79710E-05-2.79592E-05 3.42718E-07-2.76860E-19-3.72471E-18
 -1      1370 9.31485E-05-2.79578E-05-2.79383E-05 6.91902E-07-3.07217E-19-2.41825E-18
 -1      1371 9.34661E-05-2.80427E-05-2.80378E-05 3.31614E-07-4.48905E-19-4.13588E-18
 -1      1372 9.37768E-05-2.81362E-05-2.81297E-05 3.29149E-07-2.75371E-19-4.54382E-18
 -1      1373 9.36402E-05-2.81012E-05-2.80878E-05 6.59753E-07-7.41558E-19-3.12925E-18
 -1      1374 9.40310E-05-2.82085E-05-2.82090E-05 3.28631E-07-2.24341E-20-4.70741E-18
 -1      1375 9.43382E-05-2.83001E-05-2.83003E-05 3.29301E-07-1.23016E-19-4.86891E-18
 -1      1376 9.41329E-05-2.82425E-05-2.82391E-05 6.46783E-07-3.88286E-19-3.68601E-18
 -1      1377 9.46046E-05-2.83757E-05-2.83833E-05 3.43393E-07-8.25444E-20-4.93979E-18
 -1      1378 9.49259E-05-2.84709E-05-2.84790E-05 3.48006E-07-1.42591E-19-5.07756E-18
 -1      1379 9.46406E-05-2.83863E-05-2.83960E-05 6.63850E-07-3.20046E-19-3.87759E-18
 -1      1380 9.52181E-05-2.85538E-05-2.85700E-05 3.80130E-07-3.63806E-19-5.08226E-18
 -1      1381 9.55751E-05-2.86593E-05-2.86764E-05 3.89415E-07-5.29286E-19-5.38458E-18
 -1      1382 9.51860E-05-2.85396E-05-2.85653E-05 7.19969E-07-2.93415E-19-3.83674E-18
 -1      1383 9.59097E-05-2.87543E-05-2.87806E-05 4.42467E-07-4.10500E-19-5.38710E-18
 -1      1384 9.63270E-05-2.88779E-05-2.89050E-05 4.57067E-07-3.41887E-19-5.98407E-18
 -1      1385 9.57983E-05-2.87114E-05-2.87556E-05 8.22780E-07-5.77002E-19-3.91594E-18
 -1      1386 9.67229E-05-2.89905E-05-2.90282E-05 5.33220E-07-1.96079E-19-5.89497E-18
 -1      1387 9.72279E-05-2.91409E-05-2.91785E-05 5.53617E-07-4.46876E-20-6.06022E-18
 -1      1388 9.65122E-05-2.89124E-05-2.89771E-05 9.78419E-07-3.74165E-19-3.45061E-18
 -1      1389 9.77050E-05-2.92770E-05-2.93268E-05 6.53756E-07 2.49692E-19-6.33389E-18
 -1      1390 9.83263E-05-2.94632E-05-2.95113E-05 6.80101E-07 3.02604E-19-6.15769E-18
 -1      1391 9.73657E-05-2.91547E-05-2.92408E-05 1.19062E-06-9.70696E-20-3.95130E-18
 -1      1392 9.89039E-05-2.96289E-05-2.96905E-05 8.02720E-07 3.61048E-20-6.34141E-18
 -1      1393 9.96682E-05-2.98599E-05-2.99169E-05 8.34514E-07-6.05559E-19-6.50199E-18
 -1      1394 9.83974E-05-2.94510E-05-2.95577E-05 1.45878E-06 2.51959E-20-4.31195E-18
 -1      1395 1.00362E-04-3.00604E-05-3.01316E-05 9.73858E-07-3.59403E-19-6.51184E-18
 -1      1396 1.01289E-04-3.03435E-05-3.04053E-05 1.00940E-06-1.59862E-19-6.32455E-18
 -1      1397 9.96424E-05-2.98143E-05-2.99370E-05 1.77441E-06-5.40606E-19-4.55864E-18
 -1      1398 1.02107E-04-3.05821E-05-3.06571E-05 1.15263E-06 1.91996E-19-5.88871E-18
 -1      1399 1.03202E-04-3.09207E-05-3.09789E-05 1.18819E-06 4.18972E-19-5.54134E-18
 -1      1400 1.01124E-04-3.02558E-05-3.03836E-05 2.11569E-06 2.48851E-19-4.23828E-18
 -1      1401 1.04134E-04-3.11971E-05-3.12639E-05 1.31141E-06 2.51367E-19-5.39498E-18
 -1      1402 1.05374E-04-3.15863E-05-3.16258E-05 1.34003E-06-1.28102E-19-5.51679E-18
 -1      1403 1.02846E-04-3.07826E-05-3.08947E-05 2.43935E-06 4.59945E-19-3.82540E-18
 -1      1404 1.06387E-04-3.18939E-05-3.19315E-05 1.40372E-06-1.44935E-19-5.29617E-18
 -1      1405 1.07698E-04-3.23145E-05-3.23110E-05 1.41381E-06 1.69376E-20-5.55853E-18
 -1      1406 1.04769E-04-3.13931E-05-3.14541E-05 2.67053E-06 4.62253E-20-3.08027E-18
 -1      1407 1.08721E-04-3.26366E-05-3.26122E-05 1.35947E-06 7.04692E-19-5.10326E-18
 -1      1408 1.09959E-04-3.30469E-05-3.29659E-05 1.33380E-06 8.47581E-19-3.97988E-18
 -1      1409 1.06797E-04-3.20702E-05-3.20261E-05 2.69309E-06 6.33683E-19-2.38167E-18
 -1      1410 1.10870E-04-3.33521E-05-3.32219E-05 1.08642E-06-1.04589E-19-4.09604E-18
 -1      1411 1.11802E-04-3.36795E-05-3.34806E-05 1.00313E-06-3.83269E-19-4.26160E-18
 -1      1412 1.08749E-04-3.27700E-05-3.25501E-05 2.34771E-06 6.55574E-19-2.42009E-18
 -1      1413 1.12421E-04-3.39165E-05-3.36351E-05 4.88274E-07-3.41781E-19-4.51671E-18
 -1      1414 1.12722E-04-3.40534E-05-3.37070E-05 3.26968E-07-2.00006E-19-5.26130E-18
 -1      1415 1.10336E-04-3.34066E-05-3.29383E-05 1.45338E-06-4.24463E-19-2.14322E-18
 -1      1416 1.12831E-04-3.41492E-05-3.36967E-05-4.86728E-07-2.15279E-19-5.53457E-18
 -1      1417 1.12145E-04-3.39656E-05-3.34862E-05-7.29921E-07-6.60136E-19-5.91406E-18
 -1      1418 1.11164E-04-3.38358E-05-3.30860E-05-1.24291E-07-5.72627E-19-3.38914E-18
 -1      1419 1.11534E-04-3.38344E-05-3.32617E-05-1.76027E-06 6.02320E-20-5.93773E-18
 -1      1420 1.09610E-04-3.32216E-05-3.27108E-05-2.04886E-06 4.96143E-19-5.50153E-18
 -1      1421 1.10793E-04-3.38548E-05-3.28982E-05-2.33915E-06 1.26420E-19-3.57370E-18
 -1      1422 1.08188E-04-3.27971E-05-3.22686E-05-3.03053E-06 5.30421E-19-4.90586E-18
 -1      1423 1.05105E-04-3.17498E-05-3.14147E-05-3.26791E-06 3.05031E-19-4.33734E-18
 -1      1424 1.08884E-04-3.32490E-05-3.23360E-05-4.79101E-06 7.00291E-19-3.59731E-18
 -1      1425 1.03038E-04-3.10504E-05-3.08277E-05-3.76445E-06-3.07171E-19-3.97269E-18
 -1      1426 9.93945E-05-2.97580E-05-2.98451E-05-3.81119E-06-1.74961E-19-4.00541E-18
 -1      1427 1.05462E-04-3.19237E-05-3.14670E-05-6.63723E-06 6.19810E-19-3.06607E-18
 -1      1428 9.72103E-05-2.89584E-05-2.92657E-05-3.40539E-06 1.06528E-19-3.51487E-18
 -1      1429 9.40877E-05-2.78167E-05-2.84402E-05-3.16330E-06-3.29840E-19-3.58022E-18
 -1      1430 1.01194E-04-3.00987E-05-3.04884E-05-6.81303E-06-6.78090E-20-2.04551E-18
 -1      1431 9.25601E-05-2.72297E-05-2.80536E-05-1.78444E-06-7.23128E-19-4.16055E-18
 -1      1432 9.11033E-05-2.66884E-05-2.76728E-05-1.29969E-06-6.55008E-19-4.99718E-18
 -1      1433 9.74135E-05-2.83858E-05-2.96836E-05-4.67285E-06-1.03297E-18-2.64863E-18
 -1      1434 9.08776E-05-2.66013E-05-2.76161E-05 5.83427E-07-1.58633E-19-5.11547E-18
 -1      1435 9.16747E-05-2.69000E-05-2.78234E-05 1.10416E-06 2.14405E-21-5.75276E-18
 -1      1436 9.56146E-05-2.75509E-05-2.93153E-05-6.78034E-07-4.50542E-19-3.22677E-18
 -1      1437 9.28462E-05-2.73565E-05-2.81156E-05 2.69767E-06 1.10240E-19-5.46302E-18
 -1      1438 9.55597E-05-2.83573E-05-2.88287E-05 3.02237E-06 5.86041E-20-5.38422E-18
 -1      1439 9.65878E-05-2.80117E-05-2.95089E-05 3.58795E-06-1.19577E-19-3.58281E-18
 -1      1440 9.76067E-05-2.91223E-05-2.93614E-05 3.72149E-06-8.85838E-19-5.77009E-18
 -1      1441 1.01188E-04-3.04082E-05-3.03198E-05 3.75165E-06-4.90282E-19-6.00176E-18
 -1      1442 9.98777E-05-2.95284E-05-3.01923E-05 6.36386E-06-5.37575E-19-3.34905E-18
 -1      1443 1.03323E-04-3.11525E-05-3.09121E-05 3.47445E-06 2.65343E-19-6.64836E-18
 -1      1444 1.06609E-04-3.22867E-05-3.18138E-05 3.27523E-06 3.21102E-19-6.56980E-18
 -1      1445 1.04100E-04-3.13814E-05-3.11315E-05 6.81649E-06-3.33698E-19-4.44610E-18
 -1      1446 1.08208E-04-3.27859E-05-3.22958E-05 2.37433E-06 3.37615E-19-7.07156E-18
 -1      1447 1.10438E-04-3.35139E-05-3.29266E-05 2.08530E-06 2.31558E-19-7.04297E-18
 -1      1448 1.07791E-04-3.28701E-05-3.20337E-05 5.32576E-06 2.47327E-19-6.38733E-18
 -1      1449 1.11230E-04-3.37103E-05-3.32003E-05 1.02044E-06 5.41836E-20-5.62499E-18
 -1      1450 1.12186E-04-3.39878E-05-3.34852E-05 7.54687E-07 2.42132E-20-6.07818E-18
 -1      1451 1.10070E-04-3.36578E-05-3.26685E-05 2.91792E-06 1.44750E-19-5.95012E-18
 -1      1452 1.12203E-04-3.39304E-05-3.35338E-05-1.51218E-07 1.01247E-20-5.62354E-18
 -1      1453 1.12063E-04-3.38455E-05-3.35083E-05-3.40651E-07-7.75101E-20-5.76207E-18
 -1      1454 1.10748E-04-3.37661E-05-3.29297E-05 5.42138E-07 2.28103E-20-3.54804E-18
 -1      1455 1.11492E-04-3.36192E-05-3.33714E-05-9.57320E-07-5.06896E-20-6.10076E-18
 -1      1456 1.10599E-04-3.33015E-05-3.31251E-05-1.06527E-06-5.96708E-19-6.73675E-18
 -1      1457 1.10085E-04-3.33924E-05-3.28293E-05-1.27176E-06-1.52929E-19-3.85076E-18
 -1      1458 1.09664E-04-3.29844E-05-3.28648E-05-1.39836E-06-7.54018E-19-6.88234E-18
 -1      1459 1.08360E-04-3.25501E-05-3.24937E-05-1.44215E-06-4.12168E-20-7.05605E-18
 -1      1460 1.08513E-04-3.27505E-05-3.24514E-05-2.39103E-06-8.45686E-19-5.21129E-18
 -1      1461 1.07257E-04-3.22002E-05-3.21701E-05-1.55722E-06 8.04355E-19-6.62953E-18
 -1      1462 1.05807E-04-3.17325E-05-3.17514E-05-1.55865E-06 7.21264E-19-5.80826E-18
 -1      1463 1.06451E-04-3.20025E-05-3.19027E-05-2.91064E-06 7.08988E-19-5.11343E-18
 -1      1464 1.04677E-04-3.13874E-05-3.14117E-05-1.52949E-06-2.79347E-20-4.97355E-18
 -1      1465 1.03256E-04-3.09377E-05-3.09979E-05-1.50633E-06 6.44040E-19-4.95746E-18
 -1      1466 1.04223E-04-3.12504E-05-3.12793E-05-3.00092E-06 1.28019E-18-3.57450E-18
 -1      1467 1.02193E-04-3.06198E-05-3.06743E-05-1.39089E-06 1.02798E-18-5.30792E-18
 -1      1468 1.00905E-04-3.02166E-05-3.02981E-05-1.35454E-06 8.25693E-19-4.00344E-18
 -1      1469 1.02053E-04-3.05506E-05-3.06542E-05-2.81975E-06 1.19931E-18-2.57832E-18
 -1      1470 9.99663E-05-2.99382E-05-3.00113E-05-1.18828E-06 1.93723E-18-2.92600E-18
 -1      1471 9.88736E-05-2.95970E-05-2.96923E-05-1.14403E-06 1.46930E-18-1.09368E-18
 -1      1472 1.00081E-04-2.99304E-05-3.00773E-05-2.47816E-06 2.18686E-18-2.36290E-18
 -1      1473 9.80945E-05-2.93647E-05-2.94555E-05-9.41412E-07 3.32007E-19-1.46163E-18
 -1      1474 9.72419E-05-2.90969E-05-2.92081E-05-8.89280E-07 2.53413E-19-8.90215E-19
 -1      1475 9.83888E-05-2.94016E-05-2.95810E-05-2.03550E-06 1.63642E-18-8.48726E-19
 -1      1476 9.66455E-05-2.89152E-05-2.90302E-05-6.50791E-07 4.13379E-19-4.06642E-19
 -1      1477 9.60797E-05-2.87363E-05-2.88656E-05-5.86478E-07 5.44445E-19 6.88289E-19
 -1      1478 9.70309E-05-2.89697E-05-2.91859E-05-1.50834E-06 6.21259E-19-1.63544E-18
 -1      1479 9.56681E-05-2.85996E-05-2.87473E-05-3.09984E-07 2.79618E-19 9.63594E-19
 -1      1480 9.54331E-05-2.85464E-05-2.86623E-05-2.34309E-07-5.73838E-19 1.02330E-18
 -1      1481 9.60329E-05-2.86397E-05-2.88995E-05-9.01061E-07 9.54990E-19-8.73401E-19
 -1      1482 9.52097E-05-2.85552E-05-2.85542E-05 3.71144E-08-1.28807E-18 1.62997E-18
 -1      1483 9.53733E-05-2.84920E-05-2.86678E-05-2.10342E-07-9.52593E-19 4.39177E-19
 -1      1484 9.65171E-05-2.83455E-05-2.97545E-05 3.00023E-06 1.89071E-18 1.67182E-17
 -1      1485 1.02481E-04-2.93821E-05-3.21391E-05 4.46744E-06 1.67368E-18 1.97261E-17
 -1      1486 1.02276E-04-2.67028E-05-3.26904E-05 1.27906E-05 3.30242E-18 1.29041E-17
 -1      1487 9.19627E-05-2.74088E-05-2.77415E-05 1.15632E-06 1.45118E-18 1.28591E-17
 -1      1488 9.39143E-05-2.75656E-05-2.86570E-05 1.47820E-06 1.39640E-18 1.51610E-17
 -1      1489 9.64310E-05-2.80134E-05-2.95170E-05 4.87565E-06 2.93687E-18 1.00522E-17
 -1      1490 9.01221E-05-2.69817E-05-2.70401E-05 3.36013E-07 1.03091E-18 1.00225E-17
 -1      1491 9.07419E-05-2.70008E-05-2.73142E-05 4.98744E-07 1.05592E-18 1.17427E-17
 -1      1492 9.29806E-05-2.75603E-05-2.80802E-05 1.85964E-06 2.28639E-18 7.63072E-18
 -1      1493 8.95973E-05-2.68612E-05-2.68622E-05-5.11919E-08 8.11742E-19 7.94702E-18
 -1      1494 8.96394E-05-2.68004E-05-2.68918E-05 3.78083E-08 7.43053E-19 9.17719E-18
 -1      1495 9.14221E-05-2.72875E-05-2.74949E-05 5.25176E-07 1.70077E-18 5.80154E-18
 -1      1496 8.97235E-05-2.69118E-05-2.69024E-05-2.39472E-07 6.06332E-19 6.32648E-18
 -1      1497 8.94990E-05-2.68056E-05-2.68384E-05-1.89230E-07 5.54917E-19 7.28151E-18
 -1      1498 9.08866E-05-2.72052E-05-2.72977E-05-1.26093E-07 1.24837E-18 4.44756E-18
 -1      1499 9.01739E-05-2.70532E-05-2.70401E-05-3.24756E-07 2.70586E-19 5.35126E-18
 -1      1500 8.98294E-05-2.69268E-05-2.69392E-05-2.96860E-07 3.79080E-19 5.97802E-18
 -1      1501 9.09033E-05-2.72476E-05-2.72868E-05-4.47991E-07 8.41433E-19 3.52907E-18
 -1      1502 9.07725E-05-2.72364E-05-2.72210E-05-3.53072E-07 2.91609E-19 4.61911E-18
 -1      1503 9.03841E-05-2.71058E-05-2.71070E-05-3.38784E-07 2.33405E-19 5.09979E-18
 -1      1504 9.12123E-05-2.73603E-05-2.73701E-05-5.94040E-07 5.16086E-19 2.89364E-18
 -1      1505 9.14212E-05-2.74327E-05-2.74166E-05-3.50164E-07 2.45724E-19 3.96197E-18
 -1      1506 9.10301E-05-2.73070E-05-2.73015E-05-3.44093E-07 2.04321E-19 4.29679E-18
 -1      1507 9.16664E-05-2.75073E-05-2.75005E-05-6.42316E-07 4.40106E-19 2.36662E-18
 -1      1508 9.20672E-05-2.76267E-05-2.76116E-05-3.32104E-07 3.49590E-19 3.14916E-18
 -1      1509 9.16942E-05-2.75102E-05-2.75014E-05-3.30631E-07 2.80641E-19 3.60409E-18
 -1      1510 9.21812E-05-2.76666E-05-2.76518E-05-6.37845E-07 5.82438E-19 1.72721E-18
 -1      1511 9.26869E-05-2.78117E-05-2.77990E-05-3.09693E-07 2.28092E-19 2.59123E-18
 -1      1512 9.23396E-05-2.77052E-05-2.76960E-05-3.10234E-07 3.91950E-19 2.89154E-18
 -1      1513 9.27113E-05-2.78266E-05-2.78097E-05-6.09206E-07 6.62717E-19 1.15592E-18
 -1      1514 9.32763E-05-2.79867E-05-2.79777E-05-2.90654E-07 3.92169E-19 1.75664E-18
 -1      1515 9.29534E-05-2.78887E-05-2.78814E-05-2.91248E-07 2.91650E-19 2.21628E-18
 -1      1516 9.32361E-05-2.79822E-05-2.79676E-05-5.75889E-07 5.91864E-19 9.47889E-19
 -1      1517 9.38463E-05-2.81552E-05-2.81508E-05-2.80870E-07 3.18647E-19 9.58012E-19
 -1      1518 9.35392E-05-2.80624E-05-2.80588E-05-2.79922E-07 2.46303E-19 1.25602E-18
 -1      1519 9.37530E-05-2.81333E-05-2.81244E-05-5.52056E-07 5.90576E-19 4.75340E-19
 -1      1520 9.44187E-05-2.83238E-05-2.83249E-05-2.85172E-07 1.30160E-19 6.50855E-19
 -1      1521 9.41138E-05-2.82312E-05-2.82332E-05-2.81277E-07 1.42841E-19 7.31714E-19
 -1      1522 9.42723E-05-2.82834E-05-2.82830E-05-5.48708E-07 4.34603E-19-2.73737E-19
 -1      1523 9.50253E-05-2.85020E-05-2.85095E-05-3.07860E-07 1.93427E-19 1.51431E-19
 -1      1524 9.47038E-05-2.84035E-05-2.84125E-05-2.99672E-07 2.79919E-19 4.81712E-19
 -1      1525 9.48150E-05-2.84390E-05-2.84496E-05-5.75052E-07 4.87604E-19-7.55644E-19
 -1      1526 9.57062E-05-2.87018E-05-2.87167E-05-3.53020E-07 3.76735E-19-2.46491E-19
 -1      1527 9.53452E-05-2.85899E-05-2.86076E-05-3.39166E-07 2.81882E-19 1.46700E-19
 -1      1528 9.54102E-05-2.86090E-05-2.86329E-05-6.39377E-07 4.38261E-19-6.54118E-19
 -1      1529 9.65098E-05-2.89378E-05-2.89610E-05-4.24650E-07-4.50404E-19-5.31455E-19
 -1      1530 9.60816E-05-2.88036E-05-2.88317E-05-4.03680E-07-7.72628E-20-5.87684E-19
 -1      1531 9.60952E-05-2.88044E-05-2.88442E-05-7.49520E-07 1.36687E-19-8.85628E-19
 -1      1532 9.74919E-05-2.92268E-05-2.92593E-05-5.26512E-07 4.05921E-19-2.81787E-19
 -1      1533 9.69649E-05-2.90600E-05-2.91004E-05-4.96915E-07 1.12026E-19-3.59949E-19
 -1      1534 9.69137E-05-2.90385E-05-2.90966E-05-9.12881E-07-1.45206E-19-1.71899E-18
 -1      1535 9.87144E-05-2.95875E-05-2.96299E-05-6.61545E-07 1.39863E-19-1.20580E-18
 -1      1536 9.80532E-05-2.93768E-05-2.94310E-05-6.21876E-07 3.38002E-19-6.94698E-19
 -1      1537 9.79149E-05-2.93262E-05-2.94047E-05-1.13578E-06 5.56481E-19-1.47105E-18
 -1      1538 1.00242E-04-3.00400E-05-3.00923E-05-8.30585E-07-1.12735E-19-8.25851E-19
 -1      1539 9.94096E-05-2.97733E-05-2.98425E-05-7.79793E-07-7.51072E-20-1.00757E-18
 -1      1540 9.91515E-05-2.96840E-05-2.97841E-05-1.42177E-06 6.28310E-20-1.36340E-18
 -1      1541 1.02136E-04-3.06035E-05-3.06637E-05-1.02993E-06-2.09201E-19-2.29903E-19
 -1      1542 1.01097E-04-3.02697E-05-3.03531E-05-9.68034E-07-3.09223E-19-6.91305E-19
 -1      1543 1.00675E-04-3.01288E-05-3.02494E-05-1.76829E-06-3.88561E-19-6.19031E-19
 -1      1544 1.04438E-04-3.12930E-05-3.13556E-05-1.24710E-06 4.80018E-19-5.44384E-19
 -1      1545 1.03167E-04-3.08841E-05-3.09776E-05-1.17645E-06 2.51226E-19-1.55397E-19
 -1      1546 1.02527E-04-3.06763E-05-3.08112E-05-2.16074E-06 6.05612E-20-8.64414E-19
 -1      1547 1.07147E-04-3.21123E-05-3.21653E-05-1.45413E-06 4.76737E-19-1.92347E-18
 -1      1548 1.05645E-04-3.16286E-05-3.17214E-05-1.38156E-06 7.50572E-19-4.83629E-19
 -1      1549 1.04724E-04-3.13372E-05-3.14714E-05-2.56267E-06 8.96313E-19-9.40428E-19
 -1      1550 1.10183E-04-3.30429E-05-3.30638E-05-1.59811E-06-1.09096E-19-2.13804E-18
 -1      1551 1.08498E-04-3.25011E-05-3.25711E-05-1.53815E-06-1.01750E-19-2.13348E-18
 -1      1552 1.07238E-04-3.21122E-05-3.22152E-05-2.90146E-06 2.41256E-19-1.66603E-18
 -1      1553 1.13325E-04-3.40264E-05-3.39788E-05-1.59104E-06-3.12290E-19-1.36526E-18
 -1      1554 1.11591E-04-3.34717E-05-3.34800E-05-1.56985E-06-3.79592E-19-1.77240E-18
 -1      1555 1.09956E-04-3.29815E-05-3.30002E-05-3.05080E-06-4.23239E-19-1.74407E-18
 -1      1556 1.16147E-04-3.49422E-05-3.47759E-05-1.30637E-06-5.12612E-19 2.25417E-19
 -1      1557 1.14623E-04-3.44632E-05-3.43512E-05-1.36415E-06-2.06775E-19-9.62309E-20
 -1      1558 1.12641E-04-3.38904E-05-3.37442E-05-2.81783E-06-8.37702E-19-5.11125E-19
 -1      1559 1.17974E-04-3.55854E-05-3.52525E-05-5.99590E-07-8.86281E-19 1.68164E-18
 -1      1560 1.17074E-04-3.53252E-05-3.50231E-05-7.86050E-07-7.60563E-19 5.09153E-19
 -1      1561 1.14886E-04-3.47274E-05-3.43179E-05-1.95616E-06-9.96131E-19 4.83748E-19
 -1      1562 1.17927E-04-3.56664E-05-3.51636E-05 6.18997E-07-2.33450E-19 2.25976E-18
 -1      1563 1.18185E-04-3.58128E-05-3.52756E-05 2.66347E-07-5.19357E-19 1.43281E-18
 -1      1564 1.16108E-04-3.53009E-05-3.45555E-05-2.44068E-07-6.92198E-19-2.07000E-19
 -1      1565 1.15179E-04-3.48732E-05-3.43119E-05 2.23438E-06 2.83696E-19 1.82615E-18
 -1      1566 1.17081E-04-3.55991E-05-3.48802E-05 1.73911E-06-1.96935E-20 1.94452E-18
 -1      1567 1.15626E-04-3.53304E-05-3.42993E-05 2.32453E-06-5.22116E-20 1.23012E-18
 -1      1568 1.09501E-04-3.30538E-05-3.26971E-05 3.76092E-06 2.93328E-19 9.51747E-19
 -1      1569 1.13138E-04-3.43856E-05-3.37127E-05 3.26247E-06 3.29350E-19 1.50735E-18
 -1      1570 1.12928E-04-3.45147E-05-3.34867E-05 5.24728E-06 4.35176E-19 9.61065E-19
 -1      1571 1.01918E-04-3.04879E-05-3.06551E-05 4.37129E-06-3.31467E-19 4.94403E-19
 -1      1572 1.06593E-04-3.21518E-05-3.19008E-05 4.11877E-06 1.93931E-19 5.71641E-19
 -1      1573 1.08136E-04-3.27348E-05-3.22451E-05 7.35729E-06 3.71702E-19 6.67780E-19
 -1      1574 9.49202E-05-2.80370E-05-2.88434E-05 3.32846E-06-4.05120E-20 1.83520E-18
 -1      1575 9.90742E-05-2.94309E-05-2.99107E-05 3.54817E-06-4.07052E-19 8.27975E-19
 -1      1576 1.02458E-04-3.03625E-05-3.09272E-05 7.18168E-06-4.09130E-19 1.09741E-18
 -1      1577 9.15441E-05-2.68476E-05-2.79783E-05 7.24598E-07 1.22992E-19 1.63761E-18
 -1      1578 9.33760E-05-2.73088E-05-2.84375E-05 1.39881E-06-4.21134E-20 1.54827E-18
 -1      1579 9.80830E-05-2.83624E-05-3.00009E-05 4.01246E-06-3.15057E-19 9.84782E-19
 -1      1580 9.34448E-05-2.75554E-05-2.84356E-05-2.24201E-06 7.46289E-19 4.13087E-19
 -1      1581 9.20713E-05-2.68373E-05-2.80851E-05-1.44265E-06 6.25481E-19 9.05531E-19
 -1      1582 9.71005E-05-2.78495E-05-2.98336E-05-1.07199E-06 6.85991E-19-5.53483E-20
 -1      1583 9.96744E-05-2.97769E-05-2.99984E-05-4.09912E-06-1.04279E-18 8.05211E-20
 -1      1584 9.57681E-05-2.82444E-05-2.90017E-05-3.56612E-06 2.54653E-19 5.24260E-19
 -1      1585 9.99983E-05-2.91347E-05-3.04797E-05-5.60168E-06 3.87888E-19-4.22828E-19
 -1      1586 1.07367E-04-3.24046E-05-3.20289E-05-4.18758E-06 7.80261E-19-1.61222E-18
 -1      1587 1.02673E-04-3.07639E-05-3.07919E-05-4.09173E-06 4.06887E-19-8.21304E-19
 -1      1588 1.05300E-04-3.14895E-05-3.16709E-05-7.53242E-06 7.16573E-19-1.23558E-18
 -1      1589 1.13698E-04-3.44473E-05-3.38081E-05-2.94898E-06 3.39025E-19-5.24303E-18
 -1      1590 1.09883E-04-3.32554E-05-3.27592E-05-3.18503E-06 8.13449E-19-3.88958E-18
 -1      1591 1.10663E-04-3.37082E-05-3.29650E-05-6.59426E-06 2.03910E-18-4.10022E-18
 -1      1592 1.17192E-04-3.54737E-05-3.48841E-05-1.26609E-06-3.39111E-19-4.45212E-18
 -1      1593 1.15094E-04-3.49293E-05-3.42704E-05-1.62422E-06-5.17372E-19-4.74672E-18
 -1      1594 1.14337E-04-3.50371E-05-3.39486E-05-3.96238E-06-3.65164E-19-3.92669E-18
 -1      1595 1.17802E-04-3.55574E-05-3.51605E-05 1.82720E-07-3.72324E-19-3.82850E-18
 -1      1596 1.17414E-04-3.55729E-05-3.50152E-05-1.38370E-07-5.69100E-22-3.86251E-18
 -1      1597 1.15720E-04-3.53626E-05-3.44015E-05-1.07337E-06-3.85890E-19-2.57571E-18
 -1      1598 1.16257E-04-3.49896E-05-3.47908E-05 1.13490E-06 3.50212E-19-2.98926E-18
 -1      1599 1.17120E-04-3.53691E-05-3.50090E-05 9.13657E-07-2.16596E-19-3.49436E-18
 -1      1600 1.15093E-04-3.49562E-05-3.43157E-05 1.18576E-06-4.73663E-19-8.53435E-19
 -1      1601 1.13452E-04-3.40707E-05-3.40160E-05 1.61133E-06-7.02005E-19-2.63898E-18
 -1      1602 1.15027E-04-3.46291E-05-3.44528E-05 1.48914E-06 4.59046E-19-2.82479E-18
 -1      1603 1.13098E-04-3.41442E-05-3.38190E-05 2.56255E-06 4.16317E-19-3.22455E-19
 -1      1604 1.10126E-04-3.30265E-05-3.30555E-05 1.74373E-06 5.96515E-19-1.95319E-18
 -1      1605 1.11979E-04-3.36332E-05-3.35858E-05 1.69481E-06-6.12208E-19-1.94964E-18
 -1      1606 1.10382E-04-3.31745E-05-3.30782E-05 3.17510E-06-4.82084E-19-9.03950E-19
 -1      1607 1.06775E-04-3.19982E-05-3.20662E-05 1.66913E-06 2.57388E-19-2.46419E-18
 -1      1608 1.08624E-04-3.25772E-05-3.26044E-05 1.66574E-06 7.04881E-19-1.16451E-18
 -1      1609 1.07439E-04-3.21994E-05-3.22400E-05 3.26146E-06 2.48884E-19-1.27125E-18
 -1      1610 1.03682E-04-3.10614E-05-3.11427E-05 1.48856E-06 3.59471E-19-2.06789E-18
 -1      1611 1.05372E-04-3.15758E-05-3.16391E-05 1.51010E-06 3.87286E-20-2.27002E-18
 -1      1612 1.04591E-04-3.12989E-05-3.14083E-05 3.04090E-06 5.48910E-19-5.49248E-22
 -1      1613 1.00989E-04-3.02508E-05-3.03345E-05 1.26138E-06 6.59610E-20-3.62547E-18
 -1      1614 1.02447E-04-3.06860E-05-3.07645E-05 1.29593E-06 7.38017E-19-2.60242E-18
 -1      1615 1.02018E-04-3.05083E-05-3.06467E-05 2.66573E-06 8.87080E-19-1.36817E-18
 -1      1616 9.87629E-05-2.95807E-05-2.96668E-05 1.01257E-06 1.21235E-18-4.66635E-18
 -1      1617 9.99566E-05-2.99311E-05-3.00182E-05 1.05584E-06 6.27248E-19-4.00489E-18
 -1      1618 9.98115E-05-2.98392E-05-2.99905E-05 2.21947E-06 1.06979E-18-2.86519E-18
 -1      1619 9.70463E-05-2.90602E-05-2.91555E-05 7.42462E-07-5.76912E-19-5.20539E-18
 -1      1620 9.79509E-05-2.93199E-05-2.94198E-05 7.96423E-07-4.54503E-20-5.76353E-18
 -1      1621 9.80172E-05-2.92936E-05-2.94591E-05 1.73114E-06 9.41040E-19-3.02048E-18
 -1      1622 9.58877E-05-2.87044E-05-2.88111E-05 4.34302E-07 1.45602E-19-5.04552E-18
 -1      1623 9.64669E-05-2.88594E-05-2.89816E-05 5.08376E-07-2.45813E-19-4.91379E-18
 -1      1624 9.66596E-05-2.88703E-05-2.90632E-05 1.19385E-06-4.90009E-19-4.42231E-18
 -1      1625 9.53318E-05-2.85451E-05-2.86185E-05 1.09261E-07 2.75205E-19-5.30962E-18
 -1      1626 9.55447E-05-2.85769E-05-2.87039E-05 1.92561E-07 2.45834E-19-4.60319E-18
 -1      1627 9.57503E-05-2.85845E-05-2.87971E-05 5.93973E-07 2.57088E-19-3.82986E-18
 -1      1628 9.52203E-05-2.85559E-05-2.85561E-05-2.36227E-08-2.83872E-18-2.94542E-18
 -1      1629 9.51873E-05-2.80945E-05-2.87642E-05 3.48086E-07-2.56772E-18 1.29013E-18
 -1      1630 9.52633E-05-2.83519E-05-2.86716E-05 2.63282E-07-4.26501E-18 1.50152E-18
 -1      1631 9.48641E-05-2.71207E-05-2.90398E-05 6.58794E-07 6.19165E-19 6.81200E-19
 -1      1632 9.50535E-05-2.76844E-05-2.88793E-05 6.03988E-07-1.65059E-18 1.45061E-18
 -1      1633 9.51545E-05-2.77199E-05-2.89134E-05 9.38029E-07-4.19224E-19 2.81638E-18
 -1      1634 9.44332E-05-2.58244E-05-2.94062E-05 8.37407E-07 1.22249E-18 1.41197E-18
 -1      1635 9.46831E-05-2.65739E-05-2.91945E-05 8.13689E-07 4.29962E-19 9.37611E-19
 -1      1636 9.47875E-05-2.67491E-05-2.91703E-05 1.43005E-06-7.41973E-20 8.81842E-19
 -1      1637 9.39730E-05-2.44209E-05-2.98077E-05 8.65323E-07-8.28008E-19-1.94353E-18
 -1      1638 9.42347E-05-2.52148E-05-2.95818E-05 8.71999E-07 2.35952E-19 1.29143E-18
 -1      1639 9.43649E-05-2.55852E-05-2.94791E-05 1.65415E-06-5.55429E-19 5.27003E-19
 -1      1640 9.35609E-05-2.31496E-05-3.01748E-05 7.59434E-07-5.46864E-18-2.89833E-18
 -1      1641 9.37893E-05-2.38484E-05-2.99748E-05 7.90096E-07-1.24507E-18-3.80515E-18
 -1      1642 9.39431E-05-2.43997E-05-2.97977E-05 1.60018E-06-2.13893E-18-5.07165E-18
 -1      1643 9.32393E-05-2.21514E-05-3.04645E-05 5.43720E-07-4.81153E-18 3.71149E-19
 -1      1644 9.34097E-05-2.26744E-05-3.03144E-05 5.93624E-07-5.27485E-18-7.89547E-19
 -1      1645 9.35775E-05-2.33527E-05-3.00828E-05 1.30785E-06-2.35093E-18-2.87884E-18
 -1      1646 9.30591E-05-2.15872E-05-3.06292E-05 2.55341E-07-2.87876E-18 4.93840E-19
 -1      1647 9.31445E-05-2.18506E-05-3.05534E-05 3.16096E-07-3.78648E-18 6.73438E-19
 -1      1648 9.33102E-05-2.25795E-05-3.02949E-05 8.31166E-07-2.78029E-18 1.17849E-18
 -1      1649 9.30416E-05-2.15277E-05-3.06476E-05-6.38392E-08 9.35485E-19 1.70642E-18
 -1      1650 9.30318E-05-2.14990E-05-3.06557E-05-6.00168E-10-1.72627E-18 2.95011E-18
 -1      1651 9.31781E-05-2.21926E-05-3.04019E-05 2.46175E-07-8.31944E-19 2.91756E-18
 -1      1652 9.31870E-05-2.19750E-05-3.05186E-05-3.70660E-07 7.08067E-21-4.92440E-19
 -1      1653 9.30846E-05-2.16615E-05-3.06085E-05-3.13259E-07 1.40844E-18 2.75600E-19
 -1      1654 9.31959E-05-2.22393E-05-3.03900E-05-3.64890E-07 3.32975E-19 1.62292E-18
 -1      1655 9.34739E-05-2.28638E-05-3.02612E-05-6.24884E-07-1.32168E-18-1.55733E-18
 -1      1656 9.32941E-05-2.23109E-05-3.04199E-05-5.80798E-07 3.40352E-19-1.18234E-18
 -1      1657 9.33589E-05-2.27087E-05-3.02619E-05-9.20425E-07-4.31223E-19-1.25522E-18
 -1      1658 9.38566E-05-2.40481E-05-2.99183E-05-7.90654E-07-1.86007E-18 1.42899E-18
 -1      1659 9.36274E-05-2.33458E-05-3.01196E-05-7.66131E-07-1.33250E-18-6.57929E-19
 -1      1660 9.36431E-05-2.35265E-05-3.00383E-05-1.34479E-06 3.17695E-19-1.52501E-18
 -1      1661 9.42962E-05-2.54015E-05-2.95281E-05-8.47449E-07 1.13631E-18 1.08780E-18
 -1      1662 9.40421E-05-2.46276E-05-2.97489E-05-8.45758E-07-1.24647E-18 2.00869E-18
 -1      1663 9.40111E-05-2.45858E-05-2.97490E-05-1.58333E-06 8.72373E-19 2.89957E-18
 -1      1664 9.47228E-05-2.67053E-05-2.91551E-05-7.75034E-07-2.05677E-19-1.48317E-18
 -1      1665 9.44863E-05-2.59908E-05-2.93574E-05-7.99087E-07 1.07850E-18 6.86825E-20
 -1      1666 9.44234E-05-2.57565E-05-2.94320E-05-1.59471E-06 9.63495E-19-2.16235E-19
 -1      1667 9.50713E-05-2.77410E-05-2.88574E-05-5.68362E-07-8.72644E-19 3.57640E-19
 -1      1668 9.48887E-05-2.72179E-05-2.90081E-05-6.21538E-07-4.30650E-19-6.27905E-19
 -1      1669 9.48213E-05-2.68676E-05-2.91338E-05-1.35176E-06 5.21864E-19-1.99446E-18
 -1      1670 9.52856E-05-2.82795E-05-2.87083E-05-3.84434E-07-7.29481E-19-4.16416E-19
 -1      1671 9.52087E-05-2.80291E-05-2.87967E-05-4.98824E-07-8.95522E-20-7.47923E-19
 -1      1672 9.51931E-05-2.76843E-05-2.89412E-05-1.05791E-06 5.67446E-19 3.62317E-19
 -1      1673 9.55325E-05-2.82433E-05-2.88353E-05-7.73708E-07-3.17485E-19-1.70375E-18
 -1      1674 1.94558E-05-6.32774E-05 1.32334E-05-5.58921E-06 4.70696E-18 3.08278E-18
 -1      1675 2.30216E-05-7.38261E-05 1.54783E-05 1.92367E-06 7.25907E-19 2.39626E-18
 -1      1676 2.12850E-05-3.62079E-05 2.64385E-06 6.42900E-06 7.84437E-18 6.06423E-18
 -1      1677 2.48197E-05-5.85774E-05 8.89318E-06 1.54975E-06 5.34139E-18 2.93984E-18
 -1      1678 3.93261E-05-1.16521E-05-1.34408E-05 3.14000E-05 9.28263E-18 6.85419E-18
 -1      1679 3.20191E-05-3.12700E-05-4.52024E-06 1.32469E-05 9.01497E-18 5.93940E-18
 -1      1680 7.83778E-05-1.81389E-06-3.18741E-05 6.08126E-05 8.72783E-18 9.31906E-18
 -1      1681 5.33582E-05-6.38436E-06-2.22565E-05 3.87944E-05 9.49947E-18 8.00616E-18
 -1      1682 1.41363E-04-1.66589E-05-4.99540E-05 7.75212E-05 6.44169E-18 8.61517E-18
 -1      1683 1.01036E-04-4.31281E-06-4.08787E-05 6.57187E-05 7.77576E-18 9.05648E-18
 -1      1684 2.07976E-04-4.36208E-05-6.48550E-05 6.42393E-05 3.57099E-18 5.11100E-18
 -1      1685 1.65593E-04-2.33514E-05-5.76935E-05 7.29642E-05 6.06603E-18 7.91552E-18
 -1      1686 2.50734E-04-6.32809E-05-7.36247E-05 2.64003E-05 3.24181E-18-1.95495E-18
 -1      1687 2.26296E-04-4.95748E-05-7.01469E-05 5.47510E-05 4.18397E-18 3.27886E-18
 -1      1688 2.46531E-04-5.98695E-05-7.38163E-05-2.48650E-05 3.95014E-18-9.20640E-18
 -1      1689 2.51757E-04-6.28009E-05-7.45614E-05 9.87414E-06 3.02052E-18-4.29319E-18
 -1      1690 2.08628E-04-4.12112E-05-6.67618E-05-6.47825E-05 8.75604E-18-1.60072E-17
 -1      1691 2.40620E-04-5.85814E-05-7.15367E-05-4.17067E-05 5.63065E-18-1.04520E-17
 -1      1692 1.46044E-04-1.60001E-05-5.31858E-05-7.46335E-05 1.41916E-17-2.07218E-17
 -1      1693 1.88540E-04-3.46988E-05-6.07758E-05-7.29880E-05 1.04922E-17-1.77953E-17
 -1      1694 8.77568E-05-6.11718E-06-3.52857E-05-5.63357E-05 1.57294E-17-1.89159E-17
 -1      1695 1.24216E-04-1.35374E-05-4.47722E-05-7.20787E-05 1.42556E-17-2.12656E-17
 -1      1696 4.53584E-05-1.28827E-05-1.67972E-05-3.00416E-05 1.40209E-17-1.48290E-17
 -1      1697 6.49255E-05-3.79138E-06-2.62058E-05-5.18318E-05 1.62385E-17-1.89049E-17
 -1      1698 2.73815E-05-3.75754E-05-5.31290E-07-7.08851E-06 9.96280E-18-7.84247E-18
 -1      1699 3.05251E-05-1.65811E-05-8.45873E-06-2.19630E-05 1.29859E-17-1.24260E-17
 -1      1700 2.38519E-05-6.39130E-05 1.10717E-05 1.17335E-06 5.10126E-18-3.43747E-18
 -1      1701 1.89769E-05-4.31857E-05 5.83133E-06-1.60121E-07 8.43645E-18-4.82682E-18
 -1      1702 2.25992E-05-7.39225E-05 1.58095E-05-2.59872E-06-3.55166E-18-3.75977E-18
 -1      1703 2.03969E-05-6.74997E-05 1.42910E-05 6.25237E-06 2.33527E-18-3.34663E-18
 -1      1704 1.91721E-05-5.86989E-05 1.19274E-05-2.86819E-06-1.35432E-17-8.12029E-18
 -1      1705 2.24645E-05-6.99980E-05 1.46470E-05 3.02963E-06-6.22590E-18-5.38967E-18
 -1      1706 1.93148E-05-3.37819E-05 2.11003E-06 4.31535E-06-2.28055E-17-1.40139E-17
 -1      1707 2.36054E-05-5.67027E-05 8.36435E-06-2.71930E-07-1.76191E-17-9.19978E-18
 -1      1708 3.83199E-05-9.32518E-06-1.40716E-05 3.21926E-05-2.36847E-17-1.81104E-17
 -1      1709 3.06112E-05-2.83370E-05-5.26561E-06 1.34157E-05-2.31409E-17-1.50276E-17
 -1      1710 8.17647E-05-3.09984E-06-3.26422E-05 6.18532E-05-1.97325E-17-1.98096E-17
 -1      1711 5.58268E-05-6.78565E-06-2.29826E-05 4.01253E-05-2.24599E-17-1.86805E-17
 -1      1712 1.47475E-04-1.91516E-05-5.12812E-05 7.66250E-05-1.31866E-17-1.56235E-17
 -1      1713 1.04725E-04-5.45048E-06-4.18622E-05 6.57917E-05-1.82087E-17-1.90574E-17
 -1      1714 2.12607E-04-4.57686E-05-6.58393E-05 6.08184E-05-6.58536E-18-8.32295E-18
 -1      1715 1.71188E-04-2.54615E-05-5.90787E-05 7.21072E-05-1.01835E-17-1.39007E-17
 -1      1716 2.50437E-04-6.34663E-05-7.36046E-05 2.10909E-05-3.23672E-18-1.53927E-18
 -1      1717 2.29420E-04-5.15467E-05-7.06498E-05 5.03376E-05-4.91300E-18-6.27397E-18
 -1      1718 2.42294E-04-5.81072E-05-7.30386E-05-2.84443E-05-3.91329E-18 5.87714E-18
 -1      1719 2.49874E-04-6.24068E-05-7.41122E-05 4.89104E-06-3.41291E-18 1.52823E-18
 -1      1720 2.04759E-04-3.95060E-05-6.60065E-05-6.58968E-05-4.81454E-18 1.04295E-17
 -1      1721 2.35664E-04-5.64289E-05-7.06373E-05-4.46853E-05-3.17637E-18 8.19208E-18
 -1      1722 1.43898E-04-1.48896E-05-5.27210E-05-7.52570E-05-9.31440E-18 1.30723E-17
 -1      1723 1.85349E-04-3.32924E-05-6.01867E-05-7.37469E-05-6.62634E-18 1.14781E-17
 -1      1724 8.56916E-05-1.98960E-06-3.59440E-05-6.00764E-05-1.46969E-17 1.46054E-17
 -1      1725 1.20852E-04-9.60965E-06-4.48284E-05-7.53257E-05-1.17314E-17 1.32722E-17
 -1      1726 4.69648E-05-1.12537E-05-1.78167E-05-3.24117E-05-1.65121E-17 1.37651E-17
 -1      1727 6.67288E-05-2.46961E-06-2.71629E-05-5.39635E-05-1.56998E-17 1.41556E-17
 -1      1728 3.04071E-05-3.65276E-05-1.76341E-06-1.11013E-05-1.11097E-17 9.27501E-18
 -1      1729 3.46733E-05-1.68271E-05-9.69365E-06-2.60624E-05-1.43614E-17 1.31049E-17
 -1      1730 2.38049E-05-6.20238E-05 1.03158E-05 5.79392E-07-5.90213E-18 4.90162E-18
 -1      1731 1.91634E-05-4.09638E-05 4.95372E-06-1.91725E-06-1.08217E-17 8.97982E-18
 -1      1732 2.36547E-05-7.63302E-05 1.59658E-05-2.11491E-06-1.22936E-18 2.13156E-18
 -1      1733 2.06731E-05-6.75800E-05 1.40398E-05 6.34527E-06-4.59769E-18 2.47122E-18
 -1      1734 1.15834E-04-3.00682E-05-3.58092E-05 4.63004E-05 4.89289E-18 4.40796E-18
 -1      1735 7.62288E-05-3.53745E-05-1.87569E-05 3.98121E-05 5.16351E-18 4.64471E-18
 -1      1736 9.53151E-05-2.85243E-05-2.86268E-05 9.80275E-08-3.68925E-18-2.37930E-18
 -1      1737 9.53782E-05-2.82958E-05-2.87514E-05 4.49081E-07-1.18913E-18-1.69388E-19
 -1      1738 1.98664E-05-4.50628E-05 7.12243E-06 1.68880E-05 1.43149E-18 3.58316E-18
 -1      1739 4.40364E-05-4.16557E-05-3.67825E-06 3.07923E-05 3.11454E-18 4.51095E-18
 -1      1740 1.16320E-05-4.96534E-05 1.17398E-05 5.49038E-07-8.59897E-19 4.83275E-18
 -1      1741 1.59351E-04-3.13441E-05-5.18002E-05 4.23389E-05 4.58859E-18 3.06711E-18
 -1      1742 1.94460E-04-3.39346E-05-6.41152E-05 2.84511E-05 4.67499E-18 4.12082E-19
 -1      1743 2.10410E-04-3.42445E-05-7.00782E-05 8.39923E-06 5.41339E-18-3.84193E-18
 -1      1744 2.06555E-04-3.36222E-05-6.88126E-05-1.50360E-05 6.54672E-18-6.25915E-18
 -1      1745 1.85744E-04-3.34029E-05-6.09259E-05-3.52373E-05 9.74940E-18-9.29026E-18
 -1      1746 1.47579E-04-3.24351E-05-4.71256E-05-4.22478E-05 1.02758E-17-1.25225E-17
 -1      1747 1.06433E-04-3.39115E-05-3.06963E-05-4.32740E-05 8.88538E-18-1.40866E-17
 -1      1748 6.58639E-05-3.67119E-05-1.41232E-05-3.72695E-05 7.43864E-18-1.26513E-17
 -1      1749 3.53503E-05-4.24215E-05-1.75977E-07-2.57934E-05 5.18977E-18-7.95030E-18
 -1      1750 1.69087E-05-4.76887E-05 8.94402E-06-1.19307E-05 8.02987E-19-5.60651E-18
 -1      1751 1.10608E-05-4.56837E-05 1.08509E-05 3.41804E-06-4.03511E-18-8.57536E-18
 -1      1752 2.01462E-05-4.41822E-05 6.52627E-06 1.67461E-05-8.82439E-18-1.11279E-17
 -1      1753 4.24366E-05-3.96504E-05-3.98193E-06 2.93341E-05-1.33780E-17-1.22631E-17
 -1      1754 7.73544E-05-3.40910E-05-1.94326E-05 4.06337E-05-1.43945E-17-1.18364E-17
 -1      1755 1.19513E-04-3.12493E-05-3.66523E-05 4.50811E-05-1.37630E-17-1.03499E-17
 -1      1756 1.61870E-04-3.10922E-05-5.28266E-05 3.99534E-05-1.15481E-17-6.80337E-18
 -1      1757 1.95752E-04-3.33809E-05-6.47814E-05 2.67705E-05-8.41570E-18-4.80945E-18
 -1      1758 2.09071E-04-3.35916E-05-6.98617E-05 6.37958E-06-6.74026E-18-6.72650E-19
 -1      1759 2.03502E-04-3.27073E-05-6.80757E-05-1.67361E-05-4.96870E-18 3.38940E-18
 -1      1760 1.82861E-04-3.23027E-05-6.02453E-05-3.67906E-05-5.34398E-18 5.44642E-18
 -1      1761 1.45246E-04-2.94055E-05-4.71819E-05-4.61429E-05-8.63931E-18 7.24467E-18
 -1      1762 1.04661E-04-3.08828E-05-3.12669E-05-4.51728E-05-1.06370E-17 8.22977E-18
 -1      1763 6.93245E-05-3.73047E-05-1.51902E-05-3.88687E-05-7.48354E-18 1.00846E-17
 -1      1764 3.87020E-05-4.19256E-05-1.34793E-06-2.91943E-05-5.33546E-18 9.98207E-18
 -1      1765 1.80907E-05-4.81557E-05 8.64307E-06-1.38550E-05-4.91533E-18 5.62282E-18
 -1      1766 1.06004E-04-2.31576E-05-3.55888E-05-1.68593E-05-2.95523E-18 1.07694E-17
 -1      1767 8.91198E-05-1.05585E-05-3.37925E-05-1.33538E-05-3.58511E-18-4.47038E-18
 -1      1768 9.04397E-05-1.16248E-05-3.39298E-05-1.51271E-05-4.15118E-18-3.29401E-18
 -1      1769 9.24682E-05-1.38679E-05-3.38456E-05-1.60151E-05-4.18046E-18-1.73486E-18
 -1      1770 9.41738E-05-1.58157E-05-3.40866E-05-1.76747E-05-4.54990E-18 4.29499E-19
 -1      1771 9.34222E-05-1.63605E-05-3.30374E-05-1.37637E-05-4.34746E-18-2.25088E-18
 -1      1772 8.62305E-05-7.67765E-06-3.37370E-05-7.87441E-06-1.88235E-18-6.45266E-18
 -1      1773 8.66260E-05-7.97495E-06-3.37684E-05-9.26466E-06-2.33249E-18-6.21947E-18
 -1      1774 8.56244E-05-7.04257E-06-3.37374E-05-5.32819E-06-1.06733E-18-6.70539E-18
 -1      1775 8.58539E-05-7.22054E-06-3.37509E-05-6.63429E-06-1.47251E-18-6.63519E-18
 -1      1776 8.76166E-05-9.87268E-06-3.33517E-05-6.93822E-06-1.85196E-18-6.25588E-18
 -1      1777 8.52960E-05-6.68476E-06-3.37430E-05-2.89324E-06-2.33962E-19-6.61174E-18
 -1      1778 8.54141E-05-6.77912E-06-3.37479E-05-4.13452E-06-6.27744E-19-6.69136E-18
 -1      1779 8.69913E-05-9.16225E-06-3.33879E-05-4.54368E-06-9.46714E-19-6.44527E-18
 -1      1780 8.51681E-05-6.53696E-06-3.37475E-05-5.18462E-07 5.46535E-19-6.49972E-18
 -1      1781 8.52027E-05-6.56538E-06-3.37485E-05-1.72971E-06 2.05181E-19-6.58527E-18
 -1      1782 8.66649E-05-8.78395E-06-3.34099E-05-2.22039E-06-4.72682E-20-6.40138E-18
 -1      1783 8.52126E-05-6.57441E-06-3.37487E-05 1.84764E-06 1.29755E-18-6.26587E-18
 -1      1784 8.51717E-05-6.54154E-06-3.37474E-05 6.35378E-07 9.44829E-19-6.40346E-18
 -1      1785 8.65687E-05-8.67066E-06-3.34171E-05 6.53511E-08 8.05770E-19-6.27221E-18
 -1      1786 8.54393E-05-6.80417E-06-3.37480E-05 4.25697E-06 2.02682E-18-5.93873E-18
 -1      1787 8.53139E-05-6.70376E-06-3.37429E-05 3.01256E-06 1.69787E-18-6.15078E-18
 -1      1788 8.66826E-05-8.80360E-06-3.34092E-05 2.35234E-06 1.58591E-18-6.00523E-18
 -1      1789 8.58883E-05-7.25634E-06-3.37504E-05 6.72138E-06 2.76793E-18-5.39602E-18
 -1      1790 8.56546E-05-7.07468E-06-3.37372E-05 5.43275E-06 2.41647E-18-5.74975E-18
 -1      1791 8.70254E-05-9.19997E-06-3.33862E-05 4.65868E-06 2.35684E-18-5.61736E-18
 -1      1792 8.66900E-05-8.04415E-06-3.37670E-05 9.38569E-06 3.64712E-18-4.33670E-18
 -1      1793 8.62753E-05-7.72853E-06-3.37354E-05 7.96381E-06 3.15043E-18-4.94207E-18
 -1      1794 8.76685E-05-9.93116E-06-3.33486E-05 7.03681E-06 3.20113E-18-4.85396E-18
 -1      1795 8.80878E-05-9.38888E-06-3.38172E-05 1.22664E-05 4.41716E-18-2.85275E-18
 -1      1796 8.73553E-05-8.83241E-06-3.37478E-05 1.06728E-05 3.96369E-18-3.71458E-18
 -1      1797 8.87770E-05-1.11636E-05-3.32937E-05 9.51348E-06 4.04955E-18-3.68768E-18
 -1      1798 9.06146E-05-1.18368E-05-3.39218E-05 1.53152E-05 4.95690E-18-3.84262E-19
 -1      1799 8.92429E-05-1.07394E-05-3.37848E-05 1.35257E-05 4.57792E-18-1.88062E-18
 -1      1800 9.06586E-05-1.32224E-05-3.32056E-05 1.19872E-05 4.78189E-18-2.07239E-18
 -1      1801 9.58409E-05-1.70254E-05-3.39820E-05 1.77016E-05 4.77567E-18 4.25470E-18
 -1      1802 9.28304E-05-1.43368E-05-3.38184E-05 1.62060E-05 4.82328E-18 1.47651E-18
 -1      1803 9.39480E-05-1.68814E-05-3.30173E-05 1.39068E-05 5.06358E-18 6.98643E-19
 -1      1804 1.01878E-04-2.50805E-05-3.33449E-05 1.44316E-05 3.96840E-18 9.88847E-18
 -1      1805 9.80356E-05-1.96053E-05-3.36125E-05 1.69745E-05 4.36595E-18 6.19028E-18
 -1      1806 9.72916E-05-2.18434E-05-3.24162E-05 1.32601E-05 4.86487E-18 4.22002E-18
 -1      1807 9.87026E-05-2.61205E-05-3.13276E-05 9.44473E-06 3.99876E-18 8.62859E-18
 -1      1808 1.00112E-04-1.95522E-05-3.42041E-05-1.88789E-05-3.98169E-18 4.19017E-18
 -1      1809 9.52574E-05-2.72695E-05-2.91693E-05 4.07667E-06 3.29901E-18 6.54191E-18
 -1      1810 9.76907E-05-2.73756E-05-3.01792E-05 6.41050E-06 3.43122E-18 7.78257E-18
 -1      1811 9.75317E-05-2.56014E-05-3.08193E-05 8.77108E-06 4.11441E-18 5.27105E-18
 -1      1812 9.97756E-05-2.25309E-05-3.28236E-05-1.44800E-05-4.21817E-18 2.68224E-18
 -1      1813 9.69119E-05-2.69635E-05-2.98629E-05-5.71543E-06-3.45338E-18 2.18586E-18
 -1      1814 9.51027E-05-2.70193E-05-2.91515E-05-3.90808E-06-3.05437E-18 1.33519E-18
 -1      1815 9.42834E-05-2.72207E-05-2.86440E-05-2.43207E-06-2.70978E-18 1.17273E-18
 -1      1816 9.35094E-05-2.73000E-05-2.83386E-05-1.57841E-06-2.36175E-18 3.11301E-19
 -1      1817 9.54675E-05-2.65342E-05-2.95638E-05-4.48473E-06-3.45650E-18-3.14775E-19
 -1      1818 9.29846E-05-2.73501E-05-2.80701E-05-7.50298E-07-2.03955E-18 7.15379E-20
 -1      1819 9.26818E-05-2.74124E-05-2.79479E-05-3.10798E-07-1.76462E-18-5.44368E-19
 -1      1820 9.42572E-05-2.72081E-05-2.87560E-05-1.83950E-06-2.66535E-18-7.44224E-19
 -1      1821 9.24075E-05-2.74396E-05-2.78125E-05 1.47204E-07-1.47540E-18-6.13378E-19
 -1      1822 9.23763E-05-2.75148E-05-2.77830E-05 3.73741E-07-1.21441E-18-9.33622E-19
 -1      1823 9.35571E-05-2.75124E-05-2.83215E-05-3.68508E-07-1.89792E-18-1.32273E-18
 -1      1824 9.22762E-05-2.75460E-05-2.77263E-05 6.18420E-07-1.12161E-18-9.21712E-19
 -1      1825 9.23940E-05-2.76304E-05-2.77468E-05 7.26897E-07-9.19940E-19-1.32814E-18
 -1      1826 9.32402E-05-2.76954E-05-2.81031E-05 4.42719E-07-1.36554E-18-1.49784E-18
 -1      1827 9.24058E-05-2.76686E-05-2.77376E-05 8.46290E-07-9.51117E-19-1.40778E-18
 -1      1828 9.26009E-05-2.77554E-05-2.77851E-05 8.87531E-07-9.19559E-19-1.66542E-18
 -1      1829 9.31856E-05-2.78365E-05-2.80154E-05 8.69283E-07-1.12444E-18-1.63292E-18
 -1      1830 9.26810E-05-2.77979E-05-2.78046E-05 9.34118E-07-9.58323E-19-1.58453E-18
 -1      1831 9.29116E-05-2.78821E-05-2.78658E-05 9.38467E-07-8.29737E-19-1.79090E-18
 -1      1832 9.32973E-05-2.79586E-05-2.80079E-05 1.06934E-06-1.10441E-18-1.58239E-18
 -1      1833 9.30314E-05-2.79258E-05-2.79024E-05 9.45720E-07-7.37534E-19-1.70457E-18
 -1      1834 9.32745E-05-2.80046E-05-2.79698E-05 9.32865E-07-3.80868E-19-1.86635E-18
 -1      1835 9.35082E-05-2.80674E-05-2.80496E-05 1.14016E-06-7.26230E-19-1.74819E-18
 -1      1836 9.34169E-05-2.80478E-05-2.80165E-05 9.23384E-07-3.69863E-19-2.28420E-18
 -1      1837 9.36619E-05-2.81207E-05-2.80864E-05 9.06903E-07-5.23036E-19-2.58961E-18
 -1      1838 9.37756E-05-2.81643E-05-2.81214E-05 1.14548E-06-9.09456E-19-2.03756E-18
 -1      1839 9.38182E-05-2.81626E-05-2.81396E-05 8.96698E-07-7.47286E-19-2.51405E-18
 -1      1840 9.40630E-05-2.82305E-05-2.82110E-05 8.86456E-07-6.61944E-19-2.80602E-18
 -1      1841 9.40756E-05-2.82507E-05-2.82123E-05 1.12926E-06-7.16644E-19-2.38209E-18
 -1      1842 9.42307E-05-2.82717E-05-2.82695E-05 8.87396E-07-7.48080E-19-2.62799E-18
 -1      1843 9.44795E-05-2.83370E-05-2.83432E-05 8.90933E-07-5.28035E-19-2.93536E-18
 -1      1844 9.43980E-05-2.83286E-05-2.83169E-05 1.12328E-06-7.54303E-19-2.35556E-18
 -1      1845 9.46608E-05-2.83789E-05-2.84075E-05 9.12231E-07-2.00108E-19-3.02976E-18
 -1      1846 9.49227E-05-2.84450E-05-2.84859E-05 9.35604E-07-6.01952E-20-2.81075E-18
 -1      1847 9.47430E-05-2.84014E-05-2.84338E-05 1.15152E-06-4.23251E-19-2.30447E-18
 -1      1848 9.51232E-05-2.84897E-05-2.85575E-05 9.84700E-07-1.91934E-19-2.76412E-18
 -1      1849 9.54112E-05-2.85610E-05-2.86442E-05 1.03295E-06-2.99672E-19-2.71752E-18
 -1      1850 9.51191E-05-2.84737E-05-2.85644E-05 1.23290E-06-1.62453E-19-1.81050E-18
 -1      1851 9.56393E-05-2.86116E-05-2.87257E-05 1.11593E-06-4.22947E-19-2.92699E-18
 -1      1852 9.59692E-05-2.86934E-05-2.88251E-05 1.19320E-06-2.19876E-19-2.76778E-18
 -1      1853 9.55407E-05-2.85515E-05-2.87124E-05 1.38270E-06-4.33179E-19-1.95290E-18
 -1      1854 9.62355E-05-2.87534E-05-2.89196E-05 1.31473E-06-3.77208E-19-2.92767E-18
 -1      1855 9.66255E-05-2.88520E-05-2.90366E-05 1.42402E-06-3.23607E-19-2.89459E-18
 -1      1856 9.60270E-05-2.86422E-05-2.88828E-05 1.61304E-06-3.91964E-19-2.19884E-18
 -1      1857 9.69418E-05-2.89261E-05-2.91475E-05 1.58679E-06-4.14518E-19-2.93833E-18
 -1      1858 9.74110E-05-2.90488E-05-2.92873E-05 1.72914E-06-1.08030E-19-3.13154E-18
 -1      1859 9.66011E-05-2.87554E-05-2.90812E-05 1.93216E-06-4.91449E-19-2.39934E-18
 -1      1860 9.77900E-05-2.91425E-05-2.94176E-05 1.93252E-06 7.46009E-20-3.50107E-18
 -1      1861 9.83569E-05-2.92974E-05-2.95849E-05 2.10554E-06-3.75203E-19-3.76337E-18
 -1      1862 9.72883E-05-2.89032E-05-2.93132E-05 2.34235E-06-3.41370E-19-2.41437E-18
 -1      1863 9.88112E-05-2.94178E-05-2.97369E-05 2.34327E-06-6.40789E-19-3.69653E-18
 -1      1864 9.94907E-05-2.96137E-05-2.99349E-05 2.53867E-06-3.55454E-19-3.59494E-18
 -1      1865 9.81148E-05-2.91017E-05-2.95832E-05 2.83600E-06-5.13116E-19-3.00055E-18
 -1      1866 1.00031E-04-2.97697E-05-3.01089E-05 2.79523E-06 2.15018E-19-3.15225E-18
 -1      1867 1.00830E-04-3.00157E-05-3.03381E-05 2.99503E-06 6.69393E-19-2.98704E-18
 -1      1868 9.91059E-05-2.93724E-05-2.98926E-05 3.38914E-06 2.62795E-21-2.26701E-18
 -1      1869 1.01465E-04-3.02183E-05-3.05314E-05 3.24052E-06 8.09025E-19-3.04348E-18
 -1      1870 1.02376E-04-3.05226E-05-3.07873E-05 3.41201E-06 5.07093E-19-2.82127E-18
 -1      1871 1.00283E-04-2.97434E-05-3.02386E-05 3.95195E-06 7.33609E-19-1.65153E-18
 -1      1872 1.03107E-04-3.07851E-05-3.09932E-05 3.59562E-06 2.99295E-19-2.09333E-18
 -1      1873 1.04099E-04-3.11518E-05-3.12639E-05 3.68559E-06 5.93679E-19-1.55998E-18
 -1      1874 1.01660E-04-3.02512E-05-3.06113E-05 4.43627E-06 7.82139E-19-1.41435E-18
 -1      1875 1.04920E-04-3.14881E-05-3.14702E-05 3.72917E-06 8.27377E-19-1.41918E-18
 -1      1876 1.05924E-04-3.19120E-05-3.17333E-05 3.65988E-06 1.23664E-18-1.05364E-18
 -1      1877 1.03238E-04-3.09380E-05-3.09925E-05 4.70163E-06 9.55173E-19-3.56710E-19
 -1      1878 1.06814E-04-3.23305E-05-3.19222E-05 3.45560E-06 5.94991E-19-1.84275E-18
 -1      1879 1.07716E-04-3.27862E-05-3.21438E-05 3.12837E-06 7.52222E-20-2.02865E-18
 -1      1880 1.04990E-04-3.18409E-05-3.13553E-05 4.54559E-06 6.92367E-19-9.99892E-19
 -1      1881 1.08622E-04-3.32756E-05-3.22941E-05 2.54947E-06-1.65390E-19-2.28796E-18
 -1      1882 1.09253E-04-3.37000E-05-3.24301E-05 1.86649E-06-4.75559E-19-1.95431E-18
 -1      1883 1.06847E-04-3.29630E-05-3.16667E-05 3.71172E-06 2.67494E-20-2.19427E-18
 -1      1884 1.10075E-04-3.42022E-05-3.25225E-05 8.06521E-07-4.73025E-19-2.08801E-18
 -1      1885 1.10222E-04-3.44744E-05-3.25279E-05-2.75315E-07-6.02922E-19-2.56571E-18
 -1      1886 1.08652E-04-3.42147E-05-3.18970E-05 1.94062E-06-4.88341E-19-2.23277E-18
 -1      1887 1.10784E-04-3.48507E-05-3.25541E-05-1.81641E-06-2.98546E-19-1.68720E-18
 -1      1888 1.10238E-04-3.47870E-05-3.24000E-05-3.19526E-06 4.61507E-19-1.36700E-18
 -1      1889 1.10115E-04-3.53283E-05-3.20340E-05-8.99757E-07-9.62375E-20-6.90971E-19
 -1      1890 1.10294E-04-3.48095E-05-3.23713E-05-4.98138E-06 5.00305E-19-1.49497E-18
 -1      1891 1.08953E-04-3.42147E-05-3.20675E-05-6.31682E-06 1.01276E-18-1.14390E-18
 -1      1892 1.10778E-04-3.58014E-05-3.20991E-05-4.58141E-06 4.55611E-19-6.65558E-20
 -1      1893 1.08275E-04-3.36480E-05-3.20148E-05-7.77111E-06 1.08641E-18-1.77960E-18
 -1      1894 1.06289E-04-3.24662E-05-3.16239E-05-8.48359E-06 4.69394E-19-1.59711E-18
 -1      1895 1.10118E-04-3.50023E-05-3.21470E-05-8.24573E-06 3.00736E-19 3.56118E-20
 -1      1896 1.04914E-04-3.12969E-05-3.15822E-05-8.78606E-06-1.48054E-19-2.35499E-18
 -1      1897 1.02791E-04-2.98143E-05-3.12107E-05-8.29008E-06-7.03289E-19-2.22803E-18
 -1      1898 1.07899E-04-3.26025E-05-3.22355E-05-1.03423E-05 2.54569E-19-1.24766E-18
 -1      1899 1.01260E-04-2.84944E-05-3.11960E-05-6.85872E-06-1.10640E-18-2.50248E-18
 -1      1900 9.97681E-05-2.73524E-05-3.09560E-05-5.02817E-06-1.48783E-18-2.19542E-18
 -1      1901 1.04726E-04-2.92138E-05-3.23729E-05-9.21097E-06-9.72172E-19-2.10347E-18
 -1      1902 9.89506E-05-2.66444E-05-3.09545E-05-2.14075E-06-1.21372E-18-1.76394E-18
 -1      1903 9.87284E-05-2.64753E-05-3.09185E-05 3.96983E-07-2.26634E-19-1.96277E-18
 -1      1904 1.02151E-04-2.64856E-05-3.24954E-05-4.40021E-06-7.32631E-19-1.15783E-18
 -1      1905 9.91814E-05-2.68789E-05-3.09123E-05 3.50191E-06 1.22992E-19-2.40054E-18
 -1      1906 1.00326E-04-2.77825E-05-3.10897E-05 5.63109E-06 3.55178E-19-2.24383E-18
 -1      1907 1.01750E-04-2.60772E-05-3.25067E-05 2.39164E-06-3.35624E-19-1.21032E-18
 -1      1908 1.01718E-04-2.89988E-05-3.10906E-05 7.55662E-06-4.37903E-19-2.16215E-18
 -1      1909 1.03711E-04-3.04525E-05-3.14256E-05 8.45301E-06-1.12079E-18-2.18716E-18
 -1      1910 1.03780E-04-2.82590E-05-3.23930E-05 8.03725E-06-4.76178E-19-1.69270E-18
 -1      1911 1.05190E-04-3.17325E-05-3.14512E-05 8.60906E-06-1.12813E-18-2.35992E-18
 -1      1912 1.07248E-04-3.30411E-05-3.18380E-05 8.18423E-06-3.48706E-19-2.69759E-18
 -1      1913 1.06926E-04-3.16519E-05-3.22355E-05 1.02606E-05-1.10637E-18-1.04023E-18
 -1      1914 1.08120E-04-3.37897E-05-3.18802E-05 6.96097E-06-7.28071E-19-3.50840E-18
 -1      1915 1.09637E-04-3.45490E-05-3.22053E-05 5.72567E-06-4.08078E-19-4.24032E-18
 -1      1916 1.09479E-04-3.44454E-05-3.21111E-05 8.91915E-06-1.35087E-18-9.80414E-19
 -1      1917 1.09743E-04-3.46696E-05-3.22336E-05 3.94119E-06 8.61750E-19-4.31437E-18
 -1      1918 1.10465E-04-3.48551E-05-3.24191E-05 2.51047E-06 8.07302E-19-3.28610E-18
 -1      1919 1.10531E-04-3.56909E-05-3.20359E-05 5.48723E-06 5.86689E-19-2.42331E-18
 -1      1920 1.09981E-04-3.45440E-05-3.23975E-05 8.37463E-07 3.35743E-19-3.06982E-18
 -1      1921 1.09953E-04-3.43300E-05-3.24183E-05-3.68985E-07 7.46693E-19-2.25129E-18
 -1      1922 1.10128E-04-3.55062E-05-3.19591E-05 1.64123E-06 1.07902E-18-2.68106E-18
 -1      1923 1.09138E-04-3.38330E-05-3.23294E-05-1.60043E-06 1.73357E-19-1.84411E-18
 -1      1924 1.08551E-04-3.34154E-05-3.22056E-05-2.41925E-06-5.24373E-19-1.72860E-18
 -1      1925 1.08757E-04-3.44934E-05-3.18194E-05-1.54122E-06 6.21074E-19-1.56385E-18
 -1      1926 1.07603E-04-3.28980E-05-3.20533E-05-3.15411E-06-1.04862E-18-2.41396E-18
 -1      1927 1.06675E-04-3.24162E-05-3.18276E-05-3.59542E-06-4.11909E-19-2.39207E-18
 -1      1928 1.06916E-04-3.32161E-05-3.15858E-05-3.67360E-06-1.06200E-18-3.23715E-19
 -1      1929 1.05716E-04-3.19558E-05-3.16297E-05-3.91747E-06-1.64319E-19-2.36724E-18
 -1      1930 1.04633E-04-3.14871E-05-3.13484E-05-4.06738E-06 8.84195E-19-2.31080E-18
 -1      1931 1.04943E-04-3.20052E-05-3.12634E-05-4.80674E-06-3.56830E-19-1.05490E-18
 -1      1932 1.03727E-04-3.11046E-05-3.11274E-05-4.09828E-06 1.67762E-18-2.69559E-18
 -1      1933 1.02622E-04-3.06829E-05-3.08293E-05-4.05345E-06 1.25302E-18-1.86292E-18
 -1      1934 1.03029E-04-3.09901E-05-3.08802E-05-5.17196E-06 9.96675E-19-8.66021E-19
 -1      1935 1.01801E-04-3.03727E-05-3.06063E-05-3.90070E-06 1.25533E-18-1.30180E-18
 -1      1936 1.00764E-04-3.00081E-05-3.03198E-05-3.73768E-06 2.57777E-18-2.67800E-20
 -1      1937 1.01269E-04-3.01839E-05-3.04726E-05-5.02040E-06 1.92821E-18-6.06575E-19
 -1      1938 1.00042E-04-2.97556E-05-3.01113E-05-3.47664E-06 2.25918E-18-2.12892E-19
 -1      1939 9.91256E-05-2.94469E-05-2.98556E-05-3.24340E-06 2.14111E-18-6.73589E-19
 -1      1940 9.97058E-05-2.95508E-05-3.00745E-05-4.55111E-06 2.46323E-18-5.04069E-19
 -1      1941 9.85066E-05-2.92367E-05-2.96735E-05-2.91677E-06 1.19407E-18-1.59267E-18
 -1      1942 9.77424E-05-2.89792E-05-2.94611E-05-2.63500E-06 4.94062E-19-1.96880E-18
 -1      1943 9.83534E-05-2.90430E-05-2.97126E-05-3.89288E-06 1.13070E-18-1.68343E-18
 -1      1944 9.72236E-05-2.87985E-05-2.93120E-05-2.26087E-06 2.92713E-19-1.85544E-18
 -1      1945 9.66325E-05-2.85918E-05-2.91500E-05-1.93416E-06 1.31391E-19-1.78400E-18
 -1      1946 9.72123E-05-2.86185E-05-2.94046E-05-3.11252E-06-1.76977E-19-1.66811E-18
 -1      1947 9.62577E-05-2.84659E-05-2.90425E-05-1.54146E-06 9.98673E-19-1.99795E-18
 -1      1948 9.58423E-05-2.83208E-05-2.89258E-05-1.18808E-06 7.60015E-19-1.68482E-18
 -1      1949 9.56805E-05-2.80927E-05-2.89725E-05-1.40415E-06 4.93668E-19-2.06132E-18
 -1      1950 9.63213E-05-2.82883E-05-2.91663E-05-2.26317E-06 2.78666E-19-1.42722E-18
 -1      1951 9.31537E-05-2.73450E-05-2.81759E-05 1.61467E-06 2.47069E-18 4.85489E-18
 -1      1952 9.43512E-05-2.74513E-05-2.86132E-05 2.68562E-06 2.70047E-18 5.88173E-18
 -1      1953 9.51825E-05-2.70326E-05-2.92125E-05 4.06511E-06 3.35883E-18 3.96152E-18
 -1      1954 9.20985E-05-2.73301E-05-2.77333E-05 3.56628E-07 1.80493E-18 3.57744E-18
 -1      1955 9.25952E-05-2.73633E-05-2.79062E-05 9.05009E-07 2.03654E-18 4.37577E-18
 -1      1956 9.35759E-05-2.73527E-05-2.83883E-05 1.59529E-06 2.55898E-18 2.90338E-18
 -1      1957 9.17219E-05-2.73665E-05-2.75651E-05-2.99779E-07 1.29175E-18 2.63649E-18
 -1      1958 9.18383E-05-2.73406E-05-2.76123E-05-6.24258E-09 1.38567E-18 3.14058E-18
 -1      1959 9.27440E-05-2.74667E-05-2.79861E-05 2.79667E-07 1.88363E-18 1.88947E-18
 -1      1960 9.17483E-05-2.74564E-05-2.75434E-05-6.31535E-07 6.82644E-19 2.07300E-18
 -1      1961 9.16599E-05-2.73949E-05-2.75265E-05-4.76395E-07 9.66399E-19 2.54124E-18
 -1      1962 9.24323E-05-2.75586E-05-2.78132E-05-4.19717E-07 1.21549E-18 1.38480E-18
 -1      1963 9.20019E-05-2.75792E-05-2.76024E-05-7.79836E-07 5.56504E-19 1.61960E-18
 -1      1964 9.18070E-05-2.75001E-05-2.75522E-05-7.04261E-07 5.59112E-19 1.90440E-18
 -1      1965 9.24430E-05-2.76635E-05-2.77710E-05-7.75218E-07 7.78721E-19 8.75847E-19
 -1      1966 9.23746E-05-2.77165E-05-2.77051E-05-8.24191E-07 7.04951E-19 1.17817E-18
 -1      1967 9.21298E-05-2.76314E-05-2.76384E-05-7.94660E-07 6.39674E-19 1.52630E-18
 -1      1968 9.26429E-05-2.77799E-05-2.78047E-05-9.33515E-07 7.60588E-19 6.36897E-19
 -1      1969 9.28023E-05-2.78563E-05-2.78296E-05-8.13840E-07 8.05458E-19 6.16878E-19
 -1      1970 9.25394E-05-2.77718E-05-2.77559E-05-8.09282E-07 7.43530E-19 9.50176E-19
 -1      1971 9.29471E-05-2.79000E-05-2.78819E-05-9.80800E-07 9.77140E-19 2.85452E-19
 -1      1972 9.32500E-05-2.79926E-05-2.79637E-05-7.81532E-07 7.12661E-19 4.46492E-19
 -1      1973 9.29851E-05-2.79117E-05-2.78881E-05-7.87666E-07 7.69851E-19 7.52864E-19
 -1      1974 9.33045E-05-2.80180E-05-2.79833E-05-9.71905E-07 1.00186E-18 2.32546E-19
 -1      1975 9.37032E-05-2.81234E-05-2.81023E-05-7.50397E-07 9.77062E-19-6.13779E-20
 -1      1976 9.34420E-05-2.80466E-05-2.80265E-05-7.56921E-07 8.01510E-19 2.24062E-19
 -1      1977 9.36873E-05-2.81310E-05-2.80982E-05-9.44074E-07 9.95545E-19-1.03132E-19
 -1      1978 9.41622E-05-2.82504E-05-2.82446E-05-7.37766E-07 6.22595E-19-3.82195E-19
 -1      1979 9.39027E-05-2.81763E-05-2.81683E-05-7.36761E-07 8.30063E-19-1.00534E-19
 -1      1980 9.40851E-05-2.82390E-05-2.82220E-05-9.24113E-07 9.45394E-19-6.67409E-19
 -1      1981 9.46387E-05-2.83781E-05-2.83938E-05-7.57495E-07 8.07591E-19-1.07147E-18
 -1      1982 9.43728E-05-2.83038E-05-2.83147E-05-7.42436E-07 6.58409E-19-7.34400E-19
 -1      1983 9.44997E-05-2.83444E-05-2.83543E-05-9.32488E-07 1.10131E-18-1.24733E-18
 -1      1984 9.51531E-05-2.85129E-05-2.85559E-05-8.21466E-07 5.10204E-19-1.12403E-18
 -1      1985 9.48682E-05-2.84343E-05-2.84704E-05-7.86575E-07 5.56434E-19-9.39598E-19
 -1      1986 9.49427E-05-2.84520E-05-2.84983E-05-9.85871E-07 6.96217E-19-1.43686E-18
 -1      1987 9.57338E-05-2.86637E-05-2.87393E-05-9.40496E-07 2.74897E-19-9.99190E-19
 -1      1988 9.54130E-05-2.85754E-05-2.86425E-05-8.80333E-07 3.09176E-19-9.19703E-19
 -1      1989 9.54337E-05-2.85679E-05-2.86595E-05-1.09872E-06 3.44639E-19-1.38005E-18
 -1      1990 9.64154E-05-2.88409E-05-2.89544E-05-1.12467E-06-2.49500E-19-1.34602E-18
 -1      1991 9.60384E-05-2.87365E-05-2.88404E-05-1.03397E-06 2.82734E-19-1.08537E-18
 -1      1992 9.59984E-05-2.87002E-05-2.88454E-05-1.28413E-06 3.73361E-19-1.45273E-18
 -1      1993 9.72381E-05-2.90572E-05-2.92130E-05-1.38298E-06 3.60655E-19-1.71497E-18
 -1      1994 9.67814E-05-2.89292E-05-2.90751E-05-1.25683E-06-1.96795E-19-1.71098E-18
 -1      1995 9.66683E-05-2.88589E-05-2.90653E-05-1.55388E-06 3.03688E-19-1.66162E-18
 -1      1996 9.82462E-05-2.93271E-05-2.95279E-05-1.72189E-06 5.12867E-19-1.50422E-18
 -1      1997 9.76841E-05-2.91669E-05-2.93589E-05-1.55636E-06 5.02606E-19-1.19421E-18
 -1      1998 9.74787E-05-2.90558E-05-2.93292E-05-1.91742E-06 4.34466E-19-1.63250E-18
 -1      1999 9.94850E-05-2.96672E-05-2.99118E-05-2.14225E-06-2.32464E-19-1.52280E-18
 -1      2000 9.87912E-05-2.94654E-05-2.97045E-05-1.93590E-06 3.51221E-21-1.49658E-18
 -1      2001 9.84678E-05-2.93055E-05-2.96473E-05-2.37928E-06 2.44683E-19-1.46735E-18
 -1      2002 1.00996E-04-3.00958E-05-3.03751E-05-2.63365E-06-8.09380E-20-1.46560E-18
 -1      2003 1.00147E-04-2.98426E-05-3.01234E-05-2.39024E-06-3.01284E-19-1.02038E-18
 -1      2004 9.96737E-05-2.96255E-05-3.00283E-05-2.93409E-06-3.56626E-19-1.80241E-18
 -1      2005 1.02808E-04-3.06326E-05-3.09226E-05-3.16491E-06 2.95758E-19-1.63555E-18
 -1      2006 1.01790E-04-3.03185E-05-3.06235E-05-2.89819E-06-2.77436E-21-1.43096E-18
 -1      2007 1.01130E-04-3.00378E-05-3.04773E-05-3.55795E-06 1.00640E-19-1.58702E-18
 -1      2008 1.04925E-04-3.12964E-05-3.15485E-05-3.66939E-06 1.11021E-18-1.68710E-18
 -1      2009 1.03740E-04-3.09147E-05-3.12053E-05-3.41057E-06 8.40406E-19-1.34701E-18
 -1      2010 1.02860E-04-3.05697E-05-3.09920E-05-4.19479E-06 8.39800E-19-1.29011E-18
 -1      2011 1.07302E-04-3.21013E-05-3.22288E-05-4.02520E-06-3.97472E-19-1.71935E-18
 -1      2012 1.05987E-04-3.16519E-05-3.18555E-05-3.83329E-06 4.90761E-19-1.54429E-18
 -1      2013 1.04864E-04-3.12541E-05-3.15588E-05-4.73690E-06 3.57416E-19-1.22363E-18
 -1      2014 1.09818E-04-3.30465E-05-3.29131E-05-4.03441E-06-5.92835E-19-1.63080E-18
 -1      2015 1.08462E-04-3.25433E-05-3.25397E-05-4.00748E-06-6.05925E-19-1.73953E-18
 -1      2016 1.07107E-04-3.21255E-05-3.21466E-05-5.00179E-06-3.71943E-19-1.28131E-18
 -1      2017 1.12242E-04-3.40940E-05-3.35171E-05-3.41687E-06-1.47959E-18-2.51817E-19
 -1      2018 1.11008E-04-3.35780E-05-3.31946E-05-3.69629E-06-1.09102E-18-1.19182E-18
 -1      2019 1.09491E-04-3.32042E-05-3.27036E-05-4.71515E-06-1.18809E-18-9.81853E-19
 -1      2020 1.14200E-04-3.51269E-05-3.39260E-05-1.85444E-06-7.15260E-19-5.71651E-19
 -1      2021 1.13334E-04-3.46857E-05-3.37254E-05-2.60326E-06-7.15796E-19-3.52329E-19
 -1      2022 1.11822E-04-3.44560E-05-3.31588E-05-3.52683E-06-9.98910E-19-1.15669E-18
 -1      2023 1.15169E-04-3.58890E-05-3.40178E-05 8.61525E-07-8.19306E-20-4.52660E-19
 -1      2024 1.14989E-04-3.56782E-05-3.40164E-05-4.66920E-07-8.09611E-19-5.94346E-19
 -1      2025 1.13761E-04-3.57148E-05-3.34364E-05-1.10956E-06-4.99571E-19-6.06451E-19
 -1      2026 1.14552E-04-3.59370E-05-3.37169E-05 4.52045E-06 2.27918E-19 8.96876E-19
 -1      2027 1.15360E-04-3.61764E-05-3.39649E-05 2.71611E-06 5.79688E-21 7.75727E-19
 -1      2028 1.14792E-04-3.65755E-05-3.34873E-05 2.60118E-06-2.05525E-19 6.40643E-19
 -1      2029 1.11919E-04-3.47628E-05-3.30641E-05 8.10446E-06 4.75328E-19 2.19568E-18
 -1      2030 1.13826E-04-3.56344E-05-3.35399E-05 6.33496E-06 3.78121E-19 1.90387E-18
 -1      2031 1.14264E-04-3.63659E-05-3.33291E-05 6.99264E-06-3.15255E-20 2.45939E-18
 -1      2032 1.07508E-04-3.22233E-05-3.22435E-05 9.78765E-06-3.41798E-19 2.38494E-18
 -1      2033 1.10211E-04-3.36634E-05-3.28278E-05 8.95369E-06 4.12068E-20 1.92581E-18
 -1      2034 1.11773E-04-3.45209E-05-3.30586E-05 1.04526E-05 3.03016E-19 3.46793E-18
 -1      2035 1.02707E-04-2.91088E-05-3.15394E-05 7.79904E-06 1.84190E-19 1.56791E-18
 -1      2036 1.05347E-04-3.06040E-05-3.20385E-05 8.73446E-06-4.48200E-20 1.77979E-18
 -1      2037 1.07776E-04-3.12210E-05-3.28043E-05 1.07410E-05 2.01614E-19 2.75520E-18
 -1      2038 9.98549E-05-2.71579E-05-3.11974E-05 2.13856E-06 8.36180E-19-3.21527E-19
 -1      2039 1.01281E-04-2.78909E-05-3.14287E-05 4.76970E-06 3.82885E-19 7.32478E-19
 -1      2040 1.04064E-04-2.79904E-05-3.26583E-05 6.46518E-06 9.98149E-19 6.08474E-19
 -1      2041 1.00676E-04-2.77248E-05-3.13399E-05-4.59893E-06 7.71515E-19-1.00628E-18
 -1      2042 1.00152E-04-2.72345E-05-3.12127E-05-1.54024E-06 9.33271E-19-7.72090E-19
 -1      2043 1.02852E-04-2.68690E-05-3.26349E-05-1.01757E-06 1.28990E-18-1.35046E-18
 -1      2044 1.04749E-04-3.04461E-05-3.18845E-05-8.99785E-06 9.94470E-20-1.04005E-18
 -1      2045 1.02526E-04-2.90339E-05-3.14606E-05-7.04673E-06-3.09696E-21-1.00939E-18
 -1      2046 1.04953E-04-2.87115E-05-3.27154E-05-7.96632E-06 2.53355E-19-1.72822E-18
 -1      2047 1.09770E-04-3.35303E-05-3.26597E-05-9.39734E-06 2.03799E-18-2.35807E-18
 -1      2048 1.06930E-04-3.20273E-05-3.20908E-05-9.18967E-06 9.96200E-19-1.45613E-18
 -1      2049 1.08945E-04-3.21794E-05-3.28832E-05-1.09855E-05 1.32514E-18-1.92490E-18
 -1      2050 1.13566E-04-3.55385E-05-3.33937E-05-6.68817E-06 1.23325E-18-4.09984E-18
 -1      2051 1.11211E-04-3.45427E-05-3.28814E-05-7.80259E-06 2.53494E-18-2.94664E-18
 -1      2052 1.12550E-04-3.51819E-05-3.31282E-05-9.60915E-06 2.78751E-18-1.84386E-18
 -1      2053 1.15176E-04-3.60889E-05-3.38489E-05-2.85052E-06-1.90821E-18-3.42540E-18
 -1      2054 1.13905E-04-3.57491E-05-3.35407E-05-4.43921E-06-1.02609E-18-4.46148E-18
 -1      2055 1.14375E-04-3.65572E-05-3.33433E-05-5.63629E-06-5.81409E-20-2.73037E-18
 -1      2056 1.14790E-04-3.55941E-05-3.39127E-05 5.39073E-07-5.83162E-19-9.97881E-19
 -1      2057 1.14639E-04-3.57461E-05-3.38592E-05-8.76252E-07-1.14420E-18-2.00381E-18
 -1      2058 1.14280E-04-3.63607E-05-3.34035E-05-1.27687E-06-2.00517E-18-2.81167E-18
 -1      2059 1.13039E-04-3.45901E-05-3.36112E-05 2.83023E-06-9.23875E-19 1.94824E-19
 -1      2060 1.13744E-04-3.50150E-05-3.37788E-05 1.85891E-06-1.11753E-18-1.58312E-19
 -1      2061 1.12817E-04-3.52943E-05-3.32379E-05 2.14576E-06-1.17152E-18-3.49540E-19
 -1      2062 1.10557E-04-3.34498E-05-3.30485E-05 4.02279E-06-4.27732E-19 7.65473E-19
 -1      2063 1.11777E-04-3.39816E-05-3.33647E-05 3.50071E-06 6.90243E-19 6.63392E-19
 -1      2064 1.10600E-04-3.39614E-05-3.28564E-05 4.25323E-06-2.78518E-19 3.73505E-19
 -1      2065 1.07818E-04-3.23650E-05-3.23451E-05 4.39193E-06 2.34645E-19-1.81632E-18
 -1      2066 1.09262E-04-3.29048E-05-3.27356E-05 4.21030E-06 1.06382E-19-1.27915E-19
 -1      2067 1.08092E-04-3.26950E-05-3.23199E-05 5.20897E-06 5.87565E-19 8.24454E-19
 -1      2068 1.05126E-04-3.14092E-05-3.16022E-05 4.24547E-06-2.61290E-19-2.98837E-19
 -1      2069 1.06594E-04-3.19079E-05-3.20089E-05 4.28018E-06-3.80765E-19-1.17689E-18
 -1      2070 1.05586E-04-3.16173E-05-3.17043E-05 5.35644E-06-5.12400E-19 2.12746E-19
 -1      2071 1.02657E-04-3.05968E-05-3.08905E-05 3.82095E-06 2.49259E-19-5.75961E-19
 -1      2072 1.04024E-04-3.10346E-05-3.12752E-05 3.97546E-06 2.69270E-19 1.85001E-19
 -1      2073 1.03250E-04-3.07395E-05-3.10769E-05 5.01883E-06-1.13186E-19 9.88478E-19
 -1      2074 1.00498E-04-2.99180E-05-3.02532E-05 3.26548E-06 1.40379E-18-1.15391E-18
 -1      2075 1.01699E-04-3.02905E-05-3.05937E-05 3.48016E-06 1.41531E-18-1.89093E-19
 -1      2076 1.01167E-04-3.00317E-05-3.04871E-05 4.42706E-06 1.06849E-18 3.78288E-19
 -1      2077 9.86880E-05-2.93572E-05-2.97152E-05 2.64855E-06 1.85275E-18-1.70522E-18
 -1      2078 9.96917E-05-2.96656E-05-2.99994E-05 2.89654E-06 1.21071E-18-1.71740E-18
 -1      2079 9.93762E-05-2.94563E-05-2.99666E-05 3.71485E-06 1.67659E-18-4.31891E-19
 -1      2080 9.72458E-05-2.89011E-05-2.92906E-05 1.98613E-06 2.84783E-19-2.52961E-18
 -1      2081 9.80351E-05-2.91478E-05-2.95112E-05 2.26391E-06 1.10282E-18-1.96454E-18
 -1      2082 9.78903E-05-2.89824E-05-2.95341E-05 2.93877E-06 1.48941E-18-8.80551E-19
 -1      2083 9.61818E-05-2.85458E-05-2.89828E-05 1.26888E-06-5.99871E-19-2.71914E-18
 -1      2084 9.67397E-05-2.87292E-05-2.91376E-05 1.58419E-06 6.52182E-20-2.38526E-18
 -1      2085 9.67063E-05-2.85875E-05-2.91970E-05 2.11050E-06-1.03709E-19-4.30727E-19
 -1      2086 9.55819E-05-2.83440E-05-2.88077E-05 7.01675E-07-6.45172E-19-8.55635E-19
 -1      2087 9.59318E-05-2.84450E-05-2.89157E-05 1.03337E-06-7.03785E-19-1.97322E-18
 -1      2088 9.59392E-05-2.83069E-05-2.89892E-05 1.41869E-06-6.72018E-19 6.34685E-19
 -1      2089 9.55007E-05-2.81501E-05-2.88650E-05 8.94014E-07-1.04444E-18 2.32864E-18
 -1      2090 9.42790E-05-2.53702E-05-2.95376E-05 2.27534E-06-1.46174E-18-4.70853E-19
 -1      2091 9.45544E-05-2.59673E-05-2.93880E-05 2.23407E-06-6.02723E-19 3.06580E-19
 -1      2092 9.48156E-05-2.64927E-05-2.92826E-05 2.09726E-06-2.18465E-19 1.41484E-18
 -1      2093 9.50722E-05-2.70385E-05-2.91484E-05 1.88709E-06-8.99977E-19 2.17042E-18
 -1      2094 9.47811E-05-2.62945E-05-2.93516E-05 2.76099E-06-1.72567E-18 3.04417E-19
 -1      2095 9.52223E-05-2.74074E-05-2.90619E-05 1.58928E-06-1.19299E-18 2.37132E-18
 -1      2096 9.54092E-05-2.78380E-05-2.89509E-05 1.26283E-06-1.15154E-18 2.34244E-18
 -1      2097 9.55986E-05-2.78970E-05-2.90093E-05 1.54729E-06-1.01689E-18 2.53225E-18
 -1      2098 9.52652E-05-2.71964E-05-2.91754E-05 2.26397E-06-1.82034E-18 2.58588E-18
 -1      2099 9.37871E-05-2.43136E-05-2.97838E-05 2.11130E-06-2.31167E-18-5.55883E-18
 -1      2100 9.40374E-05-2.48723E-05-2.96416E-05 2.21928E-06-1.90857E-18-2.44432E-18
 -1      2101 9.41731E-05-2.52407E-05-2.95389E-05 2.84126E-06-2.76500E-18-2.62251E-18
 -1      2102 9.33777E-05-2.34169E-05-2.99960E-05 1.64534E-06-1.15561E-18-1.81665E-18
 -1      2103 9.35799E-05-2.38780E-05-2.98776E-05 1.87977E-06-1.21589E-18-3.60374E-18
 -1      2104 9.36294E-05-2.42758E-05-2.97152E-05 2.51498E-06-4.71963E-19-3.68022E-18
 -1      2105 9.31065E-05-2.28129E-05-3.01405E-05 9.57068E-07-1.25857E-18 1.04593E-18
 -1      2106 9.32320E-05-2.31048E-05-3.00649E-05 1.27779E-06-1.10645E-18 1.90677E-19
 -1      2107 9.32030E-05-2.35031E-05-2.98600E-05 1.83903E-06-1.44808E-19-8.98058E-19
 -1      2108 9.30025E-05-2.25756E-05-3.01975E-05 1.47810E-07-1.37035E-18 2.46118E-18
 -1      2109 9.30371E-05-2.26610E-05-3.01751E-05 5.08313E-07-1.41905E-18 2.13164E-18
 -1      2110 9.29436E-05-2.30237E-05-2.99521E-05 9.19959E-07-4.43076E-19 1.69894E-18
 -1      2111 9.30746E-05-2.27311E-05-3.01598E-05-6.71494E-07-7.09460E-19 5.21349E-19
 -1      2112 9.30159E-05-2.26009E-05-3.01931E-05-3.20230E-07-1.85822E-18 3.40650E-18
 -1      2113 9.28767E-05-2.28934E-05-2.99788E-05-1.11703E-07-2.99692E-18 2.63274E-18
 -1      2114 9.33104E-05-2.32542E-05-3.00331E-05-1.39266E-06-5.93505E-19-1.09965E-19
 -1      2115 9.31676E-05-2.29279E-05-3.01173E-05-1.09702E-06-7.29712E-19-3.76923E-19
 -1      2116 9.30052E-05-2.31234E-05-2.99367E-05-1.11681E-06-1.63783E-18 6.68004E-19
 -1      2117 9.36721E-05-2.40575E-05-2.98390E-05-1.91498E-06 1.49925E-18 8.84918E-21
 -1      2118 9.34670E-05-2.35888E-05-2.99598E-05-1.71604E-06 5.86461E-19-8.39449E-19
 -1      2119 9.33076E-05-2.36744E-05-2.98328E-05-1.95866E-06-9.95992E-20 7.05505E-19
 -1      2120 9.41295E-05-2.50647E-05-2.95979E-05-2.18519E-06 2.01745E-18 2.77655E-18
 -1      2121 9.38802E-05-2.45000E-05-2.97425E-05-2.10551E-06 1.83358E-18 3.12012E-18
 -1      2122 9.37457E-05-2.44764E-05-2.96808E-05-2.53734E-06 2.27661E-18 1.41559E-18
 -1      2123 9.46254E-05-2.61381E-05-2.93452E-05-2.14599E-06 1.48799E-18-1.76673E-18
 -1      2124 9.43642E-05-2.55592E-05-2.94917E-05-2.20756E-06 1.89498E-18 1.45929E-19
 -1      2125 9.42796E-05-2.54438E-05-2.94992E-05-2.77885E-06 1.80527E-18 1.00417E-18
 -1      2126 9.51107E-05-2.71706E-05-2.91134E-05-1.78812E-06 4.71068E-19-1.15838E-18
 -1      2127 9.48617E-05-2.66336E-05-2.92413E-05-1.99152E-06 8.22457E-19-2.81802E-18
 -1      2128 9.48494E-05-2.64608E-05-2.93105E-05-2.63527E-06 7.39540E-19-2.62465E-18
 -1      2129 6.17750E-05-4.05752E-05-9.50190E-06 4.06670E-05 2.02102E-18 3.55534E-18
 -1      2130 4.56475E-05-4.09294E-05-3.13009E-06 3.39048E-05 1.32942E-18 3.16928E-18
 -1      2131 1.17776E-05-3.15173E-05 7.34892E-06 4.45168E-06-1.38913E-18 4.46513E-18
 -1      2132 1.25695E-05-3.41433E-05 7.80096E-06-5.58010E-06-2.41934E-18 5.19443E-18
 -1      2133 2.88061E-05-3.30553E-05 1.24777E-06 2.83048E-05 1.87194E-19 3.57003E-18
 -1      2134 1.93106E-05-3.35549E-05 4.99794E-06 1.71919E-05-1.33768E-18 4.02510E-18
 -1      2135 1.00791E-04-4.37668E-05-2.42738E-05 4.15894E-05 2.89008E-18 2.71982E-18
 -1      2136 8.27834E-05-4.62349E-05-1.65404E-05 3.80404E-05 1.94818E-18 2.37635E-18
 -1      2137 1.34402E-04-4.12878E-05-3.91973E-05 3.62348E-05 3.33180E-18 1.95072E-18
 -1      2138 1.14104E-04-4.27337E-05-3.11673E-05 3.51953E-05 3.89635E-18 2.04135E-18
 -1      2139 8.72727E-05-8.73143E-06-3.37513E-05-1.05405E-05-2.73529E-18-5.84925E-18
 -1      2140 8.79793E-05-9.26538E-06-3.38207E-05-1.21205E-05-3.24931E-18-5.25745E-18
 -1      2141 9.04694E-05-1.30297E-05-3.32169E-05-1.18300E-05-3.66544E-18-4.53745E-18
 -1      2142 8.86846E-05-1.10609E-05-3.33002E-05-9.40445E-06-2.74828E-18-5.71320E-18
 -1      2143 1.81107E-04-3.02237E-05-6.31868E-05 1.11304E-05 5.10613E-18-1.51915E-18
 -1      2144 1.68464E-04-3.02470E-05-5.85145E-05 1.57841E-05 3.98720E-18-2.10064E-19
 -1      2145 1.81180E-04-2.36679E-05-6.64313E-05-2.49103E-07 5.59423E-18-3.13157E-18
 -1      2146 1.82467E-04-2.61280E-05-6.56076E-05 7.20055E-06 5.31810E-18-1.63541E-18
 -1      2147 1.77121E-04-2.66691E-05-6.33487E-05-9.15909E-06 6.84996E-18-4.67647E-18
 -1      2148 1.79008E-04-2.41656E-05-6.53466E-05-1.97288E-06 5.99276E-18-3.46320E-18
 -1      2149 1.62854E-04-3.28760E-05-5.51820E-05-2.03214E-05 8.43232E-18-5.56416E-18
 -1      2150 1.76587E-04-3.24381E-05-6.04975E-05-1.51123E-05 7.85284E-18-4.21272E-18
 -1      2151 1.38508E-04-4.05953E-05-4.21163E-05-2.69803E-05 7.30142E-18-6.64582E-18
 -1      2152 1.56859E-04-3.85639E-05-4.95722E-05-2.69433E-05 8.51459E-18-5.60990E-18
 -1      2153 1.04940E-04-4.51805E-05-2.63332E-05-3.60269E-05 4.44481E-18-1.04321E-17
 -1      2154 1.25212E-04-4.41840E-05-3.43697E-05-3.67366E-05 5.35155E-18-1.03160E-17
 -1      2155 6.90983E-05-4.40645E-05-1.18754E-05-3.74114E-05 3.13614E-18-9.73791E-18
 -1      2156 8.74617E-05-4.25663E-05-1.93170E-05-4.21718E-05 4.24152E-18-1.11609E-17
 -1      2157 3.88618E-05-3.94272E-05-9.10657E-07-3.08070E-05 1.52466E-18-6.76186E-18
 -1      2158 5.28238E-05-3.88462E-05-6.40906E-06-3.84773E-05 2.95403E-18-8.56763E-18
 -1      2159 1.58624E-05-3.54645E-05 6.90301E-06-1.31892E-05-1.50857E-18-6.64921E-18
 -1      2160 2.25207E-05-3.45837E-05 4.00486E-06-2.24407E-05 1.45309E-18-6.54947E-18
 -1      2161 1.28295E-05-2.84592E-05 5.93811E-06 7.58778E-06-3.52662E-18-9.91537E-18
 -1      2162 1.26063E-05-3.23251E-05 7.11347E-06-3.61324E-06-1.86707E-18-7.66226E-18
 -1      2163 3.05431E-05-3.67241E-05 1.37860E-06 2.85154E-05-7.39036E-18-1.13022E-17
 -1      2164 2.10756E-05-3.37959E-05 4.37456E-06 2.20552E-05-4.36074E-18-1.03872E-17
 -1      2165 5.87508E-05-3.86559E-05-9.21846E-06 3.99954E-05-8.64990E-18-9.50374E-18
 -1      2166 4.35656E-05-4.09883E-05-2.66297E-06 3.20192E-05-7.38486E-18-1.03388E-17
 -1      2167 4.48877E-05-3.71520E-05-3.89069E-06 3.71080E-05-3.19628E-18-9.88318E-18
 -1      2168 9.92153E-05-4.23964E-05-2.43461E-05 4.22905E-05-8.92349E-18-6.22569E-18
 -1      2169 7.98394E-05-4.39774E-05-1.64091E-05 3.82267E-05-8.66176E-18-7.38634E-18
 -1      2170 1.36499E-04-4.22259E-05-3.99325E-05 3.33869E-05-9.06833E-18-3.50248E-18
 -1      2171 1.16646E-04-4.36790E-05-3.18188E-05 3.36256E-05-8.74350E-18-4.97420E-18
 -1      2172 1.62168E-04-3.56612E-05-5.33797E-05 1.88051E-05-9.13795E-18-1.12317E-18
 -1      2173 1.46157E-04-3.76020E-05-4.65974E-05 2.24726E-05-9.80303E-18-2.59954E-18
 -1      2174 1.78183E-04-2.80329E-05-6.31164E-05 8.84528E-06-7.47041E-18-2.24167E-18
 -1      2175 1.66407E-04-2.79917E-05-5.88725E-05 1.38034E-05-9.02387E-18-3.57787E-18
 -1      2176 1.77704E-04-2.21822E-05-6.57790E-05-1.26684E-06-6.87706E-18-3.73092E-19
 -1      2177 1.79662E-04-2.46784E-05-6.52511E-05 6.17287E-06-7.92357E-18-2.22452E-18
 -1      2178 1.58745E-04-1.69832E-05-5.96417E-05-1.31211E-06-7.95787E-18-1.39252E-18
 -1      2179 1.73836E-04-2.58740E-05-6.24122E-05-9.92923E-06-5.19549E-18 2.25692E-18
 -1      2180 1.75840E-04-2.33387E-05-6.45117E-05-2.83834E-06-5.86824E-18 1.69407E-19
 -1      2181 1.60963E-04-3.17843E-05-5.47818E-05-2.26232E-05-4.93301E-18 3.58930E-18
 -1      2182 1.74655E-04-3.17862E-05-5.99966E-05-1.72009E-05-4.03442E-18 3.06329E-18
 -1      2183 1.35849E-04-3.83415E-05-4.18981E-05-3.08125E-05-6.83280E-18 3.39660E-18
 -1      2184 1.54062E-04-3.73162E-05-4.89358E-05-2.92891E-05-5.65204E-18 3.33477E-18
 -1      2185 1.07193E-04-4.46580E-05-2.74615E-05-3.59980E-05-5.99488E-18 3.86289E-18
 -1      2186 1.25640E-04-4.22302E-05-3.51687E-05-3.76539E-05-7.24721E-18 2.73465E-18
 -1      2187 7.38709E-05-4.47610E-05-1.33496E-05-3.89341E-05-3.00527E-18 6.82402E-18
 -1      2188 9.08280E-05-4.27636E-05-2.05988E-05-4.27430E-05-4.52485E-18 6.33284E-18
 -1      2189 3.90773E-05-3.97097E-05-1.01863E-06-3.16785E-05-3.16536E-18 8.17239E-18
 -1      2190 5.36598E-05-3.85809E-05-6.89308E-06-3.99491E-05-2.87906E-18 8.70358E-18
 -1      2191 1.66933E-05-3.64811E-05 6.88524E-06-1.42724E-05-2.52966E-18 5.35833E-18
 -1      2192 2.30677E-05-3.41630E-05 3.65866E-06-2.36251E-05-4.32241E-18 7.61694E-18
 -1      2193 1.64077E-05-2.52535E-05 3.06322E-06-1.25299E-05-1.45965E-18 6.51919E-18
 -1      2194 1.62970E-04-3.67797E-05-5.30257E-05 2.40730E-05 3.34671E-18 8.24587E-19
 -1      2195 1.45469E-04-3.74792E-05-4.61113E-05 2.81432E-05 3.64912E-18 1.20702E-18
 -1      2196 1.20246E-04-5.44643E-05-2.81337E-05 3.20500E-05 1.50984E-18 6.81862E-19
 -1      2197 9.71457E-05-2.43010E-05-3.12919E-05-1.00153E-05-4.00297E-18 1.70746E-18
 -1      2198 1.44890E-04-4.75200E-05-4.11485E-05 1.91510E-05 2.68446E-18-1.06303E-19
 -1      2199 1.59571E-04-3.36339E-05-5.29873E-05 6.08671E-06 3.82499E-18-1.37770E-18
 -1      2200 9.63131E-05-2.30981E-05-3.14445E-05-1.03970E-05-4.22398E-18-3.50460E-19
 -1      2201 4.46354E-05-3.55268E-05-4.24145E-06 3.57877E-05-6.34639E-19 3.57215E-18
 -1      2202 1.88517E-05-2.42592E-05 1.90611E-06 1.36296E-05-2.48181E-18 4.96615E-18
 -1      2203 9.52939E-05-2.74865E-05-2.90546E-05-1.71333E-06 8.69437E-19-8.04083E-19
 -1      2204 8.47797E-05-4.97859E-05-1.51795E-05 4.15043E-05 4.00647E-19 2.36470E-18
 -1      2205 3.67506E-05-3.30610E-05-1.95913E-06-3.35273E-05-2.12203E-18 7.13159E-18
 -1      2206 7.44237E-05-4.62470E-05-1.22058E-05-4.22068E-05 8.38563E-20 6.03132E-18
 -1      2207 1.12217E-04-5.38355E-05-2.49673E-05-3.58404E-05-1.67776E-18 2.09916E-18
 -1      2208 1.38357E-04-4.98694E-05-3.75392E-05-2.21072E-05-4.67340E-18-3.04085E-19
 -1      2209 1.54832E-04-3.74737E-05-4.93950E-05-1.08805E-05-4.65974E-18 1.54711E-18
 -1      2210 1.58255E-04-1.42580E-05-6.08658E-05 9.63922E-07-6.76779E-18-9.11302E-19
 -1      2211 1.55381E-04-3.08323E-05-5.26424E-05 1.15876E-06-7.53732E-18-4.12082E-19
 -1      2212 1.45041E-04-4.70871E-05-4.14581E-05 1.43354E-05-6.96340E-18 1.24726E-18
 -1      2213 8.07652E-05-4.77001E-05-1.43743E-05 4.20109E-05-3.96327E-18-5.92071E-18
 -1      2214 1.98268E-05-2.73193E-05 2.75381E-06 1.64078E-05-2.27714E-18-1.06876E-17
 -1      2215 1.96309E-05-1.82289E-05-3.08244E-07 1.09206E-05-1.23005E-18-9.71716E-18
 -1      2216 2.71812E-05-2.38898E-05-1.56538E-06 2.56870E-05-5.25796E-19-1.01822E-17
 -1      2217 1.66256E-05-2.42954E-05 2.67846E-06-1.08563E-05-1.80270E-18-8.28059E-18
 -1      2218 3.73705E-05-3.31999E-05-2.18394E-06-3.32490E-05-2.46910E-19-7.72706E-18
 -1      2219 7.25624E-05-4.62047E-05-1.16377E-05-4.15975E-05-1.14773E-19-8.53243E-18
 -1      2220 1.08520E-04-5.36119E-05-2.34946E-05-3.65087E-05 9.87217E-19-8.46461E-18
 -1      2221 1.39094E-04-5.09075E-05-3.74108E-05-2.17130E-05 3.62530E-18-4.02087E-18
 -1      2222 1.56464E-04-3.79980E-05-4.99257E-05-7.67270E-06 6.28805E-18-6.64497E-19
 -1      2223 1.61051E-04-2.34738E-05-5.78706E-05 9.41311E-08 7.05790E-18-2.50912E-18
 -1      2224 1.63157E-04-1.96770E-05-6.02662E-05-4.00462E-07 5.56839E-18-1.57294E-18
 -1      2225 1.61851E-04-1.53208E-05-6.17416E-05 9.07603E-07 6.22061E-18-2.48260E-18
 -1      2226 1.19738E-04-5.32175E-05-2.82593E-05 3.25093E-05-4.72814E-18-1.13227E-18
 -1      2227 1.58848E-04-2.28087E-05-5.72196E-05-1.37254E-06-5.02291E-18 1.48167E-18
 -1      2228 9.51752E-05-2.63641E-05-2.94772E-05 4.20830E-06 3.36821E-18 2.00708E-18
 -1      2229 9.61511E-05-2.58503E-05-3.00554E-05 6.01392E-06 3.75474E-18 2.55575E-18
 -1      2230 8.81704E-05-1.11888E-05-3.30316E-05-3.66558E-06-7.09651E-19-6.12047E-18
 -1      2231 8.84008E-05-1.14585E-05-3.30125E-05-4.80798E-06-1.24822E-18-6.13538E-18
 -1      2232 8.87478E-05-1.19410E-05-3.29626E-05-5.82780E-06-1.59877E-18-6.03451E-18
 -1      2233 8.91473E-05-1.24105E-05-3.29328E-05-7.00051E-06-2.11108E-18-5.87161E-18
 -1      2234 8.99188E-05-1.38257E-05-3.26106E-05-4.90915E-06-1.40430E-18-5.68094E-18
 -1      2235 8.78305E-05-1.07310E-05-3.30767E-05 6.16103E-07 1.02033E-18-5.87727E-18
 -1      2236 8.78260E-05-1.07260E-05-3.30770E-05-4.96150E-07 5.82482E-19-6.04734E-18
 -1      2237 8.80087E-05-1.09557E-05-3.30572E-05 2.76091E-06 1.83604E-18-5.62221E-18
 -1      2238 8.78958E-05-1.08228E-05-3.30672E-05 1.64025E-06 1.34560E-18-5.73485E-18
 -1      2239 8.91478E-05-1.27752E-05-3.27342E-05 1.05068E-06 1.13561E-18-5.44784E-18
 -1      2240 8.84367E-05-1.15020E-05-3.30096E-05 4.89300E-06 2.59121E-18-5.23734E-18
 -1      2241 8.82009E-05-1.12258E-05-3.30290E-05 3.76854E-06 2.15173E-18-5.49329E-18
 -1      2242 8.94101E-05-1.31309E-05-3.26928E-05 3.02417E-06 1.96406E-18-5.20646E-18
 -1      2243 8.92057E-05-1.24829E-05-3.29270E-05 7.08337E-06 3.50177E-18-4.37917E-18
 -1      2244 8.87935E-05-1.19975E-05-3.29581E-05 5.91039E-06 2.96251E-18-4.92651E-18
 -1      2245 8.99601E-05-1.38782E-05-3.26055E-05 4.98095E-06 2.70057E-18-4.69598E-18
 -1      2246 9.04612E-05-1.40889E-05-3.27953E-05 9.23436E-06 4.29696E-18-3.18455E-18
 -1      2247 8.97882E-05-1.32796E-05-3.28431E-05 8.05460E-06 3.80093E-18-3.77409E-18
 -1      2248 9.08840E-05-1.51361E-05-3.24564E-05 6.87973E-06 3.51524E-18-3.71432E-18
 -1      2249 9.24416E-05-1.66566E-05-3.25798E-05 1.11207E-05 4.87881E-18-1.65496E-18
 -1      2250 9.13722E-05-1.53190E-05-3.26546E-05 1.00398E-05 4.47313E-18-2.57670E-18
 -1      2251 9.22923E-05-1.70871E-05-3.22102E-05 8.52763E-06 4.16971E-18-2.54224E-18
 -1      2252 9.41944E-05-2.71028E-05-2.87367E-05 1.77570E-06 2.62532E-18 1.31675E-18
 -1      2253 9.47957E-05-2.68803E-05-2.90352E-05 2.74983E-06 2.98058E-18 1.81284E-18
 -1      2254 9.53100E-05-2.58373E-05-2.97821E-05 4.37410E-06 3.53478E-18 5.87980E-19
 -1      2255 9.58831E-05-2.50858E-05-3.02951E-05-6.20564E-06-3.46942E-18-1.23872E-18
 -1      2256 9.52216E-05-2.58385E-05-2.97515E-05-4.29026E-06-3.12698E-18-1.42649E-18
 -1      2257 1.47432E-04-4.79836E-05-4.29219E-05 8.37774E-06 1.97778E-18-2.59616E-18
 -1      2258 1.38728E-04-5.31242E-05-3.68704E-05 1.47038E-05 1.10898E-18-1.41412E-18
 -1      2259 9.51095E-05-2.65258E-05-2.93357E-05-2.95071E-06-2.80741E-18-1.25818E-18
 -1      2260 9.46383E-05-2.68944E-05-2.90331E-05-1.88601E-06-2.40395E-18-1.51853E-18
 -1      2261 9.53166E-05-2.53566E-05-2.99908E-05-4.29982E-06-3.09715E-18-2.17197E-18
 -1      2262 9.44447E-05-2.72234E-05-2.87707E-05-1.03118E-06-2.03917E-18-1.38400E-18
 -1      2263 9.41880E-05-2.74354E-05-2.86056E-05-4.25369E-07-1.69271E-18-1.67294E-18
 -1      2264 9.50143E-05-2.66862E-05-2.92969E-05-1.92402E-06-2.37370E-18-1.90894E-18
 -1      2265 9.40419E-05-2.76139E-05-2.84465E-05 8.88997E-08-1.43968E-18-1.63697E-18
 -1      2266 9.39472E-05-2.77553E-05-2.83650E-05 4.25934E-07-1.18497E-18-1.68852E-18
 -1      2267 9.47138E-05-2.74104E-05-2.88575E-05-4.34287E-07-1.68474E-18-1.78776E-18
 -1      2268 9.38670E-05-2.78623E-05-2.82750E-05 7.19504E-07-1.11443E-18-1.77605E-18
 -1      2269 9.38797E-05-2.79668E-05-2.82456E-05 8.95323E-07-1.08920E-18-1.85602E-18
 -1      2270 9.45191E-05-2.78317E-05-2.85910E-05 4.55187E-07-1.37826E-18-1.86894E-18
 -1      2271 9.38555E-05-2.80356E-05-2.82019E-05 1.04948E-06-1.18110E-18-1.79911E-18
 -1      2272 9.39348E-05-2.81168E-05-2.82051E-05 1.12957E-06-9.77439E-19-1.82821E-18
 -1      2273 9.44373E-05-2.80916E-05-2.84418E-05 9.56274E-07-1.17459E-18-2.00882E-18
 -1      2274 9.39515E-05-2.81623E-05-2.81924E-05 1.19971E-06-7.98699E-19-1.91459E-18
 -1      2275 9.40699E-05-2.82264E-05-2.82160E-05 1.22640E-06-6.94787E-19-2.05163E-18
 -1      2276 9.44448E-05-2.82563E-05-2.83722E-05 1.21452E-06-1.06657E-18-2.14899E-18
 -1      2277 9.41146E-05-2.82562E-05-2.82244E-05 1.25104E-06-9.05976E-19-2.10098E-18
 -1      2278 9.42554E-05-2.83069E-05-2.82609E-05 1.25310E-06-1.03368E-18-2.31715E-18
 -1      2279 9.45158E-05-2.83591E-05-2.83568E-05 1.33064E-06-8.67843E-19-2.71918E-18
 -1      2280 9.43194E-05-2.83252E-05-2.82839E-05 1.25972E-06-9.16789E-19-2.21486E-18
 -1      2281 9.44740E-05-2.83654E-05-2.83292E-05 1.25759E-06-6.36303E-19-2.41442E-18
 -1      2282 9.46300E-05-2.84186E-05-2.83792E-05 1.37566E-06-9.41039E-19-2.23850E-18
 -1      2283 9.45522E-05-2.83751E-05-2.83630E-05 1.26635E-06-5.32443E-19-2.44873E-18
 -1      2284 9.47181E-05-2.84074E-05-2.84152E-05 1.27515E-06-3.96105E-19-2.19610E-18
 -1      2285 9.47746E-05-2.84465E-05-2.84286E-05 1.40096E-06-7.24756E-19-2.10813E-18
 -1      2286 9.48087E-05-2.84108E-05-2.84579E-05 1.30138E-06-4.13444E-19-1.96274E-18
 -1      2287 9.49879E-05-2.84383E-05-2.85168E-05 1.33276E-06-4.27810E-20-1.76445E-18
 -1      2288 9.49434E-05-2.84506E-05-2.84989E-05 1.44479E-06-2.98861E-19-1.74915E-18
 -1      2289 9.50916E-05-2.84374E-05-2.85678E-05 1.38846E-06 6.49521E-20-1.68070E-18
 -1      2290 9.52899E-05-2.84633E-05-2.86345E-05 1.45171E-06-2.17131E-19-1.50464E-18
 -1      2291 9.51359E-05-2.84372E-05-2.85871E-05 1.53658E-06-1.57005E-20-1.68438E-18
 -1      2292 9.54095E-05-2.84603E-05-2.86941E-05 1.54652E-06-4.94413E-19-1.39707E-18
 -1      2293 9.56352E-05-2.84885E-05-2.87705E-05 1.64906E-06-4.27537E-19-1.44563E-18
 -1      2294 9.53562E-05-2.84121E-05-2.86925E-05 1.69956E-06-2.62864E-19-1.81048E-18
 -1      2295 9.57753E-05-2.84863E-05-2.88395E-05 1.79059E-06-5.82570E-19-1.52637E-18
 -1      2296 9.60390E-05-2.85217E-05-2.89280E-05 1.93801E-06-5.32196E-19-1.71904E-18
 -1      2297 9.56122E-05-2.83816E-05-2.88155E-05 1.95212E-06-5.26024E-19-1.11382E-18
 -1      2298 9.62059E-05-2.85241E-05-2.90076E-05 2.13161E-06-3.91368E-19-1.68158E-18
 -1      2299 9.65195E-05-2.85731E-05-2.91106E-05 2.32693E-06-3.63678E-19-1.30652E-18
 -1      2300 9.59149E-05-2.83540E-05-2.89575E-05 2.30801E-06-6.34708E-19-9.82228E-19
 -1      2301 9.67212E-05-2.85861E-05-2.92015E-05 2.57470E-06-6.48930E-19-1.60946E-18
 -1      2302 9.70976E-05-2.86571E-05-2.93213E-05 2.81695E-06-5.00665E-19-1.91749E-18
 -1      2303 9.62791E-05-2.83410E-05-2.91196E-05 2.77510E-06-7.00372E-19-1.21366E-18
 -1      2304 9.73444E-05-2.86897E-05-2.94236E-05 3.11586E-06-3.88950E-19-2.11585E-18
 -1      2305 9.77966E-05-2.87945E-05-2.95614E-05 3.39748E-06-4.15615E-19-2.10336E-18
 -1      2306 9.67236E-05-2.83611E-05-2.93021E-05 3.35253E-06-5.73751E-19-1.67606E-18
 -1      2307 9.81019E-05-2.88610E-05-2.96741E-05 3.73632E-06 4.07635E-21-2.02369E-18
 -1      2308 9.86418E-05-2.90158E-05-2.98293E-05 4.03921E-06 5.29779E-19-1.23904E-18
 -1      2309 9.72725E-05-2.84428E-05-2.95030E-05 4.02572E-06-5.62365E-20-9.67221E-19
 -1      2310 9.90243E-05-2.91378E-05-2.99496E-05 4.39398E-06 6.49459E-19-1.39692E-18
 -1      2311 9.96613E-05-2.93647E-05-3.01189E-05 4.68407E-06 9.20602E-19-1.42992E-18
 -1      2312 9.79587E-05-2.86299E-05-2.97179E-05 4.75876E-06 5.60532E-19-1.00116E-18
 -1      2313 1.00148E-04-2.95735E-05-3.02421E-05 5.01168E-06 1.07335E-18-1.55991E-18
 -1      2314 1.00886E-04-2.99009E-05-3.04188E-05 5.23222E-06 1.08451E-18-1.04358E-18
 -1      2315 9.88278E-05-2.89872E-05-2.99389E-05 5.48376E-06 1.01909E-18-1.50444E-18
 -1      2316 1.01513E-04-3.02393E-05-3.05386E-05 5.46265E-06 1.04784E-18-9.92410E-19
 -1      2317 1.02350E-04-3.06991E-05-3.07121E-05 5.52769E-06 1.03836E-18-6.09000E-19
 -1      2318 9.99433E-05-2.96047E-05-3.01550E-05 6.08699E-06 1.21488E-18-1.10525E-18
 -1      2319 1.03164E-04-3.12164E-05-3.08224E-05 5.55588E-06 4.11988E-19-7.94406E-19
 -1      2320 1.04078E-04-3.18337E-05-3.09790E-05 5.34821E-06 3.34216E-19-1.42755E-18
 -1      2321 1.01390E-04-3.05939E-05-3.03551E-05 6.39317E-06 3.56792E-19-7.85275E-19
 -1      2322 1.05127E-04-3.25697E-05-3.10777E-05 5.03001E-06-1.54273E-19-1.57123E-18
 -1      2323 1.06067E-04-3.33358E-05-3.12042E-05 4.41202E-06-2.05273E-19-1.84232E-18
 -1      2324 1.03264E-04-3.20625E-05-3.05340E-05 6.15257E-06-1.93672E-19-1.07438E-18
 -1      2325 1.07367E-04-3.42795E-05-3.12998E-05 3.57533E-06-1.62177E-20-1.93438E-18
 -1      2326 1.08225E-04-3.51025E-05-3.13897E-05 2.42761E-06-2.46149E-19-1.29562E-18
 -1      2327 1.05633E-04-3.40454E-05-3.07045E-05 5.04430E-06-2.24531E-19-1.25694E-18
 -1      2328 1.09694E-04-3.61180E-05-3.15093E-05 9.22588E-07 2.34929E-19-5.22982E-19
 -1      2329 1.10279E-04-3.67559E-05-3.15720E-05-7.70009E-07 9.36640E-19 5.50221E-19
 -1      2330 1.08443E-04-3.63650E-05-3.09133E-05 2.72717E-06 5.93221E-19-3.13587E-19
 -1      2331 1.11638E-04-3.74951E-05-3.17666E-05-2.93973E-06 5.16793E-19 2.52472E-20
 -1      2332 1.11679E-04-3.75292E-05-3.18322E-05-4.94885E-06 3.18402E-19 1.39995E-19
 -1      2333 1.11338E-04-3.84263E-05-3.12559E-05-9.96133E-07 3.80569E-19 5.56832E-19
 -1      2334 1.12417E-04-3.74350E-05-3.21632E-05-7.40406E-06 4.00301E-19-1.81163E-19
 -1      2335 1.11668E-04-3.64020E-05-3.22715E-05-9.12723E-06 1.81153E-22-1.22264E-19
 -1      2336 1.13516E-04-3.91124E-05-3.18678E-05-5.82289E-06 1.09437E-19-2.06621E-19
 -1      2337 1.11233E-04-3.49744E-05-3.27598E-05-1.08978E-05-3.80198E-19-1.65170E-19
 -1      2338 1.09733E-04-3.27925E-05-3.29260E-05-1.14012E-05-6.76419E-19-6.92870E-19
 -1      2339 1.13844E-04-3.71013E-05-3.28520E-05-1.04489E-05-4.92454E-19-2.29084E-19
 -1      2340 1.08127E-04-3.02344E-05-3.34839E-05-1.11324E-05-1.00257E-18-1.30710E-18
 -1      2341 1.06485E-04-2.77393E-05-3.36639E-05-9.62771E-06-7.52437E-19-7.90770E-19
 -1      2342 1.11663E-04-3.19722E-05-3.41238E-05-1.23946E-05-1.18496E-18-2.65788E-19
 -1      2343 1.04799E-04-2.54256E-05-3.40897E-05-6.73141E-06-5.92023E-19-1.60176E-18
 -1      2344 1.03916E-04-2.40645E-05-3.41858E-05-3.45344E-06-8.67812E-19-1.08198E-18
 -1      2345 1.08158E-04-2.58004E-05-3.53293E-05-9.31708E-06-9.79428E-19-8.66935E-19
 -1      2346 1.03643E-04-2.37046E-05-3.42425E-05 9.97842E-07-9.41557E-19-1.47000E-18
 -1      2347 1.04123E-04-2.44886E-05-3.41794E-05 4.55112E-06-5.66208E-19-1.74558E-18
 -1      2348 1.06029E-04-2.23928E-05-3.59279E-05-1.39866E-06-1.05572E-18-1.65132E-18
 -1      2349 1.05524E-04-2.63824E-05-3.38359E-05 8.09046E-06-4.34819E-19-2.03143E-18
 -1      2350 1.07016E-04-2.86973E-05-3.36639E-05 1.01892E-05-7.92859E-19-1.94530E-18
 -1      2351 1.07231E-04-2.43286E-05-3.55710E-05 7.24044E-06-1.05252E-18-1.90627E-18
 -1      2352 1.08800E-04-3.13805E-05-3.31134E-05 1.12218E-05-9.47506E-19-1.75115E-18
 -1      2353 1.10403E-04-3.37906E-05-3.29262E-05 1.12292E-05-1.17150E-18-1.74675E-18
 -1      2354 1.10641E-04-3.01602E-05-3.44815E-05 1.19053E-05-5.45337E-19-1.77735E-18
 -1      2355 1.11204E-04-3.56092E-05-3.23935E-05 9.88330E-06-1.99397E-18-9.86606E-19
 -1      2356 1.12161E-04-3.69889E-05-3.22584E-05 8.39765E-06-8.88372E-19-4.63338E-19
 -1      2357 1.13398E-04-3.59130E-05-3.31591E-05 1.12189E-05-7.54197E-19-1.50725E-18
 -1      2358 1.11707E-04-3.74392E-05-3.18750E-05 5.99633E-06-2.97886E-19-1.27730E-18
 -1      2359 1.11842E-04-3.76679E-05-3.17911E-05 3.96313E-06 2.89134E-19-1.59808E-18
 -1      2360 1.13744E-04-3.88674E-05-3.20606E-05 7.02030E-06-9.37914E-19-2.06718E-19
 -1      2361 1.10579E-04-3.71014E-05-3.15543E-05 1.62036E-06 7.92270E-19-2.50541E-18
 -1      2362 1.10082E-04-3.65788E-05-3.14824E-05-2.27764E-07 8.54663E-19-2.75545E-18
 -1      2363 1.11954E-04-3.88518E-05-3.13339E-05 2.00877E-06-2.41160E-19-2.11617E-18
 -1      2364 1.08583E-04-3.55927E-05-3.13375E-05-1.96632E-06 1.46630E-18-3.28738E-18
 -1      2365 1.07734E-04-3.47783E-05-3.12437E-05-3.30580E-06 5.98976E-19-2.48368E-18
 -1      2366 1.09117E-04-3.70420E-05-3.09103E-05-2.15610E-06 6.62417E-19-2.95804E-18
 -1      2367 1.06345E-04-3.37855E-05-3.11356E-05-4.35493E-06-6.97590E-19-1.04232E-18
 -1      2368 1.05362E-04-3.29718E-05-3.10052E-05-5.14458E-06-9.25140E-19-9.47728E-19
 -1      2369 1.06180E-04-3.47032E-05-3.06574E-05-4.93596E-06 9.45566E-19-2.16513E-18
 -1      2370 1.04211E-04-3.21600E-05-3.09005E-05-5.62405E-06-6.22169E-19-9.08612E-20
 -1      2371 1.03224E-04-3.14739E-05-3.07369E-05-5.96059E-06 6.84778E-19 5.77184E-19
 -1      2372 1.03613E-04-3.25718E-05-3.04673E-05-6.42320E-06 8.02853E-20 6.02381E-19
 -1      2373 1.02315E-04-3.08791E-05-3.06233E-05-6.03901E-06 6.97389E-19 1.78822E-19
 -1      2374 1.01391E-04-3.03449E-05-3.04399E-05-6.05457E-06 8.70157E-19 4.11220E-20
 -1      2375 1.01539E-04-3.09195E-05-3.02812E-05-6.93259E-06 4.93210E-19 1.22224E-18
 -1      2376 1.00681E-04-2.99330E-05-3.03188E-05-5.87910E-06 1.14522E-18-2.57963E-19
 -1      2377 9.98489E-05-2.95289E-05-3.01313E-05-5.68985E-06 1.70258E-18-8.78943E-19
 -1      2378 9.99107E-05-2.97481E-05-3.00809E-05-6.78699E-06 4.75113E-19 5.69690E-19
 -1      2379 9.92861E-05-2.92459E-05-3.00102E-05-5.36609E-06 1.59470E-18-1.31726E-18
 -1      2380 9.85581E-05-2.89366E-05-2.98331E-05-5.05440E-06 2.00195E-18-1.50615E-18
 -1      2381 9.86314E-05-2.89511E-05-2.98713E-05-6.23977E-06 1.01778E-18 6.36988E-19
 -1      2382 9.81011E-05-2.87314E-05-2.97205E-05-4.64746E-06 2.17415E-18-1.60115E-18
 -1      2383 9.74786E-05-2.84834E-05-2.95644E-05-4.26204E-06 1.04945E-18-1.06732E-18
 -1      2384 9.76084E-05-2.84014E-05-2.96665E-05-5.46130E-06 1.71302E-18-5.58556E-19
 -1      2385 9.70941E-05-2.83158E-05-2.94668E-05-3.80485E-06 2.16205E-19-1.32727E-18
 -1      2386 9.65813E-05-2.81083E-05-2.93389E-05-3.36750E-06-4.02986E-20-1.37155E-18
 -1      2387 9.67674E-05-2.79892E-05-2.94810E-05-4.55057E-06 9.83740E-19-1.66020E-18
 -1      2388 9.33062E-05-2.76731E-05-2.81208E-05-4.15780E-07 1.10981E-18 2.36887E-19
 -1      2389 9.33816E-05-2.75692E-05-2.81807E-05-1.24993E-07 1.53692E-18 5.73889E-19
 -1      2390 9.32658E-05-2.78356E-05-2.80362E-05-8.39518E-07 7.70648E-19-1.44669E-19
 -1      2391 9.32147E-05-2.77455E-05-2.80450E-05-6.91730E-07 9.15409E-19-3.13133E-20
 -1      2392 9.39937E-05-2.77891E-05-2.83849E-05-4.59499E-07 1.29992E-18-6.63568E-19
 -1      2393 9.33790E-05-2.79696E-05-2.80287E-05-1.04243E-06 8.97449E-19-2.91167E-19
 -1      2394 9.32549E-05-2.78894E-05-2.80071E-05-9.78221E-07 7.57135E-19-6.83946E-20
 -1      2395 9.39189E-05-2.79937E-05-2.82622E-05-9.31592E-07 9.59473E-19-8.60578E-19
 -1      2396 9.35852E-05-2.80838E-05-2.80689E-05-1.11779E-06 1.01705E-18-4.38943E-19
 -1      2397 9.34219E-05-2.80127E-05-2.80296E-05-1.09999E-06 9.48444E-19-3.49396E-19
 -1      2398 9.39674E-05-2.81371E-05-2.82189E-05-1.16539E-06 1.05606E-18-1.01211E-18
 -1      2399 9.38455E-05-2.81818E-05-2.81388E-05-1.12796E-06 8.62242E-19-3.39716E-19
 -1      2400 9.36625E-05-2.81193E-05-2.80893E-05-1.13171E-06 9.77778E-19-2.72675E-19
 -1      2401 9.40965E-05-2.82410E-05-2.82279E-05-1.26119E-06 9.78430E-19-9.42500E-19
 -1      2402 9.41378E-05-2.82661E-05-2.82278E-05-1.11666E-06 1.07260E-18-3.47901E-19
 -1      2403 9.39447E-05-2.82112E-05-2.81720E-05-1.12440E-06 1.07337E-18-1.43308E-19
 -1      2404 9.42767E-05-2.83167E-05-2.82715E-05-1.28780E-06 9.68480E-19-6.16196E-19
 -1      2405 9.44533E-05-2.83398E-05-2.83310E-05-1.11598E-06 1.09434E-18-7.45848E-19
 -1      2406 9.42523E-05-2.82906E-05-2.82703E-05-1.11462E-06 1.29046E-18-5.80590E-19
 -1      2407 9.44904E-05-2.83709E-05-2.83392E-05-1.29428E-06 1.43779E-18-3.93398E-19
 -1      2408 9.47933E-05-2.84065E-05-2.84473E-05-1.15071E-06 1.47886E-18-1.50651E-18
 -1      2409 9.45812E-05-2.83608E-05-2.83813E-05-1.12991E-06 1.26661E-18-1.15498E-18
 -1      2410 9.47299E-05-2.84087E-05-2.84254E-05-1.31710E-06 1.39643E-18-9.20391E-19
 -1      2411 9.51669E-05-2.84712E-05-2.85787E-05-1.24113E-06 3.55180E-19-1.59296E-18
 -1      2412 9.49360E-05-2.84256E-05-2.85054E-05-1.19221E-06 9.11807E-19-1.59243E-18
 -1      2413 9.49952E-05-2.84346E-05-2.85280E-05-1.38470E-06 1.16298E-18-1.51097E-18
 -1      2414 9.55899E-05-2.85394E-05-2.87292E-05-1.40471E-06 5.08588E-19-1.61270E-18
 -1      2415 9.53289E-05-2.84901E-05-2.86457E-05-1.32000E-06 2.86872E-19-1.57452E-18
 -1      2416 9.52926E-05-2.84530E-05-2.86479E-05-1.52041E-06 4.36047E-19-1.86814E-18
 -1      2417 9.60826E-05-2.86183E-05-2.89049E-05-1.65700E-06 3.08930E-19-1.48831E-18
 -1      2418 9.57776E-05-2.85606E-05-2.88072E-05-1.52954E-06 6.35051E-19-1.44097E-18
 -1      2419 9.56331E-05-2.84688E-05-2.87875E-05-1.74425E-06 4.67482E-19-1.67797E-18
 -1      2420 9.66700E-05-2.87167E-05-2.91126E-05-2.01142E-06 3.13200E-19-1.70939E-18
 -1      2421 9.63044E-05-2.86447E-05-2.89964E-05-1.83524E-06 2.17413E-19-1.47688E-18
 -1      2422 9.60316E-05-2.84880E-05-2.89507E-05-2.07363E-06 1.31470E-19-1.18030E-18
 -1      2423 9.73802E-05-2.88460E-05-2.93595E-05-2.47785E-06 3.35107E-19-1.23603E-18
 -1      2424 9.69357E-05-2.87524E-05-2.92201E-05-2.24888E-06 2.61230E-19-1.29674E-18
 -1      2425 9.65067E-05-2.85189E-05-2.91417E-05-2.52293E-06 2.72837E-19-1.28161E-18
 -1      2426 9.82434E-05-2.90220E-05-2.96523E-05-3.05928E-06-1.60274E-19-7.71613E-19
 -1      2427 9.77010E-05-2.88971E-05-2.94855E-05-2.77728E-06 2.89330E-19-8.07747E-19
 -1      2428 9.70796E-05-2.85734E-05-2.93646E-05-3.10142E-06-3.68422E-20-4.94562E-19
 -1      2429 9.92906E-05-2.92666E-05-2.99953E-05-3.74565E-06-4.06098E-19-8.79365E-19
 -1      2430 9.86320E-05-2.90976E-05-2.97981E-05-3.41770E-06-4.41369E-19-9.22751E-19
 -1      2431 9.77752E-05-2.86706E-05-2.96218E-05-3.80910E-06-2.48689E-19-1.72106E-19
 -1      2432 1.00552E-04-2.96118E-05-3.03883E-05-4.50359E-06 1.34111E-19-1.10847E-18
 -1      2433 9.97622E-05-2.93812E-05-3.01603E-05-4.14984E-06 1.00885E-19-1.08783E-18
 -1      2434 9.86229E-05-2.88406E-05-2.99131E-05-4.62926E-06 1.17798E-19-2.94655E-19
 -1      2435 1.02054E-04-3.01041E-05-3.08243E-05-5.26087E-06 7.46109E-19-1.10858E-18
 -1      2436 1.01126E-04-2.97884E-05-3.05694E-05-4.92305E-06 4.64247E-19-1.30382E-18
 -1      2437 9.96592E-05-2.91319E-05-3.02335E-05-5.51667E-06 4.87635E-19-1.05435E-18
 -1      2438 1.03818E-04-3.08087E-05-3.12856E-05-5.88485E-06-3.34545E-20-4.60174E-19
 -1      2439 1.02756E-04-3.03779E-05-3.10145E-05-5.63763E-06 6.24242E-19-5.94083E-19
 -1      2440 1.00933E-04-2.96198E-05-3.05721E-05-6.38016E-06 4.21888E-19-5.75201E-19
 -1      2441 1.05853E-04-3.18077E-05-3.17425E-05-6.15791E-06-3.64668E-19-1.20371E-18
 -1      2442 1.04685E-04-3.12294E-05-3.14743E-05-6.12032E-06-1.94348E-19-9.63036E-19
 -1      2443 1.02511E-04-3.04134E-05-3.09114E-05-7.05911E-06 1.84199E-19-6.02968E-19
 -1      2444 1.08140E-04-3.31782E-05-3.21549E-05-5.76038E-06-1.27937E-18-1.25556E-18
 -1      2445 1.06930E-04-3.24345E-05-3.19172E-05-6.09940E-06-6.80285E-19-1.09078E-18
 -1      2446 1.04482E-04-3.16520E-05-3.12304E-05-7.29669E-06-4.69356E-19-9.75350E-19
 -1      2447 1.10594E-04-3.49243E-05-3.24826E-05-4.29033E-06-1.00619E-18-1.77153E-18
 -1      2448 1.09467E-04-3.40532E-05-3.23068E-05-5.19772E-06-1.44130E-18-1.78392E-18
 -1      2449 1.06941E-04-3.34628E-05-3.15139E-05-6.72103E-06-6.87914E-19-2.01570E-18
 -1      2450 1.12984E-04-3.68382E-05-3.27084E-05-1.38048E-06-7.22102E-19-4.39495E-19
 -1      2451 1.12150E-04-3.60059E-05-3.26178E-05-2.99115E-06-9.20434E-19-1.11413E-18
 -1      2452 1.09915E-04-3.58415E-05-3.17717E-05-4.86915E-06-1.20223E-18-1.99022E-18
 -1      2453 1.14815E-04-3.82976E-05-3.28711E-05 3.02980E-06-8.81569E-19 9.94743E-19
 -1      2454 1.14594E-04-3.78923E-05-3.28625E-05 8.00093E-07-8.92501E-19 3.17836E-20
 -1      2455 1.13206E-04-3.84324E-05-3.20662E-05-1.33305E-06-1.29794E-18-4.51256E-19
 -1      2456 1.15275E-04-3.81723E-05-3.30874E-05 8.20787E-06-6.90147E-19 2.97974E-18
 -1      2457 1.16019E-04-3.87751E-05-3.31137E-05 5.89888E-06-1.08158E-18 1.96828E-18
 -1      2458 1.16179E-04-4.02619E-05-3.25338E-05 3.94516E-06-1.70389E-18 8.57540E-19
 -1      2459 1.13589E-04-3.53942E-05-3.34946E-05 1.20990E-05 1.72590E-19 2.96722E-18
 -1      2460 1.15348E-04-3.73396E-05-3.34976E-05 1.08002E-05 3.80729E-19 2.89666E-18
 -1      2461 1.17505E-04-3.95501E-05-3.33653E-05 9.86057E-06-7.86119E-19 1.46223E-18
 -1      2462 1.09911E-04-3.02072E-05-3.40919E-05 1.18340E-05 1.33241E-18 1.32203E-18
 -1      2463 1.12161E-04-3.29940E-05-3.40403E-05 1.27841E-05 8.58536E-19 2.67285E-18
 -1      2464 1.16006E-04-3.52228E-05-3.46034E-05 1.37715E-05 7.09800E-19 1.08591E-18
 -1      2465 1.06418E-04-2.54915E-05-3.46381E-05 5.86169E-06 2.30562E-18-3.62904E-19
 -1      2466 1.07913E-04-2.74432E-05-3.45896E-05 9.22298E-06 1.86461E-18 7.98434E-19
 -1      2467 1.12168E-04-2.83645E-05-3.59655E-05 1.20918E-05 2.09404E-18 8.10604E-19
 -1      2468 1.05926E-04-2.49256E-05-3.47887E-05-3.38662E-06 1.47191E-18-1.34423E-18
 -1      2469 1.05706E-04-2.45725E-05-3.47900E-05 7.28394E-07 1.91829E-18-1.11448E-18
 -1      2470 1.09099E-04-2.34794E-05-3.68111E-05 3.80291E-06 2.93301E-18-7.16563E-19
 -1      2471 1.09054E-04-2.90108E-05-3.44322E-05-1.08108E-05 1.84574E-19-1.83528E-18
 -1      2472 1.07197E-04-2.65555E-05-3.45161E-05-8.09339E-06 6.60474E-19-2.18919E-18
 -1      2473 1.09650E-04-2.46487E-05-3.65140E-05-6.70898E-06 1.54967E-18-2.18116E-18
 -1      2474 1.13217E-04-3.45137E-05-3.38227E-05-1.25231E-05 1.91166E-18-2.06444E-18
 -1      2475 1.11076E-04-3.19028E-05-3.38675E-05-1.23435E-05 8.59659E-19-2.28434E-18
 -1      2476 1.13388E-04-3.04611E-05-3.55559E-05-1.31916E-05 6.39576E-19-2.38053E-18
 -1      2477 1.15677E-04-3.80565E-05-3.33011E-05-9.34420E-06 2.21285E-18-2.03699E-18
 -1      2478 1.14203E-04-3.65164E-05-3.32947E-05-1.10737E-05 2.48064E-18-1.56254E-18
 -1      2479 1.16668E-04-3.68690E-05-3.41504E-05-1.28454E-05 1.85344E-18-2.66157E-18
 -1      2480 1.15533E-04-3.86345E-05-3.29568E-05-4.10035E-06-7.16272E-19-4.37611E-19
 -1      2481 1.15135E-04-3.84211E-05-3.29425E-05-6.43474E-06 1.33235E-18-1.64887E-19
 -1      2482 1.17227E-04-4.01733E-05-3.30104E-05-7.89997E-06 1.11517E-18-2.81152E-19
 -1      2483 1.13634E-04-3.73147E-05-3.26928E-05 7.30889E-07-2.34032E-18-1.34235E-18
 -1      2484 1.14107E-04-3.79048E-05-3.27380E-05-1.30889E-06-1.76591E-18-6.44579E-19
 -1      2485 1.15187E-04-3.98593E-05-3.22958E-05-1.94360E-06-6.62984E-19 1.27851E-18
 -1      2486 1.10974E-04-3.53276E-05-3.24039E-05 4.10367E-06-1.54684E-18-9.84262E-20
 -1      2487 1.11967E-04-3.61990E-05-3.25378E-05 2.72124E-06-1.98611E-18-9.76803E-19
 -1      2488 1.11977E-04-3.76620E-05-3.18746E-05 2.89704E-06-2.44026E-18-8.48952E-20
 -1      2489 1.08207E-04-3.34273E-05-3.20377E-05 5.94462E-06-6.73821E-19-2.56376E-20
 -1      2490 1.09435E-04-3.42763E-05-3.22534E-05 5.21669E-06-1.50045E-18-3.58910E-19
 -1      2491 1.08671E-04-3.50502E-05-3.15788E-05 5.96421E-06-2.20052E-18-3.53969E-19
 -1      2492 1.05639E-04-3.18988E-05-3.15965E-05 6.59897E-06 2.87445E-19 2.03466E-18
 -1      2493 1.06916E-04-3.26087E-05-3.18662E-05 6.36810E-06 4.52875E-19 2.11127E-18
 -1      2494 1.05769E-04-3.28000E-05-3.12944E-05 7.44418E-06-1.10316E-18 4.75037E-19
 -1      2495 1.03369E-04-3.07617E-05-3.11130E-05 6.48128E-06-1.46804E-18 1.59011E-18
 -1      2496 1.04587E-04-3.13187E-05-3.14044E-05 6.56943E-06-3.28237E-19 1.78539E-18
 -1      2497 1.03382E-04-3.11358E-05-3.09779E-05 7.78626E-06-2.53800E-19 3.58477E-18
 -1      2498 1.01406E-04-2.99360E-05-3.06265E-05 5.92522E-06 1.08236E-18 8.67461E-19
 -1      2499 1.02510E-04-3.03655E-05-3.09125E-05 6.19201E-06 3.43912E-19 1.58868E-18
 -1      2500 1.01448E-04-2.99975E-05-3.06323E-05 7.42222E-06-4.77432E-20 1.97894E-18
 -1      2501 9.97343E-05-2.93264E-05-3.01706E-05 5.15051E-06 1.50016E-18 4.15923E-19
 -1      2502 1.00699E-04-2.96620E-05-3.04321E-05 5.50601E-06 1.45733E-18 5.84664E-19
 -1      2503 9.98719E-05-2.92385E-05-3.02795E-05 6.67128E-06 1.53267E-18 7.94751E-19
 -1      2504 9.83290E-05-2.88534E-05-2.97695E-05 4.27684E-06 1.32931E-18 7.85934E-19
 -1      2505 9.91448E-05-2.91242E-05-2.99943E-05 4.67533E-06 6.94581E-19 4.66987E-19
 -1      2506 9.85729E-05-2.87176E-05-2.99446E-05 5.73401E-06 1.29638E-18 1.01138E-18
 -1      2507 9.71641E-05-2.84598E-05-2.94379E-05 3.34863E-06 9.69702E-19 1.03185E-18
 -1      2508 9.78312E-05-2.86852E-05-2.96195E-05 3.77723E-06 2.03269E-18 1.32520E-18
 -1      2509 9.74881E-05-2.83248E-05-2.96477E-05 4.71919E-06 1.07222E-18 1.45564E-18
 -1      2510 9.62198E-05-2.81186E-05-2.91783E-05 2.38210E-06-5.52222E-19 2.07010E-18
 -1      2511 9.67468E-05-2.83108E-05-2.93169E-05 2.83449E-06 1.57064E-19 1.08827E-18
 -1      2512 9.65763E-05-2.79920E-05-2.94018E-05 3.66041E-06 4.30471E-19 2.21428E-18
 -1      2513 9.58640E-05-2.80026E-05-2.90744E-05 1.81943E-06-1.16060E-18 1.65843E-18
 -1      2514 9.32955E-05-2.41520E-05-2.96469E-05 2.80467E-06 6.39179E-19-1.67580E-18
 -1      2515 9.36068E-05-2.45945E-05-2.95740E-05 3.08430E-06-3.44773E-19-3.64957E-18
 -1      2516 9.28064E-05-2.34612E-05-2.97336E-05 1.92454E-06 1.02526E-18 8.59686E-19
 -1      2517 9.30252E-05-2.37778E-05-2.96800E-05 2.36517E-06 4.04871E-19 5.13052E-19
 -1      2518 9.29484E-05-2.40155E-05-2.95335E-05 2.96099E-06 1.31750E-18-6.16098E-19
 -1      2519 9.47044E-05-2.61075E-05-2.94079E-05 3.35732E-06-2.82532E-18-3.19864E-19
 -1      2520 9.50938E-05-2.66444E-05-2.93235E-05 3.22150E-06-2.22467E-18 1.71342E-18
 -1      2521 9.39545E-05-2.50707E-05-2.95336E-05 3.30955E-06-2.58524E-18-3.18527E-18
 -1      2522 9.43202E-05-2.55804E-05-2.94523E-05 3.38410E-06-3.00471E-18-1.03851E-18
 -1      2523 9.45663E-05-2.59178E-05-2.94160E-05 3.89417E-06-1.94170E-18-9.33610E-19
 -1      2524 9.36828E-05-2.48861E-05-2.94786E-05 3.67273E-06-8.38528E-19-1.42207E-18
 -1      2525 9.25411E-05-2.30808E-05-2.97815E-05 7.97758E-07-4.92177E-19 2.36660E-18
 -1      2526 9.26443E-05-2.32347E-05-2.97546E-05 1.33512E-06 5.18876E-19-9.60464E-20
 -1      2527 9.24336E-05-2.33998E-05-2.95741E-05 1.86103E-06 1.05770E-18 3.88547E-20
 -1      2528 9.25245E-05-2.30525E-05-2.97834E-05-4.20736E-07-2.41023E-18 1.36027E-18
 -1      2529 9.25030E-05-2.30269E-05-2.97871E-05 1.39408E-07-1.53138E-18 2.31806E-18
 -1      2530 9.21950E-05-2.31124E-05-2.95939E-05 5.28282E-07 5.29862E-20 1.83121E-18
 -1      2531 9.27512E-05-2.33737E-05-2.97389E-05-1.56917E-06-9.09648E-19 1.57241E-18
 -1      2532 9.26113E-05-2.31742E-05-2.97725E-05-1.06054E-06-2.36510E-18 2.44011E-18
 -1      2533 9.22524E-05-2.31822E-05-2.95892E-05-8.57422E-07-1.09839E-18 1.35718E-18
 -1      2534 9.31796E-05-2.39854E-05-2.96556E-05-2.48713E-06 1.37278E-18 1.52568E-18
 -1      2535 9.29446E-05-2.36463E-05-2.97134E-05-2.10013E-06 1.53193E-19 2.12486E-18
 -1      2536 9.25870E-05-2.35882E-05-2.95605E-05-2.10581E-06 3.80280E-19 2.68246E-18
 -1      2537 9.37725E-05-2.48326E-05-2.95420E-05-3.09104E-06 1.93624E-18 1.94827E-18
 -1      2538 9.34622E-05-2.43833E-05-2.96181E-05-2.86267E-06 1.75753E-18-6.68246E-20
 -1      2539 9.31508E-05-2.42746E-05-2.95113E-05-3.07302E-06 1.78908E-18 2.08214E-18
 -1      2540 9.44623E-05-2.58138E-05-2.94136E-05-3.28627E-06 6.65941E-19-8.01313E-20
 -1      2541 9.41123E-05-2.53075E-05-2.94976E-05-3.25644E-06 9.79238E-19 1.87563E-18
 -1      2542 9.38853E-05-2.51677E-05-2.94475E-05-3.64966E-06 6.61383E-19 3.36867E-19
 -1      2543 9.51721E-05-2.68244E-05-2.92823E-05-3.04397E-06-4.07810E-19-3.45017E-18
 -1      2544 9.48227E-05-2.63134E-05-2.93663E-05-3.22176E-06 2.35478E-19-1.98792E-18
 -1      2545 9.47030E-05-2.61666E-05-2.93735E-05-3.75398E-06-3.05842E-19-2.06104E-18
 -1      2546 2.67440E-05-1.95357E-05-2.77175E-06 1.97623E-05-2.24210E-18 4.89056E-18
 -1      2547 1.99615E-05-1.75016E-05-6.95028E-07 4.88749E-06-2.49854E-18 5.53748E-18
 -1      2548 9.99171E-05-5.36496E-05-1.99376E-05 3.96056E-05-7.86047E-19 8.55993E-19
 -1      2549 7.99952E-05-4.72018E-05-1.38679E-05 4.08222E-05-1.87830E-19 1.02412E-18
 -1      2550 9.35840E-05-2.74557E-05-2.83289E-05 3.75081E-07 1.92447E-18 6.63876E-19
 -1      2551 9.38661E-05-2.73211E-05-2.84754E-05 9.11592E-07 2.23750E-18 1.18365E-18
 -1      2552 9.42431E-05-2.74739E-05-2.86293E-05 4.03148E-07 2.04089E-18-1.92557E-19
 -1      2553 1.51373E-04-3.04721E-05-5.22336E-05-4.36508E-06 3.57935E-18-3.36569E-18
 -1      2554 1.49122E-04-3.87455E-05-4.74866E-05-4.74081E-07 2.66921E-18-2.83523E-18
 -1      2555 9.55753E-05-2.75737E-05-2.91372E-05-2.17293E-06 9.92391E-19-8.81299E-19
 -1      2556 3.36968E-05-2.57857E-05-3.11553E-06-2.82299E-05-1.24344E-18 6.43194E-18
 -1      2557 4.82772E-05-3.16139E-05-7.03568E-06-3.85676E-05-4.68621E-19 5.45023E-18
 -1      2558 6.06558E-05-3.81715E-05-9.46947E-06 4.15070E-05-6.70427E-19 2.97743E-18
 -1      2559 4.32986E-05-2.91218E-05-5.71343E-06 3.37534E-05-1.83171E-18 3.71869E-18
 -1      2560 7.76983E-05-4.32538E-05-1.43615E-05 3.98670E-05-1.78216E-18 1.35441E-18
 -1      2561 1.93664E-05-1.78371E-05-3.78636E-07-6.70795E-06-1.98203E-18 5.61456E-18
 -1      2562 2.35657E-05-2.03685E-05-1.11696E-06-1.89281E-05-1.62472E-18 6.98972E-18
 -1      2563 3.56111E-05-2.03273E-05-6.03225E-06-2.37933E-05-1.14159E-18 6.41246E-18
 -1      2564 2.62067E-05-1.48185E-05-4.47238E-06-5.21367E-07-2.03718E-18 5.43520E-18
 -1      2565 1.47471E-04-2.62793E-05-5.23748E-05-5.55500E-06-6.37752E-18 5.70900E-19
 -1      2566 1.45196E-04-3.44587E-05-4.76899E-05-4.14162E-06-6.45545E-18 1.93314E-18
 -1      2567 8.78815E-05-1.08054E-05-3.30684E-05-1.52027E-06 2.26975E-19-6.04748E-18
 -1      2568 8.79849E-05-1.09272E-05-3.30591E-05-2.64015E-06-2.95517E-19-6.09786E-18
 -1      2569 8.93828E-05-1.30974E-05-3.26957E-05-2.93312E-06-4.99843E-19-5.68521E-18
 -1      2570 8.91379E-05-1.27630E-05-3.27353E-05-9.42044E-07 3.57341E-19-5.67017E-18
 -1      2571 1.45013E-04-1.25308E-05-5.71770E-05 3.21211E-06 5.62176E-18-1.57495E-18
 -1      2572 1.46868E-04-1.20968E-05-5.80648E-05-6.33768E-07 5.30666E-18-1.56320E-18
 -1      2573 1.28965E-04-5.67435E-05-3.13239E-05 2.48870E-05-2.76154E-18 2.38186E-18
 -1      2574 1.14385E-04-5.62473E-05-2.48296E-05 3.18941E-05-1.62207E-18 5.94088E-19
 -1      2575 1.49976E-04-1.55892E-05-5.80244E-05-4.03879E-06 5.32487E-18-2.42294E-18
 -1      2576 1.50439E-04-2.05106E-05-5.59065E-05-5.18782E-06 5.11566E-18-2.62411E-18
 -1      2577 1.50382E-04-2.70921E-05-5.30666E-05 5.46964E-06 6.07577E-18 2.24040E-19
 -1      2578 1.48151E-04-1.97060E-05-5.56006E-05 6.54943E-06 5.63298E-18-4.80797E-19
 -1      2579 1.47624E-04-4.22351E-05-4.53791E-05-1.51255E-06 4.92756E-18 9.96534E-19
 -1      2580 1.51835E-04-3.54223E-05-5.02364E-05 1.94066E-06 6.36821E-18 9.53124E-19
 -1      2581 1.44216E-04-3.10532E-05-4.85706E-05 9.70015E-06 5.44790E-18 1.78766E-18
 -1      2582 1.33412E-04-5.63644E-05-3.30854E-05-1.79737E-05 1.23000E-18-2.07269E-18
 -1      2583 1.44030E-04-5.20993E-05-3.97377E-05-1.03109E-05 3.66236E-18 4.37281E-19
 -1      2584 1.04646E-04-5.51961E-05-2.11787E-05-3.55256E-05-1.38490E-18-7.22720E-18
 -1      2585 1.20743E-04-5.76459E-05-2.72652E-05-3.06172E-05-6.81226E-19-6.36725E-18
 -1      2586 7.16821E-05-4.28853E-05-1.20635E-05-4.11235E-05-1.30147E-18-6.61035E-18
 -1      2587 8.92044E-05-4.99124E-05-1.67104E-05-4.16467E-05-1.21613E-18-8.37398E-18
 -1      2588 1.03334E-04-5.44562E-05-2.07224E-05-3.55294E-05-2.44433E-18-6.47329E-18
 -1      2589 3.31656E-05-2.56545E-05-3.02519E-06-2.74104E-05-1.16181E-18-7.31116E-18
 -1      2590 4.86257E-05-3.10812E-05-7.27471E-06-3.65314E-05-1.06663E-18-6.41966E-18
 -1      2591 2.12643E-05-1.59713E-05-1.75374E-06-5.89179E-06-1.14217E-18-8.18255E-18
 -1      2592 2.50861E-05-2.01018E-05-1.84431E-06-1.86589E-05-8.12093E-19-8.35894E-18
 -1      2593 3.66883E-05-1.97308E-05-6.71575E-06-2.26023E-05-1.36182E-18-7.71520E-18
 -1      2594 5.87577E-05-3.77946E-05-8.94831E-06 4.20512E-05-3.61683E-19-7.19417E-18
 -1      2595 4.50273E-05-3.16248E-05-5.40755E-06 3.58920E-05 3.38390E-19-8.41273E-18
 -1      2596 1.49027E-04-2.73449E-05-5.23021E-05 3.76207E-06-3.98783E-18-3.98105E-20
 -1      2597 1.45104E-04-1.95284E-05-5.43346E-05 6.85264E-06-4.90199E-18-9.83405E-19
 -1      2598 9.62456E-05-5.17803E-05-1.91802E-05 4.10567E-05-9.88487E-19-6.16111E-19
 -1      2599 7.63797E-05-4.60209E-05-1.29127E-05 4.16448E-05-4.64174E-19-3.99858E-18
 -1      2600 7.59061E-05-4.27955E-05-1.37642E-05 4.07871E-05 2.08645E-18-3.53340E-18
 -1      2601 1.44666E-04-4.68000E-05-4.25278E-05 4.10821E-06-5.78150E-18 3.01904E-18
 -1      2602 1.38679E-04-5.27694E-05-3.68167E-05 1.18805E-05-4.11113E-18 2.74989E-18
 -1      2603 1.45928E-04-1.34685E-05-5.72112E-05-3.74166E-06-7.62499E-18-6.62856E-19
 -1      2604 1.45926E-04-1.77466E-05-5.53333E-05-5.56440E-06-6.91857E-18-4.20975E-19
 -1      2605 1.41910E-04-1.17658E-05-5.62283E-05 3.03293E-06-6.00080E-18-1.62980E-18
 -1      2606 1.43788E-04-1.05565E-05-5.73989E-05-4.50831E-07-6.98675E-18-1.54094E-18
 -1      2607 1.45448E-04-4.31118E-05-4.42032E-05-4.27328E-06-3.41672E-18 7.21037E-19
 -1      2608 1.50096E-04-3.58463E-05-4.92470E-05-3.67071E-07-3.12460E-18 1.25869E-18
 -1      2609 1.42241E-04-3.25290E-05-4.71452E-05 7.69128E-06-3.45780E-18-1.66061E-18
 -1      2610 1.33999E-04-5.43732E-05-3.42551E-05-1.78635E-05-2.55762E-18-1.34509E-18
 -1      2611 1.43343E-04-5.01178E-05-4.01138E-05-1.22857E-05-3.46256E-18-1.95665E-19
 -1      2612 1.42782E-04-4.81424E-05-4.05852E-05-1.27095E-06-2.12081E-18 3.09379E-19
 -1      2613 1.08425E-04-5.57394E-05-2.24989E-05-3.46043E-05 1.05180E-18 1.54859E-18
 -1      2614 1.23135E-04-5.74692E-05-2.83502E-05-2.91541E-05-1.08039E-18-7.73129E-19
 -1      2615 7.13360E-05-4.30023E-05-1.18122E-05-4.15927E-05 1.31735E-18 4.41855E-18
 -1      2616 9.12576E-05-5.04812E-05-1.75059E-05-4.22080E-05 1.25149E-18 3.33102E-18
 -1      2617 1.05338E-04-5.47724E-05-2.13452E-05-3.53075E-05 1.91779E-18 1.44411E-18
 -1      2618 9.50452E-05-2.00149E-05-3.22042E-05-1.17854E-05-4.17296E-18-2.03782E-18
 -1      2619 9.54368E-05-2.33465E-05-3.09183E-05-7.98383E-06-3.89636E-18-1.63260E-18
 -1      2620 9.50297E-05-2.25521E-05-3.10478E-05-7.63759E-06-3.65907E-18-2.54735E-18
 -1      2621 9.32237E-05-1.77048E-05-3.23926E-05-1.13177E-05-3.92053E-18-3.22738E-18
 -1      2622 9.62944E-05-2.50832E-05-3.05450E-05 7.60655E-06 4.22039E-18 2.85295E-18
 -1      2623 9.74173E-05-2.37673E-05-3.15857E-05 1.07059E-05 4.51614E-18 3.51483E-18
 -1      2624 9.58578E-05-2.12939E-05-3.20118E-05 1.19084E-05 4.90643E-18 1.98154E-18
 -1      2625 9.58487E-05-2.41520E-05-3.07605E-05 7.69839E-06 4.37427E-18 1.08886E-18
 -1      2626 1.31315E-04-5.74860E-05-3.17766E-05 2.43142E-05 5.45489E-19-7.72071E-19
 -1      2627 1.18138E-04-5.76964E-05-2.58333E-05 2.95808E-05-5.19655E-19-4.85879E-19
 -1      2628 1.38008E-04-1.21686E-05-5.41526E-05-3.56009E-06 4.65021E-18-2.21076E-18
 -1      2629 9.08160E-05-1.50519E-05-3.24663E-05-6.81067E-06-2.21495E-18-5.37345E-18
 -1      2630 8.97189E-05-1.31861E-05-3.28519E-05-7.97387E-06-2.43722E-18-5.64359E-18
 -1      2631 9.03680E-05-1.39657E-05-3.28045E-05-9.14835E-06-3.00405E-18-5.24508E-18
 -1      2632 9.47055E-05-2.69268E-05-2.90606E-05 1.89251E-06 2.78764E-18 1.30207E-19
 -1      2633 9.42238E-05-1.90754E-05-3.22516E-05 1.16176E-05 4.82350E-18 1.24593E-19
 -1      2634 1.37260E-04-5.77407E-05-3.39996E-05 1.26833E-05-4.59357E-19-2.74015E-18
 -1      2635 6.64989E-05-3.72056E-05-1.20942E-05-3.92063E-05 1.54266E-18 3.58718E-18
 -1      2636 9.58133E-05-2.76970E-05-2.91896E-05 2.53214E-06-1.24109E-18 3.31081E-18
 -1      2637 1.13703E-04-5.75844E-05-2.38167E-05 3.11385E-05-1.69428E-18-2.31875E-19
 -1      2638 9.56000E-05-2.73192E-05-2.92640E-05 2.85991E-06-8.72348E-19 3.39831E-18
 -1      2639 1.41708E-04-4.15656E-05-4.30567E-05-4.99158E-06-4.67218E-18 3.14736E-18
 -1      2640 3.92216E-05-2.31844E-05-6.31905E-06 2.73731E-05-2.02314E-18 4.45052E-18
 -1      2641 3.73183E-05-1.72119E-05-8.17054E-06 2.01613E-05-2.03463E-18 4.71416E-18
 -1      2642 5.29970E-05-2.68235E-05-1.08345E-05 3.21871E-05-2.31515E-18 3.95776E-18
 -1      2643 1.31422E-04-5.82656E-05-3.12391E-05-1.78829E-05-8.96796E-19-1.24239E-18
 -1      2644 9.46991E-05-2.05979E-05-3.17133E-05 9.68408E-06 4.53744E-18-3.06924E-19
 -1      2645 1.43366E-04-2.53995E-05-5.06531E-05-9.80474E-06 3.34366E-18-4.19408E-18
 -1      2646 9.59978E-05-2.78750E-05-2.91848E-05-2.58884E-06-2.14322E-20-2.26614E-19
 -1      2647 9.55154E-05-2.72723E-05-2.92516E-05-2.90835E-06 7.36559E-19-2.26313E-18
 -1      2648 9.55563E-05-2.71444E-05-2.93164E-05-3.52228E-06 8.27588E-20-1.73179E-18
 -1      2649 9.63715E-05-2.80150E-05-2.92840E-05-3.02649E-06-1.55358E-19-7.70130E-19
 -1      2650 1.38664E-04-2.12857E-05-5.05101E-05-9.79173E-06-5.80196E-18 7.25378E-19
 -1      2651 1.38146E-04-1.56791E-05-5.29777E-05 7.05475E-06-4.69383E-18-2.57233E-18
 -1      2652 1.27235E-04-1.10520E-05-5.04461E-05 5.99561E-06-5.33101E-18-3.31444E-18
 -1      2653 1.31918E-04-1.84898E-05-4.88648E-05 1.09397E-05-3.82859E-18-4.08132E-18
 -1      2654 1.34531E-04-1.04186E-05-5.34539E-05-2.96927E-06-6.49674E-18-1.31711E-18
 -1      2655 1.09735E-04-5.60193E-05-2.27314E-05 3.37724E-05 9.52277E-19 1.66966E-18
 -1      2656 2.40708E-05-1.52601E-05-3.23201E-06 2.10274E-06-3.73542E-19-8.63550E-18
 -1      2657 3.07907E-05-1.29559E-05-7.08794E-06-4.39728E-06-2.32405E-20-8.36254E-18
 -1      2658 2.81264E-05-1.40801E-05-5.66429E-06 1.09301E-05 6.24025E-19-8.96373E-18
 -1      2659 6.42970E-05-3.69659E-05-1.13189E-05-3.88883E-05-1.61317E-18-6.12468E-18
 -1      2660 7.90657E-05-4.15346E-05-1.58547E-05-3.78553E-05-2.59690E-18-6.10690E-18
 -1      2661 5.76514E-05-2.95639E-05-1.15660E-05-3.48172E-05-1.91387E-18-6.05681E-18
 -1      2662 1.43854E-04-4.90028E-05-4.06841E-05 9.72357E-07 3.34297E-18 1.85543E-18
 -1      2663 4.14783E-05-2.56332E-05-6.29158E-06 3.10804E-05 1.43657E-18-8.77081E-18
 -1      2664 1.45326E-04-4.48164E-05-4.30865E-05-3.00216E-06 1.23879E-18-3.95501E-18
 -1      2665 1.34567E-04-5.70479E-05-3.31311E-05 1.39625E-05-1.33879E-18 4.12442E-18
 -1      2666 9.11389E-05-1.50092E-05-3.26803E-05-9.83159E-06-3.21274E-18-4.83474E-18
 -1      2667 9.21548E-05-1.62788E-05-3.25961E-05-1.08630E-05-3.71930E-18-4.11780E-18
 -1      2668 9.36306E-05-1.92062E-05-3.18916E-05-9.20807E-06-3.64264E-18-3.59682E-18
 -1      2669 9.20708E-05-1.68209E-05-3.22409E-05-8.31543E-06-2.97869E-18-4.68331E-18
 -1      2670 1.38254E-04-1.54687E-05-5.29275E-05 7.00040E-06 5.19189E-18 7.42107E-19
 -1      2671 1.30372E-04-5.94809E-05-3.02786E-05-1.91461E-05-7.95893E-19-1.99402E-18
 -1      2672 9.56227E-05-2.71504E-05-2.93387E-05 3.53223E-06-1.26460E-18 2.51319E-18
 -1      2673 9.61681E-05-2.77057E-05-2.93473E-05-3.70364E-06-1.54156E-19-1.26046E-18
 -1      2674 9.05951E-05-1.51755E-05-3.23450E-05 3.19781E-06 2.07973E-18-4.75538E-18
 -1      2675 9.04074E-05-1.49040E-05-3.23788E-05 2.26316E-06 1.63103E-18-4.93299E-18
 -1      2676 9.02746E-05-1.47010E-05-3.24086E-05 1.42363E-06 1.37332E-18-5.06984E-18
 -1      2677 9.02103E-05-1.46086E-05-3.24200E-05 4.65904E-07 9.38630E-19-5.16456E-18
 -1      2678 9.14590E-05-1.65919E-05-3.20728E-05 1.64214E-06 1.42125E-18-4.72209E-18
 -1      2679 9.21581E-05-1.75521E-05-3.20120E-05 6.48175E-06 3.57876E-18-3.20414E-18
 -1      2680 9.16400E-05-1.67585E-05-3.21144E-05 5.64120E-06 3.16781E-18-3.69290E-18
 -1      2681 9.35642E-05-1.97758E-05-3.16662E-05 7.60716E-06 4.03570E-18-2.14492E-18
 -1      2682 9.27815E-05-1.85217E-05-3.18426E-05 7.02738E-06 3.74313E-18-2.71869E-18
 -1      2683 9.34493E-05-1.98654E-05-3.15132E-05 5.74145E-06 3.36386E-18-2.64442E-18
 -1      2684 9.51995E-05-2.54000E-05-2.99263E-05 3.98827E-06 3.41897E-18-4.47301E-19
 -1      2685 9.55359E-05-2.45513E-05-3.03896E-05 5.62314E-06 3.72788E-18-2.29987E-19
 -1      2686 1.34378E-04-2.07050E-05-4.93792E-05-1.10042E-05 3.25515E-18-2.20244E-18
 -1      2687 1.36554E-04-2.94302E-05-4.62678E-05-1.29879E-05 1.73695E-18-2.99701E-18
 -1      2688 9.46918E-05-2.19018E-05-3.12024E-05 7.85585E-06 4.20802E-18-6.34725E-19
 -1      2689 6.03354E-05-2.99566E-05-1.24852E-05-3.47196E-05 1.41931E-18 3.26743E-18
 -1      2690 8.00273E-05-4.14573E-05-1.65234E-05-3.89499E-05 2.27238E-18 2.62591E-18
 -1      2691 9.53543E-05-2.58930E-05-2.97388E-05-2.70618E-06-2.35002E-18-2.33646E-18
 -1      2692 9.51882E-05-2.64785E-05-2.94587E-05-1.72074E-06-1.98203E-18-2.25658E-18
 -1      2693 9.52121E-05-2.69895E-05-2.92150E-05-9.73654E-07-1.73654E-18-2.08927E-18
 -1      2694 9.50799E-05-2.73396E-05-2.90375E-05-3.60961E-07-1.47433E-18-2.25259E-18
 -1      2695 9.54183E-05-2.63137E-05-2.96222E-05-1.61265E-06-1.89913E-18-2.53622E-18
 -1      2696 9.50482E-05-2.76399E-05-2.88734E-05 1.16387E-07-1.40937E-18-2.04229E-18
 -1      2697 9.49748E-05-2.78588E-05-2.87664E-05 4.79796E-07-1.25075E-18-2.09218E-18
 -1      2698 9.54207E-05-2.72977E-05-2.92032E-05-3.16768E-07-1.46951E-18-2.32799E-18
 -1      2699 9.49348E-05-2.80365E-05-2.86606E-05 7.65506E-07-1.15889E-18-2.14001E-18
 -1      2700 9.49136E-05-2.81759E-05-2.86022E-05 9.67649E-07-1.21221E-18-2.21556E-18
 -1      2701 9.53630E-05-2.78959E-05-2.89215E-05 5.01368E-07-1.37591E-18-2.26363E-18
 -1      2702 9.48814E-05-2.82773E-05-2.85387E-05 1.12598E-06-1.18984E-18-2.22626E-18
 -1      2703 9.48991E-05-2.83646E-05-2.85137E-05 1.22865E-06-9.81592E-19-2.37432E-18
 -1      2704 9.53032E-05-2.82540E-05-2.87410E-05 9.85553E-07-1.31323E-18-2.38544E-18
 -1      2705 9.48785E-05-2.84159E-05-2.84810E-05 1.30883E-06-9.04368E-19-2.31578E-18
 -1      2706 9.49233E-05-2.84672E-05-2.84792E-05 1.35565E-06-7.82126E-19-2.37508E-18
 -1      2707 9.52597E-05-2.84552E-05-2.86350E-05 1.25278E-06-9.97029E-19-2.48376E-18
 -1      2708 9.49135E-05-2.84839E-05-2.84689E-05 1.39447E-06-6.98938E-19-2.30069E-18
 -1      2709 9.49769E-05-2.85088E-05-2.84837E-05 1.41684E-06-8.13958E-19-2.10669E-18
 -1      2710 9.52359E-05-2.85492E-05-2.85834E-05 1.39223E-06-7.58782E-19-2.00620E-18
 -1      2711 9.49760E-05-2.85004E-05-2.84901E-05 1.44189E-06-8.86355E-19-1.89528E-18
 -1      2712 9.50532E-05-2.85056E-05-2.85171E-05 1.46295E-06-5.69657E-19-1.88319E-18
 -1      2713 9.52294E-05-2.85669E-05-2.85722E-05 1.47103E-06-6.62983E-19-1.85735E-18
 -1      2714 9.50595E-05-2.84782E-05-2.85363E-05 1.49519E-06-3.71333E-19-1.55828E-18
 -1      2715 9.51488E-05-2.84686E-05-2.85733E-05 1.53248E-06-1.54667E-19-1.56662E-18
 -1      2716 9.52372E-05-2.85280E-05-2.85917E-05 1.53989E-06-3.05689E-19-1.28404E-18
 -1      2717 9.51611E-05-2.84262E-05-2.86028E-05 1.58819E-06-1.08356E-19-1.60965E-18
 -1      2718 9.52632E-05-2.84056E-05-2.86486E-05 1.65536E-06 3.47323E-20-1.45291E-18
 -1      2719 9.52567E-05-2.84456E-05-2.86350E-05 1.63774E-06-2.28770E-19-1.45883E-18
 -1      2720 9.52812E-05-2.83512E-05-2.86869E-05 1.74750E-06 3.90102E-20-1.68747E-18
 -1      2721 9.53990E-05-2.83233E-05-2.87413E-05 1.85537E-06-5.28974E-20-1.53525E-18
 -1      2722 9.52869E-05-2.83287E-05-2.86978E-05 1.79504E-06 2.80392E-20-9.35650E-19
 -1      2723 9.54231E-05-2.82597E-05-2.87874E-05 1.99431E-06-1.83642E-19-1.32347E-18
 -1      2724 9.55613E-05-2.82286E-05-2.88505E-05 2.15126E-06-3.80481E-19-8.86663E-19
 -1      2725 9.53280E-05-2.81848E-05-2.87770E-05 2.03602E-06 7.41260E-20-1.16290E-18
 -1      2726 9.55932E-05-2.81595E-05-2.89036E-05 2.34507E-06-6.45757E-19-6.66586E-19
 -1      2727 9.57582E-05-2.81309E-05-2.89759E-05 2.55685E-06-6.14611E-19-5.58480E-19
 -1      2728 9.53826E-05-2.80218E-05-2.88702E-05 2.37975E-06-4.90208E-19-9.21082E-19
 -1      2729 9.58013E-05-2.80618E-05-2.90348E-05 2.81093E-06-8.31980E-19-6.60150E-19
 -1      2730 9.60011E-05-2.80441E-05-2.91164E-05 3.07973E-06-9.83447E-19-9.54455E-19
 -1      2731 9.54559E-05-2.78507E-05-2.89750E-05 2.84010E-06-8.53904E-19-6.97735E-19
 -1      2732 9.60620E-05-2.79847E-05-2.91795E-05 3.39583E-06-7.10350E-19-9.92132E-19
 -1      2733 9.63073E-05-2.79911E-05-2.92697E-05 3.71844E-06-3.62277E-19-9.48653E-19
 -1      2734 9.55579E-05-2.76895E-05-2.90880E-05 3.42457E-06-9.28843E-19-4.90119E-19
 -1      2735 9.63975E-05-2.79575E-05-2.93345E-05 4.09282E-06-1.24655E-19-6.46310E-19
 -1      2736 9.67025E-05-2.80082E-05-2.94314E-05 4.45774E-06 1.33107E-19-3.85572E-19
 -1      2737 9.57065E-05-2.75676E-05-2.92044E-05 4.13162E-06-9.21345E-20-7.03219E-19
 -1      2738 9.68422E-05-2.80268E-05-2.94942E-05 4.87830E-06 5.00445E-20-4.44847E-19
 -1      2739 9.72265E-05-2.81526E-05-2.95944E-05 5.26151E-06 2.69258E-19-1.04834E-18
 -1      2740 9.59330E-05-2.75334E-05-2.93171E-05 4.94642E-06 4.69838E-20-4.96646E-19
 -1      2741 9.74497E-05-2.82640E-05-2.96504E-05 5.70360E-06 7.66336E-19-8.17861E-19
 -1      2742 9.79411E-05-2.85094E-05-2.97490E-05 6.06294E-06 1.43881E-18-1.04296E-18
 -1      2743 9.62902E-05-2.76622E-05-2.94170E-05 5.83443E-06 6.10114E-19-3.38899E-19
 -1      2744 9.83025E-05-2.87732E-05-2.97932E-05 6.48318E-06 1.50376E-18-1.42924E-18
 -1      2745 9.89398E-05-2.91984E-05-2.98844E-05 6.75146E-06 9.54784E-19-1.32484E-18
 -1      2746 9.68649E-05-2.80664E-05-2.94939E-05 6.73228E-06 1.29732E-18-1.24751E-18
 -1      2747 9.95225E-05-2.96940E-05-2.99140E-05 7.07868E-06 6.10057E-19-7.56469E-19
 -1      2748 1.00355E-04-3.03702E-05-2.99937E-05 7.15641E-06 4.74868E-19-5.43369E-19
 -1      2749 9.77923E-05-2.89022E-05-2.95398E-05 7.53399E-06 1.19789E-18-1.15868E-18
 -1      2750 1.01273E-04-3.11884E-05-3.00126E-05 7.27837E-06-3.80383E-20-5.06518E-19
 -1      2751 1.02349E-04-3.21767E-05-3.00830E-05 7.02907E-06-9.22828E-20-4.53788E-19
 -1      2752 9.92677E-05-3.03629E-05-2.95564E-05 8.07002E-06 2.90525E-19-2.03588E-19
 -1      2753 1.03734E-04-3.33872E-05-3.01106E-05 6.77547E-06 9.54608E-21-2.99089E-19
 -1      2754 1.05070E-04-3.46853E-05-3.01880E-05 6.03160E-06 7.87509E-20-3.31902E-19
 -1      2755 1.01539E-04-3.26376E-05-2.95693E-05 8.07588E-06 6.49779E-20 3.39376E-19
 -1      2756 1.07013E-04-3.62590E-05-3.02707E-05 5.16309E-06 4.50166E-19-8.45362E-20
 -1      2757 1.08520E-04-3.76964E-05-3.03948E-05 3.76123E-06 9.99117E-19 5.07939E-19
 -1      2758 1.04844E-04-3.57913E-05-2.96494E-05 7.15505E-06 4.24895E-19 1.03598E-18
 -1      2759 1.10944E-04-3.93610E-05-3.06187E-05 2.00206E-06 5.93680E-19 7.49041E-19
 -1      2760 1.12323E-04-4.04492E-05-3.08599E-05-1.10691E-07 1.36706E-19 4.26122E-19
 -1      2761 1.09233E-04-3.95144E-05-2.99401E-05 4.77371E-06 9.69521E-19 1.20112E-18
 -1      2762 1.14752E-04-4.15060E-05-3.13563E-05-2.86558E-06-1.95264E-19 4.12935E-19
 -1      2763 1.15469E-04-4.14086E-05-3.18023E-05-5.39170E-06-3.19378E-19-1.14512E-19
 -1      2764 1.14187E-04-4.26797E-05-3.06820E-05 4.26281E-07-6.26523E-20 1.12273E-18
 -1      2765 1.16948E-04-4.07391E-05-3.27007E-05-8.72117E-06 3.80305E-20 3.90340E-19
 -1      2766 1.16340E-04-3.85477E-05-3.33879E-05-1.07189E-05-5.71449E-19 5.85607E-19
 -1      2767 1.18336E-04-4.32854E-05-3.21837E-05-5.77274E-06 1.00420E-19 1.38768E-18
 -1      2768 1.15892E-04-3.53607E-05-3.46533E-05-1.30349E-05-1.02491E-18 7.56520E-19
 -1      2769 1.13993E-04-3.11391E-05-3.54729E-05-1.30579E-05-1.11475E-18 1.21815E-18
 -1      2770 1.19440E-04-3.87861E-05-3.46217E-05-1.18883E-05-7.46170E-19 1.54193E-18
 -1      2771 1.11762E-04-2.66256E-05-3.67462E-05-1.17241E-05-1.52228E-18 5.34319E-19
 -1      2772 1.09837E-04-2.26622E-05-3.73973E-05-9.01050E-06-1.40705E-18-2.31143E-19
 -1      2773 1.16204E-04-2.85671E-05-3.76139E-05-1.38391E-05-1.95310E-18 1.10829E-18
 -1      2774 1.08316E-04-1.98951E-05-3.80627E-05-3.91271E-06-1.17965E-18-1.00440E-18
 -1      2775 1.07823E-04-1.92384E-05-3.81554E-05 5.50824E-07-1.19604E-18-1.16431E-18
 -1      2776 1.12265E-04-1.96950E-05-3.97173E-05-7.09105E-06-1.72572E-18-5.08203E-19
 -1      2777 1.08949E-04-2.09037E-05-3.77565E-05 6.50389E-06-1.78181E-18-1.71739E-18
 -1      2778 1.10444E-04-2.41954E-05-3.72282E-05 9.86202E-06-1.58099E-18-1.93499E-18
 -1      2779 1.11236E-04-1.77262E-05-4.00899E-05 4.49851E-06-2.19254E-18-2.13612E-18
 -1      2780 1.12792E-04-2.85078E-05-3.60848E-05 1.24770E-05-1.25853E-18-2.04705E-18
 -1      2781 1.14858E-04-3.30204E-05-3.52626E-05 1.32642E-05-6.23774E-19-2.01966E-18
 -1      2782 1.14836E-04-2.53207E-05-3.84390E-05 1.26564E-05-2.01790E-18-3.19285E-18
 -1      2783 1.16047E-04-3.69241E-05-3.39168E-05 1.16131E-05-6.13305E-20-2.31459E-18
 -1      2784 1.16914E-04-3.97400E-05-3.31659E-05 9.95752E-06-3.97349E-19-1.25587E-18
 -1      2785 1.19091E-04-3.68380E-05-3.52598E-05 1.28149E-05-6.12239E-19-3.42350E-18
 -1      2786 1.16002E-04-4.10792E-05-3.21529E-05 6.83230E-06-1.39917E-18-1.43751E-18
 -1      2787 1.15582E-04-4.17527E-05-3.16312E-05 4.27150E-06-1.07074E-18-1.80171E-18
 -1      2788 1.18912E-04-4.24615E-05-3.27618E-05 7.47326E-06-9.30936E-19-3.16979E-18
 -1      2789 1.13288E-04-4.10561E-05-3.10241E-05 1.21272E-06-3.03081E-19-1.73816E-18
 -1      2790 1.12019E-04-4.02050E-05-3.07248E-05-1.09331E-06-2.52653E-19-2.47134E-18
 -1      2791 1.15557E-04-4.33629E-05-3.09885E-05 8.84940E-07-1.03269E-18-2.01655E-18
 -1      2792 1.09520E-04-3.86309E-05-3.04300E-05-3.17542E-06-4.02731E-19-2.80638E-18
 -1      2793 1.07986E-04-3.72240E-05-3.02719E-05-4.81688E-06 4.60816E-19-2.87718E-18
 -1      2794 1.10625E-04-4.06545E-05-3.00478E-05-4.09330E-06-5.05273E-19-1.60703E-18
 -1      2795 1.05879E-04-3.55824E-05-3.01550E-05-5.94856E-06 1.90785E-18-2.52531E-18
 -1      2796 1.04452E-04-3.42085E-05-3.00623E-05-6.89965E-06 1.78866E-18-1.73620E-18
 -1      2797 1.05976E-04-3.69405E-05-2.96452E-05-7.06671E-06 8.74928E-19-1.76427E-18
 -1      2798 1.02906E-04-3.28795E-05-3.00235E-05-7.33593E-06 1.06820E-18-1.81158E-18
 -1      2799 1.01725E-04-3.17827E-05-2.99480E-05-7.73931E-06 5.89405E-19-8.34249E-19
 -1      2800 1.02337E-04-3.35626E-05-2.95193E-05-8.41577E-06 1.77072E-18-3.13269E-18
 -1      2801 1.00679E-04-3.08450E-05-2.99310E-05-7.73342E-06 2.17213E-20-4.45669E-19
 -1      2802 9.97492E-05-3.00598E-05-2.98515E-05-7.75601E-06 2.26901E-19-6.33962E-19
 -1      2803 9.97759E-05-3.10128E-05-2.94996E-05-8.68985E-06 5.58059E-19-3.24954E-18
 -1      2804 9.90721E-05-2.94568E-05-2.98316E-05-7.49242E-06 4.29511E-19-3.60973E-19
 -1      2805 9.83482E-05-2.89276E-05-2.97441E-05-7.27345E-06 1.18512E-18-7.09998E-19
 -1      2806 9.80799E-05-2.92928E-05-2.94985E-05-8.31915E-06 9.71953E-19-2.39305E-18
 -1      2807 9.79145E-05-2.85628E-05-2.97157E-05-6.87079E-06 9.42209E-19-6.62704E-19
 -1      2808 9.73441E-05-2.82112E-05-2.96253E-05-6.50940E-06 1.07580E-18 2.33113E-19
 -1      2809 9.69876E-05-2.82187E-05-2.94831E-05-7.58878E-06 1.02528E-18-1.89269E-18
 -1      2810 9.70564E-05-2.79917E-05-2.95917E-05-6.03740E-06 8.94492E-19-4.01210E-19
 -1      2811 9.65960E-05-2.77467E-05-2.95057E-05-5.59528E-06 5.69915E-19-1.28992E-18
 -1      2812 9.62777E-05-2.75740E-05-2.94501E-05-6.67111E-06 2.89421E-19-1.50565E-18
 -1      2813 9.63835E-05-2.75977E-05-2.94728E-05-5.09190E-06 1.86131E-19-1.86804E-18
 -1      2814 9.60069E-05-2.74059E-05-2.93986E-05-4.60013E-06 2.84928E-19-2.00921E-18
 -1      2815 9.57868E-05-2.71736E-05-2.94095E-05-5.66182E-06-4.66576E-19-1.42705E-18
 -1      2816 9.44838E-05-2.80950E-05-2.84515E-05-9.49028E-07 1.12352E-18-1.18501E-18
 -1      2817 9.44924E-05-2.79724E-05-2.84974E-05-7.57548E-07 1.13928E-18-9.11366E-19
 -1      2818 1.30913E-04-1.75493E-05-4.92098E-05-1.01771E-05-4.98373E-18 1.10765E-18
 -1      2819 1.32581E-04-2.44334E-05-4.66579E-05-1.28560E-05-4.39335E-18 2.54216E-18
 -1      2820 9.45490E-05-2.78264E-05-2.85959E-05-4.67660E-07 1.18901E-18-9.58271E-19
 -1      2821 9.46328E-05-2.76431E-05-2.86915E-05-1.13635E-07 1.56995E-18-7.26911E-19
 -1      2822 9.50118E-05-2.78777E-05-2.87803E-05-4.92766E-07 1.38198E-18-1.20681E-18
 -1      2823 9.45698E-05-2.83704E-05-2.83690E-05-1.31236E-06 8.24292E-19-8.22763E-19
 -1      2824 9.44939E-05-2.83139E-05-2.83599E-05-1.27478E-06 1.02466E-18-9.26847E-19
 -1      2825 9.46817E-05-2.84293E-05-2.83911E-05-1.35820E-06 9.46191E-19-6.29554E-19
 -1      2826 9.45844E-05-2.83930E-05-2.83669E-05-1.34511E-06 8.25959E-19-8.08840E-19
 -1      2827 9.49401E-05-2.84745E-05-2.84889E-05-1.37861E-06 8.31217E-19-9.32548E-19
 -1      2828 9.48224E-05-2.84539E-05-2.84403E-05-1.38663E-06 1.42250E-18-5.26461E-19
 -1      2829 9.47102E-05-2.84330E-05-2.84051E-05-1.37560E-06 1.24166E-18-4.00409E-19
 -1      2830 9.49877E-05-2.85109E-05-2.84928E-05-1.44337E-06 1.00860E-18-9.82022E-19
 -1      2831 9.49868E-05-2.84522E-05-2.85108E-05-1.43585E-06 1.47552E-18-9.22365E-19
 -1      2832 9.48617E-05-2.84431E-05-2.84665E-05-1.40980E-06 1.48242E-18-4.08569E-19
 -1      2833 9.50576E-05-2.85015E-05-2.85262E-05-1.49512E-06 1.44388E-18-8.60605E-19
 -1      2834 9.51748E-05-2.84302E-05-2.86000E-05-1.53597E-06 1.03513E-18-7.26175E-19
 -1      2835 9.50352E-05-2.84298E-05-2.85472E-05-1.48129E-06 1.48618E-18-5.76616E-19
 -1      2836 9.51455E-05-2.84562E-05-2.85830E-05-1.57363E-06 1.26863E-18-6.16202E-19
 -1      2837 9.53904E-05-2.83926E-05-2.87075E-05-1.71182E-06 3.98598E-19-1.17024E-18
 -1      2838 9.52322E-05-2.83980E-05-2.86456E-05-1.61714E-06 6.68118E-19-7.35505E-19
 -1      2839 9.52502E-05-2.83817E-05-2.86597E-05-1.71052E-06 1.07232E-18 7.00656E-20
 -1      2840 9.56410E-05-2.83440E-05-2.88345E-05-1.98457E-06 1.15261E-19-1.09324E-18
 -1      2841 9.54577E-05-2.83522E-05-2.87621E-05-1.84013E-06 3.46631E-19-1.36337E-18
 -1      2842 9.53727E-05-2.82829E-05-2.87545E-05-1.93185E-06 5.71112E-19-5.83457E-19
 -1      2843 9.59366E-05-2.82902E-05-2.89830E-05-2.37232E-06 2.88193E-19-1.51137E-18
 -1      2844 9.57200E-05-2.82971E-05-2.88984E-05-2.16985E-06 9.31220E-20-1.22679E-18
 -1      2845 9.55161E-05-2.81638E-05-2.88671E-05-2.25968E-06 2.29620E-19-1.28610E-18
 -1      2846 9.62899E-05-2.82393E-05-2.91548E-05-2.88953E-06-6.14719E-21-1.22689E-18
 -1      2847 9.60302E-05-2.82394E-05-2.90563E-05-2.62280E-06 2.32140E-19-1.49053E-18
 -1      2848 9.56853E-05-2.80300E-05-2.89970E-05-2.71256E-06 1.46561E-19-1.71692E-18
 -1      2849 9.67166E-05-2.82050E-05-2.93511E-05-3.54477E-06-1.64121E-19-3.96412E-19
 -1      2850 9.64024E-05-2.81896E-05-2.92373E-05-3.21106E-06-2.27967E-19-9.08333E-19
 -1      2851 9.58880E-05-2.78908E-05-2.91436E-05-3.30480E-06-3.62546E-19-1.06445E-18
 -1      2852 9.72373E-05-2.82106E-05-2.95707E-05-4.33637E-06-2.14121E-19-4.34882E-19
 -1      2853 9.68552E-05-2.81658E-05-2.94416E-05-3.93922E-06-1.44394E-19-1.19677E-19
 -1      2854 9.61357E-05-2.77635E-05-2.93045E-05-4.04413E-06-4.58432E-19-6.64019E-19
 -1      2855 9.78807E-05-2.82960E-05-2.98094E-05-5.24524E-06 2.45378E-19-5.74240E-19
 -1      2856 9.74144E-05-2.81991E-05-2.96666E-05-4.79888E-06-2.14322E-20-4.08601E-19
 -1      2857 9.64480E-05-2.76793E-05-2.94749E-05-4.92755E-06-1.45429E-19-5.41190E-19
 -1      2858 9.86907E-05-2.85273E-05-3.00581E-05-6.22357E-06 5.66137E-19-5.53609E-19
 -1      2859 9.81188E-05-2.83421E-05-2.99060E-05-5.75972E-06 7.73422E-19-2.89420E-19
 -1      2860 9.68593E-05-2.76931E-05-2.96462E-05-5.93461E-06 3.12080E-19-7.87615E-19
 -1      2861 9.97378E-05-2.90092E-05-3.03028E-05-7.17862E-06 5.00483E-19-5.12331E-19
 -1      2862 9.90303E-05-2.86808E-05-3.01486E-05-6.75590E-06 5.84045E-19-4.70773E-19
 -1      2863 9.74310E-05-2.78971E-05-2.98062E-05-7.01714E-06 7.68986E-19-3.25757E-19
 -1      2864 1.01133E-04-2.98963E-05-3.05258E-05-7.95077E-06 1.42714E-19-4.84139E-19
 -1      2865 1.00248E-04-2.93473E-05-3.03795E-05-7.66650E-06 3.42048E-19-7.55075E-19
 -1      2866 9.82704E-05-2.84367E-05-2.99395E-05-8.08405E-06 4.38059E-19-1.05041E-18
 -1      2867 1.03041E-04-3.13896E-05-3.07129E-05-8.28656E-06-3.37827E-19-7.71888E-19
 -1      2868 1.01926E-04-3.05269E-05-3.05833E-05-8.28861E-06-1.10773E-19-2.20136E-19
 -1      2869 9.95543E-05-2.95238E-05-3.00330E-05-8.97901E-06-9.87141E-20-6.28688E-19
 -1      2870 1.05664E-04-3.36859E-05-3.08685E-05-7.81119E-06-8.07270E-19-1.18756E-18
 -1      2871 1.04275E-04-3.24376E-05-3.07561E-05-8.30271E-06-9.90774E-20-6.85127E-19
 -1      2872 1.01551E-04-3.14283E-05-3.00875E-05-9.44555E-06-3.75001E-19-1.26922E-19
 -1      2873 1.09151E-04-3.68179E-05-3.10437E-05-6.02653E-06-1.48461E-18-3.39189E-19
 -1      2874 1.07515E-04-3.52330E-05-3.09276E-05-7.24112E-06-1.34096E-18-8.84617E-19
 -1      2875 1.04604E-04-3.43995E-05-3.01424E-05-9.07407E-06-1.29511E-18 8.01902E-19
 -1      2876 1.13398E-04-4.03332E-05-3.13764E-05-2.41509E-06-1.47475E-18 3.91251E-19
 -1      2877 1.11687E-04-3.87406E-05-3.11958E-05-4.51621E-06-1.19715E-18-8.40631E-20
 -1      2878 1.08997E-04-3.84317E-05-3.03167E-05-7.24797E-06-1.59513E-18 7.54887E-19
 -1      2879 1.17580E-04-4.28476E-05-3.21032E-05 3.03783E-06-1.81329E-18 1.58178E-18
 -1      2880 1.16287E-04-4.20539E-05-3.17594E-05 2.57892E-07-2.12009E-18 1.31734E-18
 -1      2881 1.14390E-04-4.27101E-05-3.08556E-05-3.14980E-06-2.00235E-18 1.25778E-18
 -1      2882 1.20111E-04-4.19216E-05-3.35510E-05 9.90243E-06-5.92344E-21 1.25458E-18
 -1      2883 1.20282E-04-4.33377E-05-3.29161E-05 7.14765E-06-7.46183E-19 1.76903E-18
 -1      2884 1.20610E-04-4.56930E-05-3.22479E-05 3.48187E-06-1.30844E-18 2.28212E-18
 -1      2885 1.18788E-04-3.53048E-05-3.58064E-05 1.44114E-05 1.50454E-18 1.36553E-18
 -1      2886 1.20576E-04-3.94725E-05-3.49179E-05 1.34351E-05 5.66268E-19 1.38196E-18
 -1      2887 1.23539E-04-4.34478E-05-3.43915E-05 1.09050E-05 4.94039E-19 2.91595E-18
 -1      2888 1.14491E-04-2.53592E-05-3.82489E-05 1.20008E-05 2.81908E-18 1.74320E-19
 -1      2889 1.16975E-04-3.03165E-05-3.74095E-05 1.44906E-05 2.17957E-18 3.77156E-19
 -1      2890 1.21988E-04-3.34711E-05-3.80745E-05 1.54600E-05 2.51193E-18 1.62225E-18
 -1      2891 1.11100E-04-1.93044E-05-3.94854E-05 1.63731E-06 3.38935E-18-9.29099E-19
 -1      2892 1.12307E-04-2.12109E-05-3.93253E-05 7.10641E-06 3.35891E-18-2.89341E-19
 -1      2893 1.17392E-04-2.20969E-05-4.11253E-05 1.06411E-05 3.20401E-18-1.00225E-18
 -1      2894 1.18247E-04-3.35648E-05-3.66049E-05-1.47190E-05 8.77500E-19-2.95220E-18
 -1      2895 1.15681E-04-2.84293E-05-3.73955E-05-1.35782E-05 2.58874E-19-2.77051E-18
 -1      2896 1.20911E-04-4.12931E-05-3.41749E-05-1.16555E-05 1.25618E-18-1.11974E-18
 -1      2897 1.19621E-04-3.77926E-05-3.50212E-05-1.33730E-05 1.29775E-18-2.30018E-18
 -1      2898 1.22897E-04-3.70804E-05-3.68243E-05-1.47937E-05 3.57951E-19-2.60514E-18
 -1      2899 1.19037E-04-4.32135E-05-3.24580E-05-4.72400E-06-5.15896E-19 4.32725E-19
 -1      2900 1.19439E-04-4.26672E-05-3.29913E-05-7.58210E-06 9.45702E-19-6.16663E-19
 -1      2901 1.22893E-04-4.47546E-05-3.37396E-05-8.62833E-06 8.40442E-19-8.90642E-19
 -1      2902 1.14822E-04-4.11928E-05-3.14911E-05 1.62310E-06-1.05509E-18-2.99373E-20
 -1      2903 1.16286E-04-4.23241E-05-3.17856E-05-1.06312E-06-6.94971E-19 3.48771E-19
 -1      2904 1.18592E-04-4.50806E-05-3.16434E-05-9.36880E-07-5.23208E-19-1.04236E-18
 -1      2905 1.10199E-04-3.76623E-05-3.10231E-05 5.87069E-06-2.30015E-18-1.27545E-19
 -1      2906 1.11940E-04-3.93116E-05-3.11859E-05 4.00542E-06-1.54170E-18 3.04628E-19
 -1      2907 1.12753E-04-4.15381E-05-3.05999E-05 4.95099E-06-1.39732E-18-5.74629E-19
 -1      2908 1.06243E-04-3.43121E-05-3.07837E-05 8.09985E-06-2.24560E-18-3.04389E-19
 -1      2909 1.07852E-04-3.58231E-05-3.09049E-05 7.09278E-06-2.32086E-18-2.43720E-19
 -1      2910 1.07488E-04-3.71863E-05-3.01944E-05 8.33112E-06-1.87535E-18-7.04093E-19
 -1      2911 1.03239E-04-3.17766E-05-3.06013E-05 8.84930E-06-1.98232E-18 1.57512E-18
 -1      2912 1.04583E-04-3.29200E-05-3.07282E-05 8.49829E-06-2.25433E-18-1.32518E-19
 -1      2913 1.03497E-04-3.34583E-05-3.00646E-05 9.71986E-06-2.47340E-18-1.24213E-19
 -1      2914 1.01055E-04-3.00790E-05-3.04057E-05 8.67136E-06-1.17323E-19 1.99889E-18
 -1      2915 1.02139E-04-3.08608E-05-3.05501E-05 8.74964E-06-1.46334E-19 1.88017E-18
 -1      2916 1.00769E-04-3.08212E-05-3.00071E-05 9.86426E-06-1.50201E-18 1.05792E-18
 -1      2917 9.94648E-05-2.90229E-05-3.01843E-05 7.97227E-06 1.35609E-18 1.67033E-19
 -1      2918 1.00339E-04-2.95312E-05-3.03403E-05 8.29997E-06 7.44856E-19 1.60587E-18
 -1      2919 9.89751E-05-2.91603E-05-2.99375E-05 9.29712E-06 6.25551E-19 9.16520E-19
 -1      2920 9.82730E-05-2.83861E-05-2.99502E-05 7.01489E-06 1.15225E-18 1.02294E-18
 -1      2921 9.89868E-05-2.87163E-05-3.01059E-05 7.47021E-06 7.91122E-19 1.85720E-19
 -1      2922 9.77930E-05-2.81988E-05-2.98355E-05 8.36046E-06 9.84272E-19 6.87181E-19
 -1      2923 9.73421E-05-2.79855E-05-2.97234E-05 5.94913E-06 1.16792E-18 1.49711E-18
 -1      2924 9.79318E-05-2.82143E-05-2.98675E-05 6.46150E-06 1.86368E-18 1.53200E-18
 -1      2925 9.69789E-05-2.76679E-05-2.97102E-05 7.25894E-06 1.57720E-18 1.39357E-18
 -1      2926 9.65907E-05-2.76956E-05-2.95215E-05 4.84526E-06 1.08484E-18 8.48426E-19
 -1      2927 9.70743E-05-2.78739E-05-2.96455E-05 5.37802E-06 1.46843E-18-1.52188E-19
 -1      2928 9.63671E-05-2.73579E-05-2.95796E-05 6.10111E-06 1.95284E-18 4.82897E-19
 -1      2929 9.58866E-05-2.73404E-05-2.93692E-05 3.91702E-06-2.15462E-19 1.97856E-18
 -1      2930 9.62832E-05-2.74975E-05-2.94670E-05 4.47664E-06 2.85821E-19 8.50345E-19
 -1      2931 9.57686E-05-2.70411E-05-2.94669E-05 5.10613E-06 4.66222E-19 3.56425E-19
 -1      2932 9.52372E-05-2.66631E-05-2.94024E-05 4.27773E-06-1.14650E-18 6.15495E-19
 -1      2933 1.22337E-04-5.95517E-05-2.72404E-05 2.39158E-05-2.16608E-18-2.03248E-18
 -1      2934 1.06995E-04-5.43545E-05-2.21814E-05 3.16938E-05-2.24443E-18-1.16883E-18
 -1      2935 9.16386E-05-2.30254E-05-2.94138E-05 2.10204E-07 7.04391E-19 9.62263E-19
 -1      2936 9.16924E-05-2.30800E-05-2.94113E-05 9.36708E-07 1.21094E-18 2.15704E-18
 -1      2937 9.59005E-05-2.73274E-05-2.93810E-05-4.24464E-06 4.41522E-19-2.41026E-18
 -1      2938 9.56763E-05-2.72183E-05-2.93362E-05-3.88457E-06 4.03234E-19-1.73243E-18
 -1      2939 9.54717E-05-2.69340E-05-2.93773E-05-4.77559E-06-4.54226E-19-3.18889E-18
 -1      2940 9.24004E-05-2.37951E-05-2.94168E-05 3.06524E-06 1.31099E-18-3.85479E-19
 -1      2941 9.27856E-05-2.41740E-05-2.94004E-05 3.55109E-06 1.78275E-18-2.92213E-18
 -1      2942 9.18065E-05-2.31993E-05-2.94063E-05-1.33058E-06 2.64243E-19 3.09001E-18
 -1      2943 9.16816E-05-2.30763E-05-2.94127E-05-6.25443E-07 5.77547E-19 3.82615E-19
 -1      2944 9.11811E-05-2.29458E-05-2.92311E-05-2.47151E-07 8.31505E-19 2.47549E-19
 -1      2945 9.18413E-05-2.32302E-05-2.94169E-05 1.74410E-06 8.76438E-19 8.03296E-21
 -1      2946 9.20733E-05-2.34592E-05-2.94064E-05 2.39507E-06 1.05905E-18 5.78038E-19
 -1      2947 9.18551E-05-2.35411E-05-2.92667E-05 3.01552E-06 1.11816E-18-6.96988E-19
 -1      2948 9.13035E-05-2.30462E-05-2.92406E-05 1.47015E-06 1.92246E-18 1.02633E-18
 -1      2949 9.23015E-05-2.37090E-05-2.93948E-05-2.65788E-06 1.56033E-18 2.51245E-18
 -1      2950 9.20248E-05-2.34343E-05-2.94092E-05-2.07358E-06 3.54985E-19 3.83950E-18
 -1      2951 9.14849E-05-2.32390E-05-2.92372E-05-1.89523E-06 1.27246E-18 3.25798E-18
 -1      2952 9.30695E-05-2.45010E-05-2.93804E-05-3.65528E-06 1.57230E-18 1.14554E-18
 -1      2953 9.26678E-05-2.40984E-05-2.94012E-05-3.24291E-06 1.86073E-18 1.56698E-18
 -1      2954 9.21588E-05-2.38740E-05-2.92572E-05-3.27972E-06 1.21167E-18 2.53703E-18
 -1      2955 9.40063E-05-2.54752E-05-2.93653E-05-4.17702E-06 5.84577E-19-8.00391E-19
 -1      2956 9.35416E-05-2.49935E-05-2.93899E-05-4.00472E-06 1.24922E-18 2.24704E-19
 -1      2957 9.31178E-05-2.47683E-05-2.92891E-05-4.24995E-06 1.16799E-18 8.64309E-19
 -1      2958 1.35923E-04-3.64023E-05-4.34605E-05-1.05488E-05-4.13458E-18 3.17934E-18
 -1      2959 1.37487E-04-4.63744E-05-3.90399E-05-5.42786E-06-2.66932E-18 4.63052E-18
 -1      2960 1.26182E-04-5.81273E-05-2.89383E-05-1.74095E-05-5.28072E-20-1.86495E-18
 -1      2961 1.34697E-04-5.65477E-05-3.38388E-05-8.32370E-06-1.46116E-18-2.64348E-18
 -1      2962 1.36788E-04-5.24898E-05-3.63656E-05-1.34786E-06-9.03149E-19-2.10265E-18
 -1      2963 1.37782E-04-4.59525E-05-3.97772E-05 4.50487E-06-8.70009E-19-1.14402E-18
 -1      2964 1.32604E-04-5.41980E-05-3.36723E-05-1.80317E-06-2.61071E-19-3.10205E-18
 -1      2965 1.38197E-04-5.16614E-05-3.70535E-05 2.39318E-06 2.11046E-18 1.78925E-18
 -1      2966 1.40130E-04-4.41792E-05-4.16999E-05 8.40156E-06 4.24766E-18 2.22727E-18
 -1      2967 5.21009E-05-2.67013E-05-1.07387E-05 3.41936E-05 2.87557E-18-6.78622E-18
 -1      2968 3.78185E-05-1.86876E-05-7.44888E-06 2.32026E-05 1.85897E-18-8.68421E-18
 -1      2969 1.32492E-04-1.89217E-05-4.91641E-05 1.13954E-05 5.01168E-18 1.31417E-18
 -1      2970 1.28626E-04-1.23451E-05-5.05008E-05 5.84041E-06 4.17206E-18-1.41005E-19
 -1      2971 8.92743E-05-4.63497E-05-1.83688E-05 3.77051E-05-2.70902E-18 1.67183E-19
 -1      2972 7.24668E-05-3.69681E-05-1.47594E-05 3.66996E-05-3.33117E-18 1.32667E-18
 -1      2973 9.47119E-05-2.73963E-05-2.88520E-05 3.79208E-07 1.93806E-18-7.44686E-19
 -1      2974 9.48894E-05-2.71057E-05-2.90225E-05 9.90901E-07 2.34109E-18-6.10621E-19
 -1      2975 9.51278E-05-2.73599E-05-2.90533E-05 3.56442E-07 1.90265E-18-1.19360E-18
 -1      2976 9.44980E-05-2.82653E-05-2.83838E-05-1.19880E-06 1.00136E-18-1.21334E-18
 -1      2977 9.44552E-05-2.81816E-05-2.83968E-05-1.10602E-06 1.01839E-18-1.18234E-18
 -1      2978 9.49431E-05-2.81918E-05-2.86143E-05-9.85156E-07 1.17962E-18-1.41428E-18
 -1      2979 9.49220E-05-2.83766E-05-2.85244E-05-1.24900E-06 8.75938E-19-1.06742E-18
 -1      2980 9.52350E-05-2.39819E-05-3.05162E-05-5.31093E-06-2.90239E-18-2.72457E-18
 -1      2981 9.51566E-05-2.49973E-05-3.00884E-05-3.80970E-06-2.64730E-18-2.65269E-18
 -1      2982 9.52046E-05-2.46825E-05-3.02236E-05-3.54033E-06-2.37916E-18-2.85784E-18
 -1      2983 9.49644E-05-2.66785E-05-2.92706E-05 1.78540E-06 2.64498E-18-6.69701E-19
 -1      2984 9.52303E-05-2.61838E-05-2.95545E-05 2.79612E-06 2.97194E-18-4.70061E-19
 -1      2985 9.52630E-05-2.50144E-05-3.01045E-05 3.82775E-06 3.34605E-18-1.21175E-18
 -1      2986 9.52488E-05-2.64920E-05-2.94751E-05 1.73383E-06 2.65597E-18-1.18669E-18
 -1      2987 1.38334E-04-5.56520E-05-3.59729E-05 4.75002E-06-4.27209E-19-3.31232E-18
 -1      2988 1.32747E-04-5.86512E-05-3.16383E-05 1.21478E-05-7.62436E-19-2.99447E-18
 -1      2989 9.12054E-05-1.60906E-05-3.22200E-05 4.92221E-06 2.87254E-18-4.12449E-18
 -1      2990 9.08669E-05-1.55921E-05-3.22824E-05 3.99884E-06 2.36810E-18-4.46401E-18
 -1      2991 9.18461E-05-1.71993E-05-3.19760E-05 3.20027E-06 2.07570E-18-4.23020E-18
 -1      2992 9.25064E-05-1.82598E-05-3.18001E-05 4.61975E-06 2.81305E-18-3.53129E-18
 -1      2993 9.08306E-05-1.55433E-05-3.22877E-05-3.93574E-06-1.10780E-18-5.39198E-18
 -1      2994 9.11615E-05-1.60290E-05-3.22270E-05-4.86144E-06-1.59147E-18-5.33571E-18
 -1      2995 9.52535E-05-2.67679E-05-2.93498E-05-4.04152E-06-1.54845E-19-3.23341E-18
 -1      2996 1.38224E-04-3.44811E-05-4.48170E-05 1.22305E-05 5.60196E-18 2.01996E-18
 -1      2997 1.35849E-04-2.71828E-05-4.72230E-05 1.31224E-05 5.60259E-18 1.69703E-18
 -1      2998 1.28911E-04-2.37382E-05-4.54577E-05 1.32612E-05 4.92698E-18 1.02512E-18
 -1      2999 1.34089E-04-3.88371E-05-4.10065E-05 1.34546E-05 4.30843E-18 2.54735E-18
 -1      3000 9.82783E-05-5.07074E-05-2.01123E-05-3.47344E-05-3.10416E-18-5.26082E-18
 -1      3001 1.12120E-04-5.66383E-05-2.38957E-05-3.04107E-05-3.19480E-18-4.70962E-18
 -1      3002 1.39794E-04-4.08985E-05-4.31144E-05-9.98688E-06 1.63308E-18-4.31034E-18
 -1      3003 1.40468E-04-4.90738E-05-3.92783E-05-4.09584E-06 9.14107E-19-3.65018E-18
 -1      3004 1.37008E-04-5.14326E-05-3.66469E-05-4.43208E-06 3.52180E-19-3.38474E-18
 -1      3005 3.89657E-05-1.58129E-05-9.37852E-06-1.76582E-05-1.22624E-18-7.35034E-18
 -1      3006 4.64616E-05-2.10551E-05-1.02931E-05-2.72314E-05-1.36626E-18-6.35444E-18
 -1      3007 1.25591E-04-9.71656E-06-5.03146E-05-5.52411E-07-5.66856E-18-9.27322E-19
 -1      3008 1.27961E-04-1.22009E-05-5.02077E-05-6.81032E-06-5.33186E-18 3.01332E-19
 -1      3009 1.23462E-04-1.59841E-05-4.64678E-05-8.81109E-06-4.27985E-18 2.17185E-18
 -1      3010 1.24011E-04-5.89576E-05-2.76026E-05-2.07956E-05-2.91385E-18-2.02621E-18
 -1      3011 1.33621E-04-5.88949E-05-3.25645E-05-1.08106E-05-6.51845E-19 1.10998E-18
 -1      3012 8.69475E-05-4.62080E-05-1.74803E-05 3.96511E-05 2.91072E-18 2.85291E-19
 -1      3013 7.16331E-05-3.75924E-05-1.39744E-05 3.85908E-05 3.42318E-18-3.31211E-18
 -1      3014 1.17603E-04-5.80109E-05-2.58547E-05 2.75297E-05 1.25615E-18 3.49470E-18
 -1      3015 1.02975E-04-5.30100E-05-2.09845E-05 3.44787E-05 2.24887E-18 1.74575E-18
 -1      3016 1.34724E-04-5.55335E-05-3.45792E-05 5.71766E-06-1.08230E-18 5.03053E-18
 -1      3017 1.28840E-04-5.82413E-05-2.99728E-05 1.54492E-05 3.39051E-19 4.16327E-18
 -1      3018 1.37619E-04-4.03060E-05-4.21465E-05 9.47656E-06-1.91567E-18-3.11401E-18
 -1      3019 1.34950E-04-3.18255E-05-4.49189E-05 1.11874E-05-3.11062E-18-4.40648E-18
 -1      3020 1.33551E-04-4.51899E-05-3.79638E-05 7.67389E-06-1.16401E-18-4.30700E-18
 -1      3021 9.43292E-05-2.09659E-05-3.14654E-05-8.02813E-06-3.41986E-18-3.37260E-18
 -1      3022 9.47906E-05-2.27844E-05-3.08705E-05-6.32642E-06-3.19011E-18-3.08377E-18
 -1      3023 9.46094E-05-2.24264E-05-3.09334E-05-5.72545E-06-2.80459E-18-3.33852E-18
 -1      3024 9.35100E-05-1.95872E-05-3.16828E-05-7.84700E-06-3.09673E-18-3.94131E-18
 -1      3025 9.89893E-05-5.04141E-05-2.03052E-05-3.47663E-05 1.96670E-18 1.14079E-18
 -1      3026 1.12972E-04-5.65656E-05-2.45141E-05-2.95495E-05 1.97782E-18 1.11094E-19
 -1      3027 1.27060E-04-1.10749E-05-5.04183E-05-2.00146E-06 3.59989E-18-6.80214E-19
 -1      3028 1.30686E-04-1.44365E-05-5.03822E-05-8.36228E-06 3.96835E-18-1.85410E-18
 -1      3029 1.25835E-04-1.86504E-05-4.61476E-05-1.05829E-05 2.94175E-18-8.44757E-19
 -1      3030 9.15846E-05-1.66785E-05-3.21240E-05-5.59065E-06-1.84585E-18-5.16255E-18
 -1      3031 9.20963E-05-1.74519E-05-3.20222E-05-6.41343E-06-2.29830E-18-4.91323E-18
 -1      3032 9.24572E-05-1.81847E-05-3.18095E-05-4.58207E-06-1.59339E-18-4.88605E-18
 -1      3033 9.13281E-05-1.63889E-05-3.21045E-05 2.83754E-08 7.07564E-19-4.82942E-18
 -1      3034 9.02062E-05-1.46037E-05-3.24205E-05-3.83588E-07 5.46455E-19-5.22007E-18
 -1      3035 9.02618E-05-1.46839E-05-3.24102E-05-1.34192E-06 7.25985E-20-5.27364E-18
 -1      3036 5.90968E-05-2.62651E-05-1.36339E-05-2.95351E-05-2.04564E-18-5.81710E-18
 -1      3037 1.34286E-04-3.54406E-05-4.25650E-05-1.35757E-05 1.38538E-18-2.74809E-18
 -1      3038 9.43486E-05-2.14194E-05-3.12594E-05 7.22867E-06 4.10338E-18-1.43536E-18
 -1      3039 4.93606E-05-2.25934E-05-1.10353E-05-2.98267E-05-4.07635E-20 4.37937E-18
 -1      3040 6.39509E-05-2.74337E-05-1.51318E-05-3.01587E-05 1.28918E-18 2.67027E-18
 -1      3041 9.27660E-05-2.43653E-05-2.93080E-05 4.17868E-06 1.42183E-18-1.07018E-18
 -1      3042 9.32527E-05-2.46507E-05-2.94153E-05 3.99397E-06 1.19253E-18-9.62831E-19
 -1      3043 9.37439E-05-2.51385E-05-2.93962E-05 4.24280E-06-3.92825E-19-2.17350E-19
 -1      3044 9.14073E-05-4.41939E-05-1.98740E-05-3.35618E-05 1.95199E-18 1.99063E-18
 -1      3045 1.30162E-04-3.07017E-05-4.28073E-05-1.35689E-05-3.57660E-18 3.28723E-18
 -1      3046 1.14265E-04-1.80061E-05-4.14834E-05-4.09083E-06 3.37495E-18-1.15407E-18
 -1      3047 1.18095E-04-1.48099E-05-4.46999E-05-2.00319E-07 3.38199E-18-1.16107E-18
 -1      3048 1.15766E-04-2.10405E-05-4.09448E-05-9.27506E-06 2.06274E-18-2.02821E-18
 -1      3049 1.27470E-04-5.82636E-05-2.95249E-05 1.46991E-05-1.81392E-18-2.52532E-18
 -1      3050 9.42149E-05-2.56142E-05-2.94133E-05 4.37514E-06-1.01509E-18-2.25089E-18
 -1      3051 9.47531E-05-2.61580E-05-2.93909E-05 4.35890E-06-9.18405E-19-7.80431E-19
 -1      3052 9.49742E-05-2.63308E-05-2.94063E-05 4.81142E-06-3.31340E-19-3.05956E-19
 -1      3053 9.38639E-05-2.53388E-05-2.93602E-05 4.76687E-06 8.72775E-19-2.62563E-19
 -1      3054 1.20666E-04-5.61508E-05-2.74744E-05-1.90719E-05 9.34119E-19-6.66086E-19
 -1      3055 1.33408E-04-5.04107E-05-3.56324E-05-2.25002E-06-1.04959E-18 4.11499E-18
 -1      3056 1.22483E-04-5.69483E-05-2.79505E-05 1.88049E-05 1.28177E-18 3.45529E-18
 -1      3057 9.48000E-05-2.62558E-05-2.93760E-05-4.12009E-06 1.95571E-19-2.48508E-18
 -1      3058 6.58402E-05-3.12255E-05-1.43585E-05 3.40339E-05-3.11539E-18 2.03881E-18
 -1      3059 5.92304E-05-2.45398E-05-1.45657E-05 2.84325E-05-2.79394E-18 2.31918E-18
 -1      3060 7.75084E-05-3.46572E-05-1.81077E-05 3.16882E-05-3.45319E-18 5.88688E-19
 -1      3061 3.98442E-05-1.70531E-05-9.25669E-06-2.01031E-05-9.48942E-19 4.83613E-18
 -1      3062 1.19148E-04-5.68919E-05-2.65382E-05-2.18777E-05-3.41926E-18-1.71516E-18
 -1      3063 1.01386E-04-4.95952E-05-2.18730E-05 3.08749E-05-3.01814E-18-9.36143E-19
 -1      3064 9.01729E-05-4.56653E-05-1.88106E-05-3.57291E-05-2.64782E-18-5.64606E-18
 -1      3065 9.93701E-05-4.79187E-05-2.18454E-05-3.03938E-05-3.19818E-18-4.14191E-18
 -1      3066 8.10276E-05-3.84329E-05-1.79579E-05-3.42025E-05-2.13002E-18-5.18956E-18
 -1      3067 6.54641E-05-3.09928E-05-1.43352E-05 3.37297E-05 3.68173E-18-4.11976E-18
 -1      3068 3.38833E-05-1.27214E-05-8.52709E-06 5.91053E-08-1.70483E-18 4.82597E-18
 -1      3069 3.47378E-05-1.36001E-05-8.32425E-06-1.19014E-05-1.79327E-18 4.67520E-18
 -1      3070 4.74070E-05-1.64136E-05-1.28312E-05-1.73475E-05-1.17277E-18 3.89233E-18
 -1      3071 3.99753E-05-1.56608E-05-9.77410E-06 1.58416E-05 1.68311E-18-8.48579E-18
 -1      3072 1.33838E-04-5.43947E-05-3.41769E-05-1.39075E-06-1.50348E-20 1.59846E-18
 -1      3073 9.03852E-05-1.48750E-05-3.23818E-05-2.17910E-06-2.44020E-19-5.17757E-18
 -1      3074 9.05675E-05-1.51386E-05-3.23487E-05-3.13070E-06-8.15584E-19-5.26415E-18
 -1      3075 9.18152E-05-1.71567E-05-3.19813E-05-3.14411E-06-9.99887E-19-5.03306E-18
 -1      3076 9.14444E-05-1.65723E-05-3.20751E-05-1.58393E-06-1.65639E-19-4.90640E-18
 -1      3077 9.83727E-05-4.90851E-05-2.07474E-05 3.35132E-05 2.99416E-18 1.11832E-18
 -1      3078 1.22712E-04-1.18475E-05-4.78452E-05 2.70926E-06-4.47911E-18-2.71913E-18
 -1      3079 3.79849E-05-1.19481E-05-1.08177E-05-3.40932E-06 6.16690E-19-7.17786E-18
 -1      3080 3.80629E-05-1.37162E-05-9.78715E-06-1.14975E-05-1.45425E-19-7.51551E-18
 -1      3081 4.65798E-05-1.54924E-05-1.29984E-05-1.55990E-05-2.83438E-19-6.02939E-18
 -1      3082 9.46166E-05-2.24632E-05-3.09146E-05 5.70343E-06 3.70377E-18-1.71869E-18
 -1      3083 4.64923E-05-1.59576E-05-1.26278E-05 1.55591E-05-1.79630E-18 3.47845E-18
 -1      3084 3.80767E-05-1.31298E-05-9.93532E-06 8.65001E-06-1.23740E-18 4.79939E-18
 -1      3085 4.38989E-05-1.24309E-05-1.31022E-05-1.02839E-06-3.97636E-19 4.86515E-18
 -1      3086 9.49503E-05-2.64790E-05-2.93451E-05-4.70708E-06-1.41852E-18-2.62818E-18
 -1      3087 9.43915E-05-2.58870E-05-2.93626E-05-4.40711E-06-2.38499E-19-9.10903E-19
 -1      3088 9.41144E-05-2.57051E-05-2.93146E-05-4.80242E-06-9.37662E-19-1.67871E-18
 -1      3089 9.50792E-05-2.65682E-05-2.93555E-05-5.07426E-06-1.16338E-18-2.64951E-18
 -1      3090 1.29177E-04-2.59682E-05-4.43951E-05 1.32976E-05-2.72236E-18-5.27003E-18
 -1      3091 6.26723E-05-2.36546E-05-1.64084E-05-2.57949E-05 1.32828E-18 2.33098E-18
 -1      3092 7.23915E-05-3.07955E-05-1.77953E-05-3.09343E-05 1.79375E-18 2.64216E-18
 -1      3093 9.42946E-05-2.18724E-05-3.10664E-05 4.96331E-06 3.26047E-18-2.27393E-18
 -1      3094 9.38247E-05-2.09010E-05-3.12548E-05 4.62205E-06 2.96861E-18-2.64944E-18
 -1      3095 1.12876E-04-5.32568E-05-2.53681E-05-2.30673E-05-3.19458E-18-1.24424E-18
 -1      3096 1.21921E-04-5.62085E-05-2.84566E-05-1.57461E-05-2.98521E-18 6.91510E-19
 -1      3097 1.13895E-04-5.25128E-05-2.58872E-05-2.11881E-05 2.39599E-18-6.88810E-19
 -1      3098 1.23073E-04-5.49227E-05-2.95304E-05-1.16466E-05 6.94210E-19-3.37815E-18
 -1      3099 9.49828E-05-2.34902E-05-3.06193E-05-4.13095E-06-2.27072E-18-3.31221E-18
 -1      3100 9.51732E-05-2.45872E-05-3.02681E-05-2.97217E-06-2.09952E-18-3.26267E-18
 -1      3101 1.05300E-04-5.13110E-05-2.33712E-05 2.92327E-05 2.47969E-18 2.02600E-18
 -1      3102 9.27275E-05-4.40418E-05-2.03372E-05 3.26695E-05 3.41847E-18 3.98158E-19
 -1      3103 9.56885E-05-2.68481E-05-2.94885E-05-7.20909E-07-1.44266E-18-2.63363E-18
 -1      3104 9.56649E-05-2.72874E-05-2.93125E-05-1.83499E-07-1.25758E-18-2.53962E-18
 -1      3105 9.57071E-05-2.76618E-05-2.91513E-05 2.11969E-07-1.36945E-18-2.34681E-18
 -1      3106 9.56721E-05-2.79363E-05-2.90337E-05 5.45698E-07-1.46263E-18-2.47529E-18
 -1      3107 9.59049E-05-2.72748E-05-2.94159E-05-1.16387E-07-1.26629E-18-2.83274E-18
 -1      3108 9.56605E-05-2.81587E-05-2.89219E-05 7.89493E-07-1.28540E-18-2.23032E-18
 -1      3109 9.56310E-05-2.83232E-05-2.88477E-05 9.84680E-07-1.02249E-18-2.37400E-18
 -1      3110 9.59402E-05-2.79682E-05-2.91346E-05 5.56865E-07-1.32040E-18-2.40424E-18
 -1      3111 9.55929E-05-2.84429E-05-2.87739E-05 1.12560E-06-8.46161E-19-2.38947E-18
 -1      3112 9.55734E-05-2.85317E-05-2.87319E-05 1.23342E-06-7.77397E-19-2.23922E-18
 -1      3113 9.58962E-05-2.83755E-05-2.89409E-05 9.69787E-07-9.09414E-19-2.27515E-18
 -1      3114 9.55225E-05-2.85800E-05-2.86873E-05 1.31143E-06-6.34495E-19-1.90490E-18
 -1      3115 9.55130E-05-2.86149E-05-2.86691E-05 1.37093E-06-6.30567E-19-1.91826E-18
 -1      3116 9.58123E-05-2.85838E-05-2.88153E-05 1.21099E-06-5.47511E-19-1.80366E-18
 -1      3117 9.54558E-05-2.86120E-05-2.86468E-05 1.41773E-06-5.16875E-19-1.57440E-18
 -1      3118 9.54546E-05-2.86071E-05-2.86465E-05 1.45849E-06-1.57848E-19-1.29831E-18
 -1      3119 9.57086E-05-2.86498E-05-2.87419E-05 1.35308E-06-2.62534E-19-1.52027E-18
 -1      3120 9.53938E-05-2.85660E-05-2.86413E-05 1.49882E-06-1.18044E-19-1.08738E-18
 -1      3121 9.53993E-05-2.85309E-05-2.86547E-05 1.54344E-06-4.89498E-20-9.99303E-19
 -1      3122 9.55939E-05-2.86112E-05-2.87088E-05 1.45351E-06-2.58181E-20-1.07718E-18
 -1      3123 9.53351E-05-2.84598E-05-2.86627E-05 1.59667E-06-2.48253E-19-8.50300E-19
 -1      3124 9.53463E-05-2.84010E-05-2.86870E-05 1.66265E-06-1.69176E-19-9.65937E-19
 -1      3125 9.54713E-05-2.84926E-05-2.87065E-05 1.55725E-06-1.49465E-19-7.07546E-19
 -1      3126 9.52775E-05-2.83055E-05-2.87051E-05 1.74416E-06-5.68123E-20-7.89441E-19
 -1      3127 9.52941E-05-2.82277E-05-2.87384E-05 1.84531E-06 1.83313E-19-6.69880E-19
 -1      3128 9.53401E-05-2.83104E-05-2.87279E-05 1.69976E-06 1.20238E-20-5.67535E-19
 -1      3129 9.52192E-05-2.81115E-05-2.87641E-05 1.96757E-06-1.22743E-20-7.42616E-19
 -1      3130 9.52417E-05-2.80192E-05-2.88047E-05 2.11484E-06-5.10697E-20-9.63148E-19
 -1      3131 9.51978E-05-2.80757E-05-2.87670E-05 1.90937E-06-7.77409E-20-1.00750E-18
 -1      3132 9.51589E-05-2.78860E-05-2.88356E-05 2.28799E-06-2.90338E-19-1.15596E-18
 -1      3133 9.51891E-05-2.77842E-05-2.88822E-05 2.48974E-06-6.61316E-19-1.21992E-18
 -1      3134 9.50411E-05-2.77977E-05-2.88185E-05 2.20897E-06-4.87591E-19-1.15841E-18
 -1      3135 9.50976E-05-2.76392E-05-2.89158E-05 2.72189E-06-6.42396E-19-1.16313E-18
 -1      3136 9.51390E-05-2.75354E-05-2.89668E-05 2.98372E-06-8.76440E-19-8.10025E-19
 -1      3137 9.48677E-05-2.74866E-05-2.88771E-05 2.61700E-06-6.64884E-19-1.00921E-18
 -1      3138 9.50406E-05-2.73870E-05-2.90000E-05 3.28081E-06-9.80692E-19-4.17270E-19
 -1      3139 9.50999E-05-2.72935E-05-2.90530E-05 3.60468E-06-5.93895E-19-4.02074E-19
 -1      3140 9.46783E-05-2.71576E-05-2.89366E-05 3.14770E-06-4.98191E-19-4.58953E-19
 -1      3141 9.50007E-05-2.71568E-05-2.90818E-05 3.96989E-06-3.67103E-19-5.12992E-20
 -1      3142 9.50898E-05-2.70937E-05-2.91336E-05 4.35267E-06 1.02821E-19-1.90834E-19
 -1      3143 9.44805E-05-2.68364E-05-2.89894E-05 3.81062E-06-4.54417E-19-1.06418E-19
 -1      3144 9.50041E-05-2.69934E-05-2.91530E-05 4.78547E-06 5.11032E-19 8.71068E-20
 -1      3145 9.51436E-05-2.69926E-05-2.91992E-05 5.21668E-06 5.46065E-19 2.99243E-19
 -1      3146 9.42937E-05-2.65659E-05-2.90257E-05 4.60955E-06 4.38476E-19 4.55558E-19
 -1      3147 9.50995E-05-2.69691E-05-2.92030E-05 5.71136E-06 1.36684E-19 2.73174E-19
 -1      3148 9.53241E-05-2.70795E-05-2.92383E-05 6.17006E-06 6.56187E-19-4.95373E-21
 -1      3149 9.41587E-05-2.64153E-05-2.90337E-05 5.54087E-06 4.45937E-19 6.88296E-19
 -1      3150 9.53713E-05-2.71940E-05-2.92202E-05 6.71325E-06 8.11817E-19-4.97369E-19
 -1      3151 9.57370E-05-2.74871E-05-2.92393E-05 7.16343E-06 1.32850E-18-8.06368E-19
 -1      3152 9.41500E-05-2.64921E-05-2.90001E-05 6.59095E-06 2.79875E-19-5.42007E-20
 -1      3153 9.59587E-05-2.78281E-05-2.91945E-05 7.72929E-06 1.65995E-18-1.02655E-18
 -1      3154 9.65504E-05-2.84011E-05-2.91949E-05 8.11288E-06 1.40948E-18-8.66095E-19
 -1      3155 9.43957E-05-2.69556E-05-2.89128E-05 7.73103E-06 1.24970E-18-6.08580E-19
 -1      3156 9.70767E-05-2.90867E-05-2.91243E-05 8.65232E-06 9.73470E-19-7.22760E-19
 -1      3157 9.80117E-05-3.00571E-05-2.91112E-05 8.87757E-06 4.72596E-19-8.49866E-21
 -1      3158 9.51026E-05-2.80282E-05-2.87667E-05 8.90490E-06 1.55464E-18-1.25567E-18
 -1      3159 9.90315E-05-3.12246E-05-2.90296E-05 9.29457E-06 3.58889E-20 6.03579E-19
 -1      3160 1.00446E-04-3.27002E-05-2.90252E-05 9.21794E-06 2.24764E-19 1.02725E-18
 -1      3161 9.65832E-05-2.99939E-05-2.85764E-05 9.99810E-06 7.01812E-19 4.96110E-20
 -1      3162 1.02201E-04-3.44629E-05-2.89756E-05 9.32282E-06 1.33521E-19 8.42909E-19
 -1      3163 1.04192E-04-3.64585E-05-2.90327E-05 8.72800E-06 5.11581E-19 8.72163E-19
 -1      3164 9.92680E-05-3.31553E-05-2.83984E-05 1.07698E-05 3.21494E-19 6.60017E-19
 -1      3165 1.06911E-04-3.87897E-05-2.91087E-05 8.16470E-06 1.15068E-18 1.08622E-18
 -1      3166 1.09395E-04-4.10400E-05-2.93248E-05 6.76160E-06 8.27700E-19 1.56903E-18
 -1      3167 1.03652E-04-3.76835E-05-2.83707E-05 1.07206E-05 7.48427E-19 2.68304E-20
 -1      3168 1.13102E-04-4.35398E-05-2.97009E-05 4.96570E-06 3.74681E-19 2.27302E-18
 -1      3169 1.15632E-04-4.51641E-05-3.02393E-05 2.48775E-06 7.91711E-20 2.14889E-18
 -1      3170 1.10047E-04-4.32246E-05-2.87700E-05 8.94702E-06 1.09609E-18 1.57155E-18
 -1      3171 1.19520E-04-4.65626E-05-3.12041E-05-8.57711E-07-3.51711E-19 2.63808E-18
 -1      3172 1.21164E-04-4.61424E-05-3.22755E-05-4.18317E-06 1.42275E-21 2.55587E-18
 -1      3173 1.17814E-04-4.75711E-05-3.01241E-05 3.91651E-06 3.30522E-19 3.13847E-18
 -1      3174 1.25487E-04-3.76040E-05-3.78599E-05-1.35472E-05-2.04609E-18 2.20125E-18
 -1      3175 1.22946E-04-3.05339E-05-3.98225E-05-1.30616E-05-2.86234E-18 1.78388E-18
 -1      3176 1.15702E-04-1.68383E-05-4.28047E-05-8.86603E-06-3.32243E-18-1.98523E-20
 -1      3177 1.14284E-04-1.36929E-05-4.36941E-05-3.57179E-06-2.67154E-18-1.53331E-18
 -1      3178 1.15939E-04-1.41645E-05-4.40984E-05 3.45104E-06-2.86117E-18-3.71837E-18
 -1      3179 1.17659E-04-1.76138E-05-4.35125E-05 9.65341E-06-3.25271E-18-3.88546E-18
 -1      3180 1.21567E-04-2.75104E-05-4.06068E-05 1.24749E-05-2.27084E-18-4.07726E-18
 -1      3181 1.24034E-04-3.46221E-05-3.86702E-05 1.37553E-05-1.28521E-18-4.19578E-18
 -1      3182 1.25456E-04-4.07143E-05-3.65021E-05 1.14258E-05-1.07432E-18-4.16859E-18
 -1      3183 1.22098E-04-4.53991E-05-3.28994E-05 6.15913E-06-4.41410E-19-3.49488E-18
 -1      3184 1.21293E-04-4.69569E-05-3.18501E-05 2.88108E-06-3.05369E-19-2.90953E-18
 -1      3185 1.11189E-04-4.25044E-05-2.94755E-05-6.13322E-06-6.88247E-19-8.07558E-19
 -1      3186 1.08609E-04-4.03183E-05-2.91756E-05-7.86559E-06-3.35094E-19-8.15264E-19
 -1      3187 1.05604E-04-3.78757E-05-2.90343E-05-8.75029E-06 2.31715E-19-3.58724E-19
 -1      3188 1.03440E-04-3.57618E-05-2.89412E-05-9.57913E-06 1.34205E-18-8.09323E-19
 -1      3189 1.05411E-04-3.93866E-05-2.83953E-05-1.08253E-05 4.34944E-19 2.76126E-19
 -1      3190 1.01442E-04-3.38252E-05-2.89707E-05-9.65227E-06 1.80336E-18-1.01435E-18
 -1      3191 9.98608E-05-3.21879E-05-2.89655E-05-9.88349E-06 9.58558E-19-1.41609E-18
 -1      3192 1.00479E-04-3.45149E-05-2.83412E-05-1.13182E-05 9.73969E-19 7.54119E-19
 -1      3193 9.86701E-05-3.08537E-05-2.90515E-05-9.56031E-06 4.83283E-19-1.42045E-18
 -1      3194 9.76039E-05-2.97312E-05-2.90698E-05-9.43006E-06 8.28194E-19-1.08207E-18
 -1      3195 9.73818E-05-3.09661E-05-2.85084E-05-1.07742E-05 9.25466E-19 7.77212E-19
 -1      3196 9.69694E-05-2.89043E-05-2.91583E-05-8.93689E-06 9.17354E-19-1.96314E-18
 -1      3197 9.62813E-05-2.81969E-05-2.91719E-05-8.60228E-06 1.04131E-18-1.72278E-18
 -1      3198 9.56296E-05-2.86609E-05-2.87260E-05-9.79037E-06 7.43102E-19 5.69932E-19
 -1      3199 9.59924E-05-2.77322E-05-2.92437E-05-8.04955E-06 4.57650E-19-1.77471E-18
 -1      3200 9.55531E-05-2.73116E-05-2.92456E-05-7.60717E-06 9.01647E-19-2.00359E-18
 -1      3201 9.47534E-05-2.72992E-05-2.89217E-05-8.65660E-06 7.44357E-19-1.79202E-18
 -1      3202 9.54562E-05-2.70729E-05-2.92986E-05-7.04620E-06 1.08017E-18-2.16601E-18
 -1      3203 9.51735E-05-2.68280E-05-2.92924E-05-6.54922E-06 1.88709E-19-1.50925E-18
 -1      3204 9.43974E-05-2.65621E-05-2.90762E-05-7.49879E-06 1.30264E-18-2.06915E-18
 -1      3205 9.52361E-05-2.67680E-05-2.93366E-05-6.06678E-06-8.99797E-19-9.12580E-19
 -1      3206 9.50324E-05-2.66056E-05-2.93265E-05-5.54028E-06-4.41554E-19-1.18642E-18
 -1      3207 9.44952E-05-2.61595E-05-2.92900E-05-5.47597E-06-1.96348E-18-2.30264E-18
 -1      3208 9.43878E-05-2.62613E-05-2.91989E-05-6.43447E-06 4.04224E-19-1.96128E-18
 -1      3209 1.29502E-04-5.64956E-05-3.17093E-05 6.13040E-06-1.00608E-18-2.44407E-18
 -1      3210 1.21299E-04-5.55305E-05-2.79089E-05 1.57965E-05-2.39477E-18-2.04591E-18
 -1      3211 9.52656E-05-2.85722E-05-2.85803E-05-1.45577E-06 9.05147E-19-1.15621E-18
 -1      3212 9.52376E-05-2.85640E-05-2.85737E-05-1.42234E-06 8.99838E-19-1.14413E-18
 -1      3213 9.52732E-05-2.85582E-05-2.85904E-05-1.37852E-06 7.99550E-19-1.22111E-18
 -1      3214 9.52585E-05-2.85161E-05-2.86013E-05-1.32430E-06 7.13899E-19-1.16413E-18
 -1      3215 9.55190E-05-2.86130E-05-2.86769E-05-1.38568E-06 8.21087E-19-1.24859E-18
 -1      3216 9.52841E-05-2.84358E-05-2.86453E-05-1.62926E-06 8.73575E-19-4.29925E-19
 -1      3217 9.52370E-05-2.84743E-05-2.86144E-05-1.57268E-06 1.13111E-18-8.62287E-19
 -1      3218 9.53061E-05-2.83050E-05-2.87100E-05-1.79516E-06 9.07075E-19-2.82994E-19
 -1      3219 9.52504E-05-2.83608E-05-2.86696E-05-1.70327E-06 1.05916E-18-2.64310E-19
 -1      3220 9.53235E-05-2.83695E-05-2.86958E-05-1.69979E-06 8.77279E-19-1.03225E-18
 -1      3221 9.53347E-05-2.81401E-05-2.87922E-05-2.04984E-06 7.05179E-19-6.77921E-19
 -1      3222 9.52694E-05-2.82103E-05-2.87431E-05-1.91046E-06 1.05954E-18-4.00156E-19
 -1      3223 9.52539E-05-2.81764E-05-2.87483E-05-1.89675E-06 1.08771E-18-7.05993E-19
 -1      3224 9.53695E-05-2.79452E-05-2.88898E-05-2.41491E-06 3.84848E-19-1.38132E-18
 -1      3225 9.52928E-05-2.80271E-05-2.88324E-05-2.21783E-06 5.14946E-19-7.62926E-19
 -1      3226 9.51757E-05-2.79388E-05-2.88162E-05-2.18677E-06 7.77162E-19-6.78933E-19
 -1      3227 9.54108E-05-2.77259E-05-2.90007E-05-2.90836E-06-4.01609E-20-1.04524E-18
 -1      3228 9.53198E-05-2.78156E-05-2.89354E-05-2.64529E-06 2.46945E-20-1.23170E-18
 -1      3229 9.50844E-05-2.76608E-05-2.88957E-05-2.59102E-06 1.83090E-19-6.24408E-19
 -1      3230 9.54615E-05-2.74927E-05-2.91215E-05-3.54390E-06-7.77118E-19-9.25288E-19
 -1      3231 9.53517E-05-2.75833E-05-2.90494E-05-3.20921E-06-4.03903E-19-9.24552E-19
 -1      3232 9.49760E-05-2.73491E-05-2.89823E-05-3.12720E-06-4.70394E-19-7.00782E-19
 -1      3233 9.55295E-05-2.72657E-05-2.92470E-05-4.32886E-06-6.47575E-19-7.78061E-19
 -1      3234 9.53935E-05-2.73446E-05-2.91703E-05-3.92101E-06-6.21147E-19-9.26547E-19
 -1      3235 9.48494E-05-2.70164E-05-2.90701E-05-3.80896E-06-7.67754E-19-1.05128E-18
 -1      3236 9.56329E-05-2.70825E-05-2.93689E-05-5.26101E-06-2.06417E-19-7.26959E-19
 -1      3237 9.54578E-05-2.71276E-05-2.92913E-05-4.78487E-06-3.47872E-19-8.32153E-19
 -1      3238 9.47097E-05-2.66885E-05-2.91505E-05-4.64463E-06-3.93863E-19-1.31665E-18
 -1      3239 9.58097E-05-2.70093E-05-2.94751E-05-6.32359E-06 1.15296E-19-9.21115E-19
 -1      3240 9.55721E-05-2.69826E-05-2.94023E-05-5.79401E-06-2.36848E-21-1.17054E-18
 -1      3241 9.45756E-05-2.64127E-05-2.92114E-05-5.63568E-06 9.91094E-21-1.05367E-18
 -1      3242 9.61341E-05-2.71574E-05-2.95496E-05-7.47785E-06 5.89309E-19-7.52828E-19
 -1      3243 9.57924E-05-2.69969E-05-2.94891E-05-6.92483E-06 5.67188E-19-5.02670E-19
 -1      3244 9.44917E-05-2.62723E-05-2.92369E-05-6.77416E-06 8.28680E-21-3.74239E-19
 -1      3245 9.67413E-05-2.77023E-05-2.95750E-05-8.65195E-06 3.31741E-19-3.38344E-19
 -1      3246 9.62236E-05-2.73127E-05-2.95348E-05-8.12809E-06 5.55156E-19-2.88919E-19
 -1      3247 9.45492E-05-2.64056E-05-2.92082E-05-8.03904E-06 3.62654E-19 1.43196E-19
 -1      3248 9.78594E-05-2.89014E-05-2.95390E-05-9.72267E-06-6.13361E-19 3.78808E-19
 -1      3249 9.70506E-05-2.81471E-05-2.95239E-05-9.31429E-06-1.38492E-19 1.75723E-19
 -1      3250 9.49163E-05-2.70281E-05-2.91070E-05-9.38897E-06-1.31165E-19 1.16604E-18
 -1      3251 9.98408E-05-3.10918E-05-2.94498E-05-1.04808E-05-7.45324E-19 5.96273E-19
 -1      3252 9.85754E-05-2.98045E-05-2.94526E-05-1.03264E-05-4.26738E-19 1.60771E-19
 -1      3253 9.58814E-05-2.84540E-05-2.89251E-05-1.07450E-05-7.92734E-19 8.94187E-19
 -1      3254 1.03159E-04-3.46146E-05-2.93674E-05-1.05546E-05-1.73511E-18 5.07719E-19
 -1      3255 1.01249E-04-3.26536E-05-2.93520E-05-1.08768E-05-9.95075E-19 3.96640E-19
 -1      3256 9.79060E-05-3.11015E-05-2.86847E-05-1.19413E-05-1.05893E-18 1.11649E-18
 -1      3257 1.08272E-04-3.95406E-05-2.94593E-05-9.28657E-06-1.86945E-18 1.51609E-19
 -1      3258 1.05622E-04-3.69768E-05-2.93340E-05-1.04368E-05-1.90188E-18-7.21699E-20
 -1      3259 1.01637E-04-3.53874E-05-2.84830E-05-1.25959E-05-1.44833E-18-1.62306E-19
 -1      3260 1.15688E-04-4.51334E-05-3.01660E-05-5.37237E-06-2.88423E-18 1.35276E-18
 -1      3261 1.12196E-04-4.26228E-05-2.96688E-05-8.14000E-06-2.08277E-18 7.54892E-19
 -1      3262 1.07806E-04-4.14065E-05-2.85734E-05-1.19681E-05-2.42731E-18 5.25538E-19
 -1      3263 1.22516E-04-5.07338E-05-3.07555E-05-3.82483E-06-1.60950E-18 1.51006E-18
 -1      3264 1.18810E-04-4.92842E-05-2.97222E-05-7.36942E-06-2.97819E-18 9.49325E-19
 -1      3265 1.29209E-04-4.30223E-05-3.71348E-05 1.25306E-05 2.10980E-18 3.28249E-18
 -1      3266 1.28654E-04-4.73117E-05-3.50255E-05 8.05670E-06 8.56959E-19 3.28312E-18
 -1      3267 1.27973E-04-3.62675E-05-3.95317E-05 1.38829E-05 3.30078E-18 2.41177E-18
 -1      3268 1.19567E-04-1.62883E-05-4.46831E-05 8.04822E-06 3.71255E-18-7.13652E-19
 -1      3269 1.21524E-04-2.18165E-05-4.32051E-05 1.26974E-05 3.53784E-18-7.08861E-20
 -1      3270 1.21090E-04-2.26508E-05-4.25535E-05-1.25602E-05 2.17481E-18-2.38794E-18
 -1      3271 1.24037E-04-5.00857E-05-3.14822E-05 9.06682E-07-2.62580E-20-1.69329E-18
 -1      3272 1.26311E-04-4.92728E-05-3.29701E-05-3.26166E-06 2.80427E-19-1.63345E-18
 -1      3273 1.09974E-04-4.09257E-05-2.94742E-05 9.37298E-06-1.83475E-18-3.72729E-19
 -1      3274 1.13169E-04-4.35229E-05-2.98033E-05 7.21065E-06-2.18304E-18-3.65316E-19
 -1      3275 1.04150E-04-3.56403E-05-2.92889E-05 1.10645E-05-2.40172E-18-1.50529E-19
 -1      3276 1.06587E-04-3.80360E-05-2.93701E-05 1.01662E-05-1.52351E-18-1.85594E-19
 -1      3277 1.05760E-04-3.95386E-05-2.84775E-05 1.26349E-05-1.57856E-18 1.97690E-19
 -1      3278 1.00344E-04-3.17878E-05-2.93443E-05 1.12254E-05-3.32752E-18-3.34284E-20
 -1      3279 1.02051E-04-3.35350E-05-2.93528E-05 1.10351E-05-2.90499E-18-5.47411E-19
 -1      3280 1.00462E-04-3.41024E-05-2.85183E-05 1.28698E-05-3.03371E-18 8.87499E-20
 -1      3281 9.80538E-05-2.93246E-05-2.94398E-05 1.05749E-05-1.17835E-18 1.84301E-19
 -1      3282 9.91805E-05-3.04454E-05-2.94433E-05 1.07887E-05-2.49655E-18 2.21189E-20
 -1      3283 9.73221E-05-3.03489E-05-2.87481E-05 1.20850E-05-2.88518E-18-1.12190E-18
 -1      3284 9.67507E-05-2.79087E-05-2.94998E-05 9.54492E-06 9.97474E-19 3.59606E-20
 -1      3285 9.74813E-05-2.85655E-05-2.95212E-05 9.97671E-06 4.93306E-19-2.28370E-19
 -1      3286 9.56709E-05-2.80961E-05-2.89831E-05 1.08914E-05-5.22361E-19-5.57366E-19
 -1      3287 9.60305E-05-2.71776E-05-2.95106E-05 8.36120E-06 6.69919E-19 2.37862E-20
 -1      3288 9.65149E-05-2.75344E-05-2.95505E-05 8.89823E-06 9.18733E-19 1.28565E-21
 -1      3289 9.49118E-05-2.68942E-05-2.91600E-05 9.57295E-06 5.77067E-19-6.54433E-19
 -1      3290 9.56208E-05-2.68323E-05-2.94851E-05 7.14358E-06 2.11802E-18 8.68925E-19
 -1      3291 9.59649E-05-2.70249E-05-2.95350E-05 7.72118E-06 9.47890E-19 6.06108E-19
 -1      3292 9.46377E-05-2.63420E-05-2.92719E-05 8.25311E-06 5.65943E-19-6.73030E-19
 -1      3293 9.53668E-05-2.66656E-05-2.94436E-05 5.94436E-06 1.72478E-18 4.69591E-20
 -1      3294 9.56241E-05-2.67856E-05-2.94933E-05 6.52362E-06 2.70611E-18 7.95091E-19
 -1      3295 9.45834E-05-2.61332E-05-2.93350E-05 6.98185E-06 2.00954E-18 3.46432E-19
 -1      3296 9.50201E-05-2.64084E-05-2.94012E-05 5.15532E-06 5.62051E-19-2.08752E-19
 -1      3297 9.53127E-05-2.65968E-05-2.94403E-05 5.58509E-06 1.10671E-18-1.61566E-20
 -1      3298 9.45219E-05-2.60239E-05-2.93585E-05 5.98309E-06 1.77485E-18 9.30011E-19
 -1      3299 9.44198E-05-2.59037E-05-2.93761E-05 5.23755E-06 7.40418E-19-1.79664E-18
 -1      3300 9.10279E-05-2.31991E-05-2.90660E-05-2.51005E-06 1.45278E-18 4.10297E-18
 -1      3301 9.07305E-05-2.29636E-05-2.90553E-05-1.72077E-06 1.30657E-18 3.29717E-18
 -1      3302 9.31744E-05-2.50157E-05-2.92050E-05-4.85262E-06-9.13752E-20-8.08391E-19
 -1      3303 9.25630E-05-2.45194E-05-2.91756E-05-4.50076E-06 7.49980E-19 4.94198E-19
 -1      3304 9.05285E-05-2.27716E-05-2.90422E-05-7.38527E-07 1.14777E-18 5.41697E-19
 -1      3305 9.04698E-05-2.27213E-05-2.90425E-05 1.51874E-07 1.35599E-18-9.03013E-20
 -1      3306 9.00382E-05-2.26606E-05-2.88643E-05-1.36349E-06 1.06201E-18 1.69634E-18
 -1      3307 1.24536E-04-5.61572E-05-2.97753E-05 1.18633E-05 5.01232E-19 2.82042E-18
 -1      3308 1.16930E-04-5.46488E-05-2.62636E-05 2.12523E-05 1.93701E-18 2.82524E-18
 -1      3309 1.10891E-04-5.10990E-05-2.55028E-05 2.22092E-05 1.70428E-18 1.79699E-18
 -1      3310 1.23251E-04-1.37586E-05-4.73987E-05 1.99102E-06 3.67612E-18-4.87031E-19
 -1      3311 1.27191E-04-5.26978E-05-3.17540E-05-2.52475E-06 1.70743E-19-3.77949E-18
 -1      3312 1.28848E-04-5.08968E-05-3.36852E-05 2.56028E-06-1.21066E-19-3.34726E-18
 -1      3313 9.54180E-05-2.73180E-05-2.91924E-05 2.46506E-07 1.59653E-18-1.37892E-18
 -1      3314 9.54804E-05-2.69182E-05-2.93680E-05 8.17835E-07 2.09184E-18-1.32560E-18
 -1      3315 5.90883E-05-2.26189E-05-1.53286E-05-2.53235E-05-1.80654E-18-5.66962E-18
 -1      3316 7.00161E-05-3.07056E-05-1.64710E-05-3.20281E-05-1.94802E-18-5.15181E-18
 -1      3317 9.19542E-05-2.39833E-05-2.91217E-05-3.93885E-06 1.22927E-18 2.22333E-18
 -1      3318 9.14613E-05-2.35932E-05-2.91014E-05-3.32167E-06 1.02217E-18 3.78750E-18
 -1      3319 9.07616E-05-2.32582E-05-2.89213E-05-3.21688E-06 1.75501E-18 3.50051E-18
 -1      3320 9.19188E-05-2.41929E-05-2.90241E-05-4.62297E-06 7.80227E-19 8.77961E-19
 -1      3321 1.16462E-04-4.62133E-05-2.99565E-05 6.51373E-06-2.05103E-18-1.44136E-18
 -1      3322 1.19902E-04-4.79852E-05-3.07486E-05 2.98947E-06-1.00772E-18-1.16852E-18
 -1      3323 1.19643E-04-5.19389E-05-2.93313E-05 1.00663E-05-1.35283E-18-1.14835E-18
 -1      3324 1.12173E-04-4.56769E-05-2.86372E-05 1.17623E-05-2.87175E-18 1.23627E-19
 -1      3325 9.52700E-05-2.85273E-05-2.86007E-05-1.52648E-06 1.33062E-18-8.38935E-19
 -1      3326 9.52317E-05-2.85451E-05-2.85807E-05-1.49055E-06 1.19530E-18-8.42858E-19
 -1      3327 9.54532E-05-2.85986E-05-2.86542E-05-1.47851E-06 8.63109E-19-1.11217E-18
 -1      3328 9.53888E-05-2.85129E-05-2.86628E-05-1.57058E-06 1.15610E-18-6.01854E-19
 -1      3329 9.53806E-05-2.79106E-05-2.89192E-05-5.30608E-07 1.37308E-18-1.39812E-18
 -1      3330 9.54318E-05-2.76616E-05-2.90314E-05-1.83792E-07 1.38665E-18-1.26626E-18
 -1      3331 9.56994E-05-2.72937E-05-2.93221E-05 1.85233E-07 1.59155E-18-1.42770E-18
 -1      3332 7.63720E-05-3.54393E-05-1.76021E-05 3.40297E-05 3.85183E-18-1.86400E-18
 -1      3333 6.06255E-05-2.46971E-05-1.49458E-05 2.86915E-05 3.45833E-18-4.81115E-18
 -1      3334 4.74487E-05-1.65662E-05-1.30050E-05 1.90451E-05 2.35229E-18-7.37035E-18
 -1      3335 4.02554E-05-1.22901E-05-1.13553E-05 7.77309E-06 1.29833E-18-7.98847E-18
 -1      3336 8.48376E-05-3.80053E-05-1.96628E-05-3.15187E-05 2.59854E-18 1.99212E-18
 -1      3337 9.97426E-05-4.72947E-05-2.27806E-05-2.94456E-05 2.35168E-18 2.18963E-18
 -1      3338 9.24470E-05-1.79655E-05-3.19421E-05-6.92726E-06-2.52052E-18-4.62854E-18
 -1      3339 9.30780E-05-1.89449E-05-3.18006E-05-7.43828E-06-2.86835E-18-4.31347E-18
 -1      3340 9.38276E-05-2.05010E-05-3.14051E-05-6.43724E-06-2.74894E-18-4.01354E-18
 -1      3341 9.32085E-05-1.93888E-05-3.16087E-05-5.67244E-06-2.20788E-18-4.49985E-18
 -1      3342 9.55094E-05-2.55508E-05-2.99659E-05-2.13352E-06-1.82680E-18-3.02126E-18
 -1      3343 9.55445E-05-2.62456E-05-2.97123E-05-1.31978E-06-1.51535E-18-2.87557E-18
 -1      3344 9.57184E-05-2.61680E-05-2.98084E-05-1.14903E-06-1.40383E-18-2.94282E-18
 -1      3345 9.52030E-05-2.42639E-05-3.04053E-05 4.27715E-06 3.37666E-18-1.46701E-18
 -1      3346 9.46428E-05-2.27114E-05-3.08116E-05 4.79211E-06 3.34395E-18-1.88494E-18
 -1      3347 9.49731E-05-2.35896E-05-3.05740E-05 3.69860E-06 3.10143E-18-1.89925E-18
 -1      3348 9.52396E-05-2.51934E-05-3.00333E-05 2.99140E-06 2.99888E-18-1.44890E-18
 -1      3349 1.29812E-04-4.55647E-05-3.64380E-05-8.22055E-06-1.64020E-18 3.06562E-18
 -1      3350 1.29604E-04-5.23977E-05-3.27934E-05 2.46788E-07-5.08048E-19 3.11727E-18
 -1      3351 1.24844E-04-5.23047E-05-3.10799E-05 4.41008E-06-6.86626E-20 2.04580E-18
 -1      3352 1.23204E-04-4.17675E-05-3.50409E-05-1.01078E-05-1.21697E-18 2.05269E-18
 -1      3353 1.09774E-04-5.20962E-05-2.48974E-05 2.52240E-05-3.28913E-18-1.83271E-18
 -1      3354 9.52142E-05-4.39738E-05-2.17171E-05 2.94717E-05-3.85156E-18-9.11937E-19
 -1      3355 4.92841E-05-1.44614E-05-1.46291E-05-1.17404E-05-8.72444E-20 3.66506E-18
 -1      3356 5.44843E-05-1.79604E-05-1.54015E-05-1.97989E-05 6.26699E-19 2.05861E-18
 -1      3357 9.24078E-05-1.83321E-05-3.17619E-05 1.81066E-06 1.48693E-18-4.37569E-18
 -1      3358 9.22896E-05-1.81297E-05-3.17947E-05 1.05731E-06 1.13092E-18-4.47508E-18
 -1      3359 9.22301E-05-1.80291E-05-3.18135E-05 4.08314E-07 8.60805E-19-4.43592E-18
 -1      3360 9.22272E-05-1.80246E-05-3.18140E-05-3.59321E-07 3.53231E-19-4.49135E-18
 -1      3361 9.31800E-05-1.96055E-05-3.15144E-05 6.27259E-07 8.96720E-19-4.17742E-18
 -1      3362 9.43551E-05-2.19663E-05-3.10016E-05 3.62883E-06 2.64459E-18-2.65358E-18
 -1      3363 9.34540E-05-2.02056E-05-3.14168E-05 4.24510E-06 2.74124E-18-3.18306E-18
 -1      3364 9.30999E-05-1.95446E-05-3.15327E-05 3.65262E-06 2.35875E-18-3.49988E-18
 -1      3365 9.21002E-05-2.40351E-05-2.91860E-05 4.35350E-06 9.47938E-19-2.94407E-18
 -1      3366 9.27138E-05-2.45166E-05-2.92212E-05 4.81756E-06 1.35868E-18-6.94722E-19
 -1      3367 1.21462E-04-5.14228E-05-3.00303E-05-6.43391E-06 8.93683E-19-3.34913E-18
 -1      3368 9.52493E-05-2.44564E-05-3.03388E-05-2.62200E-06-1.84678E-18-3.40328E-18
 -1      3369 8.64599E-05-3.84145E-05-2.03149E-05 3.01264E-05 3.36537E-18-8.48303E-19
 -1      3370 1.19076E-04-2.21415E-05-4.21540E-05-1.29567E-05-3.23958E-18 9.19243E-19
 -1      3371 1.24378E-04-4.92000E-05-3.24319E-05-2.17005E-06-4.73505E-19 3.08053E-18
 -1      3372 1.23532E-04-4.51771E-05-3.35241E-05-7.67382E-06-2.92398E-19 2.10178E-18
 -1      3373 9.77613E-05-4.20142E-05-2.37621E-05 2.45814E-05-4.16698E-18-1.69653E-18
 -1      3374 8.88894E-05-3.94585E-05-2.09432E-05 3.00210E-05-3.94238E-18-2.29281E-19
 -1      3375 8.13196E-05-3.34225E-05-2.04246E-05 2.79491E-05-3.80561E-18-3.82224E-19
 -1      3376 1.19912E-04-4.86714E-05-3.06678E-05-2.63207E-06 3.32897E-19-2.06752E-18
 -1      3377 1.17183E-04-4.59032E-05-3.06207E-05-1.19377E-06-5.08173E-19-1.28653E-18
 -1      3378 1.14824E-04-4.46293E-05-2.99670E-05-3.93912E-06 9.38618E-20-7.73060E-19
 -1      3379 1.17134E-04-4.93679E-05-2.87935E-05-9.75987E-06 8.99605E-19-2.51666E-18
 -1      3380 1.28495E-04-4.59178E-05-3.55086E-05 7.08262E-06-7.56520E-19-4.05260E-18
 -1      3381 1.15316E-04-5.14158E-05-2.72048E-05 1.68784E-05-2.32860E-18-1.25666E-18
 -1      3382 9.53583E-05-2.81133E-05-2.88107E-05-7.92438E-07 1.30033E-18-1.43057E-18
 -1      3383 9.56990E-05-2.79439E-05-2.90430E-05-5.47767E-07 1.34370E-18-1.60380E-18
 -1      3384 9.53326E-05-2.82664E-05-2.87437E-05-9.90848E-07 1.04111E-18-1.52061E-18
 -1      3385 9.55862E-05-2.85346E-05-2.87400E-05-1.24393E-06 6.94787E-19-1.56891E-18
 -1      3386 9.52952E-05-2.84662E-05-2.86404E-05-1.24514E-06 6.62604E-19-1.32373E-18
 -1      3387 9.52982E-05-2.83781E-05-2.86749E-05-1.13941E-06 7.28021E-19-1.55312E-18
 -1      3388 1.32130E-04-5.18408E-05-3.45812E-05 3.63474E-06 1.06210E-20 2.52061E-18
 -1      3389 1.25675E-04-4.96530E-05-3.24228E-05 2.69557E-06-7.69450E-19 2.69521E-18
 -1      3390 1.25613E-04-2.88487E-05-4.18526E-05 1.57695E-05 3.75394E-18 1.13344E-18
 -1      3391 1.24775E-04-2.89706E-05-4.17885E-05-1.54481E-05 7.38824E-19-2.13246E-18
 -1      3392 1.30473E-04-4.89642E-05-3.48179E-05-6.45838E-06-1.56172E-19-2.89431E-18
 -1      3393 1.27882E-04-4.35759E-05-3.66793E-05-1.20822E-05-7.79932E-20-2.42142E-18
 -1      3394 1.26652E-04-3.65419E-05-3.87221E-05-1.41778E-05-4.33151E-19-2.94834E-18
 -1      3395 9.10815E-05-2.32074E-05-2.91030E-05 2.94275E-06 1.25953E-18 1.50197E-19
 -1      3396 9.15215E-05-2.35444E-05-2.91269E-05 3.65817E-06 1.08936E-18-1.46326E-18
 -1      3397 9.13900E-05-2.36420E-05-2.90266E-05 4.36802E-06 6.61890E-19-1.79877E-18
 -1      3398 9.05406E-05-2.27698E-05-2.90542E-05 1.16632E-06 1.64728E-18 1.38278E-18
 -1      3399 9.07414E-05-2.29216E-05-2.90664E-05 2.02759E-06 2.17677E-18 2.27269E-19
 -1      3400 9.03559E-05-2.28565E-05-2.89170E-05 2.69586E-06 1.34516E-18 6.05337E-19
 -1      3401 8.98905E-05-2.25159E-05-2.88621E-05 7.00125E-07 1.08400E-18-4.57414E-20
 -1      3402 6.72290E-05-2.44739E-05-1.82736E-05 2.48123E-05 3.38237E-18-3.89736E-18
 -1      3403 5.74409E-05-2.04624E-05-1.53920E-05 2.34795E-05 3.03844E-18-5.85215E-18
 -1      3404 5.57765E-05-1.67534E-05-1.65165E-05 1.63299E-05 2.56593E-18-6.10848E-18
 -1      3405 1.12090E-04-4.47385E-05-2.89891E-05-8.32497E-06-1.61811E-19-1.20990E-18
 -1      3406 8.03147E-05-3.48609E-05-1.91739E-05-2.99791E-05-2.18434E-18-5.06706E-18
 -1      3407 9.40282E-05-2.57863E-05-2.92477E-05-5.32650E-06-2.81404E-18-4.08580E-18
 -1      3408 9.35647E-05-2.53684E-05-2.92336E-05-5.10971E-06-8.72756E-19-2.87034E-18
 -1      3409 9.30513E-05-2.50982E-05-2.91215E-05-5.40778E-06-1.72705E-18-2.59847E-18
 -1      3410 9.39812E-05-2.58251E-05-2.92047E-05-5.79751E-06-1.83567E-18-3.22642E-18
 -1      3411 8.31797E-05-3.42638E-05-2.06270E-05-2.77450E-05 2.04294E-18 1.66453E-18
 -1      3412 9.42668E-05-2.18362E-05-3.10603E-05-5.44112E-06-2.52109E-18-3.70489E-18
 -1      3413 9.42138E-05-2.17344E-05-3.10725E-05-4.77003E-06-2.30904E-18-3.85953E-18
 -1      3414 1.28590E-04-5.62404E-05-3.08146E-05-7.32677E-06-2.55916E-18 1.42047E-18
 -1      3415 4.56383E-05-1.27264E-05-1.36514E-05 1.33792E-06 1.00082E-18-7.15044E-18
 -1      3416 1.06908E-04-4.75128E-05-2.52263E-05-2.17298E-05 2.29128E-18-4.85317E-19
 -1      3417 9.53831E-05-2.64745E-05-2.95397E-05 1.35823E-06 2.42877E-18-1.41775E-18
 -1      3418 9.54330E-05-2.58719E-05-2.97970E-05 2.24172E-06 2.70677E-18-1.44750E-18
 -1      3419 9.53618E-05-2.52187E-05-3.00785E-05 2.59515E-06 2.87956E-18-1.52971E-18
 -1      3420 9.55912E-05-2.63826E-05-2.96680E-05 1.21761E-06 2.23800E-18-1.39854E-18
 -1      3421 9.25589E-05-1.85963E-05-3.17092E-05-2.37328E-06-7.88489E-19-4.67747E-18
 -1      3422 9.27866E-05-1.89981E-05-3.16420E-05-3.08369E-06-1.17817E-18-4.75341E-18
 -1      3423 9.28161E-05-1.90442E-05-3.16356E-05 3.12413E-06 2.19568E-18-3.79456E-18
 -1      3424 9.25808E-05-1.86289E-05-3.17046E-05 2.42236E-06 1.82538E-18-4.14229E-18
 -1      3425 9.33912E-05-1.99967E-05-3.14363E-05 1.80036E-06 1.54582E-18-3.96538E-18
 -1      3426 9.37970E-05-2.07809E-05-3.12723E-05 2.84286E-06 2.08129E-18-3.36842E-18
 -1      3427 6.49389E-05-2.28601E-05-1.78070E-05 2.23435E-05-2.74887E-18 7.12884E-19
 -1      3428 5.46522E-05-1.87821E-05-1.48576E-05 2.10186E-05-2.10038E-18 1.85167E-18
 -1      3429 5.28244E-05-1.48383E-05-1.61502E-05 1.14504E-05-1.44279E-18 2.43893E-18
 -1      3430 9.37671E-05-2.07414E-05-3.12804E-05-2.80018E-06-1.21588E-18-4.49038E-18
 -1      3431 9.30707E-05-1.94970E-05-3.15411E-05-3.61270E-06-1.35065E-18-4.66481E-18
 -1      3432 9.34326E-05-2.01559E-05-3.14272E-05-4.22874E-06-1.71740E-18-4.66687E-18
 -1      3433 5.09350E-05-1.28899E-05-1.60867E-05 1.87206E-06 6.16294E-19 5.14244E-18
 -1      3434 4.92696E-05-1.30356E-05-1.51365E-05-5.98106E-06 9.35177E-20 5.31439E-18
 -1      3435 5.60398E-05-1.46943E-05-1.74916E-05-8.07550E-06 9.79684E-19 4.37948E-18
 -1      3436 9.80910E-05-4.41309E-05-2.29690E-05-2.70170E-05-2.91829E-18-2.81776E-18
 -1      3437 1.06303E-04-4.98158E-05-2.41389E-05-2.60554E-05-3.21706E-18-2.15878E-18
 -1      3438 1.11141E-04-4.95185E-05-2.61601E-05-1.94250E-05-2.97630E-18-1.64589E-19
 -1      3439 6.36560E-05-2.12080E-05-1.78820E-05-2.08423E-05 1.13287E-18 1.55637E-18
 -1      3440 5.26402E-05-1.62607E-05-1.52691E-05-1.56533E-05 1.18849E-19-5.13736E-18
 -1      3441 5.53084E-05-1.89191E-05-1.50464E-05-2.13753E-05-1.17182E-18-5.91695E-18
 -1      3442 6.46538E-05-2.33680E-05-1.75521E-05-2.39002E-05-1.32714E-18-5.01274E-18
 -1      3443 1.23386E-04-5.44269E-05-2.95734E-05-9.91327E-06-2.57371E-18 9.50847E-19
 -1      3444 1.21679E-04-5.18704E-05-2.98199E-05 7.39614E-06 2.35283E-19 2.56111E-18
 -1      3445 9.61652E-05-2.77372E-05-2.93191E-05 3.17849E-07-1.08272E-18-2.61578E-18
 -1      3446 9.61569E-05-2.80354E-05-2.91990E-05 5.93102E-07-1.00781E-18-2.46494E-18
 -1      3447 9.61531E-05-2.82717E-05-2.90869E-05 7.79433E-07-8.92164E-19-2.26024E-18
 -1      3448 9.61169E-05-2.84415E-05-2.90054E-05 9.47048E-07-6.42374E-19-2.12511E-18
 -1      3449 9.63387E-05-2.80741E-05-2.92576E-05 5.81092E-07-8.28828E-19-2.35293E-18
 -1      3450 9.60645E-05-2.85594E-05-2.89276E-05 1.05846E-06-5.42859E-19-2.07303E-18
 -1      3451 9.60146E-05-2.86369E-05-2.88761E-05 1.15820E-06-3.57412E-19-1.93361E-18
 -1      3452 9.62845E-05-2.84772E-05-2.90620E-05 8.97700E-07-4.86205E-19-2.10972E-18
 -1      3453 9.59317E-05-2.86690E-05-2.88255E-05 1.22539E-06-7.51032E-20-1.90404E-18
 -1      3454 9.58748E-05-2.86786E-05-2.87971E-05 1.28937E-06 1.41045E-20-1.50093E-18
 -1      3455 9.61520E-05-2.86567E-05-2.89283E-05 1.09269E-06-2.05479E-19-2.04030E-18
 -1      3456 9.57715E-05-2.86469E-05-2.87677E-05 1.33757E-06-2.36924E-20-1.32329E-18
 -1      3457 9.57104E-05-2.86054E-05-2.87572E-05 1.39110E-06 5.82254E-20-1.32806E-18
 -1      3458 9.59687E-05-2.86706E-05-2.88435E-05 1.22142E-06 8.99000E-20-1.79176E-18
 -1      3459 9.55911E-05-2.85245E-05-2.87441E-05 1.44056E-06-5.01951E-20-1.26683E-18
 -1      3460 9.55263E-05-2.84429E-05-2.87473E-05 1.50351E-06-1.89852E-20-9.35928E-19
 -1      3461 9.57491E-05-2.85589E-05-2.87968E-05 1.32923E-06 4.06489E-20-1.49759E-18
 -1      3462 9.53918E-05-2.83224E-05-2.87464E-05 1.57051E-06-2.03895E-19-9.94942E-19
 -1      3463 9.53221E-05-2.82081E-05-2.87599E-05 1.65865E-06 3.83719E-21-1.02621E-18
 -1      3464 9.54983E-05-2.83483E-05-2.87790E-05 1.45256E-06-1.75277E-19-1.59228E-18
 -1      3465 9.51706E-05-2.80541E-05-2.87677E-05 1.75649E-06 5.52809E-20-1.38468E-18
 -1      3466 9.50944E-05-2.79127E-05-2.87885E-05 1.88246E-06-1.61729E-19-1.50776E-18
 -1      3467 9.52152E-05-2.80564E-05-2.87820E-05 1.62087E-06-1.48606E-19-1.89274E-18
 -1      3468 9.49224E-05-2.77297E-05-2.88013E-05 2.02221E-06-5.76971E-19-1.23111E-18
 -1      3469 9.48382E-05-2.75662E-05-2.88268E-05 2.19620E-06-7.89040E-19-1.16896E-18
 -1      3470 9.48947E-05-2.76955E-05-2.87986E-05 1.85840E-06-1.92748E-19-1.96043E-18
 -1      3471 9.46418E-05-2.73588E-05-2.88410E-05 2.38731E-06-5.53080E-19-1.07953E-18
 -1      3472 9.45488E-05-2.71794E-05-2.88681E-05 2.61741E-06-3.52049E-19-7.65386E-19
 -1      3473 9.45292E-05-2.72757E-05-2.88210E-05 2.18544E-06-7.25967E-19-1.25010E-18
 -1      3474 9.43248E-05-2.69544E-05-2.88795E-05 2.86826E-06-4.43647E-19-4.49438E-19
 -1      3475 9.42247E-05-2.67692E-05-2.89045E-05 3.16050E-06-4.85274E-19-3.30473E-19
 -1      3476 9.41118E-05-2.68096E-05-2.88410E-05 2.61959E-06-1.32981E-19-9.26178E-19
 -1      3477 9.39727E-05-2.65382E-05-2.89079E-05 3.47864E-06-4.30563E-19-1.05795E-19
 -1      3478 9.38718E-05-2.63638E-05-2.89263E-05 3.83668E-06-1.34296E-19-1.07086E-19
 -1      3479 9.36384E-05-2.63163E-05-2.88488E-05 3.17680E-06-2.50395E-19-4.88533E-20
 -1      3480 9.35968E-05-2.61467E-05-2.89153E-05 4.22927E-06 2.42967E-19 1.72184E-19
 -1      3481 9.35094E-05-2.60102E-05-2.89214E-05 4.65409E-06 7.37436E-19 4.76840E-19
 -1      3482 9.31130E-05-2.58281E-05-2.88323E-05 3.87215E-06 2.84253E-19 1.32330E-19
 -1      3483 9.32259E-05-2.58395E-05-2.88884E-05 5.12859E-06 3.72159E-19 5.47789E-19
 -1      3484 9.31802E-05-2.57841E-05-2.88754E-05 5.61799E-06 3.06717E-19 8.48112E-20
 -1      3485 9.25535E-05-2.53982E-05-2.87768E-05 4.72170E-06 6.51058E-19 5.33842E-20
 -1      3486 9.29188E-05-2.57109E-05-2.88115E-05 6.18315E-06 3.85401E-19-5.29099E-20
 -1      3487 9.29648E-05-2.58021E-05-2.87723E-05 6.73087E-06 4.55342E-19-3.89858E-19
 -1      3488 9.20024E-05-2.51106E-05-2.86650E-05 5.74522E-06 2.96867E-19-6.84269E-19
 -1      3489 9.27820E-05-2.59032E-05-2.86686E-05 7.39765E-06 5.85617E-19-1.73717E-19
 -1      3490 9.30032E-05-2.62369E-05-2.85975E-05 7.99106E-06 1.26787E-18-6.24059E-19
 -1      3491 9.15421E-05-2.50939E-05-2.84781E-05 6.96972E-06 6.34492E-19-7.46316E-19
 -1      3492 9.29964E-05-2.66231E-05-2.84474E-05 8.77134E-06 1.74651E-18-7.27650E-19
 -1      3493 9.35252E-05-2.73325E-05-2.83445E-05 9.38454E-06 1.57437E-18-4.74731E-19
 -1      3494 9.13184E-05-2.55380E-05-2.81985E-05 8.43238E-06 1.14348E-18-1.71732E-19
 -1      3495 9.38568E-05-2.81567E-05-2.81490E-05 1.02808E-05 1.03225E-18-8.42309E-19
 -1      3496 9.48878E-05-2.94134E-05-2.80278E-05 1.08551E-05 6.04404E-19-5.13712E-19
 -1      3497 9.15787E-05-2.67161E-05-2.78176E-05 1.01749E-05 1.24023E-18-7.15228E-19
 -1      3498 9.58155E-05-3.08670E-05-2.78068E-05 1.18254E-05 5.13544E-19-6.13423E-20
 -1      3499 9.76065E-05-3.28561E-05-2.77096E-05 1.22268E-05 6.23998E-19 1.23536E-19
 -1      3500 9.27276E-05-2.90042E-05-2.73512E-05 1.22063E-05 1.22109E-18-1.24824E-18
 -1      3501 9.95134E-05-3.51318E-05-2.75235E-05 1.31076E-05 8.44201E-19 2.11790E-19
 -1      3502 1.02312E-04-3.79646E-05-2.75455E-05 1.30631E-05 1.29366E-18 5.85992E-19
 -1      3503 9.53806E-05-3.28691E-05-2.68707E-05 1.43931E-05 9.10010E-19 2.47691E-20
 -1      3504 1.05738E-04-4.10901E-05-2.75456E-05 1.32991E-05 1.84039E-18 9.35162E-19
 -1      3505 1.09497E-04-4.45374E-05-2.78334E-05 1.23653E-05 1.60897E-18 1.47860E-18
 -1      3506 1.00531E-04-3.89012E-05-2.65777E-05 1.62393E-05 1.58108E-18 9.36120E-19
 -1      3507 1.17016E-04-4.99688E-05-2.86469E-05 1.07193E-05 1.03022E-18 1.91635E-18
 -1      3508 1.10781E-04-4.79841E-05-2.67673E-05 1.75430E-05-2.57562E-18-6.97267E-19
 -1      3509 7.93686E-05-2.95711E-05-2.11366E-05-2.44086E-05 1.22717E-18 1.10411E-18
 -1      3510 8.91885E-05-3.66177E-05-2.27375E-05-2.56652E-05 1.81252E-18 5.20661E-20
 -1      3511 9.89569E-05-3.43833E-05-2.76246E-05-1.29456E-05 1.14130E-18 1.50589E-18
 -1      3512 9.68972E-05-3.21691E-05-2.77058E-05-1.26803E-05 1.53929E-18 2.06313E-18
 -1      3513 9.57668E-05-3.04924E-05-2.79372E-05-1.17315E-05 6.99561E-19 8.92552E-19
 -1      3514 9.45606E-05-2.90390E-05-2.80676E-05-1.12146E-05 8.31288E-20 8.86725E-19
 -1      3515 9.36257E-05-3.02079E-05-2.72283E-05-1.32525E-05 2.89335E-19 1.15746E-18
 -1      3516 9.41205E-05-2.80475E-05-2.82901E-05-1.03169E-05 3.39856E-19 9.61691E-19
 -1      3517 9.34821E-05-2.71771E-05-2.84156E-05-9.72630E-06 8.23173E-19 3.80872E-19
 -1      3518 9.21908E-05-2.75247E-05-2.77391E-05-1.11977E-05 3.85235E-20 1.21946E-19
 -1      3519 9.34368E-05-2.66535E-05-2.86029E-05-8.93153E-06 3.09056E-19-5.52775E-19
 -1      3520 9.31474E-05-2.61785E-05-2.87057E-05-8.33593E-06 2.77639E-19-1.46161E-18
 -1      3521 9.17792E-05-2.60274E-05-2.81898E-05-9.41258E-06-3.38254E-19 1.27148E-19
 -1      3522 9.33063E-05-2.59543E-05-2.88552E-05-7.64481E-06 9.40811E-19-2.04447E-18
 -1      3523 9.32289E-05-2.57216E-05-2.89363E-05-7.07129E-06 1.30156E-18-2.52895E-18
 -1      3524 9.19347E-05-2.53021E-05-2.85573E-05-7.89373E-06 2.82139E-19-1.33575E-18
 -1      3525 9.59126E-05-2.73239E-05-2.94024E-05 4.91123E-08 1.42125E-18-1.55490E-18
 -1      3526 9.58950E-05-2.68663E-05-2.95731E-05 5.21137E-07 1.67772E-18-1.54200E-18
 -1      3527 5.03070E-05-1.30389E-05-1.58135E-05 5.24817E-06 1.38606E-18-6.76133E-18
 -1      3528 4.91991E-05-1.26602E-05-1.53485E-05-4.90594E-06 8.15316E-19-5.92351E-18
 -1      3529 9.51906E-05-2.80320E-05-2.87782E-05-1.90451E-06 9.16788E-19-8.25390E-19
 -1      3530 9.52287E-05-2.81528E-05-2.87502E-05-1.78322E-06 1.00441E-18-8.52602E-19
 -1      3531 9.53479E-05-2.82873E-05-2.87367E-05-1.68914E-06 9.47825E-19-8.87208E-19
 -1      3532 9.53827E-05-2.83812E-05-2.87173E-05-1.60677E-06 9.93560E-19-8.53411E-19
 -1      3533 9.52775E-05-2.81546E-05-2.87670E-05-1.68469E-06 1.02034E-18-8.32906E-19
 -1      3534 9.47965E-05-2.73629E-05-2.88951E-05-2.63455E-06-2.79979E-20-2.90648E-19
 -1      3535 9.48481E-05-2.75294E-05-2.88564E-05-2.40318E-06 1.58317E-19-3.57224E-19
 -1      3536 9.45434E-05-2.69602E-05-2.89589E-05-3.18522E-06-3.17835E-19-7.13837E-19
 -1      3537 9.46047E-05-2.71434E-05-2.89187E-05-2.88640E-06 6.50444E-20-3.57891E-19
 -1      3538 9.43778E-05-2.69942E-05-2.88760E-05-2.67988E-06 8.67179E-20-3.84561E-19
 -1      3539 9.42453E-05-2.65288E-05-2.90154E-05-3.87815E-06-5.12222E-19-1.47766E-18
 -1      3540 9.43157E-05-2.67195E-05-2.89777E-05-3.50669E-06-4.65652E-19-1.13916E-18
 -1      3541 9.39620E-05-2.64943E-05-2.89109E-05-3.24322E-06 1.12288E-20-9.81558E-19
 -1      3542 9.39038E-05-2.60971E-05-2.90532E-05-4.72255E-06-4.15496E-19-1.49285E-18
 -1      3543 9.39780E-05-2.62778E-05-2.90235E-05-4.27589E-06-7.13856E-19-1.66615E-18
 -1      3544 9.34707E-05-2.59601E-05-2.89281E-05-3.94697E-06-5.63270E-19-1.71410E-18
 -1      3545 9.35359E-05-2.57176E-05-2.90569E-05-5.72427E-06-4.13073E-19-5.01206E-19
 -1      3546 9.35993E-05-2.58572E-05-2.90425E-05-5.20322E-06-7.41646E-20-9.17653E-19
 -1      3547 9.29020E-05-2.54244E-05-2.89129E-05-4.80432E-06-7.12885E-19-1.55762E-18
 -1      3548 9.31881E-05-2.54816E-05-2.90068E-05-6.88625E-06-3.55605E-19 8.74264E-20
 -1      3549 9.32079E-05-2.55269E-05-2.90170E-05-6.29558E-06-4.01708E-19-6.06303E-19
 -1      3550 9.22697E-05-2.49474E-05-2.88459E-05-5.83057E-06-4.25007E-19-1.04976E-18
 -1      3551 9.29588E-05-2.55391E-05-2.88798E-05-8.20974E-06-4.26026E-20 1.21800E-19
 -1      3552 9.28713E-05-2.54043E-05-2.89251E-05-7.55919E-06 1.75344E-20-3.28083E-19
 -1      3553 9.16183E-05-2.46315E-05-2.87030E-05-7.04828E-06-1.63895E-19-6.29573E-19
 -1      3554 9.30330E-05-2.61242E-05-2.86540E-05-9.69379E-06-5.88209E-19 1.04869E-18
 -1      3555 9.27244E-05-2.56776E-05-2.87431E-05-9.00087E-06-2.71844E-19 5.73818E-19
 -1      3556 9.10461E-05-2.46428E-05-2.84567E-05-8.49474E-06-3.98124E-19-3.40543E-19
 -1      3557 9.37331E-05-2.75814E-05-2.83186E-05-1.13257E-05-7.51698E-19 6.12728E-19
 -1      3558 9.30132E-05-2.66324E-05-2.84518E-05-1.06249E-05-3.97078E-19 8.68053E-19
 -1      3559 9.07436E-05-2.52390E-05-2.80806E-05-1.02293E-05-4.02505E-19 2.39219E-19
 -1      3560 9.55826E-05-3.03882E-05-2.78945E-05-1.30396E-05-1.19815E-18 4.24202E-19
 -1      3561 9.41582E-05-2.86783E-05-2.80505E-05-1.24132E-05-1.04450E-18 6.41061E-19
 -1      3562 9.10519E-05-2.68052E-05-2.75593E-05-1.23272E-05-6.81854E-19 1.59859E-19
 -1      3563 9.93639E-05-3.50875E-05-2.74869E-05-1.45526E-05-1.40841E-18 2.36691E-19
 -1      3564 9.68599E-05-3.23738E-05-2.75910E-05-1.42219E-05-1.01754E-18 6.11483E-19
 -1      3565 9.25652E-05-2.99071E-05-2.69118E-05-1.48608E-05-1.20359E-18-6.26963E-19
 -1      3566 1.06018E-04-4.18564E-05-2.73999E-05-1.50910E-05-2.59793E-18 9.78356E-20
 -1      3567 1.02064E-04-3.82380E-05-2.72586E-05-1.55126E-05-2.01054E-18 1.49922E-19
 -1      3568 9.62663E-05-3.52142E-05-2.62570E-05-1.75872E-05-1.63105E-18-4.26845E-19
 -1      3569 1.14308E-04-4.89964E-05-2.81121E-05-1.36270E-05-2.99297E-18 3.90231E-19
 -1      3570 8.93705E-05-2.24754E-05-2.86664E-05-2.05453E-06 2.48918E-18 3.22852E-18
 -1      3571 8.91039E-05-2.22863E-05-2.86483E-05-1.02743E-06 1.53382E-18 1.90695E-18
 -1      3572 1.00473E-04-3.64898E-05-2.73394E-05 1.54795E-05-1.63728E-18 2.41847E-19
 -1      3573 1.03794E-04-3.98135E-05-2.73622E-05 1.53496E-05-2.22024E-18-7.45658E-20
 -1      3574 9.31491E-05-2.64755E-05-2.85788E-05 1.06668E-05-3.95223E-19-4.16971E-19
 -1      3575 9.37232E-05-2.72711E-05-2.84506E-05 1.13424E-05-1.07844E-18-6.11061E-19
 -1      3576 9.30240E-05-2.56875E-05-2.88672E-05 9.13383E-06 1.22880E-18-7.99805E-19
 -1      3577 9.32617E-05-2.60692E-05-2.87773E-05 9.80653E-06 1.31408E-18-9.06235E-19
 -1      3578 9.12066E-05-2.52347E-05-2.82768E-05 1.02207E-05 5.93467E-19-6.45575E-19
 -1      3579 9.32356E-05-2.54400E-05-2.90685E-05 7.75698E-06 9.52163E-19-1.70618E-18
 -1      3580 9.33071E-05-2.55870E-05-2.90112E-05 8.38633E-06 6.13247E-19-1.73634E-18
 -1      3581 9.16368E-05-2.47623E-05-2.86565E-05 8.60303E-06 1.58141E-18-1.67968E-18
 -1      3582 9.35770E-05-2.54387E-05-2.92085E-05 6.48521E-06 1.69913E-18-1.03738E-18
 -1      3583 9.35608E-05-2.54697E-05-2.91729E-05 7.08500E-06 9.98521E-19-1.43632E-18
 -1      3584 9.22328E-05-2.46977E-05-2.89302E-05 7.22409E-06 1.09857E-18-2.49238E-18
 -1      3585 9.32718E-05-2.49654E-05-2.92872E-05 5.05263E-06 2.38115E-18 1.63988E-18
 -1      3586 9.38655E-05-2.54477E-05-2.93206E-05 5.19494E-06 1.95000E-18-6.27127E-19
 -1      3587 9.38734E-05-2.54944E-05-2.93022E-05 5.56772E-06 2.58892E-18-9.61600E-20
 -1      3588 9.26419E-05-2.45779E-05-2.91684E-05 5.29965E-06 1.28544E-18-7.20968E-20
 -1      3589 9.61079E-05-3.12994E-05-2.77372E-05 1.40866E-05-2.95320E-18-3.39899E-19
 -1      3590 9.82229E-05-3.36948E-05-2.76049E-05 1.45157E-05-1.75359E-18 6.05341E-19
 -1      3591 9.52483E-05-3.37179E-05-2.64807E-05 1.70441E-05-2.14708E-18 7.39164E-19
 -1      3592 9.39732E-05-2.81743E-05-2.81925E-05 1.23496E-05-2.04989E-18-1.23629E-18
 -1      3593 9.51482E-05-2.96337E-05-2.80374E-05 1.29726E-05-3.17156E-18-4.33184E-19
 -1      3594 9.23249E-05-2.91122E-05-2.71443E-05 1.44656E-05-2.34117E-18-5.37552E-20
 -1      3595 9.50094E-05-2.77224E-05-2.88328E-05-2.21318E-06 2.71477E-19-5.10384E-19
 -1      3596 9.50531E-05-2.78674E-05-2.87983E-05-2.04153E-06 7.59347E-19-4.30241E-19
 -1      3597 9.50235E-05-2.78307E-05-2.87962E-05-1.91786E-06 4.66589E-19-7.51795E-19
 -1      3598 9.47276E-05-2.74424E-05-2.88349E-05-2.24354E-06 1.56543E-19-2.70191E-19
 -1      3599 9.57327E-05-2.86571E-05-2.87452E-05-1.34183E-06 7.54181E-19-1.46471E-18
 -1      3600 9.57680E-05-2.86366E-05-2.87688E-05-1.27920E-06 7.69578E-19-1.58803E-18
 -1      3601 9.49560E-05-2.34327E-05-3.06531E-05-2.94850E-06-1.72773E-18-3.81584E-18
 -1      3602 9.53001E-05-2.45247E-05-3.03464E-05-2.08021E-06-1.48918E-18-3.63807E-18
 -1      3603 1.04328E-04-3.99559E-05-2.75466E-05-1.34024E-05 7.96773E-19 3.48217E-19
 -1      3604 1.01185E-04-3.69378E-05-2.74617E-05-1.37324E-05 1.91535E-18 1.37644E-18
 -1      3605 9.68015E-05-3.46007E-05-2.67481E-05-1.54023E-05 1.67996E-18 2.15576E-18
 -1      3606 7.85906E-05-3.11553E-05-2.01798E-05-2.67837E-05-2.10077E-18-4.35878E-18
 -1      3607 8.87862E-05-3.83953E-05-2.14717E-05-2.85996E-05-2.56452E-18-4.28935E-18
 -1      3608 9.62181E-05-4.05029E-05-2.36347E-05-2.41989E-05-2.88608E-18-2.36425E-18
 -1      3609 9.39547E-05-2.12583E-05-3.11655E-05-4.40303E-06-1.95968E-18-4.13530E-18
 -1      3610 9.60453E-05-2.68558E-05-2.96432E-05-4.06162E-07-1.06259E-18-2.98853E-18
 -1      3611 9.60914E-05-2.73361E-05-2.94738E-05 2.20578E-08-1.10677E-18-2.90108E-18
 -1      3612 9.62687E-05-2.73656E-05-2.95302E-05 7.79287E-08-9.00118E-19-2.69278E-18
 -1      3613 9.22810E-05-1.81173E-05-3.17964E-05-1.00853E-06 8.28683E-20-4.58989E-18
 -1      3614 9.23907E-05-1.83080E-05-3.17649E-05-1.76120E-06-4.10235E-19-4.56505E-18
 -1      3615 9.33762E-05-1.99727E-05-3.14403E-05-1.76142E-06-5.25680E-19-4.28880E-18
 -1      3616 1.28469E-04-3.68963E-05-3.94275E-05-1.40920E-05 2.34099E-19-2.85826E-18
 -1      3617 1.11797E-04-4.61656E-05-2.81209E-05-1.17502E-05 2.97845E-19-1.20331E-18
 -1      3618 1.08024E-04-4.30907E-05-2.76681E-05-1.32198E-05-1.37550E-19-1.02038E-18
 -1      3619 1.11489E-04-4.84977E-05-2.72707E-05-1.59278E-05 1.45175E-18-2.00616E-18
 -1      3620 1.10865E-04-4.79784E-05-2.71066E-05 1.61925E-05 1.56160E-18 1.69647E-18
 -1      3621 1.02782E-04-4.41927E-05-2.48497E-05 2.19935E-05 2.24751E-18 1.34551E-18
 -1      3622 1.08441E-04-4.52984E-05-2.70319E-05-1.62815E-05-2.97259E-18-2.40676E-20
 -1      3623 1.01398E-04-4.30953E-05-2.47028E-05-2.23624E-05 2.06753E-18-2.90837E-21
 -1      3624 9.57051E-05-2.54939E-05-3.00794E-05-1.48571E-06-1.34837E-18-3.30951E-18
 -1      3625 9.58435E-05-2.62209E-05-2.98494E-05-8.52940E-07-1.13589E-18-3.26228E-18
 -1      3626 9.59942E-05-2.62296E-05-2.98965E-05-6.77572E-07-1.06385E-18-3.18458E-18
 -1      3627 1.34757E-04-4.46481E-05-3.90072E-05-1.09019E-05 8.18181E-19-3.42074E-18
 -1      3628 1.35037E-04-5.02751E-05-3.62556E-05-5.34509E-06-5.22461E-19-3.91747E-18
 -1      3629 6.34023E-05-1.87103E-05-1.90261E-05-1.61353E-05 8.26631E-19 1.25896E-18
 -1      3630 7.04233E-05-2.40063E-05-1.98944E-05-2.21473E-05 9.13168E-19 2.27995E-18
 -1      3631 9.34532E-05-3.93384E-05-2.32988E-05 2.52294E-05 2.50878E-18 4.81750E-19
 -1      3632 8.17016E-05-3.14001E-05-2.11658E-05 2.55260E-05 2.75565E-18-1.56967E-18
 -1      3633 9.70230E-05-3.80860E-05-2.51902E-05 1.95485E-05 2.16770E-18 4.24291E-19
 -1      3634 9.49552E-05-2.35121E-05-3.06358E-05 3.04901E-06 2.70138E-18-2.25493E-18
 -1      3635 9.46902E-05-2.28126E-05-3.08055E-05 2.80227E-06 2.33595E-18-2.60731E-18
 -1      3636 9.39685E-05-2.11736E-05-3.12053E-05-1.21032E-06-2.43889E-19-3.96987E-18
 -1      3637 9.41004E-05-2.14612E-05-3.11461E-05-1.71530E-06-6.13055E-19-4.07907E-18
 -1      3638 8.37984E-05-3.14535E-05-2.23040E-05 2.33798E-05-3.80138E-18-9.72275E-19
 -1      3639 7.40941E-05-2.70816E-05-1.98340E-05 2.50280E-05-3.50779E-18-1.20130E-18
 -1      3640 6.85587E-05-2.17507E-05-1.99932E-05 1.91039E-05-2.99474E-18-1.92515E-19
 -1      3641 7.83444E-05-2.65622E-05-2.19854E-05-2.05141E-05 1.17233E-18 5.93585E-19
 -1      3642 9.56504E-05-2.83293E-05-2.88564E-05-9.91195E-07 9.59252E-19-1.69253E-18
 -1      3643 9.58848E-05-2.62266E-05-2.98539E-05 8.60265E-07 1.75614E-18-1.79522E-18
 -1      3644 9.57245E-05-2.62386E-05-2.97868E-05 1.03832E-06 1.93198E-18-1.64451E-18
 -1      3645 9.59733E-05-2.77119E-05-2.92462E-05-2.89390E-07 1.30638E-18-1.56999E-18
 -1      3646 9.61165E-05-2.73353E-05-2.94791E-05-1.40050E-08 1.50119E-18-1.74479E-18
 -1      3647 9.59548E-05-2.79990E-05-2.91280E-05-5.89165E-07 1.29491E-18-1.57839E-18
 -1      3648 9.36064E-05-2.57970E-05-2.90561E-05-6.64870E-06 8.41778E-19-2.90608E-18
 -1      3649 9.36770E-05-2.57393E-05-2.91186E-05-6.17242E-06-2.82283E-19-3.21185E-18
 -1      3650 9.31930E-05-2.53635E-05-2.90668E-05-6.01046E-06-1.09006E-18-4.78101E-18
 -1      3651 9.25105E-05-2.51798E-05-2.88478E-05-6.78773E-06 5.43447E-19-3.29236E-18
 -1      3652 9.58361E-05-2.85974E-05-2.88164E-05-1.20707E-06 5.41995E-19-1.61730E-18
 -1      3653 9.58717E-05-2.85150E-05-2.88634E-05-1.10362E-06 4.81168E-19-1.56427E-18
 -1      3654 9.60169E-05-2.86307E-05-2.88821E-05-1.16162E-06 4.83190E-19-1.93215E-18
 -1      3655 5.77223E-05-1.44772E-05-1.83921E-05-6.32430E-06 8.32395E-19-5.02606E-18
 -1      3656 5.39670E-05-1.44709E-05-1.66073E-05-1.03406E-05 5.14010E-19-4.36900E-18
 -1      3657 6.07087E-05-1.76532E-05-1.83910E-05-1.56345E-05-6.95163E-20-4.19641E-18
 -1      3658 9.56324E-05-2.56900E-05-2.99714E-05 1.64412E-06 2.22601E-18-1.76891E-18
 -1      3659 9.54994E-05-2.84087E-05-2.87539E-05-1.52218E-06 9.23305E-19-1.14670E-18
 -1      3660 9.54880E-05-2.84832E-05-2.87133E-05-1.54356E-06 1.09608E-18-1.06767E-18
 -1      3661 9.55218E-05-2.85463E-05-2.87049E-05-1.48624E-06 1.09366E-18-1.06098E-18
 -1      3662 6.13402E-05-1.64465E-05-1.90599E-05-1.20262E-05 1.11936E-18 2.59653E-18
 -1      3663 6.81432E-05-1.90720E-05-2.08781E-05-1.33986E-05 1.26599E-18 1.69957E-18
 -1      3664 6.05470E-05-1.50805E-05-1.94380E-05-6.43660E-06 7.23446E-19 3.65717E-18
 -1      3665 1.01784E-04-4.23935E-05-2.55194E-05-2.05263E-05-2.58383E-18-8.64106E-19
 -1      3666 8.98320E-05-2.28680E-05-2.87156E-05-3.13108E-06 2.05310E-18 2.24204E-18
 -1      3667 8.89524E-05-2.24428E-05-2.84946E-05-2.86201E-06 2.17926E-18 2.41190E-18
 -1      3668 9.03992E-05-2.32497E-05-2.87627E-05-3.97344E-06 1.16497E-18 2.45569E-18
 -1      3669 8.83039E-05-2.19232E-05-2.84360E-05-5.01379E-07 1.97520E-18 1.54658E-18
 -1      3670 8.90027E-05-2.21765E-05-2.86449E-05 1.94454E-07 1.07064E-18 2.61444E-20
 -1      3671 8.90897E-05-2.22298E-05-2.86595E-05 1.25388E-06 9.23131E-19-3.91995E-19
 -1      3672 7.71173E-05-2.72166E-05-2.12995E-05 2.19644E-05 2.42224E-18-2.47001E-18
 -1      3673 9.56158E-05-2.86113E-05-2.87139E-05-1.43940E-06 8.09821E-19-1.15691E-18
 -1      3674 9.56499E-05-2.86375E-05-2.87194E-05-1.39011E-06 5.87062E-19-1.41177E-18
 -1      3675 9.58695E-05-2.86665E-05-2.88032E-05-1.29707E-06 7.01126E-19-1.90826E-18
 -1      3676 9.56959E-05-2.85843E-05-2.87634E-05-1.40379E-06 8.34824E-19-1.61127E-18
 -1      3677 9.04491E-05-2.31984E-05-2.88403E-05 4.39041E-06 5.66562E-19-1.19564E-18
 -1      3678 9.11859E-05-2.36782E-05-2.89166E-05 5.11527E-06 4.79443E-19-1.75767E-18
 -1      3679 9.12592E-05-2.65058E-05-2.77713E-05 1.21497E-05-1.86489E-18-1.26620E-18
 -1      3680 9.22398E-05-2.44542E-05-2.90640E-05 5.80674E-06 1.43641E-19-1.50980E-18
 -1      3681 9.29384E-05-2.49128E-05-2.91467E-05 6.04712E-06 8.76064E-19-3.97141E-19
 -1      3682 9.39125E-05-2.55603E-05-2.92916E-05 5.93612E-06 2.54590E-18 7.28306E-19
 -1      3683 1.02664E-04-4.10226E-05-2.65889E-05-1.68383E-05 1.52945E-18 7.41266E-19
 -1      3684 9.70472E-05-3.85373E-05-2.48850E-05-2.04838E-05 1.66562E-18-1.88208E-19
 -1      3685 6.20481E-05-1.76177E-05-1.90689E-05 1.45038E-05 2.46925E-18-5.18691E-18
 -1      3686 5.56715E-05-1.46608E-05-1.72021E-05 1.06345E-05 1.68686E-18-5.94141E-18
 -1      3687 5.74326E-05-1.41224E-05-1.84842E-05 4.87369E-06 1.15560E-18-5.58894E-18
 -1      3688 9.44723E-05-2.22970E-05-3.09210E-05-3.42922E-06-1.78403E-18-4.13095E-18
 -1      3689 9.45127E-05-2.23793E-05-3.09100E-05-2.84814E-06-1.40310E-18-4.22776E-18
 -1      3690 9.54290E-05-2.45704E-05-3.03721E-05-1.73757E-06-1.26715E-18-3.61297E-18
 -1      3691 7.38259E-05-2.75005E-05-1.95728E-05-2.54748E-05-1.52580E-18-3.96287E-18
 -1      3692 8.20626E-05-3.11224E-05-2.16829E-05-2.42900E-05-1.72398E-18-4.21936E-18
 -1      3693 6.87624E-05-2.36688E-05-1.91808E-05-2.22433E-05-9.76033E-19-4.24710E-18
 -1      3694 5.69799E-05-1.48924E-05-1.78159E-05 6.89539E-06-8.12685E-19 2.25983E-18
 -1      3695 9.31757E-05-1.95976E-05-3.15157E-05-5.86087E-07 1.79014E-19-4.25056E-18
 -1      3696 9.27049E-05-2.49975E-05-2.90257E-05-5.75879E-06-8.73473E-19-2.25970E-18
 -1      3697 9.13294E-05-2.39660E-05-2.88777E-05 5.95051E-06 2.48684E-19-7.85990E-19
 -1      3698 9.41214E-05-2.14893E-05-3.11416E-05 1.76278E-06 1.71409E-18-3.65960E-18
 -1      3699 9.39856E-05-2.11978E-05-3.12019E-05 1.24094E-06 1.27404E-18-3.74895E-18
 -1      3700 9.38986E-05-2.10226E-05-3.12438E-05 8.07102E-07 9.85378E-19-3.86666E-18
 -1      3701 9.38513E-05-2.09241E-05-3.12637E-05 2.43890E-07 6.19702E-19-3.94711E-18
 -1      3702 9.46295E-05-2.23523E-05-3.09640E-05 8.12577E-07 1.12111E-18-3.41229E-18
 -1      3703 9.41900E-05-2.16406E-05-3.10981E-05-2.09945E-06-8.08750E-19-4.22355E-18
 -1      3704 9.43966E-05-2.21012E-05-3.09943E-05-2.51972E-06-1.16731E-18-4.32261E-18
 -1      3705 9.49219E-05-2.31595E-05-3.07365E-05-2.12089E-06-1.06998E-18-3.99691E-18
 -1      3706 9.48019E-05-2.27189E-05-3.08700E-05-1.52300E-06-5.77542E-19-3.78262E-18
 -1      3707 9.20893E-05-2.47244E-05-2.88754E-05-6.02526E-06 6.84841E-19-2.76062E-18
 -1      3708 9.20205E-05-2.44579E-05-2.89422E-05-5.37320E-06 1.93322E-19-7.82068E-19
 -1      3709 9.12441E-05-2.39247E-05-2.88700E-05-4.82409E-06 8.82672E-19 1.53368E-18
 -1      3710 9.16879E-05-2.46124E-05-2.87498E-05-6.37542E-06 9.83373E-19-2.70806E-18
 -1      3711 9.64900E-05-2.78743E-05-2.94026E-05 3.80820E-07-7.04904E-19-2.51304E-18
 -1      3712 9.64883E-05-2.81650E-05-2.92847E-05 5.86873E-07-6.48222E-19-2.42360E-18
 -1      3713 9.32842E-05-3.49259E-05-2.49282E-05-1.96605E-05 1.66517E-18 2.63894E-19
 -1      3714 1.03940E-04-4.43685E-05-2.55044E-05 2.13501E-05-2.87896E-18-6.65192E-19
 -1      3715 9.77040E-05-3.99093E-05-2.47331E-05 2.20401E-05-2.78125E-18-5.37184E-19
 -1      3716 9.64721E-05-2.83868E-05-2.91764E-05 7.12184E-07-3.83389E-19-2.10892E-18
 -1      3717 9.64210E-05-2.85404E-05-2.90931E-05 8.42295E-07-2.23405E-19-2.08221E-18
 -1      3718 9.65999E-05-2.82104E-05-2.93098E-05 5.38864E-07-2.61019E-19-2.13728E-18
 -1      3719 9.63445E-05-2.86371E-05-2.90157E-05 9.19500E-07-1.43524E-19-1.76455E-18
 -1      3720 9.62622E-05-2.86887E-05-2.89600E-05 1.00287E-06 4.64788E-20-1.67989E-18
 -1      3721 9.65075E-05-2.85617E-05-2.91203E-05 7.54075E-07-2.42408E-20-1.74036E-18
 -1      3722 9.61439E-05-2.86916E-05-2.89077E-05 1.05398E-06 1.36235E-19-1.56184E-18
 -1      3723 9.60407E-05-2.86663E-05-2.88737E-05 1.11514E-06 1.66145E-19-1.49809E-18
 -1      3724 9.63141E-05-2.86797E-05-2.89870E-05 8.94019E-07 1.09135E-19-1.48337E-18
 -1      3725 9.58914E-05-2.85974E-05-2.88409E-05 1.15849E-06-2.79680E-20-1.34382E-18
 -1      3726 9.57719E-05-2.85126E-05-2.88237E-05 1.21725E-06-1.31060E-19-1.50350E-18
 -1      3727 9.60488E-05-2.86204E-05-2.88985E-05 9.97982E-07 4.34718E-20-1.44268E-18
 -1      3728 9.55960E-05-2.83868E-05-2.88057E-05 1.26783E-06-1.57840E-19-1.73107E-18
 -1      3729 9.54610E-05-2.82538E-05-2.88010E-05 1.34019E-06-1.11617E-19-1.67431E-18
 -1      3730 9.57267E-05-2.84228E-05-2.88446E-05 1.09825E-06-1.55609E-19-1.82673E-18
 -1      3731 9.52585E-05-2.80807E-05-2.87933E-05 1.41042E-06-3.47176E-19-1.70430E-18
 -1      3732 9.51062E-05-2.79073E-05-2.87971E-05 1.50933E-06-3.14886E-19-1.76863E-18
 -1      3733 9.53520E-05-2.81130E-05-2.88160E-05 1.22148E-06-2.42059E-19-1.62532E-18
 -1      3734 9.48735E-05-2.76931E-05-2.87956E-05 1.60977E-06-8.98783E-21-1.64016E-18
 -1      3735 9.47004E-05-2.74850E-05-2.88041E-05 1.74599E-06-1.90803E-19-1.63429E-18
 -1      3736 9.49210E-05-2.77082E-05-2.88038E-05 1.38995E-06-1.12173E-19-1.35882E-18
 -1      3737 9.44320E-05-2.72345E-05-2.88041E-05 1.88579E-06-3.56599E-19-1.28763E-18
 -1      3738 9.42343E-05-2.69971E-05-2.88133E-05 2.06830E-06-3.55133E-19-7.77686E-19
 -1      3739 9.44245E-05-2.72204E-05-2.87990E-05 1.62280E-06-3.18217E-20-1.37602E-18
 -1      3740 9.39233E-05-2.67153E-05-2.88098E-05 2.25618E-06-4.11053E-20-6.36490E-19
 -1      3741 9.36978E-05-2.64559E-05-2.88150E-05 2.49311E-06 2.41675E-19-3.88559E-19
 -1      3742 9.38501E-05-2.66600E-05-2.87918E-05 1.93695E-06 6.59687E-20-2.80890E-19
 -1      3743 9.33381E-05-2.61510E-05-2.88022E-05 2.73807E-06-9.20126E-20-2.59015E-19
 -1      3744 9.30842E-05-2.58816E-05-2.87978E-05 3.03681E-06 1.03605E-19 2.38786E-19
 -1      3745 9.31847E-05-2.60403E-05-2.87709E-05 2.34975E-06 1.35716E-19-3.62735E-19
 -1      3746 9.26717E-05-2.55671E-05-2.87684E-05 3.34886E-06 2.03910E-19 1.72099E-19
 -1      3747 9.23942E-05-2.53075E-05-2.87474E-05 3.71703E-06 4.16525E-19-3.68148E-20
 -1      3748 9.24178E-05-2.53827E-05-2.87227E-05 2.87959E-06 2.23150E-19-4.06340E-19
 -1      3749 9.19291E-05-2.50057E-05-2.86924E-05 4.10913E-06 5.93025E-19-2.30492E-19
 -1      3750 9.16424E-05-2.47875E-05-2.86465E-05 4.55591E-06 5.53648E-19-2.83923E-19
 -1      3751 9.15448E-05-2.47218E-05-2.86305E-05 3.54925E-06 2.71381E-19-5.29340E-19
 -1      3752 9.11327E-05-2.45340E-05-2.85551E-05 5.04673E-06 2.60583E-19-6.96667E-19
 -1      3753 9.08667E-05-2.44063E-05-2.84746E-05 5.58498E-06 1.78370E-19-9.02211E-19
 -1      3754 9.05724E-05-2.41128E-05-2.84739E-05 4.39109E-06 1.10334E-19-7.54561E-19
 -1      3755 9.03335E-05-2.42551E-05-2.83339E-05 6.20294E-06 4.11128E-19-9.56980E-19
 -1      3756 9.01438E-05-2.42918E-05-2.82087E-05 6.85181E-06 7.42070E-19-7.92531E-19
 -1      3757 8.95270E-05-2.36404E-05-2.82281E-05 5.45475E-06 1.78945E-19-9.81246E-19
 -1      3758 8.96286E-05-2.43225E-05-2.80047E-05 7.64127E-06 1.08700E-18-7.86194E-19
 -1      3759 8.96117E-05-2.46318E-05-2.78260E-05 8.42803E-06 1.35581E-18-1.11606E-18
 -1      3760 8.84662E-05-2.34301E-05-2.78647E-05 6.81835E-06 8.60925E-19-1.46255E-18
 -1      3761 8.91940E-05-2.49623E-05-2.75444E-05 9.45811E-06 1.16129E-18-1.04807E-18
 -1      3762 8.95150E-05-2.57028E-05-2.73102E-05 1.04125E-05 1.11085E-18-1.42872E-18
 -1      3763 8.74992E-05-2.36644E-05-2.73522E-05 8.61170E-06 1.16885E-18-2.11066E-18
 -1      3764 8.93404E-05-2.65092E-05-2.69414E-05 1.17763E-05 1.48875E-18-1.22334E-18
 -1      3765 9.02733E-05-2.79048E-05-2.66662E-05 1.29007E-05 1.54359E-18-8.16927E-19
 -1      3766 8.68333E-05-2.46213E-05-2.66595E-05 1.10235E-05 1.34071E-18-1.12947E-18
 -1      3767 9.06126E-05-2.94384E-05-2.62155E-05 1.46933E-05 1.06648E-18-9.75950E-19
 -1      3768 9.25906E-05-3.18046E-05-2.59574E-05 1.58942E-05 1.14671E-18-5.59217E-19
 -1      3769 8.68585E-05-2.67318E-05-2.57720E-05 1.42897E-05 1.38706E-18-7.47118E-19
 -1      3770 9.35481E-05-3.41852E-05-2.53338E-05 1.83436E-05 1.73840E-18-1.14184E-19
 -1      3771 9.11384E-05-2.91525E-05-2.64970E-05-1.40667E-05 4.15463E-19-1.82694E-19
 -1      3772 9.00044E-05-2.75211E-05-2.67860E-05-1.29195E-05-7.95376E-20-2.31741E-19
 -1      3773 9.34315E-05-3.67827E-05-2.42095E-05-2.20590E-05-2.00547E-18-1.82578E-18
 -1      3774 9.60147E-05-2.63271E-05-2.98739E-05 5.85705E-07 1.66189E-18-2.16600E-18
 -1      3775 9.58241E-05-2.55996E-05-3.00932E-05 1.11318E-06 1.81177E-18-2.20255E-18
 -1      3776 9.00849E-05-2.65285E-05-2.71967E-05-1.14858E-05-3.94861E-19 3.05480E-20
 -1      3777 8.96604E-05-2.56142E-05-2.74636E-05-1.04980E-05-1.33028E-19 9.38441E-20
 -1      3778 8.72988E-05-2.54708E-05-2.64951E-05-1.22298E-05-4.27651E-19 6.83582E-21
 -1      3779 9.00672E-05-2.51500E-05-2.77950E-05-9.40470E-06-4.85383E-19-7.10108E-20
 -1      3780 9.00322E-05-2.46982E-05-2.80156E-05-8.58402E-06-6.63628E-19-3.34291E-20
 -1      3781 8.78709E-05-2.41985E-05-2.72861E-05-9.61696E-06-6.58919E-19-2.04731E-19
 -1      3782 9.05671E-05-2.45586E-05-2.82755E-05-7.74640E-06-4.21699E-19 2.56569E-19
 -1      3783 9.07455E-05-2.43793E-05-2.84542E-05-7.06773E-06 3.04607E-19-8.40017E-19
 -1      3784 8.88542E-05-2.37189E-05-2.79096E-05-7.70472E-06-5.43486E-19 3.29189E-19
 -1      3785 9.34120E-05-2.60540E-05-2.88646E-05-3.13508E-06 1.36958E-20-9.24705E-19
 -1      3786 9.36418E-05-2.63336E-05-2.88543E-05-2.83263E-06 3.13683E-19-6.52455E-19
 -1      3787 9.39790E-05-2.66425E-05-2.88554E-05-2.58933E-06 1.85320E-19-7.78278E-19
 -1      3788 9.41725E-05-2.68977E-05-2.88386E-05-2.34947E-06 6.63327E-20-5.07319E-19
 -1      3789 9.34706E-05-2.62211E-05-2.88157E-05-2.47825E-06 3.55562E-19-6.63697E-19
 -1      3790 9.19573E-05-2.47853E-05-2.87840E-05-4.63459E-06-9.26327E-19-1.46419E-18
 -1      3791 9.22652E-05-2.50711E-05-2.88090E-05-4.18856E-06-9.88232E-19-1.61223E-18
 -1      3792 9.10709E-05-2.42000E-05-2.86533E-05-5.62483E-06-1.11589E-19-1.75102E-18
 -1      3793 9.14037E-05-2.44420E-05-2.87116E-05-5.09495E-06-1.87703E-19-1.45699E-18
 -1      3794 9.08491E-05-2.40653E-05-2.86101E-05-4.43457E-06-4.71934E-19-1.12128E-18
 -1      3795 9.01172E-05-2.37688E-05-2.84258E-05-6.81968E-06-4.22774E-19-9.68371E-19
 -1      3796 9.04413E-05-2.39066E-05-2.85313E-05-6.19034E-06-2.98851E-19-1.16478E-18
 -1      3797 8.96718E-05-2.33707E-05-2.84011E-05-5.40063E-06-5.77042E-19-1.45884E-18
 -1      3798 8.91831E-05-2.36540E-05-2.80680E-05-8.28499E-06-9.06627E-19-2.56406E-19
 -1      3799 8.94289E-05-2.35917E-05-2.82357E-05-7.52855E-06-5.97888E-19-6.71234E-19
 -1      3800 8.83538E-05-2.28231E-05-2.80696E-05-6.60530E-06-7.73056E-19-7.61630E-19
 -1      3801 8.84444E-05-2.41049E-05-2.75450E-05-1.01298E-05-3.02635E-19-2.39131E-19
 -1      3802 8.84799E-05-2.36960E-05-2.77880E-05-9.20271E-06-5.84405E-19-1.69171E-19
 -1      3803 8.69485E-05-2.25772E-05-2.75729E-05-8.15881E-06-8.84210E-19-7.24870E-19
 -1      3804 8.82064E-05-2.55049E-05-2.68272E-05-1.25334E-05-5.49828E-19-3.16421E-19
 -1      3805 8.78193E-05-2.45258E-05-2.71511E-05-1.13743E-05 2.31309E-19 2.84773E-19
 -1      3806 8.55662E-05-2.28618E-05-2.68612E-05-1.02562E-05-3.58833E-19-3.65253E-19
 -1      3807 8.90307E-05-2.84444E-05-2.59073E-05-1.56412E-05-1.29459E-18-1.72675E-18
 -1      3808 8.78907E-05-2.65348E-05-2.62982E-05-1.42046E-05-1.07994E-18-1.36452E-18
 -1      3809 8.45822E-05-2.41146E-05-2.58767E-05-1.32895E-05-1.20401E-19-1.37808E-18
 -1      3810 9.18635E-05-3.34651E-05-2.49037E-05-1.94822E-05-1.72765E-18-1.71088E-18
 -1      3811 8.93167E-05-3.02624E-05-2.52720E-05-1.78417E-05-1.71121E-18-1.71145E-18
 -1      3812 8.40346E-05-2.67442E-05-2.46477E-05-1.72854E-05-1.67213E-18-3.05936E-18
 -1      3813 8.54721E-05-3.15218E-05-2.31293E-05-2.24491E-05-1.57616E-18-3.43346E-18
 -1      3814 8.81927E-05-2.61052E-05-2.66229E-05 1.37110E-05-2.26285E-18-1.97059E-20
 -1      3815 8.91325E-05-2.77266E-05-2.62479E-05 1.50442E-05-1.35123E-18 7.20431E-19
 -1      3816 8.18393E-05-2.77043E-05-2.32124E-05 1.92985E-05 1.90434E-18-1.62452E-18
 -1      3817 7.03706E-05-2.13248E-05-2.07296E-05 1.83817E-05 2.45962E-18-4.01798E-18
 -1      3818 1.00408E-04-3.93403E-05-2.62832E-05 1.84636E-05-2.04731E-18-5.78282E-19
 -1      3819 1.06688E-04-4.22953E-05-2.74815E-05 1.50950E-05-2.48058E-18-1.10571E-19
 -1      3820 8.84594E-05-2.45093E-05-2.74304E-05 1.11337E-05-2.25398E-19-2.03964E-18
 -1      3821 8.86904E-05-2.53129E-05-2.71190E-05 1.21924E-05-1.43089E-18-1.79317E-18
 -1      3822 8.53070E-05-2.39926E-05-2.62746E-05 1.26006E-05 2.14748E-19 5.16301E-20
 -1      3823 8.92739E-05-2.38944E-05-2.80458E-05 9.19391E-06 1.15100E-18-1.84914E-18
 -1      3824 8.91562E-05-2.42226E-05-2.78064E-05 1.00249E-05-2.16915E-19-2.47142E-18
 -1      3825 8.65767E-05-2.30768E-05-2.71996E-05 1.00028E-05 2.62086E-19-2.71448E-18
 -1      3826 9.48977E-05-3.70776E-05-2.46734E-05 2.14729E-05-2.61697E-18-3.04187E-19
 -1      3827 1.09782E-04-4.52644E-05-2.75397E-05 1.48271E-05-2.73454E-18-1.32782E-19
 -1      3828 9.09679E-05-2.38882E-05-2.87464E-05 6.53980E-06 6.96769E-19-1.64007E-18
 -1      3829 8.93786E-05-2.24293E-05-2.87040E-05 2.45289E-06 4.44894E-19 5.93044E-19
 -1      3830 8.98192E-05-2.27204E-05-2.87511E-05 3.40270E-06 1.26415E-19 5.20873E-19
 -1      3831 8.95707E-05-2.27331E-05-2.86335E-05 4.22456E-06 2.71573E-19-7.71307E-20
 -1      3832 8.85135E-05-2.20215E-05-2.84830E-05 1.97989E-06-3.99374E-19 8.54732E-19
 -1      3833 9.53459E-05-2.43052E-05-3.04606E-05-1.50794E-06-8.99781E-19-3.64860E-18
 -1      3834 9.31211E-05-3.29596E-05-2.56581E-05-1.71651E-05 1.34644E-18 2.26056E-19
 -1      3835 9.08344E-05-3.03570E-05-2.59142E-05-1.59117E-05 9.07995E-19-1.41653E-19
 -1      3836 8.68258E-05-2.74781E-05-2.54391E-05-1.56142E-05 7.57593E-19-4.29652E-19
 -1      3837 8.62511E-05-3.04200E-05-2.40147E-05-2.00927E-05 1.34796E-18-3.58470E-19
 -1      3838 9.51752E-05-2.43972E-05-3.03268E-05 2.86478E-06 2.80057E-18-1.83293E-18
 -1      3839 9.54324E-05-2.50435E-05-3.01598E-05 2.08181E-06 2.50160E-18-1.81979E-18
 -1      3840 9.59585E-05-2.56757E-05-3.01075E-05-8.81844E-07-9.16002E-19-3.26337E-18
 -1      3841 9.61364E-05-2.63948E-05-2.98994E-05-4.20997E-07-7.66319E-19-3.14027E-18
 -1      3842 9.02711E-05-2.38225E-05-2.84973E-05 7.60744E-06 1.42396E-18-1.87083E-18
 -1      3843 9.00109E-05-2.38702E-05-2.83255E-05 8.32614E-06 2.10578E-18-1.32960E-18
 -1      3844 8.80055E-05-2.28712E-05-2.78897E-05 8.10886E-06 1.16039E-18-1.43332E-18
 -1      3845 9.27403E-05-2.54235E-05-2.88467E-05-3.81179E-06-4.48872E-19-1.38887E-18
 -1      3846 9.30102E-05-2.57167E-05-2.88496E-05-3.44068E-06-8.80958E-21-8.27544E-19
 -1      3847 9.18698E-05-2.48080E-05-2.87314E-05-3.64547E-06-4.19308E-19-8.09383E-19
 -1      3848 9.44904E-05-2.23196E-05-3.09465E-05 2.55494E-06 2.10471E-18-3.04906E-18
 -1      3849 9.42797E-05-2.18305E-05-3.10545E-05 2.12838E-06 1.79209E-18-3.36210E-18
 -1      3850 9.48299E-05-2.28578E-05-3.08337E-05 1.53812E-06 1.65419E-18-3.36510E-18
 -1      3851 9.51118E-05-2.36782E-05-3.06039E-05 2.07081E-06 2.14631E-18-2.59509E-18
 -1      3852 8.97420E-05-2.98795E-05-2.56142E-05 1.73401E-05-2.35845E-18 1.12219E-18
 -1      3853 9.19339E-05-3.28545E-05-2.52364E-05 1.89550E-05-2.16955E-18 5.69315E-20
 -1      3854 8.80678E-05-3.29414E-05-2.36045E-05 2.23875E-05-2.96537E-18 3.83256E-19
 -1      3855 8.50957E-05-2.67775E-05-2.50456E-05 1.66801E-05-1.84220E-18 4.36966E-19
 -1      3856 9.52015E-05-2.80204E-05-2.87892E-05-1.60222E-06 9.44683E-19-1.08861E-18
 -1      3857 9.53217E-05-2.81748E-05-2.87800E-05-1.50509E-06 1.02941E-18-8.84517E-19
 -1      3858 9.59167E-05-2.83962E-05-2.89390E-05-9.79462E-07 7.88174E-19-1.52058E-18
 -1      3859 9.59489E-05-2.82288E-05-2.90168E-05-8.00021E-07 1.17370E-18-1.52650E-18
 -1      3860 9.61262E-05-2.84389E-05-2.90114E-05-9.46476E-07 7.24402E-19-1.72203E-18
 -1      3861 7.86109E-05-2.50767E-05-2.29365E-05-1.79760E-05 1.57426E-18 7.60066E-19
 -1      3862 9.63415E-05-2.70089E-05-2.97087E-05-1.32287E-07-6.25468E-19-3.07122E-18
 -1      3863 9.64166E-05-2.74827E-05-2.95485E-05 1.83581E-07-6.71226E-19-2.90043E-18
 -1      3864 9.65453E-05-2.75499E-05-2.95680E-05 2.03835E-07-4.89517E-19-2.69863E-18
 -1      3865 9.54624E-05-2.48298E-05-3.02672E-05 1.83757E-06 2.20099E-18-1.82585E-18
 -1      3866 9.38472E-05-2.09187E-05-3.12643E-05-2.11552E-07 4.04804E-19-3.99985E-18
 -1      3867 9.38934E-05-2.10136E-05-3.12459E-05-7.71960E-07 1.81876E-22-4.11192E-18
 -1      3868 9.46270E-05-2.23272E-05-3.09653E-05-8.10132E-07-1.22853E-19-3.68368E-18
 -1      3869 9.45581E-05-2.21766E-05-3.10062E-05 1.41004E-09 4.15656E-19-3.64959E-18
 -1      3870 6.20590E-05-1.64273E-05-1.94684E-05 1.12203E-05-3.08245E-18-5.52954E-20
 -1      3871 5.98141E-05-1.44882E-05-1.93544E-05 2.55213E-06-1.59065E-18 1.85347E-18
 -1      3872 8.80545E-05-3.06341E-05-2.45791E-05 1.88910E-05 1.88957E-18-6.44281E-19
 -1      3873 8.94774E-05-2.30848E-05-2.84613E-05 6.26242E-06 6.05664E-19-1.56888E-18
 -1      3874 9.56117E-05-2.50397E-05-3.02468E-05 1.36317E-06 1.91094E-18-2.21387E-18
 -1      3875 9.53862E-05-2.43845E-05-3.04345E-05 1.77476E-06 2.06650E-18-2.41646E-18
 -1      3876 9.52424E-05-2.38949E-05-3.05733E-05 1.59780E-06 1.81508E-18-2.73006E-18
 -1      3877 9.57407E-05-2.51368E-05-3.02547E-05 1.07288E-06 1.83783E-18-2.49691E-18
 -1      3878 9.50985E-05-2.33442E-05-3.07571E-05-4.57108E-07 1.66160E-22-3.45009E-18
 -1      3879 9.51728E-05-2.35353E-05-3.07149E-05-8.24570E-07-2.94901E-19-3.50789E-18
 -1      3880 9.51538E-05-2.36049E-05-3.06705E-05 1.36571E-06 1.59819E-18-3.34306E-18
 -1      3881 9.50375E-05-2.32703E-05-3.07559E-05 1.07115E-06 1.36046E-18-3.26201E-18
 -1      3882 9.54497E-05-2.42651E-05-3.05046E-05 1.10452E-06 1.62673E-18-3.13935E-18
 -1      3883 7.51455E-05-2.30563E-05-2.24015E-05 1.74462E-05-3.12461E-18-4.33932E-19
 -1      3884 6.80302E-05-1.92031E-05-2.07467E-05 1.47240E-05-3.18535E-18-1.72398E-19
 -1      3885 6.94537E-05-1.82331E-05-2.19238E-05 1.07683E-05-2.84828E-18-3.44279E-19
 -1      3886 9.54189E-05-2.82043E-05-2.88059E-05-1.34472E-06 7.41041E-19-1.82162E-18
 -1      3887 9.54981E-05-2.83302E-05-2.87839E-05-1.43533E-06 7.29328E-19-1.33810E-18
 -1      3888 9.56041E-05-2.84444E-05-2.87843E-05-1.36492E-06 7.17834E-19-1.83668E-18
 -1      3889 9.62171E-05-2.69535E-05-2.96781E-05 2.29319E-07 1.45568E-18-2.07572E-18
 -1      3890 9.61611E-05-2.63899E-05-2.98999E-05 4.36137E-07 1.51435E-18-2.31493E-18
 -1      3891 9.62819E-05-2.74279E-05-2.95152E-05-1.33889E-07 1.31817E-18-2.14459E-18
 -1      3892 9.61737E-05-2.80345E-05-2.92048E-05-5.88781E-07 1.21470E-18-1.76390E-18
 -1      3893 9.04241E-05-2.38973E-05-2.84972E-05-6.21167E-06 2.23095E-20 6.75257E-19
 -1      3894 7.35346E-05-2.11596E-05-2.24016E-05-1.51337E-05 1.59549E-18 1.08403E-18
 -1      3895 8.12777E-05-2.45848E-05-2.42407E-05-1.50980E-05 1.02714E-18 1.15584E-18
 -1      3896 9.27388E-05-2.55386E-05-2.87928E-05-2.99991E-06 1.66226E-19-5.77905E-19
 -1      3897 5.84132E-05-1.34749E-05-1.89418E-05-6.53699E-07 6.57443E-19-5.94993E-18
 -1      3898 6.16022E-05-1.50851E-05-1.99138E-05-5.66850E-06 3.62959E-19-4.90734E-18
 -1      3899 6.17391E-05-1.48920E-05-2.00331E-05 4.18305E-06 1.10938E-18-4.95645E-18
 -1      3900 6.70216E-05-1.86893E-05-2.07086E-05-1.41969E-05 1.43777E-19-3.42050E-18
 -1      3901 6.72390E-05-2.06580E-05-1.97408E-05-1.82703E-05-4.69081E-19-3.60295E-18
 -1      3902 7.45089E-05-2.44040E-05-2.14984E-05-1.98289E-05-7.83864E-19-2.99633E-18
 -1      3903 6.27509E-05-1.49058E-05-2.03405E-05-1.59081E-06-9.81040E-19 2.13372E-18
 -1      3904 6.65669E-05-1.62489E-05-2.16300E-05-5.22132E-06-3.09299E-19 1.00784E-19
 -1      3905 6.61734E-05-1.56622E-05-2.16418E-05 2.65387E-06-2.53678E-18-3.62557E-19
 -1      3906 9.40849E-05-2.68371E-05-2.88166E-05-2.06510E-06 7.44359E-20-5.97890E-19
 -1      3907 9.44559E-05-2.71720E-05-2.88330E-05-2.16209E-06 9.82580E-20-5.37477E-19
 -1      3908 9.46184E-05-2.73958E-05-2.88149E-05-1.97833E-06 1.34616E-19-5.11654E-19
 -1      3909 8.08794E-05-2.79439E-05-2.25426E-05-2.11795E-05-1.23428E-18-3.61717E-18
 -1      3910 9.03630E-05-2.34866E-05-2.86655E-05-4.83218E-06 5.35481E-19 1.10498E-18
 -1      3911 9.49968E-05-2.78230E-05-2.87927E-05-1.70228E-06 4.87948E-19-8.77543E-19
 -1      3912 9.50418E-05-2.78337E-05-2.88021E-05-1.51411E-06 5.88516E-19-9.10938E-19
 -1      3913 9.48580E-05-2.76324E-05-2.88081E-05-1.83795E-06 9.18335E-20-7.26459E-19
 -1      3914 8.73740E-05-2.16037E-05-2.81852E-05-1.23851E-06 1.72471E-18 2.38824E-18
 -1      3915 8.72238E-05-2.15053E-05-2.81818E-05 8.98489E-09 1.47062E-18 1.23969E-18
 -1      3916 7.10635E-05-1.87740E-05-2.23329E-05-1.12908E-05 1.71135E-18 1.14448E-18
 -1      3917 8.12847E-05-2.73240E-05-2.30620E-05 2.00251E-05-3.09025E-18 1.16255E-19
 -1      3918 8.82943E-05-2.22984E-05-2.82811E-05 5.04531E-06 7.53607E-19-6.99493E-19
 -1      3919 8.74002E-05-2.21691E-05-2.79673E-05 6.17104E-06 1.35744E-18-8.43160E-19
 -1      3920 8.75380E-05-2.18236E-05-2.81707E-05 4.02121E-06 3.48881E-19 1.31187E-18
 -1      3921 6.83675E-05-1.89907E-05-2.11875E-05 1.35874E-05 1.74646E-18-3.86405E-18
 -1      3922 9.54926E-05-2.44651E-05-3.04473E-05-1.19524E-06-7.84631E-19-3.53635E-18
 -1      3923 9.61664E-05-2.86714E-05-2.89264E-05-1.08903E-06 4.51236E-19-1.98017E-18
 -1      3924 9.62337E-05-2.86087E-05-2.89799E-05-9.98311E-07 6.14237E-19-1.89611E-18
 -1      3925 9.62685E-05-2.64726E-05-2.99104E-05-2.95107E-07-6.10033E-19-3.17211E-18
 -1      3926 8.83536E-05-2.23236E-05-2.82869E-05-3.75434E-06 1.06510E-19 9.36375E-19
 -1      3927 8.77719E-05-2.19478E-05-2.82311E-05-2.65213E-06 1.19718E-18 2.09825E-18
 -1      3928 8.67154E-05-2.14470E-05-2.79622E-05-2.17033E-06 2.98348E-19 1.73971E-18
 -1      3929 9.49800E-05-2.31127E-05-3.08064E-05 7.65471E-07 1.12381E-18-3.15065E-18
 -1      3930 9.49176E-05-2.29559E-05-3.08451E-05 3.99205E-07 6.91446E-19-3.19852E-18
 -1      3931 9.53267E-05-2.38043E-05-3.06450E-05 6.31524E-07 9.88872E-19-3.00888E-18
 -1      3932 8.11335E-05-2.54008E-05-2.39837E-05 1.63971E-05 1.40739E-18-1.58584E-18
 -1      3933 9.54503E-05-2.42915E-05-3.05024E-05-9.39063E-07-4.98434E-19-3.47772E-18
 -1      3934 9.59813E-05-2.86756E-05-2.88441E-05-1.21008E-06 6.65911E-19-2.09051E-18
 -1      3935 9.60640E-05-2.86866E-05-2.88752E-05-1.14719E-06 5.72180E-19-2.04568E-18
 -1      3936 9.62546E-05-2.86745E-05-2.89643E-05-9.99901E-07 6.10085E-19-1.78983E-18
 -1      3937 9.58646E-05-2.51040E-05-3.03181E-05-5.66247E-07-4.49029E-19-3.27072E-18
 -1      3938 8.26319E-05-2.45001E-05-2.48598E-05 1.39672E-05 1.42243E-18-1.65700E-18
 -1      3939 7.70996E-05-2.17139E-05-2.36245E-05 1.38504E-05 1.28503E-18-2.63784E-18
 -1      3940 8.24699E-05-2.33625E-05-2.53956E-05 1.21014E-05 1.62074E-18-1.70533E-18
 -1      3941 9.66484E-05-2.84985E-05-2.92059E-05 5.68449E-07 7.31667E-20-2.06458E-18
 -1      3942 9.65726E-05-2.86170E-05-2.91248E-05 6.58752E-07 9.29939E-20-1.94259E-18
 -1      3943 9.64647E-05-2.86768E-05-2.90514E-05 7.02262E-07 2.38428E-19-1.78012E-18
 -1      3944 9.63467E-05-2.86903E-05-2.89955E-05 7.64909E-07 2.48472E-19-1.63449E-18
 -1      3945 9.65892E-05-2.86221E-05-2.91287E-05 5.29206E-07 2.81493E-19-1.79336E-18
 -1      3946 9.61917E-05-2.86544E-05-2.89448E-05 7.97253E-07-4.32548E-21-1.52244E-18
 -1      3947 9.60423E-05-2.85869E-05-2.89088E-05 8.49295E-07 5.18229E-20-1.64697E-18
 -1      3948 9.63276E-05-2.86554E-05-2.90024E-05 6.13242E-07 1.06050E-19-1.42107E-18
 -1      3949 9.58496E-05-2.84760E-05-2.88755E-05 8.81900E-07 3.88109E-20-1.53940E-18
 -1      3950 9.56736E-05-2.83440E-05-2.88545E-05 9.37125E-07-1.73926E-19-1.54325E-18
 -1      3951 9.59824E-05-2.85102E-05-2.89165E-05 6.84196E-07-6.54217E-20-1.29942E-18
 -1      3952 9.54458E-05-2.81715E-05-2.88340E-05 9.79664E-07-7.42425E-20-1.29741E-18
 -1      3953 9.52430E-05-2.79858E-05-2.88233E-05 1.04987E-06 4.63448E-20-1.07207E-18
 -1      3954 9.55657E-05-2.82221E-05-2.88608E-05 7.61365E-07-2.63802E-20-8.00621E-19
 -1      3955 9.49785E-05-2.77609E-05-2.88107E-05 1.11049E-06-3.15460E-19-1.28729E-18
 -1      3956 9.47453E-05-2.75286E-05-2.88060E-05 1.20530E-06-2.37914E-19-1.07456E-18
 -1      3957 9.50784E-05-2.78142E-05-2.88258E-05 8.61967E-07-1.03088E-19-8.59051E-19
 -1      3958 9.44382E-05-2.72569E-05-2.87963E-05 1.29145E-06 1.40615E-19-1.19986E-18
 -1      3959 9.41690E-05-2.69837E-05-2.87927E-05 1.41932E-06 2.00851E-19-8.80081E-19
 -1      3960 9.45128E-05-2.73020E-05-2.88015E-05 9.99946E-07 2.49873E-20-1.34064E-18
 -1      3961 9.38108E-05-2.66695E-05-2.87805E-05 1.53779E-06 2.39340E-19-8.21276E-19
 -1      3962 9.34986E-05-2.63600E-05-2.87728E-05 1.70641E-06 2.67183E-19-6.59794E-19
 -1      3963 9.38540E-05-2.66958E-05-2.87774E-05 1.18977E-06 4.56025E-19-1.30952E-18
 -1      3964 9.30790E-05-2.60083E-05-2.87518E-05 1.86602E-06 1.81452E-19-7.60339E-19
 -1      3965 9.27179E-05-2.56708E-05-2.87337E-05 2.08378E-06 1.16515E-19-9.97486E-19
 -1      3966 9.30833E-05-2.60054E-05-2.87416E-05 1.44294E-06 9.84321E-20-1.18019E-18
 -1      3967 9.22269E-05-2.52903E-05-2.86962E-05 2.29290E-06-2.08452E-19-8.07672E-19
 -1      3968 9.18124E-05-2.49371E-05-2.86600E-05 2.56902E-06 2.45438E-19-1.21899E-18
 -1      3969 9.21816E-05-2.52432E-05-2.86798E-05 1.77864E-06-2.82954E-20-1.04699E-18
 -1      3970 9.12393E-05-2.45408E-05-2.85964E-05 2.83995E-06 7.10178E-19-1.23634E-18
 -1      3971 9.07712E-05-2.41918E-05-2.85326E-05 3.18711E-06 2.68080E-19-8.78159E-19
 -1      3972 9.11273E-05-2.44295E-05-2.85744E-05 2.21433E-06 2.40857E-19-1.57511E-18
 -1      3973 9.01066E-05-2.38008E-05-2.84311E-05 3.53799E-06-3.53754E-19-7.95998E-19
 -1      3974 8.95920E-05-2.34867E-05-2.83281E-05 3.97525E-06-2.57106E-19-1.45695E-18
 -1      3975 8.99003E-05-2.35949E-05-2.84037E-05 2.77944E-06 9.00135E-20-1.38332E-18
 -1      3976 8.88276E-05-2.31321E-05-2.81736E-05 4.43449E-06 1.78799E-19-1.03226E-18
 -1      3977 8.82863E-05-2.28992E-05-2.80174E-05 4.99227E-06 5.52468E-19-8.36117E-19
 -1      3978 8.84826E-05-2.27855E-05-2.81401E-05 3.51858E-06 8.71197E-20-1.08354E-18
 -1      3979 8.74162E-05-2.26268E-05-2.77911E-05 5.60604E-06 3.86397E-19-8.60681E-19
 -1      3980 8.68849E-05-2.25421E-05-2.75655E-05 6.33385E-06 5.62329E-19-1.59003E-18
 -1      3981 8.68579E-05-2.20670E-05-2.77484E-05 4.50507E-06 5.33661E-19-9.78826E-19
 -1      3982 8.59068E-05-2.24128E-05-2.72438E-05 7.16585E-06 8.23999E-19-1.73667E-18
 -1      3983 8.54443E-05-2.25674E-05-2.69312E-05 8.14719E-06 1.09406E-18-1.50173E-18
 -1      3984 8.50269E-05-2.15377E-05-2.71843E-05 5.85961E-06 5.41982E-19-8.16182E-19
 -1      3985 8.42063E-05-2.25548E-05-2.64662E-05 9.21733E-06 1.46740E-18-1.76323E-18
 -1      3986 8.39475E-05-2.31030E-05-2.60466E-05 1.05607E-05 1.77666E-18-1.18047E-18
 -1      3987 8.00967E-05-2.10825E-05-2.52250E-05 1.00403E-05 1.67820E-18-2.85724E-18
 -1      3988 8.28218E-05-2.11773E-05-2.63761E-05 7.63690E-06 1.11097E-18-1.35846E-18
 -1      3989 8.43252E-05-2.39932E-05-2.58439E-05-1.19112E-05-1.06806E-20-3.23657E-19
 -1      3990 8.45375E-05-2.32653E-05-2.63063E-05-1.03864E-05-1.46425E-19-1.64011E-19
 -1      3991 8.65495E-05-2.20043E-05-2.76620E-05 6.85136E-06 1.49161E-18-1.08302E-18
 -1      3992 7.98730E-05-2.46402E-05-2.35856E-05 1.68293E-05-2.58510E-18 2.43654E-20
 -1      3993 9.21286E-05-2.50903E-05-2.87306E-05-2.70596E-06 6.70739E-20-2.16745E-19
 -1      3994 9.25325E-05-2.54617E-05-2.87533E-05-2.43736E-06 2.18667E-19-5.43504E-19
 -1      3995 9.63526E-05-2.81150E-05-2.92483E-05-6.09084E-07 9.23787E-19-1.91608E-18
 -1      3996 9.63560E-05-2.78218E-05-2.93664E-05-3.73774E-07 1.15480E-18-1.97551E-18
 -1      3997 9.64315E-05-2.74779E-05-2.95509E-05-1.71583E-07 1.13407E-18-2.15751E-18
 -1      3998 8.57096E-05-2.30758E-05-2.68234E-05-9.11218E-06-5.66170E-19 5.88389E-19
 -1      3999 8.61675E-05-2.27966E-05-2.71914E-05-8.06026E-06-7.24209E-19 3.85786E-19
 -1      4000 8.30295E-05-2.17702E-05-2.62235E-05-8.73055E-06-9.07591E-20 1.23944E-18
 -1      4001 8.72238E-05-2.28310E-05-2.75813E-05-7.12777E-06-6.92996E-19 1.30429E-19
 -1      4002 8.77672E-05-2.27820E-05-2.78625E-05-6.35913E-06-1.41236E-19 9.56905E-19
 -1      4003 8.52104E-05-2.17975E-05-2.71598E-05-6.56171E-06-9.67543E-19 7.89597E-19
 -1      4004 9.30077E-05-2.58523E-05-2.87804E-05-2.23812E-06 2.61250E-19-7.42739E-19
 -1      4005 9.33458E-05-2.61910E-05-2.87877E-05-2.02164E-06 1.44917E-19-7.49370E-19
 -1      4006 9.24683E-05-2.54196E-05-2.87268E-05-1.95206E-06 1.89081E-19-5.00112E-19
 -1      4007 8.84039E-05-2.26364E-05-2.81852E-05-4.84791E-06-5.36925E-19-8.10028E-19
 -1      4008 8.90414E-05-2.29934E-05-2.83239E-05-4.36097E-06-2.01477E-19-8.15333E-19
 -1      4009 8.98478E-05-2.34385E-05-2.84613E-05-3.98293E-06-4.11279E-19-1.18005E-18
 -1      4010 9.04059E-05-2.38293E-05-2.85465E-05-3.58590E-06-4.90079E-19-1.23593E-18
 -1      4011 8.87386E-05-2.27351E-05-2.82690E-05-3.45347E-06-4.21905E-19-1.10643E-18
 -1      4012 8.48776E-05-2.15238E-05-2.71421E-05-7.40961E-06-6.03832E-19-1.87576E-18
 -1      4013 8.56051E-05-2.16244E-05-2.74527E-05-6.59468E-06-7.18332E-19-1.60148E-18
 -1      4014 8.28168E-05-2.15242E-05-2.62559E-05-9.46674E-06-4.65235E-19-1.84928E-18
 -1      4015 8.35226E-05-2.13455E-05-2.66944E-05-8.31438E-06-7.49819E-19-1.95611E-18
 -1      4016 8.24474E-05-2.03004E-05-2.65957E-05-6.60229E-06-7.62551E-19-2.20738E-18
 -1      4017 8.04822E-05-2.23041E-05-2.50064E-05-1.26700E-05-5.05887E-19-1.59046E-18
 -1      4018 8.11401E-05-2.15326E-05-2.56134E-05-1.07549E-05 6.41280E-20-1.39929E-18
 -1      4019 7.95535E-05-1.99599E-05-2.54750E-05-8.65649E-06-5.36489E-19-1.94072E-18
 -1      4020 8.48306E-05-2.17385E-05-2.70798E-05 8.13563E-06 6.77644E-19-8.51271E-19
 -1      4021 8.41299E-05-2.18684E-05-2.66607E-05 9.15772E-06 8.55745E-19-5.35474E-19
 -1      4022 7.17205E-05-1.80445E-05-2.29655E-05-7.12627E-06 3.46059E-19-4.48249E-19
 -1      4023 9.57571E-05-2.85536E-05-2.87996E-05-1.31396E-06 7.35693E-19-1.81382E-18
 -1      4024 9.58514E-05-2.86214E-05-2.88133E-05-1.25624E-06 6.59806E-19-1.71516E-18
 -1      4025 9.60247E-05-2.86447E-05-2.88782E-05-1.11504E-06 4.83881E-19-2.01393E-18
 -1      4026 9.57449E-05-2.84796E-05-2.88284E-05-1.21980E-06 5.85981E-19-1.86351E-18
 -1      4027 8.25736E-05-2.18821E-05-2.60669E-05 1.03662E-05 7.54222E-19-7.81499E-19
 -1      4028 8.20909E-05-2.24163E-05-2.55258E-05 1.17636E-05 2.40905E-19 1.79267E-20
 -1      4029 8.11232E-05-2.04300E-05-2.59678E-05 8.30762E-06 6.52578E-19 3.21965E-19
 -1      4030 8.18300E-05-2.38143E-05-2.49095E-05-1.33585E-05 2.58808E-19 5.44195E-19
 -1      4031 9.67052E-05-2.80560E-05-2.94196E-05 3.61779E-07-1.50215E-19-2.19737E-18
 -1      4032 9.66916E-05-2.83124E-05-2.93074E-05 5.01006E-07-9.47768E-21-1.93011E-18
 -1      4033 9.67414E-05-2.83597E-05-2.93060E-05 4.09266E-07-5.16629E-20-2.01211E-18
 -1      4034 8.69693E-05-2.13825E-05-2.81124E-05 1.37448E-06 3.36009E-19 1.77597E-18
 -1      4035 8.72813E-05-2.15896E-05-2.81666E-05 2.61449E-06-6.16279E-19 2.63259E-18
 -1      4036 8.59503E-05-2.11238E-05-2.77703E-05 3.43541E-06 3.39370E-19 1.83176E-18
 -1      4037 8.59666E-05-2.09895E-05-2.78400E-05 6.14761E-07 6.67861E-20 2.79163E-18
 -1      4038 7.89141E-05-2.51694E-05-2.29250E-05-1.82749E-05-9.12374E-19-3.00444E-18
 -1      4039 9.65836E-05-2.72732E-05-2.97059E-05 4.13658E-08-1.60167E-19-2.72118E-18
 -1      4040 9.66583E-05-2.77046E-05-2.95550E-05 2.56126E-07-1.92285E-19-2.28434E-18
 -1      4041 9.67391E-05-2.77967E-05-2.95457E-05 2.26578E-07-7.71731E-20-2.11710E-18
 -1      4042 9.59776E-05-2.52797E-05-3.02953E-05-3.10893E-07-1.17021E-19-2.91727E-18
 -1      4043 9.62123E-05-2.59791E-05-3.01015E-05-3.92578E-07-4.31158E-19-2.91893E-18
 -1      4044 9.64240E-05-2.66493E-05-2.99062E-05-9.60934E-08-2.55577E-19-2.81529E-18
 -1      4045 8.67426E-05-2.19537E-05-2.77629E-05-5.94699E-06-9.32683E-19-5.77130E-19
 -1      4046 8.74450E-05-2.22239E-05-2.79753E-05-5.33105E-06-5.98848E-19-8.14404E-19
 -1      4047 8.69922E-05-2.18130E-05-2.79105E-05-4.21314E-06-5.43421E-19-9.06081E-19
 -1      4048 7.21006E-05-1.92829E-05-2.26232E-05 1.13794E-05 1.87726E-18-3.46825E-18
 -1      4049 6.59928E-05-1.59308E-05-2.12471E-05 7.96699E-06 1.54852E-18-4.25461E-18
 -1      4050 7.37083E-05-1.88970E-05-2.35988E-05 9.14379E-06 1.51400E-18-3.77052E-18
 -1      4051 9.10831E-05-2.42746E-05-2.86325E-05-3.28109E-06-3.89936E-19-8.78704E-19
 -1      4052 9.15611E-05-2.46660E-05-2.86802E-05-2.95366E-06-2.81931E-20-3.95221E-19
 -1      4053 9.14370E-05-2.45750E-05-2.86441E-05-2.35506E-06 6.41321E-20-2.59720E-19
 -1      4054 7.96278E-05-2.27195E-05-2.44054E-05 1.41370E-05-1.50521E-18-6.58651E-20
 -1      4055 9.62992E-05-2.85032E-05-2.90570E-05-9.06414E-07 7.11350E-19-2.05374E-18
 -1      4056 9.63427E-05-2.83427E-05-2.91390E-05-7.60296E-07 8.21217E-19-1.87077E-18
 -1      4057 9.64951E-05-2.81577E-05-2.92881E-05-5.77884E-07 7.94200E-19-2.18885E-18
 -1      4058 9.64205E-05-2.85304E-05-2.90969E-05-8.36111E-07 6.10444E-19-2.10200E-18
 -1      4059 8.92802E-05-2.31558E-05-2.83529E-05-5.37731E-06 4.87235E-19 1.79051E-18
 -1      4060 7.93963E-05-2.14441E-05-2.47471E-05-1.11556E-05-1.33657E-19 1.25363E-18
 -1      4061 9.49905E-05-2.30991E-05-3.08157E-05 1.33504E-07 5.68743E-19-3.41266E-18
 -1      4062 9.49926E-05-2.31129E-05-3.08141E-05-2.44924E-07 1.71458E-19-3.43357E-18
 -1      4063 9.55325E-05-2.41660E-05-3.05740E-05-2.78549E-07 7.56383E-20-3.30612E-18
 -1      4064 9.53586E-05-2.37914E-05-3.06600E-05 1.28672E-07 5.56671E-19-3.27050E-18
 -1      4065 8.49154E-05-2.09704E-05-2.73752E-05-5.21571E-06-3.40382E-19-1.30895E-18
 -1      4066 9.53363E-05-2.80886E-05-2.88190E-05-1.19674E-06 6.01965E-19-1.38092E-18
 -1      4067 9.55134E-05-2.82563E-05-2.88264E-05-1.12510E-06 6.62981E-19-1.61323E-18
 -1      4068 8.66694E-05-2.18882E-05-2.77821E-05-4.67328E-06-3.91529E-19 5.95088E-19
 -1      4069 8.81646E-05-2.26469E-05-2.80750E-05-5.29108E-06-2.26691E-19 9.05544E-19
 -1      4070 8.44813E-05-2.09652E-05-2.71980E-05 6.00650E-06 1.24551E-18-5.28043E-19
 -1      4071 9.33360E-05-2.61866E-05-2.87710E-05-1.62668E-06 1.25137E-19-8.72700E-19
 -1      4072 9.37451E-05-2.65412E-05-2.88006E-05-1.86544E-06 2.31699E-19-9.12618E-19
 -1      4073 9.40256E-05-2.68419E-05-2.88000E-05-1.69758E-06 7.62906E-21-8.36512E-19
 -1      4074 7.70598E-05-2.04484E-05-2.42217E-05 1.15261E-05-9.49878E-19-7.56455E-19
 -1      4075 6.58492E-05-1.54873E-05-2.16267E-05 3.07170E-06 1.05647E-18-4.57272E-18
 -1      4076 6.53113E-05-1.62960E-05-2.07312E-05-9.98987E-06 3.92553E-19-3.99065E-18
 -1      4077 6.99912E-05-1.90746E-05-2.19085E-05-1.28607E-05-1.25286E-19-2.73487E-18
 -1      4078 6.49926E-05-1.55055E-05-2.11982E-05-4.89688E-06-9.29751E-21-4.47797E-18
 -1      4079 9.62993E-05-2.65768E-05-2.98860E-05 2.26461E-07 1.33167E-18-2.39992E-18
 -1      4080 9.60843E-05-2.58793E-05-3.00871E-05 5.82113E-07 1.50066E-18-2.45374E-18
 -1      4081 9.02059E-05-2.36704E-05-2.85010E-05-2.84835E-06-2.61731E-19-1.28231E-18
 -1      4082 7.62761E-05-2.10837E-05-2.36332E-05-1.27264E-05-4.80241E-19-2.17760E-18
 -1      4083 7.33974E-05-1.83417E-05-2.34373E-05-9.64877E-06-2.68387E-20-1.56222E-18
 -1      4084 7.90246E-05-2.33325E-05-2.37029E-05-1.59607E-05-9.31887E-19-2.12842E-18
 -1      4085 7.19298E-05-1.67908E-05-2.34833E-05-3.06104E-06-1.80852E-19-1.95280E-18
 -1      4086 7.53106E-05-1.92772E-05-2.41014E-05-8.56665E-06 9.47238E-19 3.36537E-19
 -1      4087 9.46018E-05-2.73758E-05-2.88087E-05-1.74937E-06-1.28218E-19-4.11932E-19
 -1      4088 9.58989E-05-2.53999E-05-3.02153E-05 7.24172E-07 1.47984E-18-2.67847E-18
 -1      4089 9.56938E-05-2.48548E-05-3.03639E-05 9.66622E-07 1.52352E-18-2.85516E-18
 -1      4090 9.56304E-05-2.45780E-05-3.04529E-05 7.67133E-07 1.16473E-18-3.01833E-18
 -1      4091 9.60344E-05-2.55809E-05-3.01903E-05 5.00956E-07 1.14098E-18-2.59992E-18
 -1      4092 9.65333E-05-2.68121E-05-2.98790E-05-3.79727E-08-2.94819E-20-2.48799E-18
 -1      4093 8.50004E-05-2.06366E-05-2.75680E-05-6.27206E-07-4.16322E-19 1.92820E-18
 -1      4094 8.45607E-05-2.04777E-05-2.74850E-05 7.68203E-07-7.28827E-19 2.14272E-18
 -1      4095 7.83915E-05-1.99805E-05-2.50933E-05-7.64293E-06-1.83748E-19 1.61741E-18
 -1      4096 9.59416E-05-2.51587E-05-3.03436E-05-2.16636E-07 1.57256E-19-2.98751E-18
 -1      4097 9.63003E-05-2.59877E-05-3.01263E-05-9.06788E-08 1.54848E-19-2.64353E-18
 -1      4098 9.58576E-05-2.49351E-05-3.03958E-05-6.88436E-08 4.08179E-19-2.97672E-18
 -1      4099 9.65167E-05-2.85890E-05-2.91130E-05-7.58466E-07 4.33459E-19-1.91268E-18
 -1      4100 9.65811E-05-2.84559E-05-2.91946E-05-6.51171E-07 5.14726E-19-2.11239E-18
 -1      4101 7.35299E-05-1.89362E-05-2.33939E-05 9.61077E-06-1.72435E-18-1.24716E-19
 -1      4102 6.93228E-05-1.66498E-05-2.24080E-05 6.24525E-06-2.13489E-18-1.12401E-19
 -1      4103 7.03103E-05-1.66732E-05-2.31134E-05 2.51162E-06-1.29014E-18-4.60405E-19
 -1      4104 7.60980E-05-1.89404E-05-2.45999E-05 7.72882E-06-7.79864E-19 8.49101E-20
 -1      4105 9.63200E-05-2.86938E-05-2.89828E-05-8.89910E-07 4.90864E-19-1.70588E-18
 -1      4106 9.64215E-05-2.86631E-05-2.90382E-05-8.16690E-07 4.53846E-19-1.78962E-18
 -1      4107 9.65621E-05-2.86001E-05-2.91270E-05-6.46603E-07 3.47019E-19-1.93767E-18
 -1      4108 9.48882E-05-2.76642E-05-2.88090E-05-1.35549E-06 1.45591E-19-7.07527E-19
 -1      4109 9.50943E-05-2.78798E-05-2.88091E-05-1.25924E-06 4.67808E-19-9.84471E-19
 -1      4110 9.51918E-05-2.79269E-05-2.88261E-05-1.03554E-06 4.00596E-19-7.44934E-19
 -1      4111 8.58978E-05-2.12877E-05-2.76735E-05-3.43259E-06-5.66576E-19 1.31662E-18
 -1      4112 8.53378E-05-2.09293E-05-2.76171E-05-1.99114E-06-3.82265E-19 2.35967E-18
 -1      4113 8.40805E-05-2.04749E-05-2.72506E-05-1.98400E-06-7.36224E-19 1.45870E-18
 -1      4114 8.53052E-05-2.13372E-05-2.74249E-05-4.61353E-06-9.93568E-19 2.10482E-19
 -1      4115 8.40678E-05-2.03418E-05-2.72957E-05 2.54006E-06 1.47432E-19 1.74975E-18
 -1      4116 8.41831E-05-2.05587E-05-2.72948E-05 3.99048E-06 8.87836E-19-8.05264E-20
 -1      4117 8.23368E-05-2.01035E-05-2.66673E-05 5.04466E-06 1.68947E-18-1.88246E-19
 -1      4118 8.27766E-05-1.98941E-05-2.69723E-05 1.22859E-06-2.59823E-19 6.49179E-19
 -1      4119 9.64505E-05-2.86765E-05-2.90461E-05 4.06924E-07 3.42641E-19-1.62084E-18
 -1      4120 9.62958E-05-2.86448E-05-2.89933E-05 4.46734E-07 6.50192E-20-1.60288E-18
 -1      4121 9.61072E-05-2.85655E-05-2.89470E-05 4.59214E-07-1.26559E-19-1.45236E-18
 -1      4122 9.59161E-05-2.84539E-05-2.89118E-05 4.97071E-07-1.27699E-19-1.47852E-18
 -1      4123 9.62211E-05-2.85883E-05-2.89852E-05 2.56192E-07 7.50581E-20-1.96456E-18
 -1      4124 9.56846E-05-2.82995E-05-2.88808E-05 5.10799E-07 6.06594E-20-1.44501E-18
 -1      4125 9.54585E-05-2.81205E-05-2.88584E-05 5.55464E-07 2.82322E-21-1.42217E-18
 -1      4126 9.58077E-05-2.83539E-05-2.89079E-05 2.86221E-07 8.15336E-21-1.82521E-18
 -1      4127 9.51870E-05-2.79051E-05-2.88376E-05 5.78281E-07-2.63819E-19-1.25554E-18
 -1      4128 9.49243E-05-2.76693E-05-2.88231E-05 6.34662E-07-4.14469E-19-1.42961E-18
 -1      4129 9.53124E-05-2.79788E-05-2.88553E-05 3.26182E-07-1.16925E-19-2.05767E-18
 -1      4130 9.46088E-05-2.73997E-05-2.88073E-05 6.70766E-07-3.05883E-19-1.35431E-18
 -1      4131 9.43021E-05-2.71130E-05-2.87955E-05 7.44430E-07 2.57363E-19-1.34254E-18
 -1      4132 9.47346E-05-2.74853E-05-2.88177E-05 3.79624E-07-1.45530E-19-1.25762E-18
 -1      4133 9.39361E-05-2.67941E-05-2.87793E-05 7.95193E-07 7.64937E-19-1.62594E-18
 -1      4134 9.35747E-05-2.64610E-05-2.87646E-05 8.89849E-07 5.36364E-19-1.42672E-18
 -1      4135 9.40672E-05-2.68873E-05-2.87849E-05 4.57231E-07 2.68701E-19-1.67791E-18
 -1      4136 9.31396E-05-2.60901E-05-2.87419E-05 9.69578E-07 2.49703E-19-1.14562E-18
 -1      4137 9.27216E-05-2.57158E-05-2.87180E-05 1.09721E-06 3.52600E-20-9.39306E-19
 -1      4138 9.32599E-05-2.61649E-05-2.87441E-05 5.68230E-07 5.53807E-19-1.63860E-18
 -1      4139 9.22076E-05-2.53071E-05-2.86806E-05 1.20125E-06 1.41639E-21-7.44164E-19
 -1      4140 9.17187E-05-2.48980E-05-2.86393E-05 1.36543E-06 8.32100E-20-6.09528E-19
 -1      4141 9.23316E-05-2.53677E-05-2.86822E-05 7.13409E-07 2.49449E-19-1.29555E-18
 -1      4142 9.11090E-05-2.44535E-05-2.85782E-05 1.50760E-06 1.15330E-20-4.93124E-19
 -1      4143 9.05377E-05-2.40206E-05-2.85096E-05 1.71892E-06 2.76499E-19-8.21765E-19
 -1      4144 9.12251E-05-2.44829E-05-2.85813E-05 9.10202E-07 1.64888E-19-9.71246E-19
 -1      4145 8.98144E-05-2.35527E-05-2.84129E-05 1.91110E-06 1.71004E-19-5.68801E-19
 -1      4146 8.91511E-05-2.31129E-05-2.83048E-05 2.18490E-06 7.61461E-21-6.78276E-19
 -1      4147 8.99142E-05-2.35308E-05-2.84204E-05 1.17817E-06 4.29318E-19-6.09319E-19
 -1      4148 8.82906E-05-2.26376E-05-2.81571E-05 2.44541E-06-3.97621E-20-6.01170E-19
 -1      4149 8.75261E-05-2.22143E-05-2.79935E-05 2.80630E-06 2.28502E-19-7.14718E-19
 -1      4150 8.83585E-05-2.25337E-05-2.81717E-05 1.54316E-06 6.03925E-20-1.03047E-18
 -1      4151 8.64944E-05-2.17514E-05-2.77747E-05 3.16401E-06 4.05486E-19-1.15625E-18
 -1      4152 8.56198E-05-2.13770E-05-2.75354E-05 3.65426E-06 3.36935E-19-1.05922E-18
 -1      4153 8.65043E-05-2.15195E-05-2.77992E-05 2.04546E-06 6.62985E-21-9.85657E-19
 -1      4154 8.43589E-05-2.09460E-05-2.72175E-05 4.15750E-06 2.27523E-19-1.13548E-18
 -1      4155 8.33341E-05-2.06715E-05-2.68740E-05 4.86739E-06 5.67292E-19-1.11903E-18
 -1      4156 8.42672E-05-2.05184E-05-2.72543E-05 2.74594E-06 1.46366E-19-1.45898E-18
 -1      4157 8.77928E-05-2.22061E-05-2.81170E-05-2.69281E-06-5.02415E-19-1.46939E-18
 -1      4158 8.86057E-05-2.26933E-05-2.82644E-05-2.42021E-06-1.16052E-19-1.47138E-18
 -1      4159 9.65629E-05-2.76176E-05-2.95521E-05-2.46786E-07 8.98802E-19-2.11604E-18
 -1      4160 9.64827E-05-2.71644E-05-2.97054E-05 6.76587E-09 1.13193E-18-2.13759E-18
 -1      4161 9.64216E-05-2.67021E-05-2.98775E-05 1.28518E-07 1.04706E-18-2.41233E-18
 -1      4162 8.41224E-05-2.11120E-05-2.70139E-05-5.36378E-06-8.69876E-19 1.19905E-18
 -1      4163 9.19985E-05-2.50757E-05-2.86845E-05-1.55671E-06 1.01042E-20-5.00486E-19
 -1      4164 9.24762E-05-2.54886E-05-2.87163E-05-1.40075E-06 2.38496E-19-7.43495E-19
 -1      4165 6.68994E-05-1.52909E-05-2.19546E-05-6.68291E-07 2.47840E-19-4.70620E-18
 -1      4166 6.87640E-05-1.62923E-05-2.26123E-05-4.65154E-06 9.46394E-20-3.66295E-18
 -1      4167 6.99734E-05-1.63370E-05-2.29925E-05 2.59784E-06 3.78734E-19-3.98523E-18
 -1      4168 8.94541E-05-2.32085E-05-2.83974E-05-2.23951E-06 4.52830E-20-1.53578E-18
 -1      4169 9.01354E-05-2.36848E-05-2.84912E-05-2.01488E-06 2.68970E-19-1.04272E-18
 -1      4170 8.86881E-05-2.26687E-05-2.82605E-05-1.51277E-06 1.93782E-19-2.04049E-18
 -1      4171 7.64996E-05-1.87289E-05-2.48244E-05-6.90977E-06-3.20526E-19-2.71018E-18
 -1      4172 7.82488E-05-1.88282E-05-2.55264E-05-5.70738E-06-7.63667E-19-2.62542E-18
 -1      4173 8.03871E-05-1.94020E-05-2.61556E-05-5.10343E-06-7.40256E-19-2.01164E-18
 -1      4174 8.17682E-05-1.97518E-05-2.66306E-05-4.44881E-06-4.55340E-20-1.67565E-18
 -1      4175 7.81757E-05-1.82788E-05-2.55990E-05-3.38565E-06-1.25004E-19-2.97396E-18
 -1      4176 7.38521E-05-1.75330E-05-2.41275E-05 2.65626E-07-3.02847E-20-1.34490E-18
 -1      4177 9.43630E-05-2.71444E-05-2.88065E-05-1.57225E-06-2.23590E-19-7.15496E-19
 -1      4178 9.46041E-05-2.74050E-05-2.88037E-05-1.44213E-06 1.97094E-20-5.83979E-19
 -1      4179 9.40486E-05-2.68503E-05-2.87935E-05-1.37232E-06-1.01323E-19-9.92777E-19
 -1      4180 8.33651E-05-2.02336E-05-2.70668E-05-4.01567E-06-1.42972E-19-1.81830E-18
 -1      4181 8.45241E-05-2.06737E-05-2.73952E-05-3.54936E-06-4.77799E-19-1.51015E-18
 -1      4182 8.17401E-05-1.93204E-05-2.66718E-05-2.55807E-06-4.99234E-19-2.14875E-18
 -1      4183 9.65326E-05-2.66934E-05-2.99375E-05-6.06049E-08-2.87986E-20-2.49092E-18
 -1      4184 9.66963E-05-2.72741E-05-2.97480E-05 6.27974E-08-8.93536E-22-2.37771E-18
 -1      4185 9.68196E-05-2.82559E-05-2.93846E-05 2.43843E-07 4.88857E-20-1.87448E-18
 -1      4186 9.67758E-05-2.84586E-05-2.92801E-05 3.19052E-07 6.77727E-20-1.83302E-18
 -1      4187 9.56358E-05-2.83008E-05-2.88576E-05-9.27285E-07 6.03148E-19-1.25277E-18
 -1      4188 9.57208E-05-2.84117E-05-2.88454E-05-1.07876E-06 6.66580E-19-1.76585E-18
 -1      4189 9.58753E-05-2.85274E-05-2.88642E-05-1.02026E-06 5.16056E-19-1.70995E-18
 -1      4190 8.57932E-05-2.12018E-05-2.76927E-05-3.26065E-06-7.90959E-19-1.52539E-18
 -1      4191 8.67645E-05-2.16792E-05-2.79157E-05-2.91623E-06-6.41403E-19-1.74250E-18
 -1      4192 8.68365E-05-2.15858E-05-2.79201E-05-1.78299E-06-4.06865E-19-2.53210E-18
 -1      4193 8.45797E-05-2.04733E-05-2.74140E-05-2.11112E-06-6.02226E-19-2.61460E-18
 -1      4194 7.66663E-05-1.93782E-05-2.45647E-05 8.08873E-06 7.85492E-19-3.59299E-18
 -1      4195 7.29812E-05-1.73061E-05-2.37299E-05 5.51930E-06 9.28480E-19-3.56429E-18
 -1      4196 7.82646E-05-1.95124E-05-2.52629E-05 6.85707E-06 6.72369E-19-2.97823E-18
 -1      4197 9.66896E-05-2.83018E-05-2.93089E-05-4.86765E-07 6.62015E-19-1.77852E-18
 -1      4198 9.66127E-05-2.82551E-05-2.92987E-05-5.59426E-07 7.49702E-19-2.15078E-18
 -1      4199 9.66197E-05-2.79842E-05-2.94128E-05-3.92235E-07 8.75203E-19-2.01802E-18
 -1      4200 7.38803E-05-1.78333E-05-2.39830E-05-5.82211E-06 5.47924E-20-2.87193E-18
 -1      4201 9.57403E-05-2.47865E-05-3.04140E-05 5.92270E-07 1.07382E-18-2.75946E-18
 -1      4202 9.57009E-05-2.46392E-05-3.04612E-05 3.55404E-07 7.72395E-19-2.85163E-18
 -1      4203 9.59751E-05-2.53094E-05-3.02789E-05 4.72159E-07 9.99200E-19-2.64784E-18
 -1      4204 9.57439E-05-2.47015E-05-3.04502E-05 2.32767E-07 7.38342E-19-2.91591E-18
 -1      4205 9.58091E-05-2.48437E-05-3.04231E-05 3.32918E-08 5.23519E-19-3.04175E-18
 -1      4206 9.62238E-05-2.57320E-05-3.01984E-05 4.73559E-08 4.48835E-19-2.66490E-18
 -1      4207 9.61386E-05-2.55697E-05-3.02323E-05 2.18734E-07 8.02885E-19-2.68915E-18
 -1      4208 9.67777E-05-2.76622E-05-2.96227E-05 1.06945E-07 1.52318E-19-2.17390E-18
 -1      4209 9.68198E-05-2.80215E-05-2.94857E-05 2.12794E-07 1.02305E-19-2.03592E-18
 -1      4210 9.68439E-05-2.81196E-05-2.94523E-05 1.21163E-07 1.50978E-19-2.11035E-18
 -1      4211 9.67743E-05-2.75264E-05-2.96772E-05 4.72374E-08 1.88061E-19-2.22467E-18
 -1      4212 8.03717E-05-1.96675E-05-2.60803E-05 5.61018E-06 1.52845E-18-8.42435E-19
 -1      4213 7.87773E-05-1.93635E-05-2.54558E-05 6.50252E-06 4.36859E-19-3.94880E-19
 -1      4214 8.04468E-05-1.91453E-05-2.62035E-05 3.36816E-06 1.32508E-18-6.98728E-19
 -1      4215 9.66988E-05-2.85924E-05-2.91881E-05 3.40517E-07 2.86513E-19-1.69270E-18
 -1      4216 9.65905E-05-2.86629E-05-2.91125E-05 3.92702E-07 5.76592E-19-1.58389E-18
 -1      4217 9.67666E-05-2.84971E-05-2.92576E-05 1.83954E-07 3.49454E-19-1.52872E-18
 -1      4218 9.08404E-05-2.41740E-05-2.85761E-05-1.86628E-06 1.51047E-19-7.13360E-19
 -1      4219 9.14107E-05-2.46237E-05-2.86326E-05-1.67875E-06 8.19267E-20-7.69820E-19
 -1      4220 9.02238E-05-2.37033E-05-2.84834E-05-1.28333E-06 4.62577E-19-1.56606E-18
 -1      4221 9.61468E-05-2.57878E-05-3.01543E-05 3.32779E-07 1.00062E-18-2.60243E-18
 -1      4222 9.64210E-05-2.65248E-05-2.99564E-05 1.69366E-07 8.07972E-19-2.56884E-18
 -1      4223 9.63499E-05-2.62558E-05-3.00413E-05 1.58992E-07 7.45034E-19-2.53995E-18
 -1      4224 9.65905E-05-2.71143E-05-2.97765E-05-4.18934E-08 8.15094E-19-2.23981E-18
 -1      4225 8.29816E-05-2.01525E-05-2.69156E-05-2.91709E-06-7.91840E-19 2.00300E-18
 -1      4226 8.24973E-05-1.97900E-05-2.68539E-05-1.52877E-06-9.89777E-19 2.19758E-18
 -1      4227 8.15189E-05-1.95006E-05-2.66085E-05 3.08639E-07-5.60673E-19 1.00408E-18
 -1      4228 8.25763E-05-2.05351E-05-2.65968E-05-5.03256E-06-8.06730E-19 1.20220E-18
 -1      4229 9.50461E-05-2.77871E-05-2.88268E-05-8.27333E-07 2.17799E-19-8.10828E-19
 -1      4230 9.52935E-05-2.80064E-05-2.88393E-05-7.64088E-07 5.81409E-19-9.94873E-19
 -1      4231 9.66645E-05-2.76996E-05-2.95551E-05-2.39874E-07 9.38576E-19-1.95173E-18
 -1      4232 9.55502E-05-2.82092E-05-2.88600E-05-7.36439E-07 6.61844E-19-1.17820E-18
 -1      4233 9.57630E-05-2.83746E-05-2.88816E-05-6.86896E-07 3.36780E-19-1.39463E-18
 -1      4234 9.54183E-05-2.80742E-05-2.88606E-05-5.25196E-07 4.10851E-19-1.23637E-18
 -1      4235 8.17092E-05-2.01637E-05-2.64174E-05 5.25467E-06 4.44188E-19-1.73666E-18
 -1      4236 8.03818E-05-1.99129E-05-2.59236E-05 6.12017E-06 7.22256E-19-2.36950E-18
 -1      4237 7.77341E-05-1.84326E-05-2.53568E-05 3.99603E-06 1.08655E-19-3.62341E-18
 -1      4238 9.65475E-05-2.86499E-05-2.90987E-05 2.24489E-07 4.61924E-19-2.02068E-18
 -1      4239 9.29661E-05-2.58951E-05-2.87467E-05-1.30158E-06 1.14059E-19-7.68037E-19
 -1      4240 9.33576E-05-2.62616E-05-2.87629E-05-1.16751E-06-2.91435E-20-1.10381E-18
 -1      4241 9.25691E-05-2.55501E-05-2.87097E-05-9.23394E-07 1.36307E-19-1.13559E-18
 -1      4242 7.25864E-05-1.68521E-05-2.39726E-05 2.09992E-06-4.00355E-20-3.26661E-18
 -1      4243 8.04556E-05-2.05123E-05-2.57081E-05-7.45670E-06-9.85305E-19 2.39559E-18
 -1      4244 8.17072E-05-2.04924E-05-2.62650E-05-6.24696E-06-8.06010E-19 1.80512E-18
 -1      4245 9.15033E-05-2.46692E-05-2.86242E-05-1.08734E-06 3.21245E-19-1.59700E-18
 -1      4246 9.65947E-05-2.86464E-05-2.91213E-05-5.23898E-07 3.62533E-19-1.62472E-18
 -1      4247 9.66859E-05-2.85579E-05-2.91973E-05-4.59322E-07 4.27355E-19-1.72267E-18
 -1      4248 7.59314E-05-1.79585E-05-2.47421E-05 4.69256E-06 2.71029E-19-1.12006E-18
 -1      4249 7.32786E-05-1.67956E-05-2.41144E-05-2.42925E-06 2.89284E-20-3.72492E-18
 -1      4250 8.05079E-05-1.95027E-05-2.61577E-05-3.61624E-06-1.32322E-18 2.33218E-18
 -1      4251 9.63994E-05-2.63311E-05-3.00347E-05 8.43333E-08 6.56736E-19-2.59745E-18
 -1      4252 9.64919E-05-2.65367E-05-2.99830E-05-1.60036E-08 2.12259E-19-2.43847E-18
 -1      4253 9.67667E-05-2.84447E-05-2.92797E-05-3.01927E-07 4.79814E-19-1.68037E-18
 -1      4254 9.67501E-05-2.84021E-05-2.92933E-05-4.18735E-07 5.69141E-19-1.72122E-18
 -1      4255 9.67786E-05-2.81762E-05-2.94007E-05-3.17754E-07 7.13332E-19-1.71328E-18
 -1      4256 7.76172E-05-1.86938E-05-2.52004E-05-4.80915E-06-3.60644E-19 1.23081E-18
 -1      4257 8.14920E-05-1.95601E-05-2.64720E-05 3.40739E-06 1.73965E-19-2.90034E-18
 -1      4258 9.60502E-05-2.86216E-05-2.88969E-05-9.85528E-07 4.23200E-19-1.72411E-18
 -1      4259 9.61813E-05-2.86728E-05-2.89316E-05-9.26354E-07 5.03941E-19-1.62018E-18
 -1      4260 9.63320E-05-2.86699E-05-2.89996E-05-7.57548E-07 4.71444E-19-1.57974E-18
 -1      4261 9.60178E-05-2.85572E-05-2.89129E-05-8.44104E-07 4.00159E-19-1.34771E-18
 -1      4262 7.69032E-05-1.83106E-05-2.50587E-05-3.14522E-06 2.72616E-19-1.07912E-18
 -1      4263 7.90659E-05-1.90546E-05-2.56830E-05-3.42743E-06-5.96715E-19 7.67986E-19
 -1      4264 7.99562E-05-1.90763E-05-2.60375E-05-2.26804E-06-4.28261E-19 9.52305E-19
 -1      4265 9.46716E-05-2.74429E-05-2.88082E-05-1.18083E-06-2.84970E-20-6.67920E-19
 -1      4266 9.63260E-05-2.86369E-05-2.90103E-05 4.03129E-08 1.95183E-19-2.09230E-18
 -1      4267 9.61415E-05-2.85602E-05-2.89633E-05 6.18820E-08 4.20029E-21-2.02541E-18
 -1      4268 9.67586E-05-2.79171E-05-2.95048E-05-2.72985E-07 6.77925E-19-1.89852E-18
 -1      4269 9.67045E-05-2.75309E-05-2.96458E-05-1.23770E-07 8.08773E-19-1.98751E-18
 -1      4270 9.66920E-05-2.73476E-05-2.97187E-05-7.60935E-08 5.78604E-19-2.10582E-18
 -1      4271 9.68075E-05-2.80116E-05-2.94830E-05-2.10041E-07 5.62285E-19-2.06234E-18
 -1      4272 9.58580E-05-2.83951E-05-2.89130E-05-1.08344E-07 1.03179E-19-1.96366E-18
 -1      4273 9.56246E-05-2.82314E-05-2.88827E-05-9.25171E-08 1.21771E-19-1.72573E-18
 -1      4274 9.53691E-05-2.80331E-05-2.88598E-05-1.15992E-07 1.92542E-19-1.67766E-18
 -1      4275 9.50945E-05-2.78051E-05-2.88385E-05-1.01956E-07 2.71322E-19-1.32059E-18
 -1      4276 9.42078E-05-2.70368E-05-2.87931E-05 9.64155E-08-7.40930E-20-1.12585E-18
 -1      4277 9.38331E-05-2.67034E-05-2.87750E-05 1.42874E-07 2.84446E-19-1.46623E-18
 -1      4278 9.33241E-05-2.62488E-05-2.87504E-05-1.52547E-07 2.70574E-19-1.64003E-18
 -1      4279 9.28715E-05-2.58627E-05-2.87250E-05-1.16753E-07 3.37052E-19-1.48580E-18
 -1      4280 9.23701E-05-2.54494E-05-2.86915E-05-1.64573E-07 5.07964E-19-1.83849E-18
 -1      4281 9.18406E-05-2.50131E-05-2.86507E-05-1.11490E-07 2.19572E-19-1.73237E-18
 -1      4282 9.12435E-05-2.45581E-05-2.85955E-05-1.66774E-07 6.53767E-20-1.82108E-18
 -1      4283 9.06170E-05-2.40807E-05-2.85297E-05-9.16811E-08 4.58235E-19-1.67815E-18
 -1      4284 8.99005E-05-2.35882E-05-2.84410E-05-1.52620E-07 5.85343E-19-1.71095E-18
 -1      4285 8.91554E-05-2.30780E-05-2.83377E-05-4.84084E-08 5.53924E-19-1.62948E-18
 -1      4286 8.82919E-05-2.25576E-05-2.82003E-05-1.13464E-07 1.49169E-19-1.99935E-18
 -1      4287 8.74019E-05-2.20259E-05-2.80434E-05 3.22156E-08-7.97925E-20-2.03357E-18
 -1      4288 8.63534E-05-2.14891E-05-2.78371E-05-3.71751E-08-2.97664E-19-2.14718E-18
 -1      4289 8.52822E-05-2.09484E-05-2.76051E-05 1.68074E-07-2.84522E-19-2.30391E-18
 -1      4290 8.39927E-05-2.04042E-05-2.73022E-05 9.39367E-08-4.95321E-19-2.13552E-18
 -1      4291 8.26908E-05-1.98695E-05-2.69667E-05 3.91844E-07-4.56089E-19-2.51223E-18
 -1      4292 9.66330E-05-2.86523E-05-2.91341E-05 3.36692E-08 4.41070E-19-1.95614E-18
 -1      4293 9.64951E-05-2.86716E-05-2.90672E-05 5.61708E-08 2.42693E-19-2.11876E-18
 -1      4294 9.64046E-05-2.86423E-05-2.90417E-05-1.50046E-07 2.03875E-19-1.82569E-18
 -1      4295 7.95666E-05-1.88920E-05-2.60259E-05 4.58656E-07 2.34282E-19-9.75660E-20
 -1      4296 8.10554E-05-1.92498E-05-2.65275E-05 3.40089E-07-4.41423E-19-2.67549E-18
 -1      4297 7.94224E-05-1.87358E-05-2.60633E-05 3.40498E-07-1.43644E-20-3.23576E-18
 -1      4298 9.65336E-05-2.86687E-05-2.90834E-05-4.21514E-07 1.55007E-19-1.74918E-18
 -1      4299 9.66419E-05-2.86437E-05-2.91433E-05-2.48176E-07 3.15013E-19-1.65504E-18
 -1      4300 7.63315E-05-1.81055E-05-2.50184E-05-2.01544E-07 8.64338E-19-1.75488E-18
 -1      4301 7.72880E-05-1.80016E-05-2.54242E-05 5.03750E-07 1.13175E-20-3.15493E-18
 -1      4302 9.38442E-05-2.66867E-05-2.87822E-05-8.45444E-07-9.70758E-21-1.08359E-18
 -1      4303 9.41827E-05-2.70089E-05-2.87922E-05-7.58643E-07-1.09358E-19-1.04035E-18
 -1      4304 9.47835E-05-2.75547E-05-2.88147E-05-7.63060E-07 1.89095E-19-1.01017E-18
 -1      4305 9.49064E-05-2.76347E-05-2.88268E-05-4.86412E-07 3.37119E-19-9.75996E-19
 -1      4306 9.48328E-05-2.75836E-05-2.88243E-05-2.47909E-08 1.12917E-19-1.30008E-18
 -1      4307 9.44916E-05-2.72856E-05-2.88057E-05-8.38568E-07-1.25142E-19-8.59254E-19
 -1      4308 7.53379E-05-1.75695E-05-2.47534E-05 3.96893E-07 5.66925E-20-3.69439E-18
 -1      4309 9.64255E-05-2.63532E-05-3.00338E-05 4.77760E-08 5.08839E-19-2.70082E-18
 -1      4310 9.64627E-05-2.64615E-05-3.00091E-05-1.18485E-08 3.40892E-19-2.59918E-18
 -1      4311 9.66841E-05-2.70654E-05-2.98284E-05 1.13565E-08 1.89263E-19-2.41505E-18
 -1      4312 9.66299E-05-2.69541E-05-2.98544E-05 1.41853E-08 4.46732E-19-2.52345E-18
 -1      4313 9.67330E-05-2.73880E-05-2.97217E-05-6.19491E-08 4.23204E-19-2.40235E-18
 -1      4314 9.63993E-05-2.86688E-05-2.90273E-05-4.66612E-07 2.35086E-19-1.61456E-18
 -1      4315 9.35456E-05-2.64159E-05-2.87625E-05-5.23715E-07-3.19813E-20-1.13855E-18
 -1      4316 9.45192E-05-2.73026E-05-2.88075E-05-3.56578E-09 1.12345E-19-1.11528E-18
 -1      4317 9.43397E-05-2.71278E-05-2.87993E-05-3.26453E-07 9.92395E-20-1.04806E-18
 -1      4318 9.66918E-05-2.85912E-05-2.91858E-05-1.00564E-07 2.30227E-19-2.04241E-18
 -1      4319 9.67593E-05-2.85485E-05-2.92324E-05-2.09090E-07 4.68276E-19-1.83384E-18
 -1      4320 9.68235E-05-2.83905E-05-2.93297E-05-1.63573E-07 4.04367E-19-2.03775E-18
 -1      4321 9.67541E-05-2.85701E-05-2.92232E-05 6.92817E-08 5.61893E-19-1.79902E-18
 -1      4322 7.78546E-05-1.84738E-05-2.55304E-05 9.94069E-07 1.03068E-18-9.91432E-19
 -1      4323 9.68299E-05-2.84229E-05-2.93169E-05 4.22627E-08 3.23158E-19-1.86301E-18
 -1      4324 9.68592E-05-2.82222E-05-2.94170E-05 4.90085E-08 1.57016E-19-1.94883E-18
 -1      4325 9.68409E-05-2.82915E-05-2.93772E-05-6.21626E-08 4.07079E-19-1.95089E-18
 -1      4326 9.68508E-05-2.81796E-05-2.94303E-05-1.58629E-07 3.85214E-19-2.05707E-18
 -1      4327 9.68589E-05-2.79831E-05-2.95183E-05 1.19813E-08 1.78766E-19-2.10079E-18
 -1      4328 9.67551E-05-2.73997E-05-2.97277E-05-7.01887E-09 8.66011E-20-2.23411E-18
 -1      4329 9.68307E-05-2.77525E-05-2.96042E-05 2.79379E-08 1.66131E-19-2.25936E-18
 -1      4330 9.68362E-05-2.78480E-05-2.95654E-05-4.15375E-08 2.75530E-19-2.15882E-18
 -1      4331 9.67331E-05-2.73156E-05-2.97516E-05-2.01985E-08 2.92628E-19-2.42041E-18
 -1      4332 9.60494E-05-2.85346E-05-2.89346E-05-5.17401E-07 1.88035E-19-1.55769E-18
 -1      4333 9.62273E-05-2.86228E-05-2.89723E-05-4.74542E-07 3.08947E-19-1.69062E-18
 -1      4334 9.59552E-05-2.84478E-05-2.89319E-05-3.18329E-07 1.85137E-19-1.88645E-18
 -1      4335 9.68033E-05-2.76755E-05-2.96232E-05-8.98313E-08 3.51282E-19-2.32356E-18
 -1      4336 9.68340E-05-2.79185E-05-2.95364E-05-1.12157E-07 5.01461E-19-2.18386E-18
 -3
    1PSTEP                         4           1           1          
  100CL  101 1.000000000        4336                     0    1           1
 -4  ERROR       1    1
 -5  STR(%)      1    1    0    0
 -1         1 1.21742E+01
 -1         2 2.54590E+01
 -1         3 5.75324E-02
 -1         4 6.22581E-02
 -1         5 1.40445E+01
 -1         6 1.31486E+01
 -1         7 1.31486E+01
 -1         8 3.66104E+00
 -1         9 1.82263E+00
 -1        10 1.28754E+00
 -1        11 1.04166E+00
 -1        12 8.98489E-01
 -1        13 8.07994E-01
 -1        14 7.54242E-01
 -1        15 7.56216E-01
 -1        16 8.12288E-01
 -1        17 8.99397E-01
 -1        18 1.05049E+00
 -1        19 1.30513E+00
 -1        20 1.83152E+00
 -1        21 3.50262E+00
 -1        22 8.64396E+00
 -1        23 1.31486E+01
 -1        24 4.32421E+00
 -1        25 3.34957E+00
 -1        26 2.12101E+00
 -1        27 1.37369E+00
 -1        28 1.02504E+00
 -1        29 7.89458E-01
 -1        30 6.14103E-01
 -1        31 4.79582E-01
 -1        32 3.76308E-01
 -1        33 3.00307E-01
 -1        34 2.44053E-01
 -1        35 2.02784E-01
 -1        36 1.78089E-01
 -1        37 1.79005E-01
 -1        38 2.10901E-01
 -1        39 2.54888E-01
 -1        40 3.10305E-01
 -1        41 3.74731E-01
 -1        42 4.42995E-01
 -1        43 5.08815E-01
 -1        44 6.54048E-01
 -1        45 8.15748E-01
 -1        46 1.00342E+00
 -1        47 1.14569E+00
 -1        48 1.16949E+00
 -1        49 1.19955E+00
 -1        50 1.19955E+00
 -1        51 1.40513E+00
 -1        52 1.87436E+00
 -1        53 3.08676E+00
 -1        54 3.64001E+00
 -1        55 3.64001E+00
 -1        56 3.60902E+00
 -1        57 3.33273E+00
 -1        58 2.25283E+00
 -1        59 1.50393E+00
 -1        60 1.20267E+00
 -1        61 1.20267E+00
 -1        62 1.17171E+00
 -1        63 1.17171E+00
 -1        64 1.04464E+00
 -1        65 8.47343E-01
 -1        66 6.49615E-01
 -1        67 6.02382E-01
 -1        68 5.39509E-01
 -1        69 4.47279E-01
 -1        70 3.73713E-01
 -1        71 2.64400E-01
 -1        72 1.40445E+01
 -1        73 3.39955E+00
 -1        74 2.41946E+00
 -1        75 1.67340E+00
 -1        76 1.15369E+00
 -1        77 9.14659E-01
 -1        78 7.43404E-01
 -1        79 6.04704E-01
 -1        80 4.91592E-01
 -1        81 4.00631E-01
 -1        82 3.29815E-01
 -1        83 2.77995E-01
 -1        84 2.42409E-01
 -1        85 2.22928E-01
 -1        86 2.25037E-01
 -1        87 2.43040E-01
 -1        88 2.68920E-01
 -1        89 3.29240E-01
 -1        90 4.06389E-01
 -1        91 4.93526E-01
 -1        92 5.82906E-01
 -1        93 6.60589E-01
 -1        94 7.04293E-01
 -1        95 7.70321E-01
 -1        96 1.01477E+00
 -1        97 1.21992E+00
 -1        98 1.30347E+00
 -1        99 1.65253E+00
 -1       100 1.65253E+00
 -1       101 2.00422E+00
 -1       102 2.66133E+00
 -1       103 3.68534E+00
 -1       104 4.12544E+00
 -1       105 4.12544E+00
 -1       106 4.09555E+00
 -1       107 2.80673E+00
 -1       108 1.65615E+00
 -1       109 1.25570E+00
 -1       110 1.46756E+00
 -1       111 1.50975E+00
 -1       112 1.50975E+00
 -1       113 1.37252E+00
 -1       114 1.15243E+00
 -1       115 9.54260E-01
 -1       116 7.40133E-01
 -1       117 5.97383E-01
 -1       118 4.84936E-01
 -1       119 3.40354E-01
 -1       120 2.10341E-01
 -1       121 9.49941E-02
 -1       122 9.49941E-02
 -1       123 7.79015E-02
 -1       124 4.01379E-02
 -1       125 4.10785E-02
 -1       126 6.76426E-02
 -1       127 8.30940E-02
 -1       128 8.62971E-02
 -1       129 8.62971E-02
 -1       130 7.87846E-02
 -1       131 5.96780E-02
 -1       132 3.32354E-02
 -1       133 4.20397E-02
 -1       134 7.44513E-02
 -1       135 1.19036E-01
 -1       136 1.34378E-01
 -1       137 2.54590E+01
 -1       138 4.60602E+01
 -1       139 4.60602E+01
 -1       140 1.86994E+01
 -1       141 1.21191E+01
 -1       142 1.21191E+01
 -1       143 1.23264E+01
 -1       144 1.23264E+01
 -1       145 1.21599E+01
 -1       146 1.20271E+01
 -1       147 2.47811E+01
 -1       148 3.08516E+01
 -1       149 3.08516E+01
 -1       150 2.51894E+01
 -1       151 2.68463E+01
 -1       152 2.68463E+01
 -1       153 4.54580E+01
 -1       154 4.54580E+01
 -1       155 1.79153E+01
 -1       156 1.21742E+01
 -1       157 1.23496E+01
 -1       158 1.23496E+01
 -1       159 1.20874E+01
 -1       160 1.14088E+01
 -1       161 2.30255E+01
 -1       162 4.77516E+01
 -1       163 4.77516E+01
 -1       164 2.48283E+01
 -1       165 6.07551E+00
 -1       166 2.29704E+00
 -1       167 1.50312E+00
 -1       168 1.15606E+00
 -1       169 9.70555E-01
 -1       170 8.63566E-01
 -1       171 7.95836E-01
 -1       172 7.56216E-01
 -1       173 7.99276E-01
 -1       174 8.66448E-01
 -1       175 9.79489E-01
 -1       176 1.17028E+00
 -1       177 1.52478E+00
 -1       178 2.25786E+00
 -1       179 3.92945E+00
 -1       180 1.40445E+01
 -1       181 4.32421E+00
 -1       182 3.34957E+00
 -1       183 2.12101E+00
 -1       184 1.45642E+00
 -1       185 1.03617E+00
 -1       186 7.89458E-01
 -1       187 6.14103E-01
 -1       188 4.87274E-01
 -1       189 3.92012E-01
 -1       190 3.15544E-01
 -1       191 2.55801E-01
 -1       192 2.10007E-01
 -1       193 1.78089E-01
 -1       194 1.64678E-01
 -1       195 1.79005E-01
 -1       196 2.10901E-01
 -1       197 2.54888E-01
 -1       198 3.10305E-01
 -1       199 3.78789E-01
 -1       200 4.88016E-01
 -1       201 6.01729E-01
 -1       202 7.05329E-01
 -1       203 8.29656E-01
 -1       204 1.00342E+00
 -1       205 1.14569E+00
 -1       206 1.16949E+00
 -1       207 1.19955E+00
 -1       208 1.16560E+00
 -1       209 1.40513E+00
 -1       210 1.98168E+00
 -1       211 3.08676E+00
 -1       212 3.64001E+00
 -1       213 3.60902E+00
 -1       214 3.33273E+00
 -1       215 2.25283E+00
 -1       216 1.50393E+00
 -1       217 1.08083E+00
 -1       218 1.20267E+00
 -1       219 1.14803E+00
 -1       220 1.17171E+00
 -1       221 1.04464E+00
 -1       222 8.47343E-01
 -1       223 6.82030E-01
 -1       224 6.02382E-01
 -1       225 5.39509E-01
 -1       226 4.47279E-01
 -1       227 3.73713E-01
 -1       228 2.64400E-01
 -1       229 3.39955E+00
 -1       230 2.41946E+00
 -1       231 1.67340E+00
 -1       232 1.15369E+00
 -1       233 9.14659E-01
 -1       234 7.43404E-01
 -1       235 6.04704E-01
 -1       236 4.91592E-01
 -1       237 4.00631E-01
 -1       238 3.29815E-01
 -1       239 2.77995E-01
 -1       240 2.42409E-01
 -1       241 2.22928E-01
 -1       242 2.17670E-01
 -1       243 2.25037E-01
 -1       244 2.43040E-01
 -1       245 2.91594E-01
 -1       246 3.54751E-01
 -1       247 4.24950E-01
 -1       248 4.96353E-01
 -1       249 5.82906E-01
 -1       250 6.60589E-01
 -1       251 7.04293E-01
 -1       252 8.64368E-01
 -1       253 1.01477E+00
 -1       254 1.21992E+00
 -1       255 1.30347E+00
 -1       256 1.65253E+00
 -1       257 1.62923E+00
 -1       258 2.00422E+00
 -1       259 2.66133E+00
 -1       260 3.68534E+00
 -1       261 4.12544E+00
 -1       262 4.09555E+00
 -1       263 2.80673E+00
 -1       264 1.65615E+00
 -1       265 1.08280E+00
 -1       266 1.25570E+00
 -1       267 1.46756E+00
 -1       268 1.50975E+00
 -1       269 1.37252E+00
 -1       270 1.15243E+00
 -1       271 9.54260E-01
 -1       272 7.54956E-01
 -1       273 5.97383E-01
 -1       274 4.84936E-01
 -1       275 3.40354E-01
 -1       276 2.10341E-01
 -1       277 1.24878E-01
 -1       278 1.24878E-01
 -1       279 1.21133E-01
 -1       280 6.78716E-02
 -1       281 1.19337E-01
 -1       282 1.52451E-01
 -1       283 1.63412E-01
 -1       284 1.63412E-01
 -1       285 1.62001E-01
 -1       286 1.42297E-01
 -1       287 1.05476E-01
 -1       288 5.70019E-02
 -1       289 1.17308E-01
 -1       290 1.17308E-01
 -1       291 1.51573E-01
 -1       292 3.08414E+01
 -1       293 2.66190E+01
 -1       294 4.60602E+01
 -1       295 1.93225E+01
 -1       296 1.08833E+01
 -1       297 1.21191E+01
 -1       298 1.21164E+01
 -1       299 1.23264E+01
 -1       300 1.21599E+01
 -1       301 1.14527E+01
 -1       302 1.20271E+01
 -1       303 2.65510E+01
 -1       304 3.13628E+01
 -1       305 3.13628E+01
 -1       306 3.16362E+01
 -1       307 3.16362E+01
 -1       308 3.90541E+01
 -1       309 4.54580E+01
 -1       310 1.91301E+01
 -1       311 1.09540E+01
 -1       312 1.21742E+01
 -1       313 1.20195E+01
 -1       314 1.23496E+01
 -1       315 1.20874E+01
 -1       316 1.14088E+01
 -1       317 1.13968E+01
 -1       318 2.38730E+01
 -1       319 4.77516E+01
 -1       320 2.86472E+01
 -1       321 3.08414E+01
 -1       322 1.06620E+00
 -1       323 2.47594E+00
 -1       324 7.86975E-01
 -1       325 6.93678E-01
 -1       326 6.30996E-01
 -1       327 5.87196E-01
 -1       328 5.90409E-01
 -1       329 6.33605E-01
 -1       330 6.99781E-01
 -1       331 7.94482E-01
 -1       332 9.29510E-01
 -1       333 1.15586E+00
 -1       334 1.32497E+00
 -1       335 2.20317E+00
 -1       336 1.91696E+00
 -1       337 1.73666E+00
 -1       338 1.27574E+00
 -1       339 9.16425E-01
 -1       340 6.66672E-01
 -1       341 5.52248E-01
 -1       342 4.58630E-01
 -1       343 3.77236E-01
 -1       344 3.09760E-01
 -1       345 2.55801E-01
 -1       346 2.10007E-01
 -1       347 1.74200E-01
 -1       348 1.47944E-01
 -1       349 1.49314E-01
 -1       350 1.73366E-01
 -1       351 2.06128E-01
 -1       352 2.57563E-01
 -1       353 3.45488E-01
 -1       354 4.43316E-01
 -1       355 5.45431E-01
 -1       356 6.40938E-01
 -1       357 7.21905E-01
 -1       358 8.10821E-01
 -1       359 8.85972E-01
 -1       360 8.70086E-01
 -1       361 7.02042E-01
 -1       362 6.78931E-01
 -1       363 8.17220E-01
 -1       364 1.38026E+00
 -1       365 1.82591E+00
 -1       366 2.22049E+00
 -1       367 2.14437E+00
 -1       368 2.23932E+00
 -1       369 1.98199E+00
 -1       370 1.51581E+00
 -1       371 9.58410E-01
 -1       372 6.83178E-01
 -1       373 6.47728E-01
 -1       374 8.28504E-01
 -1       375 8.71631E-01
 -1       376 8.03064E-01
 -1       377 6.89688E-01
 -1       378 5.94807E-01
 -1       379 4.90541E-01
 -1       380 4.02556E-01
 -1       381 3.24537E-01
 -1       382 2.30479E-01
 -1       383 1.13590E+00
 -1       384 8.98762E-01
 -1       385 7.12168E-01
 -1       386 5.54149E-01
 -1       387 4.50637E-01
 -1       388 3.86838E-01
 -1       389 3.26079E-01
 -1       390 2.71636E-01
 -1       391 2.33629E-01
 -1       392 2.03924E-01
 -1       393 1.85791E-01
 -1       394 1.76733E-01
 -1       395 1.75890E-01
 -1       396 1.98228E-01
 -1       397 2.49212E-01
 -1       398 3.47532E-01
 -1       399 4.64564E-01
 -1       400 5.98010E-01
 -1       401 7.39988E-01
 -1       402 8.74195E-01
 -1       403 9.85257E-01
 -1       404 1.07424E+00
 -1       405 1.07424E+00
 -1       406 1.05562E+00
 -1       407 8.59474E-01
 -1       408 7.31804E-01
 -1       409 1.17691E+00
 -1       410 1.91177E+00
 -1       411 2.11783E+00
 -1       412 2.13702E+00
 -1       413 2.42465E+00
 -1       414 2.43976E+00
 -1       415 1.94982E+00
 -1       416 1.13047E+00
 -1       417 7.30184E-01
 -1       418 9.17050E-01
 -1       419 1.05023E+00
 -1       420 1.11237E+00
 -1       421 1.08179E+00
 -1       422 9.62801E-01
 -1       423 8.49075E-01
 -1       424 7.01007E-01
 -1       425 5.43536E-01
 -1       426 4.35501E-01
 -1       427 3.27714E-01
 -1       428 2.03844E-01
 -1       429 1.28817E-01
 -1       430 2.42985E-01
 -1       431 2.42985E-01
 -1       432 1.59094E-01
 -1       433 2.10043E-01
 -1       434 2.32913E-01
 -1       435 2.32913E-01
 -1       436 2.29398E-01
 -1       437 2.25384E-01
 -1       438 1.92773E-01
 -1       439 1.35538E-01
 -1       440 1.29695E-01
 -1       441 1.95286E-01
 -1       442 2.66190E+01
 -1       443 3.23014E+01
 -1       444 3.23014E+01
 -1       445 1.56137E+01
 -1       446 9.11535E+00
 -1       447 9.10604E-01
 -1       448 9.70836E+00
 -1       449 1.01268E+01
 -1       450 1.02798E+01
 -1       451 9.17682E+00
 -1       452 7.33506E+00
 -1       453 1.05473E+01
 -1       454 1.82632E+01
 -1       455 3.13628E+01
 -1       456 3.44939E+01
 -1       457 3.44939E+01
 -1       458 2.19394E+01
 -1       459 2.69324E+01
 -1       460 1.54915E+01
 -1       461 8.69039E+00
 -1       462 7.91934E+00
 -1       463 1.03944E+01
 -1       464 1.06255E+01
 -1       465 1.04894E+01
 -1       466 8.97433E+00
 -1       467 6.88157E+00
 -1       468 1.01893E+01
 -1       469 1.68620E+01
 -1       470 2.86472E+01
 -1       471 3.19438E+01
 -1       472 7.03130E+00
 -1       473 2.68519E+01
 -1       474 1.05435E+00
 -1       475 4.85325E-01
 -1       476 5.09404E-01
 -1       477 4.31214E-01
 -1       478 4.56689E-01
 -1       479 4.85797E-01
 -1       480 5.09438E-01
 -1       481 5.09438E-01
 -1       482 6.02619E-01
 -1       483 8.98762E-01
 -1       484 8.04328E-01
 -1       485 4.36250E+00
 -1       486 7.08952E-01
 -1       487 5.96121E-01
 -1       488 4.84116E-01
 -1       489 3.85284E-01
 -1       490 3.36691E-01
 -1       491 2.88515E-01
 -1       492 2.42719E-01
 -1       493 2.01224E-01
 -1       494 1.64417E-01
 -1       495 1.31665E-01
 -1       496 1.08868E-01
 -1       497 1.25365E-01
 -1       498 1.48020E-01
 -1       499 2.17135E-01
 -1       500 2.97011E-01
 -1       501 3.87511E-01
 -1       502 4.86295E-01
 -1       503 5.87677E-01
 -1       504 6.81343E-01
 -1       505 7.56150E-01
 -1       506 8.48597E-01
 -1       507 9.45031E-01
 -1       508 9.90857E-01
 -1       509 1.04805E+00
 -1       510 1.24629E+00
 -1       511 1.36641E+00
 -1       512 1.59671E+00
 -1       513 1.82568E+00
 -1       514 2.59350E+00
 -1       515 2.65099E+00
 -1       516 2.01350E+00
 -1       517 1.56406E+00
 -1       518 1.42457E+00
 -1       519 1.27637E+00
 -1       520 1.11700E+00
 -1       521 9.53137E-01
 -1       522 9.21871E-01
 -1       523 8.26956E-01
 -1       524 7.17125E-01
 -1       525 6.37883E-01
 -1       526 5.38553E-01
 -1       527 4.29114E-01
 -1       528 3.23263E-01
 -1       529 5.54149E-01
 -1       530 4.50637E-01
 -1       531 3.86838E-01
 -1       532 3.26079E-01
 -1       533 2.71636E-01
 -1       534 2.24776E-01
 -1       535 1.85438E-01
 -1       536 1.52667E-01
 -1       537 1.24874E-01
 -1       538 1.39277E-01
 -1       539 1.64682E-01
 -1       540 2.18663E-01
 -1       541 3.07472E-01
 -1       542 4.12634E-01
 -1       543 5.33794E-01
 -1       544 6.67074E-01
 -1       545 8.03040E-01
 -1       546 9.24433E-01
 -1       547 1.01692E+00
 -1       548 1.12907E+00
 -1       549 1.23569E+00
 -1       550 1.25514E+00
 -1       551 1.26182E+00
 -1       552 1.77767E+00
 -1       553 1.62625E+00
 -1       554 2.09325E+00
 -1       555 2.99252E+00
 -1       556 4.47950E+00
 -1       557 3.43073E+00
 -1       558 1.88029E+00
 -1       559 1.73993E+00
 -1       560 1.51439E+00
 -1       561 1.23204E+00
 -1       562 1.21759E+00
 -1       563 1.15228E+00
 -1       564 1.02251E+00
 -1       565 9.35419E-01
 -1       566 8.16184E-01
 -1       567 6.77895E-01
 -1       568 5.32166E-01
 -1       569 3.92274E-01
 -1       570 2.84834E-01
 -1       571 2.67896E-01
 -1       572 3.09563E-01
 -1       573 2.48606E-01
 -1       574 2.07291E-01
 -1       575 3.09563E-01
 -1       576 3.09119E-01
 -1       577 3.09119E-01
 -1       578 2.91310E-01
 -1       579 2.35122E-01
 -1       580 2.20456E-01
 -1       581 2.20456E-01
 -1       582 3.23014E+01
 -1       583 1.24210E+01
 -1       584 7.12168E-01
 -1       585 5.37404E+00
 -1       586 2.20556E+01
 -1       587 1.99058E+01
 -1       588 3.19438E+01
 -1       589 5.31290E+00
 -1       590 4.56609E-01
 -1       591 8.22757E+00
 -1       592 8.76899E+00
 -1       593 6.99858E+00
 -1       594 6.17845E+00
 -1       595 4.38407E+00
 -1       596 6.32973E+00
 -1       597 8.78018E+00
 -1       598 1.34293E+01
 -1       599 2.13160E+01
 -1       600 3.44939E+01
 -1       601 2.06812E+01
 -1       602 6.22106E+00
 -1       603 1.30800E+01
 -1       604 5.44273E+00
 -1       605 7.10426E+00
 -1       606 7.91345E+00
 -1       607 4.74225E+00
 -1       608 5.53709E+00
 -1       609 8.50781E+00
 -1       610 1.48202E+01
 -1       611 8.79902E-01
 -1       612 1.32963E+00
 -1       613 8.49934E+00
 -1       614 5.09404E-01
 -1       615 1.68478E+01
 -1       616 2.06449E-01
 -1       617 6.82596E+00
 -1       618 2.05802E+01
 -1       619 1.30307E+01
 -1       620 4.61629E-01
 -1       621 3.58161E-01
 -1       622 3.42936E-01
 -1       623 3.61221E-01
 -1       624 3.36816E-01
 -1       625 5.44136E-01
 -1       626 4.32274E+00
 -1       627 1.24471E+01
 -1       628 4.02462E-01
 -1       629 3.89166E-01
 -1       630 3.47624E-01
 -1       631 2.96586E-01
 -1       632 2.44499E-01
 -1       633 2.13170E-01
 -1       634 1.80448E-01
 -1       635 1.47229E-01
 -1       636 1.14165E-01
 -1       637 8.08854E-02
 -1       638 7.66054E-02
 -1       639 1.05921E-01
 -1       640 1.65871E-01
 -1       641 2.35878E-01
 -1       642 3.17522E-01
 -1       643 4.11762E-01
 -1       644 5.18397E-01
 -1       645 6.35230E-01
 -1       646 7.56692E-01
 -1       647 8.71487E-01
 -1       648 1.02581E+00
 -1       649 1.23867E+00
 -1       650 1.43537E+00
 -1       651 1.61941E+00
 -1       652 2.05873E+00
 -1       653 1.86494E+00
 -1       654 2.57815E+00
 -1       655 4.40191E+00
 -1       656 5.40413E+00
 -1       657 4.33514E+00
 -1       658 2.77579E+00
 -1       659 3.08614E+00
 -1       660 2.21521E+00
 -1       661 1.67699E+00
 -1       662 1.44914E+00
 -1       663 1.26102E+00
 -1       664 1.03815E+00
 -1       665 8.47879E-01
 -1       666 7.28900E-01
 -1       667 5.98741E-01
 -1       668 4.72414E-01
 -1       669 3.33600E-01
 -1       670 3.32899E-01
 -1       671 4.40191E+00
 -1       672 4.02382E-01
 -1       673 2.45230E-01
 -1       674 2.07687E-01
 -1       675 1.71517E-01
 -1       676 1.37282E-01
 -1       677 1.04456E-01
 -1       678 9.43515E-02
 -1       679 1.10587E-01
 -1       680 1.70871E-01
 -1       681 2.47515E-01
 -1       682 3.38849E-01
 -1       683 4.46845E-01
 -1       684 5.72356E-01
 -1       685 7.14182E-01
 -1       686 8.67659E-01
 -1       687 1.02260E+00
 -1       688 1.15997E+00
 -1       689 1.38082E+00
 -1       690 1.66466E+00
 -1       691 1.91272E+00
 -1       692 2.01110E+00
 -1       693 3.41360E+00
 -1       694 2.39989E+00
 -1       695 3.46445E+00
 -1       696 4.47950E+00
 -1       697 3.43073E+00
 -1       698 2.57593E+00
 -1       699 2.51830E+00
 -1       700 2.03195E+00
 -1       701 1.83058E+00
 -1       702 1.53675E+00
 -1       703 1.24816E+00
 -1       704 1.06848E+00
 -1       705 9.15290E-01
 -1       706 7.49920E-01
 -1       707 5.89702E-01
 -1       708 4.41336E-01
 -1       709 3.38153E-01
 -1       710 7.61087E+00
 -1       711 4.05939E-01
 -1       712 2.20456E-01
 -1       713 3.92388E-01
 -1       714 3.95857E-01
 -1       715 4.05939E-01
 -1       716 3.95857E-01
 -1       717 3.49917E-01
 -1       718 2.71831E-01
 -1       719 3.78272E+00
 -1       720 6.05415E+00
 -1       721 2.79411E+00
 -1       722 3.86091E+00
 -1       723 1.65090E+01
 -1       724 5.29101E+00
 -1       725 1.00703E+01
 -1       726 4.70248E-01
 -1       727 2.82037E-01
 -1       728 4.03295E-01
 -1       729 5.21329E-01
 -1       730 5.23546E+00
 -1       731 3.61221E-01
 -1       732 3.59847E-01
 -1       733 3.48305E+00
 -1       734 7.09655E+00
 -1       735 3.12617E+00
 -1       736 1.39894E+01
 -1       737 5.69213E+00
 -1       738 5.49156E+00
 -1       739 1.22242E+01
 -1       740 7.56185E+00
 -1       741 5.64233E+00
 -1       742 4.33514E+00
 -1       743 3.66097E-01
 -1       744 8.71409E+00
 -1       745 6.26118E+00
 -1       746 3.59847E-01
 -1       747 3.42441E-01
 -1       748 1.67471E+01
 -1       749 3.10346E-01
 -1       750 2.55869E-01
 -1       751 1.03506E+01
 -1       752 7.30133E+00
 -1       753 1.39287E+01
 -1       754 3.57376E-01
 -1       755 1.11700E+01
 -1       756 1.08595E+01
 -1       757 2.34474E-01
 -1       758 7.30462E+00
 -1       759 2.39954E-01
 -1       760 3.67853E+00
 -1       761 5.91523E+00
 -1       762 2.53934E-01
 -1       763 7.70084E+00
 -1       764 2.58020E-01
 -1       765 2.49888E-01
 -1       766 2.25719E-01
 -1       767 1.93583E-01
 -1       768 1.65558E-01
 -1       769 1.38331E-01
 -1       770 1.07369E-01
 -1       771 7.37107E-02
 -1       772 5.97760E-02
 -1       773 7.43853E-02
 -1       774 1.23590E-01
 -1       775 1.86214E-01
 -1       776 2.59029E-01
 -1       777 3.42132E-01
 -1       778 4.33717E-01
 -1       779 5.56534E-01
 -1       780 7.06995E-01
 -1       781 8.86238E-01
 -1       782 1.10768E+00
 -1       783 1.34279E+00
 -1       784 1.70718E+00
 -1       785 2.20187E+00
 -1       786 3.10991E+00
 -1       787 2.05873E+00
 -1       788 3.13481E+00
 -1       789 2.26728E+00
 -1       790 1.80322E+00
 -1       791 1.37146E+00
 -1       792 1.12884E+00
 -1       793 8.90835E-01
 -1       794 6.84646E-01
 -1       795 5.15568E-01
 -1       796 3.58607E-01
 -1       797 4.76954E+00
 -1       798 1.52432E-01
 -1       799 1.83954E-01
 -1       800 8.51164E-02
 -1       801 5.03358E-02
 -1       802 6.34353E-02
 -1       803 1.15536E-01
 -1       804 1.77138E-01
 -1       805 2.50970E-01
 -1       806 3.41370E-01
 -1       807 4.54154E-01
 -1       808 5.93643E-01
 -1       809 7.62521E-01
 -1       810 9.62543E-01
 -1       811 1.21037E+00
 -1       812 1.51205E+00
 -1       813 1.83331E+00
 -1       814 2.37038E+00
 -1       815 3.04264E+00
 -1       816 2.72972E+00
 -1       817 2.12579E+00
 -1       818 1.69159E+00
 -1       819 1.36554E+00
 -1       820 1.07290E+00
 -1       821 8.26433E-01
 -1       822 6.25150E-01
 -1       823 4.59501E-01
 -1       824 3.53866E-01
 -1       825 5.05642E-01
 -1       826 3.76289E-01
 -1       827 5.05642E-01
 -1       828 5.21279E+00
 -1       829 3.09665E-01
 -1       830 9.14208E+00
 -1       831 4.84532E-01
 -1       832 3.52928E+00
 -1       833 1.18105E-01
 -1       834 2.89266E-01
 -1       835 9.93150E+00
 -1       836 1.11700E+01
 -1       837 6.47402E+00
 -1       838 2.67116E-01
 -1       839 2.36633E-01
 -1       840 2.81432E-01
 -1       841 3.56771E+00
 -1       842 6.29251E+00
 -1       843 6.94026E+00
 -1       844 2.88425E-01
 -1       845 2.81779E-01
 -1       846 2.79632E-01
 -1       847 4.69765E-01
 -1       848 6.42641E+00
 -1       849 2.70348E+00
 -1       850 2.54714E-01
 -1       851 2.14642E-01
 -1       852 3.41360E+00
 -1       853 2.57593E+00
 -1       854 5.14627E-01
 -1       855 5.14627E-01
 -1       856 8.07138E+00
 -1       857 3.40169E-01
 -1       858 2.76668E-01
 -1       859 2.88698E-01
 -1       860 2.88425E-01
 -1       861 7.62272E+00
 -1       862 2.81757E-01
 -1       863 6.94026E+00
 -1       864 4.47325E+00
 -1       865 8.30685E+00
 -1       866 1.81616E-01
 -1       867 1.71446E-01
 -1       868 1.51372E-01
 -1       869 1.30224E-01
 -1       870 1.10016E-01
 -1       871 8.53657E-02
 -1       872 8.42201E-02
 -1       873 9.08280E-02
 -1       874 1.20396E-01
 -1       875 1.79290E-01
 -1       876 2.49762E-01
 -1       877 3.33700E-01
 -1       878 4.32630E-01
 -1       879 5.47096E-01
 -1       880 6.75494E-01
 -1       881 8.42547E-01
 -1       882 1.07260E+00
 -1       883 1.47772E+00
 -1       884 1.99076E+00
 -1       885 2.66393E+00
 -1       886 3.96046E+00
 -1       887 4.98880E+00
 -1       888 2.50306E+00
 -1       889 1.58077E+00
 -1       890 1.12139E+00
 -1       891 8.55871E-01
 -1       892 6.46554E-01
 -1       893 2.09843E-01
 -1       894 8.11677E+00
 -1       895 7.95430E-02
 -1       896 7.39851E-02
 -1       897 1.66954E-01
 -1       898 2.41416E-01
 -1       899 3.32148E-01
 -1       900 4.42244E-01
 -1       901 5.74557E-01
 -1       902 7.30850E-01
 -1       903 9.09841E-01
 -1       904 1.14750E+00
 -1       905 1.49856E+00
 -1       906 2.10418E+00
 -1       907 3.00748E+00
 -1       908 3.88034E+00
 -1       909 6.51639E-01
 -1       910 2.96331E+00
 -1       911 1.32699E+00
 -1       912 1.01463E+00
 -1       913 7.81166E-01
 -1       914 6.17340E-01
 -1       915 4.19757E-01
 -1       916 2.30209E+00
 -1       917 1.83695E+00
 -1       918 1.06217E-01
 -1       919 1.44751E-01
 -1       920 1.42927E-01
 -1       921 3.59569E+00
 -1       922 5.84581E+00
 -1       923 1.75431E-01
 -1       924 2.88698E-01
 -1       925 4.98880E+00
 -1       926 1.53905E-01
 -1       927 5.18428E+00
 -1       928 8.07138E+00
 -1       929 1.64425E-01
 -1       930 2.16369E-01
 -1       931 6.20389E+00
 -1       932 1.84219E-01
 -1       933 2.09511E-01
 -1       934 4.88697E-01
 -1       935 1.68763E-01
 -1       936 8.11677E+00
 -1       937 9.39998E-02
 -1       938 4.95321E+00
 -1       939 6.51639E-01
 -1       940 8.54735E-01
 -1       941 1.21507E-01
 -1       942 1.07172E+00
 -1       943 6.15990E+00
 -1       944 5.95172E+00
 -1       945 2.16512E-01
 -1       946 2.16512E-01
 -1       947 1.92581E-01
 -1       948 6.03493E-01
 -1       949 1.34160E-01
 -1       950 3.25810E+00
 -1       951 1.30638E-01
 -1       952 1.17763E-01
 -1       953 1.02896E-01
 -1       954 9.25571E-02
 -1       955 9.86458E-02
 -1       956 1.06732E-01
 -1       957 1.19124E-01
 -1       958 1.57686E-01
 -1       959 2.19816E-01
 -1       960 2.96430E-01
 -1       961 3.91353E-01
 -1       962 5.09514E-01
 -1       963 6.57267E-01
 -1       964 8.42547E-01
 -1       965 1.07260E+00
 -1       966 1.45843E+00
 -1       967 2.26953E+00
 -1       968 3.73768E+00
 -1       969 2.87805E+00
 -1       970 1.14373E-01
 -1       971 1.47853E+00
 -1       972 1.11255E+00
 -1       973 8.55871E-01
 -1       974 2.93481E-01
 -1       975 2.13332E-01
 -1       976 5.18584E-01
 -1       977 6.77675E-01
 -1       978 8.82150E-01
 -1       979 1.14750E+00
 -1       980 1.49856E+00
 -1       981 2.08166E+00
 -1       982 5.42904E+00
 -1       983 3.50848E+00
 -1       984 2.93894E+00
 -1       985 5.45642E+00
 -1       986 1.73990E+00
 -1       987 1.32699E+00
 -1       988 1.07172E+00
 -1       989 4.15434E+00
 -1       990 1.63378E-01
 -1       991 1.01463E+00
 -1       992 3.93281E-01
 -1       993 2.03105E-01
 -1       994 3.68153E+00
 -1       995 9.77485E-02
 -1       996 1.93746E-01
 -1       997 1.23360E-01
 -1       998 2.16369E-01
 -1       999 5.21440E+00
 -1      1000 8.93985E-02
 -1      1001 1.63378E-01
 -1      1002 1.07502E-01
 -1      1003 5.21440E+00
 -1      1004 9.09371E-02
 -1      1005 1.45419E-01
 -1      1006 4.15434E+00
 -1      1007 3.97891E+00
 -1      1008 5.42904E+00
 -1      1009 4.94101E+00
 -1      1010 1.48906E-01
 -1      1011 1.08276E-01
 -1      1012 7.88790E-01
 -1      1013 1.16948E+00
 -1      1014 1.31521E-01
 -1      1015 8.16315E-01
 -1      1016 1.34112E-01
 -1      1017 1.14081E-01
 -1      1018 3.12023E+00
 -1      1019 1.00063E-01
 -1      1020 9.18125E-02
 -1      1021 9.69321E-02
 -1      1022 1.05483E-01
 -1      1023 1.14221E-01
 -1      1024 1.26241E-01
 -1      1025 1.44232E-01
 -1      1026 1.79046E-01
 -1      1027 2.37978E-01
 -1      1028 3.17125E-01
 -1      1029 4.20068E-01
 -1      1030 5.56983E-01
 -1      1031 7.44584E-01
 -1      1032 9.97892E-01
 -1      1033 1.42549E+00
 -1      1034 2.10941E+00
 -1      1035 2.58780E+00
 -1      1036 3.15229E-01
 -1      1037 1.53806E-01
 -1      1038 1.46779E+00
 -1      1039 1.08083E+00
 -1      1040 2.35526E-01
 -1      1041 7.33219E-01
 -1      1042 5.51155E-01
 -1      1043 1.37088E+00
 -1      1044 1.88130E+00
 -1      1045 3.74465E+00
 -1      1046 1.72755E+00
 -1      1047 9.69102E-02
 -1      1048 2.93894E+00
 -1      1049 1.00590E-01
 -1      1050 1.07393E+00
 -1      1051 8.94306E-02
 -1      1052 8.99007E-02
 -1      1053 9.91203E-01
 -1      1054 4.16175E+00
 -1      1055 4.17305E-01
 -1      1056 1.47503E-01
 -1      1057 1.59303E-01
 -1      1058 1.06273E-01
 -1      1059 2.08812E-01
 -1      1060 5.42904E+00
 -1      1061 7.68842E-02
 -1      1062 3.06302E+00
 -1      1063 1.07502E-01
 -1      1064 9.72699E-01
 -1      1065 1.10565E-01
 -1      1066 1.12809E-01
 -1      1067 3.29319E+00
 -1      1068 1.18909E-01
 -1      1069 1.08276E-01
 -1      1070 9.72699E-01
 -1      1071 1.17300E+00
 -1      1072 9.69321E-02
 -1      1073 1.34657E-01
 -1      1074 1.14221E-01
 -1      1075 1.26241E-01
 -1      1076 1.44232E-01
 -1      1077 1.83139E-01
 -1      1078 2.26640E-01
 -1      1079 2.95185E-01
 -1      1080 3.86215E-01
 -1      1081 5.10669E-01
 -1      1082 6.85637E-01
 -1      1083 9.35917E-01
 -1      1084 1.31250E+00
 -1      1085 5.38705E-01
 -1      1086 1.04224E-01
 -1      1087 2.60506E-01
 -1      1088 3.74465E+00
 -1      1089 4.18886E-01
 -1      1090 2.27231E+00
 -1      1091 1.90241E+00
 -1      1092 1.35691E-01
 -1      1093 9.59863E-01
 -1      1094 5.46354E-02
 -1      1095 8.02629E-02
 -1      1096 1.28116E-01
 -1      1097 7.04213E-01
 -1      1098 2.38419E+00
 -1      1099 1.14684E-01
 -1      1100 1.23710E-01
 -1      1101 1.23710E-01
 -1      1102 6.36801E-02
 -1      1103 1.91888E+00
 -1      1104 9.18200E-02
 -1      1105 3.29174E-01
 -1      1106 6.02830E-02
 -1      1107 1.39132E+00
 -1      1108 1.11764E-01
 -1      1109 1.34657E-01
 -1      1110 1.57979E+00
 -1      1111 2.08812E-01
 -1      1112 1.61551E+00
 -1      1113 9.50838E-02
 -1      1114 8.62459E-02
 -1      1115 1.18909E-01
 -1      1116 1.49178E+00
 -1      1117 1.34657E-01
 -1      1118 7.05362E-02
 -1      1119 2.08812E-01
 -1      1120 1.18909E-01
 -1      1121 1.28826E-01
 -1      1122 5.89715E-02
 -1      1123 9.50838E-02
 -1      1124 6.72804E-02
 -1      1125 4.21407E-02
 -1      1126 1.31486E+01
 -1      1127 8.40483E+00
 -1      1128 2.74183E+00
 -1      1129 1.55508E+00
 -1      1130 1.16460E+00
 -1      1131 9.70073E-01
 -1      1132 8.53241E-01
 -1      1133 7.81118E-01
 -1      1134 7.55229E-01
 -1      1135 7.84252E-01
 -1      1136 8.55843E-01
 -1      1137 9.74946E-01
 -1      1138 1.17781E+00
 -1      1139 1.56832E+00
 -1      1140 2.66707E+00
 -1      1141 6.07329E+00
 -1      1142 1.13443E+01
 -1      1143 1.31486E+01
 -1      1144 8.73641E+00
 -1      1145 3.83689E+00
 -1      1146 2.73529E+00
 -1      1147 1.74735E+00
 -1      1148 1.19937E+00
 -1      1149 9.07250E-01
 -1      1150 7.01781E-01
 -1      1151 5.46843E-01
 -1      1152 4.27945E-01
 -1      1153 3.38307E-01
 -1      1154 2.72180E-01
 -1      1155 2.23418E-01
 -1      1156 1.90436E-01
 -1      1157 1.78547E-01
 -1      1158 1.94953E-01
 -1      1159 2.32895E-01
 -1      1160 2.82596E-01
 -1      1161 3.42518E-01
 -1      1162 4.08863E-01
 -1      1163 4.75905E-01
 -1      1164 5.81432E-01
 -1      1165 7.34898E-01
 -1      1166 9.09584E-01
 -1      1167 1.07456E+00
 -1      1168 1.15759E+00
 -1      1169 1.18452E+00
 -1      1170 1.19955E+00
 -1      1171 1.30234E+00
 -1      1172 1.63975E+00
 -1      1173 2.48056E+00
 -1      1174 3.36339E+00
 -1      1175 3.64001E+00
 -1      1176 3.62451E+00
 -1      1177 3.47087E+00
 -1      1178 2.79278E+00
 -1      1179 1.87838E+00
 -1      1180 1.35330E+00
 -1      1181 1.20267E+00
 -1      1182 1.18719E+00
 -1      1183 1.17171E+00
 -1      1184 1.10817E+00
 -1      1185 9.45989E-01
 -1      1186 7.48479E-01
 -1      1187 6.25998E-01
 -1      1188 5.70946E-01
 -1      1189 4.93394E-01
 -1      1190 4.10496E-01
 -1      1191 3.19057E-01
 -1      1192 1.63329E-01
 -1      1193 1.40445E+01
 -1      1194 8.72205E+00
 -1      1195 2.90950E+00
 -1      1196 2.04643E+00
 -1      1197 1.41355E+00
 -1      1198 1.03418E+00
 -1      1199 8.29032E-01
 -1      1200 6.74054E-01
 -1      1201 5.48148E-01
 -1      1202 4.46111E-01
 -1      1203 3.65223E-01
 -1      1204 3.03905E-01
 -1      1205 2.60202E-01
 -1      1206 2.32669E-01
 -1      1207 2.23982E-01
 -1      1208 2.34038E-01
 -1      1209 2.55980E-01
 -1      1210 2.99080E-01
 -1      1211 3.67814E-01
 -1      1212 4.49957E-01
 -1      1213 5.38216E-01
 -1      1214 6.21747E-01
 -1      1215 6.82441E-01
 -1      1216 7.37307E-01
 -1      1217 8.92544E-01
 -1      1218 1.11734E+00
 -1      1219 1.26169E+00
 -1      1220 1.47800E+00
 -1      1221 1.65253E+00
 -1      1222 1.82838E+00
 -1      1223 2.33277E+00
 -1      1224 3.17333E+00
 -1      1225 3.90539E+00
 -1      1226 4.12544E+00
 -1      1227 4.11049E+00
 -1      1228 3.45114E+00
 -1      1229 2.23144E+00
 -1      1230 1.45592E+00
 -1      1231 1.36163E+00
 -1      1232 1.48866E+00
 -1      1233 1.50975E+00
 -1      1234 1.44114E+00
 -1      1235 1.26248E+00
 -1      1236 1.05334E+00
 -1      1237 8.47197E-01
 -1      1238 6.68758E-01
 -1      1239 5.41160E-01
 -1      1240 4.12645E-01
 -1      1241 2.75347E-01
 -1      1242 1.33936E-01
 -1      1243 7.62632E-02
 -1      1244 9.49941E-02
 -1      1245 8.64478E-02
 -1      1246 5.90197E-02
 -1      1247 4.06082E-02
 -1      1248 5.43605E-02
 -1      1249 7.53683E-02
 -1      1250 8.46956E-02
 -1      1251 8.62971E-02
 -1      1252 8.25408E-02
 -1      1253 6.92313E-02
 -1      1254 4.64567E-02
 -1      1255 3.76375E-02
 -1      1256 5.82455E-02
 -1      1257 9.67437E-02
 -1      1258 1.26707E-01
 -1      1259 9.83180E-02
 -1      1260 2.54590E+01
 -1      1261 3.57596E+01
 -1      1262 4.60602E+01
 -1      1263 3.23798E+01
 -1      1264 1.54093E+01
 -1      1265 1.21191E+01
 -1      1266 1.22228E+01
 -1      1267 1.23264E+01
 -1      1268 1.22432E+01
 -1      1269 1.20935E+01
 -1      1270 1.84041E+01
 -1      1271 2.78163E+01
 -1      1272 3.08516E+01
 -1      1273 2.80205E+01
 -1      1274 2.60178E+01
 -1      1275 2.68463E+01
 -1      1276 3.61521E+01
 -1      1277 4.54580E+01
 -1      1278 3.16867E+01
 -1      1279 1.50448E+01
 -1      1280 1.21742E+01
 -1      1281 1.22619E+01
 -1      1282 1.23496E+01
 -1      1283 1.22185E+01
 -1      1284 1.17481E+01
 -1      1285 1.72171E+01
 -1      1286 3.53885E+01
 -1      1287 4.77516E+01
 -1      1288 3.62899E+01
 -1      1289 2.51437E+01
 -1      1290 1.31486E+01
 -1      1291 4.86827E+00
 -1      1292 9.61206E+00
 -1      1293 2.05983E+00
 -1      1294 2.97904E+00
 -1      1295 4.18627E+00
 -1      1296 1.39533E+00
 -1      1297 1.66288E+00
 -1      1298 1.90008E+00
 -1      1299 1.09886E+00
 -1      1300 1.22180E+00
 -1      1301 1.32959E+00
 -1      1302 9.34522E-01
 -1      1303 1.00611E+00
 -1      1304 1.06331E+00
 -1      1305 8.35780E-01
 -1      1306 8.81027E-01
 -1      1307 9.17060E-01
 -1      1308 7.75039E-01
 -1      1309 8.01915E-01
 -1      1310 8.29701E-01
 -1      1311 7.56216E-01
 -1      1312 7.55229E-01
 -1      1313 7.76026E-01
 -1      1314 8.05782E-01
 -1      1315 7.77746E-01
 -1      1316 7.77746E-01
 -1      1317 8.82922E-01
 -1      1318 8.39368E-01
 -1      1319 8.32862E-01
 -1      1320 1.01499E+00
 -1      1321 9.39443E-01
 -1      1322 9.22969E-01
 -1      1323 1.23770E+00
 -1      1324 1.11039E+00
 -1      1325 1.07488E+00
 -1      1326 1.67815E+00
 -1      1327 1.41495E+00
 -1      1328 1.34753E+00
 -1      1329 2.88024E+00
 -1      1330 2.04469E+00
 -1      1331 1.89132E+00
 -1      1332 6.28671E+00
 -1      1333 3.71604E+00
 -1      1334 3.09365E+00
 -1      1335 1.40445E+01
 -1      1336 1.13443E+01
 -1      1337 8.98700E+00
 -1      1338 1.40445E+01
 -1      1339 8.73641E+00
 -1      1340 4.32421E+00
 -1      1341 3.83689E+00
 -1      1342 3.34957E+00
 -1      1343 3.83689E+00
 -1      1344 2.73529E+00
 -1      1345 2.12101E+00
 -1      1346 2.73529E+00
 -1      1347 1.78871E+00
 -1      1348 1.41505E+00
 -1      1349 1.78871E+00
 -1      1350 1.20493E+00
 -1      1351 1.03060E+00
 -1      1352 1.24629E+00
 -1      1353 9.07250E-01
 -1      1354 7.89458E-01
 -1      1355 9.12812E-01
 -1      1356 7.01781E-01
 -1      1357 6.14103E-01
 -1      1358 7.01781E-01
 -1      1359 5.50689E-01
 -1      1360 4.83428E-01
 -1      1361 5.50689E-01
 -1      1362 4.35797E-01
 -1      1363 3.84160E-01
 -1      1364 4.39643E-01
 -1      1365 3.45926E-01
 -1      1366 3.07925E-01
 -1      1367 3.53778E-01
 -1      1368 2.78054E-01
 -1      1369 2.49927E-01
 -1      1370 2.85672E-01
 -1      1371 2.27030E-01
 -1      1372 2.06395E-01
 -1      1373 2.32904E-01
 -1      1374 1.90436E-01
 -1      1375 1.78089E-01
 -1      1376 1.94048E-01
 -1      1377 1.71383E-01
 -1      1378 1.71841E-01
 -1      1379 1.71383E-01
 -1      1380 1.79005E-01
 -1      1381 1.94953E-01
 -1      1382 1.71841E-01
 -1      1383 2.10901E-01
 -1      1384 2.32895E-01
 -1      1385 1.94953E-01
 -1      1386 2.54888E-01
 -1      1387 2.82596E-01
 -1      1388 2.32895E-01
 -1      1389 3.10305E-01
 -1      1390 3.42518E-01
 -1      1391 2.82596E-01
 -1      1392 3.76760E-01
 -1      1393 4.10892E-01
 -1      1394 3.44547E-01
 -1      1395 4.65505E-01
 -1      1396 4.98415E-01
 -1      1397 4.33402E-01
 -1      1398 5.55272E-01
 -1      1399 6.27889E-01
 -1      1400 5.44872E-01
 -1      1401 6.79689E-01
 -1      1402 7.60539E-01
 -1      1403 6.53529E-01
 -1      1404 8.22702E-01
 -1      1405 9.16538E-01
 -1      1406 7.67493E-01
 -1      1407 1.00342E+00
 -1      1408 1.07456E+00
 -1      1409 9.16538E-01
 -1      1410 1.14569E+00
 -1      1411 1.15759E+00
 -1      1412 1.07456E+00
 -1      1413 1.16949E+00
 -1      1414 1.18452E+00
 -1      1415 1.15759E+00
 -1      1416 1.19955E+00
 -1      1417 1.19955E+00
 -1      1418 1.18452E+00
 -1      1419 1.18258E+00
 -1      1420 1.28536E+00
 -1      1421 1.18258E+00
 -1      1422 1.40513E+00
 -1      1423 1.63975E+00
 -1      1424 1.28536E+00
 -1      1425 1.92802E+00
 -1      1426 2.53422E+00
 -1      1427 1.69341E+00
 -1      1428 3.08676E+00
 -1      1429 3.36339E+00
 -1      1430 2.53422E+00
 -1      1431 3.64001E+00
 -1      1432 3.64001E+00
 -1      1433 3.36339E+00
 -1      1434 3.62451E+00
 -1      1435 3.60902E+00
 -1      1436 3.62451E+00
 -1      1437 3.47087E+00
 -1      1438 3.33273E+00
 -1      1439 3.47087E+00
 -1      1440 2.79278E+00
 -1      1441 2.25283E+00
 -1      1442 2.79278E+00
 -1      1443 1.87838E+00
 -1      1444 1.50393E+00
 -1      1445 1.87838E+00
 -1      1446 1.29238E+00
 -1      1447 1.14175E+00
 -1      1448 1.29238E+00
 -1      1449 1.20267E+00
 -1      1450 1.20267E+00
 -1      1451 1.14175E+00
 -1      1452 1.17535E+00
 -1      1453 1.15987E+00
 -1      1454 1.17535E+00
 -1      1455 1.17171E+00
 -1      1456 1.17171E+00
 -1      1457 1.15987E+00
 -1      1458 1.10817E+00
 -1      1459 1.04464E+00
 -1      1460 1.10817E+00
 -1      1461 9.45989E-01
 -1      1462 8.47343E-01
 -1      1463 9.45989E-01
 -1      1464 7.64686E-01
 -1      1465 6.65822E-01
 -1      1466 7.64686E-01
 -1      1467 6.25998E-01
 -1      1468 6.02382E-01
 -1      1469 6.42206E-01
 -1      1470 5.70946E-01
 -1      1471 5.39509E-01
 -1      1472 5.70946E-01
 -1      1473 4.93394E-01
 -1      1474 4.47279E-01
 -1      1475 4.93394E-01
 -1      1476 4.10496E-01
 -1      1477 3.73713E-01
 -1      1478 4.10496E-01
 -1      1479 3.19057E-01
 -1      1480 2.64400E-01
 -1      1481 3.19057E-01
 -1      1482 1.99389E-01
 -1      1483 1.99389E-01
 -1      1484 3.39955E+00
 -1      1485 8.72205E+00
 -1      1486 8.72205E+00
 -1      1487 2.41946E+00
 -1      1488 2.90950E+00
 -1      1489 2.90950E+00
 -1      1490 1.67340E+00
 -1      1491 2.04643E+00
 -1      1492 2.04643E+00
 -1      1493 1.15369E+00
 -1      1494 1.41355E+00
 -1      1495 1.41355E+00
 -1      1496 9.14659E-01
 -1      1497 1.03418E+00
 -1      1498 1.03418E+00
 -1      1499 7.43404E-01
 -1      1500 8.29032E-01
 -1      1501 8.29032E-01
 -1      1502 6.04704E-01
 -1      1503 6.74054E-01
 -1      1504 6.74054E-01
 -1      1505 4.91592E-01
 -1      1506 5.48148E-01
 -1      1507 5.48148E-01
 -1      1508 4.00631E-01
 -1      1509 4.46111E-01
 -1      1510 4.46111E-01
 -1      1511 3.29815E-01
 -1      1512 3.65223E-01
 -1      1513 3.65223E-01
 -1      1514 2.77995E-01
 -1      1515 3.03905E-01
 -1      1516 3.03905E-01
 -1      1517 2.42409E-01
 -1      1518 2.60202E-01
 -1      1519 2.60202E-01
 -1      1520 2.22928E-01
 -1      1521 2.32669E-01
 -1      1522 2.32669E-01
 -1      1523 2.21354E-01
 -1      1524 2.20299E-01
 -1      1525 2.20299E-01
 -1      1526 2.34038E-01
 -1      1527 2.25037E-01
 -1      1528 2.21354E-01
 -1      1529 2.55980E-01
 -1      1530 2.43040E-01
 -1      1531 2.34038E-01
 -1      1532 3.10417E-01
 -1      1533 2.80257E-01
 -1      1534 2.67317E-01
 -1      1535 3.80570E-01
 -1      1536 3.41996E-01
 -1      1537 3.23173E-01
 -1      1538 4.59238E-01
 -1      1539 4.15669E-01
 -1      1540 3.89851E-01
 -1      1541 5.39629E-01
 -1      1542 4.94940E-01
 -1      1543 4.60652E-01
 -1      1544 6.21747E-01
 -1      1545 5.82906E-01
 -1      1546 5.39629E-01
 -1      1547 6.82441E-01
 -1      1548 6.60589E-01
 -1      1549 6.21747E-01
 -1      1550 7.37307E-01
 -1      1551 7.04293E-01
 -1      1552 6.82441E-01
 -1      1553 9.39568E-01
 -1      1554 8.17344E-01
 -1      1555 7.84331E-01
 -1      1556 1.11734E+00
 -1      1557 1.01477E+00
 -1      1558 9.39568E-01
 -1      1559 1.26169E+00
 -1      1560 1.21992E+00
 -1      1561 1.11734E+00
 -1      1562 1.47800E+00
 -1      1563 1.30347E+00
 -1      1564 1.26169E+00
 -1      1565 1.65253E+00
 -1      1566 1.65253E+00
 -1      1567 1.47800E+00
 -1      1568 1.81673E+00
 -1      1569 1.64088E+00
 -1      1570 1.64088E+00
 -1      1571 2.33277E+00
 -1      1572 2.00422E+00
 -1      1573 1.81673E+00
 -1      1574 3.17333E+00
 -1      1575 2.66133E+00
 -1      1576 2.33277E+00
 -1      1577 3.90539E+00
 -1      1578 3.68534E+00
 -1      1579 3.17333E+00
 -1      1580 4.12544E+00
 -1      1581 4.12544E+00
 -1      1582 3.90539E+00
 -1      1583 4.09555E+00
 -1      1584 4.11049E+00
 -1      1585 4.11049E+00
 -1      1586 2.80673E+00
 -1      1587 3.45114E+00
 -1      1588 3.45114E+00
 -1      1589 1.65615E+00
 -1      1590 2.23144E+00
 -1      1591 2.23144E+00
 -1      1592 1.16925E+00
 -1      1593 1.36947E+00
 -1      1594 1.36947E+00
 -1      1595 1.36163E+00
 -1      1596 1.25570E+00
 -1      1597 1.16925E+00
 -1      1598 1.48866E+00
 -1      1599 1.46756E+00
 -1      1600 1.36163E+00
 -1      1601 1.50975E+00
 -1      1602 1.50975E+00
 -1      1603 1.48866E+00
 -1      1604 1.37252E+00
 -1      1605 1.44114E+00
 -1      1606 1.44114E+00
 -1      1607 1.15243E+00
 -1      1608 1.26248E+00
 -1      1609 1.26248E+00
 -1      1610 9.54260E-01
 -1      1611 1.05334E+00
 -1      1612 1.05334E+00
 -1      1613 7.47545E-01
 -1      1614 8.54608E-01
 -1      1615 8.54608E-01
 -1      1616 5.97383E-01
 -1      1617 6.68758E-01
 -1      1618 6.76170E-01
 -1      1619 4.84936E-01
 -1      1620 5.41160E-01
 -1      1621 5.41160E-01
 -1      1622 3.40354E-01
 -1      1623 4.12645E-01
 -1      1624 4.12645E-01
 -1      1625 2.10341E-01
 -1      1626 2.75347E-01
 -1      1627 2.75347E-01
 -1      1628 1.52667E-01
 -1      1629 1.09936E-01
 -1      1630 1.09936E-01
 -1      1631 1.01390E-01
 -1      1632 1.09936E-01
 -1      1633 1.24878E-01
 -1      1634 8.06356E-02
 -1      1635 9.95174E-02
 -1      1636 1.23006E-01
 -1      1637 5.44750E-02
 -1      1638 5.40047E-02
 -1      1639 9.45024E-02
 -1      1640 9.34900E-02
 -1      1641 8.02079E-02
 -1      1642 9.36045E-02
 -1      1643 1.17773E-01
 -1      1644 1.10047E-01
 -1      1645 1.35894E-01
 -1      1646 1.24855E-01
 -1      1647 1.23253E-01
 -1      1648 1.57932E-01
 -1      1649 1.24855E-01
 -1      1650 1.24855E-01
 -1      1651 1.63412E-01
 -1      1652 1.20393E-01
 -1      1653 1.24149E-01
 -1      1654 1.62706E-01
 -1      1655 1.00987E-01
 -1      1656 1.10541E-01
 -1      1657 1.52149E-01
 -1      1658 6.93557E-02
 -1      1659 8.25770E-02
 -1      1660 1.23886E-01
 -1      1661 4.95208E-02
 -1      1662 4.51186E-02
 -1      1663 8.12389E-02
 -1      1664 9.58795E-02
 -1      1665 7.96737E-02
 -1      1666 8.71548E-02
 -1      1667 1.18172E-01
 -1      1668 9.58795E-02
 -1      1669 1.17308E-01
 -1      1670 1.42976E-01
 -1      1671 1.35305E-01
 -1      1672 1.34441E-01
 -1      1673 2.07987E-01
 -1      1674 2.81502E+01
 -1      1675 2.81502E+01
 -1      1676 3.63396E+01
 -1      1677 2.60390E+01
 -1      1678 4.60602E+01
 -1      1679 4.60602E+01
 -1      1680 1.90110E+01
 -1      1681 3.26913E+01
 -1      1682 1.15012E+01
 -1      1683 1.47914E+01
 -1      1684 1.21191E+01
 -1      1685 1.21191E+01
 -1      1686 1.22214E+01
 -1      1687 1.21177E+01
 -1      1688 1.23264E+01
 -1      1689 1.23264E+01
 -1      1690 1.21599E+01
 -1      1691 1.22432E+01
 -1      1692 1.17399E+01
 -1      1693 1.18063E+01
 -1      1694 1.84041E+01
 -1      1695 1.20271E+01
 -1      1696 2.87013E+01
 -1      1697 2.56660E+01
 -1      1698 3.11072E+01
 -1      1699 3.11072E+01
 -1      1700 2.82761E+01
 -1      1701 3.11072E+01
 -1      1702 2.92413E+01
 -1      1703 2.84128E+01
 -1      1704 2.92413E+01
 -1      1705 2.92413E+01
 -1      1706 4.22561E+01
 -1      1707 3.29502E+01
 -1      1708 4.54580E+01
 -1      1709 4.54580E+01
 -1      1710 1.85227E+01
 -1      1711 3.22940E+01
 -1      1712 1.15641E+01
 -1      1713 1.44347E+01
 -1      1714 1.21742E+01
 -1      1715 1.21742E+01
 -1      1716 1.21846E+01
 -1      1717 1.20968E+01
 -1      1718 1.23496E+01
 -1      1719 1.23496E+01
 -1      1720 1.20874E+01
 -1      1721 1.22185E+01
 -1      1722 1.14088E+01
 -1      1723 1.17481E+01
 -1      1724 1.72111E+01
 -1      1725 1.14028E+01
 -1      1726 3.58123E+01
 -1      1727 2.34492E+01
 -1      1728 4.77516E+01
 -1      1729 4.77516E+01
 -1      1730 2.67378E+01
 -1      1731 3.81994E+01
 -1      1732 2.81502E+01
 -1      1733 2.78349E+01
 -1      1734 1.51029E+01
 -1      1735 3.26913E+01
 -1      1736 1.52667E-01
 -1      1737 1.67609E-01
 -1      1738 2.87302E+01
 -1      1739 3.63396E+01
 -1      1740 3.08414E+01
 -1      1741 1.15012E+01
 -1      1742 1.21177E+01
 -1      1743 1.22214E+01
 -1      1744 1.22432E+01
 -1      1745 1.18063E+01
 -1      1746 1.17399E+01
 -1      1747 1.92891E+01
 -1      1748 2.89569E+01
 -1      1749 3.13628E+01
 -1      1750 3.14995E+01
 -1      1751 3.16362E+01
 -1      1752 3.53452E+01
 -1      1753 4.22561E+01
 -1      1754 3.22940E+01
 -1      1755 1.50421E+01
 -1      1756 1.15641E+01
 -1      1757 1.20968E+01
 -1      1758 1.21846E+01
 -1      1759 1.22185E+01
 -1      1760 1.17481E+01
 -1      1761 1.14028E+01
 -1      1762 1.76349E+01
 -1      1763 3.58123E+01
 -1      1764 3.81994E+01
 -1      1765 2.97443E+01
 -1      1766 9.61206E+00
 -1      1767 1.28466E+00
 -1      1768 1.68162E+00
 -1      1769 2.38649E+00
 -1      1770 4.27573E+00
 -1      1771 1.77107E+00
 -1      1772 8.78765E-01
 -1      1773 9.71517E-01
 -1      1774 7.78622E-01
 -1      1775 8.32116E-01
 -1      1776 7.40326E-01
 -1      1777 7.13416E-01
 -1      1778 7.47281E-01
 -1      1779 6.62337E-01
 -1      1780 6.71706E-01
 -1      1781 6.91516E-01
 -1      1782 6.09096E-01
 -1      1783 6.94842E-01
 -1      1784 6.73312E-01
 -1      1785 5.88803E-01
 -1      1786 7.50026E-01
 -1      1787 7.16441E-01
 -1      1788 6.12007E-01
 -1      1789 8.39635E-01
 -1      1790 7.83115E-01
 -1      1791 6.66693E-01
 -1      1792 9.82380E-01
 -1      1793 8.86986E-01
 -1      1794 7.47132E-01
 -1      1795 1.22714E+00
 -1      1796 1.04989E+00
 -1      1797 8.61996E-01
 -1      1798 1.70686E+00
 -1      1799 1.34032E+00
 -1      1800 1.04269E+00
 -1      1801 2.62721E+00
 -1      1802 1.79141E+00
 -1      1803 1.24042E+00
 -1      1804 8.12386E+00
 -1      1805 3.06631E+00
 -1      1806 1.76407E+00
 -1      1807 2.80136E+00
 -1      1808 5.19986E+00
 -1      1809 2.16821E+00
 -1      1810 2.65825E+00
 -1      1811 2.06006E+00
 -1      1812 3.40008E+00
 -1      1813 2.54311E+00
 -1      1814 1.92884E+00
 -1      1815 1.69837E+00
 -1      1816 1.36608E+00
 -1      1817 1.50620E+00
 -1      1818 1.18642E+00
 -1      1819 9.76295E-01
 -1      1820 1.09608E+00
 -1      1821 8.51419E-01
 -1      1822 7.28065E-01
 -1      1823 7.91548E-01
 -1      1824 6.70853E-01
 -1      1825 5.83176E-01
 -1      1826 6.09460E-01
 -1      1827 5.36367E-01
 -1      1828 4.72952E-01
 -1      1829 5.05439E-01
 -1      1830 4.32255E-01
 -1      1831 3.84624E-01
 -1      1832 4.17933E-01
 -1      1833 3.50886E-01
 -1      1834 3.12652E-01
 -1      1835 3.43498E-01
 -1      1836 2.85672E-01
 -1      1837 2.55801E-01
 -1      1838 2.82780E-01
 -1      1839 2.32904E-01
 -1      1840 2.10007E-01
 -1      1841 2.32904E-01
 -1      1842 1.92103E-01
 -1      1843 1.76144E-01
 -1      1844 1.92103E-01
 -1      1845 1.63017E-01
 -1      1846 1.56311E-01
 -1      1847 1.61072E-01
 -1      1848 1.56996E-01
 -1      1849 1.64159E-01
 -1      1850 1.48629E-01
 -1      1851 1.76186E-01
 -1      1852 1.92134E-01
 -1      1853 1.61340E-01
 -1      1854 2.08515E-01
 -1      1855 2.30508E-01
 -1      1856 1.89747E-01
 -1      1857 2.56226E-01
 -1      1858 2.83934E-01
 -1      1859 2.31845E-01
 -1      1860 3.27897E-01
 -1      1861 3.62139E-01
 -1      1862 3.01526E-01
 -1      1863 4.11053E-01
 -1      1864 4.65666E-01
 -1      1865 3.94402E-01
 -1      1866 5.16723E-01
 -1      1867 5.73580E-01
 -1      1868 4.94373E-01
 -1      1869 6.21333E-01
 -1      1870 6.73134E-01
 -1      1871 5.93184E-01
 -1      1872 7.13617E-01
 -1      1873 7.75781E-01
 -1      1874 6.81421E-01
 -1      1875 8.20239E-01
 -1      1876 9.07120E-01
 -1      1877 7.66363E-01
 -1      1878 9.44695E-01
 -1      1879 1.01583E+00
 -1      1880 8.48397E-01
 -1      1881 1.00789E+00
 -1      1882 1.01979E+00
 -1      1883 8.78029E-01
 -1      1884 9.35766E-01
 -1      1885 9.50798E-01
 -1      1886 7.86064E-01
 -1      1887 9.39243E-01
 -1      1888 9.22264E-01
 -1      1889 6.90486E-01
 -1      1890 9.91408E-01
 -1      1891 1.11118E+00
 -1      1892 7.48076E-01
 -1      1893 1.39270E+00
 -1      1894 1.68097E+00
 -1      1895 1.09874E+00
 -1      1896 1.90380E+00
 -1      1897 2.45633E+00
 -1      1898 1.60308E+00
 -1      1899 2.65362E+00
 -1      1900 2.93025E+00
 -1      1901 2.02320E+00
 -1      1902 2.89219E+00
 -1      1903 2.87669E+00
 -1      1904 2.18243E+00
 -1      1905 2.92417E+00
 -1      1906 2.78602E+00
 -1      1907 2.19184E+00
 -1      1908 2.65736E+00
 -1      1909 2.11741E+00
 -1      1910 2.11065E+00
 -1      1911 1.88432E+00
 -1      1912 1.50987E+00
 -1      1913 1.74890E+00
 -1      1914 1.23117E+00
 -1      1915 1.01962E+00
 -1      1916 1.23711E+00
 -1      1917 8.82002E-01
 -1      1918 9.42926E-01
 -1      1919 8.20794E-01
 -1      1920 9.25201E-01
 -1      1921 8.97877E-01
 -1      1922 6.65453E-01
 -1      1923 9.88264E-01
 -1      1924 1.00011E+00
 -1      1925 7.38116E-01
 -1      1926 1.02167E+00
 -1      1927 9.58133E-01
 -1      1928 8.50067E-01
 -1      1929 9.23850E-01
 -1      1930 8.25203E-01
 -1      1931 8.37348E-01
 -1      1932 7.68515E-01
 -1      1933 6.85859E-01
 -1      1934 7.46376E-01
 -1      1935 6.38418E-01
 -1      1936 5.98594E-01
 -1      1937 6.42247E-01
 -1      1938 5.46462E-01
 -1      1939 5.15025E-01
 -1      1940 5.42674E-01
 -1      1941 4.71033E-01
 -1      1942 4.24918E-01
 -1      1943 4.46549E-01
 -1      1944 3.85908E-01
 -1      1945 3.49125E-01
 -1      1946 3.63547E-01
 -1      1947 3.02096E-01
 -1      1948 2.47440E-01
 -1      1949 1.91026E-01
 -1      1950 2.77508E-01
 -1      1951 1.40465E+00
 -1      1952 1.77768E+00
 -1      1953 1.52643E+00
 -1      1954 1.02623E+00
 -1      1955 1.28608E+00
 -1      1956 1.01733E+00
 -1      1957 8.13414E-01
 -1      1958 9.32930E-01
 -1      1959 8.05465E-01
 -1      1960 6.48777E-01
 -1      1961 7.34404E-01
 -1      1962 6.33159E-01
 -1      1963 5.27670E-01
 -1      1964 5.97021E-01
 -1      1965 5.02393E-01
 -1      1966 4.39215E-01
 -1      1967 4.95771E-01
 -1      1968 4.18738E-01
 -1      1969 3.63355E-01
 -1      1970 4.08835E-01
 -1      1971 3.56459E-01
 -1      1972 3.00726E-01
 -1      1973 3.36133E-01
 -1      1974 2.98857E-01
 -1      1975 2.55812E-01
 -1      1976 2.81722E-01
 -1      1977 2.52632E-01
 -1      1978 2.23167E-01
 -1      1979 2.40960E-01
 -1      1980 2.18777E-01
 -1      1981 2.04360E-01
 -1      1982 2.14100E-01
 -1      1983 1.94858E-01
 -1      1984 1.97202E-01
 -1      1985 1.99831E-01
 -1      1986 1.81262E-01
 -1      1987 2.00463E-01
 -1      1988 1.96780E-01
 -1      1989 1.76312E-01
 -1      1990 2.20634E-01
 -1      1991 2.11632E-01
 -1      1992 1.87059E-01
 -1      1993 2.70403E-01
 -1      1994 2.46126E-01
 -1      1995 2.23720E-01
 -1      1996 3.51142E-01
 -1      1997 3.19563E-01
 -1      1998 2.98372E-01
 -1      1999 4.44757E-01
 -1      2000 4.09658E-01
 -1      2001 4.06048E-01
 -1      2002 5.47182E-01
 -1      2003 5.11480E-01
 -1      2004 5.31287E-01
 -1      2005 6.61447E-01
 -1      2006 6.18171E-01
 -1      2007 6.68999E-01
 -1      2008 7.67392E-01
 -1      2009 7.28550E-01
 -1      2010 8.07092E-01
 -1      2011 8.44775E-01
 -1      2012 8.22923E-01
 -1      2013 9.29726E-01
 -1      2014 9.69302E-01
 -1      2015 8.89264E-01
 -1      2016 1.02975E+00
 -1      2017 1.04450E+00
 -1      2018 9.69302E-01
 -1      2019 1.07424E+00
 -1      2020 1.13777E+00
 -1      2021 1.03519E+00
 -1      2022 1.06493E+00
 -1      2023 1.08147E+00
 -1      2024 1.03970E+00
 -1      2025 9.57547E-01
 -1      2026 1.19217E+00
 -1      2027 1.01764E+00
 -1      2028 7.95639E-01
 -1      2029 1.40307E+00
 -1      2030 1.41472E+00
 -1      2031 9.54358E-01
 -1      2032 1.95799E+00
 -1      2033 1.77050E+00
 -1      2034 1.54434E+00
 -1      2035 2.38958E+00
 -1      2036 2.06102E+00
 -1      2037 2.01480E+00
 -1      2038 2.91118E+00
 -1      2039 2.39917E+00
 -1      2040 2.12742E+00
 -1      2041 3.27504E+00
 -1      2042 3.05499E+00
 -1      2043 2.28083E+00
 -1      2044 3.26765E+00
 -1      2045 3.28260E+00
 -1      2046 2.43220E+00
 -1      2047 2.37828E+00
 -1      2048 3.02268E+00
 -1      2049 2.19479E+00
 -1      2050 1.39331E+00
 -1      2051 1.96860E+00
 -1      2052 1.54014E+00
 -1      2053 9.06491E-01
 -1      2054 1.19317E+00
 -1      2055 9.30326E-01
 -1      2056 1.08637E+00
 -1      2057 9.99924E-01
 -1      2058 8.23617E-01
 -1      2059 1.25890E+00
 -1      2060 1.15296E+00
 -1      2061 9.83639E-01
 -1      2062 1.31106E+00
 -1      2063 1.28997E+00
 -1      2064 1.08130E+00
 -1      2065 1.22716E+00
 -1      2066 1.29577E+00
 -1      2067 1.09708E+00
 -1      2068 1.05762E+00
 -1      2069 1.16766E+00
 -1      2070 1.02229E+00
 -1      2071 9.01668E-01
 -1      2072 1.00075E+00
 -1      2073 9.05938E-01
 -1      2074 7.27982E-01
 -1      2075 8.27634E-01
 -1      2076 7.75041E-01
 -1      2077 5.70459E-01
 -1      2078 6.49246E-01
 -1      2079 6.22272E-01
 -1      2080 4.60219E-01
 -1      2081 5.16442E-01
 -1      2082 4.89519E-01
 -1      2083 3.34034E-01
 -1      2084 4.06325E-01
 -1      2085 3.81608E-01
 -1      2086 2.07092E-01
 -1      2087 2.72099E-01
 -1      2088 2.65779E-01
 -1      2089 1.64361E-01
 -1      2090 9.83443E-02
 -1      2091 1.24975E-01
 -1      2092 1.82059E-01
 -1      2093 1.83932E-01
 -1      2094 1.85901E-01
 -1      2095 1.83932E-01
 -1      2096 1.83932E-01
 -1      2097 2.23414E-01
 -1      2098 2.42985E-01
 -1      2099 1.39216E-01
 -1      2100 1.13483E-01
 -1      2101 1.43955E-01
 -1      2102 1.81247E-01
 -1      2103 1.64690E-01
 -1      2104 1.84569E-01
 -1      2105 1.98162E-01
 -1      2106 1.92682E-01
 -1      2107 2.21478E-01
 -1      2108 1.98162E-01
 -1      2109 1.98162E-01
 -1      2110 2.32913E-01
 -1      2111 1.95699E-01
 -1      2112 1.96405E-01
 -1      2113 2.31155E-01
 -1      2114 1.83840E-01
 -1      2115 1.93692E-01
 -1      2116 2.27391E-01
 -1      2117 1.49124E-01
 -1      2118 1.67535E-01
 -1      2119 2.09078E-01
 -1      2120 9.62699E-02
 -1      2121 1.20507E-01
 -1      2122 1.64155E-01
 -1      2123 1.23501E-01
 -1      2124 9.33484E-02
 -1      2125 1.32616E-01
 -1      2126 1.56297E-01
 -1      2127 1.56297E-01
 -1      2128 1.62490E-01
 -1      2129 3.63396E+01
 -1      2130 2.66190E+01
 -1      2131 3.15714E+01
 -1      2132 3.15714E+01
 -1      2133 2.94602E+01
 -1      2134 3.15714E+01
 -1      2135 1.74681E+01
 -1      2136 3.08370E+01
 -1      2137 9.99933E+00
 -1      2138 1.42189E+01
 -1      2139 1.03333E+00
 -1      2140 1.20686E+00
 -1      2141 9.88402E-01
 -1      2142 8.48789E-01
 -1      2143 1.09124E+01
 -1      2144 1.09137E+01
 -1      2145 1.12266E+01
 -1      2146 1.11216E+01
 -1      2147 1.12199E+01
 -1      2148 1.13031E+01
 -1      2149 1.03148E+01
 -1      2150 1.06684E+01
 -1      2151 9.68109E+00
 -1      2152 9.39389E+00
 -1      2153 1.85492E+01
 -1      2154 1.12872E+01
 -1      2155 2.48130E+01
 -1      2156 2.24071E+01
 -1      2157 3.13628E+01
 -1      2158 3.13628E+01
 -1      2159 3.30651E+01
 -1      2160 3.29284E+01
 -1      2161 3.30651E+01
 -1      2162 3.30651E+01
 -1      2163 3.04968E+01
 -1      2164 2.67878E+01
 -1      2165 3.61952E+01
 -1      2166 3.29933E+01
 -1      2167 2.44359E+01
 -1      2168 1.73108E+01
 -1      2169 3.04748E+01
 -1      2170 9.82222E+00
 -1      2171 1.39102E+01
 -1      2172 1.00468E+01
 -1      2173 9.43669E+00
 -1      2174 1.12070E+01
 -1      2175 1.12843E+01
 -1      2176 1.14876E+01
 -1      2177 1.13225E+01
 -1      2178 1.05100E+01
 -1      2179 1.12884E+01
 -1      2180 1.14195E+01
 -1      2181 1.01915E+01
 -1      2182 1.05309E+01
 -1      2183 9.13919E+00
 -1      2184 9.14516E+00
 -1      2185 1.70311E+01
 -1      2186 1.07930E+01
 -1      2187 3.23068E+01
 -1      2188 2.03675E+01
 -1      2189 2.86472E+01
 -1      2190 3.81994E+01
 -1      2191 3.13926E+01
 -1      2192 3.02955E+01
 -1      2193 3.21226E+01
 -1      2194 9.57521E+00
 -1      2195 8.95730E+00
 -1      2196 1.23645E+01
 -1      2197 2.91276E+00
 -1      2198 8.07332E+00
 -1      2199 8.36983E+00
 -1      2200 2.10630E+00
 -1      2201 2.94602E+01
 -1      2202 3.23014E+01
 -1      2203 1.73429E-01
 -1      2204 2.11164E+01
 -1      2205 3.02955E+01
 -1      2206 2.27546E+01
 -1      2207 1.35257E+01
 -1      2208 8.53542E+00
 -1      2209 7.92795E+00
 -1      2210 1.05574E+01
 -1      2211 9.15689E+00
 -1      2212 8.30486E+00
 -1      2213 2.12120E+01
 -1      2214 2.92441E+01
 -1      2215 3.06729E+01
 -1      2216 2.43957E+01
 -1      2217 3.44939E+01
 -1      2218 3.29284E+01
 -1      2219 2.48130E+01
 -1      2220 1.44053E+01
 -1      2221 8.94119E+00
 -1      2222 8.25594E+00
 -1      2223 9.72833E+00
 -1      2224 9.91758E+00
 -1      2225 1.02033E+01
 -1      2226 1.20909E+01
 -1      2227 9.73186E+00
 -1      2228 1.09513E+00
 -1      2229 1.48566E+00
 -1      2230 5.58160E-01
 -1      2231 5.89501E-01
 -1      2232 6.01541E-01
 -1      2233 6.48189E-01
 -1      2234 4.97364E-01
 -1      2235 5.10811E-01
 -1      2236 5.09205E-01
 -1      2237 5.45147E-01
 -1      2238 5.23549E-01
 -1      2239 4.43952E-01
 -1      2240 5.92789E-01
 -1      2241 5.59701E-01
 -1      2242 4.71243E-01
 -1      2243 6.51960E-01
 -1      2244 6.04610E-01
 -1      2245 4.97618E-01
 -1      2246 7.19474E-01
 -1      2247 6.51960E-01
 -1      2248 5.09438E-01
 -1      2249 8.79239E-01
 -1      2250 7.66065E-01
 -1      2251 5.56029E-01
 -1      2252 8.98762E-01
 -1      2253 1.01733E+00
 -1      2254 9.76558E-01
 -1      2255 1.27049E+00
 -1      2256 1.04003E+00
 -1      2257 5.69690E+00
 -1      2258 6.73893E+00
 -1      2259 9.92344E-01
 -1      2260 8.12688E-01
 -1      2261 7.56640E-01
 -1      2262 7.56273E-01
 -1      2263 6.31397E-01
 -1      2264 6.52537E-01
 -1      2265 5.75394E-01
 -1      2266 5.18182E-01
 -1      2267 5.40119E-01
 -1      2268 4.68766E-01
 -1      2269 4.21957E-01
 -1      2270 4.34700E-01
 -1      2271 3.97661E-01
 -1      2272 3.56963E-01
 -1      2273 3.60988E-01
 -1      2274 3.32875E-01
 -1      2275 2.99137E-01
 -1      2276 3.12603E-01
 -1      2277 2.76239E-01
 -1      2278 2.49260E-01
 -1      2279 2.65617E-01
 -1      2280 2.28512E-01
 -1      2281 2.05615E-01
 -1      2282 2.21971E-01
 -1      2283 1.87212E-01
 -1      2284 1.69308E-01
 -1      2285 1.82820E-01
 -1      2286 1.52933E-01
 -1      2287 1.39805E-01
 -1      2288 1.48041E-01
 -1      2289 1.28406E-01
 -1      2290 1.29091E-01
 -1      2291 1.20267E-01
 -1      2292 1.37339E-01
 -1      2293 1.49365E-01
 -1      2294 1.17116E-01
 -1      2295 1.60693E-01
 -1      2296 1.77074E-01
 -1      2297 1.36692E-01
 -1      2298 2.11631E-01
 -1      2299 2.37349E-01
 -1      2300 1.82578E-01
 -1      2301 2.77287E-01
 -1      2302 3.21250E-01
 -1      2303 2.57073E-01
 -1      2304 3.66500E-01
 -1      2305 4.15414E-01
 -1      2306 3.42261E-01
 -1      2307 4.64806E-01
 -1      2308 5.15863E-01
 -1      2309 4.36903E-01
 -1      2310 5.66554E-01
 -1      2311 6.14308E-01
 -1      2312 5.36986E-01
 -1      2313 6.61140E-01
 -1      2314 7.01624E-01
 -1      2315 6.34510E-01
 -1      2316 7.39028E-01
 -1      2317 7.83486E-01
 -1      2318 7.18747E-01
 -1      2319 8.29709E-01
 -1      2320 8.67285E-01
 -1      2321 8.02374E-01
 -1      2322 9.15501E-01
 -1      2323 9.07559E-01
 -1      2324 8.96814E-01
 -1      2325 9.30472E-01
 -1      2326 8.46449E-01
 -1      2327 9.67944E-01
 -1      2328 8.75045E-01
 -1      2329 8.63490E-01
 -1      2330 1.01945E+00
 -1      2331 9.62610E-01
 -1      2332 1.03175E+00
 -1      2333 1.14717E+00
 -1      2334 1.09181E+00
 -1      2335 1.37333E+00
 -1      2336 1.30635E+00
 -1      2337 1.48848E+00
 -1      2338 1.71131E+00
 -1      2339 1.48156E+00
 -1      2340 1.82579E+00
 -1      2341 2.02308E+00
 -1      2342 1.71119E+00
 -1      2343 2.40699E+00
 -1      2344 2.36893E+00
 -1      2345 2.20959E+00
 -1      2346 2.39768E+00
 -1      2347 2.44516E+00
 -1      2348 2.62225E+00
 -1      2349 2.12641E+00
 -1      2350 1.99774E+00
 -1      2351 2.33225E+00
 -1      2352 1.77302E+00
 -1      2353 1.53994E+00
 -1      2354 1.78878E+00
 -1      2355 1.47019E+00
 -1      2356 1.19149E+00
 -1      2357 1.49432E+00
 -1      2358 1.11739E+00
 -1      2359 9.79771E-01
 -1      2360 1.35047E+00
 -1      2361 9.00091E-01
 -1      2362 8.82366E-01
 -1      2363 1.19668E+00
 -1      2364 8.00432E-01
 -1      2365 8.90820E-01
 -1      2366 1.03507E+00
 -1      2367 8.75187E-01
 -1      2368 8.96751E-01
 -1      2369 9.37504E-01
 -1      2370 8.49294E-01
 -1      2371 8.15010E-01
 -1      2372 8.74414E-01
 -1      2373 7.60094E-01
 -1      2374 7.03406E-01
 -1      2375 7.72040E-01
 -1      2376 6.63785E-01
 -1      2377 6.16345E-01
 -1      2378 6.77504E-01
 -1      2379 5.66680E-01
 -1      2380 5.14547E-01
 -1      2381 5.88218E-01
 -1      2382 4.59827E-01
 -1      2383 4.15835E-01
 -1      2384 4.83833E-01
 -1      2385 3.62910E-01
 -1      2386 3.23900E-01
 -1      2387 3.76188E-01
 -1      2388 5.54149E-01
 -1      2389 6.33159E-01
 -1      2390 4.50637E-01
 -1      2391 5.02393E-01
 -1      2392 5.02393E-01
 -1      2393 3.86838E-01
 -1      2394 4.18738E-01
 -1      2395 4.18738E-01
 -1      2396 3.26079E-01
 -1      2397 3.56459E-01
 -1      2398 3.56459E-01
 -1      2399 2.71636E-01
 -1      2400 2.98857E-01
 -1      2401 2.98857E-01
 -1      2402 2.29203E-01
 -1      2403 2.48206E-01
 -1      2404 2.48206E-01
 -1      2405 1.94681E-01
 -1      2406 2.09533E-01
 -1      2407 2.05107E-01
 -1      2408 1.69229E-01
 -1      2409 1.78296E-01
 -1      2410 1.69052E-01
 -1      2411 1.50804E-01
 -1      2412 1.55333E-01
 -1      2413 1.38771E-01
 -1      2414 1.57583E-01
 -1      2415 1.58005E-01
 -1      2416 1.32075E-01
 -1      2417 1.81455E-01
 -1      2418 1.70286E-01
 -1      2419 1.51979E-01
 -1      2420 2.33938E-01
 -1      2421 2.08446E-01
 -1      2422 1.91672E-01
 -1      2423 3.27502E-01
 -1      2424 2.78342E-01
 -1      2425 2.63068E-01
 -1      2426 4.38599E-01
 -1      2427 3.80083E-01
 -1      2428 3.60053E-01
 -1      2429 5.65902E-01
 -1      2430 4.99179E-01
 -1      2431 4.73214E-01
 -1      2432 7.03531E-01
 -1      2433 6.32542E-01
 -1      2434 6.00434E-01
 -1      2435 8.38618E-01
 -1      2436 7.71514E-01
 -1      2437 7.35057E-01
 -1      2438 9.54845E-01
 -1      2439 8.99314E-01
 -1      2440 8.63737E-01
 -1      2441 1.04558E+00
 -1      2442 1.00109E+00
 -1      2443 9.70678E-01
 -1      2444 1.10165E+00
 -1      2445 1.10165E+00
 -1      2446 1.07299E+00
 -1      2447 1.14565E+00
 -1      2448 1.15496E+00
 -1      2449 1.18238E+00
 -1      2450 1.05731E+00
 -1      2451 1.15538E+00
 -1      2452 1.24541E+00
 -1      2453 9.96810E-01
 -1      2454 1.06065E+00
 -1      2455 1.25848E+00
 -1      2456 1.47729E+00
 -1      2457 1.25474E+00
 -1      2458 1.51974E+00
 -1      2459 1.76901E+00
 -1      2460 1.40158E+00
 -1      2461 1.70196E+00
 -1      2462 2.10554E+00
 -1      2463 2.00251E+00
 -1      2464 1.85975E+00
 -1      2465 2.56477E+00
 -1      2466 2.55518E+00
 -1      2467 2.54289E+00
 -1      2468 3.45208E+00
 -1      2469 3.30826E+00
 -1      2470 3.73601E+00
 -1      2471 2.93524E+00
 -1      2472 2.92769E+00
 -1      2473 3.95512E+00
 -1      2474 1.91506E+00
 -1      2475 2.16002E+00
 -1      2476 2.65551E+00
 -1      2477 1.43520E+00
 -1      2478 1.84488E+00
 -1      2479 1.81011E+00
 -1      2480 1.12229E+00
 -1      2481 1.32243E+00
 -1      2482 1.62716E+00
 -1      2483 1.07454E+00
 -1      2484 9.81111E-01
 -1      2485 1.37321E+00
 -1      2486 1.13391E+00
 -1      2487 1.06732E+00
 -1      2488 1.22481E+00
 -1      2489 1.13233E+00
 -1      2490 1.10126E+00
 -1      2491 1.18494E+00
 -1      2492 1.05215E+00
 -1      2493 1.06744E+00
 -1      2494 1.08740E+00
 -1      2495 9.49110E-01
 -1      2496 1.00860E+00
 -1      2497 9.78965E-01
 -1      2498 8.32630E-01
 -1      2499 8.89493E-01
 -1      2500 8.75802E-01
 -1      2501 6.89451E-01
 -1      2502 7.63485E-01
 -1      2503 7.47040E-01
 -1      2504 5.37851E-01
 -1      2505 6.16587E-01
 -1      2506 6.05031E-01
 -1      2507 4.13888E-01
 -1      2508 4.67905E-01
 -1      2509 4.62220E-01
 -1      2510 3.06274E-01
 -1      2511 3.60168E-01
 -1      2512 3.38554E-01
 -1      2513 2.85350E-01
 -1      2514 2.38970E-01
 -1      2515 2.13495E-01
 -1      2516 2.71238E-01
 -1      2517 2.59803E-01
 -1      2518 2.88729E-01
 -1      2519 1.88711E-01
 -1      2520 2.45795E-01
 -1      2521 1.83193E-01
 -1      2522 1.68054E-01
 -1      2523 2.27949E-01
 -1      2524 2.37594E-01
 -1      2525 2.71238E-01
 -1      2526 2.71238E-01
 -1      2527 3.09563E-01
 -1      2528 2.69258E-01
 -1      2529 2.71016E-01
 -1      2530 3.09341E-01
 -1      2531 2.67252E-01
 -1      2532 2.69258E-01
 -1      2533 3.09119E-01
 -1      2534 2.42042E-01
 -1      2535 2.58347E-01
 -1      2536 3.00215E-01
 -1      2537 1.85330E-01
 -1      2538 2.13948E-01
 -1      2539 2.63216E-01
 -1      2540 1.75075E-01
 -1      2541 1.77997E-01
 -1      2542 2.27789E-01
 -1      2543 2.07871E-01
 -1      2544 1.75075E-01
 -1      2545 2.20456E-01
 -1      2546 3.23014E+01
 -1      2547 3.23014E+01
 -1      2548 1.40174E+01
 -1      2549 1.95200E+01
 -1      2550 7.12168E-01
 -1      2551 8.05465E-01
 -1      2552 6.33159E-01
 -1      2553 7.54120E+00
 -1      2554 6.20267E+00
 -1      2555 2.12882E-01
 -1      2556 2.69997E+01
 -1      2557 2.53514E+01
 -1      2558 2.32624E+01
 -1      2559 2.61036E+01
 -1      2560 1.61634E+01
 -1      2561 3.21226E+01
 -1      2562 3.19438E+01
 -1      2563 2.69997E+01
 -1      2564 3.21226E+01
 -1      2565 7.85367E+00
 -1      2566 6.61612E+00
 -1      2567 5.21903E-01
 -1      2568 5.43803E-01
 -1      2569 4.70967E-01
 -1      2570 4.43912E-01
 -1      2571 9.25371E+00
 -1      2572 9.17718E+00
 -1      2573 8.72969E+00
 -1      2574 1.21302E+01
 -1      2575 8.56268E+00
 -1      2576 8.35347E+00
 -1      2577 7.67763E+00
 -1      2578 8.22915E+00
 -1      2579 5.85956E+00
 -1      2580 6.78044E+00
 -1      2581 5.28126E+00
 -1      2582 8.43853E+00
 -1      2583 6.83240E+00
 -1      2584 1.35217E+01
 -1      2585 9.66375E+00
 -1      2586 2.23961E+01
 -1      2587 1.58463E+01
 -1      2588 1.11047E+01
 -1      2589 2.79050E+01
 -1      2590 2.63394E+01
 -1      2591 3.44939E+01
 -1      2592 3.44939E+01
 -1      2593 2.79050E+01
 -1      2594 2.38068E+01
 -1      2595 2.13103E+01
 -1      2596 7.59769E+00
 -1      2597 8.35523E+00
 -1      2598 1.42857E+01
 -1      2599 2.00062E+01
 -1      2600 1.68806E+01
 -1      2601 6.68104E+00
 -1      2602 7.06656E+00
 -1      2603 8.86487E+00
 -1      2604 8.74936E+00
 -1      2605 9.20142E+00
 -1      2606 9.26946E+00
 -1      2607 5.81191E+00
 -1      2608 6.85829E+00
 -1      2609 5.48166E+00
 -1      2610 7.86318E+00
 -1      2611 6.20933E+00
 -1      2612 5.13967E+00
 -1      2613 1.26849E+01
 -1      2614 9.34854E+00
 -1      2615 2.17337E+01
 -1      2616 1.58411E+01
 -1      2617 1.16640E+01
 -1      2618 1.67792E+00
 -1      2619 1.30828E+00
 -1      2620 8.42115E-01
 -1      2621 9.73051E-01
 -1      2622 1.62329E+00
 -1      2623 1.76640E+00
 -1      2624 1.32730E+00
 -1      2625 1.19199E+00
 -1      2626 8.80734E+00
 -1      2627 1.20565E+01
 -1      2628 7.61307E+00
 -1      2629 5.09404E-01
 -1      2630 6.48189E-01
 -1      2631 7.10004E-01
 -1      2632 8.05465E-01
 -1      2633 1.24274E+00
 -1      2634 6.43092E+00
 -1      2635 1.84379E+01
 -1      2636 2.63909E-01
 -1      2637 1.04602E+01
 -1      2638 2.63909E-01
 -1      2639 5.37782E+00
 -1      2640 2.45746E+01
 -1      2641 2.45746E+01
 -1      2642 1.83768E+01
 -1      2643 7.02245E+00
 -1      2644 9.66124E-01
 -1      2645 6.18631E+00
 -1      2646 2.18464E-01
 -1      2647 2.00867E-01
 -1      2648 2.13453E-01
 -1      2649 2.65493E-01
 -1      2650 6.20858E+00
 -1      2651 8.65768E+00
 -1      2652 7.36970E+00
 -1      2653 6.52351E+00
 -1      2654 7.50886E+00
 -1      2655 1.09245E+01
 -1      2656 2.75371E+01
 -1      2657 2.75371E+01
 -1      2658 2.37161E+01
 -1      2659 2.21968E+01
 -1      2660 1.32300E+01
 -1      2661 1.71734E+01
 -1      2662 5.35690E+00
 -1      2663 2.37666E+01
 -1      2664 4.86827E+00
 -1      2665 7.10586E+00
 -1      2666 6.86116E-01
 -1      2667 7.63915E-01
 -1      2668 6.70765E-01
 -1      2669 4.85516E-01
 -1      2670 7.20301E+00
 -1      2671 7.55496E+00
 -1      2672 2.66720E-01
 -1      2673 2.64856E-01
 -1      2674 4.21979E-01
 -1      2675 4.07425E-01
 -1      2676 3.99813E-01
 -1      2677 3.87075E-01
 -1      2678 3.50549E-01
 -1      2679 4.35330E-01
 -1      2680 4.35330E-01
 -1      2681 4.69717E-01
 -1      2682 4.23127E-01
 -1      2683 3.49018E-01
 -1      2684 7.21449E-01
 -1      2685 7.99245E-01
 -1      2686 5.66066E+00
 -1      2687 4.84839E+00
 -1      2688 8.28487E-01
 -1      2689 1.72514E+01
 -1      2690 1.36336E+01
 -1      2691 5.55707E-01
 -1      2692 4.99292E-01
 -1      2693 4.92644E-01
 -1      2694 4.36641E-01
 -1      2695 3.95814E-01
 -1      2696 4.15870E-01
 -1      2697 3.66454E-01
 -1      2698 3.68395E-01
 -1      2699 3.40935E-01
 -1      2700 3.16638E-01
 -1      2701 3.22105E-01
 -1      2702 2.90595E-01
 -1      2703 2.66507E-01
 -1      2704 2.70543E-01
 -1      2705 2.50842E-01
 -1      2706 2.27944E-01
 -1      2707 2.28835E-01
 -1      2708 2.11583E-01
 -1      2709 1.90836E-01
 -1      2710 1.96809E-01
 -1      2711 1.74226E-01
 -1      2712 1.55823E-01
 -1      2713 1.63839E-01
 -1      2714 1.39291E-01
 -1      2715 1.22915E-01
 -1      2716 1.30697E-01
 -1      2717 1.06275E-01
 -1      2718 9.48768E-02
 -1      2719 9.75253E-02
 -1      2720 9.27368E-02
 -1      2721 1.00985E-01
 -1      2722 7.87454E-02
 -1      2723 1.15643E-01
 -1      2724 1.26971E-01
 -1      2725 9.12633E-02
 -1      2726 1.56946E-01
 -1      2727 1.91503E-01
 -1      2728 1.35896E-01
 -1      2729 2.26507E-01
 -1      2730 2.66445E-01
 -1      2731 2.00875E-01
 -1      2732 3.07267E-01
 -1      2733 3.52517E-01
 -1      2734 2.76700E-01
 -1      2735 3.99636E-01
 -1      2736 4.49028E-01
 -1      2737 3.64642E-01
 -1      2738 5.02346E-01
 -1      2739 5.53037E-01
 -1      2740 4.65079E-01
 -1      2741 6.11453E-01
 -1      2742 6.58286E-01
 -1      2743 5.76813E-01
 -1      2744 7.19017E-01
 -1      2745 7.56421E-01
 -1      2746 6.95961E-01
 -1      2747 8.13819E-01
 -1      2748 8.60042E-01
 -1      2749 8.14089E-01
 -1      2750 9.37204E-01
 -1      2751 9.85421E-01
 -1      2752 9.48648E-01
 -1      2753 1.09185E+00
 -1      2754 1.11476E+00
 -1      2755 1.13224E+00
 -1      2756 1.21311E+00
 -1      2757 1.24171E+00
 -1      2758 1.33702E+00
 -1      2759 1.33373E+00
 -1      2760 1.43285E+00
 -1      2761 1.52739E+00
 -1      2762 1.65251E+00
 -1      2763 1.71257E+00
 -1      2764 1.83907E+00
 -1      2765 1.61567E+00
 -1      2766 1.73082E+00
 -1      2767 1.96183E+00
 -1      2768 2.08743E+00
 -1      2769 2.20191E+00
 -1      2770 2.22154E+00
 -1      2771 3.11379E+00
 -1      2772 3.49770E+00
 -1      2773 3.49003E+00
 -1      2774 3.99882E+00
 -1      2775 4.02756E+00
 -1      2776 4.90302E+00
 -1      2777 3.49307E+00
 -1      2778 3.17432E+00
 -1      2779 4.86964E+00
 -1      2780 2.39465E+00
 -1      2781 2.16993E+00
 -1      2782 3.55547E+00
 -1      2783 2.32510E+00
 -1      2784 2.25536E+00
 -1      2785 2.93097E+00
 -1      2786 1.81989E+00
 -1      2787 1.74579E+00
 -1      2788 2.65068E+00
 -1      2789 1.47668E+00
 -1      2790 1.39700E+00
 -1      2791 1.94610E+00
 -1      2792 1.28307E+00
 -1      2793 1.20114E+00
 -1      2794 1.56306E+00
 -1      2795 1.10708E+00
 -1      2796 1.09144E+00
 -1      2797 1.35508E+00
 -1      2798 9.80011E-01
 -1      2799 9.32554E-01
 -1      2800 1.14959E+00
 -1      2801 8.37418E-01
 -1      2802 7.82502E-01
 -1      2803 9.43015E-01
 -1      2804 7.23012E-01
 -1      2805 6.83391E-01
 -1      2806 7.88389E-01
 -1      2807 6.18312E-01
 -1      2808 5.68647E-01
 -1      2809 6.63821E-01
 -1      2810 5.05483E-01
 -1      2811 4.50764E-01
 -1      2812 5.35578E-01
 -1      2813 3.81357E-01
 -1      2814 3.28431E-01
 -1      2815 4.03007E-01
 -1      2816 3.59869E-01
 -1      2817 3.91768E-01
 -1      2818 5.75309E+00
 -1      2819 4.85740E+00
 -1      2820 4.26509E-01
 -1      2821 4.78265E-01
 -1      2822 3.67640E-01
 -1      2823 2.58433E-01
 -1      2824 2.85654E-01
 -1      2825 2.16232E-01
 -1      2826 2.39661E-01
 -1      2827 2.26458E-01
 -1      2828 1.78477E-01
 -1      2829 1.98147E-01
 -1      2830 1.89602E-01
 -1      2831 1.44975E-01
 -1      2832 1.61360E-01
 -1      2833 1.54400E-01
 -1      2834 1.14665E-01
 -1      2835 1.28562E-01
 -1      2836 1.20869E-01
 -1      2837 1.16814E-01
 -1      2838 1.09613E-01
 -1      2839 9.94039E-02
 -1      2840 1.37634E-01
 -1      2841 1.24932E-01
 -1      2842 1.02469E-01
 -1      2843 1.94767E-01
 -1      2844 1.67777E-01
 -1      2845 1.40729E-01
 -1      2846 2.77494E-01
 -1      2847 2.33089E-01
 -1      2848 2.09193E-01
 -1      2849 3.75742E-01
 -1      2850 3.23161E-01
 -1      2851 2.93182E-01
 -1      2852 4.90319E-01
 -1      2853 4.29740E-01
 -1      2854 3.92847E-01
 -1      2855 6.19715E-01
 -1      2856 5.53075E-01
 -1      2857 5.09601E-01
 -1      2858 7.58611E-01
 -1      2859 6.90628E-01
 -1      2860 6.43269E-01
 -1      2861 8.96046E-01
 -1      2862 8.35349E-01
 -1      2863 7.90920E-01
 -1      2864 1.01976E+00
 -1      2865 9.73517E-01
 -1      2866 9.45130E-01
 -1      2867 1.14452E+00
 -1      2868 1.08845E+00
 -1      2869 1.09129E+00
 -1      2870 1.30826E+00
 -1      2871 1.25494E+00
 -1      2872 1.27040E+00
 -1      2873 1.45990E+00
 -1      2874 1.45017E+00
 -1      2875 1.52274E+00
 -1      2876 1.58727E+00
 -1      2877 1.58393E+00
 -1      2878 1.78869E+00
 -1      2879 1.89439E+00
 -1      2880 1.63646E+00
 -1      2881 1.96191E+00
 -1      2882 2.51993E+00
 -1      2883 2.59563E+00
 -1      2884 2.71235E+00
 -1      2885 2.24657E+00
 -1      2886 2.01307E+00
 -1      2887 2.90675E+00
 -1      2888 3.22849E+00
 -1      2889 2.77885E+00
 -1      2890 2.93217E+00
 -1      2891 4.47950E+00
 -1      2892 3.73601E+00
 -1      2893 3.97198E+00
 -1      2894 2.65551E+00
 -1      2895 3.43073E+00
 -1      2896 2.15793E+00
 -1      2897 2.22811E+00
 -1      2898 3.00333E+00
 -1      2899 2.01634E+00
 -1      2900 2.12911E+00
 -1      2901 2.54711E+00
 -1      2902 1.63199E+00
 -1      2903 1.77317E+00
 -1      2904 2.27512E+00
 -1      2905 1.52408E+00
 -1      2906 1.53131E+00
 -1      2907 1.93126E+00
 -1      2908 1.34452E+00
 -1      2909 1.37717E+00
 -1      2910 1.68367E+00
 -1      2911 1.13533E+00
 -1      2912 1.20022E+00
 -1      2913 1.39246E+00
 -1      2914 1.00195E+00
 -1      2915 1.04550E+00
 -1      2916 1.15832E+00
 -1      2917 8.65737E-01
 -1      2918 9.25354E-01
 -1      2919 9.91885E-01
 -1      2920 7.13908E-01
 -1      2921 7.83052E-01
 -1      2922 8.32605E-01
 -1      2923 5.60934E-01
 -1      2924 6.33799E-01
 -1      2925 6.69811E-01
 -1      2926 4.16805E-01
 -1      2927 4.86751E-01
 -1      2928 5.15519E-01
 -1      2929 3.11493E-01
 -1      2930 3.65213E-01
 -1      2931 3.89744E-01
 -1      2932 2.93379E-01
 -1      2933 8.05511E+00
 -1      2934 1.00159E+01
 -1      2935 3.57529E-01
 -1      2936 3.57751E-01
 -1      2937 2.71859E-01
 -1      2938 2.13453E-01
 -1      2939 2.77028E-01
 -1      2940 3.50975E-01
 -1      2941 3.30142E-01
 -1      2942 3.52488E-01
 -1      2943 3.52488E-01
 -1      2944 4.00898E-01
 -1      2945 3.57751E-01
 -1      2946 3.57751E-01
 -1      2947 3.99163E-01
 -1      2948 4.05939E-01
 -1      2949 3.43584E-01
 -1      2950 3.52488E-01
 -1      2951 3.95857E-01
 -1      2952 2.92520E-01
 -1      2953 3.20614E-01
 -1      2954 3.72887E-01
 -1      2955 2.46143E-01
 -1      2956 2.53477E-01
 -1      2957 3.10874E-01
 -1      2958 4.54781E+00
 -1      2959 4.61273E+00
 -1      2960 7.28098E+00
 -1      2961 5.79562E+00
 -1      2962 4.16560E+00
 -1      2963 3.76818E+00
 -1      2964 4.42413E+00
 -1      2965 5.09532E+00
 -1      2966 4.12249E+00
 -1      2967 1.85951E+01
 -1      2968 2.16804E+01
 -1      2969 5.73473E+00
 -1      2970 6.75929E+00
 -1      2971 1.12456E+01
 -1      2972 1.49881E+01
 -1      2973 5.12199E-01
 -1      2974 5.91208E-01
 -1      2975 4.36315E-01
 -1      2976 3.04058E-01
 -1      2977 3.34437E-01
 -1      2978 3.07468E-01
 -1      2979 2.63633E-01
 -1      2980 6.03812E-01
 -1      2981 5.56124E-01
 -1      2982 4.02879E-01
 -1      2983 6.16749E-01
 -1      2984 7.10046E-01
 -1      2985 5.32732E-01
 -1      2986 4.95788E-01
 -1      2987 4.79898E+00
 -1      2988 6.86740E+00
 -1      2989 4.35330E-01
 -1      2990 4.23509E-01
 -1      2991 3.59691E-01
 -1      2992 3.61221E-01
 -1      2993 4.22586E-01
 -1      2994 4.34625E-01
 -1      2995 2.20456E-01
 -1      2996 3.93356E+00
 -1      2997 4.83075E+00
 -1      2998 4.38703E+00
 -1      2999 3.67198E+00
 -1      3000 1.02629E+01
 -1      3001 7.93836E+00
 -1      3002 4.25011E+00
 -1      3003 3.74434E+00
 -1      3004 4.18081E+00
 -1      3005 2.42417E+01
 -1      3006 1.76527E+01
 -1      3007 6.80279E+00
 -1      3008 6.39820E+00
 -1      3009 5.04702E+00
 -1      3010 7.13587E+00
 -1      3011 5.91065E+00
 -1      3012 1.26521E+01
 -1      3013 1.64527E+01
 -1      3014 8.16542E+00
 -1      3015 1.03209E+01
 -1      3016 5.54253E+00
 -1      3017 7.20566E+00
 -1      3018 4.53870E+00
 -1      3019 5.27810E+00
 -1      3020 3.56463E+00
 -1      3021 6.22999E-01
 -1      3022 5.85212E-01
 -1      3023 3.84696E-01
 -1      3024 4.13863E-01
 -1      3025 1.17671E+01
 -1      3026 8.61095E+00
 -1      3027 7.24438E+00
 -1      3028 6.62988E+00
 -1      3029 5.29196E+00
 -1      3030 4.34625E-01
 -1      3031 4.34625E-01
 -1      3032 3.59847E-01
 -1      3033 3.42689E-01
 -1      3034 3.86827E-01
 -1      3035 3.99525E-01
 -1      3036 1.35101E+01
 -1      3037 3.72445E+00
 -1      3038 5.73377E-01
 -1      3039 1.94014E+01
 -1      3040 1.45971E+01
 -1      3041 3.51367E-01
 -1      3042 2.89121E-01
 -1      3043 2.58819E-01
 -1      3044 1.05806E+01
 -1      3045 4.09232E+00
 -1      3046 5.37034E+00
 -1      3047 5.37034E+00
 -1      3048 4.84596E+00
 -1      3049 6.42317E+00
 -1      3050 2.31580E-01
 -1      3051 2.52237E-01
 -1      3052 2.97011E-01
 -1      3053 2.83108E-01
 -1      3054 7.38412E+00
 -1      3055 4.71252E+00
 -1      3056 6.60209E+00
 -1      3057 2.20456E-01
 -1      3058 1.51282E+01
 -1      3059 1.35992E+01
 -1      3060 1.02105E+01
 -1      3061 2.43455E+01
 -1      3062 6.29405E+00
 -1      3063 8.84060E+00
 -1      3064 1.03653E+01
 -1      3065 7.19894E+00
 -1      3066 1.01660E+01
 -1      3067 1.43666E+01
 -1      3068 2.31150E+01
 -1      3069 2.29362E+01
 -1      3070 1.53379E+01
 -1      3071 1.85446E+01
 -1      3072 4.67623E+00
 -1      3073 4.06993E-01
 -1      3074 4.21350E-01
 -1      3075 3.58612E-01
 -1      3076 3.49908E-01
 -1      3077 9.89302E+00
 -1      3078 6.25904E+00
 -1      3079 1.58751E+01
 -1      3080 2.28320E+01
 -1      3081 1.25797E+01
 -1      3082 4.40476E-01
 -1      3083 1.38536E+01
 -1      3084 2.15804E+01
 -1      3085 1.23941E+01
 -1      3086 2.27465E-01
 -1      3087 2.27465E-01
 -1      3088 2.53153E-01
 -1      3089 2.84037E-01
 -1      3090 5.58055E+00
 -1      3091 1.20259E+01
 -1      3092 9.87587E+00
 -1      3093 2.88385E-01
 -1      3094 3.00588E-01
 -1      3095 5.38754E+00
 -1      3096 4.58505E+00
 -1      3097 7.31466E+00
 -1      3098 5.98469E+00
 -1      3099 3.28615E-01
 -1      3100 3.28198E-01
 -1      3101 7.63134E+00
 -1      3102 9.96251E+00
 -1      3103 3.23593E-01
 -1      3104 3.02822E-01
 -1      3105 2.98756E-01
 -1      3106 2.73237E-01
 -1      3107 2.53954E-01
 -1      3108 2.61152E-01
 -1      3109 2.35109E-01
 -1      3110 2.37804E-01
 -1      3111 2.19041E-01
 -1      3112 2.03376E-01
 -1      3113 2.09651E-01
 -1      3114 1.89364E-01
 -1      3115 1.73003E-01
 -1      3116 1.79571E-01
 -1      3117 1.59390E-01
 -1      3118 1.42780E-01
 -1      3119 1.51945E-01
 -1      3120 1.27299E-01
 -1      3121 1.10767E-01
 -1      3122 1.22850E-01
 -1      3123 9.39380E-02
 -1      3124 7.72980E-02
 -1      3125 9.05399E-02
 -1      3126 7.03307E-02
 -1      3127 6.81907E-02
 -1      3128 6.67433E-02
 -1      3129 7.54954E-02
 -1      3130 9.01532E-02
 -1      3131 6.70807E-02
 -1      3132 1.14756E-01
 -1      3133 1.44731E-01
 -1      3134 9.89877E-02
 -1      3135 1.76043E-01
 -1      3136 2.11046E-01
 -1      3137 1.54902E-01
 -1      3138 2.47454E-01
 -1      3139 2.88276E-01
 -1      3140 2.22622E-01
 -1      3141 3.29827E-01
 -1      3142 3.76947E-01
 -1      3143 3.00580E-01
 -1      3144 4.22739E-01
 -1      3145 4.76057E-01
 -1      3146 3.87924E-01
 -1      3147 5.37466E-01
 -1      3148 5.95882E-01
 -1      3149 4.95126E-01
 -1      3150 6.71112E-01
 -1      3151 7.31844E-01
 -1      3152 6.31765E-01
 -1      3153 8.21465E-01
 -1      3154 8.78862E-01
 -1      3155 7.96617E-01
 -1      3156 9.89586E-01
 -1      3157 1.06675E+00
 -1      3158 9.96961E-01
 -1      3159 1.18430E+00
 -1      3160 1.29073E+00
 -1      3161 1.22524E+00
 -1      3162 1.47292E+00
 -1      3163 1.57127E+00
 -1      3164 1.52498E+00
 -1      3165 1.81862E+00
 -1      3166 1.91064E+00
 -1      3167 1.95452E+00
 -1      3168 2.36466E+00
 -1      3169 2.58432E+00
 -1      3170 2.65589E+00
 -1      3171 2.05873E+00
 -1      3172 1.96183E+00
 -1      3173 2.58432E+00
 -1      3174 3.18044E+00
 -1      3175 4.09232E+00
 -1      3176 5.04702E+00
 -1      3177 5.54813E+00
 -1      3178 6.11505E+00
 -1      3179 5.58055E+00
 -1      3180 4.33514E+00
 -1      3181 3.55547E+00
 -1      3182 3.71064E+00
 -1      3183 3.11048E+00
 -1      3184 2.67501E+00
 -1      3185 1.97213E+00
 -1      3186 1.85821E+00
 -1      3187 1.62618E+00
 -1      3188 1.53212E+00
 -1      3189 2.03525E+00
 -1      3190 1.31624E+00
 -1      3191 1.20481E+00
 -1      3192 1.58734E+00
 -1      3193 1.08350E+00
 -1      3194 9.88359E-01
 -1      3195 1.25015E+00
 -1      3196 8.69357E-01
 -1      3197 8.09867E-01
 -1      3198 1.00984E+00
 -1      3199 7.06773E-01
 -1      3200 6.41694E-01
 -1      3201 7.87741E-01
 -1      3202 5.57155E-01
 -1      3203 4.93991E-01
 -1      3204 6.00107E-01
 -1      3205 4.15510E-01
 -1      3206 3.46103E-01
 -1      3207 2.96541E-01
 -1      3208 4.37087E-01
 -1      3209 5.00250E+00
 -1      3210 6.19021E+00
 -1      3211 1.61974E-01
 -1      3212 1.80059E-01
 -1      3213 1.95820E-01
 -1      3214 2.14592E-01
 -1      3215 1.68193E-01
 -1      3216 9.47863E-02
 -1      3217 1.11199E-01
 -1      3218 7.23437E-02
 -1      3219 7.73960E-02
 -1      3220 6.77261E-02
 -1      3221 8.70111E-02
 -1      3222 7.88934E-02
 -1      3223 5.68856E-02
 -1      3224 1.43204E-01
 -1      3225 1.13062E-01
 -1      3226 8.94859E-02
 -1      3227 2.12327E-01
 -1      3228 1.74005E-01
 -1      3229 1.46337E-01
 -1      3230 2.94910E-01
 -1      3231 2.49242E-01
 -1      3232 2.14054E-01
 -1      3233 3.94107E-01
 -1      3234 3.40110E-01
 -1      3235 2.96170E-01
 -1      3236 5.13255E-01
 -1      3237 4.50500E-01
 -1      3238 3.97762E-01
 -1      3239 6.53912E-01
 -1      3240 5.82999E-01
 -1      3241 5.23898E-01
 -1      3242 8.15090E-01
 -1      3243 7.38351E-01
 -1      3244 6.78082E-01
 -1      3245 9.92572E-01
 -1      3246 9.15101E-01
 -1      3247 8.62532E-01
 -1      3248 1.18517E+00
 -1      3249 1.11649E+00
 -1      3250 1.08646E+00
 -1      3251 1.44644E+00
 -1      3252 1.33601E+00
 -1      3253 1.36121E+00
 -1      3254 1.74898E+00
 -1      3255 1.60707E+00
 -1      3256 1.67268E+00
 -1      3257 2.14155E+00
 -1      3258 2.01752E+00
 -1      3259 2.10184E+00
 -1      3260 2.52687E+00
 -1      3261 2.47768E+00
 -1      3262 2.70651E+00
 -1      3263 3.54607E+00
 -1      3264 2.84482E+00
 -1      3265 3.13040E+00
 -1      3266 3.63725E+00
 -1      3267 3.66268E+00
 -1      3268 4.88526E+00
 -1      3269 4.37773E+00
 -1      3270 4.84596E+00
 -1      3271 3.64392E+00
 -1      3272 3.67273E+00
 -1      3273 2.28015E+00
 -1      3274 2.38083E+00
 -1      3275 1.83127E+00
 -1      3276 1.97818E+00
 -1      3277 2.42775E+00
 -1      3278 1.46987E+00
 -1      3279 1.61417E+00
 -1      3280 1.90869E+00
 -1      3281 1.21701E+00
 -1      3282 1.30685E+00
 -1      3283 1.52856E+00
 -1      3284 9.94095E-01
 -1      3285 1.07069E+00
 -1      3286 1.21922E+00
 -1      3287 7.88177E-01
 -1      3288 8.70862E-01
 -1      3289 9.49666E-01
 -1      3290 6.07426E-01
 -1      3291 6.87535E-01
 -1      3292 7.25792E-01
 -1      3293 4.50418E-01
 -1      3294 5.24602E-01
 -1      3295 5.42325E-01
 -1      3296 3.46009E-01
 -1      3297 3.97601E-01
 -1      3298 4.06684E-01
 -1      3299 3.04867E-01
 -1      3300 4.50749E-01
 -1      3301 4.50749E-01
 -1      3302 3.24060E-01
 -1      3303 3.63103E-01
 -1      3304 4.50749E-01
 -1      3305 4.55790E-01
 -1      3306 5.05642E-01
 -1      3307 5.42756E+00
 -1      3308 6.38732E+00
 -1      3309 6.45681E+00
 -1      3310 5.77610E+00
 -1      3311 4.59448E+00
 -1      3312 2.96446E+00
 -1      3313 3.56023E-01
 -1      3314 3.89956E-01
 -1      3315 1.15658E+01
 -1      3316 1.10864E+01
 -1      3317 4.17225E-01
 -1      3318 4.40195E-01
 -1      3319 4.95087E-01
 -1      3320 4.30410E-01
 -1      3321 2.78062E+00
 -1      3322 3.02379E+00
 -1      3323 4.14941E+00
 -1      3324 3.12950E+00
 -1      3325 1.27693E-01
 -1      3326 1.44811E-01
 -1      3327 1.35268E-01
 -1      3328 1.01611E-01
 -1      3329 3.11083E-01
 -1      3330 3.45824E-01
 -1      3331 2.99465E-01
 -1      3332 1.10778E+01
 -1      3333 1.32202E+01
 -1      3334 1.38395E+01
 -1      3335 1.58751E+01
 -1      3336 9.46057E+00
 -1      3337 7.59405E+00
 -1      3338 3.88260E-01
 -1      3339 3.64372E-01
 -1      3340 3.16606E-01
 -1      3341 3.13481E-01
 -1      3342 3.19548E-01
 -1      3343 3.12899E-01
 -1      3344 2.47326E-01
 -1      3345 4.12784E-01
 -1      3346 3.09124E-01
 -1      3347 2.60693E-01
 -1      3348 4.01380E-01
 -1      3349 3.67522E+00
 -1      3350 4.60502E+00
 -1      3351 4.39025E+00
 -1      3352 3.07293E+00
 -1      3353 6.95169E+00
 -1      3354 8.18142E+00
 -1      3355 1.04345E+01
 -1      3356 1.18437E+01
 -1      3357 3.23293E-01
 -1      3358 3.15681E-01
 -1      3359 3.12358E-01
 -1      3360 3.12110E-01
 -1      3361 2.85102E-01
 -1      3362 2.59793E-01
 -1      3363 3.20426E-01
 -1      3364 3.20426E-01
 -1      3365 4.31077E-01
 -1      3366 3.90056E-01
 -1      3367 4.52502E+00
 -1      3368 2.45283E-01
 -1      3369 8.81617E+00
 -1      3370 4.40191E+00
 -1      3371 2.81322E+00
 -1      3372 2.71632E+00
 -1      3373 6.35946E+00
 -1      3374 8.24837E+00
 -1      3375 8.38850E+00
 -1      3376 2.91915E+00
 -1      3377 2.45935E+00
 -1      3378 2.19024E+00
 -1      3379 4.30936E+00
 -1      3380 3.73498E+00
 -1      3381 5.53103E+00
 -1      3382 2.93807E-01
 -1      3383 2.71990E-01
 -1      3384 2.68375E-01
 -1      3385 1.99298E-01
 -1      3386 2.29936E-01
 -1      3387 2.48339E-01
 -1      3388 3.63725E+00
 -1      3389 3.41360E+00
 -1      3390 3.47375E+00
 -1      3391 3.87673E+00
 -1      3392 3.90570E+00
 -1      3393 2.57593E+00
 -1      3394 3.00333E+00
 -1      3395 4.60283E-01
 -1      3396 4.53507E-01
 -1      3397 4.92196E-01
 -1      3398 4.60283E-01
 -1      3399 4.60283E-01
 -1      3400 5.14627E-01
 -1      3401 5.10134E-01
 -1      3402 9.00144E+00
 -1      3403 1.22902E+01
 -1      3404 9.62068E+00
 -1      3405 2.48538E+00
 -1      3406 8.22171E+00
 -1      3407 2.87321E-01
 -1      3408 3.06000E-01
 -1      3409 3.58229E-01
 -1      3410 3.49388E-01
 -1      3411 6.88932E+00
 -1      3412 3.35205E-01
 -1      3413 2.60525E-01
 -1      3414 4.45258E+00
 -1      3415 1.11700E+01
 -1      3416 6.19462E+00
 -1      3417 3.73458E-01
 -1      3418 3.98998E-01
 -1      3419 2.79050E-01
 -1      3420 2.93166E-01
 -1      3421 3.23037E-01
 -1      3422 3.24272E-01
 -1      3423 3.24823E-01
 -1      3424 3.23293E-01
 -1      3425 2.88425E-01
 -1      3426 2.84029E-01
 -1      3427 8.98665E+00
 -1      3428 1.22352E+01
 -1      3429 9.24108E+00
 -1      3430 2.85227E-01
 -1      3431 3.20802E-01
 -1      3432 3.20802E-01
 -1      3433 8.89986E+00
 -1      3434 1.04345E+01
 -1      3435 6.94026E+00
 -1      3436 5.88729E+00
 -1      3437 5.78490E+00
 -1      3438 4.07589E+00
 -1      3439 7.12244E+00
 -1      3440 9.73841E+00
 -1      3441 1.11481E+01
 -1      3442 8.72447E+00
 -1      3443 3.54607E+00
 -1      3444 3.63576E+00
 -1      3445 2.15752E-01
 -1      3446 2.03668E-01
 -1      3447 1.98582E-01
 -1      3448 1.82514E-01
 -1      3449 1.76531E-01
 -1      3450 1.72477E-01
 -1      3451 1.58465E-01
 -1      3452 1.61409E-01
 -1      3453 1.47891E-01
 -1      3454 1.34278E-01
 -1      3455 1.40798E-01
 -1      3456 1.24174E-01
 -1      3457 1.08693E-01
 -1      3458 1.20120E-01
 -1      3459 9.63674E-02
 -1      3460 7.95382E-02
 -1      3461 9.76909E-02
 -1      3462 7.89654E-02
 -1      3463 7.19981E-02
 -1      3464 8.47929E-02
 -1      3465 7.53020E-02
 -1      3466 8.26067E-02
 -1      3467 8.75241E-02
 -1      3468 9.73907E-02
 -1      3469 1.21993E-01
 -1      3470 1.05612E-01
 -1      3471 1.51440E-01
 -1      3472 1.82752E-01
 -1      3473 1.49843E-01
 -1      3474 2.17988E-01
 -1      3475 2.54395E-01
 -1      3476 2.14526E-01
 -1      3477 2.96365E-01
 -1      3478 3.37916E-01
 -1      3479 2.91731E-01
 -1      3480 3.87381E-01
 -1      3481 4.33173E-01
 -1      3482 3.83165E-01
 -1      3483 4.90406E-01
 -1      3484 5.51815E-01
 -1      3485 4.89863E-01
 -1      3486 6.16014E-01
 -1      3487 6.91245E-01
 -1      3488 6.11295E-01
 -1      3489 7.74771E-01
 -1      3490 8.64393E-01
 -1      3491 7.59021E-01
 -1      3492 9.79420E-01
 -1      3493 1.09014E+00
 -1      3494 9.57575E-01
 -1      3495 1.29270E+00
 -1      3496 1.41026E+00
 -1      3497 1.27516E+00
 -1      3498 1.66677E+00
 -1      3499 1.84897E+00
 -1      3500 1.73424E+00
 -1      3501 2.18555E+00
 -1      3502 2.43290E+00
 -1      3503 2.32734E+00
 -1      3504 3.08117E+00
 -1      3505 3.53518E+00
 -1      3506 3.31220E+00
 -1      3507 4.16135E+00
 -1      3508 4.91090E+00
 -1      3509 6.14671E+00
 -1      3510 5.73141E+00
 -1      3511 2.15314E+00
 -1      3512 1.93726E+00
 -1      3513 1.47611E+00
 -1      3514 1.35480E+00
 -1      3515 2.04192E+00
 -1      3516 1.12511E+00
 -1      3517 1.00611E+00
 -1      3518 1.35108E+00
 -1      3519 8.73353E-01
 -1      3520 7.70259E-01
 -1      3521 9.88630E-01
 -1      3522 6.65600E-01
 -1      3523 5.81061E-01
 -1      3524 7.51212E-01
 -1      3525 2.49555E-01
 -1      3526 2.59754E-01
 -1      3527 9.64337E+00
 -1      3528 9.64337E+00
 -1      3529 7.14892E-02
 -1      3530 6.49394E-02
 -1      3531 6.21604E-02
 -1      3532 7.95508E-02
 -1      3533 7.67641E-02
 -1      3534 1.72046E-01
 -1      3535 1.41245E-01
 -1      3536 2.46193E-01
 -1      3537 2.09277E-01
 -1      3538 2.04185E-01
 -1      3539 3.36759E-01
 -1      3540 2.91559E-01
 -1      3541 2.86782E-01
 -1      3542 4.48199E-01
 -1      3543 3.91807E-01
 -1      3544 3.87196E-01
 -1      3545 5.84100E-01
 -1      3546 5.14355E-01
 -1      3547 5.08400E-01
 -1      3548 7.46685E-01
 -1      3549 6.62246E-01
 -1      3550 6.52703E-01
 -1      3551 9.36192E-01
 -1      3552 8.36181E-01
 -1      3553 8.20346E-01
 -1      3554 1.17893E+00
 -1      3555 1.05502E+00
 -1      3556 1.02867E+00
 -1      3557 1.50531E+00
 -1      3558 1.35447E+00
 -1      3559 1.32303E+00
 -1      3560 1.96874E+00
 -1      3561 1.80812E+00
 -1      3562 1.80137E+00
 -1      3563 2.68893E+00
 -1      3564 2.42039E+00
 -1      3565 2.55583E+00
 -1      3566 3.46149E+00
 -1      3567 3.12536E+00
 -1      3568 3.44391E+00
 -1      3569 3.36059E+00
 -1      3570 5.78640E-01
 -1      3571 5.78640E-01
 -1      3572 2.54455E+00
 -1      3573 2.84651E+00
 -1      3574 1.19994E+00
 -1      3575 1.34626E+00
 -1      3576 9.20534E-01
 -1      3577 1.04377E+00
 -1      3578 1.17081E+00
 -1      3579 7.03158E-01
 -1      3580 8.03800E-01
 -1      3581 8.97901E-01
 -1      3582 5.38420E-01
 -1      3583 6.21245E-01
 -1      3584 6.99253E-01
 -1      3585 3.65051E-01
 -1      3586 3.37813E-01
 -1      3587 3.86811E-01
 -1      3588 4.44761E-01
 -1      3589 1.99684E+00
 -1      3590 2.21394E+00
 -1      3591 2.63270E+00
 -1      3592 1.60125E+00
 -1      3593 1.76427E+00
 -1      3594 2.06952E+00
 -1      3595 1.10877E-01
 -1      3596 8.48262E-02
 -1      3597 9.28800E-02
 -1      3598 1.36586E-01
 -1      3599 1.48591E-01
 -1      3600 1.64352E-01
 -1      3601 1.98430E-01
 -1      3602 1.89780E-01
 -1      3603 2.93148E+00
 -1      3604 2.69945E+00
 -1      3605 3.04938E+00
 -1      3606 7.49395E+00
 -1      3607 6.57357E+00
 -1      3608 5.15953E+00
 -1      3609 3.06890E-01
 -1      3610 2.16725E-01
 -1      3611 2.12660E-01
 -1      3612 1.78524E-01
 -1      3613 3.15569E-01
 -1      3614 3.23037E-01
 -1      3615 2.88698E-01
 -1      3616 3.27845E+00
 -1      3617 3.84614E+00
 -1      3618 3.62804E+00
 -1      3619 5.45201E+00
 -1      3620 4.58663E+00
 -1      3621 5.83065E+00
 -1      3622 3.75795E+00
 -1      3623 5.73141E+00
 -1      3624 1.95269E-01
 -1      3625 2.05963E-01
 -1      3626 1.64668E-01
 -1      3627 2.85105E+00
 -1      3628 3.90570E+00
 -1      3629 6.06227E+00
 -1      3630 6.24445E+00
 -1      3631 7.88611E+00
 -1      3632 9.00144E+00
 -1      3633 6.01592E+00
 -1      3634 2.02190E-01
 -1      3635 2.22028E-01
 -1      3636 2.52533E-01
 -1      3637 2.52533E-01
 -1      3638 6.31515E+00
 -1      3639 8.27724E+00
 -1      3640 6.91330E+00
 -1      3641 5.08654E+00
 -1      3642 2.34678E-01
 -1      3643 1.97031E-01
 -1      3644 2.46942E-01
 -1      3645 2.49388E-01
 -1      3646 2.09677E-01
 -1      3647 2.32112E-01
 -1      3648 5.02132E-01
 -1      3649 4.23652E-01
 -1      3650 4.14433E-01
 -1      3651 5.67625E-01
 -1      3652 1.76359E-01
 -1      3653 1.91703E-01
 -1      3654 1.56757E-01
 -1      3655 8.11677E+00
 -1      3656 9.64337E+00
 -1      3657 8.21181E+00
 -1      3658 2.30443E-01
 -1      3659 8.39925E-02
 -1      3660 8.95581E-02
 -1      3661 1.06052E-01
 -1      3662 5.94674E+00
 -1      3663 5.06875E+00
 -1      3664 5.94674E+00
 -1      3665 4.17680E+00
 -1      3666 5.78640E-01
 -1      3667 6.51639E-01
 -1      3668 5.68085E-01
 -1      3669 7.53187E-01
 -1      3670 6.80188E-01
 -1      3671 6.84681E-01
 -1      3672 8.07138E+00
 -1      3673 1.19806E-01
 -1      3674 1.36969E-01
 -1      3675 1.33129E-01
 -1      3676 1.07753E-01
 -1      3677 7.93173E-01
 -1      3678 7.70742E-01
 -1      3679 1.58197E+00
 -1      3680 5.43553E-01
 -1      3681 5.18548E-01
 -1      3682 4.39629E-01
 -1      3683 4.29224E+00
 -1      3684 4.98880E+00
 -1      3685 7.11564E+00
 -1      3686 8.66494E+00
 -1      3687 7.13833E+00
 -1      3688 2.67846E-01
 -1      3689 2.12342E-01
 -1      3690 1.48416E-01
 -1      3691 7.54690E+00
 -1      3692 5.89876E+00
 -1      3693 7.12928E+00
 -1      3694 7.28149E+00
 -1      3695 2.85239E-01
 -1      3696 4.32493E-01
 -1      3697 8.44529E-01
 -1      3698 2.52469E-01
 -1      3699 2.52469E-01
 -1      3700 2.52469E-01
 -1      3701 2.49146E-01
 -1      3702 2.16512E-01
 -1      3703 2.40639E-01
 -1      3704 2.37169E-01
 -1      3705 1.67754E-01
 -1      3706 2.04475E-01
 -1      3707 5.46095E-01
 -1      3708 4.89891E-01
 -1      3709 5.44013E-01
 -1      3710 6.25023E-01
 -1      3711 1.57888E-01
 -1      3712 1.52803E-01
 -1      3713 4.29224E+00
 -1      3714 4.77531E+00
 -1      3715 4.84226E+00
 -1      3716 1.51042E-01
 -1      3717 1.41005E-01
 -1      3718 1.32399E-01
 -1      3719 1.34567E-01
 -1      3720 1.23994E-01
 -1      3721 1.24201E-01
 -1      3722 1.16560E-01
 -1      3723 1.06456E-01
 -1      3724 1.10330E-01
 -1      3725 1.01287E-01
 -1      3726 8.89614E-02
 -1      3727 9.77266E-02
 -1      3728 9.20057E-02
 -1      3729 9.14330E-02
 -1      3730 9.56014E-02
 -1      3731 9.54758E-02
 -1      3732 9.87798E-02
 -1      3733 1.02689E-01
 -1      3734 1.04976E-01
 -1      3735 1.19760E-01
 -1      3736 1.12928E-01
 -1      3737 1.39041E-01
 -1      3738 1.68488E-01
 -1      3739 1.38405E-01
 -1      3740 1.99553E-01
 -1      3741 2.34789E-01
 -1      3742 1.88751E-01
 -1      3743 2.73096E-01
 -1      3744 3.15065E-01
 -1      3745 2.58123E-01
 -1      3746 3.62527E-01
 -1      3747 4.11991E-01
 -1      3748 3.43891E-01
 -1      3749 4.71072E-01
 -1      3750 5.28305E-01
 -1      3751 4.50433E-01
 -1      3752 6.02181E-01
 -1      3753 6.66380E-01
 -1      3754 5.83390E-01
 -1      3755 7.59021E-01
 -1      3756 8.42547E-01
 -1      3757 7.49907E-01
 -1      3758 9.57575E-01
 -1      3759 1.07260E+00
 -1      3760 9.57575E-01
 -1      3761 1.26552E+00
 -1      3762 1.46808E+00
 -1      3763 1.26552E+00
 -1      3764 1.87362E+00
 -1      3765 2.13014E+00
 -1      3766 1.86398E+00
 -1      3767 2.86422E+00
 -1      3768 3.20080E+00
 -1      3769 3.00360E+00
 -1      3770 5.36766E+00
 -1      3771 2.69056E+00
 -1      3772 2.22941E+00
 -1      3773 4.86308E+00
 -1      3774 1.62108E-01
 -1      3775 1.49296E-01
 -1      3776 1.52965E+00
 -1      3777 1.29996E+00
 -1      3778 2.17829E+00
 -1      3779 1.11697E+00
 -1      3780 9.84211E-01
 -1      3781 1.29554E+00
 -1      3782 8.55871E-01
 -1      3783 7.51212E-01
 -1      3784 9.84211E-01
 -1      3785 3.12814E-01
 -1      3786 2.67448E-01
 -1      3787 2.27374E-01
 -1      3788 1.90143E-01
 -1      3789 2.53406E-01
 -1      3790 5.46570E-01
 -1      3791 4.80414E-01
 -1      3792 7.04263E-01
 -1      3793 6.26116E-01
 -1      3794 5.98129E-01
 -1      3795 8.95996E-01
 -1      3796 8.06500E-01
 -1      3797 7.79913E-01
 -1      3798 1.14750E+00
 -1      3799 1.02867E+00
 -1      3800 1.01482E+00
 -1      3801 1.49856E+00
 -1      3802 1.32303E+00
 -1      3803 1.32303E+00
 -1      3804 2.09292E+00
 -1      3805 1.79011E+00
 -1      3806 1.79011E+00
 -1      3807 4.21826E+00
 -1      3808 3.76661E+00
 -1      3809 3.75535E+00
 -1      3810 3.69441E+00
 -1      3811 3.25798E+00
 -1      3812 4.46876E+00
 -1      3813 4.67715E+00
 -1      3814 2.38794E+00
 -1      3815 2.62051E+00
 -1      3816 6.76390E+00
 -1      3817 6.76390E+00
 -1      3818 3.11071E+00
 -1      3819 2.99391E+00
 -1      3820 1.53344E+00
 -1      3821 1.78843E+00
 -1      3822 2.33942E+00
 -1      3823 1.17081E+00
 -1      3824 1.32699E+00
 -1      3825 1.53344E+00
 -1      3826 4.69486E+00
 -1      3827 3.39369E+00
 -1      3828 9.26442E-01
 -1      3829 7.93173E-01
 -1      3830 7.93173E-01
 -1      3831 1.07172E+00
 -1      3832 9.63227E-01
 -1      3833 1.73243E-01
 -1      3834 3.87502E+00
 -1      3835 3.32870E+00
 -1      3836 3.51620E+00
 -1      3837 4.57157E+00
 -1      3838 2.58311E-01
 -1      3839 2.20546E-01
 -1      3840 1.58642E-01
 -1      3841 1.69404E-01
 -1      3842 8.97901E-01
 -1      3843 1.01463E+00
 -1      3844 1.17081E+00
 -1      3845 4.17762E-01
 -1      3846 3.62714E-01
 -1      3847 4.55932E-01
 -1      3848 2.41368E-01
 -1      3849 2.45765E-01
 -1      3850 2.09809E-01
 -1      3851 1.83765E-01
 -1      3852 2.99181E+00
 -1      3853 3.32242E+00
 -1      3854 5.05397E+00
 -1      3855 3.31023E+00
 -1      3856 8.86458E-02
 -1      3857 8.58668E-02
 -1      3858 2.04194E-01
 -1      3859 2.24230E-01
 -1      3860 1.81255E-01
 -1      3861 4.66931E+00
 -1      3862 1.49395E-01
 -1      3863 1.52488E-01
 -1      3864 1.28760E-01
 -1      3865 1.74322E-01
 -1      3866 2.49074E-01
 -1      3867 2.52533E-01
 -1      3868 2.16369E-01
 -1      3869 2.16441E-01
 -1      3870 6.41856E+00
 -1      3871 6.07733E+00
 -1      3872 5.90453E+00
 -1      3873 1.04318E+00
 -1      3874 1.36809E-01
 -1      3875 1.26912E-01
 -1      3876 1.46252E-01
 -1      3877 1.01886E-01
 -1      3878 1.89873E-01
 -1      3879 1.89873E-01
 -1      3880 1.55304E-01
 -1      3881 1.62007E-01
 -1      3882 9.84503E-02
 -1      3883 5.70914E+00
 -1      3884 6.41856E+00
 -1      3885 5.21440E+00
 -1      3886 9.43428E-02
 -1      3887 8.24611E-02
 -1      3888 9.24685E-02
 -1      3889 1.77631E-01
 -1      3890 1.29896E-01
 -1      3891 1.77465E-01
 -1      3892 2.01628E-01
 -1      3893 7.29682E-01
 -1      3894 4.66931E+00
 -1      3895 4.15434E+00
 -1      3896 3.43381E-01
 -1      3897 6.04784E+00
 -1      3898 6.04784E+00
 -1      3899 5.06940E+00
 -1      3900 6.77291E+00
 -1      3901 6.86795E+00
 -1      3902 5.69038E+00
 -1      3903 5.94063E+00
 -1      3904 4.94711E+00
 -1      3905 5.07770E+00
 -1      3906 1.81119E-01
 -1      3907 1.57930E-01
 -1      3908 1.27562E-01
 -1      3909 4.73010E+00
 -1      3910 6.27566E-01
 -1      3911 9.39096E-02
 -1      3912 1.03012E-01
 -1      3913 1.07247E-01
 -1      3914 7.20215E-01
 -1      3915 8.21763E-01
 -1      3916 4.55378E+00
 -1      3917 4.94271E+00
 -1      3918 1.12060E+00
 -1      3919 1.09206E+00
 -1      3920 1.12060E+00
 -1      3921 5.80816E+00
 -1      3922 1.77979E-01
 -1      3923 1.38136E-01
 -1      3924 1.50142E-01
 -1      3925 1.43369E-01
 -1      3926 7.33977E-01
 -1      3927 7.33977E-01
 -1      3928 8.02553E-01
 -1      3929 1.75312E-01
 -1      3930 1.75312E-01
 -1      3931 1.20807E-01
 -1      3932 4.59705E+00
 -1      3933 1.89873E-01
 -1      3934 1.17794E-01
 -1      3935 1.29416E-01
 -1      3936 1.22801E-01
 -1      3937 1.63378E-01
 -1      3938 3.42895E+00
 -1      3939 4.28832E+00
 -1      3940 2.69488E+00
 -1      3941 1.15351E-01
 -1      3942 1.08913E-01
 -1      3943 1.04788E-01
 -1      3944 9.73543E-02
 -1      3945 9.59380E-02
 -1      3946 9.99141E-02
 -1      3947 9.47446E-02
 -1      3948 9.43723E-02
 -1      3949 9.90202E-02
 -1      3950 1.02065E-01
 -1      3951 1.01208E-01
 -1      3952 1.06433E-01
 -1      3953 1.10476E-01
 -1      3954 1.09852E-01
 -1      3955 1.16486E-01
 -1      3956 1.22682E-01
 -1      3957 1.20231E-01
 -1      3958 1.31678E-01
 -1      3959 1.50959E-01
 -1      3960 1.35237E-01
 -1      3961 1.68366E-01
 -1      3962 1.99431E-01
 -1      3963 1.61639E-01
 -1      3964 2.28897E-01
 -1      3965 2.67204E-01
 -1      3966 2.08512E-01
 -1      3967 3.06777E-01
 -1      3968 3.54239E-01
 -1      3969 2.77552E-01
 -1      3970 4.05710E-01
 -1      3971 4.64791E-01
 -1      3972 3.68596E-01
 -1      3973 5.33248E-01
 -1      3974 6.07125E-01
 -1      3975 4.88525E-01
 -1      3976 7.00925E-01
 -1      3977 7.93566E-01
 -1      3978 6.50783E-01
 -1      3979 9.20219E-01
 -1      3980 1.03525E+00
 -1      3981 8.71238E-01
 -1      3982 1.24904E+00
 -1      3983 1.44196E+00
 -1      3984 1.21169E+00
 -1      3985 1.78392E+00
 -1      3986 2.18947E+00
 -1      3987 2.61482E+00
 -1      3988 1.76745E+00
 -1      3989 2.73292E+00
 -1      3990 2.03316E+00
 -1      3991 1.24824E+00
 -1      3992 4.44796E+00
 -1      3993 3.54255E-01
 -1      3994 3.04355E-01
 -1      3995 1.73776E-01
 -1      3996 1.81658E-01
 -1      3997 1.49613E-01
 -1      3998 1.47316E+00
 -1      3999 1.29017E+00
 -1      4000 2.02780E+00
 -1      4001 1.09669E+00
 -1      4002 9.68351E-01
 -1      4003 1.27431E+00
 -1      4004 2.64504E-01
 -1      4005 2.24429E-01
 -1      4006 2.75378E-01
 -1      4007 8.07685E-01
 -1      4008 7.05447E-01
 -1      4009 6.14415E-01
 -1      4010 5.34869E-01
 -1      4011 6.42187E-01
 -1      4012 1.43472E+00
 -1      4013 1.25919E+00
 -1      4014 1.98148E+00
 -1      4015 1.68993E+00
 -1      4016 1.62609E+00
 -1      4017 4.58685E+00
 -1      4018 2.91316E+00
 -1      4019 2.81298E+00
 -1      4020 1.52727E+00
 -1      4021 1.73372E+00
 -1      4022 4.54768E+00
 -1      4023 9.54550E-02
 -1      4024 1.09208E-01
 -1      4025 1.05496E-01
 -1      4026 9.39236E-02
 -1      4027 2.33942E+00
 -1      4028 2.93894E+00
 -1      4029 2.33324E+00
 -1      4030 3.51620E+00
 -1      4031 1.17375E-01
 -1      4032 1.15614E-01
 -1      4033 1.00327E-01
 -1      4034 9.64333E-01
 -1      4035 1.07282E+00
 -1      4036 1.12171E+00
 -1      4037 9.31361E-01
 -1      4038 4.46876E+00
 -1      4039 1.06395E-01
 -1      4040 1.11795E-01
 -1      4041 9.50103E-02
 -1      4042 1.26639E-01
 -1      4043 1.26639E-01
 -1      4044 1.06630E-01
 -1      4045 1.06935E+00
 -1      4046 9.36677E-01
 -1      4047 8.62211E-01
 -1      4048 4.80908E+00
 -1      4049 5.16082E+00
 -1      4050 3.64099E+00
 -1      4051 4.67944E-01
 -1      4052 4.05293E-01
 -1      4053 3.66267E-01
 -1      4054 4.07667E+00
 -1      4055 1.58133E-01
 -1      4056 1.70625E-01
 -1      4057 1.50655E-01
 -1      4058 1.39512E-01
 -1      4059 7.53755E-01
 -1      4060 3.37107E+00
 -1      4061 1.87907E-01
 -1      4062 1.87836E-01
 -1      4063 1.61340E-01
 -1      4064 1.46707E-01
 -1      4065 1.18104E+00
 -1      4066 1.02011E-01
 -1      4067 9.86050E-02
 -1      4068 9.48573E-01
 -1      4069 8.36093E-01
 -1      4070 1.44852E+00
 -1      4071 2.22169E-01
 -1      4072 2.11072E-01
 -1      4073 1.78859E-01
 -1      4074 4.07667E+00
 -1      4075 4.07033E+00
 -1      4076 6.77291E+00
 -1      4077 5.42904E+00
 -1      4078 4.70398E+00
 -1      4079 1.11151E-01
 -1      4080 9.56288E-02
 -1      4081 4.84230E-01
 -1      4082 5.42904E+00
 -1      4083 4.58685E+00
 -1      4084 5.42904E+00
 -1      4085 4.00201E+00
 -1      4086 3.60868E+00
 -1      4087 1.28591E-01
 -1      4088 1.10938E-01
 -1      4089 9.84503E-02
 -1      4090 1.07502E-01
 -1      4091 9.21931E-02
 -1      4092 8.96657E-02
 -1      4093 8.80745E-01
 -1      4094 1.02332E+00
 -1      4095 2.82541E+00
 -1      4096 1.36971E-01
 -1      4097 1.00233E-01
 -1      4098 1.34934E-01
 -1      4099 1.22165E-01
 -1      4100 1.30156E-01
 -1      4101 4.25379E+00
 -1      4102 4.25379E+00
 -1      4103 4.11710E+00
 -1      4104 3.11606E+00
 -1      4105 1.16495E-01
 -1      4106 1.25215E-01
 -1      4107 1.15859E-01
 -1      4108 1.08276E-01
 -1      4109 1.03012E-01
 -1      4110 1.07275E-01
 -1      4111 8.94507E-01
 -1      4112 8.80745E-01
 -1      4113 9.72699E-01
 -1      4114 1.02676E+00
 -1      4115 1.12347E+00
 -1      4116 1.17124E+00
 -1      4117 1.45028E+00
 -1      4118 1.07285E+00
 -1      4119 9.43723E-02
 -1      4120 9.69321E-02
 -1      4121 1.15794E-01
 -1      4122 1.20070E-01
 -1      4123 1.15794E-01
 -1      4124 1.09852E-01
 -1      4125 1.14221E-01
 -1      4126 1.24439E-01
 -1      4127 1.20231E-01
 -1      4128 1.26241E-01
 -1      4129 1.20231E-01
 -1      4130 1.35237E-01
 -1      4131 1.44232E-01
 -1      4132 1.35237E-01
 -1      4133 1.63685E-01
 -1      4134 1.81092E-01
 -1      4135 1.63685E-01
 -1      4136 2.02843E-01
 -1      4137 2.32309E-01
 -1      4138 2.04889E-01
 -1      4139 2.66581E-01
 -1      4140 3.06155E-01
 -1      4141 2.60912E-01
 -1      4142 3.51670E-01
 -1      4143 4.03142E-01
 -1      4144 3.40700E-01
 -1      4145 4.65368E-01
 -1      4146 5.33826E-01
 -1      4147 4.48442E-01
 -1      4148 6.21310E-01
 -1      4149 7.15111E-01
 -1      4150 5.98153E-01
 -1      4151 8.40250E-01
 -1      4152 9.66904E-01
 -1      4153 8.10777E-01
 -1      4154 1.15519E+00
 -1      4155 1.36899E+00
 -1      4156 1.12421E+00
 -1      4157 6.35962E-01
 -1      4158 5.44930E-01
 -1      4159 1.29015E-01
 -1      4160 1.24821E-01
 -1      4161 9.05538E-02
 -1      4162 1.22025E+00
 -1      4163 2.87867E-01
 -1      4164 2.48016E-01
 -1      4165 3.86178E+00
 -1      4166 4.58685E+00
 -1      4167 3.95320E+00
 -1      4168 4.85021E-01
 -1      4169 4.18096E-01
 -1      4170 4.78795E-01
 -1      4171 3.00848E+00
 -1      4172 2.07681E+00
 -1      4173 1.89186E+00
 -1      4174 1.63664E+00
 -1      4175 2.08736E+00
 -1      4176 3.17810E+00
 -1      4177 1.42299E-01
 -1      4178 1.21984E-01
 -1      4179 1.72251E-01
 -1      4180 1.16537E+00
 -1      4181 9.75533E-01
 -1      4182 1.43114E+00
 -1      4183 7.22680E-02
 -1      4184 7.20330E-02
 -1      4185 9.04264E-02
 -1      4186 9.01632E-02
 -1      4187 1.17194E-01
 -1      4188 1.09526E-01
 -1      4189 1.12513E-01
 -1      4190 8.47708E-01
 -1      4191 7.18716E-01
 -1      4192 6.21459E-01
 -1      4193 8.32038E-01
 -1      4194 2.75221E+00
 -1      4195 3.27297E+00
 -1      4196 2.24680E+00
 -1      4197 1.13747E-01
 -1      4198 1.31094E-01
 -1      4199 1.34245E-01
 -1      4200 3.74465E+00
 -1      4201 1.15606E-01
 -1      4202 1.28911E-01
 -1      4203 1.15606E-01
 -1      4204 1.28911E-01
 -1      4205 1.41506E-01
 -1      4206 1.17137E-01
 -1      4207 1.23710E-01
 -1      4208 7.65554E-02
 -1      4209 8.21350E-02
 -1      4210 7.19715E-02
 -1      4211 5.91578E-02
 -1      4212 1.82322E+00
 -1      4213 2.42891E+00
 -1      4214 1.54594E+00
 -1      4215 9.59417E-02
 -1      4216 9.18163E-02
 -1      4217 8.60415E-02
 -1      4218 3.73239E-01
 -1      4219 3.22201E-01
 -1      4220 3.74030E-01
 -1      4221 1.00297E-01
 -1      4222 6.85836E-02
 -1      4223 9.19963E-02
 -1      4224 8.22533E-02
 -1      4225 1.18201E+00
 -1      4226 1.18201E+00
 -1      4227 1.28216E+00
 -1      4228 1.42955E+00
 -1      4229 1.10020E-01
 -1      4230 1.09019E-01
 -1      4231 1.09454E-01
 -1      4232 1.20465E-01
 -1      4233 1.31386E-01
 -1      4234 1.23211E-01
 -1      4235 1.50264E+00
 -1      4236 1.84460E+00
 -1      4237 1.98199E+00
 -1      4238 9.43760E-02
 -1      4239 2.22169E-01
 -1      4240 2.08812E-01
 -1      4241 2.34659E-01
 -1      4242 3.06442E+00
 -1      4243 2.10165E+00
 -1      4244 1.54165E+00
 -1      4245 2.94840E-01
 -1      4246 1.06997E-01
 -1      4247 1.03947E-01
 -1      4248 2.60603E+00
 -1      4249 3.00848E+00
 -1      4250 1.50341E+00
 -1      4251 9.19963E-02
 -1      4252 8.26000E-02
 -1      4253 9.06648E-02
 -1      4254 9.95276E-02
 -1      4255 1.00465E-01
 -1      4256 2.33926E+00
 -1      4257 1.44614E+00
 -1      4258 1.07910E-01
 -1      4259 1.16495E-01
 -1      4260 1.18909E-01
 -1      4261 1.23513E-01
 -1      4262 2.27740E+00
 -1      4263 1.55364E+00
 -1      4264 1.44155E+00
 -1      4265 1.21984E-01
 -1      4266 1.15794E-01
 -1      4267 1.34657E-01
 -1      4268 9.26103E-02
 -1      4269 8.73799E-02
 -1      4270 6.54096E-02
 -1      4271 7.83910E-02
 -1      4272 1.34657E-01
 -1      4273 1.24439E-01
 -1      4274 1.12993E-01
 -1      4275 1.19003E-01
 -1      4276 1.76522E-01
 -1      4277 1.95975E-01
 -1      4278 1.95975E-01
 -1      4279 2.17726E-01
 -1      4280 2.43573E-01
 -1      4281 2.77845E-01
 -1      4282 3.12179E-01
 -1      4283 3.57695E-01
 -1      4284 4.02551E-01
 -1      4285 4.64777E-01
 -1      4286 5.24687E-01
 -1      4287 6.12171E-01
 -1      4288 6.94925E-01
 -1      4289 8.20065E-01
 -1      4290 9.47890E-01
 -1      4291 1.13618E+00
 -1      4292 1.05365E-01
 -1      4293 1.07921E-01
 -1      4294 1.26783E-01
 -1      4295 1.65510E+00
 -1      4296 1.60745E+00
 -1      4297 1.74110E+00
 -1      4298 1.18909E-01
 -1      4299 1.06997E-01
 -1      4300 2.49095E+00
 -1      4301 2.14330E+00
 -1      4302 2.08812E-01
 -1      4303 1.72251E-01
 -1      4304 1.18551E-01
 -1      4305 1.20295E-01
 -1      4306 1.27534E-01
 -1      4307 1.32258E-01
 -1      4308 2.32825E+00
 -1      4309 9.13406E-02
 -1      4310 8.47680E-02
 -1      4311 5.68034E-02
 -1      4312 5.96272E-02
 -1      4313 6.47539E-02
 -1      4314 1.18909E-01
 -1      4315 2.08812E-01
 -1      4316 1.36529E-01
 -1      4317 1.68819E-01
 -1      4318 1.06997E-01
 -1      4319 9.50838E-02
 -1      4320 9.06648E-02
 -1      4321 9.34519E-02
 -1      4322 1.70533E+00
 -1      4323 8.76734E-02
 -1      4324 7.37717E-02
 -1      4325 8.11821E-02
 -1      4326 7.67631E-02
 -1      4327 6.54803E-02
 -1      4328 4.83881E-02
 -1      4329 5.29104E-02
 -1      4330 5.47106E-02
 -1      4331 5.05561E-02
 -1      4332 1.31386E-01
 -1      4333 1.26783E-01
 -1      4334 1.34657E-01
 -1      4335 5.63385E-02
 -1      4336 6.89083E-02
 -3
 9999
