    1C
    1UUSER                                                              
    1UDATE              26.october.2022                                 
    1UTIME              23:49:03                                        
    1UHOST                                                              
    1UPGM               CalculiX                                        
    1UVERSION           Version 2.17                             
    1UCOMPILETIME       Thu Jul 23 21:43:50 CEST 2020                    
    1UDIR                                                               
    1UDBN                                                               
    1UMAT    1SOLIDMATERIAL                                             
    2C                          4320                                     1
 -1         1 2.27216E+01 2.93432E+01 0.00000E+00
 -1         2 2.97276E+01 2.23432E+01 0.00000E+00
 -1         3 1.50000E+02 0.00000E+00 0.00000E+00
 -1         4 1.50000E+02 5.00000E+01 0.00000E+00
 -1         5 0.00000E+00 0.00000E+00 0.00000E+00
 -1         6 0.00000E+00 5.00000E+01 0.00000E+00
 -1         7 0.00000E+00 4.70500E+01 0.00000E+00
 -1         8 0.00000E+00 4.41000E+01 0.00000E+00
 -1         9 0.00000E+00 4.11500E+01 0.00000E+00
 -1        10 0.00000E+00 3.82000E+01 0.00000E+00
 -1        11 0.00000E+00 3.52500E+01 0.00000E+00
 -1        12 0.00000E+00 3.23000E+01 0.00000E+00
 -1        13 0.00000E+00 2.93500E+01 0.00000E+00
 -1        14 0.00000E+00 2.64500E+01 0.00000E+00
 -1        15 0.00000E+00 2.35000E+01 0.00000E+00
 -1        16 0.00000E+00 2.06000E+01 0.00000E+00
 -1        17 0.00000E+00 1.76500E+01 0.00000E+00
 -1        18 0.00000E+00 1.47000E+01 0.00000E+00
 -1        19 0.00000E+00 1.17500E+01 0.00000E+00
 -1        20 0.00000E+00 8.80000E+00 0.00000E+00
 -1        21 0.00000E+00 5.85000E+00 0.00000E+00
 -1        22 0.00000E+00 2.90000E+00 0.00000E+00
 -1        23 3.15000E+00 5.00000E+01 0.00000E+00
 -1        24 6.15000E+00 5.00000E+01 0.00000E+00
 -1        25 9.15000E+00 5.00000E+01 0.00000E+00
 -1        26 1.21500E+01 5.00000E+01 0.00000E+00
 -1        27 1.51500E+01 5.00000E+01 0.00000E+00
 -1        28 1.81500E+01 5.00000E+01 0.00000E+00
 -1        29 2.11500E+01 5.00000E+01 0.00000E+00
 -1        30 2.41500E+01 5.00000E+01 0.00000E+00
 -1        31 2.71500E+01 5.00000E+01 0.00000E+00
 -1        32 3.01500E+01 5.00000E+01 0.00000E+00
 -1        33 3.31500E+01 5.00000E+01 0.00000E+00
 -1        34 3.61500E+01 5.00000E+01 0.00000E+00
 -1        35 3.91500E+01 5.00000E+01 0.00000E+00
 -1        36 4.21500E+01 5.00000E+01 0.00000E+00
 -1        37 4.51500E+01 5.00000E+01 0.00000E+00
 -1        38 4.81500E+01 5.00000E+01 0.00000E+00
 -1        39 5.11500E+01 5.00000E+01 0.00000E+00
 -1        40 5.41500E+01 5.00000E+01 0.00000E+00
 -1        41 5.71500E+01 5.00000E+01 0.00000E+00
 -1        42 6.01500E+01 5.00000E+01 0.00000E+00
 -1        43 6.31500E+01 5.00000E+01 0.00000E+00
 -1        44 6.61500E+01 5.00000E+01 0.00000E+00
 -1        45 6.91500E+01 5.00000E+01 0.00000E+00
 -1        46 7.21500E+01 5.00000E+01 0.00000E+00
 -1        47 7.51500E+01 5.00000E+01 0.00000E+00
 -1        48 7.81500E+01 5.00000E+01 0.00000E+00
 -1        49 8.11500E+01 5.00000E+01 0.00000E+00
 -1        50 8.41500E+01 5.00000E+01 0.00000E+00
 -1        51 8.71500E+01 5.00000E+01 0.00000E+00
 -1        52 9.01500E+01 5.00000E+01 0.00000E+00
 -1        53 9.31500E+01 5.00000E+01 0.00000E+00
 -1        54 9.61500E+01 5.00000E+01 0.00000E+00
 -1        55 9.91500E+01 5.00000E+01 0.00000E+00
 -1        56 1.02150E+02 5.00000E+01 0.00000E+00
 -1        57 1.05150E+02 5.00000E+01 0.00000E+00
 -1        58 1.08150E+02 5.00000E+01 0.00000E+00
 -1        59 1.11150E+02 5.00000E+01 0.00000E+00
 -1        60 1.14150E+02 5.00000E+01 0.00000E+00
 -1        61 1.17150E+02 5.00000E+01 0.00000E+00
 -1        62 1.20150E+02 5.00000E+01 0.00000E+00
 -1        63 1.23150E+02 5.00000E+01 0.00000E+00
 -1        64 1.26150E+02 5.00000E+01 0.00000E+00
 -1        65 1.29150E+02 5.00000E+01 0.00000E+00
 -1        66 1.32150E+02 5.00000E+01 0.00000E+00
 -1        67 1.35150E+02 5.00000E+01 0.00000E+00
 -1        68 1.38150E+02 5.00000E+01 0.00000E+00
 -1        69 1.41150E+02 5.00000E+01 0.00000E+00
 -1        70 1.44150E+02 5.00000E+01 0.00000E+00
 -1        71 1.47150E+02 5.00000E+01 0.00000E+00
 -1        72 3.15000E+00 0.00000E+00 0.00000E+00
 -1        73 6.15000E+00 0.00000E+00 0.00000E+00
 -1        74 9.15000E+00 0.00000E+00 0.00000E+00
 -1        75 1.21500E+01 0.00000E+00 0.00000E+00
 -1        76 1.51500E+01 0.00000E+00 0.00000E+00
 -1        77 1.81500E+01 0.00000E+00 0.00000E+00
 -1        78 2.11500E+01 0.00000E+00 0.00000E+00
 -1        79 2.41500E+01 0.00000E+00 0.00000E+00
 -1        80 2.71500E+01 0.00000E+00 0.00000E+00
 -1        81 3.01500E+01 0.00000E+00 0.00000E+00
 -1        82 3.31500E+01 0.00000E+00 0.00000E+00
 -1        83 3.61500E+01 0.00000E+00 0.00000E+00
 -1        84 3.91500E+01 0.00000E+00 0.00000E+00
 -1        85 4.21500E+01 0.00000E+00 0.00000E+00
 -1        86 4.51500E+01 0.00000E+00 0.00000E+00
 -1        87 4.81500E+01 0.00000E+00 0.00000E+00
 -1        88 5.11500E+01 0.00000E+00 0.00000E+00
 -1        89 5.41500E+01 0.00000E+00 0.00000E+00
 -1        90 5.71500E+01 0.00000E+00 0.00000E+00
 -1        91 6.01500E+01 0.00000E+00 0.00000E+00
 -1        92 6.31500E+01 0.00000E+00 0.00000E+00
 -1        93 6.61500E+01 0.00000E+00 0.00000E+00
 -1        94 6.91500E+01 0.00000E+00 0.00000E+00
 -1        95 7.21500E+01 0.00000E+00 0.00000E+00
 -1        96 7.51500E+01 0.00000E+00 0.00000E+00
 -1        97 7.81500E+01 0.00000E+00 0.00000E+00
 -1        98 8.11500E+01 0.00000E+00 0.00000E+00
 -1        99 8.41500E+01 0.00000E+00 0.00000E+00
 -1       100 8.71500E+01 0.00000E+00 0.00000E+00
 -1       101 9.01500E+01 0.00000E+00 0.00000E+00
 -1       102 9.31500E+01 0.00000E+00 0.00000E+00
 -1       103 9.61500E+01 0.00000E+00 0.00000E+00
 -1       104 9.91500E+01 0.00000E+00 0.00000E+00
 -1       105 1.02150E+02 0.00000E+00 0.00000E+00
 -1       106 1.05150E+02 0.00000E+00 0.00000E+00
 -1       107 1.08150E+02 0.00000E+00 0.00000E+00
 -1       108 1.11150E+02 0.00000E+00 0.00000E+00
 -1       109 1.14150E+02 0.00000E+00 0.00000E+00
 -1       110 1.17150E+02 0.00000E+00 0.00000E+00
 -1       111 1.20150E+02 0.00000E+00 0.00000E+00
 -1       112 1.23150E+02 0.00000E+00 0.00000E+00
 -1       113 1.26150E+02 0.00000E+00 0.00000E+00
 -1       114 1.29150E+02 0.00000E+00 0.00000E+00
 -1       115 1.32150E+02 0.00000E+00 0.00000E+00
 -1       116 1.35150E+02 0.00000E+00 0.00000E+00
 -1       117 1.38150E+02 0.00000E+00 0.00000E+00
 -1       118 1.41150E+02 0.00000E+00 0.00000E+00
 -1       119 1.44150E+02 0.00000E+00 0.00000E+00
 -1       120 1.47150E+02 0.00000E+00 0.00000E+00
 -1       121 1.50000E+02 2.95000E+00 0.00000E+00
 -1       122 1.50000E+02 5.90000E+00 0.00000E+00
 -1       123 1.50000E+02 8.85000E+00 0.00000E+00
 -1       124 1.50000E+02 1.18000E+01 0.00000E+00
 -1       125 1.50000E+02 1.47500E+01 0.00000E+00
 -1       126 1.50000E+02 1.76500E+01 0.00000E+00
 -1       127 1.50000E+02 2.06000E+01 0.00000E+00
 -1       128 1.50000E+02 2.35500E+01 0.00000E+00
 -1       129 1.50000E+02 2.65000E+01 0.00000E+00
 -1       130 1.50000E+02 2.94500E+01 0.00000E+00
 -1       131 1.50000E+02 3.24000E+01 0.00000E+00
 -1       132 1.50000E+02 3.53000E+01 0.00000E+00
 -1       133 1.50000E+02 3.82500E+01 0.00000E+00
 -1       134 1.50000E+02 4.12000E+01 0.00000E+00
 -1       135 1.50000E+02 4.41500E+01 0.00000E+00
 -1       136 1.50000E+02 4.71000E+01 0.00000E+00
 -1       137 2.95712E+01 2.08718E+01 0.00000E+00
 -1       138 2.90704E+01 1.93819E+01 0.00000E+00
 -1       139 2.83364E+01 1.81549E+01 0.00000E+00
 -1       140 2.73011E+01 1.70438E+01 0.00000E+00
 -1       141 2.61038E+01 1.62112E+01 0.00000E+00
 -1       142 2.48402E+01 1.56696E+01 0.00000E+00
 -1       143 2.33444E+01 1.53704E+01 0.00000E+00
 -1       144 2.17914E+01 1.54060E+01 0.00000E+00
 -1       145 2.02880E+01 1.57820E+01 0.00000E+00
 -1       146 1.90400E+01 1.63932E+01 0.00000E+00
 -1       147 1.77641E+01 1.74072E+01 0.00000E+00
 -1       148 1.68680E+01 1.85136E+01 0.00000E+00
 -1       149 1.61877E+01 1.98473E+01 0.00000E+00
 -1       150 1.58104E+01 2.12695E+01 0.00000E+00
 -1       151 1.57391E+01 2.27443E+01 0.00000E+00
 -1       152 1.59659E+01 2.41542E+01 0.00000E+00
 -1       153 1.64779E+01 2.54962E+01 0.00000E+00
 -1       154 1.73978E+01 2.68811E+01 0.00000E+00
 -1       155 1.83930E+01 2.78397E+01 0.00000E+00
 -1       156 1.97478E+01 2.86773E+01 0.00000E+00
 -1       157 2.12617E+01 2.91879E+01 0.00000E+00
 -1       158 2.40922E+01 2.92089E+01 0.00000E+00
 -1       159 2.53906E+01 2.88168E+01 0.00000E+00
 -1       160 2.65854E+01 2.81842E+01 0.00000E+00
 -1       161 2.76778E+01 2.72924E+01 0.00000E+00
 -1       162 2.85438E+01 2.62383E+01 0.00000E+00
 -1       163 2.92299E+01 2.49354E+01 0.00000E+00
 -1       164 2.96033E+01 2.36562E+01 0.00000E+00
 -1       165 2.59800E+00 4.55750E+01 0.00000E+00
 -1       166 2.59800E+00 4.26250E+01 0.00000E+00
 -1       167 2.59800E+00 3.96750E+01 0.00000E+00
 -1       168 2.59800E+00 3.67250E+01 0.00000E+00
 -1       169 2.59800E+00 3.37750E+01 0.00000E+00
 -1       170 2.59800E+00 3.08250E+01 0.00000E+00
 -1       171 2.59800E+00 2.79250E+01 0.00000E+00
 -1       172 2.59800E+00 2.49750E+01 0.00000E+00
 -1       173 2.59800E+00 2.20750E+01 0.00000E+00
 -1       174 2.59800E+00 1.91250E+01 0.00000E+00
 -1       175 2.59800E+00 1.61750E+01 0.00000E+00
 -1       176 2.59800E+00 1.32250E+01 0.00000E+00
 -1       177 2.59800E+00 1.02750E+01 0.00000E+00
 -1       178 2.59800E+00 7.32500E+00 0.00000E+00
 -1       179 2.59800E+00 4.37500E+00 0.00000E+00
 -1       180 2.87400E+00 2.18750E+00 0.00000E+00
 -1       181 4.65000E+00 4.74020E+01 0.00000E+00
 -1       182 7.65000E+00 4.74020E+01 0.00000E+00
 -1       183 1.06500E+01 4.74020E+01 0.00000E+00
 -1       184 1.36500E+01 4.74020E+01 0.00000E+00
 -1       185 1.66500E+01 4.74020E+01 0.00000E+00
 -1       186 1.96500E+01 4.74020E+01 0.00000E+00
 -1       187 2.26500E+01 4.74020E+01 0.00000E+00
 -1       188 2.56500E+01 4.74020E+01 0.00000E+00
 -1       189 2.86500E+01 4.74020E+01 0.00000E+00
 -1       190 3.16500E+01 4.74020E+01 0.00000E+00
 -1       191 3.46500E+01 4.74020E+01 0.00000E+00
 -1       192 3.76500E+01 4.74020E+01 0.00000E+00
 -1       193 4.06500E+01 4.74020E+01 0.00000E+00
 -1       194 4.36500E+01 4.74020E+01 0.00000E+00
 -1       195 4.66500E+01 4.74020E+01 0.00000E+00
 -1       196 4.96500E+01 4.74020E+01 0.00000E+00
 -1       197 5.26500E+01 4.74020E+01 0.00000E+00
 -1       198 5.56500E+01 4.74020E+01 0.00000E+00
 -1       199 5.86500E+01 4.74020E+01 0.00000E+00
 -1       200 6.16500E+01 4.74020E+01 0.00000E+00
 -1       201 6.46500E+01 4.74020E+01 0.00000E+00
 -1       202 6.76500E+01 4.74020E+01 0.00000E+00
 -1       203 7.06500E+01 4.74020E+01 0.00000E+00
 -1       204 7.36500E+01 4.74020E+01 0.00000E+00
 -1       205 7.66500E+01 4.74020E+01 0.00000E+00
 -1       206 7.96500E+01 4.74020E+01 0.00000E+00
 -1       207 8.26500E+01 4.74020E+01 0.00000E+00
 -1       208 8.56500E+01 4.74020E+01 0.00000E+00
 -1       209 8.86500E+01 4.74020E+01 0.00000E+00
 -1       210 9.16500E+01 4.74020E+01 0.00000E+00
 -1       211 9.46500E+01 4.74020E+01 0.00000E+00
 -1       212 9.76500E+01 4.74020E+01 0.00000E+00
 -1       213 1.00650E+02 4.74020E+01 0.00000E+00
 -1       214 1.03650E+02 4.74020E+01 0.00000E+00
 -1       215 1.06650E+02 4.74020E+01 0.00000E+00
 -1       216 1.09650E+02 4.74020E+01 0.00000E+00
 -1       217 1.12650E+02 4.74020E+01 0.00000E+00
 -1       218 1.15650E+02 4.74020E+01 0.00000E+00
 -1       219 1.18650E+02 4.74020E+01 0.00000E+00
 -1       220 1.21650E+02 4.74020E+01 0.00000E+00
 -1       221 1.24650E+02 4.74020E+01 0.00000E+00
 -1       222 1.27650E+02 4.74020E+01 0.00000E+00
 -1       223 1.30650E+02 4.74020E+01 0.00000E+00
 -1       224 1.33650E+02 4.74020E+01 0.00000E+00
 -1       225 1.36650E+02 4.74020E+01 0.00000E+00
 -1       226 1.39650E+02 4.74020E+01 0.00000E+00
 -1       227 1.42650E+02 4.74020E+01 0.00000E+00
 -1       228 1.45650E+02 4.74020E+01 0.00000E+00
 -1       229 5.87400E+00 2.18750E+00 0.00000E+00
 -1       230 8.87400E+00 2.18750E+00 0.00000E+00
 -1       231 1.18740E+01 2.18750E+00 0.00000E+00
 -1       232 1.48740E+01 2.18750E+00 0.00000E+00
 -1       233 1.78740E+01 2.18750E+00 0.00000E+00
 -1       234 2.08740E+01 2.18750E+00 0.00000E+00
 -1       235 2.38740E+01 2.18750E+00 0.00000E+00
 -1       236 2.68740E+01 2.18750E+00 0.00000E+00
 -1       237 2.98740E+01 2.18750E+00 0.00000E+00
 -1       238 3.28740E+01 2.18750E+00 0.00000E+00
 -1       239 3.58740E+01 2.18750E+00 0.00000E+00
 -1       240 3.88740E+01 2.18750E+00 0.00000E+00
 -1       241 4.18740E+01 2.18750E+00 0.00000E+00
 -1       242 4.48740E+01 2.18750E+00 0.00000E+00
 -1       243 4.78740E+01 2.18750E+00 0.00000E+00
 -1       244 5.08740E+01 2.18750E+00 0.00000E+00
 -1       245 5.38740E+01 2.18750E+00 0.00000E+00
 -1       246 5.68740E+01 2.18750E+00 0.00000E+00
 -1       247 5.98740E+01 2.18750E+00 0.00000E+00
 -1       248 6.28740E+01 2.18750E+00 0.00000E+00
 -1       249 6.58740E+01 2.18750E+00 0.00000E+00
 -1       250 6.88740E+01 2.18750E+00 0.00000E+00
 -1       251 7.18740E+01 2.18750E+00 0.00000E+00
 -1       252 7.48740E+01 2.18750E+00 0.00000E+00
 -1       253 7.78740E+01 2.18750E+00 0.00000E+00
 -1       254 8.08740E+01 2.18750E+00 0.00000E+00
 -1       255 8.38740E+01 2.18750E+00 0.00000E+00
 -1       256 8.68740E+01 2.18750E+00 0.00000E+00
 -1       257 8.98740E+01 2.18750E+00 0.00000E+00
 -1       258 9.28740E+01 2.18750E+00 0.00000E+00
 -1       259 9.58740E+01 2.18750E+00 0.00000E+00
 -1       260 9.88740E+01 2.18750E+00 0.00000E+00
 -1       261 1.01874E+02 2.18750E+00 0.00000E+00
 -1       262 1.04874E+02 2.18750E+00 0.00000E+00
 -1       263 1.07874E+02 2.18750E+00 0.00000E+00
 -1       264 1.10874E+02 2.18750E+00 0.00000E+00
 -1       265 1.13874E+02 2.18750E+00 0.00000E+00
 -1       266 1.16874E+02 2.18750E+00 0.00000E+00
 -1       267 1.19874E+02 2.18750E+00 0.00000E+00
 -1       268 1.22874E+02 2.18750E+00 0.00000E+00
 -1       269 1.25874E+02 2.18750E+00 0.00000E+00
 -1       270 1.28874E+02 2.18750E+00 0.00000E+00
 -1       271 1.31874E+02 2.18750E+00 0.00000E+00
 -1       272 1.34874E+02 2.18750E+00 0.00000E+00
 -1       273 1.37874E+02 2.18750E+00 0.00000E+00
 -1       274 1.40874E+02 2.18750E+00 0.00000E+00
 -1       275 1.43874E+02 2.18750E+00 0.00000E+00
 -1       276 1.46874E+02 2.18750E+00 0.00000E+00
 -1       277 1.47402E+02 4.42500E+00 0.00000E+00
 -1       278 1.47402E+02 7.37500E+00 0.00000E+00
 -1       279 1.47402E+02 1.03250E+01 0.00000E+00
 -1       280 1.47402E+02 1.32750E+01 0.00000E+00
 -1       281 1.47402E+02 1.61750E+01 0.00000E+00
 -1       282 1.47402E+02 1.91250E+01 0.00000E+00
 -1       283 1.47402E+02 2.20750E+01 0.00000E+00
 -1       284 1.47402E+02 2.50250E+01 0.00000E+00
 -1       285 1.47402E+02 2.79750E+01 0.00000E+00
 -1       286 1.47402E+02 3.09250E+01 0.00000E+00
 -1       287 1.47402E+02 3.38250E+01 0.00000E+00
 -1       288 1.47402E+02 3.67750E+01 0.00000E+00
 -1       289 1.47402E+02 3.97250E+01 0.00000E+00
 -1       290 1.47402E+02 4.26750E+01 0.00000E+00
 -1       291 1.46526E+02 4.50385E+01 0.00000E+00
 -1       292 3.09383E+01 2.14705E+01 0.00000E+00
 -1       293 3.07083E+01 1.96605E+01 0.00000E+00
 -1       294 2.98157E+01 1.81030E+01 0.00000E+00
 -1       295 2.88897E+01 1.66015E+01 0.00000E+00
 -1       296 2.74425E+01 1.55633E+01 0.00000E+00
 -1       297 2.59496E+01 1.48260E+01 0.00000E+00
 -1       298 2.43301E+01 1.43311E+01 0.00000E+00
 -1       299 2.25324E+01 1.38411E+01 0.00000E+00
 -1       300 2.06846E+01 1.41740E+01 0.00000E+00
 -1       301 1.91308E+01 1.49988E+01 0.00000E+00
 -1       302 1.74914E+01 1.57542E+01 0.00000E+00
 -1       303 1.63739E+01 1.71973E+01 0.00000E+00
 -1       304 1.54479E+01 1.86295E+01 0.00000E+00
 -1       305 1.48272E+01 2.02475E+01 0.00000E+00
 -1       306 1.44801E+01 2.19443E+01 0.00000E+00
 -1       307 1.46555E+01 2.36418E+01 0.00000E+00
 -1       308 1.50892E+01 2.52573E+01 0.00000E+00
 -1       309 1.57185E+01 2.69985E+01 0.00000E+00
 -1       310 1.70544E+01 2.82336E+01 0.00000E+00
 -1       311 1.83448E+01 2.94322E+01 0.00000E+00
 -1       312 2.00101E+01 3.03990E+01 0.00000E+00
 -1       313 2.18458E+01 3.06378E+01 0.00000E+00
 -1       314 2.35251E+01 3.04826E+01 0.00000E+00
 -1       315 2.51161E+01 3.02537E+01 0.00000E+00
 -1       316 2.65554E+01 2.95719E+01 0.00000E+00
 -1       317 2.80042E+01 2.88073E+01 0.00000E+00
 -1       318 2.90476E+01 2.75349E+01 0.00000E+00
 -1       319 3.01079E+01 2.62299E+01 0.00000E+00
 -1       320 3.05804E+01 2.46355E+01 0.00000E+00
 -1       321 3.08725E+01 2.31139E+01 0.00000E+00
 -1       322 5.19600E+00 4.11500E+01 0.00000E+00
 -1       323 5.19600E+00 4.41000E+01 0.00000E+00
 -1       324 5.19600E+00 3.52500E+01 0.00000E+00
 -1       325 5.19600E+00 3.23000E+01 0.00000E+00
 -1       326 5.19600E+00 2.94000E+01 0.00000E+00
 -1       327 5.19600E+00 2.64500E+01 0.00000E+00
 -1       328 5.19600E+00 2.35500E+01 0.00000E+00
 -1       329 5.19600E+00 2.06000E+01 0.00000E+00
 -1       330 5.19600E+00 1.76500E+01 0.00000E+00
 -1       331 5.19600E+00 1.47000E+01 0.00000E+00
 -1       332 5.19600E+00 1.17500E+01 0.00000E+00
 -1       333 5.19600E+00 8.80000E+00 0.00000E+00
 -1       334 5.19600E+00 5.85000E+00 0.00000E+00
 -1       335 5.53500E+00 4.01875E+00 0.00000E+00
 -1       336 8.53500E+00 4.01875E+00 0.00000E+00
 -1       337 9.15000E+00 4.48040E+01 0.00000E+00
 -1       338 1.21500E+01 4.48040E+01 0.00000E+00
 -1       339 1.51500E+01 4.48040E+01 0.00000E+00
 -1       340 1.81500E+01 4.48040E+01 0.00000E+00
 -1       341 2.11500E+01 4.48040E+01 0.00000E+00
 -1       342 2.41500E+01 4.48040E+01 0.00000E+00
 -1       343 2.71500E+01 4.48040E+01 0.00000E+00
 -1       344 3.01500E+01 4.48040E+01 0.00000E+00
 -1       345 3.31500E+01 4.48040E+01 0.00000E+00
 -1       346 3.61500E+01 4.48040E+01 0.00000E+00
 -1       347 3.91500E+01 4.48040E+01 0.00000E+00
 -1       348 4.21500E+01 4.48040E+01 0.00000E+00
 -1       349 4.51500E+01 4.48040E+01 0.00000E+00
 -1       350 4.81500E+01 4.48040E+01 0.00000E+00
 -1       351 5.11500E+01 4.48040E+01 0.00000E+00
 -1       352 5.41500E+01 4.48040E+01 0.00000E+00
 -1       353 5.71500E+01 4.48040E+01 0.00000E+00
 -1       354 6.01500E+01 4.48040E+01 0.00000E+00
 -1       355 6.31500E+01 4.48040E+01 0.00000E+00
 -1       356 6.61500E+01 4.48040E+01 0.00000E+00
 -1       357 6.91500E+01 4.48040E+01 0.00000E+00
 -1       358 7.21500E+01 4.48040E+01 0.00000E+00
 -1       359 7.51500E+01 4.48040E+01 0.00000E+00
 -1       360 7.81500E+01 4.48040E+01 0.00000E+00
 -1       361 8.11500E+01 4.48040E+01 0.00000E+00
 -1       362 8.41500E+01 4.48040E+01 0.00000E+00
 -1       363 8.71500E+01 4.48040E+01 0.00000E+00
 -1       364 9.01500E+01 4.48040E+01 0.00000E+00
 -1       365 9.31500E+01 4.48040E+01 0.00000E+00
 -1       366 9.61500E+01 4.48040E+01 0.00000E+00
 -1       367 9.91500E+01 4.48040E+01 0.00000E+00
 -1       368 1.02150E+02 4.48040E+01 0.00000E+00
 -1       369 1.05150E+02 4.48040E+01 0.00000E+00
 -1       370 1.08150E+02 4.48040E+01 0.00000E+00
 -1       371 1.11150E+02 4.48040E+01 0.00000E+00
 -1       372 1.14150E+02 4.48040E+01 0.00000E+00
 -1       373 1.17150E+02 4.48040E+01 0.00000E+00
 -1       374 1.20150E+02 4.48040E+01 0.00000E+00
 -1       375 1.23150E+02 4.48040E+01 0.00000E+00
 -1       376 1.26150E+02 4.48040E+01 0.00000E+00
 -1       377 1.29150E+02 4.48040E+01 0.00000E+00
 -1       378 1.32150E+02 4.48040E+01 0.00000E+00
 -1       379 1.35150E+02 4.48040E+01 0.00000E+00
 -1       380 1.38150E+02 4.48040E+01 0.00000E+00
 -1       381 1.41150E+02 4.48040E+01 0.00000E+00
 -1       382 1.43838E+02 4.49212E+01 0.00000E+00
 -1       383 1.15350E+01 4.01875E+00 0.00000E+00
 -1       384 1.45350E+01 4.01875E+00 0.00000E+00
 -1       385 1.75350E+01 4.01875E+00 0.00000E+00
 -1       386 2.05350E+01 4.01875E+00 0.00000E+00
 -1       387 2.35350E+01 4.01875E+00 0.00000E+00
 -1       388 2.65350E+01 4.01875E+00 0.00000E+00
 -1       389 2.95350E+01 4.01875E+00 0.00000E+00
 -1       390 3.25350E+01 4.01875E+00 0.00000E+00
 -1       391 3.55350E+01 4.01875E+00 0.00000E+00
 -1       392 3.85350E+01 4.01875E+00 0.00000E+00
 -1       393 4.15350E+01 4.01875E+00 0.00000E+00
 -1       394 4.45350E+01 4.01875E+00 0.00000E+00
 -1       395 4.75350E+01 4.01875E+00 0.00000E+00
 -1       396 5.05350E+01 4.01875E+00 0.00000E+00
 -1       397 5.35350E+01 4.01875E+00 0.00000E+00
 -1       398 5.65350E+01 4.01875E+00 0.00000E+00
 -1       399 5.95350E+01 4.01875E+00 0.00000E+00
 -1       400 6.25350E+01 4.01875E+00 0.00000E+00
 -1       401 6.55350E+01 4.01875E+00 0.00000E+00
 -1       402 6.85350E+01 4.01875E+00 0.00000E+00
 -1       403 7.15350E+01 4.01875E+00 0.00000E+00
 -1       404 7.45350E+01 4.01875E+00 0.00000E+00
 -1       405 7.75350E+01 4.01875E+00 0.00000E+00
 -1       406 8.05350E+01 4.01875E+00 0.00000E+00
 -1       407 8.35350E+01 4.01875E+00 0.00000E+00
 -1       408 8.65350E+01 4.01875E+00 0.00000E+00
 -1       409 8.95350E+01 4.01875E+00 0.00000E+00
 -1       410 9.25350E+01 4.01875E+00 0.00000E+00
 -1       411 9.55350E+01 4.01875E+00 0.00000E+00
 -1       412 9.85350E+01 4.01875E+00 0.00000E+00
 -1       413 1.01535E+02 4.01875E+00 0.00000E+00
 -1       414 1.04535E+02 4.01875E+00 0.00000E+00
 -1       415 1.07535E+02 4.01875E+00 0.00000E+00
 -1       416 1.10535E+02 4.01875E+00 0.00000E+00
 -1       417 1.13535E+02 4.01875E+00 0.00000E+00
 -1       418 1.16535E+02 4.01875E+00 0.00000E+00
 -1       419 1.19535E+02 4.01875E+00 0.00000E+00
 -1       420 1.22535E+02 4.01875E+00 0.00000E+00
 -1       421 1.25535E+02 4.01875E+00 0.00000E+00
 -1       422 1.28535E+02 4.01875E+00 0.00000E+00
 -1       423 1.31535E+02 4.01875E+00 0.00000E+00
 -1       424 1.34535E+02 4.01875E+00 0.00000E+00
 -1       425 1.37535E+02 4.01875E+00 0.00000E+00
 -1       426 1.40535E+02 4.01875E+00 0.00000E+00
 -1       427 1.43535E+02 4.01875E+00 0.00000E+00
 -1       428 1.45469E+02 4.22188E+00 0.00000E+00
 -1       429 1.44804E+02 1.18000E+01 0.00000E+00
 -1       430 1.44804E+02 8.85000E+00 0.00000E+00
 -1       431 1.45136E+02 6.53594E+00 0.00000E+00
 -1       432 1.44804E+02 1.47000E+01 0.00000E+00
 -1       433 1.44804E+02 1.76500E+01 0.00000E+00
 -1       434 1.44804E+02 2.06000E+01 0.00000E+00
 -1       435 1.44804E+02 2.35500E+01 0.00000E+00
 -1       436 1.44804E+02 2.65000E+01 0.00000E+00
 -1       437 1.44804E+02 2.94500E+01 0.00000E+00
 -1       438 1.44804E+02 3.23500E+01 0.00000E+00
 -1       439 1.44804E+02 3.53000E+01 0.00000E+00
 -1       440 1.44804E+02 3.82500E+01 0.00000E+00
 -1       441 1.44804E+02 4.12000E+01 0.00000E+00
 -1       442 3.17501E+01 1.80290E+01 0.00000E+00
 -1       443 3.22006E+01 2.23441E+01 0.00000E+00
 -1       444 3.25247E+01 2.03492E+01 0.00000E+00
 -1       445 3.08240E+01 1.65275E+01 0.00000E+00
 -1       446 2.89216E+01 1.50292E+01 0.00000E+00
 -1       447 5.19600E+00 3.82000E+01 0.00000E+00
 -1       448 2.55431E+01 1.32588E+01 0.00000E+00
 -1       449 2.37455E+01 1.27688E+01 0.00000E+00
 -1       450 2.13787E+01 1.27319E+01 0.00000E+00
 -1       451 1.93000E+01 1.34415E+01 0.00000E+00
 -1       452 1.76606E+01 1.41970E+01 0.00000E+00
 -1       453 1.57091E+01 1.55283E+01 0.00000E+00
 -1       454 1.48224E+01 1.72096E+01 0.00000E+00
 -1       455 1.36927E+01 1.88842E+01 0.00000E+00
 -1       456 1.33017E+01 2.08194E+01 0.00000E+00
 -1       457 1.31118E+01 2.29435E+01 0.00000E+00
 -1       458 1.35395E+01 2.48073E+01 0.00000E+00
 -1       459 1.39485E+01 2.66540E+01 0.00000E+00
 -1       460 1.52790E+01 2.88138E+01 0.00000E+00
 -1       461 1.65694E+01 3.00124E+01 0.00000E+00
 -1       462 1.83584E+01 3.13264E+01 0.00000E+00
 -1       463 2.07607E+01 3.18037E+01 0.00000E+00
 -1       464 2.28278E+01 3.21012E+01 0.00000E+00
 -1       465 2.44187E+01 3.18722E+01 0.00000E+00
 -1       466 2.64264E+01 3.11600E+01 0.00000E+00
 -1       467 2.78753E+01 3.03953E+01 0.00000E+00
 -1       468 2.95930E+01 2.90461E+01 0.00000E+00
 -1       469 3.06532E+01 2.77411E+01 0.00000E+00
 -1       470 3.18278E+01 2.58725E+01 0.00000E+00
 -1       471 3.21199E+01 2.43508E+01 0.00000E+00
 -1       472 2.73442E+01 1.38823E+01 0.00000E+00
 -1       473 2.25917E+01 1.16596E+01 0.00000E+00
 -1       474 1.00350E+01 6.61675E+00 0.00000E+00
 -1       475 7.79400E+00 3.08500E+01 0.00000E+00
 -1       476 7.79400E+00 3.38000E+01 0.00000E+00
 -1       477 7.41382E+00 2.50000E+01 0.00000E+00
 -1       478 7.41382E+00 2.20500E+01 0.00000E+00
 -1       479 7.41382E+00 1.91000E+01 0.00000E+00
 -1       480 7.41382E+00 1.61500E+01 0.00000E+00
 -1       481 7.41382E+00 1.32000E+01 0.00000E+00
 -1       482 7.41382E+00 1.02500E+01 0.00000E+00
 -1       483 1.30350E+01 6.61675E+00 0.00000E+00
 -1       484 1.06500E+01 4.22060E+01 0.00000E+00
 -1       485 2.70047E+01 1.19498E+01 0.00000E+00
 -1       486 1.36500E+01 4.22060E+01 0.00000E+00
 -1       487 1.66500E+01 4.22060E+01 0.00000E+00
 -1       488 1.96500E+01 4.22060E+01 0.00000E+00
 -1       489 2.26500E+01 4.22060E+01 0.00000E+00
 -1       490 2.56500E+01 4.22060E+01 0.00000E+00
 -1       491 2.86500E+01 4.22060E+01 0.00000E+00
 -1       492 3.16500E+01 4.22060E+01 0.00000E+00
 -1       493 3.46500E+01 4.22060E+01 0.00000E+00
 -1       494 3.76500E+01 4.22060E+01 0.00000E+00
 -1       495 4.06500E+01 4.22060E+01 0.00000E+00
 -1       496 4.36500E+01 4.22060E+01 0.00000E+00
 -1       497 4.66500E+01 4.22060E+01 0.00000E+00
 -1       498 4.96500E+01 4.22060E+01 0.00000E+00
 -1       499 5.26500E+01 4.22060E+01 0.00000E+00
 -1       500 5.56500E+01 4.22060E+01 0.00000E+00
 -1       501 5.86500E+01 4.22060E+01 0.00000E+00
 -1       502 6.16500E+01 4.22060E+01 0.00000E+00
 -1       503 6.46500E+01 4.22060E+01 0.00000E+00
 -1       504 6.76500E+01 4.22060E+01 0.00000E+00
 -1       505 7.06500E+01 4.22060E+01 0.00000E+00
 -1       506 7.36500E+01 4.22060E+01 0.00000E+00
 -1       507 7.66500E+01 4.22060E+01 0.00000E+00
 -1       508 7.96500E+01 4.22060E+01 0.00000E+00
 -1       509 8.26500E+01 4.22060E+01 0.00000E+00
 -1       510 8.56500E+01 4.22060E+01 0.00000E+00
 -1       511 8.86500E+01 4.22060E+01 0.00000E+00
 -1       512 9.16500E+01 4.22060E+01 0.00000E+00
 -1       513 9.46500E+01 4.22060E+01 0.00000E+00
 -1       514 9.76500E+01 4.22060E+01 0.00000E+00
 -1       515 1.00650E+02 4.22060E+01 0.00000E+00
 -1       516 1.03650E+02 4.22060E+01 0.00000E+00
 -1       517 1.06650E+02 4.22060E+01 0.00000E+00
 -1       518 1.09650E+02 4.22060E+01 0.00000E+00
 -1       519 1.12650E+02 4.22060E+01 0.00000E+00
 -1       520 1.15650E+02 4.22060E+01 0.00000E+00
 -1       521 1.18650E+02 4.22060E+01 0.00000E+00
 -1       522 1.21650E+02 4.22060E+01 0.00000E+00
 -1       523 1.24650E+02 4.22060E+01 0.00000E+00
 -1       524 1.27650E+02 4.22060E+01 0.00000E+00
 -1       525 1.30650E+02 4.22060E+01 0.00000E+00
 -1       526 1.33650E+02 4.22060E+01 0.00000E+00
 -1       527 1.36650E+02 4.22060E+01 0.00000E+00
 -1       528 1.39650E+02 4.22060E+01 0.00000E+00
 -1       529 1.90350E+01 6.57172E+00 0.00000E+00
 -1       530 2.20350E+01 6.57172E+00 0.00000E+00
 -1       531 2.50350E+01 6.57172E+00 0.00000E+00
 -1       532 2.80350E+01 6.57172E+00 0.00000E+00
 -1       533 3.10350E+01 6.57172E+00 0.00000E+00
 -1       534 3.40350E+01 6.57172E+00 0.00000E+00
 -1       535 3.70350E+01 6.57172E+00 0.00000E+00
 -1       536 4.00350E+01 6.57172E+00 0.00000E+00
 -1       537 4.30350E+01 6.57172E+00 0.00000E+00
 -1       538 4.60350E+01 6.57172E+00 0.00000E+00
 -1       539 4.90350E+01 6.57172E+00 0.00000E+00
 -1       540 5.20350E+01 6.57172E+00 0.00000E+00
 -1       541 5.50350E+01 6.57172E+00 0.00000E+00
 -1       542 5.80350E+01 6.57172E+00 0.00000E+00
 -1       543 6.10350E+01 6.57172E+00 0.00000E+00
 -1       544 6.40350E+01 6.57172E+00 0.00000E+00
 -1       545 6.70350E+01 6.57172E+00 0.00000E+00
 -1       546 7.00350E+01 6.57172E+00 0.00000E+00
 -1       547 7.30350E+01 6.57172E+00 0.00000E+00
 -1       548 7.60350E+01 6.57172E+00 0.00000E+00
 -1       549 7.90350E+01 6.57172E+00 0.00000E+00
 -1       550 8.20350E+01 6.57172E+00 0.00000E+00
 -1       551 8.50350E+01 6.57172E+00 0.00000E+00
 -1       552 8.80350E+01 6.57172E+00 0.00000E+00
 -1       553 9.10350E+01 6.57172E+00 0.00000E+00
 -1       554 9.40350E+01 6.57172E+00 0.00000E+00
 -1       555 9.70350E+01 6.57172E+00 0.00000E+00
 -1       556 1.00035E+02 6.57172E+00 0.00000E+00
 -1       557 1.03035E+02 6.57172E+00 0.00000E+00
 -1       558 1.06035E+02 6.57172E+00 0.00000E+00
 -1       559 1.09035E+02 6.57172E+00 0.00000E+00
 -1       560 1.12035E+02 6.57172E+00 0.00000E+00
 -1       561 1.15035E+02 6.57172E+00 0.00000E+00
 -1       562 1.18035E+02 6.57172E+00 0.00000E+00
 -1       563 1.21035E+02 6.57172E+00 0.00000E+00
 -1       564 1.24035E+02 6.57172E+00 0.00000E+00
 -1       565 1.27035E+02 6.57172E+00 0.00000E+00
 -1       566 1.30035E+02 6.57172E+00 0.00000E+00
 -1       567 1.33035E+02 6.57172E+00 0.00000E+00
 -1       568 1.36035E+02 6.57172E+00 0.00000E+00
 -1       569 1.39035E+02 6.57172E+00 0.00000E+00
 -1       570 1.42035E+02 6.57172E+00 0.00000E+00
 -1       571 1.42206E+02 1.61750E+01 0.00000E+00
 -1       572 1.42206E+02 1.91250E+01 0.00000E+00
 -1       573 1.42206E+02 1.03250E+01 0.00000E+00
 -1       574 1.42206E+02 1.32500E+01 0.00000E+00
 -1       575 1.42206E+02 2.20750E+01 0.00000E+00
 -1       576 1.42206E+02 2.50250E+01 0.00000E+00
 -1       577 1.42206E+02 2.79750E+01 0.00000E+00
 -1       578 1.42206E+02 3.08750E+01 0.00000E+00
 -1       579 1.42206E+02 3.38250E+01 0.00000E+00
 -1       580 1.42206E+02 3.67750E+01 0.00000E+00
 -1       581 1.42206E+02 3.97250E+01 0.00000E+00
 -1       582 3.42209E+01 2.16486E+01 0.00000E+00
 -1       583 3.36848E+01 1.86725E+01 0.00000E+00
 -1       584 3.41402E+01 2.36554E+01 0.00000E+00
 -1       585 1.60350E+01 6.61675E+00 0.00000E+00
 -1       586 3.26042E+01 1.64659E+01 0.00000E+00
 -1       587 2.91416E+01 1.30686E+01 0.00000E+00
 -1       588 2.15738E+01 3.34842E+01 0.00000E+00
 -1       589 1.31534E+01 2.86335E+01 0.00000E+00
 -1       590 7.79400E+00 2.79000E+01 0.00000E+00
 -1       591 1.98394E+01 1.16221E+01 0.00000E+00
 -1       592 2.52070E+01 1.14597E+01 0.00000E+00
 -1       593 1.38969E+01 1.56471E+01 0.00000E+00
 -1       594 1.77975E+01 1.23376E+01 0.00000E+00
 -1       595 1.91716E+01 3.30069E+01 0.00000E+00
 -1       596 1.57183E+01 1.34458E+01 0.00000E+00
 -1       597 1.27671E+01 1.73217E+01 0.00000E+00
 -1       598 1.18160E+01 1.95121E+01 0.00000E+00
 -1       599 1.14984E+01 2.17288E+01 0.00000E+00
 -1       600 1.18990E+01 2.42029E+01 0.00000E+00
 -1       601 1.23079E+01 2.60495E+01 0.00000E+00
 -1       602 1.48710E+01 3.05470E+01 0.00000E+00
 -1       603 1.65478E+01 3.19167E+01 0.00000E+00
 -1       604 2.38556E+01 3.36014E+01 0.00000E+00
 -1       605 2.59400E+01 3.29746E+01 0.00000E+00
 -1       606 2.78732E+01 3.21463E+01 0.00000E+00
 -1       607 2.97418E+01 3.10036E+01 0.00000E+00
 -1       608 3.14237E+01 2.94502E+01 0.00000E+00
 -1       609 3.26926E+01 2.77195E+01 0.00000E+00
 -1       610 3.34164E+01 2.56875E+01 0.00000E+00
 -1       611 7.92300E+00 4.16780E+01 0.00000E+00
 -1       612 7.61550E+00 6.23338E+00 0.00000E+00
 -1       613 3.09340E+01 1.44309E+01 0.00000E+00
 -1       614 7.79400E+00 3.67500E+01 0.00000E+00
 -1       615 1.41678E+02 4.22645E+01 0.00000E+00
 -1       616 1.73610E+01 3.35972E+01 0.00000E+00
 -1       617 3.53810E+01 1.99719E+01 0.00000E+00
 -1       618 2.40533E+01 1.03506E+01 0.00000E+00
 -1       619 1.39061E+01 1.35646E+01 0.00000E+00
 -1       620 2.10524E+01 1.05499E+01 0.00000E+00
 -1       621 2.75821E+01 3.41369E+01 0.00000E+00
 -1       622 9.63164E+00 2.05750E+01 0.00000E+00
 -1       623 9.29650E+00 2.35250E+01 0.00000E+00
 -1       624 9.63164E+00 1.46750E+01 0.00000E+00
 -1       625 9.63164E+00 1.17250E+01 0.00000E+00
 -1       626 1.15350E+01 9.21475E+00 0.00000E+00
 -1       627 1.40178E+02 3.96665E+01 0.00000E+00
 -1       628 1.51500E+01 3.96080E+01 0.00000E+00
 -1       629 1.81500E+01 3.96080E+01 0.00000E+00
 -1       630 2.11500E+01 3.96080E+01 0.00000E+00
 -1       631 2.41500E+01 3.96080E+01 0.00000E+00
 -1       632 2.71500E+01 3.96080E+01 0.00000E+00
 -1       633 3.01500E+01 3.96080E+01 0.00000E+00
 -1       634 3.31500E+01 3.96080E+01 0.00000E+00
 -1       635 3.61500E+01 3.96080E+01 0.00000E+00
 -1       636 3.91500E+01 3.96080E+01 0.00000E+00
 -1       637 4.21500E+01 3.96080E+01 0.00000E+00
 -1       638 4.51500E+01 3.96080E+01 0.00000E+00
 -1       639 4.81500E+01 3.96080E+01 0.00000E+00
 -1       640 5.11500E+01 3.96080E+01 0.00000E+00
 -1       641 5.41500E+01 3.96080E+01 0.00000E+00
 -1       642 5.71500E+01 3.96080E+01 0.00000E+00
 -1       643 6.01500E+01 3.96080E+01 0.00000E+00
 -1       644 6.31500E+01 3.96080E+01 0.00000E+00
 -1       645 6.61500E+01 3.96080E+01 0.00000E+00
 -1       646 6.91500E+01 3.96080E+01 0.00000E+00
 -1       647 7.21500E+01 3.96080E+01 0.00000E+00
 -1       648 7.51500E+01 3.96080E+01 0.00000E+00
 -1       649 7.81500E+01 3.96080E+01 0.00000E+00
 -1       650 8.11500E+01 3.96080E+01 0.00000E+00
 -1       651 8.41500E+01 3.96080E+01 0.00000E+00
 -1       652 8.71500E+01 3.96080E+01 0.00000E+00
 -1       653 9.01500E+01 3.96080E+01 0.00000E+00
 -1       654 9.31500E+01 3.96080E+01 0.00000E+00
 -1       655 9.61500E+01 3.96080E+01 0.00000E+00
 -1       656 9.91500E+01 3.96080E+01 0.00000E+00
 -1       657 1.02150E+02 3.96080E+01 0.00000E+00
 -1       658 1.05150E+02 3.96080E+01 0.00000E+00
 -1       659 1.08150E+02 3.96080E+01 0.00000E+00
 -1       660 1.11150E+02 3.96080E+01 0.00000E+00
 -1       661 1.14150E+02 3.96080E+01 0.00000E+00
 -1       662 1.17150E+02 3.96080E+01 0.00000E+00
 -1       663 1.20150E+02 3.96080E+01 0.00000E+00
 -1       664 1.23150E+02 3.96080E+01 0.00000E+00
 -1       665 1.26150E+02 3.96080E+01 0.00000E+00
 -1       666 1.29150E+02 3.96080E+01 0.00000E+00
 -1       667 1.32150E+02 3.96080E+01 0.00000E+00
 -1       668 1.35150E+02 3.96080E+01 0.00000E+00
 -1       669 1.37664E+02 3.96372E+01 0.00000E+00
 -1       670 2.35350E+01 8.78953E+00 0.00000E+00
 -1       671 2.05350E+01 8.95710E+00 0.00000E+00
 -1       672 2.95350E+01 9.12468E+00 0.00000E+00
 -1       673 3.25350E+01 9.12468E+00 0.00000E+00
 -1       674 3.55350E+01 9.12468E+00 0.00000E+00
 -1       675 3.85350E+01 9.12468E+00 0.00000E+00
 -1       676 4.15350E+01 9.12468E+00 0.00000E+00
 -1       677 4.45350E+01 9.12468E+00 0.00000E+00
 -1       678 4.75350E+01 9.12468E+00 0.00000E+00
 -1       679 5.05350E+01 9.12468E+00 0.00000E+00
 -1       680 5.35350E+01 9.12468E+00 0.00000E+00
 -1       681 5.65350E+01 9.12468E+00 0.00000E+00
 -1       682 5.95350E+01 9.12468E+00 0.00000E+00
 -1       683 6.25350E+01 9.12468E+00 0.00000E+00
 -1       684 6.55350E+01 9.12468E+00 0.00000E+00
 -1       685 6.85350E+01 9.12468E+00 0.00000E+00
 -1       686 7.15350E+01 9.12468E+00 0.00000E+00
 -1       687 7.45350E+01 9.12468E+00 0.00000E+00
 -1       688 7.75350E+01 9.12468E+00 0.00000E+00
 -1       689 8.05350E+01 9.12468E+00 0.00000E+00
 -1       690 8.35350E+01 9.12468E+00 0.00000E+00
 -1       691 8.65350E+01 9.12468E+00 0.00000E+00
 -1       692 8.95350E+01 9.12468E+00 0.00000E+00
 -1       693 9.25350E+01 9.12468E+00 0.00000E+00
 -1       694 9.55350E+01 9.12468E+00 0.00000E+00
 -1       695 9.85350E+01 9.12468E+00 0.00000E+00
 -1       696 1.01535E+02 9.12468E+00 0.00000E+00
 -1       697 1.04535E+02 9.12468E+00 0.00000E+00
 -1       698 1.07535E+02 9.12468E+00 0.00000E+00
 -1       699 1.10535E+02 9.12468E+00 0.00000E+00
 -1       700 1.13535E+02 9.12468E+00 0.00000E+00
 -1       701 1.16535E+02 9.12468E+00 0.00000E+00
 -1       702 1.19535E+02 9.12468E+00 0.00000E+00
 -1       703 1.22535E+02 9.12468E+00 0.00000E+00
 -1       704 1.25535E+02 9.12468E+00 0.00000E+00
 -1       705 1.28535E+02 9.12468E+00 0.00000E+00
 -1       706 1.31535E+02 9.12468E+00 0.00000E+00
 -1       707 1.34535E+02 9.12468E+00 0.00000E+00
 -1       708 1.37535E+02 9.12468E+00 0.00000E+00
 -1       709 1.39870E+02 9.72484E+00 0.00000E+00
 -1       710 1.39608E+02 2.35500E+01 0.00000E+00
 -1       711 1.39608E+02 1.76500E+01 0.00000E+00
 -1       712 1.39608E+02 2.65000E+01 0.00000E+00
 -1       713 1.39608E+02 2.06000E+01 0.00000E+00
 -1       714 1.39608E+02 2.94000E+01 0.00000E+00
 -1       715 1.39608E+02 3.23500E+01 0.00000E+00
 -1       716 1.39608E+02 3.53000E+01 0.00000E+00
 -1       717 1.45350E+01 9.21475E+00 0.00000E+00
 -1       718 1.24864E+01 3.09597E+01 0.00000E+00
 -1       719 9.78035E+00 3.93914E+01 0.00000E+00
 -1       720 3.18602E+01 3.16099E+01 0.00000E+00
 -1       721 2.00548E+01 3.48456E+01 0.00000E+00
 -1       722 1.75350E+01 9.16971E+00 0.00000E+00
 -1       723 1.01794E+01 2.93750E+01 0.00000E+00
 -1       724 3.58943E+01 2.27209E+01 0.00000E+00
 -1       725 2.65350E+01 8.95711E+00 0.00000E+00
 -1       726 1.24652E+01 3.94997E+01 0.00000E+00
 -1       727 2.26096E+01 3.55904E+01 0.00000E+00
 -1       728 3.11770E+01 1.22509E+01 0.00000E+00
 -1       729 3.35765E+01 2.96981E+01 0.00000E+00
 -1       730 9.63164E+00 1.76250E+01 0.00000E+00
 -1       731 1.11006E+01 2.78748E+01 0.00000E+00
 -1       732 1.19797E+01 1.55721E+01 0.00000E+00
 -1       733 1.44124E+01 3.28197E+01 0.00000E+00
 -1       734 3.33539E+01 1.41476E+01 0.00000E+00
 -1       735 1.05107E+01 2.54789E+01 0.00000E+00
 -1       736 3.46096E+01 1.68518E+01 0.00000E+00
 -1       737 2.54400E+01 3.50909E+01 0.00000E+00
 -1       738 2.89464E+01 1.08413E+01 0.00000E+00
 -1       739 2.97022E+01 3.30382E+01 0.00000E+00
 -1       740 1.57936E+01 1.10824E+01 0.00000E+00
 -1       741 1.03920E+01 3.52750E+01 0.00000E+00
 -1       742 1.52255E+01 3.45002E+01 0.00000E+00
 -1       743 1.82442E+01 3.54359E+01 0.00000E+00
 -1       744 1.39870E+02 1.26498E+01 0.00000E+00
 -1       745 3.63058E+01 1.81512E+01 0.00000E+00
 -1       746 3.52361E+01 2.51907E+01 0.00000E+00
 -1       747 1.39739E+02 1.51499E+01 0.00000E+00
 -1       748 3.51595E+01 2.78042E+01 0.00000E+00
 -1       749 2.66451E+01 9.72668E+00 0.00000E+00
 -1       750 1.81404E+01 1.00450E+01 0.00000E+00
 -1       751 1.15350E+01 1.21648E+01 0.00000E+00
 -1       752 1.66500E+01 3.73902E+01 0.00000E+00
 -1       753 1.96500E+01 3.75577E+01 0.00000E+00
 -1       754 3.16500E+01 3.70100E+01 0.00000E+00
 -1       755 3.46500E+01 3.70100E+01 0.00000E+00
 -1       756 3.76500E+01 3.70100E+01 0.00000E+00
 -1       757 4.06500E+01 3.70100E+01 0.00000E+00
 -1       758 4.36500E+01 3.70100E+01 0.00000E+00
 -1       759 4.66500E+01 3.70100E+01 0.00000E+00
 -1       760 4.96500E+01 3.70100E+01 0.00000E+00
 -1       761 5.26500E+01 3.70100E+01 0.00000E+00
 -1       762 5.56500E+01 3.70100E+01 0.00000E+00
 -1       763 5.86500E+01 3.70100E+01 0.00000E+00
 -1       764 6.16500E+01 3.70100E+01 0.00000E+00
 -1       765 6.46500E+01 3.70100E+01 0.00000E+00
 -1       766 6.76500E+01 3.70100E+01 0.00000E+00
 -1       767 7.06500E+01 3.70100E+01 0.00000E+00
 -1       768 7.36500E+01 3.70100E+01 0.00000E+00
 -1       769 7.66500E+01 3.70100E+01 0.00000E+00
 -1       770 7.96500E+01 3.70100E+01 0.00000E+00
 -1       771 8.26500E+01 3.70100E+01 0.00000E+00
 -1       772 8.56500E+01 3.70100E+01 0.00000E+00
 -1       773 8.86500E+01 3.70100E+01 0.00000E+00
 -1       774 9.16500E+01 3.70100E+01 0.00000E+00
 -1       775 9.46500E+01 3.70100E+01 0.00000E+00
 -1       776 9.76500E+01 3.70100E+01 0.00000E+00
 -1       777 1.00650E+02 3.70100E+01 0.00000E+00
 -1       778 1.03650E+02 3.70100E+01 0.00000E+00
 -1       779 1.06650E+02 3.70100E+01 0.00000E+00
 -1       780 1.09650E+02 3.70100E+01 0.00000E+00
 -1       781 1.12650E+02 3.70100E+01 0.00000E+00
 -1       782 1.15650E+02 3.70100E+01 0.00000E+00
 -1       783 1.18650E+02 3.70100E+01 0.00000E+00
 -1       784 1.21650E+02 3.70100E+01 0.00000E+00
 -1       785 1.24650E+02 3.70100E+01 0.00000E+00
 -1       786 1.27650E+02 3.70100E+01 0.00000E+00
 -1       787 1.30650E+02 3.70100E+01 0.00000E+00
 -1       788 1.33650E+02 3.70100E+01 0.00000E+00
 -1       789 4.00350E+01 1.17227E+01 0.00000E+00
 -1       790 4.30350E+01 1.17227E+01 0.00000E+00
 -1       791 4.60350E+01 1.17227E+01 0.00000E+00
 -1       792 4.90350E+01 1.17227E+01 0.00000E+00
 -1       793 5.20350E+01 1.17227E+01 0.00000E+00
 -1       794 5.50350E+01 1.17227E+01 0.00000E+00
 -1       795 5.80350E+01 1.17227E+01 0.00000E+00
 -1       796 6.10350E+01 1.17227E+01 0.00000E+00
 -1       797 6.40350E+01 1.17227E+01 0.00000E+00
 -1       798 6.70350E+01 1.17227E+01 0.00000E+00
 -1       799 7.00350E+01 1.17227E+01 0.00000E+00
 -1       800 7.30350E+01 1.17227E+01 0.00000E+00
 -1       801 7.60350E+01 1.17227E+01 0.00000E+00
 -1       802 7.90350E+01 1.17227E+01 0.00000E+00
 -1       803 8.20350E+01 1.17227E+01 0.00000E+00
 -1       804 8.50350E+01 1.17227E+01 0.00000E+00
 -1       805 8.80350E+01 1.17227E+01 0.00000E+00
 -1       806 9.10350E+01 1.17227E+01 0.00000E+00
 -1       807 9.40350E+01 1.17227E+01 0.00000E+00
 -1       808 9.70350E+01 1.17227E+01 0.00000E+00
 -1       809 1.00035E+02 1.17227E+01 0.00000E+00
 -1       810 1.03035E+02 1.17227E+01 0.00000E+00
 -1       811 1.06035E+02 1.17227E+01 0.00000E+00
 -1       812 1.09035E+02 1.17227E+01 0.00000E+00
 -1       813 1.12035E+02 1.17227E+01 0.00000E+00
 -1       814 1.15035E+02 1.17227E+01 0.00000E+00
 -1       815 1.18035E+02 1.17227E+01 0.00000E+00
 -1       816 1.21035E+02 1.17227E+01 0.00000E+00
 -1       817 1.24035E+02 1.17227E+01 0.00000E+00
 -1       818 1.27035E+02 1.17227E+01 0.00000E+00
 -1       819 1.30035E+02 1.17227E+01 0.00000E+00
 -1       820 1.33035E+02 1.17227E+01 0.00000E+00
 -1       821 1.36035E+02 1.17227E+01 0.00000E+00
 -1       822 1.37953E+02 1.21863E+01 0.00000E+00
 -1       823 1.37010E+02 3.38250E+01 0.00000E+00
 -1       824 3.60697E+01 3.01734E+01 0.00000E+00
 -1       825 3.55373E+01 1.47774E+01 0.00000E+00
 -1       826 1.37010E+02 2.50250E+01 0.00000E+00
 -1       827 3.35023E+01 1.17798E+01 0.00000E+00
 -1       828 1.37010E+02 3.08750E+01 0.00000E+00
 -1       829 3.70350E+01 1.17227E+01 0.00000E+00
 -1       830 2.21782E+01 9.72750E+00 0.00000E+00
 -1       831 3.43534E+01 3.20853E+01 0.00000E+00
 -1       832 2.96626E+01 3.55567E+01 0.00000E+00
 -1       833 3.74883E+01 2.10008E+01 0.00000E+00
 -1       834 3.72225E+01 2.43974E+01 0.00000E+00
 -1       835 1.37010E+02 2.79500E+01 0.00000E+00
 -1       836 1.37337E+02 3.67311E+01 0.00000E+00
 -1       837 3.19128E+01 3.40338E+01 0.00000E+00
 -1       838 2.88660E+01 3.68725E+01 0.00000E+00
 -1       839 3.71458E+01 2.70109E+01 0.00000E+00
 -1       840 3.80560E+01 2.93802E+01 0.00000E+00
 -1       841 1.37010E+02 1.91250E+01 0.00000E+00
 -1       842 3.72335E+01 1.60767E+01 0.00000E+00
 -1       843 1.37010E+02 2.20750E+01 0.00000E+00
 -1       844 1.37563E+01 3.62646E+01 0.00000E+00
 -1       845 1.37141E+02 1.66249E+01 0.00000E+00
 -1       846 3.88165E+01 2.26774E+01 0.00000E+00
 -1       847 3.90660E+01 2.57593E+01 0.00000E+00
 -1       848 3.61500E+01 3.44120E+01 0.00000E+00
 -1       849 3.91500E+01 3.44120E+01 0.00000E+00
 -1       850 4.21500E+01 3.44120E+01 0.00000E+00
 -1       851 4.51500E+01 3.44120E+01 0.00000E+00
 -1       852 4.81500E+01 3.44120E+01 0.00000E+00
 -1       853 5.11500E+01 3.44120E+01 0.00000E+00
 -1       854 5.41500E+01 3.44120E+01 0.00000E+00
 -1       855 5.71500E+01 3.44120E+01 0.00000E+00
 -1       856 6.01500E+01 3.44120E+01 0.00000E+00
 -1       857 6.31500E+01 3.44120E+01 0.00000E+00
 -1       858 6.61500E+01 3.44120E+01 0.00000E+00
 -1       859 6.91500E+01 3.44120E+01 0.00000E+00
 -1       860 7.21500E+01 3.44120E+01 0.00000E+00
 -1       861 7.51500E+01 3.44120E+01 0.00000E+00
 -1       862 7.81500E+01 3.44120E+01 0.00000E+00
 -1       863 8.11500E+01 3.44120E+01 0.00000E+00
 -1       864 8.41500E+01 3.44120E+01 0.00000E+00
 -1       865 8.71500E+01 3.44120E+01 0.00000E+00
 -1       866 9.01500E+01 3.44120E+01 0.00000E+00
 -1       867 9.31500E+01 3.44120E+01 0.00000E+00
 -1       868 9.61500E+01 3.44120E+01 0.00000E+00
 -1       869 9.91500E+01 3.44120E+01 0.00000E+00
 -1       870 1.02150E+02 3.44120E+01 0.00000E+00
 -1       871 1.05150E+02 3.44120E+01 0.00000E+00
 -1       872 1.08150E+02 3.44120E+01 0.00000E+00
 -1       873 1.11150E+02 3.44120E+01 0.00000E+00
 -1       874 1.14150E+02 3.44120E+01 0.00000E+00
 -1       875 1.17150E+02 3.44120E+01 0.00000E+00
 -1       876 1.20150E+02 3.44120E+01 0.00000E+00
 -1       877 1.23150E+02 3.44120E+01 0.00000E+00
 -1       878 1.26150E+02 3.44120E+01 0.00000E+00
 -1       879 1.29150E+02 3.44120E+01 0.00000E+00
 -1       880 1.32150E+02 3.44120E+01 0.00000E+00
 -1       881 4.45350E+01 1.43207E+01 0.00000E+00
 -1       882 4.15350E+01 1.43207E+01 0.00000E+00
 -1       883 5.05350E+01 1.43207E+01 0.00000E+00
 -1       884 5.35350E+01 1.43207E+01 0.00000E+00
 -1       885 5.65350E+01 1.43207E+01 0.00000E+00
 -1       886 5.95350E+01 1.43207E+01 0.00000E+00
 -1       887 6.25350E+01 1.43207E+01 0.00000E+00
 -1       888 6.55350E+01 1.43207E+01 0.00000E+00
 -1       889 6.85350E+01 1.43207E+01 0.00000E+00
 -1       890 7.15350E+01 1.43207E+01 0.00000E+00
 -1       891 7.45350E+01 1.43207E+01 0.00000E+00
 -1       892 7.75350E+01 1.43207E+01 0.00000E+00
 -1       893 8.05350E+01 1.43207E+01 0.00000E+00
 -1       894 8.35350E+01 1.43207E+01 0.00000E+00
 -1       895 8.65350E+01 1.43207E+01 0.00000E+00
 -1       896 8.95350E+01 1.43207E+01 0.00000E+00
 -1       897 9.25350E+01 1.43207E+01 0.00000E+00
 -1       898 9.55350E+01 1.43207E+01 0.00000E+00
 -1       899 9.85350E+01 1.43207E+01 0.00000E+00
 -1       900 1.01535E+02 1.43207E+01 0.00000E+00
 -1       901 1.04535E+02 1.43207E+01 0.00000E+00
 -1       902 1.07535E+02 1.43207E+01 0.00000E+00
 -1       903 1.10535E+02 1.43207E+01 0.00000E+00
 -1       904 1.13535E+02 1.43207E+01 0.00000E+00
 -1       905 1.16535E+02 1.43207E+01 0.00000E+00
 -1       906 1.19535E+02 1.43207E+01 0.00000E+00
 -1       907 1.22535E+02 1.43207E+01 0.00000E+00
 -1       908 1.25535E+02 1.43207E+01 0.00000E+00
 -1       909 1.28535E+02 1.43207E+01 0.00000E+00
 -1       910 1.31535E+02 1.43207E+01 0.00000E+00
 -1       911 1.34535E+02 1.43207E+01 0.00000E+00
 -1       912 3.53071E+01 1.30815E+01 0.00000E+00
 -1       913 3.91003E+01 1.86618E+01 0.00000E+00
 -1       914 3.70033E+01 1.43808E+01 0.00000E+00
 -1       915 3.68619E+01 3.26109E+01 0.00000E+00
 -1       916 1.34412E+02 3.23500E+01 0.00000E+00
 -1       917 1.37547E+02 1.44056E+01 0.00000E+00
 -1       918 4.75350E+01 1.43207E+01 0.00000E+00
 -1       919 3.99762E+01 2.81286E+01 0.00000E+00
 -1       920 1.34412E+02 2.06000E+01 0.00000E+00
 -1       921 1.34543E+02 1.80999E+01 0.00000E+00
 -1       922 1.34412E+02 2.35500E+01 0.00000E+00
 -1       923 4.04284E+01 2.03383E+01 0.00000E+00
 -1       924 3.88482E+01 3.18177E+01 0.00000E+00
 -1       925 1.34412E+02 2.94250E+01 0.00000E+00
 -1       926 1.33543E+02 3.35320E+01 0.00000E+00
 -1       927 1.34412E+02 2.64875E+01 0.00000E+00
 -1       928 4.36500E+01 3.18140E+01 0.00000E+00
 -1       929 4.66500E+01 3.18140E+01 0.00000E+00
 -1       930 4.96500E+01 3.18140E+01 0.00000E+00
 -1       931 5.26500E+01 3.18140E+01 0.00000E+00
 -1       932 5.56500E+01 3.18140E+01 0.00000E+00
 -1       933 5.86500E+01 3.18140E+01 0.00000E+00
 -1       934 6.16500E+01 3.18140E+01 0.00000E+00
 -1       935 6.46500E+01 3.18140E+01 0.00000E+00
 -1       936 6.76500E+01 3.18140E+01 0.00000E+00
 -1       937 7.06500E+01 3.18140E+01 0.00000E+00
 -1       938 7.36500E+01 3.18140E+01 0.00000E+00
 -1       939 7.66500E+01 3.18140E+01 0.00000E+00
 -1       940 7.96500E+01 3.18140E+01 0.00000E+00
 -1       941 8.26500E+01 3.18140E+01 0.00000E+00
 -1       942 8.56500E+01 3.18140E+01 0.00000E+00
 -1       943 8.86500E+01 3.18140E+01 0.00000E+00
 -1       944 9.16500E+01 3.18140E+01 0.00000E+00
 -1       945 9.46500E+01 3.18140E+01 0.00000E+00
 -1       946 9.76500E+01 3.18140E+01 0.00000E+00
 -1       947 1.00650E+02 3.18140E+01 0.00000E+00
 -1       948 1.03650E+02 3.18140E+01 0.00000E+00
 -1       949 1.06650E+02 3.18140E+01 0.00000E+00
 -1       950 1.09650E+02 3.18140E+01 0.00000E+00
 -1       951 1.12650E+02 3.18140E+01 0.00000E+00
 -1       952 1.15650E+02 3.18140E+01 0.00000E+00
 -1       953 1.18650E+02 3.18140E+01 0.00000E+00
 -1       954 1.21650E+02 3.18140E+01 0.00000E+00
 -1       955 1.24650E+02 3.18140E+01 0.00000E+00
 -1       956 1.27650E+02 3.18140E+01 0.00000E+00
 -1       957 1.30650E+02 3.18140E+01 0.00000E+00
 -1       958 5.80350E+01 1.69187E+01 0.00000E+00
 -1       959 5.50350E+01 1.69187E+01 0.00000E+00
 -1       960 5.20350E+01 1.69187E+01 0.00000E+00
 -1       961 6.10350E+01 1.69187E+01 0.00000E+00
 -1       962 6.40350E+01 1.69187E+01 0.00000E+00
 -1       963 6.70350E+01 1.69187E+01 0.00000E+00
 -1       964 7.00350E+01 1.69187E+01 0.00000E+00
 -1       965 7.30350E+01 1.69187E+01 0.00000E+00
 -1       966 7.60350E+01 1.69187E+01 0.00000E+00
 -1       967 7.90350E+01 1.69187E+01 0.00000E+00
 -1       968 8.20350E+01 1.69187E+01 0.00000E+00
 -1       969 8.50350E+01 1.69187E+01 0.00000E+00
 -1       970 8.80350E+01 1.69187E+01 0.00000E+00
 -1       971 9.10350E+01 1.69187E+01 0.00000E+00
 -1       972 9.40350E+01 1.69187E+01 0.00000E+00
 -1       973 9.70350E+01 1.69187E+01 0.00000E+00
 -1       974 1.00035E+02 1.69187E+01 0.00000E+00
 -1       975 1.03035E+02 1.69187E+01 0.00000E+00
 -1       976 1.06035E+02 1.69187E+01 0.00000E+00
 -1       977 1.09035E+02 1.69187E+01 0.00000E+00
 -1       978 1.12035E+02 1.69187E+01 0.00000E+00
 -1       979 1.15035E+02 1.69187E+01 0.00000E+00
 -1       980 1.18035E+02 1.69187E+01 0.00000E+00
 -1       981 1.21035E+02 1.69187E+01 0.00000E+00
 -1       982 1.24035E+02 1.69187E+01 0.00000E+00
 -1       983 1.27035E+02 1.69187E+01 0.00000E+00
 -1       984 1.30035E+02 1.69187E+01 0.00000E+00
 -1       985 3.98291E+01 1.61689E+01 0.00000E+00
 -1       986 4.30350E+01 1.69187E+01 0.00000E+00
 -1       987 4.09848E+01 2.40529E+01 0.00000E+00
 -1       988 1.31814E+02 2.20750E+01 0.00000E+00
 -1       989 4.60350E+01 1.69187E+01 0.00000E+00
 -1       990 4.06500E+01 3.18140E+01 0.00000E+00
 -1       991 4.18949E+01 2.64222E+01 0.00000E+00
 -1       992 4.14325E+01 1.79907E+01 0.00000E+00
 -1       993 1.33035E+02 1.69187E+01 0.00000E+00
 -1       994 1.31945E+02 1.95749E+01 0.00000E+00
 -1       995 1.31814E+02 2.50125E+01 0.00000E+00
 -1       996 4.90350E+01 1.69187E+01 0.00000E+00
 -1       997 1.32531E+02 3.06195E+01 0.00000E+00
 -1       998 1.31814E+02 2.79500E+01 0.00000E+00
 -1       999 5.05350E+01 1.95167E+01 0.00000E+00
 -1      1000 4.81500E+01 2.92160E+01 0.00000E+00
 -1      1001 5.11500E+01 2.92160E+01 0.00000E+00
 -1      1002 5.41500E+01 2.92160E+01 0.00000E+00
 -1      1003 5.71500E+01 2.92160E+01 0.00000E+00
 -1      1004 6.01500E+01 2.92160E+01 0.00000E+00
 -1      1005 6.31500E+01 2.92160E+01 0.00000E+00
 -1      1006 6.61500E+01 2.92160E+01 0.00000E+00
 -1      1007 6.91500E+01 2.92160E+01 0.00000E+00
 -1      1008 7.21500E+01 2.92160E+01 0.00000E+00
 -1      1009 7.51500E+01 2.92160E+01 0.00000E+00
 -1      1010 7.81500E+01 2.92160E+01 0.00000E+00
 -1      1011 8.11500E+01 2.92160E+01 0.00000E+00
 -1      1012 8.41500E+01 2.92160E+01 0.00000E+00
 -1      1013 8.71500E+01 2.92160E+01 0.00000E+00
 -1      1014 9.01500E+01 2.92160E+01 0.00000E+00
 -1      1015 9.31500E+01 2.92160E+01 0.00000E+00
 -1      1016 9.61500E+01 2.92160E+01 0.00000E+00
 -1      1017 9.91500E+01 2.92160E+01 0.00000E+00
 -1      1018 1.02150E+02 2.92160E+01 0.00000E+00
 -1      1019 1.05150E+02 2.92160E+01 0.00000E+00
 -1      1020 1.08150E+02 2.92160E+01 0.00000E+00
 -1      1021 1.11150E+02 2.92160E+01 0.00000E+00
 -1      1022 1.14150E+02 2.92160E+01 0.00000E+00
 -1      1023 1.17150E+02 2.92160E+01 0.00000E+00
 -1      1024 1.20150E+02 2.92160E+01 0.00000E+00
 -1      1025 1.23150E+02 2.92160E+01 0.00000E+00
 -1      1026 1.26150E+02 2.92160E+01 0.00000E+00
 -1      1027 1.29150E+02 2.92160E+01 0.00000E+00
 -1      1028 5.65350E+01 1.95167E+01 0.00000E+00
 -1      1029 6.25350E+01 1.95167E+01 0.00000E+00
 -1      1030 5.95350E+01 1.95167E+01 0.00000E+00
 -1      1031 5.35350E+01 1.95167E+01 0.00000E+00
 -1      1032 6.55350E+01 1.95167E+01 0.00000E+00
 -1      1033 6.85350E+01 1.95167E+01 0.00000E+00
 -1      1034 7.15350E+01 1.95167E+01 0.00000E+00
 -1      1035 7.45350E+01 1.95167E+01 0.00000E+00
 -1      1036 7.75350E+01 1.95167E+01 0.00000E+00
 -1      1037 8.05350E+01 1.95167E+01 0.00000E+00
 -1      1038 8.35350E+01 1.95167E+01 0.00000E+00
 -1      1039 8.65350E+01 1.95167E+01 0.00000E+00
 -1      1040 8.95350E+01 1.95167E+01 0.00000E+00
 -1      1041 9.25350E+01 1.95167E+01 0.00000E+00
 -1      1042 9.55350E+01 1.95167E+01 0.00000E+00
 -1      1043 9.85350E+01 1.95167E+01 0.00000E+00
 -1      1044 1.01535E+02 1.95167E+01 0.00000E+00
 -1      1045 1.04535E+02 1.95167E+01 0.00000E+00
 -1      1046 1.07535E+02 1.95167E+01 0.00000E+00
 -1      1047 1.10535E+02 1.95167E+01 0.00000E+00
 -1      1048 1.13535E+02 1.95167E+01 0.00000E+00
 -1      1049 1.16535E+02 1.95167E+01 0.00000E+00
 -1      1050 1.19535E+02 1.95167E+01 0.00000E+00
 -1      1051 1.22535E+02 1.95167E+01 0.00000E+00
 -1      1052 1.25535E+02 1.95167E+01 0.00000E+00
 -1      1053 1.28535E+02 1.95167E+01 0.00000E+00
 -1      1054 4.32314E+01 2.18175E+01 0.00000E+00
 -1      1055 4.31332E+01 1.93681E+01 0.00000E+00
 -1      1056 4.27725E+01 2.91181E+01 0.00000E+00
 -1      1057 4.54612E+01 2.91670E+01 0.00000E+00
 -1      1058 4.41416E+01 2.41868E+01 0.00000E+00
 -1      1059 4.75350E+01 1.95167E+01 0.00000E+00
 -1      1060 1.29216E+02 2.35438E+01 0.00000E+00
 -1      1061 6.40350E+01 2.21147E+01 0.00000E+00
 -1      1062 5.26500E+01 2.66180E+01 0.00000E+00
 -1      1063 5.56500E+01 2.66180E+01 0.00000E+00
 -1      1064 5.86500E+01 2.66180E+01 0.00000E+00
 -1      1065 6.16500E+01 2.66180E+01 0.00000E+00
 -1      1066 6.46500E+01 2.66180E+01 0.00000E+00
 -1      1067 6.76500E+01 2.66180E+01 0.00000E+00
 -1      1068 7.06500E+01 2.66180E+01 0.00000E+00
 -1      1069 7.36500E+01 2.66180E+01 0.00000E+00
 -1      1070 7.66500E+01 2.66180E+01 0.00000E+00
 -1      1071 7.96500E+01 2.66180E+01 0.00000E+00
 -1      1072 8.26500E+01 2.66180E+01 0.00000E+00
 -1      1073 8.56500E+01 2.66180E+01 0.00000E+00
 -1      1074 8.86500E+01 2.66180E+01 0.00000E+00
 -1      1075 9.16500E+01 2.66180E+01 0.00000E+00
 -1      1076 9.46500E+01 2.66180E+01 0.00000E+00
 -1      1077 9.76500E+01 2.66180E+01 0.00000E+00
 -1      1078 1.00650E+02 2.66180E+01 0.00000E+00
 -1      1079 1.03650E+02 2.66180E+01 0.00000E+00
 -1      1080 1.06650E+02 2.66180E+01 0.00000E+00
 -1      1081 1.09650E+02 2.66180E+01 0.00000E+00
 -1      1082 1.12650E+02 2.66180E+01 0.00000E+00
 -1      1083 1.15650E+02 2.66180E+01 0.00000E+00
 -1      1084 1.18650E+02 2.66180E+01 0.00000E+00
 -1      1085 1.21650E+02 2.66180E+01 0.00000E+00
 -1      1086 1.24650E+02 2.66180E+01 0.00000E+00
 -1      1087 1.27650E+02 2.66180E+01 0.00000E+00
 -1      1088 6.70350E+01 2.21147E+01 0.00000E+00
 -1      1089 5.50350E+01 2.21147E+01 0.00000E+00
 -1      1090 7.00350E+01 2.21147E+01 0.00000E+00
 -1      1091 7.30350E+01 2.21147E+01 0.00000E+00
 -1      1092 7.60350E+01 2.21147E+01 0.00000E+00
 -1      1093 7.90350E+01 2.21147E+01 0.00000E+00
 -1      1094 8.20350E+01 2.21147E+01 0.00000E+00
 -1      1095 8.50350E+01 2.21147E+01 0.00000E+00
 -1      1096 8.80350E+01 2.21147E+01 0.00000E+00
 -1      1097 9.10350E+01 2.21147E+01 0.00000E+00
 -1      1098 9.40350E+01 2.21147E+01 0.00000E+00
 -1      1099 9.70350E+01 2.21147E+01 0.00000E+00
 -1      1100 1.00035E+02 2.21147E+01 0.00000E+00
 -1      1101 1.03035E+02 2.21147E+01 0.00000E+00
 -1      1102 1.06035E+02 2.21147E+01 0.00000E+00
 -1      1103 1.09035E+02 2.21147E+01 0.00000E+00
 -1      1104 1.12035E+02 2.21147E+01 0.00000E+00
 -1      1105 1.15035E+02 2.21147E+01 0.00000E+00
 -1      1106 1.18035E+02 2.21147E+01 0.00000E+00
 -1      1107 1.21035E+02 2.21147E+01 0.00000E+00
 -1      1108 1.24035E+02 2.21147E+01 0.00000E+00
 -1      1109 1.26626E+02 2.28292E+01 0.00000E+00
 -1      1110 4.48014E+01 2.66769E+01 0.00000E+00
 -1      1111 5.20350E+01 2.21147E+01 0.00000E+00
 -1      1112 5.80350E+01 2.21147E+01 0.00000E+00
 -1      1113 6.10350E+01 2.21147E+01 0.00000E+00
 -1      1114 4.96500E+01 2.66180E+01 0.00000E+00
 -1      1115 4.60696E+01 2.20866E+01 0.00000E+00
 -1      1116 4.72257E+01 2.66474E+01 0.00000E+00
 -1      1117 5.71500E+01 2.40200E+01 0.00000E+00
 -1      1118 4.90350E+01 2.21147E+01 0.00000E+00
 -1      1119 5.35350E+01 2.47127E+01 0.00000E+00
 -1      1120 5.05350E+01 2.47127E+01 0.00000E+00
 -1      1121 4.73383E+01 2.44497E+01 0.00000E+00
 -1      1122 0.00000E+00 4.85250E+01 0.00000E+00
 -1      1123 0.00000E+00 4.55750E+01 0.00000E+00
 -1      1124 0.00000E+00 4.26250E+01 0.00000E+00
 -1      1125 0.00000E+00 3.96750E+01 0.00000E+00
 -1      1126 0.00000E+00 3.67250E+01 0.00000E+00
 -1      1127 0.00000E+00 3.37750E+01 0.00000E+00
 -1      1128 0.00000E+00 3.08250E+01 0.00000E+00
 -1      1129 0.00000E+00 2.79000E+01 0.00000E+00
 -1      1130 0.00000E+00 2.49750E+01 0.00000E+00
 -1      1131 0.00000E+00 2.20500E+01 0.00000E+00
 -1      1132 0.00000E+00 1.91250E+01 0.00000E+00
 -1      1133 0.00000E+00 1.61750E+01 0.00000E+00
 -1      1134 0.00000E+00 1.32250E+01 0.00000E+00
 -1      1135 0.00000E+00 1.02750E+01 0.00000E+00
 -1      1136 0.00000E+00 7.32500E+00 0.00000E+00
 -1      1137 0.00000E+00 4.37500E+00 0.00000E+00
 -1      1138 0.00000E+00 1.45000E+00 0.00000E+00
 -1      1139 1.57500E+00 5.00000E+01 0.00000E+00
 -1      1140 4.65000E+00 5.00000E+01 0.00000E+00
 -1      1141 7.65000E+00 5.00000E+01 0.00000E+00
 -1      1142 1.06500E+01 5.00000E+01 0.00000E+00
 -1      1143 1.36500E+01 5.00000E+01 0.00000E+00
 -1      1144 1.66500E+01 5.00000E+01 0.00000E+00
 -1      1145 1.96500E+01 5.00000E+01 0.00000E+00
 -1      1146 2.26500E+01 5.00000E+01 0.00000E+00
 -1      1147 2.56500E+01 5.00000E+01 0.00000E+00
 -1      1148 2.86500E+01 5.00000E+01 0.00000E+00
 -1      1149 3.16500E+01 5.00000E+01 0.00000E+00
 -1      1150 3.46500E+01 5.00000E+01 0.00000E+00
 -1      1151 3.76500E+01 5.00000E+01 0.00000E+00
 -1      1152 4.06500E+01 5.00000E+01 0.00000E+00
 -1      1153 4.36500E+01 5.00000E+01 0.00000E+00
 -1      1154 4.66500E+01 5.00000E+01 0.00000E+00
 -1      1155 4.96500E+01 5.00000E+01 0.00000E+00
 -1      1156 5.26500E+01 5.00000E+01 0.00000E+00
 -1      1157 5.56500E+01 5.00000E+01 0.00000E+00
 -1      1158 5.86500E+01 5.00000E+01 0.00000E+00
 -1      1159 6.16500E+01 5.00000E+01 0.00000E+00
 -1      1160 6.46500E+01 5.00000E+01 0.00000E+00
 -1      1161 6.76500E+01 5.00000E+01 0.00000E+00
 -1      1162 7.06500E+01 5.00000E+01 0.00000E+00
 -1      1163 7.36500E+01 5.00000E+01 0.00000E+00
 -1      1164 7.66500E+01 5.00000E+01 0.00000E+00
 -1      1165 7.96500E+01 5.00000E+01 0.00000E+00
 -1      1166 8.26500E+01 5.00000E+01 0.00000E+00
 -1      1167 8.56500E+01 5.00000E+01 0.00000E+00
 -1      1168 8.86500E+01 5.00000E+01 0.00000E+00
 -1      1169 9.16500E+01 5.00000E+01 0.00000E+00
 -1      1170 9.46500E+01 5.00000E+01 0.00000E+00
 -1      1171 9.76500E+01 5.00000E+01 0.00000E+00
 -1      1172 1.00650E+02 5.00000E+01 0.00000E+00
 -1      1173 1.03650E+02 5.00000E+01 0.00000E+00
 -1      1174 1.06650E+02 5.00000E+01 0.00000E+00
 -1      1175 1.09650E+02 5.00000E+01 0.00000E+00
 -1      1176 1.12650E+02 5.00000E+01 0.00000E+00
 -1      1177 1.15650E+02 5.00000E+01 0.00000E+00
 -1      1178 1.18650E+02 5.00000E+01 0.00000E+00
 -1      1179 1.21650E+02 5.00000E+01 0.00000E+00
 -1      1180 1.24650E+02 5.00000E+01 0.00000E+00
 -1      1181 1.27650E+02 5.00000E+01 0.00000E+00
 -1      1182 1.30650E+02 5.00000E+01 0.00000E+00
 -1      1183 1.33650E+02 5.00000E+01 0.00000E+00
 -1      1184 1.36650E+02 5.00000E+01 0.00000E+00
 -1      1185 1.39650E+02 5.00000E+01 0.00000E+00
 -1      1186 1.42650E+02 5.00000E+01 0.00000E+00
 -1      1187 1.45650E+02 5.00000E+01 0.00000E+00
 -1      1188 1.48575E+02 5.00000E+01 0.00000E+00
 -1      1189 1.57500E+00 0.00000E+00 0.00000E+00
 -1      1190 4.65000E+00 0.00000E+00 0.00000E+00
 -1      1191 7.65000E+00 0.00000E+00 0.00000E+00
 -1      1192 1.06500E+01 0.00000E+00 0.00000E+00
 -1      1193 1.36500E+01 0.00000E+00 0.00000E+00
 -1      1194 1.66500E+01 0.00000E+00 0.00000E+00
 -1      1195 1.96500E+01 0.00000E+00 0.00000E+00
 -1      1196 2.26500E+01 0.00000E+00 0.00000E+00
 -1      1197 2.56500E+01 0.00000E+00 0.00000E+00
 -1      1198 2.86500E+01 0.00000E+00 0.00000E+00
 -1      1199 3.16500E+01 0.00000E+00 0.00000E+00
 -1      1200 3.46500E+01 0.00000E+00 0.00000E+00
 -1      1201 3.76500E+01 0.00000E+00 0.00000E+00
 -1      1202 4.06500E+01 0.00000E+00 0.00000E+00
 -1      1203 4.36500E+01 0.00000E+00 0.00000E+00
 -1      1204 4.66500E+01 0.00000E+00 0.00000E+00
 -1      1205 4.96500E+01 0.00000E+00 0.00000E+00
 -1      1206 5.26500E+01 0.00000E+00 0.00000E+00
 -1      1207 5.56500E+01 0.00000E+00 0.00000E+00
 -1      1208 5.86500E+01 0.00000E+00 0.00000E+00
 -1      1209 6.16500E+01 0.00000E+00 0.00000E+00
 -1      1210 6.46500E+01 0.00000E+00 0.00000E+00
 -1      1211 6.76500E+01 0.00000E+00 0.00000E+00
 -1      1212 7.06500E+01 0.00000E+00 0.00000E+00
 -1      1213 7.36500E+01 0.00000E+00 0.00000E+00
 -1      1214 7.66500E+01 0.00000E+00 0.00000E+00
 -1      1215 7.96500E+01 0.00000E+00 0.00000E+00
 -1      1216 8.26500E+01 0.00000E+00 0.00000E+00
 -1      1217 8.56500E+01 0.00000E+00 0.00000E+00
 -1      1218 8.86500E+01 0.00000E+00 0.00000E+00
 -1      1219 9.16500E+01 0.00000E+00 0.00000E+00
 -1      1220 9.46500E+01 0.00000E+00 0.00000E+00
 -1      1221 9.76500E+01 0.00000E+00 0.00000E+00
 -1      1222 1.00650E+02 0.00000E+00 0.00000E+00
 -1      1223 1.03650E+02 0.00000E+00 0.00000E+00
 -1      1224 1.06650E+02 0.00000E+00 0.00000E+00
 -1      1225 1.09650E+02 0.00000E+00 0.00000E+00
 -1      1226 1.12650E+02 0.00000E+00 0.00000E+00
 -1      1227 1.15650E+02 0.00000E+00 0.00000E+00
 -1      1228 1.18650E+02 0.00000E+00 0.00000E+00
 -1      1229 1.21650E+02 0.00000E+00 0.00000E+00
 -1      1230 1.24650E+02 0.00000E+00 0.00000E+00
 -1      1231 1.27650E+02 0.00000E+00 0.00000E+00
 -1      1232 1.30650E+02 0.00000E+00 0.00000E+00
 -1      1233 1.33650E+02 0.00000E+00 0.00000E+00
 -1      1234 1.36650E+02 0.00000E+00 0.00000E+00
 -1      1235 1.39650E+02 0.00000E+00 0.00000E+00
 -1      1236 1.42650E+02 0.00000E+00 0.00000E+00
 -1      1237 1.45650E+02 0.00000E+00 0.00000E+00
 -1      1238 1.48575E+02 0.00000E+00 0.00000E+00
 -1      1239 1.50000E+02 1.47500E+00 0.00000E+00
 -1      1240 1.50000E+02 4.42500E+00 0.00000E+00
 -1      1241 1.50000E+02 7.37500E+00 0.00000E+00
 -1      1242 1.50000E+02 1.03250E+01 0.00000E+00
 -1      1243 1.50000E+02 1.32750E+01 0.00000E+00
 -1      1244 1.50000E+02 1.62000E+01 0.00000E+00
 -1      1245 1.50000E+02 1.91250E+01 0.00000E+00
 -1      1246 1.50000E+02 2.20750E+01 0.00000E+00
 -1      1247 1.50000E+02 2.50250E+01 0.00000E+00
 -1      1248 1.50000E+02 2.79750E+01 0.00000E+00
 -1      1249 1.50000E+02 3.09250E+01 0.00000E+00
 -1      1250 1.50000E+02 3.38500E+01 0.00000E+00
 -1      1251 1.50000E+02 3.67750E+01 0.00000E+00
 -1      1252 1.50000E+02 3.97250E+01 0.00000E+00
 -1      1253 1.50000E+02 4.26750E+01 0.00000E+00
 -1      1254 1.50000E+02 4.56250E+01 0.00000E+00
 -1      1255 1.50000E+02 4.85500E+01 0.00000E+00
 -1      1256 2.96884E+01 2.16034E+01 0.00000E+00
 -1      1257 2.93628E+01 2.01128E+01 0.00000E+00
 -1      1258 2.87348E+01 1.87496E+01 0.00000E+00
 -1      1259 2.78490E+01 1.75712E+01 0.00000E+00
 -1      1260 2.67242E+01 1.65962E+01 0.00000E+00
 -1      1261 2.54853E+01 1.59093E+01 0.00000E+00
 -1      1262 2.41005E+01 1.54791E+01 0.00000E+00
 -1      1263 2.25669E+01 1.53450E+01 0.00000E+00
 -1      1264 2.10293E+01 1.55523E+01 0.00000E+00
 -1      1265 1.96488E+01 1.60566E+01 0.00000E+00
 -1      1266 1.83725E+01 1.68629E+01 0.00000E+00
 -1      1267 1.72879E+01 1.79375E+01 0.00000E+00
 -1      1268 1.64921E+01 1.91622E+01 0.00000E+00
 -1      1269 1.59616E+01 2.05484E+01 0.00000E+00
 -1      1270 1.57358E+01 2.20050E+01 0.00000E+00
 -1      1271 1.58165E+01 2.34550E+01 0.00000E+00
 -1      1272 1.61874E+01 2.48383E+01 0.00000E+00
 -1      1273 1.68966E+01 2.62160E+01 0.00000E+00
 -1      1274 1.78717E+01 2.73850E+01 0.00000E+00
 -1      1275 1.90465E+01 2.82971E+01 0.00000E+00
 -1      1276 2.04901E+01 2.89759E+01 0.00000E+00
 -1      1277 2.19876E+01 2.93039E+01 0.00000E+00
 -1      1278 2.34102E+01 2.93098E+01 0.00000E+00
 -1      1279 2.47509E+01 2.90444E+01 0.00000E+00
 -1      1280 2.60033E+01 2.85294E+01 0.00000E+00
 -1      1281 2.71541E+01 2.77659E+01 0.00000E+00
 -1      1282 2.81366E+01 2.67865E+01 0.00000E+00
 -1      1283 2.89212E+01 2.56049E+01 0.00000E+00
 -1      1284 2.94471E+01 2.43047E+01 0.00000E+00
 -1      1285 2.96965E+01 2.30026E+01 0.00000E+00
 -1      1286 1.57500E+00 4.85250E+01 0.00000E+00
 -1      1287 1.29900E+00 4.48375E+01 0.00000E+00
 -1      1288 1.29900E+00 4.63125E+01 0.00000E+00
 -1      1289 1.29900E+00 4.18875E+01 0.00000E+00
 -1      1290 1.29900E+00 4.33625E+01 0.00000E+00
 -1      1291 2.59800E+00 4.41000E+01 0.00000E+00
 -1      1292 1.29900E+00 3.89375E+01 0.00000E+00
 -1      1293 1.29900E+00 4.04125E+01 0.00000E+00
 -1      1294 2.59800E+00 4.11500E+01 0.00000E+00
 -1      1295 1.29900E+00 3.59875E+01 0.00000E+00
 -1      1296 1.29900E+00 3.74625E+01 0.00000E+00
 -1      1297 2.59800E+00 3.82000E+01 0.00000E+00
 -1      1298 1.29900E+00 3.30375E+01 0.00000E+00
 -1      1299 1.29900E+00 3.45125E+01 0.00000E+00
 -1      1300 2.59800E+00 3.52500E+01 0.00000E+00
 -1      1301 1.29900E+00 3.00875E+01 0.00000E+00
 -1      1302 1.29900E+00 3.15625E+01 0.00000E+00
 -1      1303 2.59800E+00 3.23000E+01 0.00000E+00
 -1      1304 1.29900E+00 2.71875E+01 0.00000E+00
 -1      1305 1.29900E+00 2.86375E+01 0.00000E+00
 -1      1306 2.59800E+00 2.93750E+01 0.00000E+00
 -1      1307 1.29900E+00 2.42375E+01 0.00000E+00
 -1      1308 1.29900E+00 2.57125E+01 0.00000E+00
 -1      1309 2.59800E+00 2.64500E+01 0.00000E+00
 -1      1310 1.29900E+00 2.13375E+01 0.00000E+00
 -1      1311 1.29900E+00 2.27875E+01 0.00000E+00
 -1      1312 2.59800E+00 2.35250E+01 0.00000E+00
 -1      1313 1.29900E+00 1.83875E+01 0.00000E+00
 -1      1314 1.29900E+00 1.98625E+01 0.00000E+00
 -1      1315 2.59800E+00 2.06000E+01 0.00000E+00
 -1      1316 1.29900E+00 1.54375E+01 0.00000E+00
 -1      1317 1.29900E+00 1.69125E+01 0.00000E+00
 -1      1318 2.59800E+00 1.76500E+01 0.00000E+00
 -1      1319 1.29900E+00 1.24875E+01 0.00000E+00
 -1      1320 1.29900E+00 1.39625E+01 0.00000E+00
 -1      1321 2.59800E+00 1.47000E+01 0.00000E+00
 -1      1322 1.29900E+00 9.53750E+00 0.00000E+00
 -1      1323 1.29900E+00 1.10125E+01 0.00000E+00
 -1      1324 2.59800E+00 1.17500E+01 0.00000E+00
 -1      1325 1.29900E+00 6.58750E+00 0.00000E+00
 -1      1326 1.29900E+00 8.06250E+00 0.00000E+00
 -1      1327 2.59800E+00 8.80000E+00 0.00000E+00
 -1      1328 1.29900E+00 3.63750E+00 0.00000E+00
 -1      1329 1.29900E+00 5.11250E+00 0.00000E+00
 -1      1330 2.59800E+00 5.85000E+00 0.00000E+00
 -1      1331 1.43700E+00 1.09375E+00 0.00000E+00
 -1      1332 1.43700E+00 2.54375E+00 0.00000E+00
 -1      1333 2.73600E+00 3.28125E+00 0.00000E+00
 -1      1334 3.01200E+00 1.09375E+00 0.00000E+00
 -1      1335 3.90000E+00 4.87010E+01 0.00000E+00
 -1      1336 5.40000E+00 4.87010E+01 0.00000E+00
 -1      1337 6.90000E+00 4.87010E+01 0.00000E+00
 -1      1338 8.40000E+00 4.87010E+01 0.00000E+00
 -1      1339 6.15000E+00 4.74020E+01 0.00000E+00
 -1      1340 9.90000E+00 4.87010E+01 0.00000E+00
 -1      1341 1.14000E+01 4.87010E+01 0.00000E+00
 -1      1342 9.15000E+00 4.74020E+01 0.00000E+00
 -1      1343 1.29000E+01 4.87010E+01 0.00000E+00
 -1      1344 1.44000E+01 4.87010E+01 0.00000E+00
 -1      1345 1.21500E+01 4.74020E+01 0.00000E+00
 -1      1346 1.59000E+01 4.87010E+01 0.00000E+00
 -1      1347 1.74000E+01 4.87010E+01 0.00000E+00
 -1      1348 1.51500E+01 4.74020E+01 0.00000E+00
 -1      1349 1.89000E+01 4.87010E+01 0.00000E+00
 -1      1350 2.04000E+01 4.87010E+01 0.00000E+00
 -1      1351 1.81500E+01 4.74020E+01 0.00000E+00
 -1      1352 2.19000E+01 4.87010E+01 0.00000E+00
 -1      1353 2.34000E+01 4.87010E+01 0.00000E+00
 -1      1354 2.11500E+01 4.74020E+01 0.00000E+00
 -1      1355 2.49000E+01 4.87010E+01 0.00000E+00
 -1      1356 2.64000E+01 4.87010E+01 0.00000E+00
 -1      1357 2.41500E+01 4.74020E+01 0.00000E+00
 -1      1358 2.79000E+01 4.87010E+01 0.00000E+00
 -1      1359 2.94000E+01 4.87010E+01 0.00000E+00
 -1      1360 2.71500E+01 4.74020E+01 0.00000E+00
 -1      1361 3.09000E+01 4.87010E+01 0.00000E+00
 -1      1362 3.24000E+01 4.87010E+01 0.00000E+00
 -1      1363 3.01500E+01 4.74020E+01 0.00000E+00
 -1      1364 3.39000E+01 4.87010E+01 0.00000E+00
 -1      1365 3.54000E+01 4.87010E+01 0.00000E+00
 -1      1366 3.31500E+01 4.74020E+01 0.00000E+00
 -1      1367 3.69000E+01 4.87010E+01 0.00000E+00
 -1      1368 3.84000E+01 4.87010E+01 0.00000E+00
 -1      1369 3.61500E+01 4.74020E+01 0.00000E+00
 -1      1370 3.99000E+01 4.87010E+01 0.00000E+00
 -1      1371 4.14000E+01 4.87010E+01 0.00000E+00
 -1      1372 3.91500E+01 4.74020E+01 0.00000E+00
 -1      1373 4.29000E+01 4.87010E+01 0.00000E+00
 -1      1374 4.44000E+01 4.87010E+01 0.00000E+00
 -1      1375 4.21500E+01 4.74020E+01 0.00000E+00
 -1      1376 4.59000E+01 4.87010E+01 0.00000E+00
 -1      1377 4.74000E+01 4.87010E+01 0.00000E+00
 -1      1378 4.51500E+01 4.74020E+01 0.00000E+00
 -1      1379 4.89000E+01 4.87010E+01 0.00000E+00
 -1      1380 5.04000E+01 4.87010E+01 0.00000E+00
 -1      1381 4.81500E+01 4.74020E+01 0.00000E+00
 -1      1382 5.19000E+01 4.87010E+01 0.00000E+00
 -1      1383 5.34000E+01 4.87010E+01 0.00000E+00
 -1      1384 5.11500E+01 4.74020E+01 0.00000E+00
 -1      1385 5.49000E+01 4.87010E+01 0.00000E+00
 -1      1386 5.64000E+01 4.87010E+01 0.00000E+00
 -1      1387 5.41500E+01 4.74020E+01 0.00000E+00
 -1      1388 5.79000E+01 4.87010E+01 0.00000E+00
 -1      1389 5.94000E+01 4.87010E+01 0.00000E+00
 -1      1390 5.71500E+01 4.74020E+01 0.00000E+00
 -1      1391 6.09000E+01 4.87010E+01 0.00000E+00
 -1      1392 6.24000E+01 4.87010E+01 0.00000E+00
 -1      1393 6.01500E+01 4.74020E+01 0.00000E+00
 -1      1394 6.39000E+01 4.87010E+01 0.00000E+00
 -1      1395 6.54000E+01 4.87010E+01 0.00000E+00
 -1      1396 6.31500E+01 4.74020E+01 0.00000E+00
 -1      1397 6.69000E+01 4.87010E+01 0.00000E+00
 -1      1398 6.84000E+01 4.87010E+01 0.00000E+00
 -1      1399 6.61500E+01 4.74020E+01 0.00000E+00
 -1      1400 6.99000E+01 4.87010E+01 0.00000E+00
 -1      1401 7.14000E+01 4.87010E+01 0.00000E+00
 -1      1402 6.91500E+01 4.74020E+01 0.00000E+00
 -1      1403 7.29000E+01 4.87010E+01 0.00000E+00
 -1      1404 7.44000E+01 4.87010E+01 0.00000E+00
 -1      1405 7.21500E+01 4.74020E+01 0.00000E+00
 -1      1406 7.59000E+01 4.87010E+01 0.00000E+00
 -1      1407 7.74000E+01 4.87010E+01 0.00000E+00
 -1      1408 7.51500E+01 4.74020E+01 0.00000E+00
 -1      1409 7.89000E+01 4.87010E+01 0.00000E+00
 -1      1410 8.04000E+01 4.87010E+01 0.00000E+00
 -1      1411 7.81500E+01 4.74020E+01 0.00000E+00
 -1      1412 8.19000E+01 4.87010E+01 0.00000E+00
 -1      1413 8.34000E+01 4.87010E+01 0.00000E+00
 -1      1414 8.11500E+01 4.74020E+01 0.00000E+00
 -1      1415 8.49000E+01 4.87010E+01 0.00000E+00
 -1      1416 8.64000E+01 4.87010E+01 0.00000E+00
 -1      1417 8.41500E+01 4.74020E+01 0.00000E+00
 -1      1418 8.79000E+01 4.87010E+01 0.00000E+00
 -1      1419 8.94000E+01 4.87010E+01 0.00000E+00
 -1      1420 8.71500E+01 4.74020E+01 0.00000E+00
 -1      1421 9.09000E+01 4.87010E+01 0.00000E+00
 -1      1422 9.24000E+01 4.87010E+01 0.00000E+00
 -1      1423 9.01500E+01 4.74020E+01 0.00000E+00
 -1      1424 9.39000E+01 4.87010E+01 0.00000E+00
 -1      1425 9.54000E+01 4.87010E+01 0.00000E+00
 -1      1426 9.31500E+01 4.74020E+01 0.00000E+00
 -1      1427 9.69000E+01 4.87010E+01 0.00000E+00
 -1      1428 9.84000E+01 4.87010E+01 0.00000E+00
 -1      1429 9.61500E+01 4.74020E+01 0.00000E+00
 -1      1430 9.99000E+01 4.87010E+01 0.00000E+00
 -1      1431 1.01400E+02 4.87010E+01 0.00000E+00
 -1      1432 9.91500E+01 4.74020E+01 0.00000E+00
 -1      1433 1.02900E+02 4.87010E+01 0.00000E+00
 -1      1434 1.04400E+02 4.87010E+01 0.00000E+00
 -1      1435 1.02150E+02 4.74020E+01 0.00000E+00
 -1      1436 1.05900E+02 4.87010E+01 0.00000E+00
 -1      1437 1.07400E+02 4.87010E+01 0.00000E+00
 -1      1438 1.05150E+02 4.74020E+01 0.00000E+00
 -1      1439 1.08900E+02 4.87010E+01 0.00000E+00
 -1      1440 1.10400E+02 4.87010E+01 0.00000E+00
 -1      1441 1.08150E+02 4.74020E+01 0.00000E+00
 -1      1442 1.11900E+02 4.87010E+01 0.00000E+00
 -1      1443 1.13400E+02 4.87010E+01 0.00000E+00
 -1      1444 1.11150E+02 4.74020E+01 0.00000E+00
 -1      1445 1.14900E+02 4.87010E+01 0.00000E+00
 -1      1446 1.16400E+02 4.87010E+01 0.00000E+00
 -1      1447 1.14150E+02 4.74020E+01 0.00000E+00
 -1      1448 1.17900E+02 4.87010E+01 0.00000E+00
 -1      1449 1.19400E+02 4.87010E+01 0.00000E+00
 -1      1450 1.17150E+02 4.74020E+01 0.00000E+00
 -1      1451 1.20900E+02 4.87010E+01 0.00000E+00
 -1      1452 1.22400E+02 4.87010E+01 0.00000E+00
 -1      1453 1.20150E+02 4.74020E+01 0.00000E+00
 -1      1454 1.23900E+02 4.87010E+01 0.00000E+00
 -1      1455 1.25400E+02 4.87010E+01 0.00000E+00
 -1      1456 1.23150E+02 4.74020E+01 0.00000E+00
 -1      1457 1.26900E+02 4.87010E+01 0.00000E+00
 -1      1458 1.28400E+02 4.87010E+01 0.00000E+00
 -1      1459 1.26150E+02 4.74020E+01 0.00000E+00
 -1      1460 1.29900E+02 4.87010E+01 0.00000E+00
 -1      1461 1.31400E+02 4.87010E+01 0.00000E+00
 -1      1462 1.29150E+02 4.74020E+01 0.00000E+00
 -1      1463 1.32900E+02 4.87010E+01 0.00000E+00
 -1      1464 1.34400E+02 4.87010E+01 0.00000E+00
 -1      1465 1.32150E+02 4.74020E+01 0.00000E+00
 -1      1466 1.35900E+02 4.87010E+01 0.00000E+00
 -1      1467 1.37400E+02 4.87010E+01 0.00000E+00
 -1      1468 1.35150E+02 4.74020E+01 0.00000E+00
 -1      1469 1.38900E+02 4.87010E+01 0.00000E+00
 -1      1470 1.40400E+02 4.87010E+01 0.00000E+00
 -1      1471 1.38150E+02 4.74020E+01 0.00000E+00
 -1      1472 1.41900E+02 4.87010E+01 0.00000E+00
 -1      1473 1.43400E+02 4.87010E+01 0.00000E+00
 -1      1474 1.41150E+02 4.74020E+01 0.00000E+00
 -1      1475 1.44900E+02 4.87010E+01 0.00000E+00
 -1      1476 1.46400E+02 4.87010E+01 0.00000E+00
 -1      1477 1.44150E+02 4.74020E+01 0.00000E+00
 -1      1478 1.48575E+02 4.85500E+01 0.00000E+00
 -1      1479 1.47825E+02 4.72510E+01 0.00000E+00
 -1      1480 6.01200E+00 1.09375E+00 0.00000E+00
 -1      1481 4.51200E+00 1.09375E+00 0.00000E+00
 -1      1482 4.37400E+00 2.18750E+00 0.00000E+00
 -1      1483 9.01200E+00 1.09375E+00 0.00000E+00
 -1      1484 7.51200E+00 1.09375E+00 0.00000E+00
 -1      1485 7.37400E+00 2.18750E+00 0.00000E+00
 -1      1486 1.20120E+01 1.09375E+00 0.00000E+00
 -1      1487 1.05120E+01 1.09375E+00 0.00000E+00
 -1      1488 1.03740E+01 2.18750E+00 0.00000E+00
 -1      1489 1.50120E+01 1.09375E+00 0.00000E+00
 -1      1490 1.35120E+01 1.09375E+00 0.00000E+00
 -1      1491 1.33740E+01 2.18750E+00 0.00000E+00
 -1      1492 1.80120E+01 1.09375E+00 0.00000E+00
 -1      1493 1.65120E+01 1.09375E+00 0.00000E+00
 -1      1494 1.63740E+01 2.18750E+00 0.00000E+00
 -1      1495 2.10120E+01 1.09375E+00 0.00000E+00
 -1      1496 1.95120E+01 1.09375E+00 0.00000E+00
 -1      1497 1.93740E+01 2.18750E+00 0.00000E+00
 -1      1498 2.40120E+01 1.09375E+00 0.00000E+00
 -1      1499 2.25120E+01 1.09375E+00 0.00000E+00
 -1      1500 2.23740E+01 2.18750E+00 0.00000E+00
 -1      1501 2.70120E+01 1.09375E+00 0.00000E+00
 -1      1502 2.55120E+01 1.09375E+00 0.00000E+00
 -1      1503 2.53740E+01 2.18750E+00 0.00000E+00
 -1      1504 3.00120E+01 1.09375E+00 0.00000E+00
 -1      1505 2.85120E+01 1.09375E+00 0.00000E+00
 -1      1506 2.83740E+01 2.18750E+00 0.00000E+00
 -1      1507 3.30120E+01 1.09375E+00 0.00000E+00
 -1      1508 3.15120E+01 1.09375E+00 0.00000E+00
 -1      1509 3.13740E+01 2.18750E+00 0.00000E+00
 -1      1510 3.60120E+01 1.09375E+00 0.00000E+00
 -1      1511 3.45120E+01 1.09375E+00 0.00000E+00
 -1      1512 3.43740E+01 2.18750E+00 0.00000E+00
 -1      1513 3.90120E+01 1.09375E+00 0.00000E+00
 -1      1514 3.75120E+01 1.09375E+00 0.00000E+00
 -1      1515 3.73740E+01 2.18750E+00 0.00000E+00
 -1      1516 4.20120E+01 1.09375E+00 0.00000E+00
 -1      1517 4.05120E+01 1.09375E+00 0.00000E+00
 -1      1518 4.03740E+01 2.18750E+00 0.00000E+00
 -1      1519 4.50120E+01 1.09375E+00 0.00000E+00
 -1      1520 4.35120E+01 1.09375E+00 0.00000E+00
 -1      1521 4.33740E+01 2.18750E+00 0.00000E+00
 -1      1522 4.80120E+01 1.09375E+00 0.00000E+00
 -1      1523 4.65120E+01 1.09375E+00 0.00000E+00
 -1      1524 4.63740E+01 2.18750E+00 0.00000E+00
 -1      1525 5.10120E+01 1.09375E+00 0.00000E+00
 -1      1526 4.95120E+01 1.09375E+00 0.00000E+00
 -1      1527 4.93740E+01 2.18750E+00 0.00000E+00
 -1      1528 5.40120E+01 1.09375E+00 0.00000E+00
 -1      1529 5.25120E+01 1.09375E+00 0.00000E+00
 -1      1530 5.23740E+01 2.18750E+00 0.00000E+00
 -1      1531 5.70120E+01 1.09375E+00 0.00000E+00
 -1      1532 5.55120E+01 1.09375E+00 0.00000E+00
 -1      1533 5.53740E+01 2.18750E+00 0.00000E+00
 -1      1534 6.00120E+01 1.09375E+00 0.00000E+00
 -1      1535 5.85120E+01 1.09375E+00 0.00000E+00
 -1      1536 5.83740E+01 2.18750E+00 0.00000E+00
 -1      1537 6.30120E+01 1.09375E+00 0.00000E+00
 -1      1538 6.15120E+01 1.09375E+00 0.00000E+00
 -1      1539 6.13740E+01 2.18750E+00 0.00000E+00
 -1      1540 6.60120E+01 1.09375E+00 0.00000E+00
 -1      1541 6.45120E+01 1.09375E+00 0.00000E+00
 -1      1542 6.43740E+01 2.18750E+00 0.00000E+00
 -1      1543 6.90120E+01 1.09375E+00 0.00000E+00
 -1      1544 6.75120E+01 1.09375E+00 0.00000E+00
 -1      1545 6.73740E+01 2.18750E+00 0.00000E+00
 -1      1546 7.20120E+01 1.09375E+00 0.00000E+00
 -1      1547 7.05120E+01 1.09375E+00 0.00000E+00
 -1      1548 7.03740E+01 2.18750E+00 0.00000E+00
 -1      1549 7.50120E+01 1.09375E+00 0.00000E+00
 -1      1550 7.35120E+01 1.09375E+00 0.00000E+00
 -1      1551 7.33740E+01 2.18750E+00 0.00000E+00
 -1      1552 7.80120E+01 1.09375E+00 0.00000E+00
 -1      1553 7.65120E+01 1.09375E+00 0.00000E+00
 -1      1554 7.63740E+01 2.18750E+00 0.00000E+00
 -1      1555 8.10120E+01 1.09375E+00 0.00000E+00
 -1      1556 7.95120E+01 1.09375E+00 0.00000E+00
 -1      1557 7.93740E+01 2.18750E+00 0.00000E+00
 -1      1558 8.40120E+01 1.09375E+00 0.00000E+00
 -1      1559 8.25120E+01 1.09375E+00 0.00000E+00
 -1      1560 8.23740E+01 2.18750E+00 0.00000E+00
 -1      1561 8.70120E+01 1.09375E+00 0.00000E+00
 -1      1562 8.55120E+01 1.09375E+00 0.00000E+00
 -1      1563 8.53740E+01 2.18750E+00 0.00000E+00
 -1      1564 9.00120E+01 1.09375E+00 0.00000E+00
 -1      1565 8.85120E+01 1.09375E+00 0.00000E+00
 -1      1566 8.83740E+01 2.18750E+00 0.00000E+00
 -1      1567 9.30120E+01 1.09375E+00 0.00000E+00
 -1      1568 9.15120E+01 1.09375E+00 0.00000E+00
 -1      1569 9.13740E+01 2.18750E+00 0.00000E+00
 -1      1570 9.60120E+01 1.09375E+00 0.00000E+00
 -1      1571 9.45120E+01 1.09375E+00 0.00000E+00
 -1      1572 9.43740E+01 2.18750E+00 0.00000E+00
 -1      1573 9.90120E+01 1.09375E+00 0.00000E+00
 -1      1574 9.75120E+01 1.09375E+00 0.00000E+00
 -1      1575 9.73740E+01 2.18750E+00 0.00000E+00
 -1      1576 1.02012E+02 1.09375E+00 0.00000E+00
 -1      1577 1.00512E+02 1.09375E+00 0.00000E+00
 -1      1578 1.00374E+02 2.18750E+00 0.00000E+00
 -1      1579 1.05012E+02 1.09375E+00 0.00000E+00
 -1      1580 1.03512E+02 1.09375E+00 0.00000E+00
 -1      1581 1.03374E+02 2.18750E+00 0.00000E+00
 -1      1582 1.08012E+02 1.09375E+00 0.00000E+00
 -1      1583 1.06512E+02 1.09375E+00 0.00000E+00
 -1      1584 1.06374E+02 2.18750E+00 0.00000E+00
 -1      1585 1.11012E+02 1.09375E+00 0.00000E+00
 -1      1586 1.09512E+02 1.09375E+00 0.00000E+00
 -1      1587 1.09374E+02 2.18750E+00 0.00000E+00
 -1      1588 1.14012E+02 1.09375E+00 0.00000E+00
 -1      1589 1.12512E+02 1.09375E+00 0.00000E+00
 -1      1590 1.12374E+02 2.18750E+00 0.00000E+00
 -1      1591 1.17012E+02 1.09375E+00 0.00000E+00
 -1      1592 1.15512E+02 1.09375E+00 0.00000E+00
 -1      1593 1.15374E+02 2.18750E+00 0.00000E+00
 -1      1594 1.20012E+02 1.09375E+00 0.00000E+00
 -1      1595 1.18512E+02 1.09375E+00 0.00000E+00
 -1      1596 1.18374E+02 2.18750E+00 0.00000E+00
 -1      1597 1.23012E+02 1.09375E+00 0.00000E+00
 -1      1598 1.21512E+02 1.09375E+00 0.00000E+00
 -1      1599 1.21374E+02 2.18750E+00 0.00000E+00
 -1      1600 1.26012E+02 1.09375E+00 0.00000E+00
 -1      1601 1.24512E+02 1.09375E+00 0.00000E+00
 -1      1602 1.24374E+02 2.18750E+00 0.00000E+00
 -1      1603 1.29012E+02 1.09375E+00 0.00000E+00
 -1      1604 1.27512E+02 1.09375E+00 0.00000E+00
 -1      1605 1.27374E+02 2.18750E+00 0.00000E+00
 -1      1606 1.32012E+02 1.09375E+00 0.00000E+00
 -1      1607 1.30512E+02 1.09375E+00 0.00000E+00
 -1      1608 1.30374E+02 2.18750E+00 0.00000E+00
 -1      1609 1.35012E+02 1.09375E+00 0.00000E+00
 -1      1610 1.33512E+02 1.09375E+00 0.00000E+00
 -1      1611 1.33374E+02 2.18750E+00 0.00000E+00
 -1      1612 1.38012E+02 1.09375E+00 0.00000E+00
 -1      1613 1.36512E+02 1.09375E+00 0.00000E+00
 -1      1614 1.36374E+02 2.18750E+00 0.00000E+00
 -1      1615 1.41012E+02 1.09375E+00 0.00000E+00
 -1      1616 1.39512E+02 1.09375E+00 0.00000E+00
 -1      1617 1.39374E+02 2.18750E+00 0.00000E+00
 -1      1618 1.44012E+02 1.09375E+00 0.00000E+00
 -1      1619 1.42512E+02 1.09375E+00 0.00000E+00
 -1      1620 1.42374E+02 2.18750E+00 0.00000E+00
 -1      1621 1.47012E+02 1.09375E+00 0.00000E+00
 -1      1622 1.45512E+02 1.09375E+00 0.00000E+00
 -1      1623 1.45374E+02 2.18750E+00 0.00000E+00
 -1      1624 1.48575E+02 1.47500E+00 0.00000E+00
 -1      1625 1.48701E+02 5.16250E+00 0.00000E+00
 -1      1626 1.48701E+02 3.68750E+00 0.00000E+00
 -1      1627 1.48701E+02 8.11250E+00 0.00000E+00
 -1      1628 1.48701E+02 6.63750E+00 0.00000E+00
 -1      1629 1.47402E+02 5.90000E+00 0.00000E+00
 -1      1630 1.48701E+02 1.10625E+01 0.00000E+00
 -1      1631 1.48701E+02 9.58750E+00 0.00000E+00
 -1      1632 1.47402E+02 8.85000E+00 0.00000E+00
 -1      1633 1.48701E+02 1.40125E+01 0.00000E+00
 -1      1634 1.48701E+02 1.25375E+01 0.00000E+00
 -1      1635 1.47402E+02 1.18000E+01 0.00000E+00
 -1      1636 1.48701E+02 1.69125E+01 0.00000E+00
 -1      1637 1.48701E+02 1.54625E+01 0.00000E+00
 -1      1638 1.47402E+02 1.47250E+01 0.00000E+00
 -1      1639 1.48701E+02 1.98625E+01 0.00000E+00
 -1      1640 1.48701E+02 1.83875E+01 0.00000E+00
 -1      1641 1.47402E+02 1.76500E+01 0.00000E+00
 -1      1642 1.48701E+02 2.28125E+01 0.00000E+00
 -1      1643 1.48701E+02 2.13375E+01 0.00000E+00
 -1      1644 1.47402E+02 2.06000E+01 0.00000E+00
 -1      1645 1.48701E+02 2.57625E+01 0.00000E+00
 -1      1646 1.48701E+02 2.42875E+01 0.00000E+00
 -1      1647 1.47402E+02 2.35500E+01 0.00000E+00
 -1      1648 1.48701E+02 2.87125E+01 0.00000E+00
 -1      1649 1.48701E+02 2.72375E+01 0.00000E+00
 -1      1650 1.47402E+02 2.65000E+01 0.00000E+00
 -1      1651 1.48701E+02 3.16625E+01 0.00000E+00
 -1      1652 1.48701E+02 3.01875E+01 0.00000E+00
 -1      1653 1.47402E+02 2.94500E+01 0.00000E+00
 -1      1654 1.48701E+02 3.45625E+01 0.00000E+00
 -1      1655 1.48701E+02 3.31125E+01 0.00000E+00
 -1      1656 1.47402E+02 3.23750E+01 0.00000E+00
 -1      1657 1.48701E+02 3.75125E+01 0.00000E+00
 -1      1658 1.48701E+02 3.60375E+01 0.00000E+00
 -1      1659 1.47402E+02 3.53000E+01 0.00000E+00
 -1      1660 1.48701E+02 4.04625E+01 0.00000E+00
 -1      1661 1.48701E+02 3.89875E+01 0.00000E+00
 -1      1662 1.47402E+02 3.82500E+01 0.00000E+00
 -1      1663 1.48701E+02 4.34125E+01 0.00000E+00
 -1      1664 1.48701E+02 4.19375E+01 0.00000E+00
 -1      1665 1.47402E+02 4.12000E+01 0.00000E+00
 -1      1666 1.48263E+02 4.60692E+01 0.00000E+00
 -1      1667 1.48263E+02 4.45942E+01 0.00000E+00
 -1      1668 1.46964E+02 4.38568E+01 0.00000E+00
 -1      1669 1.46088E+02 4.62202E+01 0.00000E+00
 -1      1670 3.02548E+01 2.11712E+01 0.00000E+00
 -1      1671 3.03330E+01 2.19068E+01 0.00000E+00
 -1      1672 2.98893E+01 1.95212E+01 0.00000E+00
 -1      1673 3.01397E+01 2.02662E+01 0.00000E+00
 -1      1674 2.90761E+01 1.81290E+01 0.00000E+00
 -1      1675 2.94431E+01 1.87425E+01 0.00000E+00
 -1      1676 2.80954E+01 1.68227E+01 0.00000E+00
 -1      1677 2.86130E+01 1.73782E+01 0.00000E+00
 -1      1678 2.67731E+01 1.58872E+01 0.00000E+00
 -1      1679 2.73718E+01 1.63036E+01 0.00000E+00
 -1      1680 2.53949E+01 1.52478E+01 0.00000E+00
 -1      1681 2.60267E+01 1.55186E+01 0.00000E+00
 -1      1682 2.38373E+01 1.48508E+01 0.00000E+00
 -1      1683 2.45851E+01 1.50003E+01 0.00000E+00
 -1      1684 2.21619E+01 1.46236E+01 0.00000E+00
 -1      1685 2.29384E+01 1.46057E+01 0.00000E+00
 -1      1686 2.04863E+01 1.49780E+01 0.00000E+00
 -1      1687 2.12380E+01 1.47900E+01 0.00000E+00
 -1      1688 1.90854E+01 1.56960E+01 0.00000E+00
 -1      1689 1.97094E+01 1.53904E+01 0.00000E+00
 -1      1690 1.76277E+01 1.65807E+01 0.00000E+00
 -1      1691 1.82657E+01 1.60737E+01 0.00000E+00
 -1      1692 1.66210E+01 1.78555E+01 0.00000E+00
 -1      1693 1.70690E+01 1.73023E+01 0.00000E+00
 -1      1694 1.58178E+01 1.92384E+01 0.00000E+00
 -1      1695 1.61580E+01 1.85715E+01 0.00000E+00
 -1      1696 1.53188E+01 2.07585E+01 0.00000E+00
 -1      1697 1.55074E+01 2.00474E+01 0.00000E+00
 -1      1698 1.51096E+01 2.23443E+01 0.00000E+00
 -1      1699 1.51453E+01 2.16069E+01 0.00000E+00
 -1      1700 1.53107E+01 2.38980E+01 0.00000E+00
 -1      1701 1.51973E+01 2.31931E+01 0.00000E+00
 -1      1702 1.57835E+01 2.53768E+01 0.00000E+00
 -1      1703 1.55275E+01 2.47057E+01 0.00000E+00
 -1      1704 1.65581E+01 2.69398E+01 0.00000E+00
 -1      1705 1.60982E+01 2.62473E+01 0.00000E+00
 -1      1706 1.77237E+01 2.80366E+01 0.00000E+00
 -1      1707 1.72261E+01 2.75574E+01 0.00000E+00
 -1      1708 1.90463E+01 2.90548E+01 0.00000E+00
 -1      1709 1.83689E+01 2.86360E+01 0.00000E+00
 -1      1710 2.06359E+01 2.97935E+01 0.00000E+00
 -1      1711 1.98790E+01 2.95381E+01 0.00000E+00
 -1      1712 2.22837E+01 2.99905E+01 0.00000E+00
 -1      1713 2.15537E+01 2.99129E+01 0.00000E+00
 -1      1714 2.38087E+01 2.98457E+01 0.00000E+00
 -1      1715 2.31234E+01 2.99129E+01 0.00000E+00
 -1      1716 2.52533E+01 2.95353E+01 0.00000E+00
 -1      1717 2.46041E+01 2.97313E+01 0.00000E+00
 -1      1718 2.65704E+01 2.88781E+01 0.00000E+00
 -1      1719 2.59730E+01 2.91944E+01 0.00000E+00
 -1      1720 2.78410E+01 2.80499E+01 0.00000E+00
 -1      1721 2.72948E+01 2.84957E+01 0.00000E+00
 -1      1722 2.87957E+01 2.68866E+01 0.00000E+00
 -1      1723 2.83627E+01 2.74137E+01 0.00000E+00
 -1      1724 2.96689E+01 2.55826E+01 0.00000E+00
 -1      1725 2.93258E+01 2.62341E+01 0.00000E+00
 -1      1726 3.00919E+01 2.41459E+01 0.00000E+00
 -1      1727 2.99052E+01 2.47855E+01 0.00000E+00
 -1      1728 3.03000E+01 2.27285E+01 0.00000E+00
 -1      1729 3.02379E+01 2.33851E+01 0.00000E+00
 -1      1730 2.81661E+01 1.60824E+01 0.00000E+00
 -1      1731 2.93527E+01 1.73523E+01 0.00000E+00
 -1      1732 1.48437E+02 2.56875E+00 0.00000E+00
 -1      1733 1.47138E+02 3.30625E+00 0.00000E+00
 -1      1734 3.08233E+01 2.05655E+01 0.00000E+00
 -1      1735 3.02620E+01 1.88817E+01 0.00000E+00
 -1      1736 3.09054E+01 2.22922E+01 0.00000E+00
 -1      1737 2.66960E+01 1.51947E+01 0.00000E+00
 -1      1738 2.51399E+01 1.45786E+01 0.00000E+00
 -1      1739 2.34313E+01 1.40861E+01 0.00000E+00
 -1      1740 2.16085E+01 1.40075E+01 0.00000E+00
 -1      1741 1.99077E+01 1.45864E+01 0.00000E+00
 -1      1742 1.83111E+01 1.53765E+01 0.00000E+00
 -1      1743 1.69326E+01 1.64758E+01 0.00000E+00
 -1      1744 1.59109E+01 1.79134E+01 0.00000E+00
 -1      1745 1.51375E+01 1.94385E+01 0.00000E+00
 -1      1746 1.46536E+01 2.10959E+01 0.00000E+00
 -1      1747 1.45678E+01 2.27931E+01 0.00000E+00
 -1      1748 1.48723E+01 2.44496E+01 0.00000E+00
 -1      1749 1.54038E+01 2.61279E+01 0.00000E+00
 -1      1750 1.63864E+01 2.76161E+01 0.00000E+00
 -1      1751 1.76996E+01 2.88329E+01 0.00000E+00
 -1      1752 1.91774E+01 2.99156E+01 0.00000E+00
 -1      1753 2.09279E+01 3.05184E+01 0.00000E+00
 -1      1754 2.26854E+01 3.05602E+01 0.00000E+00
 -1      1755 2.43206E+01 3.03682E+01 0.00000E+00
 -1      1756 2.58357E+01 2.99128E+01 0.00000E+00
 -1      1757 2.72798E+01 2.91896E+01 0.00000E+00
 -1      1758 2.85259E+01 2.81711E+01 0.00000E+00
 -1      1759 2.95778E+01 2.68824E+01 0.00000E+00
 -1      1760 3.03441E+01 2.54327E+01 0.00000E+00
 -1      1761 3.07265E+01 2.38747E+01 0.00000E+00
 -1      1762 2.87400E+00 4.77875E+01 0.00000E+00
 -1      1763 3.89700E+00 4.04125E+01 0.00000E+00
 -1      1764 3.89700E+00 4.18875E+01 0.00000E+00
 -1      1765 3.89700E+00 4.33625E+01 0.00000E+00
 -1      1766 3.89700E+00 4.48375E+01 0.00000E+00
 -1      1767 5.19600E+00 4.26250E+01 0.00000E+00
 -1      1768 3.89700E+00 3.45125E+01 0.00000E+00
 -1      1769 3.89700E+00 3.59875E+01 0.00000E+00
 -1      1770 3.89700E+00 3.15625E+01 0.00000E+00
 -1      1771 3.89700E+00 3.30375E+01 0.00000E+00
 -1      1772 5.19600E+00 3.37750E+01 0.00000E+00
 -1      1773 3.89700E+00 2.86625E+01 0.00000E+00
 -1      1774 3.89700E+00 3.01125E+01 0.00000E+00
 -1      1775 5.19600E+00 3.08500E+01 0.00000E+00
 -1      1776 3.89700E+00 2.57125E+01 0.00000E+00
 -1      1777 3.89700E+00 2.71875E+01 0.00000E+00
 -1      1778 5.19600E+00 2.79250E+01 0.00000E+00
 -1      1779 3.89700E+00 2.28125E+01 0.00000E+00
 -1      1780 3.89700E+00 2.42625E+01 0.00000E+00
 -1      1781 5.19600E+00 2.50000E+01 0.00000E+00
 -1      1782 3.89700E+00 1.98625E+01 0.00000E+00
 -1      1783 3.89700E+00 2.13375E+01 0.00000E+00
 -1      1784 5.19600E+00 2.20750E+01 0.00000E+00
 -1      1785 3.89700E+00 1.69125E+01 0.00000E+00
 -1      1786 3.89700E+00 1.83875E+01 0.00000E+00
 -1      1787 5.19600E+00 1.91250E+01 0.00000E+00
 -1      1788 3.89700E+00 1.39625E+01 0.00000E+00
 -1      1789 3.89700E+00 1.54375E+01 0.00000E+00
 -1      1790 5.19600E+00 1.61750E+01 0.00000E+00
 -1      1791 3.89700E+00 1.10125E+01 0.00000E+00
 -1      1792 3.89700E+00 1.24875E+01 0.00000E+00
 -1      1793 5.19600E+00 1.32250E+01 0.00000E+00
 -1      1794 3.89700E+00 8.06250E+00 0.00000E+00
 -1      1795 3.89700E+00 9.53750E+00 0.00000E+00
 -1      1796 5.19600E+00 1.02750E+01 0.00000E+00
 -1      1797 3.89700E+00 5.11250E+00 0.00000E+00
 -1      1798 3.89700E+00 6.58750E+00 0.00000E+00
 -1      1799 5.19600E+00 7.32500E+00 0.00000E+00
 -1      1800 4.20450E+00 3.10313E+00 0.00000E+00
 -1      1801 4.06650E+00 4.19688E+00 0.00000E+00
 -1      1802 5.36550E+00 4.93437E+00 0.00000E+00
 -1      1803 5.70450E+00 3.10313E+00 0.00000E+00
 -1      1804 3.62400E+00 4.64885E+01 0.00000E+00
 -1      1805 8.70450E+00 3.10313E+00 0.00000E+00
 -1      1806 7.20450E+00 3.10313E+00 0.00000E+00
 -1      1807 7.03500E+00 4.01875E+00 0.00000E+00
 -1      1808 4.92300E+00 4.57510E+01 0.00000E+00
 -1      1809 8.40000E+00 4.61030E+01 0.00000E+00
 -1      1810 9.90000E+00 4.61030E+01 0.00000E+00
 -1      1811 1.14000E+01 4.61030E+01 0.00000E+00
 -1      1812 1.29000E+01 4.61030E+01 0.00000E+00
 -1      1813 1.06500E+01 4.48040E+01 0.00000E+00
 -1      1814 1.44000E+01 4.61030E+01 0.00000E+00
 -1      1815 1.59000E+01 4.61030E+01 0.00000E+00
 -1      1816 1.36500E+01 4.48040E+01 0.00000E+00
 -1      1817 1.74000E+01 4.61030E+01 0.00000E+00
 -1      1818 1.89000E+01 4.61030E+01 0.00000E+00
 -1      1819 1.66500E+01 4.48040E+01 0.00000E+00
 -1      1820 2.04000E+01 4.61030E+01 0.00000E+00
 -1      1821 2.19000E+01 4.61030E+01 0.00000E+00
 -1      1822 1.96500E+01 4.48040E+01 0.00000E+00
 -1      1823 2.34000E+01 4.61030E+01 0.00000E+00
 -1      1824 2.49000E+01 4.61030E+01 0.00000E+00
 -1      1825 2.26500E+01 4.48040E+01 0.00000E+00
 -1      1826 2.64000E+01 4.61030E+01 0.00000E+00
 -1      1827 2.79000E+01 4.61030E+01 0.00000E+00
 -1      1828 2.56500E+01 4.48040E+01 0.00000E+00
 -1      1829 2.94000E+01 4.61030E+01 0.00000E+00
 -1      1830 3.09000E+01 4.61030E+01 0.00000E+00
 -1      1831 2.86500E+01 4.48040E+01 0.00000E+00
 -1      1832 3.24000E+01 4.61030E+01 0.00000E+00
 -1      1833 3.39000E+01 4.61030E+01 0.00000E+00
 -1      1834 3.16500E+01 4.48040E+01 0.00000E+00
 -1      1835 3.54000E+01 4.61030E+01 0.00000E+00
 -1      1836 3.69000E+01 4.61030E+01 0.00000E+00
 -1      1837 3.46500E+01 4.48040E+01 0.00000E+00
 -1      1838 3.84000E+01 4.61030E+01 0.00000E+00
 -1      1839 3.99000E+01 4.61030E+01 0.00000E+00
 -1      1840 3.76500E+01 4.48040E+01 0.00000E+00
 -1      1841 4.14000E+01 4.61030E+01 0.00000E+00
 -1      1842 4.29000E+01 4.61030E+01 0.00000E+00
 -1      1843 4.06500E+01 4.48040E+01 0.00000E+00
 -1      1844 4.44000E+01 4.61030E+01 0.00000E+00
 -1      1845 4.59000E+01 4.61030E+01 0.00000E+00
 -1      1846 4.36500E+01 4.48040E+01 0.00000E+00
 -1      1847 4.74000E+01 4.61030E+01 0.00000E+00
 -1      1848 4.89000E+01 4.61030E+01 0.00000E+00
 -1      1849 4.66500E+01 4.48040E+01 0.00000E+00
 -1      1850 5.04000E+01 4.61030E+01 0.00000E+00
 -1      1851 5.19000E+01 4.61030E+01 0.00000E+00
 -1      1852 4.96500E+01 4.48040E+01 0.00000E+00
 -1      1853 5.34000E+01 4.61030E+01 0.00000E+00
 -1      1854 5.49000E+01 4.61030E+01 0.00000E+00
 -1      1855 5.26500E+01 4.48040E+01 0.00000E+00
 -1      1856 5.64000E+01 4.61030E+01 0.00000E+00
 -1      1857 5.79000E+01 4.61030E+01 0.00000E+00
 -1      1858 5.56500E+01 4.48040E+01 0.00000E+00
 -1      1859 5.94000E+01 4.61030E+01 0.00000E+00
 -1      1860 6.09000E+01 4.61030E+01 0.00000E+00
 -1      1861 5.86500E+01 4.48040E+01 0.00000E+00
 -1      1862 6.24000E+01 4.61030E+01 0.00000E+00
 -1      1863 6.39000E+01 4.61030E+01 0.00000E+00
 -1      1864 6.16500E+01 4.48040E+01 0.00000E+00
 -1      1865 6.54000E+01 4.61030E+01 0.00000E+00
 -1      1866 6.69000E+01 4.61030E+01 0.00000E+00
 -1      1867 6.46500E+01 4.48040E+01 0.00000E+00
 -1      1868 6.84000E+01 4.61030E+01 0.00000E+00
 -1      1869 6.99000E+01 4.61030E+01 0.00000E+00
 -1      1870 6.76500E+01 4.48040E+01 0.00000E+00
 -1      1871 7.14000E+01 4.61030E+01 0.00000E+00
 -1      1872 7.29000E+01 4.61030E+01 0.00000E+00
 -1      1873 7.06500E+01 4.48040E+01 0.00000E+00
 -1      1874 7.44000E+01 4.61030E+01 0.00000E+00
 -1      1875 7.59000E+01 4.61030E+01 0.00000E+00
 -1      1876 7.36500E+01 4.48040E+01 0.00000E+00
 -1      1877 7.74000E+01 4.61030E+01 0.00000E+00
 -1      1878 7.89000E+01 4.61030E+01 0.00000E+00
 -1      1879 7.66500E+01 4.48040E+01 0.00000E+00
 -1      1880 8.04000E+01 4.61030E+01 0.00000E+00
 -1      1881 8.19000E+01 4.61030E+01 0.00000E+00
 -1      1882 7.96500E+01 4.48040E+01 0.00000E+00
 -1      1883 8.34000E+01 4.61030E+01 0.00000E+00
 -1      1884 8.49000E+01 4.61030E+01 0.00000E+00
 -1      1885 8.26500E+01 4.48040E+01 0.00000E+00
 -1      1886 8.64000E+01 4.61030E+01 0.00000E+00
 -1      1887 8.79000E+01 4.61030E+01 0.00000E+00
 -1      1888 8.56500E+01 4.48040E+01 0.00000E+00
 -1      1889 8.94000E+01 4.61030E+01 0.00000E+00
 -1      1890 9.09000E+01 4.61030E+01 0.00000E+00
 -1      1891 8.86500E+01 4.48040E+01 0.00000E+00
 -1      1892 9.24000E+01 4.61030E+01 0.00000E+00
 -1      1893 9.39000E+01 4.61030E+01 0.00000E+00
 -1      1894 9.16500E+01 4.48040E+01 0.00000E+00
 -1      1895 9.54000E+01 4.61030E+01 0.00000E+00
 -1      1896 9.69000E+01 4.61030E+01 0.00000E+00
 -1      1897 9.46500E+01 4.48040E+01 0.00000E+00
 -1      1898 9.84000E+01 4.61030E+01 0.00000E+00
 -1      1899 9.99000E+01 4.61030E+01 0.00000E+00
 -1      1900 9.76500E+01 4.48040E+01 0.00000E+00
 -1      1901 1.01400E+02 4.61030E+01 0.00000E+00
 -1      1902 1.02900E+02 4.61030E+01 0.00000E+00
 -1      1903 1.00650E+02 4.48040E+01 0.00000E+00
 -1      1904 1.04400E+02 4.61030E+01 0.00000E+00
 -1      1905 1.05900E+02 4.61030E+01 0.00000E+00
 -1      1906 1.03650E+02 4.48040E+01 0.00000E+00
 -1      1907 1.07400E+02 4.61030E+01 0.00000E+00
 -1      1908 1.08900E+02 4.61030E+01 0.00000E+00
 -1      1909 1.06650E+02 4.48040E+01 0.00000E+00
 -1      1910 1.10400E+02 4.61030E+01 0.00000E+00
 -1      1911 1.11900E+02 4.61030E+01 0.00000E+00
 -1      1912 1.09650E+02 4.48040E+01 0.00000E+00
 -1      1913 1.13400E+02 4.61030E+01 0.00000E+00
 -1      1914 1.14900E+02 4.61030E+01 0.00000E+00
 -1      1915 1.12650E+02 4.48040E+01 0.00000E+00
 -1      1916 1.16400E+02 4.61030E+01 0.00000E+00
 -1      1917 1.17900E+02 4.61030E+01 0.00000E+00
 -1      1918 1.15650E+02 4.48040E+01 0.00000E+00
 -1      1919 1.19400E+02 4.61030E+01 0.00000E+00
 -1      1920 1.20900E+02 4.61030E+01 0.00000E+00
 -1      1921 1.18650E+02 4.48040E+01 0.00000E+00
 -1      1922 1.22400E+02 4.61030E+01 0.00000E+00
 -1      1923 1.23900E+02 4.61030E+01 0.00000E+00
 -1      1924 1.21650E+02 4.48040E+01 0.00000E+00
 -1      1925 1.25400E+02 4.61030E+01 0.00000E+00
 -1      1926 1.26900E+02 4.61030E+01 0.00000E+00
 -1      1927 1.24650E+02 4.48040E+01 0.00000E+00
 -1      1928 1.28400E+02 4.61030E+01 0.00000E+00
 -1      1929 1.29900E+02 4.61030E+01 0.00000E+00
 -1      1930 1.27650E+02 4.48040E+01 0.00000E+00
 -1      1931 1.31400E+02 4.61030E+01 0.00000E+00
 -1      1932 1.32900E+02 4.61030E+01 0.00000E+00
 -1      1933 1.30650E+02 4.48040E+01 0.00000E+00
 -1      1934 1.34400E+02 4.61030E+01 0.00000E+00
 -1      1935 1.35900E+02 4.61030E+01 0.00000E+00
 -1      1936 1.33650E+02 4.48040E+01 0.00000E+00
 -1      1937 1.37400E+02 4.61030E+01 0.00000E+00
 -1      1938 1.38900E+02 4.61030E+01 0.00000E+00
 -1      1939 1.36650E+02 4.48040E+01 0.00000E+00
 -1      1940 1.40400E+02 4.61030E+01 0.00000E+00
 -1      1941 1.41900E+02 4.61030E+01 0.00000E+00
 -1      1942 1.39650E+02 4.48040E+01 0.00000E+00
 -1      1943 1.43244E+02 4.61616E+01 0.00000E+00
 -1      1944 1.44744E+02 4.61616E+01 0.00000E+00
 -1      1945 1.45182E+02 4.49799E+01 0.00000E+00
 -1      1946 1.42494E+02 4.48626E+01 0.00000E+00
 -1      1947 1.17045E+01 3.10313E+00 0.00000E+00
 -1      1948 1.02045E+01 3.10313E+00 0.00000E+00
 -1      1949 1.00350E+01 4.01875E+00 0.00000E+00
 -1      1950 1.47045E+01 3.10313E+00 0.00000E+00
 -1      1951 1.32045E+01 3.10313E+00 0.00000E+00
 -1      1952 1.30350E+01 4.01875E+00 0.00000E+00
 -1      1953 1.77045E+01 3.10313E+00 0.00000E+00
 -1      1954 1.62045E+01 3.10313E+00 0.00000E+00
 -1      1955 1.60350E+01 4.01875E+00 0.00000E+00
 -1      1956 2.07045E+01 3.10313E+00 0.00000E+00
 -1      1957 1.92045E+01 3.10313E+00 0.00000E+00
 -1      1958 1.90350E+01 4.01875E+00 0.00000E+00
 -1      1959 2.37045E+01 3.10313E+00 0.00000E+00
 -1      1960 2.22045E+01 3.10313E+00 0.00000E+00
 -1      1961 2.20350E+01 4.01875E+00 0.00000E+00
 -1      1962 2.67045E+01 3.10313E+00 0.00000E+00
 -1      1963 2.52045E+01 3.10313E+00 0.00000E+00
 -1      1964 2.50350E+01 4.01875E+00 0.00000E+00
 -1      1965 2.97045E+01 3.10313E+00 0.00000E+00
 -1      1966 2.82045E+01 3.10313E+00 0.00000E+00
 -1      1967 2.80350E+01 4.01875E+00 0.00000E+00
 -1      1968 3.27045E+01 3.10313E+00 0.00000E+00
 -1      1969 3.12045E+01 3.10313E+00 0.00000E+00
 -1      1970 3.10350E+01 4.01875E+00 0.00000E+00
 -1      1971 3.57045E+01 3.10313E+00 0.00000E+00
 -1      1972 3.42045E+01 3.10313E+00 0.00000E+00
 -1      1973 3.40350E+01 4.01875E+00 0.00000E+00
 -1      1974 3.87045E+01 3.10313E+00 0.00000E+00
 -1      1975 3.72045E+01 3.10313E+00 0.00000E+00
 -1      1976 3.70350E+01 4.01875E+00 0.00000E+00
 -1      1977 4.17045E+01 3.10313E+00 0.00000E+00
 -1      1978 4.02045E+01 3.10313E+00 0.00000E+00
 -1      1979 4.00350E+01 4.01875E+00 0.00000E+00
 -1      1980 4.47045E+01 3.10313E+00 0.00000E+00
 -1      1981 4.32045E+01 3.10313E+00 0.00000E+00
 -1      1982 4.30350E+01 4.01875E+00 0.00000E+00
 -1      1983 4.77045E+01 3.10313E+00 0.00000E+00
 -1      1984 4.62045E+01 3.10313E+00 0.00000E+00
 -1      1985 4.60350E+01 4.01875E+00 0.00000E+00
 -1      1986 5.07045E+01 3.10313E+00 0.00000E+00
 -1      1987 4.92045E+01 3.10313E+00 0.00000E+00
 -1      1988 4.90350E+01 4.01875E+00 0.00000E+00
 -1      1989 5.37045E+01 3.10313E+00 0.00000E+00
 -1      1990 5.22045E+01 3.10313E+00 0.00000E+00
 -1      1991 5.20350E+01 4.01875E+00 0.00000E+00
 -1      1992 5.67045E+01 3.10313E+00 0.00000E+00
 -1      1993 5.52045E+01 3.10313E+00 0.00000E+00
 -1      1994 5.50350E+01 4.01875E+00 0.00000E+00
 -1      1995 5.97045E+01 3.10313E+00 0.00000E+00
 -1      1996 5.82045E+01 3.10313E+00 0.00000E+00
 -1      1997 5.80350E+01 4.01875E+00 0.00000E+00
 -1      1998 6.27045E+01 3.10313E+00 0.00000E+00
 -1      1999 6.12045E+01 3.10313E+00 0.00000E+00
 -1      2000 6.10350E+01 4.01875E+00 0.00000E+00
 -1      2001 6.57045E+01 3.10313E+00 0.00000E+00
 -1      2002 6.42045E+01 3.10313E+00 0.00000E+00
 -1      2003 6.40350E+01 4.01875E+00 0.00000E+00
 -1      2004 6.87045E+01 3.10313E+00 0.00000E+00
 -1      2005 6.72045E+01 3.10313E+00 0.00000E+00
 -1      2006 6.70350E+01 4.01875E+00 0.00000E+00
 -1      2007 7.17045E+01 3.10313E+00 0.00000E+00
 -1      2008 7.02045E+01 3.10313E+00 0.00000E+00
 -1      2009 7.00350E+01 4.01875E+00 0.00000E+00
 -1      2010 7.47045E+01 3.10313E+00 0.00000E+00
 -1      2011 7.32045E+01 3.10313E+00 0.00000E+00
 -1      2012 7.30350E+01 4.01875E+00 0.00000E+00
 -1      2013 7.77045E+01 3.10313E+00 0.00000E+00
 -1      2014 7.62045E+01 3.10313E+00 0.00000E+00
 -1      2015 7.60350E+01 4.01875E+00 0.00000E+00
 -1      2016 8.07045E+01 3.10313E+00 0.00000E+00
 -1      2017 7.92045E+01 3.10313E+00 0.00000E+00
 -1      2018 7.90350E+01 4.01875E+00 0.00000E+00
 -1      2019 8.37045E+01 3.10313E+00 0.00000E+00
 -1      2020 8.22045E+01 3.10313E+00 0.00000E+00
 -1      2021 8.20350E+01 4.01875E+00 0.00000E+00
 -1      2022 8.67045E+01 3.10313E+00 0.00000E+00
 -1      2023 8.52045E+01 3.10313E+00 0.00000E+00
 -1      2024 8.50350E+01 4.01875E+00 0.00000E+00
 -1      2025 8.97045E+01 3.10313E+00 0.00000E+00
 -1      2026 8.82045E+01 3.10313E+00 0.00000E+00
 -1      2027 8.80350E+01 4.01875E+00 0.00000E+00
 -1      2028 9.27045E+01 3.10313E+00 0.00000E+00
 -1      2029 9.12045E+01 3.10313E+00 0.00000E+00
 -1      2030 9.10350E+01 4.01875E+00 0.00000E+00
 -1      2031 9.57045E+01 3.10313E+00 0.00000E+00
 -1      2032 9.42045E+01 3.10313E+00 0.00000E+00
 -1      2033 9.40350E+01 4.01875E+00 0.00000E+00
 -1      2034 9.87045E+01 3.10313E+00 0.00000E+00
 -1      2035 9.72045E+01 3.10313E+00 0.00000E+00
 -1      2036 9.70350E+01 4.01875E+00 0.00000E+00
 -1      2037 1.01704E+02 3.10313E+00 0.00000E+00
 -1      2038 1.00204E+02 3.10313E+00 0.00000E+00
 -1      2039 1.00035E+02 4.01875E+00 0.00000E+00
 -1      2040 1.04704E+02 3.10313E+00 0.00000E+00
 -1      2041 1.03204E+02 3.10313E+00 0.00000E+00
 -1      2042 1.03035E+02 4.01875E+00 0.00000E+00
 -1      2043 1.07704E+02 3.10313E+00 0.00000E+00
 -1      2044 1.06204E+02 3.10313E+00 0.00000E+00
 -1      2045 1.06035E+02 4.01875E+00 0.00000E+00
 -1      2046 1.10704E+02 3.10313E+00 0.00000E+00
 -1      2047 1.09204E+02 3.10313E+00 0.00000E+00
 -1      2048 1.09035E+02 4.01875E+00 0.00000E+00
 -1      2049 1.13704E+02 3.10313E+00 0.00000E+00
 -1      2050 1.12204E+02 3.10313E+00 0.00000E+00
 -1      2051 1.12035E+02 4.01875E+00 0.00000E+00
 -1      2052 1.16704E+02 3.10313E+00 0.00000E+00
 -1      2053 1.15204E+02 3.10313E+00 0.00000E+00
 -1      2054 1.15035E+02 4.01875E+00 0.00000E+00
 -1      2055 1.19704E+02 3.10313E+00 0.00000E+00
 -1      2056 1.18204E+02 3.10313E+00 0.00000E+00
 -1      2057 1.18035E+02 4.01875E+00 0.00000E+00
 -1      2058 1.22704E+02 3.10313E+00 0.00000E+00
 -1      2059 1.21204E+02 3.10313E+00 0.00000E+00
 -1      2060 1.21035E+02 4.01875E+00 0.00000E+00
 -1      2061 1.25704E+02 3.10313E+00 0.00000E+00
 -1      2062 1.24204E+02 3.10313E+00 0.00000E+00
 -1      2063 1.24035E+02 4.01875E+00 0.00000E+00
 -1      2064 1.28704E+02 3.10313E+00 0.00000E+00
 -1      2065 1.27204E+02 3.10313E+00 0.00000E+00
 -1      2066 1.27035E+02 4.01875E+00 0.00000E+00
 -1      2067 1.31704E+02 3.10313E+00 0.00000E+00
 -1      2068 1.30204E+02 3.10313E+00 0.00000E+00
 -1      2069 1.30035E+02 4.01875E+00 0.00000E+00
 -1      2070 1.34704E+02 3.10313E+00 0.00000E+00
 -1      2071 1.33204E+02 3.10313E+00 0.00000E+00
 -1      2072 1.33035E+02 4.01875E+00 0.00000E+00
 -1      2073 1.37704E+02 3.10313E+00 0.00000E+00
 -1      2074 1.36204E+02 3.10313E+00 0.00000E+00
 -1      2075 1.36035E+02 4.01875E+00 0.00000E+00
 -1      2076 1.40704E+02 3.10313E+00 0.00000E+00
 -1      2077 1.39204E+02 3.10313E+00 0.00000E+00
 -1      2078 1.39035E+02 4.01875E+00 0.00000E+00
 -1      2079 1.43704E+02 3.10313E+00 0.00000E+00
 -1      2080 1.42204E+02 3.10313E+00 0.00000E+00
 -1      2081 1.42035E+02 4.01875E+00 0.00000E+00
 -1      2082 1.46171E+02 3.20469E+00 0.00000E+00
 -1      2083 1.44671E+02 3.20469E+00 0.00000E+00
 -1      2084 1.44502E+02 4.12031E+00 0.00000E+00
 -1      2085 1.46435E+02 4.32344E+00 0.00000E+00
 -1      2086 1.46103E+02 1.25375E+01 0.00000E+00
 -1      2087 1.46103E+02 1.10625E+01 0.00000E+00
 -1      2088 1.46103E+02 9.58750E+00 0.00000E+00
 -1      2089 1.46103E+02 8.11250E+00 0.00000E+00
 -1      2090 1.44804E+02 1.03250E+01 0.00000E+00
 -1      2091 1.46269E+02 6.95547E+00 0.00000E+00
 -1      2092 1.46269E+02 5.48047E+00 0.00000E+00
 -1      2093 1.45302E+02 5.37891E+00 0.00000E+00
 -1      2094 1.44970E+02 7.69297E+00 0.00000E+00
 -1      2095 1.46103E+02 1.54375E+01 0.00000E+00
 -1      2096 1.46103E+02 1.39875E+01 0.00000E+00
 -1      2097 1.44804E+02 1.32500E+01 0.00000E+00
 -1      2098 1.46103E+02 1.83875E+01 0.00000E+00
 -1      2099 1.46103E+02 1.69125E+01 0.00000E+00
 -1      2100 1.44804E+02 1.61750E+01 0.00000E+00
 -1      2101 1.46103E+02 2.13375E+01 0.00000E+00
 -1      2102 1.46103E+02 1.98625E+01 0.00000E+00
 -1      2103 1.44804E+02 1.91250E+01 0.00000E+00
 -1      2104 1.46103E+02 2.42875E+01 0.00000E+00
 -1      2105 1.46103E+02 2.28125E+01 0.00000E+00
 -1      2106 1.44804E+02 2.20750E+01 0.00000E+00
 -1      2107 1.46103E+02 2.72375E+01 0.00000E+00
 -1      2108 1.46103E+02 2.57625E+01 0.00000E+00
 -1      2109 1.44804E+02 2.50250E+01 0.00000E+00
 -1      2110 1.46103E+02 3.01875E+01 0.00000E+00
 -1      2111 1.46103E+02 2.87125E+01 0.00000E+00
 -1      2112 1.44804E+02 2.79750E+01 0.00000E+00
 -1      2113 1.46103E+02 3.30875E+01 0.00000E+00
 -1      2114 1.46103E+02 3.16375E+01 0.00000E+00
 -1      2115 1.44804E+02 3.09000E+01 0.00000E+00
 -1      2116 1.46103E+02 3.60375E+01 0.00000E+00
 -1      2117 1.46103E+02 3.45625E+01 0.00000E+00
 -1      2118 1.44804E+02 3.38250E+01 0.00000E+00
 -1      2119 1.46103E+02 3.89875E+01 0.00000E+00
 -1      2120 1.46103E+02 3.75125E+01 0.00000E+00
 -1      2121 1.44804E+02 3.67750E+01 0.00000E+00
 -1      2122 1.46103E+02 4.19375E+01 0.00000E+00
 -1      2123 1.46103E+02 4.04625E+01 0.00000E+00
 -1      2124 1.44804E+02 3.97250E+01 0.00000E+00
 -1      2125 3.07829E+01 1.80660E+01 0.00000E+00
 -1      2126 3.12292E+01 1.88447E+01 0.00000E+00
 -1      2127 3.15694E+01 2.19073E+01 0.00000E+00
 -1      2128 3.15365E+01 2.27290E+01 0.00000E+00
 -1      2129 3.16165E+01 2.00049E+01 0.00000E+00
 -1      2130 3.17315E+01 2.09099E+01 0.00000E+00
 -1      2131 2.98568E+01 1.65645E+01 0.00000E+00
 -1      2132 3.03199E+01 1.73153E+01 0.00000E+00
 -1      2133 3.12871E+01 1.72782E+01 0.00000E+00
 -1      2134 2.81820E+01 1.52963E+01 0.00000E+00
 -1      2135 2.89056E+01 1.58154E+01 0.00000E+00
 -1      2136 3.89700E+00 3.74625E+01 0.00000E+00
 -1      2137 3.89700E+00 3.89375E+01 0.00000E+00
 -1      2138 5.19600E+00 3.96750E+01 0.00000E+00
 -1      2139 5.19600E+00 3.67250E+01 0.00000E+00
 -1      2140 2.49366E+01 1.37950E+01 0.00000E+00
 -1      2141 2.57464E+01 1.40424E+01 0.00000E+00
 -1      2142 2.31389E+01 1.33049E+01 0.00000E+00
 -1      2143 2.40378E+01 1.35500E+01 0.00000E+00
 -1      2144 2.46443E+01 1.30138E+01 0.00000E+00
 -1      2145 2.10316E+01 1.34530E+01 0.00000E+00
 -1      2146 2.19556E+01 1.32865E+01 0.00000E+00
 -1      2147 1.92154E+01 1.42201E+01 0.00000E+00
 -1      2148 1.99923E+01 1.38078E+01 0.00000E+00
 -1      2149 1.75760E+01 1.49756E+01 0.00000E+00
 -1      2150 1.83957E+01 1.45979E+01 0.00000E+00
 -1      2151 1.84803E+01 1.38192E+01 0.00000E+00
 -1      2152 1.60415E+01 1.63628E+01 0.00000E+00
 -1      2153 1.66002E+01 1.56413E+01 0.00000E+00
 -1      2154 1.51352E+01 1.79196E+01 0.00000E+00
 -1      2155 1.55982E+01 1.72035E+01 0.00000E+00
 -1      2156 1.42599E+01 1.95659E+01 0.00000E+00
 -1      2157 1.45703E+01 1.87569E+01 0.00000E+00
 -1      2158 1.38909E+01 2.13818E+01 0.00000E+00
 -1      2159 1.40644E+01 2.05335E+01 0.00000E+00
 -1      2160 1.38836E+01 2.32927E+01 0.00000E+00
 -1      2161 1.37959E+01 2.24439E+01 0.00000E+00
 -1      2162 1.43144E+01 2.50323E+01 0.00000E+00
 -1      2163 1.40975E+01 2.42246E+01 0.00000E+00
 -1      2164 1.48335E+01 2.68262E+01 0.00000E+00
 -1      2165 1.45188E+01 2.59557E+01 0.00000E+00
 -1      2166 1.61667E+01 2.85237E+01 0.00000E+00
 -1      2167 1.54987E+01 2.79062E+01 0.00000E+00
 -1      2168 1.74571E+01 2.97223E+01 0.00000E+00
 -1      2169 1.68119E+01 2.91230E+01 0.00000E+00
 -1      2170 1.59242E+01 2.94131E+01 0.00000E+00
 -1      2171 1.91843E+01 3.08627E+01 0.00000E+00
 -1      2172 1.83516E+01 3.03793E+01 0.00000E+00
 -1      2173 2.13032E+01 3.12208E+01 0.00000E+00
 -1      2174 2.03854E+01 3.11013E+01 0.00000E+00
 -1      2175 2.31765E+01 3.12919E+01 0.00000E+00
 -1      2176 2.23368E+01 3.13695E+01 0.00000E+00
 -1      2177 2.47674E+01 3.10630E+01 0.00000E+00
 -1      2178 2.39719E+01 3.11774E+01 0.00000E+00
 -1      2179 2.36233E+01 3.19867E+01 0.00000E+00
 -1      2180 2.64909E+01 3.03660E+01 0.00000E+00
 -1      2181 2.57712E+01 3.07068E+01 0.00000E+00
 -1      2182 2.79398E+01 2.96013E+01 0.00000E+00
 -1      2183 2.72153E+01 2.99836E+01 0.00000E+00
 -1      2184 2.71509E+01 3.07776E+01 0.00000E+00
 -1      2185 2.93203E+01 2.82905E+01 0.00000E+00
 -1      2186 2.87986E+01 2.89267E+01 0.00000E+00
 -1      2187 3.03805E+01 2.69855E+01 0.00000E+00
 -1      2188 2.98504E+01 2.76380E+01 0.00000E+00
 -1      2189 3.01231E+01 2.83936E+01 0.00000E+00
 -1      2190 3.12041E+01 2.52540E+01 0.00000E+00
 -1      2191 3.09679E+01 2.60512E+01 0.00000E+00
 -1      2192 3.14962E+01 2.37324E+01 0.00000E+00
 -1      2193 3.13502E+01 2.44932E+01 0.00000E+00
 -1      2194 3.19739E+01 2.51117E+01 0.00000E+00
 -1      2195 2.66469E+01 1.43541E+01 0.00000E+00
 -1      2196 2.73934E+01 1.47228E+01 0.00000E+00
 -1      2197 2.98728E+01 1.57784E+01 0.00000E+00
 -1      2198 6.42300E+00 4.57510E+01 0.00000E+00
 -1      2199 2.64437E+01 1.35705E+01 0.00000E+00
 -1      2200 7.17300E+00 4.44520E+01 0.00000E+00
 -1      2201 3.21374E+01 1.91891E+01 0.00000E+00
 -1      2202 3.23626E+01 2.13467E+01 0.00000E+00
 -1      2203 1.45665E+02 4.31193E+01 0.00000E+00
 -1      2204 3.21602E+01 2.33475E+01 0.00000E+00
 -1      2205 2.81329E+01 1.44557E+01 0.00000E+00
 -1      2206 3.12405E+01 2.68068E+01 0.00000E+00
 -1      2207 2.87342E+01 2.97207E+01 0.00000E+00
 -1      2208 2.54226E+01 3.15161E+01 0.00000E+00
 -1      2209 2.17943E+01 3.19525E+01 0.00000E+00
 -1      2210 1.74639E+01 3.06694E+01 0.00000E+00
 -1      2211 1.46137E+01 2.77339E+01 0.00000E+00
 -1      2212 1.37440E+01 2.57307E+01 0.00000E+00
 -1      2213 1.33257E+01 2.38754E+01 0.00000E+00
 -1      2214 1.32067E+01 2.18814E+01 0.00000E+00
 -1      2215 1.34972E+01 1.98518E+01 0.00000E+00
 -1      2216 1.42575E+01 1.80469E+01 0.00000E+00
 -1      2217 1.66848E+01 1.48626E+01 0.00000E+00
 -1      2218 2.19852E+01 1.21958E+01 0.00000E+00
 -1      2219 2.25621E+01 1.27503E+01 0.00000E+00
 -1      2220 2.31686E+01 1.22142E+01 0.00000E+00
 -1      2221 2.03393E+01 1.30867E+01 0.00000E+00
 -1      2222 1.52657E+01 1.63690E+01 0.00000E+00
 -1      2223 1.95596E+01 3.15651E+01 0.00000E+00
 -1      2224 1.07850E+01 5.31775E+00 0.00000E+00
 -1      2225 9.28500E+00 5.31775E+00 0.00000E+00
 -1      2226 6.49500E+00 3.01250E+01 0.00000E+00
 -1      2227 6.49500E+00 3.15750E+01 0.00000E+00
 -1      2228 6.49500E+00 3.30500E+01 0.00000E+00
 -1      2229 6.49500E+00 3.45250E+01 0.00000E+00
 -1      2230 7.79400E+00 3.23250E+01 0.00000E+00
 -1      2231 6.30491E+00 2.42750E+01 0.00000E+00
 -1      2232 6.30491E+00 2.57250E+01 0.00000E+00
 -1      2233 6.30491E+00 2.13250E+01 0.00000E+00
 -1      2234 6.30491E+00 2.28000E+01 0.00000E+00
 -1      2235 7.41382E+00 2.35250E+01 0.00000E+00
 -1      2236 6.30491E+00 1.83750E+01 0.00000E+00
 -1      2237 6.30491E+00 1.98500E+01 0.00000E+00
 -1      2238 7.41382E+00 2.05750E+01 0.00000E+00
 -1      2239 6.30491E+00 1.54250E+01 0.00000E+00
 -1      2240 6.30491E+00 1.69000E+01 0.00000E+00
 -1      2241 7.41382E+00 1.76250E+01 0.00000E+00
 -1      2242 6.30491E+00 1.24750E+01 0.00000E+00
 -1      2243 6.30491E+00 1.39500E+01 0.00000E+00
 -1      2244 7.41382E+00 1.46750E+01 0.00000E+00
 -1      2245 6.30491E+00 9.52500E+00 0.00000E+00
 -1      2246 6.30491E+00 1.10000E+01 0.00000E+00
 -1      2247 7.41382E+00 1.17250E+01 0.00000E+00
 -1      2248 1.37850E+01 5.31775E+00 0.00000E+00
 -1      2249 1.22850E+01 5.31775E+00 0.00000E+00
 -1      2250 1.15350E+01 6.61675E+00 0.00000E+00
 -1      2251 9.90000E+00 4.35050E+01 0.00000E+00
 -1      2252 1.14000E+01 4.35050E+01 0.00000E+00
 -1      2253 2.62739E+01 1.26043E+01 0.00000E+00
 -1      2254 2.71745E+01 1.29160E+01 0.00000E+00
 -1      2255 1.29000E+01 4.35050E+01 0.00000E+00
 -1      2256 1.44000E+01 4.35050E+01 0.00000E+00
 -1      2257 1.21500E+01 4.22060E+01 0.00000E+00
 -1      2258 1.59000E+01 4.35050E+01 0.00000E+00
 -1      2259 1.74000E+01 4.35050E+01 0.00000E+00
 -1      2260 1.51500E+01 4.22060E+01 0.00000E+00
 -1      2261 1.89000E+01 4.35050E+01 0.00000E+00
 -1      2262 2.04000E+01 4.35050E+01 0.00000E+00
 -1      2263 1.81500E+01 4.22060E+01 0.00000E+00
 -1      2264 2.19000E+01 4.35050E+01 0.00000E+00
 -1      2265 2.34000E+01 4.35050E+01 0.00000E+00
 -1      2266 2.11500E+01 4.22060E+01 0.00000E+00
 -1      2267 2.49000E+01 4.35050E+01 0.00000E+00
 -1      2268 2.64000E+01 4.35050E+01 0.00000E+00
 -1      2269 2.41500E+01 4.22060E+01 0.00000E+00
 -1      2270 2.79000E+01 4.35050E+01 0.00000E+00
 -1      2271 2.94000E+01 4.35050E+01 0.00000E+00
 -1      2272 2.71500E+01 4.22060E+01 0.00000E+00
 -1      2273 3.09000E+01 4.35050E+01 0.00000E+00
 -1      2274 3.24000E+01 4.35050E+01 0.00000E+00
 -1      2275 3.01500E+01 4.22060E+01 0.00000E+00
 -1      2276 3.39000E+01 4.35050E+01 0.00000E+00
 -1      2277 3.54000E+01 4.35050E+01 0.00000E+00
 -1      2278 3.31500E+01 4.22060E+01 0.00000E+00
 -1      2279 3.69000E+01 4.35050E+01 0.00000E+00
 -1      2280 3.84000E+01 4.35050E+01 0.00000E+00
 -1      2281 3.61500E+01 4.22060E+01 0.00000E+00
 -1      2282 3.99000E+01 4.35050E+01 0.00000E+00
 -1      2283 4.14000E+01 4.35050E+01 0.00000E+00
 -1      2284 3.91500E+01 4.22060E+01 0.00000E+00
 -1      2285 4.29000E+01 4.35050E+01 0.00000E+00
 -1      2286 4.44000E+01 4.35050E+01 0.00000E+00
 -1      2287 4.21500E+01 4.22060E+01 0.00000E+00
 -1      2288 4.59000E+01 4.35050E+01 0.00000E+00
 -1      2289 4.74000E+01 4.35050E+01 0.00000E+00
 -1      2290 4.51500E+01 4.22060E+01 0.00000E+00
 -1      2291 4.89000E+01 4.35050E+01 0.00000E+00
 -1      2292 5.04000E+01 4.35050E+01 0.00000E+00
 -1      2293 4.81500E+01 4.22060E+01 0.00000E+00
 -1      2294 5.19000E+01 4.35050E+01 0.00000E+00
 -1      2295 5.34000E+01 4.35050E+01 0.00000E+00
 -1      2296 5.11500E+01 4.22060E+01 0.00000E+00
 -1      2297 5.49000E+01 4.35050E+01 0.00000E+00
 -1      2298 5.64000E+01 4.35050E+01 0.00000E+00
 -1      2299 5.41500E+01 4.22060E+01 0.00000E+00
 -1      2300 5.79000E+01 4.35050E+01 0.00000E+00
 -1      2301 5.94000E+01 4.35050E+01 0.00000E+00
 -1      2302 5.71500E+01 4.22060E+01 0.00000E+00
 -1      2303 6.09000E+01 4.35050E+01 0.00000E+00
 -1      2304 6.24000E+01 4.35050E+01 0.00000E+00
 -1      2305 6.01500E+01 4.22060E+01 0.00000E+00
 -1      2306 6.39000E+01 4.35050E+01 0.00000E+00
 -1      2307 6.54000E+01 4.35050E+01 0.00000E+00
 -1      2308 6.31500E+01 4.22060E+01 0.00000E+00
 -1      2309 6.69000E+01 4.35050E+01 0.00000E+00
 -1      2310 6.84000E+01 4.35050E+01 0.00000E+00
 -1      2311 6.61500E+01 4.22060E+01 0.00000E+00
 -1      2312 6.99000E+01 4.35050E+01 0.00000E+00
 -1      2313 7.14000E+01 4.35050E+01 0.00000E+00
 -1      2314 6.91500E+01 4.22060E+01 0.00000E+00
 -1      2315 7.29000E+01 4.35050E+01 0.00000E+00
 -1      2316 7.44000E+01 4.35050E+01 0.00000E+00
 -1      2317 7.21500E+01 4.22060E+01 0.00000E+00
 -1      2318 7.59000E+01 4.35050E+01 0.00000E+00
 -1      2319 7.74000E+01 4.35050E+01 0.00000E+00
 -1      2320 7.51500E+01 4.22060E+01 0.00000E+00
 -1      2321 7.89000E+01 4.35050E+01 0.00000E+00
 -1      2322 8.04000E+01 4.35050E+01 0.00000E+00
 -1      2323 7.81500E+01 4.22060E+01 0.00000E+00
 -1      2324 8.19000E+01 4.35050E+01 0.00000E+00
 -1      2325 8.34000E+01 4.35050E+01 0.00000E+00
 -1      2326 8.11500E+01 4.22060E+01 0.00000E+00
 -1      2327 8.49000E+01 4.35050E+01 0.00000E+00
 -1      2328 8.64000E+01 4.35050E+01 0.00000E+00
 -1      2329 8.41500E+01 4.22060E+01 0.00000E+00
 -1      2330 8.79000E+01 4.35050E+01 0.00000E+00
 -1      2331 8.94000E+01 4.35050E+01 0.00000E+00
 -1      2332 8.71500E+01 4.22060E+01 0.00000E+00
 -1      2333 9.09000E+01 4.35050E+01 0.00000E+00
 -1      2334 9.24000E+01 4.35050E+01 0.00000E+00
 -1      2335 9.01500E+01 4.22060E+01 0.00000E+00
 -1      2336 9.39000E+01 4.35050E+01 0.00000E+00
 -1      2337 9.54000E+01 4.35050E+01 0.00000E+00
 -1      2338 9.31500E+01 4.22060E+01 0.00000E+00
 -1      2339 9.69000E+01 4.35050E+01 0.00000E+00
 -1      2340 9.84000E+01 4.35050E+01 0.00000E+00
 -1      2341 9.61500E+01 4.22060E+01 0.00000E+00
 -1      2342 9.99000E+01 4.35050E+01 0.00000E+00
 -1      2343 1.01400E+02 4.35050E+01 0.00000E+00
 -1      2344 9.91500E+01 4.22060E+01 0.00000E+00
 -1      2345 1.02900E+02 4.35050E+01 0.00000E+00
 -1      2346 1.04400E+02 4.35050E+01 0.00000E+00
 -1      2347 1.02150E+02 4.22060E+01 0.00000E+00
 -1      2348 1.05900E+02 4.35050E+01 0.00000E+00
 -1      2349 1.07400E+02 4.35050E+01 0.00000E+00
 -1      2350 1.05150E+02 4.22060E+01 0.00000E+00
 -1      2351 1.08900E+02 4.35050E+01 0.00000E+00
 -1      2352 1.10400E+02 4.35050E+01 0.00000E+00
 -1      2353 1.08150E+02 4.22060E+01 0.00000E+00
 -1      2354 1.11900E+02 4.35050E+01 0.00000E+00
 -1      2355 1.13400E+02 4.35050E+01 0.00000E+00
 -1      2356 1.11150E+02 4.22060E+01 0.00000E+00
 -1      2357 1.14900E+02 4.35050E+01 0.00000E+00
 -1      2358 1.16400E+02 4.35050E+01 0.00000E+00
 -1      2359 1.14150E+02 4.22060E+01 0.00000E+00
 -1      2360 1.17900E+02 4.35050E+01 0.00000E+00
 -1      2361 1.19400E+02 4.35050E+01 0.00000E+00
 -1      2362 1.17150E+02 4.22060E+01 0.00000E+00
 -1      2363 1.20900E+02 4.35050E+01 0.00000E+00
 -1      2364 1.22400E+02 4.35050E+01 0.00000E+00
 -1      2365 1.20150E+02 4.22060E+01 0.00000E+00
 -1      2366 1.23900E+02 4.35050E+01 0.00000E+00
 -1      2367 1.25400E+02 4.35050E+01 0.00000E+00
 -1      2368 1.23150E+02 4.22060E+01 0.00000E+00
 -1      2369 1.26900E+02 4.35050E+01 0.00000E+00
 -1      2370 1.28400E+02 4.35050E+01 0.00000E+00
 -1      2371 1.26150E+02 4.22060E+01 0.00000E+00
 -1      2372 1.29900E+02 4.35050E+01 0.00000E+00
 -1      2373 1.31400E+02 4.35050E+01 0.00000E+00
 -1      2374 1.29150E+02 4.22060E+01 0.00000E+00
 -1      2375 1.32900E+02 4.35050E+01 0.00000E+00
 -1      2376 1.34400E+02 4.35050E+01 0.00000E+00
 -1      2377 1.32150E+02 4.22060E+01 0.00000E+00
 -1      2378 1.35900E+02 4.35050E+01 0.00000E+00
 -1      2379 1.37400E+02 4.35050E+01 0.00000E+00
 -1      2380 1.35150E+02 4.22060E+01 0.00000E+00
 -1      2381 1.38900E+02 4.35050E+01 0.00000E+00
 -1      2382 1.40400E+02 4.35050E+01 0.00000E+00
 -1      2383 1.38150E+02 4.22060E+01 0.00000E+00
 -1      2384 1.97850E+01 5.29523E+00 0.00000E+00
 -1      2385 1.82850E+01 5.29523E+00 0.00000E+00
 -1      2386 2.27850E+01 5.29523E+00 0.00000E+00
 -1      2387 2.12850E+01 5.29523E+00 0.00000E+00
 -1      2388 2.05350E+01 6.57172E+00 0.00000E+00
 -1      2389 2.57850E+01 5.29523E+00 0.00000E+00
 -1      2390 2.42850E+01 5.29523E+00 0.00000E+00
 -1      2391 2.35350E+01 6.57172E+00 0.00000E+00
 -1      2392 2.87850E+01 5.29523E+00 0.00000E+00
 -1      2393 2.72850E+01 5.29523E+00 0.00000E+00
 -1      2394 2.65350E+01 6.57172E+00 0.00000E+00
 -1      2395 3.17850E+01 5.29523E+00 0.00000E+00
 -1      2396 3.02850E+01 5.29523E+00 0.00000E+00
 -1      2397 2.95350E+01 6.57172E+00 0.00000E+00
 -1      2398 3.47850E+01 5.29523E+00 0.00000E+00
 -1      2399 3.32850E+01 5.29523E+00 0.00000E+00
 -1      2400 3.25350E+01 6.57172E+00 0.00000E+00
 -1      2401 3.77850E+01 5.29523E+00 0.00000E+00
 -1      2402 3.62850E+01 5.29523E+00 0.00000E+00
 -1      2403 3.55350E+01 6.57172E+00 0.00000E+00
 -1      2404 4.07850E+01 5.29523E+00 0.00000E+00
 -1      2405 3.92850E+01 5.29523E+00 0.00000E+00
 -1      2406 3.85350E+01 6.57172E+00 0.00000E+00
 -1      2407 4.37850E+01 5.29523E+00 0.00000E+00
 -1      2408 4.22850E+01 5.29523E+00 0.00000E+00
 -1      2409 4.15350E+01 6.57172E+00 0.00000E+00
 -1      2410 4.67850E+01 5.29523E+00 0.00000E+00
 -1      2411 4.52850E+01 5.29523E+00 0.00000E+00
 -1      2412 4.45350E+01 6.57172E+00 0.00000E+00
 -1      2413 4.97850E+01 5.29523E+00 0.00000E+00
 -1      2414 4.82850E+01 5.29523E+00 0.00000E+00
 -1      2415 4.75350E+01 6.57172E+00 0.00000E+00
 -1      2416 5.27850E+01 5.29523E+00 0.00000E+00
 -1      2417 5.12850E+01 5.29523E+00 0.00000E+00
 -1      2418 5.05350E+01 6.57172E+00 0.00000E+00
 -1      2419 5.57850E+01 5.29523E+00 0.00000E+00
 -1      2420 5.42850E+01 5.29523E+00 0.00000E+00
 -1      2421 5.35350E+01 6.57172E+00 0.00000E+00
 -1      2422 5.87850E+01 5.29523E+00 0.00000E+00
 -1      2423 5.72850E+01 5.29523E+00 0.00000E+00
 -1      2424 5.65350E+01 6.57172E+00 0.00000E+00
 -1      2425 6.17850E+01 5.29523E+00 0.00000E+00
 -1      2426 6.02850E+01 5.29523E+00 0.00000E+00
 -1      2427 5.95350E+01 6.57172E+00 0.00000E+00
 -1      2428 6.47850E+01 5.29523E+00 0.00000E+00
 -1      2429 6.32850E+01 5.29523E+00 0.00000E+00
 -1      2430 6.25350E+01 6.57172E+00 0.00000E+00
 -1      2431 6.77850E+01 5.29523E+00 0.00000E+00
 -1      2432 6.62850E+01 5.29523E+00 0.00000E+00
 -1      2433 6.55350E+01 6.57172E+00 0.00000E+00
 -1      2434 7.07850E+01 5.29523E+00 0.00000E+00
 -1      2435 6.92850E+01 5.29523E+00 0.00000E+00
 -1      2436 6.85350E+01 6.57172E+00 0.00000E+00
 -1      2437 7.37850E+01 5.29523E+00 0.00000E+00
 -1      2438 7.22850E+01 5.29523E+00 0.00000E+00
 -1      2439 7.15350E+01 6.57172E+00 0.00000E+00
 -1      2440 7.67850E+01 5.29523E+00 0.00000E+00
 -1      2441 7.52850E+01 5.29523E+00 0.00000E+00
 -1      2442 7.45350E+01 6.57172E+00 0.00000E+00
 -1      2443 7.97850E+01 5.29523E+00 0.00000E+00
 -1      2444 7.82850E+01 5.29523E+00 0.00000E+00
 -1      2445 7.75350E+01 6.57172E+00 0.00000E+00
 -1      2446 8.27850E+01 5.29523E+00 0.00000E+00
 -1      2447 8.12850E+01 5.29523E+00 0.00000E+00
 -1      2448 8.05350E+01 6.57172E+00 0.00000E+00
 -1      2449 8.57850E+01 5.29523E+00 0.00000E+00
 -1      2450 8.42850E+01 5.29523E+00 0.00000E+00
 -1      2451 8.35350E+01 6.57172E+00 0.00000E+00
 -1      2452 8.87850E+01 5.29523E+00 0.00000E+00
 -1      2453 8.72850E+01 5.29523E+00 0.00000E+00
 -1      2454 8.65350E+01 6.57172E+00 0.00000E+00
 -1      2455 9.17850E+01 5.29523E+00 0.00000E+00
 -1      2456 9.02850E+01 5.29523E+00 0.00000E+00
 -1      2457 8.95350E+01 6.57172E+00 0.00000E+00
 -1      2458 9.47850E+01 5.29523E+00 0.00000E+00
 -1      2459 9.32850E+01 5.29523E+00 0.00000E+00
 -1      2460 9.25350E+01 6.57172E+00 0.00000E+00
 -1      2461 9.77850E+01 5.29523E+00 0.00000E+00
 -1      2462 9.62850E+01 5.29523E+00 0.00000E+00
 -1      2463 9.55350E+01 6.57172E+00 0.00000E+00
 -1      2464 1.00785E+02 5.29523E+00 0.00000E+00
 -1      2465 9.92850E+01 5.29523E+00 0.00000E+00
 -1      2466 9.85350E+01 6.57172E+00 0.00000E+00
 -1      2467 1.03785E+02 5.29523E+00 0.00000E+00
 -1      2468 1.02285E+02 5.29523E+00 0.00000E+00
 -1      2469 1.01535E+02 6.57172E+00 0.00000E+00
 -1      2470 1.06785E+02 5.29523E+00 0.00000E+00
 -1      2471 1.05285E+02 5.29523E+00 0.00000E+00
 -1      2472 1.04535E+02 6.57172E+00 0.00000E+00
 -1      2473 1.09785E+02 5.29523E+00 0.00000E+00
 -1      2474 1.08285E+02 5.29523E+00 0.00000E+00
 -1      2475 1.07535E+02 6.57172E+00 0.00000E+00
 -1      2476 1.12785E+02 5.29523E+00 0.00000E+00
 -1      2477 1.11285E+02 5.29523E+00 0.00000E+00
 -1      2478 1.10535E+02 6.57172E+00 0.00000E+00
 -1      2479 1.15785E+02 5.29523E+00 0.00000E+00
 -1      2480 1.14285E+02 5.29523E+00 0.00000E+00
 -1      2481 1.13535E+02 6.57172E+00 0.00000E+00
 -1      2482 1.18785E+02 5.29523E+00 0.00000E+00
 -1      2483 1.17285E+02 5.29523E+00 0.00000E+00
 -1      2484 1.16535E+02 6.57172E+00 0.00000E+00
 -1      2485 1.21785E+02 5.29523E+00 0.00000E+00
 -1      2486 1.20285E+02 5.29523E+00 0.00000E+00
 -1      2487 1.19535E+02 6.57172E+00 0.00000E+00
 -1      2488 1.24785E+02 5.29523E+00 0.00000E+00
 -1      2489 1.23285E+02 5.29523E+00 0.00000E+00
 -1      2490 1.22535E+02 6.57172E+00 0.00000E+00
 -1      2491 1.27785E+02 5.29523E+00 0.00000E+00
 -1      2492 1.26285E+02 5.29523E+00 0.00000E+00
 -1      2493 1.25535E+02 6.57172E+00 0.00000E+00
 -1      2494 1.30785E+02 5.29523E+00 0.00000E+00
 -1      2495 1.29285E+02 5.29523E+00 0.00000E+00
 -1      2496 1.28535E+02 6.57172E+00 0.00000E+00
 -1      2497 1.33785E+02 5.29523E+00 0.00000E+00
 -1      2498 1.32285E+02 5.29523E+00 0.00000E+00
 -1      2499 1.31535E+02 6.57172E+00 0.00000E+00
 -1      2500 1.36785E+02 5.29523E+00 0.00000E+00
 -1      2501 1.35285E+02 5.29523E+00 0.00000E+00
 -1      2502 1.34535E+02 6.57172E+00 0.00000E+00
 -1      2503 1.39785E+02 5.29523E+00 0.00000E+00
 -1      2504 1.38285E+02 5.29523E+00 0.00000E+00
 -1      2505 1.37535E+02 6.57172E+00 0.00000E+00
 -1      2506 1.42785E+02 5.29523E+00 0.00000E+00
 -1      2507 1.41285E+02 5.29523E+00 0.00000E+00
 -1      2508 1.40535E+02 6.57172E+00 0.00000E+00
 -1      2509 1.44336E+02 5.27734E+00 0.00000E+00
 -1      2510 1.43505E+02 1.69125E+01 0.00000E+00
 -1      2511 1.43505E+02 1.54375E+01 0.00000E+00
 -1      2512 1.43505E+02 1.98625E+01 0.00000E+00
 -1      2513 1.43505E+02 1.83875E+01 0.00000E+00
 -1      2514 1.42206E+02 1.76500E+01 0.00000E+00
 -1      2515 1.43505E+02 1.10625E+01 0.00000E+00
 -1      2516 1.43505E+02 9.58750E+00 0.00000E+00
 -1      2517 1.43505E+02 1.39750E+01 0.00000E+00
 -1      2518 1.43505E+02 1.25250E+01 0.00000E+00
 -1      2519 1.42206E+02 1.17875E+01 0.00000E+00
 -1      2520 1.42206E+02 1.47125E+01 0.00000E+00
 -1      2521 1.43505E+02 2.28125E+01 0.00000E+00
 -1      2522 1.43505E+02 2.13375E+01 0.00000E+00
 -1      2523 1.42206E+02 2.06000E+01 0.00000E+00
 -1      2524 1.43505E+02 2.57625E+01 0.00000E+00
 -1      2525 1.43505E+02 2.42875E+01 0.00000E+00
 -1      2526 1.42206E+02 2.35500E+01 0.00000E+00
 -1      2527 1.43505E+02 2.87125E+01 0.00000E+00
 -1      2528 1.43505E+02 2.72375E+01 0.00000E+00
 -1      2529 1.42206E+02 2.65000E+01 0.00000E+00
 -1      2530 1.43505E+02 3.16125E+01 0.00000E+00
 -1      2531 1.43505E+02 3.01625E+01 0.00000E+00
 -1      2532 1.42206E+02 2.94250E+01 0.00000E+00
 -1      2533 1.43505E+02 3.45625E+01 0.00000E+00
 -1      2534 1.43505E+02 3.30875E+01 0.00000E+00
 -1      2535 1.42206E+02 3.23500E+01 0.00000E+00
 -1      2536 1.43505E+02 3.75125E+01 0.00000E+00
 -1      2537 1.43505E+02 3.60375E+01 0.00000E+00
 -1      2538 1.42206E+02 3.53000E+01 0.00000E+00
 -1      2539 1.43505E+02 4.04625E+01 0.00000E+00
 -1      2540 1.43505E+02 3.89875E+01 0.00000E+00
 -1      2541 1.42206E+02 3.82500E+01 0.00000E+00
 -1      2542 3.33728E+01 2.09989E+01 0.00000E+00
 -1      2543 3.32107E+01 2.19964E+01 0.00000E+00
 -1      2544 3.27174E+01 1.83508E+01 0.00000E+00
 -1      2545 3.31047E+01 1.95109E+01 0.00000E+00
 -1      2546 3.31704E+01 2.29997E+01 0.00000E+00
 -1      2547 3.31301E+01 2.40031E+01 0.00000E+00
 -1      2548 3.41806E+01 2.26520E+01 0.00000E+00
 -1      2549 1.67850E+01 5.31775E+00 0.00000E+00
 -1      2550 1.52850E+01 5.31775E+00 0.00000E+00
 -1      2551 1.45350E+01 6.61675E+00 0.00000E+00
 -1      2552 1.44321E+02 4.30606E+01 0.00000E+00
 -1      2553 3.17141E+01 1.64967E+01 0.00000E+00
 -1      2554 3.21772E+01 1.72474E+01 0.00000E+00
 -1      2555 2.82429E+01 1.34754E+01 0.00000E+00
 -1      2556 2.90316E+01 1.40489E+01 0.00000E+00
 -1      2557 2.22008E+01 3.27927E+01 0.00000E+00
 -1      2558 2.11673E+01 3.26440E+01 0.00000E+00
 -1      2559 1.42162E+01 2.87236E+01 0.00000E+00
 -1      2560 1.35510E+01 2.76437E+01 0.00000E+00
 -1      2561 6.49500E+00 2.71750E+01 0.00000E+00
 -1      2562 6.49500E+00 2.86500E+01 0.00000E+00
 -1      2563 7.79400E+00 2.93750E+01 0.00000E+00
 -1      2564 1.95697E+01 1.25318E+01 0.00000E+00
 -1      2565 2.06090E+01 1.21770E+01 0.00000E+00
 -1      2566 2.44762E+01 1.21143E+01 0.00000E+00
 -1      2567 2.53751E+01 1.23593E+01 0.00000E+00
 -1      2568 2.61058E+01 1.17048E+01 0.00000E+00
 -1      2569 1.43597E+01 1.64284E+01 0.00000E+00
 -1      2570 1.48030E+01 1.55877E+01 0.00000E+00
 -1      2571 1.77291E+01 1.32673E+01 0.00000E+00
 -1      2572 1.85488E+01 1.28896E+01 0.00000E+00
 -1      2573 1.99661E+01 3.24053E+01 0.00000E+00
 -1      2574 1.87650E+01 3.21667E+01 0.00000E+00
 -1      2575 2.03727E+01 3.32456E+01 0.00000E+00
 -1      2576 1.57137E+01 1.44871E+01 0.00000E+00
 -1      2577 1.66894E+01 1.38214E+01 0.00000E+00
 -1      2578 1.32299E+01 1.81030E+01 0.00000E+00
 -1      2579 1.37948E+01 1.72657E+01 0.00000E+00
 -1      2580 1.33320E+01 1.64844E+01 0.00000E+00
 -1      2581 1.25588E+01 2.01657E+01 0.00000E+00
 -1      2582 1.27543E+01 1.91982E+01 0.00000E+00
 -1      2583 1.23051E+01 2.23361E+01 0.00000E+00
 -1      2584 1.24000E+01 2.12741E+01 0.00000E+00
 -1      2585 1.27193E+01 2.45051E+01 0.00000E+00
 -1      2586 1.25054E+01 2.35732E+01 0.00000E+00
 -1      2587 1.31282E+01 2.63517E+01 0.00000E+00
 -1      2588 1.29237E+01 2.54284E+01 0.00000E+00
 -1      2589 1.21035E+01 2.51262E+01 0.00000E+00
 -1      2590 1.57202E+01 3.02797E+01 0.00000E+00
 -1      2591 1.50750E+01 2.96804E+01 0.00000E+00
 -1      2592 1.74531E+01 3.16216E+01 0.00000E+00
 -1      2593 1.65586E+01 3.09646E+01 0.00000E+00
 -1      2594 2.41372E+01 3.27368E+01 0.00000E+00
 -1      2595 2.33417E+01 3.28513E+01 0.00000E+00
 -1      2596 2.61832E+01 3.20673E+01 0.00000E+00
 -1      2597 2.51794E+01 3.24234E+01 0.00000E+00
 -1      2598 2.78742E+01 3.12708E+01 0.00000E+00
 -1      2599 2.71498E+01 3.16531E+01 0.00000E+00
 -1      2600 2.96674E+01 3.00249E+01 0.00000E+00
 -1      2601 2.88086E+01 3.06995E+01 0.00000E+00
 -1      2602 3.10385E+01 2.85956E+01 0.00000E+00
 -1      2603 3.05084E+01 2.92482E+01 0.00000E+00
 -1      2604 3.22602E+01 2.67960E+01 0.00000E+00
 -1      2605 3.16729E+01 2.77303E+01 0.00000E+00
 -1      2606 3.27682E+01 2.50191E+01 0.00000E+00
 -1      2607 3.26221E+01 2.57800E+01 0.00000E+00
 -1      2608 3.30545E+01 2.67035E+01 0.00000E+00
 -1      2609 3.37783E+01 2.46714E+01 0.00000E+00
 -1      2610 6.55950E+00 4.28890E+01 0.00000E+00
 -1      2611 8.53650E+00 4.32410E+01 0.00000E+00
 -1      2612 9.28650E+00 4.19420E+01 0.00000E+00
 -1      2613 6.55950E+00 4.14140E+01 0.00000E+00
 -1      2614 8.07525E+00 5.12606E+00 0.00000E+00
 -1      2615 6.57525E+00 5.12606E+00 0.00000E+00
 -1      2616 6.40575E+00 6.04169E+00 0.00000E+00
 -1      2617 8.82525E+00 6.42506E+00 0.00000E+00
 -1      2618 2.99278E+01 1.47301E+01 0.00000E+00
 -1      2619 3.08790E+01 1.54792E+01 0.00000E+00
 -1      2620 7.60391E+00 2.64500E+01 0.00000E+00
 -1      2621 7.79400E+00 3.52750E+01 0.00000E+00
 -1      2622 6.49500E+00 3.60000E+01 0.00000E+00
 -1      2623 6.49500E+00 3.74750E+01 0.00000E+00
 -1      2624 1.42758E+02 4.35929E+01 0.00000E+00
 -1      2625 1.43241E+02 4.17323E+01 0.00000E+00
 -1      2626 1.41942E+02 4.09948E+01 0.00000E+00
 -1      2627 1.41414E+02 4.35342E+01 0.00000E+00
 -1      2628 6.40575E+00 7.51669E+00 0.00000E+00
 -1      2629 3.00378E+01 1.37498E+01 0.00000E+00
 -1      2630 3.05828E+01 3.02269E+01 0.00000E+00
 -1      2631 2.88075E+01 3.15750E+01 0.00000E+00
 -1      2632 2.80731E+01 1.25092E+01 0.00000E+00
 -1      2633 1.40664E+02 4.22352E+01 0.00000E+00
 -1      2634 2.69066E+01 3.25604E+01 0.00000E+00
 -1      2635 2.48978E+01 3.32880E+01 0.00000E+00
 -1      2636 3.31445E+01 1.75692E+01 0.00000E+00
 -1      2637 7.51466E+00 8.24169E+00 0.00000E+00
 -1      2638 1.78597E+01 3.24618E+01 0.00000E+00
 -1      2639 1.69544E+01 3.27570E+01 0.00000E+00
 -1      2640 1.82663E+01 3.33021E+01 0.00000E+00
 -1      2641 1.43586E+02 6.55383E+00 0.00000E+00
 -1      2642 1.43419E+02 7.71086E+00 0.00000E+00
 -1      2643 1.27307E+01 2.73415E+01 0.00000E+00
 -1      2644 3.39528E+01 2.01606E+01 0.00000E+00
 -1      2645 3.48009E+01 2.08103E+01 0.00000E+00
 -1      2646 3.45329E+01 1.93222E+01 0.00000E+00
 -1      2647 1.40122E+01 2.95902E+01 0.00000E+00
 -1      2648 1.75350E+01 6.59423E+00 0.00000E+00
 -1      2649 1.16987E+01 2.29658E+01 0.00000E+00
 -1      2650 3.17691E+01 1.54484E+01 0.00000E+00
 -1      2651 1.22916E+01 1.84169E+01 0.00000E+00
 -1      2652 6.55950E+00 3.99390E+01 0.00000E+00
 -1      2653 3.20582E+01 2.85849E+01 0.00000E+00
 -1      2654 1.67579E+01 1.28917E+01 0.00000E+00
 -1      2655 2.38994E+01 1.15597E+01 0.00000E+00
 -1      2656 2.46301E+01 1.09051E+01 0.00000E+00
 -1      2657 2.33225E+01 1.10051E+01 0.00000E+00
 -1      2658 2.27147E+01 3.35428E+01 0.00000E+00
 -1      2659 1.39015E+01 1.46059E+01 0.00000E+00
 -1      2660 1.48076E+01 1.45465E+01 0.00000E+00
 -1      2661 1.48122E+01 1.35052E+01 0.00000E+00
 -1      2662 2.12155E+01 1.16409E+01 0.00000E+00
 -1      2663 2.18221E+01 1.11047E+01 0.00000E+00
 -1      2664 2.04459E+01 1.10860E+01 0.00000E+00
 -1      2665 1.88185E+01 1.19799E+01 0.00000E+00
 -1      2666 1.16572E+01 2.06204E+01 0.00000E+00
 -1      2667 1.57094E+01 3.12319E+01 0.00000E+00
 -1      2668 1.42120E+02 8.44836E+00 0.00000E+00
 -1      2669 2.77276E+01 3.31416E+01 0.00000E+00
 -1      2670 2.67610E+01 3.35558E+01 0.00000E+00
 -1      2671 8.52273E+00 1.98375E+01 0.00000E+00
 -1      2672 8.52273E+00 2.13125E+01 0.00000E+00
 -1      2673 8.35516E+00 2.27875E+01 0.00000E+00
 -1      2674 8.35516E+00 2.42625E+01 0.00000E+00
 -1      2675 8.52273E+00 1.39375E+01 0.00000E+00
 -1      2676 8.52273E+00 1.54125E+01 0.00000E+00
 -1      2677 8.52273E+00 1.09875E+01 0.00000E+00
 -1      2678 8.52273E+00 1.24625E+01 0.00000E+00
 -1      2679 9.63164E+00 1.32000E+01 0.00000E+00
 -1      2680 1.22850E+01 7.91575E+00 0.00000E+00
 -1      2681 1.07850E+01 7.91575E+00 0.00000E+00
 -1      2682 1.40928E+02 4.09655E+01 0.00000E+00
 -1      2683 1.41192E+02 3.96958E+01 0.00000E+00
 -1      2684 1.39914E+02 4.09362E+01 0.00000E+00
 -1      2685 8.72441E+00 8.43338E+00 0.00000E+00
 -1      2686 1.44000E+01 4.09070E+01 0.00000E+00
 -1      2687 1.59000E+01 4.09070E+01 0.00000E+00
 -1      2688 1.74000E+01 4.09070E+01 0.00000E+00
 -1      2689 1.89000E+01 4.09070E+01 0.00000E+00
 -1      2690 1.66500E+01 3.96080E+01 0.00000E+00
 -1      2691 2.04000E+01 4.09070E+01 0.00000E+00
 -1      2692 2.19000E+01 4.09070E+01 0.00000E+00
 -1      2693 1.96500E+01 3.96080E+01 0.00000E+00
 -1      2694 2.34000E+01 4.09070E+01 0.00000E+00
 -1      2695 2.49000E+01 4.09070E+01 0.00000E+00
 -1      2696 2.26500E+01 3.96080E+01 0.00000E+00
 -1      2697 2.64000E+01 4.09070E+01 0.00000E+00
 -1      2698 2.79000E+01 4.09070E+01 0.00000E+00
 -1      2699 2.56500E+01 3.96080E+01 0.00000E+00
 -1      2700 2.94000E+01 4.09070E+01 0.00000E+00
 -1      2701 3.09000E+01 4.09070E+01 0.00000E+00
 -1      2702 2.86500E+01 3.96080E+01 0.00000E+00
 -1      2703 3.24000E+01 4.09070E+01 0.00000E+00
 -1      2704 3.39000E+01 4.09070E+01 0.00000E+00
 -1      2705 3.16500E+01 3.96080E+01 0.00000E+00
 -1      2706 3.54000E+01 4.09070E+01 0.00000E+00
 -1      2707 3.69000E+01 4.09070E+01 0.00000E+00
 -1      2708 3.46500E+01 3.96080E+01 0.00000E+00
 -1      2709 3.84000E+01 4.09070E+01 0.00000E+00
 -1      2710 3.99000E+01 4.09070E+01 0.00000E+00
 -1      2711 3.76500E+01 3.96080E+01 0.00000E+00
 -1      2712 4.14000E+01 4.09070E+01 0.00000E+00
 -1      2713 4.29000E+01 4.09070E+01 0.00000E+00
 -1      2714 4.06500E+01 3.96080E+01 0.00000E+00
 -1      2715 4.44000E+01 4.09070E+01 0.00000E+00
 -1      2716 4.59000E+01 4.09070E+01 0.00000E+00
 -1      2717 4.36500E+01 3.96080E+01 0.00000E+00
 -1      2718 4.74000E+01 4.09070E+01 0.00000E+00
 -1      2719 4.89000E+01 4.09070E+01 0.00000E+00
 -1      2720 4.66500E+01 3.96080E+01 0.00000E+00
 -1      2721 5.04000E+01 4.09070E+01 0.00000E+00
 -1      2722 5.19000E+01 4.09070E+01 0.00000E+00
 -1      2723 4.96500E+01 3.96080E+01 0.00000E+00
 -1      2724 5.34000E+01 4.09070E+01 0.00000E+00
 -1      2725 5.49000E+01 4.09070E+01 0.00000E+00
 -1      2726 5.26500E+01 3.96080E+01 0.00000E+00
 -1      2727 5.64000E+01 4.09070E+01 0.00000E+00
 -1      2728 5.79000E+01 4.09070E+01 0.00000E+00
 -1      2729 5.56500E+01 3.96080E+01 0.00000E+00
 -1      2730 5.94000E+01 4.09070E+01 0.00000E+00
 -1      2731 6.09000E+01 4.09070E+01 0.00000E+00
 -1      2732 5.86500E+01 3.96080E+01 0.00000E+00
 -1      2733 6.24000E+01 4.09070E+01 0.00000E+00
 -1      2734 6.39000E+01 4.09070E+01 0.00000E+00
 -1      2735 6.16500E+01 3.96080E+01 0.00000E+00
 -1      2736 6.54000E+01 4.09070E+01 0.00000E+00
 -1      2737 6.69000E+01 4.09070E+01 0.00000E+00
 -1      2738 6.46500E+01 3.96080E+01 0.00000E+00
 -1      2739 6.84000E+01 4.09070E+01 0.00000E+00
 -1      2740 6.99000E+01 4.09070E+01 0.00000E+00
 -1      2741 6.76500E+01 3.96080E+01 0.00000E+00
 -1      2742 7.14000E+01 4.09070E+01 0.00000E+00
 -1      2743 7.29000E+01 4.09070E+01 0.00000E+00
 -1      2744 7.06500E+01 3.96080E+01 0.00000E+00
 -1      2745 7.44000E+01 4.09070E+01 0.00000E+00
 -1      2746 7.59000E+01 4.09070E+01 0.00000E+00
 -1      2747 7.36500E+01 3.96080E+01 0.00000E+00
 -1      2748 7.74000E+01 4.09070E+01 0.00000E+00
 -1      2749 7.89000E+01 4.09070E+01 0.00000E+00
 -1      2750 7.66500E+01 3.96080E+01 0.00000E+00
 -1      2751 8.04000E+01 4.09070E+01 0.00000E+00
 -1      2752 8.19000E+01 4.09070E+01 0.00000E+00
 -1      2753 7.96500E+01 3.96080E+01 0.00000E+00
 -1      2754 8.34000E+01 4.09070E+01 0.00000E+00
 -1      2755 8.49000E+01 4.09070E+01 0.00000E+00
 -1      2756 8.26500E+01 3.96080E+01 0.00000E+00
 -1      2757 8.64000E+01 4.09070E+01 0.00000E+00
 -1      2758 8.79000E+01 4.09070E+01 0.00000E+00
 -1      2759 8.56500E+01 3.96080E+01 0.00000E+00
 -1      2760 8.94000E+01 4.09070E+01 0.00000E+00
 -1      2761 9.09000E+01 4.09070E+01 0.00000E+00
 -1      2762 8.86500E+01 3.96080E+01 0.00000E+00
 -1      2763 9.24000E+01 4.09070E+01 0.00000E+00
 -1      2764 9.39000E+01 4.09070E+01 0.00000E+00
 -1      2765 9.16500E+01 3.96080E+01 0.00000E+00
 -1      2766 9.54000E+01 4.09070E+01 0.00000E+00
 -1      2767 9.69000E+01 4.09070E+01 0.00000E+00
 -1      2768 9.46500E+01 3.96080E+01 0.00000E+00
 -1      2769 9.84000E+01 4.09070E+01 0.00000E+00
 -1      2770 9.99000E+01 4.09070E+01 0.00000E+00
 -1      2771 9.76500E+01 3.96080E+01 0.00000E+00
 -1      2772 1.01400E+02 4.09070E+01 0.00000E+00
 -1      2773 1.02900E+02 4.09070E+01 0.00000E+00
 -1      2774 1.00650E+02 3.96080E+01 0.00000E+00
 -1      2775 1.04400E+02 4.09070E+01 0.00000E+00
 -1      2776 1.05900E+02 4.09070E+01 0.00000E+00
 -1      2777 1.03650E+02 3.96080E+01 0.00000E+00
 -1      2778 1.07400E+02 4.09070E+01 0.00000E+00
 -1      2779 1.08900E+02 4.09070E+01 0.00000E+00
 -1      2780 1.06650E+02 3.96080E+01 0.00000E+00
 -1      2781 1.10400E+02 4.09070E+01 0.00000E+00
 -1      2782 1.11900E+02 4.09070E+01 0.00000E+00
 -1      2783 1.09650E+02 3.96080E+01 0.00000E+00
 -1      2784 1.13400E+02 4.09070E+01 0.00000E+00
 -1      2785 1.14900E+02 4.09070E+01 0.00000E+00
 -1      2786 1.12650E+02 3.96080E+01 0.00000E+00
 -1      2787 1.16400E+02 4.09070E+01 0.00000E+00
 -1      2788 1.17900E+02 4.09070E+01 0.00000E+00
 -1      2789 1.15650E+02 3.96080E+01 0.00000E+00
 -1      2790 1.19400E+02 4.09070E+01 0.00000E+00
 -1      2791 1.20900E+02 4.09070E+01 0.00000E+00
 -1      2792 1.18650E+02 3.96080E+01 0.00000E+00
 -1      2793 1.22400E+02 4.09070E+01 0.00000E+00
 -1      2794 1.23900E+02 4.09070E+01 0.00000E+00
 -1      2795 1.21650E+02 3.96080E+01 0.00000E+00
 -1      2796 1.25400E+02 4.09070E+01 0.00000E+00
 -1      2797 1.26900E+02 4.09070E+01 0.00000E+00
 -1      2798 1.24650E+02 3.96080E+01 0.00000E+00
 -1      2799 1.28400E+02 4.09070E+01 0.00000E+00
 -1      2800 1.29900E+02 4.09070E+01 0.00000E+00
 -1      2801 1.27650E+02 3.96080E+01 0.00000E+00
 -1      2802 1.31400E+02 4.09070E+01 0.00000E+00
 -1      2803 1.32900E+02 4.09070E+01 0.00000E+00
 -1      2804 1.30650E+02 3.96080E+01 0.00000E+00
 -1      2805 1.34400E+02 4.09070E+01 0.00000E+00
 -1      2806 1.35900E+02 4.09070E+01 0.00000E+00
 -1      2807 1.33650E+02 3.96080E+01 0.00000E+00
 -1      2808 1.37157E+02 4.09216E+01 0.00000E+00
 -1      2809 1.38657E+02 4.09216E+01 0.00000E+00
 -1      2810 1.38921E+02 3.96519E+01 0.00000E+00
 -1      2811 1.36407E+02 3.96226E+01 0.00000E+00
 -1      2812 2.42850E+01 7.68062E+00 0.00000E+00
 -1      2813 2.27850E+01 7.68062E+00 0.00000E+00
 -1      2814 2.12850E+01 7.76441E+00 0.00000E+00
 -1      2815 1.97850E+01 7.76441E+00 0.00000E+00
 -1      2816 3.02850E+01 7.84820E+00 0.00000E+00
 -1      2817 2.87850E+01 7.84820E+00 0.00000E+00
 -1      2818 3.32850E+01 7.84820E+00 0.00000E+00
 -1      2819 3.17850E+01 7.84820E+00 0.00000E+00
 -1      2820 3.10350E+01 9.12468E+00 0.00000E+00
 -1      2821 3.62850E+01 7.84820E+00 0.00000E+00
 -1      2822 3.47850E+01 7.84820E+00 0.00000E+00
 -1      2823 3.40350E+01 9.12468E+00 0.00000E+00
 -1      2824 3.92850E+01 7.84820E+00 0.00000E+00
 -1      2825 3.77850E+01 7.84820E+00 0.00000E+00
 -1      2826 3.70350E+01 9.12468E+00 0.00000E+00
 -1      2827 4.22850E+01 7.84820E+00 0.00000E+00
 -1      2828 4.07850E+01 7.84820E+00 0.00000E+00
 -1      2829 4.00350E+01 9.12468E+00 0.00000E+00
 -1      2830 4.52850E+01 7.84820E+00 0.00000E+00
 -1      2831 4.37850E+01 7.84820E+00 0.00000E+00
 -1      2832 4.30350E+01 9.12468E+00 0.00000E+00
 -1      2833 4.82850E+01 7.84820E+00 0.00000E+00
 -1      2834 4.67850E+01 7.84820E+00 0.00000E+00
 -1      2835 4.60350E+01 9.12468E+00 0.00000E+00
 -1      2836 5.12850E+01 7.84820E+00 0.00000E+00
 -1      2837 4.97850E+01 7.84820E+00 0.00000E+00
 -1      2838 4.90350E+01 9.12468E+00 0.00000E+00
 -1      2839 5.42850E+01 7.84820E+00 0.00000E+00
 -1      2840 5.27850E+01 7.84820E+00 0.00000E+00
 -1      2841 5.20350E+01 9.12468E+00 0.00000E+00
 -1      2842 5.72850E+01 7.84820E+00 0.00000E+00
 -1      2843 5.57850E+01 7.84820E+00 0.00000E+00
 -1      2844 5.50350E+01 9.12468E+00 0.00000E+00
 -1      2845 6.02850E+01 7.84820E+00 0.00000E+00
 -1      2846 5.87850E+01 7.84820E+00 0.00000E+00
 -1      2847 5.80350E+01 9.12468E+00 0.00000E+00
 -1      2848 6.32850E+01 7.84820E+00 0.00000E+00
 -1      2849 6.17850E+01 7.84820E+00 0.00000E+00
 -1      2850 6.10350E+01 9.12468E+00 0.00000E+00
 -1      2851 6.62850E+01 7.84820E+00 0.00000E+00
 -1      2852 6.47850E+01 7.84820E+00 0.00000E+00
 -1      2853 6.40350E+01 9.12468E+00 0.00000E+00
 -1      2854 6.92850E+01 7.84820E+00 0.00000E+00
 -1      2855 6.77850E+01 7.84820E+00 0.00000E+00
 -1      2856 6.70350E+01 9.12468E+00 0.00000E+00
 -1      2857 7.22850E+01 7.84820E+00 0.00000E+00
 -1      2858 7.07850E+01 7.84820E+00 0.00000E+00
 -1      2859 7.00350E+01 9.12468E+00 0.00000E+00
 -1      2860 7.52850E+01 7.84820E+00 0.00000E+00
 -1      2861 7.37850E+01 7.84820E+00 0.00000E+00
 -1      2862 7.30350E+01 9.12468E+00 0.00000E+00
 -1      2863 7.82850E+01 7.84820E+00 0.00000E+00
 -1      2864 7.67850E+01 7.84820E+00 0.00000E+00
 -1      2865 7.60350E+01 9.12468E+00 0.00000E+00
 -1      2866 8.12850E+01 7.84820E+00 0.00000E+00
 -1      2867 7.97850E+01 7.84820E+00 0.00000E+00
 -1      2868 7.90350E+01 9.12468E+00 0.00000E+00
 -1      2869 8.42850E+01 7.84820E+00 0.00000E+00
 -1      2870 8.27850E+01 7.84820E+00 0.00000E+00
 -1      2871 8.20350E+01 9.12468E+00 0.00000E+00
 -1      2872 8.72850E+01 7.84820E+00 0.00000E+00
 -1      2873 8.57850E+01 7.84820E+00 0.00000E+00
 -1      2874 8.50350E+01 9.12468E+00 0.00000E+00
 -1      2875 9.02850E+01 7.84820E+00 0.00000E+00
 -1      2876 8.87850E+01 7.84820E+00 0.00000E+00
 -1      2877 8.80350E+01 9.12468E+00 0.00000E+00
 -1      2878 9.32850E+01 7.84820E+00 0.00000E+00
 -1      2879 9.17850E+01 7.84820E+00 0.00000E+00
 -1      2880 9.10350E+01 9.12468E+00 0.00000E+00
 -1      2881 9.62850E+01 7.84820E+00 0.00000E+00
 -1      2882 9.47850E+01 7.84820E+00 0.00000E+00
 -1      2883 9.40350E+01 9.12468E+00 0.00000E+00
 -1      2884 9.92850E+01 7.84820E+00 0.00000E+00
 -1      2885 9.77850E+01 7.84820E+00 0.00000E+00
 -1      2886 9.70350E+01 9.12468E+00 0.00000E+00
 -1      2887 1.02285E+02 7.84820E+00 0.00000E+00
 -1      2888 1.00785E+02 7.84820E+00 0.00000E+00
 -1      2889 1.00035E+02 9.12468E+00 0.00000E+00
 -1      2890 1.05285E+02 7.84820E+00 0.00000E+00
 -1      2891 1.03785E+02 7.84820E+00 0.00000E+00
 -1      2892 1.03035E+02 9.12468E+00 0.00000E+00
 -1      2893 1.08285E+02 7.84820E+00 0.00000E+00
 -1      2894 1.06785E+02 7.84820E+00 0.00000E+00
 -1      2895 1.06035E+02 9.12468E+00 0.00000E+00
 -1      2896 1.11285E+02 7.84820E+00 0.00000E+00
 -1      2897 1.09785E+02 7.84820E+00 0.00000E+00
 -1      2898 1.09035E+02 9.12468E+00 0.00000E+00
 -1      2899 1.14285E+02 7.84820E+00 0.00000E+00
 -1      2900 1.12785E+02 7.84820E+00 0.00000E+00
 -1      2901 1.12035E+02 9.12468E+00 0.00000E+00
 -1      2902 1.17285E+02 7.84820E+00 0.00000E+00
 -1      2903 1.15785E+02 7.84820E+00 0.00000E+00
 -1      2904 1.15035E+02 9.12468E+00 0.00000E+00
 -1      2905 1.20285E+02 7.84820E+00 0.00000E+00
 -1      2906 1.18785E+02 7.84820E+00 0.00000E+00
 -1      2907 1.18035E+02 9.12468E+00 0.00000E+00
 -1      2908 1.23285E+02 7.84820E+00 0.00000E+00
 -1      2909 1.21785E+02 7.84820E+00 0.00000E+00
 -1      2910 1.21035E+02 9.12468E+00 0.00000E+00
 -1      2911 1.26285E+02 7.84820E+00 0.00000E+00
 -1      2912 1.24785E+02 7.84820E+00 0.00000E+00
 -1      2913 1.24035E+02 9.12468E+00 0.00000E+00
 -1      2914 1.29285E+02 7.84820E+00 0.00000E+00
 -1      2915 1.27785E+02 7.84820E+00 0.00000E+00
 -1      2916 1.27035E+02 9.12468E+00 0.00000E+00
 -1      2917 1.32285E+02 7.84820E+00 0.00000E+00
 -1      2918 1.30785E+02 7.84820E+00 0.00000E+00
 -1      2919 1.30035E+02 9.12468E+00 0.00000E+00
 -1      2920 1.35285E+02 7.84820E+00 0.00000E+00
 -1      2921 1.33785E+02 7.84820E+00 0.00000E+00
 -1      2922 1.33035E+02 9.12468E+00 0.00000E+00
 -1      2923 1.38285E+02 7.84820E+00 0.00000E+00
 -1      2924 1.36785E+02 7.84820E+00 0.00000E+00
 -1      2925 1.36035E+02 9.12468E+00 0.00000E+00
 -1      2926 1.40953E+02 8.14828E+00 0.00000E+00
 -1      2927 1.39453E+02 8.14828E+00 0.00000E+00
 -1      2928 1.38703E+02 9.42476E+00 0.00000E+00
 -1      2929 1.41038E+02 1.00249E+01 0.00000E+00
 -1      2930 1.40907E+02 2.42875E+01 0.00000E+00
 -1      2931 1.40907E+02 2.28125E+01 0.00000E+00
 -1      2932 1.40907E+02 1.83875E+01 0.00000E+00
 -1      2933 1.40907E+02 1.69125E+01 0.00000E+00
 -1      2934 1.40907E+02 2.72375E+01 0.00000E+00
 -1      2935 1.40907E+02 2.57625E+01 0.00000E+00
 -1      2936 1.39608E+02 2.50250E+01 0.00000E+00
 -1      2937 1.40907E+02 2.13375E+01 0.00000E+00
 -1      2938 1.40907E+02 1.98625E+01 0.00000E+00
 -1      2939 1.39608E+02 1.91250E+01 0.00000E+00
 -1      2940 1.39608E+02 2.20750E+01 0.00000E+00
 -1      2941 1.40907E+02 3.01375E+01 0.00000E+00
 -1      2942 1.40907E+02 2.86875E+01 0.00000E+00
 -1      2943 1.39608E+02 2.79500E+01 0.00000E+00
 -1      2944 1.40907E+02 3.30875E+01 0.00000E+00
 -1      2945 1.40907E+02 3.16125E+01 0.00000E+00
 -1      2946 1.39608E+02 3.08750E+01 0.00000E+00
 -1      2947 1.40907E+02 3.60375E+01 0.00000E+00
 -1      2948 1.40907E+02 3.45625E+01 0.00000E+00
 -1      2949 1.39608E+02 3.38250E+01 0.00000E+00
 -1      2950 1.41192E+02 3.82207E+01 0.00000E+00
 -1      2951 1.52850E+01 7.91575E+00 0.00000E+00
 -1      2952 1.37850E+01 7.91575E+00 0.00000E+00
 -1      2953 1.30350E+01 9.21475E+00 0.00000E+00
 -1      2954 1.36787E+01 3.07534E+01 0.00000E+00
 -1      2955 1.28199E+01 2.97966E+01 0.00000E+00
 -1      2956 8.85168E+00 4.05347E+01 0.00000E+00
 -1      2957 1.02152E+01 4.07987E+01 0.00000E+00
 -1      2958 9.47441E+00 9.73238E+00 0.00000E+00
 -1      2959 3.16420E+01 3.05301E+01 0.00000E+00
 -1      2960 3.08010E+01 3.13068E+01 0.00000E+00
 -1      2961 2.08143E+01 3.41649E+01 0.00000E+00
 -1      2962 1.96132E+01 3.39263E+01 0.00000E+00
 -1      2963 1.82850E+01 7.87072E+00 0.00000E+00
 -1      2964 1.67850E+01 7.89323E+00 0.00000E+00
 -1      2965 1.60350E+01 9.19223E+00 0.00000E+00
 -1      2966 8.98669E+00 2.86375E+01 0.00000E+00
 -1      2967 8.98669E+00 3.01125E+01 0.00000E+00
 -1      2968 3.50576E+01 2.21847E+01 0.00000E+00
 -1      2969 3.50173E+01 2.31881E+01 0.00000E+00
 -1      2970 2.72850E+01 7.76441E+00 0.00000E+00
 -1      2971 2.57850E+01 7.76441E+00 0.00000E+00
 -1      2972 2.50350E+01 8.87332E+00 0.00000E+00
 -1      2973 2.80350E+01 9.04089E+00 0.00000E+00
 -1      2974 1.15576E+01 4.08528E+01 0.00000E+00
 -1      2975 1.30576E+01 4.08528E+01 0.00000E+00
 -1      2976 1.38076E+01 3.95538E+01 0.00000E+00
 -1      2977 1.11228E+01 3.94455E+01 0.00000E+00
 -1      2978 2.32326E+01 3.45959E+01 0.00000E+00
 -1      2979 2.20917E+01 3.45373E+01 0.00000E+00
 -1      2980 3.01593E+01 1.26597E+01 0.00000E+00
 -1      2981 3.10555E+01 1.33409E+01 0.00000E+00
 -1      2982 3.31345E+01 2.87088E+01 0.00000E+00
 -1      2983 3.25001E+01 2.95741E+01 0.00000E+00
 -1      2984 8.52273E+00 1.68875E+01 0.00000E+00
 -1      2985 8.52273E+00 1.83625E+01 0.00000E+00
 -1      2986 9.63164E+00 1.91000E+01 0.00000E+00
 -1      2987 7.48818E+00 3.87957E+01 0.00000E+00
 -1      2988 1.05650E+01 2.11519E+01 0.00000E+00
 -1      2989 1.07238E+01 2.00436E+01 0.00000E+00
 -1      2990 1.21270E+01 2.82541E+01 0.00000E+00
 -1      2991 1.17043E+01 2.69622E+01 0.00000E+00
 -1      2992 1.23734E+01 1.64469E+01 0.00000E+00
 -1      2993 1.29383E+01 1.56096E+01 0.00000E+00
 -1      2994 1.54801E+01 3.23682E+01 0.00000E+00
 -1      2995 1.46417E+01 3.16834E+01 0.00000E+00
 -1      2996 3.21440E+01 1.42893E+01 0.00000E+00
 -1      2997 3.29791E+01 1.53067E+01 0.00000E+00
 -1      2998 1.14093E+01 2.57642E+01 0.00000E+00
 -1      2999 1.12049E+01 2.48409E+01 0.00000E+00
 -1      3000 1.05978E+01 2.38639E+01 0.00000E+00
 -1      3001 1.03975E+01 2.26269E+01 0.00000E+00
 -1      3002 3.36069E+01 1.66588E+01 0.00000E+00
 -1      3003 3.41472E+01 1.77622E+01 0.00000E+00
 -1      3004 2.56900E+01 3.40327E+01 0.00000E+00
 -1      3005 2.46478E+01 3.43462E+01 0.00000E+00
 -1      3006 2.79755E+01 1.13955E+01 0.00000E+00
 -1      3007 2.90440E+01 1.19549E+01 0.00000E+00
 -1      3008 2.97220E+01 3.20209E+01 0.00000E+00
 -1      3009 2.87877E+01 3.25922E+01 0.00000E+00
 -1      3010 1.57559E+01 1.22641E+01 0.00000E+00
 -1      3011 1.67956E+01 1.17100E+01 0.00000E+00
 -1      3012 8.96228E+00 2.52394E+01 0.00000E+00
 -1      3013 9.15237E+00 2.66894E+01 0.00000E+00
 -1      3014 9.09300E+00 3.45375E+01 0.00000E+00
 -1      3015 9.09300E+00 3.60125E+01 0.00000E+00
 -1      3016 9.46407E+00 2.20500E+01 0.00000E+00
 -1      3017 9.90361E+00 2.45019E+01 0.00000E+00
 -1      3018 9.63164E+00 1.61500E+01 0.00000E+00
 -1      3019 1.17935E+01 2.94173E+01 0.00000E+00
 -1      3020 1.62932E+01 3.40487E+01 0.00000E+00
 -1      3021 1.58867E+01 3.32085E+01 0.00000E+00
 -1      3022 1.48190E+01 3.36600E+01 0.00000E+00
 -1      3023 1.01402E+01 3.23799E+01 0.00000E+00
 -1      3024 1.14392E+01 3.31174E+01 0.00000E+00
 -1      3025 1.48498E+01 1.23235E+01 0.00000E+00
 -1      3026 2.40248E+01 3.53406E+01 0.00000E+00
 -1      3027 3.07812E+01 3.23241E+01 0.00000E+00
 -1      3028 2.65110E+01 3.46139E+01 0.00000E+00
 -1      3029 3.39818E+01 1.54997E+01 0.00000E+00
 -1      3030 2.20350E+01 8.87332E+00 0.00000E+00
 -1      3031 1.90350E+01 9.06341E+00 0.00000E+00
 -1      3032 1.87079E+01 3.42214E+01 0.00000E+00
 -1      3033 1.78026E+01 3.45166E+01 0.00000E+00
 -1      3034 1.91495E+01 3.51408E+01 0.00000E+00
 -1      3035 1.08057E+01 2.66769E+01 0.00000E+00
 -1      3036 1.41038E+02 1.14874E+01 0.00000E+00
 -1      3037 1.39870E+02 1.11873E+01 0.00000E+00
 -1      3038 1.41038E+02 1.29499E+01 0.00000E+00
 -1      3039 3.22655E+01 1.31993E+01 0.00000E+00
 -1      3040 2.86422E+01 3.35876E+01 0.00000E+00
 -1      3041 2.13322E+01 3.52180E+01 0.00000E+00
 -1      3042 3.49953E+01 1.84118E+01 0.00000E+00
 -1      3043 3.58434E+01 1.90615E+01 0.00000E+00
 -1      3044 3.54577E+01 1.75015E+01 0.00000E+00
 -1      3045 1.39893E+02 3.74832E+01 0.00000E+00
 -1      3046 1.07238E+01 1.85686E+01 0.00000E+00
 -1      3047 1.34494E+01 3.18897E+01 0.00000E+00
 -1      3048 1.05833E+01 1.04699E+01 0.00000E+00
 -1      3049 3.27183E+01 3.06540E+01 0.00000E+00
 -1      3050 3.56376E+01 2.13464E+01 0.00000E+00
 -1      3051 3.46882E+01 2.44230E+01 0.00000E+00
 -1      3052 3.43263E+01 2.54391E+01 0.00000E+00
 -1      3053 8.78718E+00 3.80707E+01 0.00000E+00
 -1      3054 3.55652E+01 2.39558E+01 0.00000E+00
 -1      3055 1.29429E+01 1.45683E+01 0.00000E+00
 -1      3056 1.40973E+02 1.56625E+01 0.00000E+00
 -1      3057 1.40973E+02 1.42000E+01 0.00000E+00
 -1      3058 1.39805E+02 1.38999E+01 0.00000E+00
 -1      3059 1.39674E+02 1.64000E+01 0.00000E+00
 -1      3060 3.39260E+01 2.77619E+01 0.00000E+00
 -1      3061 3.43680E+01 2.87511E+01 0.00000E+00
 -1      3062 3.00617E+01 1.15461E+01 0.00000E+00
 -1      3063 2.59260E+01 1.05932E+01 0.00000E+00
 -1      3064 2.68249E+01 1.08382E+01 0.00000E+00
 -1      3065 1.01402E+01 3.09049E+01 0.00000E+00
 -1      3066 1.79690E+01 1.11913E+01 0.00000E+00
 -1      3067 1.89899E+01 1.08336E+01 0.00000E+00
 -1      3068 1.11994E+01 1.74734E+01 0.00000E+00
 -1      3069 2.77957E+01 1.02840E+01 0.00000E+00
 -1      3070 1.69670E+01 1.05637E+01 0.00000E+00
 -1      3071 3.42879E+01 2.67458E+01 0.00000E+00
 -1      3072 1.95964E+01 1.02974E+01 0.00000E+00
 -1      3073 2.53492E+01 1.00386E+01 0.00000E+00
 -1      3074 1.05833E+01 1.19449E+01 0.00000E+00
 -1      3075 1.05833E+01 1.34199E+01 0.00000E+00
 -1      3076 1.15350E+01 1.06897E+01 0.00000E+00
 -1      3077 1.30350E+01 1.06897E+01 0.00000E+00
 -1      3078 1.27205E+01 1.28647E+01 0.00000E+00
 -1      3079 1.36643E+01 1.16236E+01 0.00000E+00
 -1      3080 1.59000E+01 3.84991E+01 0.00000E+00
 -1      3081 1.74000E+01 3.84991E+01 0.00000E+00
 -1      3082 1.89000E+01 3.85829E+01 0.00000E+00
 -1      3083 2.04000E+01 3.85829E+01 0.00000E+00
 -1      3084 2.18798E+01 3.75992E+01 0.00000E+00
 -1      3085 2.33798E+01 3.75992E+01 0.00000E+00
 -1      3086 2.47950E+01 3.73495E+01 0.00000E+00
 -1      3087 2.62950E+01 3.73495E+01 0.00000E+00
 -1      3088 3.09000E+01 3.83090E+01 0.00000E+00
 -1      3089 3.24000E+01 3.83090E+01 0.00000E+00
 -1      3090 3.39000E+01 3.83090E+01 0.00000E+00
 -1      3091 3.54000E+01 3.83090E+01 0.00000E+00
 -1      3092 3.31500E+01 3.70100E+01 0.00000E+00
 -1      3093 3.69000E+01 3.83090E+01 0.00000E+00
 -1      3094 3.84000E+01 3.83090E+01 0.00000E+00
 -1      3095 3.61500E+01 3.70100E+01 0.00000E+00
 -1      3096 3.99000E+01 3.83090E+01 0.00000E+00
 -1      3097 4.14000E+01 3.83090E+01 0.00000E+00
 -1      3098 3.91500E+01 3.70100E+01 0.00000E+00
 -1      3099 4.29000E+01 3.83090E+01 0.00000E+00
 -1      3100 4.44000E+01 3.83090E+01 0.00000E+00
 -1      3101 4.21500E+01 3.70100E+01 0.00000E+00
 -1      3102 4.59000E+01 3.83090E+01 0.00000E+00
 -1      3103 4.74000E+01 3.83090E+01 0.00000E+00
 -1      3104 4.51500E+01 3.70100E+01 0.00000E+00
 -1      3105 4.89000E+01 3.83090E+01 0.00000E+00
 -1      3106 5.04000E+01 3.83090E+01 0.00000E+00
 -1      3107 4.81500E+01 3.70100E+01 0.00000E+00
 -1      3108 5.19000E+01 3.83090E+01 0.00000E+00
 -1      3109 5.34000E+01 3.83090E+01 0.00000E+00
 -1      3110 5.11500E+01 3.70100E+01 0.00000E+00
 -1      3111 5.49000E+01 3.83090E+01 0.00000E+00
 -1      3112 5.64000E+01 3.83090E+01 0.00000E+00
 -1      3113 5.41500E+01 3.70100E+01 0.00000E+00
 -1      3114 5.79000E+01 3.83090E+01 0.00000E+00
 -1      3115 5.94000E+01 3.83090E+01 0.00000E+00
 -1      3116 5.71500E+01 3.70100E+01 0.00000E+00
 -1      3117 6.09000E+01 3.83090E+01 0.00000E+00
 -1      3118 6.24000E+01 3.83090E+01 0.00000E+00
 -1      3119 6.01500E+01 3.70100E+01 0.00000E+00
 -1      3120 6.39000E+01 3.83090E+01 0.00000E+00
 -1      3121 6.54000E+01 3.83090E+01 0.00000E+00
 -1      3122 6.31500E+01 3.70100E+01 0.00000E+00
 -1      3123 6.69000E+01 3.83090E+01 0.00000E+00
 -1      3124 6.84000E+01 3.83090E+01 0.00000E+00
 -1      3125 6.61500E+01 3.70100E+01 0.00000E+00
 -1      3126 6.99000E+01 3.83090E+01 0.00000E+00
 -1      3127 7.14000E+01 3.83090E+01 0.00000E+00
 -1      3128 6.91500E+01 3.70100E+01 0.00000E+00
 -1      3129 7.29000E+01 3.83090E+01 0.00000E+00
 -1      3130 7.44000E+01 3.83090E+01 0.00000E+00
 -1      3131 7.21500E+01 3.70100E+01 0.00000E+00
 -1      3132 7.59000E+01 3.83090E+01 0.00000E+00
 -1      3133 7.74000E+01 3.83090E+01 0.00000E+00
 -1      3134 7.51500E+01 3.70100E+01 0.00000E+00
 -1      3135 7.89000E+01 3.83090E+01 0.00000E+00
 -1      3136 8.04000E+01 3.83090E+01 0.00000E+00
 -1      3137 7.81500E+01 3.70100E+01 0.00000E+00
 -1      3138 8.19000E+01 3.83090E+01 0.00000E+00
 -1      3139 8.34000E+01 3.83090E+01 0.00000E+00
 -1      3140 8.11500E+01 3.70100E+01 0.00000E+00
 -1      3141 8.49000E+01 3.83090E+01 0.00000E+00
 -1      3142 8.64000E+01 3.83090E+01 0.00000E+00
 -1      3143 8.41500E+01 3.70100E+01 0.00000E+00
 -1      3144 8.79000E+01 3.83090E+01 0.00000E+00
 -1      3145 8.94000E+01 3.83090E+01 0.00000E+00
 -1      3146 8.71500E+01 3.70100E+01 0.00000E+00
 -1      3147 9.09000E+01 3.83090E+01 0.00000E+00
 -1      3148 9.24000E+01 3.83090E+01 0.00000E+00
 -1      3149 9.01500E+01 3.70100E+01 0.00000E+00
 -1      3150 9.39000E+01 3.83090E+01 0.00000E+00
 -1      3151 9.54000E+01 3.83090E+01 0.00000E+00
 -1      3152 9.31500E+01 3.70100E+01 0.00000E+00
 -1      3153 9.69000E+01 3.83090E+01 0.00000E+00
 -1      3154 9.84000E+01 3.83090E+01 0.00000E+00
 -1      3155 9.61500E+01 3.70100E+01 0.00000E+00
 -1      3156 9.99000E+01 3.83090E+01 0.00000E+00
 -1      3157 1.01400E+02 3.83090E+01 0.00000E+00
 -1      3158 9.91500E+01 3.70100E+01 0.00000E+00
 -1      3159 1.02900E+02 3.83090E+01 0.00000E+00
 -1      3160 1.04400E+02 3.83090E+01 0.00000E+00
 -1      3161 1.02150E+02 3.70100E+01 0.00000E+00
 -1      3162 1.05900E+02 3.83090E+01 0.00000E+00
 -1      3163 1.07400E+02 3.83090E+01 0.00000E+00
 -1      3164 1.05150E+02 3.70100E+01 0.00000E+00
 -1      3165 1.08900E+02 3.83090E+01 0.00000E+00
 -1      3166 1.10400E+02 3.83090E+01 0.00000E+00
 -1      3167 1.08150E+02 3.70100E+01 0.00000E+00
 -1      3168 1.11900E+02 3.83090E+01 0.00000E+00
 -1      3169 1.13400E+02 3.83090E+01 0.00000E+00
 -1      3170 1.11150E+02 3.70100E+01 0.00000E+00
 -1      3171 1.14900E+02 3.83090E+01 0.00000E+00
 -1      3172 1.16400E+02 3.83090E+01 0.00000E+00
 -1      3173 1.14150E+02 3.70100E+01 0.00000E+00
 -1      3174 1.17900E+02 3.83090E+01 0.00000E+00
 -1      3175 1.19400E+02 3.83090E+01 0.00000E+00
 -1      3176 1.17150E+02 3.70100E+01 0.00000E+00
 -1      3177 1.20900E+02 3.83090E+01 0.00000E+00
 -1      3178 1.22400E+02 3.83090E+01 0.00000E+00
 -1      3179 1.20150E+02 3.70100E+01 0.00000E+00
 -1      3180 1.23900E+02 3.83090E+01 0.00000E+00
 -1      3181 1.25400E+02 3.83090E+01 0.00000E+00
 -1      3182 1.23150E+02 3.70100E+01 0.00000E+00
 -1      3183 1.26900E+02 3.83090E+01 0.00000E+00
 -1      3184 1.28400E+02 3.83090E+01 0.00000E+00
 -1      3185 1.26150E+02 3.70100E+01 0.00000E+00
 -1      3186 1.29900E+02 3.83090E+01 0.00000E+00
 -1      3187 1.31400E+02 3.83090E+01 0.00000E+00
 -1      3188 1.29150E+02 3.70100E+01 0.00000E+00
 -1      3189 1.32900E+02 3.83090E+01 0.00000E+00
 -1      3190 1.34400E+02 3.83090E+01 0.00000E+00
 -1      3191 1.32150E+02 3.70100E+01 0.00000E+00
 -1      3192 4.07850E+01 1.04237E+01 0.00000E+00
 -1      3193 3.92850E+01 1.04237E+01 0.00000E+00
 -1      3194 4.37850E+01 1.04237E+01 0.00000E+00
 -1      3195 4.22850E+01 1.04237E+01 0.00000E+00
 -1      3196 4.15350E+01 1.17227E+01 0.00000E+00
 -1      3197 4.67850E+01 1.04237E+01 0.00000E+00
 -1      3198 4.52850E+01 1.04237E+01 0.00000E+00
 -1      3199 4.45350E+01 1.17227E+01 0.00000E+00
 -1      3200 4.97850E+01 1.04237E+01 0.00000E+00
 -1      3201 4.82850E+01 1.04237E+01 0.00000E+00
 -1      3202 4.75350E+01 1.17227E+01 0.00000E+00
 -1      3203 5.27850E+01 1.04237E+01 0.00000E+00
 -1      3204 5.12850E+01 1.04237E+01 0.00000E+00
 -1      3205 5.05350E+01 1.17227E+01 0.00000E+00
 -1      3206 5.57850E+01 1.04237E+01 0.00000E+00
 -1      3207 5.42850E+01 1.04237E+01 0.00000E+00
 -1      3208 5.35350E+01 1.17227E+01 0.00000E+00
 -1      3209 5.87850E+01 1.04237E+01 0.00000E+00
 -1      3210 5.72850E+01 1.04237E+01 0.00000E+00
 -1      3211 5.65350E+01 1.17227E+01 0.00000E+00
 -1      3212 6.17850E+01 1.04237E+01 0.00000E+00
 -1      3213 6.02850E+01 1.04237E+01 0.00000E+00
 -1      3214 5.95350E+01 1.17227E+01 0.00000E+00
 -1      3215 6.47850E+01 1.04237E+01 0.00000E+00
 -1      3216 6.32850E+01 1.04237E+01 0.00000E+00
 -1      3217 6.25350E+01 1.17227E+01 0.00000E+00
 -1      3218 6.77850E+01 1.04237E+01 0.00000E+00
 -1      3219 6.62850E+01 1.04237E+01 0.00000E+00
 -1      3220 6.55350E+01 1.17227E+01 0.00000E+00
 -1      3221 7.07850E+01 1.04237E+01 0.00000E+00
 -1      3222 6.92850E+01 1.04237E+01 0.00000E+00
 -1      3223 6.85350E+01 1.17227E+01 0.00000E+00
 -1      3224 7.37850E+01 1.04237E+01 0.00000E+00
 -1      3225 7.22850E+01 1.04237E+01 0.00000E+00
 -1      3226 7.15350E+01 1.17227E+01 0.00000E+00
 -1      3227 7.67850E+01 1.04237E+01 0.00000E+00
 -1      3228 7.52850E+01 1.04237E+01 0.00000E+00
 -1      3229 7.45350E+01 1.17227E+01 0.00000E+00
 -1      3230 7.97850E+01 1.04237E+01 0.00000E+00
 -1      3231 7.82850E+01 1.04237E+01 0.00000E+00
 -1      3232 7.75350E+01 1.17227E+01 0.00000E+00
 -1      3233 8.27850E+01 1.04237E+01 0.00000E+00
 -1      3234 8.12850E+01 1.04237E+01 0.00000E+00
 -1      3235 8.05350E+01 1.17227E+01 0.00000E+00
 -1      3236 8.57850E+01 1.04237E+01 0.00000E+00
 -1      3237 8.42850E+01 1.04237E+01 0.00000E+00
 -1      3238 8.35350E+01 1.17227E+01 0.00000E+00
 -1      3239 8.87850E+01 1.04237E+01 0.00000E+00
 -1      3240 8.72850E+01 1.04237E+01 0.00000E+00
 -1      3241 8.65350E+01 1.17227E+01 0.00000E+00
 -1      3242 9.17850E+01 1.04237E+01 0.00000E+00
 -1      3243 9.02850E+01 1.04237E+01 0.00000E+00
 -1      3244 8.95350E+01 1.17227E+01 0.00000E+00
 -1      3245 9.47850E+01 1.04237E+01 0.00000E+00
 -1      3246 9.32850E+01 1.04237E+01 0.00000E+00
 -1      3247 9.25350E+01 1.17227E+01 0.00000E+00
 -1      3248 9.77850E+01 1.04237E+01 0.00000E+00
 -1      3249 9.62850E+01 1.04237E+01 0.00000E+00
 -1      3250 9.55350E+01 1.17227E+01 0.00000E+00
 -1      3251 1.00785E+02 1.04237E+01 0.00000E+00
 -1      3252 9.92850E+01 1.04237E+01 0.00000E+00
 -1      3253 9.85350E+01 1.17227E+01 0.00000E+00
 -1      3254 1.03785E+02 1.04237E+01 0.00000E+00
 -1      3255 1.02285E+02 1.04237E+01 0.00000E+00
 -1      3256 1.01535E+02 1.17227E+01 0.00000E+00
 -1      3257 1.06785E+02 1.04237E+01 0.00000E+00
 -1      3258 1.05285E+02 1.04237E+01 0.00000E+00
 -1      3259 1.04535E+02 1.17227E+01 0.00000E+00
 -1      3260 1.09785E+02 1.04237E+01 0.00000E+00
 -1      3261 1.08285E+02 1.04237E+01 0.00000E+00
 -1      3262 1.07535E+02 1.17227E+01 0.00000E+00
 -1      3263 1.12785E+02 1.04237E+01 0.00000E+00
 -1      3264 1.11285E+02 1.04237E+01 0.00000E+00
 -1      3265 1.10535E+02 1.17227E+01 0.00000E+00
 -1      3266 1.15785E+02 1.04237E+01 0.00000E+00
 -1      3267 1.14285E+02 1.04237E+01 0.00000E+00
 -1      3268 1.13535E+02 1.17227E+01 0.00000E+00
 -1      3269 1.18785E+02 1.04237E+01 0.00000E+00
 -1      3270 1.17285E+02 1.04237E+01 0.00000E+00
 -1      3271 1.16535E+02 1.17227E+01 0.00000E+00
 -1      3272 1.21785E+02 1.04237E+01 0.00000E+00
 -1      3273 1.20285E+02 1.04237E+01 0.00000E+00
 -1      3274 1.19535E+02 1.17227E+01 0.00000E+00
 -1      3275 1.24785E+02 1.04237E+01 0.00000E+00
 -1      3276 1.23285E+02 1.04237E+01 0.00000E+00
 -1      3277 1.22535E+02 1.17227E+01 0.00000E+00
 -1      3278 1.27785E+02 1.04237E+01 0.00000E+00
 -1      3279 1.26285E+02 1.04237E+01 0.00000E+00
 -1      3280 1.25535E+02 1.17227E+01 0.00000E+00
 -1      3281 1.30785E+02 1.04237E+01 0.00000E+00
 -1      3282 1.29285E+02 1.04237E+01 0.00000E+00
 -1      3283 1.28535E+02 1.17227E+01 0.00000E+00
 -1      3284 1.33785E+02 1.04237E+01 0.00000E+00
 -1      3285 1.32285E+02 1.04237E+01 0.00000E+00
 -1      3286 1.31535E+02 1.17227E+01 0.00000E+00
 -1      3287 1.36785E+02 1.04237E+01 0.00000E+00
 -1      3288 1.35285E+02 1.04237E+01 0.00000E+00
 -1      3289 1.34535E+02 1.17227E+01 0.00000E+00
 -1      3290 1.38912E+02 1.09555E+01 0.00000E+00
 -1      3291 1.37744E+02 1.06555E+01 0.00000E+00
 -1      3292 1.36994E+02 1.19545E+01 0.00000E+00
 -1      3293 1.38912E+02 1.24180E+01 0.00000E+00
 -1      3294 1.38309E+02 3.45625E+01 0.00000E+00
 -1      3295 1.38309E+02 3.30875E+01 0.00000E+00
 -1      3296 3.56146E+01 2.89888E+01 0.00000E+00
 -1      3297 3.48231E+01 2.99357E+01 0.00000E+00
 -1      3298 3.44456E+01 1.44625E+01 0.00000E+00
 -1      3299 3.50735E+01 1.58146E+01 0.00000E+00
 -1      3300 1.38309E+02 2.57625E+01 0.00000E+00
 -1      3301 1.38309E+02 2.42875E+01 0.00000E+00
 -1      3302 3.23397E+01 1.20154E+01 0.00000E+00
 -1      3303 3.34281E+01 1.29637E+01 0.00000E+00
 -1      3304 1.24022E+01 3.40474E+01 0.00000E+00
 -1      3305 1.08056E+01 1.65985E+01 0.00000E+00
 -1      3306 1.38309E+02 3.16125E+01 0.00000E+00
 -1      3307 1.38309E+02 3.01375E+01 0.00000E+00
 -1      3308 1.37010E+02 3.23500E+01 0.00000E+00
 -1      3309 1.00862E+01 3.73332E+01 0.00000E+00
 -1      3310 3.77850E+01 1.04237E+01 0.00000E+00
 -1      3311 3.62850E+01 1.04237E+01 0.00000E+00
 -1      3312 3.85350E+01 1.17227E+01 0.00000E+00
 -1      3313 3.45186E+01 1.04522E+01 0.00000E+00
 -1      3314 3.30186E+01 1.04522E+01 0.00000E+00
 -1      3315 2.23850E+01 1.06936E+01 0.00000E+00
 -1      3316 2.31157E+01 1.00390E+01 0.00000E+00
 -1      3317 3.51978E+01 2.64974E+01 0.00000E+00
 -1      3318 9.44731E+00 2.78874E+01 0.00000E+00
 -1      3319 1.06400E+01 2.86249E+01 0.00000E+00
 -1      3320 3.39649E+01 3.08917E+01 0.00000E+00
 -1      3321 3.31068E+01 3.18476E+01 0.00000E+00
 -1      3322 3.52115E+01 3.11294E+01 0.00000E+00
 -1      3323 2.96824E+01 3.42974E+01 0.00000E+00
 -1      3324 2.86223E+01 3.48468E+01 0.00000E+00
 -1      3325 3.64346E+01 2.04864E+01 0.00000E+00
 -1      3326 3.66913E+01 2.18609E+01 0.00000E+00
 -1      3327 1.08056E+01 1.51235E+01 0.00000E+00
 -1      3328 1.14286E+01 3.73873E+01 0.00000E+00
 -1      3329 2.16153E+01 1.01387E+01 0.00000E+00
 -1      3330 3.65584E+01 2.35591E+01 0.00000E+00
 -1      3331 3.62293E+01 2.47940E+01 0.00000E+00
 -1      3332 1.38309E+02 2.86750E+01 0.00000E+00
 -1      3333 1.38309E+02 2.72250E+01 0.00000E+00
 -1      3334 1.37010E+02 2.64875E+01 0.00000E+00
 -1      3335 1.37010E+02 2.94125E+01 0.00000E+00
 -1      3336 1.38758E+02 3.81988E+01 0.00000E+00
 -1      3337 1.38473E+02 3.60156E+01 0.00000E+00
 -1      3338 1.37173E+02 3.52781E+01 0.00000E+00
 -1      3339 1.37501E+02 3.81842E+01 0.00000E+00
 -1      3340 3.18865E+01 3.28219E+01 0.00000E+00
 -1      3341 3.08075E+01 3.35360E+01 0.00000E+00
 -1      3342 2.11298E+01 3.65741E+01 0.00000E+00
 -1      3343 1.98524E+01 3.62017E+01 0.00000E+00
 -1      3344 2.71530E+01 3.59817E+01 0.00000E+00
 -1      3345 2.80080E+01 3.82402E+01 0.00000E+00
 -1      3346 2.95080E+01 3.82402E+01 0.00000E+00
 -1      3347 2.82241E+01 3.55047E+01 0.00000E+00
 -1      3348 3.61910E+01 2.61008E+01 0.00000E+00
 -1      3349 3.61526E+01 2.74075E+01 0.00000E+00
 -1      3350 3.71841E+01 2.57041E+01 0.00000E+00
 -1      3351 1.17573E+01 1.38684E+01 0.00000E+00
 -1      3352 1.13329E+01 3.01674E+01 0.00000E+00
 -1      3353 1.70055E+01 3.54937E+01 0.00000E+00
 -1      3354 1.59378E+01 3.59452E+01 0.00000E+00
 -1      3355 1.81500E+01 3.74740E+01 0.00000E+00
 -1      3356 1.51643E+01 1.01486E+01 0.00000E+00
 -1      3357 1.63377E+01 9.62988E+00 0.00000E+00
 -1      3358 3.07877E+01 3.47952E+01 0.00000E+00
 -1      3359 3.18560E+01 1.06878E+01 0.00000E+00
 -1      3360 1.36243E+02 3.81696E+01 0.00000E+00
 -1      3361 1.89471E+01 3.64968E+01 0.00000E+00
 -1      3362 1.93377E+01 9.50105E+00 0.00000E+00
 -1      3363 2.07937E+01 9.75348E+00 0.00000E+00
 -1      3364 3.03560E+01 1.06878E+01 0.00000E+00
 -1      3365 3.66077E+01 2.85922E+01 0.00000E+00
 -1      3366 3.70628E+01 2.97768E+01 0.00000E+00
 -1      3367 3.76009E+01 2.81955E+01 0.00000E+00
 -1      3368 1.38309E+02 1.98625E+01 0.00000E+00
 -1      3369 1.38309E+02 1.83875E+01 0.00000E+00
 -1      3370 3.63854E+01 1.54270E+01 0.00000E+00
 -1      3371 3.59216E+01 1.64643E+01 0.00000E+00
 -1      3372 3.67697E+01 1.71139E+01 0.00000E+00
 -1      3373 1.37010E+02 2.35500E+01 0.00000E+00
 -1      3374 1.38309E+02 2.28125E+01 0.00000E+00
 -1      3375 1.38309E+02 2.13375E+01 0.00000E+00
 -1      3376 1.40843E+01 3.45422E+01 0.00000E+00
 -1      3377 1.20741E+01 3.57698E+01 0.00000E+00
 -1      3378 3.68971E+01 1.95760E+01 0.00000E+00
 -1      3379 3.52686E+01 1.17512E+01 0.00000E+00
 -1      3380 2.28566E+01 9.25852E+00 0.00000E+00
 -1      3381 2.37941E+01 9.57004E+00 0.00000E+00
 -1      3382 2.13566E+01 9.34230E+00 0.00000E+00
 -1      3383 3.31331E+01 3.30595E+01 0.00000E+00
 -1      3384 1.38375E+02 1.71375E+01 0.00000E+00
 -1      3385 1.38440E+02 1.58874E+01 0.00000E+00
 -1      3386 1.37076E+02 1.78750E+01 0.00000E+00
 -1      3387 1.35493E+02 3.68706E+01 0.00000E+00
 -1      3388 2.92407E+01 9.98297E+00 0.00000E+00
 -1      3389 2.50900E+01 9.25811E+00 0.00000E+00
 -1      3390 3.81524E+01 2.18391E+01 0.00000E+00
 -1      3391 3.73554E+01 2.26991E+01 0.00000E+00
 -1      3392 3.80195E+01 2.35374E+01 0.00000E+00
 -1      3393 3.02580E+01 3.69412E+01 0.00000E+00
 -1      3394 2.80900E+01 9.42568E+00 0.00000E+00
 -1      3395 1.31107E+01 3.78821E+01 0.00000E+00
 -1      3396 1.44531E+01 3.79363E+01 0.00000E+00
 -1      3397 1.52031E+01 3.68274E+01 0.00000E+00
 -1      3398 2.92643E+01 3.62146E+01 0.00000E+00
 -1      3399 3.81442E+01 2.50784E+01 0.00000E+00
 -1      3400 3.81059E+01 2.63851E+01 0.00000E+00
 -1      3401 3.54000E+01 3.57110E+01 0.00000E+00
 -1      3402 3.69000E+01 3.57110E+01 0.00000E+00
 -1      3403 3.84000E+01 3.57110E+01 0.00000E+00
 -1      3404 3.99000E+01 3.57110E+01 0.00000E+00
 -1      3405 3.76500E+01 3.44120E+01 0.00000E+00
 -1      3406 4.14000E+01 3.57110E+01 0.00000E+00
 -1      3407 4.29000E+01 3.57110E+01 0.00000E+00
 -1      3408 4.06500E+01 3.44120E+01 0.00000E+00
 -1      3409 4.44000E+01 3.57110E+01 0.00000E+00
 -1      3410 4.59000E+01 3.57110E+01 0.00000E+00
 -1      3411 4.36500E+01 3.44120E+01 0.00000E+00
 -1      3412 4.74000E+01 3.57110E+01 0.00000E+00
 -1      3413 4.89000E+01 3.57110E+01 0.00000E+00
 -1      3414 4.66500E+01 3.44120E+01 0.00000E+00
 -1      3415 5.04000E+01 3.57110E+01 0.00000E+00
 -1      3416 5.19000E+01 3.57110E+01 0.00000E+00
 -1      3417 4.96500E+01 3.44120E+01 0.00000E+00
 -1      3418 5.34000E+01 3.57110E+01 0.00000E+00
 -1      3419 5.49000E+01 3.57110E+01 0.00000E+00
 -1      3420 5.26500E+01 3.44120E+01 0.00000E+00
 -1      3421 5.64000E+01 3.57110E+01 0.00000E+00
 -1      3422 5.79000E+01 3.57110E+01 0.00000E+00
 -1      3423 5.56500E+01 3.44120E+01 0.00000E+00
 -1      3424 5.94000E+01 3.57110E+01 0.00000E+00
 -1      3425 6.09000E+01 3.57110E+01 0.00000E+00
 -1      3426 5.86500E+01 3.44120E+01 0.00000E+00
 -1      3427 6.24000E+01 3.57110E+01 0.00000E+00
 -1      3428 6.39000E+01 3.57110E+01 0.00000E+00
 -1      3429 6.16500E+01 3.44120E+01 0.00000E+00
 -1      3430 6.54000E+01 3.57110E+01 0.00000E+00
 -1      3431 6.69000E+01 3.57110E+01 0.00000E+00
 -1      3432 6.46500E+01 3.44120E+01 0.00000E+00
 -1      3433 6.84000E+01 3.57110E+01 0.00000E+00
 -1      3434 6.99000E+01 3.57110E+01 0.00000E+00
 -1      3435 6.76500E+01 3.44120E+01 0.00000E+00
 -1      3436 7.14000E+01 3.57110E+01 0.00000E+00
 -1      3437 7.29000E+01 3.57110E+01 0.00000E+00
 -1      3438 7.06500E+01 3.44120E+01 0.00000E+00
 -1      3439 7.44000E+01 3.57110E+01 0.00000E+00
 -1      3440 7.59000E+01 3.57110E+01 0.00000E+00
 -1      3441 7.36500E+01 3.44120E+01 0.00000E+00
 -1      3442 7.74000E+01 3.57110E+01 0.00000E+00
 -1      3443 7.89000E+01 3.57110E+01 0.00000E+00
 -1      3444 7.66500E+01 3.44120E+01 0.00000E+00
 -1      3445 8.04000E+01 3.57110E+01 0.00000E+00
 -1      3446 8.19000E+01 3.57110E+01 0.00000E+00
 -1      3447 7.96500E+01 3.44120E+01 0.00000E+00
 -1      3448 8.34000E+01 3.57110E+01 0.00000E+00
 -1      3449 8.49000E+01 3.57110E+01 0.00000E+00
 -1      3450 8.26500E+01 3.44120E+01 0.00000E+00
 -1      3451 8.64000E+01 3.57110E+01 0.00000E+00
 -1      3452 8.79000E+01 3.57110E+01 0.00000E+00
 -1      3453 8.56500E+01 3.44120E+01 0.00000E+00
 -1      3454 8.94000E+01 3.57110E+01 0.00000E+00
 -1      3455 9.09000E+01 3.57110E+01 0.00000E+00
 -1      3456 8.86500E+01 3.44120E+01 0.00000E+00
 -1      3457 9.24000E+01 3.57110E+01 0.00000E+00
 -1      3458 9.39000E+01 3.57110E+01 0.00000E+00
 -1      3459 9.16500E+01 3.44120E+01 0.00000E+00
 -1      3460 9.54000E+01 3.57110E+01 0.00000E+00
 -1      3461 9.69000E+01 3.57110E+01 0.00000E+00
 -1      3462 9.46500E+01 3.44120E+01 0.00000E+00
 -1      3463 9.84000E+01 3.57110E+01 0.00000E+00
 -1      3464 9.99000E+01 3.57110E+01 0.00000E+00
 -1      3465 9.76500E+01 3.44120E+01 0.00000E+00
 -1      3466 1.01400E+02 3.57110E+01 0.00000E+00
 -1      3467 1.02900E+02 3.57110E+01 0.00000E+00
 -1      3468 1.00650E+02 3.44120E+01 0.00000E+00
 -1      3469 1.04400E+02 3.57110E+01 0.00000E+00
 -1      3470 1.05900E+02 3.57110E+01 0.00000E+00
 -1      3471 1.03650E+02 3.44120E+01 0.00000E+00
 -1      3472 1.07400E+02 3.57110E+01 0.00000E+00
 -1      3473 1.08900E+02 3.57110E+01 0.00000E+00
 -1      3474 1.06650E+02 3.44120E+01 0.00000E+00
 -1      3475 1.10400E+02 3.57110E+01 0.00000E+00
 -1      3476 1.11900E+02 3.57110E+01 0.00000E+00
 -1      3477 1.09650E+02 3.44120E+01 0.00000E+00
 -1      3478 1.13400E+02 3.57110E+01 0.00000E+00
 -1      3479 1.14900E+02 3.57110E+01 0.00000E+00
 -1      3480 1.12650E+02 3.44120E+01 0.00000E+00
 -1      3481 1.16400E+02 3.57110E+01 0.00000E+00
 -1      3482 1.17900E+02 3.57110E+01 0.00000E+00
 -1      3483 1.15650E+02 3.44120E+01 0.00000E+00
 -1      3484 1.19400E+02 3.57110E+01 0.00000E+00
 -1      3485 1.20900E+02 3.57110E+01 0.00000E+00
 -1      3486 1.18650E+02 3.44120E+01 0.00000E+00
 -1      3487 1.22400E+02 3.57110E+01 0.00000E+00
 -1      3488 1.23900E+02 3.57110E+01 0.00000E+00
 -1      3489 1.21650E+02 3.44120E+01 0.00000E+00
 -1      3490 1.25400E+02 3.57110E+01 0.00000E+00
 -1      3491 1.26900E+02 3.57110E+01 0.00000E+00
 -1      3492 1.24650E+02 3.44120E+01 0.00000E+00
 -1      3493 1.28400E+02 3.57110E+01 0.00000E+00
 -1      3494 1.29900E+02 3.57110E+01 0.00000E+00
 -1      3495 1.27650E+02 3.44120E+01 0.00000E+00
 -1      3496 1.31400E+02 3.57110E+01 0.00000E+00
 -1      3497 1.32900E+02 3.57110E+01 0.00000E+00
 -1      3498 1.30650E+02 3.44120E+01 0.00000E+00
 -1      3499 4.52850E+01 1.30217E+01 0.00000E+00
 -1      3500 4.37850E+01 1.30217E+01 0.00000E+00
 -1      3501 4.22850E+01 1.30217E+01 0.00000E+00
 -1      3502 4.07850E+01 1.30217E+01 0.00000E+00
 -1      3503 4.30350E+01 1.43207E+01 0.00000E+00
 -1      3504 5.12850E+01 1.30217E+01 0.00000E+00
 -1      3505 4.97850E+01 1.30217E+01 0.00000E+00
 -1      3506 5.42850E+01 1.30217E+01 0.00000E+00
 -1      3507 5.27850E+01 1.30217E+01 0.00000E+00
 -1      3508 5.20350E+01 1.43207E+01 0.00000E+00
 -1      3509 5.72850E+01 1.30217E+01 0.00000E+00
 -1      3510 5.57850E+01 1.30217E+01 0.00000E+00
 -1      3511 5.50350E+01 1.43207E+01 0.00000E+00
 -1      3512 6.02850E+01 1.30217E+01 0.00000E+00
 -1      3513 5.87850E+01 1.30217E+01 0.00000E+00
 -1      3514 5.80350E+01 1.43207E+01 0.00000E+00
 -1      3515 6.32850E+01 1.30217E+01 0.00000E+00
 -1      3516 6.17850E+01 1.30217E+01 0.00000E+00
 -1      3517 6.10350E+01 1.43207E+01 0.00000E+00
 -1      3518 6.62850E+01 1.30217E+01 0.00000E+00
 -1      3519 6.47850E+01 1.30217E+01 0.00000E+00
 -1      3520 6.40350E+01 1.43207E+01 0.00000E+00
 -1      3521 6.92850E+01 1.30217E+01 0.00000E+00
 -1      3522 6.77850E+01 1.30217E+01 0.00000E+00
 -1      3523 6.70350E+01 1.43207E+01 0.00000E+00
 -1      3524 7.22850E+01 1.30217E+01 0.00000E+00
 -1      3525 7.07850E+01 1.30217E+01 0.00000E+00
 -1      3526 7.00350E+01 1.43207E+01 0.00000E+00
 -1      3527 7.52850E+01 1.30217E+01 0.00000E+00
 -1      3528 7.37850E+01 1.30217E+01 0.00000E+00
 -1      3529 7.30350E+01 1.43207E+01 0.00000E+00
 -1      3530 7.82850E+01 1.30217E+01 0.00000E+00
 -1      3531 7.67850E+01 1.30217E+01 0.00000E+00
 -1      3532 7.60350E+01 1.43207E+01 0.00000E+00
 -1      3533 8.12850E+01 1.30217E+01 0.00000E+00
 -1      3534 7.97850E+01 1.30217E+01 0.00000E+00
 -1      3535 7.90350E+01 1.43207E+01 0.00000E+00
 -1      3536 8.42850E+01 1.30217E+01 0.00000E+00
 -1      3537 8.27850E+01 1.30217E+01 0.00000E+00
 -1      3538 8.20350E+01 1.43207E+01 0.00000E+00
 -1      3539 8.72850E+01 1.30217E+01 0.00000E+00
 -1      3540 8.57850E+01 1.30217E+01 0.00000E+00
 -1      3541 8.50350E+01 1.43207E+01 0.00000E+00
 -1      3542 9.02850E+01 1.30217E+01 0.00000E+00
 -1      3543 8.87850E+01 1.30217E+01 0.00000E+00
 -1      3544 8.80350E+01 1.43207E+01 0.00000E+00
 -1      3545 9.32850E+01 1.30217E+01 0.00000E+00
 -1      3546 9.17850E+01 1.30217E+01 0.00000E+00
 -1      3547 9.10350E+01 1.43207E+01 0.00000E+00
 -1      3548 9.62850E+01 1.30217E+01 0.00000E+00
 -1      3549 9.47850E+01 1.30217E+01 0.00000E+00
 -1      3550 9.40350E+01 1.43207E+01 0.00000E+00
 -1      3551 9.92850E+01 1.30217E+01 0.00000E+00
 -1      3552 9.77850E+01 1.30217E+01 0.00000E+00
 -1      3553 9.70350E+01 1.43207E+01 0.00000E+00
 -1      3554 1.02285E+02 1.30217E+01 0.00000E+00
 -1      3555 1.00785E+02 1.30217E+01 0.00000E+00
 -1      3556 1.00035E+02 1.43207E+01 0.00000E+00
 -1      3557 1.05285E+02 1.30217E+01 0.00000E+00
 -1      3558 1.03785E+02 1.30217E+01 0.00000E+00
 -1      3559 1.03035E+02 1.43207E+01 0.00000E+00
 -1      3560 1.08285E+02 1.30217E+01 0.00000E+00
 -1      3561 1.06785E+02 1.30217E+01 0.00000E+00
 -1      3562 1.06035E+02 1.43207E+01 0.00000E+00
 -1      3563 1.11285E+02 1.30217E+01 0.00000E+00
 -1      3564 1.09785E+02 1.30217E+01 0.00000E+00
 -1      3565 1.09035E+02 1.43207E+01 0.00000E+00
 -1      3566 1.14285E+02 1.30217E+01 0.00000E+00
 -1      3567 1.12785E+02 1.30217E+01 0.00000E+00
 -1      3568 1.12035E+02 1.43207E+01 0.00000E+00
 -1      3569 1.17285E+02 1.30217E+01 0.00000E+00
 -1      3570 1.15785E+02 1.30217E+01 0.00000E+00
 -1      3571 1.15035E+02 1.43207E+01 0.00000E+00
 -1      3572 1.20285E+02 1.30217E+01 0.00000E+00
 -1      3573 1.18785E+02 1.30217E+01 0.00000E+00
 -1      3574 1.18035E+02 1.43207E+01 0.00000E+00
 -1      3575 1.23285E+02 1.30217E+01 0.00000E+00
 -1      3576 1.21785E+02 1.30217E+01 0.00000E+00
 -1      3577 1.21035E+02 1.43207E+01 0.00000E+00
 -1      3578 1.26285E+02 1.30217E+01 0.00000E+00
 -1      3579 1.24785E+02 1.30217E+01 0.00000E+00
 -1      3580 1.24035E+02 1.43207E+01 0.00000E+00
 -1      3581 1.29285E+02 1.30217E+01 0.00000E+00
 -1      3582 1.27785E+02 1.30217E+01 0.00000E+00
 -1      3583 1.27035E+02 1.43207E+01 0.00000E+00
 -1      3584 1.32285E+02 1.30217E+01 0.00000E+00
 -1      3585 1.30785E+02 1.30217E+01 0.00000E+00
 -1      3586 1.30035E+02 1.43207E+01 0.00000E+00
 -1      3587 1.35285E+02 1.30217E+01 0.00000E+00
 -1      3588 1.33785E+02 1.30217E+01 0.00000E+00
 -1      3589 1.33035E+02 1.43207E+01 0.00000E+00
 -1      3590 1.37010E+02 2.06000E+01 0.00000E+00
 -1      3591 3.44047E+01 1.24306E+01 0.00000E+00
 -1      3592 3.43305E+01 1.36146E+01 0.00000E+00
 -1      3593 3.77030E+01 1.84065E+01 0.00000E+00
 -1      3594 3.82943E+01 1.98313E+01 0.00000E+00
 -1      3595 3.54222E+01 1.39294E+01 0.00000E+00
 -1      3596 3.06563E+01 3.62833E+01 0.00000E+00
 -1      3597 3.61552E+01 1.37312E+01 0.00000E+00
 -1      3598 3.62703E+01 1.45791E+01 0.00000E+00
 -1      3599 3.71184E+01 1.52288E+01 0.00000E+00
 -1      3600 3.64658E+01 3.13922E+01 0.00000E+00
 -1      3601 3.56076E+01 3.23481E+01 0.00000E+00
 -1      3602 1.35711E+02 3.30875E+01 0.00000E+00
 -1      3603 1.35711E+02 3.16125E+01 0.00000E+00
 -1      3604 1.35330E+02 3.54175E+01 0.00000E+00
 -1      3605 3.17814E+01 3.55219E+01 0.00000E+00
 -1      3606 1.38643E+02 1.47778E+01 0.00000E+00
 -1      3607 1.38709E+02 1.35277E+01 0.00000E+00
 -1      3608 1.37750E+02 1.32959E+01 0.00000E+00
 -1      3609 1.37344E+02 1.55153E+01 0.00000E+00
 -1      3610 3.32814E+01 3.55219E+01 0.00000E+00
 -1      3611 4.82850E+01 1.30217E+01 0.00000E+00
 -1      3612 4.67850E+01 1.30217E+01 0.00000E+00
 -1      3613 4.60350E+01 1.43207E+01 0.00000E+00
 -1      3614 4.90350E+01 1.43207E+01 0.00000E+00
 -1      3615 3.52517E+01 3.32487E+01 0.00000E+00
 -1      3616 3.40314E+01 3.42229E+01 0.00000E+00
 -1      3617 1.74471E+01 3.64130E+01 0.00000E+00
 -1      3618 3.89412E+01 2.42183E+01 0.00000E+00
 -1      3619 3.65059E+01 3.35115E+01 0.00000E+00
 -1      3620 1.78377E+01 9.60736E+00 0.00000E+00
 -1      3621 3.85610E+01 2.75697E+01 0.00000E+00
 -1      3622 3.90161E+01 2.87544E+01 0.00000E+00
 -1      3623 3.95211E+01 2.69440E+01 0.00000E+00
 -1      3624 1.35711E+02 2.13375E+01 0.00000E+00
 -1      3625 1.35711E+02 1.98625E+01 0.00000E+00
 -1      3626 3.81669E+01 1.73692E+01 0.00000E+00
 -1      3627 1.36791E+02 1.30641E+01 0.00000E+00
 -1      3628 3.61710E+01 1.24021E+01 0.00000E+00
 -1      3629 1.36041E+02 1.43631E+01 0.00000E+00
 -1      3630 1.34478E+02 1.93500E+01 0.00000E+00
 -1      3631 1.35777E+02 1.86125E+01 0.00000E+00
 -1      3632 1.35842E+02 1.73624E+01 0.00000E+00
 -1      3633 1.35711E+02 2.42875E+01 0.00000E+00
 -1      3634 1.35711E+02 2.28125E+01 0.00000E+00
 -1      3635 1.34412E+02 2.20750E+01 0.00000E+00
 -1      3636 1.44909E+01 3.53824E+01 0.00000E+00
 -1      3637 3.97644E+01 1.95000E+01 0.00000E+00
 -1      3638 3.89584E+01 2.06696E+01 0.00000E+00
 -1      3639 3.96225E+01 2.15078E+01 0.00000E+00
 -1      3640 3.92691E+01 1.43508E+01 0.00000E+00
 -1      3641 3.85191E+01 1.30518E+01 0.00000E+00
 -1      3642 3.74589E+01 3.09955E+01 0.00000E+00
 -1      3643 3.78550E+01 3.22143E+01 0.00000E+00
 -1      3644 3.84521E+01 3.05989E+01 0.00000E+00
 -1      3645 1.34412E+02 3.08875E+01 0.00000E+00
 -1      3646 1.35711E+02 3.01500E+01 0.00000E+00
 -1      3647 1.35711E+02 2.86875E+01 0.00000E+00
 -1      3648 3.70191E+01 1.30518E+01 0.00000E+00
 -1      3649 1.33596E+02 3.52710E+01 0.00000E+00
 -1      3650 1.35276E+02 3.36785E+01 0.00000E+00
 -1      3651 1.35711E+02 2.72188E+01 0.00000E+00
 -1      3652 1.35711E+02 2.57563E+01 0.00000E+00
 -1      3653 1.34412E+02 2.50187E+01 0.00000E+00
 -1      3654 1.34412E+02 2.79562E+01 0.00000E+00
 -1      3655 1.32846E+02 3.39720E+01 0.00000E+00
 -1      3656 4.29000E+01 3.31130E+01 0.00000E+00
 -1      3657 4.44000E+01 3.31130E+01 0.00000E+00
 -1      3658 4.59000E+01 3.31130E+01 0.00000E+00
 -1      3659 4.74000E+01 3.31130E+01 0.00000E+00
 -1      3660 4.51500E+01 3.18140E+01 0.00000E+00
 -1      3661 4.89000E+01 3.31130E+01 0.00000E+00
 -1      3662 5.04000E+01 3.31130E+01 0.00000E+00
 -1      3663 4.81500E+01 3.18140E+01 0.00000E+00
 -1      3664 5.19000E+01 3.31130E+01 0.00000E+00
 -1      3665 5.34000E+01 3.31130E+01 0.00000E+00
 -1      3666 5.11500E+01 3.18140E+01 0.00000E+00
 -1      3667 5.49000E+01 3.31130E+01 0.00000E+00
 -1      3668 5.64000E+01 3.31130E+01 0.00000E+00
 -1      3669 5.41500E+01 3.18140E+01 0.00000E+00
 -1      3670 5.79000E+01 3.31130E+01 0.00000E+00
 -1      3671 5.94000E+01 3.31130E+01 0.00000E+00
 -1      3672 5.71500E+01 3.18140E+01 0.00000E+00
 -1      3673 6.09000E+01 3.31130E+01 0.00000E+00
 -1      3674 6.24000E+01 3.31130E+01 0.00000E+00
 -1      3675 6.01500E+01 3.18140E+01 0.00000E+00
 -1      3676 6.39000E+01 3.31130E+01 0.00000E+00
 -1      3677 6.54000E+01 3.31130E+01 0.00000E+00
 -1      3678 6.31500E+01 3.18140E+01 0.00000E+00
 -1      3679 6.69000E+01 3.31130E+01 0.00000E+00
 -1      3680 6.84000E+01 3.31130E+01 0.00000E+00
 -1      3681 6.61500E+01 3.18140E+01 0.00000E+00
 -1      3682 6.99000E+01 3.31130E+01 0.00000E+00
 -1      3683 7.14000E+01 3.31130E+01 0.00000E+00
 -1      3684 6.91500E+01 3.18140E+01 0.00000E+00
 -1      3685 7.29000E+01 3.31130E+01 0.00000E+00
 -1      3686 7.44000E+01 3.31130E+01 0.00000E+00
 -1      3687 7.21500E+01 3.18140E+01 0.00000E+00
 -1      3688 7.59000E+01 3.31130E+01 0.00000E+00
 -1      3689 7.74000E+01 3.31130E+01 0.00000E+00
 -1      3690 7.51500E+01 3.18140E+01 0.00000E+00
 -1      3691 7.89000E+01 3.31130E+01 0.00000E+00
 -1      3692 8.04000E+01 3.31130E+01 0.00000E+00
 -1      3693 7.81500E+01 3.18140E+01 0.00000E+00
 -1      3694 8.19000E+01 3.31130E+01 0.00000E+00
 -1      3695 8.34000E+01 3.31130E+01 0.00000E+00
 -1      3696 8.11500E+01 3.18140E+01 0.00000E+00
 -1      3697 8.49000E+01 3.31130E+01 0.00000E+00
 -1      3698 8.64000E+01 3.31130E+01 0.00000E+00
 -1      3699 8.41500E+01 3.18140E+01 0.00000E+00
 -1      3700 8.79000E+01 3.31130E+01 0.00000E+00
 -1      3701 8.94000E+01 3.31130E+01 0.00000E+00
 -1      3702 8.71500E+01 3.18140E+01 0.00000E+00
 -1      3703 9.09000E+01 3.31130E+01 0.00000E+00
 -1      3704 9.24000E+01 3.31130E+01 0.00000E+00
 -1      3705 9.01500E+01 3.18140E+01 0.00000E+00
 -1      3706 9.39000E+01 3.31130E+01 0.00000E+00
 -1      3707 9.54000E+01 3.31130E+01 0.00000E+00
 -1      3708 9.31500E+01 3.18140E+01 0.00000E+00
 -1      3709 9.69000E+01 3.31130E+01 0.00000E+00
 -1      3710 9.84000E+01 3.31130E+01 0.00000E+00
 -1      3711 9.61500E+01 3.18140E+01 0.00000E+00
 -1      3712 9.99000E+01 3.31130E+01 0.00000E+00
 -1      3713 1.01400E+02 3.31130E+01 0.00000E+00
 -1      3714 9.91500E+01 3.18140E+01 0.00000E+00
 -1      3715 1.02900E+02 3.31130E+01 0.00000E+00
 -1      3716 1.04400E+02 3.31130E+01 0.00000E+00
 -1      3717 1.02150E+02 3.18140E+01 0.00000E+00
 -1      3718 1.05900E+02 3.31130E+01 0.00000E+00
 -1      3719 1.07400E+02 3.31130E+01 0.00000E+00
 -1      3720 1.05150E+02 3.18140E+01 0.00000E+00
 -1      3721 1.08900E+02 3.31130E+01 0.00000E+00
 -1      3722 1.10400E+02 3.31130E+01 0.00000E+00
 -1      3723 1.08150E+02 3.18140E+01 0.00000E+00
 -1      3724 1.11900E+02 3.31130E+01 0.00000E+00
 -1      3725 1.13400E+02 3.31130E+01 0.00000E+00
 -1      3726 1.11150E+02 3.18140E+01 0.00000E+00
 -1      3727 1.14900E+02 3.31130E+01 0.00000E+00
 -1      3728 1.16400E+02 3.31130E+01 0.00000E+00
 -1      3729 1.14150E+02 3.18140E+01 0.00000E+00
 -1      3730 1.17900E+02 3.31130E+01 0.00000E+00
 -1      3731 1.19400E+02 3.31130E+01 0.00000E+00
 -1      3732 1.17150E+02 3.18140E+01 0.00000E+00
 -1      3733 1.20900E+02 3.31130E+01 0.00000E+00
 -1      3734 1.22400E+02 3.31130E+01 0.00000E+00
 -1      3735 1.20150E+02 3.18140E+01 0.00000E+00
 -1      3736 1.23900E+02 3.31130E+01 0.00000E+00
 -1      3737 1.25400E+02 3.31130E+01 0.00000E+00
 -1      3738 1.23150E+02 3.18140E+01 0.00000E+00
 -1      3739 1.26900E+02 3.31130E+01 0.00000E+00
 -1      3740 1.28400E+02 3.31130E+01 0.00000E+00
 -1      3741 1.26150E+02 3.18140E+01 0.00000E+00
 -1      3742 1.29900E+02 3.31130E+01 0.00000E+00
 -1      3743 1.31400E+02 3.31130E+01 0.00000E+00
 -1      3744 1.29150E+02 3.18140E+01 0.00000E+00
 -1      3745 2.65900E+01 9.34189E+00 0.00000E+00
 -1      3746 5.87850E+01 1.56197E+01 0.00000E+00
 -1      3747 5.72850E+01 1.56197E+01 0.00000E+00
 -1      3748 5.57850E+01 1.56197E+01 0.00000E+00
 -1      3749 5.42850E+01 1.56197E+01 0.00000E+00
 -1      3750 5.65350E+01 1.69187E+01 0.00000E+00
 -1      3751 5.27850E+01 1.56197E+01 0.00000E+00
 -1      3752 5.12850E+01 1.56197E+01 0.00000E+00
 -1      3753 5.35350E+01 1.69187E+01 0.00000E+00
 -1      3754 6.17850E+01 1.56197E+01 0.00000E+00
 -1      3755 6.02850E+01 1.56197E+01 0.00000E+00
 -1      3756 5.95350E+01 1.69187E+01 0.00000E+00
 -1      3757 6.47850E+01 1.56197E+01 0.00000E+00
 -1      3758 6.32850E+01 1.56197E+01 0.00000E+00
 -1      3759 6.25350E+01 1.69187E+01 0.00000E+00
 -1      3760 6.77850E+01 1.56197E+01 0.00000E+00
 -1      3761 6.62850E+01 1.56197E+01 0.00000E+00
 -1      3762 6.55350E+01 1.69187E+01 0.00000E+00
 -1      3763 7.07850E+01 1.56197E+01 0.00000E+00
 -1      3764 6.92850E+01 1.56197E+01 0.00000E+00
 -1      3765 6.85350E+01 1.69187E+01 0.00000E+00
 -1      3766 7.37850E+01 1.56197E+01 0.00000E+00
 -1      3767 7.22850E+01 1.56197E+01 0.00000E+00
 -1      3768 7.15350E+01 1.69187E+01 0.00000E+00
 -1      3769 7.67850E+01 1.56197E+01 0.00000E+00
 -1      3770 7.52850E+01 1.56197E+01 0.00000E+00
 -1      3771 7.45350E+01 1.69187E+01 0.00000E+00
 -1      3772 7.97850E+01 1.56197E+01 0.00000E+00
 -1      3773 7.82850E+01 1.56197E+01 0.00000E+00
 -1      3774 7.75350E+01 1.69187E+01 0.00000E+00
 -1      3775 8.27850E+01 1.56197E+01 0.00000E+00
 -1      3776 8.12850E+01 1.56197E+01 0.00000E+00
 -1      3777 8.05350E+01 1.69187E+01 0.00000E+00
 -1      3778 8.57850E+01 1.56197E+01 0.00000E+00
 -1      3779 8.42850E+01 1.56197E+01 0.00000E+00
 -1      3780 8.35350E+01 1.69187E+01 0.00000E+00
 -1      3781 8.87850E+01 1.56197E+01 0.00000E+00
 -1      3782 8.72850E+01 1.56197E+01 0.00000E+00
 -1      3783 8.65350E+01 1.69187E+01 0.00000E+00
 -1      3784 9.17850E+01 1.56197E+01 0.00000E+00
 -1      3785 9.02850E+01 1.56197E+01 0.00000E+00
 -1      3786 8.95350E+01 1.69187E+01 0.00000E+00
 -1      3787 9.47850E+01 1.56197E+01 0.00000E+00
 -1      3788 9.32850E+01 1.56197E+01 0.00000E+00
 -1      3789 9.25350E+01 1.69187E+01 0.00000E+00
 -1      3790 9.77850E+01 1.56197E+01 0.00000E+00
 -1      3791 9.62850E+01 1.56197E+01 0.00000E+00
 -1      3792 9.55350E+01 1.69187E+01 0.00000E+00
 -1      3793 1.00785E+02 1.56197E+01 0.00000E+00
 -1      3794 9.92850E+01 1.56197E+01 0.00000E+00
 -1      3795 9.85350E+01 1.69187E+01 0.00000E+00
 -1      3796 1.03785E+02 1.56197E+01 0.00000E+00
 -1      3797 1.02285E+02 1.56197E+01 0.00000E+00
 -1      3798 1.01535E+02 1.69187E+01 0.00000E+00
 -1      3799 1.06785E+02 1.56197E+01 0.00000E+00
 -1      3800 1.05285E+02 1.56197E+01 0.00000E+00
 -1      3801 1.04535E+02 1.69187E+01 0.00000E+00
 -1      3802 1.09785E+02 1.56197E+01 0.00000E+00
 -1      3803 1.08285E+02 1.56197E+01 0.00000E+00
 -1      3804 1.07535E+02 1.69187E+01 0.00000E+00
 -1      3805 1.12785E+02 1.56197E+01 0.00000E+00
 -1      3806 1.11285E+02 1.56197E+01 0.00000E+00
 -1      3807 1.10535E+02 1.69187E+01 0.00000E+00
 -1      3808 1.15785E+02 1.56197E+01 0.00000E+00
 -1      3809 1.14285E+02 1.56197E+01 0.00000E+00
 -1      3810 1.13535E+02 1.69187E+01 0.00000E+00
 -1      3811 1.18785E+02 1.56197E+01 0.00000E+00
 -1      3812 1.17285E+02 1.56197E+01 0.00000E+00
 -1      3813 1.16535E+02 1.69187E+01 0.00000E+00
 -1      3814 1.21785E+02 1.56197E+01 0.00000E+00
 -1      3815 1.20285E+02 1.56197E+01 0.00000E+00
 -1      3816 1.19535E+02 1.69187E+01 0.00000E+00
 -1      3817 1.24785E+02 1.56197E+01 0.00000E+00
 -1      3818 1.23285E+02 1.56197E+01 0.00000E+00
 -1      3819 1.22535E+02 1.69187E+01 0.00000E+00
 -1      3820 1.27785E+02 1.56197E+01 0.00000E+00
 -1      3821 1.26285E+02 1.56197E+01 0.00000E+00
 -1      3822 1.25535E+02 1.69187E+01 0.00000E+00
 -1      3823 1.30785E+02 1.56197E+01 0.00000E+00
 -1      3824 1.29285E+02 1.56197E+01 0.00000E+00
 -1      3825 1.28535E+02 1.69187E+01 0.00000E+00
 -1      3826 3.85313E+01 1.61228E+01 0.00000E+00
 -1      3827 3.94647E+01 1.74154E+01 0.00000E+00
 -1      3828 4.37850E+01 1.56197E+01 0.00000E+00
 -1      3829 4.22850E+01 1.56197E+01 0.00000E+00
 -1      3830 3.99006E+01 2.33651E+01 0.00000E+00
 -1      3831 4.00254E+01 2.49061E+01 0.00000E+00
 -1      3832 3.80059E+01 3.35115E+01 0.00000E+00
 -1      3833 3.89991E+01 3.31148E+01 0.00000E+00
 -1      3834 1.33113E+02 2.28125E+01 0.00000E+00
 -1      3835 1.33113E+02 2.13375E+01 0.00000E+00
 -1      3836 1.35838E+02 1.54728E+01 0.00000E+00
 -1      3837 1.34539E+02 1.62103E+01 0.00000E+00
 -1      3838 4.07066E+01 2.21956E+01 0.00000E+00
 -1      3839 4.52850E+01 1.56197E+01 0.00000E+00
 -1      3840 4.45350E+01 1.69187E+01 0.00000E+00
 -1      3841 4.67850E+01 1.56197E+01 0.00000E+00
 -1      3842 3.99000E+01 3.31130E+01 0.00000E+00
 -1      3843 4.14000E+01 3.31130E+01 0.00000E+00
 -1      3844 1.32096E+02 3.26730E+01 0.00000E+00
 -1      3845 4.04805E+01 2.60908E+01 0.00000E+00
 -1      3846 4.09355E+01 2.72754E+01 0.00000E+00
 -1      3847 4.14398E+01 2.52375E+01 0.00000E+00
 -1      3848 4.06308E+01 1.70798E+01 0.00000E+00
 -1      3849 4.02664E+01 1.83262E+01 0.00000E+00
 -1      3850 1.33785E+02 1.56197E+01 0.00000E+00
 -1      3851 1.32285E+02 1.56197E+01 0.00000E+00
 -1      3852 1.33179E+02 2.00875E+01 0.00000E+00
 -1      3853 1.33244E+02 1.88374E+01 0.00000E+00
 -1      3854 1.31880E+02 2.08250E+01 0.00000E+00
 -1      3855 4.09305E+01 1.91645E+01 0.00000E+00
 -1      3856 4.06820E+01 1.52448E+01 0.00000E+00
 -1      3857 3.84162E+01 1.52749E+01 0.00000E+00
 -1      3858 1.33977E+02 3.29410E+01 0.00000E+00
 -1      3859 4.03131E+01 2.99713E+01 0.00000E+00
 -1      3860 3.93530E+01 3.05971E+01 0.00000E+00
 -1      3861 1.33113E+02 2.42813E+01 0.00000E+00
 -1      3862 1.31814E+02 2.35438E+01 0.00000E+00
 -1      3863 1.33113E+02 2.57500E+01 0.00000E+00
 -1      3864 4.97850E+01 1.56197E+01 0.00000E+00
 -1      3865 4.82850E+01 1.56197E+01 0.00000E+00
 -1      3866 4.75350E+01 1.69187E+01 0.00000E+00
 -1      3867 4.21500E+01 3.18140E+01 0.00000E+00
 -1      3868 1.31535E+02 1.69187E+01 0.00000E+00
 -1      3869 4.14320E+01 1.65438E+01 0.00000E+00
 -1      3870 1.33037E+02 3.20757E+01 0.00000E+00
 -1      3871 1.33471E+02 3.14848E+01 0.00000E+00
 -1      3872 1.33471E+02 3.00222E+01 0.00000E+00
 -1      3873 1.31590E+02 3.12167E+01 0.00000E+00
 -1      3874 5.05350E+01 1.69187E+01 0.00000E+00
 -1      3875 3.97491E+01 3.18158E+01 0.00000E+00
 -1      3876 1.33113E+02 2.86875E+01 0.00000E+00
 -1      3877 1.33113E+02 2.72188E+01 0.00000E+00
 -1      3878 1.31814E+02 2.64813E+01 0.00000E+00
 -1      3879 5.12850E+01 1.82177E+01 0.00000E+00
 -1      3880 4.97850E+01 1.82177E+01 0.00000E+00
 -1      3881 4.74000E+01 3.05150E+01 0.00000E+00
 -1      3882 4.89000E+01 3.05150E+01 0.00000E+00
 -1      3883 5.04000E+01 3.05150E+01 0.00000E+00
 -1      3884 5.19000E+01 3.05150E+01 0.00000E+00
 -1      3885 4.96500E+01 2.92160E+01 0.00000E+00
 -1      3886 5.34000E+01 3.05150E+01 0.00000E+00
 -1      3887 5.49000E+01 3.05150E+01 0.00000E+00
 -1      3888 5.26500E+01 2.92160E+01 0.00000E+00
 -1      3889 5.64000E+01 3.05150E+01 0.00000E+00
 -1      3890 5.79000E+01 3.05150E+01 0.00000E+00
 -1      3891 5.56500E+01 2.92160E+01 0.00000E+00
 -1      3892 5.94000E+01 3.05150E+01 0.00000E+00
 -1      3893 6.09000E+01 3.05150E+01 0.00000E+00
 -1      3894 5.86500E+01 2.92160E+01 0.00000E+00
 -1      3895 6.24000E+01 3.05150E+01 0.00000E+00
 -1      3896 6.39000E+01 3.05150E+01 0.00000E+00
 -1      3897 6.16500E+01 2.92160E+01 0.00000E+00
 -1      3898 6.54000E+01 3.05150E+01 0.00000E+00
 -1      3899 6.69000E+01 3.05150E+01 0.00000E+00
 -1      3900 6.46500E+01 2.92160E+01 0.00000E+00
 -1      3901 6.84000E+01 3.05150E+01 0.00000E+00
 -1      3902 6.99000E+01 3.05150E+01 0.00000E+00
 -1      3903 6.76500E+01 2.92160E+01 0.00000E+00
 -1      3904 7.14000E+01 3.05150E+01 0.00000E+00
 -1      3905 7.29000E+01 3.05150E+01 0.00000E+00
 -1      3906 7.06500E+01 2.92160E+01 0.00000E+00
 -1      3907 7.44000E+01 3.05150E+01 0.00000E+00
 -1      3908 7.59000E+01 3.05150E+01 0.00000E+00
 -1      3909 7.36500E+01 2.92160E+01 0.00000E+00
 -1      3910 7.74000E+01 3.05150E+01 0.00000E+00
 -1      3911 7.89000E+01 3.05150E+01 0.00000E+00
 -1      3912 7.66500E+01 2.92160E+01 0.00000E+00
 -1      3913 8.04000E+01 3.05150E+01 0.00000E+00
 -1      3914 8.19000E+01 3.05150E+01 0.00000E+00
 -1      3915 7.96500E+01 2.92160E+01 0.00000E+00
 -1      3916 8.34000E+01 3.05150E+01 0.00000E+00
 -1      3917 8.49000E+01 3.05150E+01 0.00000E+00
 -1      3918 8.26500E+01 2.92160E+01 0.00000E+00
 -1      3919 8.64000E+01 3.05150E+01 0.00000E+00
 -1      3920 8.79000E+01 3.05150E+01 0.00000E+00
 -1      3921 8.56500E+01 2.92160E+01 0.00000E+00
 -1      3922 8.94000E+01 3.05150E+01 0.00000E+00
 -1      3923 9.09000E+01 3.05150E+01 0.00000E+00
 -1      3924 8.86500E+01 2.92160E+01 0.00000E+00
 -1      3925 9.24000E+01 3.05150E+01 0.00000E+00
 -1      3926 9.39000E+01 3.05150E+01 0.00000E+00
 -1      3927 9.16500E+01 2.92160E+01 0.00000E+00
 -1      3928 9.54000E+01 3.05150E+01 0.00000E+00
 -1      3929 9.69000E+01 3.05150E+01 0.00000E+00
 -1      3930 9.46500E+01 2.92160E+01 0.00000E+00
 -1      3931 9.84000E+01 3.05150E+01 0.00000E+00
 -1      3932 9.99000E+01 3.05150E+01 0.00000E+00
 -1      3933 9.76500E+01 2.92160E+01 0.00000E+00
 -1      3934 1.01400E+02 3.05150E+01 0.00000E+00
 -1      3935 1.02900E+02 3.05150E+01 0.00000E+00
 -1      3936 1.00650E+02 2.92160E+01 0.00000E+00
 -1      3937 1.04400E+02 3.05150E+01 0.00000E+00
 -1      3938 1.05900E+02 3.05150E+01 0.00000E+00
 -1      3939 1.03650E+02 2.92160E+01 0.00000E+00
 -1      3940 1.07400E+02 3.05150E+01 0.00000E+00
 -1      3941 1.08900E+02 3.05150E+01 0.00000E+00
 -1      3942 1.06650E+02 2.92160E+01 0.00000E+00
 -1      3943 1.10400E+02 3.05150E+01 0.00000E+00
 -1      3944 1.11900E+02 3.05150E+01 0.00000E+00
 -1      3945 1.09650E+02 2.92160E+01 0.00000E+00
 -1      3946 1.13400E+02 3.05150E+01 0.00000E+00
 -1      3947 1.14900E+02 3.05150E+01 0.00000E+00
 -1      3948 1.12650E+02 2.92160E+01 0.00000E+00
 -1      3949 1.16400E+02 3.05150E+01 0.00000E+00
 -1      3950 1.17900E+02 3.05150E+01 0.00000E+00
 -1      3951 1.15650E+02 2.92160E+01 0.00000E+00
 -1      3952 1.19400E+02 3.05150E+01 0.00000E+00
 -1      3953 1.20900E+02 3.05150E+01 0.00000E+00
 -1      3954 1.18650E+02 2.92160E+01 0.00000E+00
 -1      3955 1.22400E+02 3.05150E+01 0.00000E+00
 -1      3956 1.23900E+02 3.05150E+01 0.00000E+00
 -1      3957 1.21650E+02 2.92160E+01 0.00000E+00
 -1      3958 1.25400E+02 3.05150E+01 0.00000E+00
 -1      3959 1.26900E+02 3.05150E+01 0.00000E+00
 -1      3960 1.24650E+02 2.92160E+01 0.00000E+00
 -1      3961 1.28400E+02 3.05150E+01 0.00000E+00
 -1      3962 1.29900E+02 3.05150E+01 0.00000E+00
 -1      3963 1.27650E+02 2.92160E+01 0.00000E+00
 -1      3964 5.72850E+01 1.82177E+01 0.00000E+00
 -1      3965 5.57850E+01 1.82177E+01 0.00000E+00
 -1      3966 4.22338E+01 1.74547E+01 0.00000E+00
 -1      3967 6.32850E+01 1.82177E+01 0.00000E+00
 -1      3968 6.17850E+01 1.82177E+01 0.00000E+00
 -1      3969 6.02850E+01 1.82177E+01 0.00000E+00
 -1      3970 5.87850E+01 1.82177E+01 0.00000E+00
 -1      3971 6.10350E+01 1.95167E+01 0.00000E+00
 -1      3972 5.42850E+01 1.82177E+01 0.00000E+00
 -1      3973 5.27850E+01 1.82177E+01 0.00000E+00
 -1      3974 5.50350E+01 1.95167E+01 0.00000E+00
 -1      3975 6.62850E+01 1.82177E+01 0.00000E+00
 -1      3976 6.47850E+01 1.82177E+01 0.00000E+00
 -1      3977 6.40350E+01 1.95167E+01 0.00000E+00
 -1      3978 6.92850E+01 1.82177E+01 0.00000E+00
 -1      3979 6.77850E+01 1.82177E+01 0.00000E+00
 -1      3980 6.70350E+01 1.95167E+01 0.00000E+00
 -1      3981 7.22850E+01 1.82177E+01 0.00000E+00
 -1      3982 7.07850E+01 1.82177E+01 0.00000E+00
 -1      3983 7.00350E+01 1.95167E+01 0.00000E+00
 -1      3984 7.52850E+01 1.82177E+01 0.00000E+00
 -1      3985 7.37850E+01 1.82177E+01 0.00000E+00
 -1      3986 7.30350E+01 1.95167E+01 0.00000E+00
 -1      3987 7.82850E+01 1.82177E+01 0.00000E+00
 -1      3988 7.67850E+01 1.82177E+01 0.00000E+00
 -1      3989 7.60350E+01 1.95167E+01 0.00000E+00
 -1      3990 8.12850E+01 1.82177E+01 0.00000E+00
 -1      3991 7.97850E+01 1.82177E+01 0.00000E+00
 -1      3992 7.90350E+01 1.95167E+01 0.00000E+00
 -1      3993 8.42850E+01 1.82177E+01 0.00000E+00
 -1      3994 8.27850E+01 1.82177E+01 0.00000E+00
 -1      3995 8.20350E+01 1.95167E+01 0.00000E+00
 -1      3996 8.72850E+01 1.82177E+01 0.00000E+00
 -1      3997 8.57850E+01 1.82177E+01 0.00000E+00
 -1      3998 8.50350E+01 1.95167E+01 0.00000E+00
 -1      3999 9.02850E+01 1.82177E+01 0.00000E+00
 -1      4000 8.87850E+01 1.82177E+01 0.00000E+00
 -1      4001 8.80350E+01 1.95167E+01 0.00000E+00
 -1      4002 9.32850E+01 1.82177E+01 0.00000E+00
 -1      4003 9.17850E+01 1.82177E+01 0.00000E+00
 -1      4004 9.10350E+01 1.95167E+01 0.00000E+00
 -1      4005 9.62850E+01 1.82177E+01 0.00000E+00
 -1      4006 9.47850E+01 1.82177E+01 0.00000E+00
 -1      4007 9.40350E+01 1.95167E+01 0.00000E+00
 -1      4008 9.92850E+01 1.82177E+01 0.00000E+00
 -1      4009 9.77850E+01 1.82177E+01 0.00000E+00
 -1      4010 9.70350E+01 1.95167E+01 0.00000E+00
 -1      4011 1.02285E+02 1.82177E+01 0.00000E+00
 -1      4012 1.00785E+02 1.82177E+01 0.00000E+00
 -1      4013 1.00035E+02 1.95167E+01 0.00000E+00
 -1      4014 1.05285E+02 1.82177E+01 0.00000E+00
 -1      4015 1.03785E+02 1.82177E+01 0.00000E+00
 -1      4016 1.03035E+02 1.95167E+01 0.00000E+00
 -1      4017 1.08285E+02 1.82177E+01 0.00000E+00
 -1      4018 1.06785E+02 1.82177E+01 0.00000E+00
 -1      4019 1.06035E+02 1.95167E+01 0.00000E+00
 -1      4020 1.11285E+02 1.82177E+01 0.00000E+00
 -1      4021 1.09785E+02 1.82177E+01 0.00000E+00
 -1      4022 1.09035E+02 1.95167E+01 0.00000E+00
 -1      4023 1.14285E+02 1.82177E+01 0.00000E+00
 -1      4024 1.12785E+02 1.82177E+01 0.00000E+00
 -1      4025 1.12035E+02 1.95167E+01 0.00000E+00
 -1      4026 1.17285E+02 1.82177E+01 0.00000E+00
 -1      4027 1.15785E+02 1.82177E+01 0.00000E+00
 -1      4028 1.15035E+02 1.95167E+01 0.00000E+00
 -1      4029 1.20285E+02 1.82177E+01 0.00000E+00
 -1      4030 1.18785E+02 1.82177E+01 0.00000E+00
 -1      4031 1.18035E+02 1.95167E+01 0.00000E+00
 -1      4032 1.23285E+02 1.82177E+01 0.00000E+00
 -1      4033 1.21785E+02 1.82177E+01 0.00000E+00
 -1      4034 1.21035E+02 1.95167E+01 0.00000E+00
 -1      4035 1.26285E+02 1.82177E+01 0.00000E+00
 -1      4036 1.24785E+02 1.82177E+01 0.00000E+00
 -1      4037 1.24035E+02 1.95167E+01 0.00000E+00
 -1      4038 1.29285E+02 1.82177E+01 0.00000E+00
 -1      4039 1.27785E+02 1.82177E+01 0.00000E+00
 -1      4040 1.27035E+02 1.95167E+01 0.00000E+00
 -1      4041 4.18299E+01 2.10779E+01 0.00000E+00
 -1      4042 4.21081E+01 2.29352E+01 0.00000E+00
 -1      4043 4.22829E+01 1.86794E+01 0.00000E+00
 -1      4044 4.17808E+01 1.98532E+01 0.00000E+00
 -1      4045 4.31823E+01 2.05928E+01 0.00000E+00
 -1      4046 4.30841E+01 1.81434E+01 0.00000E+00
 -1      4047 4.13743E+01 2.86233E+01 0.00000E+00
 -1      4048 4.17112E+01 3.04660E+01 0.00000E+00
 -1      4049 4.32112E+01 3.04660E+01 0.00000E+00
 -1      4050 4.23337E+01 2.77701E+01 0.00000E+00
 -1      4051 1.33789E+02 1.75093E+01 0.00000E+00
 -1      4052 4.45556E+01 3.04905E+01 0.00000E+00
 -1      4053 4.60556E+01 3.04905E+01 0.00000E+00
 -1      4054 4.68056E+01 2.91915E+01 0.00000E+00
 -1      4055 4.41169E+01 2.91426E+01 0.00000E+00
 -1      4056 1.32490E+02 1.82468E+01 0.00000E+00
 -1      4057 1.32173E+02 2.92847E+01 0.00000E+00
 -1      4058 5.20350E+01 1.95167E+01 0.00000E+00
 -1      4059 1.30990E+02 1.82468E+01 0.00000E+00
 -1      4060 1.30840E+02 2.99177E+01 0.00000E+00
 -1      4061 5.80350E+01 1.95167E+01 0.00000E+00
 -1      4062 4.25632E+01 2.41198E+01 0.00000E+00
 -1      4063 4.30183E+01 2.53045E+01 0.00000E+00
 -1      4064 4.36865E+01 2.30021E+01 0.00000E+00
 -1      4065 1.30240E+02 1.95458E+01 0.00000E+00
 -1      4066 4.45841E+01 1.81434E+01 0.00000E+00
 -1      4067 4.90350E+01 1.95167E+01 0.00000E+00
 -1      4068 4.82850E+01 1.82177E+01 0.00000E+00
 -1      4069 4.67850E+01 1.82177E+01 0.00000E+00
 -1      4070 1.30515E+02 2.42781E+01 0.00000E+00
 -1      4071 1.30515E+02 2.28094E+01 0.00000E+00
 -1      4072 1.30174E+02 2.07958E+01 0.00000E+00
 -1      4073 1.28876E+02 2.15302E+01 0.00000E+00
 -1      4074 6.47850E+01 2.08157E+01 0.00000E+00
 -1      4075 6.32850E+01 2.08157E+01 0.00000E+00
 -1      4076 5.19000E+01 2.79170E+01 0.00000E+00
 -1      4077 5.34000E+01 2.79170E+01 0.00000E+00
 -1      4078 5.49000E+01 2.79170E+01 0.00000E+00
 -1      4079 5.64000E+01 2.79170E+01 0.00000E+00
 -1      4080 5.41500E+01 2.66180E+01 0.00000E+00
 -1      4081 5.79000E+01 2.79170E+01 0.00000E+00
 -1      4082 5.94000E+01 2.79170E+01 0.00000E+00
 -1      4083 5.71500E+01 2.66180E+01 0.00000E+00
 -1      4084 6.09000E+01 2.79170E+01 0.00000E+00
 -1      4085 6.24000E+01 2.79170E+01 0.00000E+00
 -1      4086 6.01500E+01 2.66180E+01 0.00000E+00
 -1      4087 6.39000E+01 2.79170E+01 0.00000E+00
 -1      4088 6.54000E+01 2.79170E+01 0.00000E+00
 -1      4089 6.31500E+01 2.66180E+01 0.00000E+00
 -1      4090 6.69000E+01 2.79170E+01 0.00000E+00
 -1      4091 6.84000E+01 2.79170E+01 0.00000E+00
 -1      4092 6.61500E+01 2.66180E+01 0.00000E+00
 -1      4093 6.99000E+01 2.79170E+01 0.00000E+00
 -1      4094 7.14000E+01 2.79170E+01 0.00000E+00
 -1      4095 6.91500E+01 2.66180E+01 0.00000E+00
 -1      4096 7.29000E+01 2.79170E+01 0.00000E+00
 -1      4097 7.44000E+01 2.79170E+01 0.00000E+00
 -1      4098 7.21500E+01 2.66180E+01 0.00000E+00
 -1      4099 7.59000E+01 2.79170E+01 0.00000E+00
 -1      4100 7.74000E+01 2.79170E+01 0.00000E+00
 -1      4101 7.51500E+01 2.66180E+01 0.00000E+00
 -1      4102 7.89000E+01 2.79170E+01 0.00000E+00
 -1      4103 8.04000E+01 2.79170E+01 0.00000E+00
 -1      4104 7.81500E+01 2.66180E+01 0.00000E+00
 -1      4105 8.19000E+01 2.79170E+01 0.00000E+00
 -1      4106 8.34000E+01 2.79170E+01 0.00000E+00
 -1      4107 8.11500E+01 2.66180E+01 0.00000E+00
 -1      4108 8.49000E+01 2.79170E+01 0.00000E+00
 -1      4109 8.64000E+01 2.79170E+01 0.00000E+00
 -1      4110 8.41500E+01 2.66180E+01 0.00000E+00
 -1      4111 8.79000E+01 2.79170E+01 0.00000E+00
 -1      4112 8.94000E+01 2.79170E+01 0.00000E+00
 -1      4113 8.71500E+01 2.66180E+01 0.00000E+00
 -1      4114 9.09000E+01 2.79170E+01 0.00000E+00
 -1      4115 9.24000E+01 2.79170E+01 0.00000E+00
 -1      4116 9.01500E+01 2.66180E+01 0.00000E+00
 -1      4117 9.39000E+01 2.79170E+01 0.00000E+00
 -1      4118 9.54000E+01 2.79170E+01 0.00000E+00
 -1      4119 9.31500E+01 2.66180E+01 0.00000E+00
 -1      4120 9.69000E+01 2.79170E+01 0.00000E+00
 -1      4121 9.84000E+01 2.79170E+01 0.00000E+00
 -1      4122 9.61500E+01 2.66180E+01 0.00000E+00
 -1      4123 9.99000E+01 2.79170E+01 0.00000E+00
 -1      4124 1.01400E+02 2.79170E+01 0.00000E+00
 -1      4125 9.91500E+01 2.66180E+01 0.00000E+00
 -1      4126 1.02900E+02 2.79170E+01 0.00000E+00
 -1      4127 1.04400E+02 2.79170E+01 0.00000E+00
 -1      4128 1.02150E+02 2.66180E+01 0.00000E+00
 -1      4129 1.05900E+02 2.79170E+01 0.00000E+00
 -1      4130 1.07400E+02 2.79170E+01 0.00000E+00
 -1      4131 1.05150E+02 2.66180E+01 0.00000E+00
 -1      4132 1.08900E+02 2.79170E+01 0.00000E+00
 -1      4133 1.10400E+02 2.79170E+01 0.00000E+00
 -1      4134 1.08150E+02 2.66180E+01 0.00000E+00
 -1      4135 1.11900E+02 2.79170E+01 0.00000E+00
 -1      4136 1.13400E+02 2.79170E+01 0.00000E+00
 -1      4137 1.11150E+02 2.66180E+01 0.00000E+00
 -1      4138 1.14900E+02 2.79170E+01 0.00000E+00
 -1      4139 1.16400E+02 2.79170E+01 0.00000E+00
 -1      4140 1.14150E+02 2.66180E+01 0.00000E+00
 -1      4141 1.17900E+02 2.79170E+01 0.00000E+00
 -1      4142 1.19400E+02 2.79170E+01 0.00000E+00
 -1      4143 1.17150E+02 2.66180E+01 0.00000E+00
 -1      4144 1.20900E+02 2.79170E+01 0.00000E+00
 -1      4145 1.22400E+02 2.79170E+01 0.00000E+00
 -1      4146 1.20150E+02 2.66180E+01 0.00000E+00
 -1      4147 1.23900E+02 2.79170E+01 0.00000E+00
 -1      4148 1.25400E+02 2.79170E+01 0.00000E+00
 -1      4149 1.23150E+02 2.66180E+01 0.00000E+00
 -1      4150 1.26900E+02 2.79170E+01 0.00000E+00
 -1      4151 1.28400E+02 2.79170E+01 0.00000E+00
 -1      4152 1.26150E+02 2.66180E+01 0.00000E+00
 -1      4153 1.30482E+02 2.85830E+01 0.00000E+00
 -1      4154 6.77850E+01 2.08157E+01 0.00000E+00
 -1      4155 6.62850E+01 2.08157E+01 0.00000E+00
 -1      4156 6.55350E+01 2.21147E+01 0.00000E+00
 -1      4157 5.57850E+01 2.08157E+01 0.00000E+00
 -1      4158 5.42850E+01 2.08157E+01 0.00000E+00
 -1      4159 7.07850E+01 2.08157E+01 0.00000E+00
 -1      4160 6.92850E+01 2.08157E+01 0.00000E+00
 -1      4161 6.85350E+01 2.21147E+01 0.00000E+00
 -1      4162 7.37850E+01 2.08157E+01 0.00000E+00
 -1      4163 7.22850E+01 2.08157E+01 0.00000E+00
 -1      4164 7.15350E+01 2.21147E+01 0.00000E+00
 -1      4165 7.67850E+01 2.08157E+01 0.00000E+00
 -1      4166 7.52850E+01 2.08157E+01 0.00000E+00
 -1      4167 7.45350E+01 2.21147E+01 0.00000E+00
 -1      4168 7.97850E+01 2.08157E+01 0.00000E+00
 -1      4169 7.82850E+01 2.08157E+01 0.00000E+00
 -1      4170 7.75350E+01 2.21147E+01 0.00000E+00
 -1      4171 8.27850E+01 2.08157E+01 0.00000E+00
 -1      4172 8.12850E+01 2.08157E+01 0.00000E+00
 -1      4173 8.05350E+01 2.21147E+01 0.00000E+00
 -1      4174 8.57850E+01 2.08157E+01 0.00000E+00
 -1      4175 8.42850E+01 2.08157E+01 0.00000E+00
 -1      4176 8.35350E+01 2.21147E+01 0.00000E+00
 -1      4177 8.87850E+01 2.08157E+01 0.00000E+00
 -1      4178 8.72850E+01 2.08157E+01 0.00000E+00
 -1      4179 8.65350E+01 2.21147E+01 0.00000E+00
 -1      4180 9.17850E+01 2.08157E+01 0.00000E+00
 -1      4181 9.02850E+01 2.08157E+01 0.00000E+00
 -1      4182 8.95350E+01 2.21147E+01 0.00000E+00
 -1      4183 9.47850E+01 2.08157E+01 0.00000E+00
 -1      4184 9.32850E+01 2.08157E+01 0.00000E+00
 -1      4185 9.25350E+01 2.21147E+01 0.00000E+00
 -1      4186 9.77850E+01 2.08157E+01 0.00000E+00
 -1      4187 9.62850E+01 2.08157E+01 0.00000E+00
 -1      4188 9.55350E+01 2.21147E+01 0.00000E+00
 -1      4189 1.00785E+02 2.08157E+01 0.00000E+00
 -1      4190 9.92850E+01 2.08157E+01 0.00000E+00
 -1      4191 9.85350E+01 2.21147E+01 0.00000E+00
 -1      4192 1.03785E+02 2.08157E+01 0.00000E+00
 -1      4193 1.02285E+02 2.08157E+01 0.00000E+00
 -1      4194 1.01535E+02 2.21147E+01 0.00000E+00
 -1      4195 1.06785E+02 2.08157E+01 0.00000E+00
 -1      4196 1.05285E+02 2.08157E+01 0.00000E+00
 -1      4197 1.04535E+02 2.21147E+01 0.00000E+00
 -1      4198 1.09785E+02 2.08157E+01 0.00000E+00
 -1      4199 1.08285E+02 2.08157E+01 0.00000E+00
 -1      4200 1.07535E+02 2.21147E+01 0.00000E+00
 -1      4201 1.12785E+02 2.08157E+01 0.00000E+00
 -1      4202 1.11285E+02 2.08157E+01 0.00000E+00
 -1      4203 1.10535E+02 2.21147E+01 0.00000E+00
 -1      4204 1.15785E+02 2.08157E+01 0.00000E+00
 -1      4205 1.14285E+02 2.08157E+01 0.00000E+00
 -1      4206 1.13535E+02 2.21147E+01 0.00000E+00
 -1      4207 1.18785E+02 2.08157E+01 0.00000E+00
 -1      4208 1.17285E+02 2.08157E+01 0.00000E+00
 -1      4209 1.16535E+02 2.21147E+01 0.00000E+00
 -1      4210 1.21785E+02 2.08157E+01 0.00000E+00
 -1      4211 1.20285E+02 2.08157E+01 0.00000E+00
 -1      4212 1.19535E+02 2.21147E+01 0.00000E+00
 -1      4213 1.24785E+02 2.08157E+01 0.00000E+00
 -1      4214 1.23285E+02 2.08157E+01 0.00000E+00
 -1      4215 1.22535E+02 2.21147E+01 0.00000E+00
 -1      4216 1.27580E+02 2.11729E+01 0.00000E+00
 -1      4217 1.26080E+02 2.11729E+01 0.00000E+00
 -1      4218 1.25330E+02 2.24719E+01 0.00000E+00
 -1      4219 1.27921E+02 2.31865E+01 0.00000E+00
 -1      4220 4.33482E+01 2.65495E+01 0.00000E+00
 -1      4221 4.37869E+01 2.78975E+01 0.00000E+00
 -1      4222 4.51313E+01 2.79220E+01 0.00000E+00
 -1      4223 4.44715E+01 2.54318E+01 0.00000E+00
 -1      4224 4.53341E+01 1.94424E+01 0.00000E+00
 -1      4225 5.27850E+01 2.08157E+01 0.00000E+00
 -1      4226 5.12850E+01 2.08157E+01 0.00000E+00
 -1      4227 5.35350E+01 2.21147E+01 0.00000E+00
 -1      4228 5.87850E+01 2.08157E+01 0.00000E+00
 -1      4229 5.72850E+01 2.08157E+01 0.00000E+00
 -1      4230 5.65350E+01 2.21147E+01 0.00000E+00
 -1      4231 6.17850E+01 2.08157E+01 0.00000E+00
 -1      4232 6.02850E+01 2.08157E+01 0.00000E+00
 -1      4233 6.25350E+01 2.21147E+01 0.00000E+00
 -1      4234 4.89000E+01 2.79170E+01 0.00000E+00
 -1      4235 5.04000E+01 2.79170E+01 0.00000E+00
 -1      4236 5.11500E+01 2.66180E+01 0.00000E+00
 -1      4237 1.29732E+02 2.58153E+01 0.00000E+00
 -1      4238 1.28433E+02 2.50809E+01 0.00000E+00
 -1      4239 1.29732E+02 2.72840E+01 0.00000E+00
 -1      4240 4.46505E+01 2.19520E+01 0.00000E+00
 -1      4241 4.51056E+01 2.31367E+01 0.00000E+00
 -1      4242 5.95350E+01 2.21147E+01 0.00000E+00
 -1      4243 1.27138E+02 2.47236E+01 0.00000E+00
 -1      4244 4.46014E+01 2.07273E+01 0.00000E+00
 -1      4245 4.68023E+01 2.08016E+01 0.00000E+00
 -1      4246 4.63435E+01 2.79072E+01 0.00000E+00
 -1      4247 4.76879E+01 2.79317E+01 0.00000E+00
 -1      4248 4.84379E+01 2.66327E+01 0.00000E+00
 -1      4249 4.60135E+01 2.66622E+01 0.00000E+00
 -1      4250 5.64000E+01 2.53190E+01 0.00000E+00
 -1      4251 5.79000E+01 2.53190E+01 0.00000E+00
 -1      4252 5.98425E+01 2.43663E+01 0.00000E+00
 -1      4253 6.13425E+01 2.43663E+01 0.00000E+00
 -1      4254 6.28425E+01 2.43663E+01 0.00000E+00
 -1      4255 6.43425E+01 2.43663E+01 0.00000E+00
 -1      4256 6.58425E+01 2.43663E+01 0.00000E+00
 -1      4257 6.73425E+01 2.43663E+01 0.00000E+00
 -1      4258 6.88425E+01 2.43663E+01 0.00000E+00
 -1      4259 7.03425E+01 2.43663E+01 0.00000E+00
 -1      4260 7.18425E+01 2.43663E+01 0.00000E+00
 -1      4261 7.33425E+01 2.43663E+01 0.00000E+00
 -1      4262 7.48425E+01 2.43663E+01 0.00000E+00
 -1      4263 7.63425E+01 2.43663E+01 0.00000E+00
 -1      4264 7.78425E+01 2.43663E+01 0.00000E+00
 -1      4265 7.93425E+01 2.43663E+01 0.00000E+00
 -1      4266 8.08425E+01 2.43663E+01 0.00000E+00
 -1      4267 8.23425E+01 2.43663E+01 0.00000E+00
 -1      4268 8.38425E+01 2.43663E+01 0.00000E+00
 -1      4269 8.53425E+01 2.43663E+01 0.00000E+00
 -1      4270 8.68425E+01 2.43663E+01 0.00000E+00
 -1      4271 8.83425E+01 2.43663E+01 0.00000E+00
 -1      4272 8.98425E+01 2.43663E+01 0.00000E+00
 -1      4273 9.13425E+01 2.43663E+01 0.00000E+00
 -1      4274 9.28425E+01 2.43663E+01 0.00000E+00
 -1      4275 9.43425E+01 2.43663E+01 0.00000E+00
 -1      4276 9.58425E+01 2.43663E+01 0.00000E+00
 -1      4277 9.73425E+01 2.43663E+01 0.00000E+00
 -1      4278 9.88425E+01 2.43663E+01 0.00000E+00
 -1      4279 1.00342E+02 2.43663E+01 0.00000E+00
 -1      4280 1.01842E+02 2.43663E+01 0.00000E+00
 -1      4281 1.03342E+02 2.43663E+01 0.00000E+00
 -1      4282 1.04842E+02 2.43663E+01 0.00000E+00
 -1      4283 1.06342E+02 2.43663E+01 0.00000E+00
 -1      4284 1.07842E+02 2.43663E+01 0.00000E+00
 -1      4285 1.09342E+02 2.43663E+01 0.00000E+00
 -1      4286 1.10842E+02 2.43663E+01 0.00000E+00
 -1      4287 1.12342E+02 2.43663E+01 0.00000E+00
 -1      4288 1.13842E+02 2.43663E+01 0.00000E+00
 -1      4289 1.15342E+02 2.43663E+01 0.00000E+00
 -1      4290 1.16842E+02 2.43663E+01 0.00000E+00
 -1      4291 1.18342E+02 2.43663E+01 0.00000E+00
 -1      4292 1.19842E+02 2.43663E+01 0.00000E+00
 -1      4293 1.21342E+02 2.43663E+01 0.00000E+00
 -1      4294 1.22842E+02 2.43663E+01 0.00000E+00
 -1      4295 1.24342E+02 2.43663E+01 0.00000E+00
 -1      4296 1.25638E+02 2.47236E+01 0.00000E+00
 -1      4297 4.97850E+01 2.08157E+01 0.00000E+00
 -1      4298 4.82850E+01 2.08157E+01 0.00000E+00
 -1      4299 5.42850E+01 2.34137E+01 0.00000E+00
 -1      4300 5.27850E+01 2.34137E+01 0.00000E+00
 -1      4301 5.30925E+01 2.56653E+01 0.00000E+00
 -1      4302 5.45925E+01 2.56653E+01 0.00000E+00
 -1      4303 5.00925E+01 2.56653E+01 0.00000E+00
 -1      4304 5.15925E+01 2.56653E+01 0.00000E+00
 -1      4305 5.20350E+01 2.47127E+01 0.00000E+00
 -1      4306 5.75925E+01 2.30673E+01 0.00000E+00
 -1      4307 5.60925E+01 2.30673E+01 0.00000E+00
 -1      4308 4.75523E+01 2.21006E+01 0.00000E+00
 -1      4309 5.05350E+01 2.21147E+01 0.00000E+00
 -1      4310 5.12850E+01 2.34137E+01 0.00000E+00
 -1      4311 4.97850E+01 2.34137E+01 0.00000E+00
 -1      4312 4.81866E+01 2.32822E+01 0.00000E+00
 -1      4313 4.67039E+01 2.32682E+01 0.00000E+00
 -1      4314 4.57399E+01 2.43182E+01 0.00000E+00
 -1      4315 4.89366E+01 2.45812E+01 0.00000E+00
 -1      4316 5.53425E+01 2.43663E+01 0.00000E+00
 -1      4317 4.60698E+01 2.55633E+01 0.00000E+00
 -1      4318 5.90925E+01 2.30673E+01 0.00000E+00
 -1      4319 4.84941E+01 2.55339E+01 0.00000E+00
 -1      4320 4.72820E+01 2.55486E+01 0.00000E+00
 -3
    3C                          2078                                     1
 -1       165    8    0    1
 -2         6         7        23      1122      1286      1139
 -1       166    8    0    1
 -2         7         8       165      1123      1287      1288
 -1       167    8    0    1
 -2         8         9       166      1124      1289      1290
 -1       168    8    0    1
 -2         8       166       165      1290      1291      1287
 -1       169    8    0    1
 -2         9        10       167      1125      1292      1293
 -1       170    8    0    1
 -2         9       167       166      1293      1294      1289
 -1       171    8    0    1
 -2        10        11       168      1126      1295      1296
 -1       172    8    0    1
 -2        10       168       167      1296      1297      1292
 -1       173    8    0    1
 -2        11        12       169      1127      1298      1299
 -1       174    8    0    1
 -2        11       169       168      1299      1300      1295
 -1       175    8    0    1
 -2        12        13       170      1128      1301      1302
 -1       176    8    0    1
 -2        12       170       169      1302      1303      1298
 -1       177    8    0    1
 -2        13        14       171      1129      1304      1305
 -1       178    8    0    1
 -2        13       171       170      1305      1306      1301
 -1       179    8    0    1
 -2        14        15       172      1130      1307      1308
 -1       180    8    0    1
 -2        14       172       171      1308      1309      1304
 -1       181    8    0    1
 -2        15        16       173      1131      1310      1311
 -1       182    8    0    1
 -2        15       173       172      1311      1312      1307
 -1       183    8    0    1
 -2        16        17       174      1132      1313      1314
 -1       184    8    0    1
 -2        16       174       173      1314      1315      1310
 -1       185    8    0    1
 -2        17        18       175      1133      1316      1317
 -1       186    8    0    1
 -2        17       175       174      1317      1318      1313
 -1       187    8    0    1
 -2        18        19       176      1134      1319      1320
 -1       188    8    0    1
 -2        18       176       175      1320      1321      1316
 -1       189    8    0    1
 -2        19        20       177      1135      1322      1323
 -1       190    8    0    1
 -2        19       177       176      1323      1324      1319
 -1       191    8    0    1
 -2        20        21       178      1136      1325      1326
 -1       192    8    0    1
 -2        20       178       177      1326      1327      1322
 -1       193    8    0    1
 -2        21        22       179      1137      1328      1329
 -1       194    8    0    1
 -2        21       179       178      1329      1330      1325
 -1       195    8    0    1
 -2        22         5       180      1138      1331      1332
 -1       196    8    0    1
 -2       179        22       180      1328      1332      1333
 -1       197    8    0    1
 -2         5        72       180      1189      1334      1331
 -1       198    8    0    1
 -2        24        23       181      1140      1335      1336
 -1       199    8    0    1
 -2        25        24       182      1141      1337      1338
 -1       200    8    0    1
 -2        24       181       182      1336      1339      1337
 -1       201    8    0    1
 -2        26        25       183      1142      1340      1341
 -1       202    8    0    1
 -2        25       182       183      1338      1342      1340
 -1       203    8    0    1
 -2        27        26       184      1143      1343      1344
 -1       204    8    0    1
 -2        26       183       184      1341      1345      1343
 -1       205    8    0    1
 -2        28        27       185      1144      1346      1347
 -1       206    8    0    1
 -2        27       184       185      1344      1348      1346
 -1       207    8    0    1
 -2        29        28       186      1145      1349      1350
 -1       208    8    0    1
 -2        28       185       186      1347      1351      1349
 -1       209    8    0    1
 -2        30        29       187      1146      1352      1353
 -1       210    8    0    1
 -2        29       186       187      1350      1354      1352
 -1       211    8    0    1
 -2        31        30       188      1147      1355      1356
 -1       212    8    0    1
 -2        30       187       188      1353      1357      1355
 -1       213    8    0    1
 -2        32        31       189      1148      1358      1359
 -1       214    8    0    1
 -2        31       188       189      1356      1360      1358
 -1       215    8    0    1
 -2        33        32       190      1149      1361      1362
 -1       216    8    0    1
 -2        32       189       190      1359      1363      1361
 -1       217    8    0    1
 -2        34        33       191      1150      1364      1365
 -1       218    8    0    1
 -2        33       190       191      1362      1366      1364
 -1       219    8    0    1
 -2        35        34       192      1151      1367      1368
 -1       220    8    0    1
 -2        34       191       192      1365      1369      1367
 -1       221    8    0    1
 -2        36        35       193      1152      1370      1371
 -1       222    8    0    1
 -2        35       192       193      1368      1372      1370
 -1       223    8    0    1
 -2        37        36       194      1153      1373      1374
 -1       224    8    0    1
 -2        36       193       194      1371      1375      1373
 -1       225    8    0    1
 -2        38        37       195      1154      1376      1377
 -1       226    8    0    1
 -2        37       194       195      1374      1378      1376
 -1       227    8    0    1
 -2        39        38       196      1155      1379      1380
 -1       228    8    0    1
 -2        38       195       196      1377      1381      1379
 -1       229    8    0    1
 -2        40        39       197      1156      1382      1383
 -1       230    8    0    1
 -2        39       196       197      1380      1384      1382
 -1       231    8    0    1
 -2        41        40       198      1157      1385      1386
 -1       232    8    0    1
 -2        40       197       198      1383      1387      1385
 -1       233    8    0    1
 -2        42        41       199      1158      1388      1389
 -1       234    8    0    1
 -2        41       198       199      1386      1390      1388
 -1       235    8    0    1
 -2        43        42       200      1159      1391      1392
 -1       236    8    0    1
 -2        42       199       200      1389      1393      1391
 -1       237    8    0    1
 -2        44        43       201      1160      1394      1395
 -1       238    8    0    1
 -2        43       200       201      1392      1396      1394
 -1       239    8    0    1
 -2        45        44       202      1161      1397      1398
 -1       240    8    0    1
 -2        44       201       202      1395      1399      1397
 -1       241    8    0    1
 -2        46        45       203      1162      1400      1401
 -1       242    8    0    1
 -2        45       202       203      1398      1402      1400
 -1       243    8    0    1
 -2        47        46       204      1163      1403      1404
 -1       244    8    0    1
 -2        46       203       204      1401      1405      1403
 -1       245    8    0    1
 -2        48        47       205      1164      1406      1407
 -1       246    8    0    1
 -2        47       204       205      1404      1408      1406
 -1       247    8    0    1
 -2        49        48       206      1165      1409      1410
 -1       248    8    0    1
 -2        48       205       206      1407      1411      1409
 -1       249    8    0    1
 -2        50        49       207      1166      1412      1413
 -1       250    8    0    1
 -2        49       206       207      1410      1414      1412
 -1       251    8    0    1
 -2        51        50       208      1167      1415      1416
 -1       252    8    0    1
 -2        50       207       208      1413      1417      1415
 -1       253    8    0    1
 -2        52        51       209      1168      1418      1419
 -1       254    8    0    1
 -2        51       208       209      1416      1420      1418
 -1       255    8    0    1
 -2        53        52       210      1169      1421      1422
 -1       256    8    0    1
 -2        52       209       210      1419      1423      1421
 -1       257    8    0    1
 -2        54        53       211      1170      1424      1425
 -1       258    8    0    1
 -2        53       210       211      1422      1426      1424
 -1       259    8    0    1
 -2        55        54       212      1171      1427      1428
 -1       260    8    0    1
 -2        54       211       212      1425      1429      1427
 -1       261    8    0    1
 -2        56        55       213      1172      1430      1431
 -1       262    8    0    1
 -2        55       212       213      1428      1432      1430
 -1       263    8    0    1
 -2        57        56       214      1173      1433      1434
 -1       264    8    0    1
 -2        56       213       214      1431      1435      1433
 -1       265    8    0    1
 -2        58        57       215      1174      1436      1437
 -1       266    8    0    1
 -2        57       214       215      1434      1438      1436
 -1       267    8    0    1
 -2        59        58       216      1175      1439      1440
 -1       268    8    0    1
 -2        58       215       216      1437      1441      1439
 -1       269    8    0    1
 -2        60        59       217      1176      1442      1443
 -1       270    8    0    1
 -2        59       216       217      1440      1444      1442
 -1       271    8    0    1
 -2        61        60       218      1177      1445      1446
 -1       272    8    0    1
 -2        60       217       218      1443      1447      1445
 -1       273    8    0    1
 -2        62        61       219      1178      1448      1449
 -1       274    8    0    1
 -2        61       218       219      1446      1450      1448
 -1       275    8    0    1
 -2        63        62       220      1179      1451      1452
 -1       276    8    0    1
 -2        62       219       220      1449      1453      1451
 -1       277    8    0    1
 -2        64        63       221      1180      1454      1455
 -1       278    8    0    1
 -2        63       220       221      1452      1456      1454
 -1       279    8    0    1
 -2        65        64       222      1181      1457      1458
 -1       280    8    0    1
 -2        64       221       222      1455      1459      1457
 -1       281    8    0    1
 -2        66        65       223      1182      1460      1461
 -1       282    8    0    1
 -2        65       222       223      1458      1462      1460
 -1       283    8    0    1
 -2        67        66       224      1183      1463      1464
 -1       284    8    0    1
 -2        66       223       224      1461      1465      1463
 -1       285    8    0    1
 -2        68        67       225      1184      1466      1467
 -1       286    8    0    1
 -2        67       224       225      1464      1468      1466
 -1       287    8    0    1
 -2        69        68       226      1185      1469      1470
 -1       288    8    0    1
 -2        68       225       226      1467      1471      1469
 -1       289    8    0    1
 -2        70        69       227      1186      1472      1473
 -1       290    8    0    1
 -2        69       226       227      1470      1474      1472
 -1       291    8    0    1
 -2        71        70       228      1187      1475      1476
 -1       292    8    0    1
 -2        70       227       228      1473      1477      1475
 -1       293    8    0    1
 -2         4        71       136      1188      1478      1255
 -1       294    8    0    1
 -2       136        71       228      1478      1476      1479
 -1       295    8    0    1
 -2        72        73       229      1190      1480      1481
 -1       296    8    0    1
 -2        72       229       180      1481      1482      1334
 -1       297    8    0    1
 -2        73        74       230      1191      1483      1484
 -1       298    8    0    1
 -2        73       230       229      1484      1485      1480
 -1       299    8    0    1
 -2        74        75       231      1192      1486      1487
 -1       300    8    0    1
 -2        74       231       230      1487      1488      1483
 -1       301    8    0    1
 -2        75        76       232      1193      1489      1490
 -1       302    8    0    1
 -2        75       232       231      1490      1491      1486
 -1       303    8    0    1
 -2        76        77       233      1194      1492      1493
 -1       304    8    0    1
 -2        76       233       232      1493      1494      1489
 -1       305    8    0    1
 -2        77        78       234      1195      1495      1496
 -1       306    8    0    1
 -2        77       234       233      1496      1497      1492
 -1       307    8    0    1
 -2        78        79       235      1196      1498      1499
 -1       308    8    0    1
 -2        78       235       234      1499      1500      1495
 -1       309    8    0    1
 -2        79        80       236      1197      1501      1502
 -1       310    8    0    1
 -2        79       236       235      1502      1503      1498
 -1       311    8    0    1
 -2        80        81       237      1198      1504      1505
 -1       312    8    0    1
 -2        80       237       236      1505      1506      1501
 -1       313    8    0    1
 -2        81        82       238      1199      1507      1508
 -1       314    8    0    1
 -2        81       238       237      1508      1509      1504
 -1       315    8    0    1
 -2        82        83       239      1200      1510      1511
 -1       316    8    0    1
 -2        82       239       238      1511      1512      1507
 -1       317    8    0    1
 -2        83        84       240      1201      1513      1514
 -1       318    8    0    1
 -2        83       240       239      1514      1515      1510
 -1       319    8    0    1
 -2        84        85       241      1202      1516      1517
 -1       320    8    0    1
 -2        84       241       240      1517      1518      1513
 -1       321    8    0    1
 -2        85        86       242      1203      1519      1520
 -1       322    8    0    1
 -2        85       242       241      1520      1521      1516
 -1       323    8    0    1
 -2        86        87       243      1204      1522      1523
 -1       324    8    0    1
 -2        86       243       242      1523      1524      1519
 -1       325    8    0    1
 -2        87        88       244      1205      1525      1526
 -1       326    8    0    1
 -2        87       244       243      1526      1527      1522
 -1       327    8    0    1
 -2        88        89       245      1206      1528      1529
 -1       328    8    0    1
 -2        88       245       244      1529      1530      1525
 -1       329    8    0    1
 -2        89        90       246      1207      1531      1532
 -1       330    8    0    1
 -2        89       246       245      1532      1533      1528
 -1       331    8    0    1
 -2        90        91       247      1208      1534      1535
 -1       332    8    0    1
 -2        90       247       246      1535      1536      1531
 -1       333    8    0    1
 -2        91        92       248      1209      1537      1538
 -1       334    8    0    1
 -2        91       248       247      1538      1539      1534
 -1       335    8    0    1
 -2        92        93       249      1210      1540      1541
 -1       336    8    0    1
 -2        92       249       248      1541      1542      1537
 -1       337    8    0    1
 -2        93        94       250      1211      1543      1544
 -1       338    8    0    1
 -2        93       250       249      1544      1545      1540
 -1       339    8    0    1
 -2        94        95       251      1212      1546      1547
 -1       340    8    0    1
 -2        94       251       250      1547      1548      1543
 -1       341    8    0    1
 -2        95        96       252      1213      1549      1550
 -1       342    8    0    1
 -2        95       252       251      1550      1551      1546
 -1       343    8    0    1
 -2        96        97       253      1214      1552      1553
 -1       344    8    0    1
 -2        96       253       252      1553      1554      1549
 -1       345    8    0    1
 -2        97        98       254      1215      1555      1556
 -1       346    8    0    1
 -2        97       254       253      1556      1557      1552
 -1       347    8    0    1
 -2        98        99       255      1216      1558      1559
 -1       348    8    0    1
 -2        98       255       254      1559      1560      1555
 -1       349    8    0    1
 -2        99       100       256      1217      1561      1562
 -1       350    8    0    1
 -2        99       256       255      1562      1563      1558
 -1       351    8    0    1
 -2       100       101       257      1218      1564      1565
 -1       352    8    0    1
 -2       100       257       256      1565      1566      1561
 -1       353    8    0    1
 -2       101       102       258      1219      1567      1568
 -1       354    8    0    1
 -2       101       258       257      1568      1569      1564
 -1       355    8    0    1
 -2       102       103       259      1220      1570      1571
 -1       356    8    0    1
 -2       102       259       258      1571      1572      1567
 -1       357    8    0    1
 -2       103       104       260      1221      1573      1574
 -1       358    8    0    1
 -2       103       260       259      1574      1575      1570
 -1       359    8    0    1
 -2       104       105       261      1222      1576      1577
 -1       360    8    0    1
 -2       104       261       260      1577      1578      1573
 -1       361    8    0    1
 -2       105       106       262      1223      1579      1580
 -1       362    8    0    1
 -2       105       262       261      1580      1581      1576
 -1       363    8    0    1
 -2       106       107       263      1224      1582      1583
 -1       364    8    0    1
 -2       106       263       262      1583      1584      1579
 -1       365    8    0    1
 -2       107       108       264      1225      1585      1586
 -1       366    8    0    1
 -2       107       264       263      1586      1587      1582
 -1       367    8    0    1
 -2       108       109       265      1226      1588      1589
 -1       368    8    0    1
 -2       108       265       264      1589      1590      1585
 -1       369    8    0    1
 -2       109       110       266      1227      1591      1592
 -1       370    8    0    1
 -2       109       266       265      1592      1593      1588
 -1       371    8    0    1
 -2       110       111       267      1228      1594      1595
 -1       372    8    0    1
 -2       110       267       266      1595      1596      1591
 -1       373    8    0    1
 -2       111       112       268      1229      1597      1598
 -1       374    8    0    1
 -2       111       268       267      1598      1599      1594
 -1       375    8    0    1
 -2       112       113       269      1230      1600      1601
 -1       376    8    0    1
 -2       112       269       268      1601      1602      1597
 -1       377    8    0    1
 -2       113       114       270      1231      1603      1604
 -1       378    8    0    1
 -2       113       270       269      1604      1605      1600
 -1       379    8    0    1
 -2       114       115       271      1232      1606      1607
 -1       380    8    0    1
 -2       114       271       270      1607      1608      1603
 -1       381    8    0    1
 -2       115       116       272      1233      1609      1610
 -1       382    8    0    1
 -2       115       272       271      1610      1611      1606
 -1       383    8    0    1
 -2       116       117       273      1234      1612      1613
 -1       384    8    0    1
 -2       116       273       272      1613      1614      1609
 -1       385    8    0    1
 -2       117       118       274      1235      1615      1616
 -1       386    8    0    1
 -2       117       274       273      1616      1617      1612
 -1       387    8    0    1
 -2       118       119       275      1236      1618      1619
 -1       388    8    0    1
 -2       118       275       274      1619      1620      1615
 -1       389    8    0    1
 -2       119       120       276      1237      1621      1622
 -1       390    8    0    1
 -2       119       276       275      1622      1623      1618
 -1       391    8    0    1
 -2       120         3       121      1238      1239      1624
 -1       392    8    0    1
 -2       121       122       277      1240      1625      1626
 -1       393    8    0    1
 -2       122       123       278      1241      1627      1628
 -1       394    8    0    1
 -2       122       278       277      1628      1629      1625
 -1       395    8    0    1
 -2       123       124       279      1242      1630      1631
 -1       396    8    0    1
 -2       123       279       278      1631      1632      1627
 -1       397    8    0    1
 -2       124       125       280      1243      1633      1634
 -1       398    8    0    1
 -2       124       280       279      1634      1635      1630
 -1       399    8    0    1
 -2       125       126       281      1244      1636      1637
 -1       400    8    0    1
 -2       125       281       280      1637      1638      1633
 -1       401    8    0    1
 -2       126       127       282      1245      1639      1640
 -1       402    8    0    1
 -2       126       282       281      1640      1641      1636
 -1       403    8    0    1
 -2       127       128       283      1246      1642      1643
 -1       404    8    0    1
 -2       127       283       282      1643      1644      1639
 -1       405    8    0    1
 -2       128       129       284      1247      1645      1646
 -1       406    8    0    1
 -2       128       284       283      1646      1647      1642
 -1       407    8    0    1
 -2       129       130       285      1248      1648      1649
 -1       408    8    0    1
 -2       129       285       284      1649      1650      1645
 -1       409    8    0    1
 -2       130       131       286      1249      1651      1652
 -1       410    8    0    1
 -2       130       286       285      1652      1653      1648
 -1       411    8    0    1
 -2       131       132       287      1250      1654      1655
 -1       412    8    0    1
 -2       131       287       286      1655      1656      1651
 -1       413    8    0    1
 -2       132       133       288      1251      1657      1658
 -1       414    8    0    1
 -2       132       288       287      1658      1659      1654
 -1       415    8    0    1
 -2       133       134       289      1252      1660      1661
 -1       416    8    0    1
 -2       133       289       288      1661      1662      1657
 -1       417    8    0    1
 -2       134       135       290      1253      1663      1664
 -1       418    8    0    1
 -2       134       290       289      1664      1665      1660
 -1       419    8    0    1
 -2       135       136       291      1254      1666      1667
 -1       420    8    0    1
 -2       290       135       291      1663      1667      1668
 -1       421    8    0    1
 -2       136       228       291      1479      1669      1666
 -1       422    8    0    1
 -2         2       137       292      1256      1670      1671
 -1       423    8    0    1
 -2       137       138       293      1257      1672      1673
 -1       424    8    0    1
 -2       138       139       294      1258      1674      1675
 -1       425    8    0    1
 -2       139       140       295      1259      1676      1677
 -1       426    8    0    1
 -2       140       141       296      1260      1678      1679
 -1       427    8    0    1
 -2       141       142       297      1261      1680      1681
 -1       428    8    0    1
 -2       142       143       298      1262      1682      1683
 -1       429    8    0    1
 -2       143       144       299      1263      1684      1685
 -1       430    8    0    1
 -2       144       145       300      1264      1686      1687
 -1       431    8    0    1
 -2       145       146       301      1265      1688      1689
 -1       432    8    0    1
 -2       146       147       302      1266      1690      1691
 -1       433    8    0    1
 -2       147       148       303      1267      1692      1693
 -1       434    8    0    1
 -2       148       149       304      1268      1694      1695
 -1       435    8    0    1
 -2       149       150       305      1269      1696      1697
 -1       436    8    0    1
 -2       150       151       306      1270      1698      1699
 -1       437    8    0    1
 -2       151       152       307      1271      1700      1701
 -1       438    8    0    1
 -2       152       153       308      1272      1702      1703
 -1       439    8    0    1
 -2       153       154       309      1273      1704      1705
 -1       440    8    0    1
 -2       154       155       310      1274      1706      1707
 -1       441    8    0    1
 -2       155       156       311      1275      1708      1709
 -1       442    8    0    1
 -2       156       157       312      1276      1710      1711
 -1       443    8    0    1
 -2       157         1       313      1277      1712      1713
 -1       444    8    0    1
 -2         1       158       314      1278      1714      1715
 -1       445    8    0    1
 -2       158       159       315      1279      1716      1717
 -1       446    8    0    1
 -2       159       160       316      1280      1718      1719
 -1       447    8    0    1
 -2       160       161       317      1281      1720      1721
 -1       448    8    0    1
 -2       161       162       318      1282      1722      1723
 -1       449    8    0    1
 -2       162       163       319      1283      1724      1725
 -1       450    8    0    1
 -2       163       164       320      1284      1726      1727
 -1       451    8    0    1
 -2       164         2       321      1285      1728      1729
 -1       452    8    0    1
 -2       295       140       296      1676      1679      1730
 -1       453    8    0    1
 -2       294       139       295      1674      1677      1731
 -1       454    8    0    1
 -2       120       121       276      1624      1732      1621
 -1       455    8    0    1
 -2       121       277       276      1626      1733      1732
 -1       456    8    0    1
 -2       292       137       293      1670      1673      1734
 -1       457    8    0    1
 -2       293       138       294      1672      1675      1735
 -1       458    8    0    1
 -2         2       292       321      1671      1736      1728
 -1       459    8    0    1
 -2       141       297       296      1681      1737      1678
 -1       460    8    0    1
 -2       142       298       297      1683      1738      1680
 -1       461    8    0    1
 -2       143       299       298      1685      1739      1682
 -1       462    8    0    1
 -2       144       300       299      1687      1740      1684
 -1       463    8    0    1
 -2       145       301       300      1689      1741      1686
 -1       464    8    0    1
 -2       146       302       301      1691      1742      1688
 -1       465    8    0    1
 -2       147       303       302      1693      1743      1690
 -1       466    8    0    1
 -2       148       304       303      1695      1744      1692
 -1       467    8    0    1
 -2       149       305       304      1697      1745      1694
 -1       468    8    0    1
 -2       150       306       305      1699      1746      1696
 -1       469    8    0    1
 -2       151       307       306      1701      1747      1698
 -1       470    8    0    1
 -2       152       308       307      1703      1748      1700
 -1       471    8    0    1
 -2       153       309       308      1705      1749      1702
 -1       472    8    0    1
 -2       154       310       309      1707      1750      1704
 -1       473    8    0    1
 -2       155       311       310      1709      1751      1706
 -1       474    8    0    1
 -2       156       312       311      1711      1752      1708
 -1       475    8    0    1
 -2       157       313       312      1713      1753      1710
 -1       476    8    0    1
 -2         1       314       313      1715      1754      1712
 -1       477    8    0    1
 -2       158       315       314      1717      1755      1714
 -1       478    8    0    1
 -2       159       316       315      1719      1756      1716
 -1       479    8    0    1
 -2       160       317       316      1721      1757      1718
 -1       480    8    0    1
 -2       161       318       317      1723      1758      1720
 -1       481    8    0    1
 -2       162       319       318      1725      1759      1722
 -1       482    8    0    1
 -2       163       320       319      1727      1760      1724
 -1       483    8    0    1
 -2       164       321       320      1729      1761      1726
 -1       484    8    0    1
 -2        23         7       165      1286      1288      1762
 -1       485    8    0    1
 -2       166       167       322      1294      1763      1764
 -1       486    8    0    1
 -2       165       166       323      1291      1765      1766
 -1       487    8    0    1
 -2       166       322       323      1764      1767      1765
 -1       488    8    0    1
 -2       168       169       324      1300      1768      1769
 -1       489    8    0    1
 -2       169       170       325      1303      1770      1771
 -1       490    8    0    1
 -2       169       325       324      1771      1772      1768
 -1       491    8    0    1
 -2       170       171       326      1306      1773      1774
 -1       492    8    0    1
 -2       170       326       325      1774      1775      1770
 -1       493    8    0    1
 -2       171       172       327      1309      1776      1777
 -1       494    8    0    1
 -2       171       327       326      1777      1778      1773
 -1       495    8    0    1
 -2       172       173       328      1312      1779      1780
 -1       496    8    0    1
 -2       172       328       327      1780      1781      1776
 -1       497    8    0    1
 -2       173       174       329      1315      1782      1783
 -1       498    8    0    1
 -2       173       329       328      1783      1784      1779
 -1       499    8    0    1
 -2       174       175       330      1318      1785      1786
 -1       500    8    0    1
 -2       174       330       329      1786      1787      1782
 -1       501    8    0    1
 -2       175       176       331      1321      1788      1789
 -1       502    8    0    1
 -2       175       331       330      1789      1790      1785
 -1       503    8    0    1
 -2       176       177       332      1324      1791      1792
 -1       504    8    0    1
 -2       176       332       331      1792      1793      1788
 -1       505    8    0    1
 -2       177       178       333      1327      1794      1795
 -1       506    8    0    1
 -2       177       333       332      1795      1796      1791
 -1       507    8    0    1
 -2       178       179       334      1330      1797      1798
 -1       508    8    0    1
 -2       178       334       333      1798      1799      1794
 -1       509    8    0    1
 -2       179       180       335      1333      1800      1801
 -1       510    8    0    1
 -2       334       179       335      1797      1801      1802
 -1       511    8    0    1
 -2       180       229       335      1482      1803      1800
 -1       512    8    0    1
 -2       181        23       165      1335      1762      1804
 -1       513    8    0    1
 -2       229       230       336      1485      1805      1806
 -1       514    8    0    1
 -2       229       336       335      1806      1807      1803
 -1       515    8    0    1
 -2       181       165       323      1804      1766      1808
 -1       516    8    0    1
 -2       183       182       337      1342      1809      1810
 -1       517    8    0    1
 -2       184       183       338      1345      1811      1812
 -1       518    8    0    1
 -2       183       337       338      1810      1813      1811
 -1       519    8    0    1
 -2       185       184       339      1348      1814      1815
 -1       520    8    0    1
 -2       184       338       339      1812      1816      1814
 -1       521    8    0    1
 -2       186       185       340      1351      1817      1818
 -1       522    8    0    1
 -2       185       339       340      1815      1819      1817
 -1       523    8    0    1
 -2       187       186       341      1354      1820      1821
 -1       524    8    0    1
 -2       186       340       341      1818      1822      1820
 -1       525    8    0    1
 -2       188       187       342      1357      1823      1824
 -1       526    8    0    1
 -2       187       341       342      1821      1825      1823
 -1       527    8    0    1
 -2       189       188       343      1360      1826      1827
 -1       528    8    0    1
 -2       188       342       343      1824      1828      1826
 -1       529    8    0    1
 -2       190       189       344      1363      1829      1830
 -1       530    8    0    1
 -2       189       343       344      1827      1831      1829
 -1       531    8    0    1
 -2       191       190       345      1366      1832      1833
 -1       532    8    0    1
 -2       190       344       345      1830      1834      1832
 -1       533    8    0    1
 -2       192       191       346      1369      1835      1836
 -1       534    8    0    1
 -2       191       345       346      1833      1837      1835
 -1       535    8    0    1
 -2       193       192       347      1372      1838      1839
 -1       536    8    0    1
 -2       192       346       347      1836      1840      1838
 -1       537    8    0    1
 -2       194       193       348      1375      1841      1842
 -1       538    8    0    1
 -2       193       347       348      1839      1843      1841
 -1       539    8    0    1
 -2       195       194       349      1378      1844      1845
 -1       540    8    0    1
 -2       194       348       349      1842      1846      1844
 -1       541    8    0    1
 -2       196       195       350      1381      1847      1848
 -1       542    8    0    1
 -2       195       349       350      1845      1849      1847
 -1       543    8    0    1
 -2       197       196       351      1384      1850      1851
 -1       544    8    0    1
 -2       196       350       351      1848      1852      1850
 -1       545    8    0    1
 -2       198       197       352      1387      1853      1854
 -1       546    8    0    1
 -2       197       351       352      1851      1855      1853
 -1       547    8    0    1
 -2       199       198       353      1390      1856      1857
 -1       548    8    0    1
 -2       198       352       353      1854      1858      1856
 -1       549    8    0    1
 -2       200       199       354      1393      1859      1860
 -1       550    8    0    1
 -2       199       353       354      1857      1861      1859
 -1       551    8    0    1
 -2       201       200       355      1396      1862      1863
 -1       552    8    0    1
 -2       200       354       355      1860      1864      1862
 -1       553    8    0    1
 -2       202       201       356      1399      1865      1866
 -1       554    8    0    1
 -2       201       355       356      1863      1867      1865
 -1       555    8    0    1
 -2       203       202       357      1402      1868      1869
 -1       556    8    0    1
 -2       202       356       357      1866      1870      1868
 -1       557    8    0    1
 -2       204       203       358      1405      1871      1872
 -1       558    8    0    1
 -2       203       357       358      1869      1873      1871
 -1       559    8    0    1
 -2       205       204       359      1408      1874      1875
 -1       560    8    0    1
 -2       204       358       359      1872      1876      1874
 -1       561    8    0    1
 -2       206       205       360      1411      1877      1878
 -1       562    8    0    1
 -2       205       359       360      1875      1879      1877
 -1       563    8    0    1
 -2       207       206       361      1414      1880      1881
 -1       564    8    0    1
 -2       206       360       361      1878      1882      1880
 -1       565    8    0    1
 -2       208       207       362      1417      1883      1884
 -1       566    8    0    1
 -2       207       361       362      1881      1885      1883
 -1       567    8    0    1
 -2       209       208       363      1420      1886      1887
 -1       568    8    0    1
 -2       208       362       363      1884      1888      1886
 -1       569    8    0    1
 -2       210       209       364      1423      1889      1890
 -1       570    8    0    1
 -2       209       363       364      1887      1891      1889
 -1       571    8    0    1
 -2       211       210       365      1426      1892      1893
 -1       572    8    0    1
 -2       210       364       365      1890      1894      1892
 -1       573    8    0    1
 -2       212       211       366      1429      1895      1896
 -1       574    8    0    1
 -2       211       365       366      1893      1897      1895
 -1       575    8    0    1
 -2       213       212       367      1432      1898      1899
 -1       576    8    0    1
 -2       212       366       367      1896      1900      1898
 -1       577    8    0    1
 -2       214       213       368      1435      1901      1902
 -1       578    8    0    1
 -2       213       367       368      1899      1903      1901
 -1       579    8    0    1
 -2       215       214       369      1438      1904      1905
 -1       580    8    0    1
 -2       214       368       369      1902      1906      1904
 -1       581    8    0    1
 -2       216       215       370      1441      1907      1908
 -1       582    8    0    1
 -2       215       369       370      1905      1909      1907
 -1       583    8    0    1
 -2       217       216       371      1444      1910      1911
 -1       584    8    0    1
 -2       216       370       371      1908      1912      1910
 -1       585    8    0    1
 -2       218       217       372      1447      1913      1914
 -1       586    8    0    1
 -2       217       371       372      1911      1915      1913
 -1       587    8    0    1
 -2       219       218       373      1450      1916      1917
 -1       588    8    0    1
 -2       218       372       373      1914      1918      1916
 -1       589    8    0    1
 -2       220       219       374      1453      1919      1920
 -1       590    8    0    1
 -2       219       373       374      1917      1921      1919
 -1       591    8    0    1
 -2       221       220       375      1456      1922      1923
 -1       592    8    0    1
 -2       220       374       375      1920      1924      1922
 -1       593    8    0    1
 -2       222       221       376      1459      1925      1926
 -1       594    8    0    1
 -2       221       375       376      1923      1927      1925
 -1       595    8    0    1
 -2       223       222       377      1462      1928      1929
 -1       596    8    0    1
 -2       222       376       377      1926      1930      1928
 -1       597    8    0    1
 -2       224       223       378      1465      1931      1932
 -1       598    8    0    1
 -2       223       377       378      1929      1933      1931
 -1       599    8    0    1
 -2       225       224       379      1468      1934      1935
 -1       600    8    0    1
 -2       224       378       379      1932      1936      1934
 -1       601    8    0    1
 -2       226       225       380      1471      1937      1938
 -1       602    8    0    1
 -2       225       379       380      1935      1939      1937
 -1       603    8    0    1
 -2       227       226       381      1474      1940      1941
 -1       604    8    0    1
 -2       226       380       381      1938      1942      1940
 -1       605    8    0    1
 -2       228       227       382      1477      1943      1944
 -1       606    8    0    1
 -2       291       228       382      1669      1944      1945
 -1       607    8    0    1
 -2       227       381       382      1941      1946      1943
 -1       608    8    0    1
 -2       230       231       383      1488      1947      1948
 -1       609    8    0    1
 -2       230       383       336      1948      1949      1805
 -1       610    8    0    1
 -2       231       232       384      1491      1950      1951
 -1       611    8    0    1
 -2       231       384       383      1951      1952      1947
 -1       612    8    0    1
 -2       232       233       385      1494      1953      1954
 -1       613    8    0    1
 -2       232       385       384      1954      1955      1950
 -1       614    8    0    1
 -2       233       234       386      1497      1956      1957
 -1       615    8    0    1
 -2       233       386       385      1957      1958      1953
 -1       616    8    0    1
 -2       234       235       387      1500      1959      1960
 -1       617    8    0    1
 -2       234       387       386      1960      1961      1956
 -1       618    8    0    1
 -2       235       236       388      1503      1962      1963
 -1       619    8    0    1
 -2       235       388       387      1963      1964      1959
 -1       620    8    0    1
 -2       236       237       389      1506      1965      1966
 -1       621    8    0    1
 -2       236       389       388      1966      1967      1962
 -1       622    8    0    1
 -2       237       238       390      1509      1968      1969
 -1       623    8    0    1
 -2       237       390       389      1969      1970      1965
 -1       624    8    0    1
 -2       238       239       391      1512      1971      1972
 -1       625    8    0    1
 -2       238       391       390      1972      1973      1968
 -1       626    8    0    1
 -2       239       240       392      1515      1974      1975
 -1       627    8    0    1
 -2       239       392       391      1975      1976      1971
 -1       628    8    0    1
 -2       240       241       393      1518      1977      1978
 -1       629    8    0    1
 -2       240       393       392      1978      1979      1974
 -1       630    8    0    1
 -2       241       242       394      1521      1980      1981
 -1       631    8    0    1
 -2       241       394       393      1981      1982      1977
 -1       632    8    0    1
 -2       242       243       395      1524      1983      1984
 -1       633    8    0    1
 -2       242       395       394      1984      1985      1980
 -1       634    8    0    1
 -2       243       244       396      1527      1986      1987
 -1       635    8    0    1
 -2       243       396       395      1987      1988      1983
 -1       636    8    0    1
 -2       244       245       397      1530      1989      1990
 -1       637    8    0    1
 -2       244       397       396      1990      1991      1986
 -1       638    8    0    1
 -2       245       246       398      1533      1992      1993
 -1       639    8    0    1
 -2       245       398       397      1993      1994      1989
 -1       640    8    0    1
 -2       246       247       399      1536      1995      1996
 -1       641    8    0    1
 -2       246       399       398      1996      1997      1992
 -1       642    8    0    1
 -2       247       248       400      1539      1998      1999
 -1       643    8    0    1
 -2       247       400       399      1999      2000      1995
 -1       644    8    0    1
 -2       248       249       401      1542      2001      2002
 -1       645    8    0    1
 -2       248       401       400      2002      2003      1998
 -1       646    8    0    1
 -2       249       250       402      1545      2004      2005
 -1       647    8    0    1
 -2       249       402       401      2005      2006      2001
 -1       648    8    0    1
 -2       250       251       403      1548      2007      2008
 -1       649    8    0    1
 -2       250       403       402      2008      2009      2004
 -1       650    8    0    1
 -2       251       252       404      1551      2010      2011
 -1       651    8    0    1
 -2       251       404       403      2011      2012      2007
 -1       652    8    0    1
 -2       252       253       405      1554      2013      2014
 -1       653    8    0    1
 -2       252       405       404      2014      2015      2010
 -1       654    8    0    1
 -2       253       254       406      1557      2016      2017
 -1       655    8    0    1
 -2       253       406       405      2017      2018      2013
 -1       656    8    0    1
 -2       254       255       407      1560      2019      2020
 -1       657    8    0    1
 -2       254       407       406      2020      2021      2016
 -1       658    8    0    1
 -2       255       256       408      1563      2022      2023
 -1       659    8    0    1
 -2       255       408       407      2023      2024      2019
 -1       660    8    0    1
 -2       256       257       409      1566      2025      2026
 -1       661    8    0    1
 -2       256       409       408      2026      2027      2022
 -1       662    8    0    1
 -2       257       258       410      1569      2028      2029
 -1       663    8    0    1
 -2       257       410       409      2029      2030      2025
 -1       664    8    0    1
 -2       258       259       411      1572      2031      2032
 -1       665    8    0    1
 -2       258       411       410      2032      2033      2028
 -1       666    8    0    1
 -2       259       260       412      1575      2034      2035
 -1       667    8    0    1
 -2       259       412       411      2035      2036      2031
 -1       668    8    0    1
 -2       260       261       413      1578      2037      2038
 -1       669    8    0    1
 -2       260       413       412      2038      2039      2034
 -1       670    8    0    1
 -2       261       262       414      1581      2040      2041
 -1       671    8    0    1
 -2       261       414       413      2041      2042      2037
 -1       672    8    0    1
 -2       262       263       415      1584      2043      2044
 -1       673    8    0    1
 -2       262       415       414      2044      2045      2040
 -1       674    8    0    1
 -2       263       264       416      1587      2046      2047
 -1       675    8    0    1
 -2       263       416       415      2047      2048      2043
 -1       676    8    0    1
 -2       264       265       417      1590      2049      2050
 -1       677    8    0    1
 -2       264       417       416      2050      2051      2046
 -1       678    8    0    1
 -2       265       266       418      1593      2052      2053
 -1       679    8    0    1
 -2       265       418       417      2053      2054      2049
 -1       680    8    0    1
 -2       266       267       419      1596      2055      2056
 -1       681    8    0    1
 -2       266       419       418      2056      2057      2052
 -1       682    8    0    1
 -2       267       268       420      1599      2058      2059
 -1       683    8    0    1
 -2       267       420       419      2059      2060      2055
 -1       684    8    0    1
 -2       268       269       421      1602      2061      2062
 -1       685    8    0    1
 -2       268       421       420      2062      2063      2058
 -1       686    8    0    1
 -2       269       270       422      1605      2064      2065
 -1       687    8    0    1
 -2       269       422       421      2065      2066      2061
 -1       688    8    0    1
 -2       270       271       423      1608      2067      2068
 -1       689    8    0    1
 -2       270       423       422      2068      2069      2064
 -1       690    8    0    1
 -2       271       272       424      1611      2070      2071
 -1       691    8    0    1
 -2       271       424       423      2071      2072      2067
 -1       692    8    0    1
 -2       272       273       425      1614      2073      2074
 -1       693    8    0    1
 -2       272       425       424      2074      2075      2070
 -1       694    8    0    1
 -2       273       274       426      1617      2076      2077
 -1       695    8    0    1
 -2       273       426       425      2077      2078      2073
 -1       696    8    0    1
 -2       274       275       427      1620      2079      2080
 -1       697    8    0    1
 -2       274       427       426      2080      2081      2076
 -1       698    8    0    1
 -2       275       276       428      1623      2082      2083
 -1       699    8    0    1
 -2       427       275       428      2079      2083      2084
 -1       700    8    0    1
 -2       276       277       428      1733      2085      2082
 -1       701    8    0    1
 -2       279       280       429      1635      2086      2087
 -1       702    8    0    1
 -2       278       279       430      1632      2088      2089
 -1       703    8    0    1
 -2       279       429       430      2087      2090      2088
 -1       704    8    0    1
 -2       277       278       431      1629      2091      2092
 -1       705    8    0    1
 -2       428       277       431      2085      2092      2093
 -1       706    8    0    1
 -2       278       430       431      2089      2094      2091
 -1       707    8    0    1
 -2       280       281       432      1638      2095      2096
 -1       708    8    0    1
 -2       280       432       429      2096      2097      2086
 -1       709    8    0    1
 -2       281       282       433      1641      2098      2099
 -1       710    8    0    1
 -2       281       433       432      2099      2100      2095
 -1       711    8    0    1
 -2       282       283       434      1644      2101      2102
 -1       712    8    0    1
 -2       282       434       433      2102      2103      2098
 -1       713    8    0    1
 -2       283       284       435      1647      2104      2105
 -1       714    8    0    1
 -2       283       435       434      2105      2106      2101
 -1       715    8    0    1
 -2       284       285       436      1650      2107      2108
 -1       716    8    0    1
 -2       284       436       435      2108      2109      2104
 -1       717    8    0    1
 -2       285       286       437      1653      2110      2111
 -1       718    8    0    1
 -2       285       437       436      2111      2112      2107
 -1       719    8    0    1
 -2       286       287       438      1656      2113      2114
 -1       720    8    0    1
 -2       286       438       437      2114      2115      2110
 -1       721    8    0    1
 -2       287       288       439      1659      2116      2117
 -1       722    8    0    1
 -2       287       439       438      2117      2118      2113
 -1       723    8    0    1
 -2       288       289       440      1662      2119      2120
 -1       724    8    0    1
 -2       288       440       439      2120      2121      2116
 -1       725    8    0    1
 -2       289       290       441      1665      2122      2123
 -1       726    8    0    1
 -2       289       441       440      2123      2124      2119
 -1       727    8    0    1
 -2       293       294       442      1735      2125      2126
 -1       728    8    0    1
 -2       321       292       443      1736      2127      2128
 -1       729    8    0    1
 -2       292       293       444      1734      2129      2130
 -1       730    8    0    1
 -2       294       295       445      1731      2131      2132
 -1       731    8    0    1
 -2       294       445       442      2132      2133      2125
 -1       732    8    0    1
 -2       295       296       446      1730      2134      2135
 -1       733    8    0    1
 -2       167       168       447      1297      2136      2137
 -1       734    8    0    1
 -2       322       167       447      1763      2137      2138
 -1       735    8    0    1
 -2       168       324       447      1769      2139      2136
 -1       736    8    0    1
 -2       297       298       448      1738      2140      2141
 -1       737    8    0    1
 -2       298       299       449      1739      2142      2143
 -1       738    8    0    1
 -2       298       449       448      2143      2144      2140
 -1       739    8    0    1
 -2       299       300       450      1740      2145      2146
 -1       740    8    0    1
 -2       300       301       451      1741      2147      2148
 -1       741    8    0    1
 -2       301       302       452      1742      2149      2150
 -1       742    8    0    1
 -2       301       452       451      2150      2151      2147
 -1       743    8    0    1
 -2       302       303       453      1743      2152      2153
 -1       744    8    0    1
 -2       303       304       454      1744      2154      2155
 -1       745    8    0    1
 -2       304       305       455      1745      2156      2157
 -1       746    8    0    1
 -2       305       306       456      1746      2158      2159
 -1       747    8    0    1
 -2       306       307       457      1747      2160      2161
 -1       748    8    0    1
 -2       307       308       458      1748      2162      2163
 -1       749    8    0    1
 -2       308       309       459      1749      2164      2165
 -1       750    8    0    1
 -2       309       310       460      1750      2166      2167
 -1       751    8    0    1
 -2       310       311       461      1751      2168      2169
 -1       752    8    0    1
 -2       310       461       460      2169      2170      2166
 -1       753    8    0    1
 -2       311       312       462      1752      2171      2172
 -1       754    8    0    1
 -2       312       313       463      1753      2173      2174
 -1       755    8    0    1
 -2       313       314       464      1754      2175      2176
 -1       756    8    0    1
 -2       314       315       465      1755      2177      2178
 -1       757    8    0    1
 -2       314       465       464      2178      2179      2175
 -1       758    8    0    1
 -2       315       316       466      1756      2180      2181
 -1       759    8    0    1
 -2       316       317       467      1757      2182      2183
 -1       760    8    0    1
 -2       316       467       466      2183      2184      2180
 -1       761    8    0    1
 -2       317       318       468      1758      2185      2186
 -1       762    8    0    1
 -2       318       319       469      1759      2187      2188
 -1       763    8    0    1
 -2       318       469       468      2188      2189      2185
 -1       764    8    0    1
 -2       319       320       470      1760      2190      2191
 -1       765    8    0    1
 -2       320       321       471      1761      2192      2193
 -1       766    8    0    1
 -2       320       471       470      2193      2194      2190
 -1       767    8    0    1
 -2       296       297       472      1737      2195      2196
 -1       768    8    0    1
 -2       445       295       446      2131      2135      2197
 -1       769    8    0    1
 -2       181       323       182      1808      2198      1339
 -1       770    8    0    1
 -2       297       448       472      2141      2199      2195
 -1       771    8    0    1
 -2       337       182       323      1809      2198      2200
 -1       772    8    0    1
 -2       444       293       442      2129      2126      2201
 -1       773    8    0    1
 -2       443       292       444      2127      2130      2202
 -1       774    8    0    1
 -2       441       290       291      2122      1668      2203
 -1       775    8    0    1
 -2       321       443       471      2128      2204      2192
 -1       776    8    0    1
 -2       446       296       472      2134      2196      2205
 -1       777    8    0    1
 -2       469       319       470      2187      2191      2206
 -1       778    8    0    1
 -2       467       317       468      2182      2186      2207
 -1       779    8    0    1
 -2       465       315       466      2177      2181      2208
 -1       780    8    0    1
 -2       463       313       464      2173      2176      2209
 -1       781    8    0    1
 -2       461       311       462      2168      2172      2210
 -1       782    8    0    1
 -2       459       309       460      2164      2167      2211
 -1       783    8    0    1
 -2       458       308       459      2162      2165      2212
 -1       784    8    0    1
 -2       457       307       458      2160      2163      2213
 -1       785    8    0    1
 -2       456       306       457      2158      2161      2214
 -1       786    8    0    1
 -2       455       305       456      2156      2159      2215
 -1       787    8    0    1
 -2       454       304       455      2154      2157      2216
 -1       788    8    0    1
 -2       452       302       453      2149      2153      2217
 -1       789    8    0    1
 -2       299       450       473      2146      2218      2219
 -1       790    8    0    1
 -2       299       473       449      2219      2220      2142
 -1       791    8    0    1
 -2       450       300       451      2145      2148      2221
 -1       792    8    0    1
 -2       453       303       454      2152      2155      2222
 -1       793    8    0    1
 -2       462       312       463      2171      2174      2223
 -1       794    8    0    1
 -2       336       383       474      1949      2224      2225
 -1       795    8    0    1
 -2       325       326       475      1775      2226      2227
 -1       796    8    0    1
 -2       324       325       476      1772      2228      2229
 -1       797    8    0    1
 -2       325       475       476      2227      2230      2228
 -1       798    8    0    1
 -2       327       328       477      1781      2231      2232
 -1       799    8    0    1
 -2       328       329       478      1784      2233      2234
 -1       800    8    0    1
 -2       328       478       477      2234      2235      2231
 -1       801    8    0    1
 -2       329       330       479      1787      2236      2237
 -1       802    8    0    1
 -2       329       479       478      2237      2238      2233
 -1       803    8    0    1
 -2       330       331       480      1790      2239      2240
 -1       804    8    0    1
 -2       330       480       479      2240      2241      2236
 -1       805    8    0    1
 -2       331       332       481      1793      2242      2243
 -1       806    8    0    1
 -2       331       481       480      2243      2244      2239
 -1       807    8    0    1
 -2       332       333       482      1796      2245      2246
 -1       808    8    0    1
 -2       332       482       481      2246      2247      2242
 -1       809    8    0    1
 -2       383       384       483      1952      2248      2249
 -1       810    8    0    1
 -2       383       483       474      2249      2250      2224
 -1       811    8    0    1
 -2       338       337       484      1813      2251      2252
 -1       812    8    0    1
 -2       472       448       485      2199      2253      2254
 -1       813    8    0    1
 -2       339       338       486      1816      2255      2256
 -1       814    8    0    1
 -2       338       484       486      2252      2257      2255
 -1       815    8    0    1
 -2       340       339       487      1819      2258      2259
 -1       816    8    0    1
 -2       339       486       487      2256      2260      2258
 -1       817    8    0    1
 -2       341       340       488      1822      2261      2262
 -1       818    8    0    1
 -2       340       487       488      2259      2263      2261
 -1       819    8    0    1
 -2       342       341       489      1825      2264      2265
 -1       820    8    0    1
 -2       341       488       489      2262      2266      2264
 -1       821    8    0    1
 -2       343       342       490      1828      2267      2268
 -1       822    8    0    1
 -2       342       489       490      2265      2269      2267
 -1       823    8    0    1
 -2       344       343       491      1831      2270      2271
 -1       824    8    0    1
 -2       343       490       491      2268      2272      2270
 -1       825    8    0    1
 -2       345       344       492      1834      2273      2274
 -1       826    8    0    1
 -2       344       491       492      2271      2275      2273
 -1       827    8    0    1
 -2       346       345       493      1837      2276      2277
 -1       828    8    0    1
 -2       345       492       493      2274      2278      2276
 -1       829    8    0    1
 -2       347       346       494      1840      2279      2280
 -1       830    8    0    1
 -2       346       493       494      2277      2281      2279
 -1       831    8    0    1
 -2       348       347       495      1843      2282      2283
 -1       832    8    0    1
 -2       347       494       495      2280      2284      2282
 -1       833    8    0    1
 -2       349       348       496      1846      2285      2286
 -1       834    8    0    1
 -2       348       495       496      2283      2287      2285
 -1       835    8    0    1
 -2       350       349       497      1849      2288      2289
 -1       836    8    0    1
 -2       349       496       497      2286      2290      2288
 -1       837    8    0    1
 -2       351       350       498      1852      2291      2292
 -1       838    8    0    1
 -2       350       497       498      2289      2293      2291
 -1       839    8    0    1
 -2       352       351       499      1855      2294      2295
 -1       840    8    0    1
 -2       351       498       499      2292      2296      2294
 -1       841    8    0    1
 -2       353       352       500      1858      2297      2298
 -1       842    8    0    1
 -2       352       499       500      2295      2299      2297
 -1       843    8    0    1
 -2       354       353       501      1861      2300      2301
 -1       844    8    0    1
 -2       353       500       501      2298      2302      2300
 -1       845    8    0    1
 -2       355       354       502      1864      2303      2304
 -1       846    8    0    1
 -2       354       501       502      2301      2305      2303
 -1       847    8    0    1
 -2       356       355       503      1867      2306      2307
 -1       848    8    0    1
 -2       355       502       503      2304      2308      2306
 -1       849    8    0    1
 -2       357       356       504      1870      2309      2310
 -1       850    8    0    1
 -2       356       503       504      2307      2311      2309
 -1       851    8    0    1
 -2       358       357       505      1873      2312      2313
 -1       852    8    0    1
 -2       357       504       505      2310      2314      2312
 -1       853    8    0    1
 -2       359       358       506      1876      2315      2316
 -1       854    8    0    1
 -2       358       505       506      2313      2317      2315
 -1       855    8    0    1
 -2       360       359       507      1879      2318      2319
 -1       856    8    0    1
 -2       359       506       507      2316      2320      2318
 -1       857    8    0    1
 -2       361       360       508      1882      2321      2322
 -1       858    8    0    1
 -2       360       507       508      2319      2323      2321
 -1       859    8    0    1
 -2       362       361       509      1885      2324      2325
 -1       860    8    0    1
 -2       361       508       509      2322      2326      2324
 -1       861    8    0    1
 -2       363       362       510      1888      2327      2328
 -1       862    8    0    1
 -2       362       509       510      2325      2329      2327
 -1       863    8    0    1
 -2       364       363       511      1891      2330      2331
 -1       864    8    0    1
 -2       363       510       511      2328      2332      2330
 -1       865    8    0    1
 -2       365       364       512      1894      2333      2334
 -1       866    8    0    1
 -2       364       511       512      2331      2335      2333
 -1       867    8    0    1
 -2       366       365       513      1897      2336      2337
 -1       868    8    0    1
 -2       365       512       513      2334      2338      2336
 -1       869    8    0    1
 -2       367       366       514      1900      2339      2340
 -1       870    8    0    1
 -2       366       513       514      2337      2341      2339
 -1       871    8    0    1
 -2       368       367       515      1903      2342      2343
 -1       872    8    0    1
 -2       367       514       515      2340      2344      2342
 -1       873    8    0    1
 -2       369       368       516      1906      2345      2346
 -1       874    8    0    1
 -2       368       515       516      2343      2347      2345
 -1       875    8    0    1
 -2       370       369       517      1909      2348      2349
 -1       876    8    0    1
 -2       369       516       517      2346      2350      2348
 -1       877    8    0    1
 -2       371       370       518      1912      2351      2352
 -1       878    8    0    1
 -2       370       517       518      2349      2353      2351
 -1       879    8    0    1
 -2       372       371       519      1915      2354      2355
 -1       880    8    0    1
 -2       371       518       519      2352      2356      2354
 -1       881    8    0    1
 -2       373       372       520      1918      2357      2358
 -1       882    8    0    1
 -2       372       519       520      2355      2359      2357
 -1       883    8    0    1
 -2       374       373       521      1921      2360      2361
 -1       884    8    0    1
 -2       373       520       521      2358      2362      2360
 -1       885    8    0    1
 -2       375       374       522      1924      2363      2364
 -1       886    8    0    1
 -2       374       521       522      2361      2365      2363
 -1       887    8    0    1
 -2       376       375       523      1927      2366      2367
 -1       888    8    0    1
 -2       375       522       523      2364      2368      2366
 -1       889    8    0    1
 -2       377       376       524      1930      2369      2370
 -1       890    8    0    1
 -2       376       523       524      2367      2371      2369
 -1       891    8    0    1
 -2       378       377       525      1933      2372      2373
 -1       892    8    0    1
 -2       377       524       525      2370      2374      2372
 -1       893    8    0    1
 -2       379       378       526      1936      2375      2376
 -1       894    8    0    1
 -2       378       525       526      2373      2377      2375
 -1       895    8    0    1
 -2       380       379       527      1939      2378      2379
 -1       896    8    0    1
 -2       379       526       527      2376      2380      2378
 -1       897    8    0    1
 -2       381       380       528      1942      2381      2382
 -1       898    8    0    1
 -2       380       527       528      2379      2383      2381
 -1       899    8    0    1
 -2       385       386       529      1958      2384      2385
 -1       900    8    0    1
 -2       386       387       530      1961      2386      2387
 -1       901    8    0    1
 -2       386       530       529      2387      2388      2384
 -1       902    8    0    1
 -2       387       388       531      1964      2389      2390
 -1       903    8    0    1
 -2       387       531       530      2390      2391      2386
 -1       904    8    0    1
 -2       388       389       532      1967      2392      2393
 -1       905    8    0    1
 -2       388       532       531      2393      2394      2389
 -1       906    8    0    1
 -2       389       390       533      1970      2395      2396
 -1       907    8    0    1
 -2       389       533       532      2396      2397      2392
 -1       908    8    0    1
 -2       390       391       534      1973      2398      2399
 -1       909    8    0    1
 -2       390       534       533      2399      2400      2395
 -1       910    8    0    1
 -2       391       392       535      1976      2401      2402
 -1       911    8    0    1
 -2       391       535       534      2402      2403      2398
 -1       912    8    0    1
 -2       392       393       536      1979      2404      2405
 -1       913    8    0    1
 -2       392       536       535      2405      2406      2401
 -1       914    8    0    1
 -2       393       394       537      1982      2407      2408
 -1       915    8    0    1
 -2       393       537       536      2408      2409      2404
 -1       916    8    0    1
 -2       394       395       538      1985      2410      2411
 -1       917    8    0    1
 -2       394       538       537      2411      2412      2407
 -1       918    8    0    1
 -2       395       396       539      1988      2413      2414
 -1       919    8    0    1
 -2       395       539       538      2414      2415      2410
 -1       920    8    0    1
 -2       396       397       540      1991      2416      2417
 -1       921    8    0    1
 -2       396       540       539      2417      2418      2413
 -1       922    8    0    1
 -2       397       398       541      1994      2419      2420
 -1       923    8    0    1
 -2       397       541       540      2420      2421      2416
 -1       924    8    0    1
 -2       398       399       542      1997      2422      2423
 -1       925    8    0    1
 -2       398       542       541      2423      2424      2419
 -1       926    8    0    1
 -2       399       400       543      2000      2425      2426
 -1       927    8    0    1
 -2       399       543       542      2426      2427      2422
 -1       928    8    0    1
 -2       400       401       544      2003      2428      2429
 -1       929    8    0    1
 -2       400       544       543      2429      2430      2425
 -1       930    8    0    1
 -2       401       402       545      2006      2431      2432
 -1       931    8    0    1
 -2       401       545       544      2432      2433      2428
 -1       932    8    0    1
 -2       402       403       546      2009      2434      2435
 -1       933    8    0    1
 -2       402       546       545      2435      2436      2431
 -1       934    8    0    1
 -2       403       404       547      2012      2437      2438
 -1       935    8    0    1
 -2       403       547       546      2438      2439      2434
 -1       936    8    0    1
 -2       404       405       548      2015      2440      2441
 -1       937    8    0    1
 -2       404       548       547      2441      2442      2437
 -1       938    8    0    1
 -2       405       406       549      2018      2443      2444
 -1       939    8    0    1
 -2       405       549       548      2444      2445      2440
 -1       940    8    0    1
 -2       406       407       550      2021      2446      2447
 -1       941    8    0    1
 -2       406       550       549      2447      2448      2443
 -1       942    8    0    1
 -2       407       408       551      2024      2449      2450
 -1       943    8    0    1
 -2       407       551       550      2450      2451      2446
 -1       944    8    0    1
 -2       408       409       552      2027      2452      2453
 -1       945    8    0    1
 -2       408       552       551      2453      2454      2449
 -1       946    8    0    1
 -2       409       410       553      2030      2455      2456
 -1       947    8    0    1
 -2       409       553       552      2456      2457      2452
 -1       948    8    0    1
 -2       410       411       554      2033      2458      2459
 -1       949    8    0    1
 -2       410       554       553      2459      2460      2455
 -1       950    8    0    1
 -2       411       412       555      2036      2461      2462
 -1       951    8    0    1
 -2       411       555       554      2462      2463      2458
 -1       952    8    0    1
 -2       412       413       556      2039      2464      2465
 -1       953    8    0    1
 -2       412       556       555      2465      2466      2461
 -1       954    8    0    1
 -2       413       414       557      2042      2467      2468
 -1       955    8    0    1
 -2       413       557       556      2468      2469      2464
 -1       956    8    0    1
 -2       414       415       558      2045      2470      2471
 -1       957    8    0    1
 -2       414       558       557      2471      2472      2467
 -1       958    8    0    1
 -2       415       416       559      2048      2473      2474
 -1       959    8    0    1
 -2       415       559       558      2474      2475      2470
 -1       960    8    0    1
 -2       416       417       560      2051      2476      2477
 -1       961    8    0    1
 -2       416       560       559      2477      2478      2473
 -1       962    8    0    1
 -2       417       418       561      2054      2479      2480
 -1       963    8    0    1
 -2       417       561       560      2480      2481      2476
 -1       964    8    0    1
 -2       418       419       562      2057      2482      2483
 -1       965    8    0    1
 -2       418       562       561      2483      2484      2479
 -1       966    8    0    1
 -2       419       420       563      2060      2485      2486
 -1       967    8    0    1
 -2       419       563       562      2486      2487      2482
 -1       968    8    0    1
 -2       420       421       564      2063      2488      2489
 -1       969    8    0    1
 -2       420       564       563      2489      2490      2485
 -1       970    8    0    1
 -2       421       422       565      2066      2491      2492
 -1       971    8    0    1
 -2       421       565       564      2492      2493      2488
 -1       972    8    0    1
 -2       422       423       566      2069      2494      2495
 -1       973    8    0    1
 -2       422       566       565      2495      2496      2491
 -1       974    8    0    1
 -2       423       424       567      2072      2497      2498
 -1       975    8    0    1
 -2       423       567       566      2498      2499      2494
 -1       976    8    0    1
 -2       424       425       568      2075      2500      2501
 -1       977    8    0    1
 -2       424       568       567      2501      2502      2497
 -1       978    8    0    1
 -2       425       426       569      2078      2503      2504
 -1       979    8    0    1
 -2       425       569       568      2504      2505      2500
 -1       980    8    0    1
 -2       426       427       570      2081      2506      2507
 -1       981    8    0    1
 -2       426       570       569      2507      2508      2503
 -1       982    8    0    1
 -2       427       428       431      2084      2093      2509
 -1       983    8    0    1
 -2       432       433       571      2100      2510      2511
 -1       984    8    0    1
 -2       433       434       572      2103      2512      2513
 -1       985    8    0    1
 -2       433       572       571      2513      2514      2510
 -1       986    8    0    1
 -2       430       429       573      2090      2515      2516
 -1       987    8    0    1
 -2       429       432       574      2097      2517      2518
 -1       988    8    0    1
 -2       573       429       574      2515      2518      2519
 -1       989    8    0    1
 -2       432       571       574      2511      2520      2517
 -1       990    8    0    1
 -2       434       435       575      2106      2521      2522
 -1       991    8    0    1
 -2       434       575       572      2522      2523      2512
 -1       992    8    0    1
 -2       435       436       576      2109      2524      2525
 -1       993    8    0    1
 -2       435       576       575      2525      2526      2521
 -1       994    8    0    1
 -2       436       437       577      2112      2527      2528
 -1       995    8    0    1
 -2       436       577       576      2528      2529      2524
 -1       996    8    0    1
 -2       437       438       578      2115      2530      2531
 -1       997    8    0    1
 -2       437       578       577      2531      2532      2527
 -1       998    8    0    1
 -2       438       439       579      2118      2533      2534
 -1       999    8    0    1
 -2       438       579       578      2534      2535      2530
 -1      1000    8    0    1
 -2       439       440       580      2121      2536      2537
 -1      1001    8    0    1
 -2       439       580       579      2537      2538      2533
 -1      1002    8    0    1
 -2       440       441       581      2124      2539      2540
 -1      1003    8    0    1
 -2       440       581       580      2540      2541      2536
 -1      1004    8    0    1
 -2       443       444       582      2202      2542      2543
 -1      1005    8    0    1
 -2       444       442       583      2201      2544      2545
 -1      1006    8    0    1
 -2       471       443       584      2204      2546      2547
 -1      1007    8    0    1
 -2       443       582       584      2543      2548      2546
 -1      1008    8    0    1
 -2       384       385       585      1955      2549      2550
 -1      1009    8    0    1
 -2       384       585       483      2550      2551      2248
 -1      1010    8    0    1
 -2       441       291       382      2203      1945      2552
 -1      1011    8    0    1
 -2       442       445       586      2133      2553      2554
 -1      1012    8    0    1
 -2       446       472       587      2205      2555      2556
 -1      1013    8    0    1
 -2       463       464       588      2209      2557      2558
 -1      1014    8    0    1
 -2       459       460       589      2211      2559      2560
 -1      1015    8    0    1
 -2       326       327       590      1778      2561      2562
 -1      1016    8    0    1
 -2       326       590       475      2562      2563      2226
 -1      1017    8    0    1
 -2       450       451       591      2221      2564      2565
 -1      1018    8    0    1
 -2       448       449       592      2144      2566      2567
 -1      1019    8    0    1
 -2       448       592       485      2567      2568      2253
 -1      1020    8    0    1
 -2       453       454       593      2222      2569      2570
 -1      1021    8    0    1
 -2       451       452       594      2151      2571      2572
 -1      1022    8    0    1
 -2       462       463       595      2223      2573      2574
 -1      1023    8    0    1
 -2       463       588       595      2558      2575      2573
 -1      1024    8    0    1
 -2       452       453       596      2217      2576      2577
 -1      1025    8    0    1
 -2       454       455       597      2216      2578      2579
 -1      1026    8    0    1
 -2       454       597       593      2579      2580      2569
 -1      1027    8    0    1
 -2       455       456       598      2215      2581      2582
 -1      1028    8    0    1
 -2       456       457       599      2214      2583      2584
 -1      1029    8    0    1
 -2       457       458       600      2213      2585      2586
 -1      1030    8    0    1
 -2       458       459       601      2212      2587      2588
 -1      1031    8    0    1
 -2       458       601       600      2588      2589      2585
 -1      1032    8    0    1
 -2       460       461       602      2170      2590      2591
 -1      1033    8    0    1
 -2       461       462       603      2210      2592      2593
 -1      1034    8    0    1
 -2       464       465       604      2179      2594      2595
 -1      1035    8    0    1
 -2       465       466       605      2208      2596      2597
 -1      1036    8    0    1
 -2       466       467       606      2184      2598      2599
 -1      1037    8    0    1
 -2       467       468       607      2207      2600      2601
 -1      1038    8    0    1
 -2       468       469       608      2189      2602      2603
 -1      1039    8    0    1
 -2       469       470       609      2206      2604      2605
 -1      1040    8    0    1
 -2       470       471       610      2194      2606      2607
 -1      1041    8    0    1
 -2       609       470       610      2604      2607      2608
 -1      1042    8    0    1
 -2       471       584       610      2547      2609      2606
 -1      1043    8    0    1
 -2       337       323       611      2200      2610      2611
 -1      1044    8    0    1
 -2       484       337       611      2251      2611      2612
 -1      1045    8    0    1
 -2       323       322       611      1767      2613      2610
 -1      1046    8    0    1
 -2       335       336       612      1807      2614      2615
 -1      1047    8    0    1
 -2       334       335       612      1802      2615      2616
 -1      1048    8    0    1
 -2       336       474       612      2225      2617      2614
 -1      1049    8    0    1
 -2       445       446       613      2197      2618      2619
 -1      1050    8    0    1
 -2       327       477       590      2232      2620      2561
 -1      1051    8    0    1
 -2       324       476       614      2229      2621      2622
 -1      1052    8    0    1
 -2       324       614       447      2622      2623      2139
 -1      1053    8    0    1
 -2       441       382       615      2552      2624      2625
 -1      1054    8    0    1
 -2       581       441       615      2539      2625      2626
 -1      1055    8    0    1
 -2       382       381       615      1946      2627      2624
 -1      1056    8    0    1
 -2       333       334       612      1799      2616      2628
 -1      1057    8    0    1
 -2       613       446       587      2618      2556      2629
 -1      1058    8    0    1
 -2       607       468       608      2600      2603      2630
 -1      1059    8    0    1
 -2       606       467       607      2598      2601      2631
 -1      1060    8    0    1
 -2       472       485       587      2254      2632      2555
 -1      1061    8    0    1
 -2       381       528       615      2382      2633      2627
 -1      1062    8    0    1
 -2       605       466       606      2596      2599      2634
 -1      1063    8    0    1
 -2       604       465       605      2594      2597      2635
 -1      1064    8    0    1
 -2       442       586       583      2554      2636      2544
 -1      1065    8    0    1
 -2       333       612       482      2628      2637      2245
 -1      1066    8    0    1
 -2       603       462       616      2592      2638      2639
 -1      1067    8    0    1
 -2       462       595       616      2574      2640      2638
 -1      1068    8    0    1
 -2       427       431       570      2509      2641      2506
 -1      1069    8    0    1
 -2       431       430       570      2094      2642      2641
 -1      1070    8    0    1
 -2       601       459       589      2587      2560      2643
 -1      1071    8    0    1
 -2       582       444       617      2542      2644      2645
 -1      1072    8    0    1
 -2       444       583       617      2545      2646      2644
 -1      1073    8    0    1
 -2       460       602       589      2591      2647      2559
 -1      1074    8    0    1
 -2       585       385       529      2549      2385      2648
 -1      1075    8    0    1
 -2       599       457       600      2583      2586      2649
 -1      1076    8    0    1
 -2       586       445       613      2553      2619      2650
 -1      1077    8    0    1
 -2       597       455       598      2578      2582      2651
 -1      1078    8    0    1
 -2       611       322       447      2613      2138      2652
 -1      1079    8    0    1
 -2       608       469       609      2602      2605      2653
 -1      1080    8    0    1
 -2       452       596       594      2577      2654      2571
 -1      1081    8    0    1
 -2       592       449       618      2566      2655      2656
 -1      1082    8    0    1
 -2       449       473       618      2220      2657      2655
 -1      1083    8    0    1
 -2       588       464       604      2557      2595      2658
 -1      1084    8    0    1
 -2       453       593       619      2570      2659      2660
 -1      1085    8    0    1
 -2       453       619       596      2660      2661      2576
 -1      1086    8    0    1
 -2       473       450       620      2218      2662      2663
 -1      1087    8    0    1
 -2       450       591       620      2565      2664      2662
 -1      1088    8    0    1
 -2       591       451       594      2564      2572      2665
 -1      1089    8    0    1
 -2       598       456       599      2581      2584      2666
 -1      1090    8    0    1
 -2       602       461       603      2590      2593      2667
 -1      1091    8    0    1
 -2       570       430       573      2642      2516      2668
 -1      1092    8    0    1
 -2       605       606       621      2634      2669      2670
 -1      1093    8    0    1
 -2       478       479       622      2238      2671      2672
 -1      1094    8    0    1
 -2       477       478       623      2235      2673      2674
 -1      1095    8    0    1
 -2       480       481       624      2244      2675      2676
 -1      1096    8    0    1
 -2       481       482       625      2247      2677      2678
 -1      1097    8    0    1
 -2       481       625       624      2678      2679      2675
 -1      1098    8    0    1
 -2       474       483       626      2250      2680      2681
 -1      1099    8    0    1
 -2       581       615       627      2626      2682      2683
 -1      1100    8    0    1
 -2       615       528       627      2633      2684      2682
 -1      1101    8    0    1
 -2       612       474       482      2617      2685      2637
 -1      1102    8    0    1
 -2       487       486       628      2260      2686      2687
 -1      1103    8    0    1
 -2       488       487       629      2263      2688      2689
 -1      1104    8    0    1
 -2       487       628       629      2687      2690      2688
 -1      1105    8    0    1
 -2       489       488       630      2266      2691      2692
 -1      1106    8    0    1
 -2       488       629       630      2689      2693      2691
 -1      1107    8    0    1
 -2       490       489       631      2269      2694      2695
 -1      1108    8    0    1
 -2       489       630       631      2692      2696      2694
 -1      1109    8    0    1
 -2       491       490       632      2272      2697      2698
 -1      1110    8    0    1
 -2       490       631       632      2695      2699      2697
 -1      1111    8    0    1
 -2       492       491       633      2275      2700      2701
 -1      1112    8    0    1
 -2       491       632       633      2698      2702      2700
 -1      1113    8    0    1
 -2       493       492       634      2278      2703      2704
 -1      1114    8    0    1
 -2       492       633       634      2701      2705      2703
 -1      1115    8    0    1
 -2       494       493       635      2281      2706      2707
 -1      1116    8    0    1
 -2       493       634       635      2704      2708      2706
 -1      1117    8    0    1
 -2       495       494       636      2284      2709      2710
 -1      1118    8    0    1
 -2       494       635       636      2707      2711      2709
 -1      1119    8    0    1
 -2       496       495       637      2287      2712      2713
 -1      1120    8    0    1
 -2       495       636       637      2710      2714      2712
 -1      1121    8    0    1
 -2       497       496       638      2290      2715      2716
 -1      1122    8    0    1
 -2       496       637       638      2713      2717      2715
 -1      1123    8    0    1
 -2       498       497       639      2293      2718      2719
 -1      1124    8    0    1
 -2       497       638       639      2716      2720      2718
 -1      1125    8    0    1
 -2       499       498       640      2296      2721      2722
 -1      1126    8    0    1
 -2       498       639       640      2719      2723      2721
 -1      1127    8    0    1
 -2       500       499       641      2299      2724      2725
 -1      1128    8    0    1
 -2       499       640       641      2722      2726      2724
 -1      1129    8    0    1
 -2       501       500       642      2302      2727      2728
 -1      1130    8    0    1
 -2       500       641       642      2725      2729      2727
 -1      1131    8    0    1
 -2       502       501       643      2305      2730      2731
 -1      1132    8    0    1
 -2       501       642       643      2728      2732      2730
 -1      1133    8    0    1
 -2       503       502       644      2308      2733      2734
 -1      1134    8    0    1
 -2       502       643       644      2731      2735      2733
 -1      1135    8    0    1
 -2       504       503       645      2311      2736      2737
 -1      1136    8    0    1
 -2       503       644       645      2734      2738      2736
 -1      1137    8    0    1
 -2       505       504       646      2314      2739      2740
 -1      1138    8    0    1
 -2       504       645       646      2737      2741      2739
 -1      1139    8    0    1
 -2       506       505       647      2317      2742      2743
 -1      1140    8    0    1
 -2       505       646       647      2740      2744      2742
 -1      1141    8    0    1
 -2       507       506       648      2320      2745      2746
 -1      1142    8    0    1
 -2       506       647       648      2743      2747      2745
 -1      1143    8    0    1
 -2       508       507       649      2323      2748      2749
 -1      1144    8    0    1
 -2       507       648       649      2746      2750      2748
 -1      1145    8    0    1
 -2       509       508       650      2326      2751      2752
 -1      1146    8    0    1
 -2       508       649       650      2749      2753      2751
 -1      1147    8    0    1
 -2       510       509       651      2329      2754      2755
 -1      1148    8    0    1
 -2       509       650       651      2752      2756      2754
 -1      1149    8    0    1
 -2       511       510       652      2332      2757      2758
 -1      1150    8    0    1
 -2       510       651       652      2755      2759      2757
 -1      1151    8    0    1
 -2       512       511       653      2335      2760      2761
 -1      1152    8    0    1
 -2       511       652       653      2758      2762      2760
 -1      1153    8    0    1
 -2       513       512       654      2338      2763      2764
 -1      1154    8    0    1
 -2       512       653       654      2761      2765      2763
 -1      1155    8    0    1
 -2       514       513       655      2341      2766      2767
 -1      1156    8    0    1
 -2       513       654       655      2764      2768      2766
 -1      1157    8    0    1
 -2       515       514       656      2344      2769      2770
 -1      1158    8    0    1
 -2       514       655       656      2767      2771      2769
 -1      1159    8    0    1
 -2       516       515       657      2347      2772      2773
 -1      1160    8    0    1
 -2       515       656       657      2770      2774      2772
 -1      1161    8    0    1
 -2       517       516       658      2350      2775      2776
 -1      1162    8    0    1
 -2       516       657       658      2773      2777      2775
 -1      1163    8    0    1
 -2       518       517       659      2353      2778      2779
 -1      1164    8    0    1
 -2       517       658       659      2776      2780      2778
 -1      1165    8    0    1
 -2       519       518       660      2356      2781      2782
 -1      1166    8    0    1
 -2       518       659       660      2779      2783      2781
 -1      1167    8    0    1
 -2       520       519       661      2359      2784      2785
 -1      1168    8    0    1
 -2       519       660       661      2782      2786      2784
 -1      1169    8    0    1
 -2       521       520       662      2362      2787      2788
 -1      1170    8    0    1
 -2       520       661       662      2785      2789      2787
 -1      1171    8    0    1
 -2       522       521       663      2365      2790      2791
 -1      1172    8    0    1
 -2       521       662       663      2788      2792      2790
 -1      1173    8    0    1
 -2       523       522       664      2368      2793      2794
 -1      1174    8    0    1
 -2       522       663       664      2791      2795      2793
 -1      1175    8    0    1
 -2       524       523       665      2371      2796      2797
 -1      1176    8    0    1
 -2       523       664       665      2794      2798      2796
 -1      1177    8    0    1
 -2       525       524       666      2374      2799      2800
 -1      1178    8    0    1
 -2       524       665       666      2797      2801      2799
 -1      1179    8    0    1
 -2       526       525       667      2377      2802      2803
 -1      1180    8    0    1
 -2       525       666       667      2800      2804      2802
 -1      1181    8    0    1
 -2       527       526       668      2380      2805      2806
 -1      1182    8    0    1
 -2       526       667       668      2803      2807      2805
 -1      1183    8    0    1
 -2       528       527       669      2383      2808      2809
 -1      1184    8    0    1
 -2       627       528       669      2684      2809      2810
 -1      1185    8    0    1
 -2       527       668       669      2806      2811      2808
 -1      1186    8    0    1
 -2       530       531       670      2391      2812      2813
 -1      1187    8    0    1
 -2       529       530       671      2388      2814      2815
 -1      1188    8    0    1
 -2       532       533       672      2397      2816      2817
 -1      1189    8    0    1
 -2       533       534       673      2400      2818      2819
 -1      1190    8    0    1
 -2       533       673       672      2819      2820      2816
 -1      1191    8    0    1
 -2       534       535       674      2403      2821      2822
 -1      1192    8    0    1
 -2       534       674       673      2822      2823      2818
 -1      1193    8    0    1
 -2       535       536       675      2406      2824      2825
 -1      1194    8    0    1
 -2       535       675       674      2825      2826      2821
 -1      1195    8    0    1
 -2       536       537       676      2409      2827      2828
 -1      1196    8    0    1
 -2       536       676       675      2828      2829      2824
 -1      1197    8    0    1
 -2       537       538       677      2412      2830      2831
 -1      1198    8    0    1
 -2       537       677       676      2831      2832      2827
 -1      1199    8    0    1
 -2       538       539       678      2415      2833      2834
 -1      1200    8    0    1
 -2       538       678       677      2834      2835      2830
 -1      1201    8    0    1
 -2       539       540       679      2418      2836      2837
 -1      1202    8    0    1
 -2       539       679       678      2837      2838      2833
 -1      1203    8    0    1
 -2       540       541       680      2421      2839      2840
 -1      1204    8    0    1
 -2       540       680       679      2840      2841      2836
 -1      1205    8    0    1
 -2       541       542       681      2424      2842      2843
 -1      1206    8    0    1
 -2       541       681       680      2843      2844      2839
 -1      1207    8    0    1
 -2       542       543       682      2427      2845      2846
 -1      1208    8    0    1
 -2       542       682       681      2846      2847      2842
 -1      1209    8    0    1
 -2       543       544       683      2430      2848      2849
 -1      1210    8    0    1
 -2       543       683       682      2849      2850      2845
 -1      1211    8    0    1
 -2       544       545       684      2433      2851      2852
 -1      1212    8    0    1
 -2       544       684       683      2852      2853      2848
 -1      1213    8    0    1
 -2       545       546       685      2436      2854      2855
 -1      1214    8    0    1
 -2       545       685       684      2855      2856      2851
 -1      1215    8    0    1
 -2       546       547       686      2439      2857      2858
 -1      1216    8    0    1
 -2       546       686       685      2858      2859      2854
 -1      1217    8    0    1
 -2       547       548       687      2442      2860      2861
 -1      1218    8    0    1
 -2       547       687       686      2861      2862      2857
 -1      1219    8    0    1
 -2       548       549       688      2445      2863      2864
 -1      1220    8    0    1
 -2       548       688       687      2864      2865      2860
 -1      1221    8    0    1
 -2       549       550       689      2448      2866      2867
 -1      1222    8    0    1
 -2       549       689       688      2867      2868      2863
 -1      1223    8    0    1
 -2       550       551       690      2451      2869      2870
 -1      1224    8    0    1
 -2       550       690       689      2870      2871      2866
 -1      1225    8    0    1
 -2       551       552       691      2454      2872      2873
 -1      1226    8    0    1
 -2       551       691       690      2873      2874      2869
 -1      1227    8    0    1
 -2       552       553       692      2457      2875      2876
 -1      1228    8    0    1
 -2       552       692       691      2876      2877      2872
 -1      1229    8    0    1
 -2       553       554       693      2460      2878      2879
 -1      1230    8    0    1
 -2       553       693       692      2879      2880      2875
 -1      1231    8    0    1
 -2       554       555       694      2463      2881      2882
 -1      1232    8    0    1
 -2       554       694       693      2882      2883      2878
 -1      1233    8    0    1
 -2       555       556       695      2466      2884      2885
 -1      1234    8    0    1
 -2       555       695       694      2885      2886      2881
 -1      1235    8    0    1
 -2       556       557       696      2469      2887      2888
 -1      1236    8    0    1
 -2       556       696       695      2888      2889      2884
 -1      1237    8    0    1
 -2       557       558       697      2472      2890      2891
 -1      1238    8    0    1
 -2       557       697       696      2891      2892      2887
 -1      1239    8    0    1
 -2       558       559       698      2475      2893      2894
 -1      1240    8    0    1
 -2       558       698       697      2894      2895      2890
 -1      1241    8    0    1
 -2       559       560       699      2478      2896      2897
 -1      1242    8    0    1
 -2       559       699       698      2897      2898      2893
 -1      1243    8    0    1
 -2       560       561       700      2481      2899      2900
 -1      1244    8    0    1
 -2       560       700       699      2900      2901      2896
 -1      1245    8    0    1
 -2       561       562       701      2484      2902      2903
 -1      1246    8    0    1
 -2       561       701       700      2903      2904      2899
 -1      1247    8    0    1
 -2       562       563       702      2487      2905      2906
 -1      1248    8    0    1
 -2       562       702       701      2906      2907      2902
 -1      1249    8    0    1
 -2       563       564       703      2490      2908      2909
 -1      1250    8    0    1
 -2       563       703       702      2909      2910      2905
 -1      1251    8    0    1
 -2       564       565       704      2493      2911      2912
 -1      1252    8    0    1
 -2       564       704       703      2912      2913      2908
 -1      1253    8    0    1
 -2       565       566       705      2496      2914      2915
 -1      1254    8    0    1
 -2       565       705       704      2915      2916      2911
 -1      1255    8    0    1
 -2       566       567       706      2499      2917      2918
 -1      1256    8    0    1
 -2       566       706       705      2918      2919      2914
 -1      1257    8    0    1
 -2       567       568       707      2502      2920      2921
 -1      1258    8    0    1
 -2       567       707       706      2921      2922      2917
 -1      1259    8    0    1
 -2       568       569       708      2505      2923      2924
 -1      1260    8    0    1
 -2       568       708       707      2924      2925      2920
 -1      1261    8    0    1
 -2       569       570       709      2508      2926      2927
 -1      1262    8    0    1
 -2       708       569       709      2923      2927      2928
 -1      1263    8    0    1
 -2       570       573       709      2668      2929      2926
 -1      1264    8    0    1
 -2       575       576       710      2526      2930      2931
 -1      1265    8    0    1
 -2       571       572       711      2514      2932      2933
 -1      1266    8    0    1
 -2       576       577       712      2529      2934      2935
 -1      1267    8    0    1
 -2       576       712       710      2935      2936      2930
 -1      1268    8    0    1
 -2       572       575       713      2523      2937      2938
 -1      1269    8    0    1
 -2       711       572       713      2932      2938      2939
 -1      1270    8    0    1
 -2       575       710       713      2931      2940      2937
 -1      1271    8    0    1
 -2       577       578       714      2532      2941      2942
 -1      1272    8    0    1
 -2       577       714       712      2942      2943      2934
 -1      1273    8    0    1
 -2       578       579       715      2535      2944      2945
 -1      1274    8    0    1
 -2       578       715       714      2945      2946      2941
 -1      1275    8    0    1
 -2       579       580       716      2538      2947      2948
 -1      1276    8    0    1
 -2       579       716       715      2948      2949      2944
 -1      1277    8    0    1
 -2       580       581       627      2541      2683      2950
 -1      1278    8    0    1
 -2       483       585       717      2551      2951      2952
 -1      1279    8    0    1
 -2       483       717       626      2952      2953      2680
 -1      1280    8    0    1
 -2       589       602       718      2647      2954      2955
 -1      1281    8    0    1
 -2       484       611       719      2612      2956      2957
 -1      1282    8    0    1
 -2       482       474       626      2685      2681      2958
 -1      1283    8    0    1
 -2       607       608       720      2630      2959      2960
 -1      1284    8    0    1
 -2       595       588       721      2575      2961      2962
 -1      1285    8    0    1
 -2       585       529       722      2648      2963      2964
 -1      1286    8    0    1
 -2       585       722       717      2964      2965      2951
 -1      1287    8    0    1
 -2       475       590       723      2563      2966      2967
 -1      1288    8    0    1
 -2       584       582       724      2548      2968      2969
 -1      1289    8    0    1
 -2       531       532       725      2394      2970      2971
 -1      1290    8    0    1
 -2       670       531       725      2812      2971      2972
 -1      1291    8    0    1
 -2       532       672       725      2817      2973      2970
 -1      1292    8    0    1
 -2       486       484       726      2257      2974      2975
 -1      1293    8    0    1
 -2       628       486       726      2686      2975      2976
 -1      1294    8    0    1
 -2       484       719       726      2957      2977      2974
 -1      1295    8    0    1
 -2       588       604       727      2658      2978      2979
 -1      1296    8    0    1
 -2       613       587       728      2629      2980      2981
 -1      1297    8    0    1
 -2       608       609       729      2653      2982      2983
 -1      1298    8    0    1
 -2       479       480       730      2241      2984      2985
 -1      1299    8    0    1
 -2       479       730       622      2985      2986      2671
 -1      1300    8    0    1
 -2       611       447       719      2652      2987      2956
 -1      1301    8    0    1
 -2       598       599       622      2666      2988      2989
 -1      1302    8    0    1
 -2       601       589       731      2643      2990      2991
 -1      1303    8    0    1
 -2       593       597       732      2580      2992      2993
 -1      1304    8    0    1
 -2       602       603       733      2667      2994      2995
 -1      1305    8    0    1
 -2       586       613       734      2650      2996      2997
 -1      1306    8    0    1
 -2       600       601       735      2589      2998      2999
 -1      1307    8    0    1
 -2       599       600       623      2649      3000      3001
 -1      1308    8    0    1
 -2       583       586       736      2636      3002      3003
 -1      1309    8    0    1
 -2       604       605       737      2635      3004      3005
 -1      1310    8    0    1
 -2       587       485       738      2632      3006      3007
 -1      1311    8    0    1
 -2       606       607       739      2631      3008      3009
 -1      1312    8    0    1
 -2       594       596       740      2654      3010      3011
 -1      1313    8    0    1
 -2       590       477       735      2620      3012      3013
 -1      1314    8    0    1
 -2       614       476       741      2621      3014      3015
 -1      1315    8    0    1
 -2       478       622       623      2672      3016      2673
 -1      1316    8    0    1
 -2       477       623       735      2674      3017      3012
 -1      1317    8    0    1
 -2       480       624       730      2676      3018      2984
 -1      1318    8    0    1
 -2       589       718       731      2955      3019      2990
 -1      1319    8    0    1
 -2       603       616       742      2639      3020      3021
 -1      1320    8    0    1
 -2       603       742       733      3021      3022      2994
 -1      1321    8    0    1
 -2       741       476       718      3014      3023      3024
 -1      1322    8    0    1
 -2       740       596       619      3010      2661      3025
 -1      1323    8    0    1
 -2       727       604       737      2978      3005      3026
 -1      1324    8    0    1
 -2       739       607       720      3008      2960      3027
 -1      1325    8    0    1
 -2       737       605       621      3004      2670      3028
 -1      1326    8    0    1
 -2       736       586       734      3002      2997      3029
 -1      1327    8    0    1
 -2       623       600       735      3000      2999      3017
 -1      1328    8    0    1
 -2       671       530       670      2814      2813      3030
 -1      1329    8    0    1
 -2       529       671       722      2815      3031      2963
 -1      1330    8    0    1
 -2       616       595       743      2640      3032      3033
 -1      1331    8    0    1
 -2       595       721       743      2962      3034      3032
 -1      1332    8    0    1
 -2       735       601       731      2998      2991      3035
 -1      1333    8    0    1
 -2       709       573       744      2929      3036      3037
 -1      1334    8    0    1
 -2       573       574       744      2519      3038      3036
 -1      1335    8    0    1
 -2       734       613       728      2996      2981      3039
 -1      1336    8    0    1
 -2       621       606       739      2669      3009      3040
 -1      1337    8    0    1
 -2       721       588       727      2961      2979      3041
 -1      1338    8    0    1
 -2       617       583       745      2646      3042      3043
 -1      1339    8    0    1
 -2       583       736       745      3003      3044      3042
 -1      1340    8    0    1
 -2       580       627       716      2950      3045      2947
 -1      1341    8    0    1
 -2       598       622       730      2989      2986      3046
 -1      1342    8    0    1
 -2       718       602       733      2954      2995      3047
 -1      1343    8    0    1
 -2       482       626       625      2958      3048      2677
 -1      1344    8    0    1
 -2       720       608       729      2959      2983      3049
 -1      1345    8    0    1
 -2       724       582       617      2968      2645      3050
 -1      1346    8    0    1
 -2       610       584       746      2609      3051      3052
 -1      1347    8    0    1
 -2       447       614       719      2623      3053      2987
 -1      1348    8    0    1
 -2       584       724       746      2969      3054      3051
 -1      1349    8    0    1
 -2       619       593       732      2659      2993      3055
 -1      1350    8    0    1
 -2       574       571       747      2520      3056      3057
 -1      1351    8    0    1
 -2       744       574       747      3038      3057      3058
 -1      1352    8    0    1
 -2       571       711       747      2933      3059      3056
 -1      1353    8    0    1
 -2       729       609       748      2982      3060      3061
 -1      1354    8    0    1
 -2       728       587       738      2980      3007      3062
 -1      1355    8    0    1
 -2       485       592       749      2568      3063      3064
 -1      1356    8    0    1
 -2       622       599       623      2988      3001      3016
 -1      1357    8    0    1
 -2       476       475       718      2230      3065      3023
 -1      1358    8    0    1
 -2       591       594       750      2665      3066      3067
 -1      1359    8    0    1
 -2       597       598       730      2651      3046      3068
 -1      1360    8    0    1
 -2       485       749       738      3064      3069      3006
 -1      1361    8    0    1
 -2       594       740       750      3011      3070      3066
 -1      1362    8    0    1
 -2       609       610       748      2608      3071      3060
 -1      1363    8    0    1
 -2       591       750       620      3067      3072      2664
 -1      1364    8    0    1
 -2       749       592       618      3063      2656      3073
 -1      1365    8    0    1
 -2       624       625       751      2679      3074      3075
 -1      1366    8    0    1
 -2       625       626       751      3048      3076      3074
 -1      1367    8    0    1
 -2       626       717       751      2953      3077      3076
 -1      1368    8    0    1
 -2       740       619       751      3025      3078      3079
 -1      1369    8    0    1
 -2       629       628       752      2690      3080      3081
 -1      1370    8    0    1
 -2       630       629       753      2693      3082      3083
 -1      1371    8    0    1
 -2       631       630       727      2696      3084      3085
 -1      1372    8    0    1
 -2       632       631       737      2699      3086      3087
 -1      1373    8    0    1
 -2       634       633       754      2705      3088      3089
 -1      1374    8    0    1
 -2       635       634       755      2708      3090      3091
 -1      1375    8    0    1
 -2       634       754       755      3089      3092      3090
 -1      1376    8    0    1
 -2       636       635       756      2711      3093      3094
 -1      1377    8    0    1
 -2       635       755       756      3091      3095      3093
 -1      1378    8    0    1
 -2       637       636       757      2714      3096      3097
 -1      1379    8    0    1
 -2       636       756       757      3094      3098      3096
 -1      1380    8    0    1
 -2       638       637       758      2717      3099      3100
 -1      1381    8    0    1
 -2       637       757       758      3097      3101      3099
 -1      1382    8    0    1
 -2       639       638       759      2720      3102      3103
 -1      1383    8    0    1
 -2       638       758       759      3100      3104      3102
 -1      1384    8    0    1
 -2       640       639       760      2723      3105      3106
 -1      1385    8    0    1
 -2       639       759       760      3103      3107      3105
 -1      1386    8    0    1
 -2       641       640       761      2726      3108      3109
 -1      1387    8    0    1
 -2       640       760       761      3106      3110      3108
 -1      1388    8    0    1
 -2       642       641       762      2729      3111      3112
 -1      1389    8    0    1
 -2       641       761       762      3109      3113      3111
 -1      1390    8    0    1
 -2       643       642       763      2732      3114      3115
 -1      1391    8    0    1
 -2       642       762       763      3112      3116      3114
 -1      1392    8    0    1
 -2       644       643       764      2735      3117      3118
 -1      1393    8    0    1
 -2       643       763       764      3115      3119      3117
 -1      1394    8    0    1
 -2       645       644       765      2738      3120      3121
 -1      1395    8    0    1
 -2       644       764       765      3118      3122      3120
 -1      1396    8    0    1
 -2       646       645       766      2741      3123      3124
 -1      1397    8    0    1
 -2       645       765       766      3121      3125      3123
 -1      1398    8    0    1
 -2       647       646       767      2744      3126      3127
 -1      1399    8    0    1
 -2       646       766       767      3124      3128      3126
 -1      1400    8    0    1
 -2       648       647       768      2747      3129      3130
 -1      1401    8    0    1
 -2       647       767       768      3127      3131      3129
 -1      1402    8    0    1
 -2       649       648       769      2750      3132      3133
 -1      1403    8    0    1
 -2       648       768       769      3130      3134      3132
 -1      1404    8    0    1
 -2       650       649       770      2753      3135      3136
 -1      1405    8    0    1
 -2       649       769       770      3133      3137      3135
 -1      1406    8    0    1
 -2       651       650       771      2756      3138      3139
 -1      1407    8    0    1
 -2       650       770       771      3136      3140      3138
 -1      1408    8    0    1
 -2       652       651       772      2759      3141      3142
 -1      1409    8    0    1
 -2       651       771       772      3139      3143      3141
 -1      1410    8    0    1
 -2       653       652       773      2762      3144      3145
 -1      1411    8    0    1
 -2       652       772       773      3142      3146      3144
 -1      1412    8    0    1
 -2       654       653       774      2765      3147      3148
 -1      1413    8    0    1
 -2       653       773       774      3145      3149      3147
 -1      1414    8    0    1
 -2       655       654       775      2768      3150      3151
 -1      1415    8    0    1
 -2       654       774       775      3148      3152      3150
 -1      1416    8    0    1
 -2       656       655       776      2771      3153      3154
 -1      1417    8    0    1
 -2       655       775       776      3151      3155      3153
 -1      1418    8    0    1
 -2       657       656       777      2774      3156      3157
 -1      1419    8    0    1
 -2       656       776       777      3154      3158      3156
 -1      1420    8    0    1
 -2       658       657       778      2777      3159      3160
 -1      1421    8    0    1
 -2       657       777       778      3157      3161      3159
 -1      1422    8    0    1
 -2       659       658       779      2780      3162      3163
 -1      1423    8    0    1
 -2       658       778       779      3160      3164      3162
 -1      1424    8    0    1
 -2       660       659       780      2783      3165      3166
 -1      1425    8    0    1
 -2       659       779       780      3163      3167      3165
 -1      1426    8    0    1
 -2       661       660       781      2786      3168      3169
 -1      1427    8    0    1
 -2       660       780       781      3166      3170      3168
 -1      1428    8    0    1
 -2       662       661       782      2789      3171      3172
 -1      1429    8    0    1
 -2       661       781       782      3169      3173      3171
 -1      1430    8    0    1
 -2       663       662       783      2792      3174      3175
 -1      1431    8    0    1
 -2       662       782       783      3172      3176      3174
 -1      1432    8    0    1
 -2       664       663       784      2795      3177      3178
 -1      1433    8    0    1
 -2       663       783       784      3175      3179      3177
 -1      1434    8    0    1
 -2       665       664       785      2798      3180      3181
 -1      1435    8    0    1
 -2       664       784       785      3178      3182      3180
 -1      1436    8    0    1
 -2       666       665       786      2801      3183      3184
 -1      1437    8    0    1
 -2       665       785       786      3181      3185      3183
 -1      1438    8    0    1
 -2       667       666       787      2804      3186      3187
 -1      1439    8    0    1
 -2       666       786       787      3184      3188      3186
 -1      1440    8    0    1
 -2       668       667       788      2807      3189      3190
 -1      1441    8    0    1
 -2       667       787       788      3187      3191      3189
 -1      1442    8    0    1
 -2       675       676       789      2829      3192      3193
 -1      1443    8    0    1
 -2       676       677       790      2832      3194      3195
 -1      1444    8    0    1
 -2       676       790       789      3195      3196      3192
 -1      1445    8    0    1
 -2       677       678       791      2835      3197      3198
 -1      1446    8    0    1
 -2       677       791       790      3198      3199      3194
 -1      1447    8    0    1
 -2       678       679       792      2838      3200      3201
 -1      1448    8    0    1
 -2       678       792       791      3201      3202      3197
 -1      1449    8    0    1
 -2       679       680       793      2841      3203      3204
 -1      1450    8    0    1
 -2       679       793       792      3204      3205      3200
 -1      1451    8    0    1
 -2       680       681       794      2844      3206      3207
 -1      1452    8    0    1
 -2       680       794       793      3207      3208      3203
 -1      1453    8    0    1
 -2       681       682       795      2847      3209      3210
 -1      1454    8    0    1
 -2       681       795       794      3210      3211      3206
 -1      1455    8    0    1
 -2       682       683       796      2850      3212      3213
 -1      1456    8    0    1
 -2       682       796       795      3213      3214      3209
 -1      1457    8    0    1
 -2       683       684       797      2853      3215      3216
 -1      1458    8    0    1
 -2       683       797       796      3216      3217      3212
 -1      1459    8    0    1
 -2       684       685       798      2856      3218      3219
 -1      1460    8    0    1
 -2       684       798       797      3219      3220      3215
 -1      1461    8    0    1
 -2       685       686       799      2859      3221      3222
 -1      1462    8    0    1
 -2       685       799       798      3222      3223      3218
 -1      1463    8    0    1
 -2       686       687       800      2862      3224      3225
 -1      1464    8    0    1
 -2       686       800       799      3225      3226      3221
 -1      1465    8    0    1
 -2       687       688       801      2865      3227      3228
 -1      1466    8    0    1
 -2       687       801       800      3228      3229      3224
 -1      1467    8    0    1
 -2       688       689       802      2868      3230      3231
 -1      1468    8    0    1
 -2       688       802       801      3231      3232      3227
 -1      1469    8    0    1
 -2       689       690       803      2871      3233      3234
 -1      1470    8    0    1
 -2       689       803       802      3234      3235      3230
 -1      1471    8    0    1
 -2       690       691       804      2874      3236      3237
 -1      1472    8    0    1
 -2       690       804       803      3237      3238      3233
 -1      1473    8    0    1
 -2       691       692       805      2877      3239      3240
 -1      1474    8    0    1
 -2       691       805       804      3240      3241      3236
 -1      1475    8    0    1
 -2       692       693       806      2880      3242      3243
 -1      1476    8    0    1
 -2       692       806       805      3243      3244      3239
 -1      1477    8    0    1
 -2       693       694       807      2883      3245      3246
 -1      1478    8    0    1
 -2       693       807       806      3246      3247      3242
 -1      1479    8    0    1
 -2       694       695       808      2886      3248      3249
 -1      1480    8    0    1
 -2       694       808       807      3249      3250      3245
 -1      1481    8    0    1
 -2       695       696       809      2889      3251      3252
 -1      1482    8    0    1
 -2       695       809       808      3252      3253      3248
 -1      1483    8    0    1
 -2       696       697       810      2892      3254      3255
 -1      1484    8    0    1
 -2       696       810       809      3255      3256      3251
 -1      1485    8    0    1
 -2       697       698       811      2895      3257      3258
 -1      1486    8    0    1
 -2       697       811       810      3258      3259      3254
 -1      1487    8    0    1
 -2       698       699       812      2898      3260      3261
 -1      1488    8    0    1
 -2       698       812       811      3261      3262      3257
 -1      1489    8    0    1
 -2       699       700       813      2901      3263      3264
 -1      1490    8    0    1
 -2       699       813       812      3264      3265      3260
 -1      1491    8    0    1
 -2       700       701       814      2904      3266      3267
 -1      1492    8    0    1
 -2       700       814       813      3267      3268      3263
 -1      1493    8    0    1
 -2       701       702       815      2907      3269      3270
 -1      1494    8    0    1
 -2       701       815       814      3270      3271      3266
 -1      1495    8    0    1
 -2       702       703       816      2910      3272      3273
 -1      1496    8    0    1
 -2       702       816       815      3273      3274      3269
 -1      1497    8    0    1
 -2       703       704       817      2913      3275      3276
 -1      1498    8    0    1
 -2       703       817       816      3276      3277      3272
 -1      1499    8    0    1
 -2       704       705       818      2916      3278      3279
 -1      1500    8    0    1
 -2       704       818       817      3279      3280      3275
 -1      1501    8    0    1
 -2       705       706       819      2919      3281      3282
 -1      1502    8    0    1
 -2       705       819       818      3282      3283      3278
 -1      1503    8    0    1
 -2       706       707       820      2922      3284      3285
 -1      1504    8    0    1
 -2       706       820       819      3285      3286      3281
 -1      1505    8    0    1
 -2       707       708       821      2925      3287      3288
 -1      1506    8    0    1
 -2       707       821       820      3288      3289      3284
 -1      1507    8    0    1
 -2       708       709       822      2928      3290      3291
 -1      1508    8    0    1
 -2       821       708       822      3287      3291      3292
 -1      1509    8    0    1
 -2       709       744       822      3037      3293      3290
 -1      1510    8    0    1
 -2       715       716       823      2949      3294      3295
 -1      1511    8    0    1
 -2       729       748       824      3061      3296      3297
 -1      1512    8    0    1
 -2       736       734       825      3029      3298      3299
 -1      1513    8    0    1
 -2       710       712       826      2936      3300      3301
 -1      1514    8    0    1
 -2       734       728       827      3039      3302      3303
 -1      1515    8    0    1
 -2       741       718       733      3024      3047      3304
 -1      1516    8    0    1
 -2       732       597       730      2992      3068      3305
 -1      1517    8    0    1
 -2       714       715       828      2946      3306      3307
 -1      1518    8    0    1
 -2       715       823       828      3295      3308      3306
 -1      1519    8    0    1
 -2       719       614       741      3053      3015      3309
 -1      1520    8    0    1
 -2       674       675       829      2826      3310      3311
 -1      1521    8    0    1
 -2       675       789       829      3193      3312      3310
 -1      1522    8    0    1
 -2       673       674       827      2823      3313      3314
 -1      1523    8    0    1
 -2       618       473       830      2657      3315      3316
 -1      1524    8    0    1
 -2       610       746       748      3052      3317      3071
 -1      1525    8    0    1
 -2       723       590       731      2966      3318      3319
 -1      1526    8    0    1
 -2       720       729       831      3049      3320      3321
 -1      1527    8    0    1
 -2       729       824       831      3297      3322      3320
 -1      1528    8    0    1
 -2       621       739       832      3040      3323      3324
 -1      1529    8    0    1
 -2       724       617       833      3050      3325      3326
 -1      1530    8    0    1
 -2       732       730       624      3305      3018      3327
 -1      1531    8    0    1
 -2       719       741       726      3309      3328      2977
 -1      1532    8    0    1
 -2       473       620       830      2663      3329      3315
 -1      1533    8    0    1
 -2       746       724       834      3054      3330      3331
 -1      1534    8    0    1
 -2       712       714       835      2943      3332      3333
 -1      1535    8    0    1
 -2       826       712       835      3300      3333      3334
 -1      1536    8    0    1
 -2       714       828       835      3307      3335      3332
 -1      1537    8    0    1
 -2       716       627       836      3045      3336      3337
 -1      1538    8    0    1
 -2       823       716       836      3294      3337      3338
 -1      1539    8    0    1
 -2       627       669       836      2810      3339      3336
 -1      1540    8    0    1
 -2       727       737       631      3026      3086      3085
 -1      1541    8    0    1
 -2       739       720       837      3027      3340      3341
 -1      1542    8    0    1
 -2       721       727       753      3041      3342      3343
 -1      1543    8    0    1
 -2       590       735       731      3013      3035      3318
 -1      1544    8    0    1
 -2       727       630       753      3084      3083      3342
 -1      1545    8    0    1
 -2       632       737       838      3087      3344      3345
 -1      1546    8    0    1
 -2       633       632       838      2702      3345      3346
 -1      1547    8    0    1
 -2       737       621       838      3028      3347      3344
 -1      1548    8    0    1
 -2       748       746       839      3317      3348      3349
 -1      1549    8    0    1
 -2       746       834       839      3331      3350      3348
 -1      1550    8    0    1
 -2       732       624       751      3327      3075      3351
 -1      1551    8    0    1
 -2       718       475       723      3065      2967      3352
 -1      1552    8    0    1
 -2       742       616       752      3020      3353      3354
 -1      1553    8    0    1
 -2       751       619       732      3078      3055      3351
 -1      1554    8    0    1
 -2       753       629       752      3082      3081      3355
 -1      1555    8    0    1
 -2       750       740       717      3070      3356      3357
 -1      1556    8    0    1
 -2       739       837       832      3341      3358      3323
 -1      1557    8    0    1
 -2       673       827       728      3314      3302      3359
 -1      1558    8    0    1
 -2       669       668       836      2811      3360      3339
 -1      1559    8    0    1
 -2       743       721       753      3034      3343      3361
 -1      1560    8    0    1
 -2       620       750       671      3072      3362      3363
 -1      1561    8    0    1
 -2       672       673       728      2820      3359      3364
 -1      1562    8    0    1
 -2       824       748       840      3296      3365      3366
 -1      1563    8    0    1
 -2       748       839       840      3349      3367      3365
 -1      1564    8    0    1
 -2       711       713       841      2939      3368      3369
 -1      1565    8    0    1
 -2       736       825       842      3299      3370      3371
 -1      1566    8    0    1
 -2       736       842       745      3371      3372      3044
 -1      1567    8    0    1
 -2       710       826       843      3301      3373      3374
 -1      1568    8    0    1
 -2       710       843       713      3374      3375      2940
 -1      1569    8    0    1
 -2       741       733       844      3304      3376      3377
 -1      1570    8    0    1
 -2       617       745       833      3043      3378      3325
 -1      1571    8    0    1
 -2       731       718       723      3019      3352      3319
 -1      1572    8    0    1
 -2       827       674       829      3313      3311      3379
 -1      1573    8    0    1
 -2       618       830       670      3316      3380      3381
 -1      1574    8    0    1
 -2       830       620       671      3329      3363      3382
 -1      1575    8    0    1
 -2       720       831       837      3321      3383      3340
 -1      1576    8    0    1
 -2       747       711       845      3059      3384      3385
 -1      1577    8    0    1
 -2       711       841       845      3369      3386      3384
 -1      1578    8    0    1
 -2       836       668       788      3360      3190      3387
 -1      1579    8    0    1
 -2       728       738       672      3062      3388      3364
 -1      1580    8    0    1
 -2       749       618       670      3073      3381      3389
 -1      1581    8    0    1
 -2       724       833       846      3326      3390      3391
 -1      1582    8    0    1
 -2       724       846       834      3391      3392      3330
 -1      1583    8    0    1
 -2       633       838       754      3346      3393      3088
 -1      1584    8    0    1
 -2       717       740       751      3356      3079      3077
 -1      1585    8    0    1
 -2       672       738       749      3388      3069      3394
 -1      1586    8    0    1
 -2       741       844       726      3377      3395      3328
 -1      1587    8    0    1
 -2       752       628       844      3080      3396      3397
 -1      1588    8    0    1
 -2       838       621       832      3347      3324      3398
 -1      1589    8    0    1
 -2       839       834       847      3350      3399      3400
 -1      1590    8    0    1
 -2       756       755       848      3095      3401      3402
 -1      1591    8    0    1
 -2       757       756       849      3098      3403      3404
 -1      1592    8    0    1
 -2       756       848       849      3402      3405      3403
 -1      1593    8    0    1
 -2       758       757       850      3101      3406      3407
 -1      1594    8    0    1
 -2       757       849       850      3404      3408      3406
 -1      1595    8    0    1
 -2       759       758       851      3104      3409      3410
 -1      1596    8    0    1
 -2       758       850       851      3407      3411      3409
 -1      1597    8    0    1
 -2       760       759       852      3107      3412      3413
 -1      1598    8    0    1
 -2       759       851       852      3410      3414      3412
 -1      1599    8    0    1
 -2       761       760       853      3110      3415      3416
 -1      1600    8    0    1
 -2       760       852       853      3413      3417      3415
 -1      1601    8    0    1
 -2       762       761       854      3113      3418      3419
 -1      1602    8    0    1
 -2       761       853       854      3416      3420      3418
 -1      1603    8    0    1
 -2       763       762       855      3116      3421      3422
 -1      1604    8    0    1
 -2       762       854       855      3419      3423      3421
 -1      1605    8    0    1
 -2       764       763       856      3119      3424      3425
 -1      1606    8    0    1
 -2       763       855       856      3422      3426      3424
 -1      1607    8    0    1
 -2       765       764       857      3122      3427      3428
 -1      1608    8    0    1
 -2       764       856       857      3425      3429      3427
 -1      1609    8    0    1
 -2       766       765       858      3125      3430      3431
 -1      1610    8    0    1
 -2       765       857       858      3428      3432      3430
 -1      1611    8    0    1
 -2       767       766       859      3128      3433      3434
 -1      1612    8    0    1
 -2       766       858       859      3431      3435      3433
 -1      1613    8    0    1
 -2       768       767       860      3131      3436      3437
 -1      1614    8    0    1
 -2       767       859       860      3434      3438      3436
 -1      1615    8    0    1
 -2       769       768       861      3134      3439      3440
 -1      1616    8    0    1
 -2       768       860       861      3437      3441      3439
 -1      1617    8    0    1
 -2       770       769       862      3137      3442      3443
 -1      1618    8    0    1
 -2       769       861       862      3440      3444      3442
 -1      1619    8    0    1
 -2       771       770       863      3140      3445      3446
 -1      1620    8    0    1
 -2       770       862       863      3443      3447      3445
 -1      1621    8    0    1
 -2       772       771       864      3143      3448      3449
 -1      1622    8    0    1
 -2       771       863       864      3446      3450      3448
 -1      1623    8    0    1
 -2       773       772       865      3146      3451      3452
 -1      1624    8    0    1
 -2       772       864       865      3449      3453      3451
 -1      1625    8    0    1
 -2       774       773       866      3149      3454      3455
 -1      1626    8    0    1
 -2       773       865       866      3452      3456      3454
 -1      1627    8    0    1
 -2       775       774       867      3152      3457      3458
 -1      1628    8    0    1
 -2       774       866       867      3455      3459      3457
 -1      1629    8    0    1
 -2       776       775       868      3155      3460      3461
 -1      1630    8    0    1
 -2       775       867       868      3458      3462      3460
 -1      1631    8    0    1
 -2       777       776       869      3158      3463      3464
 -1      1632    8    0    1
 -2       776       868       869      3461      3465      3463
 -1      1633    8    0    1
 -2       778       777       870      3161      3466      3467
 -1      1634    8    0    1
 -2       777       869       870      3464      3468      3466
 -1      1635    8    0    1
 -2       779       778       871      3164      3469      3470
 -1      1636    8    0    1
 -2       778       870       871      3467      3471      3469
 -1      1637    8    0    1
 -2       780       779       872      3167      3472      3473
 -1      1638    8    0    1
 -2       779       871       872      3470      3474      3472
 -1      1639    8    0    1
 -2       781       780       873      3170      3475      3476
 -1      1640    8    0    1
 -2       780       872       873      3473      3477      3475
 -1      1641    8    0    1
 -2       782       781       874      3173      3478      3479
 -1      1642    8    0    1
 -2       781       873       874      3476      3480      3478
 -1      1643    8    0    1
 -2       783       782       875      3176      3481      3482
 -1      1644    8    0    1
 -2       782       874       875      3479      3483      3481
 -1      1645    8    0    1
 -2       784       783       876      3179      3484      3485
 -1      1646    8    0    1
 -2       783       875       876      3482      3486      3484
 -1      1647    8    0    1
 -2       785       784       877      3182      3487      3488
 -1      1648    8    0    1
 -2       784       876       877      3485      3489      3487
 -1      1649    8    0    1
 -2       786       785       878      3185      3490      3491
 -1      1650    8    0    1
 -2       785       877       878      3488      3492      3490
 -1      1651    8    0    1
 -2       787       786       879      3188      3493      3494
 -1      1652    8    0    1
 -2       786       878       879      3491      3495      3493
 -1      1653    8    0    1
 -2       788       787       880      3191      3496      3497
 -1      1654    8    0    1
 -2       787       879       880      3494      3498      3496
 -1      1655    8    0    1
 -2       790       791       881      3199      3499      3500
 -1      1656    8    0    1
 -2       628       726       844      2976      3395      3396
 -1      1657    8    0    1
 -2       789       790       882      3196      3501      3502
 -1      1658    8    0    1
 -2       790       881       882      3500      3503      3501
 -1      1659    8    0    1
 -2       792       793       883      3205      3504      3505
 -1      1660    8    0    1
 -2       793       794       884      3208      3506      3507
 -1      1661    8    0    1
 -2       793       884       883      3507      3508      3504
 -1      1662    8    0    1
 -2       794       795       885      3211      3509      3510
 -1      1663    8    0    1
 -2       794       885       884      3510      3511      3506
 -1      1664    8    0    1
 -2       795       796       886      3214      3512      3513
 -1      1665    8    0    1
 -2       795       886       885      3513      3514      3509
 -1      1666    8    0    1
 -2       796       797       887      3217      3515      3516
 -1      1667    8    0    1
 -2       796       887       886      3516      3517      3512
 -1      1668    8    0    1
 -2       797       798       888      3220      3518      3519
 -1      1669    8    0    1
 -2       797       888       887      3519      3520      3515
 -1      1670    8    0    1
 -2       798       799       889      3223      3521      3522
 -1      1671    8    0    1
 -2       798       889       888      3522      3523      3518
 -1      1672    8    0    1
 -2       799       800       890      3226      3524      3525
 -1      1673    8    0    1
 -2       799       890       889      3525      3526      3521
 -1      1674    8    0    1
 -2       800       801       891      3229      3527      3528
 -1      1675    8    0    1
 -2       800       891       890      3528      3529      3524
 -1      1676    8    0    1
 -2       801       802       892      3232      3530      3531
 -1      1677    8    0    1
 -2       801       892       891      3531      3532      3527
 -1      1678    8    0    1
 -2       802       803       893      3235      3533      3534
 -1      1679    8    0    1
 -2       802       893       892      3534      3535      3530
 -1      1680    8    0    1
 -2       803       804       894      3238      3536      3537
 -1      1681    8    0    1
 -2       803       894       893      3537      3538      3533
 -1      1682    8    0    1
 -2       804       805       895      3241      3539      3540
 -1      1683    8    0    1
 -2       804       895       894      3540      3541      3536
 -1      1684    8    0    1
 -2       805       806       896      3244      3542      3543
 -1      1685    8    0    1
 -2       805       896       895      3543      3544      3539
 -1      1686    8    0    1
 -2       806       807       897      3247      3545      3546
 -1      1687    8    0    1
 -2       806       897       896      3546      3547      3542
 -1      1688    8    0    1
 -2       807       808       898      3250      3548      3549
 -1      1689    8    0    1
 -2       807       898       897      3549      3550      3545
 -1      1690    8    0    1
 -2       808       809       899      3253      3551      3552
 -1      1691    8    0    1
 -2       808       899       898      3552      3553      3548
 -1      1692    8    0    1
 -2       809       810       900      3256      3554      3555
 -1      1693    8    0    1
 -2       809       900       899      3555      3556      3551
 -1      1694    8    0    1
 -2       810       811       901      3259      3557      3558
 -1      1695    8    0    1
 -2       810       901       900      3558      3559      3554
 -1      1696    8    0    1
 -2       811       812       902      3262      3560      3561
 -1      1697    8    0    1
 -2       811       902       901      3561      3562      3557
 -1      1698    8    0    1
 -2       812       813       903      3265      3563      3564
 -1      1699    8    0    1
 -2       812       903       902      3564      3565      3560
 -1      1700    8    0    1
 -2       813       814       904      3268      3566      3567
 -1      1701    8    0    1
 -2       813       904       903      3567      3568      3563
 -1      1702    8    0    1
 -2       814       815       905      3271      3569      3570
 -1      1703    8    0    1
 -2       814       905       904      3570      3571      3566
 -1      1704    8    0    1
 -2       815       816       906      3274      3572      3573
 -1      1705    8    0    1
 -2       815       906       905      3573      3574      3569
 -1      1706    8    0    1
 -2       816       817       907      3277      3575      3576
 -1      1707    8    0    1
 -2       816       907       906      3576      3577      3572
 -1      1708    8    0    1
 -2       817       818       908      3280      3578      3579
 -1      1709    8    0    1
 -2       817       908       907      3579      3580      3575
 -1      1710    8    0    1
 -2       818       819       909      3283      3581      3582
 -1      1711    8    0    1
 -2       818       909       908      3582      3583      3578
 -1      1712    8    0    1
 -2       819       820       910      3286      3584      3585
 -1      1713    8    0    1
 -2       819       910       909      3585      3586      3581
 -1      1714    8    0    1
 -2       820       821       911      3289      3587      3588
 -1      1715    8    0    1
 -2       820       911       910      3588      3589      3584
 -1      1716    8    0    1
 -2       841       713       843      3368      3375      3590
 -1      1717    8    0    1
 -2       734       827       912      3303      3591      3592
 -1      1718    8    0    1
 -2       833       745       913      3378      3593      3594
 -1      1719    8    0    1
 -2       734       912       825      3592      3595      3298
 -1      1720    8    0    1
 -2       838       832       754      3398      3596      3393
 -1      1721    8    0    1
 -2       825       912       914      3595      3597      3598
 -1      1722    8    0    1
 -2       825       914       842      3598      3599      3370
 -1      1723    8    0    1
 -2       831       824       915      3322      3600      3601
 -1      1724    8    0    1
 -2       828       823       916      3308      3602      3603
 -1      1725    8    0    1
 -2       670       830       671      3380      3382      3030
 -1      1726    8    0    1
 -2       836       788       823      3387      3604      3338
 -1      1727    8    0    1
 -2       754       832       837      3596      3358      3605
 -1      1728    8    0    1
 -2       744       747       917      3058      3606      3607
 -1      1729    8    0    1
 -2       822       744       917      3293      3607      3608
 -1      1730    8    0    1
 -2       747       845       917      3385      3609      3606
 -1      1731    8    0    1
 -2       754       837       755      3605      3610      3092
 -1      1732    8    0    1
 -2       791       792       918      3202      3611      3612
 -1      1733    8    0    1
 -2       881       791       918      3499      3612      3613
 -1      1734    8    0    1
 -2       792       883       918      3505      3614      3611
 -1      1735    8    0    1
 -2       837       831       848      3383      3615      3616
 -1      1736    8    0    1
 -2       755       837       848      3610      3616      3401
 -1      1737    8    0    1
 -2       752       616       743      3353      3033      3617
 -1      1738    8    0    1
 -2       847       834       846      3399      3392      3618
 -1      1739    8    0    1
 -2       752       743       753      3617      3361      3355
 -1      1740    8    0    1
 -2       848       831       915      3615      3601      3619
 -1      1741    8    0    1
 -2       671       750       722      3362      3620      3031
 -1      1742    8    0    1
 -2       840       839       919      3367      3621      3622
 -1      1743    8    0    1
 -2       839       847       919      3400      3623      3621
 -1      1744    8    0    1
 -2       841       843       920      3590      3624      3625
 -1      1745    8    0    1
 -2       913       745       842      3593      3372      3626
 -1      1746    8    0    1
 -2       821       822       917      3292      3608      3627
 -1      1747    8    0    1
 -2       912       827       829      3591      3379      3628
 -1      1748    8    0    1
 -2       821       917       911      3627      3629      3587
 -1      1749    8    0    1
 -2       841       920       921      3625      3630      3631
 -1      1750    8    0    1
 -2       841       921       845      3631      3632      3386
 -1      1751    8    0    1
 -2       843       826       922      3373      3633      3634
 -1      1752    8    0    1
 -2       843       922       920      3634      3635      3624
 -1      1753    8    0    1
 -2       844       733       742      3376      3022      3636
 -1      1754    8    0    1
 -2       833       913       923      3594      3637      3638
 -1      1755    8    0    1
 -2       833       923       846      3638      3639      3390
 -1      1756    8    0    1
 -2       789       882       914      3502      3640      3641
 -1      1757    8    0    1
 -2       915       824       924      3600      3642      3643
 -1      1758    8    0    1
 -2       824       840       924      3366      3644      3642
 -1      1759    8    0    1
 -2       828       916       925      3603      3645      3646
 -1      1760    8    0    1
 -2       828       925       835      3646      3647      3335
 -1      1761    8    0    1
 -2       742       752       844      3354      3397      3636
 -1      1762    8    0    1
 -2       829       789       914      3312      3641      3648
 -1      1763    8    0    1
 -2       823       788       926      3604      3649      3650
 -1      1764    8    0    1
 -2       826       835       927      3334      3651      3652
 -1      1765    8    0    1
 -2       922       826       927      3633      3652      3653
 -1      1766    8    0    1
 -2       835       925       927      3647      3654      3651
 -1      1767    8    0    1
 -2       912       829       914      3628      3648      3597
 -1      1768    8    0    1
 -2       750       717       722      3357      2965      3620
 -1      1769    8    0    1
 -2       788       880       926      3497      3655      3649
 -1      1770    8    0    1
 -2       851       850       928      3411      3656      3657
 -1      1771    8    0    1
 -2       852       851       929      3414      3658      3659
 -1      1772    8    0    1
 -2       851       928       929      3657      3660      3658
 -1      1773    8    0    1
 -2       853       852       930      3417      3661      3662
 -1      1774    8    0    1
 -2       852       929       930      3659      3663      3661
 -1      1775    8    0    1
 -2       854       853       931      3420      3664      3665
 -1      1776    8    0    1
 -2       853       930       931      3662      3666      3664
 -1      1777    8    0    1
 -2       855       854       932      3423      3667      3668
 -1      1778    8    0    1
 -2       854       931       932      3665      3669      3667
 -1      1779    8    0    1
 -2       856       855       933      3426      3670      3671
 -1      1780    8    0    1
 -2       855       932       933      3668      3672      3670
 -1      1781    8    0    1
 -2       857       856       934      3429      3673      3674
 -1      1782    8    0    1
 -2       856       933       934      3671      3675      3673
 -1      1783    8    0    1
 -2       858       857       935      3432      3676      3677
 -1      1784    8    0    1
 -2       857       934       935      3674      3678      3676
 -1      1785    8    0    1
 -2       859       858       936      3435      3679      3680
 -1      1786    8    0    1
 -2       858       935       936      3677      3681      3679
 -1      1787    8    0    1
 -2       860       859       937      3438      3682      3683
 -1      1788    8    0    1
 -2       859       936       937      3680      3684      3682
 -1      1789    8    0    1
 -2       861       860       938      3441      3685      3686
 -1      1790    8    0    1
 -2       860       937       938      3683      3687      3685
 -1      1791    8    0    1
 -2       862       861       939      3444      3688      3689
 -1      1792    8    0    1
 -2       861       938       939      3686      3690      3688
 -1      1793    8    0    1
 -2       863       862       940      3447      3691      3692
 -1      1794    8    0    1
 -2       862       939       940      3689      3693      3691
 -1      1795    8    0    1
 -2       864       863       941      3450      3694      3695
 -1      1796    8    0    1
 -2       863       940       941      3692      3696      3694
 -1      1797    8    0    1
 -2       865       864       942      3453      3697      3698
 -1      1798    8    0    1
 -2       864       941       942      3695      3699      3697
 -1      1799    8    0    1
 -2       866       865       943      3456      3700      3701
 -1      1800    8    0    1
 -2       865       942       943      3698      3702      3700
 -1      1801    8    0    1
 -2       867       866       944      3459      3703      3704
 -1      1802    8    0    1
 -2       866       943       944      3701      3705      3703
 -1      1803    8    0    1
 -2       868       867       945      3462      3706      3707
 -1      1804    8    0    1
 -2       867       944       945      3704      3708      3706
 -1      1805    8    0    1
 -2       869       868       946      3465      3709      3710
 -1      1806    8    0    1
 -2       868       945       946      3707      3711      3709
 -1      1807    8    0    1
 -2       870       869       947      3468      3712      3713
 -1      1808    8    0    1
 -2       869       946       947      3710      3714      3712
 -1      1809    8    0    1
 -2       871       870       948      3471      3715      3716
 -1      1810    8    0    1
 -2       870       947       948      3713      3717      3715
 -1      1811    8    0    1
 -2       872       871       949      3474      3718      3719
 -1      1812    8    0    1
 -2       871       948       949      3716      3720      3718
 -1      1813    8    0    1
 -2       873       872       950      3477      3721      3722
 -1      1814    8    0    1
 -2       872       949       950      3719      3723      3721
 -1      1815    8    0    1
 -2       874       873       951      3480      3724      3725
 -1      1816    8    0    1
 -2       873       950       951      3722      3726      3724
 -1      1817    8    0    1
 -2       875       874       952      3483      3727      3728
 -1      1818    8    0    1
 -2       874       951       952      3725      3729      3727
 -1      1819    8    0    1
 -2       876       875       953      3486      3730      3731
 -1      1820    8    0    1
 -2       875       952       953      3728      3732      3730
 -1      1821    8    0    1
 -2       877       876       954      3489      3733      3734
 -1      1822    8    0    1
 -2       876       953       954      3731      3735      3733
 -1      1823    8    0    1
 -2       878       877       955      3492      3736      3737
 -1      1824    8    0    1
 -2       877       954       955      3734      3738      3736
 -1      1825    8    0    1
 -2       879       878       956      3495      3739      3740
 -1      1826    8    0    1
 -2       878       955       956      3737      3741      3739
 -1      1827    8    0    1
 -2       880       879       957      3498      3742      3743
 -1      1828    8    0    1
 -2       879       956       957      3740      3744      3742
 -1      1829    8    0    1
 -2       749       670       725      3389      2972      3745
 -1      1830    8    0    1
 -2       885       886       958      3514      3746      3747
 -1      1831    8    0    1
 -2       884       885       959      3511      3748      3749
 -1      1832    8    0    1
 -2       885       958       959      3747      3750      3748
 -1      1833    8    0    1
 -2       883       884       960      3508      3751      3752
 -1      1834    8    0    1
 -2       884       959       960      3749      3753      3751
 -1      1835    8    0    1
 -2       886       887       961      3517      3754      3755
 -1      1836    8    0    1
 -2       886       961       958      3755      3756      3746
 -1      1837    8    0    1
 -2       887       888       962      3520      3757      3758
 -1      1838    8    0    1
 -2       887       962       961      3758      3759      3754
 -1      1839    8    0    1
 -2       888       889       963      3523      3760      3761
 -1      1840    8    0    1
 -2       888       963       962      3761      3762      3757
 -1      1841    8    0    1
 -2       889       890       964      3526      3763      3764
 -1      1842    8    0    1
 -2       889       964       963      3764      3765      3760
 -1      1843    8    0    1
 -2       890       891       965      3529      3766      3767
 -1      1844    8    0    1
 -2       890       965       964      3767      3768      3763
 -1      1845    8    0    1
 -2       891       892       966      3532      3769      3770
 -1      1846    8    0    1
 -2       891       966       965      3770      3771      3766
 -1      1847    8    0    1
 -2       892       893       967      3535      3772      3773
 -1      1848    8    0    1
 -2       892       967       966      3773      3774      3769
 -1      1849    8    0    1
 -2       893       894       968      3538      3775      3776
 -1      1850    8    0    1
 -2       893       968       967      3776      3777      3772
 -1      1851    8    0    1
 -2       894       895       969      3541      3778      3779
 -1      1852    8    0    1
 -2       894       969       968      3779      3780      3775
 -1      1853    8    0    1
 -2       895       896       970      3544      3781      3782
 -1      1854    8    0    1
 -2       895       970       969      3782      3783      3778
 -1      1855    8    0    1
 -2       896       897       971      3547      3784      3785
 -1      1856    8    0    1
 -2       896       971       970      3785      3786      3781
 -1      1857    8    0    1
 -2       897       898       972      3550      3787      3788
 -1      1858    8    0    1
 -2       897       972       971      3788      3789      3784
 -1      1859    8    0    1
 -2       898       899       973      3553      3790      3791
 -1      1860    8    0    1
 -2       898       973       972      3791      3792      3787
 -1      1861    8    0    1
 -2       899       900       974      3556      3793      3794
 -1      1862    8    0    1
 -2       899       974       973      3794      3795      3790
 -1      1863    8    0    1
 -2       900       901       975      3559      3796      3797
 -1      1864    8    0    1
 -2       900       975       974      3797      3798      3793
 -1      1865    8    0    1
 -2       901       902       976      3562      3799      3800
 -1      1866    8    0    1
 -2       901       976       975      3800      3801      3796
 -1      1867    8    0    1
 -2       902       903       977      3565      3802      3803
 -1      1868    8    0    1
 -2       902       977       976      3803      3804      3799
 -1      1869    8    0    1
 -2       903       904       978      3568      3805      3806
 -1      1870    8    0    1
 -2       903       978       977      3806      3807      3802
 -1      1871    8    0    1
 -2       904       905       979      3571      3808      3809
 -1      1872    8    0    1
 -2       904       979       978      3809      3810      3805
 -1      1873    8    0    1
 -2       905       906       980      3574      3811      3812
 -1      1874    8    0    1
 -2       905       980       979      3812      3813      3808
 -1      1875    8    0    1
 -2       906       907       981      3577      3814      3815
 -1      1876    8    0    1
 -2       906       981       980      3815      3816      3811
 -1      1877    8    0    1
 -2       907       908       982      3580      3817      3818
 -1      1878    8    0    1
 -2       907       982       981      3818      3819      3814
 -1      1879    8    0    1
 -2       908       909       983      3583      3820      3821
 -1      1880    8    0    1
 -2       908       983       982      3821      3822      3817
 -1      1881    8    0    1
 -2       909       910       984      3586      3823      3824
 -1      1882    8    0    1
 -2       909       984       983      3824      3825      3820
 -1      1883    8    0    1
 -2       913       842       985      3626      3826      3827
 -1      1884    8    0    1
 -2       882       881       986      3503      3828      3829
 -1      1885    8    0    1
 -2       847       846       987      3618      3830      3831
 -1      1886    8    0    1
 -2       848       915       849      3619      3832      3405
 -1      1887    8    0    1
 -2       849       915       924      3832      3643      3833
 -1      1888    8    0    1
 -2       920       922       988      3635      3834      3835
 -1      1889    8    0    1
 -2       917       845       911      3609      3836      3629
 -1      1890    8    0    1
 -2       672       749       725      3394      3745      2973
 -1      1891    8    0    1
 -2       911       845       921      3836      3632      3837
 -1      1892    8    0    1
 -2       987       846       923      3830      3639      3838
 -1      1893    8    0    1
 -2       986       881       989      3828      3839      3840
 -1      1894    8    0    1
 -2       881       918       989      3613      3841      3839
 -1      1895    8    0    1
 -2       850       849       990      3408      3842      3843
 -1      1896    8    0    1
 -2       926       880       957      3655      3743      3844
 -1      1897    8    0    1
 -2       919       847       991      3623      3845      3846
 -1      1898    8    0    1
 -2       847       987       991      3831      3847      3845
 -1      1899    8    0    1
 -2       913       985       992      3827      3848      3849
 -1      1900    8    0    1
 -2       910       911       993      3589      3850      3851
 -1      1901    8    0    1
 -2       921       920       994      3630      3852      3853
 -1      1902    8    0    1
 -2       920       988       994      3835      3854      3852
 -1      1903    8    0    1
 -2       923       913       992      3637      3849      3855
 -1      1904    8    0    1
 -2       914       882       985      3640      3856      3857
 -1      1905    8    0    1
 -2       916       823       926      3602      3650      3858
 -1      1906    8    0    1
 -2       840       919       990      3622      3859      3860
 -1      1907    8    0    1
 -2       988       922       995      3834      3861      3862
 -1      1908    8    0    1
 -2       922       927       995      3653      3863      3861
 -1      1909    8    0    1
 -2       918       883       996      3614      3864      3865
 -1      1910    8    0    1
 -2       918       996       989      3865      3866      3841
 -1      1911    8    0    1
 -2       842       914       985      3599      3857      3826
 -1      1912    8    0    1
 -2       850       990       928      3843      3867      3656
 -1      1913    8    0    1
 -2       910       993       984      3851      3868      3823
 -1      1914    8    0    1
 -2       985       882       986      3856      3829      3869
 -1      1915    8    0    1
 -2       916       926       997      3858      3870      3871
 -1      1916    8    0    1
 -2       925       916       997      3645      3871      3872
 -1      1917    8    0    1
 -2       926       957       997      3844      3873      3870
 -1      1918    8    0    1
 -2       996       883       960      3864      3752      3874
 -1      1919    8    0    1
 -2       990       849       924      3842      3833      3875
 -1      1920    8    0    1
 -2       927       925       998      3654      3876      3877
 -1      1921    8    0    1
 -2       927       998       995      3877      3878      3863
 -1      1922    8    0    1
 -2       996       960       999      3874      3879      3880
 -1      1923    8    0    1
 -2       930       929      1000      3663      3881      3882
 -1      1924    8    0    1
 -2       931       930      1001      3666      3883      3884
 -1      1925    8    0    1
 -2       930      1000      1001      3882      3885      3883
 -1      1926    8    0    1
 -2       932       931      1002      3669      3886      3887
 -1      1927    8    0    1
 -2       931      1001      1002      3884      3888      3886
 -1      1928    8    0    1
 -2       933       932      1003      3672      3889      3890
 -1      1929    8    0    1
 -2       932      1002      1003      3887      3891      3889
 -1      1930    8    0    1
 -2       934       933      1004      3675      3892      3893
 -1      1931    8    0    1
 -2       933      1003      1004      3890      3894      3892
 -1      1932    8    0    1
 -2       935       934      1005      3678      3895      3896
 -1      1933    8    0    1
 -2       934      1004      1005      3893      3897      3895
 -1      1934    8    0    1
 -2       936       935      1006      3681      3898      3899
 -1      1935    8    0    1
 -2       935      1005      1006      3896      3900      3898
 -1      1936    8    0    1
 -2       937       936      1007      3684      3901      3902
 -1      1937    8    0    1
 -2       936      1006      1007      3899      3903      3901
 -1      1938    8    0    1
 -2       938       937      1008      3687      3904      3905
 -1      1939    8    0    1
 -2       937      1007      1008      3902      3906      3904
 -1      1940    8    0    1
 -2       939       938      1009      3690      3907      3908
 -1      1941    8    0    1
 -2       938      1008      1009      3905      3909      3907
 -1      1942    8    0    1
 -2       940       939      1010      3693      3910      3911
 -1      1943    8    0    1
 -2       939      1009      1010      3908      3912      3910
 -1      1944    8    0    1
 -2       941       940      1011      3696      3913      3914
 -1      1945    8    0    1
 -2       940      1010      1011      3911      3915      3913
 -1      1946    8    0    1
 -2       942       941      1012      3699      3916      3917
 -1      1947    8    0    1
 -2       941      1011      1012      3914      3918      3916
 -1      1948    8    0    1
 -2       943       942      1013      3702      3919      3920
 -1      1949    8    0    1
 -2       942      1012      1013      3917      3921      3919
 -1      1950    8    0    1
 -2       944       943      1014      3705      3922      3923
 -1      1951    8    0    1
 -2       943      1013      1014      3920      3924      3922
 -1      1952    8    0    1
 -2       945       944      1015      3708      3925      3926
 -1      1953    8    0    1
 -2       944      1014      1015      3923      3927      3925
 -1      1954    8    0    1
 -2       946       945      1016      3711      3928      3929
 -1      1955    8    0    1
 -2       945      1015      1016      3926      3930      3928
 -1      1956    8    0    1
 -2       947       946      1017      3714      3931      3932
 -1      1957    8    0    1
 -2       946      1016      1017      3929      3933      3931
 -1      1958    8    0    1
 -2       948       947      1018      3717      3934      3935
 -1      1959    8    0    1
 -2       947      1017      1018      3932      3936      3934
 -1      1960    8    0    1
 -2       949       948      1019      3720      3937      3938
 -1      1961    8    0    1
 -2       948      1018      1019      3935      3939      3937
 -1      1962    8    0    1
 -2       950       949      1020      3723      3940      3941
 -1      1963    8    0    1
 -2       949      1019      1020      3938      3942      3940
 -1      1964    8    0    1
 -2       951       950      1021      3726      3943      3944
 -1      1965    8    0    1
 -2       950      1020      1021      3941      3945      3943
 -1      1966    8    0    1
 -2       952       951      1022      3729      3946      3947
 -1      1967    8    0    1
 -2       951      1021      1022      3944      3948      3946
 -1      1968    8    0    1
 -2       953       952      1023      3732      3949      3950
 -1      1969    8    0    1
 -2       952      1022      1023      3947      3951      3949
 -1      1970    8    0    1
 -2       954       953      1024      3735      3952      3953
 -1      1971    8    0    1
 -2       953      1023      1024      3950      3954      3952
 -1      1972    8    0    1
 -2       955       954      1025      3738      3955      3956
 -1      1973    8    0    1
 -2       954      1024      1025      3953      3957      3955
 -1      1974    8    0    1
 -2       956       955      1026      3741      3958      3959
 -1      1975    8    0    1
 -2       955      1025      1026      3956      3960      3958
 -1      1976    8    0    1
 -2       957       956      1027      3744      3961      3962
 -1      1977    8    0    1
 -2       956      1026      1027      3959      3963      3961
 -1      1978    8    0    1
 -2       959       958      1028      3750      3964      3965
 -1      1979    8    0    1
 -2       992       985       986      3848      3869      3966
 -1      1980    8    0    1
 -2       961       962      1029      3759      3967      3968
 -1      1981    8    0    1
 -2       958       961      1030      3756      3969      3970
 -1      1982    8    0    1
 -2       961      1029      1030      3968      3971      3969
 -1      1983    8    0    1
 -2       960       959      1031      3753      3972      3973
 -1      1984    8    0    1
 -2       959      1028      1031      3965      3974      3972
 -1      1985    8    0    1
 -2       962       963      1032      3762      3975      3976
 -1      1986    8    0    1
 -2       962      1032      1029      3976      3977      3967
 -1      1987    8    0    1
 -2       963       964      1033      3765      3978      3979
 -1      1988    8    0    1
 -2       963      1033      1032      3979      3980      3975
 -1      1989    8    0    1
 -2       964       965      1034      3768      3981      3982
 -1      1990    8    0    1
 -2       964      1034      1033      3982      3983      3978
 -1      1991    8    0    1
 -2       965       966      1035      3771      3984      3985
 -1      1992    8    0    1
 -2       965      1035      1034      3985      3986      3981
 -1      1993    8    0    1
 -2       966       967      1036      3774      3987      3988
 -1      1994    8    0    1
 -2       966      1036      1035      3988      3989      3984
 -1      1995    8    0    1
 -2       967       968      1037      3777      3990      3991
 -1      1996    8    0    1
 -2       967      1037      1036      3991      3992      3987
 -1      1997    8    0    1
 -2       968       969      1038      3780      3993      3994
 -1      1998    8    0    1
 -2       968      1038      1037      3994      3995      3990
 -1      1999    8    0    1
 -2       969       970      1039      3783      3996      3997
 -1      2000    8    0    1
 -2       969      1039      1038      3997      3998      3993
 -1      2001    8    0    1
 -2       970       971      1040      3786      3999      4000
 -1      2002    8    0    1
 -2       970      1040      1039      4000      4001      3996
 -1      2003    8    0    1
 -2       971       972      1041      3789      4002      4003
 -1      2004    8    0    1
 -2       971      1041      1040      4003      4004      3999
 -1      2005    8    0    1
 -2       972       973      1042      3792      4005      4006
 -1      2006    8    0    1
 -2       972      1042      1041      4006      4007      4002
 -1      2007    8    0    1
 -2       973       974      1043      3795      4008      4009
 -1      2008    8    0    1
 -2       973      1043      1042      4009      4010      4005
 -1      2009    8    0    1
 -2       974       975      1044      3798      4011      4012
 -1      2010    8    0    1
 -2       974      1044      1043      4012      4013      4008
 -1      2011    8    0    1
 -2       975       976      1045      3801      4014      4015
 -1      2012    8    0    1
 -2       975      1045      1044      4015      4016      4011
 -1      2013    8    0    1
 -2       976       977      1046      3804      4017      4018
 -1      2014    8    0    1
 -2       976      1046      1045      4018      4019      4014
 -1      2015    8    0    1
 -2       977       978      1047      3807      4020      4021
 -1      2016    8    0    1
 -2       977      1047      1046      4021      4022      4017
 -1      2017    8    0    1
 -2       978       979      1048      3810      4023      4024
 -1      2018    8    0    1
 -2       978      1048      1047      4024      4025      4020
 -1      2019    8    0    1
 -2       979       980      1049      3813      4026      4027
 -1      2020    8    0    1
 -2       979      1049      1048      4027      4028      4023
 -1      2021    8    0    1
 -2       980       981      1050      3816      4029      4030
 -1      2022    8    0    1
 -2       980      1050      1049      4030      4031      4026
 -1      2023    8    0    1
 -2       981       982      1051      3819      4032      4033
 -1      2024    8    0    1
 -2       981      1051      1050      4033      4034      4029
 -1      2025    8    0    1
 -2       982       983      1052      3822      4035      4036
 -1      2026    8    0    1
 -2       982      1052      1051      4036      4037      4032
 -1      2027    8    0    1
 -2       983       984      1053      3825      4038      4039
 -1      2028    8    0    1
 -2       983      1053      1052      4039      4040      4035
 -1      2029    8    0    1
 -2       987       923      1054      3838      4041      4042
 -1      2030    8    0    1
 -2       923       992      1055      3855      4043      4044
 -1      2031    8    0    1
 -2      1054       923      1055      4041      4044      4045
 -1      2032    8    0    1
 -2       992       986      1055      3966      4046      4043
 -1      2033    8    0    1
 -2       990       919      1056      3859      4047      4048
 -1      2034    8    0    1
 -2       928       990      1056      3867      4048      4049
 -1      2035    8    0    1
 -2       919       991      1056      3846      4050      4047
 -1      2036    8    0    1
 -2       911       921       993      3837      4051      3850
 -1      2037    8    0    1
 -2       929       928      1057      3660      4052      4053
 -1      2038    8    0    1
 -2      1000       929      1057      3881      4053      4054
 -1      2039    8    0    1
 -2       928      1056      1057      4049      4055      4052
 -1      2040    8    0    1
 -2       993       921       994      4051      3853      4056
 -1      2041    8    0    1
 -2       998       925       997      3876      3872      4057
 -1      2042    8    0    1
 -2       999       960      1031      3879      3973      4058
 -1      2043    8    0    1
 -2       984       993       994      3868      4056      4059
 -1      2044    8    0    1
 -2       957      1027       997      3962      4060      3873
 -1      2045    8    0    1
 -2      1028       958      1030      3964      3970      4061
 -1      2046    8    0    1
 -2       991       987      1058      3847      4062      4063
 -1      2047    8    0    1
 -2       987      1054      1058      4042      4064      4062
 -1      2048    8    0    1
 -2      1053       984       994      4038      4059      4065
 -1      2049    8    0    1
 -2      1055       986       989      4046      3840      4066
 -1      2050    8    0    1
 -2       996       999      1059      3880      4067      4068
 -1      2051    8    0    1
 -2       996      1059       989      4068      4069      3866
 -1      2052    8    0    1
 -2       924       840       990      3644      3860      3875
 -1      2053    8    0    1
 -2       988       995      1060      3862      4070      4071
 -1      2054    8    0    1
 -2       994       988      1053      3854      4072      4065
 -1      2055    8    0    1
 -2       988      1060      1053      4071      4073      4072
 -1      2056    8    0    1
 -2      1029      1032      1061      3977      4074      4075
 -1      2057    8    0    1
 -2      1002      1001      1062      3888      4076      4077
 -1      2058    8    0    1
 -2      1003      1002      1063      3891      4078      4079
 -1      2059    8    0    1
 -2      1002      1062      1063      4077      4080      4078
 -1      2060    8    0    1
 -2      1004      1003      1064      3894      4081      4082
 -1      2061    8    0    1
 -2      1003      1063      1064      4079      4083      4081
 -1      2062    8    0    1
 -2      1005      1004      1065      3897      4084      4085
 -1      2063    8    0    1
 -2      1004      1064      1065      4082      4086      4084
 -1      2064    8    0    1
 -2      1006      1005      1066      3900      4087      4088
 -1      2065    8    0    1
 -2      1005      1065      1066      4085      4089      4087
 -1      2066    8    0    1
 -2      1007      1006      1067      3903      4090      4091
 -1      2067    8    0    1
 -2      1006      1066      1067      4088      4092      4090
 -1      2068    8    0    1
 -2      1008      1007      1068      3906      4093      4094
 -1      2069    8    0    1
 -2      1007      1067      1068      4091      4095      4093
 -1      2070    8    0    1
 -2      1009      1008      1069      3909      4096      4097
 -1      2071    8    0    1
 -2      1008      1068      1069      4094      4098      4096
 -1      2072    8    0    1
 -2      1010      1009      1070      3912      4099      4100
 -1      2073    8    0    1
 -2      1009      1069      1070      4097      4101      4099
 -1      2074    8    0    1
 -2      1011      1010      1071      3915      4102      4103
 -1      2075    8    0    1
 -2      1010      1070      1071      4100      4104      4102
 -1      2076    8    0    1
 -2      1012      1011      1072      3918      4105      4106
 -1      2077    8    0    1
 -2      1011      1071      1072      4103      4107      4105
 -1      2078    8    0    1
 -2      1013      1012      1073      3921      4108      4109
 -1      2079    8    0    1
 -2      1012      1072      1073      4106      4110      4108
 -1      2080    8    0    1
 -2      1014      1013      1074      3924      4111      4112
 -1      2081    8    0    1
 -2      1013      1073      1074      4109      4113      4111
 -1      2082    8    0    1
 -2      1015      1014      1075      3927      4114      4115
 -1      2083    8    0    1
 -2      1014      1074      1075      4112      4116      4114
 -1      2084    8    0    1
 -2      1016      1015      1076      3930      4117      4118
 -1      2085    8    0    1
 -2      1015      1075      1076      4115      4119      4117
 -1      2086    8    0    1
 -2      1017      1016      1077      3933      4120      4121
 -1      2087    8    0    1
 -2      1016      1076      1077      4118      4122      4120
 -1      2088    8    0    1
 -2      1018      1017      1078      3936      4123      4124
 -1      2089    8    0    1
 -2      1017      1077      1078      4121      4125      4123
 -1      2090    8    0    1
 -2      1019      1018      1079      3939      4126      4127
 -1      2091    8    0    1
 -2      1018      1078      1079      4124      4128      4126
 -1      2092    8    0    1
 -2      1020      1019      1080      3942      4129      4130
 -1      2093    8    0    1
 -2      1019      1079      1080      4127      4131      4129
 -1      2094    8    0    1
 -2      1021      1020      1081      3945      4132      4133
 -1      2095    8    0    1
 -2      1020      1080      1081      4130      4134      4132
 -1      2096    8    0    1
 -2      1022      1021      1082      3948      4135      4136
 -1      2097    8    0    1
 -2      1021      1081      1082      4133      4137      4135
 -1      2098    8    0    1
 -2      1023      1022      1083      3951      4138      4139
 -1      2099    8    0    1
 -2      1022      1082      1083      4136      4140      4138
 -1      2100    8    0    1
 -2      1024      1023      1084      3954      4141      4142
 -1      2101    8    0    1
 -2      1023      1083      1084      4139      4143      4141
 -1      2102    8    0    1
 -2      1025      1024      1085      3957      4144      4145
 -1      2103    8    0    1
 -2      1024      1084      1085      4142      4146      4144
 -1      2104    8    0    1
 -2      1026      1025      1086      3960      4147      4148
 -1      2105    8    0    1
 -2      1025      1085      1086      4145      4149      4147
 -1      2106    8    0    1
 -2      1027      1026      1087      3963      4150      4151
 -1      2107    8    0    1
 -2      1026      1086      1087      4148      4152      4150
 -1      2108    8    0    1
 -2       997      1027       998      4060      4153      4057
 -1      2109    8    0    1
 -2      1032      1033      1088      3980      4154      4155
 -1      2110    8    0    1
 -2      1032      1088      1061      4155      4156      4074
 -1      2111    8    0    1
 -2      1031      1028      1089      3974      4157      4158
 -1      2112    8    0    1
 -2      1033      1034      1090      3983      4159      4160
 -1      2113    8    0    1
 -2      1033      1090      1088      4160      4161      4154
 -1      2114    8    0    1
 -2      1034      1035      1091      3986      4162      4163
 -1      2115    8    0    1
 -2      1034      1091      1090      4163      4164      4159
 -1      2116    8    0    1
 -2      1035      1036      1092      3989      4165      4166
 -1      2117    8    0    1
 -2      1035      1092      1091      4166      4167      4162
 -1      2118    8    0    1
 -2      1036      1037      1093      3992      4168      4169
 -1      2119    8    0    1
 -2      1036      1093      1092      4169      4170      4165
 -1      2120    8    0    1
 -2      1037      1038      1094      3995      4171      4172
 -1      2121    8    0    1
 -2      1037      1094      1093      4172      4173      4168
 -1      2122    8    0    1
 -2      1038      1039      1095      3998      4174      4175
 -1      2123    8    0    1
 -2      1038      1095      1094      4175      4176      4171
 -1      2124    8    0    1
 -2      1039      1040      1096      4001      4177      4178
 -1      2125    8    0    1
 -2      1039      1096      1095      4178      4179      4174
 -1      2126    8    0    1
 -2      1040      1041      1097      4004      4180      4181
 -1      2127    8    0    1
 -2      1040      1097      1096      4181      4182      4177
 -1      2128    8    0    1
 -2      1041      1042      1098      4007      4183      4184
 -1      2129    8    0    1
 -2      1041      1098      1097      4184      4185      4180
 -1      2130    8    0    1
 -2      1042      1043      1099      4010      4186      4187
 -1      2131    8    0    1
 -2      1042      1099      1098      4187      4188      4183
 -1      2132    8    0    1
 -2      1043      1044      1100      4013      4189      4190
 -1      2133    8    0    1
 -2      1043      1100      1099      4190      4191      4186
 -1      2134    8    0    1
 -2      1044      1045      1101      4016      4192      4193
 -1      2135    8    0    1
 -2      1044      1101      1100      4193      4194      4189
 -1      2136    8    0    1
 -2      1045      1046      1102      4019      4195      4196
 -1      2137    8    0    1
 -2      1045      1102      1101      4196      4197      4192
 -1      2138    8    0    1
 -2      1046      1047      1103      4022      4198      4199
 -1      2139    8    0    1
 -2      1046      1103      1102      4199      4200      4195
 -1      2140    8    0    1
 -2      1047      1048      1104      4025      4201      4202
 -1      2141    8    0    1
 -2      1047      1104      1103      4202      4203      4198
 -1      2142    8    0    1
 -2      1048      1049      1105      4028      4204      4205
 -1      2143    8    0    1
 -2      1048      1105      1104      4205      4206      4201
 -1      2144    8    0    1
 -2      1049      1050      1106      4031      4207      4208
 -1      2145    8    0    1
 -2      1049      1106      1105      4208      4209      4204
 -1      2146    8    0    1
 -2      1050      1051      1107      4034      4210      4211
 -1      2147    8    0    1
 -2      1050      1107      1106      4211      4212      4207
 -1      2148    8    0    1
 -2      1051      1052      1108      4037      4213      4214
 -1      2149    8    0    1
 -2      1051      1108      1107      4214      4215      4210
 -1      2150    8    0    1
 -2      1052      1053      1109      4040      4216      4217
 -1      2151    8    0    1
 -2      1108      1052      1109      4213      4217      4218
 -1      2152    8    0    1
 -2      1053      1060      1109      4073      4219      4216
 -1      2153    8    0    1
 -2      1056       991      1110      4050      4220      4221
 -1      2154    8    0    1
 -2      1057      1056      1110      4055      4221      4222
 -1      2155    8    0    1
 -2       991      1058      1110      4063      4223      4220
 -1      2156    8    0    1
 -2      1055       989      1059      4066      4069      4224
 -1      2157    8    0    1
 -2       999      1031      1111      4058      4225      4226
 -1      2158    8    0    1
 -2      1031      1089      1111      4158      4227      4225
 -1      2159    8    0    1
 -2      1028      1030      1112      4061      4228      4229
 -1      2160    8    0    1
 -2      1028      1112      1089      4229      4230      4157
 -1      2161    8    0    1
 -2      1030      1029      1113      3971      4231      4232
 -1      2162    8    0    1
 -2      1029      1061      1113      4075      4233      4231
 -1      2163    8    0    1
 -2      1001      1000      1114      3885      4234      4235
 -1      2164    8    0    1
 -2      1001      1114      1062      4235      4236      4076
 -1      2165    8    0    1
 -2      1060       995      1087      4070      4237      4238
 -1      2166    8    0    1
 -2       998      1027      1087      4153      4151      4239
 -1      2167    8    0    1
 -2      1058      1054      1115      4064      4240      4241
 -1      2168    8    0    1
 -2      1030      1113      1112      4232      4242      4228
 -1      2169    8    0    1
 -2      1109      1060      1087      4219      4238      4243
 -1      2170    8    0    1
 -2      1054      1055      1115      4045      4244      4240
 -1      2171    8    0    1
 -2      1087       995       998      4237      3878      4239
 -1      2172    8    0    1
 -2      1115      1055      1059      4244      4224      4245
 -1      2173    8    0    1
 -2      1000      1057      1116      4054      4246      4247
 -1      2174    8    0    1
 -2      1114      1000      1116      4234      4247      4248
 -1      2175    8    0    1
 -2      1057      1110      1116      4222      4249      4246
 -1      2176    8    0    1
 -2      1064      1063      1117      4083      4250      4251
 -1      2177    8    0    1
 -2      1065      1064      1113      4086      4252      4253
 -1      2178    8    0    1
 -2      1066      1065      1061      4089      4254      4255
 -1      2179    8    0    1
 -2      1067      1066      1088      4092      4256      4257
 -1      2180    8    0    1
 -2      1068      1067      1090      4095      4258      4259
 -1      2181    8    0    1
 -2      1069      1068      1091      4098      4260      4261
 -1      2182    8    0    1
 -2      1070      1069      1092      4101      4262      4263
 -1      2183    8    0    1
 -2      1071      1070      1093      4104      4264      4265
 -1      2184    8    0    1
 -2      1072      1071      1094      4107      4266      4267
 -1      2185    8    0    1
 -2      1073      1072      1095      4110      4268      4269
 -1      2186    8    0    1
 -2      1074      1073      1096      4113      4270      4271
 -1      2187    8    0    1
 -2      1075      1074      1097      4116      4272      4273
 -1      2188    8    0    1
 -2      1076      1075      1098      4119      4274      4275
 -1      2189    8    0    1
 -2      1077      1076      1099      4122      4276      4277
 -1      2190    8    0    1
 -2      1078      1077      1100      4125      4278      4279
 -1      2191    8    0    1
 -2      1079      1078      1101      4128      4280      4281
 -1      2192    8    0    1
 -2      1080      1079      1102      4131      4282      4283
 -1      2193    8    0    1
 -2      1081      1080      1103      4134      4284      4285
 -1      2194    8    0    1
 -2      1082      1081      1104      4137      4286      4287
 -1      2195    8    0    1
 -2      1083      1082      1105      4140      4288      4289
 -1      2196    8    0    1
 -2      1084      1083      1106      4143      4290      4291
 -1      2197    8    0    1
 -2      1085      1084      1107      4146      4292      4293
 -1      2198    8    0    1
 -2      1086      1085      1108      4149      4294      4295
 -1      2199    8    0    1
 -2      1087      1086      1109      4152      4296      4243
 -1      2200    8    0    1
 -2      1091      1092      1069      4167      4262      4261
 -1      2201    8    0    1
 -2      1090      1091      1068      4164      4260      4259
 -1      2202    8    0    1
 -2      1100      1077      1099      4278      4277      4191
 -1      2203    8    0    1
 -2      1093      1070      1092      4264      4263      4170
 -1      2204    8    0    1
 -2      1088      1090      1067      4161      4258      4257
 -1      2205    8    0    1
 -2      1093      1094      1071      4173      4266      4265
 -1      2206    8    0    1
 -2      1094      1095      1072      4176      4268      4267
 -1      2207    8    0    1
 -2      1095      1096      1073      4179      4270      4269
 -1      2208    8    0    1
 -2      1096      1097      1074      4182      4272      4271
 -1      2209    8    0    1
 -2      1097      1098      1075      4185      4274      4273
 -1      2210    8    0    1
 -2      1098      1099      1076      4188      4276      4275
 -1      2211    8    0    1
 -2      1100      1101      1078      4194      4280      4279
 -1      2212    8    0    1
 -2      1101      1102      1079      4197      4282      4281
 -1      2213    8    0    1
 -2      1102      1103      1080      4200      4284      4283
 -1      2214    8    0    1
 -2      1103      1104      1081      4203      4286      4285
 -1      2215    8    0    1
 -2      1104      1105      1082      4206      4288      4287
 -1      2216    8    0    1
 -2      1105      1106      1083      4209      4290      4289
 -1      2217    8    0    1
 -2      1106      1107      1084      4212      4292      4291
 -1      2218    8    0    1
 -2      1107      1108      1085      4215      4294      4293
 -1      2219    8    0    1
 -2      1108      1109      1086      4218      4296      4295
 -1      2220    8    0    1
 -2      1059       999      1118      4067      4297      4298
 -1      2221    8    0    1
 -2      1111      1089      1119      4227      4299      4300
 -1      2222    8    0    1
 -2      1061      1088      1066      4156      4256      4255
 -1      2223    8    0    1
 -2      1063      1062      1119      4080      4301      4302
 -1      2224    8    0    1
 -2      1113      1061      1065      4233      4254      4253
 -1      2225    8    0    1
 -2      1062      1114      1120      4236      4303      4304
 -1      2226    8    0    1
 -2      1062      1120      1119      4304      4305      4301
 -1      2227    8    0    1
 -2      1089      1112      1117      4230      4306      4307
 -1      2228    8    0    1
 -2      1115      1059      1118      4245      4298      4308
 -1      2229    8    0    1
 -2       999      1111      1118      4226      4309      4297
 -1      2230    8    0    1
 -2      1118      1111      1120      4309      4310      4311
 -1      2231    8    0    1
 -2      1115      1118      1121      4308      4312      4313
 -1      2232    8    0    1
 -2      1058      1115      1121      4241      4313      4314
 -1      2233    8    0    1
 -2      1118      1120      1121      4311      4315      4312
 -1      2234    8    0    1
 -2      1063      1119      1117      4302      4316      4250
 -1      2235    8    0    1
 -2      1058      1121      1110      4314      4317      4223
 -1      2236    8    0    1
 -2      1119      1089      1117      4299      4307      4316
 -1      2237    8    0    1
 -2      1111      1119      1120      4300      4305      4310
 -1      2238    8    0    1
 -2      1113      1064      1117      4252      4251      4318
 -1      2239    8    0    1
 -2      1120      1114      1121      4303      4319      4315
 -1      2240    8    0    1
 -2      1112      1113      1117      4242      4318      4306
 -1      2241    8    0    1
 -2      1114      1116      1121      4248      4320      4319
 -1      2242    8    0    1
 -2      1110      1121      1116      4317      4320      4249
 -3
    1PSTEP                         1           1           1          
  100CL  101 1.000000000        4320                     0    1           1
 -4  DISP        4    1
 -5  D1          1    2    1    0
 -5  D2          1    2    2    0
 -5  D3          1    2    3    0
 -5  ALL         1    2    0    0    1ALL
 -1         1 2.53810E-03-5.25903E-04-4.59641E-15
 -1         2 4.75426E-03 2.45347E-04-7.99184E-15
 -1         3 1.54848E-02 2.29094E-03-1.76967E-13
 -1         4 1.48674E-02 8.62165E-04-1.80609E-13
 -1         5 0.00000E+00 0.00000E+00 0.00000E+00
 -1         6 0.00000E+00 0.00000E+00 0.00000E+00
 -1         7 0.00000E+00 0.00000E+00 0.00000E+00
 -1         8 0.00000E+00 0.00000E+00 0.00000E+00
 -1         9 0.00000E+00 0.00000E+00 0.00000E+00
 -1        10 0.00000E+00 0.00000E+00 0.00000E+00
 -1        11 0.00000E+00 0.00000E+00 0.00000E+00
 -1        12 0.00000E+00 0.00000E+00 0.00000E+00
 -1        13 0.00000E+00 0.00000E+00 0.00000E+00
 -1        14 0.00000E+00 0.00000E+00 0.00000E+00
 -1        15 0.00000E+00 0.00000E+00 0.00000E+00
 -1        16 0.00000E+00 0.00000E+00 0.00000E+00
 -1        17 0.00000E+00 0.00000E+00 0.00000E+00
 -1        18 0.00000E+00 0.00000E+00 0.00000E+00
 -1        19 0.00000E+00 0.00000E+00 0.00000E+00
 -1        20 0.00000E+00 0.00000E+00 0.00000E+00
 -1        21 0.00000E+00 0.00000E+00 0.00000E+00
 -1        22 0.00000E+00 0.00000E+00 0.00000E+00
 -1        23 4.98044E-04-3.05546E-04 4.53671E-17
 -1        24 8.60383E-04-4.82449E-04-9.87607E-17
 -1        25 1.19353E-03-6.27208E-04-4.30530E-16
 -1        26 1.50792E-03-7.52562E-04-9.50503E-16
 -1        27 1.80232E-03-8.59243E-04-1.66123E-15
 -1        28 2.07666E-03-9.39530E-04-2.56491E-15
 -1        29 2.33536E-03-9.83406E-04-3.66607E-15
 -1        30 2.58770E-03-9.84241E-04-4.96607E-15
 -1        31 2.84513E-03-9.42922E-04-6.46094E-15
 -1        32 3.11709E-03-8.68337E-04-8.14408E-15
 -1        33 3.40796E-03-7.74178E-04-1.00056E-14
 -1        34 3.71654E-03-6.74299E-04-1.20371E-14
 -1        35 4.03793E-03-5.79204E-04-1.42334E-14
 -1        36 4.36594E-03-4.94817E-04-1.65879E-14
 -1        37 4.69511E-03-4.23071E-04-1.90972E-14
 -1        38 5.02152E-03-3.63254E-04-2.17515E-14
 -1        39 5.34294E-03-3.13325E-04-2.45378E-14
 -1        40 5.65844E-03-2.70857E-04-2.74583E-14
 -1        41 5.96803E-03-2.33575E-04-3.05118E-14
 -1        42 6.27222E-03-1.99592E-04-3.36998E-14
 -1        43 6.57180E-03-1.67463E-04-3.70293E-14
 -1        44 6.86758E-03-1.36157E-04-4.05033E-14
 -1        45 7.16036E-03-1.04979E-04-4.41209E-14
 -1        46 7.45083E-03-7.34959E-05-4.78811E-14
 -1        47 7.73959E-03-4.14652E-05-5.17788E-14
 -1        48 8.02710E-03-8.77587E-06-5.58068E-14
 -1        49 8.31375E-03 2.45951E-05-5.99600E-14
 -1        50 8.59980E-03 5.86165E-05-6.42424E-14
 -1        51 8.88547E-03 9.32267E-05-6.86533E-14
 -1        52 9.17091E-03 1.28350E-04-7.31813E-14
 -1        53 9.45624E-03 1.63907E-04-7.78169E-14
 -1        54 9.74152E-03 1.99822E-04-8.25578E-14
 -1        55 1.00268E-02 2.36025E-04-8.74064E-14
 -1        56 1.03121E-02 2.72456E-04-9.23519E-14
 -1        57 1.05974E-02 3.09065E-04-9.73812E-14
 -1        58 1.08828E-02 3.45809E-04-1.02485E-13
 -1        59 1.11683E-02 3.82653E-04-1.07653E-13
 -1        60 1.14538E-02 4.19571E-04-1.12883E-13
 -1        61 1.17393E-02 4.56541E-04-1.18188E-13
 -1        62 1.20249E-02 4.93547E-04-1.23576E-13
 -1        63 1.23105E-02 5.30577E-04-1.29047E-13
 -1        64 1.25961E-02 5.67622E-04-1.34597E-13
 -1        65 1.28818E-02 6.04675E-04-1.40227E-13
 -1        66 1.31675E-02 6.41732E-04-1.45929E-13
 -1        67 1.34532E-02 6.78789E-04-1.51689E-13
 -1        68 1.37389E-02 7.15843E-04-1.57487E-13
 -1        69 1.40246E-02 7.52894E-04-1.63309E-13
 -1        70 1.43103E-02 7.89939E-04-1.69147E-13
 -1        71 1.45960E-02 8.26980E-04-1.75009E-13
 -1        72 5.39995E-04 3.04216E-04 7.54537E-17
 -1        73 9.52083E-04 4.88524E-04-7.35902E-18
 -1        74 1.34653E-03 6.60643E-04-2.50064E-16
 -1        75 1.72202E-03 8.39999E-04-6.58761E-16
 -1        76 2.06860E-03 1.02192E-03-1.24547E-15
 -1        77 2.37822E-03 1.18557E-03-2.02030E-15
 -1        78 2.65383E-03 1.30194E-03-2.99113E-15
 -1        79 2.91304E-03 1.34880E-03-4.16085E-15
 -1        80 3.18129E-03 1.32489E-03-5.53508E-15
 -1        81 3.47817E-03 1.25136E-03-7.11006E-15
 -1        82 3.80847E-03 1.15958E-03-8.87608E-15
 -1        83 4.16394E-03 1.07633E-03-1.08212E-14
 -1        84 4.53110E-03 1.01651E-03-1.29336E-14
 -1        85 4.89800E-03 9.83992E-04-1.52161E-14
 -1        86 5.25698E-03 9.76022E-04-1.76611E-14
 -1        87 5.60455E-03 9.87225E-04-2.02633E-14
 -1        88 5.94008E-03 1.01207E-03-2.30152E-14
 -1        89 6.26453E-03 1.04591E-03-2.59102E-14
 -1        90 6.57951E-03 1.08527E-03-2.89423E-14
 -1        91 6.88682E-03 1.12768E-03-3.21105E-14
 -1        92 7.18809E-03 1.17150E-03-3.54163E-14
 -1        93 7.48472E-03 1.21568E-03-3.88611E-14
 -1        94 7.77789E-03 1.25959E-03-4.24364E-14
 -1        95 8.06850E-03 1.30288E-03-4.61387E-14
 -1        96 8.35727E-03 1.34539E-03-4.99751E-14
 -1        97 8.64474E-03 1.38708E-03-5.39439E-14
 -1        98 8.93133E-03 1.42798E-03-5.80536E-14
 -1        99 9.21733E-03 1.46816E-03-6.22936E-14
 -1       100 9.50296E-03 1.50771E-03-6.66518E-14
 -1       101 9.78837E-03 1.54671E-03-7.11136E-14
 -1       102 1.00737E-02 1.58526E-03-7.56774E-14
 -1       103 1.03589E-02 1.62344E-03-8.03595E-14
 -1       104 1.06442E-02 1.66133E-03-8.51454E-14
 -1       105 1.09295E-02 1.69898E-03-9.00258E-14
 -1       106 1.12148E-02 1.73646E-03-9.50004E-14
 -1       107 1.15002E-02 1.77380E-03-1.00035E-13
 -1       108 1.17857E-02 1.81105E-03-1.05138E-13
 -1       109 1.20712E-02 1.84821E-03-1.10333E-13
 -1       110 1.23567E-02 1.88533E-03-1.15637E-13
 -1       111 1.26423E-02 1.92241E-03-1.21041E-13
 -1       112 1.29279E-02 1.95946E-03-1.26521E-13
 -1       113 1.32135E-02 1.99650E-03-1.32058E-13
 -1       114 1.34992E-02 2.03354E-03-1.37638E-13
 -1       115 1.37849E-02 2.07057E-03-1.43243E-13
 -1       116 1.40705E-02 2.10760E-03-1.48867E-13
 -1       117 1.43562E-02 2.14463E-03-1.54516E-13
 -1       118 1.46420E-02 2.18166E-03-1.60185E-13
 -1       119 1.49277E-02 2.21870E-03-1.65865E-13
 -1       120 1.52134E-02 2.25575E-03-1.71562E-13
 -1       121 1.54484E-02 2.20666E-03-1.77228E-13
 -1       122 1.54119E-02 2.12237E-03-1.77525E-13
 -1       123 1.53755E-02 2.03809E-03-1.77788E-13
 -1       124 1.53391E-02 1.95379E-03-1.78040E-13
 -1       125 1.53026E-02 1.86950E-03-1.78288E-13
 -1       126 1.52668E-02 1.78662E-03-1.78572E-13
 -1       127 1.52304E-02 1.70231E-03-1.78866E-13
 -1       128 1.51939E-02 1.61800E-03-1.79127E-13
 -1       129 1.51575E-02 1.53368E-03-1.79370E-13
 -1       130 1.51211E-02 1.44937E-03-1.79573E-13
 -1       131 1.50847E-02 1.36506E-03-1.79754E-13
 -1       132 1.50489E-02 1.28219E-03-1.79932E-13
 -1       133 1.50125E-02 1.19789E-03-1.80101E-13
 -1       134 1.49761E-02 1.11359E-03-1.80240E-13
 -1       135 1.49396E-02 1.02931E-03-1.80383E-13
 -1       136 1.49032E-02 9.45022E-04-1.80507E-13
 -1       137 4.72002E-03 4.02817E-04-7.86098E-15
 -1       138 4.57877E-03 5.61070E-04-7.54049E-15
 -1       139 4.36165E-03 6.93004E-04-7.10778E-15
 -1       140 4.04750E-03 8.11280E-04-6.52500E-15
 -1       141 3.67724E-03 8.97159E-04-5.89035E-15
 -1       142 3.28129E-03 9.46540E-04-5.26316E-15
 -1       143 2.80734E-03 9.59552E-04-4.57162E-15
 -1       144 2.32003E-03 9.25193E-04-3.90606E-15
 -1       145 1.85023E-03 8.46903E-04-3.31023E-15
 -1       146 1.46496E-03 7.46908E-04-2.85048E-15
 -1       147 1.08324E-03 6.06379E-04-2.41167E-15
 -1       148 8.22835E-04 4.74449E-04-2.12294E-15
 -1       149 6.31568E-04 3.35519E-04-1.91737E-15
 -1       150 5.28715E-04 2.03621E-04-1.81385E-15
 -1       151 5.10164E-04 7.81875E-05-1.80935E-15
 -1       152 5.71853E-04-3.84264E-05-1.90092E-15
 -1       153 7.11522E-04-1.50916E-04-2.08836E-15
 -1       154 9.66978E-04-2.72467E-04-2.42564E-15
 -1       155 1.25033E-03-3.64015E-04-2.80078E-15
 -1       156 1.64580E-03-4.50085E-04-3.33129E-15
 -1       157 2.09546E-03-5.06951E-04-3.95825E-15
 -1       158 2.96002E-03-5.11759E-04-5.22420E-15
 -1       159 3.36163E-03-4.67341E-04-5.84531E-15
 -1       160 3.73520E-03-3.95561E-04-6.43763E-15
 -1       161 4.07848E-03-2.94713E-04-6.99109E-15
 -1       162 4.35426E-03-1.77105E-04-7.43340E-15
 -1       163 4.57698E-03-3.46980E-05-7.78086E-15
 -1       164 4.70353E-03 1.04101E-04-7.95709E-15
 -1       165 2.85564E-04-1.39314E-04-3.21601E-17
 -1       166 2.61553E-04-9.62622E-05-5.48606E-17
 -1       167 2.46818E-04-6.03955E-05-6.60076E-17
 -1       168 2.31143E-04-2.67837E-05-7.13778E-17
 -1       169 2.10569E-04 3.42152E-06-7.36377E-17
 -1       170 1.84455E-04 2.57436E-05-7.44373E-17
 -1       171 1.57103E-04 3.49889E-05-7.45321E-17
 -1       172 1.35640E-04 2.97890E-05-7.41594E-17
 -1       173 1.29311E-04 1.51515E-05-7.29566E-17
 -1       174 1.41644E-04 1.05055E-06-7.05206E-17
 -1       175 1.68803E-04-2.01935E-06-6.61736E-17
 -1       176 2.02331E-04 1.03793E-05-5.97700E-17
 -1       177 2.35548E-04 3.66151E-05-4.99546E-17
 -1       178 2.67478E-04 7.36296E-05-3.42879E-17
 -1       179 3.04754E-04 1.23724E-04-8.25349E-18
 -1       180 3.90975E-04 2.01967E-04 2.01729E-17
 -1       181 5.64414E-04-3.08370E-04-9.40681E-17
 -1       182 9.23324E-04-4.69810E-04-3.63093E-16
 -1       183 1.26062E-03-6.08198E-04-8.09479E-16
 -1       184 1.58108E-03-7.29628E-04-1.43938E-15
 -1       185 1.88610E-03-8.29181E-04-2.25677E-15
 -1       186 2.17804E-03-8.96248E-04-3.26707E-15
 -1       187 2.46173E-03-9.20661E-04-4.47389E-15
 -1       188 2.74399E-03-8.98698E-04-5.87564E-15
 -1       189 3.03155E-03-8.35973E-04-7.46825E-15
 -1       190 3.32866E-03-7.45612E-04-9.24243E-15
 -1       191 3.63607E-03-6.43255E-04-1.11899E-14
 -1       192 3.95171E-03-5.42175E-04-1.33034E-14
 -1       193 4.27211E-03-4.50792E-04-1.55794E-14
 -1       194 4.59373E-03-3.72677E-04-1.80087E-14
 -1       195 4.91379E-03-3.07890E-04-2.05874E-14
 -1       196 5.23047E-03-2.54550E-04-2.33047E-14
 -1       197 5.54284E-03-2.10054E-04-2.61562E-14
 -1       198 5.85065E-03-1.71820E-04-2.91404E-14
 -1       199 6.15412E-03-1.37645E-04-3.22589E-14
 -1       200 6.45369E-03-1.05814E-04-3.55146E-14
 -1       201 6.74993E-03-7.50852E-05-3.89134E-14
 -1       202 7.04343E-03-4.46150E-05-4.24540E-14
 -1       203 7.33474E-03-1.38696E-05-4.61378E-14
 -1       204 7.62435E-03 1.74564E-05-4.99592E-14
 -1       205 7.91267E-03 4.95085E-05-5.39142E-14
 -1       206 8.20003E-03 8.23257E-05-5.79971E-14
 -1       207 8.48671E-03 1.15881E-04-6.22066E-14
 -1       208 8.77291E-03 1.50108E-04-6.65420E-14
 -1       209 9.05879E-03 1.84924E-04-7.10003E-14
 -1       210 9.34447E-03 2.20239E-04-7.55726E-14
 -1       211 9.63002E-03 2.55968E-04-8.02504E-14
 -1       212 9.91551E-03 2.92030E-04-8.50288E-14
 -1       213 1.02010E-02 3.28358E-04-8.99098E-14
 -1       214 1.04864E-02 3.64891E-04-9.48840E-14
 -1       215 1.07719E-02 4.01582E-04-9.99405E-14
 -1       216 1.10574E-02 4.38390E-04-1.05070E-13
 -1       217 1.13430E-02 4.75283E-04-1.10264E-13
 -1       218 1.16285E-02 5.12239E-04-1.15526E-13
 -1       219 1.19141E-02 5.49237E-04-1.20867E-13
 -1       220 1.21997E-02 5.86263E-04-1.26293E-13
 -1       221 1.24854E-02 6.23308E-04-1.31799E-13
 -1       222 1.27710E-02 6.60362E-04-1.37378E-13
 -1       223 1.30567E-02 6.97422E-04-1.43027E-13
 -1       224 1.33424E-02 7.34483E-04-1.48744E-13
 -1       225 1.36281E-02 7.71541E-04-1.54512E-13
 -1       226 1.39138E-02 8.08596E-04-1.60313E-13
 -1       227 1.41995E-02 8.45645E-04-1.66139E-13
 -1       228 1.44852E-02 8.82689E-04-1.71988E-13
 -1       229 8.02241E-04 3.85019E-04-8.50015E-17
 -1       230 1.19503E-03 5.59740E-04-3.38969E-16
 -1       231 1.57069E-03 7.42655E-04-7.54584E-16
 -1       232 1.92705E-03 9.31340E-04-1.34317E-15
 -1       233 2.26073E-03 1.10525E-03-2.11675E-15
 -1       234 2.57319E-03 1.23282E-03-3.08436E-15
 -1       235 2.87395E-03 1.28764E-03-4.25272E-15
 -1       236 3.17751E-03 1.26578E-03-5.62513E-15
 -1       237 3.49546E-03 1.18921E-03-7.19709E-15
 -1       238 3.83087E-03 1.09224E-03-8.95830E-15
 -1       239 4.17918E-03 1.00426E-03-1.08977E-14
 -1       240 4.53275E-03 9.41393E-04-1.30051E-14
 -1       241 4.88459E-03 9.07618E-04-1.52779E-14
 -1       242 5.23007E-03 8.99719E-04-1.77115E-14
 -1       243 5.56693E-03 9.11802E-04-2.03007E-14
 -1       244 5.89467E-03 9.37910E-04-2.30375E-14
 -1       245 6.21383E-03 9.73123E-04-2.59187E-14
 -1       246 6.52548E-03 1.01379E-03-2.89358E-14
 -1       247 6.83086E-03 1.05736E-03-3.20887E-14
 -1       248 7.13116E-03 1.10217E-03-3.53830E-14
 -1       249 7.42748E-03 1.14717E-03-3.88120E-14
 -1       250 7.72071E-03 1.19173E-03-4.23731E-14
 -1       251 8.01162E-03 1.23554E-03-4.60612E-14
 -1       252 8.30081E-03 1.27846E-03-4.98841E-14
 -1       253 8.58874E-03 1.32046E-03-5.38431E-14
 -1       254 8.87577E-03 1.36159E-03-5.79361E-14
 -1       255 9.16218E-03 1.40194E-03-6.21572E-14
 -1       256 9.44818E-03 1.44160E-03-6.64941E-14
 -1       257 9.73391E-03 1.48069E-03-7.09418E-14
 -1       258 1.00195E-02 1.51930E-03-7.54983E-14
 -1       259 1.03050E-02 1.55752E-03-8.01660E-14
 -1       260 1.05904E-02 1.59543E-03-8.49411E-14
 -1       261 1.08758E-02 1.63310E-03-8.98115E-14
 -1       262 1.11613E-02 1.67059E-03-9.47732E-14
 -1       263 1.14468E-02 1.70793E-03-9.98023E-14
 -1       264 1.17323E-02 1.74517E-03-1.04900E-13
 -1       265 1.20178E-02 1.78234E-03-1.10084E-13
 -1       266 1.23034E-02 1.81945E-03-1.15370E-13
 -1       267 1.25890E-02 1.85652E-03-1.20751E-13
 -1       268 1.28746E-02 1.89357E-03-1.26213E-13
 -1       269 1.31602E-02 1.93061E-03-1.31736E-13
 -1       270 1.34459E-02 1.96764E-03-1.37306E-13
 -1       271 1.37316E-02 2.00467E-03-1.42906E-13
 -1       272 1.40173E-02 2.04169E-03-1.48536E-13
 -1       273 1.43030E-02 2.07872E-03-1.54182E-13
 -1       274 1.45887E-02 2.11576E-03-1.59850E-13
 -1       275 1.48744E-02 2.15280E-03-1.65534E-13
 -1       276 1.51601E-02 2.18984E-03-1.71230E-13
 -1       277 1.51827E-02 2.13243E-03-1.72436E-13
 -1       278 1.51463E-02 2.04814E-03-1.72707E-13
 -1       279 1.51099E-02 1.96385E-03-1.72964E-13
 -1       280 1.50734E-02 1.87955E-03-1.73218E-13
 -1       281 1.50376E-02 1.79668E-03-1.73469E-13
 -1       282 1.50011E-02 1.71238E-03-1.73727E-13
 -1       283 1.49647E-02 1.62807E-03-1.73979E-13
 -1       284 1.49283E-02 1.54376E-03-1.74214E-13
 -1       285 1.48919E-02 1.45945E-03-1.74423E-13
 -1       286 1.48554E-02 1.37514E-03-1.74613E-13
 -1       287 1.48196E-02 1.29227E-03-1.74787E-13
 -1       288 1.47832E-02 1.20797E-03-1.74947E-13
 -1       289 1.47468E-02 1.12367E-03-1.75093E-13
 -1       290 1.47104E-02 1.03938E-03-1.75227E-13
 -1       291 1.45978E-02 9.61034E-04-1.73612E-13
 -1       292 4.77087E-03 2.94817E-04-8.80501E-15
 -1       293 4.64561E-03 3.78220E-04-8.61809E-15
 -1       294 4.40363E-03 5.01032E-04-8.02335E-15
 -1       295 4.07311E-03 6.36243E-04-7.44462E-15
 -1       296 3.71328E-03 8.02150E-04-6.60407E-15
 -1       297 3.35455E-03 9.35605E-04-5.80422E-15
 -1       298 2.98306E-03 1.01846E-03-5.00714E-15
 -1       299 2.59757E-03 1.03385E-03-4.20279E-15
 -1       300 2.20953E-03 9.35959E-04-3.46821E-15
 -1       301 1.81227E-03 7.78074E-04-2.91173E-15
 -1       302 1.44131E-03 5.81300E-04-2.39023E-15
 -1       303 1.05833E-03 4.15636E-04-2.05685E-15
 -1       304 7.72404E-04 2.82525E-04-1.80719E-15
 -1       305 5.75203E-04 1.87404E-04-1.65416E-15
 -1       306 4.90131E-04 1.20555E-04-1.58649E-15
 -1       307 5.22170E-04 6.59546E-05-1.64442E-15
 -1       308 6.59517E-04-1.75572E-07-1.78319E-15
 -1       309 9.19050E-04-8.63356E-05-2.00403E-15
 -1       310 1.22964E-03-2.29270E-04-2.41921E-15
 -1       311 1.59465E-03-3.68851E-04-2.88012E-15
 -1       312 1.99410E-03-5.12945E-04-3.51374E-15
 -1       313 2.35955E-03-5.93079E-04-4.26057E-15
 -1       314 2.70771E-03-5.91007E-04-5.00363E-15
 -1       315 3.04561E-03-5.29442E-04-5.76700E-15
 -1       316 3.39919E-03-4.12391E-04-6.49073E-15
 -1       317 3.74373E-03-2.57622E-04-7.26819E-15
 -1       318 4.10137E-03-1.12187E-04-7.82796E-15
 -1       319 4.40350E-03 3.76934E-05-8.43247E-15
 -1       320 4.63730E-03 1.36154E-04-8.66913E-15
 -1       321 4.75829E-03 2.18311E-04-8.80721E-15
 -1       322 5.27323E-04-1.73133E-04-2.36126E-16
 -1       323 5.60539E-04-2.43120E-04-2.02089E-16
 -1       324 4.61771E-04-4.68446E-05-2.60944E-16
 -1       325 4.10881E-04 6.42229E-06-2.62265E-16
 -1       326 3.48466E-04 4.24755E-05-2.60581E-16
 -1       327 2.86577E-04 5.47157E-05-2.57190E-16
 -1       328 2.50051E-04 4.38862E-05-2.52995E-16
 -1       329 2.56408E-04 2.40683E-05-2.47368E-16
 -1       330 3.05884E-04 1.63105E-05-2.39429E-16
 -1       331 3.79188E-04 3.41966E-05-2.27415E-16
 -1       332 4.54984E-04 7.82115E-05-2.09207E-16
 -1       333 5.23924E-04 1.41551E-04-1.81268E-16
 -1       334 5.92405E-04 2.20769E-04-1.38093E-16
 -1       335 6.87068E-04 2.97938E-04-1.19696E-16
 -1       336 1.07171E-03 4.68982E-04-3.78176E-16
 -1       337 1.02685E-03-4.54149E-04-6.55041E-16
 -1       338 1.36516E-03-5.86177E-04-1.20877E-15
 -1       339 1.69248E-03-7.02679E-04-1.94302E-15
 -1       340 2.00812E-03-7.93224E-04-2.86409E-15
 -1       341 2.31374E-03-8.44106E-04-3.97898E-15
 -1       342 2.61422E-03-8.45662E-04-5.28946E-15
 -1       343 2.91598E-03-7.98670E-04-6.79163E-15
 -1       344 3.22376E-03-7.14907E-04-8.47994E-15
 -1       345 3.53862E-03-6.11906E-04-1.03453E-14
 -1       346 3.85843E-03-5.06047E-04-1.23787E-14
 -1       347 4.17989E-03-4.08430E-04-1.45755E-14
 -1       348 4.50010E-03-3.24316E-04-1.69289E-14
 -1       349 4.81719E-03-2.54588E-04-1.94308E-14
 -1       350 5.13027E-03-1.97618E-04-2.20766E-14
 -1       351 5.43909E-03-1.50736E-04-2.48595E-14
 -1       352 5.74385E-03-1.11152E-04-2.77750E-14
 -1       353 6.04490E-03-7.64138E-05-3.08241E-14
 -1       354 6.34273E-03-4.45698E-05-3.40081E-14
 -1       355 6.63783E-03-1.41805E-05-3.73336E-14
 -1       356 6.93066E-03 1.57508E-05-4.07974E-14
 -1       357 7.22166E-03 4.58685E-05-4.44044E-14
 -1       358 7.51121E-03 7.65530E-05-4.81529E-14
 -1       359 7.79964E-03 1.07997E-04-5.20357E-14
 -1       360 8.08721E-03 1.40266E-04-5.60459E-14
 -1       361 8.37414E-03 1.73345E-04-6.01849E-14
 -1       362 8.66061E-03 2.07171E-04-6.44487E-14
 -1       363 8.94675E-03 2.41657E-04-6.88354E-14
 -1       364 9.23266E-03 2.76706E-04-7.33414E-14
 -1       365 9.51842E-03 3.12225E-04-7.79551E-14
 -1       366 9.80409E-03 3.48126E-04-8.26716E-14
 -1       367 1.00897E-02 3.84331E-04-8.74911E-14
 -1       368 1.03753E-02 4.20773E-04-9.24056E-14
 -1       369 1.06609E-02 4.57397E-04-9.74087E-14
 -1       370 1.09465E-02 4.94158E-04-1.02492E-13
 -1       371 1.12321E-02 5.31020E-04-1.07648E-13
 -1       372 1.15177E-02 5.67954E-04-1.12874E-13
 -1       373 1.18033E-02 6.04939E-04-1.18170E-13
 -1       374 1.20889E-02 6.41958E-04-1.23547E-13
 -1       375 1.23746E-02 6.78998E-04-1.29007E-13
 -1       376 1.26603E-02 7.16052E-04-1.34546E-13
 -1       377 1.29459E-02 7.53113E-04-1.40150E-13
 -1       378 1.32316E-02 7.90176E-04-1.45822E-13
 -1       379 1.35173E-02 8.27238E-04-1.51551E-13
 -1       380 1.38030E-02 8.64296E-04-1.57323E-13
 -1       381 1.40887E-02 9.01350E-04-1.63134E-13
 -1       382 1.43433E-02 9.31194E-04-1.68362E-13
 -1       383 1.44865E-03 6.51406E-04-7.92887E-16
 -1       384 1.81480E-03 8.44018E-04-1.37573E-15
 -1       385 2.16585E-03 1.02784E-03-2.14007E-15
 -1       386 2.49990E-03 1.16902E-03-3.09722E-15
 -1       387 2.82259E-03 1.23508E-03-4.25514E-15
 -1       388 3.14583E-03 1.21738E-03-5.61928E-15
 -1       389 3.47927E-03 1.13866E-03-7.18417E-15
 -1       390 3.82402E-03 1.03721E-03-8.93720E-15
 -1       391 4.17456E-03 9.45365E-04-1.08675E-14
 -1       392 4.52429E-03 8.80131E-04-1.29655E-14
 -1       393 4.86861E-03 8.45252E-04-1.52256E-14
 -1       394 5.20530E-03 8.37088E-04-1.76457E-14
 -1       395 5.53381E-03 8.49408E-04-2.02194E-14
 -1       396 5.85451E-03 8.76034E-04-2.29401E-14
 -1       397 6.16818E-03 9.11902E-04-2.58034E-14
 -1       398 6.47582E-03 9.53261E-04-2.88054E-14
 -1       399 6.77840E-03 9.97511E-04-3.19426E-14
 -1       400 7.07686E-03 1.04294E-03-3.52180E-14
 -1       401 7.37204E-03 1.08849E-03-3.86308E-14
 -1       402 7.66463E-03 1.13352E-03-4.21757E-14
 -1       403 7.95524E-03 1.17772E-03-4.58488E-14
 -1       404 8.24434E-03 1.22096E-03-4.96563E-14
 -1       405 8.53232E-03 1.26321E-03-5.35997E-14
 -1       406 8.81949E-03 1.30454E-03-5.76728E-14
 -1       407 9.10607E-03 1.34505E-03-6.18748E-14
 -1       408 9.39225E-03 1.38483E-03-6.61949E-14
 -1       409 9.67815E-03 1.42400E-03-7.06285E-14
 -1       410 9.96387E-03 1.46268E-03-7.51708E-14
 -1       411 1.02495E-02 1.50094E-03-7.98255E-14
 -1       412 1.05351E-02 1.53889E-03-8.45850E-14
 -1       413 1.08206E-02 1.57658E-03-8.94440E-14
 -1       414 1.11061E-02 1.61408E-03-9.43917E-14
 -1       415 1.13917E-02 1.65143E-03-9.94134E-14
 -1       416 1.16772E-02 1.68868E-03-1.04505E-13
 -1       417 1.19628E-02 1.72584E-03-1.09676E-13
 -1       418 1.22484E-02 1.76295E-03-1.14945E-13
 -1       419 1.25340E-02 1.80003E-03-1.20309E-13
 -1       420 1.28197E-02 1.83708E-03-1.25755E-13
 -1       421 1.31053E-02 1.87411E-03-1.31266E-13
 -1       422 1.33910E-02 1.91114E-03-1.36826E-13
 -1       423 1.36767E-02 1.94817E-03-1.42423E-13
 -1       424 1.39624E-02 1.98519E-03-1.48050E-13
 -1       425 1.42481E-02 2.02222E-03-1.53696E-13
 -1       426 1.45338E-02 2.05925E-03-1.59364E-13
 -1       427 1.48195E-02 2.09629E-03-1.65050E-13
 -1       428 1.50011E-02 2.11436E-03-1.68740E-13
 -1       429 1.48442E-02 1.88962E-03-1.68140E-13
 -1       430 1.48806E-02 1.97392E-03-1.67887E-13
 -1       431 1.49409E-02 2.04414E-03-1.68315E-13
 -1       432 1.48084E-02 1.80675E-03-1.68381E-13
 -1       433 1.47719E-02 1.72245E-03-1.68620E-13
 -1       434 1.47355E-02 1.63814E-03-1.68853E-13
 -1       435 1.46991E-02 1.55384E-03-1.69078E-13
 -1       436 1.46626E-02 1.46953E-03-1.69289E-13
 -1       437 1.46262E-02 1.38522E-03-1.69482E-13
 -1       438 1.45904E-02 1.30234E-03-1.69654E-13
 -1       439 1.45540E-02 1.21804E-03-1.69811E-13
 -1       440 1.45176E-02 1.13374E-03-1.69957E-13
 -1       441 1.44812E-02 1.04945E-03-1.70092E-13
 -1       442 4.51111E-03 3.93296E-04-9.27365E-15
 -1       443 4.79513E-03 2.64208E-04-9.69251E-15
 -1       444 4.75075E-03 3.06752E-04-9.85758E-15
 -1       445 4.24969E-03 4.98626E-04-8.63505E-15
 -1       446 3.82822E-03 6.99896E-04-7.43905E-15
 -1       447 4.98297E-04-1.07985E-04-2.53663E-16
 -1       448 3.12965E-03 1.00610E-03-5.57656E-15
 -1       449 2.81629E-03 1.06922E-03-4.71782E-15
 -1       450 2.42823E-03 1.01714E-03-3.72598E-15
 -1       451 2.04316E-03 8.48344E-04-2.97649E-15
 -1       452 1.70851E-03 6.60680E-04-2.45821E-15
 -1       453 1.27200E-03 4.13003E-04-1.92311E-15
 -1       454 9.45012E-04 2.73746E-04-1.69947E-15
 -1       455 6.74747E-04 1.61452E-04-1.45323E-15
 -1       456 5.15413E-04 1.17344E-04-1.37484E-15
 -1       457 4.82078E-04 9.52358E-05-1.35489E-15
 -1       458 5.78397E-04 7.01388E-05-1.46556E-15
 -1       459 7.71638E-04 2.18429E-05-1.59601E-15
 -1       460 1.14366E-03-1.14276E-04-1.97164E-15
 -1       461 1.43996E-03-2.49837E-04-2.36040E-15
 -1       462 1.81958E-03-4.32084E-04-2.96348E-15
 -1       463 2.21587E-03-5.87164E-04-3.85716E-15
 -1       464 2.54683E-03-6.35617E-04-4.74016E-15
 -1       465 2.80280E-03-6.01322E-04-5.47732E-15
 -1       466 3.16903E-03-4.71146E-04-6.48143E-15
 -1       467 3.47116E-03-3.26966E-04-7.25778E-15
 -1       468 3.88902E-03-1.18253E-04-8.23000E-15
 -1       469 4.19874E-03 2.28611E-05-8.84966E-15
 -1       470 4.53810E-03 1.61489E-04-9.55642E-15
 -1       471 4.70209E-03 2.16107E-04-9.70144E-15
 -1       472 3.46639E-03 8.72347E-04-6.52511E-15
 -1       473 2.63927E-03 1.07760E-03-4.19983E-15
 -1       474 1.16219E-03 4.55930E-04-6.58314E-16
 -1       475 5.91916E-04 1.04655E-05-5.59807E-16
 -1       476 6.86489E-04-6.26980E-05-5.65012E-16
 -1       477 3.66690E-04 6.75956E-05-4.90822E-16
 -1       478 3.36928E-04 5.13900E-05-4.80684E-16
 -1       479 3.87303E-04 3.85772E-05-4.70029E-16
 -1       480 4.94453E-04 5.56779E-05-4.56290E-16
 -1       481 6.15901E-04 1.09531E-04-4.34955E-16
 -1       482 7.24127E-04 1.90233E-04-4.01948E-16
 -1       483 1.53708E-03 6.43444E-04-1.17397E-15
 -1       484 1.15418E-03-4.34559E-04-9.75751E-16
 -1       485 3.28459E-03 9.67057E-04-6.29270E-15
 -1       486 1.49583E-03-5.61820E-04-1.62841E-15
 -1       487 1.83049E-03-6.74715E-04-2.46097E-15
 -1       488 2.15468E-03-7.55852E-04-3.48328E-15
 -1       489 2.47003E-03-7.86957E-04-4.70102E-15
 -1       490 2.78338E-03-7.59946E-04-6.11331E-15
 -1       491 3.10183E-03-6.83719E-04-7.71637E-15
 -1       492 3.42764E-03-5.79038E-04-9.50007E-15
 -1       493 3.75759E-03-4.67461E-04-1.14561E-14
 -1       494 4.08660E-03-3.63690E-04-1.35765E-14
 -1       495 4.41083E-03-2.74462E-04-1.58540E-14
 -1       496 4.72862E-03-2.00908E-04-1.82819E-14
 -1       497 5.03997E-03-1.41226E-04-2.08543E-14
 -1       498 5.34570E-03-9.25226E-05-2.35674E-14
 -1       499 5.64687E-03-5.18176E-05-2.64158E-14
 -1       500 5.94443E-03-1.65017E-05-2.93951E-14
 -1       501 6.23919E-03 1.55096E-05-3.25103E-14
 -1       502 6.53178E-03 4.57744E-05-3.57629E-14
 -1       503 6.82267E-03 7.53901E-05-3.91544E-14
 -1       504 7.11225E-03 1.05083E-04-4.26860E-14
 -1       505 7.40082E-03 1.35295E-04-4.63584E-14
 -1       506 7.68860E-03 1.66263E-04-5.01673E-14
 -1       507 7.97579E-03 1.98083E-04-5.41081E-14
 -1       508 8.26252E-03 2.30757E-04-5.81768E-14
 -1       509 8.54892E-03 2.64229E-04-6.23687E-14
 -1       510 8.83507E-03 2.98414E-04-6.66861E-14
 -1       511 9.12105E-03 3.33215E-04-7.11254E-14
 -1       512 9.40690E-03 3.68533E-04-7.56757E-14
 -1       513 9.69267E-03 4.04273E-04-8.03307E-14
 -1       514 9.97839E-03 4.40353E-04-8.50868E-14
 -1       515 1.02641E-02 4.76699E-04-8.99440E-14
 -1       516 1.05497E-02 5.13252E-04-9.48899E-14
 -1       517 1.08354E-02 5.49960E-04-9.99279E-14
 -1       518 1.11211E-02 5.86783E-04-1.05041E-13
 -1       519 1.14067E-02 6.23691E-04-1.10227E-13
 -1       520 1.16924E-02 6.60658E-04-1.15484E-13
 -1       521 1.19781E-02 6.97665E-04-1.20815E-13
 -1       522 1.22637E-02 7.34699E-04-1.26225E-13
 -1       523 1.25494E-02 7.71750E-04-1.31718E-13
 -1       524 1.28351E-02 8.08809E-04-1.37284E-13
 -1       525 1.31208E-02 8.45873E-04-1.42915E-13
 -1       526 1.34065E-02 8.82936E-04-1.48605E-13
 -1       527 1.36922E-02 9.19998E-04-1.54347E-13
 -1       528 1.39779E-02 9.57054E-04-1.60129E-13
 -1       529 2.27829E-03 1.03027E-03-2.73121E-15
 -1       530 2.62817E-03 1.14917E-03-3.80290E-15
 -1       531 2.97182E-03 1.16900E-03-5.08304E-15
 -1       532 3.32296E-03 1.10092E-03-6.57161E-15
 -1       533 3.68429E-03 9.91874E-04-8.25529E-15
 -1       534 4.04702E-03 8.86936E-04-1.01185E-14
 -1       535 4.40148E-03 8.09695E-04-1.21503E-14
 -1       536 4.74343E-03 7.65538E-04-1.43408E-14
 -1       537 5.07318E-03 7.50571E-04-1.66887E-14
 -1       538 5.39291E-03 7.58130E-04-1.91924E-14
 -1       539 5.70494E-03 7.81637E-04-2.18426E-14
 -1       540 6.01111E-03 8.15676E-04-2.46346E-14
 -1       541 6.31276E-03 8.56170E-04-2.75686E-14
 -1       542 6.61086E-03 9.00230E-04-3.06361E-14
 -1       543 6.90613E-03 9.45909E-04-3.38422E-14
 -1       544 7.19913E-03 9.91958E-04-3.71855E-14
 -1       545 7.49033E-03 1.03762E-03-4.06631E-14
 -1       546 7.78010E-03 1.08249E-03-4.42712E-14
 -1       547 8.06875E-03 1.12636E-03-4.80094E-14
 -1       548 8.35655E-03 1.16920E-03-5.18845E-14
 -1       549 8.64370E-03 1.21105E-03-5.58897E-14
 -1       550 8.93036E-03 1.25199E-03-6.00239E-14
 -1       551 9.21667E-03 1.29214E-03-6.42816E-14
 -1       552 9.50273E-03 1.33162E-03-6.86547E-14
 -1       553 9.78862E-03 1.37053E-03-7.31398E-14
 -1       554 1.00744E-02 1.40898E-03-7.77387E-14
 -1       555 1.03601E-02 1.44707E-03-8.24458E-14
 -1       556 1.06458E-02 1.48487E-03-8.72516E-14
 -1       557 1.09314E-02 1.52245E-03-9.21480E-14
 -1       558 1.12170E-02 1.55987E-03-9.71328E-14
 -1       559 1.15026E-02 1.59715E-03-1.02187E-13
 -1       560 1.17883E-02 1.63435E-03-1.07320E-13
 -1       561 1.20739E-02 1.67148E-03-1.12540E-13
 -1       562 1.23596E-02 1.70857E-03-1.17856E-13
 -1       563 1.26452E-02 1.74563E-03-1.23252E-13
 -1       564 1.29309E-02 1.78266E-03-1.28722E-13
 -1       565 1.32166E-02 1.81969E-03-1.34251E-13
 -1       566 1.35023E-02 1.85672E-03-1.39826E-13
 -1       567 1.37880E-02 1.89374E-03-1.45441E-13
 -1       568 1.40737E-02 1.93076E-03-1.51080E-13
 -1       569 1.43594E-02 1.96779E-03-1.56741E-13
 -1       570 1.46451E-02 2.00483E-03-1.62423E-13
 -1       571 1.45427E-02 1.73252E-03-1.63535E-13
 -1       572 1.45063E-02 1.64822E-03-1.63757E-13
 -1       573 1.46150E-02 1.89969E-03-1.63067E-13
 -1       574 1.45789E-02 1.81611E-03-1.63307E-13
 -1       575 1.44698E-02 1.56391E-03-1.63973E-13
 -1       576 1.44334E-02 1.47960E-03-1.64176E-13
 -1       577 1.43970E-02 1.39529E-03-1.64363E-13
 -1       578 1.43612E-02 1.31242E-03-1.64533E-13
 -1       579 1.43248E-02 1.22811E-03-1.64687E-13
 -1       580 1.42884E-02 1.14381E-03-1.64835E-13
 -1       581 1.42520E-02 1.05951E-03-1.64976E-13
 -1       582 4.83681E-03 2.86485E-04-1.10689E-14
 -1       583 4.68647E-03 3.40678E-04-1.05961E-14
 -1       584 4.80053E-03 2.61223E-04-1.10756E-14
 -1       585 1.91224E-03 8.44763E-04-1.86070E-15
 -1       586 4.40979E-03 4.37093E-04-9.78633E-15
 -1       587 3.65981E-03 7.85429E-04-7.51179E-15
 -1       588 2.36712E-03-6.38042E-04-4.23798E-15
 -1       589 9.22350E-04-1.40822E-05-1.47688E-15
 -1       590 4.78528E-04 5.84100E-05-5.49518E-16
 -1       591 2.24323E-03 9.45244E-04-3.14758E-15
 -1       592 3.01224E-03 1.06150E-03-5.37158E-15
 -1       593 1.06447E-03 2.78228E-04-1.51031E-15
 -1       594 1.90596E-03 7.54304E-04-2.49530E-15
 -1       595 2.02850E-03-5.33383E-04-3.29628E-15
 -1       596 1.51969E-03 5.18255E-04-1.92973E-15
 -1       597 7.86873E-04 1.63082E-04-1.28290E-15
 -1       598 5.55092E-04 9.71183E-05-1.11319E-15
 -1       599 4.58630E-04 8.65460E-05-1.06789E-15
 -1       600 5.02092E-04 8.86915E-05-1.15764E-15
 -1       601 6.30903E-04 6.96168E-05-1.25865E-15
 -1       602 1.28474E-03-1.67250E-04-1.91965E-15
 -1       603 1.60944E-03-3.30427E-04-2.41333E-15
 -1       604 2.67209E-03-6.40522E-04-5.25501E-15
 -1       605 2.97613E-03-5.50382E-04-6.27562E-15
 -1       606 3.29834E-03-3.98044E-04-7.30754E-15
 -1       607 3.65996E-03-2.06870E-04-8.38024E-15
 -1       608 4.04406E-03-1.61210E-05-9.39919E-15
 -1       609 4.37509E-03 1.23197E-04-1.01935E-14
 -1       610 4.63594E-03 2.12041E-04-1.06317E-14
 -1       611 8.36047E-04-2.99361E-04-5.40539E-16
 -1       612 8.76231E-04 3.34048E-04-3.47704E-16
 -1       613 4.02070E-03 6.06461E-04-8.63774E-15
 -1       614 7.51483E-04-1.47498E-04-5.61823E-16
 -1       615 1.41704E-02 9.80430E-04-1.64062E-13
 -1       616 1.80494E-03-4.45915E-04-2.70025E-15
 -1       617 4.84118E-03 3.16085E-04-1.18284E-14
 -1       618 2.84497E-03 1.10316E-03-4.80216E-15
 -1       619 1.27594E-03 3.78968E-04-1.50595E-15
 -1       620 2.44601E-03 1.04002E-03-3.56813E-15
 -1       621 3.14682E-03-4.87674E-04-7.18297E-15
 -1       622 4.35501E-04 6.42047E-05-7.70041E-16
 -1       623 4.09531E-04 7.56310E-05-7.35980E-16
 -1       624 7.44897E-04 1.36939E-04-7.39057E-16
 -1       625 9.05318E-04 2.34421E-04-7.07147E-16
 -1       626 1.24578E-03 4.36822E-04-9.68436E-16
 -1       627 1.40596E-02 1.03614E-03-1.61046E-13
 -1       628 1.64109E-03-5.37708E-04-2.06566E-15
 -1       629 1.98456E-03-6.51165E-04-2.99297E-15
 -1       630 2.31674E-03-7.21305E-04-4.11365E-15
 -1       631 2.64195E-03-7.23441E-04-5.43427E-15
 -1       632 2.97059E-03-6.57525E-04-6.94966E-15
 -1       633 3.30907E-03-5.47716E-04-8.65285E-15
 -1       634 3.65324E-03-4.26016E-04-1.05329E-14
 -1       635 3.99457E-03-3.13927E-04-1.25791E-14
 -1       636 4.32685E-03-2.19869E-04-1.47838E-14
 -1       637 4.64800E-03-1.44063E-04-1.71393E-14
 -1       638 4.95898E-03-8.34741E-05-1.96394E-14
 -1       639 5.26193E-03-3.44097E-05-2.22812E-14
 -1       640 5.55909E-03 6.46989E-06-2.50609E-14
 -1       641 5.85229E-03 4.18826E-05-2.79735E-14
 -1       642 6.14289E-03 7.39233E-05-3.10194E-14
 -1       643 6.43181E-03 1.04141E-04-3.42017E-14
 -1       644 6.71965E-03 1.33633E-04-3.75217E-14
 -1       645 7.00680E-03 1.63136E-04-4.09801E-14
 -1       646 7.29349E-03 1.93114E-04-4.45759E-14
 -1       647 7.57989E-03 2.23824E-04-4.83100E-14
 -1       648 7.86608E-03 2.55380E-04-5.21788E-14
 -1       649 8.15213E-03 2.87798E-04-5.61773E-14
 -1       650 8.43809E-03 3.21033E-04-6.03016E-14
 -1       651 8.72397E-03 3.55008E-04-6.45492E-14
 -1       652 9.00981E-03 3.89625E-04-6.89215E-14
 -1       653 9.29560E-03 4.24788E-04-7.34098E-14
 -1       654 9.58137E-03 4.60400E-04-7.80052E-14
 -1       655 9.86712E-03 4.96375E-04-8.27012E-14
 -1       656 1.01529E-02 5.32638E-04-8.74967E-14
 -1       657 1.04386E-02 5.69126E-04-9.23875E-14
 -1       658 1.07243E-02 6.05784E-04-9.73741E-14
 -1       659 1.10100E-02 6.42570E-04-1.02442E-13
 -1       660 1.12957E-02 6.79449E-04-1.07586E-13
 -1       661 1.15814E-02 7.16396E-04-1.12802E-13
 -1       662 1.18672E-02 7.53389E-04-1.18092E-13
 -1       663 1.21529E-02 7.90414E-04-1.23457E-13
 -1       664 1.24386E-02 8.27458E-04-1.28902E-13
 -1       665 1.27243E-02 8.64514E-04-1.34426E-13
 -1       666 1.30100E-02 9.01576E-04-1.40019E-13
 -1       667 1.32957E-02 9.38640E-04-1.45672E-13
 -1       668 1.35814E-02 9.75702E-04-1.51376E-13
 -1       669 1.38205E-02 1.00592E-03-1.56195E-13
 -1       670 2.78384E-03 1.12852E-03-4.51994E-15
 -1       671 2.41292E-03 1.04578E-03-3.33547E-15
 -1       672 3.54185E-03 9.48449E-04-7.55708E-15
 -1       673 3.92614E-03 8.23035E-04-9.35685E-15
 -1       674 4.29309E-03 7.32831E-04-1.13268E-14
 -1       675 4.63725E-03 6.82440E-04-1.34551E-14
 -1       676 4.96162E-03 6.64215E-04-1.57355E-14
 -1       677 5.27203E-03 6.69463E-04-1.81683E-14
 -1       678 5.57358E-03 6.91015E-04-2.07505E-14
 -1       679 5.86981E-03 7.23426E-04-2.34756E-14
 -1       680 6.16288E-03 7.62706E-04-2.63389E-14
 -1       681 6.45400E-03 8.05993E-04-2.93403E-14
 -1       682 6.74385E-03 8.51292E-04-3.24763E-14
 -1       683 7.03277E-03 8.97267E-04-3.57520E-14
 -1       684 7.32100E-03 9.43074E-04-3.91619E-14
 -1       685 7.60866E-03 9.88214E-04-4.27032E-14
 -1       686 7.89587E-03 1.03243E-03-4.63779E-14
 -1       687 8.18271E-03 1.07564E-03-5.01807E-14
 -1       688 8.46925E-03 1.11784E-03-5.41182E-14
 -1       689 8.75555E-03 1.15911E-03-5.81886E-14
 -1       690 9.04168E-03 1.19955E-03-6.23797E-14
 -1       691 9.32767E-03 1.23927E-03-6.66926E-14
 -1       692 9.61357E-03 1.27839E-03-7.11183E-14
 -1       693 9.89938E-03 1.31701E-03-7.56603E-14
 -1       694 1.01852E-02 1.35523E-03-8.03128E-14
 -1       695 1.04709E-02 1.39314E-03-8.50695E-14
 -1       696 1.07566E-02 1.43080E-03-8.99153E-14
 -1       697 1.10423E-02 1.46827E-03-9.48542E-14
 -1       698 1.13280E-02 1.50560E-03-9.98706E-14
 -1       699 1.16137E-02 1.54283E-03-1.04966E-13
 -1       700 1.18994E-02 1.57999E-03-1.10146E-13
 -1       701 1.21851E-02 1.61709E-03-1.15413E-13
 -1       702 1.24708E-02 1.65416E-03-1.20770E-13
 -1       703 1.27564E-02 1.69120E-03-1.26195E-13
 -1       704 1.30421E-02 1.72824E-03-1.31685E-13
 -1       705 1.33279E-02 1.76526E-03-1.37234E-13
 -1       706 1.36136E-02 1.80228E-03-1.42832E-13
 -1       707 1.38993E-02 1.83930E-03-1.48460E-13
 -1       708 1.41850E-02 1.87633E-03-1.54115E-13
 -1       709 1.44000E-02 1.88801E-03-1.58584E-13
 -1       710 1.42042E-02 1.48968E-03-1.59093E-13
 -1       711 1.42771E-02 1.65830E-03-1.58695E-13
 -1       712 1.41677E-02 1.40537E-03-1.59275E-13
 -1       713 1.42406E-02 1.57399E-03-1.58902E-13
 -1       714 1.41320E-02 1.32249E-03-1.59440E-13
 -1       715 1.40955E-02 1.23818E-03-1.59598E-13
 -1       716 1.40591E-02 1.15387E-03-1.59740E-13
 -1       717 1.62882E-03 6.33937E-04-1.57821E-15
 -1       718 1.04614E-03-8.35104E-05-1.37406E-15
 -1       719 1.01534E-03-3.03416E-04-8.57763E-16
 -1       720 3.87693E-03-1.11046E-04-9.72429E-15
 -1       721 2.18249E-03-6.11839E-04-3.66258E-15
 -1       722 2.02313E-03 8.53930E-04-2.36175E-15
 -1       723 7.24084E-04 2.03551E-05-9.17177E-16
 -1       724 4.88963E-03 2.85655E-04-1.22919E-14
 -1       725 3.15502E-03 1.07747E-03-5.93368E-15
 -1       726 1.32747E-03-4.19472E-04-1.39266E-15
 -1       727 2.49535E-03-6.71657E-04-4.72373E-15
 -1       728 3.88370E-03 7.18080E-04-8.69551E-15
 -1       729 4.24942E-03 6.08166E-05-1.08334E-14
 -1       730 5.67049E-04 7.67226E-05-7.57227E-16
 -1       731 6.97124E-04 4.66460E-05-1.06363E-15
 -1       732 8.90184E-04 1.89067E-04-1.13315E-15
 -1       733 1.38592E-03-2.47214E-04-1.84781E-15
 -1       734 4.28491E-03 5.35308E-04-1.01811E-14
 -1       735 5.16441E-04 8.19758E-05-9.37311E-16
 -1       736 4.61464E-03 3.94971E-04-1.11592E-14
 -1       737 2.84389E-03-6.14740E-04-6.05807E-15
 -1       738 3.51316E-03 9.03626E-04-7.31128E-15
 -1       739 3.48760E-03-3.11266E-04-8.39560E-15
 -1       740 1.70442E-03 6.41964E-04-1.92427E-15
 -1       741 1.00407E-03-1.82708E-04-9.84991E-16
 -1       742 1.55947E-03-3.60677E-04-2.08411E-15
 -1       743 1.96417E-03-5.48187E-04-3.01967E-15
 -1       744 1.43638E-02 1.80443E-03-1.58819E-13
 -1       745 4.81577E-03 3.58051E-04-1.24133E-14
 -1       746 4.76449E-03 2.46625E-04-1.18932E-14
 -1       747 1.43204E-02 1.73136E-03-1.58762E-13
 -1       748 4.56420E-03 1.76118E-04-1.18992E-14
 -1       749 3.17765E-03 1.05217E-03-6.02458E-15
 -1       750 2.07217E-03 8.68068E-04-2.56466E-15
 -1       751 1.09608E-03 3.07094E-04-1.02248E-15
 -1       752 1.79502E-03-5.31458E-04-2.51597E-15
 -1       753 2.14908E-03-6.49462E-04-3.53617E-15
 -1       754 3.55296E-03-3.84242E-04-9.60959E-15
 -1       755 3.91070E-03-2.58030E-04-1.15839E-14
 -1       756 4.25346E-03-1.58186E-04-1.37175E-14
 -1       757 4.57878E-03-8.17128E-05-1.60027E-14
 -1       758 4.88907E-03-2.26162E-05-1.84316E-14
 -1       759 5.18837E-03 2.46518E-05-2.10033E-14
 -1       760 5.48044E-03 6.41537E-05-2.37117E-14
 -1       761 5.76814E-03 9.87285E-05-2.65560E-14
 -1       762 6.05345E-03 1.30357E-04-2.95352E-14
 -1       763 6.33763E-03 1.60429E-04-3.26478E-14
 -1       764 6.62141E-03 1.89910E-04-3.58970E-14
 -1       765 6.90522E-03 2.19451E-04-3.92835E-14
 -1       766 7.18925E-03 2.49466E-04-4.28063E-14
 -1       767 7.47359E-03 2.80191E-04-4.64661E-14
 -1       768 7.75822E-03 3.11736E-04-5.02611E-14
 -1       769 8.04314E-03 3.44118E-04-5.41893E-14
 -1       770 8.32828E-03 3.77301E-04-5.82463E-14
 -1       771 8.61361E-03 4.11212E-04-6.24275E-14
 -1       772 8.89907E-03 4.45763E-04-6.67311E-14
 -1       773 9.18464E-03 4.80859E-04-7.11536E-14
 -1       774 9.47029E-03 5.16408E-04-7.56883E-14
 -1       775 9.75598E-03 5.52327E-04-8.03272E-14
 -1       776 1.00417E-02 5.88540E-04-8.50667E-14
 -1       777 1.03274E-02 6.24985E-04-8.99019E-14
 -1       778 1.06132E-02 6.61608E-04-9.48334E-14
 -1       779 1.08990E-02 6.98365E-04-9.98557E-14
 -1       780 1.11847E-02 7.35222E-04-1.04954E-13
 -1       781 1.14705E-02 7.72150E-04-1.10128E-13
 -1       782 1.17562E-02 8.09129E-04-1.15379E-13
 -1       783 1.20420E-02 8.46143E-04-1.20705E-13
 -1       784 1.23277E-02 8.83180E-04-1.26103E-13
 -1       785 1.26134E-02 9.20231E-04-1.31580E-13
 -1       786 1.28992E-02 9.57289E-04-1.37135E-13
 -1       787 1.31849E-02 9.94350E-04-1.42751E-13
 -1       788 1.34706E-02 1.03141E-03-1.48418E-13
 -1       789 4.87513E-03 5.73996E-04-1.47873E-14
 -1       790 5.17235E-03 5.80841E-04-1.71530E-14
 -1       791 5.45995E-03 6.02807E-04-1.96664E-14
 -1       792 5.74327E-03 6.34569E-04-2.23236E-14
 -1       793 6.02515E-03 6.72707E-04-2.51207E-14
 -1       794 6.30701E-03 7.14795E-04-2.80552E-14
 -1       795 6.58942E-03 7.59076E-04-3.11241E-14
 -1       796 6.87254E-03 8.04298E-04-3.43314E-14
 -1       797 7.15634E-03 8.49614E-04-3.76751E-14
 -1       798 7.44069E-03 8.94482E-04-4.11503E-14
 -1       799 7.72547E-03 9.38594E-04-4.47561E-14
 -1       800 8.01057E-03 9.81805E-04-4.84945E-14
 -1       801 8.29589E-03 1.02408E-03-5.23639E-14
 -1       802 8.58137E-03 1.06546E-03-5.63674E-14
 -1       803 8.86695E-03 1.10603E-03-6.04966E-14
 -1       804 9.15261E-03 1.14587E-03-6.47475E-14
 -1       805 9.43830E-03 1.18511E-03-6.91131E-14
 -1       806 9.72403E-03 1.22384E-03-7.35946E-14
 -1       807 1.00098E-02 1.26215E-03-7.81929E-14
 -1       808 1.02955E-02 1.30013E-03-8.28979E-14
 -1       809 1.05813E-02 1.33786E-03-8.76948E-14
 -1       810 1.08670E-02 1.37538E-03-9.25852E-14
 -1       811 1.11527E-02 1.41275E-03-9.75602E-14
 -1       812 1.14385E-02 1.45001E-03-1.02619E-13
 -1       813 1.17242E-02 1.48719E-03-1.07760E-13
 -1       814 1.20100E-02 1.52431E-03-1.12987E-13
 -1       815 1.22957E-02 1.56139E-03-1.18301E-13
 -1       816 1.25814E-02 1.59844E-03-1.23686E-13
 -1       817 1.28671E-02 1.63548E-03-1.29132E-13
 -1       818 1.31529E-02 1.67251E-03-1.34649E-13
 -1       819 1.34386E-02 1.70953E-03-1.40224E-13
 -1       820 1.37243E-02 1.74656E-03-1.45842E-13
 -1       821 1.40100E-02 1.78358E-03-1.51490E-13
 -1       822 1.41869E-02 1.79400E-03-1.55150E-13
 -1       823 1.38299E-02 1.16394E-03-1.54687E-13
 -1       824 4.45905E-03 1.00915E-04-1.25832E-14
 -1       825 4.55796E-03 4.72088E-04-1.17007E-14
 -1       826 1.39385E-02 1.41544E-03-1.54221E-13
 -1       827 4.15480E-03 6.56005E-04-1.01490E-14
 -1       828 1.38663E-02 1.24825E-03-1.54540E-13
 -1       829 4.56009E-03 5.90201E-04-1.25682E-14
 -1       830 2.60699E-03 1.09357E-03-3.98557E-15
 -1       831 4.13762E-03-3.26167E-05-1.13933E-14
 -1       832 3.35874E-03-4.22352E-04-8.39460E-15
 -1       833 4.96650E-03 3.16899E-04-1.33940E-14
 -1       834 4.90542E-03 2.73874E-04-1.33112E-14
 -1       835 1.39024E-02 1.33184E-03-1.54386E-13
 -1       836 1.38252E-02 1.08493E-03-1.55442E-13
 -1       837 3.71504E-03-2.35173E-04-9.78123E-15
 -1       838 3.21965E-03-5.10103E-04-7.92790E-15
 -1       839 4.76867E-03 2.21483E-04-1.33178E-14
 -1       840 4.69471E-03 1.60327E-04-1.40310E-14
 -1       841 1.40114E-02 1.58407E-03-1.53857E-13
 -1       842 4.78376E-03 4.20545E-04-1.29814E-14
 -1       843 1.39749E-02 1.49976E-03-1.54044E-13
 -1       844 1.42558E-03-3.57652E-04-1.71202E-15
 -1       845 1.40548E-02 1.65714E-03-1.53939E-13
 -1       846 5.03327E-03 3.07012E-04-1.44513E-14
 -1       847 4.96255E-03 2.61959E-04-1.47313E-14
 -1       848 4.20160E-03-8.80180E-05-1.26555E-14
 -1       849 4.52835E-03-1.24130E-05-1.48714E-14
 -1       850 4.83454E-03 4.22288E-05-1.72321E-14
 -1       851 5.12705E-03 8.51085E-05-1.97341E-14
 -1       852 5.41152E-03 1.21346E-04-2.23737E-14
 -1       853 5.69180E-03 1.53901E-04-2.51474E-14
 -1       854 5.97034E-03 1.84499E-04-2.80569E-14
 -1       855 6.24861E-03 2.14212E-04-3.11019E-14
 -1       856 6.52740E-03 2.43734E-04-3.42811E-14
 -1       857 6.80709E-03 2.73520E-04-3.75972E-14
 -1       858 7.08780E-03 3.03857E-04-4.10483E-14
 -1       859 7.36950E-03 3.34909E-04-4.46358E-14
 -1       860 7.65211E-03 3.66745E-04-4.83583E-14
 -1       861 7.93549E-03 3.99369E-04-5.22121E-14
 -1       862 8.21950E-03 4.32739E-04-5.62011E-14
 -1       863 8.50401E-03 4.66789E-04-6.03162E-14
 -1       864 8.78891E-03 5.01436E-04-6.45517E-14
 -1       865 9.07409E-03 5.36595E-04-6.89100E-14
 -1       866 9.35949E-03 5.72182E-04-7.33812E-14
 -1       867 9.64503E-03 6.08121E-04-7.79619E-14
 -1       868 9.93067E-03 6.44341E-04-8.26457E-14
 -1       869 1.02164E-02 6.80785E-04-8.74290E-14
 -1       870 1.05021E-02 7.17401E-04-9.23088E-14
 -1       871 1.07879E-02 7.54148E-04-9.72807E-14
 -1       872 1.10737E-02 7.90994E-04-1.02334E-13
 -1       873 1.13595E-02 8.27912E-04-1.07466E-13
 -1       874 1.16453E-02 8.64881E-04-1.12674E-13
 -1       875 1.19310E-02 9.01886E-04-1.17964E-13
 -1       876 1.22168E-02 9.38915E-04-1.23322E-13
 -1       877 1.25026E-02 9.75959E-04-1.28756E-13
 -1       878 1.27883E-02 1.01301E-03-1.34264E-13
 -1       879 1.30740E-02 1.05007E-03-1.39841E-13
 -1       880 1.33598E-02 1.08713E-03-1.45476E-13
 -1       881 5.36285E-03 5.19060E-04-1.85877E-14
 -1       882 5.09527E-03 4.94437E-04-1.61400E-14
 -1       883 5.89750E-03 5.88372E-04-2.39063E-14
 -1       884 6.16824E-03 6.28893E-04-2.67740E-14
 -1       885 6.44176E-03 6.71526E-04-2.97765E-14
 -1       886 6.71786E-03 7.15274E-04-3.29174E-14
 -1       887 6.99618E-03 7.59388E-04-3.61938E-14
 -1       888 7.27632E-03 8.03338E-04-3.96043E-14
 -1       889 7.55791E-03 8.46782E-04-4.31443E-14
 -1       890 7.84063E-03 8.89529E-04-4.68194E-14
 -1       891 8.12421E-03 9.31499E-04-5.06214E-14
 -1       892 8.40844E-03 9.72687E-04-5.45581E-14
 -1       893 8.69315E-03 1.01314E-03-5.86224E-14
 -1       894 8.97821E-03 1.05293E-03-6.28112E-14
 -1       895 9.26351E-03 1.09215E-03-6.71189E-14
 -1       896 9.54899E-03 1.13088E-03-7.15434E-14
 -1       897 9.83459E-03 1.16921E-03-7.60834E-14
 -1       898 1.01203E-02 1.20722E-03-8.07345E-14
 -1       899 1.04060E-02 1.24496E-03-8.54839E-14
 -1       900 1.06917E-02 1.28251E-03-9.03250E-14
 -1       901 1.09775E-02 1.31990E-03-9.52571E-14
 -1       902 1.12633E-02 1.35718E-03-1.00275E-13
 -1       903 1.15491E-02 1.39438E-03-1.05378E-13
 -1       904 1.18348E-02 1.43151E-03-1.10563E-13
 -1       905 1.21206E-02 1.46860E-03-1.15836E-13
 -1       906 1.24063E-02 1.50567E-03-1.21185E-13
 -1       907 1.26921E-02 1.54271E-03-1.26594E-13
 -1       908 1.29778E-02 1.57974E-03-1.32069E-13
 -1       909 1.32636E-02 1.61677E-03-1.37619E-13
 -1       910 1.35493E-02 1.65380E-03-1.43217E-13
 -1       911 1.38350E-02 1.69082E-03-1.48852E-13
 -1       912 4.43506E-03 5.50757E-04-1.14427E-14
 -1       913 5.02053E-03 3.68110E-04-1.45014E-14
 -1       914 4.67864E-03 4.80258E-04-1.27178E-14
 -1       915 4.37997E-03 1.26256E-05-1.31700E-14
 -1       916 1.36007E-02 1.17400E-03-1.49666E-13
 -1       917 1.41209E-02 1.72557E-03-1.54550E-13
 -1       918 5.62937E-03 5.51228E-04-2.11772E-14
 -1       919 4.92237E-03 2.15165E-04-1.54798E-14
 -1       920 1.37457E-02 1.50984E-03-1.49033E-13
 -1       921 1.37891E-02 1.58292E-03-1.49122E-13
 -1       922 1.37093E-02 1.42552E-03-1.49206E-13
 -1       923 5.13459E-03 3.52278E-04-1.56009E-14
 -1       924 4.62788E-03 8.37783E-05-1.46453E-14
 -1       925 1.36367E-02 1.25760E-03-1.49521E-13
 -1       926 1.35033E-02 1.12948E-03-1.48071E-13
 -1       927 1.36730E-02 1.34156E-03-1.49368E-13
 -1       928 5.08101E-03 1.46168E-04-1.84728E-14
 -1       929 5.35318E-03 1.77323E-04-2.10436E-14
 -1       930 5.62298E-03 2.06796E-04-2.37494E-14
 -1       931 5.89278E-03 2.35831E-04-2.65880E-14
 -1       932 6.16383E-03 2.65012E-04-2.95631E-14
 -1       933 6.43672E-03 2.94646E-04-3.26738E-14
 -1       934 6.71162E-03 3.24899E-04-3.59199E-14
 -1       935 6.98849E-03 3.55865E-04-3.93010E-14
 -1       936 7.26717E-03 3.87583E-04-4.28167E-14
 -1       937 7.54741E-03 4.20051E-04-4.64684E-14
 -1       938 7.82898E-03 4.53233E-04-5.02506E-14
 -1       939 8.11161E-03 4.87074E-04-5.41668E-14
 -1       940 8.39511E-03 5.21506E-04-5.82142E-14
 -1       941 8.67927E-03 5.56454E-04-6.23844E-14
 -1       942 8.96394E-03 5.91843E-04-6.66755E-14
 -1       943 9.24898E-03 6.27601E-04-7.10863E-14
 -1       944 9.53429E-03 6.63662E-04-7.56088E-14
 -1       945 9.81980E-03 6.99968E-04-8.02383E-14
 -1       946 1.01054E-02 7.36469E-04-8.49630E-14
 -1       947 1.03911E-02 7.73121E-04-8.97932E-14
 -1       948 1.06769E-02 8.09890E-04-9.47160E-14
 -1       949 1.09627E-02 8.46746E-04-9.97228E-14
 -1       950 1.12485E-02 8.83667E-04-1.04813E-13
 -1       951 1.15343E-02 9.20635E-04-1.09981E-13
 -1       952 1.18201E-02 9.57636E-04-1.15228E-13
 -1       953 1.21059E-02 9.94660E-04-1.20549E-13
 -1       954 1.23917E-02 1.03170E-03-1.25945E-13
 -1       955 1.26774E-02 1.06875E-03-1.31410E-13
 -1       956 1.29632E-02 1.10580E-03-1.36945E-13
 -1       957 1.32490E-02 1.14285E-03-1.42542E-13
 -1       958 6.56688E-03 6.30849E-04-3.15067E-14
 -1       959 6.29845E-03 5.89317E-04-2.84334E-14
 -1       960 6.03468E-03 5.49026E-04-2.54980E-14
 -1       961 6.83918E-03 6.73025E-04-3.47173E-14
 -1       962 7.11461E-03 7.15372E-04-3.80633E-14
 -1       963 7.39256E-03 7.57537E-04-4.15412E-14
 -1       964 7.67250E-03 7.99291E-04-4.51492E-14
 -1       965 7.95398E-03 8.40507E-04-4.88891E-14
 -1       966 8.23665E-03 8.81135E-04-5.27581E-14
 -1       967 8.52022E-03 9.21180E-04-5.67567E-14
 -1       968 8.80447E-03 9.60679E-04-6.08833E-14
 -1       969 9.08921E-03 9.99691E-04-6.51315E-14
 -1       970 9.37431E-03 1.03828E-03-6.94985E-14
 -1       971 9.65966E-03 1.07652E-03-7.39848E-14
 -1       972 9.94519E-03 1.11447E-03-7.85816E-14
 -1       973 1.02308E-02 1.15218E-03-8.32811E-14
 -1       974 1.05166E-02 1.18971E-03-8.80771E-14
 -1       975 1.08023E-02 1.22709E-03-9.29608E-14
 -1       976 1.10881E-02 1.26437E-03-9.79361E-14
 -1       977 1.13739E-02 1.30157E-03-1.02999E-13
 -1       978 1.16597E-02 1.33871E-03-1.08145E-13
 -1       979 1.19455E-02 1.37581E-03-1.13374E-13
 -1       980 1.22313E-02 1.41288E-03-1.18684E-13
 -1       981 1.25171E-02 1.44993E-03-1.24062E-13
 -1       982 1.28028E-02 1.48697E-03-1.29502E-13
 -1       983 1.30886E-02 1.52400E-03-1.35014E-13
 -1       984 1.33743E-02 1.56103E-03-1.40588E-13
 -1       985 5.00261E-03 4.31267E-04-1.49258E-14
 -1       986 5.27975E-03 4.42354E-04-1.75110E-14
 -1       987 5.14125E-03 3.02954E-04-1.61769E-14
 -1       988 1.34800E-02 1.43561E-03-1.44228E-13
 -1       989 5.52458E-03 4.74890E-04-2.00342E-14
 -1       990 4.80192E-03 1.10270E-04-1.60396E-14
 -1       991 5.13787E-03 2.67460E-04-1.69662E-14
 -1       992 5.17346E-03 4.03505E-04-1.62784E-14
 -1       993 1.36601E-02 1.59806E-03-1.46209E-13
 -1       994 1.35234E-02 1.50869E-03-1.44328E-13
 -1       995 1.34438E-02 1.35164E-03-1.44391E-13
 -1       996 5.77645E-03 5.10636E-04-2.26966E-14
 -1       997 1.34428E-02 1.20023E-03-1.46025E-13
 -1       998 1.34075E-02 1.26768E-03-1.44543E-13
 -1       999 5.90179E-03 4.75611E-04-2.42277E-14
 -1      1000 5.56055E-03 2.56097E-04-2.23588E-14
 -1      1001 5.81926E-03 2.83496E-04-2.51301E-14
 -1      1002 6.08175E-03 3.12239E-04-2.80335E-14
 -1      1003 6.34796E-03 3.42195E-04-3.10743E-14
 -1      1004 6.61762E-03 3.73214E-04-3.42512E-14
 -1      1005 6.89037E-03 4.05153E-04-3.75627E-14
 -1      1006 7.16580E-03 4.37907E-04-4.10084E-14
 -1      1007 7.44353E-03 4.71371E-04-4.45901E-14
 -1      1008 7.72315E-03 5.05456E-04-4.83037E-14
 -1      1009 8.00431E-03 5.40080E-04-5.21461E-14
 -1      1010 8.28670E-03 5.75167E-04-5.61220E-14
 -1      1011 8.57004E-03 6.10649E-04-6.02265E-14
 -1      1012 8.85411E-03 6.46461E-04-6.44528E-14
 -1      1013 9.13874E-03 6.82548E-04-6.88009E-14
 -1      1014 9.42376E-03 7.18858E-04-7.32665E-14
 -1      1015 9.70908E-03 7.55348E-04-7.78402E-14
 -1      1016 9.99459E-03 7.91981E-04-8.25110E-14
 -1      1017 1.02802E-02 8.28726E-04-8.72853E-14
 -1      1018 1.05660E-02 8.65557E-04-9.21594E-14
 -1      1019 1.08518E-02 9.02454E-04-9.71209E-14
 -1      1020 1.11376E-02 9.39400E-04-1.02165E-13
 -1      1021 1.14234E-02 9.76381E-04-1.07293E-13
 -1      1022 1.17092E-02 1.01339E-03-1.12500E-13
 -1      1023 1.19950E-02 1.05041E-03-1.17781E-13
 -1      1024 1.22808E-02 1.08745E-03-1.23136E-13
 -1      1025 1.25666E-02 1.12449E-03-1.28566E-13
 -1      1026 1.28524E-02 1.16154E-03-1.34061E-13
 -1      1027 1.31381E-02 1.19859E-03-1.39621E-13
 -1      1028 6.41690E-03 5.51283E-04-3.01037E-14
 -1      1029 6.95407E-03 6.30909E-04-3.65282E-14
 -1      1030 6.68330E-03 5.90822E-04-3.32473E-14
 -1      1031 6.15594E-03 5.12724E-04-2.70976E-14
 -1      1032 7.22835E-03 6.71194E-04-3.99420E-14
 -1      1033 7.50541E-03 7.11419E-04-4.34855E-14
 -1      1034 7.78467E-03 7.51414E-04-4.71644E-14
 -1      1035 8.06565E-03 7.91083E-04-5.09696E-14
 -1      1036 8.34795E-03 8.30385E-04-5.49015E-14
 -1      1037 8.63126E-03 8.69318E-04-5.89651E-14
 -1      1038 8.91533E-03 9.07904E-04-6.31535E-14
 -1      1039 9.19996E-03 9.46179E-04-6.74628E-14
 -1      1040 9.48499E-03 9.84186E-04-7.18947E-14
 -1      1041 9.77031E-03 1.02197E-03-7.64392E-14
 -1      1042 1.00558E-02 1.05957E-03-8.10872E-14
 -1      1043 1.03415E-02 1.09702E-03-8.58361E-14
 -1      1044 1.06272E-02 1.13436E-03-9.06770E-14
 -1      1045 1.09130E-02 1.17160E-03-9.56050E-14
 -1      1046 1.11988E-02 1.20878E-03-1.00626E-13
 -1      1047 1.14846E-02 1.24592E-03-1.05733E-13
 -1      1048 1.17704E-02 1.28301E-03-1.10920E-13
 -1      1049 1.20562E-02 1.32009E-03-1.16187E-13
 -1      1050 1.23420E-02 1.35714E-03-1.21530E-13
 -1      1051 1.26278E-02 1.39418E-03-1.26939E-13
 -1      1052 1.29136E-02 1.43122E-03-1.32415E-13
 -1      1053 1.31993E-02 1.46826E-03-1.37957E-13
 -1      1054 5.32414E-03 3.55542E-04-1.79138E-14
 -1      1055 5.31627E-03 3.95214E-04-1.77233E-14
 -1      1056 5.10840E-03 2.12409E-04-1.77260E-14
 -1      1057 5.33319E-03 2.33851E-04-1.99870E-14
 -1      1058 5.35947E-03 3.24829E-04-1.87542E-14
 -1      1059 5.65628E-03 4.40316E-04-2.14934E-14
 -1      1060 1.32144E-02 1.36155E-03-1.39453E-13
 -1      1061 7.06381E-03 5.87795E-04-3.83470E-14
 -1      1062 5.99981E-03 3.55222E-04-2.65135E-14
 -1      1063 6.25902E-03 3.85990E-04-2.94823E-14
 -1      1064 6.52342E-03 4.18225E-04-3.25908E-14
 -1      1065 6.79204E-03 4.51523E-04-3.58332E-14
 -1      1066 7.06434E-03 4.85707E-04-3.92099E-14
 -1      1067 7.33964E-03 5.20542E-04-4.27219E-14
 -1      1068 7.61740E-03 5.55880E-04-4.63682E-14
 -1      1069 7.89713E-03 5.91607E-04-5.01414E-14
 -1      1070 8.17844E-03 6.27634E-04-5.40453E-14
 -1      1071 8.46097E-03 6.63897E-04-5.80794E-14
 -1      1072 8.74446E-03 7.00342E-04-6.22386E-14
 -1      1073 9.02866E-03 7.36929E-04-6.65235E-14
 -1      1074 9.31338E-03 7.73629E-04-7.09322E-14
 -1      1075 9.59849E-03 8.10415E-04-7.54501E-14
 -1      1076 9.88387E-03 8.47269E-04-8.00683E-14
 -1      1077 1.01694E-02 8.84174E-04-8.47883E-14
 -1      1078 1.04551E-02 9.21119E-04-8.96073E-14
 -1      1079 1.07409E-02 9.58093E-04-9.45219E-14
 -1      1080 1.10267E-02 9.95090E-04-9.95230E-14
 -1      1081 1.13125E-02 1.03210E-03-1.04610E-13
 -1      1082 1.15983E-02 1.06913E-03-1.09773E-13
 -1      1083 1.18841E-02 1.10616E-03-1.15016E-13
 -1      1084 1.21699E-02 1.14320E-03-1.20334E-13
 -1      1085 1.24557E-02 1.18024E-03-1.25722E-13
 -1      1086 1.27415E-02 1.21729E-03-1.31181E-13
 -1      1087 1.30273E-02 1.25433E-03-1.36707E-13
 -1      1088 7.33830E-03 6.26019E-04-4.18288E-14
 -1      1089 6.26435E-03 4.76272E-04-2.87078E-14
 -1      1090 7.61552E-03 6.64363E-04-4.54413E-14
 -1      1091 7.89490E-03 7.02689E-04-4.91857E-14
 -1      1092 8.17597E-03 7.40915E-04-5.30560E-14
 -1      1093 8.45835E-03 7.78997E-04-5.70550E-14
 -1      1094 8.74173E-03 8.16920E-04-6.11824E-14
 -1      1095 9.02585E-03 8.54687E-04-6.54344E-14
 -1      1096 9.31052E-03 8.92309E-04-6.98118E-14
 -1      1097 9.59559E-03 9.29805E-04-7.43039E-14
 -1      1098 9.88095E-03 9.67194E-04-7.89011E-14
 -1      1099 1.01665E-02 1.00450E-03-8.35985E-14
 -1      1100 1.04522E-02 1.04173E-03-8.83984E-14
 -1      1101 1.07379E-02 1.07890E-03-9.32827E-14
 -1      1102 1.10237E-02 1.11604E-03-9.82614E-14
 -1      1103 1.13095E-02 1.15314E-03-1.03326E-13
 -1      1104 1.15953E-02 1.19023E-03-1.08473E-13
 -1      1105 1.18812E-02 1.22729E-03-1.13700E-13
 -1      1106 1.21670E-02 1.26435E-03-1.19003E-13
 -1      1107 1.24528E-02 1.30139E-03-1.24379E-13
 -1      1108 1.27386E-02 1.33843E-03-1.29823E-13
 -1      1109 1.29765E-02 1.34999E-03-1.34617E-13
 -1      1110 5.35259E-03 2.83656E-04-1.93793E-14
 -1      1111 6.00947E-03 4.41336E-04-2.57689E-14
 -1      1112 6.52593E-03 5.12630E-04-3.17852E-14
 -1      1113 6.79275E-03 5.49897E-04-3.49979E-14
 -1      1114 5.74678E-03 3.26336E-04-2.36784E-14
 -1      1115 5.53071E-03 3.78364E-04-2.03240E-14
 -1      1116 5.54698E-03 3.04071E-04-2.14847E-14
 -1      1117 6.42649E-03 4.59799E-04-3.09387E-14
 -1      1118 5.76307E-03 4.08245E-04-2.29644E-14
 -1      1119 6.10509E-03 4.04691E-04-2.73194E-14
 -1      1120 5.85325E-03 3.73598E-04-2.44464E-14
 -1      1121 5.59901E-03 3.47940E-04-2.15238E-14
 -1      1122 0.00000E+00 0.00000E+00 0.00000E+00
 -1      1123 0.00000E+00 0.00000E+00 0.00000E+00
 -1      1124 0.00000E+00 0.00000E+00 0.00000E+00
 -1      1125 0.00000E+00 0.00000E+00 0.00000E+00
 -1      1126 0.00000E+00 0.00000E+00 0.00000E+00
 -1      1127 0.00000E+00 0.00000E+00 0.00000E+00
 -1      1128 0.00000E+00 0.00000E+00 0.00000E+00
 -1      1129 0.00000E+00 0.00000E+00 0.00000E+00
 -1      1130 0.00000E+00 0.00000E+00 0.00000E+00
 -1      1131 0.00000E+00 0.00000E+00 0.00000E+00
 -1      1132 0.00000E+00 0.00000E+00 0.00000E+00
 -1      1133 0.00000E+00 0.00000E+00 0.00000E+00
 -1      1134 0.00000E+00 0.00000E+00 0.00000E+00
 -1      1135 0.00000E+00 0.00000E+00 0.00000E+00
 -1      1136 0.00000E+00 0.00000E+00 0.00000E+00
 -1      1137 0.00000E+00 0.00000E+00 0.00000E+00
 -1      1138 0.00000E+00 0.00000E+00 0.00000E+00
 -1      1139 2.54654E-04-1.71690E-04 1.90006E-17
 -1      1140 6.71738E-04-3.96415E-04-5.25838E-17
 -1      1141 1.02065E-03-5.60858E-04-2.87273E-16
 -1      1142 1.34716E-03-6.96764E-04-7.15506E-16
 -1      1143 1.65330E-03-8.14737E-04-1.33285E-15
 -1      1144 1.93861E-03-9.11073E-04-2.14057E-15
 -1      1145 2.20558E-03-9.75655E-04-3.14343E-15
 -1      1146 2.46126E-03-9.98796E-04-4.34390E-15
 -1      1147 2.71621E-03-9.76957E-04-5.74057E-15
 -1      1148 2.98102E-03-9.15395E-04-7.32881E-15
 -1      1149 3.26263E-03-8.26520E-04-9.10045E-15
 -1      1150 3.56253E-03-7.25336E-04-1.10463E-14
 -1      1151 3.87755E-03-6.24820E-04-1.31606E-14
 -1      1152 4.20215E-03-5.33405E-04-1.54351E-14
 -1      1153 4.53055E-03-4.54807E-04-1.78658E-14
 -1      1154 4.85814E-03-3.89255E-04-2.04466E-14
 -1      1155 5.18189E-03-3.35008E-04-2.31650E-14
 -1      1156 5.50024E-03-2.89564E-04-2.60171E-14
 -1      1157 5.81274E-03-2.50411E-04-2.90046E-14
 -1      1158 6.11964E-03-2.15392E-04-3.21266E-14
 -1      1159 6.42157E-03-1.82815E-04-3.53848E-14
 -1      1160 6.71930E-03-1.51451E-04-3.87892E-14
 -1      1161 7.01364E-03-1.20453E-04-4.23344E-14
 -1      1162 7.30533E-03-8.92815E-05-4.60195E-14
 -1      1163 7.59500E-03-5.76194E-05-4.98481E-14
 -1      1164 7.88319E-03-2.53080E-05-5.38147E-14
 -1      1165 8.17030E-03 7.70484E-06-5.79055E-14
 -1      1166 8.45668E-03 4.14039E-05-6.21191E-14
 -1      1167 8.74257E-03 7.57345E-05-6.64664E-14
 -1      1168 9.02815E-03 1.10622E-04-7.09350E-14
 -1      1169 9.31355E-03 1.45986E-04-7.55136E-14
 -1      1170 9.59886E-03 1.81745E-04-8.02010E-14
 -1      1171 9.88415E-03 2.17826E-04-8.49969E-14
 -1      1172 1.01694E-02 2.54163E-04-8.98954E-14
 -1      1173 1.04548E-02 2.90700E-04-9.48789E-14
 -1      1174 1.07401E-02 3.27390E-04-9.99438E-14
 -1      1175 1.10256E-02 3.64196E-04-1.05078E-13
 -1      1176 1.13110E-02 4.01086E-04-1.10279E-13
 -1      1177 1.15966E-02 4.38037E-04-1.15549E-13
 -1      1178 1.18821E-02 4.75030E-04-1.20894E-13
 -1      1179 1.21677E-02 5.12053E-04-1.26320E-13
 -1      1180 1.24533E-02 5.49093E-04-1.31829E-13
 -1      1181 1.27390E-02 5.86145E-04-1.37423E-13
 -1      1182 1.30246E-02 6.23202E-04-1.43092E-13
 -1      1183 1.33103E-02 6.60260E-04-1.48822E-13
 -1      1184 1.35960E-02 6.97317E-04-1.54596E-13
 -1      1185 1.38817E-02 7.34370E-04-1.60402E-13
 -1      1186 1.41674E-02 7.71418E-04-1.66232E-13
 -1      1187 1.44531E-02 8.08461E-04-1.72079E-13
 -1      1188 1.47317E-02 8.44573E-04-1.77812E-13
 -1      1189 2.92911E-04 1.84483E-04 3.82723E-17
 -1      1190 7.39300E-04 3.94718E-04 1.56667E-17
 -1      1191 1.14392E-03 5.71781E-04-1.48888E-16
 -1      1192 1.53126E-03 7.49286E-04-4.78120E-16
 -1      1193 1.89417E-03 9.35232E-04-9.77910E-16
 -1      1194 2.22348E-03 1.11635E-03-1.65991E-15
 -1      1195 2.51635E-03 1.26450E-03-2.53409E-15
 -1      1196 2.78312E-03 1.34977E-03-3.60408E-15
 -1      1197 3.04607E-03 1.35801E-03-4.87623E-15
 -1      1198 3.32847E-03 1.30072E-03-6.34909E-15
 -1      1199 3.64252E-03 1.20830E-03-8.01831E-15
 -1      1200 3.98595E-03 1.11340E-03-9.87359E-15
 -1      1201 4.34749E-03 1.03809E-03-1.19014E-14
 -1      1202 4.71440E-03 9.91169E-04-1.40988E-14
 -1      1203 5.07707E-03 9.71931E-04-1.64619E-14
 -1      1204 5.43009E-03 9.75245E-04-1.89849E-14
 -1      1205 5.77150E-03 9.95007E-04-2.16609E-14
 -1      1206 6.10145E-03 1.02584E-03-2.44827E-14
 -1      1207 6.42121E-03 1.06358E-03-2.74473E-14
 -1      1208 6.73245E-03 1.10530E-03-3.05490E-14
 -1      1209 7.03685E-03 1.14898E-03-3.37843E-14
 -1      1210 7.33591E-03 1.19336E-03-3.71590E-14
 -1      1211 7.63091E-03 1.23764E-03-4.06671E-14
 -1      1212 7.92288E-03 1.28138E-03-4.43069E-14
 -1      1213 8.21265E-03 1.32435E-03-4.80769E-14
 -1      1214 8.50083E-03 1.36648E-03-5.19777E-14
 -1      1215 8.78791E-03 1.40778E-03-5.60161E-14
 -1      1216 9.07424E-03 1.44830E-03-6.01898E-14
 -1      1217 9.36008E-03 1.48814E-03-6.44894E-14
 -1      1218 9.64562E-03 1.52738E-03-6.89015E-14
 -1      1219 9.93099E-03 1.56613E-03-7.34112E-14
 -1      1220 1.02163E-02 1.60447E-03-7.80355E-14
 -1      1221 1.05016E-02 1.64248E-03-8.27691E-14
 -1      1222 1.07868E-02 1.68023E-03-8.75957E-14
 -1      1223 1.10722E-02 1.71778E-03-9.25222E-14
 -1      1224 1.13575E-02 1.75518E-03-9.75271E-14
 -1      1225 1.16430E-02 1.79246E-03-1.02595E-13
 -1      1226 1.19284E-02 1.82966E-03-1.07751E-13
 -1      1227 1.22139E-02 1.86679E-03-1.12998E-13
 -1      1228 1.24995E-02 1.90388E-03-1.18354E-13
 -1      1229 1.27851E-02 1.94094E-03-1.23795E-13
 -1      1230 1.30707E-02 1.97799E-03-1.29301E-13
 -1      1231 1.33564E-02 2.01502E-03-1.34854E-13
 -1      1232 1.36420E-02 2.05205E-03-1.40446E-13
 -1      1233 1.39277E-02 2.08908E-03-1.46056E-13
 -1      1234 1.42134E-02 2.12611E-03-1.51696E-13
 -1      1235 1.44991E-02 2.16314E-03-1.57352E-13
 -1      1236 1.47848E-02 2.20018E-03-1.63023E-13
 -1      1237 1.50705E-02 2.23722E-03-1.68712E-13
 -1      1238 1.53491E-02 2.27335E-03-1.74272E-13
 -1      1239 1.54666E-02 2.24880E-03-1.77091E-13
 -1      1240 1.54302E-02 2.16452E-03-1.77378E-13
 -1      1241 1.53937E-02 2.08023E-03-1.77661E-13
 -1      1242 1.53573E-02 1.99594E-03-1.77914E-13
 -1      1243 1.53208E-02 1.91164E-03-1.78161E-13
 -1      1244 1.52847E-02 1.82806E-03-1.78419E-13
 -1      1245 1.52486E-02 1.74446E-03-1.78720E-13
 -1      1246 1.52121E-02 1.66015E-03-1.78999E-13
 -1      1247 1.51757E-02 1.57584E-03-1.79251E-13
 -1      1248 1.51393E-02 1.49153E-03-1.79473E-13
 -1      1249 1.51029E-02 1.40722E-03-1.79658E-13
 -1      1250 1.50668E-02 1.32362E-03-1.79841E-13
 -1      1251 1.50307E-02 1.24004E-03-1.80018E-13
 -1      1252 1.49943E-02 1.15574E-03-1.80163E-13
 -1      1253 1.49579E-02 1.07145E-03-1.80303E-13
 -1      1254 1.49214E-02 9.87165E-04-1.80447E-13
 -1      1255 1.48853E-02 9.03594E-04-1.80568E-13
 -1      1256 4.78654E-03 3.11443E-04-7.95892E-15
 -1      1257 4.68393E-03 4.49323E-04-7.74223E-15
 -1      1258 4.47778E-03 5.87596E-04-7.37437E-15
 -1      1259 4.18782E-03 7.22563E-04-6.87877E-15
 -1      1260 3.82924E-03 8.47397E-04-6.27702E-15
 -1      1261 3.44501E-03 9.40873E-04-5.65471E-15
 -1      1262 3.02553E-03 9.93643E-04-5.00091E-15
 -1      1263 2.56740E-03 9.87716E-04-4.32003E-15
 -1      1264 2.10862E-03 9.18472E-04-3.67924E-15
 -1      1265 1.69071E-03 8.04712E-04-3.13990E-15
 -1      1266 1.29761E-03 6.57944E-04-2.67123E-15
 -1      1267 9.58360E-04 5.03975E-04-2.29562E-15
 -1      1268 7.07754E-04 3.66436E-04-2.03540E-15
 -1      1269 5.41306E-04 2.43287E-04-1.87369E-15
 -1      1270 4.72019E-04 1.35837E-04-1.81726E-15
 -1      1271 4.98422E-04 3.72275E-05-1.86477E-15
 -1      1272 6.14994E-04-6.15208E-05-2.01185E-15
 -1      1273 8.34189E-04-1.75289E-04-2.28279E-15
 -1      1274 1.12864E-03-2.93045E-04-2.65868E-15
 -1      1275 1.47744E-03-4.04353E-04-3.12199E-15
 -1      1276 1.89753E-03-5.01203E-04-3.71440E-15
 -1      1277 2.32807E-03-5.56107E-04-4.35811E-15
 -1      1278 2.73870E-03-5.60479E-04-4.99270E-15
 -1      1279 3.13250E-03-5.18635E-04-5.61264E-15
 -1      1280 3.51233E-03-4.39301E-04-6.21354E-15
 -1      1281 3.87685E-03-3.29171E-04-6.77923E-15
 -1      1282 4.20394E-03-2.02405E-04-7.26521E-15
 -1      1283 4.47906E-03-6.72308E-05-7.65154E-15
 -1      1284 4.67517E-03 6.48071E-05-7.90074E-15
 -1      1285 4.77669E-03 1.85861E-04-8.00164E-15
 -1      1286 2.00950E-04-1.25042E-04-6.12574E-18
 -1      1287 1.32457E-04-5.89760E-05-3.47351E-17
 -1      1288 1.40108E-04-7.29630E-05-2.68340E-17
 -1      1289 1.24070E-04-3.86053E-05-4.71628E-17
 -1      1290 1.28098E-04-4.81033E-05-4.34901E-17
 -1      1291 2.65744E-04-1.11798E-04-1.03921E-16
 -1      1292 1.17570E-04-2.03731E-05-5.29226E-17
 -1      1293 1.21144E-04-2.91918E-05-5.12963E-17
 -1      1294 2.50477E-04-7.29253E-05-1.25063E-16
 -1      1295 1.09725E-04-2.75640E-06-5.59990E-17
 -1      1296 1.14066E-04-1.11329E-05-5.52130E-17
 -1      1297 2.36901E-04-3.73358E-05-1.35512E-16
 -1      1298 9.93695E-05 1.26443E-05-5.70697E-17
 -1      1299 1.04947E-04 5.67359E-06-5.66360E-17
 -1      1300 2.19564E-04-3.82118E-06-1.40174E-16
 -1      1301 8.68642E-05 2.25019E-05-5.73407E-17
 -1      1302 9.32733E-05 1.84950E-05-5.70832E-17
 -1      1303 1.96236E-04 2.39460E-05-1.41448E-16
 -1      1304 7.47798E-05 2.37938E-05-5.67444E-17
 -1      1305 8.05225E-05 2.38715E-05-5.65818E-17
 -1      1306 1.68736E-04 3.98193E-05-1.40648E-16
 -1      1307 6.65148E-05 1.62201E-05-5.59042E-17
 -1      1308 6.98005E-05 2.00435E-05-5.59719E-17
 -1      1309 1.43041E-04 3.94863E-05-1.38751E-16
 -1      1310 6.57625E-05 3.94879E-06-5.46302E-17
 -1      1311 6.50546E-05 9.08348E-06-5.49148E-17
 -1      1312 1.28180E-04 2.44179E-05-1.36257E-16
 -1      1313 7.33166E-05-6.51678E-06-5.27600E-17
 -1      1314 6.86124E-05-3.08217E-06-5.34986E-17
 -1      1315 1.31071E-04 3.78709E-06-1.33005E-16
 -1      1316 8.68060E-05-9.21405E-06-4.99546E-17
 -1      1317 7.95860E-05-9.76424E-06-5.11201E-17
 -1      1318 1.51700E-04-9.88639E-06-1.28397E-16
 -1      1319 1.02480E-04-2.42781E-06-4.59295E-17
 -1      1320 9.45479E-05-7.19912E-06-4.77049E-17
 -1      1321 1.83008E-04-7.69546E-06-1.21715E-16
 -1      1322 1.17722E-04 1.21004E-05-3.97225E-17
 -1      1323 1.10046E-04 4.10006E-06-4.24330E-17
 -1      1324 2.16544E-04 1.14099E-05-1.11619E-16
 -1      1325 1.32487E-04 3.24631E-05-2.94767E-17
 -1      1326 1.24693E-04 2.17708E-05-3.41117E-17
 -1      1327 2.47936E-04 4.36892E-05-9.58028E-17
 -1      1328 1.50204E-04 6.13851E-05-1.26716E-17
 -1      1329 1.39994E-04 4.55886E-05-2.09658E-17
 -1      1330 2.79199E-04 8.73382E-05-7.11914E-17
 -1      1331 2.06348E-04 1.19923E-04 1.43657E-17
 -1      1332 1.77441E-04 8.60714E-05-2.41235E-18
 -1      1333 3.33201E-04 1.49773E-04-4.08338E-17
 -1      1334 4.42783E-04 2.42543E-04 3.55076E-18
 -1      1335 5.10215E-04-3.02577E-04-6.94567E-17
 -1      1336 6.96627E-04-3.96652E-04-1.47126E-16
 -1      1337 8.75523E-04-4.79031E-04-2.74534E-16
 -1      1338 1.04838E-03-5.53152E-04-4.48209E-16
 -1      1339 7.36694E-04-3.92818E-04-2.55465E-16
 -1      1340 1.21557E-03-6.22227E-04-6.66757E-16
 -1      1341 1.37755E-03-6.86612E-04-9.32075E-16
 -1      1342 1.08730E-03-5.44289E-04-6.13509E-16
 -1      1343 1.53469E-03-7.47113E-04-1.24391E-15
 -1      1344 1.68717E-03-8.02648E-04-1.60344E-15
 -1      1345 1.41819E-03-6.75901E-04-1.15237E-15
 -1      1346 1.83526E-03-8.52367E-04-2.00973E-15
 -1      1347 1.97929E-03-8.94721E-04-2.46430E-15
 -1      1348 1.73209E-03-7.89276E-04-1.87669E-15
 -1      1349 2.11983E-03-9.28223E-04-2.96776E-15
 -1      1350 2.25759E-03-9.51545E-04-3.52051E-15
 -1      1351 2.03126E-03-8.75780E-04-2.79045E-15
 -1      1352 2.39349E-03-9.63620E-04-4.12222E-15
 -1      1353 2.52858E-03-9.63955E-04-4.77308E-15
 -1      1354 2.31950E-03-9.23525E-04-3.89933E-15
 -1      1355 2.66391E-03-9.52664E-04-5.47233E-15
 -1      1356 2.80055E-03-9.30393E-04-6.21928E-15
 -1      1357 2.60277E-03-9.24408E-04-5.20315E-15
 -1      1358 2.93934E-03-8.98537E-04-7.01426E-15
 -1      1359 3.08097E-03-8.58648E-04-7.85544E-15
 -1      1360 2.88795E-03-8.79236E-04-6.69958E-15
 -1      1361 3.22584E-03-8.12841E-04-8.74028E-15
 -1      1362 3.37411E-03-7.62996E-04-9.67023E-15
 -1      1363 3.18055E-03-7.98300E-04-8.38141E-15
 -1      1364 3.52568E-03-7.11159E-04-1.06430E-14
 -1      1365 3.68026E-03-6.58966E-04-1.16587E-14
 -1      1366 3.48300E-03-6.97355E-04-1.02410E-14
 -1      1367 3.83740E-03-6.07846E-04-1.27158E-14
 -1      1368 3.99657E-03-5.58884E-04-1.38130E-14
 -1      1369 3.79455E-03-5.91964E-04-1.22713E-14
 -1      1370 4.15723E-03-5.12752E-04-1.49502E-14
 -1      1371 4.31882E-03-4.69975E-04-1.61262E-14
 -1      1372 4.11240E-03-4.93441E-04-1.44664E-14
 -1      1373 4.48082E-03-4.30619E-04-1.73411E-14
 -1      1374 4.64279E-03-3.94794E-04-1.85937E-14
 -1      1375 4.43313E-03-4.07700E-04-1.68180E-14
 -1      1376 4.80435E-03-3.62212E-04-1.98830E-14
 -1      1377 4.96520E-03-3.32737E-04-2.12073E-14
 -1      1378 4.75367E-03-3.36196E-04-1.93207E-14
 -1      1379 5.12511E-03-3.05948E-04-2.25653E-14
 -1      1380 5.28392E-03-2.81595E-04-2.39574E-14
 -1      1381 5.07180E-03-2.77623E-04-2.19674E-14
 -1      1382 5.44153E-03-2.59261E-04-2.53832E-14
 -1      1383 5.59789E-03-2.38674E-04-2.68421E-14
 -1      1384 5.38616E-03-2.29423E-04-2.47503E-14
 -1      1385 5.75299E-03-2.19485E-04-2.83355E-14
 -1      1386 5.90685E-03-2.01441E-04-2.98627E-14
 -1      1387 5.69619E-03-1.88802E-04-2.76681E-14
 -1      1388 6.05951E-03-1.84284E-04-3.14229E-14
 -1      1389 6.21104E-03-1.67802E-04-3.30170E-14
 -1      1390 6.00183E-03-1.53260E-04-3.07201E-14
 -1      1391 6.36151E-03-1.51817E-04-3.46463E-14
 -1      1392 6.51099E-03-1.36164E-04-3.63106E-14
 -1      1393 6.30338E-03-1.20794E-04-3.39082E-14
 -1      1394 6.65959E-03-1.20731E-04-3.80114E-14
 -1      1395 6.80737E-03-1.05396E-04-3.97484E-14
 -1      1396 6.60135E-03-8.99222E-05-3.72363E-14
 -1      1397 6.95443E-03-9.00956E-05-4.15207E-14
 -1      1398 7.10083E-03-7.47436E-05-4.33262E-14
 -1      1399 6.89629E-03-5.96146E-05-4.07069E-14
 -1      1400 7.24667E-03-5.93106E-05-4.51682E-14
 -1      1401 7.39200E-03-4.37395E-05-4.70454E-14
 -1      1402 7.18877E-03-2.92038E-05-4.43187E-14
 -1      1403 7.53689E-03-2.80228E-05-4.89572E-14
 -1      1404 7.68140E-03-1.21252E-05-5.09041E-14
 -1      1405 7.47930E-03 1.70788E-06-4.80698E-14
 -1      1406 7.82558E-03 3.94723E-06-5.28842E-14
 -1      1407 7.96949E-03 2.02141E-05-5.48971E-14
 -1      1408 7.76832E-03 3.33266E-05-5.19583E-14
 -1      1409 8.11316E-03 3.66618E-05-5.69401E-14
 -1      1410 8.25662E-03 5.32989E-05-5.90131E-14
 -1      1411 8.05621E-03 6.57285E-05-5.59764E-14
 -1      1412 8.39992E-03 7.01085E-05-6.11196E-14
 -1      1413 8.54308E-03 8.70920E-05-6.32576E-14
 -1      1414 8.34327E-03 9.89071E-05-6.01223E-14
 -1      1415 8.68613E-03 1.04231E-04-6.54274E-14
 -1      1416 8.82909E-03 1.21524E-04-6.76300E-14
 -1      1417 8.62974E-03 1.32806E-04-6.43937E-14
 -1      1418 8.97198E-03 1.38952E-04-6.98617E-14
 -1      1419 9.11480E-03 1.56511E-04-7.21194E-14
 -1      1420 8.91580E-03 1.67345E-04-6.87895E-14
 -1      1421 9.25759E-03 1.74184E-04-7.44074E-14
 -1      1422 9.40034E-03 1.91965E-04-7.67219E-14
 -1      1423 9.20160E-03 2.02432E-04-7.33035E-14
 -1      1424 9.54306E-03 2.09841E-04-7.90625E-14
 -1      1425 9.68577E-03 2.27805E-04-8.14302E-14
 -1      1426 9.48722E-03 2.37977E-04-7.79273E-14
 -1      1427 9.82847E-03 2.45845E-04-8.38243E-14
 -1      1428 9.97117E-03 2.63955E-04-8.62439E-14
 -1      1429 9.77275E-03 2.73894E-04-8.26561E-14
 -1      1430 1.01139E-02 2.82125E-04-8.86887E-14
 -1      1431 1.02566E-02 3.00349E-04-9.11557E-14
 -1      1432 1.00582E-02 3.10109E-04-8.74869E-14
 -1      1433 1.03993E-02 3.18620E-04-9.36443E-14
 -1      1434 1.05420E-02 3.36933E-04-9.61529E-14
 -1      1435 1.03437E-02 3.46557E-04-9.24136E-14
 -1      1436 1.06847E-02 3.55281E-04-9.86816E-14
 -1      1437 1.08274E-02 3.73660E-04-1.01229E-13
 -1      1438 1.06292E-02 3.83184E-04-9.74249E-14
 -1      1439 1.09701E-02 3.92066E-04-1.03795E-13
 -1      1440 1.11129E-02 4.10495E-04-1.06378E-13
 -1      1441 1.09147E-02 4.19946E-04-1.02515E-13
 -1      1442 1.12556E-02 4.28943E-04-1.08976E-13
 -1      1443 1.13984E-02 4.47408E-04-1.11595E-13
 -1      1444 1.12002E-02 4.56807E-04-1.07677E-13
 -1      1445 1.15412E-02 4.65886E-04-1.14229E-13
 -1      1446 1.16840E-02 4.84376E-04-1.16880E-13
 -1      1447 1.14858E-02 4.93739E-04-1.12908E-13
 -1      1448 1.18267E-02 5.02875E-04-1.19553E-13
 -1      1449 1.19695E-02 5.21382E-04-1.22245E-13
 -1      1450 1.17713E-02 5.30722E-04-1.18212E-13
 -1      1451 1.21123E-02 5.39895E-04-1.24957E-13
 -1      1452 1.22551E-02 5.58414E-04-1.27689E-13
 -1      1453 1.20569E-02 5.67739E-04-1.23594E-13
 -1      1454 1.23980E-02 5.76936E-04-1.30443E-13
 -1      1455 1.25408E-02 5.95461E-04-1.33216E-13
 -1      1456 1.23426E-02 6.04778E-04-1.29057E-13
 -1      1457 1.26836E-02 6.13988E-04-1.36009E-13
 -1      1458 1.28264E-02 6.32517E-04-1.38823E-13
 -1      1459 1.26282E-02 6.41831E-04-1.34601E-13
 -1      1460 1.29693E-02 6.51046E-04-1.41653E-13
 -1      1461 1.31121E-02 6.69576E-04-1.44497E-13
 -1      1462 1.29139E-02 6.78890E-04-1.40216E-13
 -1      1463 1.32549E-02 6.88106E-04-1.47356E-13
 -1      1464 1.33978E-02 7.06636E-04-1.50231E-13
 -1      1465 1.31996E-02 7.15951E-04-1.45898E-13
 -1      1466 1.35406E-02 7.25165E-04-1.53115E-13
 -1      1467 1.36835E-02 7.43693E-04-1.56003E-13
 -1      1468 1.34853E-02 7.53012E-04-1.51635E-13
 -1      1469 1.38263E-02 7.62220E-04-1.58907E-13
 -1      1470 1.39692E-02 7.80746E-04-1.61817E-13
 -1      1471 1.37709E-02 7.90069E-04-1.57417E-13
 -1      1472 1.41120E-02 7.99270E-04-1.64732E-13
 -1      1473 1.42549E-02 8.17793E-04-1.67649E-13
 -1      1474 1.40567E-02 8.27122E-04-1.63230E-13
 -1      1475 1.43978E-02 8.36315E-04-1.70572E-13
 -1      1476 1.45406E-02 8.54835E-04-1.73503E-13
 -1      1477 1.43424E-02 8.64168E-04-1.69065E-13
 -1      1478 1.47496E-02 8.86002E-04-1.77762E-13
 -1      1479 1.46942E-02 9.13857E-04-1.76244E-13
 -1      1480 8.64384E-04 4.32995E-04-8.93383E-17
 -1      1481 6.57246E-04 3.41480E-04-2.32019E-17
 -1      1482 5.88915E-04 2.89728E-04-5.59042E-17
 -1      1483 1.26143E-03 6.08446E-04-3.41890E-16
 -1      1484 1.06550E-03 5.20466E-04-1.95509E-16
 -1      1485 9.93037E-04 4.68825E-04-2.34337E-16
 -1      1486 1.63748E-03 7.92391E-04-7.58128E-16
 -1      1487 1.45217E-03 6.99352E-04-5.28671E-16
 -1      1488 1.37932E-03 6.48978E-04-5.71510E-16
 -1      1489 1.98909E-03 9.82462E-04-1.34907E-15
 -1      1490 1.81666E-03 8.87906E-04-1.03098E-15
 -1      1491 1.74681E-03 8.39720E-04-1.07560E-15
 -1      1492 2.31251E-03 1.15686E-03-2.12482E-15
 -1      1493 2.15438E-03 1.07359E-03-1.71300E-15
 -1      1494 2.09290E-03 1.02940E-03-1.75764E-15
 -1      1495 2.61050E-03 1.28291E-03-3.09622E-15
 -1      1496 2.46408E-03 1.22768E-03-2.58575E-15
 -1      1497 2.41656E-03 1.18902E-03-2.62888E-15
 -1      1498 2.89543E-03 1.33415E-03-4.26555E-15
 -1      1499 2.75341E-03 1.31832E-03-3.65581E-15
 -1      1500 2.72322E-03 1.28497E-03-3.69741E-15
 -1      1501 3.18510E-03 1.30760E-03-5.63789E-15
 -1      1502 3.03851E-03 1.32932E-03-4.92621E-15
 -1      1503 3.02528E-03 1.29900E-03-4.96738E-15
 -1      1504 3.49357E-03 1.22649E-03-7.20768E-15
 -1      1505 3.33643E-03 1.27159E-03-6.39841E-15
 -1      1506 3.33630E-03 1.24134E-03-6.43801E-15
 -1      1507 3.82488E-03 1.12615E-03-8.96894E-15
 -1      1508 3.65652E-03 1.17665E-03-8.06564E-15
 -1      1509 3.66348E-03 1.14450E-03-8.10419E-15
 -1      1510 4.17389E-03 1.03638E-03-1.09086E-14
 -1      1511 3.99773E-03 1.07875E-03-9.91683E-15
 -1      1512 4.00561E-03 1.04424E-03-9.95331E-15
 -1      1513 4.53138E-03 9.73137E-04-1.30182E-14
 -1      1514 4.35220E-03 1.00113E-03-1.19429E-14
 -1      1515 4.35637E-03 9.64731E-04-1.19765E-14
 -1      1516 4.88867E-03 9.39799E-04-1.52946E-14
 -1      1517 4.71054E-03 9.52939E-04-1.41355E-14
 -1      1518 4.70860E-03 9.15449E-04-1.41664E-14
 -1      1519 5.23980E-03 9.32630E-04-1.77326E-14
 -1      1520 5.06530E-03 9.33347E-04-1.64938E-14
 -1      1521 5.05677E-03 8.95491E-04-1.65188E-14
 -1      1522 5.58170E-03 9.45391E-04-2.03256E-14
 -1      1523 5.41203E-03 9.36926E-04-1.90100E-14
 -1      1524 5.39760E-03 8.99217E-04-1.90293E-14
 -1      1525 5.91353E-03 9.71978E-04-2.30686E-14
 -1      1526 5.74888E-03 9.57290E-04-2.16792E-14
 -1      1527 5.72975E-03 9.20032E-04-2.16913E-14
 -1      1528 6.23579E-03 1.00745E-03-2.59541E-14
 -1      1529 6.07580E-03 9.88851E-04-2.44938E-14
 -1      1530 6.05319E-03 9.52184E-04-2.44992E-14
 -1      1531 6.54966E-03 1.04819E-03-2.89803E-14
 -1      1532 6.39369E-03 1.02733E-03-2.74499E-14
 -1      1533 6.36869E-03 9.91290E-04-2.74489E-14
 -1      1534 6.85655E-03 1.09172E-03-3.21431E-14
 -1      1535 6.70389E-03 1.06972E-03-3.05441E-14
 -1      1536 6.67734E-03 1.03427E-03-3.05347E-14
 -1      1537 7.15783E-03 1.13640E-03-3.54392E-14
 -1      1538 7.00781E-03 1.11399E-03-3.37738E-14
 -1      1539 6.98032E-03 1.07906E-03-3.37574E-14
 -1      1540 7.45472E-03 1.18124E-03-3.88755E-14
 -1      1541 7.30675E-03 1.15885E-03-3.71403E-14
 -1      1542 7.27877E-03 1.12436E-03-3.71174E-14
 -1      1543 7.74827E-03 1.22564E-03-4.24408E-14
 -1      1544 7.60185E-03 1.20352E-03-4.06423E-14
 -1      1545 7.57367E-03 1.16940E-03-4.06116E-14
 -1      1546 8.03930E-03 1.26928E-03-4.61409E-14
 -1      1547 7.89405E-03 1.24756E-03-4.42750E-14
 -1      1548 7.86584E-03 1.21374E-03-4.42381E-14
 -1      1549 8.32849E-03 1.31205E-03-4.99709E-14
 -1      1550 8.18408E-03 1.29078E-03-4.80389E-14
 -1      1551 8.15597E-03 1.25719E-03-4.79948E-14
 -1      1552 8.61635E-03 1.35392E-03-5.39318E-14
 -1      1553 8.47256E-03 1.33309E-03-5.19335E-14
 -1      1554 8.44459E-03 1.29968E-03-5.18849E-14
 -1      1555 8.90328E-03 1.39494E-03-5.80317E-14
 -1      1556 8.75991E-03 1.37453E-03-5.59655E-14
 -1      1557 8.73212E-03 1.34126E-03-5.59087E-14
 -1      1558 9.18958E-03 1.43519E-03-6.22584E-14
 -1      1559 9.04649E-03 1.41515E-03-6.01299E-14
 -1      1560 9.01889E-03 1.38198E-03-6.00646E-14
 -1      1561 9.47546E-03 1.47478E-03-6.66068E-14
 -1      1562 9.33256E-03 1.45506E-03-6.44178E-14
 -1      1563 9.30512E-03 1.42197E-03-6.43434E-14
 -1      1564 9.76107E-03 1.51381E-03-7.10601E-14
 -1      1565 9.61829E-03 1.49436E-03-6.88209E-14
 -1      1566 9.59100E-03 1.46132E-03-6.87381E-14
 -1      1567 1.00465E-02 1.55237E-03-7.56219E-14
 -1      1568 9.90382E-03 1.53314E-03-7.33278E-14
 -1      1569 9.87666E-03 1.50014E-03-7.32397E-14
 -1      1570 1.03319E-02 1.59056E-03-8.02965E-14
 -1      1571 1.01892E-02 1.57151E-03-7.79438E-14
 -1      1572 1.01622E-02 1.53853E-03-7.78504E-14
 -1      1573 1.06173E-02 1.62844E-03-8.50716E-14
 -1      1574 1.04746E-02 1.60953E-03-8.26717E-14
 -1      1575 1.04477E-02 1.57658E-03-8.25705E-14
 -1      1576 1.09027E-02 1.66609E-03-8.99434E-14
 -1      1577 1.07600E-02 1.64729E-03-8.74951E-14
 -1      1578 1.07331E-02 1.61435E-03-8.73896E-14
 -1      1579 1.11881E-02 1.70356E-03-9.49038E-14
 -1      1580 1.10454E-02 1.68485E-03-9.24123E-14
 -1      1581 1.10186E-02 1.65191E-03-9.23016E-14
 -1      1582 1.14735E-02 1.74090E-03-9.99341E-14
 -1      1583 1.13308E-02 1.72225E-03-9.74118E-14
 -1      1584 1.13040E-02 1.68931E-03-9.72938E-14
 -1      1585 1.17590E-02 1.77813E-03-1.05045E-13
 -1      1586 1.16162E-02 1.75952E-03-1.02479E-13
 -1      1587 1.15895E-02 1.72659E-03-1.02359E-13
 -1      1588 1.20445E-02 1.81529E-03-1.10240E-13
 -1      1589 1.19017E-02 1.79672E-03-1.07632E-13
 -1      1590 1.18750E-02 1.76378E-03-1.07507E-13
 -1      1591 1.23301E-02 1.85240E-03-1.15533E-13
 -1      1592 1.21873E-02 1.83385E-03-1.12873E-13
 -1      1593 1.21606E-02 1.80091E-03-1.12743E-13
 -1      1594 1.26156E-02 1.88947E-03-1.20923E-13
 -1      1595 1.24728E-02 1.87094E-03-1.18217E-13
 -1      1596 1.24462E-02 1.83800E-03-1.18077E-13
 -1      1597 1.29013E-02 1.92653E-03-1.26389E-13
 -1      1598 1.27584E-02 1.90800E-03-1.23648E-13
 -1      1599 1.27318E-02 1.87506E-03-1.23498E-13
 -1      1600 1.31869E-02 1.96356E-03-1.31911E-13
 -1      1601 1.30441E-02 1.94504E-03-1.29143E-13
 -1      1602 1.30174E-02 1.91210E-03-1.28986E-13
 -1      1603 1.34725E-02 2.00059E-03-1.37482E-13
 -1      1604 1.33297E-02 1.98208E-03-1.34693E-13
 -1      1605 1.33031E-02 1.94913E-03-1.34529E-13
 -1      1606 1.37582E-02 2.03762E-03-1.43083E-13
 -1      1607 1.36154E-02 2.01910E-03-1.40280E-13
 -1      1608 1.35887E-02 1.98616E-03-1.40115E-13
 -1      1609 1.40439E-02 2.07464E-03-1.48706E-13
 -1      1610 1.39011E-02 2.05613E-03-1.45891E-13
 -1      1611 1.38744E-02 2.02318E-03-1.45725E-13
 -1      1612 1.43296E-02 2.11167E-03-1.54358E-13
 -1      1613 1.41868E-02 2.09316E-03-1.51528E-13
 -1      1614 1.41601E-02 2.06021E-03-1.51362E-13
 -1      1615 1.46153E-02 2.14871E-03-1.60019E-13
 -1      1616 1.44725E-02 2.13019E-03-1.57186E-13
 -1      1617 1.44458E-02 2.09724E-03-1.57018E-13
 -1      1618 1.49010E-02 2.18575E-03-1.65700E-13
 -1      1619 1.47582E-02 2.16723E-03-1.62859E-13
 -1      1620 1.47315E-02 2.13427E-03-1.62693E-13
 -1      1621 1.51867E-02 2.22279E-03-1.71395E-13
 -1      1622 1.50439E-02 2.20427E-03-1.68546E-13
 -1      1623 1.50172E-02 2.17132E-03-1.68382E-13
 -1      1624 1.53309E-02 2.23120E-03-1.74393E-13
 -1      1625 1.52973E-02 2.12740E-03-1.74979E-13
 -1      1626 1.53156E-02 2.16954E-03-1.74836E-13
 -1      1627 1.52609E-02 2.04311E-03-1.75246E-13
 -1      1628 1.52791E-02 2.08526E-03-1.75117E-13
 -1      1629 1.51645E-02 2.09029E-03-1.72572E-13
 -1      1630 1.52245E-02 1.95882E-03-1.75502E-13
 -1      1631 1.52427E-02 2.00097E-03-1.75373E-13
 -1      1632 1.51281E-02 2.00600E-03-1.72835E-13
 -1      1633 1.51880E-02 1.87452E-03-1.75749E-13
 -1      1634 1.52062E-02 1.91667E-03-1.75627E-13
 -1      1635 1.50916E-02 1.92170E-03-1.73087E-13
 -1      1636 1.51522E-02 1.79165E-03-1.76012E-13
 -1      1637 1.51701E-02 1.83309E-03-1.75880E-13
 -1      1638 1.50555E-02 1.83812E-03-1.73338E-13
 -1      1639 1.51157E-02 1.70734E-03-1.76292E-13
 -1      1640 1.51340E-02 1.74950E-03-1.76151E-13
 -1      1641 1.50194E-02 1.75453E-03-1.73597E-13
 -1      1642 1.50793E-02 1.62303E-03-1.76546E-13
 -1      1643 1.50975E-02 1.66519E-03-1.76421E-13
 -1      1644 1.49829E-02 1.67022E-03-1.73852E-13
 -1      1645 1.50429E-02 1.53872E-03-1.76785E-13
 -1      1646 1.50611E-02 1.58088E-03-1.76669E-13
 -1      1647 1.49465E-02 1.58592E-03-1.74095E-13
 -1      1648 1.50065E-02 1.45441E-03-1.76995E-13
 -1      1649 1.50247E-02 1.49657E-03-1.76894E-13
 -1      1650 1.49101E-02 1.50161E-03-1.74319E-13
 -1      1651 1.49701E-02 1.37010E-03-1.77181E-13
 -1      1652 1.49883E-02 1.41226E-03-1.77089E-13
 -1      1653 1.48736E-02 1.41730E-03-1.74519E-13
 -1      1654 1.49343E-02 1.28723E-03-1.77355E-13
 -1      1655 1.49522E-02 1.32867E-03-1.77268E-13
 -1      1656 1.48375E-02 1.33371E-03-1.74699E-13
 -1      1657 1.48979E-02 1.20293E-03-1.77520E-13
 -1      1658 1.49161E-02 1.24508E-03-1.77441E-13
 -1      1659 1.48014E-02 1.25012E-03-1.74867E-13
 -1      1660 1.48614E-02 1.11863E-03-1.77660E-13
 -1      1661 1.48797E-02 1.16078E-03-1.77594E-13
 -1      1662 1.47650E-02 1.16582E-03-1.75022E-13
 -1      1663 1.48250E-02 1.03434E-03-1.77800E-13
 -1      1664 1.48432E-02 1.07649E-03-1.77730E-13
 -1      1665 1.47286E-02 1.08153E-03-1.75161E-13
 -1      1666 1.47505E-02 9.53029E-04-1.77059E-13
 -1      1667 1.47687E-02 9.95172E-04-1.76995E-13
 -1      1668 1.46541E-02 1.00021E-03-1.74423E-13
 -1      1669 1.45415E-02 9.21862E-04-1.72804E-13
 -1      1670 4.78411E-03 3.11923E-04-8.34536E-15
 -1      1671 4.80896E-03 2.73024E-04-8.41097E-15
 -1      1672 4.62379E-03 4.08107E-04-8.09881E-15
 -1      1673 4.71550E-03 3.59244E-04-8.26186E-15
 -1      1674 4.36425E-03 5.39064E-04-7.59919E-15
 -1      1675 4.49321E-03 4.79743E-04-7.81780E-15
 -1      1676 4.01345E-03 6.84811E-04-7.02984E-15
 -1      1677 4.18064E-03 6.10629E-04-7.32668E-15
 -1      1678 3.64481E-03 8.47018E-04-6.30699E-15
 -1      1679 3.81896E-03 7.76755E-04-6.62659E-15
 -1      1680 3.28132E-03 9.70151E-04-5.60757E-15
 -1      1681 3.44847E-03 9.19354E-04-5.92104E-15
 -1      1682 2.89316E-03 1.03977E-03-4.87238E-15
 -1      1683 3.07669E-03 1.01561E-03-5.21745E-15
 -1      1684 2.49864E-03 1.02990E-03-4.13862E-15
 -1      1685 2.67641E-03 1.05078E-03-4.46981E-15
 -1      1686 2.09620E-03 9.13882E-04-3.46828E-15
 -1      1687 2.27886E-03 9.76652E-04-3.76305E-15
 -1      1688 1.70221E-03 7.53373E-04-2.94933E-15
 -1      1689 1.87242E-03 8.29736E-04-3.17647E-15
 -1      1690 1.31290E-03 5.51510E-04-2.45733E-15
 -1      1691 1.50292E-03 6.45950E-04-2.67015E-15
 -1      1692 9.54997E-04 3.95488E-04-2.13145E-15
 -1      1693 1.10060E-03 4.65399E-04-2.27229E-15
 -1      1694 6.85195E-04 2.68362E-04-1.89251E-15
 -1      1695 8.00852E-04 3.23085E-04-1.99223E-15
 -1      1696 5.14309E-04 1.78024E-04-1.75700E-15
 -1      1697 5.79529E-04 2.15223E-04-1.80684E-15
 -1      1698 4.57863E-04 1.12001E-04-1.71870E-15
 -1      1699 4.69396E-04 1.39204E-04-1.72035E-15
 -1      1700 5.15790E-04 5.15103E-05-1.79558E-15
 -1      1701 4.75623E-04 7.96300E-05-1.75059E-15
 -1      1702 6.77218E-04-2.34109E-05-1.96500E-15
 -1      1703 5.90079E-04 1.38588E-05-1.87378E-15
 -1      1704 9.67230E-04-1.27217E-04-2.25409E-15
 -1      1705 8.19886E-04-6.85777E-05-2.09120E-15
 -1      1706 1.28084E-03-2.68822E-04-2.66349E-15
 -1      1707 1.13380E-03-2.08512E-04-2.47981E-15
 -1      1708 1.66428E-03-4.14436E-04-3.16929E-15
 -1      1709 1.48338E-03-3.42843E-04-2.90917E-15
 -1      1710 2.07018E-03-5.46873E-04-3.80997E-15
 -1      1711 1.89029E-03-4.91004E-04-3.50078E-15
 -1      1712 2.44016E-03-6.09118E-04-4.51012E-15
 -1      1713 2.27357E-03-5.89224E-04-4.19304E-15
 -1      1714 2.79487E-03-5.93285E-04-5.19392E-15
 -1      1715 2.63371E-03-6.07596E-04-4.88181E-15
 -1      1716 3.14172E-03-5.17792E-04-5.87998E-15
 -1      1717 2.98110E-03-5.60662E-04-5.56895E-15
 -1      1718 3.50222E-03-3.94653E-04-6.52993E-15
 -1      1719 3.33764E-03-4.56313E-04-6.23205E-15
 -1      1720 3.85601E-03-2.36707E-04-7.18567E-15
 -1      1721 3.68800E-03-3.10462E-04-6.90504E-15
 -1      1722 4.20434E-03-9.37492E-05-7.67192E-15
 -1      1723 4.05404E-03-1.61002E-04-7.44915E-15
 -1      1724 4.49876E-03 5.06934E-05-8.13588E-15
 -1      1725 4.36596E-03-9.45824E-06-7.95928E-15
 -1      1726 4.70527E-03 1.47231E-04-8.33046E-15
 -1      1727 4.62595E-03 1.03472E-04-8.24169E-15
 -1      1728 4.80141E-03 2.29420E-04-8.41136E-15
 -1      1729 4.76981E-03 1.93575E-04-8.39384E-15
 -1      1730 3.86256E-03 6.95157E-04-7.07052E-15
 -1      1731 4.22854E-03 5.26832E-04-7.77187E-15
 -1      1732 1.53042E-02 2.19825E-03-1.74230E-13
 -1      1733 1.51714E-02 2.16114E-03-1.71832E-13
 -1      1734 4.75160E-03 3.11486E-04-8.72721E-15
 -1      1735 4.54417E-03 3.95496E-04-8.34444E-15
 -1      1736 4.81415E-03 2.56735E-04-8.81732E-15
 -1      1737 3.49419E-03 8.71946E-04-6.26357E-15
 -1      1738 3.13647E-03 1.00662E-03-5.47500E-15
 -1      1739 2.77228E-03 1.07247E-03-4.67660E-15
 -1      1740 2.42232E-03 1.02684E-03-3.90462E-15
 -1      1741 2.05032E-03 8.75499E-04-3.25537E-15
 -1      1742 1.65990E-03 6.70828E-04-2.70208E-15
 -1      1743 1.27071E-03 4.64145E-04-2.26674E-15
 -1      1744 9.10304E-04 3.05961E-04-1.96270E-15
 -1      1745 6.44739E-04 1.98422E-04-1.75317E-15
 -1      1746 4.88773E-04 1.35834E-04-1.63902E-15
 -1      1747 4.60629E-04 1.01669E-04-1.63474E-15
 -1      1748 5.56218E-04 6.18082E-05-1.73767E-15
 -1      1749 7.75199E-04-3.39382E-06-1.92709E-15
 -1      1750 1.08554E-03-1.20002E-04-2.25282E-15
 -1      1751 1.44451E-03-2.79618E-04-2.70462E-15
 -1      1752 1.83277E-03-4.48516E-04-3.25854E-15
 -1      1753 2.19734E-03-5.85897E-04-3.95457E-15
 -1      1754 2.53090E-03-6.34408E-04-4.70435E-15
 -1      1755 2.85619E-03-5.95911E-04-5.45427E-15
 -1      1756 3.18382E-03-4.87206E-04-6.19172E-15
 -1      1757 3.53383E-03-3.27691E-04-6.93271E-15
 -1      1758 3.89465E-03-1.54013E-04-7.59303E-15
 -1      1759 4.24930E-03 5.92791E-06-8.16099E-15
 -1      1760 4.54313E-03 1.25674E-04-8.57295E-15
 -1      1761 4.73876E-03 2.00958E-04-8.75201E-15
 -1      1762 3.43715E-04-1.99262E-04-6.22468E-17
 -1      1763 3.79633E-04-1.06357E-04-1.98450E-16
 -1      1764 3.89870E-04-1.32933E-04-1.87797E-16
 -1      1765 4.01123E-04-1.61320E-04-1.74082E-16
 -1      1766 4.16619E-04-1.91937E-04-1.53509E-16
 -1      1767 5.36680E-04-2.03949E-04-2.75631E-16
 -1      1768 3.29257E-04-7.66163E-06-2.15824E-16
 -1      1769 3.44958E-04-3.05486E-05-2.14049E-16
 -1      1770 2.89827E-04 3.05463E-05-2.16325E-16
 -1      1771 3.10626E-04 1.32362E-05-2.16447E-16
 -1      1772 4.36276E-04-1.05622E-05-3.20206E-16
 -1      1773 2.44683E-04 5.11159E-05-2.13967E-16
 -1      1774 2.67232E-04 4.35372E-05-2.15323E-16
 -1      1775 3.77971E-04 3.62839E-05-3.18755E-16
 -1      1776 2.04110E-04 4.93347E-05-2.10525E-16
 -1      1777 2.22282E-04 5.30579E-05-2.12233E-16
 -1      1778 3.11919E-04 6.02187E-05-3.14080E-16
 -1      1779 1.85261E-04 2.94264E-05-2.06439E-16
 -1      1780 1.90883E-04 4.07123E-05-2.08594E-16
 -1      1781 2.58232E-04 5.61322E-05-3.08273E-16
 -1      1782 1.97791E-04 5.80231E-06-2.01235E-16
 -1      1783 1.87564E-04 1.66440E-05-2.04020E-16
 -1      1784 2.40900E-04 3.26596E-05-3.01930E-16
 -1      1785 2.37966E-04-3.71448E-06-1.94126E-16
 -1      1786 2.15530E-04-1.68230E-06-1.98260E-16
 -1      1787 2.70884E-04 1.07833E-05-2.94402E-16
 -1      1788 2.91471E-04 1.02683E-05-1.83705E-16
 -1      1789 2.64422E-04 3.01549E-07-1.89735E-16
 -1      1790 3.36455E-04 1.14372E-05-2.84278E-16
 -1      1791 3.44737E-04 4.63446E-05-1.67428E-16
 -1      1792 3.18884E-04 2.60983E-05-1.76779E-16
 -1      1793 4.14129E-04 4.20632E-05-2.68882E-16
 -1      1794 3.93325E-04 9.87926E-05-1.41976E-16
 -1      1795 3.69430E-04 7.10280E-05-1.56491E-16
 -1      1796 4.86512E-04 9.75400E-05-2.44854E-16
 -1      1797 4.44365E-04 1.66809E-04-1.02349E-16
 -1      1798 4.17672E-04 1.30864E-04-1.24670E-16
 -1      1799 5.52289E-04 1.70638E-04-2.07557E-16
 -1      1800 5.33547E-04 2.45609E-04-7.41594E-17
 -1      1801 4.85748E-04 2.02082E-04-9.27399E-17
 -1      1802 6.30333E-04 2.50818E-04-1.73472E-16
 -1      1803 7.33155E-04 3.35058E-04-1.45419E-16
 -1      1804 4.06797E-04-2.15053E-04-1.11117E-16
 -1      1805 1.12555E-03 5.11286E-04-4.05343E-16
 -1      1806 9.30816E-04 4.22724E-04-2.56183E-16
 -1      1807 8.73287E-04 3.77451E-04-2.73707E-16
 -1      1808 5.47265E-04-2.71063E-04-2.01499E-16
 -1      1809 9.64644E-04-4.64345E-04-5.56142E-16
 -1      1810 1.13660E-03-5.34648E-04-7.85044E-16
 -1      1811 1.30463E-03-6.01408E-04-1.05802E-15
 -1      1812 1.46907E-03-6.64035E-04-1.37713E-15
 -1      1813 1.19335E-03-5.24457E-04-9.62351E-16
 -1      1814 1.62994E-03-7.22287E-04-1.74215E-15
 -1      1815 1.78739E-03-7.74515E-04-2.15346E-15
 -1      1816 1.52797E-03-6.51715E-04-1.60607E-15
 -1      1817 1.94146E-03-8.19423E-04-2.61240E-15
 -1      1818 2.09290E-03-8.55082E-04-3.11964E-15
 -1      1819 1.85048E-03-7.59002E-04-2.43355E-15
 -1      1820 2.24155E-03-8.80092E-04-3.67540E-15
 -1      1821 2.38905E-03-8.93144E-04-4.28044E-15
 -1      1822 2.16123E-03-8.32983E-04-3.45116E-15
 -1      1823 2.53508E-03-8.93714E-04-4.93382E-15
 -1      1824 2.68168E-03-8.81824E-04-5.63510E-15
 -1      1825 2.46365E-03-8.60369E-04-4.66345E-15
 -1      1826 2.82848E-03-8.58366E-04-6.38384E-15
 -1      1827 2.97712E-03-8.24694E-04-7.18032E-15
 -1      1828 2.76403E-03-8.35939E-04-6.06859E-15
 -1      1829 3.12728E-03-7.82829E-04-8.02276E-15
 -1      1830 3.27965E-03-7.34840E-04-8.90921E-15
 -1      1831 3.06851E-03-7.66548E-04-7.66287E-15
 -1      1832 3.43404E-03-6.83061E-04-9.83985E-15
 -1      1833 3.59014E-03-6.29459E-04-1.08132E-14
 -1      1834 3.38014E-03-6.68319E-04-9.43909E-15
 -1      1835 3.74799E-03-5.75949E-04-1.18292E-14
 -1      1836 3.90671E-03-5.23843E-04-1.28867E-14
 -1      1837 3.69804E-03-5.59657E-04-1.13877E-14
 -1      1838 4.06649E-03-4.74298E-04-1.39836E-14
 -1      1839 4.22631E-03-4.27929E-04-1.51207E-14
 -1      1840 4.01912E-03-4.55056E-04-1.35024E-14
 -1      1841 4.38646E-03-3.85161E-04-1.62961E-14
 -1      1842 4.54606E-03-3.46103E-04-1.75103E-14
 -1      1843 4.34015E-03-3.62728E-04-1.57761E-14
 -1      1844 4.70537E-03-3.10668E-04-1.87612E-14
 -1      1845 4.86380E-03-2.78683E-04-2.00485E-14
 -1      1846 4.65877E-03-2.85419E-04-1.82029E-14
 -1      1847 5.02152E-03-2.49794E-04-2.13709E-14
 -1      1848 5.17820E-03-2.23720E-04-2.27272E-14
 -1      1849 4.97371E-03-2.22349E-04-2.07759E-14
 -1      1850 5.33396E-03-2.00022E-04-2.41191E-14
 -1      1851 5.48865E-03-1.78407E-04-2.55441E-14
 -1      1852 5.28451E-03-1.71029E-04-2.34889E-14
 -1      1853 5.64234E-03-1.58463E-04-2.70018E-14
 -1      1854 5.79501E-03-1.39933E-04-2.84934E-14
 -1      1855 5.59118E-03-1.28500E-04-2.63377E-14
 -1      1856 5.94670E-03-1.22478E-04-3.00194E-14
 -1      1857 6.09749E-03-1.05891E-04-3.15787E-14
 -1      1858 5.89402E-03-9.20076E-05-2.93199E-14
 -1      1859 6.24737E-03-8.99220E-05-3.31726E-14
 -1      1860 6.39647E-03-7.44116E-05-3.48010E-14
 -1      1861 6.19343E-03-5.92857E-05-3.24384E-14
 -1      1862 6.54478E-03-5.91891E-05-3.64640E-14
 -1      1863 6.69244E-03-4.41391E-05-3.81628E-14
 -1      1864 6.48991E-03-2.86201E-05-3.56938E-14
 -1      1865 6.83944E-03-2.91543E-05-3.98968E-14
 -1      1866 6.98589E-03-1.41545E-05-4.16665E-14
 -1      1867 6.78390E-03 1.20299E-06-3.90896E-14
 -1      1868 7.13181E-03 9.19945E-07-4.34712E-14
 -1      1869 7.27730E-03 1.61222E-05-4.53101E-14
 -1      1870 7.07587E-03 3.09885E-05-4.26255E-14
 -1      1871 7.42237E-03 3.14788E-05-4.71839E-14
 -1      1872 7.56710E-03 4.70227E-05-4.90917E-14
 -1      1873 7.36619E-03 6.12294E-05-4.63015E-14
 -1      1874 7.71151E-03 6.27584E-05-5.10335E-14
 -1      1875 7.85565E-03 7.87045E-05-5.30096E-14
 -1      1876 7.65523E-03 9.21936E-05-5.01139E-14
 -1      1877 7.99956E-03 9.48522E-05-5.50172E-14
 -1      1878 8.14326E-03 1.11210E-04-5.70562E-14
 -1      1879 7.94327E-03 1.23994E-04-5.40604E-14
 -1      1880 8.28679E-03 1.27762E-04-5.91274E-14
 -1      1881 8.43018E-03 1.44509E-04-6.12293E-14
 -1      1882 8.23056E-03 1.56643E-04-5.81352E-14
 -1      1883 8.57344E-03 1.61433E-04-6.33637E-14
 -1      1884 8.71660E-03 1.78532E-04-6.55281E-14
 -1      1885 8.51729E-03 1.90090E-04-6.23356E-14
 -1      1886 8.85967E-03 1.95784E-04-6.77245E-14
 -1      1887 9.00267E-03 2.13187E-04-6.99496E-14
 -1      1888 8.80361E-03 2.24254E-04-6.66623E-14
 -1      1889 9.14561E-03 2.30720E-04-7.22031E-14
 -1      1890 9.28850E-03 2.48379E-04-7.44851E-14
 -1      1891 9.08966E-03 2.59037E-04-7.11070E-14
 -1      1892 9.43136E-03 2.66145E-04-7.67943E-14
 -1      1893 9.57419E-03 2.84014E-04-7.91298E-14
 -1      1894 9.37551E-03 2.94340E-04-7.56657E-14
 -1      1895 9.71700E-03 3.01970E-04-8.14922E-14
 -1      1896 9.85979E-03 3.20008E-04-8.38790E-14
 -1      1897 9.66123E-03 3.30069E-04-8.03313E-14
 -1      1898 1.00026E-02 3.38115E-04-8.62900E-14
 -1      1899 1.01453E-02 3.56286E-04-8.87271E-14
 -1      1900 9.94688E-03 3.66140E-04-8.50982E-14
 -1      1901 1.02881E-02 3.74511E-04-9.11866E-14
 -1      1902 1.04309E-02 3.92785E-04-9.36678E-14
 -1      1903 1.02325E-02 4.02481E-04-8.99643E-14
 -1      1904 1.05736E-02 4.11100E-04-9.61727E-14
 -1      1905 1.07164E-02 4.29452E-04-9.86947E-14
 -1      1906 1.05181E-02 4.39029E-04-9.49209E-14
 -1      1907 1.08592E-02 4.47835E-04-1.01238E-13
 -1      1908 1.10020E-02 4.66245E-04-1.03800E-13
 -1      1909 1.08037E-02 4.75734E-04-9.99655E-14
 -1      1910 1.11447E-02 4.84677E-04-1.06379E-13
 -1      1911 1.12875E-02 5.03129E-04-1.08976E-13
 -1      1912 1.10893E-02 5.12555E-04-1.05084E-13
 -1      1913 1.14303E-02 5.21598E-04-1.11588E-13
 -1      1914 1.15731E-02 5.40080E-04-1.14221E-13
 -1      1915 1.13749E-02 5.49462E-04-1.10272E-13
 -1      1916 1.17159E-02 5.58573E-04-1.16873E-13
 -1      1917 1.18587E-02 5.77075E-04-1.19543E-13
 -1      1918 1.16605E-02 5.86428E-04-1.15535E-13
 -1      1919 1.20015E-02 5.95585E-04-1.22233E-13
 -1      1920 1.21444E-02 6.14102E-04-1.24943E-13
 -1      1921 1.19461E-02 6.23435E-04-1.20873E-13
 -1      1922 1.22872E-02 6.32623E-04-1.27673E-13
 -1      1923 1.24300E-02 6.51147E-04-1.30422E-13
 -1      1924 1.22318E-02 6.60469E-04-1.26292E-13
 -1      1925 1.25728E-02 6.69674E-04-1.33191E-13
 -1      1926 1.27157E-02 6.88204E-04-1.35980E-13
 -1      1927 1.25174E-02 6.97520E-04-1.31786E-13
 -1      1928 1.28585E-02 7.06734E-04-1.38786E-13
 -1      1929 1.30013E-02 7.25265E-04-1.41607E-13
 -1      1930 1.28031E-02 7.34579E-04-1.37358E-13
 -1      1931 1.31442E-02 7.43797E-04-1.44445E-13
 -1      1932 1.32870E-02 7.62328E-04-1.47298E-13
 -1      1933 1.30888E-02 7.71643E-04-1.42996E-13
 -1      1934 1.34299E-02 7.80859E-04-1.50164E-13
 -1      1935 1.35727E-02 7.99389E-04-1.53040E-13
 -1      1936 1.33745E-02 8.08706E-04-1.48696E-13
 -1      1937 1.37156E-02 8.17919E-04-1.55928E-13
 -1      1938 1.38584E-02 8.36446E-04-1.58826E-13
 -1      1939 1.36602E-02 8.45767E-04-1.54442E-13
 -1      1940 1.40013E-02 8.54973E-04-1.61732E-13
 -1      1941 1.41441E-02 8.73498E-04-1.64643E-13
 -1      1942 1.39459E-02 8.82824E-04-1.60234E-13
 -1      1943 1.42714E-02 8.88420E-04-1.67258E-13
 -1      1944 1.44142E-02 9.06942E-04-1.70179E-13
 -1      1945 1.44705E-02 9.46115E-04-1.70989E-13
 -1      1946 1.42160E-02 9.16273E-04-1.65753E-13
 -1      1947 1.50394E-03 6.97255E-04-8.24021E-16
 -1      1948 1.31663E-03 6.02832E-04-5.93940E-16
 -1      1949 1.25672E-03 5.56129E-04-6.11761E-16
 -1      1950 1.86650E-03 8.92601E-04-1.41274E-15
 -1      1951 1.68757E-03 7.94754E-04-1.09605E-15
 -1      1952 1.63070E-03 7.48701E-04-1.11166E-15
 -1      1953 2.21025E-03 1.07685E-03-2.18357E-15
 -1      1954 2.04091E-03 9.88117E-04-1.77465E-15
 -1      1955 1.99132E-03 9.45637E-04-1.78583E-15
 -1      1956 2.53511E-03 1.21518E-03-3.14780E-15
 -1      1957 2.37448E-03 1.15381E-03-2.64094E-15
 -1      1958 2.33453E-03 1.11787E-03-2.64716E-15
 -1      1959 2.84846E-03 1.27625E-03-4.31247E-15
 -1      1960 2.69192E-03 1.25610E-03-3.70513E-15
 -1      1961 2.66152E-03 1.22720E-03-3.70590E-15
 -1      1962 3.16324E-03 1.25339E-03-5.67902E-15
 -1      1963 3.00437E-03 1.27407E-03-4.97015E-15
 -1      1964 2.98235E-03 1.24936E-03-4.96684E-15
 -1      1965 3.48967E-03 1.17044E-03-7.24404E-15
 -1      1966 3.32447E-03 1.21708E-03-6.43684E-15
 -1      1967 3.30991E-03 1.19261E-03-6.42994E-15
 -1      1968 3.82943E-03 1.06579E-03-8.99907E-15
 -1      1969 3.65813E-03 1.11872E-03-8.09883E-15
 -1      1970 3.64989E-03 1.09227E-03-8.08789E-15
 -1      1971 4.17770E-03 9.71869E-04-1.09310E-14
 -1      1972 4.00312E-03 1.01636E-03-9.94350E-15
 -1      1973 3.99881E-03 9.87732E-04-9.92885E-15
 -1      1974 4.52786E-03 9.05765E-04-1.30337E-14
 -1      1975 4.35314E-03 9.35110E-04-1.19616E-14
 -1      1976 4.34963E-03 9.05029E-04-1.19425E-14
 -1      1977 4.87467E-03 8.70950E-04-1.52982E-14
 -1      1978 4.70211E-03 8.84705E-04-1.41458E-14
 -1      1979 4.69664E-03 8.53888E-04-1.41210E-14
 -1      1980 5.21498E-03 8.63395E-04-1.77247E-14
 -1      1981 5.04588E-03 8.64183E-04-1.64920E-14
 -1      1982 5.03681E-03 8.33091E-04-1.64607E-14
 -1      1983 5.54737E-03 8.76498E-04-2.03026E-14
 -1      1984 5.38226E-03 8.67762E-04-1.89946E-14
 -1      1985 5.36905E-03 8.36663E-04-1.89568E-14
 -1      1986 5.87166E-03 9.03845E-04-2.30309E-14
 -1      1987 5.71053E-03 8.88705E-04-2.16486E-14
 -1      1988 5.69342E-03 8.57761E-04-2.16028E-14
 -1      1989 6.18836E-03 9.40267E-04-2.59014E-14
 -1      1990 6.03090E-03 9.21147E-04-2.44490E-14
 -1      1991 6.01052E-03 8.90454E-04-2.43948E-14
 -1      1992 6.49838E-03 9.81993E-04-2.89107E-14
 -1      1993 6.34413E-03 9.60618E-04-2.73889E-14
 -1      1994 6.32119E-03 9.30226E-04-2.73273E-14
 -1      1995 6.80276E-03 1.02645E-03-3.20590E-14
 -1      1996 6.65119E-03 1.00398E-03-3.04679E-14
 -1      1997 6.62637E-03 9.73901E-04-3.03972E-14
 -1      1998 7.10252E-03 1.07196E-03-3.53403E-14
 -1      1999 6.95314E-03 1.04913E-03-3.36825E-14
 -1      2000 6.92700E-03 1.01936E-03-3.36044E-14
 -1      2001 7.39859E-03 1.11751E-03-3.87600E-14
 -1      2002 7.25095E-03 1.09476E-03-3.70332E-14
 -1      2003 7.22393E-03 1.06528E-03-3.69465E-14
 -1      2004 7.69178E-03 1.16249E-03-4.23108E-14
 -1      2005 7.54549E-03 1.14009E-03-4.05198E-14
 -1      2006 7.51792E-03 1.11085E-03-4.04247E-14
 -1      2007 7.98276E-03 1.20662E-03-4.59962E-14
 -1      2008 7.83750E-03 1.18467E-03-4.41377E-14
 -1      2009 7.80961E-03 1.15564E-03-4.40346E-14
 -1      2010 8.27208E-03 1.24976E-03-4.98124E-14
 -1      2011 8.12759E-03 1.22831E-03-4.78870E-14
 -1      2012 8.09954E-03 1.19947E-03-4.77764E-14
 -1      2013 8.56017E-03 1.29193E-03-5.37596E-14
 -1      2014 8.41625E-03 1.27096E-03-5.17697E-14
 -1      2015 8.38814E-03 1.24226E-03-5.16514E-14
 -1      2016 8.84738E-03 1.33318E-03-5.78427E-14
 -1      2017 8.70387E-03 1.31266E-03-5.57855E-14
 -1      2018 8.67577E-03 1.28408E-03-5.56584E-14
 -1      2019 9.13396E-03 1.37360E-03-6.20500E-14
 -1      2020 8.99073E-03 1.35349E-03-5.99306E-14
 -1      2021 8.96268E-03 1.32499E-03-5.97949E-14
 -1      2022 9.42010E-03 1.41332E-03-6.63800E-14
 -1      2023 9.27707E-03 1.39355E-03-6.42006E-14
 -1      2024 9.24909E-03 1.36512E-03-6.40554E-14
 -1      2025 9.70596E-03 1.45244E-03-7.08189E-14
 -1      2026 9.56305E-03 1.43295E-03-6.85858E-14
 -1      2027 9.53515E-03 1.40458E-03-6.84330E-14
 -1      2028 9.99163E-03 1.49107E-03-7.53706E-14
 -1      2029 9.84881E-03 1.47181E-03-7.30817E-14
 -1      2030 9.82098E-03 1.44348E-03-7.29208E-14
 -1      2031 1.02772E-02 1.52930E-03-8.00290E-14
 -1      2032 1.01344E-02 1.51023E-03-7.76855E-14
 -1      2033 1.01067E-02 1.48193E-03-7.75193E-14
 -1      2034 1.05627E-02 1.56722E-03-8.47921E-14
 -1      2035 1.04200E-02 1.54830E-03-8.23984E-14
 -1      2036 1.03923E-02 1.52001E-03-8.22246E-14
 -1      2037 1.08482E-02 1.60489E-03-8.96520E-14
 -1      2038 1.07055E-02 1.58608E-03-8.72104E-14
 -1      2039 1.06778E-02 1.55781E-03-8.70289E-14
 -1      2040 1.11337E-02 1.64237E-03-9.45999E-14
 -1      2041 1.09910E-02 1.62365E-03-9.21172E-14
 -1      2042 1.09634E-02 1.59539E-03-9.19283E-14
 -1      2043 1.14192E-02 1.67971E-03-9.96229E-14
 -1      2044 1.12765E-02 1.66106E-03-9.71036E-14
 -1      2045 1.12489E-02 1.63280E-03-9.69114E-14
 -1      2046 1.17048E-02 1.71695E-03-1.04725E-13
 -1      2047 1.15620E-02 1.69834E-03-1.02163E-13
 -1      2048 1.15344E-02 1.67009E-03-1.01967E-13
 -1      2049 1.19903E-02 1.75411E-03-1.09910E-13
 -1      2050 1.18475E-02 1.73553E-03-1.07307E-13
 -1      2051 1.18200E-02 1.70729E-03-1.07104E-13
 -1      2052 1.22759E-02 1.79121E-03-1.15188E-13
 -1      2053 1.21331E-02 1.77267E-03-1.12537E-13
 -1      2054 1.21056E-02 1.74442E-03-1.12328E-13
 -1      2055 1.25615E-02 1.82829E-03-1.20558E-13
 -1      2056 1.24187E-02 1.80975E-03-1.17861E-13
 -1      2057 1.23912E-02 1.78151E-03-1.17646E-13
 -1      2058 1.28471E-02 1.86533E-03-1.26006E-13
 -1      2059 1.27043E-02 1.84681E-03-1.23273E-13
 -1      2060 1.26768E-02 1.81856E-03-1.23049E-13
 -1      2061 1.31328E-02 1.90237E-03-1.31515E-13
 -1      2062 1.29900E-02 1.88385E-03-1.28755E-13
 -1      2063 1.29625E-02 1.85560E-03-1.28521E-13
 -1      2064 1.34184E-02 1.93939E-03-1.37079E-13
 -1      2065 1.32756E-02 1.92088E-03-1.34291E-13
 -1      2066 1.32482E-02 1.89263E-03-1.34054E-13
 -1      2067 1.37041E-02 1.97642E-03-1.42675E-13
 -1      2068 1.35613E-02 1.95791E-03-1.39874E-13
 -1      2069 1.35338E-02 1.92966E-03-1.39632E-13
 -1      2070 1.39898E-02 2.01344E-03-1.48300E-13
 -1      2071 1.38470E-02 1.99493E-03-1.45485E-13
 -1      2072 1.38195E-02 1.96668E-03-1.45243E-13
 -1      2073 1.42755E-02 2.05047E-03-1.53945E-13
 -1      2074 1.41327E-02 2.03196E-03-1.51118E-13
 -1      2075 1.41052E-02 2.00370E-03-1.50877E-13
 -1      2076 1.45612E-02 2.08750E-03-1.59611E-13
 -1      2077 1.44184E-02 2.06899E-03-1.56778E-13
 -1      2078 1.43909E-02 2.04073E-03-1.56533E-13
 -1      2079 1.48469E-02 2.12454E-03-1.65297E-13
 -1      2080 1.47041E-02 2.10602E-03-1.62454E-13
 -1      2081 1.46766E-02 2.07777E-03-1.62213E-13
 -1      2082 1.50806E-02 2.15210E-03-1.69988E-13
 -1      2083 1.49377E-02 2.13358E-03-1.67139E-13
 -1      2084 1.49103E-02 2.10532E-03-1.66901E-13
 -1      2085 1.50919E-02 2.12339E-03-1.70591E-13
 -1      2086 1.49588E-02 1.88459E-03-1.70677E-13
 -1      2087 1.49770E-02 1.92673E-03-1.70552E-13
 -1      2088 1.49953E-02 1.96888E-03-1.70424E-13
 -1      2089 1.50135E-02 2.01103E-03-1.70297E-13
 -1      2090 1.48624E-02 1.93177E-03-1.68014E-13
 -1      2091 1.50436E-02 2.04614E-03-1.70512E-13
 -1      2092 1.50618E-02 2.08828E-03-1.70378E-13
 -1      2093 1.49710E-02 2.07925E-03-1.68532E-13
 -1      2094 1.49108E-02 2.00903E-03-1.68103E-13
 -1      2095 1.49230E-02 1.80172E-03-1.70922E-13
 -1      2096 1.49409E-02 1.84315E-03-1.70798E-13
 -1      2097 1.48263E-02 1.84819E-03-1.68261E-13
 -1      2098 1.48865E-02 1.71741E-03-1.71171E-13
 -1      2099 1.49048E-02 1.75956E-03-1.71046E-13
 -1      2100 1.47901E-02 1.76460E-03-1.68500E-13
 -1      2101 1.48501E-02 1.63311E-03-1.71412E-13
 -1      2102 1.48683E-02 1.67526E-03-1.71293E-13
 -1      2103 1.47537E-02 1.68030E-03-1.68738E-13
 -1      2104 1.48137E-02 1.54880E-03-1.71644E-13
 -1      2105 1.48319E-02 1.59095E-03-1.71530E-13
 -1      2106 1.47173E-02 1.59599E-03-1.68969E-13
 -1      2107 1.47772E-02 1.46449E-03-1.71856E-13
 -1      2108 1.47955E-02 1.50664E-03-1.71752E-13
 -1      2109 1.46808E-02 1.51168E-03-1.69188E-13
 -1      2110 1.47408E-02 1.38018E-03-1.72044E-13
 -1      2111 1.47590E-02 1.42234E-03-1.71951E-13
 -1      2112 1.46444E-02 1.42737E-03-1.69388E-13
 -1      2113 1.47050E-02 1.29731E-03-1.72217E-13
 -1      2114 1.47229E-02 1.33875E-03-1.72133E-13
 -1      2115 1.46083E-02 1.34378E-03-1.69568E-13
 -1      2116 1.46686E-02 1.21301E-03-1.72379E-13
 -1      2117 1.46868E-02 1.25516E-03-1.72299E-13
 -1      2118 1.45722E-02 1.26019E-03-1.69733E-13
 -1      2119 1.46322E-02 1.12871E-03-1.72526E-13
 -1      2120 1.46504E-02 1.17086E-03-1.72455E-13
 -1      2121 1.45358E-02 1.17589E-03-1.69889E-13
 -1      2122 1.45958E-02 1.04442E-03-1.72660E-13
 -1      2123 1.46140E-02 1.08656E-03-1.72595E-13
 -1      2124 1.44994E-02 1.09160E-03-1.70032E-13
 -1      2125 4.45318E-03 3.92409E-04-8.67705E-15
 -1      2126 4.58670E-03 3.45786E-04-8.97739E-15
 -1      2127 4.81977E-03 2.66634E-04-9.26523E-15
 -1      2128 4.81256E-03 2.54142E-04-9.26649E-15
 -1      2129 4.72279E-03 3.02274E-04-9.25584E-15
 -1      2130 4.79091E-03 2.84528E-04-9.35116E-15
 -1      2131 4.13727E-03 5.20242E-04-8.07641E-15
 -1      2132 4.30503E-03 4.50980E-04-8.37251E-15
 -1      2133 4.38226E-03 4.05942E-04-8.98968E-15
 -1      2134 3.72805E-03 7.28830E-04-7.07316E-15
 -1      2135 3.90767E-03 6.34638E-04-7.49441E-15
 -1      2136 3.58136E-04-5.51319E-05-2.10945E-16
 -1      2137 3.69503E-04-8.02470E-05-2.05768E-16
 -1      2138 5.09795E-04-1.35531E-04-3.02913E-16
 -1      2139 4.79395E-04-7.04169E-05-3.16031E-16
 -1      2140 3.03341E-03 1.04378E-03-5.36547E-15
 -1      2141 3.18783E-03 9.87755E-04-5.76392E-15
 -1      2142 2.71302E-03 1.09254E-03-4.53527E-15
 -1      2143 2.86637E-03 1.08029E-03-4.94044E-15
 -1      2144 2.94915E-03 1.07257E-03-5.20992E-15
 -1      2145 2.35654E-03 1.00649E-03-3.67295E-15
 -1      2146 2.51555E-03 1.06414E-03-4.03749E-15
 -1      2147 1.98334E-03 8.19064E-04-3.01362E-15
 -1      2148 2.15487E-03 9.13004E-04-3.28771E-15
 -1      2149 1.62426E-03 6.00713E-04-2.48354E-15
 -1      2150 1.80261E-03 7.14355E-04-2.74134E-15
 -1      2151 1.91136E-03 7.57525E-04-2.77221E-15
 -1      2152 1.19960E-03 3.71689E-04-2.03853E-15
 -1      2153 1.38819E-03 4.63426E-04-2.19894E-15
 -1      2154 8.62575E-04 2.34918E-04-1.79068E-15
 -1      2155 1.01521E-03 2.97175E-04-1.91270E-15
 -1      2156 6.05628E-04 1.43847E-04-1.58416E-15
 -1      2157 7.14291E-04 1.74363E-04-1.65739E-15
 -1      2158 4.69029E-04 1.12797E-04-1.50664E-15
 -1      2159 5.17046E-04 1.22487E-04-1.53936E-15
 -1      2160 4.70538E-04 1.01544E-04-1.52570E-15
 -1      2161 4.51777E-04 1.04166E-04-1.49703E-15
 -1      2162 6.00505E-04 7.53209E-05-1.65372E-15
 -1      2163 5.23953E-04 8.97612E-05-1.58613E-15
 -1      2164 8.47739E-04 1.54053E-05-1.83527E-15
 -1      2165 7.11421E-04 5.09744E-05-1.72948E-15
 -1      2166 1.21848E-03-1.32349E-04-2.24336E-15
 -1      2167 1.05537E-03-5.86425E-05-2.03964E-15
 -1      2168 1.55523E-03-2.92429E-04-2.67447E-15
 -1      2169 1.38378E-03-2.08894E-04-2.45195E-15
 -1      2170 1.31456E-03-1.55018E-04-2.21569E-15
 -1      2171 1.93879E-03-4.84105E-04-3.30118E-15
 -1      2172 1.76461E-03-3.95680E-04-2.99131E-15
 -1      2173 2.29908E-03-6.23132E-04-4.13265E-15
 -1      2174 2.14649E-03-5.72449E-04-3.75915E-15
 -1      2175 2.60887E-03-6.52127E-04-4.94803E-15
 -1      2176 2.47285E-03-6.51827E-04-4.57598E-15
 -1      2177 2.88126E-03-5.93186E-04-5.69404E-15
 -1      2178 2.74559E-03-6.32687E-04-5.31441E-15
 -1      2179 2.66405E-03-6.53364E-04-5.17311E-15
 -1      2180 3.22749E-03-4.46699E-04-6.55322E-15
 -1      2181 3.07542E-03-5.19354E-04-6.18903E-15
 -1      2182 3.55439E-03-2.73628E-04-7.32299E-15
 -1      2183 3.39052E-03-3.65332E-04-6.93233E-15
 -1      2184 3.28207E-03-4.02840E-04-6.92571E-15
 -1      2185 3.95663E-03-7.42876E-05-8.07790E-15
 -1      2186 3.78011E-03-1.56992E-04-7.79521E-15
 -1      2187 4.28960E-03 7.53650E-05-8.67882E-15
 -1      2188 4.12789E-03 3.61889E-06-8.37457E-15
 -1      2189 4.02689E-03-1.19651E-05-8.58125E-15
 -1      2190 4.60137E-03 1.86202E-04-9.13919E-15
 -1      2191 4.47627E-03 1.49773E-04-9.01907E-15
 -1      2192 4.76257E-03 2.32391E-04-9.27402E-15
 -1      2193 4.69297E-03 2.12961E-04-9.20531E-15
 -1      2194 4.64509E-03 2.18408E-04-9.65609E-15
 -1      2195 3.36779E-03 9.10100E-04-6.22863E-15
 -1      2196 3.53049E-03 8.26723E-04-6.62895E-15
 -1      2197 4.02316E-03 5.63864E-04-8.07264E-15
 -1      2198 7.25177E-04-3.52996E-04-3.31861E-16
 -1      2199 3.26284E-03 9.54694E-04-6.10772E-15
 -1      2200 7.87480E-04-3.49453E-04-4.46637E-16
 -1      2201 4.66507E-03 3.15374E-04-9.59156E-15
 -1      2202 4.81574E-03 2.76499E-04-9.79742E-15
 -1      2203 1.45395E-02 1.00524E-03-1.71856E-13
 -1      2204 4.79319E-03 2.52605E-04-9.71903E-15
 -1      2205 3.60987E-03 7.75981E-04-7.03127E-15
 -1      2206 4.38042E-03 1.34328E-04-9.23342E-15
 -1      2207 3.64802E-03-2.03932E-04-7.78969E-15
 -1      2208 2.95549E-03-5.64102E-04-6.03543E-15
 -1      2209 2.39349E-03-6.49105E-04-4.35847E-15
 -1      2210 1.66385E-03-3.34861E-04-2.71418E-15
 -1      2211 9.54168E-04-5.79093E-06-1.82231E-15
 -1      2212 6.54129E-04 7.87734E-05-1.56628E-15
 -1      2213 4.92793E-04 1.01564E-04-1.43974E-15
 -1      2214 4.53754E-04 1.00755E-04-1.39247E-15
 -1      2215 5.61253E-04 1.13107E-04-1.44342E-15
 -1      2216 7.93425E-04 1.76444E-04-1.60757E-15
 -1      2217 1.51510E-03 5.13456E-04-2.23286E-15
 -1      2218 2.54975E-03 1.08051E-03-4.03155E-15
 -1      2219 2.62457E-03 1.09313E-03-4.28002E-15
 -1      2220 2.71717E-03 1.10703E-03-4.52692E-15
 -1      2221 2.26541E-03 9.62836E-04-3.40873E-15
 -1      2222 1.11933E-03 3.05598E-04-1.85260E-15
 -1      2223 2.04361E-03-5.31958E-04-3.46121E-15
 -1      2224 1.30130E-03 5.50457E-04-7.74906E-16
 -1      2225 1.11256E-03 4.58587E-04-5.60695E-16
 -1      2226 4.60411E-04 4.28977E-05-4.51489E-16
 -1      2227 5.02707E-04 1.85146E-05-4.54457E-16
 -1      2228 5.41353E-04-1.31736E-05-4.56625E-16
 -1      2229 5.74048E-04-4.76461E-05-4.56680E-16
 -1      2230 6.42127E-04-1.38863E-05-6.19147E-16
 -1      2231 2.97141E-04 6.10022E-05-4.13447E-16
 -1      2232 3.22678E-04 6.82529E-05-4.17750E-16
 -1      2233 2.88922E-04 3.46250E-05-4.04414E-16
 -1      2234 2.84698E-04 4.81793E-05-4.08900E-16
 -1      2235 3.31580E-04 6.38388E-05-5.34796E-16
 -1      2236 3.43260E-04 1.76980E-05-3.94683E-16
 -1      2237 3.09597E-04 2.28109E-05-3.99915E-16
 -1      2238 3.42419E-04 3.74768E-05-5.23480E-16
 -1      2239 4.36408E-04 3.28084E-05-3.81734E-16
 -1      2240 3.87722E-04 2.07023E-05-3.89201E-16
 -1      2241 4.28759E-04 3.14042E-05-5.12028E-16
 -1      2242 5.35629E-04 8.25109E-05-3.61134E-16
 -1      2243 4.87294E-04 5.41217E-05-3.72938E-16
 -1      2244 5.51289E-04 6.58092E-05-4.95751E-16
 -1      2245 6.22788E-04 1.56765E-04-3.28825E-16
 -1      2246 5.81142E-04 1.17543E-04-3.47080E-16
 -1      2247 6.69739E-04 1.36156E-04-4.69188E-16
 -1      2248 1.67680E-03 7.47138E-04-1.32645E-15
 -1      2249 1.49010E-03 6.47061E-04-1.02948E-15
 -1      2250 1.34870E-03 5.44398E-04-9.45004E-16
 -1      2251 1.08527E-03-4.46334E-04-8.65126E-16
 -1      2252 1.25671E-03-5.13265E-04-1.14538E-15
 -1      2253 3.17918E-03 1.00107E-03-5.99819E-15
 -1      2254 3.32933E-03 9.25792E-04-6.47311E-15
 -1      2255 1.42645E-03-5.77926E-04-1.46981E-15
 -1      2256 1.59386E-03-6.38764E-04-1.83939E-15
 -1      2257 1.32455E-03-5.01576E-04-1.33423E-15
 -1      2258 1.75853E-03-6.94771E-04-2.25507E-15
 -1      2259 1.92038E-03-7.43332E-04-2.71721E-15
 -1      2260 1.66478E-03-6.26207E-04-2.07702E-15
 -1      2261 2.07898E-03-7.82926E-04-3.22745E-15
 -1      2262 2.23542E-03-8.10725E-04-3.78622E-15
 -1      2263 1.99479E-03-7.28370E-04-3.00420E-15
 -1      2264 2.38926E-03-8.25580E-04-4.39307E-15
 -1      2265 2.54279E-03-8.26374E-04-5.04932E-15
 -1      2266 2.31321E-03-7.88031E-04-4.12313E-15
 -1      2267 2.69553E-03-8.13269E-04-5.75287E-15
 -1      2268 2.84983E-03-7.87358E-04-6.50444E-15
 -1      2269 2.62507E-03-7.89901E-04-5.43669E-15
 -1      2270 3.00516E-03-7.50283E-04-7.30319E-15
 -1      2271 3.16276E-03-7.04772E-04-8.14808E-15
 -1      2272 2.93915E-03-7.34521E-04-6.94307E-15
 -1      2273 3.32216E-03-6.53140E-04-9.03739E-15
 -1      2274 3.48310E-03-5.98351E-04-9.97043E-15
 -1      2275 3.26116E-03-6.38378E-04-8.63536E-15
 -1      2276 3.64532E-03-5.42482E-04-1.09458E-14
 -1      2277 3.80783E-03-4.87519E-04-1.19636E-14
 -1      2278 3.59015E-03-5.25003E-04-1.05044E-14
 -1      2279 3.97067E-03-4.34832E-04-1.30225E-14
 -1      2280 4.13272E-03-3.85294E-04-1.41204E-14
 -1      2281 3.92096E-03-4.13793E-04-1.25421E-14
 -1      2282 4.29429E-03-3.39540E-04-1.52575E-14
 -1      2283 4.45449E-03-2.97671E-04-1.64334E-14
 -1      2284 4.24852E-03-3.15492E-04-1.47406E-14
 -1      2285 4.61375E-03-2.59788E-04-1.76462E-14
 -1      2286 4.77152E-03-2.25591E-04-1.88964E-14
 -1      2287 4.56997E-03-2.33561E-04-1.70916E-14
 -1      2288 4.92817E-03-1.94865E-04-2.01832E-14
 -1      2289 5.08344E-03-1.67198E-04-2.15043E-14
 -1      2290 4.88461E-03-1.67147E-04-1.95907E-14
 -1      2291 5.23761E-03-1.42237E-04-2.28594E-14
 -1      2292 5.39058E-03-1.19584E-04-2.42506E-14
 -1      2293 5.19305E-03-1.13515E-04-2.22328E-14
 -1      2294 5.54256E-03-9.88627E-05-2.56748E-14
 -1      2295 5.69354E-03-7.97457E-05-2.71314E-14
 -1      2296 5.49635E-03-6.94912E-05-2.50121E-14
 -1      2297 5.84365E-03-6.18977E-05-2.86223E-14
 -1      2298 5.99296E-03-4.50674E-05-3.01472E-14
 -1      2299 5.79557E-03-3.21449E-05-2.79270E-14
 -1      2300 6.14152E-03-2.89883E-05-3.17061E-14
 -1      2301 6.28943E-03-1.34771E-05-3.32989E-14
 -1      2302 6.09163E-03 9.36832E-07-3.09752E-14
 -1      2303 6.43672E-03 1.66085E-06-3.49252E-14
 -1      2304 6.58348E-03 1.65537E-05-3.65874E-14
 -1      2305 6.38525E-03 3.15999E-05-3.41594E-14
 -1      2306 6.72973E-03 3.13328E-05-3.82834E-14
 -1      2307 6.87556E-03 4.60841E-05-4.00154E-14
 -1      2308 6.67697E-03 6.11732E-05-3.74812E-14
 -1      2309 7.02098E-03 6.08882E-05-4.17835E-14
 -1      2310 7.16606E-03 7.57999E-05-4.35852E-14
 -1      2311 6.96721E-03 9.05570E-05-4.09431E-14
 -1      2312 7.31081E-03 9.08621E-05-4.54222E-14
 -1      2313 7.45531E-03 1.06107E-04-4.72926E-14
 -1      2314 7.25630E-03 1.20320E-04-4.45449E-14
 -1      2315 7.59954E-03 1.21552E-04-4.91973E-14
 -1      2316 7.74357E-03 1.37214E-04-5.11354E-14
 -1      2317 7.54451E-03 1.50784E-04-4.82832E-14
 -1      2318 7.88741E-03 1.53091E-04-5.31076E-14
 -1      2319 8.03109E-03 1.69190E-04-5.51118E-14
 -1      2320 7.83202E-03 1.82100E-04-5.21571E-14
 -1      2321 8.17461E-03 1.85501E-04-5.71471E-14
 -1      2322 8.31803E-03 2.02024E-04-5.92138E-14
 -1      2323 8.11901E-03 2.14303E-04-5.61617E-14
 -1      2324 8.46133E-03 2.18741E-04-6.13129E-14
 -1      2325 8.60455E-03 2.35648E-04-6.34423E-14
 -1      2326 8.40561E-03 2.47357E-04-6.02918E-14
 -1      2327 8.74768E-03 2.52727E-04-6.56030E-14
 -1      2328 8.89076E-03 2.69972E-04-6.77948E-14
 -1      2329 8.69191E-03 2.81183E-04-6.45471E-14
 -1      2330 9.03378E-03 2.87363E-04-7.00149E-14
 -1      2331 9.17675E-03 3.04894E-04-7.22641E-14
 -1      2332 8.97799E-03 3.15683E-04-6.89247E-14
 -1      2333 9.31969E-03 3.22547E-04-7.45407E-14
 -1      2334 9.46260E-03 3.40315E-04-7.68438E-14
 -1      2335 9.26392E-03 3.50755E-04-7.34193E-14
 -1      2336 9.60548E-03 3.58181E-04-7.91729E-14
 -1      2337 9.74834E-03 3.76141E-04-8.15296E-14
 -1      2338 9.54975E-03 3.86299E-04-7.80201E-14
 -1      2339 9.89119E-03 3.94179E-04-8.39105E-14
 -1      2340 1.00340E-02 4.12290E-04-8.63159E-14
 -1      2341 9.83551E-03 4.22225E-04-8.27253E-14
 -1      2342 1.01769E-02 4.30463E-04-8.87460E-14
 -1      2343 1.03197E-02 4.48692E-04-9.11991E-14
 -1      2344 1.01212E-02 4.58454E-04-8.75313E-14
 -1      2345 1.04625E-02 4.66968E-04-9.36756E-14
 -1      2346 1.06053E-02 4.85288E-04-9.61736E-14
 -1      2347 1.04069E-02 4.94917E-04-9.24327E-14
 -1      2348 1.07481E-02 5.03642E-04-9.86934E-14
 -1      2349 1.08909E-02 5.22029E-04-1.01232E-13
 -1      2350 1.06926E-02 5.31559E-04-9.74252E-14
 -1      2351 1.10338E-02 5.40442E-04-1.03790E-13
 -1      2352 1.11766E-02 5.58878E-04-1.06366E-13
 -1      2353 1.09782E-02 5.68336E-04-1.02499E-13
 -1      2354 1.13194E-02 5.77333E-04-1.08957E-13
 -1      2355 1.14622E-02 5.95804E-04-1.11568E-13
 -1      2356 1.12639E-02 6.05210E-04-1.07645E-13
 -1      2357 1.16050E-02 6.14288E-04-1.14199E-13
 -1      2358 1.17479E-02 6.32784E-04-1.16850E-13
 -1      2359 1.15496E-02 6.42154E-04-1.12865E-13
 -1      2360 1.18907E-02 6.51288E-04-1.19518E-13
 -1      2361 1.20335E-02 6.69801E-04-1.22206E-13
 -1      2362 1.18352E-02 6.79146E-04-1.18163E-13
 -1      2363 1.21763E-02 6.88318E-04-1.24913E-13
 -1      2364 1.23192E-02 7.06841E-04-1.27638E-13
 -1      2365 1.21209E-02 7.16172E-04-1.23536E-13
 -1      2366 1.24620E-02 7.25367E-04-1.30385E-13
 -1      2367 1.26048E-02 7.43896E-04-1.33150E-13
 -1      2368 1.24066E-02 7.53217E-04-1.28984E-13
 -1      2369 1.27477E-02 7.62426E-04-1.35933E-13
 -1      2370 1.28905E-02 7.80958E-04-1.38736E-13
 -1      2371 1.26923E-02 7.90275E-04-1.34512E-13
 -1      2372 1.30334E-02 7.99490E-04-1.41551E-13
 -1      2373 1.31762E-02 8.18022E-04-1.44383E-13
 -1      2374 1.29780E-02 8.27338E-04-1.40109E-13
 -1      2375 1.33191E-02 8.36554E-04-1.47231E-13
 -1      2376 1.34619E-02 8.55086E-04-1.50089E-13
 -1      2377 1.32637E-02 8.64403E-04-1.45767E-13
 -1      2378 1.36048E-02 8.73617E-04-1.52961E-13
 -1      2379 1.37476E-02 8.92147E-04-1.55843E-13
 -1      2380 1.35494E-02 9.01467E-04-1.51482E-13
 -1      2381 1.38905E-02 9.10675E-04-1.58736E-13
 -1      2382 1.40333E-02 9.29202E-04-1.61642E-13
 -1      2383 1.38351E-02 9.38526E-04-1.57242E-13
 -1      2384 2.39363E-03 1.11641E-03-2.97029E-15
 -1      2385 2.22069E-03 1.03943E-03-2.48739E-15
 -1      2386 2.72764E-03 1.20971E-03-4.08747E-15
 -1      2387 2.56110E-03 1.17487E-03-3.50315E-15
 -1      2388 2.45729E-03 1.11550E-03-3.29820E-15
 -1      2389 3.05853E-03 1.20674E-03-5.40975E-15
 -1      2390 2.89152E-03 1.21979E-03-4.72308E-15
 -1      2391 2.79813E-03 1.18810E-03-4.47449E-15
 -1      2392 3.39975E-03 1.12724E-03-6.93266E-15
 -1      2393 3.22702E-03 1.17359E-03-6.14625E-15
 -1      2394 3.14074E-03 1.15588E-03-5.85838E-15
 -1      2395 3.75270E-03 1.01651E-03-8.64762E-15
 -1      2396 3.57537E-03 1.07284E-03-7.76682E-15
 -1      2397 3.49699E-03 1.05435E-03-7.44257E-15
 -1      2398 4.10910E-03 9.13998E-04-1.05418E-14
 -1      2399 3.93151E-03 9.62501E-04-9.57321E-15
 -1      2400 3.86203E-03 9.36982E-04-9.21428E-15
 -1      2401 4.46050E-03 8.40442E-04-1.26048E-14
 -1      2402 4.28614E-03 8.73155E-04-1.15525E-14
 -1      2403 4.22332E-03 8.40487E-04-1.11610E-14
 -1      2404 4.80286E-03 8.00023E-04-1.48283E-14
 -1      2405 4.63317E-03 8.16291E-04-1.36967E-14
 -1      2406 4.57281E-03 7.78321E-04-1.32716E-14
 -1      2407 5.13556E-03 7.88573E-04-1.72124E-14
 -1      2408 4.97052E-03 7.91107E-04-1.60008E-14
 -1      2409 4.90886E-03 7.49388E-04-1.55414E-14
 -1      2410 5.45952E-03 7.99180E-04-1.97475E-14
 -1      2411 5.29861E-03 7.91549E-04-1.84611E-14
 -1      2412 5.23333E-03 7.47165E-04-1.79659E-14
 -1      2413 5.77603E-03 8.25128E-04-2.24304E-14
 -1      2414 5.61863E-03 8.10591E-04-2.10700E-14
 -1      2415 5.54886E-03 7.64341E-04-2.05405E-14
 -1      2416 6.08632E-03 8.60964E-04-2.52591E-14
 -1      2417 5.93186E-03 8.42078E-04-2.38276E-14
 -1      2418 5.85770E-03 7.94606E-04-2.32612E-14
 -1      2419 6.39142E-03 9.02667E-04-2.82250E-14
 -1      2420 6.23943E-03 8.81273E-04-2.67252E-14
 -1      2421 6.16147E-03 8.33100E-04-2.61253E-14
 -1      2422 6.69225E-03 9.47450E-04-3.13294E-14
 -1      2423 6.54229E-03 9.24803E-04-2.97589E-14
 -1      2424 6.46129E-03 8.76326E-04-2.91250E-14
 -1      2425 6.98957E-03 9.93487E-04-3.45689E-14
 -1      2426 6.84128E-03 9.70398E-04-3.29328E-14
 -1      2427 6.75799E-03 9.21896E-04-3.22622E-14
 -1      2428 7.28407E-03 1.03964E-03-3.79460E-14
 -1      2429 7.13712E-03 1.01660E-03-3.62405E-14
 -1      2430 7.05217E-03 9.68258E-04-3.55375E-14
 -1      2431 7.57631E-03 1.08524E-03-4.14556E-14
 -1      2432 7.43043E-03 1.06254E-03-3.96841E-14
 -1      2433 7.34434E-03 1.01445E-03-3.89471E-14
 -1      2434 7.86678E-03 1.12994E-03-4.50982E-14
 -1      2435 7.72173E-03 1.10772E-03-4.32601E-14
 -1      2436 7.63489E-03 1.05994E-03-4.24895E-14
 -1      2437 8.15589E-03 1.17361E-03-4.88726E-14
 -1      2438 8.01148E-03 1.15192E-03-4.69683E-14
 -1      2439 7.92416E-03 1.10445E-03-4.61641E-14
 -1      2440 8.44396E-03 1.21623E-03-5.27787E-14
 -1      2441 8.30003E-03 1.19505E-03-5.08094E-14
 -1      2442 8.21244E-03 1.14789E-03-4.99699E-14
 -1      2443 8.73125E-03 1.25786E-03-5.68179E-14
 -1      2444 8.58768E-03 1.23717E-03-5.47818E-14
 -1      2445 8.49996E-03 1.19028E-03-5.39094E-14
 -1      2446 9.01798E-03 1.29860E-03-6.09831E-14
 -1      2447 8.87467E-03 1.27834E-03-5.88850E-14
 -1      2448 8.78690E-03 1.23169E-03-5.79784E-14
 -1      2449 9.30430E-03 1.33858E-03-6.52720E-14
 -1      2450 9.16118E-03 1.31868E-03-6.31126E-14
 -1      2451 9.07342E-03 1.27223E-03-6.21744E-14
 -1      2452 9.59034E-03 1.37790E-03-6.96730E-14
 -1      2453 9.44735E-03 1.35831E-03-6.74584E-14
 -1      2454 9.35963E-03 1.31203E-03-6.64877E-14
 -1      2455 9.87619E-03 1.41668E-03-7.41889E-14
 -1      2456 9.73328E-03 1.39735E-03-7.19164E-14
 -1      2457 9.64563E-03 1.35121E-03-7.09164E-14
 -1      2458 1.01619E-02 1.45504E-03-7.88134E-14
 -1      2459 1.00191E-02 1.43591E-03-7.64875E-14
 -1      2460 9.93147E-03 1.38987E-03-7.54572E-14
 -1      2461 1.04476E-02 1.49304E-03-8.35431E-14
 -1      2462 1.03047E-02 1.47408E-03-8.11660E-14
 -1      2463 1.02172E-02 1.42813E-03-8.01089E-14
 -1      2464 1.07332E-02 1.53078E-03-8.83709E-14
 -1      2465 1.05904E-02 1.51194E-03-8.59456E-14
 -1      2466 1.05029E-02 1.46605E-03-8.48642E-14
 -1      2467 1.10188E-02 1.56831E-03-9.32909E-14
 -1      2468 1.08760E-02 1.54957E-03-9.08200E-14
 -1      2469 1.07886E-02 1.50373E-03-8.97138E-14
 -1      2470 1.13043E-02 1.60568E-03-9.82895E-14
 -1      2471 1.11616E-02 1.58701E-03-9.57804E-14
 -1      2472 1.10742E-02 1.54121E-03-9.46526E-14
 -1      2473 1.15899E-02 1.64294E-03-1.03368E-13
 -1      2474 1.14471E-02 1.62432E-03-1.00819E-13
 -1      2475 1.13598E-02 1.57855E-03-9.96710E-14
 -1      2476 1.18755E-02 1.68012E-03-1.08524E-13
 -1      2477 1.17327E-02 1.66154E-03-1.05933E-13
 -1      2478 1.16455E-02 1.61578E-03-1.04766E-13
 -1      2479 1.21612E-02 1.71723E-03-1.13772E-13
 -1      2480 1.20184E-02 1.69868E-03-1.11136E-13
 -1      2481 1.19311E-02 1.65294E-03-1.09945E-13
 -1      2482 1.24468E-02 1.75431E-03-1.19107E-13
 -1      2483 1.23040E-02 1.73578E-03-1.16429E-13
 -1      2484 1.22167E-02 1.69004E-03-1.15215E-13
 -1      2485 1.27325E-02 1.79136E-03-1.24523E-13
 -1      2486 1.25896E-02 1.77284E-03-1.21806E-13
 -1      2487 1.25024E-02 1.72711E-03-1.20569E-13
 -1      2488 1.30181E-02 1.82840E-03-1.30008E-13
 -1      2489 1.28753E-02 1.80988E-03-1.27258E-13
 -1      2490 1.27881E-02 1.76415E-03-1.25999E-13
 -1      2491 1.33038E-02 1.86542E-03-1.35551E-13
 -1      2492 1.31610E-02 1.84691E-03-1.32773E-13
 -1      2493 1.30737E-02 1.80118E-03-1.31496E-13
 -1      2494 1.35895E-02 1.90244E-03-1.41136E-13
 -1      2495 1.34466E-02 1.88393E-03-1.38339E-13
 -1      2496 1.33594E-02 1.83821E-03-1.37047E-13
 -1      2497 1.38752E-02 1.93947E-03-1.46752E-13
 -1      2498 1.37323E-02 1.92095E-03-1.43940E-13
 -1      2499 1.36451E-02 1.87523E-03-1.42639E-13
 -1      2500 1.41609E-02 1.97649E-03-1.52394E-13
 -1      2501 1.40180E-02 1.95798E-03-1.49572E-13
 -1      2502 1.39308E-02 1.91225E-03-1.48264E-13
 -1      2503 1.44466E-02 2.01352E-03-1.58059E-13
 -1      2504 1.43037E-02 1.99500E-03-1.55224E-13
 -1      2505 1.42165E-02 1.94928E-03-1.53914E-13
 -1      2506 1.47323E-02 2.05056E-03-1.63745E-13
 -1      2507 1.45894E-02 2.03204E-03-1.60899E-13
 -1      2508 1.45022E-02 1.98631E-03-1.59587E-13
 -1      2509 1.48802E-02 2.07021E-03-1.66686E-13
 -1      2510 1.46573E-02 1.72749E-03-1.66078E-13
 -1      2511 1.46755E-02 1.76964E-03-1.65963E-13
 -1      2512 1.46209E-02 1.64318E-03-1.66306E-13
 -1      2513 1.46391E-02 1.68533E-03-1.66192E-13
 -1      2514 1.45245E-02 1.69037E-03-1.63655E-13
 -1      2515 1.47296E-02 1.89466E-03-1.65604E-13
 -1      2516 1.47478E-02 1.93680E-03-1.65478E-13
 -1      2517 1.46936E-02 1.81143E-03-1.65843E-13
 -1      2518 1.47115E-02 1.85286E-03-1.65724E-13
 -1      2519 1.45969E-02 1.85790E-03-1.63190E-13
 -1      2520 1.45608E-02 1.77432E-03-1.63427E-13
 -1      2521 1.45844E-02 1.55887E-03-1.66524E-13
 -1      2522 1.46027E-02 1.60103E-03-1.66416E-13
 -1      2523 1.44880E-02 1.60607E-03-1.63872E-13
 -1      2524 1.45480E-02 1.47457E-03-1.66734E-13
 -1      2525 1.45662E-02 1.51672E-03-1.66631E-13
 -1      2526 1.44516E-02 1.52176E-03-1.64082E-13
 -1      2527 1.45116E-02 1.39026E-03-1.66921E-13
 -1      2528 1.45298E-02 1.43241E-03-1.66828E-13
 -1      2529 1.44152E-02 1.43745E-03-1.64276E-13
 -1      2530 1.44758E-02 1.30738E-03-1.67092E-13
 -1      2531 1.44937E-02 1.34882E-03-1.67009E-13
 -1      2532 1.43791E-02 1.35385E-03-1.64455E-13
 -1      2533 1.44394E-02 1.22308E-03-1.67253E-13
 -1      2534 1.44576E-02 1.26523E-03-1.67174E-13
 -1      2535 1.43430E-02 1.27026E-03-1.64620E-13
 -1      2536 1.44030E-02 1.13878E-03-1.67401E-13
 -1      2537 1.44212E-02 1.18093E-03-1.67327E-13
 -1      2538 1.43066E-02 1.18596E-03-1.64772E-13
 -1      2539 1.43666E-02 1.05448E-03-1.67536E-13
 -1      2540 1.43848E-02 1.09663E-03-1.67468E-13
 -1      2541 1.42702E-02 1.10166E-03-1.64913E-13
 -1      2542 4.82414E-03 2.79628E-04-1.04867E-14
 -1      2543 4.84000E-03 2.74227E-04-1.04043E-14
 -1      2544 4.61194E-03 3.30498E-04-9.96116E-15
 -1      2545 4.73551E-03 3.00949E-04-1.02559E-14
 -1      2546 4.82474E-03 2.66089E-04-1.04075E-14
 -1      2547 4.77552E-03 2.59591E-04-1.04125E-14
 -1      2548 4.85385E-03 2.76248E-04-1.11052E-14
 -1      2549 2.04321E-03 9.47311E-04-2.05384E-15
 -1      2550 1.86186E-03 8.48778E-04-1.66726E-15
 -1      2551 1.72796E-03 7.46266E-04-1.54672E-15
 -1      2552 1.44122E-02 9.90322E-04-1.69236E-13
 -1      2553 4.32204E-03 4.29580E-04-9.24660E-15
 -1      2554 4.45559E-03 3.80839E-04-9.56899E-15
 -1      2555 3.52948E-03 8.20771E-04-7.07041E-15
 -1      2556 3.69848E-03 7.26205E-04-7.53233E-15
 -1      2557 2.45494E-03-6.67107E-04-4.55606E-15
 -1      2558 2.31499E-03-6.39554E-04-4.11815E-15
 -1      2559 1.04133E-03-2.76875E-05-1.76452E-15
 -1      2560 8.55552E-04 3.71425E-05-1.58413E-15
 -1      2561 3.70508E-04 6.98946E-05-4.42937E-16
 -1      2562 4.14204E-04 6.08997E-05-4.47328E-16
 -1      2563 5.32689E-04 5.02793E-05-6.08576E-16
 -1      2564 2.18299E-03 9.13295E-04-3.13023E-15
 -1      2565 2.35065E-03 1.00611E-03-3.49902E-15
 -1      2566 2.90434E-03 1.09483E-03-5.11150E-15
 -1      2567 3.03666E-03 1.05605E-03-5.54469E-15
 -1      2568 3.12427E-03 1.03562E-03-5.88619E-15
 -1      2569 1.02166E-03 2.40093E-04-1.64865E-15
 -1      2570 1.18148E-03 3.10505E-04-1.75582E-15
 -1      2571 1.85134E-03 7.03689E-04-2.53922E-15
 -1      2572 2.00563E-03 8.05968E-04-2.79332E-15
 -1      2573 2.14052E-03-5.79812E-04-3.63942E-15
 -1      2574 1.96133E-03-4.94162E-04-3.19498E-15
 -1      2575 2.21554E-03-6.14683E-04-3.81645E-15
 -1      2576 1.43128E-03 4.42178E-04-1.98039E-15
 -1      2577 1.64403E-03 5.71780E-04-2.24077E-15
 -1      2578 7.25686E-04 1.31083E-04-1.40599E-15
 -1      2579 8.64864E-04 1.77218E-04-1.52358E-15
 -1      2580 9.21003E-04 1.86463E-04-1.43620E-15
 -1      2581 5.14894E-04 9.02272E-05-1.27701E-15
 -1      2582 5.95833E-04 9.83105E-05-1.31374E-15
 -1      2583 4.41855E-04 9.57300E-05-1.24240E-15
 -1      2584 4.59862E-04 8.84843E-05-1.25178E-15
 -1      2585 5.18021E-04 1.03584E-04-1.34406E-15
 -1      2586 4.66573E-04 1.01421E-04-1.29046E-15
 -1      2587 6.90360E-04 8.03345E-05-1.46331E-15
 -1      2588 5.92546E-04 9.58448E-05-1.40062E-15
 -1      2589 5.41964E-04 1.01113E-04-1.24647E-15
 -1      2590 1.38787E-03-1.85532E-04-2.19152E-15
 -1      2591 1.24235E-03-1.14076E-04-2.00193E-15
 -1      2592 1.74173E-03-3.77455E-04-2.74311E-15
 -1      2593 1.56470E-03-2.77503E-04-2.44947E-15
 -1      2594 2.71732E-03-6.48100E-04-5.43543E-15
 -1      2595 2.60985E-03-6.67335E-04-5.06577E-15
 -1      2596 3.03183E-03-5.26245E-04-6.44404E-15
 -1      2597 2.87288E-03-5.99294E-04-5.93812E-15
 -1      2598 3.33961E-03-3.59389E-04-7.34524E-15
 -1      2599 3.20125E-03-4.39175E-04-6.95299E-15
 -1      2600 3.73396E-03-1.39468E-04-8.35970E-15
 -1      2601 3.53297E-03-2.50978E-04-7.86730E-15
 -1      2602 4.09793E-03 3.82015E-05-9.16899E-15
 -1      2603 3.94366E-03-3.31193E-05-8.85515E-15
 -1      2604 4.45633E-03 1.75945E-04-9.91088E-15
 -1      2605 4.28142E-03 1.14539E-04-9.55299E-15
 -1      2606 4.68544E-03 2.38121E-04-1.01953E-14
 -1      2607 4.59921E-03 2.19433E-04-1.01221E-14
 -1      2608 4.52131E-03 1.98530E-04-1.04474E-14
 -1      2609 4.75004E-03 2.57035E-04-1.08858E-14
 -1      2610 6.92938E-04-2.72866E-04-4.06738E-16
 -1      2611 9.24379E-04-3.75113E-04-6.54438E-16
 -1      2612 9.91953E-04-3.66273E-04-7.95588E-16
 -1      2613 6.75705E-04-2.31605E-04-4.27338E-16
 -1      2614 9.66563E-04 3.95150E-04-4.11062E-16
 -1      2615 7.77117E-04 3.10380E-04-2.67324E-16
 -1      2616 7.28901E-04 2.69408E-04-2.75916E-16
 -1      2617 1.01574E-03 3.87834E-04-5.37466E-16
 -1      2618 3.89624E-03 6.23437E-04-8.08122E-15
 -1      2619 4.10856E-03 5.21349E-04-8.68575E-15
 -1      2620 4.08297E-04 7.68816E-05-5.70832E-16
 -1      2621 7.21921E-04-9.77968E-05-6.21627E-16
 -1      2622 6.01269E-04-8.49524E-05-4.54782E-16
 -1      2623 6.23393E-04-1.23211E-04-4.50039E-16
 -1      2624 1.42568E-02 9.55813E-04-1.66214E-13
 -1      2625 1.43258E-02 1.01494E-03-1.67078E-13
 -1      2626 1.42112E-02 1.01997E-03-1.64522E-13
 -1      2627 1.41295E-02 9.40890E-04-1.63604E-13
 -1      2628 6.88652E-04 2.21634E-04-3.06409E-16
 -1      2629 3.81619E-03 6.78519E-04-8.11670E-15
 -1      2630 3.83211E-03-8.79956E-05-8.93103E-15
 -1      2631 3.44890E-03-2.97638E-04-7.89071E-15
 -1      2632 3.44110E-03 8.81119E-04-6.94612E-15
 -1      2633 1.40741E-02 9.68743E-04-1.62100E-13
 -1      2634 3.10795E-03-4.89061E-04-6.84291E-15
 -1      2635 2.80551E-03-6.25001E-04-5.81745E-15
 -1      2636 4.56483E-03 3.55467E-04-1.02251E-14
 -1      2637 7.97532E-04 2.51121E-04-4.28450E-16
 -1      2638 1.84858E-03-4.40501E-04-2.89726E-15
 -1      2639 1.73627E-03-3.88882E-04-2.61633E-15
 -1      2640 1.93624E-03-4.97579E-04-3.05288E-15
 -1      2641 1.47930E-02 2.02448E-03-1.65372E-13
 -1      2642 1.47629E-02 1.98937E-03-1.65156E-13
 -1      2643 7.63955E-04 6.12275E-05-1.40914E-15
 -1      2644 4.80785E-03 2.91284E-04-1.08625E-14
 -1      2645 4.86155E-03 2.91771E-04-1.14821E-14
 -1      2646 4.78601E-03 3.07212E-04-1.12411E-14
 -1      2647 1.11016E-03-6.01639E-05-1.74094E-15
 -1      2648 2.10133E-03 9.51647E-04-2.32599E-15
 -1      2649 4.40686E-04 9.48485E-05-1.14814E-15
 -1      2650 4.21037E-03 4.88424E-04-9.24860E-15
 -1      2651 6.45833E-04 9.96024E-05-1.23465E-15
 -1      2652 6.59524E-04-1.91601E-04-4.42531E-16
 -1      2653 4.20711E-03 8.59205E-05-9.83356E-15
 -1      2654 1.73837E-03 6.29043E-04-2.25751E-15
 -1      2655 2.81838E-03 1.11326E-03-4.83446E-15
 -1      2656 2.91168E-03 1.10821E-03-5.14858E-15
 -1      2657 2.74377E-03 1.12018E-03-4.56457E-15
 -1      2658 2.52051E-03-6.74470E-04-4.79816E-15
 -1      2659 1.18877E-03 3.03772E-04-1.55794E-15
 -1      2660 1.30750E-03 3.66963E-04-1.76138E-15
 -1      2661 1.41325E-03 4.28363E-04-1.76164E-15
 -1      2662 2.45430E-03 1.05333E-03-3.71903E-15
 -1      2663 2.54519E-03 1.08754E-03-3.94414E-15
 -1      2664 2.36445E-03 1.01582E-03-3.41995E-15
 -1      2665 2.10124E-03 8.64846E-04-2.87220E-15
 -1      2666 4.72706E-04 7.78835E-05-1.12694E-15
 -1      2667 1.46997E-03-2.34227E-04-2.21588E-15
 -1      2668 1.46300E-02 1.95226E-03-1.62752E-13
 -1      2669 3.18973E-03-4.50352E-04-7.30703E-15
 -1      2670 3.04179E-03-5.30255E-04-6.78453E-15
 -1      2671 4.02573E-04 4.24918E-05-6.57298E-16
 -1      2672 3.69334E-04 5.21466E-05-6.63586E-16
 -1      2673 3.57519E-04 6.62387E-05-6.48488E-16
 -1      2674 3.76955E-04 7.75846E-05-6.55990E-16
 -1      2675 6.82278E-04 1.09734E-04-6.26086E-16
 -1      2676 6.06845E-04 7.56371E-05-6.37402E-16
 -1      2677 8.16553E-04 2.01676E-04-5.92937E-16
 -1      2678 7.53235E-04 1.53446E-04-6.11788E-16
 -1      2679 8.28821E-04 1.69170E-04-7.73443E-16
 -1      2680 1.39549E-03 5.35724E-04-1.12124E-15
 -1      2681 1.20654E-03 4.41646E-04-8.58620E-16
 -1      2682 1.41150E-02 1.00828E-03-1.62559E-13
 -1      2683 1.41558E-02 1.04783E-03-1.63015E-13
 -1      2684 1.40187E-02 9.96596E-04-1.60599E-13
 -1      2685 9.34311E-04 3.05302E-04-5.74261E-16
 -1      2686 1.56914E-03-5.53411E-04-1.90053E-15
 -1      2687 1.74025E-03-6.14167E-04-2.31817E-15
 -1      2688 1.90846E-03-6.69514E-04-2.78231E-15
 -1      2689 2.07377E-03-7.14900E-04-3.29385E-15
 -1      2690 1.81789E-03-6.04320E-04-2.56255E-15
 -1      2691 2.23550E-03-7.48433E-04-3.85457E-15
 -1      2692 2.39529E-03-7.66173E-04-4.46348E-15
 -1      2693 2.15493E-03-7.03530E-04-3.58630E-15
 -1      2694 2.55243E-03-7.67211E-04-5.12105E-15
 -1      2695 2.71120E-03-7.51556E-04-5.82768E-15
 -1      2696 2.47937E-03-7.43509E-04-4.80596E-15
 -1      2697 2.87024E-03-7.20446E-04-6.58265E-15
 -1      2698 3.03267E-03-6.77185E-04-7.38504E-15
 -1      2699 2.80103E-03-7.08453E-04-6.22210E-15
 -1      2700 3.19752E-03-6.24270E-04-8.23323E-15
 -1      2701 3.36462E-03-5.66705E-04-9.12620E-15
 -1      2702 3.13286E-03-6.12664E-04-7.83073E-15
 -1      2703 3.53340E-03-5.06843E-04-1.00630E-14
 -1      2704 3.70224E-03-4.47815E-04-1.10419E-14
 -1      2705 3.47572E-03-4.89361E-04-9.62152E-15
 -1      2706 3.87100E-03-3.91209E-04-1.20620E-14
 -1      2707 4.03806E-03-3.38315E-04-1.31237E-14
 -1      2708 3.82098E-03-3.67773E-04-1.15831E-14
 -1      2709 4.20371E-03-2.89801E-04-1.42236E-14
 -1      2710 4.36683E-03-2.45676E-04-1.53623E-14
 -1      2711 4.15982E-03-2.62596E-04-1.37073E-14
 -1      2712 4.52796E-03-2.06112E-04-1.65384E-14
 -1      2713 4.68659E-03-1.70508E-04-1.77508E-14
 -1      2714 4.48767E-03-1.77251E-04-1.59859E-14
 -1      2715 4.84328E-03-1.38759E-04-1.90004E-14
 -1      2716 4.99790E-03-1.10209E-04-2.02865E-14
 -1      2717 4.80413E-03-1.09465E-04-1.84123E-14
 -1      2718 5.15089E-03-8.46098E-05-2.16074E-14
 -1      2719 5.30232E-03-6.13973E-05-2.29618E-14
 -1      2720 5.11109E-03-5.53302E-05-2.09827E-14
 -1      2721 5.45250E-03-4.02768E-05-2.43516E-14
 -1      2722 5.60155E-03-2.08207E-05-2.57747E-14
 -1      2723 5.41097E-03-1.11010E-05-2.36927E-14
 -1      2724 5.74967E-03-2.74477E-06-2.72316E-14
 -1      2725 5.89702E-03 1.42569E-05-2.87221E-14
 -1      2726 5.70594E-03 2.63571E-05-2.65379E-14
 -1      2727 6.04369E-03 3.04278E-05-3.02457E-14
 -1      2728 6.18981E-03 4.59785E-05-3.18038E-14
 -1      2729 5.99767E-03 5.94917E-05-2.95185E-14
 -1      2730 6.33544E-03 6.10998E-05-3.33958E-14
 -1      2731 6.48069E-03 7.59319E-05-3.50219E-14
 -1      2732 6.28730E-03 9.01365E-05-3.26330E-14
 -1      2733 6.62558E-03 9.06132E-05-3.66814E-14
 -1      2734 6.77021E-03 1.05233E-04-3.83755E-14
 -1      2735 6.57559E-03 1.19611E-04-3.58838E-14
 -1      2736 6.91456E-03 1.19885E-04-4.01057E-14
 -1      2737 7.05872E-03 1.34622E-04-4.18718E-14
 -1      2738 6.86304E-03 1.48822E-04-3.92722E-14
 -1      2739 7.20267E-03 1.49501E-04-4.36715E-14
 -1      2740 7.34649E-03 1.64551E-04-4.55045E-14
 -1      2741 7.14995E-03 1.78355E-04-4.28000E-14
 -1      2742 7.49015E-03 1.79801E-04-4.73733E-14
 -1      2743 7.63371E-03 1.95263E-04-4.92745E-14
 -1      2744 7.43650E-03 2.08555E-04-4.64644E-14
 -1      2745 7.77714E-03 2.10948E-04-5.12102E-14
 -1      2746 7.92051E-03 2.26858E-04-5.31784E-14
 -1      2747 7.72281E-03 2.39593E-04-5.02659E-14
 -1      2748 8.06378E-03 2.42989E-04-5.51790E-14
 -1      2749 8.20700E-03 2.59338E-04-5.72106E-14
 -1      2750 8.00895E-03 2.71522E-04-5.41984E-14
 -1      2751 8.35015E-03 2.75892E-04-5.92749E-14
 -1      2752 8.49325E-03 2.92647E-04-6.13701E-14
 -1      2753 8.29498E-03 3.04317E-04-5.82605E-14
 -1      2754 8.63631E-03 3.09585E-04-6.34948E-14
 -1      2755 8.77934E-03 3.26698E-04-6.56514E-14
 -1      2756 8.58092E-03 3.37909E-04-6.24468E-14
 -1      2757 8.92233E-03 3.43970E-04-6.78387E-14
 -1      2758 9.06529E-03 3.61391E-04-7.00554E-14
 -1      2759 8.86680E-03 3.72204E-04-6.67557E-14
 -1      2760 9.20823E-03 3.78945E-04-7.23008E-14
 -1      2761 9.35116E-03 3.96623E-04-7.45721E-14
 -1      2762 9.15264E-03 4.07101E-04-7.11853E-14
 -1      2763 9.49406E-03 4.14409E-04-7.68715E-14
 -1      2764 9.63696E-03 4.32296E-04-7.91958E-14
 -1      2765 9.43843E-03 4.42499E-04-7.57249E-14
 -1      2766 9.77984E-03 4.50270E-04-8.15449E-14
 -1      2767 9.92271E-03 4.68324E-04-8.39201E-14
 -1      2768 9.72421E-03 4.78305E-04-8.03692E-14
 -1      2769 1.00656E-02 4.86447E-04-8.63211E-14
 -1      2770 1.02084E-02 5.04632E-04-8.87450E-14
 -1      2771 1.00100E-02 5.14437E-04-8.51141E-14
 -1      2772 1.03513E-02 5.22870E-04-9.11953E-14
 -1      2773 1.04941E-02 5.41156E-04-9.36666E-14
 -1      2774 1.02957E-02 5.50825E-04-8.99594E-14
 -1      2775 1.06370E-02 5.59482E-04-9.61588E-14
 -1      2776 1.07798E-02 5.77844E-04-9.86747E-14
 -1      2777 1.05814E-02 5.87408E-04-9.48977E-14
 -1      2778 1.09227E-02 5.96236E-04-1.01209E-13
 -1      2779 1.10655E-02 6.14653E-04-1.03763E-13
 -1      2780 1.08672E-02 6.24140E-04-9.99227E-14
 -1      2781 1.12084E-02 6.33093E-04-1.06335E-13
 -1      2782 1.13512E-02 6.51551E-04-1.08925E-13
 -1      2783 1.11529E-02 6.60981E-04-1.05026E-13
 -1      2784 1.14941E-02 6.70025E-04-1.11536E-13
 -1      2785 1.16369E-02 6.88512E-04-1.14164E-13
 -1      2786 1.14386E-02 6.97901E-04-1.10207E-13
 -1      2787 1.17798E-02 7.07009E-04-1.16812E-13
 -1      2788 1.19226E-02 7.25515E-04-1.19479E-13
 -1      2789 1.17243E-02 7.34876E-04-1.15462E-13
 -1      2790 1.20655E-02 7.44029E-04-1.22162E-13
 -1      2791 1.22083E-02 7.62548E-04-1.24864E-13
 -1      2792 1.20100E-02 7.71890E-04-1.20791E-13
 -1      2793 1.23512E-02 7.81071E-04-1.27589E-13
 -1      2794 1.24940E-02 7.99597E-04-1.30332E-13
 -1      2795 1.22957E-02 8.08928E-04-1.26195E-13
 -1      2796 1.26369E-02 8.18126E-04-1.33094E-13
 -1      2797 1.27797E-02 8.36657E-04-1.35874E-13
 -1      2798 1.25814E-02 8.45981E-04-1.31678E-13
 -1      2799 1.29226E-02 8.55189E-04-1.38669E-13
 -1      2800 1.30654E-02 8.73721E-04-1.41481E-13
 -1      2801 1.28671E-02 8.83042E-04-1.37233E-13
 -1      2802 1.32083E-02 8.92254E-04-1.44311E-13
 -1      2803 1.33511E-02 9.10786E-04-1.47152E-13
 -1      2804 1.31529E-02 9.20106E-04-1.42856E-13
 -1      2805 1.34940E-02 9.29318E-04-1.50005E-13
 -1      2806 1.36368E-02 9.47849E-04-1.52872E-13
 -1      2807 1.34386E-02 9.57170E-04-1.48534E-13
 -1      2808 1.37564E-02 9.62959E-04-1.55284E-13
 -1      2809 1.38992E-02 9.81488E-04-1.58171E-13
 -1      2810 1.39400E-02 1.02103E-03-1.58628E-13
 -1      2811 1.37010E-02 9.90812E-04-1.53795E-13
 -1      2812 2.87612E-03 1.16755E-03-4.86171E-15
 -1      2813 2.70190E-03 1.15979E-03-4.21681E-15
 -1      2814 2.52844E-03 1.11893E-03-3.62809E-15
 -1      2815 2.34972E-03 1.05214E-03-3.08844E-15
 -1      2816 3.60319E-03 9.72399E-04-7.96025E-15
 -1      2817 3.41556E-03 1.03629E-03-7.11378E-15
 -1      2818 3.97925E-03 8.52621E-04-9.78857E-15
 -1      2819 3.79290E-03 9.09212E-04-8.85223E-15
 -1      2820 3.72479E-03 8.82259E-04-8.48677E-15
 -1      2821 4.34217E-03 7.66820E-04-1.17859E-14
 -1      2822 4.16349E-03 8.05175E-04-1.07661E-14
 -1      2823 4.10643E-03 7.67822E-04-1.03697E-14
 -1      2824 4.68653E-03 7.18622E-04-1.39433E-14
 -1      2825 4.51699E-03 7.38508E-04-1.28450E-14
 -1      2826 4.46540E-03 6.96617E-04-1.24174E-14
 -1      2827 5.01419E-03 7.02035E-04-1.62577E-14
 -1      2828 4.85233E-03 7.07057E-04-1.50814E-14
 -1      2829 4.80072E-03 6.63645E-04-1.46213E-14
 -1      2830 5.32954E-03 7.08950E-04-1.87233E-14
 -1      2831 5.17319E-03 7.03113E-04-1.74720E-14
 -1      2832 5.11803E-03 6.59033E-04-1.69780E-14
 -1      2833 5.63652E-03 7.32225E-04-2.13364E-14
 -1      2834 5.48388E-03 7.18953E-04-2.00118E-14
 -1      2835 5.42356E-03 6.74248E-04-1.94840E-14
 -1      2836 5.93794E-03 7.66257E-04-2.40951E-14
 -1      2837 5.78778E-03 7.48186E-04-2.26972E-14
 -1      2838 5.72200E-03 7.02771E-04-2.21361E-14
 -1      2839 6.23556E-03 8.06904E-04-2.69927E-14
 -1      2840 6.08711E-03 7.85954E-04-2.55264E-14
 -1      2841 6.01632E-03 7.39870E-04-2.49292E-14
 -1      2842 6.53046E-03 8.51234E-04-3.00263E-14
 -1      2843 6.38327E-03 8.28743E-04-2.84928E-14
 -1      2844 6.30822E-03 7.82135E-04-2.78624E-14
 -1      2845 6.82332E-03 8.97257E-04-3.31991E-14
 -1      2846 6.67709E-03 8.74122E-04-3.15958E-14
 -1      2847 6.59860E-03 8.27171E-04-3.09309E-14
 -1      2848 7.11458E-03 9.43685E-04-3.65071E-14
 -1      2849 6.96910E-03 9.20476E-04-3.48356E-14
 -1      2850 6.88795E-03 8.73354E-04-3.41371E-14
 -1      2851 7.40455E-03 9.89733E-04-3.99498E-14
 -1      2852 7.25969E-03 9.66790E-04-3.82124E-14
 -1      2853 7.17654E-03 9.19634E-04-3.74795E-14
 -1      2854 7.69350E-03 1.03496E-03-4.35251E-14
 -1      2855 7.54913E-03 1.01247E-03-4.17209E-14
 -1      2856 7.46451E-03 9.65376E-04-4.09554E-14
 -1      2857 7.98163E-03 1.07917E-03-4.72325E-14
 -1      2858 7.83764E-03 1.05720E-03-4.53617E-14
 -1      2859 7.75199E-03 1.01023E-03-4.45630E-14
 -1      2860 8.26911E-03 1.12231E-03-5.10710E-14
 -1      2861 8.12543E-03 1.10088E-03-4.91364E-14
 -1      2862 8.03906E-03 1.05406E-03-4.83030E-14
 -1      2863 8.55608E-03 1.16441E-03-5.50424E-14
 -1      2864 8.41264E-03 1.14349E-03-5.30401E-14
 -1      2865 8.32579E-03 1.09683E-03-5.21739E-14
 -1      2866 8.84267E-03 1.20556E-03-5.91406E-14
 -1      2867 8.69941E-03 1.18510E-03-5.70752E-14
 -1      2868 8.61225E-03 1.13860E-03-5.61756E-14
 -1      2869 9.12897E-03 1.24588E-03-6.33657E-14
 -1      2870 8.98585E-03 1.22582E-03-6.12388E-14
 -1      2871 8.89850E-03 1.17947E-03-6.03054E-14
 -1      2872 9.41506E-03 1.28549E-03-6.77060E-14
 -1      2873 9.27204E-03 1.26577E-03-6.55221E-14
 -1      2874 9.18458E-03 1.21954E-03-6.45585E-14
 -1      2875 9.70099E-03 1.32451E-03-7.21622E-14
 -1      2876 9.55804E-03 1.30507E-03-6.99202E-14
 -1      2877 9.47055E-03 1.25895E-03-6.89275E-14
 -1      2878 9.98682E-03 1.36305E-03-7.67317E-14
 -1      2879 9.84392E-03 1.34384E-03-7.44322E-14
 -1      2880 9.75642E-03 1.29781E-03-7.34093E-14
 -1      2881 1.02726E-02 1.40120E-03-8.14068E-14
 -1      2882 1.01297E-02 1.38217E-03-7.90558E-14
 -1      2883 1.00422E-02 1.33622E-03-7.80055E-14
 -1      2884 1.05583E-02 1.43905E-03-8.61859E-14
 -1      2885 1.04154E-02 1.42016E-03-8.37847E-14
 -1      2886 1.03280E-02 1.37426E-03-8.27070E-14
 -1      2887 1.08440E-02 1.47667E-03-9.10562E-14
 -1      2888 1.07011E-02 1.45788E-03-8.86097E-14
 -1      2889 1.06137E-02 1.41203E-03-8.75076E-14
 -1      2890 1.11297E-02 1.51410E-03-9.60124E-14
 -1      2891 1.09868E-02 1.49540E-03-9.35243E-14
 -1      2892 1.08994E-02 1.44959E-03-9.23974E-14
 -1      2893 1.14153E-02 1.55141E-03-1.01052E-13
 -1      2894 1.12725E-02 1.53277E-03-9.85221E-14
 -1      2895 1.11851E-02 1.48698E-03-9.73749E-14
 -1      2896 1.17010E-02 1.58861E-03-1.06168E-13
 -1      2897 1.15581E-02 1.57002E-03-1.03601E-13
 -1      2898 1.14708E-02 1.52425E-03-1.02434E-13
 -1      2899 1.19866E-02 1.62575E-03-1.11371E-13
 -1      2900 1.18438E-02 1.60719E-03-1.08756E-13
 -1      2901 1.17565E-02 1.56143E-03-1.07572E-13
 -1      2902 1.22723E-02 1.66284E-03-1.16660E-13
 -1      2903 1.21295E-02 1.64430E-03-1.14004E-13
 -1      2904 1.20422E-02 1.59856E-03-1.12794E-13
 -1      2905 1.25580E-02 1.69990E-03-1.22031E-13
 -1      2906 1.24152E-02 1.68138E-03-1.19336E-13
 -1      2907 1.23279E-02 1.63564E-03-1.18106E-13
 -1      2908 1.28437E-02 1.73694E-03-1.27475E-13
 -1      2909 1.27008E-02 1.71842E-03-1.24744E-13
 -1      2910 1.26136E-02 1.67269E-03-1.23493E-13
 -1      2911 1.31294E-02 1.77397E-03-1.32984E-13
 -1      2912 1.29865E-02 1.75546E-03-1.30224E-13
 -1      2913 1.28993E-02 1.70973E-03-1.28952E-13
 -1      2914 1.34151E-02 1.81099E-03-1.38543E-13
 -1      2915 1.32722E-02 1.79248E-03-1.35757E-13
 -1      2916 1.31850E-02 1.74675E-03-1.34470E-13
 -1      2917 1.37008E-02 1.84801E-03-1.44143E-13
 -1      2918 1.35579E-02 1.82950E-03-1.41339E-13
 -1      2919 1.34707E-02 1.78377E-03-1.40039E-13
 -1      2920 1.39865E-02 1.88503E-03-1.49777E-13
 -1      2921 1.38436E-02 1.86652E-03-1.46956E-13
 -1      2922 1.37564E-02 1.82079E-03-1.45650E-13
 -1      2923 1.42722E-02 1.92206E-03-1.55436E-13
 -1      2924 1.41293E-02 1.90355E-03-1.52604E-13
 -1      2925 1.40421E-02 1.85782E-03-1.51292E-13
 -1      2926 1.45225E-02 1.94642E-03-1.60512E-13
 -1      2927 1.43797E-02 1.92790E-03-1.57669E-13
 -1      2928 1.42925E-02 1.88217E-03-1.56355E-13
 -1      2929 1.45075E-02 1.89385E-03-1.60829E-13
 -1      2930 1.43188E-02 1.48464E-03-1.61636E-13
 -1      2931 1.43370E-02 1.52680E-03-1.61539E-13
 -1      2932 1.43917E-02 1.65326E-03-1.61229E-13
 -1      2933 1.44099E-02 1.69541E-03-1.61121E-13
 -1      2934 1.42824E-02 1.40033E-03-1.61821E-13
 -1      2935 1.43006E-02 1.44249E-03-1.61733E-13
 -1      2936 1.41860E-02 1.44752E-03-1.59192E-13
 -1      2937 1.43552E-02 1.56895E-03-1.61437E-13
 -1      2938 1.43734E-02 1.61110E-03-1.61334E-13
 -1      2939 1.42588E-02 1.61614E-03-1.58804E-13
 -1      2940 1.42224E-02 1.53183E-03-1.59003E-13
 -1      2941 1.42466E-02 1.31745E-03-1.61991E-13
 -1      2942 1.42645E-02 1.35889E-03-1.61908E-13
 -1      2943 1.41498E-02 1.36393E-03-1.59369E-13
 -1      2944 1.42102E-02 1.23315E-03-1.62150E-13
 -1      2945 1.42284E-02 1.27530E-03-1.62071E-13
 -1      2946 1.41137E-02 1.28033E-03-1.59532E-13
 -1      2947 1.41738E-02 1.14884E-03-1.62294E-13
 -1      2948 1.41920E-02 1.19099E-03-1.62223E-13
 -1      2949 1.40773E-02 1.19603E-03-1.59682E-13
 -1      2950 1.41740E-02 1.08997E-03-1.62950E-13
 -1      2951 1.78195E-03 7.44452E-04-1.77175E-15
 -1      2952 1.58894E-03 6.37658E-04-1.42513E-15
 -1      2953 1.44039E-03 5.26120E-04-1.30352E-15
 -1      2954 1.17643E-03-1.01959E-04-1.69018E-15
 -1      2955 1.00016E-03-2.63048E-05-1.47899E-15
 -1      2956 9.23919E-04-3.01065E-04-7.47286E-16
 -1      2957 1.08374E-03-3.67986E-04-9.73559E-16
 -1      2958 9.76530E-04 2.93572E-04-7.01465E-16
 -1      2959 3.93517E-03-4.31785E-05-9.61082E-15
 -1      2960 3.74834E-03-1.39145E-04-9.09379E-15
 -1      2961 2.28221E-03-6.46048E-04-4.01117E-15
 -1      2962 2.12910E-03-5.90654E-04-3.54373E-15
 -1      2963 2.16478E-03 9.57972E-04-2.60284E-15
 -1      2964 1.97522E-03 8.54423E-04-2.16386E-15
 -1      2965 1.83598E-03 7.46658E-04-2.00108E-15
 -1      2966 5.88872E-04 6.03231E-05-7.73219E-16
 -1      2967 6.61303E-04 2.96241E-05-7.82320E-16
 -1      2968 4.88505E-03 2.83500E-04-1.17105E-14
 -1      2969 4.86652E-03 2.79648E-04-1.17143E-14
 -1      2970 3.23072E-03 1.09916E-03-6.31122E-15
 -1      2971 3.05015E-03 1.14307E-03-5.56263E-15
 -1      2972 2.96058E-03 1.13469E-03-5.26047E-15
 -1      2973 3.33482E-03 1.02629E-03-6.77713E-15
 -1      2974 1.24004E-03-4.28581E-04-1.23346E-15
 -1      2975 1.41369E-03-4.93901E-04-1.56604E-15
 -1      2976 1.48734E-03-4.81615E-04-1.76707E-15
 -1      2977 1.17119E-03-3.59587E-04-1.16371E-15
 -1      2978 2.57468E-03-6.80404E-04-5.05176E-15
 -1      2979 2.44001E-03-6.78454E-04-4.54666E-15
 -1      2980 3.74980E-03 7.37890E-04-8.14821E-15
 -1      2981 3.92367E-03 6.46712E-04-8.71991E-15
 -1      2982 4.30163E-03 1.17402E-04-1.05555E-14
 -1      2983 4.13796E-03 5.06279E-05-1.01513E-14
 -1      2984 5.29264E-04 5.16811E-05-6.45195E-16
 -1      2985 4.59633E-04 4.07186E-05-6.52060E-16
 -1      2986 4.77821E-04 5.31763E-05-8.07812E-16
 -1      2987 7.48520E-04-1.93206E-04-5.66821E-16
 -1      2988 4.29053E-04 7.00248E-05-9.54413E-16
 -1      2989 4.73644E-04 6.38875E-05-9.75159E-16
 -1      2990 8.03824E-04 4.53528E-05-1.30944E-15
 -1      2991 6.62454E-04 8.16639E-05-1.20636E-15
 -1      2992 8.42013E-04 1.49279E-04-1.25157E-15
 -1      2993 9.80692E-04 2.03537E-04-1.36006E-15
 -1      2994 1.51669E-03-2.77091E-04-2.18002E-15
 -1      2995 1.36310E-03-1.93524E-04-1.94335E-15
 -1      2996 4.14196E-03 5.43438E-04-9.44442E-15
 -1      2997 4.33275E-03 4.61089E-04-1.00294E-14
 -1      2998 5.58787E-04 9.85108E-05-1.13557E-15
 -1      2999 4.94679E-04 1.00148E-04-1.08769E-15
 -1      3000 4.38242E-04 9.43712E-05-9.78601E-16
 -1      3001 4.11811E-04 8.06392E-05-9.37405E-16
 -1      3002 4.51694E-03 3.86785E-04-1.05045E-14
 -1      3003 4.65535E-03 3.44599E-04-1.09146E-14
 -1      3004 2.88634E-03-6.00632E-04-6.23054E-15
 -1      3005 2.75092E-03-6.49069E-04-5.71499E-15
 -1      3006 3.37698E-03 9.38692E-04-6.85363E-15
 -1      3007 3.55168E-03 8.43641E-04-7.46942E-15
 -1      3008 3.54023E-03-2.51293E-04-8.44371E-15
 -1      3009 3.36830E-03-3.50606E-04-7.90142E-15
 -1      3010 1.64289E-03 5.71955E-04-1.98439E-15
 -1      3011 1.82707E-03 6.93433E-04-2.25777E-15
 -1      3012 4.29407E-04 8.76365E-05-7.45077E-16
 -1      3013 4.99347E-04 8.46573E-05-7.82902E-16
 -1      3014 8.42394E-04-1.09334E-04-8.16648E-16
 -1      3015 8.79236E-04-1.59201E-04-8.16147E-16
 -1      3016 3.90310E-04 6.77482E-05-7.96380E-16
 -1      3017 4.39085E-04 9.21942E-05-8.77716E-16
 -1      3018 6.49194E-04 8.53311E-05-7.95716E-16
 -1      3019 8.68665E-04 1.05822E-05-1.26371E-15
 -1      3020 1.69780E-03-4.01749E-04-2.44120E-15
 -1      3021 1.61345E-03-3.40193E-04-2.30934E-15
 -1      3022 1.49070E-03-2.99514E-04-2.02259E-15
 -1      3023 8.78842E-04-5.95322E-05-9.86177E-16
 -1      3024 1.05301E-03-1.25147E-04-1.23396E-15
 -1      3025 1.51168E-03 4.97440E-04-1.76130E-15
 -1      3026 2.66160E-03-6.74075E-04-5.42960E-15
 -1      3027 3.66292E-03-1.99992E-04-9.09856E-15
 -1      3028 2.97565E-03-5.70563E-04-6.66683E-15
 -1      3029 4.45357E-03 4.37352E-04-1.07086E-14
 -1      3030 2.60202E-03 1.12304E-03-3.96243E-15
 -1      3031 2.22982E-03 9.72436E-04-2.88154E-15
 -1      3032 2.01789E-03-5.49950E-04-3.22344E-15
 -1      3033 1.90633E-03-5.06365E-04-2.92005E-15
 -1      3034 2.08521E-03-5.94053E-04-3.39452E-15
 -1      3035 5.90272E-04 8.74184E-05-1.04516E-15
 -1      3036 1.44894E-02 1.85206E-03-1.60948E-13
 -1      3037 1.43819E-02 1.84622E-03-1.58709E-13
 -1      3038 1.44713E-02 1.81027E-03-1.61064E-13
 -1      3039 4.07391E-03 6.05625E-04-9.47238E-15
 -1      3040 3.29323E-03-4.05287E-04-7.83304E-15
 -1      3041 2.34817E-03-6.70484E-04-4.23771E-15
 -1      3042 4.75699E-03 3.28476E-04-1.15305E-14
 -1      3043 4.84245E-03 3.22806E-04-1.21586E-14
 -1      3044 4.72948E-03 3.55798E-04-1.18191E-14
 -1      3045 1.40593E-02 1.09500E-03-1.60405E-13
 -1      3046 5.55984E-04 6.81930E-05-9.71059E-16
 -1      3047 1.22641E-03-1.47902E-04-1.65654E-15
 -1      3048 1.07639E-03 3.20484E-04-8.83001E-16
 -1      3049 4.05498E-03-2.78463E-06-1.03178E-14
 -1      3050 4.90132E-03 2.93685E-04-1.20974E-14
 -1      3051 4.80181E-03 2.66107E-04-1.15172E-14
 -1      3052 4.71606E-03 2.49928E-04-1.12913E-14
 -1      3053 8.82683E-04-2.17559E-04-7.59484E-16
 -1      3054 4.85859E-03 2.75957E-04-1.21292E-14
 -1      3055 1.08235E-03 2.53567E-04-1.35958E-15
 -1      3056 1.44316E-02 1.73194E-03-1.61153E-13
 -1      3057 1.44497E-02 1.77374E-03-1.61038E-13
 -1      3058 1.43421E-02 1.76790E-03-1.58798E-13
 -1      3059 1.42987E-02 1.69483E-03-1.58736E-13
 -1      3060 4.47255E-03 1.77574E-04-1.10744E-14
 -1      3061 4.41439E-03 1.43599E-04-1.14022E-14
 -1      3062 3.67698E-03 8.06803E-04-8.04147E-15
 -1      3063 3.07911E-03 1.07348E-03-5.76020E-15
 -1      3064 3.20195E-03 1.02363E-03-6.22272E-15
 -1      3065 8.08277E-04-9.14397E-06-9.76189E-16
 -1      3066 2.02045E-03 8.18822E-04-2.59303E-15
 -1      3067 2.17535E-03 9.18108E-04-2.91130E-15
 -1      3068 6.65334E-04 9.00060E-05-1.04668E-15
 -1      3069 3.32303E-03 9.92236E-04-6.70990E-15
 -1      3070 1.90785E-03 7.60202E-04-2.28722E-15
 -1      3071 4.60162E-03 2.17204E-04-1.12999E-14
 -1      3072 2.27136E-03 9.77118E-04-3.10322E-15
 -1      3073 3.00132E-03 1.10481E-03-5.45763E-15
 -1      3074 1.00261E-03 2.56625E-04-9.06149E-16
 -1      3075 9.15224E-04 1.97431E-04-9.23496E-16
 -1      3076 1.18172E-03 3.61860E-04-1.04808E-15
 -1      3077 1.37036E-03 4.55048E-04-1.33499E-15
 -1      3078 1.19803E-03 3.24565E-04-1.30302E-15
 -1      3079 1.40111E-03 4.50644E-04-1.48368E-15
 -1      3080 1.72371E-03-5.38725E-04-2.34543E-15
 -1      3081 1.89896E-03-6.02163E-04-2.80876E-15
 -1      3082 2.07080E-03-6.59444E-04-3.32026E-15
 -1      3083 2.23891E-03-7.00039E-04-3.88077E-15
 -1      3084 2.40320E-03-7.08982E-04-4.48494E-15
 -1      3085 2.56942E-03-7.10832E-04-5.14455E-15
 -1      3086 2.72622E-03-6.85395E-04-5.81299E-15
 -1      3087 2.89699E-03-6.42210E-04-6.57043E-15
 -1      3088 3.41780E-03-4.71867E-04-9.17891E-15
 -1      3089 3.59509E-03-4.05496E-04-1.01207E-14
 -1      3090 3.77252E-03-3.42700E-04-1.11042E-14
 -1      3091 3.94679E-03-2.84920E-04-1.21282E-14
 -1      3092 3.72581E-03-3.17111E-04-1.06253E-14
 -1      3093 4.11859E-03-2.33107E-04-1.31920E-14
 -1      3094 4.28618E-03-1.86943E-04-1.42949E-14
 -1      3095 4.08016E-03-2.01808E-04-1.26778E-14
 -1      3096 4.45038E-03-1.46520E-04-1.54352E-14
 -1      3097 4.61070E-03-1.10555E-04-1.66120E-14
 -1      3098 4.41632E-03-1.13696E-04-1.48856E-14
 -1      3099 4.76795E-03-7.89746E-05-1.78257E-14
 -1      3100 4.92217E-03-5.06832E-05-1.90755E-14
 -1      3101 4.73492E-03-4.70162E-05-1.72414E-14
 -1      3102 5.07402E-03-2.55201E-05-2.03610E-14
 -1      3103 5.22377E-03-2.65725E-06-2.16812E-14
 -1      3104 5.03982E-03 5.04657E-06-1.97411E-14
 -1      3105 5.37188E-03 1.80989E-05-2.30351E-14
 -1      3106 5.51865E-03 3.73024E-05-2.44231E-14
 -1      3107 5.33530E-03 4.74666E-05-2.23803E-14
 -1      3108 5.66435E-03 5.51556E-05-2.58473E-14
 -1      3109 5.80924E-03 7.20176E-05-2.73032E-14
 -1      3110 5.62491E-03 8.37257E-05-2.51568E-14
 -1      3111 5.95349E-03 8.80763E-05-2.87922E-14
 -1      3112 6.09729E-03 1.03560E-04-3.03159E-14
 -1      3113 5.91115E-03 1.16207E-04-2.80687E-14
 -1      3114 6.24072E-03 1.18629E-04-3.18723E-14
 -1      3115 6.38392E-03 1.33424E-04-3.34636E-14
 -1      3116 6.19569E-03 1.46569E-04-3.11138E-14
 -1      3117 6.52691E-03 1.48072E-04-3.50893E-14
 -1      3118 6.66981E-03 1.62657E-04-3.67470E-14
 -1      3119 6.47952E-03 1.75967E-04-3.42951E-14
 -1      3120 6.81260E-03 1.77271E-04-3.84410E-14
 -1      3121 6.95537E-03 1.91961E-04-4.01697E-14
 -1      3122 6.76322E-03 2.05191E-04-3.76126E-14
 -1      3123 7.09809E-03 2.06789E-04-4.19322E-14
 -1      3124 7.24082E-03 2.21777E-04-4.37290E-14
 -1      3125 7.04709E-03 2.34758E-04-4.10668E-14
 -1      3126 7.38353E-03 2.36962E-04-4.55605E-14
 -1      3127 7.52627E-03 2.52350E-04-4.74252E-14
 -1      3128 7.33125E-03 2.64977E-04-4.46590E-14
 -1      3129 7.66900E-03 2.67960E-04-4.93246E-14
 -1      3130 7.81176E-03 2.83788E-04-5.12564E-14
 -1      3131 7.61573E-03 2.96008E-04-4.83865E-14
 -1      3132 7.95453E-03 2.99839E-04-5.32209E-14
 -1      3133 8.09732E-03 3.16105E-04-5.52183E-14
 -1      3134 7.90052E-03 3.27905E-04-5.22469E-14
 -1      3135 8.24011E-03 3.32579E-04-5.72474E-14
 -1      3136 8.38293E-03 3.49253E-04-5.93094E-14
 -1      3137 8.18556E-03 3.60648E-04-5.62388E-14
 -1      3138 8.52575E-03 3.66114E-04-6.14018E-14
 -1      3139 8.66859E-03 3.83152E-04-6.35233E-14
 -1      3140 8.47082E-03 3.94174E-04-6.03579E-14
 -1      3141 8.81143E-03 4.00354E-04-6.56747E-14
 -1      3142 8.95429E-03 4.17707E-04-6.78581E-14
 -1      3143 8.75623E-03 4.28397E-04-6.45979E-14
 -1      3144 9.09714E-03 4.35199E-04-7.00721E-14
 -1      3145 9.24001E-03 4.52818E-04-7.23129E-14
 -1      3146 9.04177E-03 4.63222E-04-6.89603E-14
 -1      3147 9.38287E-03 4.70550E-04-7.45807E-14
 -1      3148 9.52575E-03 4.88387E-04-7.68753E-14
 -1      3149 9.32740E-03 4.98550E-04-7.34382E-14
 -1      3150 9.66862E-03 5.06316E-04-7.91956E-14
 -1      3151 9.81149E-03 5.24329E-04-8.15413E-14
 -1      3152 9.61308E-03 5.34293E-04-7.80241E-14
 -1      3153 9.95436E-03 5.42414E-04-8.39123E-14
 -1      3154 1.00972E-02 5.60565E-04-8.63074E-14
 -1      3155 9.89880E-03 5.70370E-04-8.27130E-14
 -1      3156 1.02401E-02 5.78773E-04-8.87284E-14
 -1      3157 1.03830E-02 5.97031E-04-9.11734E-14
 -1      3158 1.01845E-02 6.06709E-04-8.75012E-14
 -1      3159 1.05259E-02 6.15333E-04-9.36391E-14
 -1      3160 1.06687E-02 6.33674E-04-9.61283E-14
 -1      3161 1.04703E-02 6.43253E-04-9.23838E-14
 -1      3162 1.08116E-02 6.52046E-04-9.86398E-14
 -1      3163 1.09545E-02 6.70448E-04-1.01170E-13
 -1      3164 1.07561E-02 6.79951E-04-9.73595E-14
 -1      3165 1.10973E-02 6.88872E-04-1.03722E-13
 -1      3166 1.12402E-02 7.07318E-04-1.06291E-13
 -1      3167 1.10418E-02 7.16765E-04-1.02419E-13
 -1      3168 1.13831E-02 7.25781E-04-1.08880E-13
 -1      3169 1.15260E-02 7.44259E-04-1.11488E-13
 -1      3170 1.13276E-02 7.53664E-04-1.07556E-13
 -1      3171 1.16688E-02 7.62748E-04-1.14114E-13
 -1      3172 1.18117E-02 7.81248E-04-1.16760E-13
 -1      3173 1.16133E-02 7.90623E-04-1.12770E-13
 -1      3174 1.19545E-02 7.99755E-04-1.19424E-13
 -1      3175 1.20974E-02 8.18269E-04-1.22105E-13
 -1      3176 1.18991E-02 8.27624E-04-1.18058E-13
 -1      3177 1.22403E-02 8.36788E-04-1.24805E-13
 -1      3178 1.23831E-02 8.55312E-04-1.27524E-13
 -1      3179 1.21848E-02 8.64653E-04-1.23420E-13
 -1      3180 1.25260E-02 8.73838E-04-1.30266E-13
 -1      3181 1.26689E-02 8.92367E-04-1.33026E-13
 -1      3182 1.24706E-02 9.01699E-04-1.28857E-13
 -1      3183 1.28117E-02 9.10897E-04-1.35800E-13
 -1      3184 1.29546E-02 9.29429E-04-1.38592E-13
 -1      3185 1.27563E-02 9.38756E-04-1.34372E-13
 -1      3186 1.30974E-02 9.47960E-04-1.41401E-13
 -1      3187 1.32403E-02 9.66492E-04-1.44227E-13
 -1      3188 1.30420E-02 9.75817E-04-1.39952E-13
 -1      3189 1.33832E-02 9.85024E-04-1.47063E-13
 -1      3190 1.35260E-02 1.00356E-03-1.49910E-13
 -1      3191 1.33277E-02 1.01288E-03-1.45594E-13
 -1      3192 4.91492E-03 6.12899E-04-1.53065E-14
 -1      3193 4.75663E-03 6.18009E-04-1.41627E-14
 -1      3194 5.21990E-03 6.19805E-04-1.77051E-14
 -1      3195 5.06904E-03 6.14123E-04-1.64872E-14
 -1      3196 5.02606E-03 5.68656E-04-1.59961E-14
 -1      3197 5.51498E-03 6.42419E-04-2.02497E-14
 -1      3198 5.36829E-03 6.29610E-04-1.89593E-14
 -1      3199 5.31783E-03 5.85491E-04-1.84352E-14
 -1      3200 5.80496E-03 6.75329E-04-2.29392E-14
 -1      3201 5.66037E-03 6.57869E-04-2.15767E-14
 -1      3202 5.60264E-03 6.14048E-04-2.10192E-14
 -1      3203 6.09255E-03 7.14797E-04-2.57684E-14
 -1      3204 5.94891E-03 6.94428E-04-2.43359E-14
 -1      3205 5.88472E-03 6.50268E-04-2.37441E-14
 -1      3206 6.37915E-03 7.58147E-04-2.87359E-14
 -1      3207 6.23589E-03 7.36109E-04-2.72355E-14
 -1      3208 6.16622E-03 6.91350E-04-2.66096E-14
 -1      3209 6.66541E-03 8.03494E-04-3.18410E-14
 -1      3210 6.52227E-03 7.80653E-04-3.02715E-14
 -1      3211 6.44813E-03 7.35273E-04-2.96129E-14
 -1      3212 6.95158E-03 8.49545E-04-3.50800E-14
 -1      3213 6.80847E-03 8.26484E-04-3.34433E-14
 -1      3214 6.73078E-03 7.80580E-04-3.27515E-14
 -1      3215 7.23774E-03 8.95461E-04-3.84557E-14
 -1      3216 7.09464E-03 8.72552E-04-3.67503E-14
 -1      3217 7.01418E-03 8.26258E-04-3.60252E-14
 -1      3218 7.52390E-03 9.40738E-04-4.19645E-14
 -1      3219 7.38081E-03 9.18197E-04-4.01940E-14
 -1      3220 7.29824E-03 8.71642E-04-3.94344E-14
 -1      3221 7.81004E-03 9.85106E-04-4.56049E-14
 -1      3222 7.66696E-03 9.63043E-04-4.37681E-14
 -1      3223 7.58282E-03 9.16336E-04-4.29756E-14
 -1      3224 8.09613E-03 1.02846E-03-4.93785E-14
 -1      3225 7.95308E-03 1.00691E-03-4.74761E-14
 -1      3226 7.86778E-03 9.60132E-04-4.66512E-14
 -1      3227 8.38217E-03 1.07081E-03-5.32814E-14
 -1      3228 8.23915E-03 1.04976E-03-5.13125E-14
 -1      3229 8.15302E-03 1.00296E-03-5.04543E-14
 -1      3230 8.66815E-03 1.11221E-03-5.73133E-14
 -1      3231 8.52516E-03 1.09162E-03-5.52813E-14
 -1      3232 8.43845E-03 1.04484E-03-5.43897E-14
 -1      3233 8.95408E-03 1.15276E-03-6.14733E-14
 -1      3234 8.81112E-03 1.13258E-03-5.93774E-14
 -1      3235 8.72402E-03 1.08584E-03-5.84540E-14
 -1      3236 9.23997E-03 1.19257E-03-6.57538E-14
 -1      3237 9.09703E-03 1.17275E-03-6.35989E-14
 -1      3238 9.00966E-03 1.12605E-03-6.26428E-14
 -1      3239 9.52581E-03 1.23177E-03-7.01505E-14
 -1      3240 9.38289E-03 1.21224E-03-6.79385E-14
 -1      3241 9.29536E-03 1.16559E-03-6.69518E-14
 -1      3242 9.81161E-03 1.27045E-03-7.46621E-14
 -1      3243 9.66871E-03 1.25117E-03-7.23922E-14
 -1      3244 9.58109E-03 1.20457E-03-7.13765E-14
 -1      3245 1.00974E-02 1.30872E-03-7.92834E-14
 -1      3246 9.95451E-03 1.28963E-03-7.69585E-14
 -1      3247 9.86684E-03 1.24308E-03-7.59149E-14
 -1      3248 1.03832E-02 1.34667E-03-8.40089E-14
 -1      3249 1.02403E-02 1.32773E-03-8.16330E-14
 -1      3250 1.01526E-02 1.28122E-03-8.05627E-14
 -1      3251 1.06689E-02 1.38436E-03-8.88328E-14
 -1      3252 1.05260E-02 1.36554E-03-8.64110E-14
 -1      3253 1.04384E-02 1.31906E-03-8.53133E-14
 -1      3254 1.09546E-02 1.42185E-03-9.37426E-14
 -1      3255 1.08118E-02 1.40313E-03-9.12764E-14
 -1      3256 1.07241E-02 1.35667E-03-9.01566E-14
 -1      3257 1.12404E-02 1.45920E-03-9.87391E-14
 -1      3258 1.10975E-02 1.44054E-03-9.62294E-14
 -1      3259 1.10099E-02 1.39411E-03-9.50882E-14
 -1      3260 1.15261E-02 1.49644E-03-1.03819E-13
 -1      3261 1.13832E-02 1.47783E-03-1.01268E-13
 -1      3262 1.12956E-02 1.43141E-03-1.00105E-13
 -1      3263 1.18118E-02 1.53360E-03-1.08979E-13
 -1      3264 1.16689E-02 1.51503E-03-1.06388E-13
 -1      3265 1.15813E-02 1.46862E-03-1.05205E-13
 -1      3266 1.20975E-02 1.57071E-03-1.14227E-13
 -1      3267 1.19547E-02 1.55216E-03-1.11593E-13
 -1      3268 1.18671E-02 1.50577E-03-1.10390E-13
 -1      3269 1.23832E-02 1.60778E-03-1.19554E-13
 -1      3270 1.22404E-02 1.58925E-03-1.16879E-13
 -1      3271 1.21528E-02 1.54286E-03-1.15656E-13
 -1      3272 1.26689E-02 1.64483E-03-1.24956E-13
 -1      3273 1.25261E-02 1.62631E-03-1.22248E-13
 -1      3274 1.24385E-02 1.57993E-03-1.21003E-13
 -1      3275 1.29546E-02 1.68186E-03-1.30428E-13
 -1      3276 1.28118E-02 1.66335E-03-1.27684E-13
 -1      3277 1.27243E-02 1.61697E-03-1.26420E-13
 -1      3278 1.32404E-02 1.71889E-03-1.35958E-13
 -1      3279 1.30975E-02 1.70038E-03-1.33186E-13
 -1      3280 1.30100E-02 1.65400E-03-1.31903E-13
 -1      3281 1.35261E-02 1.75591E-03-1.41538E-13
 -1      3282 1.33832E-02 1.73740E-03-1.38742E-13
 -1      3283 1.32957E-02 1.69102E-03-1.37446E-13
 -1      3284 1.38118E-02 1.79293E-03-1.47158E-13
 -1      3285 1.36689E-02 1.77442E-03-1.44343E-13
 -1      3286 1.35814E-02 1.72805E-03-1.43039E-13
 -1      3287 1.40975E-02 1.82996E-03-1.52811E-13
 -1      3288 1.39546E-02 1.81144E-03-1.49980E-13
 -1      3289 1.38671E-02 1.76507E-03-1.48668E-13
 -1      3290 1.42935E-02 1.84101E-03-1.56872E-13
 -1      3291 1.41859E-02 1.83517E-03-1.54639E-13
 -1      3292 1.40985E-02 1.78879E-03-1.53323E-13
 -1      3293 1.42754E-02 1.79922E-03-1.56987E-13
 -1      3294 1.39445E-02 1.15891E-03-1.57220E-13
 -1      3295 1.39627E-02 1.20106E-03-1.57151E-13
 -1      3296 4.50879E-03 1.54906E-04-1.22836E-14
 -1      3297 4.35194E-03 1.00259E-04-1.17400E-14
 -1      3298 4.42282E-03 4.81124E-04-1.09735E-14
 -1      3299 4.58261E-03 4.14573E-04-1.14718E-14
 -1      3300 1.40531E-02 1.41041E-03-1.56754E-13
 -1      3301 1.40713E-02 1.45256E-03-1.56664E-13
 -1      3302 4.00857E-03 6.71982E-04-9.46011E-15
 -1      3303 4.20414E-03 5.81440E-04-1.02137E-14
 -1      3304 1.20578E-03-2.01964E-04-1.44314E-15
 -1      3305 7.07759E-04 1.00843E-04-9.80241E-16
 -1      3306 1.39809E-02 1.24321E-03-1.57076E-13
 -1      3307 1.39991E-02 1.28537E-03-1.56998E-13
 -1      3308 1.38481E-02 1.20609E-03-1.54628E-13
 -1      3309 1.01795E-03-2.40575E-04-9.82057E-16
 -1      3310 4.59254E-03 6.29389E-04-1.30571E-14
 -1      3311 4.42235E-03 6.50683E-04-1.19895E-14
 -1      3312 4.71971E-03 5.70175E-04-1.37038E-14
 -1      3313 4.21203E-03 6.86724E-04-1.07834E-14
 -1      3314 4.02495E-03 7.33011E-04-9.80131E-15
 -1      3315 2.62428E-03 1.11001E-03-4.16166E-15
 -1      3316 2.72147E-03 1.12868E-03-4.44710E-15
 -1      3317 4.68157E-03 2.31469E-04-1.19356E-14
 -1      3318 5.81211E-04 7.25611E-05-8.37458E-16
 -1      3319 7.12231E-04 5.20961E-05-1.04008E-15
 -1      3320 4.17907E-03 2.98150E-05-1.11592E-14
 -1      3321 3.99846E-03-5.40694E-05-1.05927E-14
 -1      3322 4.29783E-03 5.12886E-05-1.20262E-14
 -1      3323 3.39699E-03-3.68546E-04-8.45201E-15
 -1      3324 3.23688E-03-4.57599E-04-7.83645E-15
 -1      3325 4.92116E-03 3.07406E-04-1.26402E-14
 -1      3326 4.94732E-03 2.99086E-04-1.28780E-14
 -1      3327 8.19330E-04 1.42260E-04-9.73017E-16
 -1      3328 1.17479E-03-2.96873E-04-1.24004E-15
 -1      3329 2.53496E-03 1.09169E-03-3.83867E-15
 -1      3330 4.91550E-03 2.84165E-04-1.28364E-14
 -1      3331 4.85031E-03 2.70450E-04-1.26322E-14
 -1      3332 1.40172E-02 1.32717E-03-1.56920E-13
 -1      3333 1.40351E-02 1.36861E-03-1.56838E-13
 -1      3334 1.39205E-02 1.37364E-03-1.54318E-13
 -1      3335 1.38844E-02 1.29004E-03-1.54477E-13
 -1      3336 1.39424E-02 1.06053E-03-1.58249E-13
 -1      3337 1.39422E-02 1.11940E-03-1.57602E-13
 -1      3338 1.38275E-02 1.12443E-03-1.55077E-13
 -1      3339 1.38228E-02 1.04542E-03-1.55833E-13
 -1      3340 3.77315E-03-1.64624E-04-9.80460E-15
 -1      3341 3.58528E-03-2.64476E-04-9.13041E-15
 -1      3342 2.32161E-03-6.83434E-04-4.16926E-15
 -1      3343 2.17619E-03-6.42995E-04-3.66620E-15
 -1      3344 3.02279E-03-5.73803E-04-7.02338E-15
 -1      3345 3.08011E-03-5.96984E-04-7.48784E-15
 -1      3346 3.25484E-03-5.32584E-04-8.34502E-15
 -1      3347 3.16476E-03-5.03582E-04-7.61390E-15
 -1      3348 4.77276E-03 2.47780E-04-1.26384E-14
 -1      3349 4.67697E-03 2.15690E-04-1.26404E-14
 -1      3350 4.85542E-03 2.59736E-04-1.33557E-14
 -1      3351 1.00922E-03 2.26952E-04-1.12856E-15
 -1      3352 8.78822E-04-6.65982E-06-1.18553E-15
 -1      3353 1.82418E-03-4.93823E-04-2.67581E-15
 -1      3354 1.69747E-03-4.52756E-04-2.35590E-15
 -1      3355 1.98057E-03-6.05084E-04-3.06049E-15
 -1      3356 1.68171E-03 6.34752E-04-1.80276E-15
 -1      3357 1.86045E-03 7.51415E-04-2.09335E-15
 -1      3358 3.51945E-03-3.28167E-04-9.12646E-15
 -1      3359 3.88227E-03 7.64831E-04-9.08231E-15
 -1      3360 1.37033E-02 1.03031E-03-1.53423E-13
 -1      3361 2.07109E-03-6.13539E-04-3.33503E-15
 -1      3362 2.25908E-03 9.79757E-04-2.99455E-15
 -1      3363 2.43845E-03 1.06182E-03-3.51555E-15
 -1      3364 3.68233E-03 8.35599E-04-8.17207E-15
 -1      3365 4.62611E-03 1.82632E-04-1.29925E-14
 -1      3366 4.58179E-03 1.44438E-04-1.33423E-14
 -1      3367 4.73502E-03 2.03310E-04-1.37165E-14
 -1      3368 1.41260E-02 1.57903E-03-1.56381E-13
 -1      3369 1.41442E-02 1.62118E-03-1.56282E-13
 -1      3370 4.67814E-03 4.28540E-04-1.23763E-14
 -1      3371 4.70021E-03 3.89698E-04-1.20990E-14
 -1      3372 4.80548E-03 3.74792E-04-1.27385E-14
 -1      3373 1.39567E-02 1.45760E-03-1.54146E-13
 -1      3374 1.40896E-02 1.49472E-03-1.56573E-13
 -1      3375 1.41078E-02 1.53687E-03-1.56480E-13
 -1      3376 1.42935E-03-2.99557E-04-1.84217E-15
 -1      3377 1.21765E-03-2.61011E-04-1.37840E-15
 -1      3378 4.91920E-03 3.24005E-04-1.29412E-14
 -1      3379 4.35766E-03 6.05094E-04-1.13782E-14
 -1      3380 2.69696E-03 1.13594E-03-4.31201E-15
 -1      3381 2.80723E-03 1.13821E-03-4.72521E-15
 -1      3382 2.51391E-03 1.09365E-03-3.71457E-15
 -1      3383 3.91620E-03-1.20709E-04-1.06207E-14
 -1      3384 1.41659E-02 1.65772E-03-1.56319E-13
 -1      3385 1.41876E-02 1.69425E-03-1.56356E-13
 -1      3386 1.40331E-02 1.62061E-03-1.53904E-13
 -1      3387 1.36479E-02 1.05817E-03-1.51936E-13
 -1      3388 3.50859E-03 9.28639E-04-7.49063E-15
 -1      3389 2.96642E-03 1.12565E-03-5.30289E-15
 -1      3390 5.01653E-03 3.10017E-04-1.39583E-14
 -1      3391 4.97101E-03 2.96874E-04-1.33945E-14
 -1      3392 4.98630E-03 2.93529E-04-1.39163E-14
 -1      3393 3.37618E-03-4.49370E-04-8.80170E-15
 -1      3394 3.34659E-03 1.01030E-03-6.82703E-15
 -1      3395 1.38405E-03-3.89184E-04-1.60963E-15
 -1      3396 1.54544E-03-4.52608E-04-1.94564E-15
 -1      3397 1.62014E-03-4.48691E-04-2.15008E-15
 -1      3398 3.27417E-03-4.71627E-04-8.21350E-15
 -1      3399 4.94264E-03 2.74493E-04-1.40544E-14
 -1      3400 4.87815E-03 2.51917E-04-1.40574E-14
 -1      3401 4.04749E-03-1.67535E-04-1.21639E-14
 -1      3402 4.22029E-03-1.18949E-04-1.32316E-14
 -1      3403 4.38773E-03-7.86638E-05-1.43370E-14
 -1      3404 4.54937E-03-4.35192E-05-1.54796E-14
 -1      3405 4.36508E-03-4.09418E-05-1.37897E-14
 -1      3406 4.70645E-03-1.36227E-05-1.66587E-14
 -1      3407 4.85945E-03 1.29484E-05-1.78729E-14
 -1      3408 4.68295E-03 2.15403E-05-1.60774E-14
 -1      3409 5.00920E-03 3.62583E-05-1.91229E-14
 -1      3410 5.15638E-03 5.75470E-05-2.04081E-14
 -1      3411 4.98247E-03 6.83812E-05-1.85073E-14
 -1      3412 5.30152E-03 7.68949E-05-2.17273E-14
 -1      3413 5.44518E-03 9.50018E-05-2.30802E-14
 -1      3414 5.27069E-03 1.06524E-04-2.10765E-14
 -1      3415 5.58767E-03 1.11972E-04-2.44687E-14
 -1      3416 5.72941E-03 1.28198E-04-2.58912E-14
 -1      3417 5.55268E-03 1.39956E-04-2.37836E-14
 -1      3418 5.87057E-03 1.43793E-04-2.73463E-14
 -1      3419 6.01144E-03 1.58980E-04-2.88345E-14
 -1      3420 5.83174E-03 1.70854E-04-2.66256E-14
 -1      3421 6.15208E-03 1.73868E-04-3.03572E-14
 -1      3422 6.29269E-03 1.88578E-04-3.19136E-14
 -1      3423 6.10985E-03 2.00516E-04-2.96023E-14
 -1      3424 6.43329E-03 2.03208E-04-3.35038E-14
 -1      3425 6.57399E-03 2.17821E-04-3.51282E-14
 -1      3426 6.38817E-03 2.29769E-04-3.27142E-14
 -1      3427 6.71479E-03 2.32496E-04-3.67861E-14
 -1      3428 6.85576E-03 2.47262E-04-3.84780E-14
 -1      3429 6.66726E-03 2.59151E-04-3.59616E-14
 -1      3430 6.99686E-03 2.62178E-04-4.02049E-14
 -1      3431 7.13815E-03 2.77253E-04-4.19652E-14
 -1      3432 6.94736E-03 2.89013E-04-3.93452E-14
 -1      3433 7.27959E-03 2.92524E-04-4.37612E-14
 -1      3434 7.42120E-03 3.07989E-04-4.55902E-14
 -1      3435 7.22851E-03 3.19563E-04-4.28658E-14
 -1      3436 7.56295E-03 3.23670E-04-4.74512E-14
 -1      3437 7.70486E-03 3.39557E-04-4.93464E-14
 -1      3438 7.51065E-03 3.50907E-04-4.65202E-14
 -1      3439 7.84689E-03 3.55660E-04-5.12765E-14
 -1      3440 7.98905E-03 3.71965E-04-5.32379E-14
 -1      3441 7.79364E-03 3.83069E-04-5.03074E-14
 -1      3442 8.13131E-03 3.88473E-04-5.52325E-14
 -1      3443 8.27367E-03 4.05169E-04-5.72596E-14
 -1      3444 8.07734E-03 4.16023E-04-5.42290E-14
 -1      3445 8.41610E-03 4.22048E-04-5.93170E-14
 -1      3446 8.55862E-03 4.39095E-04-6.14067E-14
 -1      3447 8.36162E-03 4.49708E-04-5.82796E-14
 -1      3448 8.70120E-03 4.56302E-04-6.35254E-14
 -1      3449 8.84384E-03 4.73655E-04-6.56732E-14
 -1      3450 8.64634E-03 4.84045E-04-6.24538E-14
 -1      3451 8.98652E-03 4.91143E-04-6.78533E-14
 -1      3452 9.12925E-03 5.08755E-04-7.00634E-14
 -1      3453 8.93139E-03 5.18945E-04-6.67497E-14
 -1      3454 9.27200E-03 5.26479E-04-7.23002E-14
 -1      3455 9.41479E-03 5.44305E-04-7.45640E-14
 -1      3456 9.21670E-03 5.54321E-04-7.11651E-14
 -1      3457 9.55760E-03 5.62222E-04-7.68551E-14
 -1      3458 9.70043E-03 5.80221E-04-7.91731E-14
 -1      3459 9.50219E-03 5.90089E-04-7.56896E-14
 -1      3460 9.84328E-03 5.98294E-04-8.15156E-14
 -1      3461 9.98614E-03 6.16431E-04-8.38831E-14
 -1      3462 9.78780E-03 6.26176E-04-8.03213E-14
 -1      3463 1.01290E-02 6.34626E-04-8.62771E-14
 -1      3464 1.02719E-02 6.52872E-04-8.86956E-14
 -1      3465 1.00735E-02 6.62516E-04-8.50546E-14
 -1      3466 1.04148E-02 6.71161E-04-9.11338E-14
 -1      3467 1.05576E-02 6.89490E-04-9.35969E-14
 -1      3468 1.03592E-02 6.99053E-04-8.98862E-14
 -1      3469 1.07005E-02 7.07851E-04-9.60819E-14
 -1      3470 1.08434E-02 7.26242E-04-9.85886E-14
 -1      3471 1.06450E-02 7.35742E-04-9.48082E-14
 -1      3472 1.09863E-02 7.44657E-04-1.01118E-13
 -1      3473 1.11292E-02 7.63094E-04-1.03667E-13
 -1      3474 1.09308E-02 7.72545E-04-9.98195E-14
 -1      3475 1.12721E-02 7.81549E-04-1.06235E-13
 -1      3476 1.14150E-02 8.00019E-04-1.08821E-13
 -1      3477 1.12166E-02 8.09433E-04-1.04915E-13
 -1      3478 1.15578E-02 8.18501E-04-1.11426E-13
 -1      3479 1.17007E-02 8.36995E-04-1.14052E-13
 -1      3480 1.15024E-02 8.46381E-04-1.10085E-13
 -1      3481 1.18436E-02 8.55497E-04-1.16695E-13
 -1      3482 1.19865E-02 8.74006E-04-1.19357E-13
 -1      3483 1.17881E-02 8.83372E-04-1.15334E-13
 -1      3484 1.21294E-02 8.92521E-04-1.22036E-13
 -1      3485 1.22722E-02 9.11040E-04-1.24735E-13
 -1      3486 1.20739E-02 9.20392E-04-1.20656E-13
 -1      3487 1.24151E-02 9.29563E-04-1.27453E-13
 -1      3488 1.25580E-02 9.48089E-04-1.30190E-13
 -1      3489 1.23597E-02 9.57431E-04-1.26054E-13
 -1      3490 1.27009E-02 9.66617E-04-1.32946E-13
 -1      3491 1.28437E-02 9.85146E-04-1.35717E-13
 -1      3492 1.26454E-02 9.94481E-04-1.31523E-13
 -1      3493 1.29866E-02 1.00368E-03-1.38504E-13
 -1      3494 1.31295E-02 1.02221E-03-1.41310E-13
 -1      3495 1.29312E-02 1.03154E-03-1.37063E-13
 -1      3496 1.32723E-02 1.04074E-03-1.44127E-13
 -1      3497 1.34152E-02 1.05927E-03-1.46959E-13
 -1      3498 1.32169E-02 1.06860E-03-1.42665E-13
 -1      3499 5.41094E-03 5.55928E-04-1.91692E-14
 -1      3500 5.27232E-03 5.42395E-04-1.79121E-14
 -1      3501 5.13263E-03 5.31277E-04-1.66901E-14
 -1      3502 4.99036E-03 5.23456E-04-1.55044E-14
 -1      3503 5.23192E-03 5.00184E-04-1.73885E-14
 -1      3504 5.96095E-03 6.27413E-04-2.45520E-14
 -1      3505 5.82332E-03 6.07621E-04-2.31539E-14
 -1      3506 6.23714E-03 6.69392E-04-2.74524E-14
 -1      3507 6.09881E-03 6.48047E-04-2.59849E-14
 -1      3508 6.03343E-03 6.06237E-04-2.53620E-14
 -1      3509 6.51503E-03 7.13407E-04-3.04914E-14
 -1      3510 6.37584E-03 6.91205E-04-2.89551E-14
 -1      3511 6.30520E-03 6.48499E-04-2.82978E-14
 -1      3512 6.79461E-03 7.58349E-04-3.36641E-14
 -1      3513 6.65460E-03 7.35803E-04-3.20608E-14
 -1      3514 6.57979E-03 6.92212E-04-3.13706E-14
 -1      3515 7.07568E-03 8.03431E-04-3.69717E-14
 -1      3516 6.93496E-03 7.80899E-04-3.53006E-14
 -1      3517 6.85687E-03 7.36538E-04-3.45780E-14
 -1      3518 7.35797E-03 8.48130E-04-4.04148E-14
 -1      3519 7.21667E-03 8.25844E-04-3.86765E-14
 -1      3520 7.13604E-03 7.80862E-04-3.79208E-14
 -1      3521 7.64121E-03 8.92132E-04-4.39882E-14
 -1      3522 7.49947E-03 8.70225E-04-4.21850E-14
 -1      3523 7.41688E-03 8.24770E-04-4.13964E-14
 -1      3524 7.92518E-03 9.35282E-04-4.76962E-14
 -1      3525 7.78311E-03 9.13815E-04-4.58253E-14
 -1      3526 7.69904E-03 8.68013E-04-4.50035E-14
 -1      3527 8.20970E-03 9.77531E-04-5.15332E-14
 -1      3528 8.06738E-03 9.56516E-04-4.95992E-14
 -1      3529 7.98221E-03 9.10469E-04-4.87434E-14
 -1      3530 8.49462E-03 1.01891E-03-5.54984E-14
 -1      3531 8.35211E-03 9.98324E-04-5.34994E-14
 -1      3532 8.26614E-03 9.52111E-04-5.26119E-14
 -1      3533 8.77982E-03 1.05948E-03-5.95949E-14
 -1      3534 8.63719E-03 1.03929E-03-5.75319E-14
 -1      3535 8.55063E-03 9.92968E-04-5.66105E-14
 -1      3536 9.06522E-03 1.09935E-03-6.38130E-14
 -1      3537 8.92250E-03 1.07950E-03-6.16888E-14
 -1      3538 8.83554E-03 1.03311E-03-6.07378E-14
 -1      3539 9.35077E-03 1.13861E-03-6.81518E-14
 -1      3540 9.20798E-03 1.11905E-03-6.59686E-14
 -1      3541 9.12074E-03 1.07262E-03-6.49860E-14
 -1      3542 9.63640E-03 1.17736E-03-7.26040E-14
 -1      3543 9.49357E-03 1.15804E-03-7.03629E-14
 -1      3544 9.40616E-03 1.11159E-03-6.93532E-14
 -1      3545 9.92210E-03 1.21569E-03-7.71703E-14
 -1      3546 9.77924E-03 1.19657E-03-7.48742E-14
 -1      3547 9.69172E-03 1.15012E-03-7.38337E-14
 -1      3548 1.02078E-02 1.25369E-03-8.18424E-14
 -1      3549 1.00650E-02 1.23473E-03-7.94931E-14
 -1      3550 9.97737E-03 1.18828E-03-7.84275E-14
 -1      3551 1.04936E-02 1.29143E-03-8.66179E-14
 -1      3552 1.03507E-02 1.27259E-03-8.42186E-14
 -1      3553 1.02631E-02 1.22614E-03-8.31273E-14
 -1      3554 1.07793E-02 1.32896E-03-9.14812E-14
 -1      3555 1.06365E-02 1.31022E-03-8.90389E-14
 -1      3556 1.05488E-02 1.26378E-03-8.79220E-14
 -1      3557 1.10651E-02 1.36635E-03-9.64333E-14
 -1      3558 1.09222E-02 1.34767E-03-9.39470E-14
 -1      3559 1.08346E-02 1.30125E-03-9.28075E-14
 -1      3560 1.13509E-02 1.40361E-03-1.01474E-13
 -1      3561 1.12080E-02 1.38499E-03-9.89427E-14
 -1      3562 1.11204E-02 1.33857E-03-9.77820E-14
 -1      3563 1.16366E-02 1.44080E-03-1.06593E-13
 -1      3564 1.14938E-02 1.42222E-03-1.04022E-13
 -1      3565 1.14062E-02 1.37580E-03-1.02842E-13
 -1      3566 1.19224E-02 1.47792E-03-1.11803E-13
 -1      3567 1.17795E-02 1.45937E-03-1.09187E-13
 -1      3568 1.16919E-02 1.41296E-03-1.07986E-13
 -1      3569 1.22081E-02 1.51501E-03-1.17086E-13
 -1      3570 1.20653E-02 1.49647E-03-1.14434E-13
 -1      3571 1.19777E-02 1.45007E-03-1.13212E-13
 -1      3572 1.24939E-02 1.55206E-03-1.22451E-13
 -1      3573 1.23510E-02 1.53354E-03-1.19760E-13
 -1      3574 1.22635E-02 1.48715E-03-1.18520E-13
 -1      3575 1.27796E-02 1.58910E-03-1.27882E-13
 -1      3576 1.26367E-02 1.57058E-03-1.25159E-13
 -1      3577 1.25492E-02 1.52420E-03-1.23899E-13
 -1      3578 1.30653E-02 1.62613E-03-1.33380E-13
 -1      3579 1.29225E-02 1.60762E-03-1.30623E-13
 -1      3580 1.28350E-02 1.56123E-03-1.29344E-13
 -1      3581 1.33511E-02 1.66316E-03-1.38935E-13
 -1      3582 1.32082E-02 1.64464E-03-1.36149E-13
 -1      3583 1.31207E-02 1.59826E-03-1.34854E-13
 -1      3584 1.36368E-02 1.70018E-03-1.44535E-13
 -1      3585 1.34939E-02 1.68167E-03-1.41729E-13
 -1      3586 1.34064E-02 1.63529E-03-1.40421E-13
 -1      3587 1.39225E-02 1.73720E-03-1.50180E-13
 -1      3588 1.37797E-02 1.71869E-03-1.47355E-13
 -1      3589 1.36922E-02 1.67231E-03-1.46037E-13
 -1      3590 1.39932E-02 1.54192E-03-1.53961E-13
 -1      3591 4.29095E-03 5.87973E-04-1.08338E-14
 -1      3592 4.35289E-03 5.25955E-04-1.08507E-14
 -1      3593 4.92837E-03 3.51351E-04-1.34818E-14
 -1      3594 5.00596E-03 3.34824E-04-1.39853E-14
 -1      3595 4.49375E-03 4.96071E-04-1.16158E-14
 -1      3596 3.44457E-03-4.02317E-04-9.04684E-15
 -1      3597 4.55957E-03 4.99455E-04-1.21180E-14
 -1      3598 4.61858E-03 4.61837E-04-1.22481E-14
 -1      3599 4.73484E-03 4.36934E-04-1.28926E-14
 -1      3600 4.41266E-03 6.75588E-05-1.29227E-14
 -1      3601 4.25552E-03 2.79356E-06-1.23147E-14
 -1      3602 1.37153E-02 1.16897E-03-1.52184E-13
 -1      3603 1.37335E-02 1.21112E-03-1.52113E-13
 -1      3604 1.36503E-02 1.09767E-03-1.51562E-13
 -1      3605 3.61423E-03-3.10224E-04-9.74957E-15
 -1      3606 1.42206E-02 1.72847E-03-1.56657E-13
 -1      3607 1.42423E-02 1.76500E-03-1.56687E-13
 -1      3608 1.41539E-02 1.75979E-03-1.54853E-13
 -1      3609 1.40878E-02 1.69136E-03-1.54248E-13
 -1      3610 3.80023E-03-2.40862E-04-1.07230E-14
 -1      3611 5.68601E-03 5.88932E-04-2.17908E-14
 -1      3612 5.54855E-03 5.71623E-04-2.04626E-14
 -1      3613 5.49795E-03 5.30540E-04-1.99063E-14
 -1      3614 5.76453E-03 5.66482E-04-2.25649E-14
 -1      3615 4.15849E-03-5.14443E-05-1.20668E-14
 -1      3616 3.95639E-03-1.45120E-04-1.12284E-14
 -1      3617 1.89054E-03-5.45708E-04-2.82347E-15
 -1      3618 5.01881E-03 2.90027E-04-1.46336E-14
 -1      3619 4.28603E-03-2.90334E-05-1.29586E-14
 -1      3620 2.06145E-03 8.68677E-04-2.52047E-15
 -1      3621 4.84696E-03 2.27474E-04-1.44247E-14
 -1      3622 4.81638E-03 1.97895E-04-1.47905E-14
 -1      3623 4.94973E-03 2.46726E-04-1.51461E-14
 -1      3624 1.38603E-02 1.50480E-03-1.51547E-13
 -1      3625 1.38786E-02 1.54696E-03-1.51452E-13
 -1      3626 4.92055E-03 3.79136E-04-1.37762E-14
 -1      3627 1.40654E-02 1.75458E-03-1.53023E-13
 -1      3628 4.49296E-03 5.59274E-04-1.20461E-14
 -1      3629 1.39779E-02 1.70820E-03-1.51702E-13
 -1      3630 1.37674E-02 1.54638E-03-1.49091E-13
 -1      3631 1.39002E-02 1.58349E-03-1.51494E-13
 -1      3632 1.39219E-02 1.62003E-03-1.51535E-13
 -1      3633 1.38239E-02 1.42048E-03-1.51722E-13
 -1      3634 1.38421E-02 1.46264E-03-1.51635E-13
 -1      3635 1.37275E-02 1.46768E-03-1.49134E-13
 -1      3636 1.50482E-03-3.56601E-04-1.95282E-15
 -1      3637 5.09048E-03 3.54171E-04-1.50885E-14
 -1      3638 5.05699E-03 3.29994E-04-1.45221E-14
 -1      3639 5.09824E-03 3.26630E-04-1.50639E-14
 -1      3640 4.89253E-03 4.73269E-04-1.44314E-14
 -1      3641 4.76979E-03 5.17864E-04-1.37847E-14
 -1      3642 4.53927E-03 1.02541E-04-1.36450E-14
 -1      3643 4.50519E-03 5.85782E-05-1.39450E-14
 -1      3644 4.66000E-03 1.31398E-04-1.43832E-14
 -1      3645 1.36187E-02 1.21580E-03-1.49609E-13
 -1      3646 1.37515E-02 1.25292E-03-1.52040E-13
 -1      3647 1.37696E-02 1.29472E-03-1.51966E-13
 -1      3648 4.61613E-03 5.23350E-04-1.26903E-14
 -1      3649 1.34869E-02 1.08045E-03-1.48261E-13
 -1      3650 1.36666E-02 1.14671E-03-1.51383E-13
 -1      3651 1.37877E-02 1.33670E-03-1.51886E-13
 -1      3652 1.38058E-02 1.37850E-03-1.51805E-13
 -1      3653 1.36911E-02 1.38354E-03-1.49302E-13
 -1      3654 1.36549E-02 1.29958E-03-1.49460E-13
 -1      3655 1.34315E-02 1.10831E-03-1.46785E-13
 -1      3656 4.96060E-03 1.00794E-04-1.78930E-14
 -1      3657 5.10300E-03 1.19149E-04-1.91436E-14
 -1      3658 5.24315E-03 1.35932E-04-2.04278E-14
 -1      3659 5.38208E-03 1.52028E-04-2.17465E-14
 -1      3660 5.21910E-03 1.65218E-04-1.97810E-14
 -1      3661 5.51996E-03 1.67412E-04-2.30995E-14
 -1      3662 5.65742E-03 1.82460E-04-2.44868E-14
 -1      3663 5.48955E-03 1.94354E-04-2.24186E-14
 -1      3664 5.79452E-03 1.97214E-04-2.59076E-14
 -1      3665 5.93165E-03 2.11837E-04-2.73615E-14
 -1      3666 5.75888E-03 2.22860E-04-2.51912E-14
 -1      3667 6.06883E-03 2.26392E-04-2.88491E-14
 -1      3668 6.20628E-03 2.40943E-04-3.03708E-14
 -1      3669 6.02892E-03 2.51470E-04-2.80986E-14
 -1      3670 6.34397E-03 2.55555E-04-3.19270E-14
 -1      3671 6.48204E-03 2.70247E-04-3.35164E-14
 -1      3672 6.30060E-03 2.80537E-04-3.11411E-14
 -1      3673 6.62045E-03 2.85077E-04-3.51392E-14
 -1      3674 6.75927E-03 3.00041E-04-3.67965E-14
 -1      3675 6.57429E-03 3.10241E-04-3.43192E-14
 -1      3676 6.89845E-03 3.15191E-04-3.84884E-14
 -1      3677 7.03801E-03 3.30508E-04-4.02133E-14
 -1      3678 6.85004E-03 3.40678E-04-3.76333E-14
 -1      3679 7.17792E-03 3.46033E-04-4.19716E-14
 -1      3680 7.31817E-03 3.61742E-04-4.37648E-14
 -1      3681 7.12773E-03 3.71897E-04-4.10816E-14
 -1      3682 7.45873E-03 3.77662E-04-4.55924E-14
 -1      3683 7.59959E-03 3.93771E-04-4.74507E-14
 -1      3684 7.40715E-03 4.03904E-04-4.46650E-14
 -1      3685 7.74070E-03 4.10083E-04-4.93437E-14
 -1      3686 7.88206E-03 4.26575E-04-5.12704E-14
 -1      3687 7.68803E-03 4.36670E-04-4.83837E-14
 -1      3688 8.02362E-03 4.43256E-04-5.32289E-14
 -1      3689 8.16539E-03 4.60104E-04-5.52212E-14
 -1      3690 7.97013E-03 4.70143E-04-5.22322E-14
 -1      3691 8.30732E-03 4.77120E-04-5.72445E-14
 -1      3692 8.44941E-03 4.94285E-04-5.92994E-14
 -1      3693 8.25321E-03 5.04256E-04-5.62124E-14
 -1      3694 8.59162E-03 5.11596E-04-6.13849E-14
 -1      3695 8.73396E-03 5.29037E-04-6.35012E-14
 -1      3696 8.53705E-03 5.38934E-04-6.03194E-14
 -1      3697 8.87638E-03 5.46602E-04-6.56493E-14
 -1      3698 9.01890E-03 5.64278E-04-6.78262E-14
 -1      3699 8.82148E-03 5.74097E-04-6.45502E-14
 -1      3700 9.16149E-03 5.82056E-04-7.00312E-14
 -1      3701 9.30414E-03 5.99927E-04-7.22658E-14
 -1      3702 9.10636E-03 6.09671E-04-6.89012E-14
 -1      3703 9.44684E-03 6.17881E-04-7.45279E-14
 -1      3704 9.58958E-03 6.35909E-04-7.68158E-14
 -1      3705 9.39155E-03 6.45583E-04-7.33673E-14
 -1      3706 9.73236E-03 6.54006E-04-7.91294E-14
 -1      3707 9.87517E-03 6.72161E-04-8.14693E-14
 -1      3708 9.67698E-03 6.81772E-04-7.79418E-14
 -1      3709 1.00180E-02 6.90370E-04-8.38348E-14
 -1      3710 1.01609E-02 7.08626E-04-8.62268E-14
 -1      3711 9.96256E-03 7.18181E-04-8.26185E-14
 -1      3712 1.03037E-02 7.26923E-04-8.86397E-14
 -1      3713 1.04466E-02 7.45256E-04-9.10773E-14
 -1      3714 1.02482E-02 7.54763E-04-8.73952E-14
 -1      3715 1.05895E-02 7.63620E-04-9.35383E-14
 -1      3716 1.07324E-02 7.82011E-04-9.60187E-14
 -1      3717 1.05340E-02 7.91479E-04-9.22687E-14
 -1      3718 1.08753E-02 8.00426E-04-9.85237E-14
 -1      3719 1.10182E-02 8.18861E-04-1.01050E-13
 -1      3720 1.08198E-02 8.28296E-04-9.72319E-14
 -1      3721 1.11611E-02 8.37314E-04-1.03597E-13
 -1      3722 1.13040E-02 8.55781E-04-1.06163E-13
 -1      3723 1.11056E-02 8.65190E-04-1.02281E-13
 -1      3724 1.14469E-02 8.74260E-04-1.08746E-13
 -1      3725 1.15898E-02 8.92750E-04-1.11350E-13
 -1      3726 1.13914E-02 9.02138E-04-1.07409E-13
 -1      3727 1.17327E-02 9.11248E-04-1.13974E-13
 -1      3728 1.18756E-02 9.29754E-04-1.16617E-13
 -1      3729 1.16772E-02 9.39126E-04-1.12617E-13
 -1      3730 1.20185E-02 9.48265E-04-1.19278E-13
 -1      3731 1.21613E-02 9.66781E-04-1.21958E-13
 -1      3732 1.19630E-02 9.76141E-04-1.17900E-13
 -1      3733 1.23042E-02 9.85301E-04-1.24654E-13
 -1      3734 1.24471E-02 1.00382E-03-1.27370E-13
 -1      3735 1.22488E-02 1.01317E-03-1.23257E-13
 -1      3736 1.25900E-02 1.02235E-03-1.30106E-13
 -1      3737 1.27329E-02 1.04088E-03-1.32857E-13
 -1      3738 1.25346E-02 1.05022E-03-1.28689E-13
 -1      3739 1.28757E-02 1.05940E-03-1.35625E-13
 -1      3740 1.30186E-02 1.07793E-03-1.38408E-13
 -1      3741 1.28203E-02 1.08727E-03-1.34190E-13
 -1      3742 1.31615E-02 1.09646E-03-1.41207E-13
 -1      3743 1.33044E-02 1.11499E-03-1.44021E-13
 -1      3744 1.31061E-02 1.12433E-03-1.39753E-13
 -1      3745 3.15277E-03 1.07874E-03-6.03971E-15
 -1      3746 6.64242E-03 6.71562E-04-3.22526E-14
 -1      3747 6.50596E-03 6.49914E-04-3.06820E-14
 -1      3748 6.37040E-03 6.28491E-04-2.91445E-14
 -1      3749 6.23572E-03 6.07281E-04-2.76409E-14
 -1      3750 6.43286E-03 6.08941E-04-2.99935E-14
 -1      3751 6.10210E-03 5.86488E-04-2.61738E-14
 -1      3752 5.96946E-03 5.66094E-04-2.47403E-14
 -1      3753 6.16707E-03 5.67583E-04-2.69876E-14
 -1      3754 6.91757E-03 7.15056E-04-3.54937E-14
 -1      3755 6.77962E-03 6.93272E-04-3.38562E-14
 -1      3756 6.70302E-03 6.51139E-04-3.31357E-14
 -1      3757 7.19526E-03 7.58484E-04-3.88703E-14
 -1      3758 7.05612E-03 7.36789E-04-3.71647E-14
 -1      3759 6.97677E-03 6.93664E-04-3.64114E-14
 -1      3760 7.47499E-03 8.01512E-04-4.23802E-14
 -1      3761 7.33489E-03 7.80054E-04-4.06096E-14
 -1      3762 7.25340E-03 7.36117E-04-3.98233E-14
 -1      3763 7.75631E-03 8.43937E-04-4.60223E-14
 -1      3764 7.61546E-03 8.22801E-04-4.41848E-14
 -1      3765 7.53232E-03 7.78220E-04-4.33668E-14
 -1      3766 8.03885E-03 8.85665E-04-4.97942E-14
 -1      3767 7.89744E-03 8.64887E-04-4.78914E-14
 -1      3768 7.81302E-03 8.19805E-04-4.70424E-14
 -1      3769 8.32232E-03 9.26676E-04-5.36931E-14
 -1      3770 8.18048E-03 9.06256E-04-5.17285E-14
 -1      3771 8.09511E-03 8.60795E-04-5.08454E-14
 -1      3772 8.60649E-03 9.67002E-04-5.77259E-14
 -1      3773 8.46433E-03 9.46920E-04-5.56939E-14
 -1      3774 8.37826E-03 9.01174E-04-5.47796E-14
 -1      3775 8.89117E-03 1.00670E-03-6.18814E-14
 -1      3776 8.74877E-03 9.86925E-04-5.97885E-14
 -1      3777 8.66219E-03 9.40970E-04-5.88416E-14
 -1      3778 9.17622E-03 1.04586E-03-6.61612E-14
 -1      3779 9.03366E-03 1.02634E-03-6.40062E-14
 -1      3780 8.94671E-03 9.80238E-04-6.30291E-14
 -1      3781 9.46154E-03 1.08455E-03-7.05565E-14
 -1      3782 9.31885E-03 1.06526E-03-6.83443E-14
 -1      3783 9.23165E-03 1.01904E-03-6.73373E-14
 -1      3784 9.74704E-03 1.12285E-03-7.50686E-14
 -1      3785 9.60427E-03 1.10374E-03-7.27979E-14
 -1      3786 9.51690E-03 1.05746E-03-7.17633E-14
 -1      3787 1.00327E-02 1.16084E-03-7.96863E-14
 -1      3788 9.88983E-03 1.14188E-03-7.73655E-14
 -1      3789 9.80236E-03 1.09554E-03-7.63041E-14
 -1      3790 1.03184E-02 1.19858E-03-8.44110E-14
 -1      3791 1.01755E-02 1.17973E-03-8.20355E-14
 -1      3792 1.00880E-02 1.13337E-03-8.09492E-14
 -1      3793 1.06041E-02 1.23612E-03-8.92270E-14
 -1      3794 1.04612E-02 1.21737E-03-8.68074E-14
 -1      3795 1.03737E-02 1.17098E-03-8.56950E-14
 -1      3796 1.08899E-02 1.27351E-03-9.41338E-14
 -1      3797 1.07470E-02 1.25483E-03-9.16711E-14
 -1      3798 1.06594E-02 1.20843E-03-9.05351E-14
 -1      3799 1.11757E-02 1.31079E-03-9.91327E-14
 -1      3800 1.10328E-02 1.29216E-03-9.66227E-14
 -1      3801 1.09452E-02 1.24576E-03-9.54662E-14
 -1      3802 1.14615E-02 1.34799E-03-1.04213E-13
 -1      3803 1.13186E-02 1.32940E-03-1.01662E-13
 -1      3804 1.12310E-02 1.28299E-03-1.00483E-13
 -1      3805 1.17473E-02 1.38512E-03-1.09379E-13
 -1      3806 1.16044E-02 1.36656E-03-1.06784E-13
 -1      3807 1.15168E-02 1.32016E-03-1.05588E-13
 -1      3808 1.20330E-02 1.42222E-03-1.14625E-13
 -1      3809 1.18901E-02 1.40367E-03-1.11993E-13
 -1      3810 1.18026E-02 1.35727E-03-1.10772E-13
 -1      3811 1.23188E-02 1.45928E-03-1.19951E-13
 -1      3812 1.21759E-02 1.44075E-03-1.17279E-13
 -1      3813 1.20884E-02 1.39435E-03-1.16040E-13
 -1      3814 1.26046E-02 1.49633E-03-1.25346E-13
 -1      3815 1.24617E-02 1.47781E-03-1.22639E-13
 -1      3816 1.23742E-02 1.43141E-03-1.21382E-13
 -1      3817 1.28903E-02 1.53336E-03-1.30807E-13
 -1      3818 1.27474E-02 1.51485E-03-1.28068E-13
 -1      3819 1.26599E-02 1.46846E-03-1.26792E-13
 -1      3820 1.31761E-02 1.57039E-03-1.36332E-13
 -1      3821 1.30332E-02 1.55188E-03-1.33562E-13
 -1      3822 1.29457E-02 1.50549E-03-1.32269E-13
 -1      3823 1.34618E-02 1.60742E-03-1.41908E-13
 -1      3824 1.33189E-02 1.58890E-03-1.39113E-13
 -1      3825 1.32314E-02 1.54252E-03-1.37807E-13
 -1      3826 4.89869E-03 4.14306E-04-1.39820E-14
 -1      3827 5.01918E-03 3.90113E-04-1.47569E-14
 -1      3828 5.32310E-03 4.75122E-04-1.80909E-14
 -1      3829 5.19626E-03 4.59998E-04-1.68656E-14
 -1      3830 5.09632E-03 3.06662E-04-1.53450E-14
 -1      3831 5.06444E-03 2.87024E-04-1.54880E-14
 -1      3832 4.44973E-03 6.82171E-06-1.40569E-14
 -1      3833 4.57485E-03 4.26125E-05-1.48056E-14
 -1      3834 1.35947E-02 1.43057E-03-1.46728E-13
 -1      3835 1.36129E-02 1.47273E-03-1.46641E-13
 -1      3836 1.39449E-02 1.67398E-03-1.51399E-13
 -1      3837 1.38121E-02 1.63687E-03-1.49001E-13
 -1      3838 5.15995E-03 3.27210E-04-1.59344E-14
 -1      3839 5.45019E-03 4.91377E-04-1.93512E-14
 -1      3840 5.40496E-03 4.54254E-04-1.87969E-14
 -1      3841 5.57850E-03 5.08856E-04-2.06458E-14
 -1      3842 4.66663E-03 5.77991E-05-1.54971E-14
 -1      3843 4.81562E-03 8.09578E-05-1.66773E-14
 -1      3844 1.33761E-02 1.13617E-03-1.45315E-13
 -1      3845 5.05403E-03 2.69402E-04-1.58737E-14
 -1      3846 5.03972E-03 2.47845E-04-1.62581E-14
 -1      3847 5.14885E-03 2.89397E-04-1.66120E-14
 -1      3848 5.09806E-03 4.08870E-04-1.56396E-14
 -1      3849 5.10178E-03 3.79420E-04-1.54205E-14
 -1      3850 1.37475E-02 1.64444E-03-1.47538E-13
 -1      3851 1.36047E-02 1.62593E-03-1.44717E-13
 -1      3852 1.36346E-02 1.50927E-03-1.46687E-13
 -1      3853 1.36563E-02 1.54580E-03-1.46732E-13
 -1      3854 1.35017E-02 1.47215E-03-1.44291E-13
 -1      3855 5.16347E-03 3.72056E-04-1.59817E-14
 -1      3856 5.04986E-03 4.55328E-04-1.55724E-14
 -1      3857 4.85263E-03 4.39834E-04-1.38484E-14
 -1      3858 1.35520E-02 1.15174E-03-1.48881E-13
 -1      3859 4.86351E-03 1.72328E-04-1.58062E-14
 -1      3860 4.74417E-03 1.42655E-04-1.50678E-14
 -1      3861 1.35765E-02 1.38858E-03-1.46812E-13
 -1      3862 1.34619E-02 1.39363E-03-1.44328E-13
 -1      3863 1.35584E-02 1.34660E-03-1.46890E-13
 -1      3864 5.83804E-03 5.46341E-04-2.33405E-14
 -1      3865 5.70761E-03 5.27184E-04-2.19765E-14
 -1      3866 5.65222E-03 4.89724E-04-2.13885E-14
 -1      3867 4.94399E-03 1.33783E-04-1.72803E-14
 -1      3868 1.35172E-02 1.57955E-03-1.43400E-13
 -1      3869 5.14784E-03 4.29011E-04-1.62400E-14
 -1      3870 1.34731E-02 1.16485E-03-1.47064E-13
 -1      3871 1.35218E-02 1.18711E-03-1.47857E-13
 -1      3872 1.35398E-02 1.22892E-03-1.47787E-13
 -1      3873 1.33459E-02 1.17154E-03-1.44297E-13
 -1      3874 5.90655E-03 5.27665E-04-2.41194E-14
 -1      3875 4.71627E-03 1.04184E-04-1.53798E-14
 -1      3876 1.35221E-02 1.26264E-03-1.47045E-13
 -1      3877 1.35403E-02 1.30462E-03-1.46968E-13
 -1      3878 1.34256E-02 1.30966E-03-1.44488E-13
 -1      3879 5.97028E-03 5.10100E-04-2.49010E-14
 -1      3880 5.84375E-03 4.91060E-04-2.35007E-14
 -1      3881 5.46125E-03 2.20287E-04-2.17386E-14
 -1      3882 5.59277E-03 2.33805E-04-2.30911E-14
 -1      3883 5.72451E-03 2.47507E-04-2.44769E-14
 -1      3884 5.85691E-03 2.61418E-04-2.58966E-14
 -1      3885 5.69127E-03 2.71097E-04-2.37654E-14
 -1      3886 5.98982E-03 2.75583E-04-2.73508E-14
 -1      3887 6.12349E-03 2.89965E-04-2.88368E-14
 -1      3888 5.95136E-03 2.98684E-04-2.66038E-14
 -1      3889 6.25778E-03 3.04611E-04-3.03572E-14
 -1      3890 6.39283E-03 3.19465E-04-3.19124E-14
 -1      3891 6.21535E-03 3.27739E-04-2.95759E-14
 -1      3892 6.52853E-03 3.34572E-04-3.35011E-14
 -1      3893 6.66493E-03 3.49876E-04-3.51231E-14
 -1      3894 6.48303E-03 3.58040E-04-3.26850E-14
 -1      3895 6.80195E-03 3.65421E-04-3.67799E-14
 -1      3896 6.93960E-03 3.81154E-04-3.84698E-14
 -1      3897 6.75405E-03 3.89389E-04-3.59288E-14
 -1      3898 7.07780E-03 3.97112E-04-4.01941E-14
 -1      3899 7.21655E-03 4.13249E-04-4.19509E-14
 -1      3900 7.02803E-03 4.21649E-04-3.93078E-14
 -1      3901 7.35578E-03 4.29591E-04-4.37417E-14
 -1      3902 7.49546E-03 4.46101E-04-4.55672E-14
 -1      3903 7.30454E-03 4.54699E-04-4.28220E-14
 -1      3904 7.63554E-03 4.62795E-04-4.74243E-14
 -1      3905 7.77600E-03 4.79642E-04-4.93152E-14
 -1      3906 7.58318E-03 4.88434E-04-4.64692E-14
 -1      3907 7.91679E-03 4.96653E-04-5.12393E-14
 -1      3908 8.05788E-03 5.13800E-04-5.31945E-14
 -1      3909 7.86356E-03 5.22763E-04-5.02477E-14
 -1      3910 8.19922E-03 5.31091E-04-5.51840E-14
 -1      3911 8.34081E-03 5.48501E-04-5.72043E-14
 -1      3912 8.14534E-03 5.57602E-04-5.41572E-14
 -1      3913 8.48259E-03 5.66034E-04-5.92566E-14
 -1      3914 8.62456E-03 5.83670E-04-6.13389E-14
 -1      3915 8.42821E-03 5.92878E-04-5.81962E-14
 -1      3916 8.76668E-03 6.01409E-04-6.34533E-14
 -1      3917 8.90893E-03 6.19235E-04-6.55992E-14
 -1      3918 8.71194E-03 6.28522E-04-6.23598E-14
 -1      3919 9.05130E-03 6.37147E-04-6.77732E-14
 -1      3920 9.19377E-03 6.55131E-04-6.99762E-14
 -1      3921 8.99631E-03 6.64471E-04-6.66468E-14
 -1      3922 9.33633E-03 6.73184E-04-7.22084E-14
 -1      3923 9.47895E-03 6.91296E-04-7.44686E-14
 -1      3924 9.28115E-03 7.00671E-04-7.10531E-14
 -1      3925 9.62164E-03 7.09464E-04-7.67551E-14
 -1      3926 9.76437E-03 7.27680E-04-7.90657E-14
 -1      3927 9.56634E-03 7.37074E-04-7.55696E-14
 -1      3928 9.90715E-03 7.45940E-04-8.14042E-14
 -1      3929 1.00500E-02 7.64237E-04-8.37674E-14
 -1      3930 9.85177E-03 7.73639E-04-8.01926E-14
 -1      3931 1.01928E-02 7.82568E-04-8.61556E-14
 -1      3932 1.03356E-02 8.00929E-04-8.85665E-14
 -1      3933 1.01374E-02 8.10332E-04-8.49159E-14
 -1      3934 1.04785E-02 8.19315E-04-9.10008E-14
 -1      3935 1.06214E-02 8.37724E-04-9.34598E-14
 -1      3936 1.04231E-02 8.47123E-04-8.97367E-14
 -1      3937 1.07643E-02 8.56152E-04-9.59416E-14
 -1      3938 1.09072E-02 8.74598E-04-9.84434E-14
 -1      3939 1.07088E-02 8.83991E-04-9.46521E-14
 -1      3940 1.10501E-02 8.93057E-04-1.00967E-13
 -1      3941 1.11930E-02 9.11530E-04-1.03511E-13
 -1      3942 1.09946E-02 9.20915E-04-9.96551E-14
 -1      3943 1.13359E-02 9.30012E-04-1.06074E-13
 -1      3944 1.14788E-02 9.48503E-04-1.08658E-13
 -1      3945 1.12805E-02 9.57881E-04-1.04741E-13
 -1      3946 1.16217E-02 9.67002E-04-1.11262E-13
 -1      3947 1.17646E-02 9.85507E-04-1.13885E-13
 -1      3948 1.15663E-02 9.94876E-04-1.09908E-13
 -1      3949 1.19075E-02 1.00402E-03-1.16524E-13
 -1      3950 1.20504E-02 1.02253E-03-1.19183E-13
 -1      3951 1.18521E-02 1.03189E-03-1.15150E-13
 -1      3952 1.21933E-02 1.04105E-03-1.21864E-13
 -1      3953 1.23362E-02 1.05957E-03-1.24559E-13
 -1      3954 1.21379E-02 1.06893E-03-1.20468E-13
 -1      3955 1.24791E-02 1.07809E-03-1.27273E-13
 -1      3956 1.26220E-02 1.09662E-03-1.30008E-13
 -1      3957 1.24237E-02 1.10597E-03-1.25860E-13
 -1      3958 1.27649E-02 1.11514E-03-1.32757E-13
 -1      3959 1.29078E-02 1.13367E-03-1.35521E-13
 -1      3960 1.27095E-02 1.14301E-03-1.31323E-13
 -1      3961 1.30507E-02 1.15219E-03-1.38301E-13
 -1      3962 1.31935E-02 1.17072E-03-1.41095E-13
 -1      3963 1.29952E-02 1.18006E-03-1.36851E-13
 -1      3964 6.49271E-03 5.89683E-04-3.08457E-14
 -1      3965 6.35994E-03 5.69320E-04-2.93072E-14
 -1      3966 5.23051E-03 4.17834E-04-1.69321E-14
 -1      3967 7.03456E-03 6.72282E-04-3.73326E-14
 -1      3968 6.89769E-03 6.51522E-04-3.56608E-14
 -1      3969 6.76170E-03 6.30828E-04-3.40215E-14
 -1      3970 6.62666E-03 6.10167E-04-3.24169E-14
 -1      3971 6.81867E-03 6.10371E-04-3.49103E-14
 -1      3972 6.22853E-03 5.49273E-04-2.78048E-14
 -1      3973 6.09855E-03 5.29453E-04-2.63362E-14
 -1      3974 6.28684E-03 5.31048E-04-2.86241E-14
 -1      3975 7.31051E-03 7.13703E-04-4.07786E-14
 -1      3976 7.17218E-03 6.93001E-04-3.90383E-14
 -1      3977 7.09109E-03 6.50720E-04-3.82566E-14
 -1      3978 7.58891E-03 7.54851E-04-4.43566E-14
 -1      3979 7.44943E-03 7.34312E-04-4.25517E-14
 -1      3980 7.36670E-03 6.91098E-04-4.17364E-14
 -1      3981 7.86923E-03 7.95584E-04-4.80648E-14
 -1      3982 7.72885E-03 7.75268E-04-4.61940E-14
 -1      3983 7.64484E-03 7.31297E-04-4.53476E-14
 -1      3984 8.15102E-03 8.35832E-04-5.18998E-14
 -1      3985 8.00996E-03 8.15766E-04-4.99663E-14
 -1      3986 7.92496E-03 7.71192E-04-4.90888E-14
 -1      3987 8.43395E-03 8.75584E-04-5.58672E-14
 -1      3988 8.29236E-03 8.55766E-04-5.38678E-14
 -1      3989 8.20661E-03 8.10719E-04-5.29578E-14
 -1      3990 8.71774E-03 9.14859E-04-5.99601E-14
 -1      3991 8.57575E-03 8.95276E-04-5.78978E-14
 -1      3992 8.48944E-03 8.49863E-04-5.69560E-14
 -1      3993 9.00215E-03 9.53703E-04-6.41790E-14
 -1      3994 8.85988E-03 9.34330E-04-6.20541E-14
 -1      3995 8.77315E-03 8.88638E-04-6.10825E-14
 -1      3996 9.28703E-03 9.92169E-04-6.85174E-14
 -1      3997 9.14454E-03 9.72978E-04-6.63333E-14
 -1      3998 9.05752E-03 9.27076E-04-6.53307E-14
 -1      3999 9.57224E-03 1.03031E-03-7.29752E-14
 -1      4000 9.42960E-03 1.01128E-03-7.07316E-14
 -1      4001 9.34237E-03 9.65219E-04-6.97019E-14
 -1      4002 9.85768E-03 1.06820E-03-7.75409E-14
 -1      4003 9.71493E-03 1.04928E-03-7.52439E-14
 -1      4004 9.62757E-03 1.00311E-03-7.41871E-14
 -1      4005 1.01433E-02 1.10586E-03-8.22125E-14
 -1      4006 1.00005E-02 1.08705E-03-7.98647E-14
 -1      4007 9.91300E-03 1.04080E-03-7.87813E-14
 -1      4008 1.04290E-02 1.14336E-03-8.69824E-14
 -1      4009 1.02861E-02 1.12463E-03-8.45848E-14
 -1      4010 1.01986E-02 1.07832E-03-8.34769E-14
 -1      4011 1.07147E-02 1.18073E-03-9.18444E-14
 -1      4012 1.05718E-02 1.16206E-03-8.94018E-14
 -1      4013 1.04843E-02 1.11571E-03-8.82716E-14
 -1      4014 1.10005E-02 1.21799E-03-9.67990E-14
 -1      4015 1.08576E-02 1.19937E-03-9.43113E-14
 -1      4016 1.07701E-02 1.15300E-03-9.31569E-14
 -1      4017 1.12863E-02 1.25518E-03-1.01838E-13
 -1      4018 1.11434E-02 1.23660E-03-9.93091E-14
 -1      4019 1.10559E-02 1.19021E-03-9.81340E-14
 -1      4020 1.15721E-02 1.29232E-03-1.06962E-13
 -1      4021 1.14292E-02 1.27376E-03-1.04389E-13
 -1      4022 1.13417E-02 1.22736E-03-1.03196E-13
 -1      4023 1.18579E-02 1.32942E-03-1.12168E-13
 -1      4024 1.17150E-02 1.31087E-03-1.09555E-13
 -1      4025 1.16275E-02 1.26448E-03-1.08338E-13
 -1      4026 1.21437E-02 1.36649E-03-1.17454E-13
 -1      4027 1.20008E-02 1.34796E-03-1.14802E-13
 -1      4028 1.19133E-02 1.30156E-03-1.13565E-13
 -1      4029 1.24295E-02 1.40354E-03-1.22813E-13
 -1      4030 1.22866E-02 1.38502E-03-1.20125E-13
 -1      4031 1.21991E-02 1.33862E-03-1.18870E-13
 -1      4032 1.27153E-02 1.44058E-03-1.28240E-13
 -1      4033 1.25724E-02 1.42206E-03-1.25517E-13
 -1      4034 1.24849E-02 1.37567E-03-1.24244E-13
 -1      4035 1.30011E-02 1.47762E-03-1.33734E-13
 -1      4036 1.28582E-02 1.45910E-03-1.30979E-13
 -1      4037 1.27707E-02 1.41271E-03-1.29688E-13
 -1      4038 1.32868E-02 1.51465E-03-1.39282E-13
 -1      4039 1.31439E-02 1.49613E-03-1.36504E-13
 -1      4040 1.30564E-02 1.44974E-03-1.35197E-13
 -1      4041 5.23698E-03 3.52073E-04-1.67832E-14
 -1      4042 5.24272E-03 3.29193E-04-1.70778E-14
 -1      4043 5.25290E-03 3.94696E-04-1.70371E-14
 -1      4044 5.22966E-03 3.69828E-04-1.66905E-14
 -1      4045 5.32976E-03 3.72932E-04-1.78619E-14
 -1      4046 5.30607E-03 4.13705E-04-1.76614E-14
 -1      4047 5.01695E-03 2.18975E-04-1.66292E-14
 -1      4048 4.96358E-03 1.70461E-04-1.69193E-14
 -1      4049 5.09633E-03 1.84325E-04-1.81422E-14
 -1      4050 5.12849E-03 2.45562E-04-1.73888E-14
 -1      4051 1.37246E-02 1.59049E-03-1.47671E-13
 -1      4052 5.21314E-03 1.95596E-04-1.92681E-14
 -1      4053 5.34455E-03 2.08940E-04-2.05559E-14
 -1      4054 5.44890E-03 2.47026E-04-2.11983E-14
 -1      4055 5.22362E-03 2.26433E-04-1.88836E-14
 -1      4056 1.35917E-02 1.55338E-03-1.45276E-13
 -1      4057 1.34252E-02 1.23395E-03-1.45303E-13
 -1      4058 6.02969E-03 4.92894E-04-2.56859E-14
 -1      4059 1.34489E-02 1.53486E-03-1.42465E-13
 -1      4060 1.32905E-02 1.19941E-03-1.42829E-13
 -1      4061 6.55026E-03 5.70359E-04-3.16988E-14
 -1      4062 5.25403E-03 3.14984E-04-1.74868E-14
 -1      4063 5.25857E-03 2.98838E-04-1.78943E-14
 -1      4064 5.35061E-03 3.40788E-04-1.83749E-14
 -1      4065 1.33614E-02 1.48847E-03-1.41146E-13
 -1      4066 5.42202E-03 4.30444E-04-1.89081E-14
 -1      4067 5.78046E-03 4.56327E-04-2.28837E-14
 -1      4068 5.71936E-03 4.72638E-04-2.21348E-14
 -1      4069 5.59706E-03 4.54521E-04-2.08030E-14
 -1      4070 1.33291E-02 1.35660E-03-1.41935E-13
 -1      4071 1.33472E-02 1.39858E-03-1.41852E-13
 -1      4072 1.33397E-02 1.45193E-03-1.41101E-13
 -1      4073 1.32069E-02 1.41490E-03-1.38724E-13
 -1      4074 7.14649E-03 6.28915E-04-3.91817E-14
 -1      4075 7.00984E-03 6.09255E-04-3.74754E-14
 -1      4076 5.91301E-03 3.20589E-04-2.58595E-14
 -1      4077 6.04234E-03 3.34958E-04-2.73113E-14
 -1      4078 6.17287E-03 3.49834E-04-2.87979E-14
 -1      4079 6.30463E-03 3.65016E-04-3.03178E-14
 -1      4080 6.13008E-03 3.70857E-04-2.80202E-14
 -1      4081 6.43744E-03 3.80590E-04-3.18706E-14
 -1      4082 6.57131E-03 3.96431E-04-3.34587E-14
 -1      4083 6.39156E-03 4.02206E-04-3.10596E-14
 -1      4084 6.70607E-03 4.12557E-04-3.50810E-14
 -1      4085 6.84174E-03 4.28900E-04-3.67358E-14
 -1      4086 6.65785E-03 4.34886E-04-3.42346E-14
 -1      4087 6.97820E-03 4.45491E-04-3.84255E-14
 -1      4088 7.11541E-03 4.62254E-04-4.01480E-14
 -1      4089 6.92818E-03 4.68611E-04-3.75449E-14
 -1      4090 7.25328E-03 4.79212E-04-4.19039E-14
 -1      4091 7.39178E-03 4.96312E-04-4.36937E-14
 -1      4092 7.20189E-03 5.03108E-04-4.09890E-14
 -1      4093 7.53082E-03 5.13572E-04-4.55163E-14
 -1      4094 7.67036E-03 5.30949E-04-4.73719E-14
 -1      4095 7.47837E-03 5.38190E-04-4.45665E-14
 -1      4096 7.81035E-03 5.48458E-04-4.92601E-14
 -1      4097 7.95074E-03 5.66064E-04-5.11812E-14
 -1      4098 7.75709E-03 5.73721E-04-4.82766E-14
 -1      4099 8.09148E-03 5.83777E-04-5.31354E-14
 -1      4100 8.23254E-03 6.01571E-04-5.51212E-14
 -1      4101 8.03761E-03 6.09599E-04-5.21163E-14
 -1      4102 8.37388E-03 6.19454E-04-5.71400E-14
 -1      4103 8.51545E-03 6.37403E-04-5.91890E-14
 -1      4104 8.31954E-03 6.45746E-04-5.60859E-14
 -1      4105 8.65724E-03 6.55423E-04-6.12694E-14
 -1      4106 8.79922E-03 6.73499E-04-6.33814E-14
 -1      4107 8.60257E-03 6.82101E-04-6.01830E-14
 -1      4108 8.94136E-03 6.91632E-04-6.55230E-14
 -1      4109 9.08363E-03 7.09810E-04-6.76966E-14
 -1      4110 8.88643E-03 7.18619E-04-6.44021E-14
 -1      4111 9.22602E-03 7.28034E-04-6.98985E-14
 -1      4112 9.36851E-03 7.46294E-04-7.21293E-14
 -1      4113 9.17091E-03 7.55265E-04-6.87468E-14
 -1      4114 9.51108E-03 7.64591E-04-7.43875E-14
 -1      4115 9.65372E-03 7.82917E-04-7.66719E-14
 -1      4116 9.45584E-03 7.92010E-04-7.32074E-14
 -1      4117 9.79642E-03 8.01271E-04-7.89831E-14
 -1      4118 9.93917E-03 8.19649E-04-8.13196E-14
 -1      4119 9.74110E-03 8.28831E-04-7.77759E-14
 -1      4120 1.00820E-02 8.38048E-04-8.36799E-14
 -1      4121 1.02248E-02 8.56465E-04-8.60655E-14
 -1      4122 1.00266E-02 8.65713E-04-8.24456E-14
 -1      4123 1.03676E-02 8.74899E-04-8.84758E-14
 -1      4124 1.05105E-02 8.93347E-04-9.09082E-14
 -1      4125 1.03122E-02 9.02639E-04-8.72152E-14
 -1      4126 1.06534E-02 9.11808E-04-9.33651E-14
 -1      4127 1.07963E-02 9.30279E-04-9.58443E-14
 -1      4128 1.05980E-02 9.39600E-04-9.20812E-14
 -1      4129 1.09392E-02 9.48759E-04-9.83447E-14
 -1      4130 1.10821E-02 9.67247E-04-1.00867E-13
 -1      4131 1.08837E-02 9.76587E-04-9.70358E-14
 -1      4132 1.12250E-02 9.85741E-04-1.03409E-13
 -1      4133 1.13679E-02 1.00424E-03-1.05971E-13
 -1      4134 1.11696E-02 1.01359E-03-1.02077E-13
 -1      4135 1.15108E-02 1.02275E-03-1.08556E-13
 -1      4136 1.16537E-02 1.04126E-03-1.11158E-13
 -1      4137 1.14554E-02 1.05061E-03-1.07204E-13
 -1      4138 1.17966E-02 1.05977E-03-1.13777E-13
 -1      4139 1.19396E-02 1.07828E-03-1.16417E-13
 -1      4140 1.17412E-02 1.08764E-03-1.12405E-13
 -1      4141 1.20825E-02 1.09680E-03-1.19077E-13
 -1      4142 1.22254E-02 1.11532E-03-1.21755E-13
 -1      4143 1.20270E-02 1.12468E-03-1.17686E-13
 -1      4144 1.23683E-02 1.13384E-03-1.24451E-13
 -1      4145 1.25112E-02 1.15236E-03-1.27162E-13
 -1      4146 1.23128E-02 1.16172E-03-1.23040E-13
 -1      4147 1.26541E-02 1.17089E-03-1.29892E-13
 -1      4148 1.27969E-02 1.18941E-03-1.32640E-13
 -1      4149 1.25986E-02 1.19876E-03-1.28464E-13
 -1      4150 1.29398E-02 1.20793E-03-1.35402E-13
 -1      4151 1.30827E-02 1.22646E-03-1.38179E-13
 -1      4152 1.28844E-02 1.23581E-03-1.33955E-13
 -1      4153 1.32728E-02 1.23313E-03-1.42095E-13
 -1      4154 7.42207E-03 6.68256E-04-4.26969E-14
 -1      4155 7.28392E-03 6.48574E-04-4.09221E-14
 -1      4156 7.20093E-03 6.06740E-04-4.01105E-14
 -1      4157 6.34232E-03 5.12728E-04-2.94461E-14
 -1      4158 6.21288E-03 4.94028E-04-2.79428E-14
 -1      4159 7.70018E-03 7.07524E-04-4.63403E-14
 -1      4160 7.56084E-03 6.87900E-04-4.45025E-14
 -1      4161 7.47674E-03 6.45084E-04-4.36576E-14
 -1      4162 7.98028E-03 7.46605E-04-5.01138E-14
 -1      4163 7.84001E-03 7.27088E-04-4.82109E-14
 -1      4164 7.75502E-03 6.83463E-04-4.73349E-14
 -1      4165 8.26192E-03 7.85436E-04-5.40159E-14
 -1      4166 8.12093E-03 7.66050E-04-5.20486E-14
 -1      4167 8.03525E-03 7.21771E-04-5.11413E-14
 -1      4168 8.54474E-03 8.23998E-04-5.80466E-14
 -1      4169 8.40320E-03 8.04749E-04-5.60158E-14
 -1      4170 8.31699E-03 7.59946E-04-5.50760E-14
 -1      4171 8.82845E-03 8.62296E-04-6.22049E-14
 -1      4172 8.68650E-03 8.43178E-04-6.01111E-14
 -1      4173 8.59988E-03 7.97962E-04-5.91409E-14
 -1      4174 9.11282E-03 9.00350E-04-6.64870E-14
 -1      4175 8.97056E-03 8.81351E-04-6.43309E-14
 -1      4176 8.88365E-03 8.35814E-04-6.33321E-14
 -1      4177 9.39768E-03 9.38190E-04-7.08886E-14
 -1      4178 9.25520E-03 9.19294E-04-6.86720E-14
 -1      4179 9.16807E-03 8.73512E-04-6.76456E-14
 -1      4180 9.68288E-03 9.75848E-04-7.54016E-14
 -1      4181 9.54024E-03 9.57040E-04-7.31319E-14
 -1      4182 9.45296E-03 9.11073E-04-7.20769E-14
 -1      4183 9.96832E-03 1.01336E-03-8.00236E-14
 -1      4184 9.82558E-03 9.94619E-04-7.76994E-14
 -1      4185 9.73819E-03 9.48515E-04-7.66203E-14
 -1      4186 1.02539E-02 1.05074E-03-8.47439E-14
 -1      4187 1.01111E-02 1.03206E-03-8.23719E-14
 -1      4188 1.00237E-02 9.85859E-04-8.12669E-14
 -1      4189 1.05396E-02 1.08803E-03-8.95607E-14
 -1      4190 1.03968E-02 1.06940E-03-8.71402E-14
 -1      4191 1.03093E-02 1.02312E-03-8.60116E-14
 -1      4192 1.08254E-02 1.12525E-03-9.44726E-14
 -1      4193 1.06825E-02 1.10665E-03-9.20051E-14
 -1      4194 1.05950E-02 1.06033E-03-9.08541E-14
 -1      4195 1.11112E-02 1.16241E-03-9.94698E-14
 -1      4196 1.09683E-02 1.14384E-03-9.69588E-14
 -1      4197 1.08808E-02 1.09748E-03-9.57865E-14
 -1      4198 1.13970E-02 1.19953E-03-1.04553E-13
 -1      4199 1.12541E-02 1.18098E-03-1.02003E-13
 -1      4200 1.11666E-02 1.13460E-03-1.00808E-13
 -1      4201 1.16829E-02 1.23662E-03-1.09717E-13
 -1      4202 1.15399E-02 1.21808E-03-1.07125E-13
 -1      4203 1.14524E-02 1.17169E-03-1.05913E-13
 -1      4204 1.19687E-02 1.27369E-03-1.14964E-13
 -1      4205 1.18258E-02 1.25516E-03-1.12331E-13
 -1      4206 1.17382E-02 1.20876E-03-1.11098E-13
 -1      4207 1.22545E-02 1.31075E-03-1.20286E-13
 -1      4208 1.21116E-02 1.29222E-03-1.17617E-13
 -1      4209 1.20241E-02 1.24582E-03-1.16364E-13
 -1      4210 1.25403E-02 1.34779E-03-1.25678E-13
 -1      4211 1.23974E-02 1.32927E-03-1.22974E-13
 -1      4212 1.23099E-02 1.28287E-03-1.21704E-13
 -1      4213 1.28261E-02 1.38483E-03-1.31139E-13
 -1      4214 1.26832E-02 1.36631E-03-1.28399E-13
 -1      4215 1.25957E-02 1.31992E-03-1.27113E-13
 -1      4216 1.30879E-02 1.40913E-03-1.36303E-13
 -1      4217 1.29450E-02 1.39061E-03-1.33537E-13
 -1      4218 1.28575E-02 1.34421E-03-1.32232E-13
 -1      4219 1.30955E-02 1.35577E-03-1.37047E-13
 -1      4220 5.24833E-03 2.78070E-04-1.81969E-14
 -1      4221 5.23930E-03 2.52899E-04-1.85890E-14
 -1      4222 5.34722E-03 2.62223E-04-1.97256E-14
 -1      4223 5.36298E-03 3.06776E-04-1.91096E-14
 -1      4224 5.48726E-03 4.14970E-04-1.96127E-14
 -1      4225 6.08522E-03 4.75768E-04-2.64725E-14
 -1      4226 5.95953E-03 4.57786E-04-2.50364E-14
 -1      4227 6.13759E-03 4.58199E-04-2.72618E-14
 -1      4228 6.60572E-03 5.50852E-04-3.25558E-14
 -1      4229 6.47333E-03 5.31647E-04-3.09835E-14
 -1      4230 6.39548E-03 4.93947E-04-3.02706E-14
 -1      4231 6.87411E-03 5.89684E-04-3.58014E-14
 -1      4232 6.73935E-03 5.70167E-04-3.41618E-14
 -1      4233 6.92825E-03 5.68599E-04-3.66949E-14
 -1      4234 5.65848E-03 2.93289E-04-2.30548E-14
 -1      4235 5.78509E-03 3.06624E-04-2.44406E-14
 -1      4236 5.87443E-03 3.41261E-04-2.51171E-14
 -1      4237 1.32355E-02 1.30299E-03-1.40553E-13
 -1      4238 1.31209E-02 1.30794E-03-1.38097E-13
 -1      4239 1.32174E-02 1.26100E-03-1.40629E-13
 -1      4240 5.43063E-03 3.65974E-04-1.91435E-14
 -1      4241 5.45168E-03 3.51314E-04-1.95758E-14
 -1      4242 6.65947E-03 5.30891E-04-3.34150E-14
 -1      4243 1.30019E-02 1.30216E-03-1.35680E-13
 -1      4244 5.43250E-03 3.84969E-04-1.90510E-14
 -1      4245 5.59887E-03 4.07422E-04-2.09488E-14
 -1      4246 5.44653E-03 2.72052E-04-2.07742E-14
 -1      4247 5.55701E-03 2.82501E-04-2.19619E-14
 -1      4248 5.64896E-03 3.16177E-04-2.26091E-14
 -1      4249 5.45260E-03 2.95348E-04-2.04614E-14
 -1      4250 6.34484E-03 4.22877E-04-3.02517E-14
 -1      4251 6.47628E-03 4.39487E-04-3.18036E-14
 -1      4252 6.66065E-03 4.83342E-04-3.38329E-14
 -1      4253 6.79469E-03 5.01017E-04-3.54643E-14
 -1      4254 6.92975E-03 5.18951E-04-3.71277E-14
 -1      4255 7.06574E-03 5.36983E-04-3.88266E-14
 -1      4256 7.20256E-03 5.55189E-04-4.05586E-14
 -1      4257 7.34014E-03 5.73457E-04-4.23227E-14
 -1      4258 7.47840E-03 5.91842E-04-4.41210E-14
 -1      4259 7.61726E-03 6.10259E-04-4.59513E-14
 -1      4260 7.75666E-03 6.28751E-04-4.78143E-14
 -1      4261 7.89654E-03 6.47257E-04-4.97096E-14
 -1      4262 8.03685E-03 6.65808E-04-5.16364E-14
 -1      4263 8.17753E-03 6.84361E-04-5.35967E-14
 -1      4264 8.31855E-03 7.02941E-04-5.55893E-14
 -1      4265 8.45985E-03 7.21516E-04-5.76136E-14
 -1      4266 8.60141E-03 7.40105E-04-5.96697E-14
 -1      4267 8.74318E-03 7.58686E-04-6.17557E-14
 -1      4268 8.88515E-03 7.77273E-04-6.38751E-14
 -1      4269 9.02728E-03 7.95852E-04-6.60240E-14
 -1      4270 9.16955E-03 8.14431E-04-6.82034E-14
 -1      4271 9.31194E-03 8.33003E-04-7.04122E-14
 -1      4272 9.45443E-03 8.51573E-04-7.26497E-14
 -1      4273 9.59701E-03 8.70137E-04-7.49144E-14
 -1      4274 9.73965E-03 8.88697E-04-7.72045E-14
 -1      4275 9.88236E-03 9.07252E-04-7.95215E-14
 -1      4276 1.00251E-02 9.25803E-04-8.18632E-14
 -1      4277 1.01679E-02 9.44350E-04-8.42302E-14
 -1      4278 1.03107E-02 9.62894E-04-8.66192E-14
 -1      4279 1.04536E-02 9.81435E-04-8.90343E-14
 -1      4280 1.05965E-02 9.99972E-04-9.14759E-14
 -1      4281 1.07393E-02 1.01851E-03-9.39345E-14
 -1      4282 1.08822E-02 1.03704E-03-9.64174E-14
 -1      4283 1.10251E-02 1.05557E-03-9.89226E-14
 -1      4284 1.11681E-02 1.07410E-03-1.01451E-13
 -1      4285 1.13110E-02 1.09263E-03-1.03997E-13
 -1      4286 1.14539E-02 1.11115E-03-1.06563E-13
 -1      4287 1.15968E-02 1.12968E-03-1.09152E-13
 -1      4288 1.17397E-02 1.14820E-03-1.11758E-13
 -1      4289 1.18826E-02 1.16673E-03-1.14383E-13
 -1      4290 1.20255E-02 1.18525E-03-1.17030E-13
 -1      4291 1.21684E-02 1.20377E-03-1.19695E-13
 -1      4292 1.23113E-02 1.22230E-03-1.22376E-13
 -1      4293 1.24542E-02 1.24082E-03-1.25077E-13
 -1      4294 1.25971E-02 1.25934E-03-1.27793E-13
 -1      4295 1.27400E-02 1.27786E-03-1.30526E-13
 -1      4296 1.28590E-02 1.28364E-03-1.32917E-13
 -1      4297 5.83613E-03 4.40397E-04-2.36353E-14
 -1      4298 5.71528E-03 4.23322E-04-2.22678E-14
 -1      4299 6.18729E-03 4.40040E-04-2.80538E-14
 -1      4300 6.06018E-03 4.23257E-04-2.65824E-14
 -1      4301 6.05487E-03 3.80308E-04-2.69557E-14
 -1      4302 6.18325E-03 3.95905E-04-2.84348E-14
 -1      4303 5.80347E-03 3.50668E-04-2.41002E-14
 -1      4304 5.92826E-03 3.65166E-04-2.55118E-14
 -1      4305 5.98010E-03 3.89041E-04-2.59052E-14
 -1      4306 6.47756E-03 4.85879E-04-3.14034E-14
 -1      4307 6.34679E-03 4.68096E-04-2.98581E-14
 -1      4308 5.64878E-03 3.92431E-04-2.16679E-14
 -1      4309 5.88743E-03 4.24062E-04-2.43895E-14
 -1      4310 5.93506E-03 4.07078E-04-2.51453E-14
 -1      4311 5.81225E-03 3.91304E-04-2.37432E-14
 -1      4312 5.68590E-03 3.77729E-04-2.22817E-14
 -1      4313 5.57051E-03 3.63604E-04-2.09635E-14
 -1      4314 5.48138E-03 3.36795E-04-2.01603E-14
 -1      4315 5.72741E-03 3.60819E-04-2.30051E-14
 -1      4316 6.26613E-03 4.31791E-04-2.91450E-14
 -1      4317 5.48241E-03 3.17097E-04-2.04827E-14
 -1      4318 6.60979E-03 5.03912E-04-3.29829E-14
 -1      4319 5.67542E-03 3.38376E-04-2.26311E-14
 -1      4320 5.57806E-03 3.27480E-04-2.15469E-14
 -3
    1PSTEP                         2           1           1          
  100CL  101 1.000000000        4320                     0    1           1
 -4  STRESS      6    1
 -5  SXX         1    4    1    1
 -5  SYY         1    4    2    2
 -5  SZZ         1    4    3    3
 -5  SXY         1    4    1    2
 -5  SYZ         1    4    2    3
 -5  SZX         1    4    3    1
 -1         1 6.41293E+01 8.23944E-01 3.37396E+00 2.00784E-01-4.49467E-14-4.94146E-13
 -1         2-6.72476E-01-2.25126E+01-3.29844E+00-1.19517E-01 2.04234E-13-3.79696E-14
 -1         3 1.99998E+01 9.57266E-06-3.79424E-05 9.71877E-06-5.11255E-13-5.96733E-13
 -1         4 1.99998E+01 8.99335E-06-3.86085E-05-9.31013E-06 1.71874E-13 2.20531E-13
 -1         5 4.17429E+01 7.90734E+00 3.28196E+00 7.25547E+00-4.39371E-14 3.56015E-12
 -1         6 4.27280E+01 1.46303E+01 6.03936E+00-1.00698E+01-2.24321E-13 3.41827E-12
 -1         7 2.49141E+01 7.27707E+00-1.10970E-01-5.21944E+00-2.69784E-14 6.75893E-13
 -1         8 2.29445E+01 6.91570E+00 9.80265E-02-3.28061E+00-3.27793E-14-1.40484E-13
 -1         9 2.16265E+01 6.51677E+00 1.24105E-01-2.08330E+00-2.89699E-14-5.53117E-13
 -1        10 2.03997E+01 6.13968E+00 1.51513E-01-9.62635E-01-1.03806E-14-7.33427E-13
 -1        11 1.89052E+01 5.68860E+00 1.50009E-01 1.09960E-01-5.39846E-15-8.23877E-13
 -1        12 1.70159E+01 5.12783E+00 1.02060E-01 9.92543E-01 7.06379E-15-8.77063E-13
 -1        13 1.48837E+01 4.50184E+00 5.28092E-03 1.46669E+00 9.60343E-15-9.13371E-13
 -1        14 1.30022E+01 3.95013E+00-1.10350E-01 1.38232E+00 1.35378E-14-9.43771E-13
 -1        15 1.19424E+01 3.64219E+00-1.90535E-01 7.88518E-01 1.15394E-14-9.52612E-13
 -1        16 1.21861E+01 3.71582E+00-1.87571E-01 1.64766E-02 6.73767E-15-9.27858E-13
 -1        17 1.37366E+01 4.17378E+00-1.02877E-01-5.30477E-01 9.25648E-15-8.47563E-13
 -1        18 1.61302E+01 4.88126E+00 1.04518E-02-5.41463E-01 1.26982E-14-7.16405E-13
 -1        19 1.87878E+01 5.67087E+00 9.62403E-02 1.76349E-02 2.42584E-14-5.24386E-13
 -1        20 2.13773E+01 6.44687E+00 1.33536E-01 1.01048E+00 3.36120E-14-2.31813E-13
 -1        21 2.39699E+01 7.22828E+00 1.48469E-01 2.35842E+00 4.15501E-14 2.95338E-13
 -1        22 2.73613E+01 8.15039E+00 2.76827E-01 4.41276E+00 5.35683E-15 1.30957E-12
 -1        23 2.82948E+01-1.65782E+00-1.08598E+00-7.68539E-01-1.44586E-13 2.68405E-12
 -1        24 2.40764E+01-9.12904E-02-3.04248E-01 7.33538E-02-3.59044E-14 2.05746E-12
 -1        25 2.27016E+01-3.91617E-02-2.58410E-02 3.29553E-02-1.08570E-14 1.43496E-12
 -1        26 2.13506E+01-1.01143E-02 2.65257E-02-2.64915E-02-9.87581E-15 9.96083E-13
 -1        27 1.99061E+01-1.52788E-02 1.24491E-03-5.18391E-02 8.74171E-15 7.88846E-13
 -1        28 1.85978E+01-2.83945E-02-4.00395E-02-4.84233E-02-1.32652E-14 5.73628E-13
 -1        29 1.77843E+01-3.85531E-02-7.03165E-02-1.73208E-02 1.48002E-14 3.04770E-13
 -1        30 1.77367E+01-3.78332E-02-7.26797E-02 2.70700E-02 8.39411E-15 1.22742E-13
 -1        31 1.84622E+01-2.52078E-02-4.66625E-02 6.31104E-02-1.48872E-14-4.66467E-14
 -1        32 1.96895E+01-6.56004E-03-7.74194E-03 7.60425E-02 1.79998E-14-2.14141E-13
 -1        33 2.10174E+01 1.00311E-02 2.46921E-02 6.58395E-02 1.39046E-14-3.22273E-13
 -1        34 2.21061E+01 1.94505E-02 4.01241E-02 4.31700E-02-6.02948E-14-4.55032E-13
 -1        35 2.27840E+01 2.12002E-02 3.96918E-02 1.97143E-02 1.18280E-14-5.15078E-13
 -1        36 2.30425E+01 1.77383E-02 3.02586E-02 2.17234E-03 3.33761E-14-4.63826E-13
 -1        37 2.29700E+01 1.21243E-02 1.85526E-02-7.97432E-03-3.75779E-14-5.10133E-13
 -1        38 2.26848E+01 6.57545E-03 8.55602E-03-1.21430E-02 4.46388E-15-4.31006E-13
 -1        39 2.22935E+01 2.18085E-03 1.60029E-03-1.25244E-02-3.75998E-14-4.46689E-13
 -1        40 2.18742E+01-7.95114E-04-2.48853E-03-1.09759E-02-2.96359E-14-4.63751E-13
 -1        41 2.14760E+01-2.52233E-03-4.44434E-03-8.72819E-03 3.70627E-14-5.58966E-13
 -1        42 2.11247E+01-3.31797E-03-5.02962E-03-6.46530E-03 6.90108E-15-5.11692E-13
 -1        43 2.08305E+01-3.49527E-03-4.83758E-03-4.50118E-03-1.10073E-13-6.09868E-13
 -1        44 2.05935E+01-3.30481E-03-4.26706E-03-2.93554E-03 6.83262E-14-4.54043E-13
 -1        45 2.04088E+01-2.92490E-03-3.56089E-03-1.75969E-03-1.28168E-14-2.58779E-13
 -1        46 2.02690E+01-2.47218E-03-2.85440E-03-9.19078E-04-7.58167E-14-6.11266E-13
 -1        47 2.01663E+01-2.01715E-03-2.21514E-03-3.46385E-04-2.52055E-15-6.89627E-13
 -1        48 2.00929E+01-1.59853E-03-1.67047E-03 2.27182E-05 7.37262E-14-4.36326E-13
 -1        49 2.00423E+01-1.23437E-03-1.22534E-03 2.43264E-04 2.34723E-14-2.94691E-13
 -1        50 2.00089E+01-9.30005E-04-8.73087E-04 3.59430E-04-1.82380E-14-3.65627E-13
 -1        51 1.99881E+01-6.83457E-04-6.01849E-04 4.05171E-04 2.95330E-14-2.70258E-13
 -1        52 1.99762E+01-4.88970E-04-3.98214E-04 4.05702E-04 3.03397E-14-2.41904E-13
 -1        53 1.99706E+01-3.39188E-04-2.49148E-04 3.79179E-04-3.27928E-15-6.53670E-13
 -1        54 1.99690E+01-2.26473E-04-1.42953E-04 3.38267E-04 3.16571E-14-8.07086E-13
 -1        55 1.99701E+01-1.43638E-04-6.96336E-05 2.91486E-04-4.22261E-14-8.98679E-13
 -1        56 1.99726E+01-8.43101E-05-2.09523E-05 2.44311E-04 4.84279E-14-5.07458E-13
 -1        57 1.99759E+01-4.30642E-05 9.69379E-06 2.00033E-04-1.03998E-14-2.85048E-13
 -1        58 1.99794E+01-1.54254E-05 2.74710E-05 1.60428E-04-1.69340E-15-4.43703E-13
 -1        59 1.99829E+01 2.20383E-06 3.63341E-05 1.26251E-04-5.62506E-14-4.80593E-13
 -1        60 1.99861E+01 1.26522E-05 3.92467E-05 9.76023E-05 8.49774E-15-4.25107E-13
 -1        61 1.99889E+01 1.80992E-05 3.83836E-05 7.41834E-05 5.97781E-14-2.04288E-13
 -1        62 1.99913E+01 2.01939E-05 3.53071E-05 5.54826E-05 9.76967E-15-7.73688E-14
 -1        63 1.99934E+01 2.01635E-05 3.11180E-05 4.08914E-05-1.35666E-13-4.01304E-13
 -1        64 1.99951E+01 1.89094E-05 2.65843E-05 2.97794E-05-1.37309E-14-9.51791E-13
 -1        65 1.99964E+01 1.70907E-05 2.22567E-05 2.15289E-05-3.96286E-14-1.14973E-12
 -1        66 1.99975E+01 1.51876E-05 1.85794E-05 1.55334E-05 1.94960E-14-9.35143E-13
 -1        67 1.99984E+01 1.35504E-05 1.60286E-05 1.11412E-05 7.87623E-14-3.20773E-13
 -1        68 1.99990E+01 1.23942E-05 1.51256E-05 7.53260E-06-1.72740E-14 3.18596E-13
 -1        69 1.99995E+01 1.16121E-05 1.59887E-05 3.36451E-06 3.69172E-14 2.97753E-13
 -1        70 1.99998E+01 9.38389E-06 1.54523E-05-4.43057E-06 6.06897E-14 7.53097E-13
 -1        71 1.99998E+01-1.70932E-06-1.26319E-06-1.45835E-05-7.31203E-14 5.76217E-13
 -1        72 2.92389E+01-4.94158E-01-1.13942E+00-5.55135E-01 4.68098E-14 3.28693E-12
 -1        73 2.81043E+01-4.19581E-02-2.33605E-01-1.17014E-01 3.01241E-14 2.54274E-12
 -1        74 2.70423E+01 1.01192E-02 4.23975E-02-3.02829E-02 1.10432E-14 2.05040E-12
 -1        75 2.53677E+01 6.62456E-03 9.01191E-02 3.84617E-02-1.15190E-14 1.84608E-12
 -1        76 2.29505E+01-1.75237E-02 3.40928E-02 1.16110E-01 1.00849E-14 1.59668E-12
 -1        77 2.02881E+01-4.36063E-02-7.72953E-02 1.58489E-01 1.11538E-14 1.34338E-12
 -1        78 1.84000E+01-5.05993E-02-1.71456E-01 1.18316E-01-2.01878E-14 1.28289E-12
 -1        79 1.81909E+01-3.34152E-02-1.74484E-01 5.88285E-03 2.55737E-14 1.07389E-12
 -1        80 1.97062E+01-5.52527E-03-8.48854E-02-1.03609E-01-1.28104E-14 7.71619E-13
 -1        81 2.20771E+01 1.68627E-02 2.56679E-02-1.45119E-01 3.70658E-14 4.72837E-13
 -1        82 2.42165E+01 2.63175E-02 8.98415E-02-1.19172E-01 3.03438E-14 2.11199E-13
 -1        83 2.54851E+01 2.43646E-02 9.50435E-02-6.60949E-02-2.91162E-14 1.01748E-13
 -1        84 2.58136E+01 1.67311E-02 6.75057E-02-1.96850E-02 5.34111E-15 3.87251E-14
 -1        85 2.54572E+01 8.40188E-03 3.44780E-02 8.37073E-03 3.04878E-16-1.90880E-14
 -1        86 2.47331E+01 1.99278E-03 9.81989E-03 2.04902E-02 1.67164E-14-6.88928E-14
 -1        87 2.38873E+01-1.95529E-03-4.22449E-03 2.28652E-02-8.11992E-15-2.90745E-13
 -1        88 2.30688E+01-3.89769E-03-1.03122E-02 2.05959E-02-3.25132E-14-1.93381E-13
 -1        89 2.23495E+01-4.51786E-03-1.17374E-02 1.67566E-02 7.02744E-14-5.03978E-13
 -1        90 2.17532E+01-4.39145E-03-1.09141E-02 1.28560E-02-7.69348E-14-5.56862E-13
 -1        91 2.12776E+01-3.90843E-03-9.25081E-03 9.48922E-03 1.88492E-14-2.45900E-13
 -1        92 2.09089E+01-3.30045E-03-7.44982E-03 6.80195E-03-1.08992E-14-5.19266E-13
 -1        93 2.06295E+01-2.69126E-03-5.81107E-03 4.75007E-03-4.20864E-14-3.49245E-13
 -1        94 2.04220E+01-2.13919E-03-4.43229E-03 3.22743E-03-1.34190E-14-5.30545E-13
 -1        95 2.02708E+01-1.66597E-03-3.32014E-03 2.12122E-03-2.36758E-14-4.08713E-13
 -1        96 2.01631E+01-1.27441E-03-2.44587E-03 1.33249E-03 1.79305E-14-2.54876E-13
 -1        97 2.00883E+01-9.58412E-04-1.77087E-03 7.81043E-04-1.80786E-14-4.60138E-13
 -1        98 2.00378E+01-7.08300E-04-1.25728E-03 4.04332E-04-7.87337E-14-6.38827E-13
 -1        99 2.00051E+01-5.13619E-04-8.71812E-04 1.54611E-04 6.90798E-14-9.91198E-13
 -1       100 1.99851E+01-3.64431E-04-5.86594E-04-4.12070E-06-1.54702E-13-7.41673E-13
 -1       101 1.99741E+01-2.51882E-04-3.78891E-04-9.87451E-05-2.47607E-14-2.22555E-13
 -1       102 1.99691E+01-1.68369E-04-2.30442E-04-1.49159E-04 5.01253E-14-3.82532E-13
 -1       103 1.99681E+01-1.07530E-04-1.26747E-04-1.69940E-04-4.50093E-14-3.23129E-13
 -1       104 1.99695E+01-6.41423E-05-5.63988E-05-1.71632E-04 7.06681E-14-3.74010E-14
 -1       105 1.99723E+01-3.39840E-05-1.05157E-05-1.61744E-04 1.19348E-13-5.12988E-13
 -1       106 1.99757E+01-1.36935E-05 1.77478E-05-1.45513E-04-2.00829E-13-4.73971E-13
 -1       107 1.99794E+01-6.31006E-07 3.36027E-05-1.26491E-04 7.17103E-14-4.77060E-13
 -1       108 1.99829E+01 7.24778E-06 4.09626E-05-1.07002E-04 3.43780E-14-7.73324E-13
 -1       109 1.99861E+01 1.15037E-05 4.27210E-05-8.84870E-05 3.42434E-14-3.93288E-13
 -1       110 1.99889E+01 1.33114E-05 4.09809E-05-7.17662E-05 4.29008E-14-1.25134E-12
 -1       111 1.99914E+01 1.35432E-05 3.72424E-05-5.72378E-05 1.09413E-14-1.23541E-12
 -1       112 1.99934E+01 1.28394E-05 3.25563E-05-4.50233E-05-6.38486E-14-7.99440E-13
 -1       113 1.99951E+01 1.16673E-05 2.76533E-05-3.50722E-05-4.77957E-14-6.50917E-13
 -1       114 1.99965E+01 1.03696E-05 2.30581E-05-2.72322E-05 2.07828E-14-3.86276E-13
 -1       115 1.99975E+01 9.20049E-06 1.92043E-05-2.12838E-05 9.08948E-14-5.03329E-13
 -1       116 1.99984E+01 8.32495E-06 1.65543E-05-1.69111E-05 5.86628E-14-9.21779E-13
 -1       117 1.99990E+01 7.82708E-06 1.56553E-05-1.36032E-05-7.01072E-14-8.63969E-13
 -1       118 1.99995E+01 7.53335E-06 1.66146E-05-1.03785E-05 3.23818E-14-3.78147E-13
 -1       119 1.99998E+01 5.81754E-06 1.58714E-05-3.89321E-06 1.05302E-13-1.59536E-12
 -1       120 1.99998E+01-6.46429E-06-2.70584E-06 1.08919E-05 2.37916E-13-1.83351E-12
 -1       121 1.99998E+01 3.51485E-05-8.56165E-07 1.60593E-05-1.79601E-12 1.49604E-13
 -1       122 1.99998E+01-3.76285E-05 1.60325E-05 1.50367E-07-7.34286E-13 1.05780E-13
 -1       123 1.99998E+01-3.06587E-04 1.24260E-05-9.80669E-06 2.93787E-13 2.74247E-13
 -1       124 1.99998E+01-6.97396E-04 4.69075E-06-1.42110E-05 2.17781E-13-1.96459E-13
 -1       125 1.99998E+01-1.12922E-03-2.67007E-06-1.45368E-05-5.55450E-13-3.98941E-13
 -1       126 1.99998E+01-1.52095E-03-8.42908E-06-1.23150E-05-2.64767E-12-1.32858E-13
 -1       127 1.99998E+01-1.82337E-03-1.23607E-05-8.10769E-06-1.91674E-12 3.25177E-13
 -1       128 1.99998E+01-1.98532E-03-1.43707E-05-2.79290E-06-1.45522E-12-1.37190E-13
 -1       129 1.99998E+01-1.98393E-03-1.43553E-05 2.88215E-06-6.84708E-13 3.35306E-13
 -1       130 1.99998E+01-1.81939E-03-1.23146E-05 8.17812E-06-6.31250E-15-4.23763E-13
 -1       131 1.99998E+01-1.51500E-03-8.27082E-06 1.24713E-05-5.79464E-13-1.90037E-13
 -1       132 1.99998E+01-1.12240E-03-2.57212E-06 1.45535E-05-1.11555E-12 2.44832E-13
 -1       133 1.99998E+01-6.90839E-04 4.71160E-06 1.40942E-05-2.77154E-13 2.22266E-13
 -1       134 1.99998E+01-2.99997E-04 1.31872E-05 1.08252E-05-6.59926E-13-2.35935E-13
 -1       135 1.99998E+01-3.87267E-05 1.41911E-05-1.55185E-07-9.70146E-13 1.68751E-13
 -1       136 1.99998E+01 3.21596E-05-1.34934E-06-2.66219E-05-6.24544E-13 4.80363E-14
 -1       137-1.42973E+00-1.81872E+01-3.06431E+00-3.50124E+00 2.29952E-12 6.46462E-13
 -1       138-1.14203E+00-6.96873E+00-2.25920E+00-2.17401E+00 3.97482E-12 1.92329E-12
 -1       139 3.73355E+00 4.24971E+00-1.06778E+00 4.29556E+00 3.83327E-12 2.86104E-12
 -1       140 1.67413E+01 1.07822E+01 4.17009E-01 1.33214E+01 2.92361E-12 3.31390E-12
 -1       141 3.55124E+01 1.02929E+01 1.88067E+00 1.86056E+01 1.90004E-12 3.36481E-12
 -1       142 5.37600E+01 5.59711E+00 3.00572E+00 1.62840E+01 8.09450E-13 2.24581E-12
 -1       143 6.55413E+01 1.39842E+00 3.64386E+00 5.23530E+00 7.33164E-14 2.13302E-14
 -1       144 6.25957E+01 2.07794E+00 3.40206E+00-7.78386E+00 4.51785E-13-2.29219E-12
 -1       145 4.70998E+01 6.30416E+00 2.41547E+00-1.62330E+01 1.52681E-12-4.04410E-12
 -1       146 2.76044E+01 9.80170E+00 1.00795E+00-1.61327E+01 2.86676E-12-4.55985E-12
 -1       147 9.49405E+00 7.79461E+00-5.82321E-01-8.74489E+00 3.95878E-12-3.98004E-12
 -1       148 7.35033E-01 3.68863E-01-1.74700E+00-1.01251E+00 4.13974E-12-2.73787E-12
 -1       149-1.55441E+00-9.53743E+00-2.46345E+00 3.14268E+00 3.18279E-12-1.24997E-12
 -1       150-8.84675E-01-1.64724E+01-2.72921E+00 2.31589E+00 1.39018E-12-2.72488E-13
 -1       151-5.68996E-01-1.72068E+01-2.67797E+00-8.02019E-01-8.20705E-13-1.00399E-13
 -1       152-1.09092E+00-1.17507E+01-2.38445E+00-2.73659E+00-2.73459E-12-7.71549E-13
 -1       153-4.47356E-01-2.41560E+00-1.80363E+00-5.46780E-01-3.92447E-12-2.06757E-12
 -1       154 6.34247E+00 6.95045E+00-7.85747E-01 6.81086E+00-4.15901E-12-3.51752E-12
 -1       155 1.90436E+01 1.04603E+01 4.09152E-01 1.40176E+01-3.30341E-12-4.16511E-12
 -1       156 3.89648E+01 8.19516E+00 1.82514E+00 1.70512E+01-1.89651E-12-3.90044E-12
 -1       157 5.67242E+01 3.32299E+00 2.91572E+00 1.16083E+01-6.55986E-13-2.56306E-12
 -1       158 5.92325E+01 2.94975E+00 3.18166E+00-1.13834E+01-3.29962E-13 1.35220E-12
 -1       159 4.53886E+01 7.62830E+00 2.47413E+00-1.77555E+01-1.11086E-12 2.58399E-12
 -1       160 2.76206E+01 1.12346E+01 1.36478E+00-1.72420E+01-2.24154E-12 3.21981E-12
 -1       161 1.17145E+01 9.82232E+00 5.03328E-02-1.06839E+01-3.30452E-12 3.21276E-12
 -1       162 2.10110E+00 2.38940E+00-1.24506E+00-2.62267E+00-3.60023E-12 2.44277E-12
 -1       163-1.45051E+00-9.18592E+00-2.35428E+00 2.93792E+00-2.93782E-12 1.23565E-12
 -1       164-1.11533E+00-1.86920E+01-3.03556E+00 3.15747E+00-1.48900E-12 3.36457E-13
 -1       165 2.49653E+01 4.04112E+00-7.32416E-02-3.99744E+00-4.39482E-13 2.79943E-13
 -1       166 2.32460E+01 4.24946E+00-6.03543E-02-2.89008E+00-3.62040E-13-2.12268E-13
 -1       167 2.20083E+01 4.10177E+00-4.05751E-02-1.82910E+00-2.43961E-13-4.75658E-13
 -1       168 2.06507E+01 3.83359E+00-2.88454E-02-7.39160E-01-9.24920E-14-5.93857E-13
 -1       169 1.88139E+01 3.66711E+00-2.26726E-02 3.14922E-01 4.19439E-14-6.79035E-13
 -1       170 1.64281E+01 3.74799E+00-1.88023E-02 1.13588E+00 1.35687E-13-7.30311E-13
 -1       171 1.38805E+01 4.08722E+00-1.49857E-02 1.46336E+00 1.90587E-13-7.93491E-13
 -1       172 1.18526E+01 4.50128E+00-1.46248E-02 1.17279E+00 1.83415E-13-8.49322E-13
 -1       173 1.12409E+01 4.69733E+00-1.51118E-02 4.49865E-01 1.37786E-13-8.56391E-13
 -1       174 1.23913E+01 4.54856E+00-1.66890E-02-2.52134E-01 9.68496E-14-7.92098E-13
 -1       175 1.49242E+01 4.21484E+00-2.04370E-02-4.60364E-01 1.02309E-13-6.76272E-13
 -1       176 1.80086E+01 3.98627E+00-2.66411E-02-3.12172E-02 1.67474E-13-4.88071E-13
 -1       177 2.10023E+01 3.99595E+00-3.93343E-02 8.76340E-01 2.71463E-13-2.39295E-13
 -1       178 2.38149E+01 4.09071E+00-5.72391E-02 2.02623E+00 3.71016E-13 1.32564E-13
 -1       179 2.69719E+01 3.68673E+00-6.91050E-02 3.20671E+00 3.95885E-13 7.53952E-13
 -1       180 2.97673E+01 1.07278E+00-3.95606E-01 2.84712E+00 3.27738E-13 1.55345E-12
 -1       181 2.64196E+01 8.41347E-01-4.74362E-03-2.32751E+00-3.98036E-13 9.14387E-13
 -1       182 2.44369E+01 5.00355E-02-1.41214E-02-1.31436E+00-3.42323E-13 7.43326E-13
 -1       183 2.30380E+01-2.14289E-02 1.39860E-02-1.13057E+00-2.60572E-13 6.01820E-13
 -1       184 2.19038E+01-1.69004E-03 1.19922E-02-1.11918E+00-1.64400E-13 4.49368E-13
 -1       185 2.09106E+01 9.33355E-02 7.96293E-03-9.84815E-01-1.60812E-13 2.80382E-13
 -1       186 2.01692E+01 1.98528E-01 5.44018E-03-6.13590E-01-1.71440E-13 1.67195E-13
 -1       187 1.98326E+01 2.45838E-01 4.04142E-03-5.88893E-02-1.35573E-13 4.84670E-14
 -1       188 1.99657E+01 2.01267E-01 3.31763E-03 4.95811E-01-1.18799E-13-7.35297E-14
 -1       189 2.04775E+01 8.95938E-02 2.73789E-03 8.54898E-01-1.14342E-13-1.33754E-13
 -1       190 2.11612E+01-2.94169E-02 1.48356E-03 9.27842E-01-8.55682E-14-2.04154E-13
 -1       191 2.17988E+01-1.06739E-01-3.89536E-04 7.59171E-01-1.10400E-13-3.64771E-13
 -1       192 2.22460E+01-1.29740E-01-2.02884E-03 4.67833E-01-6.48622E-14-3.79906E-13
 -1       193 2.24539E+01-1.13413E-01-2.90762E-03 1.68346E-01-3.82507E-16-3.65734E-13
 -1       194 2.24449E+01-7.97981E-02-2.92260E-03-7.02478E-02-6.41241E-15-3.49289E-13
 -1       195 2.22763E+01-4.52789E-02-2.31677E-03-2.25467E-01-4.13027E-15-2.22998E-13
 -1       196 2.20115E+01-1.78499E-02-1.46876E-03-3.04390E-01-7.09089E-14-2.49423E-13
 -1       197 2.17048E+01 6.09254E-04-6.53898E-04-3.26265E-01-7.14896E-17-2.91626E-13
 -1       198 2.13953E+01 1.12604E-02-1.73493E-05-3.11506E-01-4.78181E-14-3.44242E-13
 -1       199 2.11078E+01 1.62127E-02 4.03960E-04-2.76769E-01-6.18076E-14-4.38414E-13
 -1       200 2.08554E+01 1.74770E-02 6.34452E-04-2.33797E-01 1.53856E-14-5.46255E-13
 -1       201 2.06431E+01 1.66056E-02 7.21930E-04-1.89997E-01 5.93037E-14-3.59485E-13
 -1       202 2.04703E+01 1.46644E-02 7.15078E-04-1.49531E-01 1.01214E-13-4.43513E-13
 -1       203 2.03338E+01 1.23265E-02 6.53616E-04-1.14371E-01-3.76606E-14-3.10353E-13
 -1       204 2.02288E+01 9.98450E-03 5.66064E-04-8.51198E-02-7.42705E-14-1.31689E-13
 -1       205 2.01499E+01 7.84554E-03 4.71041E-04-6.15941E-02 8.00760E-14-1.31105E-13
 -1       206 2.00923E+01 6.00089E-03 3.79630E-04-4.32050E-02 6.63825E-14-9.17667E-14
 -1       207 2.00513E+01 4.47325E-03 2.97672E-04-2.91988E-02-5.41519E-14-1.49999E-13
 -1       208 2.00231E+01 3.24752E-03 2.27610E-04-1.87966E-02 7.16661E-14-1.75154E-13
 -1       209 2.00045E+01 2.29004E-03 1.69818E-04-1.12717E-02-5.78977E-14-2.48889E-13
 -1       210 1.99930E+01 1.56018E-03 1.23510E-04-5.98563E-03-1.94296E-13-3.14896E-13
 -1       211 1.99864E+01 1.01698E-03 8.73304E-05-2.40046E-03-3.98013E-14-1.68167E-13
 -1       212 1.99833E+01 6.22669E-04 5.97212E-05-7.72881E-05 4.88237E-14-1.39031E-13
 -1       213 1.99825E+01 3.44271E-04 3.91367E-05 1.33265E-03 1.45777E-13-8.35794E-14
 -1       214 1.99831E+01 1.54101E-04 2.41595E-05 2.10005E-03 1.34216E-13-2.25446E-13
 -1       215 1.99846E+01 2.95905E-05 1.35540E-05 2.43039E-03-3.29191E-14-2.43939E-13
 -1       216 1.99864E+01-4.71977E-05 6.28181E-06 2.47619E-03-5.90052E-14-1.13611E-13
 -1       217 1.99884E+01-9.02111E-05 1.49446E-06 2.34797E-03-7.45752E-14-2.24057E-13
 -1       218 1.99904E+01-1.10073E-04-1.48488E-06 2.12369E-03 1.33709E-13-9.25237E-14
 -1       219 1.99922E+01-1.14720E-04-3.18546E-06 1.85651E-03 2.67880E-14-6.85212E-14
 -1       220 1.99938E+01-1.09972E-04-4.01399E-06 1.58113E-03-2.71208E-13-1.04702E-13
 -1       221 1.99951E+01-1.00034E-04-4.27853E-06 1.31866E-03-2.98734E-13-2.10946E-13
 -1       222 1.99963E+01-8.79225E-05-4.20871E-06 1.08036E-03 1.91300E-14-2.77675E-13
 -1       223 1.99973E+01-7.58384E-05-3.96643E-06 8.70375E-04 2.17620E-13 3.66338E-14
 -1       224 1.99980E+01-6.54912E-05-3.65291E-06 6.87550E-04 4.82449E-13 3.02909E-13
 -1       225 1.99987E+01-5.82757E-05-3.25709E-06 5.26695E-04 3.11114E-13 3.24390E-13
 -1       226 1.99991E+01-5.54911E-05-2.69372E-06 3.79515E-04 1.32490E-13 3.02637E-13
 -1       227 1.99995E+01-5.74406E-05-2.19706E-06 2.36558E-04 1.11838E-13 3.48592E-13
 -1       228 1.99997E+01-5.97783E-05-1.61069E-06 9.48034E-05-2.59913E-14 2.77305E-13
 -1       229 2.82709E+01 1.17121E-01-5.03583E-02 1.13594E+00 3.38847E-13 1.39242E-12
 -1       230 2.68775E+01-8.65170E-02 1.79155E-02 9.12039E-01 1.95067E-13 1.20592E-12
 -1       231 2.56004E+01-1.63097E-01 2.29597E-02 1.23663E+00 1.04518E-13 1.06762E-12
 -1       232 2.41143E+01-9.24323E-02 1.13058E-02 1.58730E+00 1.94702E-13 9.37667E-13
 -1       233 2.25535E+01 1.16023E-01-6.67609E-03 1.53740E+00 1.31972E-13 7.58987E-13
 -1       234 2.13899E+01 3.40034E-01-2.18514E-02 8.56240E-01 9.12135E-14 5.63803E-13
 -1       235 2.11110E+01 3.93551E-01-2.26540E-02-2.27089E-01 1.89963E-13 3.75222E-13
 -1       236 2.17792E+01 2.25856E-01-9.06585E-03-1.12320E+00 1.67931E-13 1.25702E-13
 -1       237 2.29436E+01-1.82736E-02 5.76255E-03-1.39692E+00 1.51480E-13-6.82440E-14
 -1       238 2.40110E+01-1.75258E-01 1.08357E-02-1.08690E+00 1.09416E-13-9.53196E-14
 -1       239 2.46202E+01-2.04276E-01 7.03639E-03-5.21956E-01 4.39987E-14-2.07387E-13
 -1       240 2.47126E+01-1.55184E-01 1.42378E-03 4.28158E-04 5.07368E-14-2.70834E-13
 -1       241 2.44079E+01-8.73545E-02-2.07577E-03 3.47589E-01-1.92155E-14-2.89218E-13
 -1       242 2.38723E+01-3.24842E-02-2.93312E-03 5.16060E-01 2.26801E-14-2.14223E-13
 -1       243 2.32470E+01 1.91278E-03-2.28626E-03 5.55616E-01 4.92812E-14-1.51115E-13
 -1       244 2.26272E+01 1.93280E-02-1.22394E-03 5.20424E-01-3.95617E-14-1.74288E-13
 -1       245 2.20657E+01 2.57149E-02-3.12737E-04 4.50860E-01 1.51404E-13-1.62757E-13
 -1       246 2.15854E+01 2.60041E-02 2.82174E-04 3.71716E-01-7.73085E-14-1.52402E-13
 -1       247 2.11905E+01 2.34188E-02 5.90926E-04 2.96105E-01-9.64482E-14-1.81761E-13
 -1       248 2.08752E+01 1.98017E-02 7.01223E-04 2.29820E-01 8.89314E-14-5.37890E-14
 -1       249 2.06294E+01 1.60984E-02 6.94416E-04 1.74574E-01-7.83293E-14-1.78832E-13
 -1       250 2.04415E+01 1.27366E-02 6.28343E-04 1.30036E-01 1.22884E-13-1.99798E-13
 -1       251 2.03006E+01 9.86850E-03 5.38791E-04 9.49898E-02-4.09857E-14-3.35742E-13
 -1       252 2.01969E+01 7.51111E-03 4.45742E-04 6.79463E-02-7.16708E-14-2.85382E-13
 -1       253 2.01222E+01 5.62153E-03 3.59229E-04 4.74369E-02 2.16006E-14-1.89769E-13
 -1       254 2.00696E+01 4.13543E-03 2.83520E-04 3.21432E-02 1.09323E-13-1.96342E-13
 -1       255 2.00336E+01 2.98526E-03 2.19746E-04 2.09385E-02 1.19166E-13-3.05785E-13
 -1       256 2.00098E+01 2.10828E-03 1.67451E-04 1.28896E-02-2.92642E-13-2.96101E-13
 -1       257 1.99949E+01 1.44962E-03 1.25454E-04 7.23966E-03-1.75002E-13-4.57503E-13
 -1       258 1.99862E+01 9.62896E-04 9.23168E-05 3.38543E-03 2.22727E-14-3.91275E-13
 -1       259 1.99819E+01 6.09711E-04 6.65905E-05 8.52772E-04-1.98640E-13-2.42689E-13
 -1       260 1.99804E+01 3.58847E-04 4.69305E-05-7.25604E-04 1.27167E-13-2.72662E-13
 -1       261 1.99808E+01 1.85255E-04 3.21483E-05-1.63030E-03 2.15596E-13-2.30879E-13
 -1       262 1.99823E+01 6.91012E-05 2.12262E-05-2.07250E-03-1.34001E-14-3.83437E-13
 -1       263 1.99843E+01-5.11639E-06 1.33120E-05-2.20850E-03 2.20055E-13-8.38169E-13
 -1       264 1.99865E+01-4.93523E-05 7.70548E-06-2.15185E-03-7.59121E-14-9.62176E-13
 -1       265 1.99887E+01-7.26954E-05 3.84024E-06-1.98322E-03-9.36251E-14-8.05063E-13
 -1       266 1.99907E+01-8.19531E-05 1.26475E-06-1.75837E-03 2.31459E-13-3.96340E-13
 -1       267 1.99926E+01-8.21461E-05-3.76235E-07-1.51445E-03 2.28086E-14-2.26462E-13
 -1       268 1.99942E+01-7.69229E-05-1.35877E-06-1.27492E-03-1.08178E-13-1.61577E-13
 -1       269 1.99955E+01-6.89070E-05-1.89414E-06-1.05331E-03-6.05517E-14-4.11751E-13
 -1       270 1.99967E+01-5.99882E-05-2.13763E-06-8.56004E-04-8.81221E-14-3.64404E-13
 -1       271 1.99976E+01-5.15775E-05-2.18744E-06-6.84145E-04 2.88501E-13-3.73887E-13
 -1       272 1.99983E+01-4.48349E-05-2.06549E-06-5.34923E-04 8.30606E-14-3.88041E-13
 -1       273 1.99989E+01-4.07150E-05-1.65788E-06-4.02348E-04-1.15573E-13-1.22059E-13
 -1       274 1.99993E+01-4.00761E-05-8.27458E-07-2.78376E-04-1.39989E-14-5.67951E-13
 -1       275 1.99996E+01-4.38856E-05-8.34812E-07-1.54305E-04 4.52796E-13-7.28304E-13
 -1       276 1.99997E+01-3.66980E-05-2.75315E-06-3.53589E-05-1.90210E-13-5.84154E-13
 -1       277 1.99997E+01-1.27571E-04-1.48663E-06-1.02224E-04-2.91793E-13 8.32281E-13
 -1       278 1.99998E+01-3.25291E-04-4.78259E-07-2.25045E-04 9.62528E-14 3.77460E-13
 -1       279 1.99998E+01-5.96372E-04-1.78949E-07-3.10125E-04 4.87677E-15-5.17257E-14
 -1       280 1.99998E+01-9.04800E-04 1.61018E-07-3.37728E-04-2.58159E-13-5.96127E-13
 -1       281 1.99998E+01-1.20145E-03 7.93325E-07-3.10113E-04-6.91289E-13-1.24574E-12
 -1       282 1.99998E+01-1.45357E-03 1.37225E-06-2.34945E-04-7.65507E-13 2.36149E-13
 -1       283 1.99998E+01-1.61970E-03 1.78587E-06-1.25727E-04-8.41643E-13 3.07502E-13
 -1       284 1.99999E+01-1.67704E-03 1.93032E-06 1.08682E-06-3.67810E-13 5.93490E-13
 -1       285 1.99998E+01-1.61773E-03 1.78453E-06 1.27745E-04-1.34293E-13 2.56070E-13
 -1       286 1.99998E+01-1.44986E-03 1.37216E-06 2.36549E-04-2.34706E-13-5.25474E-13
 -1       287 1.99998E+01-1.20159E-03 7.60289E-07 3.10145E-04-8.59285E-14-3.01787E-13
 -1       288 1.99998E+01-8.99504E-04 1.61128E-07 3.37580E-04-1.03582E-14 3.38795E-13
 -1       289 1.99998E+01-5.91266E-04-2.08554E-07 3.08892E-04-2.38981E-13-1.62619E-13
 -1       290 1.99998E+01-3.24811E-04-1.35565E-06 2.23051E-04-3.06766E-13-2.86639E-14
 -1       291 1.99997E+01-1.81942E-04-1.48399E-06 1.77161E-04-1.72710E-13 2.73027E-13
 -1       292-5.85627E-01-8.89942E+00-8.76784E-01 1.12924E+00 4.47711E-13 1.18719E-12
 -1       293 3.59018E+00-6.67369E+00-6.06132E-01 4.26648E+00 7.67580E-13 1.28700E-12
 -1       294 1.02511E+01-4.14809E+00-4.46930E-01 6.04834E+00 1.35994E-12 1.02454E-12
 -1       295 2.02299E+01-1.40228E+00-9.21015E-02 7.17950E+00 1.20226E-12 9.38666E-13
 -1       296 2.97475E+01 2.49193E+00 3.09817E-01 7.44974E+00 1.21782E-12 1.13223E-12
 -1       297 3.88045E+01 5.06797E+00 7.46499E-01 6.60859E+00 1.18323E-12 6.95471E-13
 -1       298 4.52590E+01 6.37907E+00 1.03508E+00 3.94207E+00 1.13026E-12 1.68976E-13
 -1       299 4.35545E+01 7.21135E+00 6.90454E-01 3.92477E-01 1.25611E-12-4.45630E-13
 -1       300 4.15751E+01 5.63205E+00 6.59992E-01-2.44258E+00 1.25353E-12-9.58261E-13
 -1       301 3.53715E+01 3.69835E+00 4.96407E-01-6.10325E+00 1.45346E-12-1.72296E-12
 -1       302 2.55988E+01 4.52817E-01 2.42055E-02-6.28959E+00 1.42922E-12-1.57996E-12
 -1       303 1.42498E+01-1.20008E+00-3.68553E-01-6.29743E+00 1.71016E-12-1.81591E-12
 -1       304 6.03951E+00-3.78266E+00-6.74961E-01-4.24960E+00 1.47468E-12-1.55566E-12
 -1       305 1.01368E+00-5.85162E+00-8.01784E-01-1.98808E+00 9.23955E-13-1.24782E-12
 -1       306-7.69110E-01-6.24062E+00-7.50831E-01-1.30806E-02 1.67739E-13-1.13308E-12
 -1       307 1.20696E-01-5.98598E+00-7.67644E-01 1.87559E+00-5.87447E-13-1.11784E-12
 -1       308 3.76003E+00-3.90535E+00-6.29642E-01 3.94827E+00-1.22613E-12-1.33484E-12
 -1       309 1.18489E+01-1.53038E+00-3.12814E-01 6.41525E+00-1.27026E-12-1.41676E-12
 -1       310 2.03402E+01 1.42649E+00-7.33458E-02 7.51433E+00-1.69995E-12-1.72415E-12
 -1       311 3.05817E+01 3.10500E+00 2.62934E-01 6.56059E+00-1.44995E-12-1.48029E-12
 -1       312 3.81582E+01 5.16081E+00 4.56350E-01 3.49674E+00-1.26037E-12-9.93677E-13
 -1       313 4.34867E+01 6.61151E+00 7.69279E-01 1.10931E+00-1.12998E-12-6.91835E-13
 -1       314 4.53265E+01 6.50855E+00 9.75066E-01-2.19839E+00-9.38818E-13-7.19633E-14
 -1       315 4.10169E+01 5.97825E+00 7.85010E-01-4.94422E+00-9.56984E-13 3.98459E-13
 -1       316 3.44760E+01 4.53674E+00 5.68695E-01-7.42840E+00-1.09000E-12 8.52179E-13
 -1       317 2.58681E+01 1.47422E+00 1.71428E-01-7.45766E+00-1.15605E-12 8.35498E-13
 -1       318 1.60644E+01-9.62097E-01-1.83618E-01-7.24067E+00-1.21175E-12 1.09818E-12
 -1       319 8.58824E+00-4.66025E+00-4.62611E-01-5.88736E+00-7.70328E-13 1.05353E-12
 -1       320 2.17011E+00-7.60319E+00-7.99536E-01-3.31982E+00-5.74985E-13 1.05674E-12
 -1       321-7.09458E-01-9.38523E+00-9.70315E-01-1.18607E+00-1.54710E-13 8.51999E-13
 -1       322 2.34187E+01 2.25485E+00-2.80994E-02-2.41398E+00-3.37417E-13-1.33000E-13
 -1       323 2.45171E+01 1.88942E+00-3.09706E-02-2.90706E+00-4.39175E-13 1.31145E-13
 -1       324 2.08376E+01 2.03335E+00-2.25087E-02-2.76788E-01-5.66994E-15-3.83335E-13
 -1       325 1.85770E+01 2.20687E+00-1.65452E-02 9.99011E-01 1.55949E-13-4.81380E-13
 -1       326 1.55762E+01 2.88558E+00 1.20339E-03 1.92271E+00 2.65862E-13-5.91577E-13
 -1       327 1.24191E+01 3.90077E+00 1.69894E-02 2.02011E+00 2.97650E-13-7.28823E-13
 -1       328 1.04691E+01 4.64931E+00 2.17571E-02 1.12845E+00 2.34946E-13-8.20187E-13
 -1       329 1.07664E+01 4.61995E+00 2.32352E-02-2.16513E-01 1.22509E-13-7.94522E-13
 -1       330 1.33156E+01 3.81233E+00 1.03343E-02-1.02420E+00 5.07094E-14-6.57844E-13
 -1       331 1.69476E+01 2.83320E+00-5.64155E-03-8.01961E-01 7.79472E-14-4.25474E-13
 -1       332 2.04654E+01 2.19217E+00-1.93526E-02 1.89391E-01 1.79104E-13-1.76690E-13
 -1       333 2.34328E+01 1.88785E+00-3.27843E-02 1.34797E+00 3.10156E-13 1.03376E-13
 -1       334 2.59305E+01 1.51823E+00-4.77284E-02 2.10253E+00 4.06120E-13 5.06003E-13
 -1       335 2.73718E+01 7.91443E-01-3.70088E-02 1.86663E+00 4.04052E-13 8.78233E-13
 -1       336 2.66688E+01-1.46263E-01 6.15189E-04 1.51984E+00 2.74261E-13 8.43293E-13
 -1       337 2.41481E+01 2.03061E-01 9.39382E-03-2.11868E+00-3.57520E-13 2.65828E-13
 -1       338 2.33565E+01 7.67486E-03 6.21978E-03-1.96321E+00-2.96136E-13 2.36728E-13
 -1       339 2.25934E+01 2.03017E-01 5.82039E-03-1.83342E+00-2.58663E-13 2.23687E-13
 -1       340 2.18939E+01 5.76844E-01 5.82583E-03-1.41625E+00-2.59249E-13 1.29110E-13
 -1       341 2.14054E+01 8.72066E-01 5.08286E-03-6.35810E-01-2.65953E-13 3.47484E-15
 -1       342 2.12670E+01 8.69470E-01 3.71585E-03 3.06386E-01-1.93365E-13-1.18905E-13
 -1       343 2.14676E+01 5.52082E-01 3.17457E-03 1.06174E+00-1.70906E-13-2.40855E-13
 -1       344 2.18388E+01 9.56974E-02 1.84920E-03 1.38116E+00-1.72958E-13-3.22659E-13
 -1       345 2.21721E+01-2.77323E-01-7.68417E-04 1.25393E+00-1.92435E-13-4.10939E-13
 -1       346 2.23462E+01-4.56059E-01-2.85579E-03 8.50150E-01-6.60719E-14-3.72608E-13
 -1       347 2.23439E+01-4.57949E-01-3.84640E-03 3.71660E-01-1.80032E-14-3.27588E-13
 -1       348 2.22060E+01-3.58700E-01-3.70928E-03-4.29326E-02 4.52957E-14-2.73013E-13
 -1       349 2.19857E+01-2.29782E-01-2.80709E-03-3.34784E-01 6.09010E-14-2.00436E-13
 -1       350 2.17271E+01-1.14267E-01-1.72845E-03-5.01180E-01-3.21149E-14-2.22225E-13
 -1       351 2.14605E+01-2.88346E-02-7.76616E-04-5.66374E-01-8.43157E-14-2.06992E-13
 -1       352 2.12053E+01 2.56863E-02-7.77278E-05-5.61539E-01-9.08254E-14-2.84910E-13
 -1       353 2.09729E+01 5.52706E-02 3.62963E-04-5.14621E-01-7.06312E-14-3.27438E-13
 -1       354 2.07689E+01 6.73324E-02 5.93744E-04-4.46826E-01 8.98126E-15-2.94867E-13
 -1       355 2.05952E+01 6.83328E-02 6.75998E-04-3.72540E-01 1.32247E-13-2.14653E-13
 -1       356 2.04511E+01 6.30935E-02 6.64751E-04-3.00594E-01 6.38594E-14-5.93409E-14
 -1       357 2.03344E+01 5.48827E-02 6.01860E-04-2.35784E-01 9.25710E-14-6.31201E-14
 -1       358 2.02419E+01 4.57531E-02 5.15895E-04-1.80208E-01 4.81994E-14-2.64722E-14
 -1       359 2.01701E+01 3.68955E-02 4.24731E-04-1.34276E-01 3.10365E-14-6.41324E-14
 -1       360 2.01156E+01 2.89288E-02 3.38548E-04-9.74377E-02 1.51232E-13-2.26540E-13
 -1       361 2.00751E+01 2.21116E-02 2.62407E-04-6.86543E-02-4.59532E-15-1.42094E-13
 -1       362 2.00457E+01 1.64880E-02 1.98174E-04-4.67034E-02-9.02299E-14-1.76189E-13
 -1       363 2.00250E+01 1.19834E-02 1.45843E-04-3.03595E-02-4.36822E-15-2.30128E-13
 -1       364 2.00108E+01 8.46607E-03 1.04412E-04-1.84921E-02-4.40542E-14-1.49032E-13
 -1       365 2.00015E+01 5.78369E-03 7.24342E-05-1.01132E-02-8.05064E-14-7.12328E-14
 -1       366 1.99958E+01 3.78517E-03 4.83390E-05-4.39122E-03 7.54842E-14-2.44287E-14
 -1       367 1.99926E+01 2.33210E-03 3.06202E-05-6.47207E-04 1.48229E-13 7.36476E-14
 -1       368 1.99911E+01 1.30398E-03 1.79281E-05 1.65941E-03 4.62616E-14 1.35716E-13
 -1       369 1.99908E+01 5.99664E-04 9.10707E-06 2.94930E-03-5.22656E-14 9.33244E-15
 -1       370 1.99912E+01 1.36698E-04 3.20073E-06 3.54282E-03 1.65925E-13 1.34728E-13
 -1       371 1.99920E+01-1.50541E-04-5.61402E-07 3.67863E-03-8.12345E-14 4.00778E-13
 -1       372 1.99930E+01-3.13161E-04-2.78585E-06 3.53045E-03 1.22377E-13 5.41090E-13
 -1       373 1.99940E+01-3.90181E-04-3.94035E-06 3.22137E-03 1.03307E-14 3.13713E-13
 -1       374 1.99950E+01-4.10845E-04-4.37912E-06 2.83588E-03-8.17069E-14 3.60782E-13
 -1       375 1.99960E+01-3.96702E-04-4.36624E-06 2.42943E-03-3.98358E-13 3.98856E-13
 -1       376 1.99968E+01-3.63431E-04-4.09701E-06 2.03603E-03-2.75140E-13 4.86797E-13
 -1       377 1.99975E+01-3.22390E-04-3.71402E-06 1.67405E-03 1.70783E-13 3.29566E-13
 -1       378 1.99981E+01-2.81904E-04-3.30961E-06 1.35052E-03 4.49006E-13 3.40407E-13
 -1       379 1.99986E+01-2.48352E-04-2.96263E-06 1.06423E-03 3.68113E-13-9.05332E-14
 -1       380 1.99990E+01-2.25594E-04-2.62177E-06 8.08466E-04-8.72146E-14 7.11412E-14
 -1       381 1.99993E+01-2.17369E-04-2.82447E-06 5.73685E-04 2.31025E-13-3.69707E-14
 -1       382 1.99995E+01-2.02862E-04-1.98091E-06 3.67279E-04 1.11368E-13 2.20174E-13
 -1       383 2.59585E+01-4.58124E-01 6.16762E-03 1.85165E+00 1.73461E-13 7.50402E-13
 -1       384 2.50959E+01-2.91347E-01 9.44875E-04 2.33736E+00 2.47347E-13 6.74745E-13
 -1       385 2.40612E+01 3.17258E-01-5.31322E-03 2.33922E+00 2.46066E-13 5.85938E-13
 -1       386 2.31302E+01 1.02683E+00-9.77567E-03 1.43038E+00 2.34732E-13 3.39729E-13
 -1       387 2.27704E+01 1.24578E+00-9.52577E-03-1.50380E-01 2.87766E-13 6.89581E-14
 -1       388 2.31242E+01 7.55063E-01-5.65859E-03-1.52134E+00 2.84645E-13-6.46375E-14
 -1       389 2.38035E+01-2.01865E-02-1.91911E-03-1.96685E+00 2.29149E-13-2.61497E-13
 -1       390 2.43035E+01-5.40502E-01-2.79201E-03-1.52451E+00 1.38404E-13-2.95393E-13
 -1       391 2.44138E+01-6.53591E-01-6.52865E-03-6.94789E-01 6.30082E-14-2.96844E-13
 -1       392 2.41872E+01-5.08084E-01-7.78203E-03 7.63357E-02 2.07143E-14-3.08074E-13
 -1       393 2.37576E+01-2.92965E-01-6.59177E-03 5.92678E-01-2.94207E-14-1.79463E-13
 -1       394 2.32394E+01-1.13623E-01-4.08563E-03 8.47327E-01 6.68053E-15-3.27689E-13
 -1       395 2.27073E+01 1.96743E-03-1.67790E-03 9.09904E-01-6.70620E-14-2.40045E-13
 -1       396 2.22055E+01 6.25041E-02 2.88261E-05 8.57858E-01-4.26120E-14-1.41352E-13
 -1       397 2.17572E+01 8.61701E-02 9.98881E-04 7.50524E-01 2.04434E-14-9.27834E-14
 -1       398 2.13721E+01 8.87853E-02 1.41351E-03 6.25627E-01 4.45090E-14 1.23690E-13
 -1       399 2.10512E+01 8.10537E-02 1.48145E-03 5.04058E-01-7.80658E-14-7.79663E-14
 -1       400 2.07904E+01 6.92938E-02 1.36746E-03 3.95714E-01 4.56590E-14-1.42886E-13
 -1       401 2.05829E+01 5.68665E-02 1.17694E-03 3.04068E-01-6.49965E-14-1.81812E-13
 -1       402 2.04209E+01 4.53671E-02 9.69418E-04 2.29185E-01 1.41121E-13-2.64612E-13
 -1       403 2.02968E+01 3.54201E-02 7.74607E-04 1.69524E-01-7.48724E-14-2.82662E-13
 -1       404 2.02033E+01 2.71549E-02 6.04855E-04 1.22941E-01-5.12899E-14-2.64795E-13
 -1       405 2.01342E+01 2.04697E-02 4.63306E-04 8.72072E-02-4.49808E-14-2.63480E-13
 -1       406 2.00841E+01 1.51703E-02 3.48675E-04 6.02518E-02 1.52102E-13-1.80320E-13
 -1       407 2.00487E+01 1.10393E-02 2.57824E-04 4.02635E-02 7.27586E-14-4.76662E-14
 -1       408 2.00242E+01 7.86796E-03 1.87083E-04 2.57138E-02-1.36826E-13-1.54666E-13
 -1       409 2.00080E+01 5.46994E-03 1.32873E-04 1.53441E-02-9.34483E-14-1.86677E-13
 -1       410 1.99977E+01 3.68536E-03 9.19742E-05 8.13792E-03 3.93587E-14-2.45943E-13
 -1       411 1.99917E+01 2.38046E-03 6.16205E-05 3.28708E-03-1.79717E-13-3.55176E-13
 -1       412 1.99885E+01 1.44546E-03 3.94960E-05 1.58705E-04-8.94774E-15-2.64039E-13
 -1       413 1.99874E+01 7.91603E-04 2.37022E-05-1.73581E-03 1.36807E-13-7.88290E-14
 -1       414 1.99875E+01 3.48123E-04 1.27072E-05-2.76806E-03 2.20616E-13-7.67351E-14
 -1       415 1.99884E+01 5.93649E-05 5.29211E-06-3.21617E-03 2.69754E-13-4.10186E-13
 -1       416 1.99896E+01-1.17857E-04 5.00673E-07-3.28466E-03 1.26259E-14-5.48162E-13
 -1       417 1.99910E+01-2.16581E-04-2.40770E-06-3.12084E-03-1.53070E-13-8.01443E-13
 -1       418 1.99925E+01-2.61712E-04-3.99878E-06-2.82824E-03-1.87053E-13-7.33510E-13
 -1       419 1.99938E+01-2.71744E-04-4.69908E-06-2.47738E-03-1.80591E-13-3.81503E-14
 -1       420 1.99950E+01-2.60213E-04-4.82632E-06-2.11422E-03-1.16568E-13-1.39845E-15
 -1       421 1.99961E+01-2.36911E-04-4.61485E-06-1.76671E-03-1.16238E-15 1.12596E-13
 -1       422 1.99970E+01-2.08903E-04-4.23515E-06-1.44969E-03-3.34691E-14-1.86926E-13
 -1       423 1.99978E+01-1.81372E-04-3.80396E-06-1.16851E-03 1.91606E-13-2.30781E-13
 -1       424 1.99984E+01-1.58318E-04-3.38901E-06-9.21581E-04 1.38748E-14 9.87967E-14
 -1       425 1.99989E+01-1.42825E-04-2.98622E-06-7.02139E-04-6.26983E-14 6.66183E-14
 -1       426 1.99992E+01-1.36151E-04-2.44089E-06-5.00813E-04 1.15830E-13-1.65001E-13
 -1       427 1.99995E+01-1.36061E-04-1.91661E-06-3.09792E-04 2.44164E-13 9.30634E-14
 -1       428 1.99996E+01-1.40876E-04-1.29364E-06-2.03908E-04-1.03826E-14 5.85314E-13
 -1       429 1.99998E+01-7.70158E-04-4.98746E-07-5.84217E-04-1.97602E-13-4.12773E-13
 -1       430 1.99997E+01-5.02540E-04-1.46367E-06-5.06290E-04-7.58884E-14-9.24179E-14
 -1       431 1.99996E+01-3.06018E-04-1.85660E-06-3.65102E-04-1.58095E-13 8.29931E-13
 -1       432 1.99998E+01-1.03032E-03 3.88516E-07-5.72937E-04-2.81018E-13-1.46692E-12
 -1       433 1.99999E+01-1.26234E-03 1.09814E-06-4.77503E-04-2.32641E-13-5.09615E-13
 -1       434 2.00000E+01-1.43385E-03 1.61601E-06-3.14496E-04-3.18163E-13 4.24646E-13
 -1       435 2.00000E+01-1.52458E-03 1.89737E-06-1.08460E-04-4.10980E-13 6.08390E-13
 -1       436 2.00000E+01-1.52372E-03 1.89838E-06 1.12166E-04-1.09788E-13 6.56128E-13
 -1       437 2.00000E+01-1.43139E-03 1.61530E-06 3.17690E-04-1.89095E-13-2.85988E-13
 -1       438 1.99999E+01-1.26220E-03 1.07863E-06 4.77577E-04-8.68617E-15-2.49940E-13
 -1       439 1.99998E+01-1.03003E-03 4.23852E-07 5.73152E-04 9.40393E-14 1.15788E-13
 -1       440 1.99998E+01-7.65777E-04-2.93944E-07 5.83582E-04-5.71440E-14-1.06412E-13
 -1       441 1.99997E+01-4.96268E-04-1.39762E-06 5.06091E-04-1.89991E-13-3.06895E-13
 -1       442 1.22805E+01-4.46894E+00 5.31931E-02 7.09143E+00-2.05308E-13 4.94715E-13
 -1       443 1.27491E+00-3.61122E+00-9.29670E-02-1.93835E-01 1.97591E-13 1.05341E-12
 -1       444 4.62939E+00-2.89167E+00 6.28809E-02 4.23074E+00-9.32171E-14 1.11519E-12
 -1       445 1.92021E+01-5.06714E+00-2.58667E-02 6.67480E+00 3.20577E-14 1.26121E-13
 -1       446 2.75201E+01-2.58514E+00 1.07589E-02 4.39451E+00 4.57814E-13 2.04003E-14
 -1       447 2.23885E+01 2.11374E+00-2.57340E-02-1.49372E+00-1.90264E-13-2.85807E-13
 -1       448 3.55776E+01 5.12006E+00 9.62133E-02 5.87221E-01 1.04693E-12-2.65371E-13
 -1       449 3.58825E+01 7.49851E+00 5.36604E-02 2.72185E-01 1.29818E-12-2.47226E-13
 -1       450 3.55402E+01 6.77975E+00 3.75325E-02 1.15579E+00 1.21456E-12-9.68114E-14
 -1       451 3.44754E+01 3.18679E+00 6.63420E-02 1.07295E-01 1.03862E-12-2.43125E-13
 -1       452 3.07257E+01-4.11641E-01 3.00637E-02-1.78038E+00 7.64069E-13-3.50248E-13
 -1       453 2.32802E+01-3.39327E+00-2.77186E-02-4.59739E+00 3.95406E-13-5.70932E-13
 -1       454 1.45873E+01-3.28551E+00-8.55414E-02-6.10189E+00 4.41064E-13-1.04873E-12
 -1       455 7.38499E+00-2.13778E+00-3.51340E-02-5.19373E+00 1.98924E-13-1.20665E-12
 -1       456 2.27816E+00-1.25629E+00-4.50980E-02-2.28051E+00 1.66700E-13-1.37017E-12
 -1       457 1.54814E+00-7.30743E-01-2.56618E-02 1.74016E+00 8.85750E-14-1.34423E-12
 -1       458 4.65350E+00-1.50917E+00-4.31737E-02 4.82421E+00-4.24799E-14-1.22527E-12
 -1       459 1.11530E+01-2.09835E+00-2.11760E-02 6.58274E+00-5.86614E-14-9.91179E-13
 -1       460 2.10554E+01-2.49347E+00 1.74157E-02 5.65115E+00-3.07906E-13-5.95586E-13
 -1       461 2.68515E+01-1.26475E+00-3.48631E-02 3.43530E+00-5.98105E-13-3.61627E-13
 -1       462 3.14641E+01 2.03180E+00-4.63070E-02 2.94600E-01-8.71900E-13-1.21264E-13
 -1       463 3.46865E+01 6.43370E+00 4.91396E-02-5.27622E-01-1.18709E-12-3.39714E-13
 -1       464 3.46717E+01 8.00030E+00 3.21749E-02-5.42961E-01-1.17822E-12-4.19484E-13
 -1       465 3.47974E+01 7.04771E+00 5.10301E-02-3.15436E-01-9.91929E-13-4.21593E-13
 -1       466 3.34637E+01 3.61509E+00 4.96893E-02-1.36854E+00-8.01068E-13-2.73198E-13
 -1       467 3.04965E+01 2.62877E-01 5.38948E-02-3.05973E+00-6.06442E-13-1.17850E-13
 -1       468 2.38959E+01-3.35801E+00-1.88492E-02-5.69557E+00-2.58266E-13 1.58276E-13
 -1       469 1.72920E+01-4.54575E+00-1.31809E-02-7.13517E+00-7.22755E-14 4.71713E-13
 -1       470 9.05174E+00-4.24464E+00-1.89409E-02-6.74516E+00 1.94469E-13 8.52353E-13
 -1       471 4.06133E+00-3.68252E+00-3.71904E-02-4.52334E+00 1.44620E-13 9.76441E-13
 -1       472 3.26149E+01 1.06017E+00 3.81606E-02 1.73164E+00 7.43999E-13-2.44388E-13
 -1       473 3.18831E+01 7.20903E+00-1.30958E-01 8.29260E-01 1.20773E-12-4.53075E-14
 -1       474 2.59805E+01-7.01839E-01-2.83231E-03 1.87256E+00 2.20667E-13 4.90157E-13
 -1       475 1.81547E+01 9.52556E-01 1.88911E-02 2.23087E+00 2.88671E-13-4.04342E-13
 -1       476 2.11890E+01 4.50036E-01-1.65384E-03 5.04745E-01 1.21319E-13-2.79975E-13
 -1       477 1.03419E+01 3.77825E+00 6.01101E-02 2.43272E+00 3.35331E-13-8.68283E-13
 -1       478 8.92362E+00 4.35210E+00 6.32756E-02 3.75509E-01 1.70711E-13-9.43419E-13
 -1       479 1.10546E+01 3.56624E+00 5.33767E-02-1.55684E+00-1.44719E-15-8.16227E-13
 -1       480 1.53819E+01 2.06054E+00 2.69653E-02-1.96705E+00-5.61140E-14-5.29671E-13
 -1       481 1.97368E+01 9.14293E-01 8.14831E-03-9.12324E-01 1.61321E-14-2.24201E-13
 -1       482 2.30859E+01 3.89133E-01-1.03099E-03 5.94142E-01 1.69887E-13 6.75328E-14
 -1       483 2.61713E+01-9.65069E-01-6.58782E-03 2.48387E+00 2.07320E-13 5.32487E-13
 -1       484 2.40978E+01 1.03012E-01 8.51675E-04-2.41026E+00-3.00039E-13 9.42871E-14
 -1       485 3.08559E+01 1.99100E+00-1.18105E-01-1.39350E+00 6.76528E-13-5.39423E-13
 -1       486 2.38163E+01 1.44092E-01 1.86718E-03-2.43248E+00-2.65137E-13 1.67125E-13
 -1       487 2.33165E+01 7.64952E-01-2.81000E-04-2.22400E+00-3.19198E-13 1.65348E-13
 -1       488 2.27650E+01 1.53478E+00-1.03599E-03-1.48943E+00-3.84644E-13 1.06480E-13
 -1       489 2.24202E+01 1.89528E+00-5.93110E-03-2.88715E-01-3.92679E-13-5.76297E-14
 -1       490 2.24628E+01 1.50812E+00-5.77427E-03 8.95136E-01-3.36634E-13-2.54174E-13
 -1       491 2.27375E+01 6.05892E-01-2.39529E-03 1.56294E+00-2.47975E-13-4.05828E-13
 -1       492 2.29396E+01-2.92312E-01-1.34430E-03 1.54932E+00-1.96477E-13-3.90904E-13
 -1       493 2.28955E+01-8.24902E-01-1.08265E-03 1.07692E+00-1.03529E-13-3.16700E-13
 -1       494 2.26268E+01-9.48549E-01-1.70010E-03 4.61068E-01 5.51472E-14-2.16792E-13
 -1       495 2.22447E+01-8.04807E-01-2.09843E-03-8.21408E-02 7.58425E-14-1.30065E-13
 -1       496 2.18489E+01-5.55553E-01-1.65471E-03-4.65910E-01 1.61358E-14-1.70771E-13
 -1       497 2.14929E+01-3.09117E-01-1.07720E-03-6.86878E-01-1.36263E-15-1.91100E-13
 -1       498 2.11937E+01-1.14497E-01-5.45923E-04-7.77113E-01-3.55618E-14-8.06030E-14
 -1       499 2.09493E+01 1.77912E-02-1.54315E-04-7.76256E-01-1.30414E-13-6.89121E-14
 -1       500 2.07513E+01 9.58012E-02 9.68207E-05-7.19294E-01-1.10851E-13-1.39768E-13
 -1       501 2.05909E+01 1.33398E-01 2.35511E-04-6.32906E-01-6.73305E-14-1.05531E-13
 -1       502 2.04608E+01 1.43992E-01 2.94041E-04-5.35608E-01 1.31735E-13-6.15217E-14
 -1       503 2.03555E+01 1.38260E-01 3.01187E-04-4.39219E-01 1.35252E-13-2.03160E-13
 -1       504 2.02706E+01 1.23826E-01 2.79049E-04-3.50577E-01 1.40117E-13-1.61214E-13
 -1       505 2.02029E+01 1.05734E-01 2.42796E-04-2.73053E-01 8.07469E-14-7.71483E-14
 -1       506 2.01494E+01 8.70890E-02 2.02049E-04-2.07747E-01 1.10068E-14-1.51316E-13
 -1       507 2.01077E+01 6.96499E-02 1.62407E-04-1.54369E-01-7.89592E-14-2.70015E-13
 -1       508 2.00757E+01 5.42838E-02 1.26776E-04-1.11854E-01 5.19725E-14-4.35204E-13
 -1       509 2.00515E+01 4.13000E-02 9.63622E-05-7.87764E-02-1.01615E-14-4.35141E-13
 -1       510 2.00336E+01 3.06781E-02 7.13660E-05-5.36149E-02 1.26416E-14-1.92807E-13
 -1       511 2.00207E+01 2.22195E-02 5.14358E-05-3.49052E-02-3.50324E-15-3.27432E-14
 -1       512 2.00115E+01 1.56434E-02 3.59571E-05-2.13257E-02-7.97290E-14 6.26975E-14
 -1       513 2.00052E+01 1.06459E-02 2.42261E-05-1.17347E-02 7.61679E-14 1.65348E-13
 -1       514 2.00011E+01 6.93382E-03 1.55490E-05-5.17796E-03 7.46058E-14 2.27225E-13
 -1       515 1.99985E+01 4.24267E-03 9.29428E-06-8.79241E-04 1.07889E-14 6.83987E-14
 -1       516 1.99970E+01 2.34430E-03 4.91540E-06 1.77818E-03-6.88642E-14-6.69190E-14
 -1       517 1.99963E+01 1.04838E-03 1.95650E-06 3.27374E-03 1.69526E-13 1.24847E-13
 -1       518 1.99961E+01 2.00361E-04 4.80347E-08 3.97242E-03 1.49942E-13 4.39251E-13
 -1       519 1.99962E+01-3.22403E-04-1.10237E-06 4.14620E-03 8.73336E-14 2.81600E-13
 -1       520 1.99965E+01-6.15225E-04-1.72110E-06 3.99310E-03-1.90341E-13 1.57478E-13
 -1       521 1.99969E+01-7.50775E-04-1.98000E-06 3.65355E-03-4.44211E-14 1.95018E-13
 -1       522 1.99974E+01-7.83488E-04-2.00737E-06 3.22394E-03-1.10855E-13 4.47784E-13
 -1       523 1.99978E+01-7.53497E-04-1.89788E-06 2.76753E-03-2.62955E-13 7.00548E-13
 -1       524 1.99982E+01-6.90058E-04-1.72359E-06 2.32309E-03-1.35467E-13 6.80706E-13
 -1       525 1.99985E+01-6.14385E-04-1.53594E-06 1.91153E-03 2.03788E-13 4.94814E-13
 -1       526 1.99989E+01-5.41767E-04-1.30718E-06 1.54105E-03-3.75902E-14 1.38552E-13
 -1       527 1.99991E+01-4.84789E-04-1.41207E-06 1.21065E-03 3.62002E-13-1.12461E-13
 -1       528 1.99993E+01-4.43936E-04-1.08845E-06 9.14310E-04 1.07526E-13 1.89757E-13
 -1       529 2.54030E+01 1.57647E+00-3.87764E-02 2.69959E+00 4.31792E-13 4.97004E-13
 -1       530 2.48118E+01 2.84118E+00-4.85479E-02 9.64276E-01 5.45676E-13 1.92618E-13
 -1       531 2.47983E+01 2.41687E+00-4.76835E-02-1.20192E+00 4.74173E-13-2.04200E-13
 -1       532 2.51793E+01 6.65812E-01-3.57649E-02-2.29899E+00 3.32727E-13-3.75556E-13
 -1       533 2.52651E+01-8.95761E-01-1.46642E-02-1.95690E+00 1.70405E-13-3.81942E-13
 -1       534 2.47934E+01-1.48588E+00-8.12857E-03-8.93164E-01 8.26250E-14-3.43313E-13
 -1       535 2.40250E+01-1.31504E+00-5.98972E-03 1.50988E-01-1.87420E-14-2.38475E-13
 -1       536 2.32418E+01-8.46388E-01-5.15218E-03 8.59470E-01-6.91558E-14-1.51946E-13
 -1       537 2.25819E+01-3.97884E-01-3.35683E-03 1.21813E+00 3.66011E-14-1.47254E-13
 -1       538 2.20592E+01-7.95424E-02-1.50412E-03 1.31986E+00-9.08990E-15-1.20068E-14
 -1       539 2.16476E+01 1.05153E-01-1.87762E-04 1.26365E+00-1.65436E-13-8.71760E-14
 -1       540 2.13176E+01 1.91336E-01 5.83747E-04 1.12610E+00-6.37162E-14-8.65413E-14
 -1       541 2.10478E+01 2.16304E-01 9.36198E-04 9.57345E-01-4.39843E-14-3.12272E-14
 -1       542 2.08252E+01 2.07979E-01 1.01695E-03 7.86896E-01 7.31419E-14 2.70302E-14
 -1       543 2.06417E+01 1.84221E-01 9.54216E-04 6.30221E-01 2.93198E-14-1.19997E-13
 -1       544 2.04917E+01 1.55327E-01 8.28431E-04 4.94042E-01 7.53908E-15-1.22381E-13
 -1       545 2.03705E+01 1.26705E-01 6.85612E-04 3.80012E-01 6.34146E-14-2.13720E-13
 -1       546 2.02742E+01 1.00865E-01 5.49236E-04 2.87096E-01 1.47241E-14-1.89544E-13
 -1       547 2.01987E+01 7.87277E-02 4.29446E-04 2.13000E-01-1.55952E-13-1.64727E-13
 -1       548 2.01406E+01 6.03874E-02 3.29150E-04 1.54994E-01-7.09090E-14-1.34739E-13
 -1       549 2.00966E+01 4.55539E-02 2.47774E-04 1.10345E-01-5.10962E-14-6.97690E-14
 -1       550 2.00639E+01 3.37820E-02 1.83235E-04 7.65429E-02-4.36892E-14 1.48386E-13
 -1       551 2.00402E+01 2.45921E-02 1.32974E-04 5.13870E-02-7.82206E-14 1.29075E-13
 -1       552 2.00233E+01 1.75276E-02 9.44616E-05 3.30102E-02 1.90521E-14 9.51883E-14
 -1       553 2.00116E+01 1.21803E-02 6.54114E-05 1.98660E-02 1.25247E-13-1.57099E-13
 -1       554 2.00038E+01 8.19830E-03 4.38532E-05 1.06971E-02-8.67705E-14-1.62301E-13
 -1       555 1.99989E+01 5.28607E-03 2.81391E-05 4.49841E-03-7.94349E-14-1.79897E-13
 -1       556 1.99960E+01 3.19987E-03 1.69190E-05 4.79024E-04-5.61189E-14-2.16278E-13
 -1       557 1.99945E+01 1.74201E-03 9.10429E-06-1.97430E-03 1.04917E-13-2.81589E-13
 -1       558 1.99939E+01 7.54520E-04 3.82979E-06-3.32959E-03 3.32473E-13-2.00733E-13
 -1       559 1.99940E+01 1.12887E-04 4.17177E-07-3.93821E-03 3.64834E-13-9.51521E-14
 -1       560 1.99944E+01-2.79593E-04-1.65831E-06-4.05924E-03-1.94665E-14-3.21205E-13
 -1       561 1.99950E+01-4.96968E-04-2.79716E-06-3.87976E-03-2.97464E-13-3.40796E-13
 -1       562 1.99956E+01-5.95103E-04-3.30079E-06-3.53154E-03-5.50157E-13-4.45573E-13
 -1       563 1.99963E+01-6.15532E-04-3.39280E-06-3.10451E-03-3.78151E-13-1.68379E-13
 -1       564 1.99970E+01-5.88715E-04-3.23717E-06-2.65736E-03-1.84605E-13-1.41013E-13
 -1       565 1.99976E+01-5.36769E-04-2.95330E-06-2.22579E-03 1.86173E-13-2.08937E-13
 -1       566 1.99981E+01-4.75717E-04-2.62555E-06-1.82874E-03 7.10524E-14-2.16462E-13
 -1       567 1.99985E+01-4.17257E-04-2.30024E-06-1.47315E-03 1.64482E-14 8.39690E-14
 -1       568 1.99989E+01-3.69901E-04-2.12598E-06-1.15773E-03-1.25396E-13 3.51021E-14
 -1       569 1.99992E+01-3.40039E-04-2.36290E-06-8.76679E-04-8.89926E-14 3.38869E-13
 -1       570 1.99994E+01-3.24410E-04-2.10818E-06-6.18980E-04-3.73526E-14 5.77127E-13
 -1       571 2.00000E+01-1.16368E-03 5.45541E-07-7.33163E-04 1.52231E-13-9.99929E-13
 -1       572 2.00001E+01-1.35604E-03 6.35641E-07-5.47991E-04-7.61089E-14 7.04813E-14
 -1       573 1.99996E+01-6.57657E-04-2.15879E-07-7.95099E-04-2.00632E-13-4.10374E-13
 -1       574 1.99998E+01-9.23809E-04 1.69935E-07-8.20167E-04-2.29205E-13-8.81854E-13
 -1       575 2.00002E+01-1.47903E-03 7.95714E-07-2.91382E-04-1.16131E-13 4.25603E-13
 -1       576 2.00002E+01-1.52075E-03 8.59310E-07 2.62896E-06-9.52229E-14 9.64021E-13
 -1       577 2.00002E+01-1.47724E-03 7.97191E-07 2.96272E-04-1.08997E-13 2.09466E-13
 -1       578 2.00001E+01-1.35563E-03 6.35450E-07 5.47976E-04 2.03887E-13-4.52246E-13
 -1       579 2.00000E+01-1.16426E-03 3.09815E-07 7.32767E-04-8.36657E-14-1.66163E-13
 -1       580 1.99998E+01-9.20541E-04-1.97481E-07 8.19092E-04-2.35108E-13 1.21350E-13
 -1       581 1.99996E+01-6.53454E-04-6.50219E-07 7.93363E-04-2.52635E-13-4.17661E-13
 -1       582 5.78016E+00-3.32979E-01 1.80721E-01 1.15936E+00-1.16313E-15 8.77451E-13
 -1       583 1.09232E+01-2.35403E+00 1.36942E-01 5.82948E+00-3.46924E-13 5.21090E-13
 -1       584 6.23723E+00-5.81119E-01 1.86900E-01-2.77829E+00 2.67914E-13 8.57453E-13
 -1       585 2.60442E+01-1.22298E-01-1.96304E-02 3.06370E+00 2.81765E-13 5.55317E-13
 -1       586 1.80204E+01-4.51749E+00 7.27430E-02 6.45304E+00-4.27963E-13 1.57364E-13
 -1       587 2.93282E+01-2.38955E+00-7.38978E-02 7.31252E-01 2.12849E-13-5.61794E-13
 -1       588 3.00099E+01 6.89795E+00-1.49336E-01-1.36602E+00-1.05430E-12-1.94095E-13
 -1       589 1.80091E+01-2.27081E+00 6.08598E-02 5.57898E+00 3.01439E-13-4.77628E-13
 -1       590 1.40992E+01 2.15114E+00 4.16682E-02 3.25699E+00 4.18397E-13-6.47787E-13
 -1       591 3.11855E+01 4.13924E+00-1.31776E-01 2.43433E+00 9.51683E-13 2.50321E-13
 -1       592 3.08581E+01 5.14185E+00-1.66575E-01-1.20118E+00 9.53557E-13-4.13648E-13
 -1       593 2.01074E+01-3.37639E+00 2.76203E-02-4.64323E+00-1.11779E-13-3.77966E-13
 -1       594 3.06492E+01 2.89324E-01-8.60538E-02 1.77284E+00 5.46195E-13 3.32796E-13
 -1       595 2.99537E+01 3.85097E+00-1.42359E-01-1.92130E+00-8.44012E-13 8.04148E-14
 -1       596 2.75733E+01-2.80417E+00-4.30368E-02-8.25365E-01 1.63031E-13 2.18429E-13
 -1       597 1.36506E+01-1.78712E+00 1.07741E-01-5.44800E+00-1.73993E-13-7.88800E-13
 -1       598 7.28558E+00 7.50676E-01 1.49048E-01-3.74967E+00-1.03275E-13-1.15322E-12
 -1       599 4.23905E+00 2.03286E+00 1.66881E-01-3.93852E-01 1.13314E-13-1.31263E-12
 -1       600 5.36091E+00 1.18232E+00 1.46448E-01 3.68870E+00 2.74492E-13-1.20250E-12
 -1       601 9.63121E+00-2.74080E-01 1.00203E-01 5.74285E+00 3.49658E-13-9.90874E-13
 -1       602 2.48004E+01-2.60469E+00-2.99731E-04 2.92196E+00-3.74804E-14-6.55934E-14
 -1       603 2.83034E+01-6.49302E-01-5.85449E-02 8.17618E-04-3.93024E-13 1.49832E-13
 -1       604 2.96602E+01 6.92776E+00-1.55670E-01 2.83983E-01-9.74637E-13-4.59664E-13
 -1       605 3.03631E+01 4.50078E+00-1.32290E-01 1.06682E+00-7.68136E-13-6.17791E-13
 -1       606 2.99485E+01 5.69004E-01-9.82982E-02 1.28418E-01-4.76379E-13-5.62106E-13
 -1       607 2.75227E+01-3.08281E+00-3.61782E-02-2.39514E+00-7.32522E-14-4.10727E-13
 -1       608 2.24990E+01-4.80792E+00 2.58776E-02-5.41688E+00 2.29872E-13-1.14023E-13
 -1       609 1.62523E+01-4.13596E+00 1.01416E-01-6.92551E+00 4.63227E-13 4.40356E-13
 -1       610 9.80685E+00-2.39789E+00 1.34543E-01-6.01499E+00 4.28088E-13 7.72091E-13
 -1       611 2.40552E+01 7.25994E-01-1.43922E-02-2.41552E+00-3.29573E-13-3.28689E-14
 -1       612 2.58971E+01 1.80436E-01-1.47296E-02 1.77447E+00 3.05202E-13 4.80391E-13
 -1       613 2.53570E+01-4.78459E+00 1.81909E-02 3.91143E+00-6.83065E-14-4.18322E-13
 -1       614 2.27863E+01 5.70243E-01-1.86660E-02-1.00760E+00-7.91416E-14-1.95285E-13
 -1       615 1.99995E+01-4.26809E-04-1.30925E-06 7.23895E-04 1.61886E-13 3.94391E-13
 -1       616 2.81864E+01 1.17563E+00-7.78875E-02-2.07296E+00-5.03413E-13 2.45758E-13
 -1       617 9.63715E+00-2.29772E-01 1.43342E-01 3.46579E+00-1.79275E-13 5.86579E-13
 -1       618 2.88851E+01 5.70998E+00-1.62076E-01-6.36641E-01 9.60648E-13-1.87310E-13
 -1       619 2.51022E+01-3.55532E+00 1.04401E-03-1.84742E+00-1.00170E-13 9.77742E-14
 -1       620 2.93768E+01 5.28376E+00-1.55451E-01 2.18219E+00 9.99048E-13 1.63369E-13
 -1       621 2.80277E+01 1.59616E+00-1.26626E-01 1.57907E+00-5.39298E-13-6.14089E-13
 -1       622 7.73434E+00 3.17544E+00 1.30142E-01-1.46565E+00 1.97672E-15-1.07471E-12
 -1       623 7.59390E+00 3.55522E+00 1.32703E-01 1.94723E+00 2.95975E-13-1.06148E-12
 -1       624 1.87698E+01-3.59366E-01 4.08732E-02-2.48705E+00-1.51283E-13-2.85760E-13
 -1       625 2.28205E+01-9.95801E-01-1.38700E-02-4.35256E-01-6.16607E-15 2.78172E-14
 -1       626 2.57520E+01-1.53318E+00 8.19950E-03 1.42431E+00 1.21229E-13 3.77595E-13
 -1       627 1.99996E+01-6.83779E-04-6.26681E-07 9.93487E-04 1.02017E-13-9.62337E-14
 -1       628 2.45089E+01 4.80899E-01-1.56417E-02-2.68945E+00-3.05770E-13 7.77360E-14
 -1       629 2.41665E+01 1.80322E+00-1.63951E-02-2.38667E+00-3.81851E-13 7.17773E-14
 -1       630 2.36798E+01 2.96784E+00-1.58127E-02-1.22323E+00-5.37178E-13 3.82533E-14
 -1       631 2.34366E+01 2.96912E+00-3.74782E-02 4.13593E-01-5.10560E-13-1.15360E-13
 -1       632 2.37985E+01 1.65518E+00-8.23678E-03 1.57702E+00-3.90002E-13-3.03420E-13
 -1       633 2.40052E+01-5.64294E-03-1.20700E-02 1.73917E+00-1.88473E-13-3.93626E-13
 -1       634 2.37902E+01-1.15153E+00-2.80004E-03 1.15552E+00-5.23596E-14-3.07402E-13
 -1       635 2.32084E+01-1.53482E+00-3.39187E-04 3.59363E-01 2.11614E-14-2.26420E-13
 -1       636 2.24867E+01-1.37991E+00-1.39370E-03-3.02955E-01 4.35489E-14-2.16964E-13
 -1       637 2.18203E+01-9.93989E-01-8.58575E-04-7.31154E-01 1.71982E-14-1.83136E-13
 -1       638 2.12907E+01-5.85545E-01-5.47438E-04-9.49315E-01 4.69521E-14-1.65484E-13
 -1       639 2.09056E+01-2.50684E-01-2.59949E-04-1.01658E+00 4.66565E-14-1.50101E-13
 -1       640 2.06389E+01-1.48357E-02-7.84524E-05-9.87618E-01-7.69722E-14-1.62429E-13
 -1       641 2.04581E+01 1.30979E-01 2.36288E-05-9.03336E-01-1.68965E-13-7.17347E-14
 -1       642 2.03356E+01 2.07437E-01 7.77077E-05-7.91882E-01-8.54372E-14-3.13560E-14
 -1       643 2.02510E+01 2.35844E-01 1.00480E-04-6.71751E-01 2.60844E-14 5.97812E-15
 -1       644 2.01908E+01 2.33860E-01 1.03836E-04-5.54521E-01 7.47765E-14 2.16337E-14
 -1       645 2.01467E+01 2.14564E-01 9.65296E-05-4.46924E-01 1.82722E-13-2.89876E-14
 -1       646 2.01132E+01 1.86936E-01 8.41291E-05-3.52360E-01 1.35774E-13-1.34953E-13
 -1       647 2.00873E+01 1.56756E-01 7.01294E-05-2.71994E-01-1.12408E-14-1.22364E-13
 -1       648 2.00669E+01 1.27490E-01 5.65005E-05-2.05560E-01-1.45539E-13-1.61673E-13
 -1       649 2.00508E+01 1.01009E-01 4.42311E-05-1.51954E-01-1.09283E-13-1.69158E-13
 -1       650 2.00381E+01 7.81445E-02 3.37327E-05-1.09639E-01 9.69041E-14-1.87431E-13
 -1       651 2.00281E+01 5.90846E-02 2.50788E-05-7.69327E-02 1.75577E-13-9.07241E-14
 -1       652 2.00203E+01 4.36413E-02 1.81565E-05-5.21740E-02 1.16877E-13-1.35076E-13
 -1       653 2.00144E+01 3.14330E-02 1.27617E-05-3.38337E-02-9.84870E-15-1.57998E-13
 -1       654 2.00099E+01 2.19980E-02 8.65780E-06-2.05644E-02 9.40198E-14 2.28208E-15
 -1       655 2.00065E+01 1.48651E-02 5.60989E-06-1.12190E-02 1.90376E-14-1.05531E-13
 -1       656 2.00040E+01 9.59268E-03 3.40268E-06-4.84791E-03 4.71658E-14-2.26456E-13
 -1       657 2.00023E+01 5.78938E-03 1.84897E-06-6.84027E-04-6.86103E-14-1.81490E-14
 -1       658 2.00011E+01 3.12125E-03 7.91852E-07 1.87941E-03 2.51392E-13 3.89785E-13
 -1       659 2.00003E+01 1.31188E-03 1.03637E-07 3.31248E-03 6.67396E-14 2.78074E-13
 -1       660 1.99997E+01 1.38158E-04-3.17072E-07 3.97208E-03-2.36175E-13-1.48814E-13
 -1       661 1.99994E+01-5.76155E-04-5.48992E-07 4.12356E-03-1.61810E-13-4.79343E-13
 -1       662 1.99993E+01-9.67521E-04-6.51863E-07 3.95971E-03-5.22285E-14 2.42699E-14
 -1       663 1.99992E+01-1.13968E-03-6.70009E-07 3.61691E-03 2.39455E-14 2.16097E-13
 -1       664 1.99992E+01-1.17015E-03-6.36511E-07 3.18846E-03-6.12691E-14 1.40144E-13
 -1       665 1.99992E+01-1.11600E-03-5.77133E-07 2.73538E-03-7.41781E-14 3.98237E-13
 -1       666 1.99993E+01-1.01877E-03-5.22381E-07 2.29486E-03-1.90809E-14 4.71792E-13
 -1       667 1.99994E+01-9.08300E-04-5.48906E-07 1.88667E-03-1.93956E-14 4.17629E-13
 -1       668 1.99995E+01-8.06974E-04-4.65154E-07 1.52013E-03-8.59782E-14 5.06585E-13
 -1       669 1.99995E+01-7.35971E-04-6.57931E-07 1.24099E-03 4.80932E-14 5.83337E-14
 -1       670 2.68058E+01 4.69718E+00-1.14901E-01-2.07191E-01 8.27394E-13-3.33596E-14
 -1       671 2.72647E+01 3.80878E+00-1.12542E-01 2.42076E+00 7.19848E-13 3.87660E-13
 -1       672 2.69744E+01-8.11770E-01-7.43521E-02-2.05470E+00 2.74281E-13-4.45698E-13
 -1       673 2.58490E+01-2.39778E+00-1.52982E-02-6.69425E-01 2.71250E-14-3.33359E-13
 -1       674 2.42675E+01-2.37762E+00-3.44960E-03 6.39962E-01-8.34497E-14-9.68114E-14
 -1       675 2.28896E+01-1.61884E+00-1.26460E-03 1.40164E+00-9.65186E-14-4.83041E-14
 -1       676 2.19140E+01-8.29500E-01-1.37124E-03 1.69925E+00-6.62238E-14-2.21173E-14
 -1       677 2.12956E+01-2.40850E-01-6.72885E-04 1.72676E+00-5.23586E-14 6.25879E-14
 -1       678 2.09219E+01 1.19478E-01-2.09487E-04 1.60664E+00-9.13987E-14 1.59751E-13
 -1       679 2.06938E+01 3.02949E-01 1.24965E-04 1.41974E+00-6.86447E-14 3.68795E-14
 -1       680 2.05453E+01 3.71208E-01 3.13473E-04 1.21091E+00-5.55817E-14-3.01550E-14
 -1       681 2.04390E+01 3.72826E-01 3.64923E-04 1.00526E+00-1.52713E-14-1.23039E-13
 -1       682 2.03559E+01 3.40474E-01 3.52832E-04 8.16220E-01 3.37783E-14-1.20650E-13
 -1       683 2.02873E+01 2.94064E-01 3.12213E-04 6.50055E-01 3.10485E-14-6.25265E-14
 -1       684 2.02293E+01 2.44796E-01 2.62043E-04 5.08659E-01-1.11521E-14-4.00568E-14
 -1       685 2.01802E+01 1.98412E-01 2.12325E-04 3.91340E-01 1.34255E-13-3.17553E-14
 -1       686 2.01392E+01 1.57456E-01 1.67760E-04 2.96022E-01-1.20023E-13-9.62939E-14
 -1       687 2.01055E+01 1.22711E-01 1.29833E-04 2.19993E-01-2.92373E-14-1.51370E-13
 -1       688 2.00783E+01 9.40455E-02 9.86869E-05 1.60368E-01-2.06962E-13 1.23473E-14
 -1       689 2.00568E+01 7.08945E-02 7.37330E-05 1.14368E-01-1.56477E-13 5.63598E-14
 -1       690 2.00402E+01 5.25276E-02 5.41176E-05 7.94601E-02-5.45317E-14 4.36642E-14
 -1       691 2.00275E+01 3.81889E-02 3.89494E-05 5.34228E-02 2.74747E-14 1.77579E-13
 -1       692 2.00181E+01 2.71671E-02 2.74003E-05 3.43646E-02 2.34933E-13 4.56936E-15
 -1       693 2.00112E+01 1.88277E-02 1.87436E-05 2.07098E-02 3.76920E-14 4.02733E-14
 -1       694 2.00063E+01 1.26228E-02 1.23635E-05 1.11707E-02-1.23563E-13-1.45866E-13
 -1       695 2.00030E+01 8.09128E-03 7.74954E-06 4.71356E-03 6.79553E-14-4.66372E-14
 -1       696 2.00007E+01 4.85177E-03 4.48624E-06 5.21405E-04 8.41772E-14-1.29893E-13
 -1       697 1.99993E+01 2.59459E-03 2.24040E-06-2.04088E-03 2.78047E-13-2.69821E-13
 -1       698 1.99985E+01 1.07191E-03 7.48513E-07-3.45919E-03 2.61156E-13-2.22634E-13
 -1       699 1.99981E+01 8.84152E-05-1.95038E-07-4.09891E-03 4.22666E-14 1.65292E-13
 -1       700 1.99980E+01-5.07647E-04-7.48497E-07-4.22975E-03-2.16213E-13 1.97732E-13
 -1       701 1.99980E+01-8.32403E-04-1.03202E-06-4.04660E-03-3.28512E-13 1.23120E-13
 -1       702 1.99982E+01-9.73428E-04-1.13573E-06-3.68676E-03-4.57972E-13-4.88516E-14
 -1       703 1.99984E+01-9.95814E-04-1.12535E-06-3.24383E-03-1.32490E-13-5.19721E-13
 -1       704 1.99986E+01-9.47311E-04-1.04894E-06-2.77882E-03 1.58679E-14-6.50506E-13
 -1       705 1.99988E+01-8.62604E-04-9.42896E-07-2.32869E-03-5.11387E-15-1.78457E-13
 -1       706 1.99990E+01-7.66761E-04-8.28695E-07-1.91300E-03 4.43376E-14-2.00851E-13
 -1       707 1.99992E+01-6.77812E-04-7.81490E-07-1.53936E-03 1.35314E-13-1.77386E-13
 -1       708 1.99994E+01-6.09532E-04-9.95152E-07-1.20740E-03-3.58666E-13-5.17847E-13
 -1       709 1.99995E+01-6.28980E-04-6.53151E-07-9.98278E-04-4.33284E-13-3.98989E-13
 -1       710 2.00005E+01-1.58361E-03 2.64932E-07-1.83695E-04 1.72126E-13 7.01975E-13
 -1       711 2.00002E+01-1.33409E-03 1.54744E-07-8.22554E-04 1.51101E-13-8.51609E-13
 -1       712 2.00005E+01-1.58252E-03 2.55541E-07 1.90506E-04-7.98566E-14 6.08456E-13
 -1       713 2.00004E+01-1.49850E-03 2.66492E-07-5.35871E-04 1.64950E-13 4.12418E-13
 -1       714 2.00004E+01-1.49771E-03 2.39445E-07 5.36250E-04-1.09552E-13 1.18560E-14
 -1       715 2.00002E+01-1.33379E-03 1.97066E-07 8.24047E-04 1.93435E-14-6.31584E-13
 -1       716 2.00000E+01-1.10459E-03 5.03900E-07 1.01171E-03-1.37838E-13-1.22414E-13
 -1       717 2.70662E+01-1.56803E+00-2.62606E-02 2.41639E+00 1.80392E-13 5.23498E-13
 -1       718 2.21555E+01-2.21804E+00 8.21138E-03 2.90410E+00 3.16833E-13-9.63073E-14
 -1       719 2.41262E+01 1.06664E-01 3.81612E-05-2.17558E+00-1.98061E-13 1.15359E-15
 -1       720 2.51992E+01-4.17306E+00-9.16179E-03-2.75441E+00 2.31613E-13-3.36065E-13
 -1       721 2.74858E+01 4.69314E+00-1.52259E-01-2.24481E+00-7.73347E-13 2.08913E-14
 -1       722 2.76574E+01 7.13527E-01-8.27808E-02 3.27727E+00 3.82626E-13 5.28449E-13
 -1       723 1.74371E+01-2.08826E-01 8.07295E-02 3.71159E+00 4.65723E-13-4.23384E-13
 -1       724 8.47012E+00 6.22544E-01 1.53132E-01-7.59990E-01 1.57507E-13 6.75744E-13
 -1       725 2.71144E+01 2.40181E+00-1.01012E-01-2.14730E+00 5.56936E-13-3.80633E-13
 -1       726 2.45277E+01-1.23126E-01-7.51407E-03-2.49135E+00-2.11512E-13 5.01838E-14
 -1       727 2.63898E+01 5.79703E+00-1.35794E-01-6.39874E-01-8.42958E-13-1.78683E-13
 -1       728 2.70756E+01-3.74390E+00-2.53024E-02 9.62290E-01-4.02040E-14-5.01328E-13
 -1       729 2.06542E+01-4.20573E+00 4.64661E-02-5.23018E+00 5.24050E-13-1.15316E-13
 -1       730 1.27927E+01 1.39280E+00 1.02257E-01-3.38213E+00-1.89810E-13-7.31751E-13
 -1       731 1.47369E+01-3.06994E-01 8.07677E-02 5.15118E+00 4.72535E-13-6.37285E-13
 -1       732 1.85424E+01-2.03802E+00 7.16658E-02-4.03891E+00-2.65128E-13-3.53072E-13
 -1       733 2.59932E+01-1.71602E+00 2.79408E-03 6.42742E-02-1.29769E-14 2.19977E-13
 -1       734 2.27172E+01-4.41826E+00 3.55144E-02 4.16620E+00-3.50317E-13-3.26499E-13
 -1       735 9.29059E+00 1.79664E+00 1.13361E-01 4.27381E+00 4.34373E-13-9.68982E-13
 -1       736 1.61216E+01-2.81719E+00 8.59646E-02 5.69671E+00-4.02040E-13 1.51181E-13
 -1       737 2.70002E+01 4.52321E+00-1.26201E-01 1.41144E+00-7.60746E-13-4.27262E-13
 -1       738 2.85519E+01-8.82549E-01-7.63519E-02-1.57245E+00 3.03950E-13-5.02407E-13
 -1       739 2.77241E+01-1.82090E+00-6.49872E-02 8.83214E-02-1.63699E-13-5.27630E-13
 -1       740 2.83995E+01-1.71915E+00-3.27620E-02 1.95383E+00 2.02846E-13 4.72056E-13
 -1       741 2.36371E+01-6.98353E-01-1.03959E-02-6.82396E-01 1.23842E-14-3.95827E-14
 -1       742 2.64514E+01-5.43364E-01-5.47586E-02-1.68962E+00-2.00959E-13 2.95416E-13
 -1       743 2.67819E+01 2.53345E+00-8.88309E-02-2.63782E+00-4.90441E-13 1.86506E-13
 -1       744 1.99998E+01-9.12477E-04 1.95168E-07-1.03850E-03-6.95116E-14-5.69929E-13
 -1       745 1.35844E+01-8.75836E-01 8.69473E-02 4.43349E+00-3.32257E-13 2.74818E-13
 -1       746 1.02988E+01-6.93009E-01 1.29929E-01-4.41962E+00 3.87985E-13 7.31096E-13
 -1       747 2.00000E+01-1.13904E-03 2.41825E-07-9.76323E-04 5.06631E-14-1.02375E-12
 -1       748 1.59012E+01-2.44566E+00 9.42163E-02-5.67893E+00 5.56093E-13 2.63310E-13
 -1       749 2.79221E+01 2.51105E+00-1.30948E-01-2.23091E+00 6.05301E-13-3.32522E-13
 -1       750 2.84735E+01 1.31638E+00-1.30315E-01 3.23993E+00 4.95059E-13 5.14793E-13
 -1       751 2.40612E+01-2.30352E+00 5.72535E-03-7.09397E-01-9.65022E-14 1.33551E-13
 -1       752 2.54750E+01 1.15214E+00-3.41977E-02-2.85954E+00-3.21296E-13 1.91211E-13
 -1       753 2.50022E+01 3.28641E+00-7.13254E-02-2.28315E+00-5.10491E-13 9.28303E-14
 -1       754 2.49995E+01-1.39679E+00-2.71531E-02 1.09459E+00-4.56310E-14-4.55322E-13
 -1       755 2.40122E+01-2.24952E+00-2.64902E-03 1.66541E-03 1.27219E-13-2.95870E-13
 -1       756 2.28146E+01-2.06446E+00-1.08633E-03-8.07234E-01 8.59150E-14-2.12046E-13
 -1       757 2.17828E+01-1.50431E+00-1.33899E-06-1.23038E+00 1.08226E-13-1.43605E-13
 -1       758 2.10325E+01-8.99749E-01-1.75083E-04-1.36425E+00 9.70802E-14-9.52213E-14
 -1       759 2.05426E+01-4.03231E-01-3.07314E-05-1.33528E+00 3.91581E-14-5.72852E-14
 -1       760 2.02485E+01-5.12461E-02 3.12072E-05-1.22497E+00-1.06092E-14-1.31951E-13
 -1       761 2.00861E+01 1.70471E-01 4.15073E-05-1.08027E+00-1.02556E-13-8.37130E-14
 -1       762 2.00054E+01 2.91492E-01 4.54131E-05-9.26377E-01-7.97565E-14-2.64615E-14
 -1       763 1.99723E+01 3.41679E-01 4.40593E-05-7.76728E-01 1.45415E-14 9.81591E-14
 -1       764 1.99644E+01 3.45882E-01 3.88151E-05-6.38452E-01 7.48113E-14 5.92403E-14
 -1       765 1.99687E+01 3.22792E-01 3.23877E-05-5.15129E-01 1.14346E-13 4.66017E-15
 -1       766 1.99775E+01 2.85547E-01 2.58064E-05-4.08199E-01 5.97675E-14 6.98721E-14
 -1       767 1.99868E+01 2.42889E-01 2.00686E-05-3.17708E-01 1.14925E-13-4.04745E-14
 -1       768 1.99948E+01 2.00285E-01 1.54051E-05-2.42780E-01 4.10791E-15-2.30778E-15
 -1       769 2.00009E+01 1.60873E-01 1.16533E-05-1.81976E-01-1.24293E-13 7.69601E-14
 -1       770 2.00051E+01 1.26213E-01 8.65666E-06-1.33571E-01-1.33340E-14 7.28676E-15
 -1       771 2.00075E+01 9.68460E-02 6.29445E-06-9.57520E-02 1.12428E-13 2.91778E-14
 -1       772 2.00087E+01 7.26893E-02 4.46359E-06-6.67548E-02 9.88278E-14-5.96554E-14
 -1       773 2.00090E+01 5.33135E-02 3.07078E-06-4.49501E-02-5.80123E-14-2.49352E-14
 -1       774 2.00086E+01 3.81206E-02 2.03215E-06-2.88919E-02-9.23509E-14 3.96478E-14
 -1       775 2.00078E+01 2.64613E-02 1.27433E-06-1.73368E-02-5.52425E-14-7.87187E-14
 -1       776 2.00068E+01 1.77033E-02 7.34928E-07-9.24366E-03-9.07231E-14-1.32044E-13
 -1       777 2.00058E+01 1.12707E-02 3.62189E-07-3.76048E-03 1.70309E-13-2.39454E-13
 -1       778 2.00048E+01 6.66163E-03 1.14114E-07-2.04560E-04 3.05818E-13-8.07044E-14
 -1       779 2.00039E+01 3.45291E-03-4.27063E-08 1.96044E-03 1.37939E-14-3.19849E-13
 -1       780 2.00031E+01 1.29745E-03-1.34346E-07 3.14786E-03-2.08562E-13-2.43738E-13
 -1       781 2.00023E+01-8.30111E-05-1.80738E-07 3.67012E-03-3.24197E-13-1.46200E-13
 -1       782 2.00018E+01-9.07003E-04-1.96564E-07 3.75848E-03 2.54926E-13 3.12970E-16
 -1       783 2.00013E+01-1.34292E-03-1.91692E-07 3.58022E-03 3.53547E-14 2.75583E-13
 -1       784 2.00009E+01-1.51826E-03-1.72373E-07 3.25312E-03 1.46378E-13 3.47028E-13
 -1       785 2.00006E+01-1.52790E-03-1.46616E-07 2.85726E-03-3.93471E-14 3.92901E-13
 -1       786 2.00003E+01-1.44144E-03-1.13038E-07 2.44459E-03-4.17375E-15 2.11246E-13
 -1       787 2.00001E+01-1.30911E-03-2.95757E-07 2.04706E-03 1.48674E-14 1.46531E-13
 -1       788 2.00000E+01-1.17266E-03-9.71526E-07 1.68165E-03-1.33989E-13 1.20421E-13
 -1       789 2.09656E+01-1.26958E+00 2.75022E-03 2.44186E+00-1.16634E-13-4.58446E-14
 -1       790 2.02702E+01-3.93838E-01 3.89458E-04 2.22167E+00-5.26292E-14 8.95525E-14
 -1       791 1.99759E+01 1.46827E-01 1.36051E-04 1.92410E+00-1.23045E-13 8.08696E-14
 -1       792 1.98803E+01 4.31845E-01 6.05417E-06 1.63606E+00-1.54987E-14 7.59307E-14
 -1       793 1.98780E+01 5.48592E-01 1.36921E-04 1.37229E+00 1.04868E-14 2.69381E-14
 -1       794 1.99101E+01 5.64873E-01 1.40269E-04 1.13626E+00 7.90290E-14-7.86312E-14
 -1       795 1.99482E+01 5.26915E-01 1.22417E-04 9.28123E-01 7.93805E-14-1.13266E-13
 -1       796 1.99805E+01 4.63839E-01 1.01749E-04 7.47409E-01-1.52026E-14-7.82270E-14
 -1       797 2.00035E+01 3.92931E-01 8.21669E-05 5.93110E-01-5.58537E-14-1.79264E-13
 -1       798 2.00179E+01 3.23699E-01 6.49158E-05 4.63599E-01 5.37337E-14-1.32538E-13
 -1       799 2.00254E+01 2.60859E-01 5.07755E-05 3.56732E-01 9.47039E-14-1.01739E-13
 -1       800 2.00280E+01 2.06323E-01 3.90264E-05 2.70020E-01-2.58412E-14-6.25168E-14
 -1       801 2.00274E+01 1.60445E-01 2.95735E-05 2.00806E-01-2.30511E-13 1.73734E-14
 -1       802 2.00251E+01 1.22747E-01 2.20984E-05 1.46443E-01-1.57860E-13-2.32749E-14
 -1       803 2.00219E+01 9.23617E-02 1.62584E-05 1.04432E-01-9.40853E-14-1.23224E-13
 -1       804 2.00184E+01 6.82843E-02 1.17489E-05 7.25054E-02-6.49545E-14-1.29795E-13
 -1       805 2.00151E+01 4.95063E-02 8.31056E-06 4.86678E-02 2.27349E-13-1.86577E-13
 -1       806 2.00120E+01 3.50896E-02 5.72559E-06 3.12114E-02 1.48134E-13 2.81645E-14
 -1       807 2.00094E+01 2.41991E-02 3.81269E-06 1.87057E-02 7.38228E-14 3.12253E-14
 -1       808 2.00072E+01 1.61139E-02 2.42254E-06 9.97670E-03-6.97273E-14-1.38415E-13
 -1       809 2.00053E+01 1.02261E-02 1.43356E-06 4.07777E-03 1.42670E-13-1.18105E-14
 -1       810 2.00039E+01 6.03305E-03 7.48041E-07 2.59115E-04 2.16778E-13 1.40274E-13
 -1       811 2.00028E+01 3.12618E-03 2.88408E-07-2.06337E-03 2.24918E-13 2.36215E-13
 -1       812 2.00019E+01 1.17866E-03-6.10552E-09-3.33695E-03 8.46998E-14 2.93137E-13
 -1       813 2.00012E+01-6.69137E-05-1.82476E-07-3.89808E-03-4.44142E-14 1.38832E-13
 -1       814 2.00007E+01-8.10234E-04-2.76540E-07-3.99499E-03-3.55945E-13 4.88568E-14
 -1       815 2.00004E+01-1.20390E-03-3.15399E-07-3.80683E-03-2.50867E-13 2.08573E-13
 -1       816 2.00001E+01-1.36278E-03-3.19853E-07-3.45956E-03-3.19666E-14-1.81774E-13
 -1       817 2.00000E+01-1.37214E-03-3.00722E-07-3.03875E-03 8.27068E-14-2.59510E-13
 -1       818 1.99998E+01-1.29439E-03-2.67732E-07-2.59992E-03-6.58604E-14-3.78284E-13
 -1       819 1.99998E+01-1.17480E-03-2.28097E-07-2.17650E-03-9.24725E-14-1.97522E-13
 -1       820 1.99997E+01-1.04574E-03-2.72801E-07-1.78590E-03-5.08433E-14-9.92510E-14
 -1       821 1.99997E+01-9.31001E-04-1.67363E-07-1.43559E-03 7.15507E-14 1.51109E-15
 -1       822 1.99998E+01-9.17359E-04 4.04214E-07-1.22913E-03-1.89290E-13 3.01068E-14
 -1       823 2.00003E+01-1.33178E-03-1.10158E-07 1.14107E-03 3.92716E-14-5.24527E-13
 -1       824 1.96471E+01-2.90099E+00 2.76585E-02-4.39792E+00 4.31177E-13-9.00365E-14
 -1       825 1.97716E+01-2.97463E+00 3.71025E-02 4.38696E+00-3.58612E-13-7.46694E-14
 -1       826 2.00009E+01-1.72889E-03 1.44378E-08 4.43066E-06-8.97367E-14 4.03680E-13
 -1       827 2.47644E+01-3.65933E+00-3.32454E-03 1.75670E+00-1.87992E-13-3.11848E-13
 -1       828 2.00006E+01-1.54525E-03 7.79992E-08 8.40725E-04-2.14764E-13-2.42582E-13
 -1       829 2.22520E+01-2.45710E+00 1.27403E-02 2.47619E+00-1.49561E-13-1.45918E-13
 -1       830 2.80464E+01 5.43268E+00-1.36745E-01 1.11200E+00 1.00311E-12 6.68606E-14
 -1       831 2.30314E+01-3.78671E+00 3.74871E-03-3.06714E+00 4.21170E-13-2.28312E-13
 -1       832 2.62839E+01-5.00699E-01-4.28209E-02 1.39258E+00-2.31124E-13-5.68615E-13
 -1       833 1.10038E+01 8.55428E-01 8.68260E-02 1.45627E+00-6.58338E-14 4.62953E-13
 -1       834 1.12564E+01 4.80548E-01 7.92504E-02-2.56813E+00 2.43235E-13 5.73305E-13
 -1       835 2.00008E+01-1.68165E-03 1.49798E-08 4.47801E-04-1.81323E-13 3.57071E-13
 -1       836 1.99999E+01-1.04358E-03 4.67988E-07 1.27347E-03-2.33068E-13 2.42726E-13
 -1       837 2.58032E+01-2.92623E+00-1.76509E-02-4.63316E-01 1.10819E-13-5.05576E-13
 -1       838 2.54748E+01 5.41291E-01-4.04904E-02 1.85497E+00-3.29086E-13-4.60764E-13
 -1       839 1.46194E+01-8.81248E-01 5.88707E-02-4.37887E+00 4.51762E-13 3.22752E-13
 -1       840 1.79823E+01-1.63541E+00 2.61096E-02-4.00187E+00 3.84397E-13 1.22249E-13
 -1       841 2.00006E+01-1.54702E-03 1.01794E-07-8.40389E-04 2.90783E-13-1.89063E-13
 -1       842 1.71878E+01-1.52762E+00 3.51944E-02 4.28171E+00-3.08124E-13 9.35016E-14
 -1       843 2.00008E+01-1.68315E-03 9.98129E-08-4.42972E-04 1.32441E-13 5.25122E-13
 -1       844 2.54244E+01-5.48279E-01-2.58719E-02-2.08771E+00-1.72660E-13 1.82129E-13
 -1       845 2.00004E+01-1.36238E-03-4.10148E-07-1.08956E-03 3.37331E-13-1.00465E-12
 -1       846 1.20334E+01 1.12235E+00 4.41589E-02-4.50417E-01-1.36946E-15 4.48013E-13
 -1       847 1.39482E+01 3.49140E-01 4.42827E-02-2.86919E+00 2.10166E-13 3.46390E-13
 -1       848 2.29832E+01-2.85715E+00 7.57543E-03-1.75554E+00 2.15513E-13-2.61761E-13
 -1       849 2.15262E+01-2.02934E+00 7.46234E-03-2.06692E+00 1.12302E-13-1.07733E-13
 -1       850 2.05457E+01-1.17782E+00 1.10519E-03-1.98386E+00 9.40624E-14-1.93511E-13
 -1       851 1.99926E+01-5.11237E-01 5.14267E-04-1.75810E+00 1.54971E-13-2.13125E-13
 -1       852 1.97144E+01-4.95784E-02 1.84201E-04-1.49766E+00 5.34861E-14-1.76253E-13
 -1       853 1.96049E+01 2.38858E-01 6.38046E-05-1.25117E+00-4.53244E-14-2.52333E-14
 -1       854 1.95907E+01 3.97373E-01 4.15181E-05-1.03279E+00-1.62496E-14 8.27701E-14
 -1       855 1.96259E+01 4.65061E-01 3.42426E-05-8.44072E-01-1.01510E-13 1.06234E-13
 -1       856 1.96825E+01 4.73174E-01 2.55838E-05-6.82903E-01 9.69669E-15 7.87248E-14
 -1       857 1.97443E+01 4.45120E-01 1.85611E-05-5.46361E-01 3.24501E-14 1.57305E-14
 -1       858 1.98028E+01 3.97466E-01 1.14494E-05-4.31713E-01 2.31731E-13-1.16882E-13
 -1       859 1.98538E+01 3.41518E-01 6.41475E-06-3.36515E-01 1.09794E-13 6.56514E-14
 -1       860 1.98959E+01 2.84607E-01 3.66788E-06-2.58459E-01 6.31262E-15 2.16718E-13
 -1       861 1.99291E+01 2.31132E-01 2.14323E-06-1.95324E-01-3.62244E-14 1.22344E-13
 -1       862 1.99544E+01 1.83436E-01 1.22708E-06-1.44995E-01-1.33237E-13 2.43219E-13
 -1       863 1.99731E+01 1.42485E-01 6.48131E-07-1.05485E-01-3.88458E-14 1.83268E-13
 -1       864 1.99863E+01 1.08371E-01 2.80501E-07-7.49609E-02 4.21955E-14-6.13405E-15
 -1       865 1.99953E+01 8.06681E-02 5.32840E-08-5.17775E-02 8.10859E-14-6.83783E-14
 -1       866 2.00011E+01 5.86747E-02-7.98047E-08-3.44890E-02 3.53765E-14-1.55051E-14
 -1       867 2.00046E+01 4.15791E-02-1.50610E-07-2.18548E-02-9.13993E-14 1.25771E-13
 -1       868 2.00064E+01 2.85623E-02-1.81166E-07-1.28333E-02-1.37370E-13-2.24663E-14
 -1       869 2.00071E+01 1.88580E-02-1.86603E-07-6.56658E-03-1.20302E-13-9.34414E-14
 -1       870 2.00070E+01 1.17853E-02-1.77196E-07-2.36185E-03 2.97360E-13-1.27691E-13
 -1       871 2.00065E+01 6.76009E-03-1.59830E-07 3.30583E-04-4.85968E-14-4.06492E-13
 -1       872 2.00058E+01 3.29615E-03-1.39056E-07 1.93910E-03-7.53329E-14-5.04051E-13
 -1       873 2.00050E+01 9.98311E-04-1.17851E-07 2.79153E-03-1.93610E-13-2.14598E-13
 -1       874 2.00041E+01-4.47793E-04-9.79539E-08 3.13408E-03-9.85707E-14 1.42615E-13
 -1       875 2.00033E+01-1.28743E-03-7.91471E-08 3.14789E-03 1.91029E-13-1.82075E-13
 -1       876 2.00026E+01-1.70849E-03-5.71178E-08 2.96316E-03 8.74686E-14-6.86650E-14
 -1       877 2.00020E+01-1.85252E-03-2.81286E-08 2.67089E-03 1.92135E-13-2.44294E-13
 -1       878 2.00015E+01-1.82429E-03 2.59089E-09 2.33233E-03 1.00886E-13 5.46697E-15
 -1       879 2.00010E+01-1.70048E-03-1.57715E-07 1.98734E-03-3.48083E-15 2.57785E-13
 -1       880 2.00007E+01-1.53401E-03 2.16869E-06 1.65913E-03-1.30153E-13-1.14457E-13
 -1       881 1.87130E+01 2.63216E-01-1.37501E-04 2.17663E+00-1.50691E-13 9.10771E-14
 -1       882 1.87258E+01-3.71575E-01 7.17722E-03 2.75430E+00-1.34341E-13-7.65913E-15
 -1       883 1.90670E+01 7.49448E-01 5.27776E-05 1.41121E+00 6.30253E-14 9.18718E-14
 -1       884 1.92714E+01 7.71404E-01 6.35516E-05 1.15228E+00 9.36380E-14-2.37099E-14
 -1       885 1.94511E+01 7.26194E-01 4.61458E-05 9.40352E-01 9.40756E-14 7.69516E-14
 -1       886 1.95985E+01 6.47492E-01 3.01931E-05 7.62705E-01 2.60544E-14 2.30334E-13
 -1       887 1.97143E+01 5.56262E-01 1.77695E-05 6.12522E-01 4.17865E-14 2.06000E-13
 -1       888 1.98022E+01 4.64877E-01 9.46158E-06 4.85810E-01-1.55224E-14 1.20937E-13
 -1       889 1.98672E+01 3.79977E-01 6.22694E-06 3.79877E-01 5.64265E-14 2.32891E-13
 -1       890 1.99143E+01 3.04737E-01 3.88843E-06 2.92491E-01 3.47910E-14 9.46987E-14
 -1       891 1.99475E+01 2.40234E-01 2.47084E-06 2.21484E-01-9.24063E-14 2.06948E-13
 -1       892 1.99705E+01 1.86318E-01 1.63662E-06 1.64693E-01-1.15496E-13 1.40227E-13
 -1       893 1.99859E+01 1.42172E-01 1.11814E-06 1.20005E-01-2.76475E-14-1.07914E-14
 -1       894 1.99958E+01 1.06672E-01 7.72813E-07 8.54252E-02 3.74944E-15-2.08785E-13
 -1       895 2.00019E+01 7.85940E-02 5.31391E-07 5.91284E-02 1.91684E-13-3.04419E-13
 -1       896 2.00054E+01 5.67380E-02 3.58540E-07 3.94972E-02 3.80992E-15-1.39874E-13
 -1       897 2.00071E+01 3.99963E-02 2.34044E-07 2.51357E-02-9.03978E-14 3.60200E-14
 -1       898 2.00076E+01 2.73850E-02 1.44938E-07 1.48677E-02 9.76150E-15 1.49891E-13
 -1       899 2.00074E+01 1.80551E-02 8.21672E-08 7.72332E-03-5.61080E-14 7.39947E-14
 -1       900 2.00068E+01 1.12907E-02 3.90476E-08 2.91836E-03-1.45868E-15 2.98925E-13
 -1       901 2.00060E+01 6.50015E-03 1.04914E-08-1.69523E-04 2.67391E-13 4.53417E-13
 -1       902 2.00051E+01 3.20312E-03-7.43158E-09-2.02543E-03 1.75089E-13 6.41982E-13
 -1       903 2.00042E+01 1.01587E-03-1.78089E-08-3.02071E-03 1.05272E-13 5.72064E-13
 -1       904 2.00034E+01-3.63231E-04-2.31847E-08-3.43437E-03-6.62779E-14 3.88380E-13
 -1       905 2.00027E+01-1.16760E-03-2.59782E-08-3.47180E-03-2.38024E-13 9.29116E-14
 -1       906 2.00020E+01-1.57510E-03-2.90122E-08-3.28079E-03-3.94845E-14-1.11682E-13
 -1       907 2.00015E+01-1.71929E-03-3.56265E-08-2.96481E-03 7.92066E-14-1.31288E-13
 -1       908 2.00011E+01-1.69900E-03-3.12458E-08-2.59375E-03 4.40289E-14-1.39174E-13
 -1       909 2.00007E+01-1.58617E-03-5.27249E-09-2.21244E-03-1.24103E-13-8.44065E-14
 -1       910 2.00004E+01-1.43320E-03-2.35050E-07-1.84868E-03-2.13921E-13-4.15404E-13
 -1       911 2.00002E+01-1.27923E-03-8.34238E-07-1.51629E-03 1.85999E-13-5.65544E-13
 -1       912 2.22495E+01-3.35017E+00 2.28817E-02 3.26049E+00-3.06145E-13-2.44257E-13
 -1       913 1.43033E+01 3.76394E-01 3.85050E-02 2.80609E+00-1.96442E-13 2.13684E-13
 -1       914 1.96158E+01-2.22151E+00 2.31052E-02 3.85221E+00-2.78597E-13-6.68038E-14
 -1       915 2.16090E+01-2.80183E+00 6.41664E-03-2.89532E+00 2.75330E-13-1.82697E-13
 -1       916 2.00008E+01-1.59280E-03 2.62949E-07 1.20023E-03-2.10045E-13-4.18438E-13
 -1       917 2.00001E+01-1.14859E-03-1.25375E-07-1.20638E-03 1.56737E-13-8.41007E-13
 -1       918 1.88608E+01 6.08002E-01-4.46425E-04 1.74002E+00-5.17872E-14 1.52578E-13
 -1       919 1.65710E+01-4.46022E-01 1.24635E-02-3.29680E+00 2.40997E-13 2.24297E-13
 -1       920 2.00011E+01-1.79005E-03-3.83422E-08-7.77185E-04 1.85217E-13 2.74484E-13
 -1       921 2.00008E+01-1.62192E-03 3.57192E-07-1.14027E-03 3.14198E-13-6.83134E-13
 -1       922 2.00013E+01-1.89017E-03-5.04056E-08-2.64361E-04 2.35722E-14 3.21696E-13
 -1       923 1.38984E+01 1.06518E+00 2.16122E-02 1.36287E+00-1.71524E-13 1.76205E-13
 -1       924 2.00822E+01-1.95385E+00 2.78760E-03-3.10094E+00 2.22186E-13-4.39145E-14
 -1       925 2.00011E+01-1.78625E-03 3.63593E-07 7.83170E-04-6.74151E-14 1.26052E-13
 -1       926 2.00007E+01-1.53706E-03 5.27461E-07 1.42710E-03-4.05939E-13-4.47844E-13
 -1       927 2.00013E+01-1.88953E-03-6.07662E-08 2.73641E-04-4.21612E-14 4.10998E-13
 -1       928 1.90701E+01-4.89252E-01-3.37749E-04-2.26027E+00 2.29163E-14 8.60120E-14
 -1       929 1.89405E+01 4.75139E-02 2.76765E-04-1.77261E+00 1.23842E-13-7.02834E-14
 -1       930 1.89694E+01 3.69492E-01-8.71579E-06-1.38902E+00 9.53502E-14-4.51268E-14
 -1       931 1.90748E+01 5.42166E-01-1.78180E-05-1.09120E+00 3.41708E-14 1.36315E-13
 -1       932 1.92107E+01 6.12752E-01 1.17839E-05-8.58853E-01-1.25801E-13 5.76672E-14
 -1       933 1.93514E+01 6.16199E-01 2.30524E-06-6.76036E-01 2.41828E-14 1.07185E-13
 -1       934 1.94829E+01 5.78682E-01 4.61232E-06-5.30752E-01-1.19029E-14 1.61865E-13
 -1       935 1.95990E+01 5.18361E-01-3.39154E-06-4.14303E-01 1.61476E-14 1.58477E-13
 -1       936 1.96971E+01 4.47930E-01-7.33090E-06-3.20806E-01 1.81534E-13-1.92542E-14
 -1       937 1.97774E+01 3.76003E-01-7.56034E-06-2.45890E-01 1.64314E-13-2.55624E-14
 -1       938 1.98412E+01 3.07908E-01-6.47041E-06-1.86156E-01 1.30262E-14 1.20238E-13
 -1       939 1.98905E+01 2.46616E-01-5.20248E-06-1.38910E-01-7.86046E-14 2.36250E-13
 -1       940 1.99278E+01 1.93480E-01-4.08412E-06-1.01927E-01-8.22889E-14 1.09941E-13
 -1       941 1.99552E+01 1.48772E-01-3.15551E-06-7.33281E-02-1.60951E-13 1.23245E-13
 -1       942 1.99748E+01 1.12095E-01-2.39824E-06-5.15168E-02-1.04469E-13-1.20579E-13
 -1       943 1.99883E+01 8.26719E-02-1.78898E-06-3.51368E-02 1.01436E-13-1.45285E-13
 -1       944 1.99972E+01 5.95528E-02-1.30635E-06-2.30474E-02 4.21111E-14-5.73238E-14
 -1       945 2.00028E+01 4.17466E-02-9.30683E-07-1.43003E-02-1.76733E-13 2.58658E-14
 -1       946 2.00060E+01 2.83054E-02-6.43744E-07-8.11819E-03-1.43555E-13 2.32482E-13
 -1       947 2.00076E+01 1.83709E-02-4.28987E-07-3.87262E-03-7.89569E-14 1.65160E-13
 -1       948 2.00080E+01 1.11961E-02-2.71814E-07-1.06326E-03-5.91089E-14-1.35364E-13
 -1       949 2.00077E+01 6.15062E-03-1.59748E-07 7.02135E-04-6.45159E-14-1.99330E-13
 -1       950 2.00071E+01 2.71579E-03-8.25274E-08 1.72623E-03-5.26075E-14-2.93083E-13
 -1       951 2.00062E+01 4.74138E-04-3.20676E-08 2.23863E-03 1.03552E-13-2.39386E-13
 -1       952 2.00052E+01-9.03697E-04-1.64139E-09 2.41034E-03 6.18690E-14-1.99429E-15
 -1       953 2.00043E+01-1.67279E-03 1.80003E-08 2.36618E-03 5.87639E-14 5.23700E-14
 -1       954 2.00034E+01-2.02726E-03 4.38156E-08 2.19514E-03 7.87815E-14-7.93088E-14
 -1       955 2.00027E+01-2.11262E-03 7.01367E-08 1.95867E-03 3.46539E-13-1.18242E-13
 -1       956 2.00020E+01-2.03550E-03-8.69397E-08 1.69843E-03 4.96555E-14-2.22213E-13
 -1       957 2.00014E+01-1.87127E-03-3.63901E-07 1.44020E-03-2.68364E-13-3.79520E-13
 -1       958 1.91745E+01 8.27418E-01 1.52047E-05 6.77692E-01-1.13312E-15 2.66018E-13
 -1       959 1.89016E+01 9.21237E-01 2.12086E-05 8.29111E-01 2.92062E-15 2.63996E-13
 -1       960 1.85582E+01 9.80625E-01 4.83953E-06 1.01872E+00 7.86234E-14 2.17322E-13
 -1       961 1.93885E+01 7.18657E-01-2.09100E-05 5.51634E-01 7.43803E-14 3.59119E-13
 -1       962 1.95539E+01 6.08359E-01-3.55951E-05 4.44801E-01 5.80284E-14 2.00341E-13
 -1       963 1.96803E+01 5.03941E-01-2.99546E-05 3.54014E-01 1.68477E-14 6.43792E-14
 -1       964 1.97756E+01 4.09565E-01-2.45091E-05 2.77577E-01 1.40648E-13 7.86762E-14
 -1       965 1.98463E+01 3.27139E-01-1.92530E-05 2.14105E-01-7.95139E-14 1.77474E-13
 -1       966 1.98981E+01 2.57039E-01-1.45811E-05 1.62239E-01-1.45053E-13 1.86900E-13
 -1       967 1.99354E+01 1.98718E-01-1.07371E-05 1.20577E-01-1.35247E-14 7.82623E-14
 -1       968 1.99617E+01 1.51116E-01-7.71481E-06 8.76998E-02 8.77449E-14 6.94806E-14
 -1       969 1.99798E+01 1.12936E-01-5.40218E-06 6.22199E-02 1.10160E-13 7.40931E-15
 -1       970 1.99918E+01 8.28147E-02-3.66855E-06 4.28388E-02 1.01035E-13 4.07328E-14
 -1       971 1.99996E+01 5.94359E-02-2.39413E-06 2.83850E-02-7.94404E-14 1.17927E-13
 -1       972 2.00042E+01 4.15881E-02-1.47681E-06 1.78353E-02-5.47692E-14 3.97069E-14
 -1       973 2.00067E+01 2.81977E-02-8.32370E-07 1.03206E-02 7.74366E-14 2.81164E-14
 -1       974 2.00077E+01 1.83396E-02-3.92796E-07 5.12062E-03-1.55264E-13-2.49295E-14
 -1       975 2.00078E+01 1.12350E-02-1.04200E-07 1.65115E-03-2.62286E-15 3.26843E-14
 -1       976 2.00074E+01 6.24126E-03 7.53835E-08-5.51892E-04-6.18830E-14 2.31664E-13
 -1       977 2.00066E+01 2.83772E-03 1.78056E-07-1.85017E-03 1.77601E-13 5.69386E-13
 -1       978 2.00057E+01 6.09724E-04 2.27808E-07-2.52015E-03 9.62199E-14 5.33995E-13
 -1       979 2.00048E+01-7.67669E-04 2.41780E-07-2.76895E-03 1.32523E-14 5.06831E-13
 -1       980 2.00039E+01-1.54502E-03 2.30661E-07-2.74847E-03 1.27227E-13 2.43739E-13
 -1       981 2.00031E+01-1.91241E-03 1.86021E-07-2.56754E-03-4.93994E-14 1.06739E-13
 -1       982 2.00024E+01-2.01239E-03 1.53414E-07-2.30206E-03 1.85555E-14 4.62102E-13
 -1       983 2.00018E+01-1.94935E-03 8.61075E-08-2.00220E-03-6.01843E-14 3.63632E-13
 -1       984 2.00013E+01-1.80108E-03-1.15578E-07-1.70026E-03 5.88620E-14-1.13130E-13
 -1       985 1.70702E+01-3.61019E-01 2.39902E-02 3.22138E+00-1.80935E-13 8.52955E-14
 -1       986 1.70168E+01 5.58539E-01 4.98848E-03 2.18735E+00-1.38597E-13 1.87359E-13
 -1       987 1.40554E+01 1.09412E+00 2.22642E-02-1.22874E+00 3.50584E-14 2.46198E-13
 -1       988 2.00017E+01-2.03808E-03 3.63679E-07-6.16482E-04 4.57250E-13 2.98803E-13
 -1       989 1.76264E+01 8.60676E-01-1.23788E-03 1.63283E+00-1.17889E-13 8.25190E-14
 -1       990 1.95794E+01-1.32727E+00 3.62950E-03-2.81360E+00 1.23761E-13 5.00950E-14
 -1       991 1.57136E+01 5.59663E-01 8.79292E-03-2.17188E+00 9.84708E-14 1.89106E-13
 -1       992 1.58961E+01 5.77780E-01 1.51755E-02 2.28346E+00-1.88486E-13 1.27959E-13
 -1       993 2.00008E+01-1.61569E-03 1.82393E-06-1.41496E-03 3.74579E-13-8.58812E-13
 -1       994 2.00014E+01-1.89574E-03-5.44951E-07-1.09417E-03 4.63540E-13-1.50311E-13
 -1       995 2.00019E+01-2.09239E-03 4.70275E-07 3.29724E-06 2.24038E-13 1.67914E-13
 -1       996 1.81337E+01 9.74632E-01-2.83964E-05 1.27233E+00 1.33909E-14 6.27511E-14
 -1       997 2.00013E+01-1.84376E-03-6.31539E-08 1.09466E-03-3.53646E-13-2.13260E-13
 -1       998 2.00017E+01-2.03424E-03 2.02035E-07 6.28462E-04-1.80824E-13 7.71495E-14
 -1       999 1.78385E+01 1.16289E+00 2.60445E-05 6.88900E-01-7.59657E-14 1.25964E-13
 -1      1000 1.81397E+01 5.87914E-01-7.70773E-04-1.42329E+00 3.82550E-14 7.58308E-14
 -1      1001 1.84488E+01 7.37595E-01-4.04886E-04-1.05653E+00 1.29615E-13-1.06915E-13
 -1      1002 1.87327E+01 7.87551E-01-1.18642E-04-7.92466E-01-6.21585E-14-5.66452E-14
 -1      1003 1.89826E+01 7.74144E-01-2.15473E-05-5.99374E-01-4.03702E-14 1.56287E-15
 -1      1004 1.91984E+01 7.19203E-01-4.39005E-05-4.56111E-01 7.26581E-14-3.22017E-14
 -1      1005 1.93792E+01 6.43091E-01-7.95168E-05-3.46981E-01-1.29945E-14-3.24985E-14
 -1      1006 1.95289E+01 5.56529E-01-5.89372E-05-2.63602E-01 4.00560E-14 1.65292E-14
 -1      1007 1.96497E+01 4.69079E-01-5.24044E-05-1.99412E-01 1.35015E-13-9.09636E-14
 -1      1008 1.97454E+01 3.86350E-01-4.43950E-05-1.49723E-01 1.58145E-13 3.25525E-14
 -1      1009 1.98199E+01 3.11596E-01-3.66989E-05-1.11280E-01 1.09341E-13 7.55434E-14
 -1      1010 1.98766E+01 2.46393E-01-2.98405E-05-8.16575E-02-1.91814E-13 2.93046E-13
 -1      1011 1.99189E+01 1.91137E-01-2.38781E-05-5.89851E-02-2.53537E-13 1.82924E-13
 -1      1012 1.99498E+01 1.45447E-01-1.87872E-05-4.17899E-02-2.69739E-13 5.33673E-14
 -1      1013 1.99717E+01 1.08485E-01-1.45219E-05-2.88960E-02-7.83412E-14 1.18386E-13
 -1      1014 1.99868E+01 7.91826E-02-1.10172E-05-1.93585E-02 1.58718E-13-5.46929E-14
 -1      1015 1.99968E+01 5.63978E-02-8.19318E-06-1.24175E-02 3.37914E-14 3.53029E-14
 -1      1016 2.00030E+01 3.90192E-02-5.96078E-06-7.46374E-03-6.56348E-15 1.82373E-13
 -1      1017 2.00065E+01 2.60252E-02-4.22939E-06-4.01213E-03-8.95824E-14 2.70640E-13
 -1      1018 2.00083E+01 1.65154E-02-2.91233E-06-1.67954E-03-1.49925E-13 2.31142E-13
 -1      1019 2.00088E+01 9.72104E-03-1.93060E-06-1.66604E-04-2.46543E-13 7.15801E-15
 -1      1020 2.00085E+01 5.00284E-03-1.21498E-06 7.57752E-04-5.48056E-14-1.54609E-13
 -1      1021 2.00077E+01 1.84092E-03-7.06816E-07 1.26949E-03 1.24033E-13-8.47830E-14
 -1      1022 2.00068E+01-1.78999E-04-3.57979E-07 1.50055E-03 1.10674E-13-1.01350E-13
 -1      1023 2.00057E+01-1.38093E-03-1.27790E-07 1.54812E-03 2.68512E-13-1.61295E-13
 -1      1024 2.00047E+01-2.01375E-03 3.97087E-08 1.48226E-03-2.67244E-14-8.74285E-14
 -1      1025 2.00038E+01-2.26506E-03 1.44778E-07 1.35271E-03-7.06088E-15-2.67240E-13
 -1      1026 2.00029E+01-2.27533E-03 1.09716E-07 1.19271E-03 7.10014E-14-3.85194E-13
 -1      1027 2.00022E+01-2.14582E-03-5.86210E-07 1.02721E-03-1.84633E-14-2.36803E-13
 -1      1028 1.87545E+01 9.79880E-01-3.45143E-06 4.77927E-01 5.55769E-15 1.64615E-13
 -1      1029 1.93012E+01 7.37995E-01-1.37571E-04 3.32223E-01 1.20078E-13 1.14331E-13
 -1      1030 1.90626E+01 8.60383E-01-6.25477E-05 3.99875E-01-2.34095E-14 1.79607E-13
 -1      1031 1.83563E+01 1.08558E+00-1.21508E-05 5.69641E-01-2.23554E-14 1.72192E-13
 -1      1032 1.94861E+01 6.19629E-01-1.18104E-04 2.71762E-01 1.11743E-13 1.73177E-13
 -1      1033 1.96279E+01 5.10329E-01-9.44455E-05 2.18641E-01 8.41003E-14 7.86842E-15
 -1      1034 1.97356E+01 4.12973E-01-7.58418E-05 1.72747E-01 2.95470E-14 1.37543E-13
 -1      1035 1.98165E+01 3.28640E-01-5.98675E-05 1.33887E-01-1.65609E-13 4.63841E-14
 -1      1036 1.98764E+01 2.57278E-01-4.65684E-05 1.01689E-01 7.73357E-15-3.62011E-14
 -1      1037 1.99200E+01 1.98123E-01-3.57292E-05 7.55849E-02 7.40961E-14-1.18944E-14
 -1      1038 1.99512E+01 1.49992E-01-2.70157E-05 5.48631E-02 1.17603E-13 2.43835E-14
 -1      1039 1.99730E+01 1.11510E-01-2.00981E-05 3.87534E-02 6.98366E-14 1.12173E-13
 -1      1040 1.99877E+01 8.12576E-02-1.46790E-05 2.64889E-02-1.49345E-13 2.88924E-13
 -1      1041 1.99974E+01 5.78698E-02-1.04946E-05 1.73526E-02-2.64029E-14 2.83061E-13
 -1      1042 2.00033E+01 4.00972E-02-7.31364E-06 1.07043E-02 8.18651E-15 2.68534E-13
 -1      1043 2.00067E+01 2.68353E-02-4.93606E-06 5.99276E-03 4.36372E-14 1.57889E-13
 -1      1044 2.00082E+01 1.71346E-02-3.19193E-06 2.75728E-03-1.01246E-13 3.37646E-15
 -1      1045 2.00086E+01 1.01980E-02-1.93947E-06 6.22742E-04-1.37518E-13 6.21086E-14
 -1      1046 2.00083E+01 5.37012E-03-1.06239E-06-7.09404E-04-2.74083E-13 3.04445E-13
 -1      1047 2.00075E+01 2.12167E-03-4.66942E-07-1.47170E-03 3.46179E-14 6.49309E-13
 -1      1048 2.00066E+01 3.29279E-05-7.88379E-08-1.84153E-03-2.27847E-14 8.00987E-13
 -1      1049 2.00056E+01-1.22364E-03 1.59366E-07-1.95131E-03 2.58607E-14 6.33797E-13
 -1      1050 2.00046E+01-1.89939E-03 3.03550E-07-1.89746E-03 9.26737E-14 7.77317E-13
 -1      1051 2.00036E+01-2.18314E-03 4.11181E-07-1.74804E-03-1.37947E-14 3.32264E-13
 -1      1052 2.00028E+01-2.21650E-03 5.94545E-07-1.55344E-03 5.48438E-14 1.08501E-13
 -1      1053 2.00021E+01-2.11129E-03 6.42489E-08-1.34120E-03 3.10144E-13 2.43345E-13
 -1      1054 1.51620E+01 1.29005E+00 6.01437E-03 2.38292E-01-3.88543E-14 1.58411E-13
 -1      1055 1.57664E+01 1.06498E+00 8.14201E-04 1.36869E+00-1.18503E-13 4.83374E-14
 -1      1056 1.75773E+01-7.27819E-02 4.44755E-03-2.49746E+00 1.14218E-13 1.41973E-13
 -1      1057 1.78369E+01 3.40126E-01-8.81759E-04-1.87612E+00-2.37436E-14 1.91922E-13
 -1      1058 1.57438E+01 1.16575E+00 2.98083E-03-8.11807E-01-3.27306E-14 1.39276E-13
 -1      1059 1.71617E+01 1.19044E+00-1.85684E-03 8.63197E-01-7.90611E-14 9.93915E-14
 -1      1060 2.00024E+01-2.25159E-03-2.25549E-06-3.66337E-04 4.03488E-13-1.48676E-14
 -1      1061 1.93058E+01 7.14932E-01 2.20099E-05 1.32675E-01 1.26703E-13 1.95684E-13
 -1      1062 1.82237E+01 9.79490E-01-7.46219E-05-6.02369E-01 3.57773E-15-1.37197E-13
 -1      1063 1.86059E+01 9.34578E-01-6.59268E-05-4.27695E-01 3.06310E-14-1.21431E-13
 -1      1064 1.89106E+01 8.60804E-01 3.40821E-04-3.04036E-01-1.13953E-14-1.21467E-14
 -1      1065 1.91578E+01 7.66198E-01 6.20069E-05-2.18665E-01-8.91472E-15-1.24194E-13
 -1      1066 1.93610E+01 6.61732E-01-6.65773E-05-1.58313E-01 9.85986E-14-5.31208E-14
 -1      1067 1.95228E+01 5.58862E-01-5.45026E-05-1.14230E-01 8.42059E-14 6.23475E-14
 -1      1068 1.96502E+01 4.62080E-01-3.82865E-05-8.22094E-02 1.65042E-13 4.25589E-15
 -1      1069 1.97491E+01 3.74605E-01-2.51545E-05-5.89338E-02 1.38843E-13-2.55882E-14
 -1      1070 1.98248E+01 2.98062E-01-1.51109E-05-4.19905E-02 6.65314E-14-6.81342E-14
 -1      1071 1.98816E+01 2.32879E-01-7.70332E-06-2.96496E-02-1.14169E-13 3.80436E-14
 -1      1072 1.99235E+01 1.78663E-01-2.48269E-06-2.06707E-02-2.75177E-13 2.96069E-13
 -1      1073 1.99537E+01 1.34510E-01 9.87905E-07-1.41595E-02-1.36230E-13 3.35164E-13
 -1      1074 1.99749E+01 9.92498E-02 3.11478E-06-9.46575E-03-7.31266E-14 3.09389E-13
 -1      1075 1.99893E+01 7.16135E-02 4.25345E-06-6.11269E-03 1.39482E-14 1.04488E-13
 -1      1076 1.99986E+01 5.03494E-02 4.69828E-06-3.74781E-03-5.78966E-14-7.13725E-14
 -1      1077 2.00044E+01 3.42948E-02 4.68181E-06-2.10884E-03 2.58588E-14-1.25642E-13
 -1      1078 2.00075E+01 2.24140E-02 4.38021E-06-9.99714E-04-6.41328E-14 1.92320E-13
 -1      1079 2.00089E+01 1.38142E-02 3.92178E-06-2.73620E-04-3.08177E-13 2.09452E-13
 -1      1080 2.00092E+01 7.74610E-03 3.39603E-06 1.79259E-04-1.16155E-13 2.31434E-13
 -1      1081 2.00087E+01 3.59499E-03 2.86252E-06 4.40737E-04-9.07877E-14 2.58379E-13
 -1      1082 2.00079E+01 8.66677E-04 2.35896E-06 5.71328E-04 3.81656E-14-1.33342E-13
 -1      1083 2.00068E+01-8.28721E-04 1.91038E-06 6.15358E-04 1.07093E-13-2.27936E-13
 -1      1084 2.00057E+01-1.79336E-03 1.54710E-06 6.04962E-04 7.38200E-14-4.59534E-13
 -1      1085 2.00047E+01-2.25723E-03 1.25902E-06 5.63460E-04 1.37377E-14-2.48670E-13
 -1      1086 2.00037E+01-2.38954E-03 4.01300E-07 5.06641E-04-8.65248E-15-2.10696E-13
 -1      1087 2.00028E+01-2.32599E-03 1.49786E-07 4.43461E-04 1.84437E-13-2.02388E-13
 -1      1088 1.94875E+01 5.97499E-01 5.60610E-05 1.15171E-01 1.97321E-13 1.01661E-13
 -1      1089 1.84038E+01 1.07343E+00 1.79519E-04 1.56555E-01 1.47018E-14 1.39963E-13
 -1      1090 1.96276E+01 4.90295E-01 5.53148E-05 9.64445E-02 8.02997E-14 1.27634E-13
 -1      1091 1.97346E+01 3.95349E-01 4.78606E-05 7.83167E-02 1.09282E-13 3.66304E-14
 -1      1092 1.98155E+01 3.13426E-01 3.92336E-05 6.18479E-02 3.21264E-14-2.32953E-13
 -1      1093 1.98756E+01 2.44339E-01 3.10901E-05 4.75631E-02-8.37955E-14-2.28739E-13
 -1      1094 1.99196E+01 1.87260E-01 2.39672E-05 3.56215E-02-1.00369E-14-1.21387E-13
 -1      1095 1.99512E+01 1.40985E-01 1.80047E-05 2.59463E-02 8.59129E-17 6.81091E-15
 -1      1096 1.99732E+01 1.04133E-01 1.31731E-05 1.83231E-02-6.04035E-14 1.07925E-13
 -1      1097 1.99882E+01 7.52906E-02 9.36458E-06 1.24719E-02-1.57095E-13 9.08123E-14
 -1      1098 1.99979E+01 5.31054E-02 6.43751E-06 8.09488E-03-1.59997E-14 2.07849E-13
 -1      1099 2.00039E+01 3.63444E-02 4.24270E-06 4.90732E-03 2.34407E-14 3.63076E-13
 -1      1100 2.00073E+01 2.39216E-02 2.63810E-06 2.65360E-03 6.88874E-14 3.01981E-13
 -1      1101 2.00088E+01 1.49070E-02 1.49676E-06 1.11471E-03-1.85414E-13 2.46700E-13
 -1      1102 2.00091E+01 8.52349E-03 7.10289E-07 1.09575E-04-2.90680E-13 3.57750E-13
 -1      1103 2.00087E+01 4.13474E-03 1.89458E-07-5.07201E-04-2.75720E-13 1.41881E-13
 -1      1104 2.00079E+01 1.22963E-03-1.36326E-07-8.49370E-04-1.59150E-13 2.13634E-13
 -1      1105 2.00069E+01-5.95157E-04-3.19531E-07-1.00383E-03 3.31270E-14 3.90009E-14
 -1      1106 2.00058E+01-1.65264E-03-3.99138E-07-1.03551E-03 1.21394E-13 3.08848E-16
 -1      1107 2.00047E+01-2.18233E-03-4.59515E-07-9.92059E-04 1.99184E-13-2.69783E-14
 -1      1108 2.00038E+01-2.36520E-03-2.31370E-07-9.05155E-04 1.34077E-13 1.71683E-13
 -1      1109 2.00031E+01-2.36203E-03-8.78640E-07-6.17483E-04 1.12223E-13 7.38050E-14
 -1      1110 1.66959E+01 7.87291E-01 1.16887E-03-1.55426E+00-5.50624E-14 1.30557E-13
 -1      1111 1.79036E+01 1.17483E+00-1.98241E-05 1.47774E-01-9.42339E-14 1.85758E-13
 -1      1112 1.87909E+01 9.57256E-01 1.46812E-03 1.58934E-01 8.32525E-15 1.80254E-13
 -1      1113 1.90740E+01 8.39106E-01-9.80287E-05 1.50036E-01 1.87269E-14 1.63626E-13
 -1      1114 1.77440E+01 9.74282E-01-4.26833E-04-8.57398E-01-3.67062E-14 1.75831E-13
 -1      1115 1.63448E+01 1.30787E+00 3.92881E-03 1.07514E-01-1.15949E-13 9.13334E-14
 -1      1116 1.72827E+01 9.05969E-01 2.12777E-03-1.15033E+00-5.49379E-14 1.62731E-13
 -1      1117 1.86638E+01 9.76243E-01-1.74111E-03-7.28972E-02 5.71143E-14-4.37675E-14
 -1      1118 1.72436E+01 1.25219E+00 5.71198E-04 1.29788E-01-1.00159E-13 1.34103E-13
 -1      1119 1.81996E+01 1.06902E+00-7.07726E-05-2.66129E-01-7.99525E-15-6.72654E-14
 -1      1120 1.76711E+01 1.12634E+00-1.75802E-04-4.15912E-01-1.62583E-13 2.17494E-14
 -1      1121 1.68713E+01 1.16968E+00-1.72730E-03-5.80425E-01-6.49946E-14 1.08499E-13
 -1      1122 3.34596E+01 1.08700E+01 2.77339E+00-7.67756E+00-6.22280E-14 2.01306E-12
 -1      1123 2.43064E+01 7.38247E+00 3.01732E-01-4.13118E+00-3.00870E-14 3.58685E-13
 -1      1124 2.23354E+01 6.74689E+00 1.54133E-01-2.67478E+00-2.09832E-14-3.26779E-13
 -1      1125 2.10333E+01 6.35871E+00 1.62338E-01-1.52486E+00-1.29063E-14-6.14783E-13
 -1      1126 1.96581E+01 5.94762E+00 1.67269E-01-4.22054E-01-6.21725E-15-7.63794E-13
 -1      1127 1.79504E+01 5.42456E+00 1.31454E-01 5.68848E-01-2.22045E-15-8.27118E-13
 -1      1128 1.59267E+01 4.79148E+00 4.48905E-02 1.26130E+00 8.60423E-16-8.81635E-13
 -1      1129 1.39180E+01 4.15335E+00-7.34922E-02 1.46035E+00 3.60822E-15-9.11636E-13
 -1      1130 1.24560E+01 3.68382E+00-1.76548E-01 1.10962E+00 4.05231E-15-9.32894E-13
 -1      1131 1.20557E+01 3.55166E+00-2.16812E-01 4.02409E-01 3.71578E-15-9.27695E-13
 -1      1132 1.29442E+01 3.83176E+00-1.71633E-01-2.82724E-01 5.57887E-15-8.73275E-13
 -1      1133 1.49065E+01 4.45178E+00-6.72965E-02-5.71693E-01 6.71685E-15-7.65318E-13
 -1      1134 1.74359E+01 5.24424E+00 4.48339E-02-2.92004E-01 1.06581E-14-6.00643E-13
 -1      1135 2.00809E+01 6.06181E+00 1.25081E-01 4.94724E-01 1.49880E-14-3.56919E-13
 -1      1136 2.27162E+01 6.86945E+00 1.81930E-01 1.66537E+00 2.11497E-14 5.24719E-14
 -1      1137 2.57499E+01 7.82413E+00 3.30483E-01 3.32189E+00 2.63123E-14 8.09908E-13
 -1      1138 3.26385E+01 1.03581E+01 1.88838E+00 6.33956E+00 5.71765E-14 2.34782E-12
 -1      1139 3.48312E+01 4.25571E+00 1.49237E+00-4.87820E+00-2.49523E-13 3.06122E-12
 -1      1140 2.51405E+01-1.76070E-01-6.55491E-01-9.89932E-02-8.11781E-14 2.51638E-12
 -1      1141 2.32710E+01-5.94407E-02-1.88608E-01 5.21490E-02-2.85258E-14 1.74231E-12
 -1      1142 2.20175E+01-1.24675E-02-9.53862E-05-4.24575E-03-1.45975E-14 1.21723E-12
 -1      1143 2.06161E+01-1.10757E-02 9.22084E-03-4.05863E-02-1.37412E-14 8.87183E-13
 -1      1144 1.91892E+01-3.60567E-02-3.93943E-02-5.07420E-02 8.10983E-16 7.09571E-13
 -1      1145 1.80711E+01-6.58536E-02-9.29464E-02-3.31263E-02 4.79998E-15 4.34604E-13
 -1      1146 1.76154E+01-7.88301E-02-1.17078E-01 4.82255E-03 3.54751E-15 2.09457E-13
 -1      1147 1.79799E+01-6.42285E-02-9.68764E-02 4.51621E-02 4.91274E-15 5.64687E-14
 -1      1148 1.90201E+01-2.91704E-02-4.40441E-02 6.97520E-02 1.09986E-14-1.42698E-13
 -1      1149 2.03671E+01 8.24217E-03 1.33909E-02 7.12525E-02-1.49246E-15-3.06588E-13
 -1      1150 2.16228E+01 3.30408E-02 5.16861E-02 5.50073E-02-1.79496E-14-4.06820E-13
 -1      1151 2.25224E+01 4.11950E-02 6.37933E-02 3.21158E-02-3.11869E-14-4.81018E-13
 -1      1152 2.29830E+01 3.68667E-02 5.62204E-02 1.16697E-02 1.92741E-14-5.04216E-13
 -1      1153 2.30567E+01 2.66328E-02 3.96483E-02-2.26902E-03-1.27502E-15-4.93300E-13
 -1      1154 2.28570E+01 1.56268E-02 2.24272E-02-9.61503E-03-2.78933E-14-4.95607E-13
 -1      1155 2.25016E+01 6.53254E-03 8.74565E-03-1.20971E-02-6.03131E-15-3.99359E-13
 -1      1156 2.20844E+01 1.64284E-04-3.82922E-04-1.16873E-02-2.01436E-14-4.31771E-13
 -1      1157 2.16686E+01-3.68839E-03-5.56059E-03-9.90882E-03-1.90375E-14-5.32912E-13
 -1      1158 2.12904E+01-5.61493E-03-7.89030E-03-7.72105E-03 2.64971E-14-5.52938E-13
 -1      1159 2.09666E+01-6.23555E-03-8.41202E-03-5.63493E-03-3.14168E-14-5.14673E-13
 -1      1160 2.07013E+01-6.05942E-03-7.91398E-03-3.87102E-03-9.39196E-15-6.10886E-13
 -1      1161 2.04916E+01-5.45465E-03-6.92532E-03-2.48628E-03 2.64591E-14-2.81322E-13
 -1      1162 2.03309E+01-4.66523E-03-5.77142E-03-1.45723E-03-5.35695E-14-4.29613E-13
 -1      1163 2.02111E+01-3.84114E-03-4.63640E-03-7.28122E-04-1.95652E-14-6.91361E-13
 -1      1164 2.01244E+01-3.06691E-03-3.61353E-03-2.36056E-04 7.01289E-15-5.99707E-13
 -1      1165 2.00636E+01-2.38418E-03-2.74094E-03 7.72327E-05 4.95088E-14-2.89552E-13
 -1      1166 2.00226E+01-1.80790E-03-2.02510E-03 2.60870E-04-2.23218E-15-3.42980E-13
 -1      1167 1.99963E+01-1.33743E-03-1.45569E-03 3.53974E-04 2.48690E-15-4.04662E-13
 -1      1168 1.99806E+01-9.63827E-04-1.01457E-03 3.86453E-04 3.08480E-14-2.50888E-13
 -1      1169 1.99723E+01-6.74329E-04-6.81108E-04 3.80424E-04 8.35094E-15-4.03446E-13
 -1      1170 1.99691E+01-4.55160E-04-4.35098E-04 3.51743E-04-6.79361E-16-7.99036E-13
 -1      1171 1.99691E+01-2.93079E-04-2.58244E-04 3.11418E-04 2.20709E-15-9.04000E-13
 -1      1172 1.99711E+01-1.76181E-04-1.34792E-04 2.66806E-04 4.17499E-14-7.29106E-13
 -1      1173 1.99741E+01-9.42377E-05-5.16552E-05 2.22588E-04 1.30966E-14-3.58470E-13
 -1      1174 1.99776E+01-3.87495E-05 1.73293E-06 1.81536E-04-3.10464E-14-3.58890E-13
 -1      1175 1.99812E+01-2.84025E-06 3.37022E-05 1.45103E-04 4.84754E-15-5.34734E-13
 -1      1176 1.99845E+01 1.89245E-05 5.06767E-05 1.13856E-04-3.95364E-14-4.32488E-13
 -1      1177 1.99875E+01 3.07520E-05 5.75104E-05 8.78022E-05 2.70968E-14-3.93464E-13
 -1      1178 1.99902E+01 3.58370E-05 5.77991E-05 6.66107E-05 3.32418E-14-1.20922E-13
 -1      1179 1.99924E+01 3.65631E-05 5.41566E-05 4.97733E-05-2.83185E-14-1.73259E-13
 -1      1180 1.99943E+01 3.46817E-05 4.84553E-05 3.67047E-05-5.57371E-14-6.85957E-13
 -1      1181 1.99958E+01 3.14673E-05 4.20343E-05 2.68012E-05-8.49715E-15-1.14683E-12
 -1      1182 1.99970E+01 2.78486E-05 3.58858E-05 1.94618E-05-1.08624E-14-1.00151E-12
 -1      1183 1.99980E+01 2.45085E-05 3.08357E-05 1.40606E-05 9.48052E-15-6.85052E-13
 -1      1184 1.99987E+01 2.19379E-05 2.76591E-05 9.86790E-06 2.11557E-14 1.51156E-13
 -1      1185 1.99993E+01 2.04190E-05 2.68570E-05 5.83929E-06 1.53181E-14 1.69752E-13
 -1      1186 1.99997E+01 1.93909E-05 2.70324E-05 1.80400E-07 4.03750E-14 6.20524E-13
 -1      1187 1.99998E+01 1.96646E-05 1.89311E-05-1.05219E-05 9.70885E-15 7.21310E-13
 -1      1188 1.99998E+01-9.88877E-06-2.17880E-05-9.63434E-06 5.20647E-14 3.72167E-13
 -1      1189 3.62225E+01 6.70208E-01 3.32260E-01 2.22778E+00-4.08146E-14 3.61833E-12
 -1      1190 2.86908E+01-2.02450E-02-5.67219E-01 5.87842E-02 2.22704E-14 2.95661E-12
 -1      1191 2.76178E+01 3.41275E-02-6.46790E-02-2.99523E-02 1.96362E-14 2.29375E-12
 -1      1192 2.63386E+01 5.41103E-02 1.08206E-01-7.77955E-03-3.48853E-15 1.95782E-12
 -1      1193 2.43006E+01 2.24087E-02 9.84910E-02 4.89962E-02-7.42939E-15 1.74667E-12
 -1      1194 2.16624E+01-4.56568E-02-1.92909E-02 1.13860E-01 4.94526E-15 1.48573E-12
 -1      1195 1.92242E+01-1.04190E-01-1.68617E-01 1.39339E-01-6.56940E-15 1.30931E-12
 -1      1196 1.80555E+01-1.06268E-01-2.43677E-01 9.33499E-02-5.97092E-15 1.22899E-12
 -1      1197 1.87162E+01-5.53341E-02-1.88847E-01-1.99987E-03-1.40287E-14 9.13936E-13
 -1      1198 2.07705E+01 3.73813E-03-5.40862E-02-8.56150E-02 3.27498E-14 6.61665E-13
 -1      1199 2.31475E+01 3.71377E-02 6.41447E-02-1.15442E-01 2.77625E-14 3.26877E-13
 -1      1200 2.49204E+01 4.25484E-02 1.13018E-01-9.61173E-02 4.11650E-15 1.21125E-13
 -1      1201 2.57321E+01 3.29263E-02 1.02405E-01-5.64594E-02-2.02191E-14 1.44877E-13
 -1      1202 2.57010E+01 1.97319E-02 6.66185E-02-2.03410E-02 2.87964E-16-2.01735E-14
 -1      1203 2.51361E+01 8.69821E-03 3.14532E-02 3.16249E-03-4.38972E-15-3.11001E-14
 -1      1204 2.43305E+01 1.28290E-03 7.11990E-03 1.47330E-02 3.70487E-14-1.62904E-13
 -1      1205 2.34843E+01-2.93299E-03-6.22735E-03 1.83244E-02-3.48598E-14-2.41990E-13
 -1      1206 2.27073E+01-4.89819E-03-1.18711E-02 1.76338E-02 2.99459E-14-3.47399E-13
 -1      1207 2.20455E+01-5.47771E-03-1.31022E-02 1.51292E-02 3.41939E-14-5.69048E-13
 -1      1208 2.15080E+01-5.29362E-03-1.21970E-02 1.21719E-02-3.98605E-14-3.93080E-13
 -1      1209 2.10858E+01-4.74197E-03-1.04669E-02 9.39958E-03-1.12692E-14-3.43009E-13
 -1      1210 2.07623E+01-4.05507E-03-8.57629E-03 7.04964E-03 6.84262E-15-4.64882E-13
 -1      1211 2.05197E+01-3.35930E-03-6.82214E-03 5.16381E-03-1.26822E-14-4.36480E-13
 -1      1212 2.03413E+01-2.71737E-03-5.31230E-03 3.70077E-03-3.44947E-14-4.82454E-13
 -1      1213 2.02128E+01-2.15567E-03-4.06541E-03 2.59214E-03-3.01237E-14-3.97991E-13
 -1      1214 2.01224E+01-1.68084E-03-3.06213E-03 1.76764E-03 1.51104E-14-2.93064E-13
 -1      1215 2.00604E+01-1.28936E-03-2.26979E-03 1.16489E-03-4.89589E-14-5.11425E-13
 -1      1216 2.00194E+01-9.72968E-04-1.65351E-03 7.32008E-04-5.27147E-15-8.03391E-13
 -1      1217 1.99935E+01-7.21608E-04-1.18081E-03 4.27352E-04-2.37550E-14-1.06600E-12
 -1      1218 1.99784E+01-5.25066E-04-8.23322E-04 2.18188E-04-6.03270E-14-4.27317E-13
 -1      1219 1.99707E+01-3.73766E-04-5.56993E-04 7.91368E-05-6.87743E-15-2.92615E-13
 -1      1220 1.99680E+01-2.59144E-04-3.61893E-04-9.24895E-06 2.36245E-14-4.91100E-13
 -1      1221 1.99683E+01-1.73783E-04-2.21741E-04-6.17155E-05-6.31122E-15-1.78759E-13
 -1      1222 1.99706E+01-1.11410E-04-1.23408E-04-8.93159E-05 2.37822E-14-2.64715E-13
 -1      1223 1.99738E+01-6.68198E-05-5.64308E-05-1.00227E-04 3.13800E-14-5.89416E-13
 -1      1224 1.99774E+01-3.57712E-05-1.25774E-05-1.00408E-04-8.46602E-14-3.57511E-13
 -1      1225 1.99810E+01-1.48596E-05 1.45498E-05-9.41189E-05 1.06762E-13-7.09021E-13
 -1      1226 1.99844E+01-1.39352E-06 2.98541E-05-8.43399E-05-3.01583E-14-4.71300E-13
 -1      1227 1.99875E+01 6.72519E-06 3.70402E-05-7.30974E-05 6.13104E-14-8.29028E-13
 -1      1228 1.99901E+01 1.11117E-05 3.88673E-05-6.17199E-05 3.26982E-14-1.36464E-12
 -1      1229 1.99924E+01 1.29981E-05 3.73632E-05-5.10372E-05-2.86449E-14-9.88476E-13
 -1      1230 1.99943E+01 1.33225E-05 3.40081E-05-4.15322E-05-4.89478E-14-7.11985E-13
 -1      1231 1.99958E+01 1.28090E-05 2.98975E-05-3.34546E-05 5.22547E-14-5.41558E-13
 -1      1232 1.99970E+01 1.20400E-05 2.58959E-05-2.69006E-05-9.68491E-15-5.28056E-13
 -1      1233 1.99980E+01 1.15073E-05 2.27915E-05-2.18449E-05 1.04563E-13-5.21971E-13
 -1      1234 1.99987E+01 1.15915E-05 2.13871E-05-1.81053E-05 3.26652E-14-1.01639E-12
 -1      1235 1.99993E+01 1.25591E-05 2.23063E-05-1.51882E-05-2.43681E-14-5.23494E-13
 -1      1236 1.99997E+01 1.35723E-05 2.40120E-05-1.13875E-05 5.92518E-14-9.08097E-13
 -1      1237 1.99998E+01 8.82673E-06 1.59102E-05-2.22255E-06 1.56916E-13-1.85493E-12
 -1      1238 1.99998E+01-8.53468E-06-2.22140E-05 8.73393E-06 1.90162E-14-1.28011E-12
 -1      1239 1.99998E+01 2.55977E-05-2.04463E-05 8.69195E-06-1.19532E-12 8.30957E-15
 -1      1240 1.99998E+01 3.44343E-05 1.84067E-05 8.73768E-06-1.66467E-12 3.70980E-14
 -1      1241 1.99998E+01-1.44495E-04 2.25959E-05-4.98244E-06-4.79278E-14 4.00363E-14
 -1      1242 1.99998E+01-4.87197E-04 1.29562E-05-1.19559E-05 2.25494E-13 5.26714E-14
 -1      1243 1.99998E+01-9.13427E-04 7.83940E-07-1.42592E-05 3.58822E-14-2.49215E-13
 -1      1244 1.99998E+01-1.33840E-03-9.94356E-06-1.32173E-05-1.77789E-12-3.71142E-13
 -1      1245 1.99998E+01-1.69583E-03-1.79809E-05-1.01523E-05-2.52275E-12 6.37140E-14
 -1      1246 1.99998E+01-1.93469E-03-2.30704E-05-5.41541E-06-1.50188E-12-1.99152E-14
 -1      1247 1.99998E+01-2.01720E-03-2.47737E-05 4.37825E-08-1.20900E-12 6.63888E-14
 -1      1248 1.99998E+01-1.93193E-03-2.30111E-05 5.50239E-06-2.75729E-13 2.47511E-14
 -1      1249 1.99998E+01-1.69071E-03-1.78346E-05 1.02122E-05-2.22490E-13-1.79582E-13
 -1      1250 1.99998E+01-1.33157E-03-9.71341E-06 1.34232E-05-8.78624E-13-3.79181E-14
 -1      1251 1.99998E+01-9.06451E-04 9.31035E-07 1.42324E-05-8.90738E-13 1.47269E-13
 -1      1252 1.99998E+01-4.80888E-04 1.31780E-05 1.20759E-05-1.79233E-13-4.75121E-14
 -1      1253 1.99998E+01-1.34925E-04 2.39779E-05 6.05593E-06-9.96515E-13 3.39546E-14
 -1      1254 1.99998E+01 2.65924E-05 1.59810E-05-1.58196E-05-7.23194E-13-1.64411E-14
 -1      1255 1.99998E+01 2.90923E-05-2.03831E-05-1.01818E-05-2.89999E-13 2.16532E-13
 -1      1256-1.05958E+00-2.21674E+01-3.67009E+00-2.09315E+00 1.23884E-12 3.07494E-13
 -1      1257-1.68111E+00-1.37040E+01-3.06318E+00-3.51633E+00 3.26628E-12 1.31761E-12
 -1      1258 6.66677E-01-1.61131E+00-1.90352E+00 4.34497E-01 4.17355E-12 2.55529E-12
 -1      1259 9.75227E+00 8.07611E+00-2.95160E-01 8.76669E+00 3.42659E-12 3.15659E-12
 -1      1260 2.63403E+01 1.13269E+01 1.42167E+00 1.65597E+01 2.44837E-12 3.45812E-12
 -1      1261 4.57772E+01 8.57268E+00 2.94360E+00 1.82452E+01 1.36902E-12 2.98361E-12
 -1      1262 6.21723E+01 3.59822E+00 4.04952E+00 1.14880E+01 4.17943E-13 1.23790E-12
 -1      1263 6.67231E+01 2.08743E+00 4.34955E+00-1.42525E+00 2.04010E-13-1.19821E-12
 -1      1264 5.70550E+01 4.69600E+00 3.66833E+00-1.27878E+01 9.75275E-13-3.33600E-12
 -1      1265 3.83230E+01 8.74428E+00 2.18679E+00-1.70679E+01 2.22422E-12-4.49174E-12
 -1      1266 1.83191E+01 9.49312E+00 3.47589E-01-1.27137E+01 3.51119E-12-4.44356E-12
 -1      1267 4.57607E+00 4.26787E+00-1.24321E+00-4.53641E+00 4.18887E-12-3.49376E-12
 -1      1268-8.50197E-01-5.11555E+00-2.36015E+00 1.65971E+00 3.76943E-12-2.06657E-12
 -1      1269-1.33950E+00-1.41768E+01-2.94307E+00 3.20658E+00 2.35967E-12-7.83262E-13
 -1      1270-7.50193E-01-1.81613E+01-3.06349E+00 8.25803E-01 2.89033E-13-1.97890E-13
 -1      1271-8.89884E-01-1.56794E+01-2.87326E+00-2.09047E+00-1.84891E-12-4.49515E-13
 -1      1272-1.00604E+00-7.85727E+00-2.35968E+00-2.22570E+00-3.43559E-12-1.45867E-12
 -1      1273 2.39366E+00 2.28539E+00-1.42460E+00 2.71205E+00-4.19687E-12-2.93032E-12
 -1      1274 1.23411E+01 9.24937E+00-1.30935E-01 1.04811E+01-3.86069E-12-4.01257E-12
 -1      1275 2.94717E+01 1.01706E+01 1.49844E+00 1.62631E+01-2.64400E-12-4.21041E-12
 -1      1276 4.95051E+01 6.35886E+00 2.99422E+00 1.51484E+01-1.25744E-12-3.40394E-12
 -1      1277 6.28668E+01 2.32862E+00 3.89536E+00 6.26969E+00-3.09291E-13-1.59400E-12
 -1      1278 6.40793E+01 2.01735E+00 3.98989E+00-5.90432E+00-1.49922E-13 5.03486E-13
 -1      1279 5.38999E+01 5.80908E+00 3.42232E+00-1.52055E+01-7.08794E-13 2.04503E-12
 -1      1280 3.73889E+01 1.01154E+01 2.36055E+00-1.83000E+01-1.69786E-12 3.00204E-12
 -1      1281 1.96726E+01 1.12836E+01 9.23986E-01-1.43019E+01-2.81775E-12 3.35487E-12
 -1      1282 6.44184E+00 6.50084E+00-6.12463E-01-6.50254E+00-3.62865E-12 3.05089E-12
 -1      1283-1.99943E-01-3.73841E+00-2.02604E+00 6.99534E-01-3.37375E-12 1.85507E-12
 -1      1284-1.53215E+00-1.51117E+01-3.08300E+00 3.62381E+00-2.30338E-12 7.85372E-13
 -1      1285-1.00258E+00-2.21946E+01-3.64134E+00 1.76245E+00-6.31162E-13 1.76113E-13
 -1      1286 2.69838E+01 2.15553E+00-8.36811E-01-3.09282E+00-8.73746E-14 1.64713E-12
 -1      1287 2.39834E+01 5.31770E+00-4.32167E-02-3.48523E+00-2.16299E-13 3.82819E-14
 -1      1288 2.48724E+01 5.53604E+00-1.26266E-01-4.58010E+00-2.95181E-13 4.00791E-13
 -1      1289 2.24095E+01 5.37758E+00 6.18769E-03-2.47169E+00-1.97203E-13-4.55400E-13
 -1      1290 2.30709E+01 5.58560E+00 2.62789E-03-3.07578E+00-2.33327E-13-2.51590E-13
 -1      1291 2.41469E+01 4.16911E+00-2.72529E-02-3.29630E+00-3.71182E-13 7.85899E-14
 -1      1292 2.11862E+01 5.10241E+00 3.38742E-02-1.39365E+00-1.25344E-13-6.75168E-13
 -1      1293 2.18048E+01 5.30106E+00 2.76043E-02-1.94456E+00-1.63924E-13-5.82381E-13
 -1      1294 2.26441E+01 4.22707E+00-2.53256E-02-2.35376E+00-2.92048E-13-3.29139E-13
 -1      1295 1.97490E+01 4.73389E+00 3.53851E-02-3.14042E-01-4.66571E-14-7.82048E-13
 -1      1296 2.05179E+01 4.97008E+00 4.75791E-02-8.39294E-01-6.52256E-14-7.36165E-13
 -1      1297 2.13443E+01 3.99584E+00-2.09029E-02-1.28616E+00-1.55979E-13-5.23630E-13
 -1      1298 1.78663E+01 4.36972E+00 1.02609E-02 6.55030E-01 3.20022E-14-8.46836E-13
 -1      1299 1.88770E+01 4.66877E+00 6.06980E-02 2.15953E-01 1.16435E-14-8.19747E-13
 -1      1300 1.97394E+01 3.75615E+00-2.24272E-02-2.07616E-01-2.55906E-14-6.25500E-13
 -1      1301 1.55915E+01 4.11195E+00-3.48251E-02 1.30447E+00 8.16291E-14-8.90548E-13
 -1      1302 1.67752E+01 4.45446E+00 5.78520E-02 1.05216E+00 7.08877E-14-8.76944E-13
 -1      1303 1.76125E+01 3.68307E+00-2.94211E-02 7.41479E-01 8.30724E-14-7.02396E-13
 -1      1304 1.33853E+01 4.03527E+00-7.83613E-02 1.42908E+00 1.10884E-13-9.34735E-13
 -1      1305 1.44643E+01 4.34635E+00 3.08511E-02 1.43693E+00 1.01308E-13-9.21421E-13
 -1      1306 1.51319E+01 3.86923E+00-3.22087E-02 1.32801E+00 1.55591E-13-7.54299E-13
 -1      1307 1.18815E+01 4.12378E+00-9.49803E-02 9.94589E-01 1.03230E-13-9.64219E-13
 -1      1308 1.25062E+01 4.30119E+00-2.00605E-02 1.24546E+00 1.02390E-13-9.60322E-13
 -1      1309 1.28426E+01 4.23869E+00-2.64771E-02 1.34811E+00 1.81698E-13-8.15742E-13
 -1      1310 1.17571E+01 4.28522E+00-6.83168E-02 2.57973E-01 7.89091E-14-9.51325E-13
 -1      1311 1.16305E+01 4.24573E+00-7.26849E-02 5.93500E-01 8.05276E-14-9.67248E-13
 -1      1312 1.15271E+01 4.54623E+00-2.14408E-02 8.24066E-01 1.53367E-13-8.53775E-13
 -1      1313 1.31476E+01 4.43904E+00-1.56544E-02-3.58759E-01 6.05765E-14-8.81260E-13
 -1      1314 1.22671E+01 4.18194E+00-9.75782E-02-1.33078E-01 5.62328E-14-9.23201E-13
 -1      1315 1.17936E+01 4.56935E+00-2.23617E-02 8.38047E-02 1.13489E-13-8.19999E-13
 -1      1316 1.56104E+01 4.60196E+00 3.12411E-02-4.73910E-01 7.17204E-14-7.53772E-13
 -1      1317 1.42701E+01 4.20959E+00-8.01718E-02-5.05211E-01 5.74540E-14-8.23050E-13
 -1      1318 1.36317E+01 4.32241E+00-3.19491E-02-3.87198E-01 8.79991E-14-7.31708E-13
 -1      1319 1.84528E+01 4.85347E+00 5.27651E-02 5.10982E-03 1.16407E-13-5.65544E-13
 -1      1320 1.70035E+01 4.42368E+00-3.81192E-02-2.94932E-01 9.17044E-14-6.66724E-13
 -1      1321 1.64444E+01 4.04929E+00-3.83702E-02-2.73569E-01 1.25983E-13-5.73347E-13
 -1      1322 2.12150E+01 5.23113E+00 5.00473E-02 9.39881E-01 1.82271E-13-2.93404E-13
 -1      1323 1.98401E+01 4.81419E+00-4.40713E-03 4.37870E-01 1.53239E-13-4.45439E-13
 -1      1324 1.94975E+01 3.96993E+00-3.75855E-02 4.06859E-01 2.06425E-13-3.54015E-13
 -1      1325 2.39024E+01 5.66786E+00 4.14267E-02 2.18068E+00 2.44332E-13 1.57332E-13
 -1      1326 2.25389E+01 5.24947E+00-9.17786E-04 1.50683E+00 2.06168E-13-1.06880E-13
 -1      1327 2.24159E+01 4.07508E+00-3.17643E-02 1.44163E+00 3.03098E-13-4.08007E-14
 -1      1328 2.70914E+01 5.82434E+00 4.45316E-02 3.81619E+00 2.25486E-13 9.59385E-13
 -1      1329 2.53819E+01 5.43807E+00-2.77705E-02 2.78969E+00 2.18020E-13 4.72428E-13
 -1      1330 2.53980E+01 4.04155E+00-1.32951E-02 2.60808E+00 3.72952E-13 4.61714E-13
 -1      1331 3.53658E+01 3.88814E+00 1.11276E+00 5.00283E+00 1.17517E-13 2.46164E-12
 -1      1332 2.87704E+01 4.19877E+00-2.02800E-01 3.80868E+00 1.18267E-13 1.41881E-12
 -1      1333 2.87786E+01 2.76973E+00-5.86495E-03 3.23056E+00 3.85136E-13 1.18267E-12
 -1      1334 2.91550E+01 3.06536E-01-8.74350E-01 9.18000E-01 2.21226E-13 2.38837E-12
 -1      1335 2.67669E+01 7.40659E-02-4.65730E-01-1.48452E+00-2.50105E-13 1.76989E-12
 -1      1336 2.52182E+01 2.84865E-01-1.80136E-01-9.71192E-01-2.32293E-13 1.47105E-12
 -1      1337 2.44102E+01 9.73234E-02-7.32473E-02-6.62665E-01-1.77639E-13 1.36404E-12
 -1      1338 2.35843E+01 3.06062E-02-8.16837E-03-6.27115E-01-1.72924E-13 1.08866E-12
 -1      1339 2.51966E+01 2.81757E-01-1.08613E-01-1.71075E+00-4.01679E-13 8.45261E-13
 -1      1340 2.29076E+01 2.84483E-03 1.43257E-02-5.57935E-01-1.37384E-13 9.94933E-13
 -1      1341 2.22060E+01-5.79677E-03 2.15609E-02-5.75565E-01-1.31589E-13 7.99771E-13
 -1      1342 2.36336E+01 3.05107E-02-1.89123E-02-1.20248E+00-3.09437E-13 6.85500E-13
 -1      1343 2.16268E+01-4.21973E-03 2.22959E-02-5.71984E-01-8.14251E-14 7.05037E-13
 -1      1344 2.09314E+01 1.34076E-02 1.45284E-02-5.77459E-01-7.49067E-14 6.02633E-13
 -1      1345 2.24402E+01-1.40574E-02 4.81189E-03-1.12789E+00-2.16785E-13 5.41384E-13
 -1      1346 2.04179E+01 3.13388E-02 1.02007E-02-5.21600E-01-7.22295E-14 5.26360E-13
 -1      1347 1.98077E+01 5.94807E-02 2.21334E-03-4.99107E-01-9.70404E-14 4.24449E-13
 -1      1348 2.13687E+01 3.54825E-02-2.58501E-03-1.06448E+00-1.58529E-13 3.80192E-13
 -1      1349 1.94216E+01 8.08288E-02-2.79564E-03-3.44254E-01-9.56501E-14 3.58942E-13
 -1      1350 1.90464E+01 1.01623E-01-7.61584E-03-2.91593E-01-7.33164E-14 2.28624E-13
 -1      1351 2.04733E+01 1.17855E-01-1.85482E-02-8.12820E-01-1.78862E-13 2.38520E-13
 -1      1352 1.88730E+01 1.11893E-01-1.04396E-02-6.05409E-02-5.86423E-14 1.74753E-13
 -1      1353 1.88468E+01 1.11364E-01-1.12334E-02 5.87082E-03-6.20615E-14 8.40855E-14
 -1      1354 1.99111E+01 1.79358E-01-3.10737E-02-3.42320E-01-1.45524E-13 9.95063E-14
 -1      1355 1.89232E+01 1.03098E-01-1.05272E-02 2.37121E-01-5.89719E-14 3.19762E-14
 -1      1356 1.92472E+01 7.98928E-02-7.76120E-03 2.91152E-01-6.15749E-14-5.68955E-14
 -1      1357 1.98118E+01 1.81086E-01-3.14854E-02 2.24358E-01-1.31515E-13 5.59578E-15
 -1      1358 1.95251E+01 5.87222E-02-5.02774E-03 4.41526E-01-6.71676E-14-9.96286E-14
 -1      1359 2.00805E+01 2.42316E-02-2.48439E-04 4.64458E-01-4.47893E-14-1.49575E-13
 -1      1360 2.01650E+01 1.19509E-01-1.92411E-02 6.89977E-01-1.09207E-13-1.40018E-13
 -1      1361 2.04491E+01 3.15834E-03 1.40968E-03 4.95978E-01-6.00360E-14-2.14002E-13
 -1      1362 2.10582E+01-2.76166E-02 6.30403E-03 4.86432E-01-4.05165E-14-2.64962E-13
 -1      1363 2.08067E+01 2.70823E-02-1.93151E-03 9.06948E-01-1.14172E-13-1.63647E-13
 -1      1364 2.14009E+01-3.87323E-02 5.08505E-03 4.16834E-01-4.11364E-14-3.21628E-13
 -1      1365 2.19090E+01-5.68256E-02 8.85200E-03 3.87088E-01-7.83965E-14-4.02164E-13
 -1      1366 2.15048E+01-5.35515E-02 1.13462E-02 8.53782E-01-8.63433E-14-2.96868E-13
 -1      1367 2.21493E+01-5.65858E-02 5.33737E-03 2.65532E-01-8.07045E-14-4.02466E-13
 -1      1368 2.24735E+01-6.15011E-02 7.74046E-03 2.30716E-01-3.64032E-14-4.43619E-13
 -1      1369 2.20670E+01-9.60569E-02 1.69249E-02 6.16952E-01-9.11597E-14-3.92931E-13
 -1      1370 2.25862E+01-5.42185E-02 3.59116E-03 1.05162E-01 1.39385E-14-4.25585E-13
 -1      1371 2.27168E+01-5.03424E-02 4.88790E-03 7.56252E-02 2.29365E-14-4.12160E-13
 -1      1372 2.23972E+01-1.00059E-01 1.60609E-02 3.16600E-01-2.04238E-14-3.67710E-13
 -1      1373 2.27147E+01-4.10899E-02 1.49537E-03-2.47111E-02 8.52573E-15-4.04867E-13
 -1      1374 2.26882E+01-3.34276E-02 2.06672E-03-4.48653E-02-2.31291E-14-4.26671E-13
 -1      1375 2.24883E+01-8.01478E-02 1.18970E-02 4.53121E-02-1.20997E-14-3.84068E-13
 -1      1376 2.26022E+01-2.54544E-02 4.26316E-06-1.10310E-01-1.99988E-14-3.92793E-13
 -1      1377 2.24719E+01-1.74846E-02 1.41823E-04-1.21295E-01-3.42608E-17-3.40904E-13
 -1      1378 2.23869E+01-5.22239E-02 7.10762E-03-1.51858E-01-1.41944E-15-3.05121E-13
 -1      1379 2.23358E+01-1.20034E-02-6.82893E-04-1.54697E-01-1.91745E-14-3.56470E-13
 -1      1380 2.21515E+01-5.42406E-03-8.17022E-04-1.58647E-01-5.11826E-14-3.75160E-13
 -1      1381 2.21580E+01-2.66460E-02 3.09821E-03-2.68211E-01-4.05175E-14-1.99180E-13
 -1      1382 2.19937E+01-2.35941E-03-7.73377E-04-1.68057E-01-1.78598E-14-3.88413E-13
 -1      1383 2.17931E+01 2.36519E-03-1.07922E-03-1.67418E-01-1.13998E-14-3.82797E-13
 -1      1384 2.18625E+01-7.66704E-03 2.95676E-04-3.17628E-01-4.58668E-14-2.64042E-13
 -1      1385 2.16342E+01 3.60423E-03-5.54701E-04-1.61417E-01-4.13571E-14-4.12536E-13
 -1      1386 2.14415E+01 6.63654E-03-9.61537E-04-1.58220E-01-2.40069E-14-4.35110E-13
 -1      1387 2.15478E+01 4.35442E-03-1.39209E-03-3.20302E-01-2.19724E-14-3.33761E-13
 -1      1388 2.12943E+01 6.70375E-03-2.47766E-04-1.43816E-01-3.26388E-15-4.94338E-13
 -1      1389 2.11229E+01 8.42660E-03-6.97877E-04-1.39497E-01-3.76188E-14-5.20277E-13
 -1      1390 2.12455E+01 1.07760E-02-2.23918E-03-2.94887E-01-6.70001E-14-3.61757E-13
 -1      1391 2.09940E+01 7.84893E-03 2.54930E-05-1.21629E-01 7.84886E-15-5.45310E-13
 -1      1392 2.08493E+01 8.65677E-03-4.22051E-04-1.17091E-01-7.78981E-14-6.08203E-13
 -1      1393 2.09737E+01 1.33220E-02-2.52603E-03-2.55583E-01-1.60746E-14-4.91072E-13
 -1      1394 2.07412E+01 7.79631E-03 2.19212E-04-9.88694E-02-3.42736E-14-4.87650E-13
 -1      1395 2.06240E+01 8.01422E-03-1.93535E-04-9.46208E-02 7.39899E-14-4.07938E-13
 -1      1396 2.07410E+01 1.34804E-02-2.47543E-03-2.11920E-01 1.24597E-14-4.91826E-13
 -1      1397 2.05363E+01 7.09257E-03 3.30900E-04-7.77906E-02 9.84182E-14-4.42937E-13
 -1      1398 2.04444E+01 6.96026E-03-2.83417E-05-7.40754E-02 4.79274E-14-3.57909E-13
 -1      1399 2.05488E+01 1.23382E-02-2.24375E-03-1.69634E-01 8.49920E-14-4.20481E-13
 -1      1400 2.03753E+01 6.09834E-03 3.76570E-04-5.94610E-02-2.71534E-14-3.31296E-13
 -1      1401 2.03053E+01 5.78040E-03 7.82665E-05-5.63606E-02-6.14686E-14-4.81843E-13
 -1      1402 2.03951E+01 1.06111E-02-1.93241E-03-1.31749E-01 2.56394E-14-3.44194E-13
 -1      1403 2.02523E+01 5.03404E-03 3.76413E-04-4.42120E-02-9.67160E-14-3.63374E-13
 -1      1404 2.02006E+01 4.63731E-03 1.38444E-04-4.17149E-02-4.27816E-14-4.10482E-13
 -1      1405 2.02753E+01 8.73313E-03-1.60308E-03-9.95216E-02-6.00091E-14-1.98514E-13
 -1      1406 2.01609E+01 4.02356E-03 3.48305E-04-3.19531E-02 4.00179E-14-4.02927E-13
 -1      1407 2.01237E+01 3.61359E-03 1.65185E-04-3.00004E-02 6.75421E-14-3.15060E-13
 -1      1408 2.01845E+01 6.94503E-03-1.29062E-03-7.31399E-02 8.09249E-16-1.62376E-13
 -1      1409 2.00949E+01 3.12825E-03 3.05789E-04-2.23778E-02 8.89497E-14-2.84687E-13
 -1      1410 2.00690E+01 2.74241E-03 1.69657E-04-2.08906E-02 4.90264E-14-2.28392E-13
 -1      1411 2.01172E+01 5.36414E-03-1.01259E-03-5.22039E-02 8.61951E-14-1.00892E-13
 -1      1412 2.00486E+01 2.37100E-03 2.58144E-04-1.50914E-02-1.22671E-14-2.35192E-13
 -1      1413 2.00313E+01 2.02818E-03 1.60481E-04-1.39874E-02-4.43806E-14-2.37870E-13
 -1      1414 2.00687E+01 4.03315E-03-7.75786E-04-3.60339E-02-1.63953E-15-1.26372E-13
 -1      1415 2.00174E+01 1.75241E-03 2.11186E-04-9.68595E-03 8.34074E-15-2.42128E-13
 -1      1416 2.00065E+01 1.45988E-03 1.43867E-04-8.88787E-03 3.56450E-14-2.27997E-13
 -1      1417 2.00349E+01 2.95237E-03-5.80686E-04-2.38585E-02 3.47330E-15-1.57661E-13
 -1      1418 1.99973E+01 1.26125E-03 1.68207E-04-5.78089E-03-3.06669E-14-2.61034E-13
 -1      1419 1.99910E+01 1.01928E-03 1.24043E-04-5.22078E-03 1.37713E-14-2.74540E-13
 -1      1420 2.00121E+01 2.10019E-03-4.24264E-04-1.49221E-02-2.52095E-14-2.56092E-13
 -1      1421 1.99853E+01 8.80908E-04 1.30773E-04-3.04215E-03-8.88425E-14-3.10591E-13
 -1      1422 1.99821E+01 6.85831E-04 1.03729E-04-2.66273E-03-1.21897E-13-4.40540E-13
 -1      1423 1.99975E+01 1.44542E-03-3.01825E-04-8.54061E-03-8.99441E-14-3.57692E-13
 -1      1424 1.99790E+01 5.93241E-04 9.93463E-05-1.18856E-03-2.47668E-14-4.23054E-13
 -1      1425 1.99779E+01 4.39502E-04 8.45538E-05-9.43113E-04 7.19894E-15-4.27880E-13
 -1      1426 1.99888E+01 9.54517E-04-2.08114E-04-4.12539E-03-1.42160E-13-2.42310E-13
 -1      1427 1.99765E+01 3.80762E-04 7.37318E-05 9.06627E-06 3.04701E-14-4.56853E-13
 -1      1428 1.99768E+01 2.62140E-04 6.73877E-05 1.57650E-04 5.68897E-15-5.44130E-13
 -1      1429 1.99843E+01 5.95542E-04-1.37969E-04-1.18804E-03 7.68634E-15-1.33378E-13
 -1      1430 1.99765E+01 2.27744E-04 5.33758E-05 7.32663E-04 4.33351E-14-4.39267E-13
 -1      1431 1.99776E+01 1.38101E-04 5.25987E-05 8.13163E-04 1.11891E-13-3.58455E-13
 -1      1432 1.99825E+01 3.40061E-04-8.66709E-05 6.65015E-04 1.00943E-13-1.08530E-13
 -1      1433 1.99780E+01 1.20679E-04 3.75663E-05 1.12329E-03 9.76214E-14-3.24413E-13
 -1      1434 1.99795E+01 5.43730E-05 4.02347E-05 1.15753E-03 1.02795E-13-2.32604E-13
 -1      1435 1.99826E+01 1.63883E-04-5.01104E-05 1.74309E-03 1.31007E-13-2.05805E-13
 -1      1436 1.99803E+01 4.83505E-05 2.55549E-05 1.28788E-03-4.93066E-14-2.45978E-13
 -1      1437 1.99820E+01 4.32237E-07 3.01538E-05 1.29206E-03-3.08773E-14-3.11945E-13
 -1      1438 1.99837E+01 4.71047E-05-2.48297E-05 2.28383E-03 4.68723E-14-2.65048E-13
 -1      1439 1.99830E+01 1.69805E-06 1.66290E-05 1.30574E-03-1.55916E-14-3.25349E-13
 -1      1440 1.99846E+01-3.20286E-05 2.21132E-05 1.29157E-03-4.74963E-14-2.65818E-13
 -1      1441 1.99855E+01-2.62131E-05-8.00001E-06 2.46579E-03-3.34638E-14-2.24013E-13
 -1      1442 1.99857E+01-2.64301E-05 1.01487E-05 1.23422E-03-1.42442E-14-3.81726E-13
 -1      1443 1.99872E+01-4.94282E-05 1.58275E-05 1.20997E-03-1.60124E-14-3.39965E-13
 -1      1444 1.99874E+01-6.85417E-05 2.63874E-06 2.42009E-03-4.12499E-14-1.96645E-13
 -1      1445 1.99882E+01-4.15613E-05 5.56282E-06 1.11376E-03 6.30703E-14-2.76533E-13
 -1      1446 1.99896E+01-5.66259E-05 1.10056E-05 1.08506E-03 7.47035E-14-1.82026E-13
 -1      1447 1.99894E+01-8.94325E-05 8.85446E-06 2.24061E-03-2.80441E-15-1.94666E-13
 -1      1448 1.99905E+01-4.78844E-05 2.41145E-06 9.71846E-04 6.70146E-14-1.57998E-13
 -1      1449 1.99917E+01-5.72300E-05 7.37249E-06 9.42377E-04 1.87451E-14-1.15882E-13
 -1      1450 1.99913E+01-9.60541E-05 1.20032E-05 1.99263E-03 6.81595E-14-1.41761E-13
 -1      1451 1.99925E+01-4.85173E-05 3.20362E-07 8.26403E-04-1.05053E-13-1.02853E-13
 -1      1452 1.99935E+01-5.38712E-05 4.68087E-06 7.98415E-04-2.27863E-13-3.23074E-13
 -1      1453 1.99930E+01-9.36842E-05 1.31061E-05 1.71985E-03-7.89700E-14-3.44218E-14
 -1      1454 1.99942E+01-4.57454E-05-1.00716E-06 6.88299E-04-2.20240E-13-3.84681E-13
 -1      1455 1.99951E+01-4.84398E-05 2.71769E-06 6.63014E-04-1.27732E-13-5.94284E-13
 -1      1456 1.99945E+01-8.61426E-05 1.29187E-05 1.44997E-03-3.43406E-13-1.69485E-13
 -1      1457 1.99957E+01-4.12294E-05-1.79763E-06 5.63311E-04-1.18704E-14-5.69737E-13
 -1      1458 1.99963E+01-4.22864E-05 1.31106E-06 5.41217E-04 1.32167E-14-7.55253E-13
 -1      1459 1.99958E+01-7.61639E-05 1.19927E-05 1.19905E-03-1.80180E-13-2.81585E-13
 -1      1460 1.99968E+01-3.61843E-05-2.20671E-06 4.53542E-04 4.80542E-14-5.25937E-13
 -1      1461 1.99974E+01-3.63924E-05 3.43031E-07 4.34594E-04 1.36041E-13-4.78153E-13
 -1      1462 1.99968E+01-6.57189E-05 1.07308E-05 9.74687E-04 1.47628E-13-1.44621E-13
 -1      1463 1.99978E+01-3.15453E-05-2.30714E-06 3.58370E-04 1.76646E-13-3.45207E-13
 -1      1464 1.99982E+01-3.15064E-05-2.05693E-07 3.42100E-04 2.29579E-13-9.60135E-14
 -1      1465 1.99977E+01-5.62988E-05 9.43621E-06 7.78299E-04 3.36748E-13 1.19700E-13
 -1      1466 1.99985E+01-2.80501E-05-2.03060E-06 2.75082E-04 2.31723E-13 1.05583E-13
 -1      1467 1.99988E+01-2.82202E-05-2.42718E-07 2.60671E-04 1.65085E-13 3.24966E-13
 -1      1468 1.99984E+01-4.90988E-05 8.36828E-06 6.06664E-04 4.12691E-13 3.51907E-13
 -1      1469 1.99991E+01-2.63611E-05-1.17558E-06 1.99272E-04 1.76664E-14 3.25783E-13
 -1      1470 1.99993E+01-2.69203E-05 3.32257E-07 1.85501E-04 5.54033E-14 2.55022E-13
 -1      1471 1.99989E+01-4.53506E-05 7.70128E-06 4.53036E-04 1.96482E-13 2.49635E-13
 -1      1472 1.99995E+01-2.65742E-05 3.26030E-07 1.25826E-04 1.00882E-13 3.71842E-13
 -1      1473 1.99996E+01-2.69162E-05 8.05536E-07 1.11215E-04 8.32814E-14 5.24952E-13
 -1      1474 1.99993E+01-4.56431E-05 7.31628E-06 3.08328E-04 1.27388E-13 3.34423E-13
 -1      1475 1.99997E+01-3.01218E-05 5.23170E-07 5.12270E-05 8.15988E-15 5.29368E-13
 -1      1476 1.99998E+01-2.36325E-05-2.54185E-06 3.54513E-05-7.88913E-14 4.29183E-13
 -1      1477 1.99996E+01-4.87706E-05 6.38475E-06 1.66763E-04 5.44362E-14 3.46046E-13
 -1      1478 1.99998E+01 4.39578E-07-7.08310E-06-1.23626E-05-3.55030E-13 3.65965E-13
 -1      1479 1.99998E+01-2.54564E-05 7.91198E-07 2.82460E-05-2.91535E-13 1.49808E-13
 -1      1480 2.82763E+01 9.88317E-03-1.27891E-01 4.56978E-01 1.99264E-13 1.95229E-12
 -1      1481 2.94429E+01 1.67858E-01-2.43717E-01 6.39489E-01 1.66048E-13 2.26538E-12
 -1      1482 2.90143E+01 8.26707E-01-9.96764E-02 1.95701E+00 3.30368E-13 1.55732E-12
 -1      1483 2.69549E+01-4.60176E-02 2.17055E-02 4.56367E-01 1.20471E-13 1.61370E-12
 -1      1484 2.76045E+01 3.41826E-03-4.78449E-02 4.17363E-01 1.15676E-13 1.82391E-12
 -1      1485 2.75131E+01 2.43096E-02-3.12390E-02 9.90342E-01 2.67592E-13 1.32421E-12
 -1      1486 2.54493E+01-5.74235E-02 4.47746E-02 6.65888E-01 5.90159E-14 1.43878E-12
 -1      1487 2.62851E+01-8.30696E-02 2.22092E-02 5.83920E-01 5.20781E-14 1.53241E-12
 -1      1488 2.62811E+01-1.11862E-01 3.07695E-02 1.06222E+00 1.41468E-13 1.15497E-12
 -1      1489 2.35159E+01-1.92496E-02 1.72609E-02 8.65443E-01 1.08284E-13 1.25461E-12
 -1      1490 2.46522E+01-7.71322E-02 2.41561E-02 7.89329E-01 7.99335E-14 1.37357E-12
 -1      1491 2.49255E+01-1.14752E-01 3.58549E-02 1.40959E+00 1.43946E-13 1.02004E-12
 -1      1492 2.14533E+01 5.95980E-02-3.64780E-02 8.29153E-01 7.96420E-14 1.03778E-12
 -1      1493 2.26741E+01 1.36443E-02-1.09401E-03 8.22686E-01 7.31810E-14 1.15427E-12
 -1      1494 2.33685E+01 6.15848E-03 8.31450E-03 1.57649E+00 1.56705E-13 8.47603E-13
 -1      1495 1.99743E+01 1.28351E-01-8.35682E-02 4.40551E-01 5.22013E-14 9.08398E-13
 -1      1496 2.08308E+01 1.39837E-01-3.34465E-02 5.38143E-01 4.62720E-14 9.39950E-13
 -1      1497 2.19342E+01 2.02797E-01-3.15366E-02 1.22148E+00 1.01433E-13 6.82114E-13
 -1      1498 1.97397E+01 1.28195E-01-8.51275E-02-1.61308E-01 1.10769E-13 7.18196E-13
 -1      1499 1.98372E+01 2.08872E-01-4.96759E-02 3.11668E-04 7.12590E-14 8.12000E-13
 -1      1500 2.11518E+01 3.40469E-01-5.51090E-02 3.30931E-01 1.33473E-13 4.78683E-13
 -1      1501 2.07983E+01 5.84649E-02-3.73982E-02-6.45892E-01 6.84400E-14 4.25548E-13
 -1      1502 2.01198E+01 1.65404E-01-3.54303E-02-5.11164E-01 1.01787E-13 5.80411E-13
 -1      1503 2.13346E+01 2.93433E-01-4.83675E-02-6.77049E-01 2.10235E-13 2.67952E-13
 -1      1504 2.25176E+01-2.29596E-02 2.11403E-02-7.79145E-01 1.01288E-13 2.03199E-13
 -1      1505 2.14478E+01 5.07390E-02-2.20650E-03-7.32347E-01 8.22576E-14 3.53884E-13
 -1      1506 2.22832E+01 9.36050E-02-2.33529E-02-1.27093E+00 1.51094E-13 3.08711E-14
 -1      1507 2.40864E+01-6.66933E-02 5.25524E-02-5.93603E-01 7.32730E-14 6.83550E-14
 -1      1508 2.31109E+01-5.03407E-02 2.47616E-02-6.26275E-01 8.07895E-14 1.71946E-13
 -1      1509 2.34450E+01-1.04879E-01-6.18809E-04-1.24914E+00 1.51207E-13-8.41098E-14
 -1      1510 2.50139E+01-6.81542E-02 5.09202E-02-2.77555E-01 4.88845E-15-7.94503E-14
 -1      1511 2.44267E+01-9.32045E-02 3.19958E-02-3.44301E-01 3.56468E-14 1.26288E-14
 -1      1512 2.43198E+01-1.93837E-01 1.03772E-02-8.05113E-01 8.17159E-14-1.28566E-13
 -1      1513 2.52294E+01-4.77089E-02 3.28755E-02 6.02565E-03 3.12623E-14-9.84868E-14
 -1      1514 2.50718E+01-8.65880E-02 2.39919E-02-5.63351E-02 5.55112E-17-8.10567E-14
 -1      1515 2.46901E+01-1.78374E-01 1.17402E-02-2.58216E-01 2.58647E-14-2.48516E-13
 -1      1516 2.49104E+01-2.45287E-02 1.40459E-02 1.89229E-01-1.30607E-14-1.60042E-13
 -1      1517 2.50734E+01-5.84444E-02 1.17637E-02 1.47265E-01 7.62411E-16-1.43415E-13
 -1      1518 2.45883E+01-1.16437E-01 8.79227E-03 1.76502E-01 3.71508E-14-2.79088E-13
 -1      1519 2.42917E+01-7.25416E-03 1.39868E-03 2.74656E-01 1.31481E-14-1.64084E-13
 -1      1520 2.46321E+01-2.96274E-02 2.24528E-03 2.53219E-01 6.85823E-15-1.22024E-13
 -1      1521 2.41637E+01-5.44233E-02 5.21087E-03 4.33168E-01-2.09780E-14-2.51473E-13
 -1      1522 2.35643E+01 2.90207E-03-4.84762E-03 2.91758E-01 1.73279E-14-2.22492E-13
 -1      1523 2.39673E+01-8.59980E-03-2.75477E-03 2.84966E-01 6.87422E-14-1.29483E-13
 -1      1524 2.35756E+01-1.09468E-02 2.50944E-03 5.36228E-01 7.96431E-14-1.93624E-13
 -1      1525 2.28501E+01 7.65180E-03-6.83123E-03 2.70489E-01-4.30717E-14-1.87092E-13
 -1      1526 2.32440E+01 3.87106E-03-4.31895E-03 2.72218E-01-3.95567E-14-2.31870E-13
 -1      1527 2.29457E+01 1.32619E-02 8.52541E-04 5.37943E-01-2.52997E-14-1.41261E-13
 -1      1528 2.22122E+01 9.08645E-03-6.62667E-03 2.32364E-01 8.79596E-14-3.23736E-13
 -1      1529 2.25610E+01 9.89286E-03-4.05527E-03 2.38164E-01 6.28317E-14-1.95972E-13
 -1      1530 2.23494E+01 2.36437E-02-4.70156E-05 4.85463E-01 6.19379E-14-2.13664E-13
 -1      1531 2.16747E+01 8.78330E-03-5.57269E-03 1.90197E-01-7.90271E-14-3.68593E-13
 -1      1532 2.19658E+01 1.18831E-02-3.12661E-03 1.97367E-01 1.94189E-14-3.23692E-13
 -1      1533 2.18249E+01 2.58941E-02-4.90235E-04 4.11181E-01 7.54800E-14-1.42466E-13
 -1      1534 2.12394E+01 7.71874E-03-4.35585E-03 1.50543E-01 7.80647E-15-2.42500E-13
 -1      1535 2.14729E+01 1.16772E-02-2.14283E-03 1.57645E-01-8.77156E-14-3.49207E-13
 -1      1536 2.13852E+01 2.40833E-02-6.81830E-04 3.33922E-01-1.31900E-13-1.52759E-13
 -1      1537 2.08969E+01 6.42706E-03-3.26090E-03 1.16159E-01 2.37100E-14-2.82046E-13
 -1      1538 2.10788E+01 1.04437E-02-1.33803E-03 1.22529E-01 5.55773E-14-1.54811E-13
 -1      1539 2.10292E+01 2.06453E-02-7.38216E-04 2.63077E-01 1.15747E-14-1.12355E-13
 -1      1540 2.06335E+01 5.17000E-03-2.37148E-03 8.77396E-02-4.93685E-14-2.62249E-13
 -1      1541 2.07720E+01 8.84959E-03-7.55405E-04 9.31467E-02-3.82866E-14-3.49631E-13
 -1      1542 2.07484E+01 1.68668E-02-7.21665E-04 2.02379E-01 1.18508E-14-1.44207E-13
 -1      1543 2.04351E+01 4.05797E-03-1.68564E-03 6.49861E-02 4.84036E-14-3.85870E-13
 -1      1544 2.05384E+01 7.24096E-03-3.64395E-04 6.94176E-02 4.04971E-14-2.67093E-13
 -1      1545 2.05316E+01 1.33488E-02-6.66326E-04 1.52520E-01 5.80417E-14-1.63844E-13
 -1      1546 2.02884E+01 3.12380E-03-1.17229E-03 4.71887E-02 2.25959E-15-3.84843E-13
 -1      1547 2.03640E+01 5.77791E-03-1.17008E-04 5.07315E-02-2.56759E-14-4.11968E-13
 -1      1548 2.03676E+01 1.03209E-02-5.92020E-04 1.12735E-01 1.20934E-14-2.71506E-13
 -1      1549 2.01822E+01 2.36379E-03-7.95505E-04 3.35299E-02-6.56869E-15-3.16412E-13
 -1      1550 2.02363E+01 4.51981E-03 3.03485E-05 3.63076E-02-3.00578E-14-3.27781E-13
 -1      1551 2.02458E+01 7.82856E-03-5.10882E-04 8.16801E-02-4.07840E-14-3.24905E-13
 -1      1552 2.01069E+01 1.75911E-03-5.23205E-04 2.32255E-02 4.88075E-14-3.63093E-13
 -1      1553 2.01447E+01 3.47505E-03 1.11149E-04 2.53669E-02 3.79385E-14-2.16491E-13
 -1      1554 2.01571E+01 5.83506E-03-4.30453E-04 5.78834E-02-3.36151E-14-2.42219E-13
 -1      1555 2.00550E+01 1.28638E-03-3.29381E-04 1.55822E-02 3.06330E-14-3.94462E-13
 -1      1556 2.00806E+01 2.62835E-03 1.49180E-04 1.72068E-02 2.47951E-14-3.07950E-13
 -1      1557 2.00939E+01 4.27312E-03-3.55267E-04 3.99568E-02 4.10546E-14-1.57117E-13
 -1      1558 2.00203E+01 9.22403E-04-1.93785E-04 1.00141E-02 9.15803E-14-5.83443E-13
 -1      1559 2.00371E+01 1.95501E-03 1.60666E-04 1.12268E-02 2.97645E-14-5.24340E-13
 -1      1560 2.00500E+01 3.06962E-03-2.87794E-04 2.66817E-02 1.51201E-13-3.02099E-13
 -1      1561 1.99982E+01 6.46262E-04-1.00966E-04 6.03948E-03-2.73628E-13-5.66988E-13
 -1      1562 2.00085E+01 1.42817E-03 1.56413E-04 6.92889E-03-1.16638E-13-6.50032E-13
 -1      1563 2.00204E+01 2.15628E-03-2.29101E-04 1.70301E-02-6.32869E-14-2.27529E-13
 -1      1564 1.99850E+01 4.39927E-04-3.92510E-05 3.27033E-03-7.79747E-14-2.82850E-13
 -1      1565 1.99909E+01 1.02214E-03 1.43491E-04 3.90985E-03-1.87538E-13-4.63653E-13
 -1      1566 2.00013E+01 1.47354E-03-1.79325E-04 1.01583E-02-2.80976E-13-4.23818E-13
 -1      1567 1.99780E+01 2.88303E-04 1.29453E-07 1.39894E-03 3.88320E-14-3.49790E-13
 -1      1568 1.99808E+01 7.13942E-04 1.26441E-04 1.84814E-03-5.88268E-15-3.25764E-13
 -1      1569 1.99898E+01 9.71382E-04-1.38019E-04 5.38677E-03-3.77639E-14-4.61021E-13
 -1      1570 1.99752E+01 1.78983E-04 2.37241E-05 1.84761E-04-1.07597E-13-3.03201E-13
 -1      1571 1.99760E+01 4.83706E-04 1.08113E-04 4.91252E-04-4.54204E-14-3.16226E-13
 -1      1572 1.99835E+01 6.08732E-04-1.04401E-04 2.17685E-03-5.15397E-14-2.80026E-13
 -1      1573 1.99751E+01 1.01931E-04 3.63916E-05-5.57733E-04 9.76944E-14-1.61942E-13
 -1      1574 1.99746E+01 3.14717E-04 9.02263E-05-3.56418E-04-2.49194E-14-1.92865E-13
 -1      1575 1.99808E+01 3.52437E-04-7.75311E-05 1.07732E-04-8.95654E-14-2.35593E-13
 -1      1576 1.99767E+01 4.91290E-05 4.17039E-05-9.69622E-04 1.69058E-13-4.00632E-13
 -1      1577 1.99754E+01 1.93159E-04 7.37513E-05-8.44316E-04 1.79137E-13-1.22859E-13
 -1      1578 1.99803E+01 1.76083E-04-5.64254E-05-1.14480E-03 1.92350E-13-2.42155E-13
 -1      1579 1.99791E+01 1.42547E-05 4.22554E-05-1.15657E-03-1.19712E-13-4.04505E-13
 -1      1580 1.99775E+01 1.07796E-04 5.91689E-05-1.08493E-03 4.98392E-14-3.78901E-13
 -1      1581 1.99813E+01 5.88809E-05-4.01336E-05-1.82697E-03 6.88021E-14-3.08705E-13
 -1      1582 1.99818E+01-7.61184E-06 3.99006E-05-1.19639E-03 1.71171E-13-6.47471E-13
 -1      1583 1.99801E+01 4.96230E-05 4.66443E-05-1.16157E-03-3.00710E-16-6.22013E-13
 -1      1584 1.99831E+01-1.53282E-05-2.77822E-05-2.12287E-03 8.85935E-14-6.10905E-13
 -1      1585 1.99847E+01-2.02482E-05 3.59373E-05-1.14527E-03 2.08314E-14-8.87418E-13
 -1      1586 1.99830E+01 1.15217E-05 3.61467E-05-1.13479E-03 5.50275E-14-8.11694E-13
 -1      1587 1.99853E+01-5.89447E-05-1.85977E-05-2.16774E-03 1.47789E-13-9.23562E-13
 -1      1588 1.99874E+01-2.65134E-05 3.12496E-05-1.04288E-03-2.13815E-14-5.65154E-13
 -1      1589 1.99858E+01-1.20545E-05 2.75305E-05-1.04764E-03-1.16567E-13-7.13706E-13
 -1      1590 1.99875E+01-8.13525E-05-1.19140E-05-2.05901E-03-1.84728E-13-8.20603E-13
 -1      1591 1.99898E+01-2.85388E-05 2.64177E-05-9.16385E-04 1.49837E-13-7.67246E-13
 -1      1592 1.99884E+01-2.53678E-05 2.05896E-05-9.29929E-04 1.62730E-13-4.57777E-13
 -1      1593 1.99897E+01-8.95463E-05-7.17109E-06-1.86515E-03 1.33150E-13-6.34291E-13
 -1      1594 1.99920E+01-2.78887E-05 2.18030E-05-7.83682E-04 1.43155E-14-7.69685E-13
 -1      1595 1.99908E+01-3.16480E-05 1.50939E-05-8.01554E-04 4.69730E-14-7.73307E-13
 -1      1596 1.99916E+01-8.86548E-05-3.90649E-06-1.63283E-03 1.51286E-13-3.13276E-13
 -1      1597 1.99938E+01-2.56955E-05 1.76141E-05-6.55886E-04-1.08861E-13-4.88122E-13
 -1      1598 1.99928E+01-3.33118E-05 1.08125E-05-6.75130E-04-7.14110E-14-6.75670E-13
 -1      1599 1.99934E+01-8.23741E-05-1.74304E-06-1.39256E-03-9.15316E-14-1.80405E-13
 -1      1600 1.99953E+01-2.27719E-05 1.39588E-05-5.39211E-04-6.32055E-14-5.35905E-13
 -1      1601 1.99945E+01-3.21517E-05 7.52795E-06-5.57992E-04-3.98155E-14-5.60291E-13
 -1      1602 1.99949E+01-7.33246E-05-3.74271E-07-1.16301E-03-5.11342E-14-2.38621E-13
 -1      1603 1.99965E+01-1.97057E-05 1.08895E-05-4.36346E-04-4.92093E-14-3.23264E-13
 -1      1604 1.99959E+01-2.95002E-05 5.04754E-06-4.53672E-04-9.16080E-14-4.57790E-13
 -1      1605 1.99961E+01-6.33450E-05 4.53717E-07-9.54253E-04-8.83955E-14-4.19697E-13
 -1      1606 1.99975E+01-1.69420E-05 8.45210E-06-3.47414E-04 1.98902E-13-3.97856E-13
 -1      1607 1.99970E+01-2.63761E-05 3.21680E-06-3.62948E-04 1.73688E-13-2.63441E-13
 -1      1608 1.99971E+01-5.37395E-05 9.66818E-07-7.70186E-04 1.25589E-13-3.49571E-13
 -1      1609 1.99983E+01-1.48525E-05 6.75002E-06-2.70552E-04 4.98917E-14-7.07558E-13
 -1      1610 1.99979E+01-2.36181E-05 1.94599E-06-2.84527E-04 1.05458E-13-5.02766E-13
 -1      1611 1.99980E+01-4.54921E-05 1.39745E-06-6.10094E-04 2.17969E-13-4.06691E-13
 -1      1612 1.99990E+01-1.37182E-05 5.98509E-06-2.02280E-04-7.39039E-14-5.46271E-13
 -1      1613 1.99986E+01-2.19477E-05 1.25975E-06-2.15456E-04-1.03809E-14-6.09904E-13
 -1      1614 1.99986E+01-3.94267E-05 2.02127E-06-4.69691E-04-4.97621E-14-2.67597E-13
 -1      1615 1.99994E+01-1.37539E-05 6.16312E-06-1.37965E-04 4.32454E-15-4.76602E-13
 -1      1616 1.99992E+01-2.19588E-05 1.26104E-06-1.51618E-04-8.19214E-14-5.94380E-13
 -1      1617 1.99991E+01-3.62295E-05 3.10721E-06-3.42021E-04-9.61969E-14-2.41576E-13
 -1      1618 1.99997E+01-1.48556E-05 5.57002E-06-7.23097E-05 2.80036E-13-1.12223E-12
 -1      1619 1.99995E+01-2.39021E-05 1.57647E-06-8.86193E-05 2.73377E-13-5.40225E-13
 -1      1620 1.99995E+01-3.68049E-05 4.25602E-06-2.19064E-04 2.67964E-13-6.89781E-13
 -1      1621 1.99998E+01-1.38589E-05-3.09516E-06-1.02089E-05-8.32589E-14-1.13182E-12
 -1      1622 1.99997E+01-2.30272E-05 1.00833E-07-2.65871E-05 1.17788E-14-1.09655E-12
 -1      1623 1.99997E+01-3.59491E-05 3.92440E-06-9.59166E-05 1.92154E-13-7.41694E-13
 -1      1624 1.99998E+01 2.56625E-07-7.35567E-06 9.33395E-06-6.91748E-13-6.82112E-13
 -1      1625 1.99998E+01-9.63775E-05 3.44952E-06-5.56349E-05-4.94376E-13 5.71534E-13
 -1      1626 1.99998E+01-4.83055E-05-2.37623E-06-3.95525E-05-1.05036E-12 3.02824E-13
 -1      1627 1.99998E+01-3.25498E-04 2.84694E-06-1.20517E-04 2.13874E-13 3.52564E-13
 -1      1628 1.99998E+01-1.96221E-04 2.39542E-06-1.08459E-04-2.46061E-13 2.23417E-13
 -1      1629 1.99998E+01-2.11129E-04 4.60134E-06-1.63924E-04-1.66780E-13 6.37705E-13
 -1      1630 1.99998E+01-6.48279E-04 1.33256E-06-1.62472E-04 6.93108E-14-1.75951E-13
 -1      1631 1.99998E+01-4.63787E-04 1.95412E-06-1.56274E-04 1.19547E-13 1.84612E-13
 -1      1632 1.99998E+01-4.49138E-04 4.49345E-06-2.70305E-04 1.12131E-13 1.68567E-13
 -1      1633 1.99998E+01-1.01117E-03 2.19765E-07-1.74233E-04-4.20543E-13-4.12455E-13
 -1      1634 1.99998E+01-8.07286E-04 8.89956E-07-1.74375E-04-9.51238E-15-3.35647E-13
 -1      1635 1.99998E+01-7.47037E-04 1.36690E-06-3.26922E-04-8.92047E-14-3.67513E-13
 -1      1636 1.99998E+01-1.34962E-03-2.70599E-07-1.57478E-04-1.52272E-12-6.21331E-13
 -1      1637 1.99998E+01-1.16438E-03 2.21935E-07-1.62885E-04-6.68484E-13-8.52345E-13
 -1      1638 1.99998E+01-1.05924E-03-1.89119E-06-3.26484E-04-5.95833E-13-1.05756E-12
 -1      1639 1.99998E+01-1.62342E-03-4.63730E-07-1.16566E-04-1.41054E-12 3.49251E-13
 -1      1640 1.99998E+01-1.48018E-03-1.59052E-07-1.26282E-04-1.62367E-12 1.05401E-13
 -1      1641 1.99998E+01-1.34220E-03-4.56803E-06-2.74674E-04-7.06434E-13-4.88882E-13
 -1      1642 1.99998E+01-1.78618E-03-4.79284E-07-5.88114E-05-1.10541E-12 4.07523E-14
 -1      1643 1.99998E+01-1.70941E-03-3.24212E-07-7.11445E-05-1.33576E-12 4.27807E-13
 -1      1644 1.99998E+01-1.55760E-03-6.49369E-06-1.81674E-04-8.75360E-13 4.44039E-13
 -1      1645 1.99998E+01-1.81521E-03-4.23400E-07 7.16823E-06-5.62537E-13 4.78703E-13
 -1      1646 1.99998E+01-1.81586E-03-4.23741E-07-6.04787E-06-9.44328E-13 2.90843E-13
 -1      1647 1.99998E+01-1.67265E-03-7.48105E-06-6.27719E-05-6.43762E-13 3.02445E-13
 -1      1648 1.99998E+01-1.70649E-03-3.11467E-07 7.21677E-05-1.95363E-13-1.98120E-13
 -1      1649 1.99998E+01-1.78451E-03-4.81360E-07 5.98700E-05-4.11187E-13 3.62912E-13
 -1      1650 1.99998E+01-1.67163E-03-7.47004E-06 6.48878E-05-2.19997E-13 6.04132E-13
 -1      1651 1.99998E+01-1.47543E-03-1.09378E-07 1.27043E-04-4.43314E-13-3.08492E-13
 -1      1652 1.99998E+01-1.61966E-03-4.92000E-07 1.17425E-04-8.39330E-14-4.31583E-13
 -1      1653 1.99998E+01-1.55471E-03-6.44918E-06 1.83507E-04-1.22076E-13-2.00243E-13
 -1      1654 1.99998E+01-1.16140E-03 2.05093E-07 1.62937E-04-5.22726E-13-1.30149E-14
 -1      1655 1.99998E+01-1.34697E-03-2.83622E-07 1.57634E-04-2.69055E-13-2.96708E-13
 -1      1656 1.99998E+01-1.34009E-03-4.57817E-06 2.75420E-04-2.74725E-13-4.41252E-13
 -1      1657 1.99998E+01-8.01427E-04 8.64196E-07 1.74207E-04-2.41341E-13 2.22123E-13
 -1      1658 1.99998E+01-1.00522E-03 2.31499E-07 1.74190E-04-5.20226E-13 2.58680E-13
 -1      1659 1.99998E+01-1.05655E-03-1.83184E-06 3.26571E-04-4.80411E-14 3.70188E-14
 -1      1660 1.99998E+01-4.58463E-04 2.12044E-06 1.55913E-04-4.33636E-13-2.65928E-13
 -1      1661 1.99998E+01-6.42704E-04 1.29090E-06 1.61916E-04-2.08843E-13 1.27076E-13
 -1      1662 1.99998E+01-7.41806E-04 1.37032E-06 3.26292E-04-1.37519E-13 1.61178E-13
 -1      1663 1.99998E+01-1.96151E-04 7.94112E-07 1.08502E-04-6.36750E-13 1.74560E-13
 -1      1664 1.99998E+01-3.22285E-04 2.92310E-06 1.20944E-04-5.02047E-13-1.11333E-13
 -1      1665 1.99998E+01-4.45722E-04 4.43225E-06 2.68823E-04-2.87890E-13-3.05164E-13
 -1      1666 1.99998E+01-7.75613E-05-3.47279E-06 6.61429E-05-3.79555E-13 1.30041E-14
 -1      1667 1.99998E+01-1.29104E-04 2.55312E-06 8.90821E-05-5.27548E-13 1.86763E-13
 -1      1668 1.99997E+01-2.45633E-04 2.39504E-06 2.00492E-04-2.53648E-13 2.65369E-13
 -1      1669 1.99997E+01-1.21326E-04-2.24387E-06 1.37470E-04-7.44825E-14 1.85102E-13
 -1      1670-5.07525E-01-1.29700E+01-1.62753E+00-8.38047E-01 1.32760E-12 8.82044E-13
 -1      1671-4.88314E-01-1.49411E+01-1.81291E+00 2.73857E-01 3.29556E-13 5.39707E-13
 -1      1672 1.97150E+00-6.63322E+00-1.10482E+00 1.22052E+00 2.28229E-12 1.49257E-12
 -1      1673 1.01306E+00-1.14869E+01-1.59923E+00 4.41588E-01 1.53078E-12 9.95252E-13
 -1      1674 7.36669E+00 1.79067E-01-5.59496E-01 4.95097E+00 2.63167E-12 1.86073E-12
 -1      1675 4.28789E+00-4.92824E+00-1.28273E+00 2.18565E+00 2.59714E-12 1.50108E-12
 -1      1676 1.85476E+01 4.55503E+00 2.01692E-01 9.74938E+00 2.07723E-12 2.00862E-12
 -1      1677 1.20644E+01 1.33554E+00-6.47359E-01 6.22386E+00 2.37255E-12 1.86207E-12
 -1      1678 3.20263E+01 6.55513E+00 1.00701E+00 1.26472E+01 1.59239E-12 2.18670E-12
 -1      1679 2.31960E+01 6.12943E+00 1.43186E-01 1.06344E+01 1.98186E-12 2.22311E-12
 -1      1680 4.52403E+01 5.46811E+00 1.63687E+00 1.13730E+01 1.03950E-12 1.46405E-12
 -1      1681 3.68955E+01 6.87798E+00 9.55905E-01 1.25067E+01 1.47510E-12 2.00440E-12
 -1      1682 5.41134E+01 3.66601E+00 1.89546E+00 4.89079E+00 6.07542E-13 1.97120E-13
 -1      1683 4.89644E+01 5.29983E+00 1.62193E+00 9.72753E+00 9.23844E-13 1.13620E-12
 -1      1684 5.19846E+01 4.06469E+00 1.51360E+00-3.10915E+00 8.28893E-13-1.24267E-12
 -1      1685 5.33093E+01 3.98107E+00 1.68104E+00 2.30048E+00 6.76570E-13-2.90282E-13
 -1      1686 4.38486E+01 5.16650E+00 1.10886E+00-8.91397E+00 1.31195E-12-2.39464E-12
 -1      1687 5.04940E+01 3.72707E+00 1.54570E+00-5.24278E+00 8.95090E-13-1.64524E-12
 -1      1688 3.12587E+01 6.14212E+00 4.58519E-01-1.11823E+01 2.07523E-12-3.08886E-12
 -1      1689 4.01655E+01 5.12517E+00 1.20684E+00-1.10103E+01 1.54265E-12-2.84572E-12
 -1      1690 1.77666E+01 3.72913E+00-3.98857E-01-7.90691E+00 2.55718E-12-2.75957E-12
 -1      1691 2.62871E+01 5.08588E+00 4.70264E-01-1.06841E+01 2.18003E-12-2.97151E-12
 -1      1692 7.25087E+00-1.72583E-01-1.09140E+00-3.98559E+00 2.85971E-12-2.28617E-12
 -1      1693 1.19679E+01 3.36732E+00-3.76959E-01-7.20817E+00 2.85816E-12-2.79154E-12
 -1      1694 2.04187E+00-6.07365E+00-1.48151E+00-6.86946E-01 2.29594E-12-1.42958E-12
 -1      1695 3.91900E+00-1.60077E+00-9.82700E-01-2.57100E+00 2.78566E-12-2.05291E-12
 -1      1696 4.41136E-02-1.04983E+01-1.58353E+00 2.69229E-01 1.16651E-12-7.63500E-13
 -1      1697 2.84299E-01-7.41035E+00-1.35744E+00 3.78633E-01 2.02016E-12-1.18046E-12
 -1      1698-4.46734E-01-1.11435E+01-1.47045E+00-1.57468E-01-2.83967E-13-6.08541E-13
 -1      1699-4.98110E-01-1.08283E+01-1.47593E+00 8.68997E-01 7.31193E-13-6.81982E-13
 -1      1700-4.52919E-02-8.53498E+00-1.32635E+00-2.23890E-01-1.62570E-12-8.92522E-13
 -1      1701-1.70638E-01-1.09499E+01-1.52193E+00 3.62217E-01-7.17204E-13-6.08347E-13
 -1      1702 2.15310E+00-3.00851E+00-9.88938E-01 1.70820E+00-2.55096E-12-1.59450E-12
 -1      1703 1.14241E+00-7.25986E+00-1.41321E+00 6.27415E-01-1.95177E-12-1.06413E-12
 -1      1704 9.55699E+00 2.60871E+00-3.81682E-01 6.37475E+00-2.69540E-12-2.33524E-12
 -1      1705 5.63352E+00-1.62115E+00-1.01980E+00 3.35383E+00-2.51044E-12-1.78368E-12
 -1      1706 1.94664E+01 6.14150E+00 2.00897E-01 1.04228E+01-2.55562E-12-2.86571E-12
 -1      1707 1.30989E+01 4.19402E+00-5.42247E-01 7.49603E+00-2.83396E-12-2.60925E-12
 -1      1708 3.38142E+01 5.70909E+00 8.23283E-01 1.15089E+01-1.72373E-12-2.63678E-12
 -1      1709 2.47259E+01 6.16293E+00 7.43215E-02 1.04590E+01-2.26241E-12-2.77434E-12
 -1      1710 4.60801E+01 4.22428E+00 1.30556E+00 7.45244E+00-1.01310E-12-1.78391E-12
 -1      1711 3.83297E+01 5.74262E+00 7.37939E-01 9.90742E+00-1.48398E-12-2.34135E-12
 -1      1712 5.26318E+01 3.52984E+00 1.66718E+00 1.00372E+00-6.11594E-13-6.48342E-13
 -1      1713 4.92902E+01 4.27496E+00 1.36794E+00 5.88874E+00-8.56981E-13-1.52633E-12
 -1      1714 5.15159E+01 4.18099E+00 1.66807E+00-6.40155E+00-6.18033E-13 5.63161E-13
 -1      1715 5.36728E+01 3.36964E+00 1.76647E+00-1.36880E+00-4.94382E-13-2.22308E-13
 -1      1716 4.27988E+01 5.98952E+00 1.23459E+00-1.10384E+01-9.84490E-13 1.42408E-12
 -1      1717 4.89674E+01 4.43938E+00 1.65182E+00-8.23425E+00-6.80317E-13 8.87290E-13
 -1      1718 3.08203E+01 7.23079E+00 6.62483E-01-1.23554E+01-1.59533E-12 1.98974E-12
 -1      1719 3.90293E+01 6.21794E+00 1.32090E+00-1.24016E+01-1.14009E-12 1.72373E-12
 -1      1720 1.88945E+01 5.13549E+00-6.70481E-02-9.35799E+00-2.10099E-12 1.97065E-12
 -1      1721 2.63785E+01 6.28229E+00 6.89401E-01-1.18485E+01-1.71951E-12 1.96076E-12
 -1      1722 8.87152E+00 8.96453E-01-7.64246E-01-5.26616E+00-2.33291E-12 1.80767E-12
 -1      1723 1.38986E+01 4.50036E+00-3.50682E-04-8.61456E+00-2.28917E-12 2.07301E-12
 -1      1724 3.48141E+00-6.33257E+00-1.29930E+00-1.80301E+00-1.80211E-12 1.16257E-12
 -1      1725 5.93628E+00-1.19189E+00-6.42098E-01-4.15354E+00-2.11742E-12 1.61937E-12
 -1      1726 4.14703E-01-1.24143E+01-1.74426E+00-3.14447E-02-1.03517E-12 7.11237E-13
 -1      1727 9.17206E-01-8.12878E+00-1.29606E+00-3.23569E-01-1.72884E-12 1.09085E-12
 -1      1728-4.89449E-01-1.51702E+01-1.84564E+00-4.16310E-01-1.20459E-14 4.19664E-13
 -1      1729-4.63822E-01-1.34841E+01-1.68915E+00 6.91224E-01-7.91756E-13 5.90777E-13
 -1      1730 2.51440E+01 6.80533E-01 2.07144E-01 7.29008E+00 1.25955E-12 1.13010E-12
 -1      1731 1.52253E+01-2.80705E+00-2.94490E-01 6.75756E+00 1.37179E-12 1.03456E-12
 -1      1732 1.99998E+01-9.70769E-06-7.81734E-07-7.07198E-06-8.99553E-13-1.94502E-13
 -1      1733 1.99997E+01-8.04033E-05-1.55491E-07-6.69304E-05-3.28361E-13 9.85027E-14
 -1      1734 1.00249E+00-8.49949E+00-1.06739E+00 2.64945E+00 7.00773E-13 1.33649E-12
 -1      1735 6.53427E+00-6.09024E+00-7.99015E-01 4.98888E+00 1.08580E-12 1.23715E-12
 -1      1736-1.09562E+00-1.00981E+01-1.30153E+00-5.53934E-02 1.35239E-13 1.00248E-12
 -1      1737 3.48897E+01 4.26372E+00 8.40698E-01 7.15773E+00 1.21619E-12 9.89098E-13
 -1      1738 4.31980E+01 6.32204E+00 1.37892E+00 5.46208E+00 1.17609E-12 4.58633E-13
 -1      1739 4.58222E+01 7.45405E+00 1.41117E+00 2.14156E+00 1.19099E-12-1.56847E-13
 -1      1740 4.39720E+01 7.09124E+00 1.23747E+00-1.06682E+00 1.26277E-12-7.30527E-13
 -1      1741 3.97217E+01 5.18780E+00 1.05342E+00-4.46643E+00 1.34238E-12-1.39433E-12
 -1      1742 3.07458E+01 2.39249E+00 4.50343E-01-6.17443E+00 1.49764E-12-1.73317E-12
 -1      1743 2.02093E+01-2.59591E-01-7.74486E-02-6.53374E+00 1.61293E-12-1.79856E-12
 -1      1744 9.88374E+00-2.72810E+00-6.43325E-01-5.20950E+00 1.65090E-12-1.76487E-12
 -1      1745 3.13429E+00-5.35903E+00-9.85418E-01-3.02351E+00 1.24389E-12-1.45775E-12
 -1      1746-2.57888E-01-6.78844E+00-1.07295E+00-9.22424E-01 5.45675E-13-1.22596E-12
 -1      1747-6.96392E-01-6.83072E+00-1.05098E+00 9.15226E-01-2.05322E-13-1.16318E-12
 -1      1748 1.58586E+00-5.54383E+00-9.49413E-01 2.80473E+00-9.50351E-13-1.25838E-12
 -1      1749 7.56650E+00-2.87717E+00-5.84346E-01 5.25263E+00-1.33438E-12-1.48226E-12
 -1      1750 1.59618E+01-2.21951E-01-2.44509E-01 6.79737E+00-1.53622E-12-1.63508E-12
 -1      1751 2.59590E+01 2.58580E+00 3.16737E-01 7.29637E+00-1.63258E-12-1.69009E-12
 -1      1752 3.54382E+01 4.64124E+00 7.86927E-01 5.19670E+00-1.36038E-12-1.31051E-12
 -1      1753 4.19296E+01 6.54570E+00 1.10989E+00 2.41385E+00-1.21253E-12-9.19265E-13
 -1      1754 4.57420E+01 7.27576E+00 1.44430E+00-5.14620E-01-1.03517E-12-3.92478E-13
 -1      1755 4.43781E+01 6.89960E+00 1.40558E+00-3.68111E+00-9.47908E-13 1.89460E-13
 -1      1756 3.87638E+01 5.80287E+00 1.11168E+00-6.40261E+00-1.04029E-12 6.73350E-13
 -1      1757 3.05411E+01 3.37601E+00 5.94052E-01-7.48510E+00-1.16607E-12 9.09939E-13
 -1      1758 2.12471E+01 4.81375E-01 1.22891E-01-7.55437E+00-1.24645E-12 1.04661E-12
 -1      1759 1.21196E+01-3.12419E+00-4.44215E-01-6.41255E+00-1.00708E-12 1.14897E-12
 -1      1760 5.01502E+00-6.53451E+00-8.44304E-01-4.59505E+00-7.55729E-13 1.11158E-12
 -1      1761 2.56652E-01-9.29430E+00-1.23392E+00-2.12982E+00-3.70148E-13 9.85600E-13
 -1      1762 2.75895E+01 2.21062E+00-1.67333E-02-3.03855E+00-3.00742E-13 1.38611E-12
 -1      1763 2.27401E+01 3.13822E+00-3.61372E-02-2.12952E+00-2.74839E-13-2.42611E-13
 -1      1764 2.32907E+01 3.17103E+00-6.63469E-02-2.62759E+00-3.58030E-13-1.18058E-13
 -1      1765 2.38903E+01 3.03473E+00-5.51707E-02-2.89489E+00-3.82938E-13 3.61794E-14
 -1      1766 2.43710E+01 2.79065E+00-1.81008E-01-3.28518E+00-4.38458E-13 2.60875E-13
 -1      1767 2.39220E+01 2.18070E+00-1.33859E-02-2.64472E+00-3.96723E-13 6.70644E-15
 -1      1768 1.98145E+01 2.85466E+00-2.17813E-02 1.71135E-02 2.42965E-14-4.61860E-13
 -1      1769 2.07421E+01 2.93184E+00-1.91111E-02-5.09580E-01-5.36012E-14-4.23057E-13
 -1      1770 1.74479E+01 2.98016E+00-3.05164E-02 1.06819E+00 1.47823E-13-5.36368E-13
 -1      1771 1.87283E+01 2.97196E+00 5.67307E-03 6.33755E-01 9.08804E-14-5.15515E-13
 -1      1772 1.96923E+01 2.09376E+00-3.58548E-02 3.59321E-01 6.66724E-14-4.32834E-13
 -1      1773 1.46401E+01 3.47242E+00-3.77437E-02 1.69074E+00 2.28387E-13-6.28107E-13
 -1      1774 1.60867E+01 3.37809E+00 3.35514E-02 1.49016E+00 1.97981E-13-5.90208E-13
 -1      1775 1.70485E+01 2.49174E+00-3.14468E-02 1.49120E+00 2.09461E-13-5.34163E-13
 -1      1776 1.20594E+01 4.18539E+00-3.24096E-02 1.58353E+00 2.40148E-13-7.20736E-13
 -1      1777 1.32587E+01 4.05502E+00 4.31631E-02 1.70403E+00 2.46553E-13-6.89680E-13
 -1      1778 1.39795E+01 3.33691E+00-5.98428E-03 2.02447E+00 2.76969E-13-6.68467E-13
 -1      1779 1.08449E+01 4.68332E+00-7.56105E-03 7.81666E-01 1.82701E-13-7.72047E-13
 -1      1780 1.12294E+01 4.61360E+00 2.21685E-02 1.13404E+00 2.14904E-13-7.68183E-13
 -1      1781 1.14439E+01 4.26288E+00 2.91953E-02 1.61356E+00 2.61501E-13-7.86742E-13
 -1      1782 1.16551E+01 4.62724E+00 2.63385E-02-2.13653E-01 1.10240E-13-7.24899E-13
 -1      1783 1.09838E+01 4.66256E+00-1.20900E-02 1.26211E-01 1.34718E-13-7.62061E-13
 -1      1784 1.06254E+01 4.65789E+00 4.95744E-02 4.52920E-01 1.74874E-13-8.17634E-13
 -1      1785 1.42275E+01 4.07884E+00 3.89363E-02-6.98487E-01 7.56964E-14-6.05488E-13
 -1      1786 1.27694E+01 4.16983E+00-3.76937E-02-6.25509E-01 7.73531E-14-6.63875E-13
 -1      1787 1.20341E+01 4.20569E+00 2.60181E-02-6.66177E-01 8.64118E-14-7.32430E-13
 -1      1788 1.75555E+01 3.46435E+00 2.36994E-02-3.74697E-01 1.26524E-13-3.96985E-13
 -1      1789 1.58512E+01 3.51905E+00-4.14787E-02-6.28019E-01 9.13991E-14-4.96145E-13
 -1      1790 1.51028E+01 3.26871E+00-1.52052E-02-9.60249E-01 5.94108E-14-5.43550E-13
 -1      1791 2.07555E+01 3.10626E+00-1.14520E-02 5.54556E-01 2.30579E-13-1.58346E-13
 -1      1792 1.91927E+01 3.08949E+00-3.57046E-02 7.81818E-02 1.70360E-13-2.79169E-13
 -1      1793 1.86820E+01 2.45921E+00-3.52502E-02-3.27470E-01 1.23707E-13-2.96910E-13
 -1      1794 2.35749E+01 2.92982E+00-6.01747E-02 1.66820E+00 3.46331E-13 1.58554E-13
 -1      1795 2.21914E+01 2.93257E+00-4.33280E-02 1.11674E+00 2.83669E-13-1.42455E-14
 -1      1796 2.19250E+01 2.04857E+00-3.12998E-02 7.77907E-01 2.41284E-13-3.14332E-14
 -1      1797 2.63997E+01 2.46739E+00-7.95820E-02 2.56050E+00 4.02400E-13 6.58182E-13
 -1      1798 2.49389E+01 2.73681E+00-5.49499E-02 2.11701E+00 3.77677E-13 3.65818E-13
 -1      1799 2.47919E+01 1.78552E+00 5.35483E-03 1.76985E+00 3.54494E-13 3.15470E-13
 -1      1800 2.84929E+01 1.03307E+00-1.52977E-01 2.18936E+00 3.76782E-13 1.25587E-12
 -1      1801 2.73567E+01 2.16679E+00 4.88282E-04 2.55191E+00 3.94474E-13 8.72441E-13
 -1      1802 2.66599E+01 1.18710E+00-3.69290E-02 2.00084E+00 4.09586E-13 6.89088E-13
 -1      1803 2.77157E+01 4.99526E-01-7.59795E-02 1.48574E+00 3.79523E-13 1.14845E-12
 -1      1804 2.60529E+01 2.65328E+00 1.03880E-01-3.47571E+00-3.93298E-13 6.70769E-13
 -1      1805 2.67112E+01-1.34790E-01-1.92671E-02 1.21001E+00 2.44410E-13 1.03557E-12
 -1      1806 2.74156E+01 4.61074E-02-2.29024E-02 1.29748E+00 3.04114E-13 1.12258E-12
 -1      1807 2.70472E+01 3.45626E-01 4.26728E-03 1.66917E+00 3.33632E-13 8.81227E-13
 -1      1808 2.56336E+01 1.62662E+00 8.87923E-02-2.82290E+00-4.11282E-13 5.16712E-13
 -1      1809 2.43538E+01 1.93388E-01 2.94720E-02-1.73338E+00-3.35190E-13 4.99686E-13
 -1      1810 2.36015E+01 5.46738E-02-2.76002E-03-1.59927E+00-3.04812E-13 4.16972E-13
 -1      1811 2.32244E+01 7.16384E-03 2.25452E-02-1.55633E+00-2.65850E-13 4.24314E-13
 -1      1812 2.26519E+01 1.51356E-02 1.15697E-02-1.53379E+00-2.36811E-13 3.43412E-13
 -1      1813 2.37251E+01 9.61614E-02 3.66650E-03-2.02488E+00-3.26810E-13 2.50299E-13
 -1      1814 2.22628E+01 8.20269E-02 1.14701E-02-1.47986E+00-2.13334E-13 3.31159E-13
 -1      1815 2.17821E+01 1.87800E-01 1.91346E-02-1.39575E+00-2.02871E-13 2.47568E-13
 -1      1816 2.29524E+01 1.01796E-01 1.80705E-03-1.90774E+00-2.86807E-13 2.33899E-13
 -1      1817 2.14177E+01 3.06754E-01 6.94572E-03-1.20782E+00-2.03424E-13 1.99570E-13
 -1      1818 2.10699E+01 4.30852E-01 2.26872E-02-9.93353E-01-2.09707E-13 1.55971E-13
 -1      1819 2.22127E+01 3.79713E-01-4.35759E-03-1.64510E+00-2.66694E-13 1.91178E-13
 -1      1820 2.08137E+01 5.23990E-01 1.05371E-02-6.41426E-01-2.10386E-13 8.23972E-14
 -1      1821 2.06553E+01 5.79285E-01 1.82693E-02-3.23726E-01-1.93422E-13 1.20891E-14
 -1      1822 2.16016E+01 7.03000E-01-1.40820E-02-1.04284E+00-2.60961E-13 7.56550E-14
 -1      1823 2.05861E+01 5.79109E-01 1.70845E-02 1.00544E-01-1.67723E-13-3.76497E-14
 -1      1824 2.06384E+01 5.21363E-01 8.04429E-03 4.16584E-01-1.38152E-13-7.23900E-14
 -1      1825 2.12803E+01 8.41676E-01-2.04021E-02-1.64486E-01-2.37525E-13-7.16159E-14
 -1      1826 2.07515E+01 4.22706E-01 1.93203E-02 7.58426E-01-1.51729E-13-1.46464E-13
 -1      1827 2.09759E+01 2.82496E-01-1.09905E-03 9.61015E-01-1.28170E-13-1.89133E-13
 -1      1828 2.13261E+01 6.90096E-01-1.46807E-02 7.01924E-01-1.82630E-13-1.66001E-13
 -1      1829 2.11790E+01 1.40395E-01 1.33226E-02 1.10846E+00-1.49596E-13-2.11844E-13
 -1      1830 2.14893E+01-7.43701E-03-5.43623E-03 1.14718E+00-1.13325E-13-2.35154E-13
 -1      1831 2.16411E+01 3.20167E-01-1.88702E-03 1.24630E+00-1.68419E-13-2.90750E-13
 -1      1832 2.16688E+01-1.23947E-01 1.75666E-03 1.09277E+00-1.28818E-13-3.09990E-13
 -1      1833 2.19689E+01-2.18820E-01-5.76120E-03 9.95417E-01-1.38828E-13-3.93396E-13
 -1      1834 2.20186E+01-8.21283E-02 7.31466E-03 1.33637E+00-2.00189E-13-3.72525E-13
 -1      1835 2.20599E+01-2.75279E-01-8.67263E-03 8.13686E-01-1.01840E-13-3.79369E-13
 -1      1836 2.22800E+01-3.02403E-01-4.17994E-03 6.48687E-01-4.69546E-14-3.66580E-13
 -1      1837 2.22841E+01-3.53602E-01 9.59042E-03 1.05995E+00-1.23288E-13-4.09069E-13
 -1      1838 2.22757E+01-3.04314E-01-1.39771E-02 4.31006E-01-3.31592E-14-3.53902E-13
 -1      1839 2.23864E+01-2.82696E-01-2.57572E-03 2.62436E-01-9.91048E-15-3.45502E-13
 -1      1840 2.23701E+01-4.45149E-01 7.43943E-03 6.10049E-01-3.13109E-14-3.55107E-13
 -1      1841 2.23109E+01-2.53405E-01-1.41545E-02 7.28317E-02 1.67219E-14-3.77554E-13
 -1      1842 2.23173E+01-2.10389E-01-1.46725E-03-6.12383E-02 4.00444E-14-3.30016E-13
 -1      1843 2.22945E+01-3.99763E-01 4.13024E-03 1.59085E-01 4.40403E-15-3.26299E-13
 -1      1844 2.22004E+01-1.71784E-01-1.11707E-02-1.95096E-01 3.46507E-14-2.71905E-13
 -1      1845 2.21268E+01-1.27642E-01-7.03137E-04-2.82359E-01 3.92039E-14-2.08918E-13
 -1      1846 2.21086E+01-2.89024E-01 1.52376E-03-1.95114E-01 6.10029E-14-2.26880E-13
 -1      1847 2.19921E+01-9.28783E-02-7.13990E-03-3.58871E-01-3.31783E-14-1.95551E-13
 -1      1848 2.18681E+01-5.76045E-02-1.49595E-04-4.03249E-01-5.35635E-14-1.85985E-13
 -1      1849 2.18629E+01-1.69637E-01-1.06240E-04-4.23383E-01 5.41255E-15-2.07748E-13
 -1      1850 2.17314E+01-3.17649E-02-3.42424E-03-4.33470E-01-8.29328E-14-1.99350E-13
 -1      1851 2.15836E+01-7.84439E-03 2.86839E-04-4.45603E-01-3.58475E-14-1.89785E-13
 -1      1852 2.15953E+01-7.12881E-02-1.01794E-03-5.37709E-01-5.28158E-14-2.38255E-13
 -1      1853 2.14542E+01 8.78639E-03-6.04375E-04-4.43855E-01-6.13906E-14-2.82607E-13
 -1      1854 2.13026E+01 2.26873E-02 6.20230E-04-4.35106E-01-6.83763E-14-3.15113E-13
 -1      1855 2.13309E+01-2.76991E-03-1.48494E-03-5.66459E-01-1.03141E-13-2.31040E-13
 -1      1856 2.11857E+01 3.18749E-02 1.23373E-03-4.14210E-01-4.28685E-14-3.74864E-13
 -1      1857 2.10433E+01 3.83504E-02 8.45400E-04-3.93940E-01-6.22423E-14-3.87805E-13
 -1      1858 2.10848E+01 3.83952E-02-1.68987E-03-5.39449E-01-6.67668E-14-3.21708E-13
 -1      1859 2.09414E+01 4.22918E-02 2.24387E-03-3.63589E-01-4.30085E-14-3.55675E-13
 -1      1860 2.08154E+01 4.38839E-02 9.64882E-04-3.38470E-01 1.79039E-14-3.49845E-13
 -1      1861 2.08653E+01 5.87803E-02-1.73436E-03-4.81298E-01-4.73165E-14-3.23566E-13
 -1      1862 2.07291E+01 4.44935E-02 2.65086E-03-3.05209E-01 9.73370E-14-3.39932E-13
 -1      1863 2.06223E+01 4.32096E-02 9.93940E-04-2.79504E-01 1.10503E-13-2.85549E-13
 -1      1864 2.06760E+01 6.51995E-02-1.67583E-03-4.09750E-01 6.35180E-14-2.75878E-13
 -1      1865 2.05509E+01 4.19166E-02 2.66578E-03-2.47326E-01 4.14676E-14-2.24254E-13
 -1      1866 2.04636E+01 3.91651E-02 9.55284E-04-2.23469E-01 5.27284E-14-2.42371E-13
 -1      1867 2.05172E+01 6.31852E-02-1.55093E-03-3.36344E-01 9.54195E-14-1.49342E-13
 -1      1868 2.04060E+01 3.69403E-02 2.45438E-03-1.94527E-01 8.55587E-14-2.40640E-13
 -1      1869 2.03366E+01 3.36290E-02 8.72544E-04-1.73699E-01 2.54888E-14-1.47702E-13
 -1      1870 2.03872E+01 5.66941E-02-1.38648E-03-2.67823E-01 6.74608E-14-5.75985E-14
 -1      1871 2.02911E+01 3.10854E-02 2.13336E-03-1.48922E-01 1.60007E-15-1.59779E-13
 -1      1872 2.02375E+01 2.77552E-02 7.66088E-04-1.31510E-01 2.93963E-14-6.33514E-14
 -1      1873 2.02833E+01 4.83211E-02-1.20339E-03-2.07580E-01 5.35409E-14-5.98683E-14
 -1      1874 2.02022E+01 2.52519E-02 1.77820E-03-1.11070E-01-9.18406E-15-1.09073E-13
 -1      1875 2.01618E+01 2.21953E-02 6.51391E-04-9.69970E-02 4.58406E-14-6.05016E-14
 -1      1876 2.02019E+01 3.96424E-02-1.01768E-03-1.56833E-01 6.05365E-14-3.86774E-14
 -1      1877 2.01350E+01 1.99223E-02 1.43374E-03-8.06337E-02 9.89504E-14-1.21858E-13
 -1      1878 2.01053E+01 1.72727E-02 5.39051E-04-6.95770E-02 7.48873E-14-1.22868E-13
 -1      1879 2.01394E+01 3.15340E-02-8.40679E-04-1.15485E-01 1.05121E-13-1.37292E-13
 -1      1880 2.00855E+01 1.53134E-02 1.12370E-03-5.68164E-02 2.40910E-16-5.35751E-14
 -1      1881 2.00643E+01 1.31080E-02 4.35573E-04-4.83492E-02-2.93324E-14-1.19977E-13
 -1      1882 2.00926E+01 2.44180E-02-6.79602E-04-8.27242E-02 5.79701E-14-1.97371E-13
 -1      1883 2.00499E+01 1.14815E-02 8.58208E-04-3.86378E-02-6.59513E-14-8.85709E-14
 -1      1884 2.00352E+01 9.70310E-03 3.44364E-04-3.23120E-02 1.64991E-14-1.29706E-13
 -1      1885 2.00582E+01 1.84376E-02-5.38257E-04-5.74108E-02-2.78582E-14-1.47521E-13
 -1      1886 2.00251E+01 8.39270E-03 6.39108E-04-2.50976E-02 2.54535E-14-1.99731E-13
 -1      1887 2.00154E+01 6.99662E-03 2.66660E-04-2.04908E-02-3.61857E-14-1.90473E-13
 -1      1888 2.00337E+01 1.35756E-02-4.17905E-04-3.83146E-02-8.74907E-14-2.70511E-13
 -1      1889 2.00085E+01 5.96754E-03 4.63608E-04-1.52659E-02-4.79672E-14-1.45580E-13
 -1      1890 2.00023E+01 4.89801E-03 2.02284E-04-1.20038E-02-1.03728E-13-1.97298E-13
 -1      1891 2.00166E+01 9.73016E-03-3.18041E-04-2.42548E-02 2.88789E-14-2.07501E-13
 -1      1892 1.99978E+01 4.10857E-03 3.26629E-04-8.32612E-03-1.41572E-13-1.60318E-13
 -1      1893 1.99943E+01 3.30837E-03 1.50222E-04-6.09129E-03-7.19358E-14-1.51235E-13
 -1      1894 2.00052E+01 6.76270E-03-2.37061E-04-1.41709E-02-8.11520E-14-9.42260E-14
 -1      1895 1.99915E+01 2.71644E-03 2.22255E-04-3.58956E-03-2.63712E-15-1.35323E-13
 -1      1896 1.99898E+01 2.13224E-03 1.09029E-04-2.12151E-03 6.14718E-14-3.98239E-14
 -1      1897 1.99980E+01 4.52584E-03-1.72773E-04-7.15297E-03-1.39133E-14-5.36728E-14
 -1      1898 1.99882E+01 1.69877E-03 1.44593E-04-4.93196E-04 1.04470E-13-1.83345E-14
 -1      1899 1.99877E+01 1.28358E-03 7.71031E-05 4.16268E-04 1.79242E-13 1.52612E-14
 -1      1900 1.99937E+01 2.87942E-03-1.22757E-04-2.44616E-03 1.17468E-13 2.61402E-14
 -1      1901 1.99870E+01 9.74265E-04 8.82314E-05 1.41150E-03 8.80576E-14 5.69247E-14
 -1      1902 1.99872E+01 6.88375E-04 5.28624E-05 1.92486E-03 6.32661E-14-2.22304E-14
 -1      1903 1.99915E+01 1.69836E-03-8.46191E-05 5.58549E-04 9.62104E-14 1.35431E-13
 -1      1904 1.99871E+01 4.74231E-04 4.84515E-05 2.47365E-03 2.66106E-16-1.28062E-13
 -1      1905 1.99877E+01 2.85073E-04 3.48431E-05 2.71493E-03 4.44961E-15-9.47246E-14
 -1      1906 1.99907E+01 8.75816E-04-5.61320E-05 2.34094E-03-1.46524E-14 1.63400E-14
 -1      1907 1.99879E+01 1.42309E-04 2.12914E-05 2.95910E-03 1.12460E-13-5.25956E-14
 -1      1908 1.99888E+01 2.38505E-05 2.17527E-05 3.02089E-03 6.93201E-14 9.31123E-14
 -1      1909 1.99909E+01 3.23430E-04-3.53206E-05 3.27068E-03 7.87193E-14 8.50580E-14
 -1      1910 1.99892E+01-6.65762E-05 3.52030E-06 3.06585E-03-1.12629E-13 1.64932E-13
 -1      1911 1.99902E+01-1.34678E-04 1.24867E-05 3.01571E-03-1.49870E-13 1.73031E-13
 -1      1912 1.99915E+01-2.99434E-05-2.04906E-05 3.62654E-03 4.53958E-14 2.14101E-13
 -1      1913 1.99907E+01-1.87685E-04-7.43135E-06 2.93800E-03 1.64943E-15 2.48865E-13
 -1      1914 1.99917E+01-2.21004E-04 6.12583E-06 2.82392E-03 1.45072E-13 3.00395E-13
 -1      1915 1.99924E+01-2.40298E-04-1.02288E-05 3.61401E-03 2.81146E-14 4.68498E-13
 -1      1916 1.99922E+01-2.48047E-04-1.35627E-05 2.67763E-03 8.88358E-14 2.14504E-13
 -1      1917 1.99931E+01-2.58275E-04 1.92058E-06 2.53266E-03-2.64153E-15 2.37935E-13
 -1      1918 1.99935E+01-3.50798E-04-3.38389E-06 3.38094E-03 3.85908E-14 4.03370E-13
 -1      1919 1.99936E+01-2.67996E-04-1.63969E-05 2.35476E-03-2.46934E-14 2.52675E-13
 -1      1920 1.99944E+01-2.63750E-04-7.31263E-07 2.20073E-03-1.37704E-13 2.28679E-13
 -1      1921 1.99945E+01-3.94084E-04 9.62841E-07 3.03068E-03 2.60967E-15 2.98457E-13
 -1      1922 1.99948E+01-2.62559E-04-1.70702E-05 2.01538E-03-3.60742E-13 1.78908E-13
 -1      1923 1.99955E+01-2.50091E-04-2.30923E-06 1.86585E-03-3.40518E-13 2.06260E-13
 -1      1924 1.99955E+01-3.94399E-04 3.52996E-06 2.63280E-03-2.81710E-13 3.91241E-13
 -1      1925 1.99960E+01-2.42688E-04-1.64121E-05 1.68774E-03-3.21042E-13 1.85193E-13
 -1      1926 1.99965E+01-2.26490E-04-3.19438E-06 1.55020E-03-1.31995E-13 1.89092E-13
 -1      1927 1.99964E+01-3.69485E-04 4.86808E-06 2.23176E-03-3.35255E-13 3.80915E-13
 -1      1928 1.99969E+01-2.16311E-04-1.50107E-05 1.38716E-03 8.18248E-14 7.91971E-14
 -1      1929 1.99974E+01-1.99619E-04-3.68417E-06 1.26474E-03 2.19690E-13 1.87383E-13
 -1      1930 1.99972E+01-3.32212E-04 5.38936E-06 1.85353E-03-5.73692E-14 4.37673E-13
 -1      1931 1.99977E+01-1.89209E-04-1.32557E-05 1.11956E-03 3.48219E-13 2.46260E-13
 -1      1932 1.99981E+01-1.74450E-04-4.01322E-06 1.01217E-03 5.40961E-13 4.03773E-13
 -1      1933 1.99978E+01-2.91946E-04 5.39676E-06 1.51066E-03 3.56417E-13 3.39701E-13
 -1      1934 1.99983E+01-1.65804E-04-1.13944E-05 8.84010E-04 4.74487E-13 2.99036E-13
 -1      1935 1.99986E+01-1.54725E-04-4.26652E-06 7.89093E-04 3.27879E-13 2.29193E-13
 -1      1936 1.99984E+01-2.55738E-04 5.08782E-06 1.20597E-03 3.65965E-13 1.48056E-13
 -1      1937 1.99988E+01-1.49115E-04-9.46038E-06 6.74696E-04 1.90520E-14 1.70332E-13
 -1      1938 1.99991E+01-1.43114E-04-4.48433E-06 5.88256E-04 5.00038E-14 9.19308E-14
 -1      1939 1.99988E+01-2.28328E-04 4.69766E-06 9.35190E-04 1.54405E-13 2.27821E-14
 -1      1940 1.99992E+01-1.41305E-04-7.31602E-06 4.82853E-04 2.30650E-13 9.62180E-14
 -1      1941 1.99994E+01-1.39721E-04-4.46653E-06 4.00060E-04 1.65274E-13 2.30647E-13
 -1      1942 1.99992E+01-2.14128E-04 3.83308E-06 6.90608E-04 9.71457E-14-9.07223E-14
 -1      1943 1.99995E+01-1.36438E-04-5.60589E-06 3.05607E-04 8.70760E-14 2.35331E-13
 -1      1944 1.99996E+01-1.34010E-04-4.67541E-06 2.27714E-04 3.68948E-14 2.47200E-13
 -1      1945 1.99996E+01-1.81620E-04 3.06064E-06 2.71370E-04-4.47881E-14 3.59058E-13
 -1      1946 1.99994E+01-2.02596E-04 4.73350E-06 4.68731E-04 1.94658E-13 6.24775E-14
 -1      1947 2.57407E+01-2.99523E-01 4.03685E-03 1.56231E+00 1.50403E-13 9.20010E-13
 -1      1948 2.63871E+01-2.65912E-01 9.84849E-03 1.36254E+00 1.58944E-13 9.78681E-13
 -1      1949 2.63123E+01-2.97476E-01 4.10183E-03 1.66349E+00 2.14061E-13 8.06393E-13
 -1      1950 2.46009E+01-1.57269E-01 1.01024E-02 1.97876E+00 2.43282E-13 8.18762E-13
 -1      1951 2.53121E+01-2.64586E-01 5.81333E-03 1.75851E+00 1.63309E-13 8.65454E-13
 -1      1952 2.55397E+01-3.52760E-01 1.31659E-02 2.09814E+00 2.04448E-13 7.18090E-13
 -1      1953 2.33329E+01 2.57440E-01 5.67863E-03 1.93418E+00 1.89439E-13 6.73583E-13
 -1      1954 2.40648E+01 5.46230E-02 1.27152E-04 1.94805E+00 2.20424E-13 7.54452E-13
 -1      1955 2.45913E+01 2.89124E-02 5.79038E-03 2.37253E+00 2.57143E-13 6.47543E-13
 -1      1956 2.22860E+01 6.95321E-01-1.26232E-02 1.11482E+00 1.57374E-13 4.54321E-13
 -1      1957 2.28512E+01 5.38011E-01 6.84063E-04 1.50099E+00 1.70634E-13 5.66443E-13
 -1      1958 2.35787E+01 6.59676E-01-1.59259E-02 1.93205E+00 2.30479E-13 4.80299E-13
 -1      1959 2.19406E+01 7.88430E-01-2.96405E-02-2.23461E-01 2.30201E-13 2.36327E-13
 -1      1960 2.21213E+01 8.24348E-01 6.70490E-03 3.91035E-01 1.90924E-13 3.17262E-13
 -1      1961 2.29052E+01 1.09986E+00-3.27689E-02 6.55862E-01 2.61083E-13 2.10265E-13
 -1      1962 2.24349E+01 4.43124E-01-2.53395E-02-1.34507E+00 2.20862E-13 4.85723E-14
 -1      1963 2.21691E+01 6.53111E-01 9.18474E-03-8.45450E-01 2.61711E-13 1.55542E-13
 -1      1964 2.29091E+01 9.74210E-01-2.50186E-02-8.66862E-01 2.90722E-13-1.27216E-14
 -1      1965 2.33675E+01-4.71996E-02-3.11371E-03-1.69069E+00 1.63164E-13-1.81757E-13
 -1      1966 2.28293E+01 1.71381E-01 3.46357E-03-1.53727E+00 1.86426E-13-7.41976E-14
 -1      1967 2.34537E+01 3.71451E-01-4.07992E-03-1.78858E+00 2.59192E-13-1.44813E-13
 -1      1968 2.41730E+01-3.58395E-01 1.51394E-02-1.30516E+00 1.08756E-13-2.19800E-13
 -1      1969 2.36393E+01-2.55149E-01-6.11268E-03-1.46181E+00 1.54127E-13-1.96305E-13
 -1      1970 2.40579E+01-2.62556E-01 5.50834E-03-1.76778E+00 1.95163E-13-2.76366E-13
 -1      1971 2.45438E+01-4.14277E-01 1.84084E-02-6.02432E-01 6.25229E-14-2.51673E-13
 -1      1972 2.42117E+01-4.26064E-01-1.28877E-02-8.91360E-01 7.57450E-14-1.93214E-13
 -1      1973 2.43632E+01-5.86000E-01 4.21868E-04-1.10738E+00 9.59701E-14-2.82829E-13
 -1      1974 2.44736E+01-3.15125E-01 1.25058E-02 4.61959E-02 3.82160E-14-2.72504E-13
 -1      1975 2.43953E+01-3.81328E-01-1.41878E-02-2.22286E-01 2.22669E-14-2.55132E-13
 -1      1976 2.43032E+01-5.78049E-01-5.80232E-03-2.96567E-01 3.29996E-14-3.36736E-13
 -1      1977 2.40966E+01-1.78176E-01 4.96667E-03 4.77280E-01-1.68442E-14-2.43259E-13
 -1      1978 2.42252E+01-2.47203E-01-1.13744E-02 2.96286E-01 3.90833E-14-2.27239E-13
 -1      1979 2.39751E+01-4.02374E-01-7.58358E-03 3.46819E-01 1.45153E-14-2.23317E-13
 -1      1980 2.35605E+01-6.62931E-02-9.76046E-05 6.86735E-01-2.22326E-14-2.91860E-13
 -1      1981 2.38151E+01-1.16153E-01-7.03473E-03 5.96001E-01-3.08477E-14-2.99033E-13
 -1      1982 2.35016E+01-2.06012E-01-5.88427E-03 7.28224E-01-7.79411E-15-2.28335E-13
 -1      1983 2.29757E+01 4.92365E-03-2.37897E-03 7.35463E-01-5.85252E-16-1.81377E-13
 -1      1984 2.32835E+01-2.35800E-02-2.89351E-03 7.11089E-01 2.15561E-15-1.97476E-13
 -1      1985 2.29756E+01-5.83530E-02-3.44973E-03 8.82931E-01-3.70808E-14-3.15961E-13
 -1      1986 2.24119E+01 4.17385E-02-2.85540E-03 6.89927E-01-4.03867E-14-1.29540E-13
 -1      1987 2.27222E+01 2.92687E-02 2.04578E-04 7.05120E-01-4.43523E-14-1.09904E-13
 -1      1988 2.24566E+01 3.00684E-02-1.61758E-03 8.85512E-01-6.94917E-14-1.91475E-13
 -1      1989 2.19062E+01 5.57527E-02-2.48095E-03 6.00177E-01 7.98203E-14-1.67883E-13
 -1      1990 2.21900E+01 5.31211E-02 2.10818E-03 6.34485E-01 4.97237E-15-1.48756E-13
 -1      1991 2.19794E+01 7.23745E-02-6.25205E-04 8.04314E-01 1.89889E-14-9.84417E-14
 -1      1992 2.14739E+01 5.68490E-02-1.85275E-03 4.97417E-01-2.59653E-14-2.39611E-14
 -1      1993 2.17180E+01 5.93662E-02 3.02723E-03 5.37912E-01 1.10161E-13 2.23994E-14
 -1      1994 2.15610E+01 8.56063E-02-2.39867E-04 6.87492E-01 4.77283E-14 3.81357E-15
 -1      1995 2.11168E+01 5.16530E-02-1.25263E-03 3.98501E-01-1.15659E-13-1.16572E-13
 -1      1996 2.13183E+01 5.63676E-02 3.26911E-03 4.38078E-01-1.19265E-13-9.84150E-14
 -1      1997 2.12070E+01 8.31136E-02-1.78706E-04 5.64016E-01-4.82522E-14-1.65174E-14
 -1      1998 2.08296E+01 4.40536E-02-7.75312E-04 3.11126E-01 7.77356E-14-9.59779E-14
 -1      1999 2.09910E+01 4.93184E-02 3.11068E-03 3.46444E-01-4.58661E-14-1.28152E-13
 -1      2000 2.09158E+01 7.34614E-02-2.42157E-04 4.49051E-01-1.09357E-14-8.54994E-14
 -1      2001 2.06038E+01 3.61091E-02-4.30532E-04 2.37773E-01-9.41528E-14-2.04232E-13
 -1      2002 2.07299E+01 4.11037E-02 2.75408E-03 2.67664E-01 2.33229E-14-1.44753E-13
 -1      2003 2.06818E+01 6.15025E-02-3.23568E-04 3.49151E-01 2.02468E-14-1.93757E-13
 -1      2004 2.04295E+01 2.87903E-02-1.97189E-04 1.78232E-01 1.56046E-13-2.02864E-13
 -1      2005 2.05260E+01 3.31676E-02 2.32759E-03 2.02665E-01 4.34531E-14-1.96066E-13
 -1      2006 2.04974E+01 4.97065E-02-3.79668E-04 2.66013E-01 4.84768E-14-2.06627E-13
 -1      2007 2.02975E+01 2.24723E-02-4.79274E-05 1.31077E-01-7.00641E-14-2.74129E-13
 -1      2008 2.03700E+01 2.61360E-02 1.90389E-03 1.50553E-01 3.29136E-14-2.24005E-13
 -1      2009 2.03549E+01 3.91679E-02-4.00851E-04 1.98866E-01 2.61833E-14-2.92649E-13
 -1      2010 2.01993E+01 1.72271E-02 4.16396E-05 9.44618E-02-1.13248E-13-2.45594E-13
 -1      2011 2.02528E+01 2.02023E-02 1.51913E-03 1.09680E-01-7.17258E-14-2.98151E-13
 -1      2012 2.02467E+01 3.02487E-02-3.92127E-04 1.45854E-01-5.68658E-14-2.58584E-13
 -1      2013 2.01277E+01 1.29861E-02 9.05517E-05 6.65233E-02-3.88385E-14-1.88006E-13
 -1      2014 2.01663E+01 1.53493E-02 1.18767E-03 7.82085E-02-8.79499E-14-2.79697E-13
 -1      2015 2.01660E+01 2.29514E-02-3.62842E-04 1.04788E-01-5.75692E-14-2.92917E-13
 -1      2016 2.00766E+01 9.62441E-03 1.12754E-04 4.55602E-02 1.05846E-13-2.14945E-13
 -1      2017 2.01038E+01 1.14682E-02 9.11870E-04 5.43848E-02 5.45564E-14-1.57117E-13
 -1      2018 2.01069E+01 1.71207E-02-3.21962E-04 7.35161E-02 5.86614E-14-1.87096E-13
 -1      2019 2.00409E+01 7.00369E-03 1.18087E-04 3.01014E-02 1.08305E-13-1.96084E-13
 -1      2020 2.00596E+01 8.41949E-03 6.88116E-04 3.66540E-02 1.33540E-13-1.50832E-13
 -1      2021 2.00646E+01 1.25473E-02-2.76448E-04 5.01014E-02 1.23826E-13-1.13941E-13
 -1      2022 2.00169E+01 4.99156E-03 1.13321E-04 1.89165E-02-2.14264E-13-1.73341E-13
 -1      2023 2.00293E+01 6.06195E-03 5.10190E-04 2.36938E-02-5.37250E-14-1.71330E-13
 -1      2024 2.00350E+01 9.01691E-03-2.31079E-04 3.28764E-02-3.02807E-14-1.06207E-13
 -1      2025 2.00014E+01 3.46993E-03 1.03013E-04 1.09999E-02-1.45457E-13-3.71003E-13
 -1      2026 2.00092E+01 4.26625E-03 3.71137E-04 1.44110E-02-1.94534E-13-2.21574E-13
 -1      2027 2.00150E+01 6.33274E-03-1.88788E-04 2.04499E-02-1.51071E-13-1.89608E-13
 -1      2028 1.99920E+01 2.33747E-03 9.01515E-05 5.54417E-03 2.37783E-14-3.24201E-13
 -1      2029 1.99966E+01 2.91952E-03 2.64204E-04 7.92004E-03-2.64913E-14-3.99436E-13
 -1      2030 2.00020E+01 4.32336E-03-1.51139E-04 1.16867E-02 4.59364E-15-2.40173E-13
 -1      2031 1.99868E+01 1.50939E-03 7.66366E-05 1.91100E-03-2.16006E-13-3.07393E-13
 -1      2032 1.99891E+01 1.92632E-03 1.83283E-04 3.51491E-03-1.15503E-13-3.38362E-13
 -1      2033 1.99941E+01 2.84412E-03-1.18749E-04 5.67639E-03-8.94581E-14-2.63024E-13
 -1      2034 1.99845E+01 9.16073E-04 6.36196E-05-3.97061E-04 1.49068E-13-3.51333E-13
 -1      2035 1.99854E+01 1.20758E-03 1.23066E-04 6.41386E-04-8.72656E-14-2.63685E-13
 -1      2036 1.99897E+01 1.77563E-03-9.16329E-05 1.69996E-03-9.31231E-14-2.69020E-13
 -1      2037 1.99842E+01 5.01206E-04 5.17445E-05-1.76220E-03 1.20075E-13-1.46594E-13
 -1      2038 1.99840E+01 6.98934E-04 7.90766E-05-1.12957E-03 1.66117E-13-2.04497E-13
 -1      2039 1.99876E+01 1.02093E-03-6.94447E-05-8.02133E-04 1.02004E-13-1.75226E-13
 -1      2040 1.99849E+01 2.19885E-04 4.13184E-05-2.47367E-03 1.09611E-13-2.82853E-13
 -1      2041 1.99842E+01 3.48691E-04 4.76131E-05-2.12524E-03 1.83980E-13-1.05927E-13
 -1      2042 1.99872E+01 5.02392E-04-5.16521E-05-2.25904E-03 1.38906E-13-4.42928E-14
 -1      2043 1.99864E+01 3.67806E-05 3.24314E-05-2.74685E-03 2.34751E-13-6.15505E-13
 -1      2044 1.99854E+01 1.15930E-04 2.56696E-05-2.59145E-03 1.61299E-13-4.65792E-13
 -1      2045 1.99878E+01 1.58703E-04-3.76484E-05-2.99487E-03 2.82100E-13-3.02393E-13
 -1      2046 1.99881E+01-7.55253E-05 2.50383E-05-2.73923E-03-7.25057E-14-7.71166E-13
 -1      2047 1.99870E+01-3.13123E-05 1.08429E-05-2.70972E-03 1.08188E-13-7.07029E-13
 -1      2048 1.99889E+01-5.79275E-05-2.68239E-05-3.25037E-03 1.36418E-13-4.78104E-13
 -1      2049 1.99899E+01-1.38012E-04 1.90160E-05-2.56355E-03-5.71819E-14-8.67168E-13
 -1      2050 1.99888E+01-1.17658E-04 1.23965E-06-2.61145E-03-1.58627E-13-8.19099E-13
 -1      2051 1.99903E+01-1.84243E-04-1.86069E-05-3.20101E-03-1.06200E-13-5.98797E-13
 -1      2052 1.99916E+01-1.66497E-04 1.42008E-05-2.29843E-03 3.21777E-14-5.93787E-13
 -1      2053 1.99906E+01-1.61801E-04-4.61080E-06-2.38959E-03-3.36057E-14-7.69008E-13
 -1      2054 1.99917E+01-2.48091E-04-1.24863E-05-2.97188E-03-1.10127E-13-8.35549E-13
 -1      2055 1.99932E+01-1.72733E-04 1.04124E-05-1.99689E-03-4.98202E-14-9.66612E-14
 -1      2056 1.99923E+01-1.77729E-04-7.83442E-06-2.10799E-03 2.62049E-15-1.89942E-13
 -1      2057 1.99931E+01-2.70263E-04-8.01919E-06-2.64975E-03-2.28162E-13-4.33596E-13
 -1      2058 1.99946E+01-1.65326E-04 7.46870E-06-1.69302E-03-1.04474E-13-6.20978E-14
 -1      2059 1.99938E+01-1.75750E-04-9.28144E-06-1.80881E-03-6.35899E-14-7.17383E-14
 -1      2060 1.99944E+01-2.66051E-04-4.83221E-06-2.29270E-03-9.27090E-14-3.83478E-14
 -1      2061 1.99958E+01-1.50515E-04 5.19259E-06-1.40704E-03-3.66662E-14-1.13416E-13
 -1      2062 1.99951E+01-1.63371E-04-9.58514E-06-1.51824E-03 1.61692E-14-2.10488E-14
 -1      2063 1.99956E+01-2.46552E-04-2.61690E-06-1.93756E-03-6.12057E-14 3.81717E-14
 -1      2064 1.99968E+01-1.32823E-04 3.41753E-06-1.14918E-03-5.79532E-14-3.22118E-13
 -1      2065 1.99963E+01-1.46023E-04-9.21012E-06-1.25086E-03-8.96755E-14-3.37434E-13
 -1      2066 1.99966E+01-2.19750E-04-1.12259E-06-1.60563E-03-4.17865E-14-2.81320E-14
 -1      2067 1.99977E+01-1.15598E-04 1.99580E-06-9.22369E-04 1.58701E-13-3.55706E-13
 -1      2068 1.99972E+01-1.27670E-04-8.48670E-06-1.01287E-03 1.10315E-13-3.33719E-13
 -1      2069 1.99974E+01-1.91425E-04-1.45588E-07-1.30699E-03 1.06924E-13-2.15030E-13
 -1      2070 1.99983E+01-1.01461E-04 8.19077E-07-7.24160E-04 5.56593E-14-6.55659E-14
 -1      2071 1.99980E+01-1.11325E-04-7.63155E-06-8.04309E-04 1.16533E-13-2.63457E-13
 -1      2072 1.99981E+01-1.65891E-04 4.83614E-07-1.04349E-03 1.15567E-13-9.79838E-14
 -1      2073 1.99989E+01-9.24061E-05-8.41036E-08-5.47941E-04-1.05135E-13-6.14096E-14
 -1      2074 1.99986E+01-9.93822E-05-6.74089E-06-6.20634E-04-8.61271E-15-6.79032E-14
 -1      2075 1.99986E+01-1.46525E-04 9.15280E-07-8.10985E-04-2.88666E-14 1.75498E-13
 -1      2076 1.99993E+01-8.93528E-05-5.66065E-07-3.85059E-04 1.18418E-14-4.21131E-13
 -1      2077 1.99991E+01-9.31724E-05-5.71698E-06-4.54300E-04-7.31767E-16-1.28325E-13
 -1      2078 1.99991E+01-1.35098E-04 1.41457E-06-6.01250E-04 6.26039E-14-1.36663E-13
 -1      2079 1.99995E+01-9.16325E-05-1.90137E-06-2.28377E-04 2.82668E-13-3.77472E-13
 -1      2080 1.99994E+01-9.20444E-05-4.24778E-06-2.97309E-04 1.82365E-13-4.95233E-13
 -1      2081 1.99994E+01-1.32350E-04 1.65636E-06-4.05551E-04 2.22668E-13-1.44088E-13
 -1      2082 1.99997E+01-8.96782E-05-3.32856E-06-1.15886E-04-9.13312E-14-6.51058E-14
 -1      2083 1.99996E+01-9.62537E-05-2.96948E-06-1.80525E-04 2.55431E-13-1.17200E-13
 -1      2084 1.99996E+01-1.36243E-04 1.54942E-06-2.56513E-04 8.48293E-14 4.11764E-13
 -1      2085 1.99997E+01-1.31807E-04-9.05954E-08-1.51810E-04-2.43951E-13 7.74162E-13
 -1      2086 1.99998E+01-8.34495E-04 1.92298E-06-4.59741E-04-1.40856E-13-4.92435E-13
 -1      2087 1.99998E+01-6.87404E-04-2.82518E-06-4.45006E-04-1.17007E-13-1.60244E-13
 -1      2088 1.99997E+01-5.49207E-04 4.26796E-07-4.09461E-04-4.41064E-14-1.06541E-13
 -1      2089 1.99997E+01-4.18313E-04-3.51177E-06-3.61073E-04 1.53746E-14 8.24938E-14
 -1      2090 1.99997E+01-6.33960E-04 1.74817E-07-5.50406E-04-1.03746E-13-2.58163E-13
 -1      2091 1.99997E+01-3.17894E-04-7.26757E-07-2.95585E-04-4.77789E-14 5.01970E-13
 -1      2092 1.99997E+01-2.16093E-04-3.02197E-06-2.28035E-04-2.36632E-13 7.69968E-13
 -1      2093 1.99996E+01-2.21766E-04-1.98651E-06-2.83258E-04-1.46012E-13 7.55192E-13
 -1      2094 1.99997E+01-4.00835E-04 1.49500E-06-4.34951E-04-1.26927E-13 2.97813E-13
 -1      2095 1.99998E+01-1.10967E-03 3.47087E-06-4.38301E-04-5.23428E-13-1.39363E-12
 -1      2096 1.99998E+01-9.67933E-04-7.23199E-07-4.55204E-04-2.57800E-13-1.05931E-12
 -1      2097 1.99998E+01-9.03687E-04-1.30204E-06-5.82722E-04-2.57590E-13-9.94611E-13
 -1      2098 1.99999E+01-1.34900E-03 4.76370E-06-3.51426E-04-4.58157E-13-1.99809E-13
 -1      2099 1.99999E+01-1.22855E-03 1.48299E-06-3.95983E-04-4.69710E-13-7.73604E-13
 -1      2100 1.99999E+01-1.15567E-03-2.83234E-06-5.28910E-04-2.36060E-13-1.03410E-12
 -1      2101 1.99999E+01-1.51629E-03 5.49073E-06-2.14402E-04-5.83181E-13 2.68926E-13
 -1      2102 1.99999E+01-1.43677E-03 3.45430E-06-2.78729E-04-4.73929E-13 3.28340E-13
 -1      2103 1.99999E+01-1.36244E-03-4.21047E-06-3.98627E-04-2.13998E-13 1.14874E-14
 -1      2104 1.99999E+01-1.59015E-03 5.53544E-06-4.78044E-05-3.85673E-13 4.52913E-13
 -1      2105 1.99999E+01-1.56269E-03 4.85579E-06-1.22401E-04-5.67583E-13 2.89921E-13
 -1      2106 2.00000E+01-1.49690E-03-5.10712E-06-2.12844E-04-3.97853E-13 3.48319E-13
 -1      2107 1.99999E+01-1.56131E-03 4.84612E-06 1.25246E-04-6.66246E-14 4.64768E-13
 -1      2108 1.99999E+01-1.58972E-03 5.54182E-06 5.07436E-05-1.62250E-13 6.99555E-13
 -1      2109 2.00000E+01-1.54298E-03-5.40647E-06 1.87133E-06-2.89151E-13 7.49622E-13
 -1      2110 1.99999E+01-1.43370E-03 3.48878E-06 2.81062E-04-1.84172E-13-4.09613E-13
 -1      2111 1.99999E+01-1.51414E-03 5.45104E-06 2.17041E-04-1.59594E-13 1.21682E-14
 -1      2112 2.00000E+01-1.49524E-03-5.07253E-06 2.16331E-04-1.79946E-13 1.14916E-13
 -1      2113 1.99999E+01-1.22842E-03 1.49158E-06 3.95940E-04-6.41536E-14-2.61021E-13
 -1      2114 1.99999E+01-1.34712E-03 4.73305E-06 3.52348E-04-2.23822E-13-3.43015E-13
 -1      2115 1.99999E+01-1.36095E-03-4.24643E-06 4.00193E-04-1.47354E-13-2.94876E-13
 -1      2116 1.99998E+01-9.65228E-04-7.66558E-07 4.55152E-04 6.65905E-14 2.55949E-13
 -1      2117 1.99998E+01-1.10947E-03 3.49289E-06 4.38289E-04 2.36808E-14-4.44809E-14
 -1      2118 1.99999E+01-1.15541E-03-2.83868E-06 5.29030E-04 1.24719E-13-7.70837E-14
 -1      2119 1.99998E+01-6.82412E-04-2.82289E-06 4.44225E-04-1.06511E-13-1.21752E-13
 -1      2120 1.99998E+01-8.29595E-04 1.96640E-06 4.59241E-04-4.54317E-15 1.98156E-13
 -1      2121 1.99998E+01-9.00746E-04-8.67237E-07 5.82402E-04 1.41794E-14 7.04181E-14
 -1      2122 1.99997E+01-4.07104E-04-1.16285E-06 3.60530E-04-2.67338E-13-2.04044E-13
 -1      2123 1.99997E+01-5.44143E-04 5.48644E-07 4.07991E-04-2.19536E-13-2.57275E-13
 -1      2124 1.99997E+01-6.30043E-04 2.19911E-07 5.48463E-04-1.47535E-13-2.31712E-13
 -1      2125 1.15690E+01-4.35292E+00-9.61263E-02 6.71855E+00 5.39679E-13 7.07122E-13
 -1      2126 7.94909E+00-5.29817E+00-2.53309E-01 5.68356E+00 2.35867E-13 8.88678E-13
 -1      2127 4.53972E-01-6.01569E+00-3.91267E-01 6.29041E-01 3.07088E-13 1.08008E-12
 -1      2128 3.79965E-01-6.29366E+00-4.45562E-01-9.13638E-01 1.57652E-14 8.99336E-13
 -1      2129 4.20060E+00-4.59207E+00-1.61804E-01 4.43601E+00 3.36398E-13 1.13742E-12
 -1      2130 2.06500E+00-5.58366E+00-3.41226E-01 2.53776E+00 1.60455E-13 1.16068E-12
 -1      2131 1.96606E+01-3.24310E+00-8.07495E-03 6.97070E+00 6.28608E-13 4.81393E-13
 -1      2132 1.48793E+01-4.64606E+00-2.71577E-01 6.41594E+00 6.43596E-13 5.29077E-13
 -1      2133 1.58080E+01-4.88324E+00-4.12006E-03 6.88118E+00-6.10623E-14 3.25337E-13
 -1      2134 2.85275E+01 1.68906E-02 1.90168E-01 5.96265E+00 8.57259E-13 5.42344E-13
 -1      2135 2.36917E+01-2.00170E+00-1.41191E-01 5.72289E+00 8.01192E-13 5.06706E-13
 -1      2136 2.15052E+01 2.98497E+00-2.44336E-02-1.11295E+00-1.30673E-13-3.70596E-13
 -1      2137 2.21483E+01 3.08543E+00-4.44354E-02-1.63927E+00-2.20924E-13-3.21188E-13
 -1      2138 2.29253E+01 2.22212E+00-1.98565E-02-1.97576E+00-2.47041E-13-2.18086E-13
 -1      2139 2.16072E+01 2.11051E+00-1.88727E-02-8.87270E-01-9.78133E-14-3.27988E-13
 -1      2140 3.98561E+01 5.67834E+00 4.21249E-01 2.45792E+00 1.11655E-12-5.68989E-14
 -1      2141 3.69599E+01 4.76640E+00 2.29018E-01 3.29695E+00 1.08757E-12 1.59761E-13
 -1      2142 3.93953E+01 7.21625E+00 2.39188E-01 5.25218E-01 1.25755E-12-3.12774E-13
 -1      2143 4.05936E+01 6.82309E+00 5.07026E-01 1.69638E+00 1.19316E-12-1.08524E-13
 -1      2144 3.64451E+01 6.73345E+00 3.54309E-01 4.72393E-01 1.18167E-12-2.65815E-13
 -1      2145 3.85874E+01 6.13014E+00 3.14107E-01-3.22888E-01 1.22791E-12-5.12312E-13
 -1      2146 3.91808E+01 6.87544E+00 2.51588E-01 4.96063E-01 1.23873E-12-3.03230E-13
 -1      2147 3.49516E+01 3.14663E+00 1.79948E-01-2.71653E+00 1.18641E-12-9.61897E-13
 -1      2148 3.75537E+01 4.27316E+00 2.27273E-01-1.38272E+00 1.15935E-12-6.10900E-13
 -1      2149 2.79568E+01-7.18399E-02-1.02281E-01-3.92096E+00 1.07520E-12-9.47908E-13
 -1      2150 3.28068E+01 1.61411E+00 2.43074E-01-3.96405E+00 1.13920E-12-1.01319E-12
 -1      2151 3.29932E+01 1.62372E+00 2.25225E-01-8.10730E-01 9.02511E-13-3.52773E-13
 -1      2152 1.88996E+01-2.43607E+00-2.55889E-01-5.44474E+00 9.82991E-13-1.19033E-12
 -1      2153 2.41499E+01-1.47462E+00-2.09531E-02-5.49340E+00 9.58955E-13-1.02762E-12
 -1      2154 1.01994E+01-3.41469E+00-4.22075E-01-5.17783E+00 9.23872E-13-1.29054E-12
 -1      2155 1.45018E+01-2.24739E+00-1.71907E-01-6.19883E+00 1.09313E-12-1.36854E-12
 -1      2156 4.17618E+00-3.69927E+00-3.85983E-01-3.59542E+00 5.31408E-13-1.23146E-12
 -1      2157 7.02104E+00-2.88609E+00-2.21700E-01-4.89499E+00 8.29281E-13-1.32265E-12
 -1      2158 7.51019E-01-3.48152E+00-3.38210E-01-1.01540E+00 1.57263E-13-1.21952E-12
 -1      2159 1.85629E+00-3.36345E+00-3.11490E-01-2.33212E+00 5.48034E-13-1.27015E-12
 -1      2160 9.92155E-01-3.12999E+00-2.95901E-01 2.00792E+00-2.46053E-13-1.21209E-12
 -1      2161 4.71066E-01-3.20402E+00-3.03040E-01 7.13331E-01 1.38185E-13-1.21181E-12
 -1      2162 4.39855E+00-2.60631E+00-2.37738E-01 4.52805E+00-6.23002E-13-1.22730E-12
 -1      2163 2.34234E+00-3.49501E+00-3.75172E-01 3.27317E+00-2.91267E-13-1.15691E-12
 -1      2164 1.14898E+01-1.76138E+00-1.16595E-01 6.55108E+00-6.83564E-13-1.14448E-12
 -1      2165 7.48875E+00-2.90641E+00-3.40137E-01 5.28871E+00-5.75651E-13-1.17736E-12
 -1      2166 2.08389E+01-6.90727E-01 1.09063E-02 6.52138E+00-1.00098E-12-1.09113E-12
 -1      2167 1.64695E+01-1.99750E+00-2.00169E-01 6.02985E+00-7.35301E-13-9.92428E-13
 -1      2168 2.83396E+01 8.13320E-01 4.06588E-02 4.94142E+00-1.04949E-12-8.70359E-13
 -1      2169 2.36906E+01-2.35203E-01-1.68142E-01 5.38518E+00-1.05627E-12-1.00930E-12
 -1      2170 2.41418E+01-1.81561E+00 6.56113E-02 4.51271E+00-4.62907E-13-5.20556E-13
 -1      2171 3.43438E+01 3.53650E+00 1.04189E-01 2.06825E+00-1.09848E-12-5.48450E-13
 -1      2172 3.10526E+01 2.28877E+00-4.26633E-03 3.13966E+00-1.10737E-12-7.74603E-13
 -1      2173 3.87682E+01 6.47083E+00 3.36210E-01 5.53732E-01-1.16318E-12-5.30603E-13
 -1      2174 3.61245E+01 5.61652E+00 1.02764E-01 1.31252E+00-1.18427E-12-6.40377E-13
 -1      2175 3.95276E+01 7.08742E+00 3.42338E-01-1.04379E+00-1.06143E-12-2.53492E-13
 -1      2176 3.86184E+01 7.10129E+00 2.08634E-01-8.95020E-03-1.14264E-12-4.94160E-13
 -1      2177 3.75874E+01 6.25383E+00 2.27104E-01-2.30578E+00-9.46632E-13-3.83582E-14
 -1      2178 3.94649E+01 6.66762E+00 3.46872E-01-1.43958E+00-9.73388E-13-2.23682E-13
 -1      2179 3.52613E+01 7.91636E+00 3.13772E-01-4.25597E-01-1.07941E-12-4.36484E-13
 -1      2180 3.38495E+01 3.68124E+00 1.39204E-01-4.16131E+00-9.20437E-13 2.54796E-13
 -1      2181 3.67510E+01 4.79570E+00 3.12411E-01-3.25146E+00-8.88234E-13 5.32352E-14
 -1      2182 2.80541E+01 6.92382E-01-2.31845E-02-5.16583E+00-8.54178E-13 3.63487E-13
 -1      2183 3.22843E+01 2.40100E+00 2.99476E-01-5.23274E+00-8.66474E-13 3.50830E-13
 -1      2184 3.23587E+01 2.17863E+00 2.28262E-01-2.22533E+00-7.32976E-13-1.52822E-13
 -1      2185 2.00401E+01-2.36413E+00-1.92001E-01-6.45673E+00-7.11597E-13 6.18228E-13
 -1      2186 2.46808E+01-8.76049E-01 8.74184E-02-6.59956E+00-7.45848E-13 4.52194E-13
 -1      2187 1.28466E+01-4.48923E+00-2.80634E-01-6.47508E+00-4.03177E-13 7.66498E-13
 -1      2188 1.68514E+01-2.79167E+00-2.21144E-02-7.21353E+00-6.47926E-13 7.19091E-13
 -1      2189 2.07219E+01-3.96368E+00 1.88916E-02-6.43098E+00-1.89126E-13 3.53578E-13
 -1      2190 5.63556E+00-5.71788E+00-3.94726E-01-5.03716E+00-1.57485E-13 9.30950E-13
 -1      2191 8.94248E+00-4.34082E+00-1.31673E-01-6.43793E+00-2.97817E-13 8.65377E-13
 -1      2192 1.63662E+00-6.22290E+00-4.49759E-01-2.72678E+00 2.60625E-14 8.79741E-13
 -1      2193 3.40182E+00-5.40205E+00-2.69207E-01-4.11331E+00-1.96121E-13 9.66699E-13
 -1      2194 6.46759E+00-4.18530E+00-1.23043E-01-5.61057E+00 1.29452E-13 9.76497E-13
 -1      2195 3.53445E+01 3.08113E+00 3.49662E-01 4.17504E+00 9.82151E-13 1.84963E-13
 -1      2196 3.11336E+01 1.41904E+00 5.74732E-03 4.43499E+00 9.53015E-13 3.82694E-13
 -1      2197 2.34523E+01-3.98540E+00 2.09545E-02 5.53555E+00 2.71949E-13 1.24900E-13
 -1      2198 2.46386E+01 8.55503E-01-3.54320E-02-2.20125E+00-3.94566E-13 4.23873E-13
 -1      2199 3.45944E+01 3.37618E+00 2.77801E-01 1.14738E+00 8.79741E-13-2.38420E-13
 -1      2200 2.44052E+01 9.16586E-01-1.49582E-02-2.49595E+00-4.03400E-13 2.34958E-13
 -1      2201 8.17722E+00-4.01768E+00-5.00863E-02 5.77999E+00-1.27121E-13 9.09162E-13
 -1      2202 2.65776E+00-3.49798E+00-1.38163E-01 2.07897E+00 1.16213E-13 1.12244E-12
 -1      2203 1.99997E+01-3.34036E-04-2.05429E-06 3.42253E-04-1.46047E-13 9.62521E-14
 -1      2204 2.35562E+00-4.02747E+00-2.14021E-01-2.38615E+00 1.52323E-13 1.01896E-12
 -1      2205 3.04707E+01-6.46456E-01 1.46855E-01 3.12128E+00 6.11164E-13-5.09037E-14
 -1      2206 1.30592E+01-4.65060E+00-6.89315E-02-6.99403E+00 6.12843E-14 7.01397E-13
 -1      2207 2.75072E+01-1.52147E+00 1.04688E-01-4.44787E+00-4.39482E-13 3.55271E-14
 -1      2208 3.48082E+01 5.61565E+00 2.71652E-01-8.81831E-01-8.80018E-13-3.25961E-13
 -1      2209 3.52981E+01 7.54488E+00 2.67280E-01-5.49290E-01-1.19715E-12-3.96502E-13
 -1      2210 2.96844E+01 5.66791E-01 1.39752E-01 1.95199E+00-7.64236E-13-2.93043E-13
 -1      2211 1.61747E+01-2.44023E+00 3.93363E-03 6.25929E+00-2.15050E-13-8.54421E-13
 -1      2212 7.83062E+00-1.88325E+00-6.81941E-02 5.76352E+00-8.93730E-14-1.15283E-12
 -1      2213 2.91632E+00-1.40291E+00-1.40128E-01 3.26573E+00 2.35645E-14-1.31511E-12
 -1      2214 1.67649E+00-1.28638E+00-1.42617E-01-2.48048E-01 1.19148E-13-1.39350E-12
 -1      2215 4.66326E+00-1.93219E+00-1.38108E-01-3.76862E+00 2.08417E-13-1.33854E-12
 -1      2216 1.08505E+01-2.97163E+00-1.30678E-01-5.62170E+00 3.32734E-13-1.16959E-12
 -1      2217 2.71864E+01-2.03545E+00 3.21015E-02-3.23938E+00 6.10456E-13-5.12035E-13
 -1      2218 3.37764E+01 7.14398E+00 1.45762E-02 9.86234E-01 1.21847E-12-6.25888E-14
 -1      2219 3.72805E+01 7.27168E+00 2.50528E-01 6.41414E-01 1.24645E-12-2.21871E-13
 -1      2220 3.38738E+01 7.39045E+00-2.64753E-02 5.80661E-01 1.26898E-12-1.32228E-13
 -1      2221 3.56930E+01 5.30176E+00 2.68007E-01 6.09634E-01 1.14175E-12-1.85296E-13
 -1      2222 1.91133E+01-3.23073E+00 1.26348E-02-5.50258E+00 4.69069E-13-8.74315E-13
 -1      2223 3.34572E+01 4.39676E+00 1.26153E-01-1.24083E-01-1.04283E-12-2.52687E-13
 -1      2224 2.59569E+01-5.89975E-01-1.69756E-02 1.87261E+00 2.08614E-13 6.15863E-13
 -1      2225 2.63476E+01-3.40931E-01 2.91479E-02 1.74379E+00 2.26716E-13 6.59703E-13
 -1      2226 1.67928E+01 1.88964E+00-2.23646E-02 2.06951E+00 2.85852E-13-5.05859E-13
 -1      2227 1.84639E+01 1.63556E+00 3.43589E-02 1.58449E+00 2.27251E-13-4.58271E-13
 -1      2228 1.98627E+01 1.33907E+00-1.09367E-02 7.56494E-01 1.49242E-13-3.82762E-13
 -1      2229 2.09825E+01 1.26226E+00-1.19905E-02 1.05365E-01 5.11249E-14-3.40233E-13
 -1      2230 1.96494E+01 6.56458E-01-1.65060E-02 1.41249E+00 1.87126E-13-3.48555E-13
 -1      2231 1.03005E+01 4.16662E+00-2.68408E-03 1.76339E+00 2.82678E-13-8.45050E-13
 -1      2232 1.15041E+01 3.87013E+00 7.36225E-02 2.20280E+00 3.22957E-13-8.00894E-13
 -1      2233 9.89608E+00 4.49187E+00 4.71531E-02 6.45441E-02 1.41340E-13-8.69218E-13
 -1      2234 9.71303E+00 4.49038E+00 3.19011E-02 7.69467E-01 2.08683E-13-8.83179E-13
 -1      2235 9.58908E+00 4.11117E+00 9.01627E-02 1.44209E+00 2.52831E-13-9.23386E-13
 -1      2236 1.23408E+01 3.74836E+00 8.12723E-02-1.26626E+00 2.61891E-14-7.36111E-13
 -1      2237 1.07897E+01 4.03944E+00-1.42875E-02-8.62168E-01 6.40521E-14-8.04655E-13
 -1      2238 1.00109E+01 4.00102E+00 9.65013E-02-6.39208E-01 8.25520E-14-8.90572E-13
 -1      2239 1.62961E+01 2.51856E+00 6.33589E-02-1.34323E+00 1.53592E-14-4.83179E-13
 -1      2240 1.41968E+01 2.88942E+00-3.46527E-02-1.49799E+00-3.90486E-15-6.04468E-13
 -1      2241 1.32000E+01 2.78008E+00 3.55842E-02-1.84631E+00-2.34916E-14-6.81986E-13
 -1      2242 2.01398E+01 1.58694E+00 1.71892E-02-3.41196E-01 1.02118E-13-2.04491E-13
 -1      2243 1.82691E+01 1.85973E+00-1.95668E-02-8.77126E-01 4.04520E-14-3.31034E-13
 -1      2244 1.75244E+01 1.41695E+00-1.39425E-02-1.48045E+00-1.88374E-14-3.70745E-13
 -1      2245 2.31514E+01 1.11099E+00-5.12208E-02 9.65066E-01 2.50494E-13 6.41709E-14
 -1      2246 2.17554E+01 1.32227E+00-2.81273E-03 3.78721E-01 1.64923E-13-6.38482E-14
 -1      2247 2.13697E+01 6.45121E-01-1.48133E-02-1.60364E-01 9.73483E-14-6.87558E-14
 -1      2248 2.56457E+01-5.81325E-01-7.57769E-03 2.42351E+00 2.33383E-13 5.92320E-13
 -1      2249 2.60849E+01-6.95915E-01 1.46437E-02 2.17726E+00 1.87118E-13 6.32759E-13
 -1      2250 2.60072E+01-8.43173E-01-1.58196E-02 2.14454E+00 2.24348E-13 5.26261E-13
 -1      2251 2.41051E+01 1.69509E-01 4.54265E-03-2.27385E+00-3.24081E-13 1.76060E-13
 -1      2252 2.37232E+01 4.42156E-02-9.23112E-03-2.17846E+00-3.06775E-13 1.57234E-13
 -1      2253 3.29031E+01 3.40111E+00-9.53259E-02-3.12345E-01 8.38024E-13-3.83221E-13
 -1      2254 3.16977E+01 1.55967E+00-7.10258E-02 3.44348E-03 6.85951E-13-3.99680E-13
 -1      2255 2.35871E+01 6.52600E-02 4.80776E-03-2.19804E+00-2.76464E-13 2.07012E-13
 -1      2256 2.32208E+01 2.08409E-01 9.52743E-03-2.12606E+00-2.64800E-13 1.86244E-13
 -1      2257 2.39668E+01 1.18656E-01 9.32573E-03-2.42109E+00-2.89353E-13 1.44705E-13
 -1      2258 2.29487E+01 4.38047E-01-6.60178E-03-2.02228E+00-2.84799E-13 2.05038E-13
 -1      2259 2.26336E+01 7.29249E-01 2.05701E-02-1.80661E+00-3.02661E-13 1.56293E-13
 -1      2260 2.35725E+01 4.59042E-01 6.31345E-03-2.35026E+00-2.89423E-13 1.66886E-13
 -1      2261 2.23271E+01 1.00987E+00-6.55813E-03-1.45197E+00-3.00902E-13 1.09919E-13
 -1      2262 2.21138E+01 1.24616E+00 1.91035E-02-1.04496E+00-3.18999E-13 6.17813E-14
 -1      2263 2.30349E+01 1.14854E+00-3.73717E-03-1.88673E+00-3.50745E-13 1.38200E-13
 -1      2264 2.19289E+01 1.37492E+00 3.59241E-03-4.75221E-01-3.31036E-13-3.01620E-14
 -1      2265 2.18578E+01 1.36947E+00 1.60271E-03 2.05822E-02-2.86552E-13-9.35236E-14
 -1      2266 2.25710E+01 1.70318E+00-1.67843E-02-9.07176E-01-3.97270E-13 3.19983E-14
 -1      2267 2.18947E+01 1.23304E+00 1.70936E-02 5.82820E-01-2.83792E-13-1.77007E-13
 -1      2268 2.19549E+01 9.72449E-01-1.45352E-02 9.75532E-01-2.54078E-13-2.57051E-13
 -1      2269 2.24247E+01 1.68760E+00-1.87933E-02 3.20365E-01-3.58325E-13-1.42942E-13
 -1      2270 2.21284E+01 6.49753E-01 2.08784E-02 1.30047E+00-2.08117E-13-3.45759E-13
 -1      2271 2.22648E+01 2.83753E-01-1.87261E-02 1.45735E+00-1.86238E-13-3.90132E-13
 -1      2272 2.26031E+01 1.06187E+00-4.18392E-03 1.26601E+00-2.92729E-13-3.46679E-13
 -1      2273 2.24000E+01-4.28248E-02 1.09991E-02 1.46298E+00-1.93648E-13-3.79906E-13
 -1      2274 2.25342E+01-3.29839E-01-1.34345E-02 1.38731E+00-2.01070E-13-3.82376E-13
 -1      2275 2.28613E+01 1.69891E-01 8.50447E-03 1.58651E+00-2.22080E-13-4.13822E-13
 -1      2276 2.25301E+01-5.28383E-01-2.52215E-03 1.16876E+00-1.46518E-13-3.47062E-13
 -1      2277 2.26094E+01-6.55250E-01-4.58282E-03 9.55711E-01-6.69807E-14-3.41485E-13
 -1      2278 2.29408E+01-5.46847E-01 1.08031E-02 1.32650E+00-1.68145E-13-3.57169E-13
 -1      2279 2.24758E+01-7.06386E-01-1.11435E-02 6.60388E-01-1.01438E-15-2.89750E-13
 -1      2280 2.24838E+01-6.96377E-01 1.80108E-03 4.14694E-01 3.90944E-14-2.62782E-13
 -1      2281 2.27726E+01-8.82068E-01 5.40315E-03 7.68484E-01-9.60668E-15-2.94119E-13
 -1      2282 2.22832E+01-6.48636E-01-1.34047E-02 1.48995E-01 2.69233E-14-2.05493E-13
 -1      2283 2.22295E+01-5.65287E-01 4.51933E-03-6.08651E-02 6.05488E-14-1.54472E-13
 -1      2284 2.24354E+01-8.77875E-01-8.38373E-04 1.82569E-01 5.39829E-14-1.76378E-13
 -1      2285 2.20188E+01-4.76809E-01-1.13776E-02-2.51286E-01 2.87873E-14-1.57794E-13
 -1      2286 2.19233E+01-3.75102E-01 4.89085E-03-3.97572E-01 4.76607E-14-1.69024E-13
 -1      2287 2.20402E+01-6.83527E-01-4.00736E-03-2.82073E-01 5.38027E-14-1.42394E-13
 -1      2288 2.17338E+01-2.85978E-01-7.76623E-03-5.08789E-01 3.23960E-15-1.82678E-13
 -1      2289 2.16157E+01-1.97103E-01 4.04778E-03-5.91265E-01-1.76972E-14-1.78691E-13
 -1      2290 2.16626E+01-4.35994E-01-4.62751E-03-5.83205E-01-4.48578E-15-2.10157E-13
 -1      2291 2.14577E+01-1.26001E-01-4.24669E-03-6.38114E-01-4.74387E-14-1.82298E-13
 -1      2292 2.13318E+01-6.11563E-02 2.92444E-03-6.69345E-01-7.05535E-14-1.72844E-13
 -1      2293 2.13355E+01-2.15019E-01-4.05771E-03-7.36939E-01-1.54405E-14-1.08604E-13
 -1      2294 2.12044E+01-1.24583E-02-1.47169E-03-6.71142E-01-9.62286E-14-1.63690E-13
 -1      2295 2.10811E+01 2.85196E-02 1.94420E-03-6.66886E-01-7.36406E-14-1.55896E-13
 -1      2296 2.10649E+01-5.10526E-02-3.19305E-03-7.79878E-01-8.94686E-14-8.44717E-14
 -1      2297 2.09794E+01 5.74976E-02 4.33233E-04-6.40913E-01-9.06220E-14-2.05166E-13
 -1      2298 2.08651E+01 7.94393E-02 1.22996E-03-6.15263E-01-9.74090E-14-1.99764E-13
 -1      2299 2.08447E+01 5.44825E-02-2.43876E-03-7.49590E-01-1.28888E-13-7.85285E-14
 -1      2300 2.07840E+01 9.36668E-02 1.58030E-03-5.74722E-01-7.04183E-14-1.93617E-13
 -1      2301 2.06823E+01 1.02266E-01 7.60992E-04-5.38420E-01 3.88177E-15-1.95526E-13
 -1      2302 2.06662E+01 1.12549E-01-1.89026E-03-6.76931E-01-9.55126E-14-1.66545E-13
 -1      2303 2.06175E+01 1.06614E-01 2.15173E-03-4.92443E-01 9.00369E-14-1.90035E-13
 -1      2304 2.05300E+01 1.06779E-01 4.72892E-04-4.52832E-01 1.27900E-13-1.50388E-13
 -1      2305 2.05215E+01 1.36838E-01-1.51772E-03-5.84441E-01 4.33104E-14-1.01761E-13
 -1      2306 2.04782E+01 1.05138E-01 2.32631E-03-4.07213E-01 1.31691E-13-1.54716E-13
 -1      2307 2.04050E+01 1.00535E-01 3.03322E-04-3.68843E-01 1.24752E-13-1.36876E-13
 -1      2308 2.04042E+01 1.39439E-01-1.26251E-03-4.87205E-01 1.38062E-13-9.98344E-14
 -1      2309 2.03637E+01 9.56834E-02 2.25136E-03-3.26908E-01 1.20028E-13-9.48462E-14
 -1      2310 2.03039E+01 8.88125E-02 2.05701E-04-2.92278E-01 1.16184E-13-8.60774E-14
 -1      2311 2.03094E+01 1.29527E-01-1.07473E-03-3.94478E-01 1.23451E-13-2.51125E-13
 -1      2312 2.02713E+01 8.25855E-02 2.03646E-03-2.55651E-01 9.85497E-14-7.24745E-14
 -1      2313 2.02236E+01 7.50308E-02 1.49327E-04-2.25876E-01 6.76851E-14-2.10592E-14
 -1      2314 2.02335E+01 1.13441E-01-9.22548E-04-3.11306E-01 1.10884E-13-1.16782E-13
 -1      2315 2.01980E+01 6.85576E-02 1.75737E-03-1.95075E-01 2.37053E-14-5.67085E-14
 -1      2316 2.01607E+01 6.12475E-02 1.15536E-04-1.70391E-01 1.02072E-14-7.36921E-14
 -1      2317 2.01733E+01 9.52531E-02-7.89498E-04-2.39879E-01 5.84111E-14-8.57042E-14
 -1      2318 2.01409E+01 5.51676E-02 1.46303E-03-1.45266E-01-4.82008E-14-1.63016E-13
 -1      2319 2.01125E+01 4.85897E-02 9.36566E-05-1.25401E-01 5.97208E-14-2.44911E-13
 -1      2320 2.01261E+01 7.73884E-02-6.68773E-04-1.80570E-01-5.62836E-14-1.78790E-13
 -1      2321 2.00973E+01 4.32200E-02 1.18267E-03-1.05433E-01 1.57781E-13-3.49005E-13
 -1      2322 2.00760E+01 3.75808E-02 7.79354E-05-8.98551E-02 6.60557E-14-3.01552E-13
 -1      2323 2.00896E+01 6.11528E-02-5.58561E-04-1.32678E-01 1.30462E-14-3.74985E-13
 -1      2324 2.00647E+01 3.30371E-02 9.31779E-04-7.43560E-02 1.67188E-15-3.50401E-13
 -1      2325 2.00491E+01 2.83733E-02 6.54672E-05-6.24288E-02-3.51938E-14-2.83084E-13
 -1      2326 2.00619E+01 4.71297E-02-4.59091E-04-9.49463E-02 4.49942E-15-4.45853E-13
 -1      2327 2.00408E+01 2.46525E-02 7.16871E-04-5.06687E-02-5.92363E-14-2.81187E-13
 -1      2328 2.00297E+01 2.09057E-02 5.48942E-05-4.17489E-02-7.58966E-15-1.75432E-13
 -1      2329 2.00412E+01 3.54606E-02-3.71025E-04-6.58913E-02-1.64720E-14-3.59889E-13
 -1      2330 2.00237E+01 1.79405E-02 5.38852E-04-3.30291E-02 4.05662E-14-1.39683E-13
 -1      2331 2.00161E+01 1.50053E-02 4.56414E-05-2.65197E-02 1.92958E-14-1.15443E-13
 -1      2332 2.00261E+01 2.60350E-02-2.94729E-04-4.40153E-02 2.13340E-14-6.04498E-14
 -1      2333 2.00118E+01 1.26985E-02 3.95417E-04-2.02114E-02-1.01233E-13-8.57886E-14
 -1      2334 2.00068E+01 1.04520E-02 3.74935E-05-1.55879E-02-6.34221E-14-4.17905E-14
 -1      2335 2.00153E+01 1.86135E-02-2.30051E-04-2.79231E-02-7.09660E-14 4.71016E-14
 -1      2336 2.00038E+01 8.69787E-03 2.82625E-04-1.11498E-02 9.23405E-16 1.41182E-14
 -1      2337 2.00007E+01 7.01760E-03 3.03756E-05-7.96852E-03 8.14392E-14 2.96106E-14
 -1      2338 2.00077E+01 1.29050E-02-1.76357E-04-1.63824E-02 1.54039E-14 1.27739E-13
 -1      2339 1.99988E+01 5.71374E-03 1.95919E-04-4.94935E-03 7.34865E-14 1.11594E-13
 -1      2340 1.99970E+01 4.48661E-03 2.42486E-05-2.84664E-03 8.56867E-14 1.20402E-13
 -1      2341 2.00027E+01 8.61299E-03-1.32659E-04-8.34521E-03 7.79414E-14 2.18487E-13
 -1      2342 1.99958E+01 3.54064E-03 1.30735E-04-8.80390E-04 9.05250E-14 7.47916E-14
 -1      2343 1.99949E+01 2.66780E-03 1.90667E-05 4.34582E-04 5.84144E-14 8.92661E-14
 -1      2344 1.99994E+01 5.46067E-03-9.77681E-05-2.94691E-03 3.80449E-14 1.05446E-13
 -1      2345 1.99942E+01 1.99989E-03 8.28509E-05 1.63796E-03-3.35650E-14 1.16311E-14
 -1      2346 1.99940E+01 1.39806E-03 1.47643E-05 2.39243E-03-4.95116E-14-3.34753E-14
 -1      2347 1.99975E+01 3.20389E-03-7.04248E-05 5.08063E-04-5.70559E-14 9.87106E-15
 -1      2348 1.99937E+01 9.41563E-04 4.85536E-05 3.05786E-03 6.17468E-14 5.42754E-14
 -1      2349 1.99938E+01 5.42527E-04 1.12574E-05 3.42558E-03 1.50771E-13 1.96937E-13
 -1      2350 1.99965E+01 1.63544E-03-4.93916E-05 2.56679E-03 6.15134E-14-7.97177E-14
 -1      2351 1.99937E+01 2.43311E-04 2.46981E-05 3.72382E-03 1.45516E-13 2.38197E-13
 -1      2352 1.99941E+01-7.40826E-06 8.45007E-06 3.83485E-03 1.07243E-13 4.38304E-13
 -1      2353 1.99961E+01 5.84710E-04-3.35190E-05 3.65054E-03 1.69174E-13 3.05922E-13
 -1      2354 1.99941E+01-1.92329E-04 8.69669E-06 3.89278E-03 1.69349E-14 4.30400E-13
 -1      2355 1.99946E+01-3.37325E-04 6.24031E-06 3.84223E-03 6.74820E-14 4.68821E-13
 -1      2356 1.99961E+01-8.53154E-05-2.17817E-05 4.07693E-03 1.06811E-13 3.79407E-13
 -1      2357 1.99948E+01-4.41377E-04-1.52737E-06 3.75194E-03-1.66841E-14 3.06942E-13
 -1      2358 1.99953E+01-5.13290E-04 4.52582E-06 3.60762E-03-8.36956E-14 2.71175E-13
 -1      2359 1.99963E+01-4.82272E-04-1.32934E-05 4.08019E-03-2.43633E-14 1.66210E-13
 -1      2360 1.99955E+01-5.61972E-04-7.60355E-06 3.43418E-03 3.96489E-14 1.27181E-13
 -1      2361 1.99960E+01-5.85357E-04 3.20723E-06 3.24294E-03 3.85046E-15 2.12751E-13
 -1      2362 1.99967E+01-6.89048E-04-7.30890E-06 3.82894E-03-1.60447E-13 1.76485E-13
 -1      2363 1.99962E+01-5.97786E-04-1.07833E-05 3.03079E-03-1.72116E-13 2.91298E-13
 -1      2364 1.99967E+01-5.90798E-04 2.18987E-06 2.82369E-03-2.83613E-13 4.25497E-13
 -1      2365 1.99971E+01-7.68306E-04-3.21630E-06 3.44104E-03-9.75036E-14 3.39275E-13
 -1      2366 1.99969E+01-5.81086E-04-1.20068E-05 2.60181E-03-3.06794E-13 4.90238E-13
 -1      2367 1.99973E+01-5.56965E-04 1.38363E-06 2.39819E-03-2.38784E-13 5.61274E-13
 -1      2368 1.99976E+01-7.66627E-04-5.25213E-07 2.99592E-03-1.66423E-13 6.48036E-13
 -1      2369 1.99975E+01-5.35423E-04-1.19636E-05 2.18416E-03-2.08803E-13 5.54656E-13
 -1      2370 1.99978E+01-5.03748E-04 7.02847E-07 1.99478E-03 1.58550E-14 5.13058E-13
 -1      2371 1.99980E+01-7.18162E-04 1.14496E-06 2.54427E-03-2.26063E-13 6.88169E-13
 -1      2372 1.99980E+01-4.77891E-04-1.11439E-05 1.79787E-03 2.46270E-13 4.46548E-13
 -1      2373 1.99983E+01-4.45582E-04 9.14528E-08 1.62726E-03 3.62857E-13 3.28906E-13
 -1      2374 1.99984E+01-6.47739E-04 2.07813E-06 2.11569E-03 3.46309E-14 6.24699E-13
 -1      2375 1.99985E+01-4.20876E-04-9.84136E-06 1.45083E-03 1.16082E-13 2.84200E-14
 -1      2376 1.99987E+01-3.93136E-04-5.37149E-07 1.29914E-03 1.21419E-13-1.53384E-13
 -1      2377 1.99987E+01-5.73334E-04 2.49639E-06 1.72453E-03 6.77285E-14 2.41776E-13
 -1      2378 1.99988E+01-3.74378E-04-8.48710E-06 1.14209E-03 4.15456E-13-2.12132E-13
 -1      2379 1.99991E+01-3.53738E-04-1.04427E-06 1.00568E-03 2.13709E-13 2.92200E-14
 -1      2380 1.99990E+01-5.08673E-04 2.39069E-06 1.37452E-03 1.61662E-13 2.98722E-14
 -1      2381 1.99992E+01-3.41335E-04-6.76261E-06 8.65683E-04-8.50513E-15 8.18935E-14
 -1      2382 1.99993E+01-3.32036E-04-2.63292E-06 7.41559E-04 1.05281E-13 9.63008E-14
 -1      2383 1.99992E+01-4.58580E-04 3.25485E-06 1.06017E-03 2.41458E-13-7.30461E-15
 -1      2384 2.43208E+01 1.41467E+00 9.07849E-03 2.03009E+00 3.44197E-13 4.13101E-13
 -1      2385 2.47253E+01 8.20252E-01-4.46267E-02 2.49511E+00 3.24471E-13 5.33880E-13
 -1      2386 2.38186E+01 2.03173E+00-1.98545E-02 3.72339E-01 4.15522E-13 1.04656E-13
 -1      2387 2.39929E+01 1.86473E+00-3.23446E-02 1.19467E+00 3.91968E-13 2.53421E-13
 -1      2388 2.51163E+01 2.21343E+00-4.80288E-02 1.89236E+00 4.87457E-13 3.75717E-13
 -1      2389 2.39424E+01 1.44965E+00-5.00432E-02-1.35580E+00 3.60885E-13-1.48877E-13
 -1      2390 2.38314E+01 1.88860E+00-1.37315E-03-6.58888E-01 3.84845E-13-7.15576E-14
 -1      2391 2.47922E+01 2.62867E+00-6.46233E-02-1.39328E-01 5.06074E-13-6.36036E-15
 -1      2392 2.44446E+01 1.87741E-01-4.67848E-02-2.09947E+00 2.95125E-13-3.15995E-13
 -1      2393 2.41861E+01 8.37359E-01 1.15796E-02-1.90238E+00 3.37928E-13-2.11479E-13
 -1      2394 2.50195E+01 1.55343E+00-3.49704E-02-1.83316E+00 4.10387E-13-3.09301E-13
 -1      2395 2.47403E+01-7.70028E-01-1.84224E-02-1.71911E+00 1.36898E-13-3.23198E-13
 -1      2396 2.45252E+01-3.65797E-01 1.89345E-04-1.96468E+00 2.09442E-13-3.13133E-13
 -1      2397 2.52713E+01-9.17781E-02-2.36404E-03-2.18662E+00 2.54245E-13-3.82793E-13
 -1      2398 2.45804E+01-1.05399E+00 1.35253E-03-7.93459E-01 6.33712E-14-3.11523E-13
 -1      2399 2.45143E+01-9.90291E-01-1.79218E-02-1.21274E+00 1.03297E-13-3.23273E-13
 -1      2400 2.50502E+01-1.18589E+00 1.33350E-03-1.43405E+00 1.13376E-13-3.70452E-13
 -1      2401 2.41008E+01-8.68568E-01 8.65681E-03 1.04256E-01-2.07005E-14-2.71897E-13
 -1      2402 2.41845E+01-1.00203E+00-2.45081E-02-2.74765E-01 1.84314E-14-2.98230E-13
 -1      2403 2.43987E+01-1.40692E+00-7.27761E-03-3.56990E-01 6.13528E-14-3.15793E-13
 -1      2404 2.35036E+01-5.28806E-01 7.63968E-03 7.16518E-01-6.50252E-14-1.77313E-13
 -1      2405 2.36912E+01-7.06197E-01-2.06609E-02 4.66095E-01-1.93387E-14-1.97399E-13
 -1      2406 2.36095E+01-1.09222E+00-1.35034E-02 5.23504E-01-5.57458E-14-1.36601E-13
 -1      2407 2.29180E+01-2.26752E-01 4.91877E-03 1.02626E+00 5.14510E-14-2.37711E-13
 -1      2408 2.31585E+01-3.70143E-01-1.28914E-02 9.04031E-01-6.69820E-15-1.77857E-13
 -1      2409 2.28898E+01-6.31100E-01-1.26467E-02 1.05244E+00-1.34506E-14-1.64670E-13
 -1      2410 2.23915E+01-2.17754E-02 2.74829E-03 1.11109E+00-7.83418E-14-1.66406E-13
 -1      2411 2.26470E+01-1.13332E-01-5.66437E-03 1.08310E+00 1.04641E-14-1.68864E-13
 -1      2412 2.23043E+01-2.44998E-01-9.09965E-03 1.27782E+00 2.00716E-14-5.68581E-14
 -1      2413 2.19348E+01 9.20922E-02 1.48332E-03 1.05855E+00-8.95831E-14-1.46256E-13
 -1      2414 2.21809E+01 4.42780E-02-4.57777E-04 1.08722E+00-1.27799E-13-1.52209E-13
 -1      2415 2.18420E+01 8.35663E-03-5.74923E-03 1.29661E+00-1.12070E-13-6.02623E-14
 -1      2416 2.15452E+01 1.41624E-01 9.00549E-04 9.36815E-01-1.75950E-14-5.96442E-14
 -1      2417 2.17682E+01 1.23083E-01 2.65394E-03 9.93212E-01-1.44380E-14-9.89681E-14
 -1      2418 2.14739E+01 1.44675E-01-3.54535E-03 1.19710E+00-8.44031E-14-7.52431E-14
 -1      2419 2.12170E+01 1.52488E-01 6.82871E-04 7.90236E-01 1.57116E-14 6.23820E-14
 -1      2420 2.14105E+01 1.50861E-01 4.16687E-03 8.55672E-01-2.80513E-14-4.57880E-15
 -1      2421 2.11752E+01 2.00637E-01-2.33386E-03 1.04235E+00-5.91850E-14-8.99796E-14
 -1      2422 2.09444E+01 1.43087E-01 6.14172E-04 6.44297E-01-3.18062E-15-4.32350E-14
 -1      2423 2.11069E+01 1.49946E-01 4.62183E-03 7.08215E-01 6.72114E-14 6.87914E-14
 -1      2424 2.09295E+01 2.09170E-01-1.74327E-03 8.71860E-01 3.84534E-14 3.33763E-14
 -1      2425 2.07214E+01 1.24841E-01 5.88607E-04 5.11827E-01 2.06359E-14-1.51465E-13
 -1      2426 2.08542E+01 1.35113E-01 4.45946E-03 5.69091E-01 7.21970E-15-8.34937E-14
 -1      2427 2.07269E+01 1.93334E-01-1.46141E-03 7.07868E-01 3.84271E-14-5.01768E-14
 -1      2428 2.05418E+01 1.04152E-01 5.61677E-04 3.97974E-01-2.91110E-14-1.61142E-13
 -1      2429 2.06479E+01 1.15066E-01 3.98719E-03 4.46689E-01 2.50988E-14-1.31614E-13
 -1      2430 2.05606E+01 1.67255E-01-1.30155E-03 5.61283E-01 1.06442E-14-1.26855E-13
 -1      2431 2.03994E+01 8.42736E-02 5.20948E-04 3.03608E-01 8.92151E-14-2.70441E-13
 -1      2432 2.04826E+01 9.44635E-02 3.39718E-03 3.43640E-01-1.18453E-14-2.01570E-13
 -1      2433 2.04257E+01 1.38783E-01-1.17497E-03 4.36170E-01 2.20908E-14-1.73695E-13
 -1      2434 2.02885E+01 6.66390E-02 4.67595E-04 2.27433E-01-4.66590E-14-2.56192E-13
 -1      2435 2.03525E+01 7.55378E-02 2.79911E-03 2.59503E-01 7.31501E-14-2.35023E-13
 -1      2436 2.03176E+01 1.11858E-01-1.04853E-03 3.32764E-01 6.16046E-14-2.27030E-13
 -1      2437 2.02034E+01 5.17044E-02 4.07059E-04 1.67217E-01-4.80353E-14-2.76517E-13
 -1      2438 2.02517E+01 5.91669E-02 2.24885E-03 1.92391E-01-1.18130E-13-2.22734E-13
 -1      2439 2.02324E+01 8.81737E-02-9.16001E-04 2.49357E-01-9.16661E-14-1.17832E-13
 -1      2440 2.01392E+01 3.94365E-02 3.44871E-04 1.20468E-01-7.79335E-14-1.93665E-13
 -1      2441 2.01751E+01 4.55242E-02 1.77002E-03 1.39882E-01-5.28919E-14-1.96804E-13
 -1      2442 2.01663E+01 6.82201E-02-7.81724E-04 1.83414E-01-1.23844E-13-1.82417E-13
 -1      2443 2.00918E+01 2.95815E-02 2.85267E-04 8.47805E-02 3.65282E-14-1.51479E-13
 -1      2444 2.01179E+01 3.44454E-02 1.36823E-03 9.95024E-02-2.83940E-14-2.00905E-13
 -1      2445 2.01158E+01 5.18900E-02-6.52203E-04 1.32189E-01-4.80505E-14-1.14113E-13
 -1      2446 2.00573E+01 2.18063E-02 2.30943E-04 5.79875E-02-5.96992E-15 3.00351E-14
 -1      2447 2.00759E+01 2.56257E-02 1.03983E-03 6.89641E-02 6.02782E-14-3.97879E-14
 -1      2448 2.00781E+01 3.88107E-02-5.32766E-04 9.30562E-02-7.21380E-14 5.46675E-14
 -1      2449 2.00330E+01 1.57691E-02 1.83294E-04 3.82229E-02-8.29503E-14-3.84408E-14
 -1      2450 2.00459E+01 1.87216E-02 7.76866E-04 4.62600E-02-1.69177E-14 8.59666E-15
 -1      2451 2.00503E+01 2.85189E-02-4.26705E-04 6.36574E-02-2.77435E-14 1.29985E-13
 -1      2452 2.00162E+01 1.11524E-02 1.42761E-04 2.39238E-02-4.69483E-14-1.05693E-13
 -1      2453 2.00248E+01 1.34001E-02 5.69972E-04 2.96899E-02-4.58209E-14-6.14975E-14
 -1      2454 2.00304E+01 2.05481E-02-3.35419E-04 4.19585E-02-6.03850E-14 1.31225E-13
 -1      2455 2.00050E+01 7.67668E-03 1.09151E-04 1.38095E-02 8.78245E-14-2.72499E-13
 -1      2456 2.00106E+01 9.36093E-03 4.09789E-04 1.78479E-02 5.97355E-14-2.49060E-13
 -1      2457 2.00164E+01 1.44689E-02-2.58894E-04 2.62536E-02 8.31473E-14-3.04093E-14
 -1      2458 1.99980E+01 5.10336E-03 8.18941E-05 6.84853E-03-9.49988E-14-3.47637E-13
 -1      2459 2.00013E+01 6.34381E-03 2.87711E-04 9.59384E-03-3.75174E-14-2.68890E-13
 -1      2460 2.00070E+01 9.90507E-03-1.96191E-04 1.51419E-02-1.83366E-14-1.90726E-13
 -1      2461 1.99939E+01 3.23347E-03 6.02299E-05 2.22366E-03-1.22348E-13-2.48464E-13
 -1      2462 1.99957E+01 4.12943E-03 1.96173E-04 4.01791E-03-9.58654E-14-3.24760E-13
 -1      2463 2.00008E+01 6.53676E-03-1.45852E-04 7.49392E-03-6.05572E-14-1.26289E-13
 -1      2464 1.99918E+01 1.90404E-03 4.33354E-05-7.03332E-04 4.73507E-14-1.28660E-13
 -1      2465 1.99925E+01 2.53647E-03 1.28730E-04 4.05307E-04-1.01736E-13-2.55787E-13
 -1      2466 1.99970E+01 4.09806E-03-1.06197E-04 2.41297E-03-8.07441E-14-2.39442E-13
 -1      2467 1.99910E+01 9.83579E-04 3.04049E-05-2.42331E-03 1.51617E-13-1.77571E-13
 -1      2468 1.99911E+01 1.41753E-03 8.00103E-05-1.79740E-03 1.42970E-13-1.93606E-13
 -1      2469 1.99949E+01 2.37171E-03-7.55239E-05-8.01711E-04 1.52166E-14-1.80473E-13
 -1      2470 1.99912E+01 3.67528E-04 2.06959E-05-3.30798E-03 3.05181E-13-2.45766E-13
 -1      2471 1.99908E+01 6.54510E-04 4.56207E-05-3.01216E-03 2.68475E-13-1.61272E-13
 -1      2472 1.99940E+01 1.18286E-03-5.22258E-05-2.68955E-03 2.26285E-13-2.45512E-13
 -1      2473 1.99918E+01-2.60942E-05 1.35525E-05-3.63406E-03 2.19176E-13-3.13293E-13
 -1      2474 1.99912E+01 1.54136E-04 2.20249E-05-3.55551E-03 2.91959E-13-1.97650E-13
 -1      2475 1.99938E+01 3.92824E-04-3.48610E-05-3.65920E-03 3.63065E-13-1.28034E-13
 -1      2476 1.99927E+01-2.60666E-04 8.41232E-06-3.60373E-03-9.15863E-14-5.89955E-13
 -1      2477 1.99920E+01-1.56229E-04 6.41935E-06-3.66066E-03 6.72664E-14-4.53426E-13
 -1      2478 1.99941E+01-1.06861E-04-2.21799E-05-4.01500E-03 1.88650E-13-2.03713E-13
 -1      2479 1.99937E+01-3.84474E-04 4.80412E-06-3.36146E-03-2.86766E-13-5.43139E-13
 -1      2480 1.99930E+01-3.32349E-04-3.38612E-06-3.49598E-03-2.39041E-13-5.41529E-13
 -1      2481 1.99946E+01-3.99835E-04-1.31285E-05-3.97930E-03-1.61871E-13-3.43256E-13
 -1      2482 1.99947E+01-4.33770E-04 2.33909E-06-3.00771E-03-4.64557E-13-1.85378E-13
 -1      2483 1.99941E+01-4.16407E-04-9.07667E-06-3.18005E-03-4.39407E-13-5.23250E-13
 -1      2484 1.99953E+01-5.49657E-04-6.83882E-06-3.71093E-03-4.00171E-13-4.79008E-13
 -1      2485 1.99957E+01-4.35378E-04 6.99565E-07-2.60987E-03-1.64899E-13-2.70107E-14
 -1      2486 1.99951E+01-4.39849E-04-1.19285E-05-2.79380E-03-2.10141E-13-9.87102E-14
 -1      2487 1.99960E+01-6.03928E-04-2.61027E-06-3.32026E-03-4.98095E-13-2.89511E-13
 -1      2488 1.99965E+01-4.08895E-04-3.73473E-07-2.21083E-03-1.34361E-13 3.57267E-14
 -1      2489 1.99960E+01-4.25789E-04-1.28913E-05-2.39010E-03-2.12779E-13-1.68014E-14
 -1      2490 1.99967E+01-5.97788E-04 1.11951E-07-2.88123E-03-2.53108E-13-1.22456E-13
 -1      2491 1.99973E+01-3.68529E-04-1.09097E-06-1.83551E-03 5.17196E-14-2.03088E-13
 -1      2492 1.99968E+01-3.91034E-04-1.26582E-05-2.00116E-03 3.66957E-14-1.29703E-13
 -1      2493 1.99973E+01-5.56877E-04 1.75716E-06-2.44073E-03 1.95590E-14-2.20024E-13
 -1      2494 1.99979E+01-3.24609E-04-1.61861E-06-1.49580E-03 1.48317E-13-2.56963E-13
 -1      2495 1.99975E+01-3.47765E-04-1.17199E-05-1.64419E-03 6.71254E-14-2.70869E-13
 -1      2496 1.99979E+01-4.99776E-04 2.64863E-06-2.02587E-03 1.06403E-13-1.93479E-13
 -1      2497 1.99984E+01-2.84762E-04-2.06125E-06-1.19417E-03 2.04987E-14 8.99289E-14
 -1      2498 1.99981E+01-3.04895E-04-1.04037E-05-1.32553E-03 1.46423E-13-4.71005E-14
 -1      2499 1.99983E+01-4.39997E-04 3.02410E-06-1.64943E-03 6.47159E-14-5.34607E-14
 -1      2500 1.99989E+01-2.54794E-04-2.57095E-06-9.26460E-04-1.06423E-13 1.60775E-13
 -1      2501 1.99986E+01-2.69150E-04-8.94127E-06-1.04378E-03-2.22905E-14 9.77716E-14
 -1      2502 1.99987E+01-3.87407E-04 3.03340E-06-1.31400E-03-4.97393E-14 2.38748E-15
 -1      2503 1.99992E+01-2.37303E-04-2.69567E-06-6.83602E-04 2.14124E-14 2.41069E-13
 -1      2504 1.99990E+01-2.45455E-04-7.44130E-06-7.91790E-04-5.85690E-14 2.72372E-13
 -1      2505 1.99991E+01-3.48782E-04 3.06537E-06-1.01612E-03-1.45041E-13 1.71361E-13
 -1      2506 1.99995E+01-2.30801E-04-2.91394E-06-4.59514E-04 1.08435E-13 4.16906E-13
 -1      2507 1.99993E+01-2.33202E-04-5.97593E-06-5.61153E-04 5.28820E-14 2.59170E-13
 -1      2508 1.99993E+01-3.24225E-04 3.97001E-06-7.45517E-04-3.94687E-14 4.74025E-13
 -1      2509 1.99996E+01-2.22664E-04-3.88753E-06-3.39636E-04-1.66210E-15 7.14462E-13
 -1      2510 2.00000E+01-1.20509E-03 5.36365E-06-6.01084E-04-3.91811E-14-7.96535E-13
 -1      2511 1.99999E+01-1.09685E-03-1.22472E-06-6.53229E-04 1.73159E-14-1.21437E-12
 -1      2512 2.00001E+01-1.38603E-03 5.52853E-06-4.26527E-04-1.65108E-13 3.66118E-13
 -1      2513 2.00000E+01-1.30638E-03 6.45955E-07-5.14356E-04-1.10050E-13-2.47861E-13
 -1      2514 2.00001E+01-1.27047E-03-3.49427E-06-6.44391E-04 4.20540E-14-5.07390E-13
 -1      2515 1.99997E+01-7.09936E-04 3.53643E-06-6.85782E-04-2.16897E-13-4.77396E-13
 -1      2516 1.99996E+01-5.84628E-04-4.52618E-06-6.50648E-04-8.97575E-14-2.38123E-13
 -1      2517 1.99998E+01-9.70915E-04 4.56551E-06-6.92629E-04-3.74769E-13-1.09847E-12
 -1      2518 1.99998E+01-8.48998E-04-3.06039E-06-7.01169E-04-2.78940E-13-7.17936E-13
 -1      2519 1.99997E+01-7.95810E-04-2.82626E-06-8.11529E-04-2.26378E-13-7.78957E-13
 -1      2520 1.99999E+01-1.05174E-03-2.96074E-06-7.81032E-04-5.05393E-14-8.70647E-13
 -1      2521 2.00001E+01-1.49314E-03 5.06833E-06-1.95275E-04-2.06892E-13 5.12773E-13
 -1      2522 2.00001E+01-1.45102E-03 2.51052E-06-3.05990E-04-2.98591E-13 3.77825E-13
 -1      2523 2.00002E+01-1.43064E-03-4.57329E-06-4.22236E-04-2.23632E-13 2.28206E-13
 -1      2524 2.00001E+01-1.51480E-03 4.03750E-06 6.14644E-05-9.69760E-14 8.84220E-13
 -1      2525 2.00001E+01-1.51520E-03 4.05588E-06-5.69945E-05-3.12841E-13 9.28893E-13
 -1      2526 2.00002E+01-1.51447E-03-5.06444E-06-1.45221E-04-4.48974E-14 6.65205E-13
 -1      2527 2.00001E+01-1.44889E-03 2.55058E-06 3.09971E-04-1.49780E-13-1.66276E-13
 -1      2528 2.00001E+01-1.49187E-03 5.04921E-06 1.99586E-04-1.30270E-13 3.27417E-13
 -1      2529 2.00002E+01-1.51360E-03-5.04005E-06 1.50354E-04-3.00945E-14 6.80790E-13
 -1      2530 2.00000E+01-1.30614E-03 6.51070E-07 5.14389E-04 6.98956E-14-4.25943E-13
 -1      2531 2.00001E+01-1.38460E-03 5.50882E-06 4.28206E-04 2.71166E-14-4.03333E-13
 -1      2532 2.00002E+01-1.42935E-03-4.60987E-06 4.24596E-04 5.40120E-15-1.51617E-13
 -1      2533 1.99999E+01-1.09756E-03-1.53253E-06 6.53269E-04-3.17161E-14-2.73896E-14
 -1      2534 2.00000E+01-1.20484E-03 5.39501E-06 6.01093E-04 2.00624E-14-1.96413E-13
 -1      2535 2.00001E+01-1.27016E-03-3.63278E-06 6.44339E-04 1.05920E-13-3.51886E-13
 -1      2536 1.99998E+01-8.45612E-04-3.30564E-06 6.98054E-04-1.53426E-13 5.26850E-14
 -1      2537 1.99998E+01-9.68448E-04 4.29766E-06 6.93074E-04-6.14588E-14 1.17535E-13
 -1      2538 1.99999E+01-1.04927E-03-2.77896E-06 7.82462E-04-1.66699E-13 1.94049E-14
 -1      2539 1.99996E+01-5.77514E-04-3.94387E-06 6.45645E-04-2.53206E-13-4.20683E-13
 -1      2540 1.99997E+01-7.05909E-04 2.98456E-06 6.87465E-04-1.76187E-13-2.75952E-13
 -1      2541 1.99997E+01-7.88056E-04 1.85298E-06 8.08939E-04-2.20988E-13-9.77615E-14
 -1      2542 5.08763E+00-1.51930E+00 1.14726E-01 2.59078E+00-5.35405E-14 9.50351E-13
 -1      2543 3.68272E+00-1.86473E+00 7.87760E-02 4.36507E-01 8.93664E-14 9.74609E-13
 -1      2544 1.13830E+01-3.45539E+00 5.85521E-02 6.51329E+00-2.50827E-13 4.98823E-13
 -1      2545 7.85461E+00-2.54412E+00 1.10212E-01 5.03606E+00-2.05502E-13 8.36581E-13
 -1      2546 3.78311E+00-1.91933E+00 6.63049E-02-1.47988E+00 2.23415E-13 9.16656E-13
 -1      2547 5.16943E+00-2.02165E+00 1.07787E-01-3.72141E+00 2.06890E-13 8.88623E-13
 -1      2548 6.02073E+00-5.70576E-01 1.74562E-01-7.73798E-01 1.09485E-13 9.07108E-13
 -1      2549 2.50888E+01 2.24555E-01 9.77168E-03 2.69981E+00 2.79403E-13 5.68628E-13
 -1      2550 2.55578E+01-2.74226E-01-2.00892E-02 2.68699E+00 2.55353E-13 6.07630E-13
 -1      2551 2.61204E+01-5.31296E-01 7.76579E-04 2.79671E+00 2.47935E-13 5.48690E-13
 -1      2552 1.99996E+01-3.50340E-04-3.50342E-06 4.42962E-04-1.84591E-16 7.26394E-14
 -1      2553 1.84206E+01-4.83424E+00-3.68513E-02 6.65711E+00-1.84186E-13 1.55619E-13
 -1      2554 1.52724E+01-4.37823E+00 8.83117E-02 6.63084E+00-3.25739E-13 2.72740E-13
 -1      2555 3.06616E+01-8.27789E-01-1.05902E-01 1.30517E+00 4.80286E-13-3.85414E-13
 -1      2556 2.85211E+01-2.45141E+00-3.70100E-02 2.40631E+00 3.06408E-13-3.10252E-13
 -1      2557 3.21700E+01 7.34123E+00-1.25566E-01-8.28209E-01-1.11972E-12-3.15928E-13
 -1      2558 3.22337E+01 6.67065E+00-7.84880E-02-1.11641E+00-1.11622E-12-2.65454E-13
 -1      2559 1.92047E+01-2.52892E+00-5.32679E-02 5.66899E+00-1.98175E-14-5.21794E-13
 -1      2560 1.48275E+01-2.06402E+00 7.95213E-02 6.03543E+00 1.39777E-13-7.32310E-13
 -1      2561 1.30882E+01 2.99515E+00-1.94425E-02 2.61364E+00 3.53421E-13-6.91662E-13
 -1      2562 1.49799E+01 2.58485E+00 7.42449E-02 2.53006E+00 3.34481E-13-6.19243E-13
 -1      2563 1.61563E+01 1.43279E+00-1.36937E-03 2.79990E+00 3.36044E-13-5.29052E-13
 -1      2564 3.28583E+01 3.72644E+00-3.36787E-02 1.46296E+00 9.89375E-13 4.36318E-14
 -1      2565 3.30803E+01 5.37908E+00-1.29737E-01 1.70786E+00 1.09412E-12 6.31994E-14
 -1      2566 3.30801E+01 6.28283E+00-1.33141E-01-3.56543E-01 1.14619E-12-3.06324E-13
 -1      2567 3.31201E+01 5.09701E+00-7.35699E-02-4.84752E-01 1.00964E-12-3.33122E-13
 -1      2568 3.11164E+01 3.70078E+00-4.26294E-02-1.30971E+00 8.11712E-13-4.70513E-13
 -1      2569 1.75542E+01-3.36030E+00-2.08061E-02-5.30091E+00 1.25316E-13-7.14085E-13
 -1      2570 2.14073E+01-3.40548E+00-5.37241E-02-4.59330E+00 1.28286E-13-4.53478E-13
 -1      2571 3.07102E+01-9.33523E-03-4.08169E-02 1.60998E-01 6.23626E-13 3.69704E-14
 -1      2572 3.22267E+01 1.55106E+00-1.11231E-01 8.32627E-01 7.98778E-13 6.47260E-14
 -1      2573 3.21766E+01 5.03737E+00-8.61525E-02-1.10468E+00-1.03637E-12-1.28203E-13
 -1      2574 3.07616E+01 3.05756E+00-7.77574E-02-8.41607E-01-8.59479E-13-8.40994E-15
 -1      2575 3.02814E+01 5.47553E+00-7.61544E-02-1.69725E+00-9.55236E-13-7.57033E-14
 -1      2576 2.55949E+01-3.00943E+00-1.39727E-02-2.71815E+00 2.72796E-13-1.49769E-13
 -1      2577 2.89693E+01-1.79184E+00-5.27528E-02-1.41527E+00 4.70693E-13-4.48530E-14
 -1      2578 1.05762E+01-1.87775E+00 4.16141E-02-5.25661E+00-5.35683E-15-9.80410E-13
 -1      2579 1.40639E+01-2.63529E+00-3.52607E-03-5.81670E+00 1.28175E-13-8.94756E-13
 -1      2580 1.70303E+01-2.66192E+00 1.04836E-01-5.06002E+00-1.37029E-13-6.22495E-13
 -1      2581 4.85547E+00-1.30047E-01 7.26100E-02-2.97289E+00 1.83326E-14-1.25561E-12
 -1      2582 7.27328E+00-6.84714E-01 4.66939E-02-4.52314E+00 6.68077E-14-1.14830E-12
 -1      2583 2.88742E+00 7.35492E-01 8.41380E-02 7.11642E-01 8.82384E-14-1.31767E-12
 -1      2584 3.28966E+00 4.36851E-01 6.83987E-02-1.40326E+00 1.42830E-13-1.32372E-12
 -1      2585 5.02760E+00-1.60817E-01 5.79739E-02 4.31460E+00 1.12382E-13-1.19560E-12
 -1      2586 3.44479E+00 2.74335E-01 5.43827E-02 2.64949E+00 1.97259E-13-1.25006E-12
 -1      2587 1.01774E+01-1.23564E+00-2.38794E-02 6.20564E+00 1.23818E-13-9.60593E-13
 -1      2588 7.26933E+00-8.21262E-01 5.04544E-02 5.20121E+00 1.72196E-13-1.10156E-12
 -1      2589 7.49888E+00 4.22927E-01 1.32711E-01 4.73125E+00 3.01065E-13-1.11455E-12
 -1      2590 2.55587E+01-2.02904E+00-9.26556E-02 3.27739E+00-3.46057E-13-2.08750E-13
 -1      2591 2.30111E+01-2.45906E+00 2.45391E-02 4.12985E+00-1.48326E-13-3.25129E-13
 -1      2592 2.95349E+01 5.78167E-01-1.42438E-01 2.22081E-01-6.47222E-13 2.33702E-14
 -1      2593 2.77303E+01-8.77019E-01-2.44610E-02 1.62061E+00-4.99760E-13-1.03528E-13
 -1      2594 3.20796E+01 6.89813E+00-9.53900E-02 1.09948E-01-9.80771E-13-4.60867E-13
 -1      2595 3.19390E+01 7.34943E+00-1.32559E-01-2.48813E-01-1.06359E-12-4.54570E-13
 -1      2596 3.19108E+01 4.04178E+00-6.54406E-02-8.37273E-03-7.75963E-13-4.62269E-13
 -1      2597 3.23261E+01 5.67369E+00-1.20958E-01 2.68317E-01-8.91065E-13-5.07594E-13
 -1      2598 3.01860E+01 4.11596E-01-4.97102E-02-1.30823E+00-5.12854E-13-3.75922E-13
 -1      2599 3.14193E+01 1.96617E+00-1.00207E-01-7.00432E-01-6.41168E-13-4.14169E-13
 -1      2600 2.58453E+01-3.15689E+00-1.84437E-02-3.95923E+00-1.41623E-13-1.59900E-13
 -1      2601 2.87365E+01-1.57235E+00-6.88806E-02-2.77353E+00-3.43073E-13-3.13805E-13
 -1      2602 1.99994E+01-4.60629E+00 9.13857E-03-6.18958E+00 9.35085E-14 1.60982E-13
 -1      2603 2.30169E+01-4.18170E+00-4.33238E-02-5.62903E+00-2.38420E-14 4.64490E-14
 -1      2604 1.27330E+01-4.09027E+00 5.19604E-02-6.80214E+00 3.54328E-13 6.41501E-13
 -1      2605 1.66538E+01-4.44214E+00 1.86128E-02-7.09507E+00 1.82854E-13 4.50869E-13
 -1      2606 6.97241E+00-2.95100E+00 5.03395E-02-5.22060E+00 3.10890E-13 8.80518E-13
 -1      2607 9.40089E+00-3.25555E+00 5.90234E-02-6.42294E+00 2.99094E-13 8.45130E-13
 -1      2608 1.30881E+01-3.33443E+00 1.27129E-01-6.51788E+00 4.56662E-13 6.66286E-13
 -1      2609 7.91494E+00-1.57279E+00 1.51762E-01-4.41064E+00 3.68983E-13 8.25340E-13
 -1      2610 2.42277E+01 1.26305E+00-2.92678E-02-2.58408E+00-3.68863E-13 4.26569E-14
 -1      2611 2.40689E+01 4.76916E-01-1.83742E-02-2.29344E+00-3.52822E-13 1.16276E-13
 -1      2612 2.41102E+01 4.68944E-01 2.07475E-02-2.42070E+00-3.13338E-13 4.91239E-14
 -1      2613 2.37645E+01 1.48675E+00-1.04170E-02-2.41749E+00-3.38111E-13-7.51864E-14
 -1      2614 2.62659E+01-2.95312E-02-2.94963E-02 1.62811E+00 2.87232E-13 6.47621E-13
 -1      2615 2.66021E+01 5.20660E-01-1.64978E-02 1.80840E+00 3.40708E-13 6.66828E-13
 -1      2616 2.58399E+01 8.52607E-01-4.07077E-02 1.90926E+00 3.55217E-13 4.97356E-13
 -1      2617 2.58740E+01-3.32201E-01-4.35035E-02 1.78728E+00 2.69494E-13 4.87922E-13
 -1      2618 2.62376E+01-3.90807E+00-5.54993E-02 4.20330E+00 1.97675E-13-2.36922E-13
 -1      2619 2.24215E+01-4.76343E+00 2.93782E-02 5.24751E+00-3.33067E-14-1.47285E-13
 -1      2620 1.22480E+01 2.94986E+00 6.33394E-02 2.89556E+00 3.75873E-13-7.74200E-13
 -1      2621 2.19842E+01 5.35434E-01-1.32037E-02-2.89801E-01 1.50418E-14-2.21960E-13
 -1      2622 2.18532E+01 1.31838E+00-1.08616E-03-6.59704E-01-2.86984E-14-2.88245E-13
 -1      2623 2.25758E+01 1.31129E+00-2.21320E-02-1.22433E+00-1.30455E-13-2.48043E-13
 -1      2624 1.99995E+01-3.16998E-04-4.29650E-06 5.43646E-04 2.13526E-13 2.75821E-13
 -1      2625 1.99996E+01-4.58269E-04 2.48182E-06 6.13787E-04-1.71646E-14 1.31125E-14
 -1      2626 1.99996E+01-5.41534E-04-2.10402E-06 7.61006E-04-9.89176E-14-5.42139E-14
 -1      2627 1.99994E+01-3.26903E-04-6.43976E-06 6.50873E-04 2.02344E-13 2.07320E-13
 -1      2628 2.48101E+01 1.04085E+00 4.98458E-03 1.62060E+00 3.01010E-13 2.92273E-13
 -1      2629 2.75598E+01-3.61523E+00 2.83169E-02 2.30596E+00 6.44207E-14-4.72344E-13
 -1      2630 2.52249E+01-3.99537E+00 4.36959E-02-3.92984E+00 6.55032E-14-2.20476E-13
 -1      2631 2.89690E+01-1.23333E+00-1.58174E-05-1.12544E+00-2.68378E-13-4.75509E-13
 -1      2632 3.04087E+01-1.46641E-01-1.79823E-02-3.68229E-01 4.57794E-13-5.33767E-13
 -1      2633 1.99994E+01-4.28701E-04 3.80918E-06 8.16861E-04 1.38925E-13 3.80925E-13
 -1      2634 3.04392E+01 2.65228E+00-2.37911E-02 6.24237E-01-6.31634E-13-5.81590E-13
 -1      2635 3.02804E+01 5.85081E+00-5.52225E-02 6.60910E-01-8.76688E-13-5.18294E-13
 -1      2636 1.44117E+01-3.50348E+00 1.15085E-01 6.28843E+00-3.94101E-13 3.23505E-13
 -1      2637 2.46313E+01 3.63786E-01 2.56346E-02 1.29453E+00 2.42984E-13 2.86389E-13
 -1      2638 2.97954E+01 1.53666E+00-5.11747E-02-9.49278E-01-6.73385E-13 8.06022E-14
 -1      2639 2.84360E+01 3.46492E-01-1.10355E-02-9.70742E-01-4.71317E-13 1.90112E-13
 -1      2640 2.88945E+01 2.41037E+00-1.66328E-01-2.04450E+00-6.67869E-13 1.70669E-13
 -1      2641 1.99995E+01-3.15669E-04-9.42021E-07-4.90346E-04-1.34909E-13 6.96672E-13
 -1      2642 1.99996E+01-4.12170E-04 6.60349E-08-5.63957E-04-1.18304E-13 2.73276E-13
 -1      2643 1.38709E+01-1.28896E+00 1.05352E-01 5.84143E+00 3.09891E-13-7.71092E-13
 -1      2644 7.49051E+00-1.45719E+00 1.45131E-01 3.84273E+00-1.48992E-13 8.11906E-13
 -1      2645 7.65414E+00-3.06219E-01 1.29325E-01 2.41961E+00-6.00076E-14 7.39214E-13
 -1      2646 1.02212E+01-1.26982E+00 1.26653E-01 4.51186E+00-2.83149E-13 5.53224E-13
 -1      2647 2.15848E+01-2.54497E+00 7.01803E-02 4.28516E+00 1.39000E-13-3.01814E-13
 -1      2648 2.57670E+01 7.50389E-01-1.05163E-02 2.95936E+00 3.49415E-13 5.47052E-13
 -1      2649 4.62401E+00 1.56116E+00 1.40590E-01 1.63410E+00 2.06390E-13-1.29419E-12
 -1      2650 2.18689E+01-4.74732E+00 8.04891E-02 5.25270E+00-2.41140E-13-9.23150E-14
 -1      2651 1.04680E+01-6.25029E-01 1.25782E-01-4.66335E+00-1.37168E-13-1.00867E-12
 -1      2652 2.32952E+01 1.41728E+00-1.92908E-02-2.00722E+00-2.68953E-13-1.63331E-13
 -1      2653 1.94564E+01-4.53908E+00 8.96268E-02-6.23051E+00 3.37397E-13 1.54557E-13
 -1      2654 2.94379E+01-1.31474E+00 1.63772E-02 4.97683E-01 3.56265E-13 2.35922E-13
 -1      2655 3.21286E+01 6.51255E+00-8.16679E-02-1.53185E-01 1.13370E-12-1.99410E-13
 -1      2656 2.99347E+01 5.55945E+00-1.04163E-01-8.96588E-01 9.38527E-13-3.14415E-13
 -1      2657 3.03072E+01 6.42890E+00-1.75412E-01 6.10892E-02 1.08036E-12-1.08271E-13
 -1      2658 3.00872E+01 7.07711E+00-6.36550E-02-5.16263E-01-1.02912E-12-3.36214E-13
 -1      2659 2.28065E+01-3.34890E+00 7.83855E-02-3.23552E+00-9.44661E-14-1.07227E-13
 -1      2660 2.43543E+01-3.50203E+00 1.01197E-02-3.09386E+00 9.77551E-14-1.74361E-13
 -1      2661 2.61017E+01-3.29134E+00-1.15997E-01-1.35897E+00 2.49384E-14 1.75970E-13
 -1      2662 3.22912E+01 5.93625E+00-7.51717E-02 1.68376E+00 1.10803E-12 3.62349E-14
 -1      2663 3.05125E+01 6.15983E+00-2.04054E-01 1.49993E+00 1.11444E-12 4.14252E-14
 -1      2664 3.03549E+01 4.88258E+00-7.31275E-02 2.30149E+00 9.90985E-13 1.93262E-13
 -1      2665 3.12185E+01 2.31651E+00-1.93994E-02 2.17203E+00 7.45487E-13 2.88491E-13
 -1      2666 5.74189E+00 1.33191E+00 1.64190E-01-2.11727E+00 1.60427E-14-1.27032E-12
 -1      2667 2.68201E+01-1.59575E+00 3.94108E-02 1.44399E+00-2.32321E-13 8.46545E-15
 -1      2668 1.99995E+01-4.92890E-04-2.91738E-06-7.15313E-04-9.28491E-14 1.71348E-13
 -1      2669 2.90313E+01 1.22660E+00-8.07421E-02 9.49030E-01-5.10342E-13-5.94969E-13
 -1      2670 2.90114E+01 2.97514E+00-1.80342E-01 1.23526E+00-6.40932E-13-6.18450E-13
 -1      2671 9.57492E+00 3.41890E+00 1.31447E-01-1.50972E+00-1.01065E-14-9.42246E-13
 -1      2672 8.23917E+00 3.72936E+00 5.20678E-02-5.02711E-01 9.63101E-14-1.00049E-12
 -1      2673 8.19072E+00 3.90722E+00 6.56874E-02 1.15428E+00 2.22552E-13-9.90305E-13
 -1      2674 8.99678E+00 3.62923E+00 7.70046E-02 2.16800E+00 3.18594E-13-9.46188E-13
 -1      2675 1.93309E+01 3.25815E-01 5.47149E-02-1.65665E+00-6.42472E-14-2.58514E-13
 -1      2676 1.68987E+01 8.50806E-01-4.54657E-03-2.23679E+00-1.12035E-13-3.99764E-13
 -1      2677 2.29660E+01-2.57340E-01 2.50932E-02 4.95491E-02 7.30561E-14 4.51635E-14
 -1      2678 2.12811E+01 2.07895E-02 2.19592E-02-6.45408E-01-5.48606E-15-9.75799E-14
 -1      2679 2.08785E+01-7.00574E-01 1.39170E-02-1.40929E+00-8.19483E-14-1.14280E-13
 -1      2680 2.59196E+01-1.32437E+00-4.60906E-02 1.90187E+00 1.78934E-13 4.34921E-13
 -1      2681 2.59166E+01-1.06346E+00 3.70922E-02 1.64244E+00 1.64244E-13 4.27048E-13
 -1      2682 1.99995E+01-5.56594E-04-1.44676E-06 8.55656E-04 1.78808E-13 1.45825E-13
 -1      2683 1.99996E+01-6.70278E-04-2.24017E-06 8.90559E-04-5.17715E-14-2.22814E-13
 -1      2684 1.99995E+01-5.70807E-04-5.48937E-06 9.53630E-04 2.27372E-13 2.38287E-14
 -1      2685 2.46911E+01-2.49035E-01-5.80162E-03 1.25700E+00 1.97066E-13 2.80688E-13
 -1      2686 2.41412E+01 2.60114E-01-1.84496E-02-2.53458E+00-2.63961E-13 1.20621E-13
 -1      2687 2.39338E+01 6.82455E-01 7.76349E-03-2.44950E+00-3.08973E-13 1.15351E-13
 -1      2688 2.37068E+01 1.20049E+00-3.14866E-02-2.28601E+00-3.30138E-13 1.06731E-13
 -1      2689 2.34868E+01 1.74865E+00 1.48300E-02-1.92781E+00-3.92913E-13 9.96542E-14
 -1      2690 2.43917E+01 1.15366E+00 7.27601E-03-2.57905E+00-3.45952E-13 7.38914E-14
 -1      2691 2.32123E+01 2.19200E+00-2.63678E-02-1.35866E+00-4.66330E-13 5.93917E-14
 -1      2692 2.30599E+01 2.46318E+00-5.65470E-03-7.58934E-01-4.67997E-13-5.55285E-15
 -1      2693 2.39533E+01 2.39874E+00-1.87614E-02-1.84750E+00-4.61043E-13 7.42924E-14
 -1      2694 2.29900E+01 2.44599E+00-1.07954E-02 5.15742E-02-4.50896E-13-8.88074E-14
 -1      2695 2.29650E+01 2.15741E+00-4.45921E-02 6.31305E-01-4.02298E-13-1.86054E-13
 -1      2696 2.36272E+01 2.98816E+00-1.17905E-02-4.03938E-01-5.23285E-13-2.42740E-14
 -1      2697 2.31601E+01 1.68999E+00 1.57439E-02 1.23031E+00-3.66564E-13-2.70534E-13
 -1      2698 2.32269E+01 1.03433E+00-4.40614E-02 1.54349E+00-3.12627E-13-3.32081E-13
 -1      2699 2.36825E+01 2.34089E+00-3.68506E-03 1.05368E+00-4.57279E-13-2.07507E-13
 -1      2700 2.33824E+01 3.88649E-01 1.19679E-02 1.65033E+00-2.38982E-13-3.74955E-13
 -1      2701 2.34353E+01-2.20330E-01-2.87847E-02 1.61939E+00-1.80833E-13-3.88222E-13
 -1      2702 2.39534E+01 8.69439E-01 4.07156E-03 1.71118E+00-2.89765E-13-3.70226E-13
 -1      2703 2.33624E+01-6.81482E-01-9.52133E-04 1.35559E+00-1.21948E-13-3.36962E-13
 -1      2704 2.33275E+01-1.00834E+00-7.19027E-03 1.10662E+00-8.74431E-14-3.01289E-13
 -1      2705 2.39334E+01-5.67605E-01 9.32615E-03 1.46791E+00-1.18682E-13-3.48169E-13
 -1      2706 2.30441E+01-1.18048E+00-9.95361E-03 7.20719E-01-5.15703E-14-2.54954E-13
 -1      2707 2.29231E+01-1.22697E+00 6.99822E-03 4.14105E-01 4.33035E-14-2.34912E-13
 -1      2708 2.35037E+01-1.34120E+00 5.35586E-03 7.55666E-01-2.40665E-14-2.58135E-13
 -1      2709 2.25517E+01-1.18345E+00-1.23052E-02 7.83880E-02 3.25228E-14-2.02939E-13
 -1      2710 2.23818E+01-1.06526E+00 1.14325E-02-1.83581E-01 5.14103E-14-1.92212E-13
 -1      2711 2.28259E+01-1.46982E+00-6.78476E-03 1.67392E-02 4.42198E-14-2.31136E-13
 -1      2712 2.20314E+01-9.20987E-01-9.57459E-03-4.08759E-01 3.42571E-14-1.75660E-13
 -1      2713 2.18520E+01-7.48571E-01 1.11484E-02-5.89385E-01 1.86501E-14-1.81648E-13
 -1      2714 2.21230E+01-1.20104E+00-1.14775E-02-5.28166E-01 1.54348E-14-2.02438E-13
 -1      2715 2.15713E+01-5.87825E-01-5.74883E-03-7.09704E-01 2.65717E-14-2.03083E-13
 -1      2716 2.14062E+01-4.27047E-01 8.55412E-03-8.10922E-01 3.63363E-14-2.04193E-13
 -1      2717 2.15273E+01-8.01665E-01-1.10779E-02-8.48346E-01 3.84425E-14-1.70360E-13
 -1      2718 2.12016E+01-2.91669E-01-2.67861E-03-8.53368E-01 1.85483E-14-1.56172E-13
 -1      2719 2.10599E+01-1.68759E-01 5.70273E-03-8.91877E-01 1.53634E-14-8.66677E-14
 -1      2720 2.10767E+01-4.26586E-01-8.67104E-03-9.88233E-01 3.41024E-14-1.51260E-13
 -1      2721 2.09188E+01-7.16839E-02-5.85342E-04-8.83575E-01-3.08707E-14-1.14483E-13
 -1      2722 2.08008E+01 9.98007E-03 3.35211E-03-8.78718E-01-1.06592E-13-6.72722E-14
 -1      2723 2.07576E+01-1.38319E-01-6.03683E-03-1.00526E+00-1.62618E-14-1.74303E-13
 -1      2724 2.07062E+01 7.09357E-02 7.11327E-04-8.40760E-01-1.79244E-13-9.09629E-14
 -1      2725 2.06088E+01 1.18005E-01 1.68186E-03-8.09291E-01-1.34215E-13-8.15522E-14
 -1      2726 2.05391E+01 5.45681E-02-3.93467E-03-9.47169E-01-1.21254E-13-1.06171E-13
 -1      2727 2.05458E+01 1.50652E-01 1.45267E-03-7.56461E-01-6.19993E-14-9.45722E-14
 -1      2728 2.04657E+01 1.72409E-01 6.11639E-04-7.11123E-01-8.55389E-14-4.55510E-14
 -1      2729 2.03910E+01 1.67003E-01-2.48137E-03-8.48329E-01-1.12330E-13-2.32546E-14
 -1      2730 2.04233E+01 1.85267E-01 1.81757E-03-6.53193E-01-2.03661E-14-5.19693E-14
 -1      2731 2.03573E+01 1.90258E-01-1.26648E-05-6.02858E-01 9.92682E-14-3.98803E-14
 -1      2732 2.02895E+01 2.20197E-01-1.56111E-03-7.31912E-01-5.09426E-14-3.42355E-14
 -1      2733 2.03281E+01 1.90527E-01 1.93014E-03-5.45940E-01 9.61554E-14 3.67152E-15
 -1      2734 2.02740E+01 1.85440E-01-3.36008E-04-4.96312E-01 1.14709E-13-7.48274E-14
 -1      2735 2.02183E+01 2.33835E-01-1.01337E-03-6.12853E-01 4.75590E-14 1.13617E-15
 -1      2736 2.02532E+01 1.78494E-01 1.87916E-03-4.43944E-01 1.67323E-13-1.10356E-13
 -1      2737 2.02091E+01 1.68084E-01-4.70196E-04-3.98347E-01 1.79441E-13-9.69227E-14
 -1      2738 2.01668E+01 2.23431E-01-6.99386E-04-5.00231E-01 1.38429E-13-2.01673E-14
 -1      2739 2.01939E+01 1.57618E-01 1.72889E-03-3.52309E-01 1.36510E-13-1.05598E-13
 -1      2740 2.01583E+01 1.45035E-01-4.93545E-04-3.12399E-01 8.89241E-14-1.25395E-13
 -1      2741 2.01283E+01 2.00106E-01-5.20454E-04-3.99058E-01 1.49935E-13-7.71916E-14
 -1      2742 2.01469E+01 1.33426E-01 1.52589E-03-2.73306E-01 2.88868E-14-1.17656E-13
 -1      2743 2.01185E+01 1.20619E-01-4.57580E-04-2.39625E-01 1.33702E-14-1.32230E-13
 -1      2744 2.00989E+01 1.71293E-01-4.14663E-04-3.11577E-01 8.24599E-14-1.40091E-13
 -1      2745 2.01097E+01 1.09290E-01 1.30311E-03-2.07359E-01-6.65843E-14-2.41530E-13
 -1      2746 2.00875E+01 9.73656E-02-3.94601E-04-1.79765E-01-1.09066E-13-2.54040E-13
 -1      2747 2.00759E+01 1.41640E-01-3.46229E-04-2.38209E-01-9.87499E-14-1.08312E-13
 -1      2748 2.00806E+01 8.70854E-02 1.08259E-03-1.53778E-01-8.86030E-14-2.74802E-13
 -1      2749 2.00634E+01 7.65915E-02-3.23757E-04-1.31739E-01-4.55240E-14-3.40897E-13
 -1      2750 2.00578E+01 1.13827E-01-2.95887E-04-1.78247E-01-1.40547E-13-1.82843E-13
 -1      2751 2.00580E+01 6.77050E-02 8.77921E-04-1.11272E-01 4.20296E-14-3.45543E-13
 -1      2752 2.00449E+01 5.88336E-02-2.55573E-04-9.40729E-02 7.29921E-14-3.22928E-13
 -1      2753 2.00435E+01 8.92123E-02-2.54191E-04-1.30356E-01-9.50803E-15-1.98745E-13
 -1      2754 2.00408E+01 5.14232E-02 6.96395E-04-7.82914E-02 8.79043E-14-3.00189E-13
 -1      2755 2.00310E+01 4.41551E-02-1.95183E-04-6.51637E-02 9.38957E-14-2.33863E-13
 -1      2756 2.00323E+01 6.83048E-02-2.17087E-04-9.29167E-02 1.57033E-13-1.07258E-13
 -1      2757 2.00278E+01 3.81518E-02 5.40922E-04-5.32500E-02 9.00476E-14-1.34618E-13
 -1      2758 2.00206E+01 3.23521E-02-1.44501E-04-4.34508E-02 5.18487E-14-1.17875E-13
 -1      2759 2.00236E+01 5.11040E-02-1.83211E-04-6.42517E-02 1.40990E-13-1.11550E-13
 -1      2760 2.00181E+01 2.76086E-02 4.11520E-04-3.46531E-02-3.32373E-14-6.41158E-14
 -1      2761 2.00130E+01 2.30884E-02-1.03622E-04-2.75092E-02-3.30873E-14-1.76940E-14
 -1      2762 2.00168E+01 3.73245E-02-1.52354E-04-4.27632E-02 5.41061E-14-1.54463E-13
 -1      2763 2.00112E+01 1.94250E-02 3.06437E-04-2.11669E-02 4.44139E-14 6.63027E-14
 -1      2764 2.00076E+01 1.59798E-02-7.17034E-05-1.60943E-02 9.55314E-14 2.23172E-13
 -1      2765 2.00117E+01 2.65438E-02-1.24679E-04-2.70111E-02 5.77424E-14-1.67241E-13
 -1      2766 2.00062E+01 1.32126E-02 2.22978E-04-1.16471E-02 6.32253E-14 5.57570E-14
 -1      2767 2.00039E+01 1.06450E-02-4.74912E-05-8.15593E-03 1.05407E-13 2.57574E-14
 -1      2768 2.00078E+01 1.82954E-02-1.00358E-04-1.57478E-02 6.23667E-15 1.97067E-14
 -1      2769 2.00028E+01 8.60167E-03 1.58064E-04-5.14101E-03 7.42527E-14-1.09355E-14
 -1      2770 2.00013E+01 6.73295E-03-2.96311E-05-2.83139E-03-3.98726E-15-7.26574E-14
 -1      2771 2.00050E+01 1.21228E-02-7.94338E-05-7.92556E-03 6.79875E-14-2.14202E-13
 -1      2772 2.00006E+01 5.26076E-03 1.08600E-04-8.75969E-04-8.34009E-14 7.99370E-15
 -1      2773 1.99997E+01 3.93631E-03-1.68354E-05 5.70972E-04-5.03750E-14-2.88716E-14
 -1      2774 2.00029E+01 7.60983E-03-6.18024E-05-2.68688E-03-4.52212E-14-1.77294E-13
 -1      2775 1.99992E+01 2.90507E-03 7.16903E-05 1.76092E-03 9.40891E-14 1.40554E-13
 -1      2776 1.99987E+01 1.99552E-03-7.96496E-06 2.59394E-03 1.63194E-13 2.37738E-13
 -1      2777 2.00015E+01 4.39432E-03-4.72367E-05 6.54272E-04 1.35100E-13 1.62245E-13
 -1      2778 1.99984E+01 1.29754E-03 4.47612E-05 3.24559E-03 1.41005E-13 2.99347E-13
 -1      2779 1.99982E+01 6.97518E-04-2.05931E-06 3.65476E-03 1.02916E-13 3.58657E-13
 -1      2780 2.00005E+01 2.17168E-03-3.54288E-05 2.63527E-03 1.80413E-13 4.34895E-13
 -1      2781 1.99980E+01 2.45948E-04 2.56038E-05 3.94009E-03-7.17192E-14 1.27733E-13
 -1      2782 1.99980E+01-1.28406E-04 1.66248E-06 4.06760E-03-4.10736E-14-4.50054E-14
 -1      2783 1.99999E+01 6.92750E-04-2.60287E-05 3.66865E-03-9.90310E-14-3.98066E-16
 -1      2784 1.99979E+01-4.02111E-04 1.23781E-05 4.11406E-03-1.08147E-14-1.87328E-13
 -1      2785 1.99980E+01-6.16175E-04 3.81644E-06 4.06392E-03-1.74375E-13-2.22291E-13
 -1      2786 1.99995E+01-2.41574E-04-1.86773E-05 4.06468E-03-1.95707E-13-3.18443E-13
 -1      2787 1.99979E+01-7.65042E-04 3.58963E-06 3.96377E-03-1.31104E-13-2.29510E-14
 -1      2788 1.99981E+01-8.68820E-04 4.87512E-06 3.81011E-03-5.47817E-14 1.01347E-13
 -1      2789 1.99993E+01-7.87097E-04-1.30294E-05 4.05167E-03-9.98633E-14-2.90292E-13
 -1      2790 1.99981E+01-9.33123E-04-1.94839E-06 3.62836E-03-7.39191E-14 2.64418E-13
 -1      2791 1.99983E+01-9.64183E-04 5.19127E-06 3.42237E-03-3.01459E-14 2.69177E-13
 -1      2792 1.99992E+01-1.06344E-03-8.76938E-06 3.79360E-03-1.29753E-14 2.28618E-13
 -1      2793 1.99983E+01-9.74002E-04-5.15800E-06 3.20325E-03-1.91815E-14 3.61645E-13
 -1      2794 1.99985E+01-9.60113E-04 5.02102E-06 2.97885E-03-1.79232E-13 4.22536E-13
 -1      2795 1.99992E+01-1.16083E-03-5.61957E-06 3.40480E-03 9.20546E-15 1.70270E-13
 -1      2796 1.99985E+01-9.37586E-04-6.73967E-06 2.75105E-03-2.08727E-13 5.31443E-13
 -1      2797 1.99987E+01-8.99012E-04 4.54180E-06 2.52934E-03-1.03000E-13 5.67485E-13
 -1      2798 1.99992E+01-1.14622E-03-3.34702E-06 2.96202E-03-8.89862E-14 2.08778E-13
 -1      2799 1.99987E+01-8.60276E-04-7.21734E-06 2.31011E-03-5.90091E-14 6.10187E-13
 -1      2800 1.99989E+01-8.11694E-04 3.86569E-06 2.10279E-03 6.32263E-14 4.92313E-13
 -1      2801 1.99993E+01-1.06862E-03-1.77049E-06 2.51406E-03-5.07144E-14 4.90655E-13
 -1      2802 1.99990E+01-7.68414E-04-6.96858E-06 1.90109E-03 9.24602E-14 5.17058E-13
 -1      2803 1.99991E+01-7.20203E-04 3.14638E-06 1.71313E-03 1.82257E-14 4.73424E-13
 -1      2804 1.99993E+01-9.63640E-04-7.85699E-07 2.08917E-03-4.64321E-15 3.83473E-13
 -1      2805 1.99992E+01-6.80060E-04-5.81928E-06 1.53261E-03-9.98919E-15 4.95016E-13
 -1      2806 1.99993E+01-6.41723E-04 2.12736E-06 1.36554E-03 6.31901E-14 2.36834E-13
 -1      2807 1.99994E+01-8.56504E-04-2.59413E-07 1.70137E-03-4.75933E-14 4.77249E-13
 -1      2808 1.99993E+01-6.17624E-04-6.12826E-06 1.22692E-03 1.99286E-13-6.14804E-14
 -1      2809 1.99994E+01-5.85908E-04 9.28528E-07 1.07431E-03 1.86048E-13 1.11238E-14
 -1      2810 1.99996E+01-7.00512E-04 5.50890E-06 1.11314E-03 1.23016E-13-1.10747E-14
 -1      2811 1.99995E+01-7.74523E-04-1.70065E-06 1.38003E-03-9.15156E-14 2.47774E-13
 -1      2812 2.57151E+01 3.44336E+00-1.06590E-01-6.72862E-01 6.29982E-13-8.30690E-14
 -1      2813 2.57404E+01 3.75637E+00-8.17596E-02 3.98781E-01 6.71657E-13 8.83148E-14
 -1      2814 2.59866E+01 3.43748E+00-6.04852E-02 1.68078E+00 6.48676E-13 3.11730E-13
 -1      2815 2.62290E+01 2.52282E+00-1.17924E-01 2.51346E+00 5.69184E-13 4.24811E-13
 -1      2816 2.60911E+01-9.47382E-01-5.17259E-02-1.96734E+00 2.07962E-13-4.24416E-13
 -1      2817 2.60776E+01 1.02541E-01-2.62731E-02-2.17819E+00 2.78923E-13-4.07729E-13
 -1      2818 2.53161E+01-1.92693E+00 1.11395E-03-7.74394E-01 5.06036E-14-3.37518E-13
 -1      2819 2.55391E+01-1.61421E+00-2.62915E-02-1.29798E+00 1.14556E-13-3.70359E-13
 -1      2820 2.64302E+01-1.64827E+00-3.63934E-02-1.37384E+00 1.56205E-13-4.04031E-13
 -1      2821 2.41844E+01-1.78173E+00 2.47593E-02 3.72793E-01-4.40932E-14-2.16207E-13
 -1      2822 2.45309E+01-1.95850E+00-2.42289E-02-1.17829E-01 2.25375E-14-2.30811E-13
 -1      2823 2.49823E+01-2.42113E+00-2.56931E-02 1.70002E-03-1.51120E-14-2.10098E-13
 -1      2824 2.31055E+01-1.17499E+00 2.34721E-02 1.10727E+00-7.96045E-14-1.27537E-13
 -1      2825 2.34632E+01-1.51128E+00-1.75671E-02 7.86619E-01-5.86944E-14-1.25453E-13
 -1      2826 2.34876E+01-2.03707E+00-3.27968E-02 1.04940E+00-9.95128E-14-7.73012E-14
 -1      2827 2.22775E+01-5.74394E-01 1.53497E-02 1.44380E+00-1.94660E-14-7.81493E-14
 -1      2828 2.25872E+01-8.69842E-01-9.08869E-03 1.28683E+00-6.08029E-14-9.94617E-14
 -1      2829 2.23288E+01-1.25254E+00-2.74459E-02 1.56647E+00-6.61190E-14-5.21792E-14
 -1      2830 2.16952E+01-1.37234E-01 8.31119E-03 1.51453E+00-2.98110E-14 2.34474E-14
 -1      2831 2.19471E+01-3.39108E-01-2.97801E-03 1.47666E+00-1.83499E-14-3.10845E-14
 -1      2832 2.15595E+01-5.51978E-01-1.82169E-02 1.72200E+00-4.79257E-14 2.82151E-14
 -1      2833 2.12944E+01 1.23828E-01 3.60881E-03 1.43046E+00-1.47285E-13 4.30516E-14
 -1      2834 2.14970E+01 1.00053E-02 8.20915E-04 1.46534E+00-3.29601E-14 7.56184E-14
 -1      2835 2.10840E+01-6.86845E-02-1.02216E-02 1.67084E+00-8.24446E-14 1.22936E-13
 -1      2836 2.10104E+01 2.51686E-01 9.77237E-04 1.27040E+00-1.03895E-13-3.66821E-14
 -1      2837 2.11757E+01 2.00386E-01 2.81212E-03 1.34297E+00-1.35689E-13-5.56875E-14
 -1      2838 2.07956E+01 2.07416E-01-5.21176E-03 1.51490E+00-7.15688E-14 9.61281E-14
 -1      2839 2.07988E+01 2.94381E-01-3.02121E-04 1.08265E+00-3.96087E-14-7.72721E-14
 -1      2840 2.09357E+01 2.81461E-01 3.75613E-03 1.16965E+00-5.81429E-14-6.41947E-14
 -1      2841 2.06136E+01 3.35252E-01-2.44728E-03 1.31566E+00-6.39912E-14 2.94056E-14
 -1      2842 2.06332E+01 2.89029E-01-8.20060E-04 8.95065E-01 2.52744E-14-4.96755E-14
 -1      2843 2.07474E+01 2.96945E-01 4.04206E-03 9.82575E-01-3.76809E-14-8.99915E-14
 -1      2844 2.04889E+01 3.70931E-01-1.14593E-03 1.10765E+00-1.78202E-14-7.48938E-14
 -1      2845 2.04995E+01 2.60116E-01-9.34075E-04 7.22412E-01 3.63436E-14-1.27709E-13
 -1      2846 2.05944E+01 2.77687E-01 3.92804E-03 8.02960E-01 6.37196E-14-8.19980E-14
 -1      2847 2.03952E+01 3.55773E-01-6.34356E-04 9.09910E-01 1.34148E-14-1.14970E-13
 -1      2848 2.03901E+01 2.22244E-01-8.60849E-04 5.71346E-01-1.58185E-16-8.20056E-14
 -1      2849 2.04682E+01 2.42967E-01 3.58995E-03 6.41595E-01 2.16371E-14-5.87705E-14
 -1      2850 2.03196E+01 3.16407E-01-4.84428E-04 7.32141E-01 2.61783E-14-8.08373E-14
 -1      2851 2.03005E+01 1.83408E-01-7.18841E-04 4.43710E-01 2.85103E-14-8.94011E-14
 -1      2852 2.03639E+01 2.03816E-01 3.14427E-03 5.02775E-01-1.36894E-14-6.57720E-14
 -1      2853 2.02562E+01 2.68548E-01-4.70425E-04 5.78338E-01 4.29827E-15-7.86806E-14
 -1      2854 2.02277E+01 1.47554E-01-5.66914E-04 3.38666E-01 4.70313E-14-1.16694E-13
 -1      2855 2.02784E+01 1.66003E-01 2.66786E-03 3.87000E-01 1.02500E-13-8.74066E-14
 -1      2856 2.02027E+01 2.20728E-01-4.85842E-04 4.49041E-01 8.17707E-14-3.03699E-14
 -1      2857 2.01695E+01 1.16316E-01-4.30436E-04 2.54033E-01-1.78689E-13-7.80071E-14
 -1      2858 2.02093E+01 1.32185E-01 2.20744E-03 2.92741E-01-1.01752E-13-1.30950E-13
 -1      2859 2.01577E+01 1.77101E-01-4.88710E-04 3.42824E-01-8.85479E-15-6.17901E-14
 -1      2860 2.01235E+01 9.00796E-02-3.17757E-04 1.87089E-01-5.21777E-14-1.94700E-13
 -1      2861 2.01544E+01 1.03292E-01 1.78844E-03 2.17517E-01-1.11812E-13-1.62029E-13
 -1      2862 2.01205E+01 1.39324E-01-4.69441E-04 2.57267E-01-6.33386E-14-8.54235E-14
 -1      2863 2.00879E+01 6.86099E-02-2.29148E-04 1.35023E-01-9.99501E-14-1.82900E-14
 -1      2864 2.01113E+01 7.93500E-02 1.42243E-03 1.58539E-01-8.67585E-14-9.83921E-14
 -1      2865 2.00902E+01 1.07710E-01-4.31428E-04 1.89558E-01-1.32673E-13-6.17602E-14
 -1      2866 2.00607E+01 5.13922E-02-1.61660E-04 9.51863E-02-1.59248E-13 1.38529E-13
 -1      2867 2.00782E+01 5.99578E-02 1.11222E-03 1.13062E-01-1.30879E-13 1.11732E-13
 -1      2868 2.00661E+01 8.18992E-02-3.81709E-04 1.36856E-01-1.45779E-13 5.79865E-14
 -1      2869 2.00404E+01 3.78195E-02-1.11434E-04 6.52104E-02-2.90530E-14 1.46449E-13
 -1      2870 2.00533E+01 4.45382E-02 8.55480E-04 7.85693E-02-3.84831E-15 1.94238E-13
 -1      2871 2.00473E+01 6.12361E-02-3.27078E-04 9.65011E-02-1.22890E-13 4.23508E-14
 -1      2872 2.00256E+01 2.72875E-02-7.47385E-05 4.30513E-02-1.39153E-14 1.58738E-13
 -1      2873 2.00348E+01 3.24760E-02 6.47175E-04 5.28538E-02-4.98735E-14 2.52461E-13
 -1      2874 2.00328E+01 4.49720E-02-2.72729E-04 6.61136E-02-1.55306E-14 1.28746E-13
 -1      2875 2.00150E+01 1.92403E-02-4.83749E-05 2.69897E-02 2.07678E-13 1.30438E-14
 -1      2876 2.00214E+01 2.31854E-02 4.81112E-04 3.40361E-02 1.56622E-13 1.28464E-13
 -1      2877 2.00220E+01 3.23702E-02-2.22070E-04 4.36377E-02 1.03905E-13 4.55964E-14
 -1      2878 2.00077E+01 1.31892E-02-2.97565E-05 1.56098E-02-6.36537E-14-2.39554E-14
 -1      2879 2.00120E+01 1.61403E-02 3.50879E-04 2.05541E-02 5.10021E-14 1.91463E-15
 -1      2880 2.00140E+01 2.27569E-02-1.76997E-04 2.73405E-02 1.42697E-13 3.13239E-15
 -1      2881 2.00027E+01 8.71674E-03-1.68624E-05 7.76631E-03-6.10460E-14-7.59562E-14
 -1      2882 2.00055E+01 1.08854E-02 2.50365E-04 1.11334E-02-6.84841E-14-3.73896E-14
 -1      2883 2.00083E+01 1.55408E-02-1.38290E-04 1.57916E-02-4.30686E-14-4.75037E-14
 -1      2884 1.99995E+01 5.47456E-03-8.14621E-06 2.54770E-03-9.31031E-15-1.51546E-13
 -1      2885 2.00012E+01 7.03635E-03 1.74041E-04 4.75271E-03-1.32871E-14-1.12259E-13
 -1      2886 2.00043E+01 1.02182E-02-1.05986E-04 7.83176E-03-2.22563E-14-1.42890E-13
 -1      2887 1.99977E+01 3.17679E-03-2.44030E-06-7.60072E-04 6.49703E-14-2.06551E-13
 -1      2888 1.99986E+01 4.27492E-03 1.17071E-04 6.05802E-04 3.25866E-14-1.86721E-13
 -1      2889 2.00016E+01 6.36913E-03-7.96665E-05 2.53713E-03 5.22840E-14-3.32305E-14
 -1      2890 1.99967E+01 1.59269E-03 1.12779E-06-2.70769E-03 2.96449E-13-1.98855E-13
 -1      2891 1.99971E+01 2.34225E-03 7.53393E-05-1.93350E-03 1.59220E-13-3.28206E-13
 -1      2892 1.99998E+01 3.64929E-03-5.86727E-05-8.16914E-04 1.70588E-13-2.77303E-13
 -1      2893 1.99963E+01 5.38760E-04 3.20374E-06-3.71300E-03 3.08096E-13-2.42894E-13
 -1      2894 1.99963E+01 1.03085E-03 4.54166E-05-3.34398E-03 3.05038E-13-3.29186E-13
 -1      2895 1.99988E+01 1.78127E-03-4.22515E-05-2.78962E-03 2.85936E-13-2.20049E-13
 -1      2896 1.99963E+01-1.28814E-04 4.26023E-06-4.08755E-03 3.48246E-15-1.53761E-14
 -1      2897 1.99961E+01 1.76867E-04 2.44980E-05-3.98563E-03 2.21316E-13-5.51659E-14
 -1      2898 1.99982E+01 5.44704E-04-2.96459E-05-3.80552E-03 1.69201E-13-4.14544E-14
 -1      2899 1.99965E+01-5.21120E-04 4.63837E-06-4.05917E-03-2.75127E-13-8.74209E-14
 -1      2900 1.99962E+01-3.47208E-04 1.03291E-05-4.12419E-03-1.67488E-13-4.95926E-14
 -1      2901 1.99980E+01-2.32853E-04-2.01491E-05-4.18121E-03-8.55280E-14 2.19062E-13
 -1      2902 1.99969E+01-7.22705E-04 4.57919E-06-3.79075E-03-3.88893E-13-1.76117E-13
 -1      2903 1.99965E+01-6.39180E-04 1.12769E-06-3.95178E-03-2.91166E-13-5.71827E-14
 -1      2904 1.99980E+01-6.84407E-04-1.31324E-05-4.14820E-03-2.86071E-13 1.70699E-13
 -1      2905 1.99973E+01-7.96976E-04 4.24778E-06-3.39554E-03-5.11141E-13-1.91221E-13
 -1      2906 1.99969E+01-7.72952E-04-4.49200E-06-3.60384E-03-4.46307E-13-2.75773E-13
 -1      2907 1.99981E+01-9.11033E-04-8.05717E-06-3.87195E-03-3.77308E-13 1.68313E-14
 -1      2908 1.99977E+01-7.90819E-04 3.75236E-06-2.94941E-03-1.52633E-13-4.72703E-13
 -1      2909 1.99974E+01-8.03566E-04-7.58787E-06-3.17287E-03-3.32280E-13-4.05014E-13
 -1      2910 1.99983E+01-9.88428E-04-4.47434E-06-3.46739E-03-2.94869E-13-1.72503E-13
 -1      2911 1.99981E+01-7.38489E-04 3.15864E-06-2.50048E-03 1.17481E-13-4.23512E-13
 -1      2912 1.99978E+01-7.71470E-04-8.95237E-06-2.71928E-03-9.57268E-14-4.89948E-13
 -1      2913 1.99985E+01-9.72506E-04-2.01940E-06-3.01141E-03-3.82634E-14-7.03399E-13
 -1      2914 1.99984E+01-6.64827E-04 2.50344E-06-2.07656E-03 6.99830E-16-1.47384E-13
 -1      2915 1.99982E+01-7.06088E-04-9.16611E-06-2.27985E-03 1.28875E-13-1.79339E-13
 -1      2916 1.99987E+01-9.04090E-04-4.08283E-07-2.55268E-03-3.33335E-14-4.31709E-13
 -1      2917 1.99988E+01-5.87800E-04 1.83268E-06-1.69080E-03-1.69401E-14-7.60160E-14
 -1      2918 1.99985E+01-6.28737E-04-8.64200E-06-1.87415E-03-2.90947E-15-1.60102E-13
 -1      2919 1.99989E+01-8.12761E-04 5.74243E-07-2.11924E-03 1.86158E-14-1.75944E-13
 -1      2920 1.99990E+01-5.20725E-04 8.62223E-07-1.34621E-03-2.47233E-14-2.15936E-13
 -1      2921 1.99989E+01-5.54914E-04-7.67630E-06-1.50955E-03 8.54924E-14-1.77126E-13
 -1      2922 1.99991E+01-7.19771E-04 1.10013E-06-1.72435E-03 1.17124E-13-1.80213E-13
 -1      2923 1.99993E+01-4.73072E-04-1.75280E-06-1.03879E-03-2.71697E-13-1.71700E-13
 -1      2924 1.99991E+01-4.95299E-04-6.64610E-06-1.18372E-03-2.95442E-13-2.24036E-13
 -1      2925 1.99993E+01-6.40311E-04 1.83419E-06-1.37140E-03-1.33807E-13-3.04747E-13
 -1      2926 1.99995E+01-4.76749E-04-2.89752E-06-8.07278E-04-1.77629E-13 8.56080E-14
 -1      2927 1.99993E+01-4.90186E-04-6.10634E-06-9.42811E-04-2.51611E-13-7.95741E-14
 -1      2928 1.99995E+01-6.11157E-04 5.87039E-06-1.10002E-03-4.13719E-13-5.07904E-13
 -1      2929 1.99996E+01-6.33541E-04 5.93548E-06-8.94985E-04-2.79784E-13-2.86355E-13
 -1      2930 2.00004E+01-1.54522E-03 3.62530E-06-8.68953E-05 3.26388E-14 6.58018E-13
 -1      2931 2.00004E+01-1.52638E-03 1.95182E-06-2.40231E-04 1.09051E-13 6.33830E-13
 -1      2932 2.00002E+01-1.33645E-03 5.52349E-06-6.81136E-04 3.52963E-14-4.02709E-13
 -1      2933 2.00001E+01-1.24790E-03-1.04048E-06-7.77520E-04 1.31042E-13-9.64750E-13
 -1      2934 2.00004E+01-1.52492E-03 1.97924E-06 2.46044E-04-7.20307E-14 4.75700E-13
 -1      2935 2.00004E+01-1.54470E-03 3.62265E-06 9.29257E-05-9.86938E-14 7.87813E-13
 -1      2936 2.00005E+01-1.59549E-03-5.11854E-06 3.44761E-06-1.69678E-14 6.12922E-13
 -1      2937 2.00003E+01-1.48045E-03 4.96896E-06-4.09379E-04-3.41037E-14 4.63995E-13
 -1      2938 2.00003E+01-1.42479E-03 9.62385E-08-5.43426E-04-5.23556E-14 1.89607E-13
 -1      2939 2.00003E+01-1.42693E-03-4.10355E-06-6.83458E-04 1.12403E-13-2.05959E-13
 -1      2940 2.00005E+01-1.55295E-03-4.89155E-06-3.61803E-04 2.11099E-13 6.77089E-13
 -1      2941 2.00003E+01-1.42411E-03 9.68972E-08 5.43573E-04 5.70167E-14-2.12215E-13
 -1      2942 2.00003E+01-1.47905E-03 4.95579E-06 4.12098E-04-1.24540E-13 1.82584E-13
 -1      2943 2.00005E+01-1.55180E-03-4.92382E-06 3.65329E-04-7.20172E-14 2.68165E-13
 -1      2944 2.00001E+01-1.24899E-03-2.11423E-06 7.78486E-04 1.34447E-14-4.49103E-13
 -1      2945 2.00002E+01-1.33543E-03 5.87094E-06 6.81167E-04 1.43881E-13-4.46562E-13
 -1      2946 2.00003E+01-1.42600E-03-4.14754E-06 6.83611E-04-1.01087E-13-2.90036E-13
 -1      2947 1.99999E+01-1.01921E-03-5.12653E-06 9.18120E-04-2.35147E-13-2.60763E-14
 -1      2948 2.00000E+01-1.12529E-03 7.30403E-06 8.64975E-04-8.23305E-14-1.83823E-13
 -1      2949 2.00001E+01-1.22581E-03-2.74860E-06 9.20323E-04 5.18960E-14-4.30361E-13
 -1      2950 1.99997E+01-7.96743E-04 4.36130E-06 9.06956E-04-1.46901E-13-3.93328E-14
 -1      2951 2.65415E+01-6.98261E-01-2.24575E-02 2.77084E+00 2.61343E-13 5.36144E-13
 -1      2952 2.66505E+01-1.19918E+00 1.36698E-02 2.48827E+00 1.87896E-13 5.18845E-13
 -1      2953 2.63356E+01-1.67596E+00-5.67815E-02 1.85392E+00 1.63671E-13 4.41304E-13
 -1      2954 2.32104E+01-2.56501E+00-9.22157E-02 2.97066E+00 1.27370E-13-7.34447E-14
 -1      2955 2.04175E+01-2.05632E+00 1.40525E-01 4.11879E+00 3.16122E-13-2.70553E-13
 -1      2956 2.40429E+01 4.03679E-01-1.61694E-02-2.26464E+00-2.54984E-13-2.72177E-14
 -1      2957 2.40358E+01 1.19829E-01-2.27359E-02-2.26298E+00-2.59679E-13 2.18827E-14
 -1      2958 2.43621E+01-6.85628E-01-1.67039E-02 9.53848E-01 1.38651E-13 2.35055E-13
 -1      2959 2.39937E+01-4.34909E+00 5.40497E-02-3.98730E+00 2.34798E-13-2.33279E-13
 -1      2960 2.61026E+01-3.79932E+00-1.12113E-01-2.66658E+00 6.43444E-14-3.45321E-13
 -1      2961 2.86613E+01 5.75632E+00-1.71143E-01-1.74683E+00-9.24705E-13-9.48061E-14
 -1      2962 2.87658E+01 4.33346E+00-1.33949E-01-2.16093E+00-8.08048E-13 5.04874E-14
 -1      2963 2.65303E+01 1.34547E+00-3.29211E-02 3.01773E+00 4.33466E-13 5.11896E-13
 -1      2964 2.67865E+01 1.53228E-01-8.35058E-02 3.13294E+00 3.13784E-13 5.29691E-13
 -1      2965 2.73630E+01-4.33773E-01-2.77403E-02 2.83620E+00 2.80734E-13 5.23540E-13
 -1      2966 1.56954E+01 9.56447E-01 5.52154E-02 3.51838E+00 4.51666E-13-5.42962E-13
 -1      2967 1.78653E+01 4.53656E-01 9.79512E-02 2.94956E+00 3.81986E-13-4.06244E-13
 -1      2968 7.13385E+00 1.45877E-01 1.68564E-01 2.20543E-01 5.76761E-14 7.85844E-13
 -1      2969 7.35414E+00 2.65064E-03 1.56183E-01-1.77490E+00 1.91500E-13 7.68385E-13
 -1      2970 2.60548E+01 1.33997E+00-1.18069E-01-2.19259E+00 4.05780E-13-3.75942E-13
 -1      2971 2.59361E+01 2.60486E+00-3.89064E-02-1.68739E+00 5.53266E-13-3.04007E-13
 -1      2972 2.69877E+01 3.67739E+00-1.06621E-01-1.25715E+00 7.28501E-13-2.21240E-13
 -1      2973 2.71012E+01 7.64674E-01-6.66279E-02-2.15445E+00 3.75644E-13-4.15411E-13
 -1      2974 2.42896E+01-2.07844E-02 1.67189E-03-2.43474E+00-2.31361E-13 6.91040E-14
 -1      2975 2.41357E+01 4.59321E-02-6.73596E-03-2.44810E+00-2.39947E-13 1.00797E-13
 -1      2976 2.45264E+01 2.30515E-01 1.27324E-02-2.59846E+00-2.63675E-13 7.28803E-14
 -1      2977 2.43072E+01-2.99533E-02-1.29688E-02-2.30808E+00-2.13963E-13 3.75850E-14
 -1      2978 2.79884E+01 6.38534E+00-1.52016E-01-6.85958E-02-9.19403E-13-3.35752E-13
 -1      2979 2.81183E+01 6.32066E+00-1.67825E-01-1.05873E+00-9.37306E-13-1.85761E-13
 -1      2980 2.79049E+01-3.24866E+00-1.42387E-01 9.98048E-01 9.39769E-14-5.55472E-13
 -1      2981 2.62898E+01-4.10196E+00 4.07656E-02 2.32995E+00-5.49699E-14-4.93466E-13
 -1      2982 1.85169E+01-4.08055E+00 8.47402E-02-5.99414E+00 5.22679E-13 9.30089E-14
 -1      2983 2.13557E+01-4.61104E+00-3.51893E-02-5.39494E+00 3.82638E-13-1.24303E-13
 -1      2984 1.43246E+01 1.80196E+00 1.28261E-01-2.58951E+00-1.16782E-13-6.27449E-13
 -1      2985 1.16788E+01 2.41436E+00-8.43855E-03-2.42245E+00-8.88387E-14-7.72320E-13
 -1      2986 1.02675E+01 2.28752E+00 1.31095E-01-2.53880E+00-8.79574E-14-9.23456E-13
 -1      2987 2.33114E+01 1.01909E+00-5.98846E-03-1.83584E+00-1.98051E-13-1.24036E-13
 -1      2988 6.07719E+00 2.62507E+00 1.53577E-01-8.84223E-01 4.04503E-14-1.17856E-12
 -1      2989 7.35394E+00 1.92508E+00 7.51106E-02-2.62170E+00-4.47142E-14-1.09196E-12
 -1      2990 1.60456E+01-1.45451E+00-5.23575E-02 5.43686E+00 3.71522E-13-5.41456E-13
 -1      2991 1.24453E+01-1.83137E-01 1.67655E-01 5.38562E+00 4.36429E-13-8.12517E-13
 -1      2992 1.60726E+01-1.82208E+00 8.64473E-02-4.67561E+00-2.25292E-13-5.46868E-13
 -1      2993 1.92084E+01-2.76410E+00 1.76334E-02-4.42619E+00-1.60039E-13-3.65520E-13
 -1      2994 2.68605E+01-1.33863E+00-1.21431E-01 6.63627E-02-2.03197E-13 1.95080E-13
 -1      2995 2.55194E+01-2.04597E+00 3.67523E-02 1.36153E+00-1.92589E-14 1.09995E-13
 -1      2996 2.37210E+01-4.77248E+00-7.93768E-02 4.13480E+00-1.97356E-13-3.74176E-13
 -1      2997 2.06270E+01-4.34353E+00 1.19499E-01 5.21237E+00-3.88078E-13-7.91433E-14
 -1      2998 9.26215E+00 7.10559E-01 4.42312E-02 5.02673E+00 3.74992E-13-9.60204E-13
 -1      2999 7.32709E+00 1.52514E+00 1.19863E-01 3.94476E+00 3.51705E-13-1.06010E-12
 -1      3000 6.54839E+00 2.42536E+00 1.46147E-01 2.82904E+00 2.79068E-13-1.13098E-12
 -1      3001 5.83434E+00 2.85197E+00 1.20790E-01 8.57415E-01 2.11362E-13-1.16876E-12
 -1      3002 1.68245E+01-3.75663E+00 3.63799E-03 6.14409E+00-4.08978E-13 1.53738E-13
 -1      3003 1.36159E+01-2.53742E+00 1.30603E-01 5.74055E+00-3.69663E-13 2.83815E-13
 -1      3004 2.86878E+01 4.51900E+00-1.38269E-01 1.29817E+00-7.30221E-13-5.39624E-13
 -1      3005 2.82080E+01 5.69726E+00-1.89102E-01 7.64369E-01-8.39356E-13-4.05884E-13
 -1      3006 2.95042E+01 3.96643E-01-1.60350E-01-1.39217E+00 5.02792E-13-5.30062E-13
 -1      3007 2.89858E+01-1.45450E+00-3.32902E-02-5.46945E-01 2.65829E-13-5.53751E-13
 -1      3008 2.77094E+01-2.29367E+00-5.34851E-03-1.05560E+00-1.03501E-13-4.59396E-13
 -1      3009 2.86204E+01-7.80663E-01-1.57830E-01 2.10856E-02-3.44967E-13-5.16781E-13
 -1      3010 2.81859E+01-2.08074E+00 2.62844E-02 7.38864E-01 1.77004E-13 3.29708E-13
 -1      3011 2.92483E+01-8.51497E-01-1.39534E-01 1.75108E+00 3.89286E-13 3.72258E-13
 -1      3012 9.80465E+00 2.78027E+00 5.66501E-02 3.34063E+00 3.81417E-13-9.11313E-13
 -1      3013 1.18934E+01 2.04354E+00 1.00413E-01 3.79405E+00 4.43715E-13-7.92116E-13
 -1      3014 2.25061E+01-1.07681E-01 2.93882E-02-8.87898E-02 9.09832E-14-1.62313E-13
 -1      3015 2.30932E+01-5.97254E-02-3.68832E-02-8.02461E-01-4.60083E-14-1.38591E-13
 -1      3016 7.54400E+00 3.42577E+00 1.59592E-01 2.82712E-01 1.51780E-13-1.09571E-12
 -1      3017 8.48659E+00 2.67088E+00 1.55352E-01 3.04203E+00 3.74152E-13-1.03766E-12
 -1      3018 1.57233E+01 4.38904E-01 3.53830E-02-3.00930E+00-1.53572E-13-5.03278E-13
 -1      3019 1.85816E+01-1.34219E+00 5.86583E-02 4.22370E+00 3.77476E-13-3.69087E-13
 -1      3020 2.71351E+01 2.41181E-01-1.20607E-01-1.88463E+00-3.52308E-13 2.91524E-13
 -1      3021 2.74395E+01-6.01168E-01-2.01904E-02-9.13883E-01-2.71762E-13 2.50217E-13
 -1      3022 2.64335E+01-1.03593E+00 4.74781E-02-8.42396E-01-1.08572E-13 2.45422E-13
 -1      3023 2.15942E+01-8.22948E-01 9.89125E-03 1.58121E+00 2.27048E-13-1.88505E-13
 -1      3024 2.29983E+01-1.31778E+00 1.74360E-02 9.18107E-01 1.65567E-13-3.03169E-14
 -1      3025 2.68146E+01-2.59482E+00-2.41037E-02 5.13474E-02 8.65211E-14 2.75224E-13
 -1      3026 2.68851E+01 5.33586E+00-8.42022E-02 4.29615E-01-8.15889E-13-2.83891E-13
 -1      3027 2.66376E+01-3.04465E+00 2.21495E-03-1.31566E+00 4.01450E-14-4.39968E-13
 -1      3028 2.77084E+01 3.17743E+00-7.38317E-02 1.48880E+00-6.59847E-13-5.36432E-13
 -1      3029 1.95351E+01-3.66069E+00 9.10333E-02 5.07570E+00-3.98723E-13-2.53894E-14
 -1      3030 2.70271E+01 4.37694E+00-1.11579E-01 1.15515E+00 7.83928E-13 1.85298E-13
 -1      3031 2.75493E+01 2.33759E+00-7.79358E-02 2.95118E+00 5.65159E-13 4.76480E-13
 -1      3032 2.83871E+01 3.06594E+00-1.00841E-01-2.32775E+00-6.47787E-13 1.25108E-13
 -1      3033 2.76047E+01 1.91459E+00-4.64572E-02-2.34774E+00-4.88706E-13 2.08875E-13
 -1      3034 2.71268E+01 3.62137E+00-1.09619E-01-2.51651E+00-6.29413E-13 1.06234E-13
 -1      3035 1.20855E+01 7.69550E-01 1.39448E-01 4.75532E+00 4.58411E-13-8.33458E-13
 -1      3036 1.99997E+01-7.86116E-04-2.25188E-06-9.15294E-04-2.07008E-13-5.54010E-13
 -1      3037 1.99996E+01-7.79540E-04-5.40746E-06-1.02349E-03-3.09501E-13-5.01122E-13
 -1      3038 1.99998E+01-9.09680E-04 5.74975E-06-9.26377E-04-7.31446E-14-7.60845E-13
 -1      3039 2.50049E+01-4.18039E+00 2.99165E-02 2.64362E+00-1.92846E-13-4.35117E-13
 -1      3040 2.80590E+01-6.24119E-02-5.22532E-02 8.92961E-01-3.68573E-13-5.59192E-13
 -1      3041 2.70934E+01 5.38823E+00-1.03878E-01-1.45019E+00-8.18040E-13-8.58723E-14
 -1      3042 1.24580E+01-1.60463E+00 1.31738E-01 5.09329E+00-3.57783E-13 4.16348E-13
 -1      3043 1.15334E+01-6.07520E-01 7.10557E-02 3.99274E+00-2.72705E-13 4.00652E-13
 -1      3044 1.48075E+01-1.79193E+00 9.94158E-02 4.96824E+00-3.74582E-13 2.07757E-13
 -1      3045 1.99998E+01-9.00234E-04-1.50143E-06 1.01675E-03-1.87962E-13-4.72898E-14
 -1      3046 1.02585E+01 1.18958E+00 1.68788E-01-3.54331E+00-1.74964E-13-9.22928E-13
 -1      3047 2.43510E+01-2.07580E+00 4.41555E-02 1.43629E+00 1.67782E-13 3.83304E-14
 -1      3048 2.43879E+01-1.31714E+00 4.01472E-04 4.95269E-01 5.62406E-14 2.06588E-13
 -1      3049 2.30804E+01-4.24377E+00 5.43904E-02-4.05423E+00 3.68962E-13-1.39957E-13
 -1      3050 8.88099E+00 2.08832E-01 1.58684E-01 1.36703E+00-3.44551E-14 7.14651E-13
 -1      3051 8.23313E+00-6.76368E-01 1.33943E-01-3.56871E+00 3.36411E-13 7.66831E-13
 -1      3052 9.96387E+00-1.61231E+00 8.74841E-02-5.23297E+00 3.80793E-13 7.11209E-13
 -1      3053 2.35491E+01 3.35429E-01 6.67825E-03-1.62406E+00-1.37198E-13-9.12653E-14
 -1      3054 9.25406E+00-6.52070E-03 1.56522E-01-2.59932E+00 2.98352E-13 6.96804E-13
 -1      3055 2.19061E+01-2.83350E+00 7.00380E-02-2.96730E+00-1.88280E-13-1.46619E-13
 -1      3056 2.00000E+01-1.14292E-03 5.73699E-06-8.51151E-04 1.04063E-13-9.88100E-13
 -1      3057 1.99999E+01-1.03191E-03-1.26989E-06-8.97525E-04-2.12877E-14-8.90140E-13
 -1      3058 1.99999E+01-1.03402E-03-4.22887E-06-1.01109E-03 2.42041E-14-8.21705E-13
 -1      3059 2.00001E+01-1.24506E-03-3.93733E-06-9.03737E-04 1.19081E-13-9.03672E-13
 -1      3060 1.58935E+01-3.31793E+00 4.59141E-02-6.33242E+00 5.19557E-13 3.93852E-13
 -1      3061 1.82708E+01-3.35854E+00 9.44531E-02-5.48994E+00 5.85781E-13 6.86673E-14
 -1      3062 2.79750E+01-2.27769E+00-1.03100E-02-3.71364E-01 1.35317E-13-5.08621E-13
 -1      3063 2.92966E+01 3.62729E+00-1.93176E-01-1.62941E+00 7.70162E-13-3.68566E-13
 -1      3064 2.93386E+01 2.34570E+00-1.05493E-01-1.87998E+00 6.59750E-13-4.46351E-13
 -1      3065 1.99331E+01-6.31707E-01 2.02876E-02 2.60969E+00 3.28047E-13-2.63074E-13
 -1      3066 2.95573E+01 9.81597E-01-8.01054E-02 2.61705E+00 5.32158E-13 4.28241E-13
 -1      3067 2.96671E+01 2.49537E+00-2.10100E-01 2.74760E+00 7.08225E-13 3.81348E-13
 -1      3068 1.30980E+01-1.69235E-01 8.31477E-02-4.44148E+00-1.83770E-13-7.46486E-13
 -1      3069 2.83288E+01 8.03317E-01-8.99714E-02-1.87108E+00 4.59160E-13-4.00444E-13
 -1      3070 2.85042E+01-2.07138E-01-7.18469E-02 2.58543E+00 3.81910E-13 4.84682E-13
 -1      3071 1.30404E+01-2.34863E+00 1.39193E-01-5.85870E+00 4.71040E-13 5.16073E-13
 -1      3072 2.89656E+01 3.38041E+00-1.21293E-01 2.78406E+00 7.30083E-13 3.52149E-13
 -1      3073 2.84467E+01 4.19684E+00-1.23657E-01-1.48853E+00 7.87953E-13-2.77611E-13
 -1      3074 2.32499E+01-1.68495E+00-6.91708E-02-6.27295E-01-3.06422E-14 6.56870E-14
 -1      3075 2.15050E+01-1.27107E+00 6.25327E-02-1.64389E+00-1.32304E-13-9.02991E-14
 -1      3076 2.50602E+01-1.74573E+00 6.68083E-02 4.90971E-01 8.09595E-15 2.63078E-13
 -1      3077 2.57774E+01-2.06780E+00-1.12205E-02 8.56053E-01 4.81559E-14 3.22291E-13
 -1      3078 2.44538E+01-2.93265E+00-6.98083E-03-1.31221E+00-1.09711E-13 9.24989E-14
 -1      3079 2.61872E+01-2.28095E+00-2.90948E-02 5.74672E-01 2.67078E-14 3.15012E-13
 -1      3080 2.48957E+01 7.06064E-01-7.45056E-02-2.69981E+00-3.17155E-13 1.16043E-13
 -1      3081 2.48392E+01 1.60079E+00 5.44760E-03-2.57704E+00-3.81764E-13 9.63396E-14
 -1      3082 2.45598E+01 2.41621E+00-7.82760E-02-2.29062E+00-4.38177E-13 6.12834E-14
 -1      3083 2.43339E+01 3.22978E+00-1.44286E-02-1.71739E+00-5.32144E-13 4.99490E-14
 -1      3084 2.48788E+01 4.25674E+00-8.53651E-02-9.46818E-01-6.77972E-13-5.51213E-14
 -1      3085 2.47347E+01 4.31731E+00-1.02985E-01-1.12549E-01-6.72191E-13-1.39434E-13
 -1      3086 2.50489E+01 3.84209E+00-7.28354E-02 8.94683E-01-6.65773E-13-2.67683E-13
 -1      3087 2.52002E+01 2.87107E+00-9.16372E-02 1.47651E+00-5.79106E-13-3.71885E-13
 -1      3088 2.45220E+01-6.41628E-01-1.23121E-02 1.41589E+00-1.16365E-13-4.22808E-13
 -1      3089 2.43836E+01-1.29876E+00-1.92763E-02 1.11051E+00-3.82715E-14-3.86340E-13
 -1      3090 2.39065E+01-1.69015E+00-1.13935E-02 5.82269E-01 1.76976E-14-3.23512E-13
 -1      3091 2.36256E+01-1.85250E+00 1.19304E-02 1.88948E-01 6.37806E-14-2.73170E-13
 -1      3092 2.45290E+01-1.80276E+00 7.77687E-03 5.69665E-01 4.29275E-14-3.77067E-13
 -1      3093 2.30125E+01-1.82725E+00-1.34729E-02-2.31328E-01 5.32202E-14-2.18510E-13
 -1      3094 2.26820E+01-1.67674E+00 2.01533E-02-5.36274E-01 8.05241E-14-2.38875E-13
 -1      3095 2.33536E+01-2.17505E+00-2.02337E-02-4.24700E-01 9.27971E-14-2.35242E-13
 -1      3096 2.21440E+01-1.46942E+00-8.02061E-03-7.75636E-01 6.17965E-14-1.77686E-13
 -1      3097 2.18337E+01-1.21144E+00 1.81826E-02-9.62816E-01 7.09346E-14-1.44113E-13
 -1      3098 2.22336E+01-1.81260E+00-2.21633E-02-1.03611E+00 8.70945E-14-1.91060E-13
 -1      3099 2.14384E+01-9.64066E-01-2.22282E-03-1.05553E+00 4.32465E-14-1.19951E-13
 -1      3100 2.11862E+01-7.17100E-01 1.26734E-02-1.14423E+00 6.92266E-14-1.22879E-13
 -1      3101 2.13530E+01-1.22420E+00-1.97552E-02-1.30664E+00 9.56017E-14-7.12264E-14
 -1      3102 2.09272E+01-5.03659E-01 8.05328E-04-1.14792E+00 4.73029E-14-1.04631E-13
 -1      3103 2.07404E+01-3.11592E-01 7.75884E-03-1.16801E+00 4.78506E-14-1.31195E-13
 -1      3104 2.07492E+01-6.65981E-01-1.44298E-02-1.35458E+00 9.59924E-14-1.02136E-13
 -1      3105 2.05850E+01-1.55211E-01 2.04771E-03-1.12436E+00 1.42953E-14-1.56590E-13
 -1      3106 2.04535E+01-2.46865E-02 4.14318E-03-1.10172E+00-6.39968E-14-2.03481E-13
 -1      3107 2.03715E+01-2.35966E-01-9.35143E-03-1.28226E+00-1.34385E-14-5.58431E-14
 -1      3108 2.03679E+01 7.64816E-02 2.34232E-03-1.03608E+00-8.97201E-14-1.69934E-13
 -1      3109 2.02774E+01 1.54608E-01 1.76139E-03-9.89381E-01-1.13733E-13-1.03611E-13
 -1      3110 2.01535E+01 5.47488E-02-5.59403E-03-1.15338E+00-5.24422E-14-1.61622E-13
 -1      3111 2.02355E+01 2.11573E-01 2.27286E-03-9.16123E-01-1.13507E-13-6.53671E-14
 -1      3112 2.01729E+01 2.50606E-01 3.16726E-04-8.57993E-01-9.99379E-14-4.35568E-14
 -1      3113 2.00385E+01 2.28502E-01-3.09902E-03-1.00336E+00-8.68726E-14-5.07120E-14
 -1      3114 2.01565E+01 2.75871E-01 2.09595E-03-7.85096E-01-6.31881E-14 3.50231E-15
 -1      3115 2.01124E+01 2.88293E-01-4.89897E-04-7.23818E-01 6.66129E-15 3.53250E-14
 -1      3116 1.99855E+01 3.15474E-01-1.56046E-03-8.51204E-01-3.96188E-14 4.00350E-14
 -1      3117 2.01096E+01 2.92727E-01 1.89653E-03-6.55663E-01 4.91348E-14 9.96507E-14
 -1      3118 2.00776E+01 2.88522E-01-8.85025E-04-5.96432E-01 8.11508E-14 6.08246E-14
 -1      3119 1.99671E+01 3.43395E-01-6.76798E-04-7.07033E-01 4.01209E-14 6.72443E-14
 -1      3120 2.00813E+01 2.80458E-01 1.69701E-03-5.35292E-01 8.56540E-14 2.95214E-14
 -1      3121 2.00572E+01 2.66916E-01-1.02600E-03-4.81138E-01 1.36209E-13-1.15489E-14
 -1      3122 1.99663E+01 3.34294E-01-2.09325E-04-5.76133E-01 8.84113E-14 2.96472E-15
 -1      3123 2.00634E+01 2.52257E-01 1.50015E-03-4.27993E-01 9.21775E-14 5.34214E-16
 -1      3124 2.00447E+01 2.34362E-01-1.01786E-03-3.80448E-01 1.04437E-13-8.78204E-14
 -1      3125 1.99732E+01 3.04259E-01 1.20748E-05-4.60975E-01 9.34621E-14 6.71461E-14
 -1      3126 2.00512E+01 2.17043E-01 1.30623E-03-3.35447E-01 1.25852E-13-1.16513E-13
 -1      3127 2.00364E+01 1.98007E-01-9.28859E-04-2.95020E-01 8.05767E-14-1.41393E-13
 -1      3128 1.99824E+01 2.64333E-01 9.62532E-05-3.62282E-01 7.13208E-14-7.46990E-15
 -1      3129 2.00421E+01 1.80488E-01 1.11818E-03-2.57781E-01-2.61187E-14-1.09422E-13
 -1      3130 2.00303E+01 1.62237E-01-8.02902E-04-2.24315E-01-8.36313E-14-9.06825E-15
 -1      3131 1.99910E+01 2.21678E-01 1.09411E-04-2.79621E-01 8.99149E-14-8.22365E-14
 -1      3132 2.00348E+01 1.45933E-01 9.40268E-04-1.94138E-01-1.24838E-13 8.42738E-15
 -1      3133 2.00254E+01 1.29504E-01-6.67073E-04-1.67078E-01-9.98904E-14-1.13611E-15
 -1      3134 1.99980E+01 1.80631E-01 9.06427E-05-2.11822E-01-6.13743E-14 3.06066E-14
 -1      3135 2.00288E+01 1.15123E-01 7.76496E-04-1.43099E-01-6.66675E-14-5.00678E-14
 -1      3136 2.00212E+01 1.00968E-01-5.36929E-04-1.21687E-01 1.49472E-14-5.24332E-14
 -1      3137 2.00030E+01 1.43556E-01 6.14370E-05-1.57292E-01-8.05627E-14 1.07418E-14
 -1      3138 2.00235E+01 8.87678E-02 6.29789E-04-1.02995E-01 1.07718E-13-8.02306E-14
 -1      3139 2.00176E+01 7.69723E-02-4.20494E-04-8.63971E-02 1.49286E-13 1.35769E-14
 -1      3140 2.00062E+01 1.11511E-01 3.25808E-05-1.14255E-01 7.57348E-14 2.96722E-14
 -1      3141 2.00190E+01 6.69335E-02 5.01731E-04-7.21026E-02 1.33781E-13-3.51903E-15
 -1      3142 2.00144E+01 5.73703E-02-3.21068E-04-5.94977E-02 1.10810E-13-5.03712E-14
 -1      3143 2.00080E+01 8.47278E-02 8.72376E-06-8.09188E-02 9.11105E-14-4.47764E-14
 -1      3144 2.00152E+01 4.93202E-02 3.92609E-04-4.87809E-02-4.16289E-15-3.91608E-14
 -1      3145 2.00116E+01 4.17505E-02-2.39104E-04-3.94093E-02-5.88302E-14-6.30793E-14
 -1      3146 2.00087E+01 6.29488E-02-8.80085E-06-5.55825E-02 2.31527E-14-4.05229E-14
 -1      3147 2.00119E+01 3.54422E-02 3.01670E-04-3.15440E-02-5.63881E-14-8.67964E-14
 -1      3148 2.00092E+01 2.95817E-02-1.73465E-04-2.47342E-02 4.53613E-14-3.92657E-14
 -1      3149 2.00086E+01 4.56588E-02-2.03058E-05-3.67075E-02-1.20040E-13 1.43871E-14
 -1      3150 2.00092E+01 2.47449E-02 2.27434E-04-1.90976E-02 3.50912E-15-5.28839E-14
 -1      3151 2.00071E+01 2.03045E-02-1.22219E-04-1.42765E-02-8.01705E-14-2.82956E-14
 -1      3152 2.00080E+01 3.22323E-02-2.68006E-05-2.29487E-02-2.21544E-15-1.81567E-14
 -1      3153 2.00069E+01 1.66756E-02 1.68006E-04-1.03483E-02 2.90178E-15-8.64060E-14
 -1      3154 2.00054E+01 1.33846E-02-8.31547E-05-7.03981E-03 4.13859E-14-1.55724E-13
 -1      3155 2.00072E+01 2.20267E-02-2.94787E-05-1.31642E-02-1.08526E-13-9.71664E-14
 -1      3156 2.00051E+01 1.07230E-02 1.21321E-04-4.39565E-03 1.10621E-13-2.21820E-13
 -1      3157 2.00041E+01 8.34132E-03-5.40723E-05-2.21384E-03 5.92081E-14-8.47759E-14
 -1      3158 2.00062E+01 1.44367E-02-2.94625E-05-6.40810E-03 4.23673E-14-2.35029E-13
 -1      3159 2.00037E+01 6.43760E-03 8.53240E-05-5.14460E-04 9.58082E-14 1.91653E-14
 -1      3160 2.00029E+01 4.76004E-03-3.29541E-05 8.46798E-04 2.66844E-13 9.20592E-14
 -1      3161 2.00052E+01 8.92218E-03-2.76956E-05-1.91395E-03 2.10588E-13-9.16570E-14
 -1      3162 2.00026E+01 3.43766E-03 5.80936E-05 1.86712E-03 1.52489E-13 7.26246E-14
 -1      3163 2.00021E+01 2.29412E-03-1.80405E-05 2.64582E-03 4.86557E-15 2.49609E-15
 -1      3164 2.00042E+01 5.01985E-03-2.49144E-05 9.26756E-04 2.16692E-13-2.37162E-13
 -1      3165 2.00017E+01 1.40841E-03 3.79058E-05 3.19125E-03-1.13227E-13-8.68363E-14
 -1      3166 2.00014E+01 6.61262E-04-7.85328E-06 3.56872E-03-2.30692E-13-1.54368E-13
 -1      3167 2.00034E+01 2.34412E-03-2.16596E-05 2.58790E-03-1.42156E-13-3.36622E-13
 -1      3168 2.00011E+01 9.63697E-05 2.32681E-05 3.79307E-03-3.04331E-13-1.11395E-13
 -1      3169 2.00009E+01-3.63342E-04-1.18755E-06 3.90465E-03-2.36677E-13-3.12321E-13
 -1      3170 2.00026E+01 5.81999E-04-1.83058E-05 3.43148E-03-2.74861E-13-1.55793E-13
 -1      3171 2.00006E+01-6.98298E-04 1.29238E-05 3.92138E-03 5.87188E-14-2.78979E-13
 -1      3172 2.00005E+01-9.55129E-04 2.91468E-06 3.86580E-03 9.87287E-14-3.21063E-14
 -1      3173 2.00020E+01-5.15064E-04-1.50952E-05 3.72855E-03-3.36623E-14-9.74543E-14
 -1      3174 2.00003E+01-1.13010E-03 5.84154E-06 3.75666E-03-9.30356E-15 2.04528E-13
 -1      3175 2.00002E+01-1.24848E-03 5.19744E-06 3.60415E-03 4.30523E-14 2.82432E-13
 -1      3176 2.00015E+01-1.14059E-03-1.21708E-05 3.67772E-03 1.92104E-13 1.26425E-13
 -1      3177 2.00000E+01-1.31637E-03 1.19353E-06 3.42639E-03 6.28576E-14 3.28231E-13
 -1      3178 2.00000E+01-1.34457E-03 6.22640E-06 3.22531E-03 1.93916E-14 2.38282E-13
 -1      3179 2.00010E+01-1.44251E-03-9.60481E-06 3.42097E-03 4.47371E-14 3.34193E-13
 -1      3180 1.99999E+01-1.34471E-03-1.67327E-06 3.01762E-03-6.49664E-14 2.22891E-13
 -1      3181 1.99999E+01-1.31830E-03 6.42119E-06 2.79986E-03-2.98147E-14 2.95091E-13
 -1      3182 2.00007E+01-1.53197E-03-7.42157E-06 3.05679E-03 6.11952E-14 3.47519E-13
 -1      3183 1.99998E+01-1.27955E-03-3.26227E-06 2.58712E-03-2.17393E-14 2.70620E-13
 -1      3184 1.99998E+01-1.22440E-03 6.10133E-06 2.37241E-03-9.33297E-15 2.54216E-13
 -1      3185 2.00004E+01-1.49114E-03-5.62203E-06 2.65085E-03-1.14831E-14 2.90342E-13
 -1      3186 1.99997E+01-1.16780E-03-3.99484E-06 2.16951E-03-7.23580E-15 2.94812E-13
 -1      3187 1.99998E+01-1.10301E-03 5.14521E-06 1.96881E-03-1.58562E-14 2.18075E-13
 -1      3188 2.00002E+01-1.37989E-03-4.21708E-06 2.24450E-03-1.10169E-14 1.11136E-13
 -1      3189 1.99997E+01-1.04197E-03-3.79371E-06 1.78201E-03-1.43488E-13 2.98284E-13
 -1      3190 1.99997E+01-9.81593E-04 4.91487E-06 1.60147E-03-1.19152E-13 3.17545E-13
 -1      3191 2.00001E+01-1.24213E-03-3.07619E-06 1.86227E-03-7.59102E-14 2.17447E-13
 -1      3192 2.14939E+01-1.00284E+00 2.69553E-02 2.04809E+00-9.99398E-14-1.78111E-14
 -1      3193 2.19641E+01-1.46823E+00 6.99234E-03 1.95220E+00-1.19993E-13-1.27927E-14
 -1      3194 2.08138E+01-2.97485E-01 1.10379E-02 1.96080E+00-4.45464E-14 6.49046E-14
 -1      3195 2.11214E+01-6.25018E-01 6.92004E-03 1.97485E+00-6.22271E-14 4.65380E-14
 -1      3196 2.05373E+01-8.73520E-01-2.98771E-02 2.34386E+00-8.17549E-14 4.91872E-14
 -1      3197 2.04621E+01 1.40534E-01 3.40372E-03 1.76007E+00-1.22287E-13 1.04599E-13
 -1      3198 2.06532E+01-4.85501E-02 7.47711E-03 1.83153E+00-8.38561E-14 9.04851E-14
 -1      3199 2.00873E+01-1.34219E-01-1.36711E-02 2.07164E+00-8.66704E-14 8.66199E-14
 -1      3200 2.02916E+01 3.68644E-01-2.34640E-04 1.52636E+00-9.63919E-15 5.92287E-14
 -1      3201 2.04101E+01 2.76925E-01 5.73033E-03 1.62385E+00-3.97315E-14 9.50118E-14
 -1      3202 1.99141E+01 2.85839E-01-5.94351E-03 1.77913E+00-6.93941E-14 7.00414E-14
 -1      3203 2.02120E+01 4.58218E-01-1.76416E-03 1.29169E+00-4.48872E-14-2.30196E-14
 -1      3204 2.02904E+01 4.28205E-01 4.51851E-03 1.39687E+00-5.19834E-15 5.49319E-14
 -1      3205 1.98762E+01 4.90196E-01-1.70242E-03 1.50304E+00-9.19886E-15 7.55503E-14
 -1      3206 2.01732E+01 4.65857E-01-2.30661E-03 1.07142E+00 2.80293E-14-8.95787E-14
 -1      3207 2.02301E+01 4.71071E-01 3.69436E-03 1.17388E+00 1.42169E-15-6.22699E-14
 -1      3208 1.98956E+01 5.57849E-01 2.22677E-04 1.25316E+00 4.39118E-14-5.17047E-14
 -1      3209 2.01503E+01 4.30240E-01-2.33047E-03 8.72899E-01 2.48325E-14-1.05909E-13
 -1      3210 2.01953E+01 4.53243E-01 3.13706E-03 9.66938E-01 1.72716E-14-1.30349E-13
 -1      3211 1.99320E+01 5.47220E-01 8.83323E-04 1.03108E+00 6.51521E-14-8.61156E-14
 -1      3212 2.01322E+01 3.75501E-01-2.11089E-03 6.99347E-01 4.92429E-15-1.00618E-13
 -1      3213 2.01697E+01 4.05662E-01 2.72844E-03 7.82177E-01-1.01262E-14-7.16674E-14
 -1      3214 1.99670E+01 4.96495E-01 9.53249E-04 8.36665E-01 3.36325E-14-8.56189E-14
 -1      3215 2.01151E+01 3.15663E-01-1.79975E-03 5.51338E-01-3.57259E-14-1.16591E-13
 -1      3216 2.01470E+01 3.46943E-01 2.38337E-03 6.22079E-01-8.27160E-15-1.50602E-13
 -1      3217 1.99941E+01 4.29178E-01 7.86452E-04 6.69202E-01-3.70099E-14-1.73282E-13
 -1      3218 2.00981E+01 2.58219E-01-1.47696E-03 4.27774E-01 8.34326E-14-1.36362E-13
 -1      3219 2.01252E+01 2.87487E-01 2.06526E-03 4.86716E-01-1.12513E-14-1.28775E-13
 -1      3220 2.00120E+01 3.58796E-01 5.57633E-04 5.27369E-01-1.32010E-14-1.47596E-13
 -1      3221 2.00816E+01 2.06723E-01-1.17971E-03 3.26565E-01 4.16464E-15-1.80178E-13
 -1      3222 2.01043E+01 2.32570E-01 1.76412E-03 3.74659E-01 1.23799E-13-1.12730E-13
 -1      3223 2.00223E+01 2.92514E-01 3.47995E-04 4.09272E-01 8.29655E-14-1.16297E-13
 -1      3224 2.00663E+01 1.62480E-01-9.22936E-04 2.45109E-01-2.17783E-14-1.44314E-13
 -1      3225 2.00850E+01 1.84467E-01 1.48120E-03 2.83633E-01-3.47265E-14-1.50396E-13
 -1      3226 2.00269E+01 2.33652E-01 1.83772E-04 3.12589E-01 3.49208E-14-9.07152E-14
 -1      3227 2.00526E+01 1.25574E-01-7.09531E-04 1.80632E-01-2.58735E-13 2.17321E-14
 -1      3228 2.00678E+01 1.43783E-01 1.22169E-03 2.10967E-01-1.26188E-13-4.31507E-14
 -1      3229 2.00276E+01 1.83333E-01 6.72997E-05 2.34737E-01-1.40203E-13-5.82333E-16
 -1      3230 2.00408E+01 9.54733E-02-5.36857E-04 1.30414E-01-1.21188E-13-1.51167E-14
 -1      3231 2.00528E+01 1.10240E-01 9.90190E-04 1.53911E-01-1.91618E-13 2.90367E-14
 -1      3232 2.00260E+01 1.41481E-01-8.33120E-06 1.73056E-01-2.04781E-13 2.11001E-14
 -1      3233 2.00309E+01 7.13763E-02-3.99902E-04 9.19337E-02-1.17943E-13-1.43502E-13
 -1      3234 2.00403E+01 8.31390E-02 7.89013E-04 1.09836E-01-8.71953E-14-1.04881E-13
 -1      3235 2.00231E+01 1.07409E-01-5.27186E-05 1.24969E-01-9.03300E-14-5.60070E-14
 -1      3236 2.00229E+01 5.24023E-02-2.93023E-04 6.29405E-02-3.01396E-14-5.54235E-14
 -1      3237 2.00301E+01 6.16217E-02 6.18260E-04 7.63481E-02-1.21545E-13-1.15906E-13
 -1      3238 2.00198E+01 8.01707E-02-7.49732E-05 8.80900E-02-1.14151E-13-1.17315E-13
 -1      3239 2.00165E+01 3.76951E-02-2.10801E-04 4.14881E-02 2.23868E-13-1.27349E-13
 -1      3240 2.00219E+01 4.48090E-02 4.76376E-04 5.13446E-02 1.88406E-13-5.83308E-14
 -1      3241 2.00164E+01 5.87494E-02-8.25412E-05 6.02853E-02 8.90088E-14-1.81960E-13
 -1      3242 2.00116E+01 2.64731E-02-1.48414E-04 2.59319E-02 7.74512E-14-1.22066E-14
 -1      3243 2.00156E+01 3.18760E-02 3.60746E-04 3.30282E-02 1.65620E-13-9.68552E-15
 -1      3244 2.00132E+01 4.21661E-02-8.10140E-05 3.97039E-02 2.00980E-13-7.26382E-14
 -1      3245 2.00079E+01 1.80497E-02-1.01747E-04 1.49114E-02-4.65082E-14-1.62029E-13
 -1      3246 2.00107E+01 2.20850E-02 2.68202E-04 1.98969E-02 9.27420E-14 1.38450E-14
 -1      3247 2.00104E+01 2.95299E-02-7.43488E-05 2.47773E-02 7.57756E-14 5.28823E-14
 -1      3248 2.00051E+01 1.18389E-02-6.73747E-05 7.32120E-03 1.50586E-14-9.72892E-14
 -1      3249 2.00071E+01 1.47977E-02 1.95406E-04 1.07199E-02-1.34968E-13-1.52904E-13
 -1      3250 2.00080E+01 2.00602E-02-6.52109E-05 1.42042E-02-1.18650E-14-5.36298E-14
 -1      3251 2.00031E+01 7.35060E-03-4.25002E-05 2.27903E-03 1.08808E-13-8.01783E-14
 -1      3252 2.00044E+01 9.47509E-03 1.39113E-04 4.50665E-03 1.40145E-13-4.65074E-14
 -1      3253 2.00060E+01 1.30910E-02-5.53082E-05 6.92557E-03 6.50183E-14-1.29732E-13
 -1      3254 2.00016E+01 4.18280E-03-2.48694E-05-9.08053E-04 2.32819E-13-2.02375E-14
 -1      3255 2.00025E+01 5.67066E-03 9.63299E-05 4.72912E-04 1.49721E-13 1.31016E-14
 -1      3256 2.00045E+01 8.06615E-03-4.56707E-05 2.09453E-03 1.42182E-13 2.79447E-14
 -1      3257 2.00007E+01 2.01087E-03-1.26884E-05-2.77529E-03 2.47355E-13 5.30951E-14
 -1      3258 2.00012E+01 3.02097E-03 6.44024E-05-1.99183E-03 2.98824E-13 2.25494E-14
 -1      3259 2.00032E+01 4.52969E-03-3.68665E-05-9.54611E-04 2.35444E-13 2.64216E-13
 -1      3260 2.00000E+01 5.76775E-04-4.54696E-06-3.72913E-03 4.17854E-14 2.36088E-13
 -1      3261 2.00003E+01 1.23487E-03 4.10445E-05-3.35511E-03 1.58695E-13 1.85958E-13
 -1      3262 2.00022E+01 2.11385E-03-2.91602E-05-2.73638E-03 1.42853E-13 1.91619E-13
 -1      3263 1.99996E+01-3.21501E-04 6.50464E-07-4.07270E-03-1.01928E-13 1.56701E-13
 -1      3264 1.99997E+01 8.26049E-05 2.43367E-05-3.96873E-03-2.70697E-14 1.81006E-13
 -1      3265 2.00015E+01 5.26640E-04-2.26256E-05-3.64163E-03 9.98255E-15 2.07499E-13
 -1      3266 1.99994E+01-8.39792E-04 3.74347E-06-4.02755E-03-3.98144E-13 8.34972E-14
 -1      3267 1.99994E+01-6.14412E-04 1.27017E-05-4.09246E-03-3.03006E-13 1.25220E-13
 -1      3268 2.00009E+01-4.60296E-04-1.72223E-05-3.96181E-03-1.66020E-13 5.41719E-14
 -1      3269 1.99993E+01-1.09651E-03 5.36536E-06-3.75188E-03-3.72633E-13 2.09770E-14
 -1      3270 1.99992E+01-9.92917E-04 4.86936E-06-3.91402E-03-2.63139E-13 1.53306E-13
 -1      3271 2.00005E+01-1.02285E-03-1.28491E-05-3.90989E-03-3.19757E-13 1.93179E-13
 -1      3272 1.99993E+01-1.18032E-03 5.98623E-06-3.35542E-03-6.14686E-14-2.81370E-13
 -1      3273 1.99992E+01-1.15607E-03-1.63910E-07-3.56563E-03-2.73992E-13-1.03609E-13
 -1      3274 2.00002E+01-1.29452E-03-9.37966E-06-3.63782E-03-1.62150E-13-2.20900E-14
 -1      3275 1.99993E+01-1.15669E-03 5.95133E-06-2.91142E-03 1.07343E-13-4.26514E-13
 -1      3276 1.99992E+01-1.18058E-03-3.17321E-06-3.13736E-03 2.43399E-14-3.95441E-13
 -1      3277 2.00000E+01-1.37513E-03-6.68049E-06-3.25089E-03 3.37861E-14-2.34120E-13
 -1      3278 1.99993E+01-1.07340E-03 5.50543E-06-2.46607E-03-3.02131E-14-2.96089E-13
 -1      3279 1.99992E+01-1.12275E-03-4.74783E-06-2.68785E-03-1.49596E-14-4.44420E-13
 -1      3280 1.99999E+01-1.33830E-03-4.62071E-06-2.81926E-03-1.62575E-14-3.31573E-13
 -1      3281 1.99994E+01-9.65003E-04 4.81825E-06-2.04585E-03 9.02709E-15-2.51393E-13
 -1      3282 1.99993E+01-1.02345E-03-5.32754E-06-2.25258E-03-5.31927E-15-2.20357E-13
 -1      3283 1.99998E+01-1.23771E-03-3.09893E-06-2.38710E-03-4.57902E-14-3.81586E-13
 -1      3284 1.99995E+01-8.56398E-04 3.83433E-06-1.66317E-03 6.18454E-14-8.85531E-14
 -1      3285 1.99994E+01-9.12215E-04-5.25499E-06-1.85025E-03-4.82853E-15-1.90221E-13
 -1      3286 1.99997E+01-1.11207E-03-2.03072E-06-1.97956E-03-1.49847E-13-1.61287E-13
 -1      3287 1.99995E+01-7.68129E-04 6.44568E-07-1.32256E-03-1.20375E-13-2.96255E-13
 -1      3288 1.99994E+01-8.09323E-04-4.79598E-06-1.48746E-03 1.21775E-13-7.38799E-14
 -1      3289 1.99997E+01-9.88750E-04-9.74389E-07-1.60879E-03 1.13860E-13-1.01778E-13
 -1      3290 1.99996E+01-7.73667E-04-1.84116E-06-1.11403E-03-3.49648E-13-2.44502E-13
 -1      3291 1.99995E+01-7.70459E-04-4.88764E-06-1.22462E-03-2.48385E-13-2.47119E-13
 -1      3292 1.99997E+01-9.23684E-04 1.38294E-06-1.33051E-03-1.09180E-13 1.13610E-13
 -1      3293 1.99998E+01-9.07260E-04 5.69670E-06-1.13092E-03-1.22120E-13-2.56610E-13
 -1      3294 2.00001E+01-1.22128E-03-5.89367E-06 1.07159E-03 1.87319E-15-3.17234E-13
 -1      3295 2.00003E+01-1.32312E-03 6.01665E-06 9.78055E-04 1.86126E-14-5.70267E-13
 -1      3296 1.78150E+01-2.66860E+00 5.69404E-02-5.02564E+00 4.86042E-13 6.15931E-14
 -1      3297 2.00159E+01-3.57589E+00 2.71363E-03-4.85800E+00 4.66724E-13-1.14690E-13
 -1      3298 2.10589E+01-3.73544E+00-4.16679E-03 4.32223E+00-3.69947E-13-1.63338E-13
 -1      3299 1.81231E+01-2.90087E+00 8.48254E-02 5.04960E+00-3.83298E-13 6.07986E-14
 -1      3300 2.00007E+01-1.65063E-03 2.20536E-06 1.00125E-04-6.49841E-14 5.11766E-13
 -1      3301 2.00007E+01-1.65116E-03 2.20370E-06-9.22752E-05 4.21788E-14 5.40412E-13
 -1      3302 2.57554E+01-3.78486E+00-5.22190E-02 1.40632E+00-1.16067E-13-3.66903E-13
 -1      3303 2.38718E+01-3.95168E+00 4.83696E-02 2.87558E+00-2.44086E-13-3.64945E-13
 -1      3304 2.45427E+01-1.37697E+00-7.63414E-02-2.06114E-01 4.39579E-15 7.98927E-14
 -1      3305 1.55139E+01-3.52418E-01 9.31950E-02-3.74693E+00-2.43514E-13-5.65339E-13
 -1      3306 2.00004E+01-1.43998E-03-1.83997E-06 8.32007E-04-1.41540E-13-4.37980E-13
 -1      3307 2.00005E+01-1.51297E-03 5.60150E-06 6.84294E-04-1.63210E-13-7.06816E-14
 -1      3308 2.00005E+01-1.44361E-03-2.13837E-06 9.97774E-04-1.25209E-13-3.70894E-13
 -1      3309 2.39353E+01-1.91695E-01 1.17404E-02-1.51174E+00-9.02429E-14-2.28385E-14
 -1      3310 2.26698E+01-1.97313E+00 4.22471E-02 1.89029E+00-1.30338E-13-6.75896E-14
 -1      3311 2.33173E+01-2.49200E+00-3.90792E-03 1.58384E+00-1.24498E-13-8.23668E-14
 -1      3312 2.14962E+01-1.88073E+00-3.24378E-02 2.45874E+00-1.35169E-13-1.10627E-13
 -1      3313 2.46093E+01-2.95622E+00 3.80611E-02 1.15237E+00-1.42406E-13-1.82174E-13
 -1      3314 2.54222E+01-3.08017E+00-1.68875E-02 5.54031E-01-7.64753E-14-2.88027E-13
 -1      3315 2.99538E+01 6.20580E+00-1.39872E-01 9.47407E-01 1.09829E-12-8.43076E-15
 -1      3316 2.85537E+01 5.55781E+00-1.51230E-01 3.41926E-01 9.98812E-13-4.38252E-14
 -1      3317 1.31873E+01-1.56358E+00 1.42143E-01-5.17029E+00 4.66654E-13 5.50129E-13
 -1      3318 1.42750E+01 9.63915E-01 2.30386E-02 4.18283E+00 4.49321E-13-6.33819E-13
 -1      3319 1.61408E+01-2.40393E-01 8.42215E-02 4.42265E+00 4.62998E-13-5.18609E-13
 -1      3320 2.19627E+01-3.88789E+00 5.97991E-02-4.07409E+00 4.46167E-13-1.39032E-13
 -1      3321 2.39119E+01-4.13645E+00-8.69273E-02-2.99212E+00 3.45661E-13-2.73564E-13
 -1      3322 2.14144E+01-3.34620E+00 4.74413E-02-3.77265E+00 4.34781E-13-1.21136E-13
 -1      3323 2.70454E+01-1.00867E+00-1.63170E-02 8.40425E-01-2.12670E-13-5.91076E-13
 -1      3324 2.70087E+01 4.47271E-01-1.22943E-01 1.47644E+00-3.91798E-13-5.99423E-13
 -1      3325 1.02816E+01 3.56046E-01 1.30461E-01 2.41172E+00-1.13531E-13 5.52683E-13
 -1      3326 9.66981E+00 7.07285E-01 8.52485E-02 4.06997E-01 4.84443E-14 6.08569E-13
 -1      3327 1.86688E+01-1.17942E+00 6.15106E-02-3.25598E+00-1.98383E-13-3.34576E-13
 -1      3328 2.42414E+01-4.09393E-01-6.92462E-03-1.65120E+00-1.24799E-13 1.14444E-14
 -1      3329 2.87472E+01 5.39948E+00-1.24547E-01 1.51372E+00 1.00714E-12 1.08746E-13
 -1      3330 9.84259E+00 5.33244E-01 9.57009E-02-1.70775E+00 2.13784E-13 5.98577E-13
 -1      3331 1.06848E+01-1.22712E-01 7.22625E-02-3.46259E+00 3.08448E-13 6.65995E-13
 -1      3332 2.00006E+01-1.58712E-03 1.09067E-07 4.93402E-04-1.26547E-13 1.84582E-13
 -1      3333 2.00007E+01-1.62481E-03 4.08720E-06 3.15589E-04-8.47628E-14 4.71682E-13
 -1      3334 2.00009E+01-1.71582E-03-5.09128E-06 2.27272E-04-1.04075E-13 4.30319E-13
 -1      3335 2.00007E+01-1.62336E-03-4.57058E-06 6.47891E-04-2.07811E-13 5.40156E-14
 -1      3336 1.99997E+01-8.64200E-04-3.10958E-06 1.13556E-03-1.06739E-13 1.64651E-13
 -1      3337 2.00000E+01-1.06380E-03 8.10220E-06 1.14306E-03-1.90308E-13 4.95785E-14
 -1      3338 2.00001E+01-1.19159E-03 2.33699E-06 1.21292E-03-2.81660E-14-3.27590E-13
 -1      3339 1.99997E+01-8.91731E-04-2.23359E-06 1.26209E-03-1.85460E-13 3.05671E-13
 -1      3340 2.56223E+01-3.35942E+00 4.64852E-02-1.51228E+00 1.70509E-13-4.62339E-13
 -1      3341 2.65751E+01-2.51368E+00-1.15560E-01-2.53545E-01-1.16504E-14-5.20695E-13
 -1      3342 2.56512E+01 4.57475E+00-1.04318E-01-1.54230E+00-6.82288E-13-1.45439E-14
 -1      3343 2.61860E+01 3.87608E+00-1.40268E-01-2.29799E+00-6.30315E-13 8.26075E-14
 -1      3344 2.62143E+01 2.42764E+00-8.16048E-02 1.74137E+00-5.60843E-13-4.63504E-13
 -1      3345 2.46198E+01 1.21697E+00-9.67928E-03 1.68901E+00-3.74450E-13-3.88923E-13
 -1      3346 2.47026E+01 1.76258E-01-6.31260E-02 1.75577E+00-2.48402E-13-4.22948E-13
 -1      3347 2.66658E+01 9.67916E-01-1.03965E-01 1.75289E+00-4.28768E-13-5.46022E-13
 -1      3348 1.26480E+01-7.46354E-01 1.29072E-01-4.41560E+00 4.30093E-13 5.54459E-13
 -1      3349 1.50594E+01-1.70171E+00 1.94372E-02-4.99306E+00 4.98754E-13 2.85438E-13
 -1      3350 1.30073E+01-1.91746E-01 1.08678E-01-3.55485E+00 3.50504E-13 4.80241E-13
 -1      3351 2.14569E+01-2.11460E+00 3.64239E-02-2.36969E+00-1.68286E-13-8.50448E-14
 -1      3352 1.96070E+01-1.40828E+00-3.37188E-02 3.52695E+00 3.69926E-13-2.84123E-13
 -1      3353 2.67522E+01 1.21681E+00-4.96628E-02-2.52651E+00-3.87627E-13 2.30371E-13
 -1      3354 2.60732E+01 4.32390E-01-9.67719E-03-2.31533E+00-2.68573E-13 2.41130E-13
 -1      3355 2.53627E+01 2.23038E+00-2.11797E-02-2.58677E+00-4.21465E-13 1.35753E-13
 -1      3356 2.77827E+01-1.63905E+00 7.02554E-03 2.17155E+00 1.54262E-13 5.09773E-13
 -1      3357 2.76799E+01-2.80794E-01-8.44266E-02 2.80847E+00 3.19512E-13 5.30909E-13
 -1      3358 2.62008E+01-1.72359E+00-1.17043E-02 5.35781E-01-6.83863E-14-5.32720E-13
 -1      3359 2.65135E+01-2.99793E+00 2.63793E-03 4.22948E-02-1.63168E-14-3.74964E-13
 -1      3360 1.99997E+01-9.27868E-04-2.02273E-06 1.39299E-03-1.75340E-13 3.72579E-13
 -1      3361 2.59057E+01 3.05148E+00-5.48797E-02-2.46477E+00-5.20556E-13 1.52243E-13
 -1      3362 2.79948E+01 2.78137E+00-6.78272E-02 2.82358E+00 6.20837E-13 4.41411E-13
 -1      3363 2.83003E+01 4.36990E+00-1.74192E-01 2.28203E+00 8.16236E-13 2.90365E-13
 -1      3364 2.72561E+01-2.17378E+00-3.21935E-02-6.42777E-01 1.58807E-13-4.34923E-13
 -1      3365 1.70650E+01-2.02360E+00 7.25993E-02-4.76039E+00 4.74995E-13 1.45307E-13
 -1      3366 1.87212E+01-2.25100E+00 1.36712E-02-4.16066E+00 4.32914E-13-3.76435E-16
 -1      3367 1.63075E+01-1.28760E+00 2.60725E-02-4.24781E+00 3.96646E-13 1.95521E-13
 -1      3368 2.00005E+01-1.51455E-03 5.31162E-06-6.84128E-04 2.15527E-13 1.27855E-13
 -1      3369 2.00004E+01-1.44009E-03-1.22979E-06-8.31990E-04 2.57285E-13-5.60181E-13
 -1      3370 1.85211E+01-2.23748E+00 5.73429E-02 4.30336E+00-3.45023E-13 1.18482E-14
 -1      3371 1.67222E+01-2.14955E+00 6.54367E-02 4.95736E+00-3.51490E-13 1.42782E-13
 -1      3372 1.53421E+01-1.25964E+00 1.67737E-02 4.37493E+00-2.92551E-13 1.92311E-13
 -1      3373 2.00009E+01-1.71670E-03-5.02378E-06-2.20462E-04 3.99168E-15 4.31497E-13
 -1      3374 2.00007E+01-1.62623E-03 4.09794E-06-3.09762E-04 1.10198E-13 6.32149E-13
 -1      3375 2.00006E+01-1.58818E-03 2.72309E-07-4.90911E-04 2.16257E-13 4.65677E-13
 -1      3376 2.56354E+01-1.00974E+00-1.31084E-02-1.06409E+00-1.06731E-13 2.26942E-13
 -1      3377 2.46391E+01-7.17693E-01 1.48936E-02-1.35128E+00-7.23943E-14 7.68517E-14
 -1      3378 1.21702E+01 3.79915E-02 1.09852E-01 2.97557E+00-2.14974E-13 3.66152E-13
 -1      3379 2.33583E+01-3.09392E+00-1.22424E-02 2.15915E+00-1.81346E-13-2.23144E-13
 -1      3380 2.74214E+01 5.09608E+00-1.21528E-01 4.97979E-01 9.04860E-13 3.59430E-14
 -1      3381 2.78611E+01 5.08244E+00-1.66722E-01-4.17057E-01 8.98892E-13-1.20660E-13
 -1      3382 2.76083E+01 4.60029E+00-1.45174E-01 1.76875E+00 8.40050E-13 2.33633E-13
 -1      3383 2.45285E+01-3.48629E+00-6.19147E-03-1.82771E+00 2.66533E-13-3.80845E-13
 -1      3384 2.00003E+01-1.33810E-03 5.68860E-06-9.52089E-04 2.16650E-13-9.20049E-13
 -1      3385 2.00002E+01-1.25071E-03-1.40780E-06-1.03154E-03 1.72953E-13-1.00148E-12
 -1      3386 2.00005E+01-1.46170E-03-4.80756E-06-9.70727E-04 3.47085E-13-6.10954E-13
 -1      3387 2.00000E+01-1.11208E-03-3.93777E-06 1.47115E-03-1.84654E-13 1.19759E-13
 -1      3388 2.77545E+01-8.67850E-01-8.93791E-02-1.79381E+00 3.01252E-13-4.47517E-13
 -1      3389 2.74406E+01 3.79103E+00-1.10196E-01-1.26934E+00 7.43072E-13-2.25944E-13
 -1      3390 1.14930E+01 9.81434E-01 4.63096E-02 4.31152E-01-3.78621E-14 4.80768E-13
 -1      3391 1.05222E+01 8.57664E-01 1.19479E-01-5.75027E-01 8.37472E-14 5.38319E-13
 -1      3392 1.15197E+01 7.66112E-01 1.50580E-02-1.44311E+00 1.14981E-13 4.84168E-13
 -1      3393 2.53161E+01-4.54119E-01-1.70092E-02 1.47583E+00-1.73882E-13-4.54164E-13
 -1      3394 2.74197E+01 7.56669E-01-9.94833E-02-2.14564E+00 4.21399E-13-3.89216E-13
 -1      3395 2.49676E+01-3.46103E-01-1.82958E-02-2.27874E+00-1.82586E-13 7.55958E-14
 -1      3396 2.49995E+01 4.46462E-02-1.47775E-02-2.40161E+00-2.56857E-13 1.06768E-13
 -1      3397 2.56264E+01 2.98825E-01 9.20555E-03-2.50262E+00-2.47073E-13 2.04045E-13
 -1      3398 2.59238E+01 1.12417E-01-2.02360E-03 1.56949E+00-2.74857E-13-5.04569E-13
 -1      3399 1.27528E+01 4.81121E-01 1.17731E-01-2.74540E+00 2.54907E-13 4.79554E-13
 -1      3400 1.41206E+01-3.11894E-01 1.55004E-03-3.59016E+00 3.44862E-13 3.62210E-13
 -1      3401 2.35230E+01-2.61378E+00-1.22738E-02-9.10520E-01 1.76783E-13-2.70742E-13
 -1      3402 2.29755E+01-2.38715E+00 3.40818E-02-1.24732E+00 1.43047E-13-2.27523E-13
 -1      3403 2.21993E+01-2.08611E+00-2.35266E-03-1.44956E+00 9.47718E-14-1.75134E-13
 -1      3404 2.17038E+01-1.71941E+00 2.67041E-02-1.61645E+00 1.17425E-13-1.58833E-13
 -1      3405 2.21502E+01-2.45615E+00-2.27919E-02-1.91290E+00 1.50548E-13-1.71586E-13
 -1      3406 2.11939E+01-1.35665E+00 5.14105E-03-1.62198E+00 1.00024E-13-2.06479E-13
 -1      3407 2.08264E+01-1.01092E+00 1.62054E-02-1.65534E+00 1.08177E-13-1.59940E-13
 -1      3408 2.09471E+01-1.62893E+00-2.49338E-02-2.03807E+00 8.28159E-14-1.34762E-13
 -1      3409 2.05348E+01-7.09117E-01 6.87585E-03-1.57150E+00 1.37840E-13-1.90095E-13
 -1      3410 2.02894E+01-4.43792E-01 8.29982E-03-1.53604E+00 1.13928E-13-1.62903E-13
 -1      3411 2.02145E+01-8.63598E-01-1.90759E-02-1.87338E+00 1.33289E-13-2.08099E-13
 -1      3412 2.01435E+01-2.24661E-01 6.46594E-03-1.42269E+00 2.81881E-14-1.11836E-13
 -1      3413 1.99931E+01-4.53495E-02 3.46840E-03-1.35598E+00 6.03082E-15-1.03389E-13
 -1      3414 1.98221E+01-2.90637E-01-1.15735E-02-1.62739E+00 1.27684E-13-2.22761E-13
 -1      3415 1.99360E+01 9.70972E-02 5.15643E-03-1.24154E+00-1.20116E-14-9.32568E-14
 -1      3416 1.98508E+01 2.05451E-01 7.67669E-04-1.16342E+00-6.73286E-14-3.70944E-14
 -1      3417 1.96437E+01 8.94988E-02-6.38694E-03-1.37320E+00-1.89705E-14-8.94463E-14
 -1      3418 1.98438E+01 2.87297E-01 3.86718E-03-1.05829E+00-8.16231E-14 1.44937E-14
 -1      3419 1.97997E+01 3.43136E-01-6.36579E-04-9.78926E-01-6.41226E-14 5.01867E-14
 -1      3420 1.95909E+01 3.16045E-01-3.07411E-03-1.14068E+00-2.08150E-14 5.74559E-15
 -1      3421 1.98187E+01 3.81358E-01 2.87277E-03-8.86017E-01-8.00747E-14 8.21397E-14
 -1      3422 1.97988E+01 4.01113E-01-1.30970E-03-8.10585E-01-2.91931E-14 1.22543E-13
 -1      3423 1.96064E+01 4.30844E-01-1.12009E-03-9.37224E-01-6.48014E-14 1.19707E-13
 -1      3424 1.98290E+01 4.10185E-01 2.16677E-03-7.30105E-01 1.26038E-14 9.26756E-14
 -1      3425 1.98222E+01 4.06903E-01-1.57042E-03-6.61246E-01 3.66187E-14 5.64025E-14
 -1      3426 1.96549E+01 4.69600E-01-4.83820E-05-7.62410E-01-4.44222E-14 2.99824E-14
 -1      3427 1.98553E+01 3.97987E-01 1.68135E-03-5.92477E-01 5.76964E-14 5.59197E-15
 -1      3428 1.98549E+01 3.81275E-01-1.59943E-03-5.31442E-01 9.94914E-14-2.77178E-14
 -1      3429 1.97152E+01 4.59980E-01 4.74757E-04-6.13680E-01 1.48298E-14 5.94672E-14
 -1      3430 1.98863E+01 3.62390E-01 1.34476E-03-4.73422E-01 1.69675E-13-5.61304E-14
 -1      3431 1.98885E+01 3.38947E-01-1.50152E-03-4.20649E-01 1.52080E-13 2.98668E-14
 -1      3432 1.97757E+01 4.22207E-01 6.82478E-04-4.88188E-01 1.33584E-13-5.58373E-14
 -1      3433 1.99161E+01 3.15582E-01 1.09914E-03-3.72360E-01 6.51348E-14 8.28499E-14
 -1      3434 1.99188E+01 2.89870E-01-1.33712E-03-3.27732E-01 9.97578E-14 1.05767E-13
 -1      3435 1.98304E+01 3.70348E-01 7.14908E-04-3.83358E-01 1.63229E-13-6.62378E-14
 -1      3436 1.99417E+01 2.65584E-01 9.09084E-04-2.88115E-01 6.50648E-14 1.18174E-13
 -1      3437 1.99441E+01 2.40390E-01-1.14560E-03-2.51141E-01 3.50219E-14 1.53027E-13
 -1      3438 1.98766E+01 3.13792E-01 6.55158E-04-2.96823E-01 5.98017E-14 1.44052E-13
 -1      3439 1.99623E+01 2.17327E-01 7.54490E-04-2.19117E-01-3.34418E-14 5.07635E-14
 -1      3440 1.99640E+01 1.94242E-01-9.52066E-04-1.89069E-01-7.98551E-14 1.00862E-13
 -1      3441 1.99139E+01 2.58454E-01 5.55915E-04-2.26316E-01-2.72096E-14 1.45764E-13
 -1      3442 1.99780E+01 1.73555E-01 6.23925E-04-1.63577E-01-1.33863E-13 1.16987E-13
 -1      3443 1.99789E+01 1.53352E-01-7.71067E-04-1.39608E-01-6.70630E-14 9.96971E-14
 -1      3444 1.99429E+01 2.07730E-01 4.46953E-04-1.69669E-01-6.12443E-14 1.48526E-13
 -1      3445 1.99894E+01 1.35538E-01 5.11583E-04-1.19635E-01-6.81513E-16 5.27072E-14
 -1      3446 1.99897E+01 1.18461E-01-6.10141E-04-1.00862E-01 6.45395E-14 8.64474E-14
 -1      3447 1.99646E+01 1.63286E-01 3.43991E-04-1.24828E-01-9.98782E-14 3.00517E-13
 -1      3448 1.99973E+01 1.03599E-01 4.14657E-04-8.54704E-02 5.39315E-14 1.42971E-14
 -1      3449 1.99971E+01 8.95650E-02-4.72312E-04-7.10348E-02 6.87274E-14-8.20761E-14
 -1      3450 1.99803E+01 1.25655E-01 2.54393E-04-8.98832E-02 3.05896E-15 6.78433E-14
 -1      3451 2.00023E+01 7.74895E-02 3.31632E-04-5.93790E-02 1.03584E-13-9.60273E-14
 -1      3452 2.00018E+01 6.62321E-02-3.57760E-04-4.84879E-02 7.01456E-14-9.97563E-14
 -1      3453 1.99912E+01 9.46693E-02 1.80634E-04-6.30941E-02 8.54648E-14-5.39270E-14
 -1      3454 2.00053E+01 5.66457E-02 2.61395E-04-3.98256E-02 1.70537E-15-6.39798E-14
 -1      3455 2.00046E+01 4.78125E-02-2.64966E-04-3.17739E-02-5.01526E-14 1.56495E-14
 -1      3456 1.99985E+01 6.97628E-02 1.22462E-04-4.29142E-02 2.71016E-14-6.27969E-14
 -1      3457 2.00068E+01 4.03644E-02 2.02860E-04-2.54692E-02-1.43690E-13 9.82663E-15
 -1      3458 2.00061E+01 3.35776E-02-1.91513E-04-1.96490E-02-8.12179E-14-7.14160E-14
 -1      3459 2.00030E+01 5.01761E-02 7.82477E-05-2.80005E-02-3.03907E-14 8.78257E-14
 -1      3460 2.00073E+01 2.79109E-02 1.54851E-04-1.51689E-02-8.78949E-14-9.63667E-14
 -1      3461 2.00065E+01 2.28049E-02-1.34616E-04-1.10697E-02-1.65311E-13-1.11583E-13
 -1      3462 2.00056E+01 3.50906E-02 4.58058E-05-1.72122E-02-9.84020E-14 7.02477E-14
 -1      3463 2.00071E+01 1.85848E-02 1.16112E-04-7.97659E-03-1.17659E-13-1.52992E-13
 -1      3464 2.00064E+01 1.48268E-02-9.14740E-05-5.17943E-03 5.50796E-14-1.88818E-13
 -1      3465 2.00068E+01 2.37107E-02 2.28642E-05-9.60034E-03-1.53742E-13-1.60799E-13
 -1      3466 2.00066E+01 1.17554E-02 8.53650E-05-3.12065E-03 2.15473E-13-2.06458E-13
 -1      3467 2.00059E+01 9.05578E-03-5.94721E-05-1.28877E-03 3.25102E-13-9.24164E-14
 -1      3468 2.00070E+01 1.53104E-02 7.31848E-06-4.39047E-03 8.68736E-14-5.10315E-14
 -1      3469 2.00058E+01 6.87732E-03 6.13652E-05 1.45375E-05 1.61328E-13-2.30095E-13
 -1      3470 2.00052E+01 4.99177E-03-3.62898E-05 1.14657E-03 1.37690E-14-3.96487E-13
 -1      3471 2.00067E+01 9.25484E-03-2.65300E-06-9.62186E-04 1.39034E-13-1.77899E-13
 -1      3472 2.00049E+01 3.49356E-03 4.29510E-05 1.91104E-03-7.19473E-14-4.70400E-13
 -1      3473 2.00044E+01 2.22141E-03-1.99437E-05 2.54847E-03-1.34038E-13-3.54010E-13
 -1      3474 2.00061E+01 5.00741E-03-8.55418E-06 1.17262E-03-7.37204E-14-5.52857E-13
 -1      3475 2.00041E+01 1.23066E-03 2.90756E-05 2.93935E-03-1.81790E-13-1.69200E-13
 -1      3476 2.00037E+01 4.10842E-04-8.78807E-06 3.23785E-03-2.64877E-13-1.27128E-13
 -1      3477 2.00053E+01 2.12614E-03-1.15821E-05 2.39122E-03-1.02404E-13-3.66067E-13
 -1      3478 2.00033E+01-2.09823E-04 1.88232E-05 3.37877E-03-2.32244E-13 7.01871E-14
 -1      3479 2.00030E+01-7.03978E-04-1.49059E-06 3.45405E-03 3.80511E-14 9.98623E-14
 -1      3480 2.00045E+01 2.55301E-04-1.26600E-05 2.97989E-03-1.72690E-13 6.82978E-14
 -1      3481 2.00026E+01-1.06161E-03 1.14149E-05 3.43559E-03 2.39727E-13-4.17096E-14
 -1      3482 2.00023E+01-1.32788E-03 3.00485E-06 3.37176E-03 1.54495E-13 6.61681E-14
 -1      3483 2.00037E+01-8.85573E-04-1.24798E-05 3.15165E-03 3.56202E-14-9.87042E-14
 -1      3484 2.00020E+01-1.50442E-03 6.20535E-06 3.25872E-03 6.56245E-15 1.70571E-13
 -1      3485 2.00018E+01-1.61695E-03 5.51714E-06 3.11527E-03 1.26151E-13 1.84475E-13
 -1      3486 2.00029E+01-1.51353E-03-1.15442E-05 3.06165E-03 1.81435E-13-8.88371E-14
 -1      3487 2.00015E+01-1.67406E-03 2.67024E-06 2.95266E-03 2.29399E-13 8.11711E-14
 -1      3488 2.00013E+01-1.68814E-03 6.66869E-06 2.77036E-03 1.08725E-13 1.96037E-13
 -1      3489 2.00023E+01-1.79360E-03-1.02117E-05 2.82003E-03 1.19403E-13-2.46996E-13
 -1      3490 2.00010E+01-1.67143E-03 3.80522E-07 2.58826E-03-6.30111E-15 1.78171E-13
 -1      3491 2.00009E+01-1.62759E-03 6.94104E-06 2.39381E-03 4.73892E-14 1.84473E-13
 -1      3492 2.00017E+01-1.84912E-03-8.72492E-06 2.50258E-03 1.34601E-13-1.42189E-13
 -1      3493 2.00007E+01-1.57056E-03-1.02768E-06 2.21136E-03-4.47584E-14 2.80281E-13
 -1      3494 2.00006E+01-1.49871E-03 6.05771E-06 2.02129E-03-1.88714E-14 2.19902E-13
 -1      3495 2.00012E+01-1.77082E-03-7.27437E-06 2.15932E-03 6.47628E-14 1.60105E-13
 -1      3496 2.00004E+01-1.42386E-03-1.66625E-06 1.84756E-03-7.98651E-14 5.70293E-14
 -1      3497 2.00003E+01-1.35430E-03 3.42894E-07 1.67389E-03-9.03029E-14 6.63421E-14
 -1      3498 2.00008E+01-1.62557E-03-5.05187E-06 1.82243E-03-7.80885E-14 4.34288E-14
 -1      3499 1.93552E+01 2.00104E-01-1.32955E-03 2.04718E+00-1.39060E-13 9.67141E-14
 -1      3500 1.95173E+01-5.12637E-02 1.60320E-02 2.20659E+00-1.07662E-13 6.82686E-14
 -1      3501 1.95427E+01-3.70265E-01 1.42176E-02 2.47466E+00-1.16157E-13 1.67119E-14
 -1      3502 1.98809E+01-8.33535E-01 1.65155E-02 2.63411E+00-1.25960E-13-3.52357E-14
 -1      3503 1.87011E+01-7.61655E-02-1.07330E-02 2.45576E+00-1.36029E-13 1.06807E-14
 -1      3504 1.94686E+01 6.41945E-01-4.50034E-03 1.39398E+00 3.13101E-14 7.38194E-14
 -1      3505 1.94776E+01 5.97985E-01 6.09293E-03 1.52357E+00 9.26342E-16 1.16533E-13
 -1      3506 1.95858E+01 6.62026E-01-4.20236E-03 1.14671E+00 9.05846E-14-5.24598E-14
 -1      3507 1.95752E+01 6.64767E-01 3.79325E-03 1.26122E+00 4.38185E-14 1.30944E-14
 -1      3508 1.91789E+01 7.64691E-01 2.86308E-03 1.27947E+00 8.22121E-14 2.09704E-14
 -1      3509 1.96948E+01 6.21283E-01-3.71003E-03 9.36442E-01 9.00228E-14 1.47229E-15
 -1      3510 1.96799E+01 6.49020E-01 2.53402E-03 1.03709E+00 1.05326E-13-3.86511E-14
 -1      3511 1.93709E+01 7.52800E-01 3.11243E-03 1.04475E+00 1.12197E-13-3.11611E-14
 -1      3512 1.97853E+01 5.51093E-01-3.17339E-03 7.56885E-01-1.25125E-14 1.07614E-13
 -1      3513 1.97725E+01 5.90118E-01 1.88599E-03 8.44407E-01 4.09032E-14 4.30401E-14
 -1      3514 1.95331E+01 6.90173E-01 2.80787E-03 8.50323E-01 3.70793E-14 1.45335E-13
 -1      3515 1.98555E+01 4.70635E-01-2.65319E-03 6.04253E-01 2.50402E-15-3.58031E-14
 -1      3516 1.98467E+01 5.12708E-01 1.54296E-03 6.79269E-01 4.12725E-14 4.53559E-14
 -1      3517 1.96631E+01 6.04501E-01 2.32699E-03 6.86596E-01 6.59409E-14 2.66576E-13
 -1      3518 1.99073E+01 3.90873E-01-2.17965E-03 4.75797E-01 4.00761E-14 1.46517E-14
 -1      3519 1.99026E+01 4.31399E-01 1.33449E-03 5.39066E-01-3.66071E-14-5.75008E-15
 -1      3520 1.97633E+01 5.12535E-01 1.81841E-03 5.48267E-01-4.35237E-15 1.59539E-13
 -1      3521 1.99442E+01 3.17506E-01-1.76225E-03 3.69117E-01 7.08348E-14 6.21279E-14
 -1      3522 1.99426E+01 3.54173E-01 1.17846E-03 4.21581E-01 1.06707E-13 1.02641E-13
 -1      3523 1.98384E+01 4.23855E-01 1.37037E-03 4.32032E-01 2.54968E-14 2.02445E-13
 -1      3524 1.99696E+01 2.53082E-01-1.40428E-03 2.81848E-01-5.51980E-15 6.78881E-14
 -1      3525 1.99701E+01 2.84936E-01 1.03622E-03 3.24621E-01 6.94795E-14 4.51723E-14
 -1      3526 1.98933E+01 3.43361E-01 1.00174E-03 3.35458E-01 4.30493E-14 8.15250E-14
 -1      3527 1.99863E+01 1.98313E-01-1.10333E-03 2.11569E-01-1.59286E-13 1.39384E-13
 -1      3528 1.99882E+01 2.25186E-01 8.97231E-04 2.45866E-01-7.02226E-14 1.49277E-13
 -1      3529 1.99327E+01 2.73168E-01 7.11840E-04 2.56349E-01-1.85421E-14 1.40826E-13
 -1      3530 1.99969E+01 1.52881E-01-8.54905E-04 1.55865E-01-1.69264E-13-1.03686E-14
 -1      3531 1.99994E+01 1.75040E-01 7.62269E-04 1.82921E-01-1.53606E-13 8.45890E-14
 -1      3532 1.99602E+01 2.13723E-01 4.92083E-04 1.92539E-01-9.06194E-14 2.15458E-13
 -1      3533 2.00033E+01 1.15942E-01-6.53108E-04 1.12423E-01-5.19372E-14-3.45921E-14
 -1      3534 2.00060E+01 1.33868E-01 6.34858E-04 1.33419E-01-5.98073E-14-6.00406E-14
 -1      3535 1.99789E+01 1.64525E-01 3.30136E-04 1.41885E-01-8.00593E-14 1.43045E-14
 -1      3536 2.00067E+01 8.64308E-02-4.91573E-04 7.91016E-02 2.50301E-15-1.22447E-13
 -1      3537 2.00093E+01 1.00688E-01 5.18472E-04 9.51244E-02-7.63357E-14-1.17116E-13
 -1      3538 1.99913E+01 1.24585E-01 2.13554E-04 1.02331E-01-3.03073E-14-8.33342E-14
 -1      3539 2.00082E+01 6.32350E-02-3.64049E-04 5.39860E-02 1.46343E-13-2.33801E-13
 -1      3540 2.00106E+01 7.43932E-02 4.15447E-04 6.59998E-02 9.08565E-14-1.85132E-13
 -1      3541 1.99991E+01 9.27176E-02 1.31439E-04 7.19651E-02 1.22915E-13-3.12695E-13
 -1      3542 2.00085E+01 4.52895E-02-2.64748E-04 3.54081E-02 8.09138E-14-5.96353E-14
 -1      3543 2.00106E+01 5.38850E-02 3.26786E-04 4.42455E-02 8.39627E-14-1.87617E-13
 -1      3544 2.00038E+01 6.76990E-02 7.49018E-05 4.90643E-02 1.09120E-13-2.48468E-13
 -1      3545 2.00081E+01 3.16277E-02-1.88503E-04 2.19510E-02-1.10887E-14 7.22871E-14
 -1      3546 2.00099E+01 3.81420E-02 2.52369E-04 2.83138E-02 6.34573E-14 5.74043E-14
 -1      3547 2.00063E+01 4.83680E-02 3.69862E-05 3.21219E-02-5.56963E-14-2.14864E-14
 -1      3548 2.00073E+01 2.14020E-02-1.30823E-04 1.24366E-02-3.66906E-14 2.98569E-14
 -1      3549 2.00088E+01 2.62541E-02 1.91290E-04 1.69040E-02 2.89715E-14 1.80269E-13
 -1      3550 2.00073E+01 3.36727E-02 1.23977E-05 1.98520E-02-6.30704E-14 1.73984E-13
 -1      3551 2.00064E+01 1.38890E-02-8.78846E-05 5.90459E-03 5.88489E-14 1.02869E-13
 -1      3552 2.00075E+01 1.74345E-02 1.42170E-04 8.94577E-03-1.15634E-14 2.43187E-15
 -1      3553 2.00075E+01 2.26922E-02-2.81626E-06 1.11824E-02 2.89562E-14 2.51625E-14
 -1      3554 2.00053E+01 8.48401E-03-5.64909E-05 1.58637E-03 1.02355E-13 2.08607E-13
 -1      3555 2.00062E+01 1.10184E-02 1.03417E-04 3.57466E-03 5.46888E-14 2.62140E-13
 -1      3556 2.00070E+01 1.46411E-02-1.15621E-05 5.23699E-03-5.25857E-14 1.95113E-13
 -1      3557 2.00044E+01 4.69106E-03-3.40108E-05-1.12248E-03 1.97489E-13 4.33533E-13
 -1      3558 2.00051E+01 6.45582E-03 7.34051E-05 1.04898E-04 2.53938E-13 2.86429E-13
 -1      3559 2.00063E+01 8.86341E-03-1.59489E-05 1.31360E-03 1.37587E-13 3.23415E-13
 -1      3560 2.00035E+01 2.11016E-03-1.83111E-05-2.68903E-03 1.22298E-13 4.12023E-13
 -1      3561 2.00040E+01 3.29905E-03 5.05898E-05-1.99811E-03 1.80058E-13 4.07661E-13
 -1      3562 2.00055E+01 4.82163E-03-1.74872E-05-1.14051E-03 2.26591E-13 6.13506E-13
 -1      3563 2.00027E+01 4.23833E-04-7.68726E-06-3.46780E-03 9.88411E-15 3.31799E-13
 -1      3564 2.00031E+01 1.19000E-03 3.35774E-05-3.14385E-03 1.17004E-13 4.36322E-13
 -1      3565 2.00046E+01 2.08265E-03-1.72441E-05-2.55263E-03 1.18632E-13 6.14148E-13
 -1      3566 2.00021E+01-6.16024E-04-7.96761E-07-3.72288E-03-1.81399E-13 2.51288E-13
 -1      3567 2.00024E+01-1.53385E-04 2.11545E-05-3.64031E-03-7.64982E-14 3.15071E-13
 -1      3568 2.00037E+01 3.03133E-04-1.59603E-05-3.24709E-03 2.73762E-14 4.54063E-13
 -1      3569 2.00015E+01-1.20032E-03 3.40315E-06-3.64684E-03-3.09933E-13 1.26766E-13
 -1      3570 2.00017E+01-9.49892E-04 1.22961E-05-3.71462E-03-3.01036E-13 1.97099E-13
 -1      3571 2.00030E+01-7.84884E-04-1.41394E-05-3.46535E-03-1.52561E-13 3.34154E-13
 -1      3572 2.00011E+01-1.47377E-03 5.70697E-06-3.37678E-03-2.13957E-14-6.85263E-14
 -1      3573 2.00012E+01-1.36662E-03 6.15786E-06-3.53055E-03-1.60373E-13 7.07699E-14
 -1      3574 2.00023E+01-1.38730E-03-1.21152E-05-3.38338E-03-1.77076E-13-1.33140E-13
 -1      3575 2.00007E+01-1.54444E-03 6.71253E-06-3.00739E-03 4.55788E-14-9.97919E-14
 -1      3576 2.00008E+01-1.52930E-03 2.06125E-06-3.20310E-03 2.10686E-14-6.28281E-14
 -1      3577 2.00017E+01-1.65997E-03-1.01101E-05-3.12633E-03 5.36497E-14-6.98894E-14
 -1      3578 2.00005E+01-1.49194E-03 6.87197E-06-2.60143E-03 2.20161E-14-2.24582E-13
 -1      3579 2.00005E+01-1.53122E-03-5.19421E-07-2.81027E-03 8.71419E-14-1.56406E-13
 -1      3580 2.00013E+01-1.71918E-03-8.25278E-06-2.78047E-03 5.53813E-14-1.55090E-13
 -1      3581 2.00003E+01-1.37402E-03 6.54129E-06-2.19816E-03-1.50251E-13-1.59454E-13
 -1      3582 2.00003E+01-1.44055E-03-1.99501E-06-2.40247E-03-1.00134E-13-2.79839E-13
 -1      3583 2.00009E+01-1.65031E-03-6.58630E-06-2.40285E-03-1.35548E-14-1.76966E-13
 -1      3584 2.00001E+01-1.23323E-03 5.54070E-06-1.81997E-03-8.11578E-14-2.64619E-13
 -1      3585 2.00001E+01-1.30696E-03-2.73772E-06-2.01022E-03-1.31831E-13-1.38802E-13
 -1      3586 2.00006E+01-1.51539E-03-5.21410E-06-2.02926E-03-2.11665E-13-1.46982E-13
 -1      3587 2.00000E+01-1.09883E-03 3.61190E-06-1.47711E-03 1.95348E-13-1.89983E-13
 -1      3588 2.00000E+01-1.16427E-03-2.58786E-06-1.64765E-03 1.40470E-13-1.93607E-13
 -1      3589 2.00003E+01-1.35881E-03-3.29659E-06-1.68087E-03 1.64431E-14-6.27578E-13
 -1      3590 2.00007E+01-1.62542E-03-4.39069E-06-6.45270E-04 1.71478E-13 2.27473E-13
 -1      3591 2.35270E+01-3.55304E+00 7.16771E-03 2.53927E+00-2.44010E-13-2.72123E-13
 -1      3592 2.24611E+01-3.87402E+00 2.09056E-02 3.66516E+00-3.30118E-13-2.60929E-13
 -1      3593 1.39341E+01-1.82408E-01 7.95972E-02 3.58773E+00-2.21146E-13 2.49967E-13
 -1      3594 1.26239E+01 5.65206E-01 3.06725E-02 2.20151E+00-1.37793E-13 2.69708E-13
 -1      3595 2.09407E+01-3.19420E+00-2.17676E-03 3.86629E+00-3.20400E-13-1.87433E-13
 -1      3596 2.55782E+01-1.07893E+00-7.98885E-02 1.19825E+00-1.27644E-13-4.95123E-13
 -1      3597 2.09167E+01-2.79669E+00 2.23958E-02 3.56921E+00-2.94410E-13-1.75187E-13
 -1      3598 1.97477E+01-2.54421E+00 6.45671E-02 4.11133E+00-3.37022E-13-7.48741E-14
 -1      3599 1.83011E+01-1.93113E+00-1.21267E-02 4.09646E+00-3.02067E-13-1.48874E-14
 -1      3600 2.06982E+01-2.85486E+00 2.31450E-02-3.63023E+00 3.53488E-13-1.36016E-13
 -1      3601 2.21966E+01-3.27646E+00-1.58833E-02-3.00629E+00 3.45516E-13-2.04182E-13
 -1      3602 2.00005E+01-1.46134E-03 5.39581E-07 1.17240E-03-1.11866E-13-4.51721E-13
 -1      3603 2.00007E+01-1.56208E-03 5.46473E-06 1.01712E-03-1.71424E-13-3.71400E-13
 -1      3604 2.00002E+01-1.24998E-03 1.97350E-06 1.40443E-03-9.42023E-15-3.10074E-13
 -1      3605 2.54423E+01-2.03934E+00-7.33957E-03 3.69379E-01-1.19280E-14-4.80833E-13
 -1      3606 2.00001E+01-1.13578E-03 5.30153E-06-1.08807E-03 8.91262E-14-1.05433E-12
 -1      3607 1.99999E+01-1.02860E-03-6.10080E-07-1.12037E-03 1.14921E-13-6.53487E-13
 -1      3608 1.99999E+01-1.03576E-03-1.09819E-06-1.21840E-03-7.25030E-15-3.55302E-13
 -1      3609 2.00002E+01-1.26105E-03-4.09535E-07-1.15157E-03 2.57595E-13-1.04433E-12
 -1      3610 2.48698E+01-2.57743E+00 2.43428E-03-2.25825E-01 1.39732E-13-3.94769E-13
 -1      3611 1.93707E+01 5.12218E-01-4.30080E-03 1.68915E+00-6.83382E-14 1.20765E-13
 -1      3612 1.94302E+01 3.88692E-01 1.01264E-02 1.83502E+00-8.80675E-14 1.05481E-13
 -1      3613 1.87818E+01 4.35956E-01-3.48994E-03 1.95277E+00-8.73738E-14 1.28145E-13
 -1      3614 1.89705E+01 6.82617E-01 1.29582E-03 1.57196E+00-1.60717E-14 1.47991E-13
 -1      3615 2.30786E+01-3.22203E+00 5.06211E-02-2.35874E+00 3.20667E-13-2.77348E-13
 -1      3616 2.42488E+01-3.02770E+00-3.02593E-02-1.18848E+00 1.89038E-13-3.84096E-13
 -1      3617 2.59228E+01 1.73348E+00-1.32618E-01-2.72656E+00-3.97054E-13 2.07098E-13
 -1      3618 1.29510E+01 7.61740E-01 6.75600E-02-1.72657E+00 1.08667E-13 3.87117E-13
 -1      3619 2.23233E+01-2.86945E+00-4.12253E-03-2.34935E+00 2.34123E-13-2.08977E-13
 -1      3620 2.80452E+01 9.00920E-01-1.36685E-01 3.21607E+00 4.17506E-13 5.22568E-13
 -1      3621 1.57548E+01-6.22736E-01 7.66761E-02-3.79572E+00 3.48867E-13 2.32196E-13
 -1      3622 1.71618E+01-1.06643E+00-1.05761E-02-3.64955E+00 2.99044E-13 1.86328E-13
 -1      3623 1.52556E+01-8.73102E-02 9.94284E-03-3.11450E+00 2.05235E-13 2.60784E-13
 -1      3624 2.00010E+01-1.72924E-03 4.66383E-06-6.06160E-04 2.34020E-13 4.38430E-13
 -1      3625 2.00009E+01-1.66718E-03-6.59937E-07-8.09056E-04 2.13042E-13 1.11057E-13
 -1      3626 1.56924E+01-5.29649E-01 6.05228E-02 3.56469E+00-2.44620E-13 1.86615E-13
 -1      3627 1.99999E+01-1.04302E-03-1.58998E-06-1.32173E-03 3.52661E-14-2.31943E-13
 -1      3628 2.23087E+01-2.82096E+00 6.21164E-02 2.85443E+00-2.28531E-13-2.10435E-13
 -1      3629 2.00001E+01-1.21423E-03-2.83092E-06-1.35657E-03 1.48067E-13-6.64945E-13
 -1      3630 2.00010E+01-1.71304E-03-4.25624E-06-9.59914E-04 1.92359E-13-1.90848E-13
 -1      3631 2.00007E+01-1.57526E-03 6.98527E-06-9.84636E-04 2.96631E-13-4.50275E-13
 -1      3632 2.00006E+01-1.49552E-03-3.29214E-06-1.11721E-03 3.49793E-13-8.43951E-13
 -1      3633 2.00011E+01-1.80388E-03 3.01941E-06-1.27271E-04-6.78435E-14 3.22097E-13
 -1      3634 2.00011E+01-1.78359E-03 8.84029E-07-3.55236E-04 1.18645E-13 4.06970E-13
 -1      3635 2.00012E+01-1.84936E-03-4.59040E-06-5.23416E-04 1.68813E-13 3.45798E-13
 -1      3636 2.57519E+01-6.24604E-01-1.20106E-01-1.84487E+00-1.93115E-13 2.33849E-13
 -1      3637 1.40742E+01 6.99486E-01 1.44158E-02 2.04443E+00-1.73009E-13 1.46072E-13
 -1      3638 1.26894E+01 9.53142E-01 8.76932E-02 1.42100E+00-1.28359E-13 3.31325E-13
 -1      3639 1.28409E+01 1.05736E+00-9.08865E-03 5.22571E-01-1.08090E-13 3.69128E-13
 -1      3640 1.90456E+01-1.24218E+00-1.18486E-03 3.28777E+00-1.89136E-13-2.15227E-14
 -1      3641 2.03874E+01-1.69685E+00 2.94654E-02 3.06680E+00-1.72426E-13-7.53729E-14
 -1      3642 1.99259E+01-2.39803E+00 3.24087E-02-3.72163E+00 3.20771E-13-5.57349E-14
 -1      3643 2.08268E+01-2.34785E+00 1.31739E-02-2.97058E+00 2.47173E-13-9.83094E-14
 -1      3644 1.90831E+01-1.81870E+00 1.92608E-02-3.57231E+00 3.19331E-13 3.29962E-14
 -1      3645 2.00010E+01-1.69826E-03-4.22887E-06 9.99259E-04-1.83187E-13-8.23588E-14
 -1      3646 2.00009E+01-1.66606E-03-1.49545E-06 8.12498E-04-1.75188E-13-6.28848E-14
 -1      3647 2.00010E+01-1.72641E-03 5.22534E-06 6.11274E-04-1.37127E-13 1.76283E-13
 -1      3648 2.10286E+01-2.41165E+00 5.76066E-03 3.18160E+00-1.89161E-13-1.36428E-13
 -1      3649 2.00004E+01-1.35835E-03 1.64127E-06 1.56512E-03-2.22555E-13-2.09274E-13
 -1      3650 2.00005E+01-1.43882E-03-4.37071E-06 1.28078E-03-2.15945E-13-4.26365E-13
 -1      3651 2.00011E+01-1.78250E-03 6.66101E-07 3.62221E-04-1.66128E-13 3.35864E-13
 -1      3652 2.00011E+01-1.80340E-03 3.00359E-06 1.36158E-04-5.37651E-14 3.87544E-13
 -1      3653 2.00013E+01-1.89862E-03-4.95207E-06 4.31059E-06 5.57256E-14 3.54612E-13
 -1      3654 2.00012E+01-1.84639E-03-4.38387E-06 5.30929E-04-8.59304E-14 1.83285E-13
 -1      3655 2.00007E+01-1.52643E-03 7.37274E-06 1.54410E-03-2.24199E-13-2.32909E-13
 -1      3656 1.98499E+01-8.28160E-01 1.61840E-02-2.13152E+00 8.63890E-14-5.24615E-14
 -1      3657 1.95590E+01-4.99590E-01 4.01283E-03-1.99710E+00 9.13038E-14-5.27240E-14
 -1      3658 1.94899E+01-2.19422E-01 1.31286E-02-1.77170E+00 1.22650E-13-1.03730E-13
 -1      3659 1.93378E+01-5.41594E-03-2.32836E-04-1.63088E+00 1.15455E-13-1.23788E-13
 -1      3660 1.89828E+01-2.20549E-01-7.26484E-03-2.00970E+00 5.15811E-14 1.04352E-14
 -1      3661 1.93540E+01 1.70410E-01 8.68478E-03-1.44729E+00 8.74615E-14-9.82582E-14
 -1      3662 1.92897E+01 2.98609E-01-2.06694E-03-1.31928E+00 8.13710E-15-9.69618E-15
 -1      3663 1.89448E+01 2.06556E-01-4.39194E-03-1.57672E+00 1.32232E-13-1.07752E-13
 -1      3664 1.93460E+01 3.98263E-01 5.70057E-03-1.17293E+00-2.02994E-14 7.92463E-14
 -1      3665 1.93318E+01 4.64050E-01-2.71625E-03-1.06264E+00 2.05665E-14 1.25306E-13
 -1      3666 1.90203E+01 4.55837E-01-1.43286E-03-1.23697E+00 4.14913E-14 5.65347E-14
 -1      3667 1.94036E+01 5.10687E-01 3.75921E-03-9.46296E-01-4.09259E-14 8.41174E-14
 -1      3668 1.94158E+01 5.33665E-01-2.77162E-03-8.52735E-01-1.11151E-13 8.11417E-14
 -1      3669 1.91453E+01 5.78886E-01 3.52800E-04-9.72646E-01-2.58495E-14 1.32116E-13
 -1      3670 1.94896E+01 5.44746E-01 2.48417E-03-7.59890E-01-5.00969E-14 8.43282E-14
 -1      3671 1.95138E+01 5.40123E-01-2.59496E-03-6.80949E-01 2.10688E-14 1.22267E-13
 -1      3672 1.92854E+01 6.16377E-01 1.17173E-03-7.65648E-01-6.97426E-14 2.72330E-14
 -1      3673 1.95828E+01 5.28993E-01 1.67046E-03-6.06397E-01 1.49456E-14 1.64094E-13
 -1      3674 1.96105E+01 5.07967E-01-2.32403E-03-5.39991E-01 1.93503E-16 1.11648E-13
 -1      3675 1.94220E+01 5.99478E-01 1.50074E-03-6.02058E-01 1.73249E-14 1.49481E-13
 -1      3676 1.96713E+01 4.84133E-01 1.16632E-03-4.79837E-01 8.19885E-15 1.08411E-13
 -1      3677 1.96981E+01 4.54530E-01-2.03231E-03-4.24309E-01 1.52107E-13 4.17414E-14
 -1      3678 1.95456E+01 5.50432E-01 1.54019E-03-4.71482E-01-3.24497E-14 1.39885E-13
 -1      3679 1.97495E+01 4.24647E-01 8.47890E-04-3.75795E-01 1.89119E-13-6.88419E-14
 -1      3680 1.97730E+01 3.91845E-01-1.73654E-03-3.29779E-01 1.42745E-13-3.60779E-14
 -1      3681 1.96523E+01 4.84850E-01 1.44370E-03-3.66707E-01 1.11440E-13 8.96935E-14
 -1      3682 1.98152E+01 3.60384E-01 6.40747E-04-2.90821E-01 1.76949E-13 2.13083E-14
 -1      3683 1.98346E+01 3.27882E-01-1.45275E-03-2.53099E-01 9.89931E-14 1.22989E-13
 -1      3684 1.97408E+01 4.13399E-01 1.26676E-03-2.82658E-01 1.80429E-13-6.60142E-14
 -1      3685 1.98682E+01 2.97630E-01 5.02854E-04-2.22020E-01-2.83758E-14 1.41098E-13
 -1      3686 1.98835E+01 2.67504E-01-1.19257E-03-1.91482E-01-1.18815E-14 1.47161E-13
 -1      3687 1.98122E+01 3.43118E-01 1.06514E-03-2.15456E-01 5.44403E-14 2.98583E-14
 -1      3688 1.99096E+01 2.40039E-01 4.04827E-04-1.66917E-01-8.38248E-15 1.61371E-13
 -1      3689 1.99212E+01 2.13370E-01-9.61441E-04-1.42533E-01-7.89438E-14 2.03424E-13
 -1      3690 1.98681E+01 2.78178E-01 8.66187E-04-1.62065E-01-3.60371E-15 1.94627E-13
 -1      3691 1.99410E+01 1.89442E-01 3.30220E-04-1.23334E-01-1.15046E-13 2.12759E-13
 -1      3692 1.99494E+01 1.66642E-01-7.61350E-04-1.04149E-01-7.72695E-14 2.03976E-13
 -1      3693 1.99109E+01 2.20750E-01 6.84103E-04-1.20034E-01-9.31692E-14 1.82862E-13
 -1      3694 1.99641E+01 1.46452E-01 2.70359E-04-8.93370E-02-1.17619E-13 2.08695E-13
 -1      3695 1.99700E+01 1.27504E-01-5.92096E-04-7.44745E-02-4.38290E-14 9.52873E-14
 -1      3696 1.99428E+01 1.71649E-01 5.25771E-04-8.73141E-02-1.37805E-13 1.24662E-13
 -1      3697 1.99805E+01 1.10914E-01 2.20711E-04-6.32115E-02-1.28429E-14-2.85263E-14
 -1      3698 1.99845E+01 9.55439E-02-4.51985E-04-5.18866E-02-1.49713E-14-6.73777E-14
 -1      3699 1.99659E+01 1.30811E-01 3.93375E-04-6.21701E-02-1.19439E-13-4.78384E-14
 -1      3700 1.99918E+01 8.22252E-02 1.78875E-04-4.34588E-02 3.52741E-14-8.60898E-14
 -1      3701 1.99943E+01 7.00272E-02-3.38338E-04-3.49816E-02 7.39637E-14-3.56175E-14
 -1      3702 1.99822E+01 9.76473E-02 2.86175E-04-4.31260E-02-3.61127E-14-1.49351E-13
 -1      3703 1.99993E+01 5.95598E-02 1.43505E-04-2.87883E-02 1.83132E-14 4.05505E-15
 -1      3704 2.00006E+01 5.00761E-02-2.47936E-04-2.25659E-02 5.44215E-15 1.14186E-13
 -1      3705 1.99932E+01 7.12895E-02 2.01795E-04-2.89345E-02 8.78483E-14-6.36759E-14
 -1      3706 2.00038E+01 4.20157E-02 1.13745E-04-1.81082E-02-6.36595E-14 1.30280E-13
 -1      3707 2.00044E+01 3.47899E-02-1.77385E-04-1.36414E-02-1.27381E-13 1.21876E-13
 -1      3708 2.00003E+01 5.07624E-02 1.37096E-04-1.85520E-02-4.77285E-14-4.74289E-14
 -1      3709 2.00063E+01 2.87086E-02 8.89422E-05-1.05111E-02-1.69319E-13 1.12620E-13
 -1      3710 2.00064E+01 2.33160E-02-1.23365E-04-7.38785E-03-1.76098E-13 4.25793E-14
 -1      3711 2.00046E+01 3.50921E-02 8.87542E-05-1.11165E-02-1.78440E-13 1.67792E-13
 -1      3712 2.00074E+01 1.88249E-02 6.85212E-05-5.25572E-03-1.06007E-13 1.24388E-13
 -1      3713 2.00072E+01 1.48889E-02-8.28132E-05-3.14212E-03 1.17137E-13 3.44126E-14
 -1      3714 2.00069E+01 2.33716E-02 5.35961E-05-5.92602E-03-9.75628E-14 2.01070E-13
 -1      3715 2.00076E+01 1.16491E-02 5.19360E-05-1.74693E-03 9.01594E-14-7.64120E-14
 -1      3716 2.00072E+01 8.84717E-03-5.30076E-05-3.77186E-04-7.43508E-14-2.22785E-13
 -1      3717 2.00078E+01 1.47949E-02 2.87820E-05-2.41700E-03-6.91317E-14 3.73802E-14
 -1      3718 2.00072E+01 6.57228E-03 3.86602E-05 4.85197E-04-9.69750E-14-3.22263E-13
 -1      3719 2.00068E+01 4.63598E-03-3.16117E-05 1.31894E-03-4.61072E-14-3.07561E-13
 -1      3720 2.00079E+01 8.67073E-03 1.18833E-05-1.43979E-04-6.64214E-14-2.05007E-13
 -1      3721 2.00065E+01 3.09043E-03 2.81931E-05 1.80543E-03-4.83751E-14-3.42421E-13
 -1      3722 2.00060E+01 1.80148E-03-1.66720E-05 2.26283E-03-9.76937E-14-2.62228E-13
 -1      3723 2.00074E+01 4.42225E-03 8.94105E-07 1.23979E-03-5.80032E-14-2.84532E-13
 -1      3724 2.00056E+01 7.95713E-04 2.00701E-05 2.49197E-03-3.98864E-14-2.19182E-13
 -1      3725 2.00052E+01-1.96631E-05-6.59309E-06 2.69342E-03 3.28921E-14-5.90332E-14
 -1      3726 2.00066E+01 1.57970E-03-5.79571E-06 1.99978E-03 4.54252E-14-2.92066E-13
 -1      3727 2.00047E+01-6.35134E-04 1.38710E-05 2.75309E-03-1.31348E-14-4.21348E-14
 -1      3728 2.00043E+01-1.11261E-03-9.79713E-08 2.78758E-03 5.80287E-14-9.16143E-14
 -1      3729 2.00057E+01-2.31639E-04-9.44601E-06 2.33576E-03 5.89961E-14-1.53687E-13
 -1      3730 2.00038E+01-1.45349E-03 9.22743E-06 2.74157E-03 1.15813E-13-5.09786E-14
 -1      3731 2.00035E+01-1.69710E-03 3.82283E-06 2.67340E-03 8.22402E-14-3.56055E-14
 -1      3732 2.00047E+01-1.30495E-03-1.10164E-05 2.39516E-03 1.00757E-13 1.13690E-13
 -1      3733 2.00031E+01-1.85140E-03 5.83089E-06 2.56691E-03 6.53463E-14-2.12922E-13
 -1      3734 2.00027E+01-1.93963E-03 5.93944E-06 2.44131E-03 1.37957E-13-2.36266E-13
 -1      3735 2.00038E+01-1.86550E-03-1.12144E-05 2.28446E-03-1.12555E-14-1.21216E-13
 -1      3736 2.00023E+01-1.97322E-03 3.41465E-06 2.30530E-03 2.57000E-13-1.88375E-13
 -1      3737 2.00021E+01-1.96416E-03 6.85074E-06 2.15297E-03 2.33746E-13 1.29428E-14
 -1      3738 2.00030E+01-2.08366E-03-1.05859E-05 2.07866E-03 2.79903E-13-6.56077E-14
 -1      3739 2.00017E+01-1.92549E-03 1.69805E-06 2.00796E-03 1.11501E-13-3.94858E-14
 -1      3740 2.00015E+01-1.86217E-03 6.48235E-06 1.84917E-03 9.30692E-14 2.76977E-15
 -1      3741 2.00023E+01-2.08571E-03-9.53553E-06 1.82868E-03 1.76910E-13-1.04625E-13
 -1      3742 2.00012E+01-1.78384E-03 7.49063E-07 1.70630E-03-1.45115E-13-1.19477E-13
 -1      3743 2.00011E+01-1.70214E-03 1.74821E-06 1.55704E-03-2.09155E-13-3.86168E-13
 -1      3744 2.00017E+01-1.96434E-03-7.61036E-06 1.56832E-03-8.88603E-14-2.79573E-13
 -1      3745 2.75442E+01 2.44384E+00-1.16232E-01-2.16133E+00 5.63466E-13-3.62002E-13
 -1      3746 1.93796E+01 7.31827E-01-4.09653E-03 7.23381E-01 1.98191E-14 2.53212E-13
 -1      3747 1.93087E+01 7.78747E-01 7.49867E-04 8.06482E-01 3.42217E-14 2.37089E-13
 -1      3748 1.91677E+01 8.16341E-01-5.19678E-03 8.88807E-01 6.26234E-14 1.50641E-13
 -1      3749 1.90820E+01 8.49656E-01 1.49514E-03 9.87637E-01 6.93017E-14 1.20646E-13
 -1      3750 1.90533E+01 8.80220E-01 5.15747E-03 7.52243E-01 1.00207E-14 2.29601E-13
 -1      3751 1.89043E+01 8.65706E-01-6.75988E-03 1.09058E+00 8.23663E-14 1.03671E-13
 -1      3752 1.88086E+01 8.71343E-01 3.14897E-03 1.21166E+00 8.85030E-14 1.15485E-13
 -1      3753 1.87492E+01 9.58369E-01 6.35880E-03 9.21990E-01 2.86066E-14 2.64692E-13
 -1      3754 1.95459E+01 6.33001E-01-3.28787E-03 5.84558E-01 6.78886E-14 3.08281E-13
 -1      3755 1.94903E+01 6.84560E-01 4.73774E-04 6.55190E-01 1.12439E-13 3.30770E-13
 -1      3756 1.92933E+01 7.77589E-01 4.05921E-03 6.13785E-01 3.76324E-14 3.27574E-13
 -1      3757 1.96738E+01 5.32938E-01-2.65984E-03 4.67213E-01 4.39238E-14 1.64163E-13
 -1      3758 1.96317E+01 5.83649E-01 3.97644E-04 5.27222E-01 6.17275E-14 2.30915E-13
 -1      3759 1.94802E+01 6.66957E-01 3.12962E-03 4.97537E-01 7.32263E-14 3.02881E-13
 -1      3760 1.97704E+01 4.38869E-01-2.14724E-03 3.68402E-01 2.34886E-14 1.94378E-13
 -1      3761 1.97396E+01 4.85746E-01 4.08653E-04 4.18908E-01-7.84191E-15 8.84991E-14
 -1      3762 1.96239E+01 5.58784E-01 2.41294E-03 3.98792E-01 2.73040E-14 8.18176E-14
 -1      3763 1.98424E+01 3.54556E-01-1.72401E-03 2.86135E-01 9.42529E-14 8.86214E-14
 -1      3764 1.98203E+01 3.96107E-01 4.26474E-04 3.28062E-01 1.11300E-13 1.32522E-13
 -1      3765 1.97330E+01 4.58721E-01 1.83932E-03 3.15231E-01 9.78424E-14 7.56983E-14
 -1      3766 1.98950E+01 2.81523E-01-1.37177E-03 2.18617E-01-8.30297E-14 1.70021E-13
 -1      3767 1.98797E+01 3.17229E-01 4.27735E-04 2.52887E-01 2.10256E-15 1.55277E-13
 -1      3768 1.98146E+01 3.69799E-01 1.38212E-03 2.45329E-01 1.97826E-14 1.15310E-13
 -1      3769 1.99328E+01 2.19896E-01-1.07954E-03 1.64073E-01-1.28612E-13 1.98436E-13
 -1      3770 1.99225E+01 2.49840E-01 4.09865E-04 1.91630E-01-1.12809E-13 1.93336E-13
 -1      3771 1.98749E+01 2.93136E-01 1.02463E-03 1.87715E-01-9.52605E-14 1.93263E-13
 -1      3772 1.99595E+01 1.68996E-01-8.38978E-04 1.20733E-01-3.91938E-14 4.73498E-14
 -1      3773 1.99528E+01 1.93601E-01 3.76280E-04 1.42526E-01-5.09381E-14 1.46883E-13
 -1      3774 1.99186E+01 2.28624E-01 7.48975E-04 1.41010E-01-1.02509E-13 1.31716E-13
 -1      3775 1.99780E+01 1.27734E-01-6.43052E-04 8.68788E-02 5.44096E-14-6.12794E-14
 -1      3776 1.99738E+01 1.47589E-01 3.32823E-04 1.03823E-01 4.03153E-14 4.92536E-14
 -1      3777 1.99498E+01 1.75437E-01 5.38918E-04 1.03799E-01 4.76885E-14 4.41607E-14
 -1      3778 1.99903E+01 9.48509E-02-4.85429E-04 6.08962E-02 1.68694E-13-1.53829E-13
 -1      3779 1.99879E+01 1.10607E-01 2.85172E-04 7.38413E-02 7.57273E-14-1.25342E-13
 -1      3780 1.99716E+01 1.32380E-01 3.80693E-04 7.46772E-02 1.02598E-13 3.75316E-14
 -1      3781 1.99982E+01 6.90679E-02-3.60307E-04 4.13200E-02 8.50330E-14-5.14089E-14
 -1      3782 1.99970E+01 8.13700E-02 2.37733E-04 5.10294E-02 1.92683E-13-7.24919E-14
 -1      3783 1.99864E+01 9.81082E-02 2.62949E-04 5.22988E-02 1.06765E-13 4.26975E-14
 -1      3784 2.00031E+01 4.91764E-02-2.62384E-04 2.68609E-02-1.02262E-13 2.37328E-14
 -1      3785 2.00026E+01 5.86270E-02 1.93447E-04 3.39996E-02-3.15756E-14 2.63814E-14
 -1      3786 1.99961E+01 7.12720E-02 1.76486E-04 3.54275E-02-2.51980E-14 2.92285E-14
 -1      3787 2.00057E+01 3.40828E-02-1.86885E-04 1.64150E-02-4.56388E-14 3.88751E-14
 -1      3788 2.00058E+01 4.12216E-02 1.53987E-04 2.15475E-02-9.19067E-14 9.29050E-15
 -1      3789 2.00021E+01 5.05981E-02 1.13944E-04 2.29656E-02-7.64342E-14 1.26945E-13
 -1      3790 2.00069E+01 2.28303E-02-1.29594E-04 9.05926E-03 2.58237E-14-2.75697E-15
 -1      3791 2.00073E+01 2.81262E-02 1.20064E-04 1.26540E-02 1.13884E-13-1.76089E-14
 -1      3792 2.00055E+01 3.49374E-02 6.95034E-05 1.39667E-02 3.26031E-14 1.27759E-15
 -1      3793 2.00072E+01 1.46029E-02-8.68622E-05 4.03870E-03-6.66599E-14 4.21359E-14
 -1      3794 2.00077E+01 1.84535E-02 9.17399E-05 6.47644E-03-1.23323E-13-8.73705E-15
 -1      3795 2.00072E+01 2.32856E-02 3.86071E-05 7.63671E-03-6.39187E-14-2.63677E-15
 -1      3796 2.00069E+01 8.71947E-03-5.55942E-05 7.47964E-04 1.42999E-13 2.00472E-13
 -1      3797 2.00074E+01 1.14550E-02 6.86670E-05 2.33241E-03 2.16156E-14 1.29715E-13
 -1      3798 2.00078E+01 1.47867E-02 1.77175E-05 3.32386E-03-5.55130E-14 2.64105E-14
 -1      3799 2.00062E+01 4.62221E-03-3.32118E-05-1.28921E-03 5.58793E-14 4.99768E-13
 -1      3800 2.00068E+01 6.51191E-03 5.02801E-05-3.20270E-04 8.43573E-14 2.95116E-13
 -1      3801 2.00076E+01 8.72708E-03 4.11459E-06 5.04817E-04-6.47931E-14 6.35019E-14
 -1      3802 2.00054E+01 1.86224E-03-1.76053E-05-2.44057E-03 1.22560E-13 5.42868E-13
 -1      3803 2.00059E+01 3.12177E-03 3.59224E-05-1.90435E-03 2.02165E-13 5.79702E-13
 -1      3804 2.00070E+01 4.52293E-03-4.27324E-06-1.23258E-03 7.06991E-14 4.70819E-13
 -1      3805 2.00046E+01 8.41792E-05-7.07820E-06-2.98480E-03 4.18286E-14 4.23013E-13
 -1      3806 2.00050E+01 8.83594E-04 2.49297E-05-2.74335E-03 1.07216E-13 5.77124E-13
 -1      3807 2.00061E+01 1.70496E-03-9.00710E-06-2.20667E-03 1.20504E-13 5.82681E-13
 -1      3808 2.00037E+01-9.88857E-04-2.88508E-07-3.12886E-03-6.40665E-14 2.69333E-13
 -1      3809 2.00041E+01-5.17629E-04 1.66793E-05-3.08019E-03-3.63945E-15 4.49656E-13
 -1      3810 2.00052E+01-9.78314E-05-1.12494E-05-2.65863E-03 1.34807E-14 4.80931E-13
 -1      3811 2.00030E+01-1.56919E-03 3.81538E-06-3.02311E-03 1.10252E-14-1.03130E-13
 -1      3812 2.00033E+01-1.32541E-03 1.06144E-05-3.09344E-03-1.19562E-14 4.01885E-14
 -1      3813 2.00043E+01-1.17402E-03-1.18523E-05-2.76741E-03 9.62984E-14 4.32760E-13
 -1      3814 2.00023E+01-1.81716E-03 6.03018E-06-2.77409E-03 2.95589E-14-6.43302E-14
 -1      3815 2.00026E+01-1.72506E-03 6.25290E-06-2.91144E-03-3.08643E-15-5.46627E-14
 -1      3816 2.00035E+01-1.74448E-03-1.14259E-05-2.66290E-03 4.80413E-14 7.99296E-14
 -1      3817 2.00017E+01-1.85221E-03 6.97062E-06-2.45493E-03 1.19611E-14 1.60142E-13
 -1      3818 2.00020E+01-1.85555E-03 3.20651E-06-2.62391E-03 6.81040E-14 5.10889E-14
 -1      3819 2.00027E+01-1.97583E-03-1.04326E-05-2.43714E-03-4.22670E-14 2.63774E-13
 -1      3820 2.00013E+01-1.76191E-03 7.05682E-06-2.11339E-03-1.04336E-13 1.60090E-13
 -1      3821 2.00014E+01-1.81972E-03 1.18996E-06-2.29105E-03-6.60730E-14 3.08294E-14
 -1      3822 2.00020E+01-1.99226E-03-9.18737E-06-2.15258E-03 1.96097E-14 4.19205E-13
 -1      3823 2.00009E+01-1.60982E-03 6.31160E-06-1.77975E-03-1.36771E-13-1.95252E-13
 -1      3824 2.00010E+01-1.69181E-03 5.27137E-08-1.95137E-03 1.33430E-14 2.61516E-14
 -1      3825 2.00015E+01-1.88453E-03-8.08796E-06-1.85089E-03-1.22695E-14 1.73542E-13
 -1      3826 1.71539E+01-8.82221E-01 5.92372E-02 3.72566E+00-2.49915E-13 6.09842E-14
 -1      3827 1.56621E+01-6.80084E-02 1.18747E-04 3.07380E+00-2.14604E-13 1.47705E-13
 -1      3828 1.78608E+01 3.92905E-01-7.43826E-03 2.18722E+00-1.64022E-13 1.25005E-13
 -1      3829 1.78786E+01 1.16208E-01 2.24331E-02 2.48499E+00-1.39534E-13 9.75672E-14
 -1      3830 1.31238E+01 1.17184E+00 7.65453E-02-8.76516E-01 2.61327E-14 3.47194E-13
 -1      3831 1.38723E+01 6.71518E-01-1.43085E-02-2.02479E+00 1.02287E-13 2.64982E-13
 -1      3832 2.16119E+01-2.37902E+00 2.90640E-02-2.45393E+00 1.90335E-13-1.32891E-13
 -1      3833 2.08355E+01-1.99735E+00 9.86711E-03-2.57914E+00 1.64714E-13-7.31511E-14
 -1      3834 2.00015E+01-1.95662E-03 3.94725E-06-4.37863E-04 1.79437E-13 2.93584E-13
 -1      3835 2.00014E+01-1.91513E-03-9.78120E-07-6.96972E-04 2.18064E-13 2.73691E-13
 -1      3836 2.00003E+01-1.31657E-03 3.51327E-06-1.29719E-03 2.47688E-13-8.52774E-13
 -1      3837 2.00005E+01-1.45820E-03-1.03194E-06-1.33959E-03 2.36572E-13-7.45449E-13
 -1      3838 1.38494E+01 1.13992E+00 3.20795E-02 4.96068E-02-7.30735E-14 2.68395E-13
 -1      3839 1.81690E+01 5.83500E-01 1.19610E-02 1.90890E+00-1.38927E-13 1.14899E-13
 -1      3840 1.73332E+01 6.87990E-01-6.84660E-03 1.90662E+00-1.22910E-13 1.62944E-13
 -1      3841 1.82273E+01 7.15992E-01-1.08861E-02 1.69364E+00-7.69293E-14 1.34919E-13
 -1      3842 2.05691E+01-1.69067E+00 1.22074E-02-2.46373E+00 1.08147E-13-2.26596E-14
 -1      3843 2.00899E+01-1.22755E+00 1.45444E-02-2.36786E+00 7.77692E-14-2.64641E-14
 -1      3844 2.00010E+01-1.70589E-03-4.03971E-06 1.43350E-03-3.00772E-13-4.74088E-13
 -1      3845 1.49868E+01 4.85214E-01 6.50956E-02-2.48919E+00 1.47764E-13 2.56843E-13
 -1      3846 1.60613E+01 5.62292E-02-3.51408E-03-2.70384E+00 1.60383E-13 2.38101E-13
 -1      3847 1.48569E+01 7.87240E-01-6.54272E-03-1.74626E+00 5.97725E-14 1.75575E-13
 -1      3848 1.64515E+01 1.08941E-01 1.47039E-02 2.75049E+00-1.62662E-13 1.42455E-13
 -1      3849 1.52195E+01 4.96962E-01 5.61255E-02 2.52865E+00-2.07398E-13 1.84578E-13
 -1      3850 2.00005E+01-1.44817E-03 5.83634E-07-1.47080E-03 2.49662E-13-7.87199E-13
 -1      3851 2.00006E+01-1.52678E-03-1.35890E-06-1.62566E-03 2.76092E-14-6.59686E-13
 -1      3852 2.00013E+01-1.83414E-03 5.25951E-06-9.34416E-04 2.32732E-13 3.61538E-14
 -1      3853 2.00011E+01-1.76064E-03-3.61079E-06-1.11579E-03 3.31971E-13-3.61817E-13
 -1      3854 2.00016E+01-1.96897E-03-3.80564E-07-8.61965E-04 4.40877E-13 1.83219E-13
 -1      3855 1.48833E+01 7.82311E-01 3.22488E-03 1.87590E+00-1.79954E-13 6.22002E-14
 -1      3856 1.79000E+01-3.76081E-01 6.75868E-03 2.95685E+00-1.29921E-13 6.83221E-14
 -1      3857 1.82857E+01-1.25743E+00 3.96502E-02 3.56671E+00-2.30508E-13 1.96197E-14
 -1      3858 2.00007E+01-1.55947E-03 3.73021E-06 1.30696E-03-3.68036E-13-4.52438E-13
 -1      3859 1.81026E+01-9.45147E-01-6.48171E-03-3.11533E+00 2.05254E-13 1.20825E-13
 -1      3860 1.89009E+01-1.45407E+00 4.38503E-02-3.36538E+00 2.57875E-13 8.13410E-14
 -1      3861 2.00016E+01-1.98746E-03 1.32429E-06-1.31904E-04 1.28035E-13 3.58318E-13
 -1      3862 2.00018E+01-2.06918E-03-4.56406E-06-3.09338E-04 3.59010E-13 2.54350E-13
 -1      3863 2.00016E+01-1.98719E-03 1.52628E-06 1.39968E-04 1.25438E-13 4.16161E-13
 -1      3864 1.85883E+01 8.47114E-01-8.94131E-03 1.34755E+00 4.57341E-14 7.36750E-14
 -1      3865 1.84959E+01 8.02995E-01 6.04988E-03 1.50311E+00 1.14999E-14 1.35268E-13
 -1      3866 1.79054E+01 9.29043E-01 9.02433E-03 1.44569E+00-5.63064E-14 3.43503E-14
 -1      3867 1.92666E+01-9.01137E-01-7.30084E-03-2.53743E+00 7.16319E-14 9.93541E-14
 -1      3868 2.00010E+01-1.71721E-03-5.84346E-06-1.55605E-03 2.06964E-13-5.36922E-13
 -1      3869 1.69936E+01 1.05045E-01-1.21222E-03 2.69298E+00-1.29735E-13 1.43706E-13
 -1      3870 2.00010E+01-1.69775E-03-3.00519E-06 1.26532E-03-3.84632E-13-3.81992E-13
 -1      3871 2.00010E+01-1.72419E-03-4.53079E-06 1.15155E-03-2.95453E-13-2.90686E-13
 -1      3872 2.00012E+01-1.80414E-03 7.58444E-06 9.35138E-04-2.08919E-13 3.60664E-14
 -1      3873 2.00014E+01-1.84854E-03 6.84586E-06 1.26363E-03-3.22477E-13-2.64578E-13
 -1      3874 1.83699E+01 9.86943E-01 7.67963E-03 1.14195E+00 3.57329E-14 1.13012E-13
 -1      3875 1.97632E+01-1.67830E+00-2.76082E-02-2.93735E+00 1.80303E-13-1.78850E-14
 -1      3876 2.00014E+01-1.91090E-03-1.92197E-06 7.06122E-04-6.01549E-14 7.98658E-14
 -1      3877 2.00015E+01-1.95470E-03 4.24014E-06 4.48367E-04-1.64657E-13 3.58569E-13
 -1      3878 2.00018E+01-2.06737E-03-2.87704E-06 3.18296E-04 8.58296E-16 1.46136E-13
 -1      3879 1.81798E+01 1.05808E+00-9.49555E-03 8.62532E-01-1.31709E-14 1.75229E-13
 -1      3880 1.79721E+01 1.07388E+00 1.48753E-04 9.73058E-01-4.29862E-14 1.28814E-13
 -1      3881 1.85476E+01 3.36382E-01 1.01316E-02-1.60039E+00 8.43564E-14-1.18607E-14
 -1      3882 1.85505E+01 4.63796E-01-7.54477E-03-1.40863E+00 9.13901E-14 9.57161E-15
 -1      3883 1.87126E+01 5.65772E-01 6.48030E-03-1.22326E+00 1.15602E-13-5.67432E-14
 -1      3884 1.87553E+01 6.28204E-01-6.18767E-03-1.07720E+00 8.22618E-14-4.32582E-14
 -1      3885 1.83066E+01 6.67119E-01 2.34797E-03-1.23495E+00 1.00485E-13-1.60382E-14
 -1      3886 1.89043E+01 6.73034E-01 4.00515E-03-9.41179E-01 9.79133E-15-7.85869E-15
 -1      3887 1.89652E+01 6.91184E-01-4.94463E-03-8.28909E-01-1.07198E-13-1.37808E-14
 -1      3888 1.86021E+01 7.67065E-01 3.08594E-03-9.21018E-01 5.27783E-14-1.03433E-13
 -1      3889 1.90960E+01 6.98506E-01 2.39544E-03-7.28147E-01-1.08172E-13 6.22725E-16
 -1      3890 1.91612E+01 6.87855E-01-4.03746E-03-6.40541E-01 1.46756E-14 7.30671E-15
 -1      3891 1.88686E+01 7.84817E-01 3.26872E-03-6.93816E-01-8.39403E-14-1.36573E-14
 -1      3892 1.92735E+01 6.71204E-01 1.39584E-03-5.64864E-01 4.71472E-14 4.09958E-14
 -1      3893 1.93355E+01 6.43533E-01-3.27472E-03-4.95760E-01 1.62055E-14 6.73162E-14
 -1      3894 1.91003E+01 7.50474E-01 3.18562E-03-5.25762E-01 2.65066E-14-4.99643E-14
 -1      3895 1.94295E+01 6.13177E-01 7.90674E-04-4.37737E-01-2.92107E-14 4.75614E-14
 -1      3896 1.94849E+01 5.76310E-01-2.66804E-03-3.82635E-01 4.82706E-15 5.94906E-14
 -1      3897 1.92969E+01 6.84579E-01 2.72620E-03-4.00389E-01 1.16581E-14-4.96545E-14
 -1      3898 1.95624E+01 5.39119E-01 4.52954E-04-3.37924E-01 1.79831E-14 1.00640E-13
 -1      3899 1.96095E+01 4.98743E-01-2.16366E-03-2.93847E-01 1.23919E-13 2.56558E-14
 -1      3900 1.94610E+01 6.02609E-01 2.37385E-03-3.04333E-01 2.67350E-14 1.84437E-14
 -1      3901 1.96721E+01 4.59749E-01 2.50808E-04-2.59252E-01 1.72834E-13-2.72462E-14
 -1      3902 1.97107E+01 4.19772E-01-1.74589E-03-2.23979E-01 1.47960E-13-6.28769E-14
 -1      3903 1.95950E+01 5.15068E-01 1.97661E-03-2.30811E-01 9.14837E-14-3.89950E-14
 -1      3904 1.97603E+01 3.82151E-01 1.48230E-04-1.97122E-01 1.31266E-13-3.14658E-14
 -1      3905 1.97910E+01 3.44922E-01-1.39945E-03-1.68997E-01 1.01249E-13 2.00921E-14
 -1      3906 1.97021E+01 4.29526E-01 1.61406E-03-1.74036E-01 1.53438E-13-2.26544E-14
 -1      3907 1.98296E+01 3.10543E-01 9.62047E-05-1.48190E-01 7.97392E-14 1.09159E-13
 -1      3908 1.98534E+01 2.77353E-01-1.11122E-03-1.25922E-01-1.36531E-14 1.90966E-13
 -1      3909 1.97862E+01 3.50395E-01 1.29470E-03-1.30090E-01 1.39432E-13 5.08379E-14
 -1      3910 1.98829E+01 2.47159E-01 7.05013E-05-1.09891E-01-1.74192E-13 2.83923E-13
 -1      3911 1.99008E+01 2.18553E-01-8.72005E-04-9.24263E-02-1.46966E-13 2.19106E-13
 -1      3912 1.98510E+01 2.80089E-01 1.01884E-03-9.61480E-02-3.43360E-14 1.57164E-13
 -1      3913 1.99229E+01 1.92855E-01 5.80508E-05-8.01741E-02-1.64735E-13 1.05049E-13
 -1      3914 1.99360E+01 1.68873E-01-6.75041E-04-6.66337E-02-1.81280E-13 1.22439E-13
 -1      3915 1.98998E+01 2.19590E-01 7.85855E-04-7.00704E-02-2.57520E-13 2.79857E-13
 -1      3916 1.99521E+01 1.47565E-01 5.16878E-05-5.73656E-02-1.98686E-13 5.08228E-14
 -1      3917 1.99615E+01 1.27935E-01-5.14701E-04-4.70047E-02-1.72535E-13-5.72498E-14
 -1      3918 1.99359E+01 1.68900E-01 5.93573E-04-5.01916E-02-2.22647E-13 1.34567E-13
 -1      3919 1.99730E+01 1.10668E-01 4.76408E-05-4.00808E-02-1.23132E-13-1.53692E-14
 -1      3920 1.99794E+01 9.49412E-02-3.85918E-04-3.22689E-02 1.72195E-14-5.27864E-14
 -1      3921 1.99618E+01 1.27403E-01 4.38378E-04-3.51906E-02-1.85719E-13 7.43398E-14
 -1      3922 1.99874E+01 8.12382E-02 4.41000E-05-2.71723E-02 1.26433E-13-1.52335E-13
 -1      3923 1.99916E+01 6.88888E-02-2.83990E-04-2.13794E-02 9.93305E-14-8.87824E-14
 -1      3924 1.99800E+01 9.41385E-02 3.15787E-04-2.40097E-02 2.78448E-14 5.59802E-14
 -1      3925 1.99969E+01 5.82281E-02 4.03481E-05-1.76930E-02 6.53242E-14-1.20174E-13
 -1      3926 1.99995E+01 4.87184E-02-2.04564E-04-1.34780E-02-7.84831E-14-4.26804E-14
 -1      3927 1.99923E+01 6.79950E-02 2.20983E-04-1.57981E-02 1.07349E-13-9.94948E-14
 -1      3928 2.00029E+01 4.05859E-02 3.62343E-05-1.08673E-02-1.40309E-13 1.48734E-14
 -1      3929 2.00043E+01 3.34059E-02-1.43680E-04-7.86770E-03-6.93025E-14 1.75054E-13
 -1      3930 2.00002E+01 4.78395E-02 1.49226E-04-9.87260E-03 1.53377E-14 1.40952E-13
 -1      3931 2.00063E+01 2.73260E-02 3.18660E-05-6.06658E-03-7.32384E-14 2.23899E-13
 -1      3932 2.00069E+01 2.20164E-02-9.78211E-05-3.98861E-03-7.86293E-14 1.96108E-13
 -1      3933 2.00050E+01 3.26001E-02 9.61219E-05-5.68721E-03-4.28085E-14 2.45745E-13
 -1      3934 2.00079E+01 1.75686E-02 2.74375E-05-2.78730E-03-1.55300E-13 1.75327E-13
 -1      3935 2.00081E+01 1.37306E-02-6.39313E-05-1.39625E-03-8.52627E-14 1.18887E-14
 -1      3936 2.00075E+01 2.13110E-02 5.77802E-05-2.80860E-03-1.46184E-13 3.09971E-13
 -1      3937 2.00084E+01 1.05550E-02 2.31417E-05-6.31427E-04-1.20003E-13-9.27048E-14
 -1      3938 2.00082E+01 7.85261E-03-3.94173E-05 2.57402E-04-1.28989E-13-2.66408E-14
 -1      3939 2.00085E+01 1.31339E-02 3.08713E-05-8.96242E-04-1.78854E-13 1.32841E-13
 -1      3940 2.00081E+01 5.64960E-03 1.91322E-05 7.11291E-04-8.32499E-14-1.94471E-13
 -1      3941 2.00078E+01 3.80665E-03-2.21225E-05 1.24102E-03-6.99081E-14-1.94955E-13
 -1      3942 2.00086E+01 7.36146E-03 1.26292E-05 3.14467E-04-1.54962E-13-9.91297E-14
 -1      3943 2.00074E+01 2.33241E-03 1.55113E-05 1.47909E-03-2.79175E-14-1.46275E-13
 -1      3944 2.00070E+01 1.12660E-03-1.02883E-05 1.75879E-03 6.83234E-14-1.48317E-13
 -1      3945 2.00081E+01 3.41170E-03 8.12950E-07 1.02655E-03 2.43511E-14-1.24372E-13
 -1      3946 2.00065E+01 1.86837E-04 1.23336E-05 1.85197E-03 1.11064E-13-2.13042E-13
 -1      3947 2.00060E+01-5.57227E-04-2.50797E-06 1.96328E-03 1.04186E-13-1.01909E-13
 -1      3948 2.00072E+01 8.15609E-04-6.35292E-06 1.39354E-03 1.23137E-13-5.43646E-14
 -1      3949 2.00055E+01-1.11447E-03 9.61413E-06 1.96345E-03 1.96603E-13-5.44591E-15
 -1      3950 2.00050E+01-1.53269E-03 2.32555E-06 1.96632E-03 1.50023E-13-2.13731E-14
 -1      3951 2.00062E+01-7.97407E-04-1.02441E-05 1.52966E-03 2.10251E-13-1.12376E-13
 -1      3952 2.00045E+01-1.82412E-03 7.34226E-06 1.91060E-03 1.50617E-14-4.19241E-14
 -1      3953 2.00041E+01-2.01991E-03 5.10580E-06 1.84801E-03 3.72486E-15 2.54993E-15
 -1      3954 2.00052E+01-1.71488E-03-1.18892E-05 1.51826E-03 6.37461E-14-1.79074E-13
 -1      3955 2.00036E+01-2.13370E-03 5.48658E-06 1.76242E-03 5.70117E-14-7.10991E-14
 -1      3956 2.00032E+01-2.18481E-03 6.42535E-06 1.66445E-03 1.95588E-13-2.36095E-13
 -1      3957 2.00042E+01-2.15578E-03-1.19748E-05 1.41880E-03-3.35926E-14-1.39012E-13
 -1      3958 2.00028E+01-2.18633E-03 3.95952E-06 1.56615E-03 2.11566E-13-2.56817E-13
 -1      3959 2.00025E+01-2.14962E-03 6.42473E-06 1.45332E-03 4.88631E-14-2.42657E-13
 -1      3960 2.00033E+01-2.28478E-03-1.11718E-05 1.27316E-03 6.14383E-14-3.62163E-13
 -1      3961 2.00021E+01-2.08576E-03 2.61737E-06 1.35333E-03 2.19423E-14-2.39154E-13
 -1      3962 2.00018E+01-2.00927E-03 1.11887E-06 1.24072E-03-6.18876E-14-2.42168E-13
 -1      3963 2.00025E+01-2.22275E-03-9.42844E-06 1.10930E-03 2.54074E-14-2.32001E-13
 -1      3964 1.89546E+01 8.97741E-01-4.73895E-03 5.82398E-01 1.13414E-14 2.04995E-13
 -1      3965 1.88197E+01 9.50524E-01-1.07254E-03 6.48985E-01-2.30081E-15 2.35085E-13
 -1      3966 1.64719E+01 5.67517E-01 1.35167E-02 2.20989E+00-1.31332E-13 1.69277E-13
 -1      3967 1.94219E+01 6.69582E-01-2.93767E-03 3.91130E-01 6.12235E-14 1.69800E-13
 -1      3968 1.93401E+01 7.27915E-01-8.47987E-04 4.39437E-01 8.38183E-14 1.89389E-13
 -1      3969 1.92181E+01 7.85082E-01-3.65315E-03 4.79310E-01 1.07890E-14 2.51399E-13
 -1      3970 1.91120E+01 8.43649E-01-9.99059E-04 5.35437E-01 1.06618E-14 2.36093E-13
 -1      3971 1.91947E+01 8.03930E-01 4.34320E-03 3.65895E-01 6.23821E-14 1.36603E-13
 -1      3972 1.86157E+01 9.94602E-01-6.56667E-03 7.05530E-01-1.27028E-14 2.21458E-13
 -1      3973 1.84463E+01 1.03447E+00-9.02672E-04 7.88444E-01 3.77623E-14 2.13422E-13
 -1      3974 1.85784E+01 1.04110E+00 7.71398E-03 5.22997E-01-1.46620E-14 1.65047E-13
 -1      3975 1.95788E+01 5.58791E-01-2.36180E-03 3.14890E-01 9.33326E-14 9.19786E-14
 -1      3976 1.95165E+01 6.13882E-01-5.81678E-04 3.56396E-01 6.19389E-14 1.30153E-13
 -1      3977 1.94035E+01 6.82651E-01 3.39886E-03 3.01673E-01 8.64657E-14 1.25967E-13
 -1      3978 1.96983E+01 4.57456E-01-1.90061E-03 2.49642E-01 9.66159E-14 1.83662E-14
 -1      3979 1.96516E+01 5.07307E-01-3.59062E-04 2.84951E-01 6.81936E-14 2.29835E-14
 -1      3980 1.95645E+01 5.67887E-01 2.62013E-03 2.44859E-01 1.34939E-13 1.16744E-13
 -1      3981 1.97884E+01 3.67978E-01-1.52494E-03 1.94594E-01-5.55075E-14 1.08181E-13
 -1      3982 1.97538E+01 4.11645E-01-1.88170E-04 2.24184E-01 5.63021E-14 7.58664E-14
 -1      3983 1.96874E+01 4.63845E-01 1.99934E-03 1.95360E-01 3.10930E-14 4.82817E-14
 -1      3984 1.98553E+01 2.91115E-01-1.21456E-03 1.48945E-01-1.70902E-13 1.15080E-13
 -1      3985 1.98302E+01 3.28390E-01-6.54636E-05 1.73318E-01-1.33699E-13 1.24754E-13
 -1      3986 1.97802E+01 3.72448E-01 1.51436E-03 1.52997E-01-4.64994E-14 9.11324E-14
 -1      3987 1.99044E+01 2.26584E-01-9.57031E-04 1.11793E-01 6.19027E-16 8.44200E-15
 -1      3988 1.98864E+01 2.57714E-01 1.44917E-05 1.31508E-01-5.16603E-14 9.61699E-14
 -1      3989 1.98495E+01 2.94174E-01 1.13638E-03 1.17493E-01-9.34782E-14 6.92054E-15
 -1      3990 1.99397E+01 1.73476E-01-7.44291E-04 8.21292E-02 2.68186E-14-1.50850E-14
 -1      3991 1.99272E+01 1.98976E-01 6.12187E-05 9.77848E-02 1.85359E-14-2.45372E-14
 -1      3992 1.99004E+01 2.28586E-01 8.42674E-04 8.83741E-02 4.13528E-14-4.70692E-14
 -1      3993 1.99646E+01 1.30555E-01-5.70281E-04 5.88947E-02 9.89098E-14-8.24150E-16
 -1      3994 1.99561E+01 1.51074E-01 8.42171E-05 7.10986E-02 7.49817E-14 4.96958E-15
 -1      3995 1.99372E+01 1.74692E-01 6.15931E-04 6.49970E-02 1.00142E-13 8.73091E-15
 -1      3996 1.99818E+01 9.64523E-02-4.29786E-04 4.10472E-02 9.99375E-14 3.57711E-14
 -1      3997 1.99762E+01 1.12688E-01 9.14081E-05 5.03824E-02 1.18311E-13 7.48118E-15
 -1      3998 1.99632E+01 1.31197E-01 4.42476E-04 4.66178E-02 9.55193E-14 5.80873E-14
 -1      3999 1.99932E+01 6.98016E-02-3.18000E-04 2.76110E-02-1.28307E-13 1.79831E-13
 -1      4000 1.99897E+01 8.24361E-02 8.88228E-05 3.46126E-02-6.26698E-14 1.57115E-13
 -1      4001 1.99811E+01 9.66890E-02 3.11253E-04 3.24653E-02-5.30550E-14 1.81894E-13
 -1      4002 2.00005E+01 4.93184E-02-2.30439E-04 1.77109E-02-1.91267E-14 2.38372E-13
 -1      4003 1.99985E+01 5.89871E-02 8.07743E-05 2.28522E-02-4.58014E-14 3.25190E-13
 -1      4004 1.99930E+01 6.97652E-02 2.13261E-04 2.17962E-02-1.28867E-13 3.17138E-13
 -1      4005 2.00048E+01 3.38446E-02-1.62973E-04 1.05876E-02 1.71876E-14 2.35808E-13
 -1      4006 2.00038E+01 4.11150E-02 7.01847E-05 1.42747E-02 4.05629E-15 2.06865E-13
 -1      4007 2.00006E+01 4.91103E-02 1.41174E-04 1.39311E-02 2.58888E-14 1.77639E-13
 -1      4008 2.00071E+01 2.23690E-02-1.11892E-04 5.60192E-03-7.55944E-14 1.17047E-13
 -1      4009 2.00067E+01 2.77334E-02 5.89262E-05 8.17389E-03 3.76314E-14 1.26537E-13
 -1      4010 2.00052E+01 3.35402E-02 8.90683E-05 8.27394E-03 3.65604E-14 2.18684E-13
 -1      4011 2.00080E+01 1.40315E-02-7.39363E-05 2.22858E-03-4.64193E-14 8.69365E-15
 -1      4012 2.00080E+01 1.79063E-02 4.81179E-05 3.96231E-03-1.25054E-13 5.69899E-14
 -1      4013 2.00075E+01 2.20225E-02 5.21888E-05 4.31910E-03-4.17128E-14 1.13569E-13
 -1      4014 2.00080E+01 8.11545E-03-4.63181E-05 4.56750E-05-5.54516E-14 1.47385E-13
 -1      4015 2.00083E+01 1.08458E-02 3.83624E-05 1.16242E-03-5.95918E-14 8.39091E-14
 -1      4016 2.00084E+01 1.36797E-02 2.67564E-05 1.64903E-03-1.25375E-13 1.52232E-14
 -1      4017 2.00074E+01 4.03608E-03-2.66995E-05-1.27868E-03-6.40093E-14 4.14193E-13
 -1      4018 2.00079E+01 5.90250E-03 2.99240E-05-6.05595E-04-1.32406E-13 2.50529E-13
 -1      4019 2.00084E+01 7.78212E-03 9.79942E-06-7.26215E-05-2.02566E-13 1.33799E-13
 -1      4020 2.00066E+01 1.32416E-03-1.31624E-05-2.00038E-03 8.09825E-14 5.51897E-13
 -1      4021 2.00071E+01 2.55061E-03 2.28557E-05-1.63779E-03 9.80017E-14 5.97962E-13
 -1      4022 2.00079E+01 3.73486E-03-9.91809E-07-1.11088E-03-1.11538E-13 5.13220E-13
 -1      4023 2.00057E+01-3.90401E-04-4.16372E-06-2.31274E-03-4.75231E-14 5.46654E-13
 -1      4024 2.00062E+01 3.72016E-04 1.70882E-05-2.16035E-03 6.55785E-14 6.02334E-13
 -1      4025 2.00070E+01 1.06154E-03-7.39039E-06-1.67022E-03 2.69305E-14 7.65792E-13
 -1      4026 2.00047E+01-1.39476E-03 1.50612E-06-2.35872E-03 1.25372E-13 5.77617E-13
 -1      4027 2.00052E+01-9.60430E-04 1.24883E-05-2.34258E-03 6.96662E-14 5.77942E-13
 -1      4028 2.00060E+01-6.12907E-04-1.07398E-05-1.90509E-03-4.31806E-14 6.07940E-13
 -1      4029 2.00038E+01-1.90809E-03 4.78539E-06-2.24150E-03 1.24257E-14 4.90724E-13
 -1      4030 2.00043E+01-1.69857E-03 8.88845E-06-2.30834E-03 1.23826E-13 5.61049E-13
 -1      4031 2.00050E+01-1.57900E-03-1.20376E-05-1.92954E-03 8.24469E-14 7.04983E-13
 -1      4032 2.00030E+01-2.09449E-03 6.73182E-06-2.03355E-03-6.59429E-14 4.17562E-13
 -1      4033 2.00034E+01-2.03290E-03 6.07856E-06-2.14603E-03-9.77413E-14 3.56899E-13
 -1      4034 2.00041E+01-2.05772E-03-1.19422E-05-1.82549E-03 1.96554E-14 6.20388E-13
 -1      4035 2.00023E+01-2.07803E-03 7.49941E-06-1.78642E-03 5.98162E-15 3.23688E-13
 -1      4036 2.00026E+01-2.10652E-03 3.48333E-06-1.91912E-03 4.12549E-14 3.54857E-13
 -1      4037 2.00032E+01-2.21303E-03-1.13480E-05-1.65116E-03 6.70937E-14 1.04659E-13
 -1      4038 2.00017E+01-1.94644E-03 6.98229E-06-1.52786E-03 2.17138E-13 6.83042E-14
 -1      4039 2.00020E+01-2.02250E-03 2.52325E-06-1.66359E-03 1.69014E-13 3.48363E-13
 -1      4040 2.00024E+01-2.17704E-03-1.08065E-05-1.44994E-03 1.02741E-13 1.90637E-13
 -1      4041 1.45169E+01 1.20400E+00 1.63394E-02 7.62944E-01-1.18375E-13 1.62323E-13
 -1      4042 1.45438E+01 1.17421E+00-7.41223E-03-4.53052E-01 1.57422E-14 2.18880E-13
 -1      4043 1.57639E+01 7.93017E-01-1.56755E-02 1.83840E+00-1.89234E-13 4.98065E-14
 -1      4044 1.49051E+01 1.06937E+00 2.21579E-02 1.34699E+00-1.70006E-13 5.64774E-14
 -1      4045 1.54477E+01 1.16973E+00 1.94430E-03 8.21649E-01-1.09705E-13 8.54226E-14
 -1      4046 1.64031E+01 8.06981E-01 1.08895E-02 1.80057E+00-1.22072E-13 1.29309E-13
 -1      4047 1.71467E+01-2.19382E-01 3.57033E-02-2.87884E+00 1.88165E-13 2.19507E-13
 -1      4048 1.85310E+01-6.94034E-01 4.85541E-03-2.68998E+00 1.33170E-13 9.96933E-14
 -1      4049 1.82997E+01-3.12716E-01-1.51884E-02-2.37893E+00 5.28969E-14 8.94263E-14
 -1      4050 1.65996E+01 1.92138E-01-2.28522E-02-2.37414E+00 1.04844E-13 1.93443E-13
 -1      4051 2.00008E+01-1.61051E-03 6.40130E-06-1.27903E-03 3.68118E-13-8.02908E-13
 -1      4052 1.84580E+01-4.78269E-02 1.30221E-02-2.07452E+00-3.14585E-14 1.42674E-13
 -1      4053 1.83840E+01 1.71067E-01-1.04379E-02-1.82826E+00 2.01237E-14 8.00412E-14
 -1      4054 1.80070E+01 4.74124E-01 5.32785E-03-1.64093E+00-1.79817E-14 1.30570E-13
 -1      4055 1.77359E+01 1.54338E-01 1.44415E-02-2.16881E+00 5.04239E-14 1.49729E-13
 -1      4056 2.00011E+01-1.75595E-03 2.73076E-06-1.26200E-03 4.09766E-13-5.32660E-13
 -1      4057 2.00015E+01-1.94339E-03-3.59952E-06 8.66576E-04-2.25891E-13-1.59257E-13
 -1      4058 1.81290E+01 1.13582E+00 1.05503E-02 6.27989E-01-4.87385E-14 1.22386E-13
 -1      4059 2.00014E+01-1.84874E-03 1.12013E-06-1.38945E-03 2.97276E-13-2.84032E-13
 -1      4060 2.00017E+01-1.99487E-03-2.48848E-06 1.05986E-03-1.75342E-13-2.58274E-13
 -1      4061 1.89254E+01 9.26643E-01 5.75825E-03 4.38476E-01-1.29679E-15 1.93075E-13
 -1      4062 1.50345E+01 1.15673E+00 4.46573E-02-9.93823E-01 3.70060E-15 1.88380E-13
 -1      4063 1.56620E+01 8.64556E-01-7.06920E-03-1.46389E+00 3.50540E-14 1.19663E-13
 -1      4064 1.54195E+01 1.22460E+00-3.35013E-03-3.27885E-01-1.60321E-14 1.75404E-13
 -1      4065 2.00017E+01-2.00866E-03-6.69431E-06-1.21061E-03 5.13043E-13-1.56503E-14
 -1      4066 1.67153E+01 9.48459E-01-8.63579E-03 1.52551E+00-8.68854E-14 1.04213E-13
 -1      4067 1.75412E+01 1.19355E+00 1.46422E-02 7.73766E-01-9.30174E-14 1.24938E-13
 -1      4068 1.76182E+01 1.05857E+00-1.51512E-02 1.08076E+00-6.02838E-14 4.08647E-14
 -1      4069 1.73959E+01 1.03937E+00 5.71325E-03 1.23328E+00-1.00897E-13 4.80479E-14
 -1      4070 2.00022E+01-2.16816E-03 5.03941E-06-1.83524E-04 2.95061E-13-3.57201E-14
 -1      4071 2.00021E+01-2.14173E-03 7.77573E-08-4.88337E-04 5.12082E-13 1.55984E-13
 -1      4072 2.00019E+01-2.07765E-03 1.46466E-06-9.67720E-04 4.56643E-13 2.07171E-13
 -1      4073 2.00023E+01-2.18481E-03-1.17495E-06-8.51503E-04 3.33428E-13 1.65046E-13
 -1      4074 1.93934E+01 6.62678E-01-2.66854E-03 2.04275E-01 9.28415E-14 2.12998E-13
 -1      4075 1.93011E+01 7.22692E-01-1.93074E-03 2.28418E-01 1.09578E-13 2.08562E-13
 -1      4076 1.83275E+01 8.67938E-01 2.26633E-03-8.27669E-01 6.63957E-14-8.59167E-14
 -1      4077 1.84646E+01 8.72769E-01-6.75793E-03-7.02433E-01-1.85753E-14-5.09303E-14
 -1      4078 1.86633E+01 8.66044E-01 1.11918E-03-6.08730E-01-4.62713E-14-4.93213E-14
 -1      4079 1.87832E+01 8.45871E-01-5.52575E-03-5.18870E-01-3.08193E-14-1.15729E-14
 -1      4080 1.84300E+01 9.60012E-01 4.08852E-03-5.13310E-01 2.84598E-14-1.64861E-13
 -1      4081 1.89458E+01 8.18255E-01 7.45494E-04-4.51445E-01-3.10547E-14 6.00319E-14
 -1      4082 1.90460E+01 7.80099E-01-5.47951E-03-3.87279E-01 3.95483E-14 5.79506E-16
 -1      4083 1.87785E+01 9.02814E-01 6.47348E-03-3.63684E-01 7.48726E-15-3.36670E-14
 -1      4084 1.91779E+01 7.43219E-01 9.98903E-05-3.35328E-01 5.06104E-14-4.41874E-14
 -1      4085 1.92651E+01 6.97288E-01-3.70137E-03-2.86792E-01-2.07122E-14-8.04598E-14
 -1      4086 1.90504E+01 8.24039E-01 7.16989E-03-2.59147E-01-7.49910E-15-6.64040E-14
 -1      4087 1.93696E+01 6.51996E-01-4.02110E-04-2.50629E-01 3.41777E-14-2.14320E-15
 -1      4088 1.94426E+01 6.03508E-01-2.82433E-03-2.13811E-01 7.82716E-14-3.42474E-14
 -1      4089 1.92782E+01 7.21660E-01 6.81536E-03-1.86965E-01 2.32120E-14-1.01201E-13
 -1      4090 1.95252E+01 5.57134E-01-4.52547E-04-1.87417E-01 5.83798E-14 3.53743E-14
 -1      4091 1.95844E+01 5.09684E-01-2.14433E-03-1.59073E-01 9.64053E-14-2.94156E-14
 -1      4092 1.94566E+01 6.16485E-01 5.39192E-03-1.35172E-01 9.23847E-14 1.72200E-14
 -1      4093 1.96492E+01 4.65024E-01-4.49177E-04-1.39722E-01 1.45523E-13-4.58598E-14
 -1      4094 1.96964E+01 4.20953E-01-1.62955E-03-1.17737E-01 1.63820E-13 1.21944E-14
 -1      4095 1.95978E+01 5.15138E-01 4.17574E-03-9.75056E-02 1.44649E-13 5.74280E-14
 -1      4096 1.97466E+01 3.79983E-01-4.09992E-04-1.03556E-01 1.15048E-13-1.51958E-15
 -1      4097 1.97834E+01 3.40622E-01-1.23418E-03-8.64785E-02 1.11717E-13-4.47400E-14
 -1      4098 1.97083E+01 4.21804E-01 3.20181E-03-7.01279E-02 1.50000E-13-1.37909E-14
 -1      4099 1.98217E+01 3.04419E-01-3.51939E-04-7.61001E-02 1.04142E-13-5.52871E-14
 -1      4100 1.98498E+01 2.70354E-01-9.28390E-04-6.28674E-02-4.30151E-14 5.04698E-14
 -1      4101 1.97934E+01 3.38864E-01 2.42931E-03-5.02011E-02 1.06470E-13-8.73787E-14
 -1      4102 1.98786E+01 2.39317E-01-2.87827E-04-5.52945E-02-1.72267E-13 1.60279E-13
 -1      4103 1.98996E+01 2.10600E-01-6.91609E-04-4.50954E-02-2.18535E-13 1.78405E-13
 -1      4104 1.98580E+01 2.67289E-01 1.81990E-03-3.56788E-02-3.26256E-14-6.66932E-14
 -1      4105 1.99208E+01 1.84663E-01-2.25855E-04-3.95975E-02-2.80719E-13 3.05031E-13
 -1      4106 1.99362E+01 1.61007E-01-5.08835E-04-3.17977E-02-2.93854E-13 2.51417E-13
 -1      4107 1.99061E+01 2.07050E-01 1.34274E-03-2.50949E-02-2.05088E-13 2.21618E-13
 -1      4108 1.99514E+01 1.39814E-01-1.70557E-04-2.78364E-02-2.65758E-13 2.07134E-13
 -1      4109 1.99623E+01 1.20726E-01-3.68646E-04-2.19310E-02-8.95648E-14 2.59369E-13
 -1      4110 1.99411E+01 1.57462E-01 9.72847E-04-1.73963E-02-2.18338E-13 3.43074E-13
 -1      4111 1.99730E+01 1.03760E-01-1.23909E-04-1.91069E-02-5.65712E-14 2.63465E-13
 -1      4112 1.99806E+01 8.86566E-02-2.62086E-04-1.46900E-02 7.34379E-14 2.43916E-13
 -1      4113 1.99660E+01 1.17459E-01 6.89602E-04-1.18205E-02-8.08238E-14 3.23114E-13
 -1      4114 1.99878E+01 7.53354E-02-8.62591E-05-1.27051E-02 1.34116E-13 7.71471E-14
 -1      4115 1.99928E+01 6.36066E-02-1.82001E-04-9.44919E-03 5.52254E-14 1.15858E-13
 -1      4116 1.99833E+01 8.57966E-02 4.75795E-04-7.81104E-03-1.74233E-14 2.60895E-13
 -1      4117 1.99975E+01 5.33436E-02-5.70037E-05-8.08027E-03-1.93046E-14 9.56076E-14
 -1      4118 2.00007E+01 4.44058E-02-1.22628E-04-5.72132E-03-1.47749E-14 9.36141E-14
 -1      4119 1.99947E+01 6.11946E-02 3.17031E-04-4.95797E-03-2.10707E-14-2.82284E-14
 -1      4120 2.00036E+01 3.66497E-02-3.50659E-05-4.80106E-03 6.26242E-15 8.12964E-14
 -1      4121 2.00054E+01 2.99709E-02-7.93147E-05-3.12714E-03-3.55073E-14 8.24398E-14
 -1      4122 2.00020E+01 4.24306E-02 2.01345E-04-2.95713E-03-3.54592E-14-1.17119E-13
 -1      4123 2.00070E+01 2.42272E-02-1.91997E-05-2.53010E-03-1.39340E-13 2.60587E-13
 -1      4124 2.00078E+01 1.93410E-02-4.83202E-05-1.37247E-03-1.30958E-13 2.16528E-13
 -1      4125 2.00062E+01 2.83932E-02 1.18894E-04-1.58144E-03 1.05962E-14 8.40004E-14
 -1      4126 2.00085E+01 1.51813E-02-8.17589E-06-1.00487E-03-2.53126E-13 2.41651E-13
 -1      4127 2.00088E+01 1.16909E-02-2.66565E-05-2.30438E-04-3.15587E-13 1.15954E-13
 -1      4128 2.00083E+01 1.81086E-02 6.16899E-05-6.60833E-04-2.14956E-13 3.02755E-13
 -1      4129 2.00089E+01 8.75459E-03-8.82899E-07-2.26334E-05-2.59238E-13 7.41466E-14
 -1      4130 2.00088E+01 6.33072E-03-1.19593E-05 4.72408E-04-1.12880E-13 1.05639E-13
 -1      4131 2.00091E+01 1.07485E-02 2.33368E-05-6.78266E-05-2.17483E-13 1.68524E-13
 -1      4132 2.00086E+01 4.32143E-03 3.62793E-06 5.71746E-04-4.36307E-14 7.31132E-14
 -1      4133 2.00082E+01 2.69674E-03-2.37784E-06 8.67316E-04 1.13539E-13 3.41004E-14
 -1      4134 2.00089E+01 5.62529E-03-1.20513E-06 2.92898E-04-1.03073E-13 2.94694E-13
 -1      4135 2.00078E+01 1.37580E-03 6.13194E-06 8.95568E-04 9.64090E-14-1.05565E-13
 -1      4136 2.00073E+01 3.37470E-04 3.51989E-06 1.05231E-03 1.07405E-14-1.01823E-13
 -1      4137 2.00082E+01 2.18037E-03-1.58447E-05 4.92230E-04-1.20657E-15 1.06662E-13
 -1      4138 2.00068E+01-4.83602E-04 7.24033E-06 1.03631E-03 9.23674E-14-6.59993E-14
 -1      4139 2.00063E+01-1.10192E-03 6.83105E-06 1.09950E-03 2.03157E-13-2.08077E-13
 -1      4140 2.00073E+01-3.12519E-05-2.35544E-05 5.82458E-04 7.49910E-14-1.54961E-13
 -1      4141 2.00057E+01-1.56939E-03 7.41650E-06 1.05813E-03 1.91178E-13-3.43168E-13
 -1      4142 2.00052E+01-1.89539E-03 8.39595E-06 1.06085E-03 3.11124E-14-3.12139E-13
 -1      4143 2.00062E+01-1.35770E-03-2.65074E-05 6.01774E-04 6.63138E-14-4.26098E-13
 -1      4144 2.00047E+01-2.12107E-03 6.95677E-06 1.00702E-03-1.16675E-14-2.40042E-13
 -1      4145 2.00042E+01-2.25096E-03 8.66576E-06 9.72724E-04-4.42368E-14-2.85488E-13
 -1      4146 2.00051E+01-2.06615E-03-2.59866E-05 5.77966E-04 5.54251E-14-3.22078E-13
 -1      4147 2.00037E+01-2.31879E-03 6.07011E-06 9.14306E-04-2.89726E-14-1.93187E-13
 -1      4148 2.00033E+01-2.32530E-03 6.60606E-06 8.58157E-04-1.86673E-14-3.48308E-13
 -1      4149 2.00041E+01-2.35572E-03-2.08945E-05 5.32027E-04 1.23622E-15-1.43039E-13
 -1      4150 2.00029E+01-2.29197E-03 5.10724E-06 8.05043E-04 8.80223E-14-3.07985E-13
 -1      4151 2.00025E+01-2.23429E-03 6.18810E-07 7.43412E-04 6.04773E-14-2.31121E-13
 -1      4152 2.00032E+01-2.37769E-03-1.59200E-05 4.74865E-04 6.42947E-14-2.02978E-13
 -1      4153 2.00020E+01-2.08327E-03 6.34088E-06 8.24453E-04-1.56503E-13-1.17545E-13
 -1      4154 1.95556E+01 5.50067E-01-2.16814E-03 1.68188E-01 1.30417E-13 8.95701E-14
 -1      4155 1.94851E+01 6.05792E-01-1.36583E-03 1.90175E-01 1.16036E-13 1.70135E-13
 -1      4156 1.94143E+01 6.63410E-01 6.59958E-03 1.24900E-01 1.61382E-13 1.15198E-13
 -1      4157 1.85659E+01 1.02141E+00-4.76515E-03 3.22078E-01-2.45030E-16 1.46119E-13
 -1      4158 1.83647E+01 1.07594E+00-3.96204E-03 3.56204E-01-1.69769E-14 1.80310E-13
 -1      4159 1.96799E+01 4.48470E-01-1.75626E-03 1.35435E-01 4.79841E-14 1.58497E-13
 -1      4160 1.96267E+01 4.98411E-01-9.12872E-04 1.55015E-01 7.18694E-14 1.25011E-13
 -1      4161 1.95709E+01 5.49376E-01 5.10937E-03 1.06347E-01 1.59053E-13 1.72386E-13
 -1      4162 1.97741E+01 3.59414E-01-1.41446E-03 1.06646E-01 1.13807E-14 3.88484E-14
 -1      4163 1.97345E+01 4.02917E-01-5.89993E-04 1.23624E-01 1.05359E-13 1.51905E-13
 -1      4164 1.96912E+01 4.46911E-01 3.89071E-03 8.76189E-02 6.67989E-14 6.73567E-14
 -1      4165 1.98447E+01 2.83270E-01-1.12724E-03 8.21086E-02-5.26508E-15-1.58163E-13
 -1      4166 1.98156E+01 3.20261E-01-3.64622E-04 9.64472E-02-6.32917E-14-9.16308E-14
 -1      4167 1.97826E+01 3.57401E-01 2.93225E-03 7.01258E-02 8.21186E-14-1.20202E-13
 -1      4168 1.98968E+01 2.19574E-01-8.86187E-04 6.17738E-02 1.55569E-14-6.86263E-14
 -1      4169 1.98758E+01 2.50364E-01-2.10702E-04 7.35862E-02-1.89741E-14-1.13608E-13
 -1      4170 1.98511E+01 2.81075E-01 2.18485E-03 5.46310E-02-1.70871E-14-2.99647E-13
 -1      4171 1.99346E+01 1.67328E-01-6.85831E-04 4.53477E-02 8.10061E-14 2.64331E-14
 -1      4172 1.99197E+01 1.92467E-01-1.08502E-04 5.48555E-02 9.04913E-14 7.78835E-15
 -1      4173 1.99016E+01 2.17369E-01 1.60568E-03 4.14540E-02-6.76921E-14-1.91111E-13
 -1      4174 1.99615E+01 1.25248E-01-5.21648E-04 3.23932E-02 2.48778E-14 1.59384E-13
 -1      4175 1.99511E+01 1.45405E-01-4.30318E-05 3.98792E-02 9.43571E-14 8.73650E-14
 -1      4176 1.99383E+01 1.65223E-01 1.16050E-03 3.06183E-02 8.96846E-15-5.38487E-14
 -1      4177 1.99800E+01 9.19392E-02-3.89284E-04 2.24103E-02-8.30642E-14 2.21773E-13
 -1      4178 1.99731E+01 1.07825E-01-3.06279E-06 2.81790E-02-1.55230E-14 2.15892E-13
 -1      4179 1.99642E+01 1.23312E-01 8.21864E-04 2.19652E-02-4.97997E-14 7.40566E-14
 -1      4180 1.99924E+01 6.60196E-02-2.84408E-04 1.48934E-02-1.02742E-13 1.60607E-13
 -1      4181 1.99880E+01 7.83259E-02 1.96423E-05 1.92437E-02-1.21282E-13 2.70078E-13
 -1      4182 1.99821E+01 9.02090E-02 5.67495E-04 1.52380E-02-1.19643E-13 1.60629E-13
 -1      4183 2.00004E+01 4.61950E-02-2.02793E-04 9.36842E-03 9.25212E-15 2.11279E-13
 -1      4184 1.99977E+01 5.55634E-02 3.09941E-05 1.25756E-02 8.78501E-15 1.93124E-13
 -1      4185 1.99939E+01 6.45109E-02 3.79240E-04 1.01411E-02-8.72232E-14 1.07575E-13
 -1      4186 2.00051E+01 3.13029E-02-1.40455E-04 5.41364E-03 5.02375E-14 2.23442E-13
 -1      4187 2.00037E+01 3.83048E-02 3.51423E-05 7.72022E-03 2.10817E-14 2.73846E-13
 -1      4188 2.00015E+01 4.49078E-02 2.42319E-04 6.37914E-03-1.19828E-16 2.84795E-13
 -1      4189 2.00076E+01 2.03317E-02-9.37706E-05 2.66835E-03-5.46664E-14 1.65086E-13
 -1      4190 2.00070E+01 2.54610E-02 3.49364E-05 4.28059E-03 2.67262E-14 2.61463E-13
 -1      4191 2.00059E+01 3.02265E-02 1.44770E-04 3.67903E-03 4.83124E-14 4.13456E-13
 -1      4192 2.00086E+01 1.24235E-02-5.95502E-05 8.33679E-04-1.30824E-13 1.84810E-13
 -1      4193 2.00085E+01 1.60966E-02 3.22878E-05 1.92194E-03-1.09438E-13 1.58511E-13
 -1      4194 2.00082E+01 1.94482E-02 7.70020E-05 1.80192E-03-7.34624E-14 2.53128E-13
 -1      4195 2.00086E+01 6.86675E-03-3.50643E-05-3.31442E-04-3.23102E-13 3.52603E-13
 -1      4196 2.00089E+01 9.42729E-03 2.84443E-05 3.70117E-04-2.35796E-13 2.10036E-13
 -1      4197 2.00090E+01 1.17113E-02 3.14134E-05 5.46942E-04-2.32062E-13 3.60054E-13
 -1      4198 2.00081E+01 3.08284E-03-1.80359E-05-1.01680E-03-1.19955E-13 4.71451E-13
 -1      4199 2.00085E+01 4.80883E-03 2.41929E-05-5.93800E-04-2.64994E-13 3.28841E-13
 -1      4200 2.00089E+01 6.30277E-03 2.05361E-06-2.49444E-04-3.01212E-13 2.35558E-13
 -1      4201 2.00072E+01 6.09757E-04-6.60569E-06-1.36850E-03-5.50606E-14 6.43332E-13
 -1      4202 2.00077E+01 1.72219E-03 2.00070E-05-1.14066E-03-5.45911E-14 5.65755E-13
 -1      4203 2.00082E+01 2.64415E-03-1.56711E-05-7.16811E-04-2.37386E-13 2.27590E-13
 -1      4204 2.00062E+01-9.15179E-04 7.18173E-07-1.49650E-03-4.39879E-14 3.79964E-13
 -1      4205 2.00067E+01-2.43627E-04 1.61522E-05-1.40088E-03 6.90019E-15 5.52641E-13
 -1      4206 2.00073E+01 2.74719E-04-2.52506E-05-9.55305E-04-1.36728E-14 1.04592E-13
 -1      4207 2.00052E+01-1.77200E-03 5.11727E-06-1.48163E-03 1.35163E-13 4.29759E-13
 -1      4208 2.00057E+01-1.40862E-03 1.27627E-05-1.47186E-03 5.42948E-14 4.27923E-13
 -1      4209 2.00062E+01-1.16622E-03-2.92772E-05-1.04056E-03 2.70174E-14-4.90723E-14
 -1      4210 2.00042E+01-2.17359E-03 7.29321E-06-1.38140E-03 1.07611E-13 1.93657E-13
 -1      4211 2.00047E+01-2.01819E-03 9.87378E-06-1.42446E-03 1.31297E-13 3.36056E-13
 -1      4212 2.00052E+01-1.95643E-03-2.95488E-05-1.02852E-03 1.89363E-13-5.75594E-14
 -1      4213 2.00033E+01-2.27408E-03 1.12184E-05-1.23145E-03 8.25232E-14 1.63224E-13
 -1      4214 2.00037E+01-2.25742E-03 7.59462E-06-1.30659E-03 8.65022E-14 1.63776E-13
 -1      4215 2.00042E+01-2.30632E-03-2.61658E-05-9.59339E-04 1.54265E-13 3.33631E-14
 -1      4216 2.00026E+01-2.22839E-03 7.70738E-06-9.92989E-04 7.65007E-14 2.19954E-13
 -1      4217 2.00030E+01-2.28013E-03 2.71501E-06-1.07341E-03 3.69963E-14 8.57790E-14
 -1      4218 2.00034E+01-2.38686E-03-2.07952E-05-7.65061E-04 1.22137E-13 2.18493E-13
 -1      4219 2.00027E+01-2.31934E-03-1.20503E-05-4.92148E-04 2.71492E-13 2.02252E-14
 -1      4220 1.62809E+01 7.16856E-01 3.48977E-02-1.84331E+00 9.00560E-15 1.63367E-13
 -1      4221 1.71010E+01 3.73186E-01 3.60661E-03-2.02448E+00 3.90071E-14 1.73542E-13
 -1      4222 1.72189E+01 5.21644E-01-2.50294E-02-1.73287E+00 1.55360E-14 1.72965E-13
 -1      4223 1.61719E+01 9.46295E-01-1.83187E-02-1.21152E+00-6.86382E-14 1.06230E-13
 -1      4224 1.65383E+01 1.14726E+00 1.35861E-02 1.09539E+00-5.33355E-14 9.57355E-14
 -1      4225 1.81124E+01 1.12291E+00-6.73888E-03 3.66857E-01-6.71530E-14 1.83497E-13
 -1      4226 1.78518E+01 1.16481E+00-5.04093E-03 4.09309E-01-7.16036E-14 1.39447E-13
 -1      4227 1.81808E+01 1.13542E+00 9.66651E-03 1.53259E-01-3.76209E-14 1.56899E-13
 -1      4228 1.89146E+01 9.06830E-01-3.02582E-03 2.82198E-01-4.72115E-14 1.68663E-13
 -1      4229 1.87603E+01 9.66501E-01-2.31276E-03 3.13507E-01 1.23745E-15 1.63127E-13
 -1      4230 1.86143E+01 1.01800E+00 5.32906E-03 1.56140E-01 2.71272E-14 1.45301E-13
 -1      4231 1.91832E+01 7.83318E-01-3.16810E-03 2.43321E-01 9.23951E-14 1.31311E-13
 -1      4232 1.90636E+01 8.44041E-01-2.65143E-03 2.70111E-01 7.95902E-15 1.58580E-13
 -1      4233 1.92104E+01 7.85697E-01 7.89004E-03 1.40927E-01 6.99303E-14 1.86780E-13
 -1      4234 1.79269E+01 7.91925E-01 1.87602E-03-1.14061E+00 4.47976E-15 1.13571E-13
 -1      4235 1.80802E+01 8.41178E-01-9.25881E-03-9.62790E-01 4.15115E-14 3.36452E-14
 -1      4236 1.80031E+01 9.82186E-01 5.14765E-03-7.26241E-01-2.83512E-14 2.70914E-14
 -1      4237 2.00023E+01-2.21349E-03 3.83704E-07 2.19407E-04 2.14613E-13-1.23199E-13
 -1      4238 2.00027E+01-2.28688E-03 4.63510E-06 3.36527E-05 2.48710E-13-1.82864E-13
 -1      4239 2.00023E+01-2.18459E-03-1.53024E-06 5.35441E-04 2.03761E-14-4.14680E-14
 -1      4240 1.58341E+01 1.34210E+00 3.73936E-02 1.63251E-01-6.80685E-14 1.13277E-13
 -1      4241 1.60018E+01 1.20816E+00-1.56974E-02-3.24280E-01-8.03400E-14 1.16931E-13
 -1      4242 1.89448E+01 8.97083E-01 2.30672E-03 1.56857E-01 1.59178E-14 2.35267E-13
 -1      4243 2.00030E+01-2.33963E-03 6.04981E-06-7.42249E-05 1.89335E-13-1.18358E-13
 -1      4244 1.60153E+01 1.19913E+00-6.72143E-04 6.89660E-01-9.02139E-14 5.90743E-14
 -1      4245 1.67101E+01 1.23448E+00-1.48607E-02 5.04301E-01-8.31514E-14 1.25903E-13
 -1      4246 1.75342E+01 6.45244E-01 3.70465E-03-1.51100E+00-2.07408E-14 1.58014E-13
 -1      4247 1.76786E+01 7.27754E-01-1.39593E-02-1.29540E+00-2.06526E-14 1.58862E-13
 -1      4248 1.75300E+01 9.40965E-01 4.10494E-03-1.00482E+00-4.52852E-14 2.08919E-13
 -1      4249 1.70328E+01 8.68195E-01 1.83191E-02-1.33705E+00-4.21543E-14 9.62902E-14
 -1      4250 1.86311E+01 9.60667E-01 6.12345E-04-2.44240E-01 7.29903E-14-1.01267E-13
 -1      4251 1.87719E+01 9.11854E-01-6.18184E-03-1.89604E-01 3.44413E-14-4.96002E-14
 -1      4252 1.89706E+01 8.55100E-01-2.55223E-03-7.19490E-02-1.90510E-14-4.29447E-15
 -1      4253 1.90923E+01 7.98869E-01-5.36540E-03-4.10978E-02-8.23452E-16-1.71993E-14
 -1      4254 1.92107E+01 7.38927E-01-4.95676E-03-3.96408E-02 5.72826E-14 8.64489E-16
 -1      4255 1.93140E+01 6.86134E-01-4.58395E-03-1.59461E-02 1.28306E-13 1.51956E-14
 -1      4256 1.94072E+01 6.28080E-01-4.25763E-03-1.85457E-02 1.86528E-13-2.30518E-15
 -1      4257 1.94900E+01 5.77022E-01-3.48712E-03-1.57114E-03 1.68457E-13 6.16814E-14
 -1      4258 1.95622E+01 5.23167E-01-3.39378E-03-6.17449E-03 1.19266E-13 6.51457E-14
 -1      4259 1.96274E+01 4.75738E-01-2.57697E-03 5.78616E-03 1.27357E-13 3.16253E-14
 -1      4260 1.96827E+01 4.27466E-01-2.65548E-03 4.33277E-04 1.08406E-13 1.53328E-14
 -1      4261 1.97334E+01 3.84976E-01-1.88072E-03 8.84605E-03 1.47499E-13 7.48327E-14
 -1      4262 1.97751E+01 3.42943E-01-2.05387E-03 3.48433E-03 1.31855E-13-2.32501E-14
 -1      4263 1.98139E+01 3.06007E-01-1.35682E-03 9.41447E-03 4.79286E-14-6.86614E-14
 -1      4264 1.98450E+01 2.70305E-01-1.56913E-03 4.47023E-03-3.14586E-14-9.97997E-14
 -1      4265 1.98741E+01 2.39008E-01-9.65347E-04 8.66465E-03-8.91403E-14-1.22781E-13
 -1      4266 1.98969E+01 2.09341E-01-1.18172E-03 4.35216E-03-7.12191E-14-5.97761E-14
 -1      4267 1.99183E+01 1.83411E-01-6.74840E-04 7.32885E-03-1.42523E-13-2.31092E-14
 -1      4268 1.99347E+01 1.59245E-01-8.75211E-04 3.72176E-03-1.18342E-13 2.98795E-14
 -1      4269 1.99502E+01 1.38194E-01-4.61157E-04 5.83923E-03-7.48109E-14 8.49858E-14
 -1      4270 1.99617E+01 1.18874E-01-6.35699E-04 2.92345E-03-7.26168E-14 1.15575E-13
 -1      4271 1.99725E+01 1.02104E-01-3.05758E-04 4.43052E-03-9.78085E-14 9.53637E-14
 -1      4272 1.99803E+01 8.69318E-02-4.51198E-04 2.14257E-03-1.61845E-13 1.09668E-13
 -1      4273 1.99877E+01 7.38145E-02-1.94347E-04 3.21301E-03-1.08179E-13 5.29954E-14
 -1      4274 1.99929E+01 6.21104E-02-3.11333E-04 1.46630E-03-6.63567E-14 1.13070E-13
 -1      4275 1.99977E+01 5.20352E-02-1.15889E-04 2.22257E-03-5.66961E-14 5.75609E-14
 -1      4276 2.00008E+01 4.31690E-02-2.07179E-04 9.24457E-04-3.09056E-14 1.59953E-13
 -1      4277 2.00038E+01 3.55735E-02-6.18791E-05 1.45375E-03 2.14661E-14 1.15469E-13
 -1      4278 2.00056E+01 2.89852E-02-1.31162E-04 5.15681E-04 9.64334E-14 7.60290E-14
 -1      4279 2.00072E+01 2.33722E-02-2.57910E-05 8.80773E-04 8.81948E-14 1.18996E-13
 -1      4280 2.00081E+01 1.85790E-02-7.69559E-05 2.23693E-04-1.41590E-13 1.22113E-13
 -1      4281 2.00088E+01 1.45216E-02-2.65098E-06 4.70230E-04-2.49028E-13 1.69068E-13
 -1      4282 2.00090E+01 1.11179E-02-3.93698E-05 2.68167E-05-2.22404E-13 1.63287E-13
 -1      4283 2.00092E+01 8.25904E-03 1.12997E-05 1.88248E-04-1.27512E-13 2.04645E-13
 -1      4284 2.00090E+01 5.91136E-03-1.42180E-05-9.67974E-05-1.29584E-13 9.98289E-14
 -1      4285 2.00088E+01 3.95880E-03 1.88711E-05 4.15653E-06-2.15831E-13 1.23477E-13
 -1      4286 2.00084E+01 2.39837E-03 1.81466E-06-1.66615E-04-1.95165E-13 1.55990E-13
 -1      4287 2.00080E+01 1.11767E-03 2.21352E-05-1.07983E-04-4.84274E-14-5.10529E-14
 -1      4288 2.00075E+01 1.31847E-04 1.13022E-05-1.98748E-04 8.06593E-14-9.52753E-14
 -1      4289 2.00070E+01-6.61700E-04 2.25854E-05-1.69068E-04 7.44951E-14-1.33411E-13
 -1      4290 2.00064E+01-1.23831E-03 1.61738E-05-2.05886E-04 8.00567E-14-1.94839E-13
 -1      4291 2.00059E+01-1.68773E-03 2.12068E-05-1.95297E-04 6.52672E-14-2.04380E-13
 -1      4292 2.00053E+01-1.98192E-03 1.76354E-05-1.97871E-04 1.49970E-13-2.01884E-13
 -1      4293 2.00048E+01-2.19617E-03 1.80830E-05-1.98867E-04 1.19646E-13-9.59288E-14
 -1      4294 2.00043E+01-2.30541E-03 1.50822E-05-1.83551E-04 1.01008E-13-1.18232E-13
 -1      4295 2.00038E+01-2.36559E-03 1.13437E-05-1.89149E-04 1.25261E-13-1.72662E-14
 -1      4296 2.00034E+01-2.36513E-03 1.34495E-05-6.12271E-05 1.09988E-13-1.63211E-13
 -1      4297 1.75134E+01 1.19428E+00-1.05905E-02 4.21017E-01-8.86803E-14 1.34006E-13
 -1      4298 1.71704E+01 1.21828E+00-6.53119E-03 4.84562E-01-8.65122E-14 1.44749E-13
 -1      4299 1.82917E+01 1.07401E+00-8.76903E-04-4.82850E-02 6.56777E-15 3.90677E-14
 -1      4300 1.80326E+01 1.11245E+00-6.92910E-03-6.81687E-02-7.64075E-14 8.58922E-14
 -1      4301 1.82150E+01 1.02578E+00 1.93177E-03-4.28648E-01-2.12230E-15-1.33578E-13
 -1      4302 1.83957E+01 9.91863E-01-5.81441E-03-3.49689E-01 4.50607E-14-1.42532E-13
 -1      4303 1.77110E+01 1.05019E+00 9.93658E-04-6.28178E-01-1.08587E-13 9.50939E-14
 -1      4304 1.79403E+01 1.04010E+00-7.06232E-03-5.14295E-01-1.18258E-13-3.79271E-14
 -1      4305 1.79572E+01 1.10575E+00 7.11427E-03-3.40308E-01-1.22069E-13 1.22940E-14
 -1      4306 1.87334E+01 9.64685E-01 9.83704E-04 4.44390E-02 3.18034E-14 8.01045E-14
 -1      4307 1.85277E+01 1.01651E+00-5.21782E-03 3.61348E-02 5.32857E-14 4.55801E-14
 -1      4308 1.68604E+01 1.29993E+00 2.39015E-02 1.20015E-01-1.20060E-13 1.17686E-13
 -1      4309 1.76143E+01 1.22888E+00 1.41689E-02 1.38456E-01-8.83142E-14 1.57881E-13
 -1      4310 1.77645E+01 1.14983E+00-4.86999E-03-1.26618E-01-1.17160E-13 1.06587E-13
 -1      4311 1.74322E+01 1.17939E+00-8.34975E-03-1.56085E-01-1.08085E-13 5.92938E-14
 -1      4312 1.70336E+01 1.20242E+00-8.19396E-03-2.13891E-01-1.16559E-13 7.54264E-14
 -1      4313 1.65850E+01 1.21053E+00-1.23488E-02-2.54097E-01-1.24139E-13 6.68955E-14
 -1      4314 1.63853E+01 1.19375E+00 2.58661E-02-6.82649E-01-5.84744E-14 1.27815E-13
 -1      4315 1.73172E+01 1.15651E+00 1.12436E-02-4.97622E-01-1.02792E-13 2.80982E-14
 -1      4316 1.84462E+01 1.02976E+00 3.53892E-03-1.66561E-01 6.82791E-14-9.45417E-14
 -1      4317 1.67533E+01 9.83625E-01-5.29040E-03-1.04587E+00-5.30147E-14 1.35773E-13
 -1      4318 1.88838E+01 9.14502E-01 3.84310E-03 4.54182E-02-5.24185E-15 1.22876E-13
 -1      4319 1.73116E+01 1.06521E+00-4.14848E-03-7.32100E-01-3.66068E-14 1.67909E-13
 -1      4320 1.70502E+01 1.02354E+00-9.33511E-03-8.71764E-01-3.52928E-14 1.64427E-13
 -3
    1PSTEP                         3           1           1          
  100CL  101 1.000000000        4320                     0    1           1
 -4  TOSTRAIN    6    1
 -5  EXX         1    4    1    1
 -5  EYY         1    4    2    2
 -5  EZZ         1    4    3    3
 -5  EXY         1    4    1    2
 -5  EYZ         1    4    2    3
 -5  EZX         1    4    3    1
 -1         1 2.99381E-04-9.25096E-05-7.67239E-05 1.24295E-06-2.78250E-19-3.05879E-18
 -1         2 3.36706E-05-1.01530E-04 1.74147E-05-7.39865E-07 1.26420E-18-2.35078E-19
 -1         3 9.52372E-05-2.85711E-05-2.85714E-05 6.01638E-11-3.16491E-18-3.69406E-18
 -1         4 9.52372E-05-2.85711E-05-2.85714E-05-5.76342E-11 1.06398E-18 1.36519E-18
 -1         5 1.82791E-04-2.66672E-05-5.53005E-05 4.49148E-05-2.72109E-19 2.20390E-17
 -1         6 1.73938E-04 3.16256E-10-5.31815E-05-6.23367E-05-1.38818E-18 2.11602E-17
 -1         7 1.08401E-04-7.80311E-07-4.65158E-05-3.23108E-05-1.67183E-19 4.18400E-18
 -1         8 9.92397E-05 1.40677E-08-4.21906E-05-2.03085E-05-2.03076E-19-8.69608E-19
 -1         9 9.34963E-05-4.00328E-08-3.96137E-05-1.28966E-05-1.79253E-19-3.42405E-18
 -1        10 8.81539E-05-1.22242E-07-3.71919E-05-5.95917E-06-6.41098E-20-4.54028E-18
 -1        11 8.16839E-05-1.33141E-07-3.44197E-05 6.80704E-07-3.34049E-20-5.10020E-18
 -1        12 7.35567E-05-3.59322E-08-3.11479E-05 6.14431E-06 4.39398E-20-5.42944E-18
 -1        13 6.44360E-05 1.67365E-07-2.76685E-05 9.07954E-06 5.95041E-20-5.65421E-18
 -1        14 5.64301E-05 3.93144E-07-2.47432E-05 8.55720E-06 8.36974E-20-5.84239E-18
 -1        15 5.19377E-05 5.55382E-07-2.31710E-05 4.88130E-06 7.14552E-20-5.89712E-18
 -1        16 5.29889E-05 5.53570E-07-2.36103E-05 1.01998E-07 4.15840E-20-5.74388E-18
 -1        17 5.95967E-05 3.98422E-07-2.60761E-05-3.28390E-06 5.74924E-20-5.24682E-18
 -1        18 6.98222E-05 1.86068E-07-2.99666E-05-3.35192E-06 7.86682E-20-4.43488E-18
 -1        19 8.12272E-05 2.68709E-08-3.44827E-05 1.09168E-07 1.50560E-19-3.24619E-18
 -1        20 9.23961E-05-3.04012E-08-3.91129E-05 6.25536E-06 2.08370E-19-1.43503E-18
 -1        21 1.03604E-04-3.44609E-08-4.38619E-05 1.45998E-05 2.57074E-19 1.82832E-18
 -1        22 1.18253E-04-6.71727E-07-4.94128E-05 2.73171E-05 3.33519E-20 8.10693E-18
 -1        23 1.38657E-04-4.67641E-05-4.32242E-05-4.75762E-06-8.95155E-19 1.66153E-17
 -1        24 1.15215E-04-3.43950E-05-3.57133E-05 4.54095E-07-2.22270E-19 1.27367E-17
 -1        25 1.08196E-04-3.25804E-05-3.24980E-05 2.04009E-07-6.72142E-20 8.88310E-18
 -1        26 1.01646E-04-3.05869E-05-3.03601E-05-1.63995E-07-6.11359E-20 6.16623E-18
 -1        27 9.48108E-05-2.85118E-05-2.84095E-05-3.20909E-07 5.41133E-20 4.88334E-18
 -1        28 8.86588E-05-2.66463E-05-2.67184E-05-2.99763E-07-8.21093E-20 3.55103E-18
 -1        29 8.48428E-05-2.54893E-05-2.56859E-05-1.07224E-07 9.16152E-20 1.88667E-18
 -1        30 8.46182E-05-2.54144E-05-2.56301E-05 1.67576E-07 5.19585E-20 7.59802E-19
 -1        31 8.80178E-05-2.64279E-05-2.65607E-05 3.90683E-07-9.21645E-20-2.88746E-19
 -1        32 9.37798E-05-2.81480E-05-2.81553E-05 4.70740E-07 1.11427E-19-1.32553E-18
 -1        33 1.00033E-04-3.00124E-05-2.99216E-05 4.07578E-07 8.60710E-20-1.99499E-18
 -1        34 1.05182E-04-3.15448E-05-3.14168E-05 2.67243E-07-3.73252E-19-2.81686E-18
 -1        35 1.08408E-04-3.25044E-05-3.23899E-05 1.22041E-07 7.32212E-20-3.18856E-18
 -1        36 1.09658E-04-3.28767E-05-3.27992E-05 1.34478E-08 2.06616E-19-2.87131E-18
 -1        37 1.09337E-04-3.27830E-05-3.27432E-05-4.93649E-08-2.32623E-19-3.15797E-18
 -1        38 1.08001E-04-3.23878E-05-3.23755E-05-7.51712E-08 2.76334E-20-2.66812E-18
 -1        39 1.06154E-04-3.18398E-05-3.18434E-05-7.75320E-08-2.32760E-19-2.76522E-18
 -1        40 1.04168E-04-3.12491E-05-3.12596E-05-6.79459E-08-1.83461E-19-2.87085E-18
 -1        41 1.02277E-04-3.06856E-05-3.06975E-05-5.40317E-08 2.29435E-19-3.46026E-18
 -1        42 1.00606E-04-3.01868E-05-3.01974E-05-4.00233E-08 4.27218E-20-3.16762E-18
 -1        43 9.92046E-05-2.97675E-05-2.97759E-05-2.78645E-08-6.81403E-19-3.77537E-18
 -1        44 9.80751E-05-2.94289E-05-2.94349E-05-1.81724E-08 4.22972E-19-2.81074E-18
 -1        45 9.71940E-05-2.91643E-05-2.91682E-05-1.08933E-08-7.93424E-20-1.60197E-18
 -1        46 9.65269E-05-2.89635E-05-2.89658E-05-5.68953E-09-4.69341E-19-3.78403E-18
 -1        47 9.60359E-05-2.88154E-05-2.88166E-05-2.14429E-09-1.56036E-20-4.26912E-18
 -1        48 9.56852E-05-2.87094E-05-2.87098E-05 1.40636E-10 4.56400E-19-2.70107E-18
 -1        49 9.54433E-05-2.86361E-05-2.86360E-05 1.50592E-09 1.45305E-19-1.82428E-18
 -1        50 9.52832E-05-2.85874E-05-2.85870E-05 2.22504E-09-1.12902E-19-2.26341E-18
 -1        51 9.51832E-05-2.85568E-05-2.85563E-05 2.50820E-09 1.82824E-19-1.67303E-18
 -1        52 9.51261E-05-2.85392E-05-2.85387E-05 2.51149E-09 1.87817E-19-1.49750E-18
 -1        53 9.50988E-05-2.85306E-05-2.85301E-05 2.34730E-09-2.03003E-20-4.04653E-18
 -1        54 9.50911E-05-2.85281E-05-2.85275E-05 2.09403E-09 1.95973E-19-4.99625E-18
 -1        55 9.50959E-05-2.85293E-05-2.85288E-05 1.80444E-09-2.61400E-19-5.56325E-18
 -1        56 9.51079E-05-2.85327E-05-2.85323E-05 1.51240E-09 2.99792E-19-3.14141E-18
 -1        57 9.51234E-05-2.85372E-05-2.85369E-05 1.23830E-09-6.43799E-20-1.76458E-18
 -1        58 9.51401E-05-2.85422E-05-2.85419E-05 9.93126E-10-1.04829E-20-2.74673E-18
 -1        59 9.51565E-05-2.85470E-05-2.85468E-05 7.81557E-10-3.48218E-19-2.97510E-18
 -1        60 9.51717E-05-2.85515E-05-2.85514E-05 6.04205E-10 5.26051E-20-2.63162E-18
 -1        61 9.51851E-05-2.85555E-05-2.85554E-05 4.59231E-10 3.70055E-19-1.26464E-18
 -1        62 9.51967E-05-2.85590E-05-2.85589E-05 3.43463E-10 6.04789E-20-4.78949E-19
 -1        63 9.52064E-05-2.85619E-05-2.85618E-05 2.53137E-10-8.39835E-19-2.48426E-18
 -1        64 9.52145E-05-2.85643E-05-2.85643E-05 1.84349E-10-8.50006E-20-5.89204E-18
 -1        65 9.52210E-05-2.85663E-05-2.85662E-05 1.33274E-10-2.45320E-19-7.11737E-18
 -1        66 9.52262E-05-2.85678E-05-2.85678E-05 9.61593E-11 1.20689E-19-5.78898E-18
 -1        67 9.52303E-05-2.85691E-05-2.85691E-05 6.89691E-11 4.87576E-19-1.98573E-18
 -1        68 9.52335E-05-2.85700E-05-2.85700E-05 4.66304E-11-1.06934E-19 1.97226E-18
 -1        69 9.52357E-05-2.85707E-05-2.85707E-05 2.08279E-11 2.28535E-19 1.84323E-18
 -1        70 9.52370E-05-2.85711E-05-2.85710E-05-2.74273E-11 3.75698E-19 4.66203E-18
 -1        71 9.52374E-05-2.85712E-05-2.85712E-05-9.02786E-11-4.52649E-19 3.56706E-18
 -1        72 1.41566E-04-4.24952E-05-4.64897E-05-3.43655E-06 2.89871E-19 2.03478E-17
 -1        73 1.34224E-04-4.00151E-05-4.12015E-05-7.24371E-07 1.86481E-19 1.57407E-17
 -1        74 1.28698E-04-3.86443E-05-3.84445E-05-1.87465E-07 6.83607E-20 1.26930E-17
 -1        75 1.20661E-04-3.63368E-05-3.58200E-05 2.38096E-07-7.13112E-20 1.14281E-17
 -1        76 1.09264E-04-3.29186E-05-3.25990E-05 7.18776E-07 6.24308E-20 9.88395E-18
 -1        77 9.67826E-05-2.90802E-05-2.92888E-05 9.81122E-07 6.90481E-20 8.31606E-18
 -1        78 8.79364E-05-2.62818E-05-2.70299E-05 7.32433E-07-1.24967E-19 7.94169E-18
 -1        79 8.69204E-05-2.58969E-05-2.67702E-05 3.64176E-08 1.58322E-19 6.64787E-18
 -1        80 9.39682E-05-2.80568E-05-2.85480E-05-6.41391E-07-7.93010E-20 4.77668E-18
 -1        81 1.05068E-04-3.14951E-05-3.14406E-05-8.98359E-07 2.29453E-19 2.92708E-18
 -1        82 1.15151E-04-3.45981E-05-3.42048E-05-7.37729E-07 1.87846E-19 1.30747E-18
 -1        83 1.21187E-04-3.64271E-05-3.59895E-05-4.09159E-07-1.80236E-19 6.29862E-19
 -1        84 1.22801E-04-3.68933E-05-3.65790E-05-1.21859E-07 3.30674E-20 2.39733E-19
 -1        85 1.21163E-04-3.63767E-05-3.62152E-05 5.18188E-08 1.89052E-21-1.18141E-19
 -1        86 1.17760E-04-3.53376E-05-3.52891E-05 1.26844E-07 1.03483E-19-4.26468E-19
 -1        87 1.13758E-04-3.41280E-05-3.41421E-05 1.41547E-07-5.02670E-20-1.79985E-18
 -1        88 1.09872E-04-3.29592E-05-3.29990E-05 1.27498E-07-2.01271E-19-1.19710E-18
 -1        89 1.06450E-04-3.19326E-05-3.19773E-05 1.03732E-07 4.35031E-19-3.11985E-18
 -1        90 1.03609E-04-3.10814E-05-3.11217E-05 7.95845E-08-4.76262E-19-3.44726E-18
 -1        91 1.01341E-04-3.04020E-05-3.04351E-05 5.87428E-08 1.16686E-19-1.52224E-18
 -1        92 9.95817E-05-2.98750E-05-2.99007E-05 4.21073E-08-6.74710E-20-3.21451E-18
 -1        93 9.82478E-05-2.94752E-05-2.94945E-05 2.94052E-08-2.60535E-19-2.16199E-18
 -1        94 9.72568E-05-2.91781E-05-2.91923E-05 1.99793E-08-8.30697E-20-3.28433E-18
 -1        95 9.65350E-05-2.89615E-05-2.89718E-05 1.31314E-08-1.46565E-19-2.53013E-18
 -1        96 9.60203E-05-2.88071E-05-2.88143E-05 8.24878E-09 1.10998E-19-1.57781E-18
 -1        97 9.56623E-05-2.86996E-05-2.87046E-05 4.83503E-09-1.11915E-19-2.84847E-18
 -1        98 9.54207E-05-2.86270E-05-2.86304E-05 2.50301E-09-4.87399E-19-3.95464E-18
 -1        99 9.52642E-05-2.85799E-05-2.85821E-05 9.57113E-10 4.27637E-19-6.13599E-18
 -1       100 9.51686E-05-2.85511E-05-2.85524E-05-2.55091E-11-9.57678E-19-4.59131E-18
 -1       101 9.51156E-05-2.85351E-05-2.85358E-05-6.11279E-10-1.53280E-19-1.37772E-18
 -1       102 9.50915E-05-2.85278E-05-2.85281E-05-9.23366E-10 3.10300E-19-2.36806E-18
 -1       103 9.50864E-05-2.85261E-05-2.85263E-05-1.05201E-09-2.78629E-19-2.00032E-18
 -1       104 9.50929E-05-2.85281E-05-2.85280E-05-1.06248E-09 4.37469E-19-2.31530E-19
 -1       105 9.51061E-05-2.85320E-05-2.85318E-05-1.00127E-09 7.38821E-19-3.17564E-18
 -1       106 9.51225E-05-2.85368E-05-2.85367E-05-9.00794E-10-1.24323E-18-2.93411E-18
 -1       107 9.51398E-05-2.85420E-05-2.85418E-05-7.83039E-10 4.43921E-19-2.95323E-18
 -1       108 9.51564E-05-2.85470E-05-2.85468E-05-6.62394E-10 2.12816E-19-4.78725E-18
 -1       109 9.51717E-05-2.85516E-05-2.85514E-05-5.47777E-10 2.11983E-19-2.43464E-18
 -1       110 9.51853E-05-2.85556E-05-2.85554E-05-4.44267E-10 2.65576E-19-7.74639E-18
 -1       111 9.51969E-05-2.85591E-05-2.85589E-05-3.54330E-10 6.77319E-20-7.64780E-18
 -1       112 9.52066E-05-2.85620E-05-2.85619E-05-2.78716E-10-3.95253E-19-4.94891E-18
 -1       113 9.52146E-05-2.85644E-05-2.85643E-05-2.17113E-10-2.95878E-19-4.02949E-18
 -1       114 9.52211E-05-2.85663E-05-2.85663E-05-1.68580E-10 1.28656E-19-2.39123E-18
 -1       115 9.52263E-05-2.85679E-05-2.85678E-05-1.31757E-10 5.62682E-19-3.11585E-18
 -1       116 9.52304E-05-2.85691E-05-2.85691E-05-1.04687E-10 3.63151E-19-5.70625E-18
 -1       117 9.52335E-05-2.85701E-05-2.85700E-05-8.42105E-11-4.33997E-19-5.34838E-18
 -1       118 9.52357E-05-2.85707E-05-2.85707E-05-6.42478E-11 2.00459E-19-2.34091E-18
 -1       119 9.52370E-05-2.85711E-05-2.85710E-05-2.41008E-11 6.51872E-19-9.87605E-18
 -1       120 9.52374E-05-2.85712E-05-2.85712E-05 6.74259E-11 1.47282E-18-1.13503E-17
 -1       121 9.52371E-05-2.85710E-05-2.85712E-05 9.94149E-11-1.11181E-17 9.26117E-19
 -1       122 9.52372E-05-2.85714E-05-2.85710E-05 9.30844E-13-4.54558E-18 6.54829E-19
 -1       123 9.52376E-05-2.85726E-05-2.85707E-05-6.07081E-11 1.81868E-18 1.69772E-18
 -1       124 9.52381E-05-2.85745E-05-2.85701E-05-8.79728E-11 1.34817E-18-1.21617E-18
 -1       125 9.52387E-05-2.85765E-05-2.85695E-05-8.99900E-11-3.43850E-18-2.46964E-18
 -1       126 9.52393E-05-2.85784E-05-2.85690E-05-7.62354E-11-1.63903E-17-8.22452E-19
 -1       127 9.52397E-05-2.85798E-05-2.85686E-05-5.01905E-11-1.18655E-17 2.01300E-18
 -1       128 9.52399E-05-2.85806E-05-2.85684E-05-1.72894E-11-9.00851E-18-8.49274E-19
 -1       129 9.52399E-05-2.85806E-05-2.85684E-05 1.78419E-11-4.23867E-18 2.07570E-18
 -1       130 9.52397E-05-2.85798E-05-2.85686E-05 5.06264E-11-3.90774E-20-2.62330E-18
 -1       131 9.52393E-05-2.85783E-05-2.85690E-05 7.72031E-11-3.58716E-18-1.17642E-18
 -1       132 9.52387E-05-2.85765E-05-2.85695E-05 9.00929E-11-6.90581E-18 1.51563E-18
 -1       133 9.52381E-05-2.85744E-05-2.85701E-05 8.72497E-11-1.71572E-18 1.37593E-18
 -1       134 9.52376E-05-2.85726E-05-2.85707E-05 6.70131E-11-4.08526E-18-1.46055E-18
 -1       135 9.52372E-05-2.85714E-05-2.85710E-05-9.60669E-13-6.00566E-18 1.04465E-18
 -1       136 9.52371E-05-2.85710E-05-2.85712E-05-1.64802E-10-3.86623E-18 2.97368E-19
 -1       137 2.35511E-05-8.01859E-05 1.34323E-05-2.16744E-05 1.42346E-17 4.00189E-18
 -1       138 7.74451E-06-2.83255E-05 8.28735E-07-1.34582E-05 2.46076E-17 1.19059E-17
 -1       139 1.32332E-05 1.64285E-05-1.64893E-05 2.65916E-05 2.37279E-17 1.77115E-17
 -1       140 6.37214E-05 2.68321E-05-3.73335E-05 8.24658E-05 1.80973E-17 2.05160E-17
 -1       141 1.51716E-04-4.40510E-06-5.64806E-05 1.15177E-04 1.17630E-17 2.08307E-17
 -1       142 2.43710E-04-5.44410E-05-7.04829E-05 1.00806E-04 5.01073E-18 1.39032E-17
 -1       143 3.04898E-04-9.21768E-05-7.82764E-05 3.24090E-05 4.53718E-19 1.32031E-19
 -1       144 2.90246E-04-8.43875E-05-7.61906E-05-4.81858E-05 2.79684E-18-1.41884E-17
 -1       145 2.11828E-04-4.07163E-05-6.47892E-05-1.00490E-04 9.45193E-18-2.50341E-17
 -1       146 1.16007E-04 5.79994E-06-4.86376E-05-9.98690E-05 1.77464E-17-2.82295E-17
 -1       147 3.49065E-05 2.43862E-05-2.74710E-05-5.41350E-05 2.45089E-17-2.46381E-17
 -1       148 5.46892E-06 3.20215E-06-9.89603E-06-6.26792E-06 2.56261E-17-1.69500E-17
 -1       149 9.74215E-06-3.96765E-05 4.11476E-06 1.94547E-05 1.97020E-17-7.73828E-18
 -1       150 2.32181E-05-7.32773E-05 1.17996E-05 1.43364E-05 8.60564E-18-1.68687E-18
 -1       151 2.56972E-05-7.72984E-05 1.26417E-05-4.96488E-06-5.08056E-18-6.21537E-19
 -1       152 1.49982E-05-5.09909E-05 6.99063E-06-1.69408E-05-1.69273E-17-4.77605E-18
 -1       153 3.89721E-06-8.28717E-06-4.49877E-06-3.38483E-06-2.42938E-17-1.27989E-17
 -1       154 2.13955E-05 2.51592E-05-2.27315E-05 4.21625E-05-2.57464E-17-2.17747E-17
 -1       155 7.51561E-05 2.20214E-05-4.02002E-05 8.67758E-05-2.04482E-17-2.57862E-17
 -1       156 1.71232E-04-1.92467E-05-5.86802E-05 1.05555E-04-1.17397E-17-2.41434E-17
 -1       157 2.61203E-04-6.93761E-05-7.18973E-05 7.18610E-05-4.06091E-18-1.58670E-17
 -1       158 2.73300E-04-7.51167E-05-7.36810E-05-7.04684E-05-2.04261E-18 8.37101E-18
 -1       159 2.01704E-04-3.20501E-05-6.39569E-05-1.09915E-04-6.87695E-18 1.59949E-17
 -1       160 1.13528E-04 1.20904E-05-4.90086E-05-1.06736E-04-1.38755E-17 1.99294E-17
 -1       161 4.16794E-05 2.99661E-05-3.05272E-05-6.61381E-05-2.04575E-17 1.98866E-17
 -1       162 8.37047E-06 1.01552E-05-1.23438E-05-1.62355E-05-2.22842E-17 1.51212E-17
 -1       163 9.57883E-06-3.83071E-05 3.98403E-06 1.81871E-05-1.81883E-17 7.64924E-18
 -1       164 2.57282E-05-8.30795E-05 1.38411E-05 1.95462E-05-9.21678E-18 2.08280E-18
 -1       165 1.13214E-04-1.63166E-05-4.17865E-05-2.47460E-05-2.72067E-18 1.73295E-18
 -1       166 1.04711E-04-1.28868E-05-3.95667E-05-1.78910E-05-2.24122E-18-1.31399E-18
 -1       167 9.89998E-05-1.18503E-05-3.74933E-05-1.13230E-05-1.51021E-18-2.94455E-18
 -1       168 9.29014E-05-1.12046E-05-3.51149E-05-4.57575E-06-5.72528E-19-3.67626E-18
 -1       169 8.43838E-05-9.38223E-06-3.22237E-05 1.94952E-06 2.59635E-19-4.20355E-18
 -1       170 7.29015E-05-5.59425E-06-2.89125E-05 7.03161E-06 8.39992E-19-4.52098E-18
 -1       171 6.02800E-05-3.44891E-07-2.57395E-05 9.05887E-06 1.17984E-18-4.91208E-18
 -1       172 5.00315E-05 4.52329E-06-2.34323E-05 7.26014E-06 1.13542E-18-5.25770E-18
 -1       173 4.68393E-05 6.33136E-06-2.28409E-05 2.78488E-06 8.52958E-19-5.30147E-18
 -1       174 5.25323E-05 3.98173E-06-2.42793E-05-1.56083E-06 5.99567E-19-4.90346E-18
 -1       175 6.50758E-05-1.22049E-06-2.74388E-05-2.84987E-06 6.33289E-19-4.18645E-18
 -1       176 8.00987E-05-6.70628E-06-3.15481E-05-1.93250E-07 1.03674E-18-3.02137E-18
 -1       177 9.43586E-05-1.09187E-05-3.58991E-05 5.42496E-06 1.68042E-18-1.48141E-18
 -1       178 1.07642E-04-1.44599E-05-4.01377E-05 1.25433E-05 2.29664E-18 8.20722E-19
 -1       179 1.23270E-04-2.08768E-05-4.41272E-05 1.98511E-05 2.45076E-18 4.66710E-18
 -1       180 1.40782E-04-3.68511E-05-4.59411E-05 1.76250E-05 2.02895E-18 9.61689E-18
 -1       181 1.24612E-04-3.37291E-05-3.89668E-05-1.44084E-05-2.46391E-18 5.66048E-18
 -1       182 1.16315E-04-3.46514E-05-3.50486E-05-8.13654E-06-2.11916E-18 4.60152E-18
 -1       183 1.09715E-04-3.30334E-05-3.28142E-05-6.99878E-06-1.61307E-18 3.72557E-18
 -1       184 1.04289E-04-3.13163E-05-3.12316E-05-6.92823E-06-1.01772E-18 2.78180E-18
 -1       185 9.94298E-05-2.94393E-05-2.99678E-05-6.09647E-06-9.95497E-19 1.73569E-18
 -1       186 9.57526E-05-2.78756E-05-2.90709E-05-3.79841E-06-1.06131E-18 1.03500E-18
 -1       187 9.40841E-05-2.71674E-05-2.86643E-05-3.64553E-07-8.39257E-19 3.00033E-19
 -1       188 9.47826E-05-2.75688E-05-2.87942E-05 3.06931E-06-7.35423E-19-4.55188E-19
 -1       189 9.73801E-05-2.88309E-05-2.93685E-05 5.29223E-06-7.07837E-19-8.28004E-19
 -1       190 1.00808E-04-3.03726E-05-3.01813E-05 5.74378E-06-5.29707E-19-1.26380E-18
 -1       191 1.03957E-04-3.16489E-05-3.09905E-05 4.69963E-06-6.83430E-19-2.25812E-18
 -1       192 1.06122E-04-3.23949E-05-3.16043E-05 2.89611E-06-4.01527E-19-2.35180E-18
 -1       193 1.07090E-04-3.26129E-05-3.19288E-05 1.04214E-06-2.36408E-21-2.26407E-18
 -1       194 1.06999E-04-3.24400E-05-3.19641E-05-4.34867E-07-3.96947E-20-2.16227E-18
 -1       195 1.06146E-04-3.20356E-05-3.17696E-05-1.39575E-06-2.55698E-20-1.38046E-18
 -1       196 1.04844E-04-3.15280E-05-3.14265E-05-1.88432E-06-4.38960E-19-1.54405E-18
 -1       197 1.03356E-04-3.10030E-05-3.10108E-05-2.01973E-06-4.43007E-22-1.80530E-18
 -1       198 1.01866E-04-3.05110E-05-3.05809E-05-1.92837E-06-2.96017E-19-2.13102E-18
 -1       199 1.00490E-04-3.00774E-05-3.01752E-05-1.71333E-06-3.82618E-19-2.71399E-18
 -1       200 9.92858E-05-2.97112E-05-2.98154E-05-1.44732E-06 9.52449E-20-3.38158E-18
 -1       201 9.82757E-05-2.94121E-05-2.95104E-05-1.17617E-06 3.67118E-19-2.22538E-18
 -1       202 9.74559E-05-2.91745E-05-2.92609E-05-9.25666E-07 6.26563E-19-2.74556E-18
 -1       203 9.68093E-05-2.89906E-05-2.90628E-05-7.08009E-07-2.33137E-19-1.92123E-18
 -1       204 9.63124E-05-2.88515E-05-2.89098E-05-5.26932E-07-4.59769E-19-8.15218E-19
 -1       205 9.59401E-05-2.87489E-05-2.87946E-05-3.81297E-07 4.95708E-19-8.11604E-19
 -1       206 9.56683E-05-2.86752E-05-2.87100E-05-2.67460E-07 4.10939E-19-5.68080E-19
 -1       207 9.54755E-05-2.86238E-05-2.86497E-05-1.80754E-07-3.35226E-19-9.28563E-19
 -1       208 9.53432E-05-2.85893E-05-2.86080E-05-1.16360E-07 4.43647E-19-1.08428E-18
 -1       209 9.52562E-05-2.85672E-05-2.85804E-05-6.97773E-08-3.58414E-19-1.54074E-18
 -1       210 9.52023E-05-2.85542E-05-2.85630E-05-3.70539E-08-1.20279E-18-1.94935E-18
 -1       211 9.51719E-05-2.85473E-05-2.85531E-05-1.48600E-08-2.46389E-19-1.04104E-18
 -1       212 9.51577E-05-2.85447E-05-2.85482E-05-4.78450E-10 3.02242E-19-8.60670E-19
 -1       213 9.51543E-05-2.85449E-05-2.85468E-05 8.24971E-09 9.02429E-19-5.17396E-19
 -1       214 9.51575E-05-2.85466E-05-2.85474E-05 1.30003E-08 8.30858E-19-1.39562E-18
 -1       215 9.51646E-05-2.85493E-05-2.85494E-05 1.50453E-08-2.03785E-19-1.51010E-18
 -1       216 9.51736E-05-2.85523E-05-2.85520E-05 1.53288E-08-3.65270E-19-7.03306E-19
 -1       217 9.51831E-05-2.85553E-05-2.85548E-05 1.45351E-08-4.61656E-19-1.38702E-18
 -1       218 9.51924E-05-2.85582E-05-2.85575E-05 1.31466E-08 8.27722E-19-5.72765E-19
 -1       219 9.52010E-05-2.85608E-05-2.85601E-05 1.14927E-08 1.65831E-19-4.24179E-19
 -1       220 9.52086E-05-2.85630E-05-2.85624E-05 9.78794E-09-1.67891E-18-6.48152E-19
 -1       221 9.52151E-05-2.85650E-05-2.85644E-05 8.16312E-09-1.84930E-18-1.30585E-18
 -1       222 9.52207E-05-2.85666E-05-2.85661E-05 6.68795E-09 1.18424E-19-1.71894E-18
 -1       223 9.52252E-05-2.85679E-05-2.85674E-05 5.38804E-09 1.34717E-18 2.26781E-19
 -1       224 9.52289E-05-2.85689E-05-2.85686E-05 4.25626E-09 2.98659E-18 1.87515E-18
 -1       225 9.52318E-05-2.85698E-05-2.85694E-05 3.26049E-09 1.92594E-18 2.00813E-18
 -1       226 9.52340E-05-2.85704E-05-2.85701E-05 2.34938E-09 8.20174E-19 1.87347E-18
 -1       227 9.52356E-05-2.85709E-05-2.85706E-05 1.46441E-09 6.92330E-19 2.15795E-18
 -1       228 9.52366E-05-2.85712E-05-2.85709E-05 5.86878E-10-1.60898E-19 1.71665E-18
 -1       229 1.34528E-04-3.97573E-05-4.07941E-05 7.03202E-06 2.09760E-18 8.61973E-18
 -1       230 1.28086E-04-3.88340E-05-3.81875E-05 5.64595E-06 1.20756E-18 7.46523E-18
 -1       231 1.22107E-04-3.73814E-05-3.62297E-05 7.65536E-06 6.47022E-19 6.60905E-18
 -1       232 1.14946E-04-3.49054E-05-3.42632E-05 9.82611E-06 1.20530E-18 5.80456E-18
 -1       233 1.07242E-04-3.16573E-05-3.24169E-05 9.51725E-06 8.16967E-19 4.69850E-18
 -1       234 1.01402E-04-2.89066E-05-3.11469E-05 5.30054E-06 5.64653E-19 3.49020E-18
 -1       235 9.99988E-05-2.82522E-05-3.08287E-05-1.40579E-06 1.17596E-18 2.32280E-18
 -1       236 1.03401E-04-3.00247E-05-3.14790E-05-6.95312E-06 1.03956E-18 7.78145E-19
 -1       237 1.09273E-04-3.28719E-05-3.27231E-05-8.64758E-06 9.37727E-19-4.22458E-19
 -1       238 1.14573E-04-3.51514E-05-3.39994E-05-6.72845E-06 6.77332E-19-5.90117E-19
 -1       239 1.17521E-04-3.61545E-05-3.48464E-05-3.23116E-06 2.72364E-19-1.28382E-18
 -1       240 1.17899E-04-3.60448E-05-3.50753E-05 2.65050E-09 3.14087E-19-1.67659E-18
 -1       241 1.16356E-04-3.52814E-05-3.47535E-05 2.15174E-06-1.18954E-19-1.79040E-18
 -1       242 1.13728E-04-3.42537E-05-3.40708E-05 3.19466E-06 1.40405E-19-1.32615E-18
 -1       243 1.10701E-04-3.31976E-05-3.32236E-05 3.43953E-06 3.05074E-19-9.35470E-19
 -1       244 1.07723E-04-3.22307E-05-3.23580E-05 3.22167E-06-2.44903E-19-1.07892E-18
 -1       245 1.05039E-04-3.13995E-05-3.15607E-05 2.79104E-06 9.37263E-19-1.00754E-18
 -1       246 1.02750E-04-3.07129E-05-3.08721E-05 2.30110E-06-4.78577E-19-9.43441E-19
 -1       247 1.00873E-04-3.01615E-05-3.03028E-05 1.83303E-06-5.97060E-19-1.12519E-18
 -1       248 9.93766E-05-2.97285E-05-2.98467E-05 1.42269E-06 5.50528E-19-3.32979E-19
 -1       249 9.82111E-05-2.93949E-05-2.94902E-05 1.08069E-06-4.84896E-19-1.10706E-18
 -1       250 9.73213E-05-2.91424E-05-2.92173E-05 8.04982E-07 7.60713E-19-1.23684E-18
 -1       251 9.66546E-05-2.89546E-05-2.90124E-05 5.88032E-07-2.53721E-19-2.07840E-18
 -1       252 9.61645E-05-2.88176E-05-2.88614E-05 4.20620E-07-4.43677E-19-1.76665E-18
 -1       253 9.58116E-05-2.87198E-05-2.87523E-05 2.93657E-07 1.33717E-19-1.17476E-18
 -1       254 9.55632E-05-2.86516E-05-2.86754E-05 1.98981E-07 6.76760E-19-1.21545E-18
 -1       255 9.53934E-05-2.86055E-05-2.86226E-05 1.29619E-07 7.37697E-19-1.89296E-18
 -1       256 9.52815E-05-2.85756E-05-2.85876E-05 7.97925E-08-1.81160E-18-1.83301E-18
 -1       257 9.52114E-05-2.85574E-05-2.85656E-05 4.48170E-08-1.08335E-18-2.83216E-18
 -1       258 9.51710E-05-2.85473E-05-2.85527E-05 2.09574E-08 1.37878E-19-2.42218E-18
 -1       259 9.51510E-05-2.85428E-05-2.85461E-05 5.27906E-09-1.22968E-18-1.50236E-18
 -1       260 9.51444E-05-2.85419E-05-2.85438E-05-4.49183E-09 7.87223E-19-1.68791E-18
 -1       261 9.51464E-05-2.85432E-05-2.85441E-05-1.00924E-08 1.33464E-18-1.42925E-18
 -1       262 9.51535E-05-2.85458E-05-2.85461E-05-1.28297E-08-8.29529E-20-2.37366E-18
 -1       263 9.51631E-05-2.85490E-05-2.85489E-05-1.36716E-08 1.36224E-18-5.18866E-18
 -1       264 9.51737E-05-2.85524E-05-2.85520E-05-1.33210E-08-4.69932E-19-5.95633E-18
 -1       265 9.51843E-05-2.85556E-05-2.85551E-05-1.22771E-08-5.79584E-19-4.98372E-18
 -1       266 9.51941E-05-2.85586E-05-2.85581E-05-1.08852E-08 1.43284E-18-2.45353E-18
 -1       267 9.52028E-05-2.85612E-05-2.85607E-05-9.37515E-09 1.41196E-19-1.40190E-18
 -1       268 9.52105E-05-2.85635E-05-2.85630E-05-7.89234E-09-6.69672E-19-1.00024E-18
 -1       269 9.52169E-05-2.85654E-05-2.85650E-05-6.52050E-09-3.74844E-19-2.54893E-18
 -1       270 9.52223E-05-2.85669E-05-2.85666E-05-5.29907E-09-5.45518E-19-2.25584E-18
 -1       271 9.52266E-05-2.85682E-05-2.85679E-05-4.23518E-09 1.78596E-18-2.31454E-18
 -1       272 9.52301E-05-2.85692E-05-2.85690E-05-3.31143E-09 5.14185E-19-2.40216E-18
 -1       273 9.52328E-05-2.85700E-05-2.85698E-05-2.49072E-09-7.15452E-19-7.55602E-19
 -1       274 9.52348E-05-2.85706E-05-2.85704E-05-1.72328E-09-8.66598E-20-3.51589E-18
 -1       275 9.52362E-05-2.85710E-05-2.85708E-05-9.55219E-10 2.80303E-18-4.50855E-18
 -1       276 9.52369E-05-2.85712E-05-2.85710E-05-2.18889E-10-1.17749E-18-3.61619E-18
 -1       277 9.52370E-05-2.85717E-05-2.85709E-05-6.32815E-10-1.80634E-18 5.15222E-18
 -1       278 9.52374E-05-2.85726E-05-2.85706E-05-1.39313E-09 5.95851E-19 2.33666E-18
 -1       279 9.52379E-05-2.85739E-05-2.85703E-05-1.91982E-09 3.01895E-20-3.20207E-19
 -1       280 9.52384E-05-2.85755E-05-2.85698E-05-2.09070E-09-1.59813E-18-3.69031E-18
 -1       281 9.52390E-05-2.85769E-05-2.85695E-05-1.91975E-09-4.27941E-18-7.71175E-18
 -1       282 9.52394E-05-2.85781E-05-2.85691E-05-1.45442E-09-4.73885E-18 1.46188E-18
 -1       283 9.52397E-05-2.85789E-05-2.85689E-05-7.78309E-10-5.21017E-18 1.90358E-18
 -1       284 9.52398E-05-2.85792E-05-2.85688E-05 6.72793E-12-2.27692E-18 3.67399E-18
 -1       285 9.52397E-05-2.85789E-05-2.85689E-05 7.90802E-10-8.31335E-19 1.58519E-18
 -1       286 9.52394E-05-2.85781E-05-2.85691E-05 1.46435E-09-1.45294E-18-3.25293E-18
 -1       287 9.52390E-05-2.85769E-05-2.85695E-05 1.91994E-09-5.31938E-19-1.86821E-18
 -1       288 9.52384E-05-2.85754E-05-2.85699E-05 2.08978E-09-6.41224E-20 2.09730E-18
 -1       289 9.52379E-05-2.85739E-05-2.85703E-05 1.91219E-09-1.47941E-18-1.00669E-18
 -1       290 9.52374E-05-2.85726E-05-2.85706E-05 1.38079E-09-1.89903E-18-1.77443E-19
 -1       291 9.52369E-05-2.85719E-05-2.85708E-05 1.09671E-09-1.06916E-18 1.69017E-18
 -1       292 1.11773E-05-4.02890E-05 9.37490E-06 6.99055E-06 2.77165E-18 7.34896E-18
 -1       293 2.74958E-05-3.60424E-05 1.51866E-06 2.64115E-05 4.75122E-18 7.96703E-18
 -1       294 5.53790E-05-3.37587E-05-1.08468E-05 3.74421E-05 8.41866E-18 6.34248E-18
 -1       295 9.84676E-05-3.54458E-05-2.73351E-05 4.44446E-05 7.44267E-18 5.81128E-18
 -1       296 1.37652E-04-3.10727E-05-4.45810E-05 4.61174E-05 7.53902E-18 7.00962E-18
 -1       297 1.76477E-04-3.23682E-05-5.91202E-05 4.09103E-05 7.32480E-18 4.30504E-18
 -1       298 2.04928E-04-3.57580E-05-6.88398E-05 2.44033E-05 6.99670E-18 1.04577E-18
 -1       299 1.96114E-04-2.88673E-05-6.92347E-05 2.42962E-06 7.77650E-18-2.75868E-18
 -1       300 1.88988E-04-3.35165E-05-6.42959E-05-1.51208E-05 7.75977E-18-5.93220E-18
 -1       301 1.62443E-04-3.36287E-05-5.34502E-05-3.77820E-05 8.99750E-18-1.06665E-17
 -1       302 1.21218E-04-3.44481E-05-3.71014E-05-3.89356E-05 8.84758E-18-9.78027E-18
 -1       303 7.00970E-05-2.55450E-05-2.03974E-05-3.89841E-05 1.05860E-17-1.12418E-17
 -1       304 3.51276E-05-2.56763E-05-6.43816E-06-2.63071E-05 9.12890E-18-9.63025E-18
 -1       305 1.43319E-05-2.81676E-05 3.09333E-06-1.23071E-05 5.72012E-18-7.72468E-18
 -1       306 6.32535E-06-2.75459E-05 6.43851E-06-8.09754E-08 1.03841E-18-7.01386E-18
 -1       307 1.02228E-05-2.75805E-05 4.72354E-06 1.16108E-05-3.63684E-18-6.92005E-18
 -1       308 2.43835E-05-2.30689E-05-2.79069E-06 2.44417E-05-7.59069E-18-8.26328E-18
 -1       309 5.90566E-05-2.37677E-05-1.62304E-05 3.97135E-05-7.86343E-18-8.77034E-18
 -1       310 9.49252E-05-2.21599E-05-3.14446E-05 4.65173E-05-1.05244E-17-1.06730E-17
 -1       311 1.40816E-04-2.92781E-05-4.68718E-05 4.06132E-05-8.97580E-18-9.16299E-18
 -1       312 1.73681E-04-3.05883E-05-5.97112E-05 2.16465E-05-7.80244E-18-6.15200E-18
 -1       313 1.96536E-04-3.17395E-05-6.79057E-05 6.86715E-06-6.99512E-18-4.28249E-18
 -1       314 2.05149E-04-3.51520E-05-6.94069E-05-1.36091E-05-5.81192E-18-4.45433E-19
 -1       315 1.85657E-04-3.12491E-05-6.33978E-05-3.06071E-05-5.92415E-18 2.46720E-18
 -1       316 1.56878E-04-2.84604E-05-5.30245E-05-4.59853E-05-6.74746E-18 5.27553E-18
 -1       317 1.20831E-04-3.01792E-05-3.82441E-05-4.61665E-05-7.15605E-18 5.17198E-18
 -1       318 7.81340E-05-2.72683E-05-2.24491E-05-4.48232E-05-7.50132E-18 6.79807E-18
 -1       319 4.82147E-05-3.37997E-05-7.81432E-06-3.64456E-05-4.76880E-18 6.52181E-18
 -1       320 2.23378E-05-3.81636E-05 3.95423E-06-2.05513E-05-3.55923E-18 6.54158E-18
 -1       321 1.14153E-05-4.22919E-05 9.80044E-06-7.34236E-06-9.57677E-19 5.27426E-18
 -1       322 1.08337E-04-2.26778E-05-3.68103E-05-1.49437E-05-2.08878E-18-8.23356E-19
 -1       323 1.14093E-04-2.59829E-05-3.78711E-05-1.79961E-05-2.71870E-18 8.11855E-19
 -1       324 9.63542E-05-2.00533E-05-3.27800E-05-1.71345E-06-3.50989E-20-2.37300E-18
 -1       325 8.53329E-05-1.60061E-05-2.97700E-05 6.18435E-06 9.65393E-19-2.97997E-18
 -1       326 7.00485E-05-8.51260E-06-2.63683E-05 1.19025E-05 1.64582E-18-3.66216E-18
 -1       327 5.35418E-05 8.09267E-07-2.32332E-05 1.25055E-05 1.84259E-18-4.51175E-18
 -1       328 4.31801E-05 7.15256E-06-2.14942E-05 6.98564E-06 1.45442E-18-5.07733E-18
 -1       329 4.46354E-05 6.58601E-06-2.18698E-05-1.34032E-06 7.58382E-19-4.91847E-18
 -1       330 5.79468E-05-8.83151E-07-2.44193E-05-6.34027E-06 3.13922E-19-4.07237E-18
 -1       331 7.66635E-05-1.07114E-05-2.82852E-05-4.96452E-06 4.82537E-19-2.63388E-18
 -1       332 9.43500E-05-1.87697E-05-3.24600E-05 1.17242E-06 1.10875E-18-1.09380E-18
 -1       333 1.08935E-04-2.44389E-05-3.63285E-05 8.34456E-06 1.92002E-18 6.39960E-19
 -1       334 1.21378E-04-2.97457E-05-3.94397E-05 1.30157E-05 2.51408E-18 3.13238E-18
 -1       335 1.29264E-04-3.52810E-05-4.04095E-05 1.15553E-05 2.50128E-18 5.43667E-18
 -1       336 1.27202E-04-3.87956E-05-3.78864E-05 9.40851E-06 1.69782E-18 5.22037E-18
 -1       337 1.14687E-04-3.35437E-05-3.47426E-05-1.31156E-05-2.21322E-18 1.64560E-18
 -1       338 1.11201E-04-3.33387E-05-3.33478E-05-1.21532E-05-1.83322E-18 1.46546E-18
 -1       339 1.07289E-04-3.13179E-05-3.25386E-05-1.13497E-05-1.60125E-18 1.38473E-18
 -1       340 1.03424E-04-2.85384E-05-3.20733E-05-8.76727E-06-1.60487E-18 7.99250E-19
 -1       341 1.00677E-04-2.64337E-05-3.18007E-05-3.93596E-06-1.64637E-18 2.15122E-20
 -1       342 1.00024E-04-2.62464E-05-3.16058E-05 1.89667E-06-1.19703E-18-7.36077E-19
 -1       343 1.01434E-04-2.80436E-05-3.14416E-05 6.57266E-06-1.05799E-18-1.49101E-18
 -1       344 1.03855E-04-3.07452E-05-3.13262E-05 8.55003E-06-1.07069E-18-1.99742E-18
 -1       345 1.05979E-04-3.29939E-05-3.12819E-05 7.76243E-06-1.19126E-18-2.54391E-18
 -1       346 1.07066E-04-3.40907E-05-3.12852E-05 5.26283E-06-4.09018E-19-2.30662E-18
 -1       347 1.07059E-04-3.40950E-05-3.12839E-05 2.30075E-06-1.11451E-19-2.02793E-18
 -1       348 1.06260E-04-3.34256E-05-3.12281E-05-2.65773E-07 2.80402E-19-1.69008E-18
 -1       349 1.05026E-04-3.24984E-05-3.10933E-05-2.07247E-06 3.77006E-19-1.24079E-18
 -1       350 1.03628E-04-3.15803E-05-3.08836E-05-3.10254E-06-1.98807E-19-1.37568E-18
 -1       351 1.02235E-04-3.07940E-05-3.06203E-05-3.50612E-06-5.21954E-19-1.28138E-18
 -1       352 1.00941E-04-3.01709E-05-3.03304E-05-3.47620E-06-5.62252E-19-1.76373E-18
 -1       353 9.97914E-05-2.96986E-05-3.00385E-05-3.18575E-06-4.37241E-19-2.02700E-18
 -1       354 9.88023E-05-2.93500E-05-2.97632E-05-2.76606E-06 5.55977E-20-1.82537E-18
 -1       355 9.79736E-05-2.90972E-05-2.95161E-05-2.30620E-06 8.18675E-19-1.32880E-18
 -1       356 9.72950E-05-2.89163E-05-2.93028E-05-1.86082E-06 3.95320E-19-3.67348E-19
 -1       357 9.67510E-05-2.87886E-05-2.91246E-05-1.45962E-06 5.73059E-19-3.90744E-19
 -1       358 9.63237E-05-2.86998E-05-2.89799E-05-1.11557E-06 2.98377E-19-1.63875E-19
 -1       359 9.59948E-05-2.86393E-05-2.88651E-05-8.31232E-07 1.92130E-19-3.97010E-19
 -1       360 9.57467E-05-2.85993E-05-2.87763E-05-6.03186E-07 9.36195E-19-1.40239E-18
 -1       361 9.55637E-05-2.85738E-05-2.87090E-05-4.25003E-07-2.84474E-20-8.79630E-19
 -1       362 9.54319E-05-2.85585E-05-2.86593E-05-2.89116E-07-5.58566E-19-1.09069E-18
 -1       363 9.53397E-05-2.85502E-05-2.86235E-05-1.87940E-07-2.70413E-20-1.42460E-18
 -1       364 9.52773E-05-2.85467E-05-2.85984E-05-1.14475E-07-2.72716E-19-9.22579E-19
 -1       365 9.52369E-05-2.85462E-05-2.85815E-05-6.26055E-08-4.98373E-19-4.40965E-19
 -1       366 9.52126E-05-2.85475E-05-2.85706E-05-2.71837E-08 4.67283E-19-1.51225E-19
 -1       367 9.51994E-05-2.85498E-05-2.85640E-05-4.00652E-09 9.17609E-19 4.55914E-19
 -1       368 9.51939E-05-2.85526E-05-2.85605E-05 1.02725E-08 2.86382E-19 8.40146E-19
 -1       369 9.51934E-05-2.85554E-05-2.85591E-05 1.82576E-08-3.23549E-19 5.77722E-20
 -1       370 9.51959E-05-2.85582E-05-2.85590E-05 2.19318E-08 1.02716E-18 8.34032E-19
 -1       371 9.52000E-05-2.85607E-05-2.85597E-05 2.27725E-08-5.02880E-19 2.48100E-18
 -1       372 9.52050E-05-2.85629E-05-2.85609E-05 2.18551E-08 7.57569E-19 3.34960E-18
 -1       373 9.52101E-05-2.85647E-05-2.85623E-05 1.99418E-08 6.39522E-20 1.94203E-18
 -1       374 9.52150E-05-2.85663E-05-2.85637E-05 1.75555E-08-5.05805E-19 2.23342E-18
 -1       375 9.52194E-05-2.85675E-05-2.85651E-05 1.50393E-08-2.46603E-18 2.46911E-18
 -1       376 9.52233E-05-2.85686E-05-2.85663E-05 1.26040E-08-1.70325E-18 3.01351E-18
 -1       377 9.52267E-05-2.85694E-05-2.85674E-05 1.03631E-08 1.05723E-18 2.04017E-18
 -1       378 9.52295E-05-2.85701E-05-2.85683E-05 8.36037E-09 2.77956E-18 2.10728E-18
 -1       379 9.52318E-05-2.85706E-05-2.85691E-05 6.58809E-09 2.27880E-18-5.60444E-19
 -1       380 9.52337E-05-2.85711E-05-2.85697E-05 5.00479E-09-5.39900E-19 4.40398E-19
 -1       381 9.52351E-05-2.85715E-05-2.85701E-05 3.55138E-09 1.43015E-18-2.28866E-19
 -1       382 9.52361E-05-2.85717E-05-2.85705E-05 2.27363E-09 6.89421E-19 1.36298E-18
 -1       383 1.24258E-04-3.92740E-05-3.63998E-05 1.14626E-05 1.07381E-18 4.64535E-18
 -1       384 1.19919E-04-3.72400E-05-3.54306E-05 1.44693E-05 1.53120E-18 4.17700E-18
 -1       385 1.14131E-04-3.28548E-05-3.48516E-05 1.44809E-05 1.52327E-18 3.62723E-18
 -1       386 1.08691E-04-2.81395E-05-3.45566E-05 8.85475E-06 1.45311E-18 2.10309E-18
 -1       387 1.06665E-04-2.65833E-05-3.43543E-05-9.30926E-07 1.78140E-18 4.26888E-19
 -1       388 1.09045E-04-2.94309E-05-3.41402E-05-9.41780E-06 1.76205E-18-4.00144E-19
 -1       389 1.13382E-04-3.40984E-05-3.39853E-05-1.21758E-05 1.41853E-18-1.61880E-18
 -1       390 1.16507E-04-3.72892E-05-3.39605E-05-9.43744E-06 8.56784E-19-1.82862E-18
 -1       391 1.17199E-04-3.79798E-05-3.39742E-05-4.30108E-06 3.90052E-19-1.83761E-18
 -1       392 1.15914E-04-3.69615E-05-3.38644E-05 4.72555E-07 1.28226E-19-1.90713E-18
 -1       393 1.13559E-04-3.53250E-05-3.35523E-05 3.66896E-06-1.82127E-19-1.11097E-18
 -1       394 1.10832E-04-3.37344E-05-3.30563E-05 5.24536E-06 4.13565E-20-2.02855E-18
 -1       395 1.08130E-04-3.24273E-05-3.24498E-05 5.63274E-06-4.15146E-19-1.48599E-18
 -1       396 1.05651E-04-3.14245E-05-3.18113E-05 5.31055E-06-2.63789E-19-8.75038E-19
 -1       397 1.03481E-04-3.06728E-05-3.12000E-05 4.64610E-06 1.26554E-19-5.74374E-19
 -1       398 1.01643E-04-3.01107E-05-3.06516E-05 3.87293E-06 2.75533E-19 7.65698E-19
 -1       399 1.00126E-04-2.96892E-05-3.01818E-05 3.12036E-06-4.83266E-19-4.82648E-19
 -1       400 9.89008E-05-2.93725E-05-2.97930E-05 2.44966E-06 2.82651E-19-8.84531E-19
 -1       401 9.79308E-05-2.91350E-05-2.94798E-05 1.88233E-06-4.02359E-19-1.12551E-18
 -1       402 9.71764E-05-2.89581E-05-2.92330E-05 1.41876E-06 8.73609E-19-1.63808E-18
 -1       403 9.65997E-05-2.88279E-05-2.90423E-05 1.04943E-06-4.63497E-19-1.74981E-18
 -1       404 9.61666E-05-2.87334E-05-2.88978E-05 7.61064E-07-3.17509E-19-1.63920E-18
 -1       405 9.58472E-05-2.86663E-05-2.87902E-05 5.39854E-07-2.78453E-19-1.63106E-18
 -1       406 9.56165E-05-2.86198E-05-2.87116E-05 3.72987E-07 9.41583E-19-1.11626E-18
 -1       407 9.54536E-05-2.85887E-05-2.86555E-05 2.49250E-07 4.50411E-19-2.95076E-19
 -1       408 9.53419E-05-2.85688E-05-2.86164E-05 1.59181E-07-8.47021E-19-9.57456E-19
 -1       409 9.52681E-05-2.85570E-05-2.85900E-05 9.49875E-08-5.78489E-19-1.15562E-18
 -1       410 9.52217E-05-2.85507E-05-2.85730E-05 5.03776E-08 2.43649E-19-1.52250E-18
 -1       411 9.51949E-05-2.85483E-05-2.85626E-05 2.03486E-08-1.11253E-18-2.19871E-18
 -1       412 9.51814E-05-2.85482E-05-2.85569E-05 9.82458E-10-5.53908E-20-1.63453E-18
 -1       413 9.51769E-05-2.85497E-05-2.85544E-05-1.07455E-08 8.46903E-19-4.87989E-19
 -1       414 9.51780E-05-2.85519E-05-2.85540E-05-1.71356E-08 1.36572E-18-4.75027E-19
 -1       415 9.51826E-05-2.85545E-05-2.85549E-05-1.99097E-08 1.66990E-18-2.53925E-18
 -1       416 9.51888E-05-2.85572E-05-2.85564E-05-2.03336E-08 7.81605E-20-3.39338E-18
 -1       417 9.51957E-05-2.85597E-05-2.85583E-05-1.93195E-08-9.47577E-19-4.96131E-18
 -1       418 9.52026E-05-2.85619E-05-2.85603E-05-1.75081E-08-1.15795E-18-4.54078E-18
 -1       419 9.52091E-05-2.85639E-05-2.85622E-05-1.53362E-08-1.11795E-18-2.36168E-19
 -1       420 9.52149E-05-2.85656E-05-2.85640E-05-1.30881E-08-7.21610E-19-8.65709E-21
 -1       421 9.52199E-05-2.85670E-05-2.85655E-05-1.09368E-08-7.19565E-21 6.97022E-19
 -1       422 9.52242E-05-2.85681E-05-2.85669E-05-8.97426E-09-2.07190E-19-1.15716E-18
 -1       423 9.52277E-05-2.85691E-05-2.85680E-05-7.23363E-09 1.18613E-18-1.42864E-18
 -1       424 9.52306E-05-2.85699E-05-2.85689E-05-5.70503E-09 8.58917E-20 6.11598E-19
 -1       425 9.52329E-05-2.85705E-05-2.85696E-05-4.34657E-09-3.88133E-19 4.12399E-19
 -1       426 9.52346E-05-2.85710E-05-2.85701E-05-3.10027E-09 7.17043E-19-1.02144E-18
 -1       427 9.52360E-05-2.85714E-05-2.85705E-05-1.91776E-09 1.51149E-18 5.76107E-19
 -1       428 9.52366E-05-2.85716E-05-2.85707E-05-1.26229E-09-6.42735E-20 3.62337E-18
 -1       429 9.52381E-05-2.85748E-05-2.85700E-05-3.61658E-09-1.22325E-18-2.55526E-18
 -1       430 9.52373E-05-2.85734E-05-2.85702E-05-3.13418E-09-4.69785E-19-5.72111E-19
 -1       431 9.52368E-05-2.85724E-05-2.85705E-05-2.26015E-09-9.78685E-19 5.13767E-18
 -1       432 9.52388E-05-2.85761E-05-2.85697E-05-3.54675E-09-1.73964E-18-9.08094E-18
 -1       433 9.52395E-05-2.85773E-05-2.85695E-05-2.95597E-09-1.44016E-18-3.15476E-18
 -1       434 9.52400E-05-2.85782E-05-2.85693E-05-1.94688E-09-1.96958E-18 2.62876E-18
 -1       435 9.52403E-05-2.85787E-05-2.85692E-05-6.71416E-10-2.54416E-18 3.76622E-18
 -1       436 9.52403E-05-2.85787E-05-2.85692E-05 6.94359E-10-6.79643E-19 4.06175E-18
 -1       437 9.52400E-05-2.85782E-05-2.85693E-05 1.96665E-09-1.17059E-18-1.77040E-18
 -1       438 9.52395E-05-2.85773E-05-2.85695E-05 2.95643E-09-5.37716E-20-1.54725E-18
 -1       439 9.52388E-05-2.85761E-05-2.85697E-05 3.54808E-09 5.82148E-19 7.16785E-19
 -1       440 9.52381E-05-2.85747E-05-2.85700E-05 3.61265E-09-3.53748E-19-6.58741E-19
 -1       441 9.52372E-05-2.85733E-05-2.85703E-05 3.13295E-09-1.17613E-18-1.89983E-18
 -1       442 6.47867E-05-3.89002E-05-1.09060E-05 4.38993E-05-1.27097E-18 3.06245E-18
 -1       443 1.13627E-05-1.88848E-05 2.89489E-06-1.19993E-06 1.22318E-18 6.52152E-18
 -1       444 2.60858E-05-2.04731E-05-2.18302E-06 2.61903E-05-5.77200E-19 6.90406E-18
 -1       445 9.87145E-05-5.15239E-05-2.03160E-05 4.13202E-05 1.98417E-19 7.80819E-19
 -1       446 1.34726E-04-5.16401E-05-3.55702E-05 2.72041E-05 2.83417E-18 1.26631E-19
 -1       447 1.03629E-04-2.18814E-05-3.51258E-05-9.24681E-06-1.17783E-18-1.76928E-18
 -1       448 1.61965E-04-2.65814E-05-5.76814E-05 3.63518E-06 6.48107E-18-1.64261E-18
 -1       449 1.60080E-04-1.56302E-05-6.17174E-05 1.68496E-06 8.03675E-18-1.53051E-18
 -1       450 1.59500E-04-1.85408E-05-6.02783E-05 7.15489E-06 7.51837E-18-5.99488E-19
 -1       451 1.59521E-04-3.41701E-05-5.34872E-05 6.64207E-07 6.42946E-18-1.50486E-18
 -1       452 1.46858E-04-4.58970E-05-4.31627E-05-1.10214E-05 4.72991E-18-2.16893E-18
 -1       453 1.15745E-04-4.93763E-05-2.85419E-05-2.84600E-05 2.44761E-18-3.53430E-18
 -1       454 7.42793E-05-3.63621E-05-1.65528E-05-3.77736E-05 2.73073E-18-6.49213E-18
 -1       455 3.82708E-05-2.06797E-05-7.66333E-06-3.21516E-05 1.23159E-18-7.46972E-18
 -1       456 1.27075E-05-9.17241E-06-1.67457E-06-1.41175E-05 1.03195E-18-8.48229E-18
 -1       457 8.45268E-06-5.65470E-06-1.28991E-06 1.07724E-05 5.48189E-19-8.32083E-18
 -1       458 2.43772E-05-1.37727E-05-4.69749E-06 2.98642E-05-2.63110E-19-7.58518E-18
 -1       459 5.61372E-05-2.58947E-05-1.30360E-05 4.07503E-05-3.63271E-19-6.13580E-18
 -1       460 1.03801E-04-4.19777E-05-2.64341E-05 3.49833E-05-1.90582E-18-3.68692E-18
 -1       461 1.29721E-04-4.43321E-05-3.67185E-05 2.12661E-05-3.70270E-18-2.23850E-18
 -1       462 1.46993E-04-3.52074E-05-4.80718E-05 1.82371E-06-5.39748E-18-7.50789E-19
 -1       463 1.55913E-04-1.89857E-05-5.85092E-05-3.26623E-06-7.34854E-18-2.10339E-18
 -1       464 1.53628E-04-1.14803E-05-6.08068E-05-3.36119E-06-7.29422E-18-2.59684E-18
 -1       465 1.55561E-04-1.62229E-05-5.95357E-05-1.95270E-06-6.14035E-18-2.60966E-18
 -1       466 1.54116E-04-3.06616E-05-5.27331E-05-8.47193E-06-4.95901E-18-1.69131E-18
 -1       467 1.44769E-04-4.23917E-05-4.36854E-05-1.89412E-05-3.75418E-18-7.29719E-19
 -1       468 1.18614E-04-5.01006E-05-2.94296E-05-3.52583E-05-1.59899E-18 9.80123E-19
 -1       469 8.88554E-05-4.63304E-05-1.82716E-05-4.41701E-05-4.47975E-19 2.92020E-18
 -1       470 4.91943E-05-3.31165E-05-6.95748E-06-4.17557E-05 1.20395E-18 5.27659E-18
 -1       471 2.46536E-05-2.32846E-05-7.18260E-07-2.80016E-05 8.95473E-19 6.04464E-18
 -1       472 1.53740E-04-4.15988E-05-4.79255E-05 1.07197E-05 4.60565E-18-1.51322E-18
 -1       473 1.41713E-04-1.10315E-05-5.64695E-05 5.13351E-06 7.47687E-18-2.80454E-19
 -1       474 1.24723E-04-4.04530E-05-3.61259E-05 1.15920E-05 1.36603E-18 3.03431E-18
 -1       475 8.50630E-05-2.14262E-05-2.72061E-05 1.38102E-05 1.78699E-18-2.50308E-18
 -1       476 1.00259E-04-2.81246E-05-3.09207E-05 3.12461E-06 7.51040E-19-1.73318E-18
 -1       477 4.37639E-05 3.13162E-06-1.98855E-05 1.50597E-05 2.07583E-18-5.37510E-18
 -1       478 3.61857E-05 7.88588E-06-1.86640E-05 2.32458E-06 1.05679E-18-5.84020E-18
 -1       479 4.74703E-05 1.11350E-06-2.06328E-05-9.63757E-06-8.93355E-21-5.05282E-18
 -1       480 7.02650E-05-1.22006E-05-2.47894E-05-1.21770E-05-3.47379E-19-3.27891E-18
 -1       481 9.26670E-05-2.38533E-05-2.94628E-05-5.64772E-06 9.98655E-20-1.38790E-18
 -1       482 1.09378E-04-3.11253E-05-3.35406E-05 3.67802E-06 1.05168E-18 4.18050E-19
 -1       483 1.26013E-04-4.19738E-05-3.60403E-05 1.53764E-05 1.28341E-18 3.29635E-18
 -1       484 1.14603E-04-3.39360E-05-3.45685E-05-1.49206E-05-1.85738E-18 5.83683E-19
 -1       485 1.44257E-04-3.44302E-05-4.74866E-05-8.62645E-06 4.18789E-18-3.33932E-18
 -1       486 1.13202E-04-3.33398E-05-3.42202E-05-1.50582E-05-1.64133E-18 1.03459E-18
 -1       487 1.09938E-04-2.96662E-05-3.44034E-05-1.37676E-05-1.97598E-18 1.02359E-18
 -1       488 1.06214E-04-2.52115E-05-3.47189E-05-9.22031E-06-2.38113E-18 6.59157E-19
 -1       489 1.04064E-04-2.29952E-05-3.47647E-05-1.78728E-06-2.43088E-18-3.56756E-19
 -1       490 1.04820E-04-2.49000E-05-3.42717E-05 5.54132E-06-2.08393E-18-1.57346E-18
 -1       491 1.07412E-04-2.95936E-05-3.33592E-05 9.67534E-06-1.53508E-18-2.51227E-18
 -1       492 1.09656E-04-3.41608E-05-3.23596E-05 9.59101E-06-1.21628E-18-2.41988E-18
 -1       493 1.10206E-04-3.66344E-05-3.15346E-05 6.66663E-06-6.40893E-19-1.96052E-18
 -1       494 1.09104E-04-3.68384E-05-3.09770E-05 2.85423E-06 3.41389E-19-1.34205E-18
 -1       495 1.07080E-04-3.56076E-05-3.06385E-05-5.08491E-07 4.69502E-19-8.05162E-19
 -1       496 1.04838E-04-3.38559E-05-3.04270E-05-2.88420E-06 9.98891E-20-1.05715E-18
 -1       497 1.02790E-04-3.21746E-05-3.02677E-05-4.25210E-06-8.43528E-21-1.18300E-18
 -1       498 1.01087E-04-3.08211E-05-3.01157E-05-4.81070E-06-2.20145E-19-4.98971E-19
 -1       499 9.97333E-05-2.98426E-05-2.99537E-05-4.80539E-06-8.07328E-19-4.26599E-19
 -1       500 9.86788E-05-2.91887E-05-2.97811E-05-4.45277E-06-6.86221E-19-8.65233E-19
 -1       501 9.78611E-05-2.87807E-05-2.96051E-05-3.91799E-06-4.16808E-19-6.53288E-19
 -1       502 9.72264E-05-2.85445E-05-2.94341E-05-3.31567E-06 8.15503E-19-3.80849E-19
 -1       503 9.67330E-05-2.84213E-05-2.92754E-05-2.71898E-06 8.37273E-19-1.25766E-18
 -1       504 9.63495E-05-2.83688E-05-2.91336E-05-2.17024E-06 8.67388E-19-9.97992E-19
 -1       505 9.60527E-05-2.83581E-05-2.90111E-05-1.69033E-06 4.99862E-19-4.77585E-19
 -1       506 9.58246E-05-2.83704E-05-2.89082E-05-1.28605E-06 6.81371E-20-9.36718E-19
 -1       507 9.56511E-05-2.83938E-05-2.88240E-05-9.55618E-07-4.88795E-19-1.67152E-18
 -1       508 9.55207E-05-2.84212E-05-2.87565E-05-6.92427E-07 3.21735E-19-2.69412E-18
 -1       509 9.54243E-05-2.84485E-05-2.87036E-05-4.87664E-07-6.29043E-20-2.69373E-18
 -1       510 9.53544E-05-2.84735E-05-2.86630E-05-3.31902E-07 7.82576E-20-1.19357E-18
 -1       511 9.53048E-05-2.84952E-05-2.86325E-05-2.16080E-07-2.16867E-20-2.02696E-19
 -1       512 9.52705E-05-2.85134E-05-2.86101E-05-1.32016E-07-4.93561E-19 3.88128E-19
 -1       513 9.52477E-05-2.85282E-05-2.85940E-05-7.26433E-08 4.71515E-19 1.02358E-18
 -1       514 9.52333E-05-2.85400E-05-2.85828E-05-3.20540E-08 4.61846E-19 1.40663E-18
 -1       515 9.52248E-05-2.85491E-05-2.85753E-05-5.44292E-09 6.67883E-20 4.23421E-19
 -1       516 9.52205E-05-2.85560E-05-2.85705E-05 1.10078E-08-4.26302E-19-4.14261E-19
 -1       517 9.52190E-05-2.85612E-05-2.85676E-05 2.02660E-08 1.04945E-18 7.72861E-19
 -1       518 9.52192E-05-2.85649E-05-2.85661E-05 2.45912E-08 9.28215E-19 2.71917E-18
 -1       519 9.52206E-05-2.85676E-05-2.85656E-05 2.56669E-08 5.40636E-19 1.74324E-18
 -1       520 9.52224E-05-2.85694E-05-2.85656E-05 2.47192E-08-1.17830E-18 9.74862E-19
 -1       521 9.52245E-05-2.85706E-05-2.85660E-05 2.26172E-08-2.74988E-19 1.20726E-18
 -1       522 9.52267E-05-2.85714E-05-2.85666E-05 1.99577E-08-6.86242E-19 2.77199E-18
 -1       523 9.52287E-05-2.85719E-05-2.85672E-05 1.71323E-08-1.62782E-18 4.33673E-18
 -1       524 9.52305E-05-2.85721E-05-2.85679E-05 1.43810E-08-8.38606E-19 4.21390E-18
 -1       525 9.52320E-05-2.85723E-05-2.85685E-05 1.18333E-08 1.26154E-18 3.06314E-18
 -1       526 9.52334E-05-2.85724E-05-2.85690E-05 9.53986E-09-2.32701E-19 8.57706E-19
 -1       527 9.52346E-05-2.85725E-05-2.85695E-05 7.49451E-09 2.24096E-18-6.96189E-19
 -1       528 9.52356E-05-2.85726E-05-2.85699E-05 5.66001E-09 6.65638E-19 1.17469E-18
 -1       529 1.18770E-04-2.87276E-05-3.87267E-05 1.67118E-05 2.67300E-18 3.07669E-18
 -1       530 1.14162E-04-2.18466E-05-3.97354E-05 5.96933E-06 3.37802E-18 1.19240E-18
 -1       531 1.14703E-04-2.38491E-05-3.91059E-05-7.44044E-06 2.93535E-18-1.26409E-18
 -1       532 1.19001E-04-3.27488E-05-3.70919E-05-1.42318E-05 2.05976E-18-2.32488E-18
 -1       533 1.21611E-04-4.03376E-05-3.48832E-05-1.21142E-05 1.05489E-18-2.36440E-18
 -1       534 1.20198E-04-4.24831E-05-3.33351E-05-5.52911E-06 5.11489E-19-2.12528E-18
 -1       535 1.16292E-04-4.05750E-05-3.24714E-05 9.34685E-07-1.16017E-19-1.47628E-18
 -1       536 1.11892E-04-3.72256E-05-3.20180E-05 5.32053E-06-4.28106E-19-9.40619E-19
 -1       537 1.08106E-04-3.41498E-05-3.17075E-05 7.54083E-06 2.26577E-19-9.11568E-19
 -1       538 1.05159E-04-3.18897E-05-3.14066E-05 8.17057E-06-5.62713E-20-7.43282E-20
 -1       539 1.02934E-04-3.04242E-05-3.10763E-05 7.82261E-06-1.02413E-18-5.39661E-19
 -1       540 1.01238E-04-2.95434E-05-3.07243E-05 6.97108E-06-3.94433E-19-5.35732E-19
 -1       541 9.99174E-05-2.90396E-05-3.03729E-05 5.92642E-06-2.72284E-19-1.93311E-19
 -1       542 9.88691E-05-2.87614E-05-3.00426E-05 4.87126E-06 4.52784E-19 1.67330E-19
 -1       543 9.80293E-05-2.86123E-05-2.97468E-05 3.90137E-06 1.81503E-19-7.42838E-19
 -1       544 9.73563E-05-2.85353E-05-2.94918E-05 3.05835E-06 4.66699E-20-7.57598E-19
 -1       545 9.68206E-05-2.84984E-05-2.92785E-05 2.35246E-06 3.92567E-19-1.32303E-18
 -1       546 9.63987E-05-2.84836E-05-2.91046E-05 1.77726E-06 9.11490E-20-1.17337E-18
 -1       547 9.60712E-05-2.84810E-05-2.89657E-05 1.31857E-06-9.65418E-19-1.01974E-18
 -1       548 9.58208E-05-2.84852E-05-2.88570E-05 9.59485E-07-4.38961E-19-8.34100E-19
 -1       549 9.56327E-05-2.84929E-05-2.87733E-05 6.83088E-07-3.16309E-19-4.31903E-19
 -1       550 9.54940E-05-2.85022E-05-2.87102E-05 4.73837E-07-2.70457E-19 9.18582E-19
 -1       551 9.53941E-05-2.85119E-05-2.86633E-05 3.18110E-07-4.84223E-19 7.99036E-19
 -1       552 9.53238E-05-2.85214E-05-2.86293E-05 2.04349E-07 1.17941E-19 5.89261E-19
 -1       553 9.52759E-05-2.85301E-05-2.86051E-05 1.22980E-07 7.75341E-19-9.72519E-19
 -1       554 9.52445E-05-2.85379E-05-2.85884E-05 6.62199E-08-5.37151E-19-1.00472E-18
 -1       555 9.52252E-05-2.85447E-05-2.85773E-05 2.78473E-08-4.91740E-19-1.11365E-18
 -1       556 9.52143E-05-2.85505E-05-2.85702E-05 2.96539E-09-3.47403E-19-1.33887E-18
 -1       557 9.52092E-05-2.85552E-05-2.85660E-05-1.22218E-08 6.49486E-19-1.74317E-18
 -1       558 9.52080E-05-2.85591E-05-2.85638E-05-2.06117E-08 2.05817E-18-1.24264E-18
 -1       559 9.52091E-05-2.85623E-05-2.85629E-05-2.43794E-08 2.25849E-18-5.89037E-19
 -1       560 9.52116E-05-2.85647E-05-2.85630E-05-2.51287E-08-1.20507E-19-1.98841E-18
 -1       561 9.52148E-05-2.85666E-05-2.85635E-05-2.40175E-08-1.84144E-18-2.10969E-18
 -1       562 9.52182E-05-2.85680E-05-2.85644E-05-2.18619E-08-3.40573E-18-2.75831E-18
 -1       563 9.52215E-05-2.85691E-05-2.85653E-05-1.92184E-08-2.34094E-18-1.04234E-18
 -1       564 9.52246E-05-2.85699E-05-2.85663E-05-1.64503E-08-1.14279E-18-8.72937E-19
 -1       565 9.52273E-05-2.85705E-05-2.85672E-05-1.37787E-08 1.15250E-18-1.29342E-18
 -1       566 9.52297E-05-2.85710E-05-2.85680E-05-1.13208E-08 4.39848E-19-1.34000E-18
 -1       567 9.52317E-05-2.85713E-05-2.85687E-05-9.11950E-09 1.01822E-19 5.19808E-19
 -1       568 9.52334E-05-2.85716E-05-2.85693E-05-7.16692E-09-7.76259E-19 2.17298E-19
 -1       569 9.52347E-05-2.85719E-05-2.85698E-05-5.42706E-09-5.50907E-19 2.09776E-18
 -1       570 9.52359E-05-2.85722E-05-2.85702E-05-3.83178E-09-2.31230E-19 3.57269E-18
 -1       571 9.52397E-05-2.85770E-05-2.85697E-05-4.53863E-09 9.42385E-19-6.19004E-18
 -1       572 9.52406E-05-2.85781E-05-2.85697E-05-3.39232E-09-4.71150E-19 4.36313E-19
 -1       573 9.52373E-05-2.85740E-05-2.85700E-05-4.92204E-09-1.24201E-18-2.54041E-18
 -1       574 9.52386E-05-2.85756E-05-2.85699E-05-5.07722E-09-1.41889E-18-5.45910E-18
 -1       575 9.52412E-05-2.85788E-05-2.85696E-05-1.80379E-09-7.18904E-19 2.63469E-18
 -1       576 9.52414E-05-2.85790E-05-2.85696E-05 1.62745E-11-5.89475E-19 5.96775E-18
 -1       577 9.52412E-05-2.85788E-05-2.85696E-05 1.83407E-09-6.74744E-19 1.29669E-18
 -1       578 9.52406E-05-2.85781E-05-2.85697E-05 3.39224E-09 1.26216E-18-2.79962E-18
 -1       579 9.52397E-05-2.85770E-05-2.85697E-05 4.53617E-09-5.17931E-19-1.02863E-18
 -1       580 9.52386E-05-2.85756E-05-2.85699E-05 5.07057E-09-1.45543E-18 7.51217E-19
 -1       581 9.52373E-05-2.85740E-05-2.85700E-05 4.91130E-09-1.56393E-18-2.58552E-18
 -1       582 2.77421E-05-1.01012E-05-6.92111E-06 7.17702E-06-7.20309E-21 5.43202E-18
 -1       583 5.51825E-05-2.70098E-05-1.15896E-05 3.60873E-05-2.14760E-18 3.22561E-18
 -1       584 3.02642E-05-1.19446E-05-7.19015E-06-1.71989E-05 1.65852E-18 5.30772E-18
 -1       585 1.24223E-04-3.77603E-05-3.71247E-05 1.89658E-05 1.74427E-18 3.43767E-18
 -1       586 9.21609E-05-4.73592E-05-1.89434E-05 3.99474E-05-2.64915E-18 9.74181E-19
 -1       587 1.43177E-04-5.31707E-05-3.88357E-05 4.52680E-06 1.31760E-18-3.47823E-18
 -1       588 1.33264E-04-9.81061E-06-5.34367E-05-8.45629E-06-6.52681E-18-1.20162E-18
 -1       589 8.89147E-05-3.66276E-05-2.21935E-05 3.45365E-05 1.86585E-18-2.95671E-18
 -1       590 6.40067E-05-9.95777E-06-2.30164E-05 2.01623E-05 2.59008E-18-4.01011E-18
 -1       591 1.42777E-04-2.46518E-05-5.10914E-05 1.50696E-05 5.89148E-18 1.54954E-18
 -1       592 1.39836E-04-1.93600E-05-5.22217E-05-7.43589E-06 5.90297E-18-2.56066E-18
 -1       593 1.00533E-04-4.48424E-05-2.37699E-05-2.87438E-05-6.91867E-19-2.33980E-18
 -1       594 1.45658E-04-4.22840E-05-4.46077E-05 1.09747E-05 3.38125E-18 2.06025E-18
 -1       595 1.37339E-04-2.42497E-05-4.89703E-05-1.18938E-05-5.22482E-18 4.97897E-19
 -1       596 1.35369E-04-5.26822E-05-3.55894E-05-5.10940E-06 1.00921E-18 1.35208E-18
 -1       597 6.74019E-05-2.81649E-05-1.64348E-05-3.37257E-05-1.07732E-18-4.88304E-18
 -1       598 3.34079E-05-7.04626E-06-1.07706E-05-2.32122E-05-6.39351E-19-7.13901E-18
 -1       599 1.70435E-05 3.38611E-06-8.16521E-06-2.43813E-06 7.01476E-19-8.12590E-18
 -1       600 2.36299E-05-2.23754E-06-8.65011E-06 2.28348E-05 1.69917E-18-7.44420E-18
 -1       601 4.61113E-05-1.52072E-05-1.28902E-05 3.55510E-05 2.16449E-18-6.13400E-18
 -1       602 1.21819E-04-4.78320E-05-3.17096E-05 1.80883E-05-2.32034E-19-4.05835E-19
 -1       603 1.35789E-04-4.34417E-05-3.97846E-05 5.06144E-09-2.43300E-18 9.27819E-19
 -1       604 1.31564E-04-9.15992E-06-5.30098E-05 1.75799E-06-6.03384E-18-2.84549E-18
 -1       605 1.38345E-04-2.17546E-05-5.04354E-05 6.60414E-06-4.75498E-18-3.82435E-18
 -1       606 1.41940E-04-3.99336E-05-4.40646E-05 7.94971E-07-2.94902E-18-3.47956E-18
 -1       607 1.35516E-04-5.39465E-05-3.50863E-05-1.48271E-05-4.53427E-19-2.54253E-18
 -1       608 1.13969E-04-5.50732E-05-2.51497E-05-3.35331E-05 1.42296E-18-7.05856E-19
 -1       609 8.31555E-05-4.30575E-05-1.68261E-05-4.28722E-05 2.86774E-18 2.72599E-18
 -1       610 4.99326E-05-2.56205E-05-9.94354E-06-3.72357E-05 2.65000E-18 4.77970E-18
 -1       611 1.13532E-04-3.08869E-05-3.54702E-05-1.49532E-05-2.04021E-18-2.03479E-19
 -1       612 1.23083E-04-3.61156E-05-3.73238E-05 1.09848E-05 1.88936E-18 2.97385E-18
 -1       613 1.27557E-04-5.90341E-05-2.93026E-05 2.42136E-05-4.22828E-19-2.58951E-18
 -1       614 1.07718E-04-2.98097E-05-3.34553E-05-6.23751E-06-4.89916E-19-1.20889E-18
 -1       615 9.52362E-05-2.85727E-05-2.85701E-05 4.48125E-09 1.00215E-18 2.44147E-18
 -1       616 1.32653E-04-3.45568E-05-4.23166E-05-1.28326E-05-3.11637E-18 1.52135E-18
 -1       617 4.60147E-05-1.50663E-05-1.27565E-05 2.14549E-05-1.10980E-18 3.63134E-18
 -1       618 1.29623E-04-1.38426E-05-5.01934E-05-3.94111E-06 5.94718E-18-1.15952E-18
 -1       619 1.24612E-04-5.27918E-05-3.07762E-05-1.14364E-05-6.20134E-19 6.05245E-19
 -1       620 1.32563E-04-1.65840E-05-5.02553E-05 1.35088E-05 6.18440E-18 1.01133E-18
 -1       621 1.31366E-04-3.22579E-05-4.29227E-05 9.77517E-06-3.33847E-18-3.80156E-18
 -1       622 3.21079E-05 3.88618E-06-1.49657E-05-9.07310E-06 1.22357E-20-6.65294E-18
 -1       623 3.08930E-05 5.89162E-06-1.52954E-05 1.20543E-05 1.83222E-18-6.57102E-18
 -1       624 8.98348E-05-2.85836E-05-2.61059E-05-1.53960E-05-9.36514E-19-1.76900E-18
 -1       625 1.10111E-04-3.73228E-05-3.12441E-05-2.69444E-06-3.81694E-20 1.72212E-19
 -1       626 1.24807E-04-4.41011E-05-3.45592E-05 8.81717E-06 7.50478E-19 2.33749E-18
 -1       627 9.52371E-05-2.85741E-05-2.85699E-05 6.15016E-09 6.31537E-19-5.95733E-19
 -1       628 1.16044E-04-3.27003E-05-3.57741E-05-1.66490E-05-1.89286E-18 4.81221E-19
 -1       629 1.12526E-04-2.59134E-05-3.71777E-05-1.47746E-05-2.36385E-18 4.44339E-19
 -1       630 1.08544E-04-1.96731E-05-3.81433E-05-7.57239E-06-3.32538E-18 2.36809E-19
 -1       631 1.07415E-04-1.92887E-05-3.79010E-05 2.56033E-06-3.16060E-18-7.14136E-19
 -1       632 1.10973E-04-2.61043E-05-3.64016E-05 9.76250E-06-2.41431E-18-1.87830E-18
 -1       633 1.14336E-04-3.43027E-05-3.43425E-05 1.07663E-05-1.16674E-18-2.43672E-18
 -1       634 1.14936E-04-3.94655E-05-3.23543E-05 7.15322E-06-3.24132E-19-1.90296E-18
 -1       635 1.12709E-04-4.04630E-05-3.09639E-05 2.22462E-06 1.30999E-19-1.40165E-18
 -1       636 1.09053E-04-3.86929E-05-3.01593E-05-1.87544E-06 2.69587E-19-1.34311E-18
 -1       637 1.05327E-04-3.59039E-05-2.97560E-05-4.52619E-06 1.06465E-19-1.13370E-18
 -1       638 1.02222E-04-3.32029E-05-2.95815E-05-5.87671E-06 2.90656E-19-1.02442E-18
 -1       639 9.99088E-05-3.10585E-05-2.95082E-05-6.29312E-06 2.88826E-19-9.29196E-19
 -1       640 9.83017E-05-2.95547E-05-2.94633E-05-6.11383E-06-4.76495E-19-1.00551E-18
 -1       641 9.72326E-05-2.86022E-05-2.94129E-05-5.59208E-06-1.04597E-18-4.44072E-19
 -1       642 9.65397E-05-2.80632E-05-2.93468E-05-4.90213E-06-5.28897E-19-1.94108E-19
 -1       643 9.60962E-05-2.78071E-05-2.92664E-05-4.15846E-06 1.61475E-19 3.70073E-20
 -1       644 9.58127E-05-2.77306E-05-2.91777E-05-3.43275E-06 4.62902E-19 1.33923E-19
 -1       645 9.56298E-05-2.77593E-05-2.90870E-05-2.76667E-06 1.13113E-18-1.79447E-19
 -1       646 9.55100E-05-2.78431E-05-2.89998E-05-2.18128E-06 8.40506E-19-8.35421E-19
 -1       647 9.54296E-05-2.79497E-05-2.89197E-05-1.68377E-06-6.95862E-20-7.57494E-19
 -1       648 9.53744E-05-2.80600E-05-2.88489E-05-1.27251E-06-9.00957E-19-1.00083E-18
 -1       649 9.53356E-05-2.81631E-05-2.87881E-05-9.40665E-07-6.76515E-19-1.04717E-18
 -1       650 9.53078E-05-2.82538E-05-2.87373E-05-6.78721E-07 5.99882E-19-1.16029E-18
 -1       651 9.52875E-05-2.83303E-05-2.86959E-05-4.76250E-07 1.08690E-18-5.61625E-19
 -1       652 9.52726E-05-2.83927E-05-2.86627E-05-3.22982E-07 7.23523E-19-8.36186E-19
 -1       653 9.52616E-05-2.84423E-05-2.86368E-05-2.09447E-07-6.09681E-20-9.78081E-19
 -1       654 9.52536E-05-2.84808E-05-2.86169E-05-1.27304E-07 5.82027E-19 1.41271E-20
 -1       655 9.52478E-05-2.85099E-05-2.86019E-05-6.94507E-08 1.17852E-19-6.53289E-19
 -1       656 9.52436E-05-2.85315E-05-2.85909E-05-3.00108E-08 2.91979E-19-1.40187E-18
 -1       657 9.52407E-05-2.85471E-05-2.85830E-05-4.23445E-09-4.24730E-19-1.12351E-19
 -1       658 9.52387E-05-2.85581E-05-2.85774E-05 1.16344E-08 1.55624E-18 2.41295E-18
 -1       659 9.52374E-05-2.85655E-05-2.85737E-05 2.05058E-08 4.13150E-19 1.72141E-18
 -1       660 9.52366E-05-2.85704E-05-2.85712E-05 2.45891E-08-1.46204E-18-9.21230E-19
 -1       661 9.52362E-05-2.85733E-05-2.85698E-05 2.55268E-08-1.00168E-18-2.96736E-18
 -1       662 9.52360E-05-2.85750E-05-2.85690E-05 2.45125E-08-3.23320E-19 1.50242E-19
 -1       663 9.52359E-05-2.85757E-05-2.85687E-05 2.23904E-08 1.48234E-19 1.33774E-18
 -1       664 9.52360E-05-2.85759E-05-2.85686E-05 1.97381E-08-3.79285E-19 8.67558E-19
 -1       665 9.52361E-05-2.85757E-05-2.85688E-05 1.69333E-08-4.59198E-19 2.46528E-18
 -1       666 9.52363E-05-2.85753E-05-2.85690E-05 1.42063E-08-1.18120E-19 2.92061E-18
 -1       667 9.52364E-05-2.85749E-05-2.85692E-05 1.16794E-08-1.20068E-19 2.58532E-18
 -1       668 9.52367E-05-2.85745E-05-2.85695E-05 9.41033E-09-5.32246E-19 3.13600E-18
 -1       669 9.52369E-05-2.85742E-05-2.85697E-05 7.68232E-09 2.97720E-19 3.61114E-19
 -1       670 1.21100E-04-1.57623E-05-4.55513E-05-1.28261E-06 5.12211E-18-2.06530E-19
 -1       671 1.24552E-04-2.06517E-05-4.49266E-05 1.49857E-05 4.45616E-18 2.39980E-18
 -1       672 1.29716E-04-4.22943E-05-3.77293E-05-1.27196E-05 1.69792E-18-2.75912E-18
 -1       673 1.26538E-04-4.83232E-05-3.35745E-05-4.14406E-06 1.67914E-19-2.06365E-18
 -1       674 1.18961E-04-4.59849E-05-3.12876E-05 3.96167E-06-5.16599E-19-5.99314E-19
 -1       675 1.11312E-04-4.04064E-05-3.03928E-05 8.67683E-06-5.97501E-19-2.99023E-19
 -1       676 1.05539E-04-3.52538E-05-3.01273E-05 1.05191E-05-4.09957E-19-1.36915E-19
 -1       677 1.01753E-04-3.15682E-05-3.00814E-05 1.06895E-05-3.24126E-19 3.87448E-19
 -1       678 9.94579E-05-2.93192E-05-3.00602E-05 9.94589E-06-5.65801E-19 9.88938E-19
 -1       679 9.81090E-05-2.81201E-05-2.99948E-05 8.78885E-06-4.24944E-19 2.28302E-19
 -1       680 9.73039E-05-2.75832E-05-2.98792E-05 7.49609E-06-3.44077E-19-1.86673E-19
 -1       681 9.67954E-05-2.74237E-05-2.97294E-05 6.22306E-06-9.45367E-20-7.61671E-19
 -1       682 9.64462E-05-2.74591E-05-2.95646E-05 5.05279E-06 2.09104E-19-7.46881E-19
 -1       683 9.61857E-05-2.75820E-05-2.94005E-05 4.02415E-06 1.92205E-19-3.87069E-19
 -1       684 9.59799E-05-2.77337E-05-2.92475E-05 3.14884E-06-6.90369E-20-2.47971E-19
 -1       685 9.58126E-05-2.78844E-05-2.91113E-05 2.42258E-06 8.31103E-19-1.96580E-19
 -1       686 9.56758E-05-2.80207E-05-2.89944E-05 1.83252E-06-7.42998E-19-5.96105E-19
 -1       687 9.55650E-05-2.81380E-05-2.88968E-05 1.36186E-06-1.80993E-19-9.37055E-19
 -1       688 9.54765E-05-2.82356E-05-2.88172E-05 9.92755E-07-1.28120E-18 7.64359E-20
 -1       689 9.54073E-05-2.83151E-05-2.87535E-05 7.07995E-07-9.68667E-19 3.48894E-19
 -1       690 9.53542E-05-2.83787E-05-2.87036E-05 4.91896E-07-3.37577E-19 2.70302E-19
 -1       691 9.53144E-05-2.84289E-05-2.86651E-05 3.30713E-07 1.70082E-19 1.09930E-18
 -1       692 9.52852E-05-2.84679E-05-2.86359E-05 2.12733E-07 1.45434E-18 2.82865E-20
 -1       693 9.52645E-05-2.84978E-05-2.86142E-05 1.28203E-07 2.33331E-19 2.49311E-19
 -1       694 9.52501E-05-2.85204E-05-2.85984E-05 6.91521E-08-7.64916E-19-9.02978E-19
 -1       695 9.52406E-05-2.85371E-05-2.85872E-05 2.91792E-08 4.20676E-19-2.88706E-19
 -1       696 9.52347E-05-2.85494E-05-2.85794E-05 3.22775E-09 5.21097E-19-8.04102E-19
 -1       697 9.52313E-05-2.85581E-05-2.85742E-05-1.26340E-08 1.72124E-18-1.67032E-18
 -1       698 9.52296E-05-2.85642E-05-2.85709E-05-2.14140E-08 1.61668E-18-1.37821E-18
 -1       699 9.52291E-05-2.85683E-05-2.85689E-05-2.53742E-08 2.61651E-19 1.02324E-18
 -1       700 9.52293E-05-2.85710E-05-2.85679E-05-2.61842E-08-1.33846E-18 1.22405E-18
 -1       701 9.52300E-05-2.85726E-05-2.85674E-05-2.50504E-08-2.03365E-18 7.62169E-19
 -1       702 9.52308E-05-2.85735E-05-2.85674E-05-2.28228E-08-2.83507E-18-3.02415E-19
 -1       703 9.52318E-05-2.85739E-05-2.85677E-05-2.00809E-08-8.20176E-19-3.21732E-18
 -1       704 9.52327E-05-2.85739E-05-2.85681E-05-1.72022E-08 9.82296E-20-4.02694E-18
 -1       705 9.52336E-05-2.85738E-05-2.85685E-05-1.44157E-08-3.16573E-20-1.10473E-18
 -1       706 9.52345E-05-2.85737E-05-2.85689E-05-1.18424E-08 2.74471E-19-1.24336E-18
 -1       707 9.52352E-05-2.85735E-05-2.85693E-05-9.52938E-09 8.37658E-19-1.09811E-18
 -1       708 9.52359E-05-2.85734E-05-2.85696E-05-7.47439E-09-2.22032E-18-3.20572E-18
 -1       709 9.52367E-05-2.85737E-05-2.85698E-05-6.17982E-09-2.68223E-18-2.46993E-18
 -1       710 9.52428E-05-2.85797E-05-2.85699E-05-1.13716E-09 1.06554E-18 4.34556E-18
 -1       711 9.52412E-05-2.85781E-05-2.85699E-05-5.09200E-09 9.35389E-19-5.27186E-18
 -1       712 9.52428E-05-2.85797E-05-2.85699E-05 1.17932E-09-4.94350E-19 3.76663E-18
 -1       713 9.52423E-05-2.85792E-05-2.85699E-05-3.31730E-09 1.02112E-18 2.55306E-18
 -1       714 9.52423E-05-2.85792E-05-2.85699E-05 3.31965E-09-6.78178E-19 7.33944E-20
 -1       715 9.52412E-05-2.85781E-05-2.85699E-05 5.10125E-09 1.19746E-19-3.90981E-18
 -1       716 9.52397E-05-2.85767E-05-2.85698E-05 6.26297E-09-8.53281E-19-7.57799E-19
 -1       717 1.31164E-04-4.60953E-05-3.65510E-05 1.49586E-05 1.11671E-18 3.24070E-18
 -1       718 1.08659E-04-4.22246E-05-2.84430E-05 1.79778E-05 1.96133E-18-5.96190E-19
 -1       719 1.14734E-04-3.39582E-05-3.46182E-05-1.34679E-05-1.22610E-18 7.13774E-21
 -1       720 1.25971E-04-5.58574E-05-3.00809E-05-1.70511E-05 1.43380E-18-2.08041E-18
 -1       721 1.24398E-04-1.66997E-05-4.66950E-05-1.38964E-05-4.78738E-18 1.29411E-19
 -1       722 1.30801E-04-3.59946E-05-4.09241E-05 2.02878E-05 2.36867E-18 3.27140E-18
 -1       723 8.32168E-05-2.60199E-05-2.42274E-05 2.29765E-05 2.88302E-18-2.62097E-18
 -1       724 3.92258E-05-9.35443E-06-1.22603E-05-4.70470E-06 9.75037E-19 4.18334E-18
 -1       725 1.25829E-04-2.71533E-05-4.26470E-05-1.32928E-05 3.44764E-18-2.35631E-18
 -1       726 1.16985E-04-3.56151E-05-3.48994E-05-1.54227E-05-1.30936E-18 3.10661E-19
 -1       727 1.17578E-04-9.90086E-06-4.66279E-05-3.96112E-06-5.21838E-18-1.10614E-18
 -1       728 1.34316E-04-5.64714E-05-3.34515E-05 5.95704E-06-2.48875E-19-3.10352E-18
 -1       729 1.04295E-04-4.95997E-05-2.32765E-05-3.23773E-05 3.24406E-18-7.13870E-19
 -1       730 5.87818E-05-1.17890E-05-1.97781E-05-2.09370E-05-1.17501E-18-4.52993E-18
 -1       731 7.04987E-05-2.26299E-05-2.02295E-05 3.18883E-05 2.92515E-18-3.94507E-18
 -1       732 9.11064E-05-3.62964E-05-2.32365E-05-2.50027E-05-1.64131E-18-2.18570E-18
 -1       733 1.26225E-04-4.53087E-05-3.46684E-05 3.97888E-07-8.03391E-20 1.36175E-18
 -1       734 1.14438E-04-5.35432E-05-2.59722E-05 2.57908E-05-2.16870E-18-2.02118E-18
 -1       735 4.15123E-05-4.87879E-06-1.52991E-05 2.64569E-05 2.68899E-18-5.99837E-18
 -1       736 8.06711E-05-3.65688E-05-1.85969E-05 3.52653E-05-2.48882E-18 9.35813E-19
 -1       737 1.22291E-04-1.68523E-05-4.56343E-05 8.73748E-06-4.70929E-18-2.64499E-18
 -1       738 1.37331E-04-4.48819E-05-3.98912E-05-9.73420E-06 1.88155E-18-3.11020E-18
 -1       739 1.34713E-04-4.81839E-05-3.73140E-05 5.46752E-07-1.01335E-18-3.26637E-18
 -1       740 1.37738E-04-4.87103E-05-3.82708E-05 1.20951E-05 1.25569E-18 2.92232E-18
 -1       741 1.13570E-04-3.70779E-05-3.28191E-05-4.22436E-06 7.66631E-20-2.45037E-19
 -1       742 1.26813E-04-4.02969E-05-3.72722E-05-1.04595E-05-1.24404E-18 1.82874E-18
 -1       743 1.24041E-04-2.60690E-05-4.23021E-05-1.63294E-05-3.03611E-18 1.15459E-18
 -1       744 9.52384E-05-2.85755E-05-2.85698E-05-6.42884E-09-4.30310E-19-3.52813E-18
 -1       745 6.58145E-05-2.37011E-05-1.77410E-05 2.74454E-05-2.05679E-18 1.70127E-18
 -1       746 4.98464E-05-1.81983E-05-1.31039E-05-2.73595E-05 2.40181E-18 4.52591E-18
 -1       747 9.52399E-05-2.85769E-05-2.85698E-05-6.04390E-09 3.13629E-19-6.33747E-18
 -1       748 7.90791E-05-3.44966E-05-1.87735E-05-3.51553E-05 3.44243E-18 1.63001E-18
 -1       749 1.29562E-04-2.77443E-05-4.40995E-05-1.38104E-05 3.74709E-18-2.05853E-18
 -1       750 1.33894E-04-3.42218E-05-4.31775E-05 2.00567E-05 3.06475E-18 3.18688E-18
 -1       751 1.17860E-04-4.53504E-05-3.10551E-05-4.39150E-06-5.97395E-19 8.26734E-19
 -1       752 1.19713E-04-3.08576E-05-3.82016E-05-1.77019E-05-1.98897E-18 1.18368E-18
 -1       753 1.14465E-04-1.99660E-05-4.07520E-05-1.41338E-05-3.16023E-18 5.74646E-19
 -1       754 1.21079E-04-4.23261E-05-3.38474E-05 6.77606E-06-2.82492E-19-2.81865E-18
 -1       755 1.17561E-04-4.50113E-05-3.11021E-05 1.03097E-08 7.87552E-19-1.83158E-18
 -1       756 1.11592E-04-4.24215E-05-2.96482E-05-4.99716E-06 5.31860E-19-1.31267E-18
 -1       757 1.05877E-04-3.82817E-05-2.89693E-05-7.61664E-06 6.69974E-19-8.88981E-19
 -1       758 1.01440E-04-3.43307E-05-2.87619E-05-8.44537E-06 6.00976E-19-5.89465E-19
 -1       759 9.83978E-05-3.12666E-05-2.87706E-05-8.26605E-06 2.42408E-19-3.54623E-19
 -1       760 9.64946E-05-2.91705E-05-2.88531E-05-7.58314E-06-6.56763E-20-8.16839E-19
 -1       761 9.54043E-05-2.78827E-05-2.89377E-05-6.68736E-06-6.34871E-19-5.18223E-19
 -1       762 9.48475E-05-2.71912E-05-2.89954E-05-5.73472E-06-4.93731E-19-1.63809E-19
 -1       763 9.46178E-05-2.69048E-05-2.90197E-05-4.80832E-06 9.00190E-20 6.07652E-19
 -1       764 9.45746E-05-2.68736E-05-2.90146E-05-3.95232E-06 4.63118E-19 3.66726E-19
 -1       765 9.46278E-05-2.69896E-05-2.89877E-05-3.18889E-06 7.07858E-19 2.88486E-20
 -1       766 9.47228E-05-2.71795E-05-2.89470E-05-2.52695E-06 3.69989E-19 4.32542E-19
 -1       767 9.48281E-05-2.73959E-05-2.88994E-05-1.96677E-06 7.11439E-19-2.50557E-19
 -1       768 9.49272E-05-2.76103E-05-2.88500E-05-1.50292E-06 2.54299E-20-1.42863E-20
 -1       769 9.50125E-05-2.78067E-05-2.88025E-05-1.12652E-06-7.69436E-19 4.76419E-19
 -1       770 9.50819E-05-2.79777E-05-2.87589E-05-8.26867E-07-8.25436E-20 4.51084E-20
 -1       771 9.51357E-05-2.81210E-05-2.87205E-05-5.92750E-07 6.95982E-19 1.80624E-19
 -1       772 9.51758E-05-2.82378E-05-2.86877E-05-4.13244E-07 6.11791E-19-3.69295E-19
 -1       773 9.52047E-05-2.83304E-05-2.86604E-05-2.78263E-07-3.59124E-19-1.54361E-19
 -1       774 9.52245E-05-2.84022E-05-2.86381E-05-1.78855E-07-5.71696E-19 2.45439E-19
 -1       775 9.52375E-05-2.84566E-05-2.86204E-05-1.07323E-07-3.41977E-19-4.87306E-19
 -1       776 9.52454E-05-2.84969E-05-2.86065E-05-5.72227E-08-5.61619E-19-8.17414E-19
 -1       777 9.52497E-05-2.85261E-05-2.85958E-05-2.32791E-08 1.05429E-18-1.48233E-18
 -1       778 9.52515E-05-2.85466E-05-2.85878E-05-1.26632E-09 1.89316E-18-4.99599E-19
 -1       779 9.52516E-05-2.85605E-05-2.85819E-05 1.21360E-08 8.53907E-20-1.98002E-18
 -1       780 9.52508E-05-2.85696E-05-2.85776E-05 1.94868E-08-1.29110E-18-1.50885E-18
 -1       781 9.52494E-05-2.85752E-05-2.85747E-05 2.27198E-08-2.00693E-18-9.05047E-19
 -1       782 9.52477E-05-2.85782E-05-2.85726E-05 2.32668E-08 1.57811E-18 1.93743E-21
 -1       783 9.52460E-05-2.85796E-05-2.85713E-05 2.21633E-08 2.18863E-19 1.70599E-18
 -1       784 9.52444E-05-2.85799E-05-2.85705E-05 2.01384E-08 9.06151E-19 2.14827E-18
 -1       785 9.52429E-05-2.85795E-05-2.85700E-05 1.76878E-08-2.43577E-19 2.43224E-18
 -1       786 9.52417E-05-2.85787E-05-2.85698E-05 1.51332E-08-2.58375E-20 1.30772E-18
 -1       787 9.52406E-05-2.85778E-05-2.85697E-05 1.26723E-08 9.20364E-20 9.07094E-19
 -1       788 9.52398E-05-2.85770E-05-2.85698E-05 1.04102E-08-8.29458E-19 7.45463E-19
 -1       789 1.01646E-04-3.60004E-05-2.81241E-05 1.51163E-05-7.22023E-19-2.83806E-19
 -1       790 9.70869E-05-3.08334E-05-2.83930E-05 1.37532E-05-3.25800E-19 5.54375E-19
 -1       791 9.49133E-05-2.78380E-05-2.87461E-05 1.19111E-05-7.61707E-19 5.00621E-19
 -1       792 9.40509E-05-2.63440E-05-2.90173E-05 1.01280E-05-9.59447E-20 4.70047E-19
 -1       793 9.38733E-05-2.57850E-05-2.91802E-05 8.49514E-06 6.49182E-20 1.66759E-19
 -1       794 9.40029E-05-2.57533E-05-2.92493E-05 7.03401E-06 4.89228E-19-4.86764E-19
 -1       795 9.42384E-05-2.59885E-05-2.92496E-05 5.74552E-06 4.91403E-19-7.01174E-19
 -1       796 9.44822E-05-2.63349E-05-2.92056E-05 4.62681E-06-9.41109E-20-4.84262E-19
 -1       797 9.46935E-05-2.67055E-05-2.91374E-05 3.67164E-06-3.45761E-19-1.10973E-18
 -1       798 9.48608E-05-2.70557E-05-2.90591E-05 2.86990E-06 3.32637E-19-8.20471E-19
 -1       799 9.49861E-05-2.73655E-05-2.89801E-05 2.20834E-06 5.86262E-19-6.29815E-19
 -1       800 9.50764E-05-2.76289E-05-2.89059E-05 1.67155E-06-1.59969E-19-3.87009E-19
 -1       801 9.51394E-05-2.78466E-05-2.88397E-05 1.24308E-06-1.42697E-18 1.07550E-19
 -1       802 9.51821E-05-2.80228E-05-2.87825E-05 9.06552E-07-9.77229E-19-1.44083E-19
 -1       803 9.52103E-05-2.81629E-05-2.87346E-05 6.46486E-07-5.82433E-19-7.62817E-19
 -1       804 9.52282E-05-2.82726E-05-2.86952E-05 4.48843E-07-4.02100E-19-8.03496E-19
 -1       805 9.52391E-05-2.83572E-05-2.86636E-05 3.01277E-07 1.40740E-18-1.15500E-18
 -1       806 9.52452E-05-2.84215E-05-2.86387E-05 1.93213E-07 9.17022E-19 1.74352E-19
 -1       807 9.52482E-05-2.84696E-05-2.86194E-05 1.15797E-07 4.56998E-19 1.93299E-19
 -1       808 9.52492E-05-2.85049E-05-2.86047E-05 6.17606E-08-4.31645E-19-8.56854E-19
 -1       809 9.52490E-05-2.85304E-05-2.85937E-05 2.52434E-08 8.83195E-19-7.31126E-20
 -1       810 9.52480E-05-2.85483E-05-2.85856E-05 1.60404E-09 1.34196E-18 8.68366E-19
 -1       811 9.52468E-05-2.85605E-05-2.85798E-05-1.27732E-08 1.39235E-18 1.46228E-18
 -1       812 9.52454E-05-2.85685E-05-2.85758E-05-2.06573E-08 5.24332E-19 1.81466E-18
 -1       813 9.52440E-05-2.85735E-05-2.85731E-05-2.41310E-08-2.74945E-19 8.59435E-19
 -1       814 9.52428E-05-2.85763E-05-2.85713E-05-2.47309E-08-2.20347E-18 3.02447E-19
 -1       815 9.52416E-05-2.85777E-05-2.85703E-05-2.35661E-08-1.55299E-18 1.29117E-18
 -1       816 9.52407E-05-2.85781E-05-2.85697E-05-2.14163E-08-1.97888E-19-1.12527E-18
 -1       817 9.52398E-05-2.85779E-05-2.85694E-05-1.88113E-08 5.11994E-19-1.60649E-18
 -1       818 9.52392E-05-2.85774E-05-2.85694E-05-1.60947E-08-4.07707E-19-2.34176E-18
 -1       819 9.52387E-05-2.85767E-05-2.85694E-05-1.34736E-08-5.72448E-19-1.22275E-18
 -1       820 9.52383E-05-2.85760E-05-2.85695E-05-1.10556E-08-3.14744E-19-6.14411E-19
 -1       821 9.52380E-05-2.85754E-05-2.85697E-05-8.88700E-09 4.42933E-19 9.35436E-21
 -1       822 9.52383E-05-2.85755E-05-2.85698E-05-7.60892E-09-1.17179E-18 1.86376E-19
 -1       823 9.52415E-05-2.85782E-05-2.85700E-05 7.06377E-09 2.43110E-19-3.24707E-18
 -1       824 9.76622E-05-4.19210E-05-2.37912E-05-2.72252E-05 2.66923E-18-5.57394E-19
 -1       825 9.83470E-05-4.24631E-05-2.38190E-05 2.71574E-05-2.21999E-18-4.62255E-19
 -1       826 9.52448E-05-2.85809E-05-2.85702E-05 2.74279E-11-5.55513E-19 2.49897E-18
 -1       827 1.23158E-04-5.27984E-05-3.01660E-05 1.08748E-05-1.16376E-18-1.93049E-18
 -1       828 9.52433E-05-2.85797E-05-2.85701E-05 5.20449E-09-1.32949E-18-1.50170E-18
 -1       829 1.09454E-04-4.35072E-05-2.82177E-05 1.53288E-05-9.25849E-19-9.03298E-19
 -1       830 1.25989E-04-1.40010E-05-4.84784E-05 6.88381E-06 6.20939E-18 4.13881E-19
 -1       831 1.15078E-04-5.09393E-05-2.74746E-05-1.89870E-05 2.60724E-18-1.41334E-18
 -1       832 1.25938E-04-3.98715E-05-3.70371E-05 8.62074E-06-1.43073E-18-3.51999E-18
 -1       833 5.10529E-05-1.17703E-05-1.65283E-05 9.01498E-06-4.07542E-19 2.86594E-18
 -1       834 5.28023E-05-1.39055E-05-1.63897E-05-1.58979E-05 1.50572E-18 3.54907E-18
 -1       835 9.52445E-05-2.85806E-05-2.85702E-05 2.77210E-09-1.12248E-18 2.21044E-18
 -1       836 9.52392E-05-2.85763E-05-2.85698E-05 7.88341E-09-1.44280E-18 1.50259E-18
 -1       837 1.27078E-04-5.07709E-05-3.27654E-05-2.86814E-06 6.86024E-19-3.12973E-18
 -1       838 1.20593E-04-3.37571E-05-3.73587E-05 1.14831E-05-2.03717E-18-2.85237E-18
 -1       839 7.07909E-05-2.51653E-05-1.93456E-05-2.71073E-05 2.79661E-18 1.99795E-18
 -1       840 8.79288E-05-3.35139E-05-2.32283E-05-2.47735E-05 2.37959E-18 7.56781E-19
 -1       841 9.52433E-05-2.85797E-05-2.85701E-05-5.20241E-09 1.80009E-18-1.17039E-18
 -1       842 8.39786E-05-3.18786E-05-2.22041E-05 2.65058E-05-1.90744E-18 5.78801E-19
 -1       843 9.52445E-05-2.85806E-05-2.85702E-05-2.74221E-09 8.19872E-19 3.25075E-18
 -1       844 1.21889E-04-3.88945E-05-3.56605E-05-1.29239E-05-1.06884E-18 1.12747E-18
 -1       845 9.52418E-05-2.85784E-05-2.85700E-05-6.74490E-09 2.08824E-18-6.21926E-18
 -1       846 5.56355E-05-1.19092E-05-1.85837E-05-2.78829E-06-8.48935E-21 2.77342E-18
 -1       847 6.58578E-05-1.83266E-05-2.02139E-05-1.77617E-05 1.30102E-18 2.14431E-18
 -1       848 1.13515E-04-4.64494E-05-2.87154E-05-1.08676E-05 1.33412E-18-1.62042E-18
 -1       849 1.05394E-04-4.04260E-05-2.78172E-05-1.27952E-05 6.95201E-19-6.66919E-19
 -1       850 9.95177E-05-3.49612E-05-2.76631E-05-1.22811E-05 5.82290E-19-1.19793E-18
 -1       851 9.59325E-05-3.09961E-05-2.78281E-05-1.08835E-05 9.59346E-19-1.31934E-18
 -1       852 9.39488E-05-2.83998E-05-2.80918E-05-9.27120E-06 3.31104E-19-1.09109E-18
 -1       853 9.30152E-05-2.68696E-05-2.83479E-05-7.74533E-06-2.80579E-19-1.56207E-19
 -1       854 9.27214E-05-2.60945E-05-2.85542E-05-6.39348E-06-1.00593E-19 5.12386E-19
 -1       855 9.27922E-05-2.58224E-05-2.87012E-05-5.22521E-06-6.28393E-19 6.57638E-19
 -1       856 9.30500E-05-2.58646E-05-2.87936E-05-4.22749E-06 6.00271E-20 4.87344E-19
 -1       857 9.33847E-05-2.60866E-05-2.88420E-05-3.38223E-06 2.00881E-19 9.73794E-20
 -1       858 9.37313E-05-2.63970E-05-2.88575E-05-2.67251E-06 1.43452E-18-7.23555E-19
 -1       859 9.40540E-05-2.67363E-05-2.88504E-05-2.08319E-06 6.79675E-19 4.06413E-19
 -1       860 9.43356E-05-2.70674E-05-2.88292E-05-1.59998E-06 3.90782E-20 1.34159E-18
 -1       861 9.45703E-05-2.73695E-05-2.88003E-05-1.20915E-06-2.24246E-19 7.57366E-19
 -1       862 9.47591E-05-2.76329E-05-2.87684E-05-8.97591E-07-8.24801E-19 1.50564E-18
 -1       863 9.49064E-05-2.78545E-05-2.87365E-05-6.53000E-07-2.40474E-19 1.13452E-18
 -1       864 9.50182E-05-2.80358E-05-2.87067E-05-4.64043E-07 2.61210E-19-3.79727E-20
 -1       865 9.51006E-05-2.81806E-05-2.86800E-05-3.20527E-07 5.01961E-19-4.23294E-19
 -1       866 9.51597E-05-2.82937E-05-2.86569E-05-2.13503E-07 2.18997E-19-9.59839E-20
 -1       867 9.52007E-05-2.83800E-05-2.86374E-05-1.35292E-07-5.65805E-19 7.78584E-19
 -1       868 9.52279E-05-2.84446E-05-2.86214E-05-7.94441E-08-8.50388E-19-1.39077E-19
 -1       869 9.52450E-05-2.84918E-05-2.86085E-05-4.06502E-08-7.44726E-19-5.78447E-19
 -1       870 9.52548E-05-2.85254E-05-2.85983E-05-1.46210E-08 1.84080E-18-7.90466E-19
 -1       871 9.52596E-05-2.85486E-05-2.85904E-05 2.04646E-09-3.00837E-19-2.51638E-18
 -1       872 9.52610E-05-2.85640E-05-2.85844E-05 1.20039E-08-4.66347E-19-3.12032E-18
 -1       873 9.52604E-05-2.85738E-05-2.85800E-05 1.72809E-08-1.19854E-18-1.32847E-18
 -1       874 9.52584E-05-2.85795E-05-2.85767E-05 1.94015E-08-6.10200E-19 8.82854E-19
 -1       875 9.52558E-05-2.85823E-05-2.85744E-05 1.94869E-08 1.18256E-18-1.12713E-18
 -1       876 9.52530E-05-2.85833E-05-2.85727E-05 1.83434E-08 5.41472E-19-4.25069E-19
 -1       877 9.52503E-05-2.85831E-05-2.85716E-05 1.65341E-08 1.18941E-18-1.51229E-18
 -1       878 9.52477E-05-2.85822E-05-2.85709E-05 1.44382E-08 6.24535E-19 3.38431E-20
 -1       879 9.52455E-05-2.85810E-05-2.85705E-05 1.23026E-08-2.15480E-20 1.59581E-18
 -1       880 9.52435E-05-2.85797E-05-2.85702E-05 1.02708E-08-8.05708E-19-7.08542E-19
 -1       881 8.87335E-05-2.54792E-05-2.71095E-05 1.34744E-05-9.32849E-19 5.63810E-19
 -1       882 8.96911E-05-2.85308E-05-2.61862E-05 1.70504E-05-8.31639E-19-4.74115E-20
 -1       883 8.97246E-05-2.36699E-05-2.83090E-05 8.73604E-06 3.90158E-19 5.68731E-19
 -1       884 9.06665E-05-2.38573E-05-2.86323E-05 7.13318E-06 5.79664E-19-1.46775E-19
 -1       885 9.15866E-05-2.43292E-05-2.88244E-05 5.82123E-06 5.82373E-19 4.76367E-19
 -1       886 9.24013E-05-2.49146E-05-2.89227E-05 4.72151E-06 1.61289E-19 1.42588E-18
 -1       887 9.30828E-05-2.55144E-05-2.89578E-05 3.79180E-06 2.58678E-19 1.27524E-18
 -1       888 9.36319E-05-2.60751E-05-2.89529E-05 3.00739E-06-9.60912E-20 7.48657E-19
 -1       889 9.40630E-05-2.65723E-05-2.89245E-05 2.35162E-06 3.49307E-19 1.44171E-18
 -1       890 9.43945E-05-2.69978E-05-2.88843E-05 1.81066E-06 2.15373E-19 5.86230E-19
 -1       891 9.46450E-05-2.73525E-05-2.88396E-05 1.37109E-06-5.72039E-19 1.28111E-18
 -1       892 9.48313E-05-2.76420E-05-2.87954E-05 1.01953E-06-7.14978E-19 8.68069E-19
 -1       893 9.49677E-05-2.78742E-05-2.87543E-05 7.42889E-07-1.71151E-19-6.68042E-20
 -1       894 9.50658E-05-2.80575E-05-2.87179E-05 5.28823E-07 2.32108E-20-1.29248E-18
 -1       895 9.51351E-05-2.82000E-05-2.86865E-05 3.66033E-07 1.18661E-18-1.88450E-18
 -1       896 9.51829E-05-2.83090E-05-2.86602E-05 2.44507E-07 2.35852E-20-8.65889E-19
 -1       897 9.52148E-05-2.83911E-05-2.86387E-05 1.55602E-07-5.59606E-19 2.22981E-19
 -1       898 9.52353E-05-2.84519E-05-2.86215E-05 9.20382E-08 6.04283E-20 9.27898E-19
 -1       899 9.52477E-05-2.84961E-05-2.86078E-05 4.78110E-08-3.47335E-19 4.58063E-19
 -1       900 9.52544E-05-2.85274E-05-2.85973E-05 1.80660E-08-9.02991E-21 1.85049E-18
 -1       901 9.52573E-05-2.85490E-05-2.85893E-05-1.04943E-09 1.65528E-18 2.80687E-18
 -1       902 9.52578E-05-2.85635E-05-2.85833E-05-1.25384E-08 1.08389E-18 3.97418E-18
 -1       903 9.52567E-05-2.85726E-05-2.85789E-05-1.86996E-08 6.51686E-19 3.54135E-18
 -1       904 9.52548E-05-2.85780E-05-2.85758E-05-2.12604E-08-4.10292E-19 2.40425E-18
 -1       905 9.52525E-05-2.85808E-05-2.85736E-05-2.14921E-08-1.47348E-18 5.75167E-19
 -1       906 9.52501E-05-2.85818E-05-2.85721E-05-2.03096E-08-2.44428E-19-6.91368E-19
 -1       907 9.52477E-05-2.85818E-05-2.85711E-05-1.83536E-08 4.90326E-19-8.12734E-19
 -1       908 9.52456E-05-2.85811E-05-2.85705E-05-1.60566E-08 2.72560E-19-8.61555E-19
 -1       909 9.52438E-05-2.85800E-05-2.85702E-05-1.36960E-08-7.68255E-19-5.22517E-19
 -1       910 9.52422E-05-2.85789E-05-2.85700E-05-1.14442E-08-1.32427E-18-2.57155E-18
 -1       911 9.52410E-05-2.85778E-05-2.85699E-05-9.38656E-09 1.15142E-18-3.50099E-18
 -1       912 1.10703E-04-4.77709E-05-2.68901E-05 2.01840E-05-1.89520E-18-1.51208E-18
 -1       913 6.75181E-05-1.86959E-05-2.07876E-05 1.73711E-05-1.21607E-18 1.32280E-18
 -1       914 9.65491E-05-3.86342E-05-2.47390E-05 2.38470E-05-1.72466E-18-4.13557E-19
 -1       915 1.06893E-04-4.42212E-05-2.68368E-05-1.79234E-05 1.70442E-18-1.13097E-18
 -1       916 9.52441E-05-2.85801E-05-2.85703E-05 7.42997E-09-1.30028E-18-2.59033E-18
 -1       917 9.52400E-05-2.85770E-05-2.85699E-05-7.46810E-09 9.70278E-19-5.20623E-18
 -1       918 8.89454E-05-2.40481E-05-2.78147E-05 1.07715E-05-3.20587E-19 9.44530E-19
 -1       919 7.95287E-05-2.58145E-05-2.29763E-05-2.04088E-05 1.49188E-18 1.38850E-18
 -1       920 9.52460E-05-2.85816E-05-2.85705E-05-4.81114E-09 1.14658E-18 1.69919E-18
 -1       921 9.52444E-05-2.85803E-05-2.85703E-05-7.05882E-09 1.94503E-18-4.22893E-18
 -1       922 9.52471E-05-2.85823E-05-2.85706E-05-1.63652E-09 1.45923E-19 1.99145E-18
 -1       923 6.46301E-05-1.48134E-05-2.12736E-05 8.43681E-06-1.06181E-18 1.09079E-18
 -1       924 9.84167E-05-3.79969E-05-2.58843E-05-1.91963E-05 1.37543E-18-2.71848E-19
 -1       925 9.52460E-05-2.85816E-05-2.85705E-05 4.84820E-09-4.17331E-19 7.80321E-19
 -1       926 9.52436E-05-2.85797E-05-2.85702E-05 8.83445E-09-2.51295E-18-2.77237E-18
 -1       927 9.52471E-05-2.85823E-05-2.85706E-05 1.69397E-09-2.60998E-19 2.54428E-18
 -1       928 9.15092E-05-2.95722E-05-2.65456E-05-1.39922E-05 1.41863E-19 5.32455E-19
 -1       929 9.01246E-05-2.68320E-05-2.71244E-05-1.09733E-05 7.66639E-19-4.35087E-19
 -1       930 8.98025E-05-2.53396E-05-2.76270E-05-8.59867E-06 5.90263E-19-2.79356E-19
 -1       931 9.00578E-05-2.46679E-05-2.80243E-05-6.75504E-06 2.11533E-19 8.43855E-19
 -1       932 9.06042E-05-2.45260E-05-2.83192E-05-5.31671E-06-7.78768E-19 3.56988E-19
 -1       933 9.12691E-05-2.47105E-05-2.85251E-05-4.18499E-06 1.49703E-19 6.63525E-19
 -1       934 9.19491E-05-2.50771E-05-2.86594E-05-3.28560E-06-7.36844E-20 1.00202E-18
 -1       935 9.25879E-05-2.55301E-05-2.87391E-05-2.56474E-06 9.99614E-20 9.81047E-19
 -1       936 9.31560E-05-2.60058E-05-2.87787E-05-1.98594E-06 1.12378E-18-1.19193E-19
 -1       937 9.36410E-05-2.64629E-05-2.87906E-05-1.52217E-06 1.01718E-18-1.58244E-19
 -1       938 9.40419E-05-2.68783E-05-2.87844E-05-1.15240E-06 8.06385E-20 7.44331E-19
 -1       939 9.43646E-05-2.72407E-05-2.87674E-05-8.59919E-07-4.86600E-19 1.46250E-18
 -1       940 9.46179E-05-2.75469E-05-2.87447E-05-6.30974E-07-5.09408E-19 6.80589E-19
 -1       941 9.48122E-05-2.77990E-05-2.87200E-05-4.53936E-07-9.96364E-19 7.62943E-19
 -1       942 9.49577E-05-2.80016E-05-2.86955E-05-3.18914E-07-6.46711E-19-7.46439E-19
 -1       943 9.50641E-05-2.81610E-05-2.86728E-05-2.17514E-07 6.27937E-19-8.99382E-19
 -1       944 9.51398E-05-2.82839E-05-2.86526E-05-1.42674E-07 2.60688E-19-3.54862E-19
 -1       945 9.51920E-05-2.83767E-05-2.86351E-05-8.85258E-08-1.09406E-18 1.60121E-19
 -1       946 9.52264E-05-2.84453E-05-2.86205E-05-5.02555E-08-8.88675E-19 1.43918E-18
 -1       947 9.52479E-05-2.84948E-05-2.86085E-05-2.39733E-08-4.88781E-19 1.02242E-18
 -1       948 9.52602E-05-2.85296E-05-2.85989E-05-6.58208E-09-3.65912E-19-8.37967E-19
 -1       949 9.52662E-05-2.85532E-05-2.85913E-05 4.34655E-09-3.99384E-19-1.23395E-18
 -1       950 9.52679E-05-2.85686E-05-2.85854E-05 1.06862E-08-3.25666E-19-1.81433E-18
 -1       951 9.52669E-05-2.85780E-05-2.85809E-05 1.38582E-08 6.41035E-19-1.48191E-18
 -1       952 9.52643E-05-2.85832E-05-2.85776E-05 1.49212E-08 3.82999E-19-1.23456E-20
 -1       953 9.52610E-05-2.85855E-05-2.85752E-05 1.46478E-08 3.63777E-19 3.24195E-19
 -1       954 9.52573E-05-2.85860E-05-2.85734E-05 1.35890E-08 4.87695E-19-4.90959E-19
 -1       955 9.52538E-05-2.85853E-05-2.85722E-05 1.21251E-08 2.14524E-18-7.31972E-19
 -1       956 9.52505E-05-2.85840E-05-2.85714E-05 1.05141E-08 3.07391E-19-1.37560E-18
 -1       957 9.52475E-05-2.85824E-05-2.85708E-05 8.91550E-09-1.66130E-18-2.34941E-18
 -1       958 9.01250E-05-2.34520E-05-2.85741E-05 4.19524E-06-7.01453E-21 1.64678E-18
 -1       959 8.86917E-05-2.26155E-05-2.83183E-05 5.13259E-06 1.80796E-20 1.63426E-18
 -1       960 8.69714E-05-2.18421E-05-2.79126E-05 6.30634E-06 4.86717E-19 1.34533E-18
 -1       961 9.12995E-05-2.42756E-05-2.87246E-05 3.41488E-06 4.60449E-19 2.22312E-18
 -1       962 9.22449E-05-2.50372E-05-2.88034E-05 2.75353E-06 3.59223E-19 1.24021E-18
 -1       963 9.29959E-05-2.57150E-05-2.88348E-05 2.19152E-06 1.04295E-19 3.98538E-19
 -1       964 9.35843E-05-2.63004E-05-2.88360E-05 1.71833E-06 8.70676E-19 4.87043E-19
 -1       965 9.40390E-05-2.67941E-05-2.88193E-05 1.32541E-06-4.92229E-19 1.09865E-18
 -1       966 9.43857E-05-2.72019E-05-2.87931E-05 1.00433E-06-8.97949E-19 1.15700E-18
 -1       967 9.46465E-05-2.75328E-05-2.87630E-05 7.46430E-07-8.37244E-20 4.84481E-19
 -1       968 9.48397E-05-2.77971E-05-2.87326E-05 5.42903E-07 5.43183E-19 4.30118E-19
 -1       969 9.49804E-05-2.80047E-05-2.87039E-05 3.85171E-07 6.81946E-19 4.58672E-20
 -1       970 9.50809E-05-2.81654E-05-2.86781E-05 2.65192E-07 6.25453E-19 2.52155E-19
 -1       971 9.51511E-05-2.82878E-05-2.86557E-05 1.75717E-07-4.91774E-19 7.30026E-19
 -1       972 9.51986E-05-2.83794E-05-2.86368E-05 1.10409E-07-3.39048E-19 2.45805E-19
 -1       973 9.52296E-05-2.84467E-05-2.86213E-05 6.38896E-08 4.79369E-19 1.74054E-19
 -1       974 9.52487E-05-2.84951E-05-2.86087E-05 3.16991E-08-9.61158E-19-1.54326E-19
 -1       975 9.52594E-05-2.85291E-05-2.85987E-05 1.02214E-08-1.62368E-20 2.02332E-19
 -1       976 9.52644E-05-2.85523E-05-2.85909E-05-3.41647E-09-3.83086E-19 1.43411E-18
 -1       977 9.52656E-05-2.85674E-05-2.85850E-05-1.14535E-08 1.09943E-18 3.52477E-18
 -1       978 9.52645E-05-2.85767E-05-2.85805E-05-1.56009E-08 5.95647E-19 3.30568E-18
 -1       979 9.52620E-05-2.85819E-05-2.85772E-05-1.71411E-08 8.20382E-20 3.13752E-18
 -1       980 9.52589E-05-2.85844E-05-2.85748E-05-1.70144E-08 7.87596E-19 1.50886E-18
 -1       981 9.52556E-05-2.85850E-05-2.85731E-05-1.58943E-08-3.05806E-19 6.60762E-19
 -1       982 9.52523E-05-2.85844E-05-2.85720E-05-1.42508E-08 1.14867E-19 2.86063E-18
 -1       983 9.52493E-05-2.85832E-05-2.85712E-05-1.23946E-08-3.72570E-19 2.25105E-18
 -1       984 9.52467E-05-2.85818E-05-2.85707E-05-1.05254E-08 3.64384E-19-7.00331E-19
 -1       985 8.17681E-05-2.61394E-05-2.37560E-05 1.99419E-05-1.12007E-18 5.28013E-19
 -1       986 8.02274E-05-2.16571E-05-2.50839E-05 1.35407E-05-8.57982E-19 1.15984E-18
 -1       987 6.53354E-05-1.49008E-05-2.15361E-05-7.60650E-06 2.17030E-19 1.52407E-18
 -1       988 9.52493E-05-2.85836E-05-2.85710E-05-3.81632E-09 2.83060E-18 1.84973E-18
 -1       989 8.27073E-05-2.10803E-05-2.64160E-05 1.01080E-05-7.29785E-19 5.10831E-19
 -1       990 9.51263E-05-3.42961E-05-2.60572E-05-1.74175E-05 7.66140E-19 3.10110E-19
 -1       991 7.40147E-05-1.97955E-05-2.32057E-05-1.34450E-05 6.09579E-19 1.17066E-18
 -1       992 7.48486E-05-1.99790E-05-2.34618E-05 1.41357E-05-1.16682E-18 7.92121E-19
 -1       993 9.52444E-05-2.85803E-05-2.85703E-05-8.75929E-09 2.31883E-18-5.31646E-18
 -1       994 9.52476E-05-2.85825E-05-2.85708E-05-6.77346E-09 2.86953E-18-9.30498E-19
 -1       995 9.52499E-05-2.85840E-05-2.85711E-05 2.04115E-11 1.38690E-18 1.03947E-18
 -1       996 8.49588E-05-2.12642E-05-2.72978E-05 7.87635E-06 8.28959E-20 3.88459E-19
 -1       997 9.52469E-05-2.85821E-05-2.85707E-05 6.77644E-09-2.18923E-18-1.32018E-18
 -1       998 9.52492E-05-2.85836E-05-2.85710E-05 3.89048E-09-1.11939E-18 4.77592E-19
 -1       999 8.32837E-05-1.99460E-05-2.71447E-05 4.26462E-06-4.70263E-19 7.79778E-19
 -1      1000 8.55407E-05-2.31132E-05-2.67574E-05-8.81085E-06 2.36817E-19 4.69428E-19
 -1      1001 8.67983E-05-2.28425E-05-2.74111E-05-6.54044E-06 8.02380E-19-6.61858E-19
 -1      1002 8.80784E-05-2.30106E-05-2.78866E-05-4.90574E-06-3.84790E-19-3.50661E-19
 -1      1003 8.92875E-05-2.34316E-05-2.82240E-05-3.71041E-06-2.49911E-19 9.67525E-21
 -1      1004 9.03936E-05-2.40015E-05-2.84539E-05-2.82354E-06 4.49788E-19-1.99344E-19
 -1      1005 9.13633E-05-2.46221E-05-2.86037E-05-2.14798E-06-8.04420E-20-2.01182E-19
 -1      1006 9.21999E-05-2.52482E-05-2.86938E-05-1.63182E-06 2.47966E-19 1.02324E-19
 -1      1007 9.29001E-05-2.58372E-05-2.87414E-05-1.23445E-06 8.35809E-19-5.63108E-19
 -1      1008 9.34741E-05-2.63680E-05-2.87599E-05-9.26860E-07 9.78995E-19 2.01516E-19
 -1      1009 9.39353E-05-2.68303E-05-2.87594E-05-6.88879E-07 6.76872E-19 4.67650E-19
 -1      1010 9.42985E-05-2.72218E-05-2.87473E-05-5.05499E-07-1.18742E-18 1.81410E-18
 -1      1011 9.45791E-05-2.75454E-05-2.87288E-05-3.65146E-07-1.56951E-18 1.13239E-18
 -1      1012 9.47913E-05-2.78071E-05-2.87076E-05-2.58699E-07-1.66981E-18 3.30369E-19
 -1      1013 9.49485E-05-2.80144E-05-2.86861E-05-1.78880E-07-4.84969E-19 7.32865E-19
 -1      1014 9.50621E-05-2.81755E-05-2.86657E-05-1.19838E-07 9.82543E-19-3.38575E-19
 -1      1015 9.51421E-05-2.82982E-05-2.86474E-05-7.68700E-08 2.09185E-19 2.18542E-19
 -1      1016 9.51966E-05-2.83899E-05-2.86315E-05-4.62041E-08-4.06311E-20 1.12897E-18
 -1      1017 9.52321E-05-2.84568E-05-2.86180E-05-2.48370E-08-5.54558E-19 1.67539E-18
 -1      1018 9.52538E-05-2.85046E-05-2.86068E-05-1.03972E-08-9.28106E-19 1.43088E-18
 -1      1019 9.52659E-05-2.85376E-05-2.85978E-05-1.03136E-09-1.52622E-18 4.43115E-20
 -1      1020 9.52713E-05-2.85597E-05-2.85907E-05 4.69085E-09-3.39273E-19-9.57102E-19
 -1      1021 9.52723E-05-2.85737E-05-2.85851E-05 7.85875E-09 7.67826E-19-5.24847E-19
 -1      1022 9.52706E-05-2.85820E-05-2.85808E-05 9.28911E-09 6.85127E-19-6.27403E-19
 -1      1023 9.52674E-05-2.85862E-05-2.85776E-05 9.58359E-09 1.66222E-18-9.98495E-19
 -1      1024 9.52634E-05-2.85877E-05-2.85753E-05 9.17590E-09-1.65437E-19-5.41224E-19
 -1      1025 9.52592E-05-2.85876E-05-2.85736E-05 8.37392E-09-4.37102E-20-1.65434E-18
 -1      1026 9.52552E-05-2.85864E-05-2.85723E-05 7.38345E-09 4.39533E-19-2.38453E-18
 -1      1027 9.52515E-05-2.85847E-05-2.85715E-05 6.35889E-09-1.14296E-19-1.46592E-18
 -1      1028 8.79074E-05-2.21261E-05-2.81920E-05 2.95860E-06 3.44040E-20 1.01904E-18
 -1      1029 9.08566E-05-2.40587E-05-2.86281E-05 2.05662E-06 7.43341E-19 7.07761E-19
 -1      1030 8.95454E-05-2.31352E-05-2.84617E-05 2.47542E-06-1.44916E-19 1.11185E-18
 -1      1031 8.58602E-05-2.10539E-05-2.77742E-05 3.52635E-06-1.38391E-19 1.06595E-18
 -1      1032 9.19057E-05-2.48864E-05-2.87230E-05 1.68234E-06 6.91741E-19 1.07205E-18
 -1      1033 9.27374E-05-2.56096E-05-2.87694E-05 1.35349E-06 5.20621E-19 4.87094E-20
 -1      1034 9.33894E-05-2.62271E-05-2.87841E-05 1.06939E-06 1.82910E-19 8.51454E-19
 -1      1035 9.38949E-05-2.67443E-05-2.87791E-05 8.28822E-07-1.02520E-18 2.87139E-19
 -1      1036 9.42820E-05-2.71696E-05-2.87626E-05 6.29506E-07 4.78745E-20-2.24102E-19
 -1      1037 9.45742E-05-2.75137E-05-2.87404E-05 4.67906E-07 4.58690E-19-7.36322E-20
 -1      1038 9.47915E-05-2.77874E-05-2.87161E-05 3.39629E-07 7.28020E-19 1.50945E-19
 -1      1039 9.49501E-05-2.80018E-05-2.86922E-05 2.39902E-07 4.32322E-19 6.94405E-19
 -1      1040 9.50637E-05-2.81670E-05-2.86701E-05 1.63979E-07-9.24516E-19 1.78858E-18
 -1      1041 9.51430E-05-2.82921E-05-2.86504E-05 1.07421E-07-1.63447E-19 1.75228E-18
 -1      1042 9.51966E-05-2.83852E-05-2.86335E-05 6.62648E-08 5.06784E-20 1.66235E-18
 -1      1043 9.52315E-05-2.84531E-05-2.86193E-05 3.70981E-08 2.70135E-19 9.77410E-19
 -1      1044 9.52528E-05-2.85016E-05-2.86077E-05 1.70689E-08-6.26762E-19 2.09019E-20
 -1      1045 9.52646E-05-2.85352E-05-2.85983E-05 3.85507E-09-8.51300E-19 3.84482E-19
 -1      1046 9.52699E-05-2.85577E-05-2.85909E-05-4.39155E-09-1.69671E-18 1.88466E-18
 -1      1047 9.52710E-05-2.85721E-05-2.85852E-05-9.11053E-09 2.14301E-19 4.01953E-18
 -1      1048 9.52694E-05-2.85807E-05-2.85809E-05-1.13999E-08-1.41048E-19 4.95849E-18
 -1      1049 9.52663E-05-2.85852E-05-2.85776E-05-1.20795E-08 1.60090E-19 3.92350E-18
 -1      1050 9.52625E-05-2.85870E-05-2.85752E-05-1.17462E-08 5.73694E-19 4.81196E-18
 -1      1051 9.52585E-05-2.85870E-05-2.85735E-05-1.08212E-08-8.53956E-20 2.05688E-18
 -1      1052 9.52547E-05-2.85860E-05-2.85723E-05-9.61653E-09 3.39509E-19 6.71675E-19
 -1      1053 9.52512E-05-2.85845E-05-2.85714E-05-8.30269E-09 1.91994E-18 1.50642E-18
 -1      1054 7.03486E-05-1.55255E-05-2.34743E-05 1.47514E-06-2.40528E-19 9.80639E-19
 -1      1055 7.35556E-05-1.74532E-05-2.40410E-05 8.47284E-06-7.33589E-19 2.99230E-19
 -1      1056 8.37988E-05-2.54633E-05-2.49852E-05-1.54604E-05 7.07065E-19 8.78884E-19
 -1      1057 8.44530E-05-2.38604E-05-2.59714E-05-1.16141E-05-1.46984E-19 1.18809E-18
 -1      1058 7.33010E-05-1.69443E-05-2.41424E-05-5.02547E-06-2.02615E-19 8.62186E-19
 -1      1059 8.00244E-05-1.88453E-05-2.62262E-05 5.34360E-06-4.89427E-19 6.15282E-19
 -1      1060 9.52529E-05-2.85856E-05-2.85717E-05-2.26780E-09 2.49779E-18-9.20373E-20
 -1      1061 9.09111E-05-2.41753E-05-2.86010E-05 8.21324E-07 7.84350E-19 1.21138E-18
 -1      1062 8.53803E-05-2.13695E-05-2.74335E-05-3.72895E-06 2.21475E-20-8.49313E-19
 -1      1063 8.72647E-05-2.21294E-05-2.79153E-05-2.64764E-06 1.89620E-19-7.51714E-19
 -1      1064 8.88203E-05-2.29166E-05-2.82433E-05-1.88213E-06-7.05419E-20-7.51938E-20
 -1      1065 9.01328E-05-2.37198E-05-2.84625E-05-1.35364E-06-5.51865E-20-7.68822E-19
 -1      1066 9.12502E-05-2.45074E-05-2.86043E-05-9.80036E-07 6.10373E-19-3.28843E-19
 -1      1067 9.21673E-05-2.52283E-05-2.86883E-05-7.07138E-07 5.21274E-19 3.85961E-19
 -1      1068 9.29121E-05-2.58712E-05-2.87320E-05-5.08915E-07 1.02169E-18 2.63459E-20
 -1      1069 9.35083E-05-2.64292E-05-2.87483E-05-3.64828E-07 8.59502E-19-1.58403E-19
 -1      1070 9.39779E-05-2.69017E-05-2.87470E-05-2.59941E-07 4.11861E-19-4.21783E-19
 -1      1071 9.43417E-05-2.72934E-05-2.87350E-05-1.83545E-07-7.06757E-19 2.35508E-19
 -1      1072 9.46186E-05-2.76114E-05-2.87174E-05-1.27961E-07-1.70348E-18 1.83281E-18
 -1      1073 9.48254E-05-2.78648E-05-2.86974E-05-8.76539E-08-8.43331E-19 2.07483E-18
 -1      1074 9.49767E-05-2.80629E-05-2.86773E-05-5.85975E-08-4.52688E-19 1.91526E-18
 -1      1075 9.50846E-05-2.82151E-05-2.86584E-05-3.78404E-08 8.63459E-20 6.46833E-19
 -1      1076 9.51596E-05-2.83297E-05-2.86414E-05-2.32007E-08-3.58407E-19-4.41830E-19
 -1      1077 9.52098E-05-2.84143E-05-2.86266E-05-1.30547E-08 1.60079E-19-7.77786E-19
 -1      1078 9.52419E-05-2.84754E-05-2.86142E-05-6.18870E-09-3.97013E-19 1.19055E-18
 -1      1079 9.52609E-05-2.85184E-05-2.86039E-05-1.69384E-09-1.90776E-18 1.29661E-18
 -1      1080 9.52708E-05-2.85477E-05-2.85956E-05 1.10970E-09-7.19054E-19 1.43269E-18
 -1      1081 9.52746E-05-2.85668E-05-2.85890E-05 2.72837E-09-5.62019E-19 1.59949E-18
 -1      1082 9.52744E-05-2.85786E-05-2.85839E-05 3.53679E-09 2.36263E-19-8.25449E-19
 -1      1083 9.52718E-05-2.85851E-05-2.85800E-05 3.80936E-09 6.62958E-19-1.41103E-18
 -1      1084 9.52680E-05-2.85882E-05-2.85771E-05 3.74500E-09 4.56981E-19-2.84474E-18
 -1      1085 9.52636E-05-2.85889E-05-2.85749E-05 3.48809E-09 8.50430E-20-1.53939E-18
 -1      1086 9.52591E-05-2.85881E-05-2.85733E-05 3.13635E-09-5.35629E-20-1.30431E-18
 -1      1087 9.52548E-05-2.85865E-05-2.85721E-05 2.74523E-09 1.14175E-18-1.25288E-18
 -1      1088 9.19439E-05-2.49941E-05-2.86926E-05 7.12965E-07 1.22151E-18 6.29330E-19
 -1      1089 8.61034E-05-2.11798E-05-2.78237E-05 9.69148E-07 9.10118E-20 8.66440E-19
 -1      1090 9.27641E-05-2.57047E-05-2.87395E-05 5.97037E-07 4.97093E-19 7.90113E-19
 -1      1091 9.34096E-05-2.63098E-05-2.87569E-05 4.84818E-07 6.76511E-19 2.26760E-19
 -1      1092 9.39116E-05-2.68154E-05-2.87554E-05 3.82868E-07 1.98878E-19-1.44209E-18
 -1      1093 9.42968E-05-2.72303E-05-2.87427E-05 2.94438E-07-5.18734E-19-1.41601E-18
 -1      1094 9.45878E-05-2.75649E-05-2.87240E-05 2.20514E-07-6.21332E-20-7.51442E-19
 -1      1095 9.48041E-05-2.78303E-05-2.87030E-05 1.60620E-07 5.31748E-22 4.21628E-20
 -1      1096 9.49619E-05-2.80373E-05-2.86819E-05 1.13429E-07-3.73927E-19 6.68104E-19
 -1      1097 9.50743E-05-2.81961E-05-2.86621E-05 7.72067E-08-9.72493E-19 5.62171E-19
 -1      1098 9.51524E-05-2.83156E-05-2.86443E-05 5.01111E-08-9.90456E-20 1.28668E-18
 -1      1099 9.52049E-05-2.84040E-05-2.86289E-05 3.03786E-08 1.45109E-19 2.24761E-18
 -1      1100 9.52385E-05-2.84679E-05-2.86160E-05 1.64270E-08 4.26446E-19 1.86941E-18
 -1      1101 9.52586E-05-2.85130E-05-2.86053E-05 6.90059E-09-1.14780E-18 1.52719E-18
 -1      1102 9.52694E-05-2.85439E-05-2.85966E-05 6.78322E-10-1.79945E-18 2.21464E-18
 -1      1103 9.52737E-05-2.85642E-05-2.85898E-05-3.13982E-09-1.70684E-18 8.78309E-19
 -1      1104 9.52740E-05-2.85769E-05-2.85845E-05-5.25800E-09-9.85215E-19 1.32250E-18
 -1      1105 9.52717E-05-2.85841E-05-2.85804E-05-6.21417E-09 2.05072E-19 2.41434E-19
 -1      1106 9.52680E-05-2.85876E-05-2.85773E-05-6.41028E-09 7.51485E-19 1.91192E-21
 -1      1107 9.52638E-05-2.85886E-05-2.85751E-05-6.14132E-09 1.23305E-18-1.67008E-19
 -1      1108 9.52594E-05-2.85881E-05-2.85734E-05-5.60334E-09 8.30002E-19 1.06280E-18
 -1      1109 9.52561E-05-2.85871E-05-2.85725E-05-3.82251E-09 6.94715E-19 4.56888E-19
 -1      1110 7.83778E-05-2.01039E-05-2.49704E-05-9.62162E-06-3.40861E-19 8.08214E-19
 -1      1111 8.35771E-05-1.99822E-05-2.72550E-05 9.14790E-07-5.83353E-19 1.14993E-18
 -1      1112 8.81109E-05-2.22879E-05-2.82047E-05 9.83876E-07 5.15373E-20 1.11586E-18
 -1      1113 8.96300E-05-2.32527E-05-2.84478E-05 9.28792E-07 1.15928E-19 1.01292E-18
 -1      1114 8.31040E-05-2.07085E-05-2.67424E-05-5.30770E-06-2.27229E-19 1.08847E-18
 -1      1115 7.59582E-05-1.71273E-05-2.51993E-05 6.65560E-07-7.17781E-19 5.65402E-19
 -1      1116 8.10012E-05-2.03784E-05-2.59736E-05-7.12110E-06-3.40094E-19 1.00738E-18
 -1      1117 8.74831E-05-2.20113E-05-2.80655E-05-4.51268E-07 3.53565E-19-2.70942E-19
 -1      1118 8.03225E-05-1.86716E-05-2.64198E-05 8.03448E-07-6.20032E-19 8.30158E-19
 -1      1119 8.51379E-05-2.09088E-05-2.75270E-05-1.64747E-06-4.94948E-20-4.16405E-19
 -1      1120 8.25395E-05-1.98807E-05-2.68544E-05-2.57469E-06-1.00647E-18 1.34640E-19
 -1      1121 7.86711E-05-1.85295E-05-2.57811E-05-3.59310E-06-4.02346E-19 6.71663E-19
 -1      1122 1.39841E-04 3.16256E-10-5.01213E-05-4.75278E-05-3.84976E-19 1.24613E-17
 -1      1123 1.04767E-04 9.48270E-11-4.38330E-05-2.55740E-05-1.86983E-19 2.22039E-18
 -1      1124 9.65007E-05 6.43936E-11-4.08122E-05-1.65582E-05-1.29808E-19-2.02290E-18
 -1      1125 9.08428E-05 5.97874E-11-3.83584E-05-9.43960E-06-8.02564E-20-3.80580E-18
 -1      1126 8.48744E-05 5.67900E-11-3.57831E-05-2.61271E-06-3.81165E-20-4.72824E-18
 -1      1127 7.75409E-05 4.72590E-11-3.27668E-05 3.52144E-06-1.37643E-20-5.12026E-18
 -1      1128 6.89323E-05 2.71652E-11-2.93836E-05 7.80807E-06 5.71747E-21-5.45776E-18
 -1      1129 6.04477E-05-5.35606E-13-2.61661E-05 9.04025E-06 2.20229E-20-5.64346E-18
 -1      1130 5.43038E-05-2.59210E-11-2.38976E-05 6.86908E-06 2.51992E-20-5.77505E-18
 -1      1131 5.26441E-05-3.54116E-11-2.33287E-05 2.49110E-06 2.30816E-20-5.74287E-18
 -1      1132 5.64102E-05-2.32855E-11-2.47829E-05-1.75020E-06 3.47284E-20-5.40599E-18
 -1      1133 6.47200E-05 3.73010E-12-2.79752E-05-3.53905E-06 4.17164E-20-4.73768E-18
 -1      1134 7.54725E-05 3.23479E-11-3.21868E-05-1.80764E-06 6.67038E-20-3.71826E-18
 -1      1135 8.67849E-05 5.42393E-11-3.67511E-05 3.06258E-06 9.23266E-20-2.20951E-18
 -1      1136 9.80989E-05 7.24902E-11-4.13988E-05 1.03094E-05 1.31290E-19 3.24864E-19
 -1      1137 1.10969E-04 1.07095E-10-4.63891E-05 2.05641E-05 1.62630E-19 5.01356E-18
 -1      1138 1.37927E-04 2.33458E-10-5.24315E-05 3.92449E-05 3.54060E-19 1.45345E-17
 -1      1139 1.57651E-04-3.16255E-05-4.87319E-05-3.01984E-05-1.54435E-18 1.89498E-17
 -1      1140 1.20905E-04-3.58170E-05-3.87849E-05-6.12815E-07-5.02555E-19 1.55778E-17
 -1      1141 1.11168E-04-3.32578E-05-3.40574E-05 3.22827E-07-1.76593E-19 1.07858E-17
 -1      1142 1.04863E-04-3.15128E-05-3.14362E-05-2.62832E-08-9.03629E-20 7.53521E-18
 -1      1143 9.81746E-05-2.95175E-05-2.93918E-05-2.51249E-07-8.50639E-20 5.49211E-18
 -1      1144 9.14849E-05-2.75285E-05-2.75492E-05-3.14117E-07 5.02264E-21 4.39263E-18
 -1      1145 8.62799E-05-2.59967E-05-2.61644E-05-2.05067E-07 2.97189E-20 2.69039E-18
 -1      1146 8.41625E-05-2.53729E-05-2.56097E-05 2.98539E-08 2.19501E-20 1.29662E-18
 -1      1147 8.58488E-05-2.58531E-05-2.60552E-05 2.79575E-07 3.04072E-20 3.49586E-19
 -1      1148 9.06764E-05-2.72475E-05-2.73396E-05 4.31798E-07 6.80885E-20-8.83349E-19
 -1      1149 9.69555E-05-2.90758E-05-2.90439E-05 4.41087E-07-9.23961E-21-1.89772E-18
 -1      1150 1.02845E-04-3.08062E-05-3.06907E-05 3.40521E-07-1.11120E-19-2.51849E-18
 -1      1151 1.07099E-04-3.20698E-05-3.19299E-05 1.98812E-07-1.93071E-19-2.97769E-18
 -1      1152 1.09310E-04-3.27376E-05-3.26178E-05 7.22411E-08 1.19316E-19-3.12136E-18
 -1      1153 1.09699E-04-3.28680E-05-3.27874E-05-1.40463E-08-7.89130E-21-3.05376E-18
 -1      1154 1.08789E-04-3.26105E-05-3.25684E-05-5.95216E-08-1.72674E-19-3.06803E-18
 -1      1155 1.07129E-04-3.21266E-05-3.21129E-05-7.48870E-08-3.73360E-20-2.47221E-18
 -1      1156 1.05164E-04-3.15479E-05-3.15513E-05-7.23499E-08-1.24698E-19-2.67288E-18
 -1      1157 1.03197E-04-3.09647E-05-3.09763E-05-6.13403E-08-1.17851E-19-3.29898E-18
 -1      1158 1.01402E-04-3.04303E-05-3.04444E-05-4.77970E-08 1.64030E-19-3.42295E-18
 -1      1159 9.98617E-05-2.99699E-05-2.99834E-05-3.48829E-08-1.94484E-19-3.18607E-18
 -1      1160 9.85977E-05-2.95909E-05-2.96024E-05-2.39635E-08-5.81405E-20-3.78167E-18
 -1      1161 9.75969E-05-2.92898E-05-2.92990E-05-1.53912E-08 1.63795E-19-1.74152E-18
 -1      1162 9.68285E-05-2.90581E-05-2.90649E-05-9.02095E-09-3.31621E-19-2.65951E-18
 -1      1163 9.62553E-05-2.88846E-05-2.88895E-05-4.50742E-09-1.21118E-19-4.27985E-18
 -1      1164 9.58399E-05-2.87586E-05-2.87619E-05-1.46130E-09 4.34133E-20-3.71247E-18
 -1      1165 9.55484E-05-2.86698E-05-2.86720E-05 4.78107E-10 3.06483E-19-1.79247E-18
 -1      1166 9.53513E-05-2.86095E-05-2.86108E-05 1.61491E-09-1.38179E-20-2.12321E-18
 -1      1167 9.52245E-05-2.85704E-05-2.85712E-05 2.19127E-09 1.53953E-20-2.50505E-18
 -1      1168 9.51485E-05-2.85468E-05-2.85471E-05 2.39233E-09 1.90964E-19-1.55312E-18
 -1      1169 9.51082E-05-2.85341E-05-2.85342E-05 2.35500E-09 5.16962E-20-2.49752E-18
 -1      1170 9.50921E-05-2.85288E-05-2.85287E-05 2.17746E-09-4.20554E-21-4.94641E-18
 -1      1171 9.50917E-05-2.85283E-05-2.85281E-05 1.92783E-09 1.36630E-20-5.59619E-18
 -1      1172 9.51009E-05-2.85308E-05-2.85305E-05 1.65166E-09 2.58452E-19-4.51351E-18
 -1      1173 9.51152E-05-2.85349E-05-2.85346E-05 1.37792E-09 8.10741E-20-2.21910E-18
 -1      1174 9.51316E-05-2.85397E-05-2.85394E-05 1.12379E-09-1.92192E-19-2.22170E-18
 -1      1175 9.51484E-05-2.85446E-05-2.85444E-05 8.98255E-10 3.00086E-20-3.31026E-18
 -1      1176 9.51643E-05-2.85493E-05-2.85491E-05 7.04825E-10-2.44749E-19-2.67731E-18
 -1      1177 9.51786E-05-2.85536E-05-2.85534E-05 5.43538E-10 1.67742E-19-2.43573E-18
 -1      1178 9.51912E-05-2.85573E-05-2.85572E-05 4.12352E-10 2.05783E-19-7.48565E-19
 -1      1179 9.52018E-05-2.85605E-05-2.85604E-05 3.08120E-10-1.75305E-19-1.07256E-18
 -1      1180 9.52107E-05-2.85632E-05-2.85631E-05 2.27219E-10-3.45039E-19-4.24640E-18
 -1      1181 9.52180E-05-2.85653E-05-2.85653E-05 1.65912E-10-5.26014E-20-7.09943E-18
 -1      1182 9.52238E-05-2.85671E-05-2.85670E-05 1.20478E-10-6.72437E-20-6.19982E-18
 -1      1183 9.52285E-05-2.85685E-05-2.85684E-05 8.70416E-11 5.86890E-20-4.24080E-18
 -1      1184 9.52320E-05-2.85696E-05-2.85695E-05 6.10870E-11 1.30964E-19 9.35730E-19
 -1      1185 9.52347E-05-2.85704E-05-2.85703E-05 3.61480E-11 9.48265E-20 1.05084E-18
 -1      1186 9.52365E-05-2.85709E-05-2.85709E-05 1.11676E-12 2.49941E-19 3.84134E-18
 -1      1187 9.52373E-05-2.85711E-05-2.85711E-05-6.51353E-11 6.01024E-20 4.46525E-18
 -1      1188 9.52373E-05-2.85712E-05-2.85713E-05-5.96412E-11 3.22305E-19 2.30389E-18
 -1      1189 1.71056E-04-4.90296E-05-5.11217E-05 1.37910E-05-2.52681E-19 2.23994E-17
 -1      1190 1.37462E-04-4.02730E-05-4.36590E-05 3.63902E-07 1.37908E-19 1.83029E-17
 -1      1191 1.31557E-04-3.91991E-05-3.98107E-05-1.85419E-07 1.21556E-19 1.41994E-17
 -1      1192 1.25190E-04-3.75235E-05-3.71886E-05-4.81591E-08-2.15960E-20 1.21198E-17
 -1      1193 1.15545E-04-3.47492E-05-3.42782E-05 3.03310E-07-4.59879E-20 1.08127E-17
 -1      1194 1.03247E-04-3.11361E-05-3.09729E-05 7.04847E-07 3.06140E-20 9.19719E-18
 -1      1195 9.19335E-05-2.77184E-05-2.81172E-05 8.62576E-07-4.06708E-20 8.10505E-18
 -1      1196 8.64787E-05-2.59516E-05-2.68022E-05 5.77880E-07-3.69650E-20 7.60808E-18
 -1      1197 8.94737E-05-2.67312E-05-2.75577E-05-1.23801E-08-8.68407E-20 5.65776E-18
 -1      1198 9.89792E-05-2.95771E-05-2.99351E-05-5.29998E-07 2.02735E-19 4.09604E-18
 -1      1199 1.10081E-04-3.29826E-05-3.28154E-05-7.14639E-07 1.71858E-19 2.02346E-18
 -1      1200 1.18447E-04-3.55595E-05-3.51232E-05-5.95012E-07 2.54904E-20 7.50048E-19
 -1      1201 1.22341E-04-3.67497E-05-3.63196E-05-3.49510E-07-1.25166E-19 8.96876E-19
 -1      1202 1.22262E-04-3.67169E-05-3.64266E-05-1.25921E-07 1.78671E-21-1.24888E-19
 -1      1203 1.19639E-04-3.59123E-05-3.57714E-05 1.95773E-08-2.71729E-20-1.92488E-19
 -1      1204 1.15847E-04-3.47619E-05-3.47258E-05 9.12045E-08 2.29348E-19-1.00839E-18
 -1      1205 1.11843E-04-3.35541E-05-3.35745E-05 1.13437E-07-2.15799E-19-1.49800E-18
 -1      1206 1.08154E-04-3.24454E-05-3.24885E-05 1.09161E-07 1.85379E-19-2.15056E-18
 -1      1207 1.05005E-04-3.15009E-05-3.15481E-05 9.36572E-08 2.11676E-19-3.52268E-18
 -1      1208 1.02444E-04-3.07335E-05-3.07763E-05 7.53498E-08-2.46754E-19-2.43337E-18
 -1      1209 1.00430E-04-3.01302E-05-3.01656E-05 5.81879E-08-6.97632E-20-2.12340E-18
 -1      1210 9.88861E-05-2.96675E-05-2.96955E-05 4.36406E-08 4.23599E-20-2.87784E-18
 -1      1211 9.77273E-05-2.93201E-05-2.93415E-05 3.19664E-08-7.85098E-20-2.70202E-18
 -1      1212 9.68749E-05-2.90644E-05-2.90804E-05 2.29095E-08-2.13538E-19-2.98662E-18
 -1      1213 9.62604E-05-2.88799E-05-2.88917E-05 1.60466E-08-1.86480E-19-2.46375E-18
 -1      1214 9.58275E-05-2.87499E-05-2.87584E-05 1.09426E-08 9.35411E-20-1.81421E-18
 -1      1215 9.55307E-05-2.86606E-05-2.86666E-05 7.21123E-09-3.03079E-19-3.16596E-18
 -1      1216 9.53340E-05-2.86014E-05-2.86056E-05 4.53148E-09-3.26328E-20-4.97337E-18
 -1      1217 9.52100E-05-2.85639E-05-2.85668E-05 2.64551E-09-1.47055E-19-6.59904E-18
 -1      1218 9.51373E-05-2.85419E-05-2.85438E-05 1.35069E-09-3.73453E-19-2.64530E-18
 -1      1219 9.51000E-05-2.85306E-05-2.85317E-05 4.89894E-10-4.25745E-20-1.81142E-18
 -1      1220 9.50864E-05-2.85264E-05-2.85270E-05-5.72554E-11 1.46247E-19-3.04014E-18
 -1      1221 9.50878E-05-2.85267E-05-2.85270E-05-3.82048E-10-3.90694E-20-1.10660E-18
 -1      1222 9.50983E-05-2.85297E-05-2.85298E-05-5.52908E-10 1.47223E-19-1.63871E-18
 -1      1223 9.51135E-05-2.85342E-05-2.85342E-05-6.20456E-10 1.94257E-19-3.64877E-18
 -1      1224 9.51306E-05-2.85393E-05-2.85392E-05-6.21574E-10-5.24087E-19-2.21316E-18
 -1      1225 9.51478E-05-2.85444E-05-2.85442E-05-5.82641E-10 6.60909E-19-4.38918E-18
 -1      1226 9.51639E-05-2.85492E-05-2.85490E-05-5.22104E-10-1.86694E-19-2.91757E-18
 -1      1227 9.51784E-05-2.85536E-05-2.85534E-05-4.52508E-10 3.79540E-19-5.13208E-18
 -1      1228 9.51911E-05-2.85573E-05-2.85572E-05-3.82076E-10 2.02417E-19-8.44775E-18
 -1      1229 9.52018E-05-2.85605E-05-2.85604E-05-3.15945E-10-1.77325E-19-6.11914E-18
 -1      1230 9.52107E-05-2.85632E-05-2.85631E-05-2.57104E-10-3.03010E-19-4.40753E-18
 -1      1231 9.52180E-05-2.85654E-05-2.85653E-05-2.07100E-10 3.23481E-19-3.35250E-18
 -1      1232 9.52238E-05-2.85671E-05-2.85671E-05-1.66527E-10-5.99542E-20-3.26892E-18
 -1      1233 9.52285E-05-2.85685E-05-2.85685E-05-1.35230E-10 6.47294E-19-3.23125E-18
 -1      1234 9.52320E-05-2.85696E-05-2.85695E-05-1.12081E-10 2.02213E-19-6.29191E-18
 -1      1235 9.52347E-05-2.85704E-05-2.85703E-05-9.40220E-11-1.50850E-19-3.24068E-18
 -1      1236 9.52365E-05-2.85709E-05-2.85709E-05-7.04942E-11 3.66797E-19-5.62155E-18
 -1      1237 9.52373E-05-2.85712E-05-2.85711E-05-1.37586E-11 9.71382E-19-1.14829E-17
 -1      1238 9.52373E-05-2.85712E-05-2.85713E-05 5.40672E-11 1.17720E-19-7.92449E-18
 -1      1239 9.52371E-05-2.85710E-05-2.85713E-05 5.38073E-11-7.39962E-18 5.14402E-20
 -1      1240 9.52371E-05-2.85710E-05-2.85711E-05 5.40904E-11-1.03051E-17 2.29654E-19
 -1      1241 9.52374E-05-2.85719E-05-2.85708E-05-3.08437E-11-2.96696E-19 2.47844E-19
 -1      1242 9.52379E-05-2.85735E-05-2.85704E-05-7.40129E-11 1.39592E-18 3.26061E-19
 -1      1243 9.52384E-05-2.85755E-05-2.85698E-05-8.82715E-11 2.22128E-19-1.54276E-18
 -1      1244 9.52390E-05-2.85775E-05-2.85693E-05-8.18213E-11-1.10060E-17-2.29754E-18
 -1      1245 9.52395E-05-2.85792E-05-2.85688E-05-6.28477E-11-1.56170E-17 3.94420E-19
 -1      1246 9.52399E-05-2.85803E-05-2.85685E-05-3.35240E-11-9.29735E-18-1.23284E-19
 -1      1247 9.52400E-05-2.85807E-05-2.85684E-05 2.71035E-13-7.48427E-18 4.10978E-19
 -1      1248 9.52399E-05-2.85803E-05-2.85685E-05 3.40624E-11-1.70690E-18 1.53221E-19
 -1      1249 9.52395E-05-2.85791E-05-2.85688E-05 6.32184E-11-1.37732E-18-1.11170E-18
 -1      1250 9.52390E-05-2.85775E-05-2.85693E-05 8.30962E-11-5.43910E-18-2.34731E-19
 -1      1251 9.52384E-05-2.85755E-05-2.85698E-05 8.81052E-11-5.51409E-18 9.11666E-19
 -1      1252 9.52378E-05-2.85735E-05-2.85704E-05 7.47555E-11-1.10954E-18-2.94122E-19
 -1      1253 9.52374E-05-2.85718E-05-2.85709E-05 3.74891E-11-6.16890E-18 2.10195E-19
 -1      1254 9.52372E-05-2.85711E-05-2.85711E-05-9.79308E-11-4.47691E-18-1.01778E-19
 -1      1255 9.52371E-05-2.85710E-05-2.85713E-05-6.30302E-11-1.79524E-18 1.34044E-18
 -1      1256 3.18651E-05-9.88022E-05 1.57047E-05-1.29576E-05 7.66904E-18 1.90357E-18
 -1      1257 1.59479E-05-5.84797E-05 7.39219E-06-2.17677E-05 2.02178E-17 8.15672E-18
 -1      1258 8.19583E-06-5.90599E-06-7.71490E-06 2.68974E-06 2.58396E-17 1.58192E-17
 -1      1259 3.53237E-05 2.49475E-05-2.68746E-05 5.42700E-05 2.12080E-17 1.95411E-17
 -1      1260 1.07218E-04 1.42779E-05-4.70405E-05 1.02512E-04 1.51560E-17 2.14113E-17
 -1      1261 2.01535E-04-2.87788E-05-6.36255E-05 1.12946E-04 8.47541E-18 1.84696E-17
 -1      1262 2.85133E-04-7.74683E-05-7.46745E-05 7.11165E-05 2.58737E-18 7.66480E-18
 -1      1263 3.08534E-04-9.15923E-05-7.75887E-05-8.82295E-06 1.26298E-18-7.41747E-18
 -1      1264 2.59741E-04-6.43857E-05-7.07475E-05-7.91629E-05 6.03723E-18-2.06490E-17
 -1      1265 1.66875E-04-1.62318E-05-5.68257E-05-1.05658E-04 1.37702E-17-2.78047E-17
 -1      1266 7.31756E-05 1.85386E-05-3.80765E-05-7.87041E-05 2.17349E-17-2.75082E-17
 -1      1267 1.74698E-05 1.55620E-05-1.85542E-05-2.80825E-05 2.59353E-17-2.16307E-17
 -1      1268 6.63102E-06-1.97735E-05-2.71633E-06 1.02744E-05 2.33324E-17-1.27932E-17
 -1      1269 1.80784E-05-6.13907E-05 8.15152E-06 1.98503E-05 1.46062E-17-4.84873E-18
 -1      1270 2.67487E-05-8.10341E-05 1.24283E-05 5.11212E-06 1.78915E-18-1.22505E-18
 -1      1271 2.22662E-05-6.92877E-05 9.98814E-06-1.29410E-05-1.14451E-17-2.78266E-18
 -1      1272 9.80498E-06-3.26074E-05 1.42529E-06-1.37781E-05-2.12665E-17-9.02937E-18
 -1      1273 1.01687E-05 9.49843E-06-1.34682E-05 1.67889E-05-2.59819E-17-1.81392E-17
 -1      1274 4.57408E-05 2.66015E-05-3.14670E-05 6.48830E-05-2.39007E-17-2.48409E-17
 -1      1275 1.23671E-04 4.18856E-06-4.94965E-05 1.00676E-04-1.63672E-17-2.60615E-17
 -1      1276 2.22377E-04-4.47187E-05-6.55474E-05 9.37759E-05-7.78402E-18-2.10725E-17
 -1      1277 2.90474E-04-8.42859E-05-7.45870E-05 3.88124E-05-1.91474E-18-9.86709E-18
 -1      1278 2.96558E-04-8.76352E-05-7.54243E-05-3.65506E-05-9.28136E-19 3.11666E-18
 -1      1279 2.43478E-04-5.42266E-05-6.90018E-05-9.41293E-05-4.38763E-18 1.26606E-17
 -1      1280 1.60219E-04-8.61612E-06-5.66226E-05-1.13286E-04-1.05091E-17 1.85839E-17
 -1      1281 7.62398E-05 2.43077E-05-3.98233E-05-8.85354E-05-1.74421E-17 2.07659E-17
 -1      1282 2.22634E-05 2.26287E-05-2.14060E-05-4.02538E-05-2.24650E-17 1.88863E-17
 -1      1283 7.28281E-06-1.46220E-05-4.02159E-06 4.33045E-06-2.08844E-17 1.14832E-17
 -1      1284 1.86964E-05-6.53673E-05 9.09596E-06 2.24331E-05-1.42590E-17 4.86112E-18
 -1      1285 3.21343E-05-9.90544E-05 1.57991E-05 1.09104E-05-3.90736E-18 1.09018E-18
 -1      1286 1.26610E-04-2.70884E-05-4.56125E-05-1.91460E-05-5.40831E-19 1.01957E-17
 -1      1287 1.06672E-04-8.87784E-06-4.20645E-05-2.15752E-05-1.33916E-18 2.37063E-19
 -1      1288 1.10712E-04-8.98953E-06-4.40419E-05-2.83530E-05-1.82769E-18 2.48112E-18
 -1      1289 9.90210E-05-6.41493E-06-3.96664E-05-1.53010E-05-1.22079E-18-2.81914E-18
 -1      1290 1.01878E-04-6.36403E-06-4.09253E-05-1.90405E-05-1.44451E-18-1.55743E-18
 -1      1291 1.09068E-04-1.46037E-05-4.05812E-05-2.04057E-05-2.29789E-18 4.86620E-19
 -1      1292 9.35490E-05-6.01717E-06-3.73938E-05-8.62737E-06-7.75988E-19-4.17966E-18
 -1      1293 9.62201E-05-5.94605E-06-3.85912E-05-1.20378E-05-1.01496E-18-3.60524E-18
 -1      1294 1.01827E-04-1.21836E-05-3.85080E-05-1.45709E-05-1.80795E-18-2.03754E-18
 -1      1295 8.72294E-05-5.72099E-06-3.48070E-05-1.94407E-06-2.88838E-19-4.84124E-18
 -1      1296 9.05362E-05-5.71220E-06-3.61848E-05-5.19563E-06-4.03399E-19-4.55725E-18
 -1      1297 9.59610E-05-1.14341E-05-3.62997E-05-7.96196E-06-9.65591E-19-3.24149E-18
 -1      1298 7.88205E-05-4.72974E-06-3.17169E-05 4.05495E-06 1.98206E-19-5.24234E-18
 -1      1299 8.31339E-05-4.82155E-06-3.33477E-05 1.33685E-06 7.18919E-20-5.07460E-18
 -1      1300 8.86632E-05-1.02806E-05-3.36718E-05-1.28524E-06-1.58422E-19-3.87211E-18
 -1      1301 6.84207E-05-2.64308E-06-2.83136E-05 8.07527E-06 5.05467E-19-5.51290E-18
 -1      1302 7.34359E-05-2.83556E-06-3.00526E-05 6.51337E-06 4.39187E-19-5.42870E-18
 -1      1303 7.86497E-05-7.58032E-06-3.05624E-05 4.59011E-06 5.14202E-19-4.34819E-18
 -1      1304 5.80867E-05 2.05711E-07-2.52597E-05 8.84671E-06 6.86414E-19-5.78645E-18
 -1      1305 6.26243E-05-1.04035E-08-2.67254E-05 8.89525E-06 6.27016E-19-5.70403E-18
 -1      1306 6.65752E-05-3.14608E-06-2.72979E-05 8.22099E-06 9.63182E-19-4.66947E-18
 -1      1307 5.08233E-05 2.79913E-06-2.33170E-05 6.15698E-06 6.39113E-19-5.96897E-18
 -1      1308 5.34373E-05 2.64456E-06-2.41060E-05 7.71000E-06 6.33898E-19-5.94485E-18
 -1      1309 5.51379E-05 1.87544E-06-2.45280E-05 8.34546E-06 1.12486E-18-5.04982E-18
 -1      1310 4.99619E-05 3.70759E-06-2.32429E-05 1.59698E-06 4.88526E-19-5.88915E-18
 -1      1311 4.94217E-05 3.70665E-06-2.30264E-05 3.67405E-06 4.98479E-19-5.98772E-18
 -1      1312 4.84269E-05 5.21210E-06-2.30640E-05 5.10136E-06 9.49418E-19-5.28527E-18
 -1      1313 5.62883E-05 2.37846E-06-2.51983E-05-2.22089E-06 3.75024E-19-5.45542E-18
 -1      1314 5.25799E-05 2.52898E-06-2.39633E-05-8.23819E-07 3.48078E-19-5.71505E-18
 -1      1315 4.96645E-05 4.94269E-06-2.34822E-05 5.18791E-07 7.02587E-19-5.07619E-18
 -1      1316 6.77163E-05-4.31077E-07-2.87260E-05-2.93373E-06 4.43845E-19-4.66620E-18
 -1      1317 6.20538E-05-2.25703E-07-2.67814E-05-3.12750E-06 3.55542E-19-5.09506E-18
 -1      1318 5.87836E-05 1.15470E-06-2.58009E-05-2.39694E-06 5.44695E-19-4.52962E-18
 -1      1319 8.08617E-05-3.32481E-06-3.30434E-05 3.16322E-08 7.20825E-19-3.50095E-18
 -1      1320 7.47041E-05-3.17117E-06-3.07918E-05-1.82577E-06 5.67936E-19-4.12733E-18
 -1      1321 7.25768E-05-4.15485E-06-2.94594E-05-1.69352E-06 7.79879E-19-3.54928E-18
 -1      1322 9.34793E-05-5.46852E-06-3.75419E-05 5.81831E-06 1.12846E-18-1.81630E-18
 -1      1323 8.76056E-05-5.41200E-06-3.52414E-05 2.71063E-06 9.48465E-19-2.75749E-18
 -1      1324 8.72274E-05-8.89541E-06-3.37038E-05 2.51865E-06 1.27778E-18-2.19154E-18
 -1      1325 1.05665E-04-7.21562E-06-4.20459E-05 1.34994E-05 1.51238E-18 9.73982E-19
 -1      1326 9.98303E-05-7.19968E-06-3.97021E-05 9.32800E-06 1.27669E-18-6.61639E-19
 -1      1327 1.00966E-04-1.25721E-05-3.79955E-05 8.92436E-06 1.87623E-18-2.52575E-19
 -1      1328 1.20623E-04-1.10307E-05-4.68105E-05 2.36240E-05 1.39591E-18 5.93887E-18
 -1      1329 1.13137E-04-1.03246E-05-4.41608E-05 1.72695E-05 1.34954E-18 2.92465E-18
 -1      1330 1.15188E-04-1.70184E-05-4.21198E-05 1.61453E-05 2.30864E-18 2.85831E-18
 -1      1331 1.61265E-04-3.35973E-05-5.07783E-05 3.09699E-05 7.27390E-19 1.52390E-17
 -1      1332 1.31293E-04-2.08167E-05-4.80645E-05 2.35776E-05 7.32260E-19 8.78331E-18
 -1      1333 1.33093E-04-2.79147E-05-4.50970E-05 1.99987E-05 2.38417E-18 7.32133E-18
 -1      1334 1.39645E-04-3.89413E-05-4.62515E-05 5.68286E-06 1.36944E-18 1.47856E-17
 -1      1335 1.28021E-04-3.72205E-05-4.05621E-05-9.18989E-06-1.54816E-18 1.09562E-17
 -1      1336 1.19937E-04-3.44122E-05-3.72908E-05-6.01214E-06-1.43800E-18 9.10661E-18
 -1      1337 1.16204E-04-3.43036E-05-3.53595E-05-4.10221E-06-1.09966E-18 8.44406E-18
 -1      1338 1.12274E-04-3.35345E-05-3.37745E-05-3.88214E-06-1.07052E-18 6.73934E-18
 -1      1339 1.19737E-04-3.44983E-05-3.69149E-05-1.05904E-05-2.48657E-18 5.23249E-18
 -1      1340 1.09059E-04-3.27321E-05-3.26610E-05-3.45388E-06-8.50481E-19 6.15911E-18
 -1      1341 1.05720E-04-3.17813E-05-3.16119E-05-3.56302E-06-8.14614E-19 4.95098E-18
 -1      1342 1.12525E-04-3.35900E-05-3.38960E-05-7.44395E-06-1.91557E-18 4.24358E-18
 -1      1343 1.02959E-04-3.09474E-05-3.07832E-05-3.54085E-06-5.04064E-19 4.36452E-18
 -1      1344 9.96336E-05-2.98590E-05-2.98520E-05-3.57475E-06-4.63711E-19 3.73060E-18
 -1      1345 1.06871E-04-3.21313E-05-3.20145E-05-6.98216E-06-1.34200E-18 3.35143E-18
 -1      1346 9.71687E-05-2.90338E-05-2.91646E-05-3.22896E-06-4.47134E-19 3.25843E-18
 -1      1347 9.42342E-05-2.80166E-05-2.83711E-05-3.08971E-06-6.00718E-19 2.62755E-18
 -1      1348 1.01709E-04-3.03540E-05-3.05897E-05-6.58963E-06-9.81367E-19 2.35356E-18
 -1      1349 9.23724E-05-2.73563E-05-2.78739E-05-2.13109E-06-5.92129E-19 2.22199E-18
 -1      1350 9.05627E-05-2.67143E-05-2.73905E-05-1.80510E-06-4.53871E-19 1.41529E-18
 -1      1351 9.73500E-05-2.86598E-05-2.95042E-05-5.03175E-06-1.10724E-18 1.47655E-18
 -1      1352 8.97267E-05-2.64138E-05-2.71711E-05-3.74777E-07-3.63020E-19 1.08181E-18
 -1      1353 8.96038E-05-2.63777E-05-2.71366E-05 3.63431E-08-3.84196E-19 5.20528E-19
 -1      1354 9.46028E-05-2.75459E-05-2.88486E-05-2.11912E-06-9.00872E-19 6.15985E-19
 -1      1355 8.99782E-05-2.65272E-05-2.72306E-05 1.46789E-06-3.65078E-19 1.97954E-19
 -1      1356 9.15505E-05-2.71045E-05-2.76472E-05 1.80237E-06-3.81178E-19-3.52207E-19
 -1      1357 9.41282E-05-2.73953E-05-2.87112E-05 1.38888E-06-8.14144E-19 3.46423E-20
 -1      1358 9.29002E-05-2.76062E-05-2.80009E-05 2.73325E-06-4.15797E-19-6.16719E-19
 -1      1359 9.55872E-05-2.85707E-05-2.87222E-05 2.87521E-06-2.77264E-19-9.25939E-19
 -1      1360 9.58806E-05-2.82106E-05-2.90695E-05 4.27128E-06-6.76032E-19-8.66793E-19
 -1      1361 9.73702E-05-2.92000E-05-2.92108E-05 3.07034E-06-3.71651E-19-1.32473E-18
 -1      1362 1.00308E-04-3.02237E-05-3.00137E-05 3.01125E-06-2.50818E-19-1.64023E-18
 -1      1363 9.90438E-05-2.95922E-05-2.97718E-05 5.61444E-06-7.06776E-19-1.01302E-18
 -1      1364 1.01957E-04-3.07644E-05-3.04932E-05 2.58040E-06-2.54656E-19-1.99106E-18
 -1      1365 1.04397E-04-3.15818E-05-3.11752E-05 2.39626E-06-4.85310E-19-2.48959E-18
 -1      1366 1.02464E-04-3.09923E-05-3.05906E-05 5.28532E-06-5.34508E-19-1.83776E-18
 -1      1367 1.05546E-04-3.19189E-05-3.15356E-05 1.64377E-06-4.99604E-19-2.49144E-18
 -1      1368 1.07094E-04-3.24089E-05-3.19803E-05 1.42824E-06-2.25357E-19-2.74620E-18
 -1      1369 1.05194E-04-3.20059E-05-3.13065E-05 3.81923E-06-5.64316E-19-2.43244E-18
 -1      1370 1.07626E-04-3.25293E-05-3.21715E-05 6.51002E-07 8.62782E-20-2.63455E-18
 -1      1371 1.08240E-04-3.26993E-05-3.23574E-05 4.68156E-07 1.41987E-19-2.55147E-18
 -1      1372 1.06773E-04-3.24954E-05-3.17765E-05 1.95990E-06-1.26433E-19-2.27630E-18
 -1      1373 1.08222E-04-3.26473E-05-3.23837E-05-1.52974E-07 5.27774E-20-2.50632E-18
 -1      1374 1.08084E-04-3.25739E-05-3.23542E-05-2.77738E-07-1.43178E-19-2.64130E-18
 -1      1375 1.07185E-04-3.25248E-05-3.19550E-05 2.80504E-07-7.48896E-20-2.37756E-18
 -1      1376 1.07666E-04-3.24100E-05-3.22524E-05-6.82874E-07-1.23802E-19-2.43157E-18
 -1      1377 1.07034E-04-3.21862E-05-3.20771E-05-7.50876E-07-2.08450E-22-2.11035E-18
 -1      1378 1.06669E-04-3.22401E-05-3.18728E-05-9.40075E-07-8.79458E-21-1.88885E-18
 -1      1379 1.06379E-04-3.19644E-05-3.18943E-05-9.57647E-07-1.18699E-19-2.20671E-18
 -1      1380 1.05492E-04-3.16696E-05-3.16411E-05-9.82098E-07-3.16844E-19-2.32241E-18
 -1      1381 1.05548E-04-3.17855E-05-3.16014E-05-1.66036E-06-2.50818E-19-1.23302E-18
 -1      1382 1.04737E-04-3.14297E-05-3.14199E-05-1.04035E-06-1.10561E-19-2.40446E-18
 -1      1383 1.03775E-04-3.11202E-05-3.11415E-05-1.03639E-06-7.05704E-20-2.36971E-18
 -1      1384 1.04118E-04-3.12691E-05-3.12198E-05-1.96627E-06-2.83938E-19-1.63454E-18
 -1      1385 1.03016E-04-3.08881E-05-3.09138E-05-9.99248E-07-2.56019E-19-2.55380E-18
 -1      1386 1.02094E-04-3.05978E-05-3.06448E-05-9.79458E-07-1.48615E-19-2.69354E-18
 -1      1387 1.02604E-04-3.07599E-05-3.07955E-05-1.98282E-06-1.36020E-19-2.06614E-18
 -1      1388 1.01392E-04-3.03882E-05-3.04312E-05-8.90291E-07-2.02055E-20-3.06019E-18
 -1      1389 1.00574E-04-3.01344E-05-3.01909E-05-8.63556E-07-2.32878E-19-3.22076E-18
 -1      1390 1.01157E-04-3.02962E-05-3.03767E-05-1.82549E-06-4.14763E-19-2.23944E-18
 -1      1391 9.99603E-05-2.99541E-05-3.00026E-05-7.52942E-07 4.85886E-20-3.37573E-18
 -1      1392 9.92708E-05-2.97430E-05-2.97992E-05-7.24851E-07-4.82226E-19-3.76506E-18
 -1      1393 9.98595E-05-2.98954E-05-2.99935E-05-1.58218E-06-9.95082E-20-3.03997E-18
 -1      1394 9.87564E-05-2.95935E-05-2.96404E-05-6.12048E-07-2.12169E-19-3.01878E-18
 -1      1395 9.81983E-05-2.94244E-05-2.94752E-05-5.85748E-07 4.58034E-19-2.52533E-18
 -1      1396 9.87508E-05-2.95622E-05-2.96610E-05-1.31189E-06 7.71321E-20-3.04464E-18
 -1      1397 9.77813E-05-2.93043E-05-2.93461E-05-4.81561E-07 6.09256E-19-2.74199E-18
 -1      1398 9.73443E-05-2.91731E-05-2.92163E-05-4.58562E-07 2.96694E-19-2.21563E-18
 -1      1399 9.78372E-05-2.92935E-05-2.93838E-05-1.05012E-06 5.26140E-19-2.60298E-18
 -1      1400 9.70160E-05-2.90791E-05-2.91145E-05-3.68092E-07-1.68093E-19-2.05088E-18
 -1      1401 9.66837E-05-2.89802E-05-2.90155E-05-3.48899E-07-3.80520E-19-2.98284E-18
 -1      1402 9.71070E-05-2.90825E-05-2.91602E-05-8.15590E-07 1.58719E-19-2.13072E-18
 -1      1403 9.64319E-05-2.89085E-05-2.89373E-05-2.73693E-07-5.98717E-19-2.24946E-18
 -1      1404 9.61863E-05-2.88361E-05-2.88639E-05-2.58235E-07-2.64839E-19-2.54108E-18
 -1      1405 9.65391E-05-2.89209E-05-2.89849E-05-6.16086E-07-3.71484E-19-1.22890E-18
 -1      1406 9.59981E-05-2.87826E-05-2.88054E-05-1.97805E-07 2.47730E-19-2.49431E-18
 -1      1407 9.58219E-05-2.87312E-05-2.87526E-05-1.85717E-07 4.18118E-19-1.95037E-18
 -1      1408 9.61083E-05-2.88000E-05-2.88510E-05-4.52771E-07 5.00982E-21-1.00519E-18
 -1      1409 9.56849E-05-2.86925E-05-2.87100E-05-1.38529E-07 5.50640E-19-1.76235E-18
 -1      1410 9.55626E-05-2.86572E-05-2.86731E-05-1.29323E-07 3.03497E-19-1.41386E-18
 -1      1411 9.57899E-05-2.87118E-05-2.87513E-05-3.23167E-07 5.33588E-19-6.24566E-19
 -1      1412 9.54657E-05-2.86299E-05-2.86430E-05-9.34228E-08-7.59393E-20-1.45595E-18
 -1      1413 9.53842E-05-2.86068E-05-2.86183E-05-8.65885E-08-2.74737E-19-1.47253E-18
 -1      1414 9.55607E-05-2.86493E-05-2.86791E-05-2.23067E-07-1.01491E-20-7.82306E-19
 -1      1415 9.53180E-05-2.85882E-05-2.85977E-05-5.99606E-08 5.16330E-20-1.49889E-18
 -1      1416 9.52666E-05-2.85739E-05-2.85821E-05-5.50201E-08 2.20660E-19-1.41141E-18
 -1      1417 9.54008E-05-2.86064E-05-2.86283E-05-1.47696E-07 2.15011E-20-9.75996E-19
 -1      1418 9.52233E-05-2.85618E-05-2.85686E-05-3.57865E-08-1.89843E-19-1.61593E-18
 -1      1419 9.51934E-05-2.85538E-05-2.85594E-05-3.23191E-08 8.52507E-20-1.69953E-18
 -1      1420 9.52934E-05-2.85781E-05-2.85938E-05-9.23748E-08-1.56059E-19-1.58533E-18
 -1      1421 9.51668E-05-2.85465E-05-2.85511E-05-1.88323E-08-5.49977E-19-1.92271E-18
 -1      1422 9.51519E-05-2.85428E-05-2.85464E-05-1.64836E-08-7.54598E-19-2.72715E-18
 -1      1423 9.52247E-05-2.85606E-05-2.85714E-05-5.28704E-08-5.56797E-19-2.21428E-18
 -1      1424 9.51372E-05-2.85388E-05-2.85418E-05-7.35775E-09-1.53319E-19-2.61891E-18
 -1      1425 9.51323E-05-2.85380E-05-2.85401E-05-5.83832E-09 4.45649E-20-2.64878E-18
 -1      1426 9.51839E-05-2.85506E-05-2.85578E-05-2.55382E-08-8.80038E-19-1.50001E-18
 -1      1427 9.51257E-05-2.85362E-05-2.85381E-05 5.61245E-11 1.88625E-19-2.82814E-18
 -1      1428 9.51272E-05-2.85372E-05-2.85384E-05 9.75926E-10 3.52175E-20-3.36842E-18
 -1      1429 9.51626E-05-2.85460E-05-2.85505E-05-7.35452E-09 4.75822E-20-8.25674E-19
 -1      1430 9.51259E-05-2.85369E-05-2.85380E-05 4.53553E-09 2.68265E-19-2.71927E-18
 -1      1431 9.51312E-05-2.85389E-05-2.85394E-05 5.03387E-09 6.92660E-19-2.21901E-18
 -1      1432 9.51546E-05-2.85447E-05-2.85474E-05 4.11676E-09 6.24887E-19-6.71851E-19
 -1      1433 9.51332E-05-2.85395E-05-2.85400E-05 6.95367E-09 6.04323E-19-2.00827E-18
 -1      1434 9.51404E-05-2.85420E-05-2.85421E-05 7.16567E-09 6.36349E-19-1.43993E-18
 -1      1435 9.51550E-05-2.85457E-05-2.85470E-05 1.07906E-08 8.10993E-19-1.27403E-18
 -1      1436 9.51443E-05-2.85431E-05-2.85433E-05 7.97260E-09-3.05231E-19-1.52272E-18
 -1      1437 9.51522E-05-2.85457E-05-2.85455E-05 7.99848E-09-1.91145E-19-1.93109E-18
 -1      1438 9.51606E-05-2.85479E-05-2.85484E-05 1.41380E-08 2.90162E-19-1.64077E-18
 -1      1439 9.51570E-05-2.85471E-05-2.85470E-05 8.08313E-09-9.65193E-20-2.01407E-18
 -1      1440 9.51649E-05-2.85496E-05-2.85493E-05 7.99543E-09-2.94025E-19-1.64554E-18
 -1      1441 9.51689E-05-2.85508E-05-2.85507E-05 1.52644E-08-2.07157E-19-1.38675E-18
 -1      1442 9.51699E-05-2.85511E-05-2.85509E-05 7.64044E-09-8.81781E-20-2.36306E-18
 -1      1443 9.51772E-05-2.85534E-05-2.85530E-05 7.49032E-09-9.91244E-20-2.10454E-18
 -1      1444 9.51783E-05-2.85538E-05-2.85534E-05 1.49815E-08-2.55357E-19-1.21732E-18
 -1      1445 9.51820E-05-2.85548E-05-2.85545E-05 6.89468E-09 3.90435E-19-1.71187E-18
 -1      1446 9.51886E-05-2.85568E-05-2.85564E-05 6.71702E-09 4.62450E-19-1.12683E-18
 -1      1447 9.51879E-05-2.85568E-05-2.85562E-05 1.38704E-08-1.73606E-20-1.20508E-18
 -1      1448 9.51930E-05-2.85581E-05-2.85578E-05 6.01619E-09 4.14852E-19-9.78081E-19
 -1      1449 9.51986E-05-2.85599E-05-2.85595E-05 5.83376E-09 1.16041E-19-7.17364E-19
 -1      1450 9.51968E-05-2.85595E-05-2.85588E-05 1.23353E-08 4.21940E-19-8.77567E-19
 -1      1451 9.52026E-05-2.85610E-05-2.85607E-05 5.11583E-09-6.50329E-19-6.36707E-19
 -1      1452 9.52073E-05-2.85624E-05-2.85621E-05 4.94257E-09-1.41058E-18-1.99998E-18
 -1      1453 9.52050E-05-2.85619E-05-2.85613E-05 1.06467E-08-4.88862E-19-2.13087E-19
 -1      1454 9.52107E-05-2.85634E-05-2.85631E-05 4.26090E-09-1.36339E-18-2.38136E-18
 -1      1455 9.52147E-05-2.85646E-05-2.85643E-05 4.10437E-09-7.90722E-19-3.67890E-18
 -1      1456 9.52120E-05-2.85640E-05-2.85634E-05 8.97603E-09-2.12585E-18-1.04919E-18
 -1      1457 9.52175E-05-2.85654E-05-2.85652E-05 3.48717E-09-7.34832E-20-3.52694E-18
 -1      1458 9.52207E-05-2.85664E-05-2.85661E-05 3.35039E-09 8.18176E-20-4.67538E-18
 -1      1459 9.52181E-05-2.85658E-05-2.85652E-05 7.42272E-09-1.11540E-18-1.74314E-18
 -1      1460 9.52230E-05-2.85671E-05-2.85669E-05 2.80764E-09 2.97479E-19-3.25580E-18
 -1      1461 9.52256E-05-2.85678E-05-2.85676E-05 2.69034E-09 8.42159E-19-2.96000E-18
 -1      1462 9.52231E-05-2.85672E-05-2.85668E-05 6.03378E-09 9.13886E-19-8.95270E-19
 -1      1463 9.52275E-05-2.85684E-05-2.85682E-05 2.21848E-09 1.09352E-18-2.13700E-18
 -1      1464 9.52295E-05-2.85690E-05-2.85688E-05 2.11776E-09 1.42120E-18-5.94369E-19
 -1      1465 9.52272E-05-2.85684E-05-2.85680E-05 4.81804E-09 2.08463E-18 7.40998E-19
 -1      1466 9.52310E-05-2.85694E-05-2.85693E-05 1.70289E-09 1.43448E-18 6.53612E-19
 -1      1467 9.52325E-05-2.85699E-05-2.85697E-05 1.61368E-09 1.02195E-18 2.01169E-18
 -1      1468 9.52305E-05-2.85694E-05-2.85690E-05 3.75554E-09 2.55475E-18 2.17847E-18
 -1      1469 9.52337E-05-2.85702E-05-2.85701E-05 1.23359E-09 1.09364E-19 2.01675E-18
 -1      1470 9.52348E-05-2.85705E-05-2.85704E-05 1.14834E-09 3.42973E-19 1.57871E-18
 -1      1471 9.52330E-05-2.85701E-05-2.85698E-05 2.80451E-09 1.21632E-18 1.54536E-18
 -1      1472 9.52356E-05-2.85708E-05-2.85706E-05 7.78924E-10 6.24509E-19 2.30188E-18
 -1      1473 9.52362E-05-2.85710E-05-2.85708E-05 6.88475E-10 5.15552E-19 3.24970E-18
 -1      1474 9.52349E-05-2.85707E-05-2.85704E-05 1.90870E-09 7.88593E-19 2.07024E-18
 -1      1475 9.52367E-05-2.85712E-05-2.85710E-05 3.17120E-10 5.05136E-20 3.27704E-18
 -1      1476 9.52370E-05-2.85712E-05-2.85711E-05 2.19461E-10-4.88375E-19 2.65685E-18
 -1      1477 9.52362E-05-2.85711E-05-2.85707E-05 1.03234E-09 3.36986E-19 2.14219E-18
 -1      1478 9.52372E-05-2.85711E-05-2.85712E-05-7.65303E-11-2.19780E-18 2.26549E-18
 -1      1479 9.52370E-05-2.85712E-05-2.85710E-05 1.74856E-10-1.80474E-18 9.27386E-19
 -1      1480 1.34818E-04-4.01649E-05-4.10178E-05 2.82891E-06 1.23354E-18 1.20855E-17
 -1      1481 1.40313E-04-4.09139E-05-4.34617E-05 3.95874E-06 1.02798E-18 1.40239E-17
 -1      1482 1.37125E-04-3.73698E-05-4.31046E-05 1.21148E-05 2.04516E-18 9.64051E-18
 -1      1483 1.28392E-04-3.87572E-05-3.83379E-05 2.82513E-06 7.45786E-19 9.98957E-18
 -1      1484 1.31514E-04-3.93504E-05-3.96677E-05 2.58368E-06 7.16107E-19 1.12908E-17
 -1      1485 1.31025E-04-3.91440E-05-3.94879E-05 6.13069E-06 1.65648E-18 8.19753E-18
 -1      1486 1.21205E-04-3.66935E-05-3.60609E-05 4.12217E-06 3.65334E-19 8.90671E-18
 -1      1487 1.25254E-04-3.79774E-05-3.73257E-05 3.61474E-06 3.22395E-19 9.48639E-18
 -1      1488 1.25264E-04-3.81211E-05-3.72381E-05 6.57567E-06 8.75762E-19 7.14982E-18
 -1      1489 1.11983E-04-3.37104E-05-3.34844E-05 5.35750E-06 6.70328E-19 7.76655E-18
 -1      1490 1.17467E-04-3.56192E-05-3.49922E-05 4.88632E-06 4.94829E-19 8.50310E-18
 -1      1491 1.18806E-04-3.62056E-05-3.52732E-05 8.72604E-06 8.91105E-19 6.31454E-18
 -1      1492 1.02126E-04-3.03117E-05-3.09065E-05 5.13285E-06 4.93039E-19 6.42432E-18
 -1      1493 1.07954E-04-3.23251E-05-3.24163E-05 5.09282E-06 4.53030E-19 7.14546E-18
 -1      1494 1.11258E-04-3.33662E-05-3.33528E-05 9.75921E-06 9.70071E-19 5.24705E-18
 -1      1495 9.50517E-05-2.78041E-05-2.91160E-05 2.72722E-06 3.23183E-19 5.62337E-18
 -1      1496 9.90423E-05-2.90446E-05-3.01173E-05 3.33136E-06 2.86482E-19 5.81864E-18
 -1      1497 1.04204E-04-3.03239E-05-3.17745E-05 7.56152E-06 6.27916E-19 4.22262E-18
 -1      1498 9.39369E-05-2.74675E-05-2.87880E-05-9.98572E-07 6.85713E-19 4.44597E-18
 -1      1499 9.42354E-05-2.72732E-05-2.88738E-05 1.92937E-09 4.41119E-19 5.02669E-18
 -1      1500 1.00315E-04-2.85168E-05-3.09656E-05 2.04862E-06 8.26228E-19 2.96327E-18
 -1      1501 9.90095E-05-2.93801E-05-2.99735E-05-3.99838E-06 4.23689E-19 2.63433E-18
 -1      1502 9.56227E-05-2.79043E-05-2.91475E-05-3.16435E-06 6.30087E-19 3.59301E-18
 -1      1503 1.01243E-04-2.90115E-05-3.11274E-05-4.19126E-06 1.30152E-18 1.65878E-18
 -1      1504 1.07229E-04-3.23076E-05-3.20346E-05-4.82328E-06 6.27019E-19 1.25795E-18
 -1      1505 1.02063E-04-3.03949E-05-3.07226E-05-4.53358E-06 5.09214E-19 2.19080E-18
 -1      1506 1.06010E-04-3.13541E-05-3.20781E-05-7.86765E-06 9.35343E-19 1.91112E-19
 -1      1507 1.14717E-04-3.48018E-05-3.40636E-05-3.67468E-06 4.53599E-19 4.22987E-19
 -1      1508 1.10088E-04-3.32906E-05-3.28257E-05-3.87694E-06 5.00127E-19 1.06440E-18
 -1      1509 1.11794E-04-3.39914E-05-3.33460E-05-7.73277E-06 9.36031E-19-5.20740E-19
 -1      1510 1.19138E-04-3.61314E-05-3.53943E-05-1.71820E-06 3.02616E-20-4.91835E-19
 -1      1511 1.16405E-04-3.53848E-05-3.46097E-05-2.13139E-06 2.20679E-19 7.82976E-20
 -1      1512 1.16071E-04-3.56805E-05-3.44163E-05-4.98403E-06 5.05864E-19-7.95907E-19
 -1      1513 1.20161E-04-3.63161E-05-3.58173E-05 3.73016E-08 1.93527E-19-6.09675E-19
 -1      1514 1.19479E-04-3.62634E-05-3.55789E-05-3.48741E-07 3.50725E-22-5.01761E-19
 -1      1515 1.17810E-04-3.61377E-05-3.49608E-05-1.59848E-06 1.60116E-19-1.53844E-18
 -1      1516 1.18636E-04-3.57231E-05-3.54843E-05 1.17142E-06-8.08519E-20-9.90724E-19
 -1      1517 1.19464E-04-3.61142E-05-3.56796E-05 9.11643E-07 4.72486E-21-8.87815E-19
 -1      1518 1.17241E-04-3.56932E-05-3.49180E-05 1.09263E-06 2.29969E-19-1.72768E-18
 -1      1519 1.15683E-04-3.47390E-05-3.46854E-05 1.70025E-06 8.13946E-20-1.01574E-18
 -1      1520 1.17335E-04-3.53330E-05-3.51357E-05 1.56754E-06 4.24641E-20-7.55368E-19
 -1      1521 1.15136E-04-3.47862E-05-3.44170E-05 2.68152E-06-1.29861E-19-1.55673E-18
 -1      1522 1.12214E-04-3.36426E-05-3.36906E-05 1.80612E-06 1.07268E-19-1.37730E-18
 -1      1523 1.14146E-04-3.42760E-05-3.42398E-05 1.76408E-06 4.25546E-19-8.01545E-19
 -1      1524 1.12277E-04-3.37351E-05-3.36518E-05 3.31951E-06 4.93029E-19-1.19862E-18
 -1      1525 1.08809E-04-3.25968E-05-3.26864E-05 1.67445E-06-2.66633E-19-1.15817E-18
 -1      1526 1.10686E-04-3.31810E-05-3.32317E-05 1.68516E-06-2.44877E-19-1.43539E-18
 -1      1527 1.09245E-04-3.27176E-05-3.27944E-05 3.33013E-06-1.56617E-19-8.74482E-19
 -1      1528 1.05769E-04-3.16789E-05-3.17762E-05 1.43844E-06 5.44511E-19-2.00407E-18
 -1      1529 1.07425E-04-3.21771E-05-3.22635E-05 1.47435E-06 3.88959E-19-1.21316E-18
 -1      1530 1.06392E-04-3.18151E-05-3.19617E-05 3.00525E-06 3.83426E-19-1.32268E-18
 -1      1531 1.03208E-04-3.09141E-05-3.10030E-05 1.17741E-06-4.89216E-19-2.28177E-18
 -1      1532 1.04587E-04-3.13187E-05-3.14116E-05 1.22179E-06 1.20209E-19-2.00381E-18
 -1      1533 1.03892E-04-3.10544E-05-3.12177E-05 2.54541E-06 4.67254E-19-8.81933E-19
 -1      1534 1.01135E-04-3.02990E-05-3.03738E-05 9.31935E-07 4.83272E-20-1.50121E-18
 -1      1535 1.02238E-04-3.06169E-05-3.07024E-05 9.75895E-07-5.43001E-19-2.16177E-18
 -1      1536 1.01801E-04-3.04347E-05-3.05880E-05 2.06714E-06-8.16522E-19-9.45652E-19
 -1      1537 9.95044E-05-2.98174E-05-2.98774E-05 7.19077E-07 1.46778E-19-1.74600E-18
 -1      1538 1.00362E-04-3.00609E-05-3.01338E-05 7.58511E-07 3.44049E-19-9.58355E-19
 -1      1539 1.00111E-04-2.99423E-05-3.00747E-05 1.62857E-06 7.16520E-20-6.95528E-19
 -1      1540 9.82509E-05-2.94485E-05-2.94951E-05 5.43150E-07-3.05615E-19-1.62344E-18
 -1      1541 9.89027E-05-2.96311E-05-2.96905E-05 5.76622E-07-2.37011E-19-2.16439E-18
 -1      1542 9.87787E-05-2.95592E-05-2.96680E-05 1.25282E-06 7.33610E-20-8.92712E-19
 -1      1543 9.73066E-05-2.91713E-05-2.92068E-05 4.02295E-07 2.99640E-19-2.38872E-18
 -1      1544 9.77920E-05-2.93055E-05-2.93526E-05 4.29728E-07 2.50695E-19-1.65344E-18
 -1      1545 9.77516E-05-2.92664E-05-2.93532E-05 9.44172E-07 3.59306E-19-1.01427E-18
 -1      1546 9.66089E-05-2.89669E-05-2.89935E-05 2.92120E-07 1.39876E-20-2.38236E-18
 -1      1547 9.69632E-05-2.90637E-05-2.91002E-05 3.14052E-07-1.58945E-19-2.55028E-18
 -1      1548 9.69748E-05-2.90466E-05-2.91142E-05 6.97884E-07 7.48640E-20-1.68075E-18
 -1      1549 9.61034E-05-2.88193E-05-2.88389E-05 2.07566E-07-4.06642E-20-1.95874E-18
 -1      1550 9.63567E-05-2.88875E-05-2.89153E-05 2.24762E-07-1.86072E-19-2.02912E-18
 -1      1551 9.63982E-05-2.88846E-05-2.89362E-05 5.05639E-07-2.52473E-19-2.01132E-18
 -1      1552 9.57454E-05-2.87150E-05-2.87292E-05 1.43777E-07 3.02142E-19-2.24772E-18
 -1      1553 9.59221E-05-2.87618E-05-2.87826E-05 1.57033E-07 2.34857E-19-1.34018E-18
 -1      1554 9.59785E-05-2.87675E-05-2.88063E-05 3.58326E-07-2.08093E-19-1.49945E-18
 -1      1555 9.54984E-05-2.86433E-05-2.86533E-05 9.64613E-08 1.89633E-19-2.44191E-18
 -1      1556 9.56181E-05-2.86743E-05-2.86897E-05 1.06519E-07 1.53493E-19-1.90635E-18
 -1      1557 9.56796E-05-2.86847E-05-2.87133E-05 2.47352E-07 2.54148E-19-9.72630E-19
 -1      1558 9.53336E-05-2.85957E-05-2.86026E-05 6.19921E-08 5.66926E-19-3.61179E-18
 -1      1559 9.54115E-05-2.86153E-05-2.86264E-05 6.94989E-08 1.84256E-19-3.24592E-18
 -1      1560 9.54720E-05-2.86278E-05-2.86486E-05 1.65172E-07 9.36004E-19-1.87014E-18
 -1      1561 9.52286E-05-2.85656E-05-2.85702E-05 3.73873E-08-1.69389E-18-3.50993E-18
 -1      1562 9.52765E-05-2.85771E-05-2.85849E-05 4.28931E-08-7.22046E-19-4.02401E-18
 -1      1563 9.53325E-05-2.85900E-05-2.86047E-05 1.05425E-07-3.91777E-19-1.40851E-18
 -1      1564 9.51660E-05-2.85478E-05-2.85508E-05 2.02449E-08-4.82701E-19-1.75098E-18
 -1      1565 9.51930E-05-2.85537E-05-2.85592E-05 2.42038E-08-1.16095E-18-2.87023E-18
 -1      1566 9.52426E-05-2.85661E-05-2.85763E-05 6.28849E-08-1.73937E-18-2.62364E-18
 -1      1567 9.51330E-05-2.85387E-05-2.85404E-05 8.66010E-09 2.40389E-19-2.16537E-18
 -1      1568 9.51456E-05-2.85408E-05-2.85445E-05 1.14409E-08-3.64165E-20-2.01663E-18
 -1      1569 9.51883E-05-2.85520E-05-2.85589E-05 3.33467E-08-2.33776E-19-2.85394E-18
 -1      1570 9.51199E-05-2.85352E-05-2.85362E-05 1.14376E-09-6.66079E-19-1.87696E-18
 -1      1571 9.51230E-05-2.85350E-05-2.85373E-05 3.04109E-09-2.81174E-19-1.95759E-18
 -1      1572 9.51588E-05-2.85448E-05-2.85492E-05 1.34757E-08-3.19055E-19-1.73349E-18
 -1      1573 9.51195E-05-2.85355E-05-2.85359E-05-3.45264E-09 6.04775E-19-1.00250E-18
 -1      1574 9.51168E-05-2.85338E-05-2.85352E-05-2.20640E-09-1.54263E-19-1.19392E-18
 -1      1575 9.51461E-05-2.85421E-05-2.85448E-05 6.66911E-10-5.54452E-19-1.45843E-18
 -1      1576 9.51268E-05-2.85379E-05-2.85379E-05-6.00242E-09 1.04655E-18-2.48010E-18
 -1      1577 9.51207E-05-2.85355E-05-2.85363E-05-5.22672E-09 1.10894E-18-7.60556E-19
 -1      1578 9.51442E-05-2.85424E-05-2.85438E-05-7.08687E-09 1.19074E-18-1.49905E-18
 -1      1579 9.51383E-05-2.85415E-05-2.85413E-05-7.15971E-09-7.41076E-19-2.50408E-18
 -1      1580 9.51306E-05-2.85388E-05-2.85391E-05-6.71625E-09 3.08529E-19-2.34558E-18
 -1      1581 9.51491E-05-2.85444E-05-2.85450E-05-1.13098E-08 4.25918E-19-1.91103E-18
 -1      1582 9.51516E-05-2.85456E-05-2.85453E-05-7.40620E-09 1.05963E-18-4.00815E-18
 -1      1583 9.51434E-05-2.85429E-05-2.85429E-05-7.19068E-09-1.86154E-21-3.85056E-18
 -1      1584 9.51578E-05-2.85473E-05-2.85474E-05-1.31416E-08 5.48436E-19-3.78179E-18
 -1      1585 9.51651E-05-2.85497E-05-2.85493E-05-7.08979E-09 1.28956E-19-5.49354E-18
 -1      1586 9.51571E-05-2.85472E-05-2.85470E-05-7.02487E-09 3.40646E-19-5.02478E-18
 -1      1587 9.51681E-05-2.85506E-05-2.85504E-05-1.34194E-08 9.14884E-19-5.71729E-18
 -1      1588 9.51780E-05-2.85536E-05-2.85532E-05-6.45594E-09-1.32362E-19-3.49857E-18
 -1      1589 9.51706E-05-2.85513E-05-2.85510E-05-6.48539E-09-7.21603E-19-4.41818E-18
 -1      1590 9.51788E-05-2.85540E-05-2.85535E-05-1.27463E-08-1.14355E-18-5.07992E-18
 -1      1591 9.51896E-05-2.85571E-05-2.85567E-05-5.67286E-09 9.27562E-19-4.74962E-18
 -1      1592 9.51831E-05-2.85551E-05-2.85548E-05-5.75670E-09 1.00738E-18-2.83386E-18
 -1      1593 9.51890E-05-2.85571E-05-2.85566E-05-1.15462E-08 8.24261E-19-3.92656E-18
 -1      1594 9.51998E-05-2.85601E-05-2.85598E-05-4.85137E-09 8.86195E-20-4.76472E-18
 -1      1595 9.51942E-05-2.85584E-05-2.85581E-05-4.96200E-09 2.90785E-19-4.78714E-18
 -1      1596 9.51984E-05-2.85599E-05-2.85594E-05-1.01080E-08 9.36534E-19-1.93933E-18
 -1      1597 9.52085E-05-2.85627E-05-2.85624E-05-4.06025E-09-6.73904E-19-3.02171E-18
 -1      1598 9.52037E-05-2.85613E-05-2.85610E-05-4.17938E-09-4.42068E-19-4.18272E-18
 -1      1599 9.52066E-05-2.85623E-05-2.85618E-05-8.62063E-09-5.66624E-19-1.11679E-18
 -1      1600 9.52157E-05-2.85648E-05-2.85646E-05-3.33797E-09-3.91272E-19-3.31751E-18
 -1      1601 9.52118E-05-2.85637E-05-2.85634E-05-3.45424E-09-2.46477E-19-3.46847E-18
 -1      1602 9.52137E-05-2.85644E-05-2.85640E-05-7.19957E-09-3.16545E-19-1.47718E-18
 -1      1603 9.52216E-05-2.85666E-05-2.85664E-05-2.70119E-09-3.04629E-19-2.00116E-18
 -1      1604 9.52185E-05-2.85657E-05-2.85655E-05-2.80845E-09-5.67097E-19-2.83394E-18
 -1      1605 9.52196E-05-2.85662E-05-2.85658E-05-5.90728E-09-5.47210E-19-2.59812E-18
 -1      1606 9.52264E-05-2.85680E-05-2.85679E-05-2.15066E-09 1.23130E-18-2.46292E-18
 -1      1607 9.52239E-05-2.85673E-05-2.85671E-05-2.24682E-09 1.07521E-18-1.63082E-18
 -1      1608 9.52245E-05-2.85676E-05-2.85672E-05-4.76782E-09 7.77455E-19-2.16401E-18
 -1      1609 9.52302E-05-2.85691E-05-2.85690E-05-1.67485E-09 3.08853E-19-4.38012E-18
 -1      1610 9.52282E-05-2.85686E-05-2.85684E-05-1.76136E-09 6.52837E-19-3.11236E-18
 -1      1611 9.52284E-05-2.85687E-05-2.85684E-05-3.77677E-09 1.34933E-18-2.51761E-18
 -1      1612 9.52331E-05-2.85700E-05-2.85699E-05-1.25221E-09-4.57500E-19-3.38168E-18
 -1      1613 9.52316E-05-2.85696E-05-2.85694E-05-1.33378E-09-6.42630E-20-3.77560E-18
 -1      1614 9.52315E-05-2.85696E-05-2.85694E-05-2.90761E-09-3.08051E-19-1.65655E-18
 -1      1615 9.52352E-05-2.85706E-05-2.85705E-05-8.54068E-10 2.67710E-20-2.95039E-18
 -1      1616 9.52342E-05-2.85703E-05-2.85702E-05-9.38586E-10-5.07132E-19-3.67949E-18
 -1      1617 9.52339E-05-2.85703E-05-2.85701E-05-2.11727E-09-5.95505E-19-1.49547E-18
 -1      1618 9.52365E-05-2.85710E-05-2.85709E-05-4.47631E-10 1.73355E-18-6.94713E-18
 -1      1619 9.52359E-05-2.85709E-05-2.85707E-05-5.48596E-10 1.69233E-18-3.34425E-18
 -1      1620 9.52355E-05-2.85708E-05-2.85706E-05-1.35611E-09 1.65882E-18-4.27007E-18
 -1      1621 9.52371E-05-2.85712E-05-2.85711E-05-6.31980E-11-5.15412E-19-7.00648E-18
 -1      1622 9.52369E-05-2.85712E-05-2.85710E-05-1.64587E-10 7.29162E-20-6.78818E-18
 -1      1623 9.52366E-05-2.85711E-05-2.85709E-05-5.93770E-10 1.18953E-18-4.59144E-18
 -1      1624 9.52372E-05-2.85711E-05-2.85712E-05 5.77816E-11-4.28225E-18-4.22260E-18
 -1      1625 9.52372E-05-2.85716E-05-2.85710E-05-3.44406E-10-3.06042E-18 3.53807E-18
 -1      1626 9.52371E-05-2.85713E-05-2.85710E-05-2.44849E-10-6.50225E-18 1.87462E-18
 -1      1627 9.52375E-05-2.85727E-05-2.85706E-05-7.46055E-10 1.32398E-18 2.18254E-18
 -1      1628 9.52373E-05-2.85720E-05-2.85708E-05-6.71411E-10-1.52324E-18 1.38306E-18
 -1      1629 9.52372E-05-2.85721E-05-2.85708E-05-1.01477E-09-1.03245E-18 3.94770E-18
 -1      1630 9.52380E-05-2.85742E-05-2.85702E-05-1.00578E-09 4.29067E-19-1.08922E-18
 -1      1631 9.52377E-05-2.85733E-05-2.85705E-05-9.67408E-10 7.40054E-19 1.14284E-18
 -1      1632 9.52376E-05-2.85732E-05-2.85704E-05-1.67332E-09 6.94146E-19 1.04351E-18
 -1      1633 9.52386E-05-2.85760E-05-2.85697E-05-1.07859E-09-2.60336E-18-2.55329E-18
 -1      1634 9.52383E-05-2.85750E-05-2.85700E-05-1.07946E-09-5.88862E-20-2.07781E-18
 -1      1635 9.52382E-05-2.85747E-05-2.85701E-05-2.02380E-09-5.52220E-19-2.27508E-18
 -1      1636 9.52391E-05-2.85776E-05-2.85692E-05-9.74866E-10-9.42634E-18-3.84634E-18
 -1      1637 9.52388E-05-2.85767E-05-2.85695E-05-1.00834E-09-4.13824E-18-5.27642E-18
 -1      1638 9.52387E-05-2.85762E-05-2.85696E-05-2.02109E-09-3.68849E-18-6.54678E-18
 -1      1639 9.52396E-05-2.85789E-05-2.85689E-05-7.21598E-10-8.73194E-18 2.16203E-18
 -1      1640 9.52393E-05-2.85782E-05-2.85691E-05-7.81747E-10-1.00513E-17 6.52484E-19
 -1      1641 9.52392E-05-2.85776E-05-2.85693E-05-1.70036E-09-4.37316E-18-3.02641E-18
 -1      1642 9.52398E-05-2.85797E-05-2.85686E-05-3.64071E-10-6.84304E-18 2.52276E-19
 -1      1643 9.52397E-05-2.85793E-05-2.85687E-05-4.40418E-10-8.26899E-18 2.64833E-18
 -1      1644 9.52395E-05-2.85786E-05-2.85690E-05-1.12465E-09-5.41890E-18 2.74881E-18
 -1      1645 9.52399E-05-2.85798E-05-2.85686E-05 4.43748E-11-3.48237E-18 2.96340E-18
 -1      1646 9.52399E-05-2.85798E-05-2.85686E-05-3.74392E-11-5.84584E-18 1.80045E-18
 -1      1647 9.52397E-05-2.85792E-05-2.85688E-05-3.88588E-10-3.98519E-18 1.87228E-18
 -1      1648 9.52397E-05-2.85793E-05-2.85687E-05 4.46752E-10-1.20939E-18-1.22646E-18
 -1      1649 9.52398E-05-2.85797E-05-2.85686E-05 3.70624E-10-2.54544E-18 2.24660E-18
 -1      1650 9.52397E-05-2.85791E-05-2.85688E-05 4.01687E-10-1.36189E-18 3.73987E-18
 -1      1651 9.52393E-05-2.85782E-05-2.85691E-05 7.86455E-10-2.74433E-18-1.90971E-18
 -1      1652 9.52395E-05-2.85789E-05-2.85689E-05 7.26915E-10-5.19585E-19-2.67171E-18
 -1      1653 9.52395E-05-2.85786E-05-2.85690E-05 1.13599E-09-7.55707E-19-1.23960E-18
 -1      1654 9.52388E-05-2.85767E-05-2.85695E-05 1.00866E-09-3.23592E-18-8.05687E-20
 -1      1655 9.52391E-05-2.85776E-05-2.85692E-05 9.75827E-10-1.66558E-18-1.83676E-18
 -1      1656 9.52392E-05-2.85775E-05-2.85693E-05 1.70498E-09-1.70068E-18-2.73156E-18
 -1      1657 9.52383E-05-2.85750E-05-2.85700E-05 1.07843E-09-1.49402E-18 1.37505E-18
 -1      1658 9.52386E-05-2.85759E-05-2.85697E-05 1.07832E-09-3.22045E-18 1.60135E-18
 -1      1659 9.52387E-05-2.85762E-05-2.85697E-05 2.02163E-09-2.97397E-19 2.29164E-19
 -1      1660 9.52377E-05-2.85733E-05-2.85705E-05 9.65177E-10-2.68442E-18-1.64622E-18
 -1      1661 9.52380E-05-2.85742E-05-2.85702E-05 1.00234E-09-1.29284E-18 7.86662E-19
 -1      1662 9.52381E-05-2.85747E-05-2.85701E-05 2.01991E-09-8.51309E-19 9.97766E-19
 -1      1663 9.52373E-05-2.85720E-05-2.85708E-05 6.71682E-10-3.94178E-18 1.08061E-18
 -1      1664 9.52375E-05-2.85727E-05-2.85706E-05 7.48698E-10-3.10791E-18-6.89202E-19
 -1      1665 9.52376E-05-2.85732E-05-2.85704E-05 1.66414E-09-1.78217E-18-1.88911E-18
 -1      1666 9.52371E-05-2.85714E-05-2.85710E-05 4.09456E-10-2.34962E-18 8.05015E-20
 -1      1667 9.52371E-05-2.85717E-05-2.85709E-05 5.51461E-10-3.26577E-18 1.15615E-18
 -1      1668 9.52372E-05-2.85722E-05-2.85707E-05 1.24114E-09-1.57020E-18 1.64276E-18
 -1      1669 9.52368E-05-2.85716E-05-2.85708E-05 8.51005E-10-4.61082E-19 1.14587E-18
 -1      1670 1.84368E-05-5.87119E-05 1.15035E-05-5.18791E-06 8.21834E-18 5.46019E-18
 -1      1671 2.16089E-05-6.78604E-05 1.34090E-05 1.69530E-06 2.04018E-18 3.34091E-18
 -1      1672 2.04424E-05-3.28249E-05 1.39856E-06 7.55562E-06 1.41277E-17 9.23944E-18
 -1      1673 2.35185E-05-5.38621E-05 7.34725E-06 2.73364E-06 9.47576E-18 6.16095E-18
 -1      1674 3.56229E-05-8.87186E-06-1.34439E-05 3.06489E-05 1.62910E-17 1.15188E-17
 -1      1675 2.92913E-05-2.77609E-05-5.19344E-06 1.35302E-05 1.60801E-17 9.29280E-18
 -1      1676 8.15265E-05-5.09406E-06-3.20433E-05 6.03533E-05 1.28588E-17 1.24361E-17
 -1      1677 5.64666E-05-9.95042E-06-2.22255E-05 3.85287E-05 1.46859E-17 1.15281E-17
 -1      1678 1.41703E-04-1.59755E-05-5.03210E-05 7.82921E-05 9.85777E-18 1.35373E-17
 -1      1679 1.01496E-04-4.15395E-06-4.12117E-05 6.58318E-05 1.22684E-17 1.37634E-17
 -1      1680 2.05280E-04-4.09288E-05-6.46460E-05 7.04041E-05 6.43512E-18 9.06241E-18
 -1      1681 1.64502E-04-2.13212E-05-5.79817E-05 7.74222E-05 9.13229E-18 1.24099E-17
 -1      1682 2.49738E-04-6.25555E-05-7.35160E-05 3.02763E-05 3.76104E-18 1.22015E-18
 -1      1683 2.23275E-04-4.70289E-05-6.97968E-05 6.02180E-05 5.71927E-18 7.03461E-18
 -1      1684 2.39577E-04-5.70704E-05-7.28628E-05-1.92471E-05 5.13133E-18-7.69275E-18
 -1      1685 2.45765E-04-5.96002E-05-7.38385E-05 1.42411E-05 4.18858E-18-1.79703E-18
 -1      1686 1.99838E-04-3.96225E-05-6.47413E-05-5.51817E-05 8.12140E-18-1.48231E-17
 -1      1687 2.32915E-04-5.65946E-05-7.00982E-05-3.24553E-05 5.54076E-18-1.01839E-17
 -1      1688 1.39422E-04-1.60621E-05-5.12463E-05-6.92236E-05 1.28465E-17-1.91209E-17
 -1      1689 1.82219E-04-3.46977E-05-5.89541E-05-6.81588E-05 9.55030E-18-1.76166E-17
 -1      1690 7.98451E-05-7.05322E-06-3.26075E-05-4.89475E-05 1.58294E-17-1.70821E-17
 -1      1691 1.17239E-04-1.40063E-05-4.25792E-05-6.61395E-05 1.34949E-17-1.83959E-17
 -1      1692 3.63337E-05-9.62106E-06-1.53090E-05-2.46727E-05 1.77021E-17-1.41539E-17
 -1      1693 5.27182E-05-5.23688E-07-2.37025E-05-4.46220E-05 1.76962E-17-1.72812E-17
 -1      1694 2.05163E-05-2.97227E-05-1.29511E-06-4.25253E-06 1.42124E-17-8.84980E-18
 -1      1695 2.23526E-05-1.18174E-05-7.99129E-06-1.59157E-05 1.72422E-17-1.27085E-17
 -1      1696 1.74699E-05-4.77929E-05 7.39398E-06 1.66666E-06 7.22138E-18-4.72644E-18
 -1      1697 1.38792E-05-3.37543E-05 3.71609E-06 2.34392E-06 1.25056E-17-7.30783E-18
 -1      1698 1.58926E-05-5.03253E-05 9.55530E-06-9.74804E-07-1.75802E-18-3.76697E-18
 -1      1699 1.52056E-05-4.87435E-05 9.15240E-06 5.37951E-06 4.52654E-18-4.22161E-18
 -1      1700 1.38719E-05-3.86833E-05 5.94156E-06-1.38599E-06-1.00640E-17-5.52509E-18
 -1      1701 1.70044E-05-4.97245E-05 8.63925E-06 2.24229E-06-4.43972E-18-3.76612E-18
 -1      1702 1.59635E-05-1.59893E-05-3.48722E-06 1.05746E-05-1.57904E-17-9.87047E-18
 -1      1703 1.78302E-05-3.41839E-05 2.00964E-06 3.88400E-06-1.20804E-17-6.58727E-18
 -1      1704 4.23280E-05-6.85146E-07-1.91971E-05 3.94627E-05-1.66874E-17-1.44572E-17
 -1      1705 3.05990E-05-1.43108E-05-1.05881E-05 2.07618E-05-1.55397E-17-1.10415E-17
 -1      1706 8.36364E-05 1.14917E-06-3.56260E-05 6.45224E-05-1.58192E-17-1.77420E-17
 -1      1707 5.71591E-05 2.03340E-06-2.72864E-05 4.64040E-05-1.75446E-17-1.61521E-17
 -1      1708 1.51688E-04-2.22960E-05-5.25414E-05 7.12453E-05-1.06697E-17-1.63215E-17
 -1      1709 1.08832E-04-6.08168E-06-4.37730E-05 6.47461E-05-1.40040E-17-1.71744E-17
 -1      1710 2.11529E-04-4.75782E-05-6.56465E-05 4.61341E-05-6.27154E-18-1.10445E-17
 -1      1711 1.73264E-04-2.84651E-05-5.94464E-05 6.13317E-05-9.18628E-18-1.44927E-17
 -1      1712 2.43203E-04-6.07612E-05-7.22920E-05 6.21350E-06-3.78624E-18-4.01324E-18
 -1      1713 2.26654E-04-5.20118E-05-7.00076E-05 3.64541E-05-5.30518E-18-9.44950E-18
 -1      1714 2.36958E-04-5.60676E-05-7.16238E-05-3.96286E-05-3.82584E-18 3.48639E-18
 -1      1715 2.48248E-04-6.31531E-05-7.30775E-05-8.47354E-06-3.06054E-18-1.37616E-18
 -1      1716 1.93484E-04-3.43834E-05-6.38187E-05-6.83331E-05-6.09461E-18 8.81507E-18
 -1      1717 2.24476E-04-5.11732E-05-6.84295E-05-5.09739E-05-4.21145E-18 5.49343E-18
 -1      1718 1.35487E-04-1.05431E-05-5.12041E-05-7.64855E-05-9.87598E-18 1.23159E-17
 -1      1719 1.75084E-04-2.80339E-05-5.83489E-05-7.67719E-05-7.05748E-18 1.06701E-17
 -1      1720 8.27333E-05-2.44165E-06-3.46479E-05-5.79304E-05-1.30070E-17 1.21981E-17
 -1      1721 1.15652E-04-8.75274E-06-4.33754E-05-7.33480E-05-1.06438E-17 1.21363E-17
 -1      1722 4.20565E-05-7.31300E-06-1.75935E-05-3.26000E-05-1.44402E-17 1.11910E-17
 -1      1723 5.97552E-05 1.57564E-06-2.62859E-05-5.33283E-05-1.41709E-17 1.28325E-17
 -1      1724 2.74808E-05-3.32724E-05-2.11407E-06-1.11615E-05-1.11571E-17 7.19703E-18
 -1      1725 3.08880E-05-1.32388E-05-9.83531E-06-2.57124E-05-1.31070E-17 1.00246E-17
 -1      1726 2.22014E-05-5.72165E-05 8.83633E-06-1.94658E-07-6.40780E-18 4.40288E-18
 -1      1727 1.78317E-05-3.81673E-05 4.13053E-06-2.00305E-06-1.07031E-17 6.75276E-18
 -1      1728 2.19776E-05-6.89030E-05 1.35821E-05-2.57715E-06-7.48565E-20 2.59743E-18
 -1      1729 1.94674E-05-6.11344E-05 1.18821E-05 4.27901E-06-4.90093E-18 3.65685E-18
 -1      1730 1.18465E-04-3.29753E-05-3.59058E-05 4.51290E-05 7.79779E-18 6.99649E-18
 -1      1731 7.69322E-05-3.46966E-05-1.91427E-05 4.18325E-05 8.49066E-18 6.40484E-18
 -1      1732 9.52371E-05-2.85712E-05-2.85711E-05-4.37789E-11-5.56866E-18-1.20406E-18
 -1      1733 9.52370E-05-2.85714E-05-2.85709E-05-4.14331E-10-2.03271E-18 6.09779E-19
 -1      1734 1.84407E-05-4.03811E-05 5.62721E-06 1.64014E-05 4.33766E-18 8.27318E-18
 -1      1735 4.09574E-05-3.71944E-05-4.43915E-06 3.08835E-05 6.72290E-18 7.65826E-18
 -1      1736 1.10680E-05-4.46619E-05 9.79332E-06-3.42911E-07 8.37398E-19 6.20621E-18
 -1      1737 1.58849E-04-3.07400E-05-5.19301E-05 4.43098E-05 7.52906E-18 6.12490E-18
 -1      1738 1.94703E-04-3.35763E-05-6.41766E-05 3.38128E-05 7.28067E-18 2.83883E-18
 -1      1739 2.05536E-04-3.19808E-05-6.93891E-05 1.32573E-05 7.37257E-18-9.71123E-19
 -1      1740 1.97492E-04-3.08171E-05-6.70547E-05-6.60410E-06 7.81727E-18-4.52252E-18
 -1      1741 1.80235E-04-3.35463E-05-5.91401E-05-2.76493E-05 8.31003E-18-8.63127E-18
 -1      1742 1.42347E-04-3.31731E-05-4.51959E-05-3.82227E-05 9.27099E-18-1.07294E-17
 -1      1743 9.67164E-05-2.99960E-05-2.88684E-05-4.04469E-05 9.98567E-18-1.11334E-17
 -1      1744 5.18818E-05-2.61915E-05-1.32858E-05-3.22493E-05 1.02195E-17-1.09257E-17
 -1      1745 2.39887E-05-2.85890E-05-1.51427E-06-1.87170E-05 7.70122E-18-9.02408E-18
 -1      1746 1.00025E-05-3.04247E-05 4.95691E-06-5.71025E-06 3.37797E-18-7.58899E-18
 -1      1747 7.94342E-06-3.00310E-05 5.74835E-06 5.66569E-06-1.27097E-18-7.20020E-18
 -1      1748 1.68278E-05-2.73084E-05 1.13323E-06 1.73626E-05-5.88349E-18-7.78974E-18
 -1      1749 4.09760E-05-2.36753E-05-9.48164E-06 3.25163E-05-8.26027E-18-9.17575E-18
 -1      1750 7.66748E-05-2.35101E-05-2.36498E-05 4.20790E-05-9.51091E-18-1.01225E-17
 -1      1751 1.19468E-04-2.52234E-05-3.92700E-05 4.51680E-05-1.01076E-17-1.04626E-17
 -1      1752 1.60999E-04-2.96490E-05-5.35090E-05 3.21701E-05-8.42131E-18-8.11288E-18
 -1      1753 1.88728E-04-3.03150E-05-6.39652E-05 1.49429E-05-7.50598E-18-5.69079E-18
 -1      1754 2.05362E-04-3.27625E-05-6.88620E-05-3.18574E-06-6.40865E-18-2.42956E-18
 -1      1755 1.99460E-04-3.25500E-05-6.65607E-05-2.27878E-05-5.86846E-18 1.17272E-18
 -1      1756 1.74712E-04-2.93323E-05-5.83730E-05-3.96352E-05-6.43981E-18 4.16910E-18
 -1      1757 1.39762E-04-2.84025E-05-4.56242E-05-4.63363E-05-7.21799E-18 5.63192E-18
 -1      1758 1.00314E-04-2.82363E-05-3.04555E-05-4.67652E-05-7.71647E-18 6.47896E-18
 -1      1759 6.28102E-05-3.15562E-05-1.49659E-05-3.96967E-05-6.23670E-18 7.11275E-18
 -1      1760 3.44222E-05-3.70749E-05-1.84979E-06-2.84455E-05-4.67816E-18 6.88122E-18
 -1      1761 1.62625E-05-4.28625E-05 7.03513E-06-1.31846E-05-2.29080E-18 6.10054E-18
 -1      1762 1.28244E-04-2.88629E-05-4.26512E-05-1.88100E-05-1.86186E-18 8.58044E-18
 -1      1763 1.03855E-04-1.74903E-05-3.71411E-05-1.31827E-05-1.70140E-18-1.50179E-18
 -1      1764 1.06473E-04-1.80775E-05-3.81184E-05-1.62660E-05-2.21639E-18-7.30778E-19
 -1      1765 1.09507E-04-1.95990E-05-3.87270E-05-1.79208E-05-2.37059E-18 2.23987E-19
 -1      1766 1.12324E-04-2.12683E-05-3.96643E-05-2.03368E-05-2.71432E-18 1.61497E-18
 -1      1767 1.10818E-04-2.37708E-05-3.73532E-05-1.63721E-05-2.45591E-18 4.15311E-20
 -1      1768 9.03080E-05-1.46817E-05-3.24883E-05 1.05941E-07 1.50401E-19-2.85913E-18
 -1      1769 9.46110E-05-1.56432E-05-3.39110E-05-3.15454E-06-3.31799E-19-2.61889E-18
 -1      1770 7.88716E-05-1.06908E-05-2.93283E-05 6.61259E-06 9.15113E-19-3.32036E-18
 -1      1771 8.49289E-05-1.26107E-05-3.09734E-05 3.92324E-06 5.62575E-19-3.19125E-18
 -1      1772 9.08332E-05-1.81104E-05-3.12937E-05 2.22437E-06 4.12710E-19-2.67946E-18
 -1      1773 6.48083E-05-4.32526E-06-2.60548E-05 1.04665E-05 1.41379E-18-3.88829E-18
 -1      1774 7.17294E-05-6.94275E-06-2.76470E-05 9.22481E-06 1.22563E-18-3.65365E-18
 -1      1775 7.76686E-05-1.24446E-05-2.80644E-05 9.23126E-06 1.29668E-18-3.30674E-18
 -1      1776 5.14930E-05 2.74898E-06-2.33612E-05 9.80283E-06 1.48662E-18-4.46171E-18
 -1      1777 5.72821E-05 3.06931E-07-2.45283E-05 1.05487E-05 1.52630E-18-4.26944E-18
 -1      1778 6.18106E-05-4.07214E-06-2.47662E-05 1.25324E-05 1.71458E-18-4.13813E-18
 -1      1779 4.49626E-05 6.81966E-06-2.22191E-05 4.83888E-06 1.13101E-18-4.77933E-18
 -1      1780 4.68510E-05 5.89580E-06-2.25274E-05 7.02022E-06 1.33037E-18-4.75541E-18
 -1      1781 4.83634E-05 3.90923E-06-2.22993E-05 9.98870E-06 1.61881E-18-4.87030E-18
 -1      1782 4.88525E-05 5.34672E-06-2.31351E-05-1.32261E-06 6.82457E-19-4.48746E-18
 -1      1783 4.56605E-05 6.52875E-06-2.24096E-05 7.81307E-07 8.33968E-19-4.71752E-18
 -1      1784 4.38722E-05 6.93044E-06-2.15972E-05 2.80379E-06 1.08255E-18-5.06152E-18
 -1      1785 6.18673E-05-9.57510E-07-2.59665E-05-4.32397E-06 4.68515E-19-3.74826E-18
 -1      1786 5.49034E-05 1.66826E-06-2.43783E-05-3.87220E-06 4.78865E-19-4.10970E-18
 -1      1787 5.12600E-05 2.79836E-06-2.30758E-05-4.12395E-06 5.34915E-19-4.53411E-18
 -1      1788 7.86149E-05-8.61631E-06-2.99156E-05-2.31955E-06 7.83214E-19-2.45752E-18
 -1      1789 7.05138E-05-5.82790E-06-2.78693E-05-3.88774E-06 5.65818E-19-3.07139E-18
 -1      1790 6.72702E-05-5.98841E-06-2.63174E-05-5.94440E-06 3.67784E-19-3.36483E-18
 -1      1791 9.44146E-05-1.48427E-05-3.41428E-05 3.43297E-06 1.42736E-18-9.80229E-19
 -1      1792 8.70310E-05-1.26552E-05-3.20017E-05 4.83983E-07 1.05461E-18-1.72821E-18
 -1      1793 8.54989E-05-1.49277E-05-3.03695E-05-2.02720E-06 7.65797E-19-1.83802E-18
 -1      1794 1.08162E-04-1.96409E-05-3.81504E-05 1.03269E-05 2.14395E-18 9.81605E-19
 -1      1795 1.01546E-04-1.76754E-05-3.60976E-05 6.91313E-06 1.75608E-18-8.81973E-20
 -1      1796 1.01523E-04-2.15216E-05-3.43970E-05 4.81561E-06 1.49366E-18-1.94579E-19
 -1      1797 1.22302E-04-2.58506E-05-4.16176E-05 1.58507E-05 2.49103E-18 4.07444E-18
 -1      1798 1.14925E-04-2.25161E-05-3.97984E-05 1.31053E-05 2.33797E-18 2.26460E-18
 -1      1799 1.15498E-04-2.69222E-05-3.79423E-05 1.09562E-05 2.19448E-18 1.95286E-18
 -1      1800 1.34423E-04-3.55662E-05-4.29084E-05 1.35532E-05 2.33252E-18 7.77449E-18
 -1      1801 1.27174E-04-2.87636E-05-4.21740E-05 1.57975E-05 2.44198E-18 5.40089E-18
 -1      1802 1.25309E-04-3.23800E-05-3.99573E-05 1.23861E-05 2.53554E-18 4.26584E-18
 -1      1803 1.31374E-04-3.71066E-05-4.06692E-05 9.19745E-06 2.34938E-18 7.10944E-18
 -1      1804 1.20123E-04-2.47322E-05-4.05142E-05-2.15163E-05-2.43460E-18 4.15237E-18
 -1      1805 1.27416E-04-3.87732E-05-3.80581E-05 7.49051E-06 1.51303E-18 6.41065E-18
 -1      1806 1.30517E-04-3.89129E-05-3.93401E-05 8.03201E-06 1.88261E-18 6.94932E-18
 -1      1807 1.28297E-04-3.69992E-05-3.91124E-05 1.03330E-05 2.06533E-18 5.45519E-18
 -1      1808 1.19614E-04-2.90005E-05-3.85204E-05-1.74751E-05-2.54608E-18 3.19861E-18
 -1      1809 1.15652E-04-3.39124E-05-3.49271E-05-1.07304E-05-2.07502E-18 3.09328E-18
 -1      1810 1.12314E-04-3.34521E-05-3.38077E-05-9.90025E-06-1.88695E-18 2.58124E-18
 -1      1811 1.10550E-04-3.31759E-05-3.30807E-05-9.63441E-06-1.64573E-18 2.62672E-18
 -1      1812 1.07828E-04-3.23043E-05-3.23263E-05-9.49490E-06-1.46597E-18 2.12589E-18
 -1      1813 1.12834E-04-3.34403E-05-3.40129E-05-1.25350E-05-2.02312E-18 1.54947E-18
 -1      1814 1.05880E-04-3.14298E-05-3.18666E-05-9.16105E-06-1.32064E-18 2.05003E-18
 -1      1815 1.03429E-04-3.02503E-05-3.12945E-05-8.64037E-06-1.25586E-18 1.53256E-18
 -1      1816 1.09149E-04-3.23070E-05-3.29260E-05-1.18098E-05-1.77547E-18 1.44795E-18
 -1      1817 1.01541E-04-2.91459E-05-3.10018E-05-7.47698E-06-1.25929E-18 1.23544E-18
 -1      1818 9.96849E-05-2.80806E-05-3.06073E-05-6.14933E-06-1.29819E-18 9.65525E-19
 -1      1819 1.05239E-04-2.99180E-05-3.22956E-05-1.01840E-05-1.65096E-18 1.18348E-18
 -1      1820 9.83491E-05-2.72537E-05-3.04322E-05-3.97073E-06-1.30239E-18 5.10069E-19
 -1      1821 9.75051E-05-2.67752E-05-3.02482E-05-2.00402E-06-1.19737E-18 7.48383E-20
 -1      1822 1.01881E-04-2.74917E-05-3.19308E-05-6.45568E-06-1.61547E-18 4.68340E-19
 -1      1823 9.71773E-05-2.66754E-05-3.01546E-05 6.22415E-07-1.03828E-18-2.33071E-19
 -1      1824 9.75218E-05-2.70122E-05-3.01899E-05 2.57885E-06-8.55225E-19-4.48130E-19
 -1      1825 1.00162E-04-2.63633E-05-3.17000E-05-1.01825E-06-1.47040E-18-4.43338E-19
 -1      1826 9.81854E-05-2.76598E-05-3.01569E-05 4.69502E-06-9.39280E-19-9.06676E-19
 -1      1827 9.94833E-05-2.86188E-05-3.03744E-05 5.94914E-06-7.93432E-19-1.17083E-18
 -1      1828 1.00588E-04-2.71588E-05-3.15217E-05 4.34525E-06-1.13056E-18-1.02762E-18
 -1      1829 1.00633E-04-2.96062E-05-3.03929E-05 6.86190E-06-9.26070E-19-1.31142E-18
 -1      1830 1.02348E-04-3.07266E-05-3.07142E-05 7.10160E-06-7.01537E-19-1.45569E-18
 -1      1831 1.02598E-04-2.93886E-05-3.13823E-05 7.71518E-06-1.04259E-18-1.79988E-18
 -1      1832 1.03359E-04-3.15482E-05-3.07700E-05 6.76477E-06-7.97443E-19-1.91898E-18
 -1      1833 1.04934E-04-3.24179E-05-3.10989E-05 6.16211E-06-8.59411E-19-2.43530E-18
 -1      1834 1.04957E-04-3.18567E-05-3.13030E-05 8.27274E-06-1.23926E-18-2.30611E-18
 -1      1835 1.05453E-04-3.28126E-05-3.11622E-05 5.03711E-06-6.30441E-19-2.34847E-18
 -1      1836 1.06533E-04-3.32626E-05-3.14165E-05 4.01568E-06-2.90665E-19-2.26931E-18
 -1      1837 1.06606E-04-3.35319E-05-3.12836E-05 6.56157E-06-7.63206E-19-2.53233E-18
 -1      1838 1.06529E-04-3.32515E-05-3.14542E-05 2.66813E-06-2.05273E-19-2.19082E-18
 -1      1839 1.07010E-04-3.33231E-05-3.15890E-05 1.62461E-06-6.13569E-20-2.13882E-18
 -1      1840 1.07150E-04-3.40877E-05-3.12860E-05 3.77649E-06-1.93835E-19-2.19828E-18
 -1      1841 1.06625E-04-3.30592E-05-3.15781E-05 4.50863E-07 1.03523E-19-2.33724E-18
 -1      1842 1.06576E-04-3.28817E-05-3.15883E-05-3.79095E-07 2.47896E-19-2.04295E-18
 -1      1843 1.06730E-04-3.37588E-05-3.12586E-05 9.84813E-07 2.72639E-20-2.01995E-18
 -1      1844 1.05978E-04-3.25170E-05-3.15227E-05-1.20774E-06 2.14508E-19-1.68322E-18
 -1      1845 1.05549E-04-3.22165E-05-3.14307E-05-1.74794E-06 2.42688E-19-1.29330E-18
 -1      1846 1.05690E-04-3.29622E-05-3.11635E-05-1.20785E-06 3.77636E-19-1.40449E-18
 -1      1847 1.04867E-04-3.18494E-05-3.13186E-05-2.22158E-06-2.05389E-19-1.21055E-18
 -1      1848 1.04216E-04-3.15142E-05-3.11586E-05-2.49630E-06-3.31582E-19-1.15134E-18
 -1      1849 1.04351E-04-3.20403E-05-3.09908E-05-2.62094E-06 3.35041E-20-1.28606E-18
 -1      1850 1.03533E-04-3.11912E-05-3.10157E-05-2.68339E-06-5.13394E-19-1.23407E-18
 -1      1851 1.02790E-04-3.08714E-05-3.08211E-05-2.75850E-06-2.21913E-19-1.17486E-18
 -1      1852 1.02938E-04-3.11885E-05-3.07534E-05-3.32868E-06-3.26956E-19-1.47491E-18
 -1      1853 1.02151E-04-3.06061E-05-3.06642E-05-2.74767E-06-3.80037E-19-1.74947E-18
 -1      1854 1.01408E-04-3.03251E-05-3.04617E-05-2.69351E-06-4.23282E-19-1.95070E-18
 -1      1855 1.01582E-04-3.04838E-05-3.04758E-05-3.50665E-06-6.38493E-19-1.43025E-18
 -1      1856 1.00837E-04-3.01153E-05-3.03050E-05-2.56416E-06-2.65376E-19-2.32059E-18
 -1      1857 1.00150E-04-2.98805E-05-3.01127E-05-2.43867E-06-3.85309E-19-2.40069E-18
 -1      1858 1.00351E-04-2.99359E-05-3.01840E-05-3.33945E-06-4.13318E-19-1.99152E-18
 -1      1859 9.96575E-05-2.97182E-05-2.99661E-05-2.25079E-06-2.66243E-19-2.20180E-18
 -1      1860 9.90569E-05-2.95287E-05-2.97944E-05-2.09529E-06 1.10834E-19-2.16570E-18
 -1      1861 9.92772E-05-2.95252E-05-2.98998E-05-2.97946E-06-2.92912E-19-2.00303E-18
 -1      1862 9.86424E-05-2.94049E-05-2.96639E-05-1.88939E-06 6.02562E-19-2.10434E-18
 -1      1863 9.81382E-05-2.92561E-05-2.95174E-05-1.73026E-06 6.84066E-19-1.76768E-18
 -1      1864 9.83664E-05-2.92243E-05-2.96383E-05-2.53655E-06 3.93207E-19-1.70782E-18
 -1      1865 9.77979E-05-2.91627E-05-2.94057E-05-1.53106E-06 2.56703E-19-1.38824E-18
 -1      1866 9.73885E-05-2.90486E-05-2.92851E-05-1.38338E-06 3.26415E-19-1.50039E-18
 -1      1867 9.76129E-05-2.90072E-05-2.94079E-05-2.08213E-06 5.90692E-19-9.24497E-19
 -1      1868 9.71150E-05-2.89790E-05-2.91925E-05-1.20421E-06 5.29650E-19-1.48968E-18
 -1      1869 9.67919E-05-2.88935E-05-2.90962E-05-1.07528E-06 1.57788E-19-9.14343E-19
 -1      1870 9.70031E-05-2.88527E-05-2.92122E-05-1.65795E-06 4.17614E-19-3.56562E-19
 -1      1871 9.65767E-05-2.88423E-05-2.90215E-05-9.21898E-07 9.90549E-21-9.89105E-19
 -1      1872 9.63281E-05-2.87796E-05-2.89467E-05-8.14112E-07 1.81977E-19-3.92175E-19
 -1      1873 9.65197E-05-2.87443E-05-2.90509E-05-1.28502E-06 3.31443E-19-3.70613E-19
 -1      1874 9.61622E-05-2.87425E-05-2.88879E-05-6.87577E-07-5.68530E-20-6.75213E-19
 -1      1875 9.59758E-05-2.86978E-05-2.88311E-05-6.00457E-07 2.83775E-19-3.74534E-19
 -1      1876 9.61442E-05-2.86696E-05-2.89213E-05-9.70870E-07 3.74750E-19-2.39432E-19
 -1      1877 9.58505E-05-2.86715E-05-2.87859E-05-4.99161E-07 6.12550E-19-7.54358E-19
 -1      1878 9.57142E-05-2.86404E-05-2.87440E-05-4.30715E-07 4.63587E-19-7.60609E-19
 -1      1879 9.58582E-05-2.86193E-05-2.88197E-05-7.14906E-07 6.50748E-19-8.49903E-19
 -1      1880 9.56217E-05-2.86222E-05-2.87101E-05-3.51721E-07 1.49141E-21-3.31655E-19
 -1      1881 9.55249E-05-2.86015E-05-2.86799E-05-2.99304E-07-1.81581E-19-7.42713E-19
 -1      1882 9.56451E-05-2.85865E-05-2.87418E-05-5.12102E-07 3.58862E-19-1.22182E-18
 -1      1883 9.54581E-05-2.85893E-05-2.86550E-05-2.39186E-07-4.08269E-19-5.48296E-19
 -1      1884 9.53916E-05-2.85761E-05-2.86340E-05-2.00027E-07 1.02137E-19-8.02941E-19
 -1      1885 9.54898E-05-2.85660E-05-2.86835E-05-3.55400E-07-1.72456E-19-9.13228E-19
 -1      1886 9.53448E-05-2.85682E-05-2.86162E-05-1.55366E-07 1.57569E-19-1.23643E-18
 -1      1887 9.53009E-05-2.85605E-05-2.86021E-05-1.26848E-07-2.24007E-19-1.17912E-18
 -1      1888 9.53796E-05-2.85543E-05-2.86409E-05-2.37186E-07-5.41609E-19-1.67459E-18
 -1      1889 9.52692E-05-2.85558E-05-2.85898E-05-9.45033E-08-2.96940E-19-9.01209E-19
 -1      1890 9.52420E-05-2.85517E-05-2.85808E-05-7.43090E-08-6.42124E-19-1.22137E-18
 -1      1891 9.53038E-05-2.85484E-05-2.86106E-05-1.50149E-07 1.78774E-19-1.28453E-18
 -1      1892 9.52214E-05-2.85492E-05-2.85726E-05-5.15427E-08-8.76401E-19-9.92445E-19
 -1      1893 9.52060E-05-2.85477E-05-2.85673E-05-3.77080E-08-4.45317E-19-9.36216E-19
 -1      1894 9.52536E-05-2.85463E-05-2.85897E-05-8.77248E-08-5.02369E-19-5.83304E-19
 -1      1895 9.51935E-05-2.85467E-05-2.85621E-05-2.22211E-08-1.63249E-20-8.37714E-19
 -1      1896 9.51862E-05-2.85468E-05-2.85594E-05-1.31332E-08 3.80540E-19-2.46529E-19
 -1      1897 9.52222E-05-2.85467E-05-2.85758E-05-4.42803E-08-8.61300E-20-3.32260E-19
 -1      1898 9.51795E-05-2.85467E-05-2.85564E-05-3.05312E-09 6.46718E-19-1.13499E-19
 -1      1899 9.51776E-05-2.85478E-05-2.85553E-05 2.57690E-09 1.10959E-18 9.44740E-20
 -1      1900 9.52042E-05-2.85486E-05-2.85671E-05-1.51429E-08 7.27185E-19 1.61820E-19
 -1      1901 9.51747E-05-2.85483E-05-2.85538E-05 8.73787E-09 5.45118E-19 3.52391E-19
 -1      1902 9.51762E-05-2.85500E-05-2.85539E-05 1.19158E-08 3.91647E-19-1.37617E-19
 -1      1903 9.51954E-05-2.85511E-05-2.85622E-05 3.45768E-09 5.95588E-19 8.38380E-19
 -1      1904 9.51758E-05-2.85508E-05-2.85534E-05 1.53131E-08 1.64732E-21-7.92763E-19
 -1      1905 9.51792E-05-2.85526E-05-2.85542E-05 1.68067E-08 2.75452E-20-5.86390E-19
 -1      1906 9.51928E-05-2.85540E-05-2.85597E-05 1.44915E-08-9.07055E-20 1.01152E-19
 -1      1907 9.51804E-05-2.85536E-05-2.85543E-05 1.83182E-08 6.96180E-19-3.25592E-19
 -1      1908 9.51848E-05-2.85554E-05-2.85554E-05 1.87008E-08 4.29125E-19 5.76409E-19
 -1      1909 9.51941E-05-2.85568E-05-2.85590E-05 2.02471E-08 4.87310E-19 5.26549E-19
 -1      1910 9.51869E-05-2.85564E-05-2.85559E-05 1.89791E-08-6.97227E-19 1.02101E-18
 -1      1911 9.51916E-05-2.85581E-05-2.85572E-05 1.86687E-08-9.27765E-19 1.07114E-18
 -1      1912 9.51977E-05-2.85594E-05-2.85593E-05 2.24500E-08 2.81022E-19 1.32539E-18
 -1      1913 9.51941E-05-2.85590E-05-2.85579E-05 1.81876E-08 1.02108E-20 1.54059E-18
 -1      1914 9.51987E-05-2.85606E-05-2.85592E-05 1.74814E-08 8.98063E-19 1.85959E-18
 -1      1915 9.52024E-05-2.85617E-05-2.85603E-05 2.23724E-08 1.74043E-19 2.90023E-18
 -1      1916 9.52012E-05-2.85614E-05-2.85600E-05 1.65758E-08 5.49936E-19 1.32788E-18
 -1      1917 9.52055E-05-2.85628E-05-2.85612E-05 1.56783E-08-1.63524E-20 1.47293E-18
 -1      1918 9.52075E-05-2.85638E-05-2.85616E-05 2.09297E-08 2.38896E-19 2.49705E-18
 -1      1919 9.52079E-05-2.85635E-05-2.85620E-05 1.45771E-08-1.52864E-19 1.56418E-18
 -1      1920 9.52117E-05-2.85647E-05-2.85630E-05 1.36236E-08-8.52452E-19 1.41563E-18
 -1      1921 9.52126E-05-2.85655E-05-2.85630E-05 1.87613E-08 1.61551E-20 1.84759E-18
 -1      1922 9.52140E-05-2.85653E-05-2.85638E-05 1.24762E-08-2.23316E-18 1.10752E-18
 -1      1923 9.52172E-05-2.85662E-05-2.85647E-05 1.15505E-08-2.10797E-18 1.27685E-18
 -1      1924 9.52173E-05-2.85669E-05-2.85644E-05 1.62983E-08-1.74392E-18 2.42197E-18
 -1      1925 9.52192E-05-2.85668E-05-2.85654E-05 1.04479E-08-1.98740E-18 1.14644E-18
 -1      1926 9.52219E-05-2.85676E-05-2.85662E-05 9.59650E-09-8.17111E-19 1.17057E-18
 -1      1927 9.52215E-05-2.85680E-05-2.85657E-05 1.38156E-08-2.07539E-18 2.35804E-18
 -1      1928 9.52236E-05-2.85680E-05-2.85667E-05 8.58716E-09 5.06534E-19 4.90268E-19
 -1      1929 9.52259E-05-2.85686E-05-2.85674E-05 7.82933E-09 1.35999E-18 1.15999E-18
 -1      1930 9.52251E-05-2.85690E-05-2.85669E-05 1.14743E-08-3.55143E-19 2.70941E-18
 -1      1931 9.52273E-05-2.85690E-05-2.85679E-05 6.93063E-09 2.15564E-18 1.52447E-18
 -1      1932 9.52291E-05-2.85695E-05-2.85684E-05 6.26583E-09 3.34880E-18 2.49955E-18
 -1      1933 9.52282E-05-2.85697E-05-2.85679E-05 9.35172E-09 2.20639E-18 2.10291E-18
 -1      1934 9.52303E-05-2.85698E-05-2.85688E-05 5.47244E-09 2.93730E-18 1.85117E-18
 -1      1935 9.52317E-05-2.85702E-05-2.85693E-05 4.88486E-09 2.02973E-18 1.41881E-18
 -1      1936 9.52307E-05-2.85703E-05-2.85687E-05 7.46555E-09 2.26550E-18 9.16539E-19
 -1      1937 9.52327E-05-2.85704E-05-2.85696E-05 4.17669E-09 1.17941E-19 1.05444E-18
 -1      1938 9.52338E-05-2.85707E-05-2.85699E-05 3.64158E-09 3.09547E-19 5.69095E-19
 -1      1939 9.52328E-05-2.85708E-05-2.85694E-05 5.78927E-09 9.55838E-19 1.41032E-19
 -1      1940 9.52345E-05-2.85710E-05-2.85701E-05 2.98909E-09 1.42783E-18 5.95635E-19
 -1      1941 9.52353E-05-2.85712E-05-2.85704E-05 2.47656E-09 1.02313E-18 1.42782E-18
 -1      1942 9.52345E-05-2.85713E-05-2.85699E-05 4.27519E-09 6.01378E-19-5.61614E-19
 -1      1943 9.52358E-05-2.85713E-05-2.85705E-05 1.89185E-09 5.39042E-19 1.45681E-18
 -1      1944 9.52364E-05-2.85715E-05-2.85707E-05 1.40966E-09 2.28397E-19 1.53028E-18
 -1      1945 9.52366E-05-2.85718E-05-2.85706E-05 1.67991E-09-2.77260E-19 2.22274E-18
 -1      1946 9.52357E-05-2.85716E-05-2.85703E-05 2.90167E-09 1.20503E-18 3.86765E-19
 -1      1947 1.22997E-04-3.82045E-05-3.63253E-05 9.67142E-06 9.31063E-19 5.69529E-18
 -1      1948 1.26019E-04-3.89762E-05-3.72691E-05 8.43478E-06 9.83940E-19 6.05850E-18
 -1      1949 1.25716E-04-3.90113E-05-3.71444E-05 1.02978E-05 1.32515E-18 4.99195E-18
 -1      1950 1.17358E-04-3.59075E-05-3.48714E-05 1.22495E-05 1.50603E-18 5.06857E-18
 -1      1951 1.20903E-04-3.74284E-05-3.57545E-05 1.08860E-05 1.01097E-18 5.35756E-18
 -1      1952 1.22103E-04-3.81838E-05-3.59186E-05 1.29885E-05 1.26563E-18 4.44532E-18
 -1      1953 1.10733E-04-3.21149E-05-3.36734E-05 1.19735E-05 1.17272E-18 4.16978E-18
 -1      1954 1.14516E-04-3.41184E-05-3.44557E-05 1.20593E-05 1.36453E-18 4.67045E-18
 -1      1955 1.17052E-04-3.50011E-05-3.51442E-05 1.46871E-05 1.59184E-18 4.00858E-18
 -1      1956 1.05148E-04-2.85080E-05-3.28905E-05 6.90129E-06 9.74220E-19 2.81247E-18
 -1      1957 1.08045E-04-3.00835E-05-3.34098E-05 9.29183E-06 1.05628E-18 3.50658E-18
 -1      1958 1.11360E-04-3.05199E-05-3.47022E-05 1.19603E-05 1.42676E-18 2.97328E-18
 -1      1959 1.03395E-04-2.75469E-05-3.26111E-05-1.38333E-06 1.42503E-18 1.46296E-18
 -1      1960 1.04152E-04-2.76859E-05-3.27475E-05 2.42069E-06 1.18190E-18 1.96401E-18
 -1      1961 1.07548E-04-2.74374E-05-3.44489E-05 4.06010E-06 1.61622E-18 1.30165E-18
 -1      1962 1.06236E-04-2.99036E-05-3.28036E-05-8.32665E-06 1.36722E-18 3.00670E-19
 -1      1963 1.04621E-04-2.85732E-05-3.25594E-05-5.23374E-06 1.62014E-18 9.62891E-19
 -1      1964 1.07735E-04-2.80525E-05-3.42382E-05-5.36629E-06 1.79973E-18-7.87542E-20
 -1      1965 1.11346E-04-3.36024E-05-3.33295E-05-1.04661E-05 1.01006E-18-1.12510E-18
 -1      1966 1.08461E-04-3.18022E-05-3.28417E-05-9.51646E-06 1.15404E-18-4.59357E-19
 -1      1967 1.11160E-04-3.17307E-05-3.40554E-05-1.10721E-05 1.60449E-18-8.96465E-19
 -1      1968 1.15600E-04-3.62611E-05-3.39488E-05-8.07958E-06 6.73232E-19-1.36067E-18
 -1      1969 1.12941E-04-3.49766E-05-3.34350E-05-9.04933E-06 9.54103E-19-1.21523E-18
 -1      1970 1.14929E-04-3.56266E-05-3.39671E-05-1.09434E-05 1.20814E-18-1.71083E-18
 -1      1971 1.17441E-04-3.70616E-05-3.43830E-05-3.72934E-06 3.87054E-19-1.55798E-18
 -1      1972 1.15921E-04-3.65986E-05-3.40409E-05-5.51794E-06 4.68886E-19-1.19610E-18
 -1      1973 1.16852E-04-3.75957E-05-3.39655E-05-6.85521E-06 5.94108E-19-1.75086E-18
 -1      1974 1.16973E-04-3.64807E-05-3.44525E-05 2.85975E-07 2.36580E-19-1.68693E-18
 -1      1975 1.16733E-04-3.66460E-05-3.43732E-05-1.37606E-06 1.37828E-19-1.57939E-18
 -1      1976 1.16563E-04-3.74631E-05-3.39207E-05-1.83589E-06 2.04294E-19-2.08456E-18
 -1      1977 1.14993E-04-3.52793E-05-3.41456E-05 2.95459E-06-1.04274E-19-1.50589E-18
 -1      1978 1.15728E-04-3.57683E-05-3.43085E-05 1.83415E-06 2.41960E-19-1.40672E-18
 -1      1979 1.14753E-04-3.61554E-05-3.37115E-05 2.14698E-06 8.98450E-20-1.38244E-18
 -1      1980 1.12287E-04-3.39733E-05-3.35636E-05 4.25122E-06-1.37633E-19-1.80676E-18
 -1      1981 1.13581E-04-3.45646E-05-3.38891E-05 3.68953E-06-1.90956E-19-1.85116E-18
 -1      1982 1.12215E-04-3.45464E-05-3.33075E-05 4.50805E-06-4.82544E-20-1.41350E-18
 -1      1983 1.09404E-04-3.27956E-05-3.28408E-05 4.55287E-06-3.62388E-21-1.12280E-18
 -1      1984 1.10912E-04-3.33703E-05-3.32423E-05 4.40198E-06 1.33441E-20-1.22247E-18
 -1      1985 1.09496E-04-3.30952E-05-3.27553E-05 5.46576E-06-2.29544E-19-1.95594E-18
 -1      1986 1.06668E-04-3.18142E-05-3.20903E-05 4.27097E-06-2.50013E-19-8.01919E-19
 -1      1987 1.08159E-04-3.23212E-05-3.25012E-05 4.36503E-06-2.74562E-19-6.80359E-19
 -1      1988 1.06896E-04-3.19354E-05-3.21315E-05 5.48174E-06-4.30187E-19-1.18533E-18
 -1      1989 1.04239E-04-3.10256E-05-3.13861E-05 3.71538E-06 4.94126E-19-1.03928E-18
 -1      1990 1.05588E-04-3.14500E-05-3.17658E-05 3.92777E-06 3.07844E-20-9.20872E-19
 -1      1991 1.04561E-04-3.10536E-05-3.15055E-05 4.97909E-06 1.17550E-19-6.09402E-19
 -1      1992 1.02178E-04-3.04036E-05-3.07670E-05 3.07925E-06-1.60739E-19-1.48333E-19
 -1      1993 1.03330E-04-3.07474E-05-3.10961E-05 3.32993E-06 6.81948E-19 1.38662E-19
 -1      1994 1.02549E-04-3.03934E-05-3.09249E-05 4.25590E-06 2.95462E-19 2.36077E-20
 -1      1995 1.00484E-04-2.99191E-05-3.02466E-05 2.46691E-06-7.15984E-19-7.21636E-19
 -1      1996 1.01431E-04-3.01910E-05-3.05197E-05 2.71191E-06-7.38308E-19-6.09236E-19
 -1      1997 1.00867E-04-2.98997E-05-3.04153E-05 3.49153E-06-2.98703E-19-1.02251E-19
 -1      1998 9.91269E-05-2.95457E-05-2.98232E-05 1.92602E-06 4.81219E-19-5.94149E-19
 -1      1999 9.98821E-05-2.97567E-05-3.00427E-05 2.14465E-06-2.83931E-19-7.93324E-19
 -1      2000 9.94944E-05-2.95296E-05-2.99858E-05 2.77984E-06-6.76981E-20-5.29282E-19
 -1      2001 9.80622E-05-2.92614E-05-2.94876E-05 1.47193E-06-5.82851E-19-1.26429E-18
 -1      2002 9.86509E-05-2.94223E-05-2.96597E-05 1.65697E-06 1.44379E-19-8.96092E-19
 -1      2003 9.83972E-05-2.92520E-05-2.96348E-05 2.16141E-06 1.25336E-19-1.19945E-18
 -1      2004 9.72425E-05-2.90476E-05-2.92271E-05 1.10334E-06 9.65998E-19-1.25582E-18
 -1      2005 9.76923E-05-2.91683E-05-2.93592E-05 1.25460E-06 2.68996E-19-1.21374E-18
 -1      2006 9.75364E-05-2.90448E-05-2.93549E-05 1.64675E-06 3.00094E-19-1.27912E-18
 -1      2007 9.66228E-05-2.88894E-05-2.90288E-05 8.11427E-07-4.33730E-19-1.69699E-18
 -1      2008 9.69600E-05-2.89783E-05-2.91283E-05 9.31998E-07 2.03750E-19-1.38670E-18
 -1      2009 9.68728E-05-2.88914E-05-2.91363E-05 1.23107E-06 1.62087E-19-1.81164E-18
 -1      2010 9.61626E-05-2.87742E-05-2.88806E-05 5.84763E-07-7.01057E-19-1.52035E-18
 -1      2011 9.64107E-05-2.88385E-05-2.89541E-05 6.78972E-07-4.44017E-19-1.84570E-18
 -1      2012 9.63702E-05-2.87792E-05-2.89689E-05 9.02908E-07-3.52026E-19-1.60076E-18
 -1      2013 9.58275E-05-2.86921E-05-2.87720E-05 4.11811E-07-2.40430E-19-1.16385E-18
 -1      2014 9.60063E-05-2.87376E-05-2.88253E-05 4.84148E-07-5.44453E-19-1.73146E-18
 -1      2015 9.59961E-05-2.86987E-05-2.88430E-05 6.48685E-07-3.56381E-19-1.81329E-18
 -1      2016 9.55887E-05-2.86351E-05-2.86940E-05 2.82039E-07 6.55236E-19-1.33061E-18
 -1      2017 9.57146E-05-2.86664E-05-2.87317E-05 3.36668E-07 3.37729E-19-9.72628E-19
 -1      2018 9.57231E-05-2.86421E-05-2.87501E-05 4.55100E-07 3.63142E-19-1.15821E-18
 -1      2019 9.54229E-05-2.85967E-05-2.86394E-05 1.86342E-07 6.70462E-19-1.21385E-18
 -1      2020 9.55091E-05-2.86175E-05-2.86654E-05 2.26906E-07 8.26675E-19-9.33724E-19
 -1      2021 9.55281E-05-2.86035E-05-2.86829E-05 3.10152E-07 7.66543E-19-7.05350E-19
 -1      2022 9.53115E-05-2.85720E-05-2.86022E-05 1.17102E-07-1.32640E-18-1.07306E-18
 -1      2023 9.53683E-05-2.85852E-05-2.86195E-05 1.46676E-07-3.32584E-19-1.06061E-18
 -1      2024 9.53924E-05-2.85782E-05-2.86355E-05 2.03520E-07-1.87452E-19-6.57471E-19
 -1      2025 9.52397E-05-2.85571E-05-2.85779E-05 6.80946E-08-9.00448E-19-2.29668E-18
 -1      2026 9.52754E-05-2.85648E-05-2.85889E-05 8.92112E-08-1.20426E-18-1.37165E-18
 -1      2027 9.53009E-05-2.85625E-05-2.86028E-05 1.26594E-07-9.35200E-19-1.17376E-18
 -1      2028 9.51965E-05-2.85490E-05-2.85629E-05 3.43210E-08 1.47199E-19-2.00696E-18
 -1      2029 9.52171E-05-2.85530E-05-2.85694E-05 4.90288E-08-1.63994E-19-2.47270E-18
 -1      2030 9.52418E-05-2.85535E-05-2.85812E-05 7.23463E-08 2.84368E-20-1.48678E-18
 -1      2031 9.51731E-05-2.85455E-05-2.85544E-05 1.18300E-08-1.33718E-18-1.90291E-18
 -1      2032 9.51834E-05-2.85470E-05-2.85578E-05 2.17590E-08-7.15019E-19-2.09462E-18
 -1      2033 9.52060E-05-2.85492E-05-2.85676E-05 3.51396E-08-5.53788E-19-1.62825E-18
 -1      2034 9.51631E-05-2.85451E-05-2.85504E-05-2.45800E-09 9.22805E-19-2.17492E-18
 -1      2035 9.51666E-05-2.85450E-05-2.85517E-05 3.97049E-09-5.40215E-19-1.63233E-18
 -1      2036 9.51864E-05-2.85481E-05-2.85596E-05 1.05236E-08-5.76476E-19-1.66536E-18
 -1      2037 9.51619E-05-2.85465E-05-2.85493E-05-1.09089E-08 7.43319E-19-9.07487E-19
 -1      2038 9.51610E-05-2.85454E-05-2.85492E-05-6.99255E-09 1.02834E-18-1.26593E-18
 -1      2039 9.51779E-05-2.85488E-05-2.85556E-05-4.96559E-09 6.31454E-19-1.08473E-18
 -1      2040 9.51660E-05-2.85489E-05-2.85500E-05-1.53132E-08 6.78546E-19-1.75100E-18
 -1      2041 9.51625E-05-2.85473E-05-2.85492E-05-1.31562E-08 1.13892E-18-6.55741E-19
 -1      2042 9.51766E-05-2.85507E-05-2.85541E-05-1.39845E-08 8.59894E-19-2.74194E-19
 -1      2043 9.51730E-05-2.85518E-05-2.85518E-05-1.70043E-08 1.45322E-18-3.81027E-18
 -1      2044 9.51682E-05-2.85500E-05-2.85506E-05-1.60423E-08 9.98515E-19-2.88348E-18
 -1      2045 9.51797E-05-2.85532E-05-2.85544E-05-1.85397E-08 1.74633E-18-1.87196E-18
 -1      2046 9.51815E-05-2.85548E-05-2.85542E-05-1.69571E-08-4.48845E-19-4.77389E-18
 -1      2047 9.51761E-05-2.85530E-05-2.85527E-05-1.67745E-08 6.69736E-19-4.37685E-18
 -1      2048 9.51853E-05-2.85558E-05-2.85556E-05-2.01214E-08 8.44495E-19-2.95969E-18
 -1      2049 9.51901E-05-2.85577E-05-2.85567E-05-1.58696E-08-3.53983E-19-5.36818E-18
 -1      2050 9.51849E-05-2.85560E-05-2.85552E-05-1.61661E-08-9.81975E-19-5.07062E-18
 -1      2051 9.51921E-05-2.85584E-05-2.85574E-05-1.98158E-08-6.57430E-19-3.70684E-18
 -1      2052 9.51985E-05-2.85603E-05-2.85592E-05-1.42284E-08 1.99195E-19-3.67583E-18
 -1      2053 9.51935E-05-2.85588E-05-2.85578E-05-1.47927E-08-2.08035E-19-4.76052E-18
 -1      2054 9.51991E-05-2.85608E-05-2.85593E-05-1.83973E-08-6.81738E-19-5.17244E-18
 -1      2055 9.52061E-05-2.85626E-05-2.85615E-05-1.23617E-08-3.08411E-19-5.98379E-19
 -1      2056 9.52016E-05-2.85612E-05-2.85602E-05-1.30495E-08 1.62221E-20-1.17583E-18
 -1      2057 9.52058E-05-2.85629E-05-2.85613E-05-1.64032E-08-1.41243E-18-2.68417E-18
 -1      2058 9.52127E-05-2.85646E-05-2.85635E-05-1.04806E-08-6.46746E-19-3.84415E-19
 -1      2059 9.52089E-05-2.85634E-05-2.85624E-05-1.11974E-08-3.93652E-19-4.44094E-19
 -1      2060 9.52120E-05-2.85647E-05-2.85631E-05-1.41929E-08-5.73913E-19-2.37391E-19
 -1      2061 9.52185E-05-2.85662E-05-2.85652E-05-8.71026E-09-2.26981E-19-7.02098E-19
 -1      2062 9.52152E-05-2.85653E-05-2.85643E-05-9.39861E-09 1.00095E-19-1.30302E-19
 -1      2063 9.52174E-05-2.85663E-05-2.85648E-05-1.19944E-08-3.78892E-19 2.36301E-19
 -1      2064 9.52233E-05-2.85676E-05-2.85667E-05-7.11396E-09-3.58758E-19-1.99406E-18
 -1      2065 9.52206E-05-2.85668E-05-2.85659E-05-7.74342E-09-5.55134E-19-2.08888E-18
 -1      2066 9.52221E-05-2.85676E-05-2.85662E-05-9.93962E-09-2.58678E-19-1.74151E-19
 -1      2067 9.52272E-05-2.85687E-05-2.85679E-05-5.70990E-09 9.82435E-19-2.20199E-18
 -1      2068 9.52250E-05-2.85680E-05-2.85673E-05-6.27014E-09 6.82903E-19-2.06588E-18
 -1      2069 9.52260E-05-2.85686E-05-2.85674E-05-8.09087E-09 6.61909E-19-1.33114E-18
 -1      2070 9.52304E-05-2.85696E-05-2.85689E-05-4.48290E-09 3.44557E-19-4.05884E-19
 -1      2071 9.52286E-05-2.85691E-05-2.85684E-05-4.97905E-09 7.21392E-19-1.63093E-18
 -1      2072 9.52292E-05-2.85695E-05-2.85684E-05-6.45972E-09 7.15415E-19-6.06567E-19
 -1      2073 9.52329E-05-2.85703E-05-2.85697E-05-3.39202E-09-6.50835E-19-3.80155E-19
 -1      2074 9.52315E-05-2.85699E-05-2.85693E-05-3.84202E-09-5.33168E-20-4.20353E-19
 -1      2075 9.52318E-05-2.85702E-05-2.85693E-05-5.02038E-09-1.78698E-19 1.08642E-18
 -1      2076 9.52347E-05-2.85708E-05-2.85703E-05-2.38370E-09 7.33065E-20-2.60700E-18
 -1      2077 9.52337E-05-2.85705E-05-2.85700E-05-2.81233E-09-4.53000E-21-7.94391E-19
 -1      2078 9.52338E-05-2.85707E-05-2.85699E-05-3.72202E-09 3.87548E-19-8.46007E-19
 -1      2079 9.52360E-05-2.85712E-05-2.85707E-05-1.41376E-09 1.74985E-18-2.33673E-18
 -1      2080 9.52354E-05-2.85710E-05-2.85705E-05-1.84048E-09 1.12893E-18-3.06573E-18
 -1      2081 9.52353E-05-2.85712E-05-2.85703E-05-2.51056E-09 1.37842E-18-8.91976E-19
 -1      2082 9.52367E-05-2.85714E-05-2.85709E-05-7.17392E-10-5.65384E-19-4.03036E-19
 -1      2083 9.52363E-05-2.85713E-05-2.85707E-05-1.11753E-09 1.58124E-18-7.25526E-19
 -1      2084 9.52363E-05-2.85715E-05-2.85706E-05-1.58794E-09 5.25134E-19 2.54901E-18
 -1      2085 9.52368E-05-2.85716E-05-2.85708E-05-9.39774E-10-1.51017E-18 4.79243E-18
 -1      2086 9.52383E-05-2.85751E-05-2.85699E-05-2.84602E-09-8.71963E-19-3.04840E-18
 -1      2087 9.52379E-05-2.85744E-05-2.85701E-05-2.75480E-09-7.24328E-19-9.91985E-19
 -1      2088 9.52376E-05-2.85737E-05-2.85703E-05-2.53476E-09-2.73039E-19-6.59543E-19
 -1      2089 9.52373E-05-2.85730E-05-2.85704E-05-2.23521E-09 9.51760E-20 5.10676E-19
 -1      2090 9.52377E-05-2.85740E-05-2.85701E-05-3.40728E-09-6.42239E-19-1.59815E-18
 -1      2091 9.52371E-05-2.85725E-05-2.85705E-05-1.82981E-09-2.95774E-19 3.10744E-18
 -1      2092 9.52369E-05-2.85720E-05-2.85707E-05-1.41165E-09-1.46487E-18 4.76647E-18
 -1      2093 9.52367E-05-2.85720E-05-2.85706E-05-1.75350E-09-9.03887E-19 4.67500E-18
 -1      2094 9.52371E-05-2.85729E-05-2.85704E-05-2.69256E-09-7.85738E-19 1.84361E-18
 -1      2095 9.52389E-05-2.85765E-05-2.85696E-05-2.71329E-09-3.24027E-18-8.62726E-18
 -1      2096 9.52386E-05-2.85758E-05-2.85698E-05-2.81793E-09-1.59590E-18-6.55761E-18
 -1      2097 9.52384E-05-2.85754E-05-2.85699E-05-3.60733E-09-1.59461E-18-6.15711E-18
 -1      2098 9.52395E-05-2.85777E-05-2.85693E-05-2.17549E-09-2.83621E-18-1.23691E-18
 -1      2099 9.52392E-05-2.85771E-05-2.85695E-05-2.45132E-09-2.90773E-18-4.78898E-18
 -1      2100 9.52392E-05-2.85768E-05-2.85696E-05-3.27421E-09-1.46133E-18-6.40155E-18
 -1      2101 9.52399E-05-2.85785E-05-2.85691E-05-1.32725E-09-3.61017E-18 1.66478E-18
 -1      2102 9.52397E-05-2.85781E-05-2.85692E-05-1.72547E-09-2.93385E-18 2.03258E-18
 -1      2103 9.52398E-05-2.85778E-05-2.85694E-05-2.46769E-09-1.32475E-18 7.11124E-20
 -1      2104 9.52400E-05-2.85789E-05-2.85690E-05-2.95932E-10-2.38750E-18 2.80375E-18
 -1      2105 9.52400E-05-2.85788E-05-2.85691E-05-7.57721E-10-3.51361E-18 1.79475E-18
 -1      2106 9.52402E-05-2.85785E-05-2.85693E-05-1.31760E-09-2.46290E-18 2.15626E-18
 -1      2107 9.52400E-05-2.85788E-05-2.85691E-05 7.75330E-10-4.12438E-19 2.87714E-18
 -1      2108 9.52400E-05-2.85789E-05-2.85690E-05 3.14127E-10-1.00441E-18 4.33058E-18
 -1      2109 9.52403E-05-2.85788E-05-2.85692E-05 1.15844E-11-1.78999E-18 4.64052E-18
 -1      2110 9.52397E-05-2.85781E-05-2.85692E-05 1.73991E-09-1.14011E-18-2.53570E-18
 -1      2111 9.52399E-05-2.85785E-05-2.85691E-05 1.34359E-09-9.87962E-19 7.53270E-20
 -1      2112 9.52401E-05-2.85785E-05-2.85693E-05 1.33919E-09-1.11395E-18 7.11385E-19
 -1      2113 9.52392E-05-2.85771E-05-2.85695E-05 2.45106E-09-3.97141E-19-1.61584E-18
 -1      2114 9.52395E-05-2.85777E-05-2.85693E-05 2.18120E-09-1.38556E-18-2.12343E-18
 -1      2115 9.52398E-05-2.85778E-05-2.85694E-05 2.47739E-09-9.12192E-19-1.82542E-18
 -1      2116 9.52386E-05-2.85758E-05-2.85698E-05 2.81761E-09 4.12227E-19 1.58445E-18
 -1      2117 9.52389E-05-2.85765E-05-2.85696E-05 2.71322E-09 1.46595E-19-2.75358E-19
 -1      2118 9.52392E-05-2.85768E-05-2.85696E-05 3.27495E-09 7.72067E-19-4.77185E-19
 -1      2119 9.52379E-05-2.85743E-05-2.85701E-05 2.74996E-09-6.59351E-19-7.53703E-19
 -1      2120 9.52383E-05-2.85751E-05-2.85699E-05 2.84292E-09-2.81244E-20 1.22668E-18
 -1      2121 9.52384E-05-2.85754E-05-2.85699E-05 3.60535E-09 8.77772E-20 4.35922E-19
 -1      2122 9.52373E-05-2.85729E-05-2.85704E-05 2.23185E-09-1.65495E-18-1.26313E-18
 -1      2123 9.52376E-05-2.85736E-05-2.85703E-05 2.52566E-09-1.35903E-18-1.59265E-18
 -1      2124 9.52377E-05-2.85740E-05-2.85701E-05 3.39524E-09-9.13312E-19-1.43441E-18
 -1      2125 6.14465E-05-3.71181E-05-1.07665E-05 4.15910E-05 3.34154E-18 4.37739E-18
 -1      2126 4.57835E-05-3.62234E-05-4.99325E-06 3.51839E-05 1.45986E-18 5.50106E-18
 -1      2127 1.13146E-05-2.87357E-05 6.08213E-06 3.89406E-06 1.90095E-18 6.68648E-18
 -1      2128 1.14368E-05-2.98761E-05 6.32642E-06-5.65585E-06 9.78323E-20 5.56797E-18
 -1      2129 2.67941E-05-2.76367E-05-2.11257E-07 2.74610E-05 2.08243E-18 7.04138E-18
 -1      2130 1.82974E-05-2.90514E-05 3.40177E-06 1.57099E-05 9.93570E-19 7.18538E-18
 -1      2131 9.82665E-05-4.35184E-05-2.34920E-05 4.31519E-05 3.89085E-18 2.98050E-18
 -1      2132 7.78792E-05-4.29923E-05-1.59122E-05 3.97178E-05 3.98402E-18 3.27526E-18
 -1      2133 8.22581E-05-4.58305E-05-1.56264E-05 4.25978E-05-3.77777E-19 2.01409E-18
 -1      2134 1.35549E-04-4.09448E-05-3.98721E-05 3.69116E-05 5.30708E-18 3.35722E-18
 -1      2135 1.15879E-04-4.31755E-05-3.16581E-05 3.54274E-05 4.95938E-18 3.13656E-18
 -1      2136 9.81766E-05-1.64727E-05-3.51024E-05-6.88971E-06-8.08916E-19-2.29416E-18
 -1      2137 1.01124E-04-1.68844E-05-3.62598E-05-1.01478E-05-1.36760E-18-1.98833E-18
 -1      2138 1.06022E-04-2.21406E-05-3.60194E-05-1.22309E-05-1.52930E-18-1.35006E-18
 -1      2139 9.99036E-05-2.07905E-05-3.39724E-05-5.49263E-06-6.05503E-19-2.03042E-18
 -1      2140 1.81077E-04-3.04993E-05-6.30432E-05 1.52157E-05 6.91158E-18-3.52366E-19
 -1      2141 1.68863E-04-3.04299E-05-5.85184E-05 2.04097E-05 6.73264E-18 9.88911E-19
 -1      2142 1.76946E-04-2.22576E-05-6.54489E-05 3.25135E-06 7.78466E-18-1.93625E-18
 -1      2143 1.82831E-04-2.62243E-05-6.53237E-05 1.05014E-05 7.38570E-18-6.71909E-19
 -1      2144 1.63423E-04-2.05065E-05-5.99964E-05 2.92434E-06 7.31540E-18-1.64515E-18
 -1      2145 1.74544E-04-2.63825E-05-6.23865E-05-1.99883E-06 7.60127E-18-3.17171E-18
 -1      2146 1.76394E-04-2.35918E-05-6.45966E-05 3.07086E-06 7.66861E-18-1.87703E-18
 -1      2147 1.61684E-04-3.52040E-05-5.35692E-05-1.68166E-05 7.34425E-18-5.95379E-18
 -1      2148 1.72398E-04-3.36244E-05-5.86704E-05-8.55967E-06 7.17712E-18-3.78116E-18
 -1      2149 1.33376E-04-4.01342E-05-4.03227E-05-2.42726E-05 6.65577E-18-5.86909E-18
 -1      2150 1.53570E-04-3.95279E-05-4.80153E-05-2.45394E-05 7.05208E-18-6.27186E-18
 -1      2151 1.54469E-04-3.97229E-05-4.83803E-05-5.01880E-06 5.58692E-18-2.18365E-18
 -1      2152 9.38439E-05-3.82343E-05-2.47379E-05-3.37055E-05 6.08424E-18-7.36876E-18
 -1      2153 1.17136E-04-4.14918E-05-3.24930E-05-3.40068E-05 5.93601E-18-6.36164E-18
 -1      2154 5.40499E-05-3.02281E-05-1.17024E-05-3.20532E-05 5.71874E-18-7.98903E-18
 -1      2155 7.25124E-05-3.11732E-05-1.83249E-05-3.83737E-05 6.76568E-18-8.47181E-18
 -1      2156 2.57226E-05-2.30301E-05-2.51933E-06-2.22574E-05 3.28945E-18-7.62393E-18
 -1      2157 3.78732E-05-2.34566E-05-6.96278E-06-3.03023E-05 5.13387E-18-8.18784E-18
 -1      2158 9.03304E-06-1.71684E-05 2.29020E-06-6.28583E-06 9.73453E-19-7.54918E-18
 -1      2159 1.40894E-05-1.82233E-05 6.69792E-07-1.44369E-05 3.39279E-18-7.86301E-18
 -1      2160 9.61867E-06-1.58993E-05 1.64499E-06 1.24300E-05-1.52318E-18-7.50302E-18
 -1      2161 7.25326E-06-1.54973E-05 2.46118E-06 4.41586E-06 8.55450E-19-7.50132E-18
 -1      2162 2.50084E-05-1.83550E-05-3.69242E-06 2.80308E-05-3.85696E-18-7.59746E-18
 -1      2163 1.66828E-05-1.94531E-05-1.39861E-07 2.02625E-05-1.80333E-18-7.16188E-18
 -1      2164 5.73961E-05-2.46349E-05-1.44529E-05 4.05543E-05-4.23178E-18-7.08485E-18
 -1      2165 4.02987E-05-2.40524E-05-8.16591E-06 3.27396E-05-3.56389E-18-7.28845E-18
 -1      2166 1.00204E-04-3.30746E-05-2.87312E-05 4.03704E-05-6.19647E-18-6.75466E-18
 -1      2167 8.15657E-05-3.27538E-05-2.16275E-05 3.73276E-05-4.55280E-18-6.14353E-18
 -1      2168 1.33730E-04-3.66702E-05-4.14534E-05 3.05897E-05-6.49717E-18-5.38798E-18
 -1      2169 1.13389E-04-3.47235E-05-3.43084E-05 3.33368E-05-6.53909E-18-6.24772E-18
 -1      2170 1.17461E-04-4.32278E-05-3.15822E-05 2.79358E-05-2.86530E-18-3.22254E-18
 -1      2171 1.58341E-04-3.23710E-05-5.36186E-05 1.28035E-05-6.80019E-18-3.39576E-18
 -1      2172 1.44606E-04-3.34559E-05-4.76508E-05 1.94360E-05-6.85504E-18-4.79505E-18
 -1      2173 1.74886E-04-2.50500E-05-6.30262E-05 3.42787E-06-7.20063E-18-3.28479E-18
 -1      2174 1.63851E-04-2.50080E-05-5.91407E-05 8.12511E-06-7.33128E-18-3.96496E-18
 -1      2175 1.77613E-04-2.32074E-05-6.49627E-05-6.46156E-06-6.57128E-18-1.56918E-18
 -1      2176 1.73454E-04-2.16515E-05-6.43203E-05-5.54060E-08-7.07357E-18-3.05906E-18
 -1      2177 1.69729E-04-2.42406E-05-6.15489E-05-1.42738E-05-5.86062E-18-2.37169E-19
 -1      2178 1.77907E-04-2.51234E-05-6.42518E-05-8.91168E-06-6.02579E-18-1.38448E-18
 -1      2179 1.56153E-04-1.31245E-05-6.01882E-05-2.63465E-06-6.68224E-18-2.70182E-18
 -1      2180 1.55730E-04-3.10256E-05-5.29525E-05-2.57605E-05-5.69804E-18 1.57633E-18
 -1      2181 1.67707E-04-3.01110E-05-5.78647E-05-2.01281E-05-5.49851E-18 3.29072E-19
 -1      2182 1.32635E-04-3.67471E-05-4.11768E-05-3.19789E-05-5.28718E-18 2.24972E-18
 -1      2183 1.49877E-04-3.51149E-05-4.81243E-05-3.23932E-05-5.36394E-18 2.17137E-18
 -1      2184 1.50651E-04-3.61783E-05-4.82521E-05-1.37759E-05-4.53750E-18-9.46136E-19
 -1      2185 9.90808E-05-3.96122E-05-2.61657E-05-3.99703E-05-4.40415E-18 3.82689E-18
 -1      2186 1.18654E-04-3.95548E-05-3.35905E-05-4.08544E-05-4.61718E-18 2.79944E-18
 -1      2187 6.79886E-05-3.93287E-05-1.32755E-05-4.00838E-05-2.49705E-18 4.74497E-18
 -1      2188 8.42647E-05-3.73356E-05-2.01907E-05-4.46552E-05-4.01155E-18 4.45158E-18
 -1      2189 1.04311E-04-4.85044E-05-2.38504E-05-3.98109E-05-1.17060E-18 2.18894E-18
 -1      2190 3.55683E-05-3.47149E-05-1.76203E-06-3.11824E-05-9.74935E-19 5.76300E-18
 -1      2191 4.89725E-05-3.32574E-05-7.20081E-06-3.98538E-05-1.84272E-18 5.35727E-18
 -1      2192 1.73258E-05-3.13284E-05 4.41011E-06-1.68801E-05 1.61360E-19 5.44600E-18
 -1      2193 2.43009E-05-3.01992E-05 1.57554E-06-2.54634E-05-1.21337E-18 5.98408E-18
 -1      2194 3.69528E-05-2.89936E-05-3.84634E-06-3.47321E-05 8.01717E-19 6.04485E-18
 -1      2195 1.63406E-04-3.63196E-05-5.32287E-05 2.58455E-05 6.08003E-18 1.14519E-18
 -1      2196 1.46220E-04-3.77274E-05-4.64764E-05 2.74547E-05 5.89958E-18 2.37000E-18
 -1      2197 1.17341E-04-5.25113E-05-2.77101E-05 3.42677E-05 1.68369E-18 7.73129E-19
 -1      2198 1.16155E-04-3.10736E-05-3.65889E-05-1.36268E-05-2.44255E-18 2.62392E-18
 -1      2199 1.59515E-04-3.37404E-05-5.29209E-05 7.10282E-06 5.44621E-18-1.47638E-18
 -1      2200 1.14927E-04-3.04785E-05-3.62452E-05-1.54511E-05-2.49721E-18 1.45453E-18
 -1      2201 4.47502E-05-3.07420E-05-6.18070E-06 3.57809E-05-7.87105E-19 5.62811E-18
 -1      2202 1.78505E-05-2.02565E-05 5.42408E-07 1.28698E-05 7.19343E-19 6.94906E-18
 -1      2203 9.52370E-05-2.85726E-05-2.85705E-05 2.11871E-09-9.04103E-19 5.95846E-19
 -1      2204 1.72765E-05-2.22378E-05 1.36921E-06-1.47714E-05 9.42854E-19 6.30870E-18
 -1      2205 1.45812E-04-4.68177E-05-4.19068E-05 1.93222E-05 3.78348E-18-3.14673E-19
 -1      2206 6.89290E-05-4.07033E-05-1.23406E-05-4.32963E-05 3.79471E-19 4.34210E-18
 -1      2207 1.33011E-04-4.66906E-05-3.66240E-05-2.75345E-05-2.72109E-18 2.19805E-19
 -1      2208 1.57343E-04-2.33728E-05-5.64547E-05-5.45895E-06-5.44769E-18-2.01742E-18
 -1      2209 1.56926E-04-1.48797E-05-5.99315E-05-3.40037E-06-7.41069E-18-2.45481E-18
 -1      2210 1.40345E-04-3.99070E-05-4.25506E-05 1.20837E-05-4.73110E-18-1.81434E-18
 -1      2211 8.05029E-05-3.47325E-05-1.96020E-05 3.87480E-05-1.33111E-18-5.28924E-18
 -1      2212 4.00764E-05-2.00570E-05-8.82097E-06 3.56790E-05-5.53536E-19-7.13668E-18
 -1      2213 1.60916E-05-1.06465E-05-2.82929E-06 2.02164E-05 1.45690E-19-8.14083E-18
 -1      2214 1.00247E-05-8.31685E-06-1.23643E-06-1.53554E-06 7.37580E-19-8.62661E-18
 -1      2215 2.51636E-05-1.56654E-05-4.55919E-06-2.33295E-05 1.29003E-18-8.28631E-18
 -1      2216 5.61011E-05-2.94647E-05-1.18778E-05-3.48010E-05 2.05998E-18-7.24044E-18
 -1      2217 1.32321E-04-4.85762E-05-3.57770E-05-2.00533E-05 3.77883E-18-3.17002E-18
 -1      2218 1.50614E-04-1.42539E-05-5.83883E-05 6.10526E-06 7.54325E-18-3.87359E-19
 -1      2219 1.66780E-04-1.89887E-05-6.24530E-05 3.97066E-06 7.71647E-18-1.37352E-18
 -1      2220 1.50784E-04-1.31607E-05-5.90751E-05 3.59457E-06 7.85581E-18-8.18551E-19
 -1      2221 1.62010E-04-2.61265E-05-5.72878E-05 3.77393E-06 7.06743E-18-1.14731E-18
 -1      2222 9.56131E-05-4.27072E-05-2.26293E-05-3.40636E-05 2.90448E-18-5.41233E-18
 -1      2223 1.52859E-04-2.70393E-05-5.34763E-05-7.68136E-07-6.45566E-18-1.56447E-18
 -1      2224 1.24471E-04-3.98665E-05-3.63193E-05 1.15923E-05 1.29142E-18 3.81249E-18
 -1      2225 1.25910E-04-3.93046E-05-3.70136E-05 1.07949E-05 1.40349E-18 4.08387E-18
 -1      2226 7.72982E-05-1.49595E-05-2.67957E-05 1.28113E-05 1.76956E-18-3.13153E-18
 -1      2227 8.55376E-05-1.86376E-05-2.85498E-05 9.80876E-06 1.40680E-18-2.83691E-18
 -1      2228 9.26871E-05-2.19832E-05-3.03404E-05 4.68306E-06 9.23875E-19-2.36948E-18
 -1      2229 9.81307E-05-2.39472E-05-3.18354E-05 6.52262E-07 3.16486E-19-2.10620E-18
 -1      2230 9.26543E-05-2.49210E-05-2.90870E-05 8.74396E-06 1.15840E-18-2.15771E-18
 -1      2231 4.31015E-05 5.12991E-06-2.06801E-05 1.09163E-05 1.74990E-18-5.23125E-18
 -1      2232 4.91477E-05 1.88953E-06-2.16127E-05 1.36364E-05 1.99927E-18-4.95792E-18
 -1      2233 4.06399E-05 7.18524E-06-2.03297E-05 3.99559E-07 8.74955E-19-5.38088E-18
 -1      2234 3.97921E-05 7.46144E-06-2.01387E-05 4.76337E-06 1.29185E-18-5.46728E-18
 -1      2235 3.96604E-05 5.74952E-06-1.91424E-05 8.92725E-06 1.56513E-18-5.71631E-18
 -1      2236 5.32948E-05 1.03522E-07-2.25975E-05-7.83874E-06 1.62127E-19-4.55688E-18
 -1      2237 4.56295E-05 3.84193E-06-2.12526E-05-5.33723E-06 3.96511E-19-4.98122E-18
 -1      2238 4.18175E-05 4.61327E-06-1.95576E-05-3.95700E-06 5.11052E-19-5.51302E-18
 -1      2239 7.39119E-05-1.13774E-05-2.65763E-05-8.31525E-06 9.50794E-20-2.99112E-18
 -1      2240 6.35258E-05-6.47258E-06-2.45740E-05-9.27328E-06-2.41868E-20-3.74195E-18
 -1      2241 5.88347E-05-5.66949E-06-2.26592E-05-1.14295E-05-1.45425E-19-4.22182E-18
 -1      2242 9.36121E-05-2.12388E-05-3.09563E-05-2.11217E-06 6.32158E-19-1.26590E-18
 -1      2243 8.43667E-05-1.72149E-05-2.88486E-05-5.42983E-06 2.50424E-19-2.04925E-18
 -1      2244 8.14451E-05-1.82675E-05-2.71254E-05-9.16469E-06-1.16613E-19-2.29506E-18
 -1      2245 1.08731E-04-2.77099E-05-3.49045E-05 5.97422E-06 1.55067E-18 3.97258E-19
 -1      2246 1.01712E-04-2.47786E-05-3.29814E-05 2.34447E-06 1.02095E-18-3.95247E-19
 -1      2247 1.00860E-04-2.74350E-05-3.15203E-05-9.92729E-07 6.02628E-19-4.25647E-19
 -1      2248 1.22963E-04-3.93940E-05-3.58423E-05 1.50027E-05 1.44475E-18 3.66675E-18
 -1      2249 1.25187E-04-4.05989E-05-3.62002E-05 1.34782E-05 1.15835E-18 3.91708E-18
 -1      2250 1.25071E-04-4.11457E-05-3.60240E-05 1.32757E-05 1.38882E-18 3.25780E-18
 -1      2251 1.14537E-04-3.36351E-05-3.46563E-05-1.40762E-05-2.00622E-18 1.08990E-18
 -1      2252 1.12918E-04-3.36666E-05-3.39975E-05-1.34857E-05-1.89909E-18 9.73355E-19
 -1      2253 1.51959E-04-3.06725E-05-5.23171E-05-1.93356E-06 5.18829E-18-2.37254E-18
 -1      2254 1.48815E-04-3.77540E-05-4.78487E-05 2.13168E-08 4.24639E-18-2.47376E-18
 -1      2255 1.12219E-04-3.33920E-05-3.37662E-05-1.36069E-05-1.71144E-18 1.28150E-18
 -1      2256 1.10264E-04-3.21938E-05-3.34250E-05-1.31613E-05-1.63924E-18 1.15294E-18
 -1      2257 1.13945E-04-3.36865E-05-3.43633E-05-1.49877E-05-1.79123E-18 8.95794E-19
 -1      2258 1.08663E-04-3.06885E-05-3.34411E-05-1.25189E-05-1.76304E-18 1.26928E-18
 -1      2259 1.06708E-04-2.88905E-05-3.32776E-05-1.11837E-05-1.87361E-18 9.67530E-19
 -1      2260 1.11585E-04-3.14982E-05-3.43008E-05-1.45492E-05-1.79166E-18 1.03310E-18
 -1      2261 1.04886E-04-2.70776E-05-3.33697E-05-8.98838E-06-1.86273E-18 6.80450E-19
 -1      2262 1.03496E-04-2.56844E-05-3.32804E-05-6.46880E-06-1.97475E-18 3.82456E-19
 -1      2263 1.08055E-04-2.74324E-05-3.45656E-05-1.16797E-05-2.17127E-18 8.55520E-19
 -1      2264 1.02454E-04-2.47848E-05-3.32740E-05-2.94184E-06-2.04927E-18-1.86715E-19
 -1      2265 1.02126E-04-2.47064E-05-3.31742E-05 1.27414E-07-1.77390E-18-5.78956E-19
 -1      2266 1.05072E-04-2.41100E-05-3.47574E-05-5.61585E-06-2.45930E-18 1.98083E-19
 -1      2267 1.02475E-04-2.54309E-05-3.29582E-05 3.60793E-06-1.75681E-18-1.09576E-18
 -1      2268 1.03179E-04-2.67127E-05-3.28226E-05 6.03901E-06-1.57287E-18-1.59127E-18
 -1      2269 1.04400E-04-2.39723E-05-3.45357E-05 1.98321E-06-2.21821E-18-8.84876E-19
 -1      2270 1.04415E-04-2.85478E-05-3.24408E-05 8.05053E-06-1.28833E-18-2.14041E-18
 -1      2271 1.05644E-04-3.04288E-05-3.23013E-05 9.02172E-06-1.15290E-18-2.41511E-18
 -1      2272 1.06123E-04-2.72276E-05-3.38270E-05 7.83718E-06-1.81213E-18-2.14611E-18
 -1      2273 1.06712E-04-3.22196E-05-3.18864E-05 9.05654E-06-1.19877E-18-2.35180E-18
 -1      2274 1.07796E-04-3.37432E-05-3.17845E-05 8.58811E-06-1.24472E-18-2.36708E-18
 -1      2275 1.08609E-04-3.18622E-05-3.28612E-05 9.82128E-06-1.37478E-18-2.56176E-18
 -1      2276 1.08044E-04-3.46983E-05-3.14430E-05 7.23516E-06-9.07017E-19-2.14848E-18
 -1      2277 1.08606E-04-3.54128E-05-3.13849E-05 5.91631E-06-4.14644E-19-2.11395E-18
 -1      2278 1.10008E-04-3.53921E-05-3.19399E-05 8.21167E-06-1.04089E-18-2.21104E-18
 -1      2279 1.08053E-04-3.54562E-05-3.11523E-05 4.08811E-06-6.28326E-21-1.79369E-18
 -1      2280 1.08058E-04-3.54383E-05-3.11162E-05 2.56715E-06 2.42012E-19-1.62675E-18
 -1      2281 1.09693E-04-3.67403E-05-3.12465E-05 4.75728E-06-5.94702E-20-1.82074E-18
 -1      2282 1.07056E-04-3.49028E-05-3.09704E-05 9.22348E-07 1.66670E-19-1.27210E-18
 -1      2283 1.06656E-04-3.44547E-05-3.09273E-05-3.76784E-07 3.74825E-19-9.56257E-19
 -1      2284 1.08091E-04-3.62298E-05-3.08005E-05 1.13019E-06 3.34181E-19-1.09186E-18
 -1      2285 1.05549E-04-3.37097E-05-3.08285E-05-1.55558E-06 1.78208E-19-9.76818E-19
 -1      2286 1.04926E-04-3.31122E-05-3.07599E-05-2.46116E-06 2.95044E-19-1.04634E-18
 -1      2287 1.05935E-04-3.47351E-05-3.05286E-05-1.74616E-06 3.33065E-19-8.81488E-19
 -1      2288 1.03914E-04-3.23990E-05-3.06768E-05-3.14964E-06 2.00558E-20-1.13086E-18
 -1      2289 1.03208E-04-3.18240E-05-3.05788E-05-3.66021E-06-1.09556E-19-1.10619E-18
 -1      2290 1.03784E-04-3.30161E-05-3.03457E-05-3.61031E-06-2.77693E-20-1.30097E-18
 -1      2291 1.02365E-04-3.12478E-05-3.04940E-05-3.95023E-06-2.93668E-19-1.12851E-18
 -1      2292 1.01663E-04-3.07695E-05-3.03728E-05-4.14356E-06-4.36760E-19-1.06998E-18
 -1      2293 1.01911E-04-3.14974E-05-3.01914E-05-4.56201E-06-9.55840E-20-6.72312E-19
 -1      2294 1.00993E-04-3.03492E-05-3.02812E-05-4.15469E-06-5.95701E-19-1.01332E-18
 -1      2295 1.00343E-04-2.99828E-05-3.01473E-05-4.12834E-06-4.55871E-19-9.65072E-19
 -1      2296 1.00386E-04-3.03312E-05-3.00349E-05-4.82782E-06-5.53854E-19-5.22920E-19
 -1      2297 9.98192E-05-2.96974E-05-3.00507E-05-3.96756E-06-5.60993E-19-1.27008E-18
 -1      2298 9.92423E-05-2.94307E-05-2.99149E-05-3.80877E-06-6.03008E-19-1.23663E-18
 -1      2299 9.91860E-05-2.95152E-05-2.98676E-05-4.64032E-06-7.97875E-19-4.86129E-19
 -1      2300 9.88355E-05-2.92477E-05-2.98178E-05-3.55780E-06-4.35923E-19-1.19858E-18
 -1      2301 9.83400E-05-2.90603E-05-2.96886E-05-3.33308E-06 2.40296E-20-1.21040E-18
 -1      2302 9.82524E-05-2.89845E-05-2.96929E-05-4.19053E-06-5.91269E-19-1.03099E-18
 -1      2303 9.80234E-05-2.89490E-05-2.95957E-05-3.04846E-06 5.57371E-19-1.17641E-18
 -1      2304 9.76087E-05-2.88208E-05-2.94789E-05-2.80325E-06 7.91763E-19-9.30976E-19
 -1      2305 9.75280E-05-2.86626E-05-2.95191E-05-3.61797E-06 2.68112E-19-6.29951E-19
 -1      2306 9.73618E-05-2.87573E-05-2.93937E-05-2.52084E-06 8.15229E-19-9.57766E-19
 -1      2307 9.70225E-05-2.86717E-05-2.92921E-05-2.28331E-06 7.72272E-19-8.47328E-19
 -1      2308 9.69652E-05-2.84830E-05-2.93540E-05-3.01603E-06 8.54672E-19-6.18023E-19
 -1      2309 9.68301E-05-2.86386E-05-2.92170E-05-2.02371E-06 7.43031E-19-5.87143E-19
 -1      2310 9.65582E-05-2.85830E-05-2.91315E-05-1.80934E-06 7.19235E-19-5.32860E-19
 -1      2311 9.65281E-05-2.83952E-05-2.92036E-05-2.44201E-06 7.64218E-19-1.55459E-18
 -1      2312 9.64089E-05-2.85686E-05-2.90672E-05-1.58260E-06 6.10070E-19-4.48651E-19
 -1      2313 9.61953E-05-2.85337E-05-2.89973E-05-1.39828E-06 4.19003E-19-1.30367E-19
 -1      2314 9.61894E-05-2.83635E-05-2.90715E-05-1.92713E-06 6.86422E-19-7.22935E-19
 -1      2315 9.60803E-05-2.85303E-05-2.89438E-05-1.20761E-06 1.46747E-19-3.51053E-19
 -1      2316 9.59158E-05-2.85096E-05-2.88880E-05-1.05480E-06 6.31877E-20-4.56189E-19
 -1      2317 9.59283E-05-2.83643E-05-2.89588E-05-1.48497E-06 3.61593E-19-5.30550E-19
 -1      2318 9.58281E-05-2.85121E-05-2.88445E-05-8.99264E-07-2.98386E-19-1.00915E-18
 -1      2319 9.57040E-05-2.85008E-05-2.88010E-05-7.76294E-07 3.69700E-19-1.51612E-18
 -1      2320 9.57289E-05-2.83821E-05-2.88653E-05-1.11781E-06-3.48422E-19-1.10680E-18
 -1      2321 9.56380E-05-2.85063E-05-2.87665E-05-6.52680E-07 9.76739E-19-2.16051E-18
 -1      2322 9.55464E-05-2.85012E-05-2.87334E-05-5.56246E-07 4.08916E-19-1.86675E-18
 -1      2323 9.55784E-05-2.84075E-05-2.87895E-05-8.21342E-07 8.07623E-20-2.32134E-18
 -1      2324 9.54975E-05-2.85078E-05-2.87066E-05-4.60299E-07 1.03495E-20-2.16915E-18
 -1      2325 9.54315E-05-2.85066E-05-2.86819E-05-3.86464E-07-2.17866E-19-1.75242E-18
 -1      2326 9.54664E-05-2.84348E-05-2.87294E-05-5.87763E-07 2.78537E-20-2.76004E-18
 -1      2327 9.53959E-05-2.85133E-05-2.86615E-05-3.13664E-07-3.66701E-19-1.74068E-18
 -1      2328 9.53497E-05-2.85144E-05-2.86435E-05-2.58446E-07-4.69834E-20-1.08601E-18
 -1      2329 9.53844E-05-2.84610E-05-2.86828E-05-4.07898E-07-1.01969E-19-2.22788E-18
 -1      2330 9.53244E-05-2.85206E-05-2.86283E-05-2.04466E-07 2.51124E-19-8.64703E-19
 -1      2331 9.52930E-05-2.85230E-05-2.86156E-05-1.64170E-07 1.19450E-19-7.14645E-19
 -1      2332 9.53256E-05-2.84843E-05-2.86473E-05-2.72476E-07 1.32068E-19-3.74213E-19
 -1      2333 9.52755E-05-2.85284E-05-2.86045E-05-1.25118E-07-6.26682E-19-5.31072E-19
 -1      2334 9.52553E-05-2.85314E-05-2.85958E-05-9.64965E-08-3.92613E-19-2.58703E-19
 -1      2335 9.52846E-05-2.85043E-05-2.86209E-05-1.72858E-07-4.39314E-19 2.91581E-19
 -1      2336 9.52436E-05-2.85359E-05-2.85880E-05-6.90224E-08 5.71634E-21 8.73982E-20
 -1      2337 9.52313E-05-2.85390E-05-2.85823E-05-4.93289E-08 5.04148E-19 1.83304E-19
 -1      2338 9.52568E-05-2.85208E-05-2.86018E-05-1.01415E-07 9.53577E-20 7.90763E-19
 -1      2339 9.52238E-05-2.85428E-05-2.85769E-05-3.06388E-08 4.54916E-19 6.90819E-19
 -1      2340 9.52172E-05-2.85458E-05-2.85734E-05-1.76220E-08 5.30441E-19 7.45343E-19
 -1      2341 9.52388E-05-2.85341E-05-2.85882E-05-5.16608E-08 4.82494E-19 1.35254E-18
 -1      2342 9.52128E-05-2.85487E-05-2.85698E-05-5.45003E-09 5.60393E-19 4.62995E-19
 -1      2343 9.52099E-05-2.85515E-05-2.85679E-05 2.69027E-09 3.61613E-19 5.52599E-19
 -1      2344 9.52278E-05-2.85445E-05-2.85789E-05-1.82428E-08 2.35516E-19 6.52759E-19
 -1      2345 9.52077E-05-2.85538E-05-2.85657E-05 1.01398E-08-2.07783E-19 7.20019E-20
 -1      2346 9.52073E-05-2.85562E-05-2.85647E-05 1.48103E-08-3.06500E-19-2.07228E-19
 -1      2347 9.52218E-05-2.85525E-05-2.85728E-05 3.14515E-09-3.53203E-19 6.11065E-20
 -1      2348 9.52065E-05-2.85580E-05-2.85635E-05 1.89296E-08 3.82242E-19 3.35990E-19
 -1      2349 9.52077E-05-2.85600E-05-2.85633E-05 2.12060E-08 9.33346E-19 1.21914E-18
 -1      2350 9.52191E-05-2.85586E-05-2.85690E-05 1.58897E-08 3.80797E-19-4.93490E-19
 -1      2351 9.52077E-05-2.85613E-05-2.85627E-05 2.30522E-08 9.00813E-19 1.47456E-18
 -1      2352 9.52098E-05-2.85630E-05-2.85629E-05 2.37396E-08 6.63885E-19 2.71331E-18
 -1      2353 9.52187E-05-2.85630E-05-2.85668E-05 2.25986E-08 1.04727E-18 1.89381E-18
 -1      2354 9.52104E-05-2.85640E-05-2.85627E-05 2.40981E-08 1.04835E-19 2.66438E-18
 -1      2355 9.52129E-05-2.85653E-05-2.85632E-05 2.37852E-08 4.17746E-19 2.90222E-18
 -1      2356 9.52196E-05-2.85662E-05-2.85658E-05 2.52381E-08 6.61214E-19 2.34871E-18
 -1      2357 9.52138E-05-2.85660E-05-2.85633E-05 2.32263E-08-1.03282E-19 1.90012E-18
 -1      2358 9.52163E-05-2.85671E-05-2.85639E-05 2.23329E-08-5.18115E-19 1.67870E-18
 -1      2359 9.52213E-05-2.85685E-05-2.85656E-05 2.52583E-08-1.50821E-19 1.02892E-18
 -1      2360 9.52173E-05-2.85676E-05-2.85642E-05 2.12592E-08 2.45446E-19 7.87310E-19
 -1      2361 9.52198E-05-2.85685E-05-2.85648E-05 2.00754E-08 2.38362E-20 1.31703E-18
 -1      2362 9.52234E-05-2.85700E-05-2.85658E-05 2.37029E-08-9.93242E-19 1.09253E-18
 -1      2363 9.52208E-05-2.85688E-05-2.85652E-05 1.87620E-08-1.06548E-18 1.80327E-18
 -1      2364 9.52230E-05-2.85695E-05-2.85658E-05 1.74800E-08-1.75570E-18 2.63403E-18
 -1      2365 9.52256E-05-2.85710E-05-2.85663E-05 2.13017E-08-6.03594E-19 2.10027E-18
 -1      2366 9.52240E-05-2.85697E-05-2.85662E-05 1.61065E-08-1.89920E-18 3.03481E-18
 -1      2367 9.52260E-05-2.85702E-05-2.85668E-05 1.48459E-08-1.47818E-18 3.47455E-18
 -1      2368 9.52277E-05-2.85716E-05-2.85669E-05 1.85461E-08-1.03024E-18 4.01165E-18
 -1      2369 9.52269E-05-2.85704E-05-2.85671E-05 1.35210E-08-1.29259E-18 3.43358E-18
 -1      2370 9.52285E-05-2.85707E-05-2.85676E-05 1.23486E-08 9.81497E-20 3.17607E-18
 -1      2371 9.52296E-05-2.85720E-05-2.85675E-05 1.57502E-08-1.39944E-18 4.26009E-18
 -1      2372 9.52293E-05-2.85709E-05-2.85680E-05 1.11297E-08 1.52453E-18 2.76435E-18
 -1      2373 9.52307E-05-2.85712E-05-2.85684E-05 1.00735E-08 2.24626E-18 2.03609E-18
 -1      2374 9.52313E-05-2.85722E-05-2.85682E-05 1.30971E-08 2.14382E-19 3.86718E-18
 -1      2375 9.52314E-05-2.85712E-05-2.85687E-05 8.98131E-09 7.18600E-19 1.75933E-19
 -1      2376 9.52326E-05-2.85715E-05-2.85690E-05 8.04227E-09 7.51642E-19-9.49520E-19
 -1      2377 9.52328E-05-2.85723E-05-2.85688E-05 1.06756E-08 4.19272E-19 1.49671E-18
 -1      2378 9.52332E-05-2.85716E-05-2.85693E-05 7.07009E-09 2.57187E-18-1.31320E-18
 -1      2379 9.52341E-05-2.85718E-05-2.85696E-05 6.22565E-09 1.32296E-18 1.80886E-19
 -1      2380 9.52340E-05-2.85724E-05-2.85693E-05 8.50892E-09 1.00076E-18 1.84923E-19
 -1      2381 9.52346E-05-2.85718E-05-2.85698E-05 5.35899E-09-5.26508E-20 5.06960E-19
 -1      2382 9.52353E-05-2.85720E-05-2.85700E-05 4.59060E-09 6.51740E-19 5.96148E-19
 -1      2383 9.52351E-05-2.85725E-05-2.85697E-05 6.56296E-09 1.49474E-18-4.52190E-20
 -1      2384 1.13779E-04-2.80205E-05-3.67217E-05 1.25672E-05 2.13071E-18 2.55729E-18
 -1      2385 1.16631E-04-3.13521E-05-3.67061E-05 1.54459E-05 2.00863E-18 3.30496E-18
 -1      2386 1.10548E-04-2.43233E-05-3.70236E-05 2.30495E-06 2.57228E-18 6.47874E-19
 -1      2387 1.11634E-04-2.53497E-05-3.70935E-05 7.39557E-06 2.42646E-18 1.56880E-18
 -1      2388 1.16508E-04-2.52716E-05-3.92712E-05 1.17146E-05 3.01766E-18 2.32587E-18
 -1      2389 1.12012E-04-2.72288E-05-3.65127E-05-8.39302E-06 2.23402E-18-9.21612E-19
 -1      2390 1.10787E-04-2.50495E-05-3.67494E-05-4.07883E-06 2.38239E-18-4.42978E-19
 -1      2391 1.14395E-04-2.28076E-05-3.94804E-05-8.62504E-07 3.13291E-18-3.93688E-20
 -1      2392 1.16202E-04-3.39600E-05-3.54119E-05-1.29967E-05 1.82694E-18-1.95618E-18
 -1      2393 1.13959E-04-3.05807E-05-3.56927E-05-1.17766E-05 2.09193E-18-1.30916E-18
 -1      2394 1.16971E-04-2.82948E-05-3.81278E-05-1.13481E-05 2.54052E-18-1.91473E-18
 -1      2395 1.18938E-04-3.89838E-05-3.43310E-05-1.06421E-05 8.47466E-19-2.00074E-18
 -1      2396 1.17309E-04-3.67782E-05-3.45125E-05-1.21623E-05 1.29654E-18-1.93845E-18
 -1      2397 1.20474E-04-3.65355E-05-3.59820E-05-1.35362E-05 1.57389E-18-2.36967E-18
 -1      2398 1.18553E-04-4.01358E-05-3.36027E-05-4.91189E-06 3.92295E-19-1.92847E-18
 -1      2399 1.18175E-04-3.97105E-05-3.36911E-05-7.50742E-06 6.39460E-19-2.00121E-18
 -1      2400 1.20979E-04-4.14349E-05-3.40855E-05-8.87746E-06 7.01851E-19-2.29328E-18
 -1      2401 1.15994E-04-3.85782E-05-3.31477E-05 6.45395E-07-1.28140E-19-1.68316E-18
 -1      2402 1.16631E-04-3.92859E-05-3.32345E-05-1.70093E-06 1.14105E-19-1.84619E-18
 -1      2403 1.18205E-04-4.15446E-05-3.28801E-05-2.20994E-06 3.79807E-19-1.95491E-18
 -1      2404 1.12667E-04-3.61057E-05-3.27848E-05 4.43559E-06-4.02536E-19-1.09766E-18
 -1      2405 1.13853E-04-3.71779E-05-3.29341E-05 2.88535E-06-1.19729E-19-1.22199E-18
 -1      2406 1.14006E-04-3.89096E-05-3.22319E-05 3.24074E-06-3.45093E-19-8.45629E-19
 -1      2407 1.09450E-04-3.38269E-05-3.23927E-05 6.35303E-06 3.18504E-19-1.47154E-18
 -1      2408 1.10826E-04-3.48278E-05-3.26162E-05 5.59638E-06-4.14649E-20-1.10102E-18
 -1      2409 1.09919E-04-3.56869E-05-3.18583E-05 6.51511E-06-8.32673E-20-1.01938E-18
 -1      2410 1.06654E-04-3.20955E-05-3.19437E-05 6.87819E-06-4.84974E-19-1.03013E-18
 -1      2411 1.08013E-04-3.28844E-05-3.22179E-05 6.70488E-06 6.47765E-20-1.04535E-18
 -1      2412 1.06574E-04-3.30170E-05-3.15567E-05 7.91030E-06 1.24254E-19-3.51978E-19
 -1      2413 1.04318E-04-3.08990E-05-3.14599E-05 6.55293E-06-5.54562E-19-9.05396E-19
 -1      2414 1.05561E-04-3.14756E-05-3.17525E-05 6.73041E-06-7.91134E-19-9.42250E-19
 -1      2415 1.04006E-04-3.11548E-05-3.12421E-05 8.02665E-06-6.93768E-19-3.73053E-19
 -1      2416 1.02392E-04-3.01057E-05-3.09768E-05 5.79933E-06-1.08920E-19-3.69225E-19
 -1      2417 1.03478E-04-3.05151E-05-3.12606E-05 6.14846E-06-8.93777E-20-6.12662E-19
 -1      2418 1.02055E-04-2.99830E-05-3.09005E-05 7.41061E-06-5.22495E-19-4.65792E-19
 -1      2419 1.00815E-04-2.95849E-05-3.05246E-05 4.89194E-06 9.72624E-20 3.86175E-19
 -1      2420 1.01733E-04-2.98740E-05-3.07821E-05 5.29701E-06-1.73650E-19-2.83454E-20
 -1      2421 1.00551E-04-2.92915E-05-3.05480E-05 6.45262E-06-3.66383E-19-5.57016E-19
 -1      2422 9.95302E-05-2.92401E-05-3.01221E-05 3.98851E-06-1.96902E-20-2.67645E-19
 -1      2423 1.00288E-04-2.94453E-05-3.03449E-05 4.38419E-06 4.16072E-19 4.25852E-19
 -1      2424 9.93681E-05-2.89008E-05-3.02064E-05 5.39723E-06 2.38044E-19 2.06615E-19
 -1      2425 9.84942E-05-2.90084E-05-2.97776E-05 3.16845E-06 1.27746E-19-9.37638E-19
 -1      2426 9.91063E-05-2.91547E-05-2.99635E-05 3.52294E-06 4.46926E-20-5.16866E-19
 -1      2427 9.84254E-05-2.86871E-05-2.98930E-05 4.38204E-06 2.37881E-19-3.10618E-19
 -1      2428 9.76685E-05-2.88503E-05-2.94915E-05 2.46365E-06-1.80213E-19-9.97543E-19
 -1      2429 9.81534E-05-2.89548E-05-2.96424E-05 2.76522E-06 1.55374E-19-8.14750E-19
 -1      2430 9.76707E-05-2.85740E-05-2.96175E-05 3.47461E-06 6.58916E-20-7.85292E-19
 -1      2431 9.70191E-05-2.87415E-05-2.92600E-05 1.87948E-06 5.52285E-19-1.67416E-18
 -1      2432 9.73965E-05-2.88159E-05-2.93797E-05 2.12729E-06-7.33287E-20-1.24782E-18
 -1      2433 9.70684E-05-2.85170E-05-2.93834E-05 2.70010E-06 1.36753E-19-1.07526E-18
 -1      2434 9.65159E-05-2.86669E-05-2.90765E-05 1.40792E-06-2.88841E-19-1.58595E-18
 -1      2435 9.68046E-05-2.87192E-05-2.91695E-05 1.60645E-06 4.52834E-19-1.45490E-18
 -1      2436 9.65921E-05-2.84910E-05-2.91899E-05 2.05997E-06 3.81361E-19-1.40542E-18
 -1      2437 9.61320E-05-2.86163E-05-2.89339E-05 1.03515E-06-2.97361E-19-1.71177E-18
 -1      2438 9.63491E-05-2.86525E-05-2.90049E-05 1.19099E-06-7.31283E-19-1.37883E-18
 -1      2439 9.62200E-05-2.84822E-05-2.90337E-05 1.54364E-06-5.67457E-19-7.29436E-19
 -1      2440 9.58442E-05-2.85830E-05-2.88250E-05 7.45756E-07-4.82445E-19-1.19888E-18
 -1      2441 9.60044E-05-2.86073E-05-2.88782E-05 8.65935E-07-3.27426E-19-1.21831E-18
 -1      2442 9.59335E-05-2.84830E-05-2.89101E-05 1.13542E-06-7.66652E-19-1.12925E-18
 -1      2443 9.56324E-05-2.85621E-05-2.87434E-05 5.24832E-07 2.26127E-19-9.37725E-19
 -1      2444 9.57483E-05-2.85778E-05-2.87825E-05 6.15967E-07-1.75772E-19-1.24370E-18
 -1      2445 9.57165E-05-2.84889E-05-2.88142E-05 8.18312E-07-2.97455E-19-7.06416E-19
 -1      2446 9.54797E-05-2.85498E-05-2.86834E-05 3.58970E-07-3.69568E-20 1.85932E-19
 -1      2447 9.55616E-05-2.85594E-05-2.87116E-05 4.26921E-07 3.73151E-19-2.46306E-19
 -1      2448 9.55552E-05-2.84974E-05-2.87409E-05 5.76062E-07-4.46569E-19 3.38418E-19
 -1      2449 9.53723E-05-2.85437E-05-2.86402E-05 2.36618E-07-5.13502E-19-2.37967E-19
 -1      2450 9.54286E-05-2.85489E-05-2.86600E-05 2.86372E-07-1.04729E-19 5.32174E-20
 -1      2451 9.54376E-05-2.85069E-05-2.86861E-05 3.94070E-07-1.71745E-19 8.04666E-19
 -1      2452 9.52991E-05-2.85417E-05-2.86098E-05 1.48100E-07-2.90632E-19-6.54288E-19
 -1      2453 9.53363E-05-2.85439E-05-2.86233E-05 1.83795E-07-2.83653E-19-3.80699E-19
 -1      2454 9.53540E-05-2.85165E-05-2.86458E-05 2.59743E-07-3.73812E-19 8.12343E-19
 -1      2455 9.52510E-05-2.85422E-05-2.85891E-05 8.54871E-08 5.43676E-19-1.68690E-18
 -1      2456 9.52745E-05-2.85425E-05-2.85980E-05 1.10487E-07 3.69791E-19-1.54180E-18
 -1      2457 9.52961E-05-2.85256E-05-2.86168E-05 1.62522E-07 5.14721E-19-1.88248E-19
 -1      2458 9.52212E-05-2.85444E-05-2.85755E-05 4.23957E-08-5.88088E-19-2.15204E-18
 -1      2459 9.52349E-05-2.85435E-05-2.85810E-05 5.93904E-08-2.32250E-19-1.66455E-18
 -1      2460 9.52574E-05-2.85339E-05-2.85965E-05 9.37357E-08-1.13512E-19-1.18068E-18
 -1      2461 9.52043E-05-2.85474E-05-2.85670E-05 1.37655E-08-7.57390E-19-1.53811E-18
 -1      2462 9.52112E-05-2.85458E-05-2.85702E-05 2.48728E-08-5.93453E-19-2.01042E-18
 -1      2463 9.52328E-05-2.85412E-05-2.85826E-05 4.63910E-08-3.74878E-19-7.81791E-19
 -1      2464 9.51962E-05-2.85507E-05-2.85622E-05-4.35396E-09 2.93123E-19-7.96465E-19
 -1      2465 9.51986E-05-2.85488E-05-2.85637E-05 2.50904E-09-6.29797E-19-1.58345E-18
 -1      2466 9.52183E-05-2.85475E-05-2.85736E-05 1.49374E-08-4.99845E-19-1.48226E-18
 -1      2467 9.51940E-05-2.85540E-05-2.85599E-05-1.50015E-08 9.38578E-19-1.09925E-18
 -1      2468 9.51935E-05-2.85521E-05-2.85603E-05-1.11268E-08 8.85055E-19-1.19851E-18
 -1      2469 9.52108E-05-2.85528E-05-2.85680E-05-4.96297E-09 9.41979E-20-1.11721E-18
 -1      2470 9.51955E-05-2.85571E-05-2.85592E-05-2.04780E-08 1.88922E-18-1.52141E-18
 -1      2471 9.51933E-05-2.85552E-05-2.85590E-05-1.86467E-08 1.66199E-18-9.98350E-19
 -1      2472 9.52079E-05-2.85572E-05-2.85648E-05-1.66496E-08 1.40081E-18-1.51984E-18
 -1      2473 9.51990E-05-2.85599E-05-2.85596E-05-2.24966E-08 1.35681E-18-1.93943E-18
 -1      2474 9.51960E-05-2.85582E-05-2.85590E-05-2.20103E-08 1.80737E-18-1.22355E-18
 -1      2475 9.52081E-05-2.85607E-05-2.85633E-05-2.26522E-08 2.24755E-18-7.92589E-19
 -1      2476 9.52037E-05-2.85623E-05-2.85606E-05-2.23088E-08-5.66963E-19-3.65210E-18
 -1      2477 9.52003E-05-2.85608E-05-2.85598E-05-2.26612E-08 4.16411E-19-2.80692E-18
 -1      2478 9.52101E-05-2.85635E-05-2.85629E-05-2.48548E-08 1.16783E-18-1.26108E-18
 -1      2479 9.52087E-05-2.85643E-05-2.85619E-05-2.08090E-08-1.77522E-18-3.36229E-18
 -1      2480 9.52053E-05-2.85630E-05-2.85610E-05-2.16418E-08-1.47978E-18-3.35232E-18
 -1      2481 9.52131E-05-2.85656E-05-2.85632E-05-2.46338E-08-1.00206E-18-2.12492E-18
 -1      2482 9.52136E-05-2.85660E-05-2.85633E-05-1.86191E-08-2.87583E-18-1.14758E-18
 -1      2483 9.52104E-05-2.85649E-05-2.85624E-05-1.96860E-08-2.72014E-18-3.23917E-18
 -1      2484 9.52165E-05-2.85673E-05-2.85640E-05-2.29724E-08-2.47725E-18-2.96529E-18
 -1      2485 9.52181E-05-2.85673E-05-2.85646E-05-1.61564E-08-1.02080E-18-1.67209E-19
 -1      2486 9.52152E-05-2.85665E-05-2.85638E-05-1.72950E-08-1.30087E-18-6.11063E-19
 -1      2487 9.52199E-05-2.85686E-05-2.85649E-05-2.05540E-08-3.08345E-18-1.79221E-18
 -1      2488 9.52222E-05-2.85684E-05-2.85659E-05-1.36861E-08-8.31756E-19 2.21165E-19
 -1      2489 9.52197E-05-2.85677E-05-2.85652E-05-1.47958E-08-1.31720E-18-1.04009E-19
 -1      2490 9.52231E-05-2.85695E-05-2.85658E-05-1.78362E-08-1.56686E-18-7.58060E-19
 -1      2491 9.52257E-05-2.85693E-05-2.85670E-05-1.13627E-08 3.20169E-19-1.25721E-18
 -1      2492 9.52235E-05-2.85687E-05-2.85664E-05-1.23881E-08 2.27164E-19-8.02925E-19
 -1      2493 9.52260E-05-2.85702E-05-2.85668E-05-1.51093E-08 1.21080E-19-1.36205E-18
 -1      2494 9.52286E-05-2.85700E-05-2.85680E-05-9.25972E-09 9.18150E-19-1.59072E-18
 -1      2495 9.52269E-05-2.85695E-05-2.85675E-05-1.01783E-08 4.15538E-19-1.67681E-18
 -1      2496 9.52286E-05-2.85707E-05-2.85676E-05-1.25411E-08 6.58686E-19-1.19773E-18
 -1      2497 9.52311E-05-2.85706E-05-2.85688E-05-7.39250E-09 1.26897E-19 5.56703E-19
 -1      2498 9.52296E-05-2.85702E-05-2.85684E-05-8.20563E-09 9.06426E-19-2.91575E-19
 -1      2499 9.52308E-05-2.85711E-05-2.85684E-05-1.02108E-08 4.00622E-19-3.30947E-19
 -1      2500 9.52331E-05-2.85710E-05-2.85695E-05-5.73523E-09-6.58812E-19 9.95275E-19
 -1      2501 9.52319E-05-2.85707E-05-2.85691E-05-6.46152E-09-1.37989E-19 6.05253E-19
 -1      2502 9.52326E-05-2.85715E-05-2.85690E-05-8.13431E-09-3.07910E-19 1.47796E-20
 -1      2503 9.52346E-05-2.85714E-05-2.85700E-05-4.23182E-09 1.32553E-19 1.49233E-18
 -1      2504 9.52338E-05-2.85712E-05-2.85697E-05-4.90155E-09-3.62570E-19 1.68611E-18
 -1      2505 9.52341E-05-2.85717E-05-2.85696E-05-6.29027E-09-8.97872E-19 1.06080E-18
 -1      2506 9.52359E-05-2.85718E-05-2.85703E-05-2.84461E-09 6.71261E-19 2.58085E-18
 -1      2507 9.52352E-05-2.85716E-05-2.85702E-05-3.47380E-09 3.27365E-19 1.60439E-18
 -1      2508 9.52354E-05-2.85720E-05-2.85700E-05-4.61510E-09-2.44330E-19 2.93444E-18
 -1      2509 9.52364E-05-2.85719E-05-2.85705E-05-2.10251E-09-1.02892E-20 4.42286E-18
 -1      2510 9.52397E-05-2.85771E-05-2.85696E-05-3.72100E-09-2.42550E-19-4.93093E-18
 -1      2511 9.52392E-05-2.85765E-05-2.85697E-05-4.04380E-09 1.07194E-19-7.51753E-18
 -1      2512 9.52403E-05-2.85781E-05-2.85695E-05-2.64041E-09-1.02209E-18 2.26645E-18
 -1      2513 9.52400E-05-2.85777E-05-2.85696E-05-3.18411E-09-6.81260E-19-1.53438E-18
 -1      2514 9.52402E-05-2.85775E-05-2.85697E-05-3.98909E-09 2.60334E-19-3.14098E-18
 -1      2515 9.52378E-05-2.85744E-05-2.85700E-05-4.24532E-09-1.34269E-18-2.95531E-18
 -1      2516 9.52373E-05-2.85737E-05-2.85701E-05-4.02782E-09-5.55642E-19-1.47409E-18
 -1      2517 9.52388E-05-2.85758E-05-2.85698E-05-4.28771E-09-2.32000E-18-6.80004E-18
 -1      2518 9.52383E-05-2.85752E-05-2.85699E-05-4.34057E-09-1.72677E-18-4.44436E-18
 -1      2519 9.52379E-05-2.85748E-05-2.85699E-05-5.02375E-09-1.40139E-18-4.82212E-18
 -1      2520 9.52391E-05-2.85763E-05-2.85698E-05-4.83496E-09-3.12862E-19-5.38972E-18
 -1      2521 9.52407E-05-2.85787E-05-2.85694E-05-1.20885E-09-1.28076E-18 3.17431E-18
 -1      2522 9.52406E-05-2.85785E-05-2.85695E-05-1.89422E-09-1.84842E-18 2.33891E-18
 -1      2523 9.52409E-05-2.85785E-05-2.85696E-05-2.61384E-09-1.38439E-18 1.41270E-18
 -1      2524 9.52408E-05-2.85788E-05-2.85694E-05 3.80494E-10-6.00328E-19 5.47374E-18
 -1      2525 9.52408E-05-2.85788E-05-2.85694E-05-3.52823E-10-1.93663E-18 5.75029E-18
 -1      2526 9.52413E-05-2.85789E-05-2.85696E-05-8.98987E-10-2.77936E-19 4.11793E-18
 -1      2527 9.52406E-05-2.85785E-05-2.85695E-05 1.91887E-09-9.27210E-19-1.02933E-18
 -1      2528 9.52407E-05-2.85787E-05-2.85694E-05 1.23553E-09-8.06433E-19 2.02687E-18
 -1      2529 9.52413E-05-2.85789E-05-2.85696E-05 9.30763E-10-1.86299E-19 4.21441E-18
 -1      2530 9.52400E-05-2.85777E-05-2.85696E-05 3.18431E-09 4.32687E-19-2.63679E-18
 -1      2531 9.52403E-05-2.85781E-05-2.85695E-05 2.65080E-09 1.67865E-19-2.49682E-18
 -1      2532 9.52409E-05-2.85785E-05-2.85696E-05 2.62845E-09 3.34360E-20-9.38582E-19
 -1      2533 9.52392E-05-2.85765E-05-2.85697E-05 4.04405E-09-1.96338E-19-1.69555E-19
 -1      2534 9.52397E-05-2.85771E-05-2.85696E-05 3.72105E-09 1.24196E-19-1.21589E-18
 -1      2535 9.52402E-05-2.85775E-05-2.85697E-05 3.98877E-09 6.55693E-19-2.17834E-18
 -1      2536 9.52383E-05-2.85751E-05-2.85699E-05 4.32129E-09-9.49780E-19 3.26145E-19
 -1      2537 9.52387E-05-2.85758E-05-2.85698E-05 4.29046E-09-3.80459E-19 7.27597E-19
 -1      2538 9.52391E-05-2.85763E-05-2.85698E-05 4.84381E-09-1.03194E-18 1.20125E-19
 -1      2539 9.52372E-05-2.85737E-05-2.85701E-05 3.99685E-09-1.56747E-18-2.60422E-18
 -1      2540 9.52377E-05-2.85744E-05-2.85700E-05 4.25574E-09-1.09068E-18-1.70827E-18
 -1      2541 9.52380E-05-2.85748E-05-2.85699E-05 5.00772E-09-1.36802E-18-6.05190E-19
 -1      2542 2.62333E-05-1.46667E-05-4.55130E-06 1.60382E-05-3.31455E-19 5.88370E-18
 -1      2543 2.00881E-05-1.42532E-05-2.22200E-06 2.70219E-06 5.53202E-19 6.03342E-18
 -1      2544 5.90575E-05-3.27994E-05-1.10464E-05 4.03204E-05-1.55261E-18 3.08744E-18
 -1      2545 4.08799E-05-2.34932E-05-7.06160E-06 3.11756E-05-1.27193E-18 5.17897E-18
 -1      2546 2.06620E-05-1.46388E-05-2.34679E-06-9.16119E-06 1.38307E-18 5.67491E-18
 -1      2547 2.73504E-05-1.71658E-05-3.98355E-06-2.30373E-05 1.28050E-18 5.50127E-18
 -1      2548 2.92359E-05-1.15674E-05-6.95469E-06-4.79017E-06 6.77785E-19 5.61540E-18
 -1      2549 1.19136E-04-3.47858E-05-3.61154E-05 1.67131E-05 1.72964E-18 3.52008E-18
 -1      2550 1.22124E-04-3.77882E-05-3.62150E-05 1.66338E-05 1.58076E-18 3.76152E-18
 -1      2551 1.25141E-04-3.98459E-05-3.65521E-05 1.73130E-05 1.53484E-18 3.39665E-18
 -1      2552 9.52367E-05-2.85725E-05-2.85704E-05 2.74215E-09-1.14270E-21 4.49672E-19
 -1      2553 9.46757E-05-4.92826E-05-1.95845E-05 4.12107E-05-1.14011E-18 9.63328E-19
 -1      2554 7.88542E-05-4.27926E-05-1.51426E-05 4.10480E-05-2.01636E-18 1.68840E-18
 -1      2555 1.47342E-04-4.75929E-05-4.31240E-05 8.07965E-06 2.97311E-18-2.38630E-18
 -1      2556 1.39369E-04-5.23649E-05-3.74186E-05 1.48962E-05 1.89667E-18-1.92065E-18
 -1      2557 1.42883E-04-1.08196E-05-5.70426E-05-5.12701E-06-6.93212E-18-1.95577E-18
 -1      2558 1.44076E-04-1.41710E-05-5.59514E-05-6.91110E-06-6.91009E-18-1.64324E-18
 -1      2559 9.51399E-05-3.94017E-05-2.40762E-05 3.50937E-05-1.22608E-19-3.23011E-18
 -1      2560 7.34421E-05-3.11244E-05-1.78549E-05 3.73622E-05 8.65244E-19-4.53327E-18
 -1      2561 5.80739E-05-4.40711E-06-2.30688E-05 1.61797E-05 2.18783E-18-4.28173E-18
 -1      2562 6.75340E-05-9.19705E-06-2.47389E-05 1.56622E-05 2.07061E-18-3.83341E-18
 -1      2563 7.48899E-05-1.62557E-05-2.51338E-05 1.73327E-05 2.08029E-18-3.27508E-18
 -1      2564 1.51193E-04-2.91474E-05-5.24243E-05 9.05640E-06 6.12468E-18 2.70204E-19
 -1      2565 1.50026E-04-2.14576E-05-5.55598E-05 1.05725E-05 6.77309E-18 3.91329E-19
 -1      2566 1.48739E-04-1.71488E-05-5.68667E-05-2.20717E-06 7.09517E-18-1.89630E-18
 -1      2567 1.50538E-04-2.29379E-05-5.49462E-05-3.00085E-06 6.25047E-18-2.06231E-18
 -1      2568 1.42947E-04-2.67683E-05-4.99418E-05-8.10771E-06 5.02481E-18-2.91273E-18
 -1      2569 8.84215E-05-4.10491E-05-2.03760E-05-3.28152E-05 7.76306E-19-4.42053E-18
 -1      2570 1.06881E-04-4.67217E-05-2.59727E-05-2.84347E-05 7.94093E-19-2.80728E-18
 -1      2571 1.46311E-04-4.38579E-05-4.40527E-05 9.96656E-07 3.86056E-18 2.28699E-19
 -1      2572 1.51403E-04-3.84932E-05-4.87836E-05 5.15436E-06 4.94498E-18 4.00435E-19
 -1      2573 1.46149E-04-2.18560E-05-5.35731E-05-6.83849E-06-6.41543E-18-7.93670E-19
 -1      2574 1.42227E-04-2.92742E-05-4.86833E-05-5.20995E-06-5.32053E-18-5.20925E-20
 -1      2575 1.36484E-04-1.70764E-05-5.14440E-05-1.05068E-05-5.91398E-18-4.68621E-19
 -1      2576 1.26200E-04-5.08748E-05-3.23315E-05-1.68267E-05 1.68877E-18-9.27289E-19
 -1      2577 1.40584E-04-4.98420E-05-3.90762E-05-8.76118E-06 2.91369E-18-2.77827E-19
 -1      2578 5.29857E-05-2.41099E-05-1.22281E-05-3.25409E-05-3.28225E-20-6.06920E-18
 -1      2579 7.07407E-05-3.26353E-05-1.63434E-05-3.60081E-05 7.93670E-19-5.53891E-18
 -1      2580 8.47498E-05-3.71546E-05-2.00271E-05-3.13239E-05-8.47880E-19-3.85347E-18
 -1      2581 2.32034E-05-7.65939E-06-6.40485E-06-1.84036E-05 1.13502E-19-7.77301E-18
 -1      2582 3.55461E-05-1.37177E-05-9.18989E-06-2.80004E-05 4.13776E-19-7.10851E-18
 -1      2583 1.25787E-05-7.42737E-07-4.77493E-06 4.40541E-06 5.46177E-19-8.15714E-18
 -1      2584 1.49433E-05-2.71698E-06-4.99788E-06-8.68685E-06 8.84302E-19-8.19462E-18
 -1      2585 2.40879E-05-8.03091E-06-6.67649E-06 2.67094E-05 6.95838E-19-7.40137E-18
 -1      2586 1.59341E-05-3.69245E-06-5.05407E-06 1.64016E-05 1.22100E-18-7.73828E-18
 -1      2587 5.02633E-05-2.03891E-05-1.28877E-05 3.84159E-05 7.66565E-19-5.94649E-18
 -1      2588 3.57170E-05-1.43676E-05-8.97127E-06 3.21980E-05 1.06599E-18-6.81946E-18
 -1      2589 3.49152E-05-8.88833E-06-1.06849E-05 2.92887E-05 1.86358E-18-6.89951E-18
 -1      2590 1.24739E-04-4.60422E-05-3.40551E-05 2.02886E-05-2.14236E-18-1.29173E-18
 -1      2591 1.13054E-04-4.46179E-05-2.92432E-05 2.55657E-05-9.18078E-19-2.01234E-18
 -1      2592 1.40020E-04-3.92360E-05-4.36969E-05 1.37478E-06-4.00668E-18 1.45054E-19
 -1      2593 1.33337E-04-4.37560E-05-3.84783E-05 1.00323E-05-3.09379E-18-6.41204E-19
 -1      2594 1.43042E-04-1.28435E-05-5.61367E-05 6.80628E-07-6.07111E-18-2.85260E-18
 -1      2595 1.41781E-04-1.04405E-05-5.67576E-05-1.54027E-06-6.58441E-18-2.81399E-18
 -1      2596 1.46276E-04-2.62468E-05-5.16725E-05-5.18312E-08-4.80352E-18-2.86170E-18
 -1      2597 1.46001E-04-1.89898E-05-5.48614E-05 1.66101E-06-5.51588E-18-3.14207E-18
 -1      2598 1.43226E-04-4.10918E-05-4.39475E-05-8.09854E-06-3.17489E-18-2.32743E-18
 -1      2599 1.46950E-04-3.53788E-05-4.81707E-05-4.33601E-06-3.96909E-18-2.56397E-18
 -1      2600 1.27609E-04-5.19284E-05-3.24999E-05-2.45095E-05-8.76785E-19-9.89758E-19
 -1      2601 1.39185E-04-4.84411E-05-3.91339E-05-1.71694E-05-2.12388E-18-1.94267E-18
 -1      2602 1.01803E-04-5.05183E-05-2.19466E-05-3.83165E-05 5.78735E-19 9.96375E-19
 -1      2603 1.15640E-04-5.27323E-05-2.71137E-05-3.48464E-05-1.47807E-19 2.87779E-19
 -1      2604 6.64023E-05-3.77417E-05-1.20993E-05-4.21085E-05 2.19403E-18 3.97131E-18
 -1      2605 8.56231E-05-4.49708E-05-1.73566E-05-4.39219E-05 1.13269E-18 2.79111E-18
 -1      2606 3.73457E-05-2.40849E-05-5.50515E-06-3.23180E-05 1.92446E-18 5.45087E-18
 -1      2607 4.93326E-05-2.90168E-05-8.49799E-06-3.97611E-05 1.85183E-18 5.23191E-18
 -1      2608 6.69064E-05-3.47572E-05-1.33285E-05-4.03488E-05 2.82676E-18 4.12473E-18
 -1      2609 3.97202E-05-1.90133E-05-8.33753E-06-2.73040E-05 2.28413E-18 5.10888E-18
 -1      2610 1.13607E-04-2.85546E-05-3.65547E-05-1.59967E-05-2.28344E-18 2.64076E-19
 -1      2611 1.13959E-04-3.20869E-05-3.51529E-05-1.41975E-05-2.18414E-18 7.19804E-19
 -1      2612 1.14111E-04-3.22397E-05-3.50142E-05-1.49853E-05-1.93971E-18 3.04103E-19
 -1      2613 1.11055E-04-2.68547E-05-3.61228E-05-1.49654E-05-2.09307E-18-4.65458E-19
 -1      2614 1.25160E-04-3.76212E-05-3.76210E-05 1.00788E-05 1.77811E-18 4.00908E-18
 -1      2615 1.25956E-04-3.55001E-05-3.88254E-05 1.11949E-05 2.10915E-18 4.12798E-18
 -1      2616 1.21887E-04-3.27959E-05-3.83259E-05 1.18192E-05 2.19897E-18 3.07889E-18
 -1      2617 1.23746E-04-3.84827E-05-3.66955E-05 1.10641E-05 1.66830E-18 3.02046E-18
 -1      2618 1.30603E-04-5.60129E-05-3.21636E-05 2.60205E-05 1.22396E-18-1.46664E-18
 -1      2619 1.13532E-04-5.47557E-05-2.50859E-05 3.24846E-05-2.06041E-19-9.11831E-19
 -1      2620 5.40193E-05-3.54069E-06-2.14096E-05 1.79249E-05 2.32680E-18-4.79267E-18
 -1      2621 1.03941E-04-2.88374E-05-3.22338E-05-1.79401E-06 9.31207E-20-1.37404E-18
 -1      2622 1.02181E-04-2.49393E-05-3.31075E-05-4.08388E-06-1.77652E-19-1.78438E-18
 -1      2623 1.05662E-04-2.59753E-05-3.42298E-05-7.57920E-06-8.07586E-19-1.53553E-18
 -1      2624 9.52361E-05-2.85722E-05-2.85703E-05 3.36543E-09 1.32183E-18 1.70746E-18
 -1      2625 9.52368E-05-2.85730E-05-2.85702E-05 3.79963E-09-1.06257E-19 8.11726E-20
 -1      2626 9.52367E-05-2.85734E-05-2.85700E-05 4.71099E-09-6.12347E-19-3.35610E-19
 -1      2627 9.52356E-05-2.85721E-05-2.85701E-05 4.02921E-09 1.25261E-18 1.28341E-18
 -1      2628 1.16649E-04-3.04937E-05-3.69062E-05 1.00323E-05 1.86341E-18 1.80933E-18
 -1      2629 1.36361E-04-5.66270E-05-3.40717E-05 1.42750E-05 3.98688E-19-2.92396E-18
 -1      2630 1.25764E-04-5.51236E-05-3.01199E-05-2.43276E-05 4.05411E-19-1.36478E-18
 -1      2631 1.39709E-04-4.72572E-05-3.96224E-05-6.96704E-06-1.66136E-18-2.94323E-18
 -1      2632 1.45038E-04-4.41135E-05-4.33171E-05-2.27951E-06 2.83401E-18-3.30428E-18
 -1      2633 9.52359E-05-2.85726E-05-2.85700E-05 5.05676E-09 8.60014E-19 2.35811E-18
 -1      2634 1.41194E-04-3.08207E-05-4.73868E-05 3.86433E-06-3.91022E-18-3.60010E-18
 -1      2635 1.35913E-04-1.53177E-05-5.18789E-05 4.09135E-06-5.42694E-18-3.20824E-18
 -1      2636 7.34679E-05-3.74359E-05-1.50352E-05 3.89284E-05-2.43988E-18 2.00239E-18
 -1      2637 1.16736E-04-3.34919E-05-3.55852E-05 8.01378E-06 1.50419E-18 1.77289E-18
 -1      2638 1.39761E-04-3.51743E-05-4.50037E-05-5.87648E-06-4.16851E-18 4.99114E-19
 -1      2639 1.34930E-04-3.89572E-05-4.11705E-05-6.00936E-06-2.91766E-18 1.17695E-18
 -1      2640 1.34387E-04-2.95623E-05-4.55133E-05-1.26564E-05-4.13469E-18 1.05657E-18
 -1      2641 9.52364E-05-2.85723E-05-2.85703E-05-3.03547E-09-8.35149E-19 4.31273E-18
 -1      2642 9.52366E-05-2.85728E-05-2.85702E-05-3.49116E-09-7.32357E-19 1.69171E-18
 -1      2643 6.77426E-05-2.61039E-05-1.74725E-05 3.61612E-05 1.91811E-18-4.77345E-18
 -1      2644 3.75435E-05-1.78471E-05-7.92792E-06 2.37883E-05-9.21995E-19 5.02651E-18
 -1      2645 3.67010E-05-1.25774E-05-9.88119E-06 1.49785E-05-3.71450E-19 4.57631E-18
 -1      2646 5.03056E-05-2.08294E-05-1.21846E-05 2.79306E-05-1.75288E-18 3.42498E-18
 -1      2647 1.06320E-04-4.30546E-05-2.68655E-05 2.65272E-05 8.60374E-19-1.86818E-18
 -1      2648 1.21643E-04-3.32217E-05-3.79321E-05 1.83198E-05 2.16298E-18 3.38650E-18
 -1      2649 1.95880E-05 6.27522E-07-8.16647E-06 1.01159E-05 1.27770E-18-8.01208E-18
 -1      2650 1.10805E-04-5.39626E-05-2.40762E-05 3.25167E-05-1.49258E-18-5.71483E-19
 -1      2651 5.05608E-05-1.81103E-05-1.34624E-05-2.88683E-05-8.49256E-19-6.24412E-18
 -1      2652 1.08933E-04-2.65024E-05-3.53955E-05-1.24257E-05-1.66495E-18-1.01111E-18
 -1      2653 9.90059E-05-4.95376E-05-2.08837E-05-3.85698E-05 2.08878E-18 9.56770E-19
 -1      2654 1.42035E-04-4.83382E-05-4.00979E-05 3.08089E-06 2.20551E-18 1.46071E-18
 -1      2655 1.43806E-04-1.47691E-05-5.55905E-05-9.48286E-07 7.01894E-18-1.23450E-18
 -1      2656 1.34753E-04-1.61414E-05-5.12019E-05-5.55030E-06 5.81001E-18-1.94638E-18
 -1      2657 1.35386E-04-1.24316E-05-5.33154E-05 3.78171E-07 6.68838E-18-6.70215E-19
 -1      2658 1.33253E-04-9.19020E-06-5.33950E-05-3.19592E-06-6.37096E-18-2.08133E-18
 -1      2659 1.13274E-04-4.86398E-05-2.74233E-05-2.00294E-05-5.84876E-19-6.63809E-19
 -1      2660 1.20961E-04-5.14827E-05-2.97408E-05-1.91525E-05 6.05205E-19-1.07944E-18
 -1      2661 1.29161E-04-5.27955E-05-3.31386E-05-8.41265E-06 1.54372E-19 1.08934E-18
 -1      2662 1.45395E-04-1.77550E-05-5.49686E-05 1.04233E-05 6.85906E-18 2.24358E-19
 -1      2663 1.36790E-04-1.39653E-05-5.33608E-05 9.28529E-06 6.89866E-18 2.56492E-19
 -1      2664 1.37676E-04-2.00093E-05-5.06874E-05 1.42473E-05 6.13464E-18 1.19643E-18
 -1      2665 1.45378E-04-3.35391E-05-4.79995E-05 1.34459E-05 4.61516E-18 1.78597E-18
 -1      2666 2.52050E-05-2.09480E-06-9.32357E-06-1.31069E-05 9.93146E-20-7.86385E-18
 -1      2667 1.29938E-04-4.59695E-05-3.58471E-05 8.93899E-06-1.43816E-18 5.27278E-20
 -1      2668 9.52366E-05-2.85731E-05-2.85701E-05-4.42813E-09-5.74780E-19 1.06073E-18
 -1      2669 1.36607E-04-3.55170E-05-4.36100E-05 5.87495E-06-3.15922E-18-3.68301E-18
 -1      2670 1.34157E-04-2.70198E-05-4.65538E-05 7.64686E-06-3.96750E-18-3.82859E-18
 -1      2671 4.05229E-05 2.41424E-06-1.79367E-05-9.34589E-06-6.25349E-20-5.83288E-18
 -1      2672 3.38321E-05 5.91423E-06-1.68500E-05-3.11202E-06 5.96205E-19-6.19361E-18
 -1      2673 3.33278E-05 6.81093E-06-1.69700E-05 7.14552E-06 1.37771E-18-6.13051E-18
 -1      2674 3.75472E-05 4.31951E-06-1.76705E-05 1.34210E-05 1.97224E-18-5.85734E-18
 -1      2675 9.15083E-05-2.61422E-05-2.78205E-05-1.02555E-05-3.97708E-19-1.60032E-18
 -1      2676 7.92611E-05-2.00831E-05-2.53781E-05-1.38468E-05-6.93561E-19-2.47477E-18
 -1      2677 1.09694E-04-3.40698E-05-3.23214E-05 3.06732E-07 4.52269E-19 2.79561E-19
 -1      2678 1.01278E-04-3.03340E-05-3.03268E-05-3.99538E-06-3.39673E-20-6.04067E-19
 -1      2679 1.00403E-04-3.31824E-05-2.87594E-05-8.72418E-06-5.07320E-19-7.07431E-19
 -1      2680 1.25385E-04-4.32687E-05-3.53555E-05 1.17735E-05 1.10769E-18 2.69237E-18
 -1      2681 1.24879E-04-4.21408E-05-3.53279E-05 1.01675E-05 1.01677E-18 2.64364E-18
 -1      2682 9.52366E-05-2.85734E-05-2.85700E-05 5.29692E-09 1.10691E-18 9.02728E-19
 -1      2683 9.52372E-05-2.85741E-05-2.85699E-05 5.51299E-09-3.20490E-19-1.37932E-18
 -1      2684 9.52363E-05-2.85734E-05-2.85699E-05 5.90342E-09 1.40754E-18 1.47511E-19
 -1      2685 1.17941E-04-3.64507E-05-3.49449E-05 7.78141E-06 1.21995E-18 1.73760E-18
 -1      2686 1.14613E-04-3.32224E-05-3.49468E-05-1.56902E-05-1.63404E-18 7.46703E-19
 -1      2687 1.12984E-04-3.09524E-05-3.51291E-05-1.51636E-05-1.91269E-18 7.14088E-19
 -1      2688 1.11220E-04-2.81053E-05-3.57318E-05-1.41515E-05-2.04372E-18 6.60720E-19
 -1      2689 1.09323E-04-2.52469E-05-3.59801E-05-1.19341E-05-2.43233E-18 6.16908E-19
 -1      2690 1.14492E-04-2.93620E-05-3.64587E-05-1.59655E-05-2.14162E-18 4.57418E-19
 -1      2691 1.07441E-04-2.26847E-05-3.64174E-05-8.41078E-06-2.88681E-18 3.67652E-19
 -1      2692 1.06298E-04-2.12052E-05-3.64885E-05-4.69816E-06-2.89714E-18-3.43776E-20
 -1      2693 1.10664E-04-2.27697E-05-3.77352E-05-1.14369E-05-2.85408E-18 4.59910E-19
 -1      2694 1.05997E-04-2.11799E-05-3.63886E-05 3.19269E-07-2.79128E-18-5.49761E-19
 -1      2695 1.06339E-04-2.24701E-05-3.61016E-05 3.90808E-06-2.49041E-18-1.15177E-18
 -1      2696 1.08258E-04-1.95069E-05-3.80780E-05-2.50057E-06-3.23938E-18-1.50269E-19
 -1      2697 1.07849E-04-2.50608E-05-3.54251E-05 7.61618E-06-2.26920E-18-1.67473E-18
 -1      2698 1.09190E-04-2.81930E-05-3.48687E-05 9.55496E-06-1.93530E-18-2.05574E-18
 -1      2699 1.09435E-04-2.26797E-05-3.71938E-05 6.52276E-06-2.83078E-18-1.28457E-18
 -1      2700 1.10773E-04-3.15698E-05-3.39017E-05 1.02164E-05-1.47942E-18-2.32114E-18
 -1      2701 1.11952E-04-3.44870E-05-3.33013E-05 1.00248E-05-1.11944E-18-2.40328E-18
 -1      2702 1.12816E-04-3.00848E-05-3.54419E-05 1.05930E-05-1.79379E-18-2.29186E-18
 -1      2703 1.12224E-04-3.66186E-05-3.24058E-05 8.39174E-06-7.54917E-19-2.08596E-18
 -1      2704 1.12534E-04-3.81163E-05-3.19187E-05 6.85051E-06-5.41315E-19-1.86512E-18
 -1      2705 1.14766E-04-3.69068E-05-3.33354E-05 9.08709E-06-7.34699E-19-2.15533E-18
 -1      2706 1.11434E-04-3.85273E-05-3.12811E-05 4.46159E-06-3.19247E-19-1.57829E-18
 -1      2707 1.10901E-04-3.86001E-05-3.09612E-05 2.56350E-06 2.68069E-19-1.45422E-18
 -1      2708 1.13831E-04-3.99711E-05-3.16353E-05 4.67793E-06-1.48980E-19-1.59798E-18
 -1      2709 1.09097E-04-3.78347E-05-3.05847E-05 4.85259E-07 2.01332E-19-1.25629E-18
 -1      2710 1.08086E-04-3.70630E-05-3.03978E-05-1.13645E-06 3.18255E-19-1.18988E-18
 -1      2711 1.10804E-04-3.95979E-05-3.05410E-05 1.03624E-07 2.73738E-19-1.43084E-18
 -1      2712 1.06241E-04-3.58454E-05-3.02034E-05-2.53041E-06 2.12068E-19-1.08742E-18
 -1      2713 1.05111E-04-3.47978E-05-3.00947E-05-3.64857E-06 1.15454E-19-1.12449E-18
 -1      2714 1.07080E-04-3.73072E-05-2.99432E-05-3.26960E-06 9.55493E-20-1.25319E-18
 -1      2715 1.03569E-04-3.36071E-05-3.00038E-05-4.39341E-06 1.64492E-19-1.25718E-18
 -1      2716 1.02532E-04-3.26261E-05-2.99295E-05-5.01999E-06 2.24939E-19-1.26405E-18
 -1      2717 1.03672E-04-3.45550E-05-2.96609E-05-5.25166E-06 2.37976E-19-1.05461E-18
 -1      2718 1.01381E-04-3.16731E-05-2.98841E-05-5.28276E-06 1.14823E-19-9.66781E-19
 -1      2719 1.00518E-04-3.08973E-05-2.98173E-05-5.52114E-06 9.51068E-20-5.36514E-19
 -1      2720 1.00987E-04-3.21286E-05-2.95415E-05-6.11763E-06 2.11111E-19-9.36371E-19
 -1      2721 9.97167E-05-3.02245E-05-2.97844E-05-5.46975E-06-1.91104E-19-7.08707E-19
 -1      2722 9.90323E-05-2.96727E-05-2.97137E-05-5.43968E-06-6.59856E-19-4.16447E-19
 -1      2723 9.90519E-05-3.03038E-05-2.94849E-05-6.22301E-06-1.00668E-19-1.07902E-18
 -1      2724 9.84985E-05-2.92435E-05-2.96782E-05-5.20470E-06-1.10960E-18-5.63104E-19
 -1      2725 9.79663E-05-2.88817E-05-2.96018E-05-5.00990E-06-8.30858E-19-5.04847E-19
 -1      2726 9.77330E-05-2.90761E-05-2.94383E-05-5.86343E-06-7.50620E-19-6.57251E-19
 -1      2727 9.76200E-05-2.86359E-05-2.95595E-05-4.68286E-06-3.83805E-19-5.85447E-19
 -1      2728 9.72083E-05-2.84165E-05-2.94800E-05-4.40219E-06-5.29526E-19-2.81983E-19
 -1      2729 9.68648E-05-2.83312E-05-2.93803E-05-5.25156E-06-6.95378E-19-1.43957E-19
 -1      2730 9.69864E-05-2.82965E-05-2.94321E-05-4.04358E-06-1.26075E-19-3.21714E-19
 -1      2731 9.66677E-05-2.81758E-05-2.93537E-05-3.73198E-06 6.14517E-19-2.46878E-19
 -1      2732 9.63043E-05-2.79342E-05-2.93070E-05-4.53089E-06-3.15359E-19-2.11934E-19
 -1      2733 9.65255E-05-2.81356E-05-2.93031E-05-3.37963E-06 5.95248E-19 2.27284E-20
 -1      2734 9.62782E-05-2.80793E-05-2.92293E-05-3.07241E-06 7.10103E-19-4.63217E-19
 -1      2735 9.59451E-05-2.77684E-05-2.92222E-05-3.79385E-06 2.94413E-19 7.03341E-21
 -1      2736 9.61862E-05-2.80859E-05-2.91792E-05-2.74822E-06 1.03581E-18-6.83159E-19
 -1      2737 9.59944E-05-2.80691E-05-2.91125E-05-2.46596E-06 1.11082E-18-5.99998E-19
 -1      2738 9.57142E-05-2.77448E-05-2.91322E-05-3.09667E-06 8.56942E-19-1.24845E-19
 -1      2739 9.59339E-05-2.81004E-05-2.90654E-05-2.18096E-06 8.45060E-19-6.53701E-19
 -1      2740 9.57856E-05-2.81063E-05-2.90072E-05-1.93390E-06 5.50482E-19-7.76254E-19
 -1      2741 9.55642E-05-2.78012E-05-2.90431E-05-2.47036E-06 9.28168E-19-4.77853E-19
 -1      2742 9.57448E-05-2.81481E-05-2.89646E-05-1.69189E-06 1.78823E-19-7.28348E-19
 -1      2743 9.56309E-05-2.81657E-05-2.89153E-05-1.48340E-06 8.27682E-20-8.18566E-19
 -1      2744 9.54648E-05-2.78964E-05-2.89594E-05-1.92881E-06 5.10466E-19-8.67228E-19
 -1      2745 9.56027E-05-2.82096E-05-2.88781E-05-1.28365E-06-4.12188E-19-1.49518E-18
 -1      2746 9.55160E-05-2.82322E-05-2.88373E-05-1.11283E-06-6.75170E-19-1.57263E-18
 -1      2747 9.53976E-05-2.80049E-05-2.88838E-05-1.47463E-06-6.11309E-19-6.70500E-19
 -1      2748 9.54960E-05-2.82734E-05-2.88058E-05-9.51958E-07-5.48495E-19-1.70115E-18
 -1      2749 9.54310E-05-2.82968E-05-2.87729E-05-8.15529E-07-2.81815E-19-2.11032E-18
 -1      2750 9.53511E-05-2.81115E-05-2.88180E-05-1.10343E-06-8.70052E-19-1.13189E-18
 -1      2751 9.54165E-05-2.83332E-05-2.87469E-05-6.88825E-07 2.60183E-19-2.13907E-18
 -1      2752 9.53684E-05-2.83551E-05-2.87209E-05-5.82356E-07 4.51856E-19-1.99908E-18
 -1      2753 9.53183E-05-2.82084E-05-2.87623E-05-8.06964E-07-5.88591E-20-1.23032E-18
 -1      2754 9.53578E-05-2.83858E-05-2.86998E-05-4.84661E-07 5.44169E-19-1.85831E-18
 -1      2755 9.53229E-05-2.84052E-05-2.86797E-05-4.03394E-07 5.81259E-19-1.44772E-18
 -1      2756 9.52947E-05-2.82920E-05-2.87162E-05-5.75199E-07 9.72107E-19-6.63976E-19
 -1      2757 9.53151E-05-2.84302E-05-2.86630E-05-3.29643E-07 5.57438E-19-8.33352E-19
 -1      2758 9.52902E-05-2.84466E-05-2.86478E-05-2.68981E-07 3.20968E-19-7.29704E-19
 -1      2759 9.52775E-05-2.83615E-05-2.86790E-05-3.97749E-07 8.72794E-19-6.90546E-19
 -1      2760 9.52845E-05-2.84665E-05-2.86348E-05-2.14519E-07-2.05755E-19-3.96908E-19
 -1      2761 9.52673E-05-2.84800E-05-2.86235E-05-1.70295E-07-2.04826E-19-1.09534E-19
 -1      2762 9.52650E-05-2.84175E-05-2.86495E-05-2.64724E-07 3.34943E-19-9.56200E-19
 -1      2763 9.52631E-05-2.84953E-05-2.86137E-05-1.31033E-07 2.74943E-19 4.10445E-19
 -1      2764 9.52516E-05-2.85061E-05-2.86055E-05-9.96316E-08 5.91385E-19 1.38154E-18
 -1      2765 9.52559E-05-2.84615E-05-2.86266E-05-1.67211E-07 3.57453E-19-1.03530E-18
 -1      2766 9.52485E-05-2.85177E-05-2.85981E-05-7.21009E-08 3.91395E-19 3.45163E-19
 -1      2767 9.52413E-05-2.85262E-05-2.85924E-05-5.04891E-08 6.52520E-19 1.59450E-19
 -1      2768 9.52494E-05-2.84953E-05-2.86092E-05-9.74863E-08 3.86080E-20 1.21994E-19
 -1      2769 9.52391E-05-2.85347E-05-2.85870E-05-3.18253E-08 4.59660E-19-6.76958E-20
 -1      2770 9.52348E-05-2.85412E-05-2.85831E-05-1.75276E-08-2.46830E-20-4.49784E-19
 -1      2771 9.52447E-05-2.85207E-05-2.85963E-05-4.90630E-08 4.20875E-19-1.32601E-18
 -1      2772 9.52332E-05-2.85474E-05-2.85793E-05-5.42266E-09-5.16291E-19 4.94848E-20
 -1      2773 9.52310E-05-2.85522E-05-2.85767E-05 3.53459E-09-3.11845E-19-1.78729E-19
 -1      2774 9.52414E-05-2.85393E-05-2.85868E-05-1.66330E-08-2.79941E-19-1.09753E-18
 -1      2775 9.52300E-05-2.85565E-05-2.85741E-05 1.09009E-08 5.82456E-19 8.70094E-19
 -1      2776 9.52292E-05-2.85601E-05-2.85725E-05 1.60577E-08 1.01025E-18 1.47171E-18
 -1      2777 9.52391E-05-2.85526E-05-2.85801E-05 4.05026E-09 8.36336E-19 1.00437E-18
 -1      2778 9.52284E-05-2.85630E-05-2.85708E-05 2.00917E-08 8.72888E-19 1.85310E-18
 -1      2779 9.52285E-05-2.85655E-05-2.85699E-05 2.26247E-08 6.37101E-19 2.22025E-18
 -1      2780 9.52376E-05-2.85618E-05-2.85755E-05 1.63136E-08 1.11684E-18 2.69221E-18
 -1      2781 9.52281E-05-2.85674E-05-2.85688E-05 2.43910E-08-4.43976E-19 7.90730E-19
 -1      2782 9.52287E-05-2.85692E-05-2.85684E-05 2.51804E-08-2.54265E-19-2.78605E-19
 -1      2783 9.52367E-05-2.85680E-05-2.85724E-05 2.27107E-08-6.13049E-19-2.46421E-21
 -1      2784 9.52285E-05-2.85703E-05-2.85677E-05 2.54680E-08-6.69478E-20-1.15965E-18
 -1      2785 9.52294E-05-2.85715E-05-2.85677E-05 2.51576E-08-1.07946E-18-1.37609E-18
 -1      2786 9.52362E-05-2.85719E-05-2.85705E-05 2.51623E-08-1.21152E-18-1.97132E-18
 -1      2787 9.52293E-05-2.85721E-05-2.85673E-05 2.45376E-08-8.11595E-19-1.42078E-19
 -1      2788 9.52303E-05-2.85729E-05-2.85675E-05 2.35864E-08-3.39125E-19 6.27386E-19
 -1      2789 9.52359E-05-2.85742E-05-2.85694E-05 2.50818E-08-6.18201E-19-1.79705E-18
 -1      2790 9.52303E-05-2.85731E-05-2.85674E-05 2.24612E-08-4.57594E-19 1.63687E-18
 -1      2791 9.52313E-05-2.85736E-05-2.85676E-05 2.11861E-08-1.86618E-19 1.66633E-18
 -1      2792 9.52358E-05-2.85753E-05-2.85688E-05 2.34842E-08-8.03232E-20 1.41526E-18
 -1      2793 9.52313E-05-2.85736E-05-2.85676E-05 1.98296E-08-1.18743E-19 2.23876E-18
 -1      2794 9.52323E-05-2.85739E-05-2.85679E-05 1.84405E-08-1.10953E-18 2.61570E-18
 -1      2795 9.52359E-05-2.85758E-05-2.85686E-05 2.10773E-08 5.69862E-20 1.05405E-18
 -1      2796 9.52324E-05-2.85738E-05-2.85680E-05 1.70303E-08-1.29212E-18 3.28988E-18
 -1      2797 9.52333E-05-2.85739E-05-2.85683E-05 1.56578E-08-6.37618E-19 3.51301E-18
 -1      2798 9.52360E-05-2.85758E-05-2.85687E-05 1.83363E-08-5.50867E-19 1.29244E-18
 -1      2799 9.52334E-05-2.85737E-05-2.85684E-05 1.43007E-08-3.65295E-19 3.77735E-18
 -1      2800 9.52341E-05-2.85738E-05-2.85687E-05 1.30173E-08 3.91401E-19 3.04765E-18
 -1      2801 9.52362E-05-2.85755E-05-2.85689E-05 1.55632E-08-3.13946E-19 3.03739E-18
 -1      2802 9.52342E-05-2.85736E-05-2.85689E-05 1.17686E-08 5.72372E-19 3.20083E-18
 -1      2803 9.52349E-05-2.85736E-05-2.85691E-05 1.06051E-08 1.12825E-19 2.93072E-18
 -1      2804 9.52363E-05-2.85751E-05-2.85691E-05 1.29330E-08-2.87437E-20 2.37388E-18
 -1      2805 9.52350E-05-2.85734E-05-2.85693E-05 9.48757E-09-6.18378E-20 3.06438E-18
 -1      2806 9.52356E-05-2.85735E-05-2.85695E-05 8.45335E-09 3.91177E-19 1.46611E-18
 -1      2807 9.52366E-05-2.85747E-05-2.85694E-05 1.05323E-08-2.94625E-19 2.95440E-18
 -1      2808 9.52357E-05-2.85734E-05-2.85696E-05 7.59519E-09 1.23368E-18-3.80593E-19
 -1      2809 9.52362E-05-2.85734E-05-2.85698E-05 6.65048E-09 1.15173E-18 6.88616E-20
 -1      2810 9.52370E-05-2.85741E-05-2.85698E-05 6.89085E-09 7.61527E-19-6.85577E-20
 -1      2811 9.52368E-05-2.85744E-05-2.85696E-05 8.54307E-09-5.66525E-19 1.53384E-18
 -1      2812 1.17686E-04-2.01866E-05-4.21624E-05-4.16534E-06 3.89995E-18-5.14232E-19
 -1      2813 1.17324E-04-1.87678E-05-4.25276E-05 2.46864E-06 4.15793E-18 5.46707E-19
 -1      2814 1.18922E-04-2.06684E-05-4.23225E-05 1.04049E-05 4.01547E-18 1.92974E-18
 -1      2815 1.21464E-04-2.52881E-05-4.16355E-05 1.55595E-05 3.52360E-18 2.62977E-18
 -1      2816 1.25671E-04-4.17105E-05-3.61660E-05-1.21787E-05 1.28737E-18-2.62734E-18
 -1      2817 1.24070E-04-3.67279E-05-3.75253E-05-1.34840E-05 1.72668E-18-2.52404E-18
 -1      2818 1.23304E-04-4.53433E-05-3.34078E-05-4.79387E-06 3.13257E-19-2.08941E-18
 -1      2819 1.23958E-04-4.41335E-05-3.43036E-05-8.03513E-06 7.09152E-19-2.29270E-18
 -1      2820 1.28265E-04-4.55543E-05-3.55760E-05-8.50473E-06 9.66968E-19-2.50116E-18
 -1      2821 1.17674E-04-4.30690E-05-3.18859E-05 2.30777E-06-2.72961E-19-1.33842E-18
 -1      2822 1.19646E-04-4.43357E-05-3.23616E-05-7.29417E-07 1.39509E-19-1.42884E-18
 -1      2823 1.22459E-04-4.71815E-05-3.23526E-05 1.05239E-08-9.35508E-20-1.30060E-18
 -1      2824 1.11671E-04-3.86366E-05-3.12175E-05 6.85453E-06-4.92790E-19-7.89514E-19
 -1      2825 1.13914E-04-4.06903E-05-3.14435E-05 4.86955E-06-3.63344E-19-7.76612E-19
 -1      2826 1.14803E-04-4.32071E-05-3.07998E-05 6.49626E-06-6.16044E-19-4.78527E-19
 -1      2827 1.06882E-04-3.45822E-05-3.09314E-05 8.93782E-06-1.20503E-19-4.83782E-19
 -1      2828 1.08814E-04-3.63966E-05-3.10681E-05 7.96607E-06-3.76400E-19-6.15711E-19
 -1      2829 1.08156E-04-3.78236E-05-3.02397E-05 9.69717E-06-4.09308E-19-3.23014E-19
 -1      2830 1.03495E-04-3.16585E-05-3.07575E-05 9.37564E-06-1.84545E-19 1.45150E-19
 -1      2831 1.04999E-04-3.29636E-05-3.08828E-05 9.14124E-06-1.13595E-19-1.92428E-19
 -1      2832 1.03479E-04-3.34018E-05-3.00976E-05 1.06600E-05-2.96684E-19 1.74665E-19
 -1      2833 1.01220E-04-2.98360E-05-3.05802E-05 8.85521E-06-9.11762E-19 2.66511E-19
 -1      2834 1.02351E-04-3.06635E-05-3.07204E-05 9.07113E-06-2.04039E-19 4.68114E-19
 -1      2835 1.00513E-04-3.04325E-05-3.00706E-05 1.03433E-05-5.10372E-19 7.61033E-19
 -1      2836 9.96887E-05-2.88178E-05-3.03698E-05 7.86439E-06-6.43162E-19-2.27080E-19
 -1      2837 1.00546E-04-2.93007E-05-3.05238E-05 8.31364E-06-8.39979E-19-3.44732E-19
 -1      2838 9.87380E-05-2.87129E-05-3.00292E-05 9.37794E-06-4.43045E-19 5.95079E-19
 -1      2839 9.86217E-05-2.83103E-05-3.01345E-05 6.70211E-06-2.45196E-19-4.78351E-19
 -1      2840 9.92861E-05-2.85732E-05-3.02923E-05 7.24072E-06-3.59933E-19-3.97396E-19
 -1      2841 9.76847E-05-2.78481E-05-2.99386E-05 8.14455E-06-3.96136E-19 1.82035E-19
 -1      2842 9.78417E-05-2.80985E-05-2.98928E-05 5.54088E-06 1.56461E-19-3.07515E-19
 -1      2843 9.83670E-05-2.82308E-05-3.00440E-05 6.08261E-06-2.33264E-19-5.57090E-19
 -1      2844 9.70381E-05-2.75019E-05-2.98053E-05 6.85690E-06-1.10315E-19-4.63628E-19
 -1      2845 9.72465E-05-2.80451E-05-2.96611E-05 4.47207E-06 2.24984E-19-7.90579E-19
 -1      2846 9.76663E-05-2.81039E-05-2.97986E-05 4.97071E-06 3.94454E-19-5.07607E-19
 -1      2847 9.66126E-05-2.74409E-05-2.96473E-05 5.63278E-06 8.30440E-20-7.11722E-19
 -1      2848 9.67793E-05-2.80691E-05-2.94503E-05 3.53690E-06-9.79382E-22-5.07654E-19
 -1      2849 9.71152E-05-2.80884E-05-2.95702E-05 3.97178E-06 1.33944E-19-3.63818E-19
 -1      2850 9.63085E-05-2.75205E-05-2.94822E-05 4.53230E-06 1.62056E-19-5.00422E-19
 -1      2851 9.64079E-05-2.81263E-05-2.92661E-05 2.74678E-06 1.76492E-19-5.53435E-19
 -1      2852 9.66752E-05-2.81252E-05-2.93674E-05 3.11242E-06-8.47438E-20-4.07160E-19
 -1      2853 9.60752E-05-2.76580E-05-2.93233E-05 3.58019E-06 2.66083E-20-4.87071E-19
 -1      2854 9.61125E-05-2.81933E-05-2.91102E-05 2.09650E-06 2.91146E-19-7.22394E-19
 -1      2855 9.63230E-05-2.81825E-05-2.91936E-05 2.39572E-06 6.34526E-19-5.41089E-19
 -1      2856 9.58885E-05-2.78092E-05-2.91786E-05 2.77978E-06 5.06199E-19-1.88004E-19
 -1      2857 9.58795E-05-2.82590E-05-2.89817E-05 1.57259E-06-1.10617E-18-4.82901E-19
 -1      2858 9.60430E-05-2.82442E-05-2.90488E-05 1.81220E-06-6.29892E-19-8.10640E-19
 -1      2859 9.57367E-05-2.79527E-05-2.90520E-05 2.12224E-06-5.48154E-20-3.82510E-19
 -1      2860 9.56979E-05-2.83184E-05-2.88781E-05 1.15817E-06-3.23005E-19-1.20529E-18
 -1      2861 9.58230E-05-2.83026E-05-2.89310E-05 1.34653E-06-6.92167E-19-1.00304E-18
 -1      2862 9.56134E-05-2.80794E-05-2.89448E-05 1.59261E-06-3.92096E-19-5.28812E-19
 -1      2863 9.55588E-05-2.83699E-05-2.87961E-05 8.35857E-07-6.18739E-19-1.13224E-19
 -1      2864 9.56528E-05-2.83546E-05-2.88370E-05 9.81430E-07-5.37076E-19-6.09094E-19
 -1      2865 9.55145E-05-2.81868E-05-2.88563E-05 1.17345E-06-8.21310E-19-3.82325E-19
 -1      2866 9.54541E-05-2.84132E-05-2.87324E-05 5.89248E-07-9.85821E-19 8.57559E-19
 -1      2867 9.55234E-05-2.83993E-05-2.87636E-05 6.99905E-07-8.10201E-19 6.91672E-19
 -1      2868 9.54365E-05-2.82753E-05-2.87847E-05 8.47206E-07-9.02439E-19 3.58964E-19
 -1      2869 9.53768E-05-2.84490E-05-2.86838E-05 4.03684E-07-1.79852E-19 9.06589E-19
 -1      2870 9.54269E-05-2.84367E-05-2.87071E-05 4.86381E-07-2.38228E-20 1.20243E-18
 -1      2871 9.53762E-05-2.83469E-05-2.87280E-05 5.97388E-07-7.60750E-19 2.62172E-19
 -1      2872 9.53212E-05-2.84780E-05-2.86474E-05 2.66508E-07-8.61421E-20 9.82662E-19
 -1      2873 9.53564E-05-2.84674E-05-2.86644E-05 3.27190E-07-3.08741E-19 1.56285E-18
 -1      2874 9.53305E-05-2.84038E-05-2.86839E-05 4.09275E-07-9.61419E-20 7.96999E-19
 -1      2875 9.52822E-05-2.85012E-05-2.86206E-05 1.67079E-07 1.28563E-18 8.07474E-20
 -1      2876 9.53062E-05-2.84923E-05-2.86328E-05 2.10700E-07 9.69565E-19 7.95255E-19
 -1      2877 9.52968E-05-2.84484E-05-2.86501E-05 2.70138E-07 6.43223E-19 2.82263E-19
 -1      2878 9.52557E-05-2.85195E-05-2.86013E-05 9.66322E-08-3.94046E-19-1.48295E-19
 -1      2879 9.52715E-05-2.85122E-05-2.86099E-05 1.27239E-07 3.15727E-19 1.18525E-20
 -1      2880 9.52725E-05-2.84828E-05-2.86248E-05 1.69251E-07 8.83362E-19 1.93909E-20
 -1      2881 9.52386E-05-2.85338E-05-2.85878E-05 4.80772E-08-3.77904E-19-4.70205E-19
 -1      2882 9.52483E-05-2.85278E-05-2.85936E-05 6.89213E-08-4.23949E-19-2.31459E-19
 -1      2883 9.52555E-05-2.85090E-05-2.86061E-05 9.77574E-08-2.66615E-19-2.94070E-19
 -1      2884 9.52281E-05-2.85447E-05-2.85786E-05 1.57715E-08-5.76352E-20-9.38143E-19
 -1      2885 9.52336E-05-2.85399E-05-2.85824E-05 2.94216E-08-8.22533E-20-6.94938E-19
 -1      2886 9.52440E-05-2.85287E-05-2.85926E-05 4.84824E-08-1.37777E-19-8.84556E-19
 -1      2887 9.52224E-05-2.85530E-05-2.85726E-05-4.70521E-09 4.02197E-19-1.27865E-18
 -1      2888 9.52250E-05-2.85492E-05-2.85749E-05 3.75020E-09 2.01726E-19-1.15589E-18
 -1      2889 9.52366E-05-2.85432E-05-2.85832E-05 1.57061E-08 3.23663E-19-2.05713E-19
 -1      2890 9.52199E-05-2.85591E-05-2.85689E-05-1.67619E-08 1.83516E-18-1.23101E-18
 -1      2891 9.52206E-05-2.85562E-05-2.85702E-05-1.19693E-08 9.85646E-19-2.03175E-18
 -1      2892 9.52322E-05-2.85537E-05-2.85767E-05-5.05709E-09 1.05602E-18-1.71664E-18
 -1      2893 9.52196E-05-2.85635E-05-2.85669E-05-2.29852E-08 1.90726E-18-1.50363E-18
 -1      2894 9.52190E-05-2.85613E-05-2.85674E-05-2.07008E-08 1.88833E-18-2.03782E-18
 -1      2895 9.52299E-05-2.85612E-05-2.85725E-05-1.72691E-08 1.77008E-18-1.36221E-18
 -1      2896 9.52205E-05-2.85667E-05-2.85659E-05-2.53039E-08 2.15581E-20-9.51855E-20
 -1      2897 9.52193E-05-2.85651E-05-2.85660E-05-2.46730E-08 1.37005E-18-3.41503E-19
 -1      2898 9.52290E-05-2.85663E-05-2.85698E-05-2.35580E-08 1.04743E-18-2.56623E-19
 -1      2899 9.52221E-05-2.85689E-05-2.85657E-05-2.51282E-08-1.70316E-18-5.41177E-19
 -1      2900 9.52206E-05-2.85677E-05-2.85655E-05-2.55307E-08-1.03683E-18-3.07002E-19
 -1      2901 9.52289E-05-2.85697E-05-2.85683E-05-2.58837E-08-5.29459E-19 1.35610E-18
 -1      2902 9.52241E-05-2.85704E-05-2.85659E-05-2.34666E-08-2.40743E-18-1.09025E-18
 -1      2903 9.52225E-05-2.85695E-05-2.85655E-05-2.44634E-08-1.80246E-18-3.53988E-19
 -1      2904 9.52295E-05-2.85718E-05-2.85676E-05-2.56793E-08-1.77092E-18 1.05671E-18
 -1      2905 9.52262E-05-2.85713E-05-2.85664E-05-2.10200E-08-3.16420E-18-1.18375E-18
 -1      2906 9.52246E-05-2.85707E-05-2.85660E-05-2.23095E-08-2.76285E-18-1.70717E-18
 -1      2907 9.52303E-05-2.85730E-05-2.85674E-05-2.39692E-08-2.33571E-18 1.04194E-19
 -1      2908 9.52282E-05-2.85719E-05-2.85670E-05-1.82583E-08-9.44872E-19-2.92626E-18
 -1      2909 9.52267E-05-2.85715E-05-2.85665E-05-1.96416E-08-2.05697E-18-2.50723E-18
 -1      2910 9.52313E-05-2.85737E-05-2.85676E-05-2.14648E-08-1.82538E-18-1.06788E-18
 -1      2911 9.52300E-05-2.85722E-05-2.85676E-05-1.54792E-08 7.27260E-19-2.62174E-18
 -1      2912 9.52287E-05-2.85719E-05-2.85672E-05-1.68337E-08-5.92595E-19-3.03301E-18
 -1      2913 9.52323E-05-2.85739E-05-2.85679E-05-1.86421E-08-2.36869E-19-4.35437E-18
 -1      2914 9.52317E-05-2.85724E-05-2.85683E-05-1.28549E-08 4.33228E-21-9.12377E-19
 -1      2915 9.52305E-05-2.85722E-05-2.85679E-05-1.41134E-08 7.97800E-19-1.11019E-18
 -1      2916 9.52332E-05-2.85739E-05-2.85683E-05-1.58023E-08-2.06350E-19-2.67248E-18
 -1      2917 9.52331E-05-2.85725E-05-2.85688E-05-1.04669E-08-1.04867E-19-4.70575E-19
 -1      2918 9.52321E-05-2.85723E-05-2.85685E-05-1.16019E-08-1.80110E-20-9.91108E-19
 -1      2919 9.52341E-05-2.85737E-05-2.85687E-05-1.31191E-08 1.15241E-19-1.08918E-18
 -1      2920 9.52343E-05-2.85725E-05-2.85693E-05-8.33369E-09-1.53049E-19-1.33675E-18
 -1      2921 9.52334E-05-2.85724E-05-2.85690E-05-9.34485E-09 5.29239E-19-1.09649E-18
 -1      2922 9.52349E-05-2.85736E-05-2.85691E-05-1.06745E-08 7.25055E-19-1.11560E-18
 -1      2923 9.52353E-05-2.85726E-05-2.85697E-05-6.43058E-09-1.68193E-18-1.06291E-18
 -1      2924 9.52346E-05-2.85725E-05-2.85695E-05-7.32779E-09-1.82893E-18-1.38689E-18
 -1      2925 9.52356E-05-2.85734E-05-2.85695E-05-8.48963E-09-8.28331E-19-1.88653E-18
 -1      2926 9.52362E-05-2.85729E-05-2.85700E-05-4.99744E-09-1.09961E-18 5.29954E-19
 -1      2927 9.52357E-05-2.85728E-05-2.85698E-05-5.83645E-09-1.55759E-18-4.92602E-19
 -1      2928 9.52364E-05-2.85736E-05-2.85697E-05-6.80964E-09-2.56112E-18-3.14417E-18
 -1      2929 9.52371E-05-2.85739E-05-2.85699E-05-5.54038E-09-1.73200E-18-1.77268E-18
 -1      2930 9.52421E-05-2.85793E-05-2.85698E-05-5.37923E-10 2.02050E-19 4.07344E-18
 -1      2931 9.52420E-05-2.85792E-05-2.85698E-05-1.48715E-09 6.75080E-19 3.92371E-18
 -1      2932 9.52409E-05-2.85781E-05-2.85698E-05-4.21656E-09 2.18501E-19-2.49296E-18
 -1      2933 9.52404E-05-2.85775E-05-2.85698E-05-4.81322E-09 8.11210E-19-5.97226E-18
 -1      2934 9.52420E-05-2.85792E-05-2.85698E-05 1.52313E-09-4.45904E-19 2.94481E-18
 -1      2935 9.52421E-05-2.85793E-05-2.85698E-05 5.75254E-10-6.10961E-19 4.87694E-18
 -1      2936 9.52428E-05-2.85798E-05-2.85699E-05 2.13424E-11-1.05038E-19 3.79428E-18
 -1      2937 9.52418E-05-2.85790E-05-2.85698E-05-2.53425E-09-2.11118E-19 2.87235E-18
 -1      2938 9.52414E-05-2.85786E-05-2.85698E-05-3.36407E-09-3.24106E-19 1.17376E-18
 -1      2939 9.52417E-05-2.85787E-05-2.85699E-05-4.23093E-09 6.95826E-19-1.27498E-18
 -1      2940 9.52426E-05-2.85795E-05-2.85699E-05-2.23973E-09 1.30680E-18 4.19150E-18
 -1      2941 9.52414E-05-2.85786E-05-2.85698E-05 3.36498E-09 3.52961E-19-1.31371E-18
 -1      2942 9.52418E-05-2.85789E-05-2.85698E-05 2.55108E-09-7.70965E-19 1.13028E-18
 -1      2943 9.52426E-05-2.85795E-05-2.85699E-05 2.26156E-09-4.45821E-19 1.66007E-18
 -1      2944 9.52404E-05-2.85775E-05-2.85698E-05 4.81920E-09 8.32293E-20-2.78016E-18
 -1      2945 9.52409E-05-2.85781E-05-2.85698E-05 4.21675E-09 8.90694E-19-2.76443E-18
 -1      2946 9.52417E-05-2.85787E-05-2.85699E-05 4.23188E-09-6.25779E-19-1.79546E-18
 -1      2947 9.52391E-05-2.85761E-05-2.85698E-05 5.68360E-09-1.45567E-18-1.61425E-19
 -1      2948 9.52398E-05-2.85768E-05-2.85698E-05 5.35461E-09-5.09665E-19-1.13795E-18
 -1      2949 9.52404E-05-2.85774E-05-2.85699E-05 5.69724E-09 3.21261E-19-2.66414E-18
 -1      2950 9.52379E-05-2.85748E-05-2.85699E-05 5.61449E-09-9.09388E-19-2.43489E-19
 -1      2951 1.27418E-04-4.12094E-05-3.70258E-05 1.71528E-05 1.61783E-18 3.31900E-18
 -1      2952 1.28601E-04-4.38021E-05-3.62940E-05 1.54036E-05 1.16316E-18 3.21190E-18
 -1      2953 1.27883E-04-4.55220E-05-3.54985E-05 1.14766E-05 1.01320E-18 2.73187E-18
 -1      2954 1.14322E-04-4.52403E-05-2.99325E-05 1.83898E-05 7.88482E-19-4.54671E-19
 -1      2955 9.99629E-05-3.91606E-05-2.55611E-05 2.54973E-05 1.95696E-18-1.67483E-18
 -1      2956 1.13936E-04-3.24016E-05-3.50007E-05-1.40192E-05-1.57847E-18-1.68490E-19
 -1      2957 1.14318E-04-3.37338E-05-3.46164E-05-1.40089E-05-1.60755E-18 1.35466E-19
 -1      2958 1.17013E-04-3.80441E-05-3.39031E-05 5.90477E-06 8.58326E-19 1.45510E-18
 -1      2959 1.20391E-04-5.50639E-05-2.78064E-05-2.46833E-05 1.45367E-18-1.44409E-18
 -1      2960 1.29886E-04-5.52213E-05-3.23957E-05-1.65074E-05 3.98264E-19-2.13770E-18
 -1      2961 1.28504E-04-1.32892E-05-4.99830E-05-1.08137E-05-5.72425E-18-5.86941E-19
 -1      2962 1.30981E-04-2.02671E-05-4.79225E-05-1.33772E-05-5.00205E-18 3.12661E-19
 -1      2963 1.24460E-04-3.14464E-05-3.99793E-05 1.86812E-05 2.68340E-18 3.16883E-18
 -1      2964 1.27455E-04-3.74174E-05-3.88829E-05 1.93944E-05 1.94248E-18 3.27902E-18
 -1      2965 1.30959E-04-4.11160E-05-3.86024E-05 1.75574E-05 1.73786E-18 3.24085E-18
 -1      2966 7.32945E-05-1.79463E-05-2.35254E-05 2.17805E-05 2.79602E-18-3.36119E-18
 -1      2967 8.42850E-05-2.35016E-05-2.57036E-05 1.82592E-05 2.36465E-18-2.51488E-18
 -1      2968 3.35215E-05-9.73737E-06-9.59693E-06 1.36527E-06 3.57051E-19 4.86493E-18
 -1      2969 3.47928E-05-1.07164E-05-9.76597E-06-1.09875E-05 1.18548E-18 4.75630E-18
 -1      2970 1.22325E-04-3.06717E-05-3.96976E-05-1.35732E-05 2.51193E-18-2.32725E-18
 -1      2971 1.19839E-04-2.45919E-05-4.09580E-05-1.04457E-05 3.42492E-18-1.88192E-18
 -1      2972 1.23412E-04-2.08902E-05-4.43151E-05-7.78238E-06 4.50992E-18-1.36965E-18
 -1      2973 1.28056E-04-3.49795E-05-4.01257E-05-1.33370E-05 2.32542E-18-2.57159E-18
 -1      2974 1.15692E-04-3.48008E-05-3.46618E-05-1.50722E-05-1.43223E-18 4.27788E-19
 -1      2975 1.14876E-04-3.42512E-05-3.45773E-05-1.51549E-05-1.48538E-18 6.23979E-19
 -1      2976 1.16445E-04-3.39583E-05-3.53065E-05-1.60857E-05-1.63228E-18 4.51163E-19
 -1      2977 1.15810E-04-3.48487E-05-3.47435E-05-1.42881E-05-1.32454E-18 2.32668E-19
 -1      2978 1.24373E-04-9.35991E-06-4.98293E-05-4.24641E-07-5.69185E-18-2.07846E-18
 -1      2979 1.25107E-04-9.83087E-06-4.99977E-05-6.55401E-06-5.80196E-18-1.14998E-18
 -1      2980 1.37725E-04-5.51305E-05-3.59012E-05 6.17839E-06 5.81753E-19-3.43874E-18
 -1      2981 1.30991E-04-5.71482E-05-3.15027E-05 1.44235E-05-3.40348E-19-3.05467E-18
 -1      2982 9.38841E-05-4.60050E-05-2.02199E-05-3.71066E-05 3.23556E-18 5.75824E-19
 -1      2983 1.08331E-04-5.24152E-05-2.40885E-05-3.33973E-05 2.36862E-18-7.69463E-19
 -1      2984 6.54551E-05-1.20663E-05-2.24272E-05-1.60303E-05-7.22916E-19-3.88423E-18
 -1      2985 5.21762E-05-5.17499E-06-2.01732E-05-1.49961E-05-5.49936E-19-4.78102E-18
 -1      2986 4.54377E-05-3.96218E-06-1.73115E-05-1.57164E-05-5.44483E-19-5.71673E-18
 -1      2987 1.09559E-04-2.84406E-05-3.47863E-05-1.13647E-05-1.22603E-18-7.67849E-19
 -1      2988 2.49695E-05 3.59925E-06-1.17005E-05-5.47376E-06 2.50417E-19-7.29571E-18
 -1      2989 3.21614E-05-1.44590E-06-1.28981E-05-1.62296E-05-2.76768E-19-6.75975E-18
 -1      2990 7.85603E-05-2.97737E-05-2.10937E-05 3.36567E-05 2.29991E-18-3.35192E-18
 -1      2991 5.92855E-05-1.88906E-05-1.67190E-05 3.33395E-05 2.70161E-18-5.02989E-18
 -1      2992 7.90156E-05-3.17609E-05-1.99462E-05-2.89443E-05-1.39453E-18-3.38527E-18
 -1      2993 9.53920E-05-4.06281E-05-2.34078E-05-2.74002E-05-9.90817E-19-2.26264E-18
 -1      2994 1.29993E-04-4.45730E-05-3.70380E-05 4.10817E-07-1.25789E-18 1.20771E-18
 -1      2995 1.24391E-04-4.62515E-05-3.33585E-05 8.42854E-06-1.19220E-19 6.81014E-19
 -1      2996 1.19888E-04-5.64998E-05-2.74473E-05 2.55964E-05-1.22163E-18-2.31626E-18
 -1      2997 1.04258E-04-5.03213E-05-2.26931E-05 3.22670E-05-2.40229E-18-4.89929E-19
 -1      2998 4.30272E-05-9.91122E-06-1.40361E-05 3.11179E-05 2.32140E-18-5.94395E-18
 -1      2999 3.25409E-05-3.37591E-06-1.20753E-05 2.44199E-05 2.17709E-18-6.56239E-18
 -1      3000 2.75092E-05 1.98573E-06-1.21237E-05 1.75131E-05 1.72763E-18-7.00157E-18
 -1      3001 2.35357E-05 5.07350E-06-1.18338E-05 5.30781E-06 1.30844E-18-7.23514E-18
 -1      3002 8.54782E-05-4.19289E-05-1.86511E-05 3.80349E-05-2.53189E-18 9.51694E-19
 -1      3003 6.82760E-05-3.17209E-05-1.52045E-05 3.55367E-05-2.28847E-18 1.75685E-18
 -1      3004 1.30350E-04-1.92660E-05-4.80967E-05 8.03627E-06-4.52040E-18-3.34038E-18
 -1      3005 1.26455E-04-1.28972E-05-4.93366E-05 4.73181E-06-5.19591E-18-2.51256E-18
 -1      3006 1.40159E-04-4.00311E-05-4.34791E-05-8.61819E-06 3.11253E-18-3.28141E-18
 -1      3007 1.40153E-04-4.82870E-05-3.94890E-05-3.38585E-06 1.64568E-18-3.42826E-18
 -1      3008 1.35234E-04-5.04995E-05-3.63337E-05-6.53465E-06-6.40688E-19-2.84381E-18
 -1      3009 1.37628E-04-4.43782E-05-4.05226E-05 1.30530E-07-2.13548E-18-3.19914E-18
 -1      3010 1.37154E-04-5.02114E-05-3.71680E-05 4.57392E-06 1.09572E-18 2.04124E-18
 -1      3011 1.40693E-04-4.56387E-05-4.12313E-05 1.08400E-05 2.40978E-18 2.30456E-18
 -1      3012 4.26361E-05-8.48181E-07-1.77087E-05 2.06801E-05 2.36110E-18-5.64145E-18
 -1      3013 5.35723E-05-7.40285E-06-1.94317E-05 2.34870E-05 2.74682E-18-4.90347E-18
 -1      3014 1.07284E-04-3.27063E-05-3.18578E-05-5.49651E-07 5.63244E-19-1.00480E-18
 -1      3015 1.10106E-04-3.32220E-05-3.30806E-05-4.96762E-06-2.84815E-19-8.57925E-19
 -1      3016 3.08019E-05 5.30805E-06-1.49111E-05 1.75012E-06 9.39591E-19-6.78304E-18
 -1      3017 3.63749E-05 3.72850E-07-1.51995E-05 1.88316E-05 2.31616E-18-6.42358E-18
 -1      3018 7.41955E-05-2.04224E-05-2.29204E-05-1.86290E-05-9.50636E-19-3.11555E-18
 -1      3019 9.03176E-05-3.30204E-05-2.43484E-05 2.61467E-05 2.33665E-18-2.28483E-18
 -1      3020 1.29043E-04-3.74437E-05-3.96833E-05-1.16668E-05-2.18090E-18 1.80460E-18
 -1      3021 1.31552E-04-4.20331E-05-3.84366E-05-5.65737E-06-1.68231E-18 1.54891E-18
 -1      3022 1.27286E-04-4.27630E-05-3.60562E-05-5.21483E-06-6.72122E-19 1.51934E-18
 -1      3023 1.03991E-04-3.47818E-05-2.96261E-05 9.78843E-06 1.40553E-18-1.16692E-18
 -1      3024 1.11373E-04-3.91547E-05-3.08891E-05 5.68352E-06 1.02492E-18-1.87687E-19
 -1      3025 1.31430E-04-5.06284E-05-3.47144E-05 3.17865E-07 5.35642E-19 1.70386E-18
 -1      3026 1.20522E-04-1.28782E-05-4.64309E-05 2.65952E-06-5.05075E-18-1.75741E-18
 -1      3027 1.31192E-04-5.25552E-05-3.36936E-05-8.14457E-06 2.48498E-19-2.72369E-18
 -1      3028 1.27511E-04-2.43473E-05-4.44742E-05 9.21639E-06-4.08482E-18-3.32079E-18
 -1      3029 9.81237E-05-4.54691E-05-2.22442E-05 3.14210E-05-2.46825E-18-1.57191E-19
 -1      3030 1.22607E-04-1.76081E-05-4.53942E-05 7.15096E-06 4.85276E-18 1.14707E-18
 -1      3031 1.27959E-04-2.81135E-05-4.30667E-05 1.82692E-05 3.49856E-18 2.94958E-18
 -1      3032 1.30941E-04-2.58093E-05-4.54132E-05-1.44099E-05-4.01007E-18 7.74506E-19
 -1      3033 1.28782E-04-3.02519E-05-4.23917E-05-1.45336E-05-3.02539E-18 1.29300E-18
 -1      3034 1.24159E-04-2.13514E-05-4.44480E-05-1.55784E-05-3.89635E-18 6.57668E-19
 -1      3035 5.62516E-05-1.37998E-05-1.77004E-05 2.94377E-05 2.83777E-18-5.15944E-18
 -1      3036 9.52378E-05-2.85748E-05-2.85699E-05-5.66611E-09-1.28148E-18-3.42958E-18
 -1      3037 9.52375E-05-2.85746E-05-2.85698E-05-6.33589E-09-1.91596E-18-3.10218E-18
 -1      3038 9.52385E-05-2.85755E-05-2.85698E-05-5.73471E-09-4.52800E-19-4.70999E-18
 -1      3039 1.25000E-04-5.56706E-05-2.96068E-05 1.63653E-05-1.19379E-18-2.69356E-18
 -1      3040 1.33778E-04-4.03069E-05-4.02440E-05 5.52785E-06-2.28156E-18-3.46161E-18
 -1      3041 1.21467E-04-1.28982E-05-4.68969E-05-8.97739E-06-5.06420E-18-5.31593E-19
 -1      3042 6.14281E-05-2.56265E-05-1.48775E-05 3.15299E-05-2.21483E-18 2.57752E-18
 -1      3043 5.56872E-05-1.94707E-05-1.52700E-05 2.47170E-05-1.68819E-18 2.48032E-18
 -1      3044 7.29297E-05-2.98286E-05-1.81202E-05 3.07558E-05-2.31886E-18 1.28611E-18
 -1      3045 9.52384E-05-2.85754E-05-2.85698E-05 6.29419E-09-1.16357E-18-2.92747E-19
 -1      3046 4.69096E-05-9.23149E-06-1.55507E-05-2.19348E-05-1.08314E-18-5.71313E-18
 -1      3047 1.18859E-04-4.47349E-05-3.16114E-05 8.89135E-06 1.03867E-18 2.37196E-19
 -1      3048 1.18014E-04-4.11125E-05-3.29563E-05 3.06595E-06 3.48157E-19 1.27887E-18
 -1      3049 1.15892E-04-5.32581E-05-2.66505E-05-2.50976E-05 2.28402E-18-8.66356E-19
 -1      3050 4.17654E-05-1.19194E-05-1.22298E-05 8.46257E-06-2.13293E-19 4.42416E-18
 -1      3051 3.99803E-05-1.51738E-05-1.01575E-05-2.20920E-05 2.08254E-18 4.74698E-18
 -1      3052 4.96253E-05-2.20368E-05-1.15142E-05-3.23946E-05 2.35729E-18 4.40256E-18
 -1      3053 1.11650E-04-3.20538E-05-3.40889E-05-1.00537E-05-8.49316E-19-5.64973E-19
 -1      3054 4.38527E-05-1.34747E-05-1.24654E-05-1.60910E-05 1.84698E-18 4.31352E-18
 -1      3055 1.08263E-04-4.48873E-05-2.69131E-05-1.83690E-05-1.16552E-18-9.07688E-19
 -1      3056 9.52398E-05-2.85769E-05-2.85698E-05-5.26903E-09 6.44197E-19-6.11681E-18
 -1      3057 9.52392E-05-2.85762E-05-2.85698E-05-5.55611E-09-1.31781E-19-5.51039E-18
 -1      3058 9.52391E-05-2.85762E-05-2.85698E-05-6.25914E-09 1.49835E-19-5.08675E-18
 -1      3059 9.52405E-05-2.85775E-05-2.85699E-05-5.59456E-09 7.37169E-19-5.59416E-18
 -1      3060 8.03577E-05-3.85703E-05-1.77465E-05-3.92007E-05 3.21629E-18 2.43818E-18
 -1      3061 9.16670E-05-4.22292E-05-2.08535E-05-3.39854E-05 3.62620E-18 4.25158E-19
 -1      3062 1.36483E-04-5.07957E-05-3.67596E-05-2.29892E-06 8.37689E-19-3.14884E-18
 -1      3063 1.34602E-04-2.43035E-05-4.79540E-05-1.00868E-05 4.76763E-18-2.28170E-18
 -1      3064 1.36507E-04-3.05916E-05-4.57656E-05-1.16380E-05 4.08397E-18-2.76302E-18
 -1      3065 9.57928E-05-3.15129E-05-2.74768E-05 1.61552E-05 2.03075E-18-1.62855E-18
 -1      3066 1.39461E-04-3.74359E-05-4.40084E-05 1.62008E-05 3.29432E-18 2.65111E-18
 -1      3067 1.38007E-04-3.01986E-05-4.69468E-05 1.70089E-05 4.38435E-18 2.36068E-18
 -1      3068 6.24943E-05-1.96361E-05-1.80737E-05-2.74949E-05-1.13757E-18-4.62120E-18
 -1      3069 1.33880E-04-3.65159E-05-4.20457E-05-1.15829E-05 2.84232E-18-2.47895E-18
 -1      3070 1.36133E-04-4.16041E-05-4.07666E-05 1.60050E-05 2.36415E-18 3.00040E-18
 -1      3071 6.52533E-05-3.00119E-05-1.46111E-05-3.62682E-05 2.91591E-18 3.19480E-18
 -1      3072 1.33276E-04-2.51089E-05-4.67862E-05 1.72346E-05 4.51945E-18 2.18005E-18
 -1      3073 1.29642E-04-2.04765E-05-4.72224E-05-9.21471E-06 4.87806E-18-1.71863E-18
 -1      3074 1.13220E-04-4.11389E-05-3.11364E-05-3.88325E-06-1.89696E-19 4.06655E-19
 -1      3075 1.04131E-04-3.68635E-05-2.86079E-05-1.01764E-05-8.19028E-19-5.59004E-19
 -1      3076 1.21733E-04-4.42088E-05-3.29883E-05 3.03935E-06 5.01205E-20 1.62857E-18
 -1      3077 1.25720E-04-4.66556E-05-3.39243E-05 5.29938E-06 2.98116E-19 1.99512E-18
 -1      3078 1.20646E-04-4.88890E-05-3.07777E-05-8.12321E-06-6.79215E-19 5.72594E-19
 -1      3079 1.28001E-04-4.82304E-05-3.42903E-05 3.55749E-06 1.65317E-19 1.95008E-18
 -1      3080 1.17649E-04-3.20967E-05-3.69288E-05-1.67131E-05-1.96334E-18 7.18330E-19
 -1      3081 1.15987E-04-2.78695E-05-3.77454E-05-1.59531E-05-2.36333E-18 5.96364E-19
 -1      3082 1.13612E-04-2.34679E-05-3.89099E-05-1.41800E-05-2.71257E-18 3.79365E-19
 -1      3083 1.11282E-04-1.93622E-05-3.94454E-05-1.06314E-05-3.29432E-18 3.09213E-19
 -1      3084 1.12511E-04-1.51490E-05-4.20287E-05-5.86125E-06-4.19694E-18-3.41232E-19
 -1      3085 1.11764E-04-1.46296E-05-4.19933E-05-6.96732E-07-4.16126E-18-8.63153E-19
 -1      3086 1.13896E-04-1.73844E-05-4.16197E-05 5.53851E-06-4.12145E-18-1.65709E-18
 -1      3087 1.16030E-04-2.21976E-05-4.05382E-05 9.14028E-06-3.58493E-18-2.30212E-18
 -1      3088 1.17706E-04-3.80692E-05-3.41734E-05 8.76500E-06-7.20362E-19-2.61738E-18
 -1      3089 1.17995E-04-4.09908E-05-3.30702E-05 6.87456E-06-2.36918E-19-2.39162E-18
 -1      3090 1.16271E-04-4.21841E-05-3.17918E-05 3.60452E-06 1.09558E-19-2.00268E-18
 -1      3091 1.15132E-04-4.25893E-05-3.10476E-05 1.16968E-06 3.94836E-19-1.69105E-18
 -1      3092 1.19369E-04-4.36371E-05-3.24290E-05 3.52650E-06 2.65737E-19-2.33422E-18
 -1      3093 1.12213E-04-4.15569E-05-3.03288E-05-1.43203E-06 3.29458E-19-1.35269E-18
 -1      3094 1.10376E-04-4.04162E-05-2.99116E-05-3.31979E-06 4.98479E-19-1.47875E-18
 -1      3095 1.14344E-04-4.36908E-05-3.03515E-05-2.62909E-06 5.74465E-19-1.45626E-18
 -1      3096 1.07558E-04-3.86201E-05-2.95733E-05-4.80156E-06 3.82550E-19-1.09996E-18
 -1      3097 1.05675E-04-3.69857E-05-2.93738E-05-5.96029E-06 4.39118E-19-8.92125E-19
 -1      3098 1.08495E-04-4.03620E-05-2.92783E-05-6.41399E-06 5.39155E-19-1.18275E-18
 -1      3099 1.03468E-04-3.52139E-05-2.92596E-05-6.53424E-06 2.67718E-19-7.42554E-19
 -1      3100 1.01893E-04-3.36989E-05-2.91813E-05-7.08336E-06 4.28547E-19-7.60682E-19
 -1      3101 1.03458E-04-3.63056E-05-2.88495E-05-8.08870E-06 5.91824E-19-4.40927E-19
 -1      3102 1.00372E-04-3.22956E-05-2.91727E-05-7.10619E-06 2.92829E-19-6.47716E-19
 -1      3103 9.91980E-05-3.11240E-05-2.91471E-05-7.23056E-06 2.96218E-19-8.12160E-19
 -1      3104 9.97776E-05-3.27924E-05-2.87590E-05-8.38548E-06 5.94239E-19-6.32270E-19
 -1      3105 9.82424E-05-3.01491E-05-2.91756E-05-6.96030E-06 8.84955E-20-9.69365E-19
 -1      3106 9.74268E-05-2.93427E-05-2.91643E-05-6.82018E-06-3.96170E-19-1.25964E-18
 -1      3107 9.73576E-05-3.02124E-05-2.88096E-05-7.93782E-06-8.31896E-20-3.45696E-19
 -1      3108 9.68776E-05-2.87362E-05-2.91952E-05-6.41386E-06-5.55410E-19-1.05198E-18
 -1      3109 9.63355E-05-2.82339E-05-2.91801E-05-6.12474E-06-7.04059E-19-6.41404E-19
 -1      3110 9.58988E-05-2.85220E-05-2.88955E-05-7.13995E-06-3.24642E-19-1.00052E-18
 -1      3111 9.60539E-05-2.79036E-05-2.91993E-05-5.67124E-06-7.02661E-19-4.04654E-19
 -1      3112 9.57032E-05-2.76256E-05-2.91750E-05-5.31139E-06-6.18663E-19-2.69637E-19
 -1      3113 9.50995E-05-2.75339E-05-2.89676E-05-6.21129E-06-5.37782E-19-3.13932E-19
 -1      3114 9.55862E-05-2.74843E-05-2.91791E-05-4.86012E-06-3.91165E-19 2.16810E-20
 -1      3115 9.53622E-05-2.73585E-05-2.91462E-05-4.48078E-06 4.12365E-20 2.18678E-19
 -1      3116 9.47205E-05-2.70462E-05-2.90088E-05-5.26935E-06-2.45259E-19 2.47836E-19
 -1      3117 9.53392E-05-2.73368E-05-2.91372E-05-4.05887E-06 3.04167E-19 6.16885E-19
 -1      3118 9.51965E-05-2.73070E-05-2.90986E-05-3.69220E-06 5.02362E-19 3.76533E-19
 -1      3119 9.45917E-05-2.68882E-05-2.90182E-05-4.37687E-06 2.48368E-19 4.16274E-19
 -1      3120 9.52222E-05-2.73545E-05-2.90802E-05-3.31371E-06 5.30239E-19 1.82752E-19
 -1      3121 9.51306E-05-2.73806E-05-2.90393E-05-2.97848E-06 8.43200E-19-7.14929E-20
 -1      3122 9.46004E-05-2.69311E-05-2.90019E-05-3.56653E-06 5.47308E-19 1.83530E-20
 -1      3123 9.51774E-05-2.74629E-05-2.90152E-05-2.64948E-06 5.70622E-19 3.30704E-21
 -1      3124 9.51176E-05-2.75178E-05-2.89749E-05-2.35516E-06 6.46518E-19-5.43650E-19
 -1      3125 9.46760E-05-2.70844E-05-2.89678E-05-2.85366E-06 5.78575E-19 4.15666E-19
 -1      3126 9.51698E-05-2.76129E-05-2.89484E-05-2.07658E-06 7.79081E-19-7.21271E-19
 -1      3127 9.51300E-05-2.76792E-05-2.89107E-05-1.82632E-06 4.98808E-19-8.75289E-19
 -1      3128 9.47764E-05-2.72877E-05-2.89234E-05-2.24270E-06 4.41510E-19-4.62422E-20
 -1      3129 9.51791E-05-2.77737E-05-2.88841E-05-1.59579E-06-1.61687E-19-6.77372E-19
 -1      3130 9.51519E-05-2.78410E-05-2.88503E-05-1.38862E-06-5.17718E-19-5.61369E-20
 -1      3131 9.48784E-05-2.75031E-05-2.88747E-05-1.73099E-06 5.56616E-19-5.09083E-19
 -1      3132 9.51942E-05-2.79276E-05-2.88252E-05-1.20180E-06-7.72809E-19 5.21694E-20
 -1      3133 9.51751E-05-2.79901E-05-2.87959E-05-1.03429E-06-6.18369E-19-7.03305E-21
 -1      3134 9.49703E-05-2.77085E-05-2.88261E-05-1.31128E-06-3.79936E-19 1.89469E-19
 -1      3135 9.52094E-05-2.80654E-05-2.87733E-05-8.85852E-07-4.12704E-19-3.09943E-19
 -1      3136 9.51958E-05-2.81202E-05-2.87486E-05-7.53300E-07 9.25302E-20-3.24587E-19
 -1      3137 9.50472E-05-2.78922E-05-2.87805E-05-9.73710E-07-4.98722E-19 6.64967E-20
 -1      3138 9.52224E-05-2.81832E-05-2.87288E-05-6.37587E-07 6.66828E-19-4.96666E-19
 -1      3139 9.52125E-05-2.82294E-05-2.87085E-05-5.34839E-07 9.24151E-19 8.40475E-20
 -1      3140 9.51085E-05-2.80494E-05-2.87395E-05-7.07295E-07 4.68835E-19 1.83685E-19
 -1      3141 9.52323E-05-2.82806E-05-2.86918E-05-4.46350E-07 8.28171E-19-2.17844E-20
 -1      3142 9.52250E-05-2.83183E-05-2.86754E-05-3.68319E-07 6.85965E-19-3.11821E-19
 -1      3143 9.51553E-05-2.81794E-05-2.87039E-05-5.00926E-07 5.64017E-19-2.77188E-19
 -1      3144 9.52392E-05-2.83588E-05-2.86617E-05-3.01977E-07-2.57702E-20-2.42424E-19
 -1      3145 9.52339E-05-2.83888E-05-2.86487E-05-2.43962E-07-3.64187E-19-3.90491E-19
 -1      3146 9.51897E-05-2.82841E-05-2.86738E-05-3.44082E-07 1.43326E-19-2.50856E-19
 -1      3147 9.52436E-05-2.84201E-05-2.86376E-05-1.95272E-07-3.49069E-19-5.37311E-19
 -1      3148 9.52397E-05-2.84434E-05-2.86276E-05-1.53117E-07 2.80808E-19-2.43074E-19
 -1      3149 9.52139E-05-2.83663E-05-2.86491E-05-2.27237E-07-7.43105E-19 8.90633E-20
 -1      3150 9.52460E-05-2.84670E-05-2.86188E-05-1.18223E-07 2.17231E-20-3.27377E-19
 -1      3151 9.52432E-05-2.84847E-05-2.86112E-05-8.83782E-08-4.96294E-19-1.75163E-19
 -1      3152 9.52304E-05-2.84294E-05-2.86291E-05-1.42064E-07-1.37146E-20-1.12399E-19
 -1      3153 9.52470E-05-2.85022E-05-2.86043E-05-6.40612E-08 1.79634E-20-5.34894E-19
 -1      3154 9.52449E-05-2.85153E-05-2.85987E-05-4.35798E-08 2.56198E-19-9.64005E-19
 -1      3155 9.52409E-05-2.84768E-05-2.86133E-05-8.14928E-08-6.71827E-19-6.01506E-19
 -1      3156 9.52470E-05-2.85279E-05-2.85935E-05-2.72112E-08 6.84794E-19-1.37317E-18
 -1      3157 9.52456E-05-2.85374E-05-2.85894E-05-1.37047E-08 3.66526E-19-5.24803E-19
 -1      3158 9.52470E-05-2.85115E-05-2.86010E-05-3.96692E-08 2.62274E-19-1.45494E-18
 -1      3159 9.52464E-05-2.85462E-05-2.85855E-05-3.18475E-09 5.93098E-19 1.18643E-19
 -1      3160 9.52454E-05-2.85529E-05-2.85826E-05 5.24208E-09 1.65189E-18 5.69890E-19
 -1      3161 9.52501E-05-2.85363E-05-2.85917E-05-1.18482E-08 1.30364E-18-5.67400E-19
 -1      3162 9.52454E-05-2.85588E-05-2.85798E-05 1.15584E-08 9.43979E-19 4.49581E-19
 -1      3163 9.52447E-05-2.85634E-05-2.85778E-05 1.63789E-08 3.01202E-20 1.54520E-20
 -1      3164 9.52512E-05-2.85535E-05-2.85848E-05 5.73706E-09 1.34143E-18-1.46815E-18
 -1      3165 9.52443E-05-2.85673E-05-2.85757E-05 1.97554E-08-7.00928E-19-5.37558E-19
 -1      3166 9.52439E-05-2.85703E-05-2.85744E-05 2.20921E-08-1.42810E-18-9.55610E-19
 -1      3167 9.52509E-05-2.85651E-05-2.85797E-05 1.60203E-08-8.80016E-19-2.08385E-18
 -1      3168 9.52431E-05-2.85726E-05-2.85730E-05 2.34809E-08-1.88396E-18-6.89591E-19
 -1      3169 9.52429E-05-2.85744E-05-2.85722E-05 2.41716E-08-1.46515E-18-1.93342E-18
 -1      3170 9.52498E-05-2.85724E-05-2.85761E-05 2.12425E-08-1.70152E-18-9.64433E-19
 -1      3171 9.52421E-05-2.85757E-05-2.85713E-05 2.42752E-08 3.63497E-19-1.72701E-18
 -1      3172 9.52419E-05-2.85767E-05-2.85708E-05 2.39312E-08 6.11177E-19-1.98753E-19
 -1      3173 9.52483E-05-2.85767E-05-2.85736E-05 2.30815E-08-2.08386E-19-6.03289E-19
 -1      3174 9.52411E-05-2.85772E-05-2.85702E-05 2.32555E-08-5.75935E-20 1.26612E-18
 -1      3175 9.52410E-05-2.85777E-05-2.85700E-05 2.23114E-08 2.66514E-19 1.74839E-18
 -1      3176 9.52467E-05-2.85789E-05-2.85719E-05 2.27668E-08 1.18922E-18 7.82630E-19
 -1      3177 9.52402E-05-2.85778E-05-2.85696E-05 2.12110E-08 3.89118E-19 2.03190E-18
 -1      3178 9.52402E-05-2.85779E-05-2.85695E-05 1.99662E-08 1.20043E-19 1.47508E-18
 -1      3179 9.52451E-05-2.85798E-05-2.85709E-05 2.11775E-08 2.76944E-19 2.06881E-18
 -1      3180 9.52395E-05-2.85777E-05-2.85694E-05 1.86805E-08-4.02173E-19 1.37980E-18
 -1      3181 9.52395E-05-2.85776E-05-2.85694E-05 1.73325E-08-1.84567E-19 1.82676E-18
 -1      3182 9.52436E-05-2.85797E-05-2.85703E-05 1.89230E-08 3.78828E-19 2.15131E-18
 -1      3183 9.52389E-05-2.85772E-05-2.85693E-05 1.60155E-08-1.34576E-19 1.67527E-18
 -1      3184 9.52390E-05-2.85770E-05-2.85694E-05 1.46864E-08-5.77755E-20 1.57372E-18
 -1      3185 9.52422E-05-2.85791E-05-2.85699E-05 1.64100E-08-7.10856E-20 1.79736E-18
 -1      3186 9.52384E-05-2.85766E-05-2.85694E-05 1.34303E-08-4.47931E-20 1.82503E-18
 -1      3187 9.52385E-05-2.85763E-05-2.85695E-05 1.21879E-08-9.81574E-20 1.34999E-18
 -1      3188 9.52411E-05-2.85783E-05-2.85698E-05 1.38945E-08-6.81997E-20 6.87986E-19
 -1      3189 9.52381E-05-2.85759E-05-2.85695E-05 1.10315E-08-8.88259E-19 1.84652E-18
 -1      3190 9.52382E-05-2.85757E-05-2.85696E-05 9.91386E-09-7.37611E-19 1.96575E-18
 -1      3191 9.52401E-05-2.85774E-05-2.85697E-05 1.15283E-08-4.69920E-19 1.34610E-18
 -1      3192 1.03746E-04-3.55195E-05-2.91445E-05 1.26786E-05-6.18677E-19-1.10257E-19
 -1      3193 1.06679E-04-3.83789E-05-2.92466E-05 1.20851E-05-7.42821E-19-7.91910E-20
 -1      3194 9.95223E-05-3.11663E-05-2.92564E-05 1.21383E-05-2.75765E-19 4.01791E-19
 -1      3195 1.01461E-04-3.31595E-05-2.92475E-05 1.22253E-05-3.85215E-19 2.88096E-19
 -1      3196 9.90872E-05-3.34559E-05-2.82334E-05 1.45096E-05-5.06099E-19 3.04492E-19
 -1      3197 9.72331E-05-2.85673E-05-2.94162E-05 1.08956E-05-7.57017E-19 6.47520E-19
 -1      3198 9.84074E-05-2.97465E-05-2.93997E-05 1.13381E-05-5.19110E-19 5.60145E-19
 -1      3199 9.58649E-05-2.93157E-05-2.85694E-05 1.28244E-05-5.36531E-19 5.36221E-19
 -1      3200 9.61003E-05-2.72322E-05-2.95157E-05 9.44891E-06-5.96711E-20 3.66654E-19
 -1      3201 9.67872E-05-2.78468E-05-2.95256E-05 1.00524E-05-2.45957E-19 5.88168E-19
 -1      3202 9.44290E-05-2.70790E-05-2.88853E-05 1.10137E-05-4.29583E-19 4.33590E-19
 -1      3203 9.55956E-05-2.66898E-05-2.95373E-05 7.99620E-06-2.77873E-19-1.42502E-19
 -1      3204 9.60027E-05-2.69536E-05-2.95765E-05 8.64726E-06-3.21800E-20 3.40055E-19
 -1      3205 9.39505E-05-2.60578E-05-2.91029E-05 9.30456E-06-5.69457E-20 4.67692E-19
 -1      3206 9.54008E-05-2.65972E-05-2.94954E-05 6.63257E-06 1.73515E-19-5.54535E-19
 -1      3207 9.56556E-05-2.66622E-05-2.95555E-05 7.26688E-06 8.80079E-21-3.85480E-19
 -1      3208 9.39439E-05-2.57662E-05-2.92182E-05 7.75765E-06 2.71835E-19-3.20077E-19
 -1      3209 9.53426E-05-2.67341E-05-2.94119E-05 5.40366E-06 1.53725E-19-6.55630E-19
 -1      3210 9.55160E-05-2.66966E-05-2.94829E-05 5.98580E-06 1.06920E-19-8.06922E-19
 -1      3211 9.41314E-05-2.58698E-05-2.92519E-05 6.38287E-06 4.03323E-19-5.33097E-19
 -1      3212 9.53344E-05-2.69692E-05-2.93068E-05 4.32929E-06 3.04837E-20-6.22874E-19
 -1      3213 9.54628E-05-2.68861E-05-2.93804E-05 4.84205E-06-6.26858E-20-4.43655E-19
 -1      3214 9.43705E-05-2.61615E-05-2.92291E-05 5.17935E-06 2.08201E-19-5.30022E-19
 -1      3215 9.53378E-05-2.72301E-05-2.91954E-05 3.41305E-06-2.21160E-19-7.21754E-19
 -1      3216 9.54389E-05-2.71327E-05-2.92657E-05 3.85097E-06-5.12053E-20-9.32300E-19
 -1      3217 9.45955E-05-2.65203E-05-2.91723E-05 4.14268E-06-2.29109E-19-1.07270E-18
 -1      3218 9.53383E-05-2.74798E-05-2.90874E-05 2.64813E-06 5.16488E-19-8.44147E-19
 -1      3219 9.54204E-05-2.73842E-05-2.91511E-05 3.01300E-06-6.96514E-20-7.97182E-19
 -1      3220 9.47820E-05-2.68809E-05-2.90985E-05 3.26466E-06-8.17208E-20-9.13691E-19
 -1      3221 9.53329E-05-2.77019E-05-2.89889E-05 2.02159E-06 2.57812E-20-1.11539E-18
 -1      3222 9.54001E-05-2.76155E-05-2.90443E-05 2.31932E-06 7.66374E-19-6.97850E-19
 -1      3223 9.49259E-05-2.72109E-05-2.90195E-05 2.53359E-06 5.13596E-19-7.19934E-19
 -1      3224 9.53228E-05-2.78910E-05-2.89026E-05 1.51734E-06-1.34818E-19-8.93370E-19
 -1      3225 9.53773E-05-2.78166E-05-2.89494E-05 1.75582E-06-2.14973E-19-9.31022E-19
 -1      3226 9.50320E-05-2.74974E-05-2.89427E-05 1.93508E-06 2.16177E-19-5.61571E-19
 -1      3227 9.53100E-05-2.80475E-05-2.88293E-05 1.11820E-06-1.60169E-18 1.34532E-19
 -1      3228 9.53536E-05-2.79853E-05-2.88678E-05 1.30599E-06-7.81161E-19-2.67123E-19
 -1      3229 9.51075E-05-2.77379E-05-2.88724E-05 1.45313E-06-8.67922E-19-3.60490E-21
 -1      3230 9.52966E-05-2.81743E-05-2.87686E-05 8.07328E-07-7.50213E-19-9.35799E-20
 -1      3231 9.53308E-05-2.81234E-05-2.87997E-05 9.52784E-07-1.18621E-18 1.79751E-19
 -1      3232 9.51597E-05-2.79348E-05-2.88107E-05 1.07130E-06-1.26769E-18 1.30620E-19
 -1      3233 9.52839E-05-2.82751E-05-2.87195E-05 5.69114E-07-7.30121E-19-8.88345E-19
 -1      3234 9.53102E-05-2.82343E-05-2.87440E-05 6.79937E-07-5.39781E-19-6.49261E-19
 -1      3235 9.51948E-05-2.80929E-05-2.87581E-05 7.73620E-07-5.59186E-19-3.46710E-19
 -1      3236 9.52727E-05-2.83542E-05-2.86804E-05 3.89632E-07-1.86579E-19-3.43098E-19
 -1      3237 9.52925E-05-2.83219E-05-2.86995E-05 4.72631E-07-7.52422E-19-7.17515E-19
 -1      3238 9.52177E-05-2.82178E-05-2.87145E-05 5.45319E-07-7.06648E-19-7.26236E-19
 -1      3239 9.52633E-05-2.84153E-05-2.86499E-05 2.56831E-07 1.38585E-18-7.88351E-19
 -1      3240 9.52778E-05-2.83901E-05-2.86645E-05 3.17847E-07 1.16632E-18-3.61095E-19
 -1      3241 9.52322E-05-2.83149E-05-2.86791E-05 3.73195E-07 5.51007E-19-1.12642E-18
 -1      3242 9.52558E-05-2.84617E-05-2.86265E-05 1.60531E-07 4.79460E-19-7.55644E-20
 -1      3243 9.52661E-05-2.84424E-05-2.86375E-05 2.04460E-07 1.02527E-18-5.99580E-20
 -1      3244 9.52408E-05-2.83894E-05-2.86509E-05 2.45786E-07 1.24416E-18-4.49665E-19
 -1      3245 9.52499E-05-2.84966E-05-2.86089E-05 9.23085E-08-2.87908E-19-1.00304E-18
 -1      3246 9.52571E-05-2.84819E-05-2.86170E-05 1.23171E-07 5.74117E-19 8.57070E-20
 -1      3247 9.52455E-05-2.84456E-05-2.86288E-05 1.53383E-07 4.69087E-19 3.27366E-19
 -1      3248 9.52455E-05-2.85222E-05-2.85959E-05 4.53217E-08 9.32200E-20-6.02266E-19
 -1      3249 9.52503E-05-2.85113E-05-2.86017E-05 6.63615E-08-8.35515E-19-9.46546E-19
 -1      3250 9.52477E-05-2.84873E-05-2.86118E-05 8.79309E-08-7.34500E-20-3.31994E-19
 -1      3251 9.52423E-05-2.85408E-05-2.85865E-05 1.41083E-08 6.73571E-19-4.96342E-19
 -1      3252 9.52453E-05-2.85328E-05-2.85906E-05 2.78983E-08 8.67562E-19-2.87903E-19
 -1      3253 9.52483E-05-2.85176E-05-2.85990E-05 4.28726E-08 4.02494E-19-8.03105E-19
 -1      3254 9.52400E-05-2.85538E-05-2.85799E-05-5.62128E-09 1.44126E-18-1.25280E-19
 -1      3255 9.52417E-05-2.85481E-05-2.85826E-05 2.92755E-09 9.26843E-19 8.11050E-20
 -1      3256 9.52478E-05-2.85393E-05-2.85895E-05 1.29661E-08 8.80176E-19 1.72991E-19
 -1      3257 9.52384E-05-2.85628E-05-2.85753E-05-1.71804E-08 1.53125E-18 3.28684E-19
 -1      3258 9.52393E-05-2.85588E-05-2.85771E-05-1.23304E-08 1.84987E-18 1.39592E-19
 -1      3259 9.52469E-05-2.85544E-05-2.85826E-05-5.90950E-09 1.45751E-18 1.63562E-18
 -1      3260 9.52374E-05-2.85687E-05-2.85723E-05-2.30851E-08 2.58671E-19 1.46150E-18
 -1      3261 9.52377E-05-2.85660E-05-2.85734E-05-2.07697E-08 9.82397E-19 1.15117E-18
 -1      3262 9.52457E-05-2.85645E-05-2.85778E-05-1.69395E-08 8.84330E-19 1.18621E-18
 -1      3263 9.52368E-05-2.85724E-05-2.85704E-05-2.52120E-08-6.30983E-19 9.70052E-19
 -1      3264 9.52367E-05-2.85707E-05-2.85711E-05-2.45683E-08-1.67574E-19 1.12052E-18
 -1      3265 9.52444E-05-2.85710E-05-2.85744E-05-2.25434E-08 6.17968E-20 1.28452E-18
 -1      3266 9.52365E-05-2.85746E-05-2.85694E-05-2.49325E-08-2.46470E-18 5.16887E-19
 -1      3267 9.52361E-05-2.85735E-05-2.85696E-05-2.53343E-08-1.87575E-18 7.75169E-19
 -1      3268 9.52432E-05-2.85749E-05-2.85722E-05-2.45255E-08-1.02774E-18 3.35350E-19
 -1      3269 9.52363E-05-2.85757E-05-2.85688E-05-2.32259E-08-2.30678E-18 1.29857E-19
 -1      3270 9.52359E-05-2.85751E-05-2.85689E-05-2.42297E-08-1.62895E-18 9.49038E-19
 -1      3271 9.52420E-05-2.85770E-05-2.85708E-05-2.42041E-08-1.97945E-18 1.19587E-18
 -1      3272 9.52363E-05-2.85760E-05-2.85687E-05-2.07716E-08-3.80520E-19-1.74182E-18
 -1      3273 9.52358E-05-2.85758E-05-2.85686E-05-2.20729E-08-1.69614E-18-6.41386E-19
 -1      3274 9.52410E-05-2.85779E-05-2.85699E-05-2.25199E-08-1.00379E-18-1.36748E-19
 -1      3275 9.52363E-05-2.85759E-05-2.85687E-05-1.80231E-08 6.64506E-19-2.64032E-18
 -1      3276 9.52359E-05-2.85759E-05-2.85686E-05-1.94218E-08 1.50676E-19-2.44797E-18
 -1      3277 9.52402E-05-2.85780E-05-2.85695E-05-2.01246E-08 2.09152E-19-1.44931E-18
 -1      3278 9.52364E-05-2.85756E-05-2.85689E-05-1.52661E-08-1.87034E-19-1.83293E-18
 -1      3279 9.52360E-05-2.85757E-05-2.85687E-05-1.66391E-08-9.26071E-20-2.75117E-18
 -1      3280 9.52395E-05-2.85776E-05-2.85694E-05-1.74525E-08-1.00642E-19-2.05260E-18
 -1      3281 9.52366E-05-2.85752E-05-2.85692E-05-1.26648E-08 5.58820E-20-1.55624E-18
 -1      3282 9.52362E-05-2.85753E-05-2.85690E-05-1.39445E-08-3.29288E-20-1.36411E-18
 -1      3283 9.52389E-05-2.85770E-05-2.85694E-05-1.47773E-08-2.83463E-19-2.36220E-18
 -1      3284 9.52367E-05-2.85747E-05-2.85694E-05-1.02958E-08 3.82853E-19-5.48186E-19
 -1      3285 9.52364E-05-2.85749E-05-2.85692E-05-1.14539E-08-2.98909E-20-1.17756E-18
 -1      3286 9.52384E-05-2.85763E-05-2.85695E-05-1.22544E-08-9.27622E-19-9.98442E-19
 -1      3287 9.52369E-05-2.85744E-05-2.85696E-05-8.18728E-09-7.45178E-19-1.83396E-18
 -1      3288 9.52366E-05-2.85745E-05-2.85695E-05-9.20811E-09 7.53845E-19-4.57352E-19
 -1      3289 9.52381E-05-2.85757E-05-2.85696E-05-9.95917E-09 7.04845E-19-6.30057E-19
 -1      3290 9.52374E-05-2.85746E-05-2.85698E-05-6.89640E-09-2.16449E-18-1.51358E-18
 -1      3291 9.52371E-05-2.85744E-05-2.85697E-05-7.58101E-09-1.53762E-18-1.52978E-18
 -1      3292 9.52382E-05-2.85755E-05-2.85697E-05-8.23647E-09-6.75877E-19 7.03299E-19
 -1      3293 9.52384E-05-2.85755E-05-2.85698E-05-7.00096E-09-7.55982E-19-1.58854E-18
 -1      3294 9.52405E-05-2.85774E-05-2.85699E-05 6.63366E-09 1.15960E-20-1.96383E-18
 -1      3295 9.52414E-05-2.85782E-05-2.85699E-05 6.05463E-09 1.15221E-19-3.53022E-18
 -1      3296 8.85641E-05-3.82389E-05-2.13665E-05-3.11111E-05 3.00887E-18 3.81324E-19
 -1      3297 1.00418E-04-4.56260E-05-2.34728E-05-3.00733E-05 2.88928E-18-7.09946E-19
 -1      3298 1.05623E-04-4.78659E-05-2.47676E-05 2.67566E-05-2.29019E-18-1.01115E-18
 -1      3299 9.03236E-05-3.98251E-05-2.13422E-05 3.12594E-05-2.37286E-18 3.76347E-19
 -1      3300 9.52438E-05-2.85803E-05-2.85701E-05 6.19823E-10-4.02283E-19 3.16808E-18
 -1      3301 9.52438E-05-2.85803E-05-2.85701E-05-5.71228E-10 2.61107E-19 3.34541E-18
 -1      3302 1.28126E-04-5.47420E-05-3.16352E-05 8.70579E-06-7.18496E-19-2.27129E-18
 -1      3303 1.19251E-04-5.29891E-05-2.82269E-05 1.78012E-05-1.51103E-18-2.25916E-18
 -1      3304 1.18946E-04-4.15089E-05-3.34574E-05-1.27594E-06 2.71977E-20 4.94588E-19
 -1      3305 7.42462E-05-2.39741E-05-2.12155E-05-2.31953E-05-1.50740E-18-3.49989E-18
 -1      3306 9.52422E-05-2.85789E-05-2.85700E-05 5.15052E-09-8.76199E-19-2.71131E-18
 -1      3307 9.52428E-05-2.85794E-05-2.85700E-05 4.23611E-09-1.01035E-18-4.37553E-19
 -1      3308 9.52424E-05-2.85790E-05-2.85701E-05 6.17669E-09-7.75102E-19-2.29601E-18
 -1      3309 1.14235E-04-3.51229E-05-3.38636E-05-9.35836E-06-5.58645E-19-1.41382E-19
 -1      3310 1.10710E-04-4.18417E-05-2.93655E-05 1.17018E-05-8.06855E-19-4.18404E-19
 -1      3311 1.14600E-04-4.51715E-05-2.97690E-05 9.80471E-06-7.70707E-19-5.09911E-19
 -1      3312 1.05096E-04-3.96183E-05-2.81765E-05 1.52208E-05-8.36763E-19-6.84853E-19
 -1      3313 1.21356E-04-4.92878E-05-3.07517E-05 7.13369E-06-8.81566E-19-1.12775E-18
 -1      3314 1.25482E-04-5.09608E-05-3.19976E-05 3.42972E-06-4.73409E-19-1.78304E-18
 -1      3315 1.33972E-04-1.30399E-05-5.23227E-05 5.86490E-06 6.79892E-18-5.21984E-20
 -1      3316 1.28246E-04-1.41091E-05-4.94508E-05 2.11669E-06 6.18292E-18-2.71295E-19
 -1      3317 6.48275E-05-2.64878E-05-1.59285E-05-3.20065E-05 2.88875E-18 3.40555E-18
 -1      3318 6.65664E-05-1.58357E-05-2.16602E-05 2.58937E-05 2.78144E-18-3.92367E-18
 -1      3319 7.70840E-05-2.43233E-05-2.23138E-05 2.73783E-05 2.86620E-18-3.21044E-18
 -1      3320 1.10053E-04-4.99744E-05-2.55364E-05-2.52206E-05 2.76196E-18-8.60662E-19
 -1      3321 1.19900E-04-5.37331E-05-2.86646E-05-1.85226E-05 2.13984E-18-1.69348E-18
 -1      3322 1.06686E-04-4.65940E-05-2.55858E-05-2.33545E-05 2.69150E-18-7.49872E-19
 -1      3323 1.30252E-04-4.34162E-05-3.72731E-05 5.20263E-06-1.31650E-18-3.65902E-18
 -1      3324 1.28150E-04-3.62784E-05-3.98083E-05 9.13988E-06-2.42537E-18-3.71075E-18
 -1      3325 4.82648E-05-1.31789E-05-1.45753E-05 1.49297E-05-7.02799E-19 3.42138E-18
 -1      3326 4.49145E-05-1.05678E-05-1.44185E-05 2.51950E-06 2.99903E-19 3.76728E-18
 -1      3327 9.04960E-05-3.23738E-05-2.46919E-05-2.01561E-05-1.22814E-18-2.07121E-18
 -1      3328 1.16030E-04-3.65701E-05-3.40787E-05-1.02217E-05-7.72562E-19 7.08431E-20
 -1      3329 1.29356E-04-1.51778E-05-4.93741E-05 9.37063E-06 6.23459E-18 6.73232E-19
 -1      3330 4.59710E-05-1.16583E-05-1.43669E-05-1.05718E-05 1.32346E-18 3.70566E-18
 -1      3331 5.09521E-05-1.59516E-05-1.47446E-05-2.14351E-05 1.90942E-18 4.12272E-18
 -1      3332 9.52433E-05-2.85799E-05-2.85701E-05 3.05439E-09-7.83387E-19 1.14265E-18
 -1      3333 9.52437E-05-2.85801E-05-2.85701E-05 1.95365E-09-5.24722E-19 2.91994E-18
 -1      3334 9.52446E-05-2.85808E-05-2.85702E-05 1.40692E-09-6.44274E-19 2.66388E-18
 -1      3335 9.52439E-05-2.85802E-05-2.85702E-05 4.01076E-09-1.28645E-18 3.34383E-19
 -1      3336 9.52380E-05-2.85752E-05-2.85698E-05 7.02964E-09-6.60763E-19 1.01927E-18
 -1      3337 9.52395E-05-2.85765E-05-2.85698E-05 7.07611E-09-1.17810E-18 3.06914E-19
 -1      3338 9.52404E-05-2.85773E-05-2.85699E-05 7.50857E-09-1.74361E-19-2.02794E-18
 -1      3339 9.52380E-05-2.85753E-05-2.85698E-05 7.81295E-09-1.14809E-18 1.89225E-18
 -1      3340 1.26744E-04-5.26669E-05-3.15827E-05-9.36174E-06 1.05553E-18-2.86207E-18
 -1      3341 1.30304E-04-4.97692E-05-3.49237E-05-1.56957E-06-7.20904E-20-3.22333E-18
 -1      3342 1.15762E-04-1.47110E-05-4.36767E-05-9.54758E-06-4.22373E-18-9.01031E-20
 -1      3343 1.19358E-04-1.87506E-05-4.36137E-05-1.42256E-05-3.90207E-18 5.11370E-19
 -1      3344 1.21479E-04-2.57723E-05-4.13057E-05 1.07799E-05-3.47199E-18-2.86932E-18
 -1      3345 1.15512E-04-2.93622E-05-3.69558E-05 1.04558E-05-2.31801E-18-2.40761E-18
 -1      3346 1.17470E-04-3.43599E-05-3.58418E-05 1.08690E-05-1.53771E-18-2.61825E-18
 -1      3347 1.25746E-04-3.33364E-05-3.99719E-05 1.08513E-05-2.65431E-18-3.38014E-18
 -1      3348 6.11102E-05-2.18070E-05-1.63877E-05-2.73347E-05 2.66249E-18 3.43234E-18
 -1      3349 7.41147E-05-2.96446E-05-1.89898E-05-3.09094E-05 3.08749E-18 1.76691E-18
 -1      3350 6.20581E-05-1.96501E-05-1.77904E-05-2.20062E-05 2.16975E-18 2.97287E-18
 -1      3351 1.05145E-04-4.07743E-05-2.74584E-05-1.46695E-05-1.04178E-18-5.26484E-19
 -1      3352 9.54266E-05-3.46679E-05-2.61587E-05 2.18335E-05 2.28995E-18-1.75886E-18
 -1      3353 1.25724E-04-3.23521E-05-4.01922E-05-1.56403E-05-2.39964E-18 1.42609E-18
 -1      3354 1.23554E-04-3.51745E-05-3.79111E-05-1.43330E-05-1.66259E-18 1.49272E-18
 -1      3355 1.17619E-04-2.55813E-05-3.95195E-05-1.60134E-05-2.60907E-18 8.40336E-19
 -1      3356 1.34630E-04-4.75046E-05-3.73146E-05 1.34430E-05 9.54957E-19 3.15573E-18
 -1      3357 1.32331E-04-4.07592E-05-3.95436E-05 1.73858E-05 1.97798E-18 3.28659E-18
 -1      3358 1.27245E-04-4.56205E-05-3.50232E-05 3.31674E-06-4.23344E-19-3.29774E-18
 -1      3359 1.30534E-04-5.21560E-05-3.35811E-05 2.61825E-07-1.01009E-19-2.32121E-18
 -1      3360 9.52380E-05-2.85754E-05-2.85697E-05 8.62329E-09-1.08544E-18 2.30644E-18
 -1      3361 1.19080E-04-2.23989E-05-4.16288E-05-1.52581E-05-3.22254E-18 9.42457E-19
 -1      3362 1.29432E-04-2.66510E-05-4.42889E-05 1.74793E-05 3.84320E-18 2.73253E-18
 -1      3363 1.28770E-04-1.93712E-05-4.75012E-05 1.41269E-05 5.05276E-18 1.79751E-18
 -1      3364 1.32942E-04-4.92427E-05-3.59852E-05-3.97910E-06 9.83088E-19-2.69245E-18
 -1      3365 8.40491E-05-3.41185E-05-2.11420E-05-2.94691E-05 2.94042E-18 8.99496E-19
 -1      3366 9.23446E-05-3.74831E-05-2.34637E-05-2.57565E-05 2.67994E-18-2.32934E-21
 -1      3367 7.94569E-05-2.94651E-05-2.13328E-05-2.62960E-05 2.45542E-18 1.21036E-18
 -1      3368 9.52428E-05-2.85794E-05-2.85700E-05-4.23508E-09 1.33421E-18 7.91483E-19
 -1      3369 9.52422E-05-2.85789E-05-2.85700E-05-5.15041E-09 1.59271E-18-3.46779E-18
 -1      3370 9.13104E-05-3.71954E-05-2.29893E-05 2.66398E-05-2.13585E-18 7.33478E-20
 -1      3371 8.26067E-05-3.42183E-05-2.05064E-05 3.06884E-05-2.17592E-18 8.83852E-19
 -1      3372 7.48333E-05-2.79396E-05-2.00380E-05 2.70829E-05-1.81098E-18 1.19040E-18
 -1      3373 9.52447E-05-2.85808E-05-2.85702E-05-1.36476E-09 2.47104E-20 2.67117E-18
 -1      3374 9.52437E-05-2.85802E-05-2.85701E-05-1.91757E-09 6.82176E-19 3.91330E-18
 -1      3375 9.52433E-05-2.85799E-05-2.85701E-05-3.03897E-09 1.33873E-18 2.88276E-18
 -1      3376 1.23534E-04-4.14115E-05-3.52419E-05-6.58720E-06-6.60725E-19 1.40494E-18
 -1      3377 1.18333E-04-3.86376E-05-3.41026E-05-8.36510E-06-4.48140E-19 4.75781E-19
 -1      3378 5.77421E-05-1.73620E-05-1.69172E-05 1.84202E-05-1.33079E-18 2.26677E-18
 -1      3379 1.15667E-04-4.80845E-05-2.90074E-05 1.33662E-05-1.12262E-18-1.38138E-18
 -1      3380 1.23472E-04-1.47328E-05-4.70323E-05 3.08273E-06 5.60143E-18 2.22498E-19
 -1      3381 1.25649E-04-1.53613E-05-4.78561E-05-2.58178E-06 5.56469E-18-7.46924E-19
 -1      3382 1.25104E-04-1.73269E-05-4.67036E-05 1.09494E-05 5.20015E-18 1.44626E-18
 -1      3383 1.21792E-04-5.16332E-05-3.00898E-05-1.13144E-05 1.64997E-18-2.35757E-18
 -1      3384 9.52415E-05-2.85783E-05-2.85699E-05-5.89389E-09 1.34117E-18-5.69554E-18
 -1      3385 9.52408E-05-2.85777E-05-2.85699E-05-6.38573E-09 1.07066E-18-6.19962E-18
 -1      3386 9.52425E-05-2.85791E-05-2.85701E-05-6.00926E-09 2.14862E-18-3.78210E-18
 -1      3387 9.52395E-05-2.85767E-05-2.85698E-05 9.10709E-09-1.14310E-18 7.41366E-19
 -1      3388 1.33532E-04-4.36543E-05-3.88352E-05-1.11046E-05 1.86488E-18-2.77043E-18
 -1      3389 1.25411E-04-2.09909E-05-4.51413E-05-7.85784E-06 4.60013E-18-1.39885E-18
 -1      3390 5.32602E-05-1.18112E-05-1.76001E-05 2.66904E-06-2.34390E-19 2.97621E-18
 -1      3391 4.87098E-05-1.11183E-05-1.56880E-05-3.55969E-06 5.18424E-19 3.33255E-18
 -1      3392 5.37399E-05-1.28301E-05-1.74795E-05-8.93352E-06 7.11786E-19 2.99733E-18
 -1      3393 1.21226E-04-3.83040E-05-3.55981E-05 9.13611E-06-1.07639E-18-2.81150E-18
 -1      3394 1.29631E-04-3.54258E-05-4.07257E-05-1.32825E-05 2.60870E-18-2.40944E-18
 -1      3395 1.19414E-04-3.72899E-05-3.52606E-05-1.41065E-05-1.13029E-18 4.67972E-19
 -1      3396 1.19003E-04-3.54799E-05-3.58477E-05-1.48671E-05-1.59007E-18 6.60934E-19
 -1      3397 1.21590E-04-3.51993E-05-3.69921E-05-1.54924E-05-1.52950E-18 1.26311E-18
 -1      3398 1.23289E-04-3.64958E-05-3.72043E-05 9.71590E-06-1.70153E-18-3.12351E-18
 -1      3399 5.98723E-05-1.60955E-05-1.83450E-05-1.69953E-05 1.57798E-18 2.96864E-18
 -1      3400 6.76844E-05-2.16597E-05-1.97194E-05-2.22248E-05 2.13484E-18 2.24226E-18
 -1      3401 1.15766E-04-4.60334E-05-2.99288E-05-5.63655E-06 1.09437E-18-1.67601E-18
 -1      3402 1.12769E-04-4.42383E-05-2.92497E-05-7.72152E-06 8.85533E-19-1.40848E-18
 -1      3403 1.08694E-04-4.16437E-05-2.87443E-05-8.97346E-06 5.86683E-19-1.08416E-18
 -1      3404 1.05770E-04-3.92313E-05-2.84220E-05-1.00066E-05 7.26915E-19-9.83248E-19
 -1      3405 1.09019E-04-4.33065E-05-2.82429E-05-1.18418E-05 9.31965E-19-1.06220E-18
 -1      3406 1.02854E-04-3.67446E-05-2.83145E-05-1.00408E-05 6.19191E-19-1.27820E-18
 -1      3407 1.00594E-04-3.45890E-05-2.82306E-05-1.02473E-05 6.69672E-19-9.90105E-19
 -1      3408 1.02111E-04-3.76456E-05-2.77161E-05-1.26166E-05 5.12672E-19-8.34241E-19
 -1      3409 9.87879E-05-3.27220E-05-2.82896E-05-9.72834E-06 8.53298E-19-1.17678E-18
 -1      3410 9.72384E-05-3.11100E-05-2.83114E-05-9.50884E-06 7.05268E-19-1.00845E-18
 -1      3411 9.75206E-05-3.29630E-05-2.77350E-05-1.15971E-05 8.25119E-19-1.28823E-18
 -1      3412 9.62332E-05-2.98555E-05-2.84247E-05-8.80712E-06 1.74497E-19-6.92318E-19
 -1      3413 9.52652E-05-2.87825E-05-2.84803E-05-8.39419E-06 3.73336E-20-6.40028E-19
 -1      3414 9.48227E-05-2.96847E-05-2.79572E-05-1.00743E-05 7.90427E-19-1.37900E-18
 -1      3415 9.47871E-05-2.80249E-05-2.85941E-05-7.68572E-06-7.43582E-20-5.77305E-19
 -1      3416 9.42328E-05-2.73810E-05-2.86481E-05-7.20213E-06-4.16796E-19-2.29632E-19
 -1      3417 9.34226E-05-2.76271E-05-2.82207E-05-8.50079E-06-1.17436E-19-5.53716E-19
 -1      3418 9.40783E-05-2.69857E-05-2.87403E-05-6.55133E-06-5.05286E-19 8.97229E-20
 -1      3419 9.37951E-05-2.66504E-05-2.87785E-05-6.06002E-06-3.96949E-19 3.10679E-19
 -1      3420 9.28430E-05-2.64777E-05-2.84532E-05-7.06135E-06-1.28855E-19 3.55679E-20
 -1      3421 9.38258E-05-2.65005E-05-2.88435E-05-5.48487E-06-4.95700E-19 5.08484E-19
 -1      3422 9.37087E-05-2.63720E-05-2.88632E-05-5.01791E-06-1.80719E-19 7.58597E-19
 -1      3423 9.27501E-05-2.59560E-05-2.86300E-05-5.80187E-06-4.01152E-19 7.41043E-19
 -1      3424 9.38349E-05-2.63770E-05-2.89028E-05-4.51969E-06 7.80239E-20 5.73706E-19
 -1      3425 9.38124E-05-2.63776E-05-2.89062E-05-4.09343E-06 2.26688E-19 3.49158E-19
 -1      3426 9.29239E-05-2.58421E-05-2.87495E-05-4.71968E-06-2.74995E-19 1.85605E-19
 -1      3427 9.39782E-05-2.64720E-05-2.89253E-05-3.66772E-06 3.57168E-19 3.46170E-20
 -1      3428 9.40048E-05-2.65463E-05-2.89164E-05-3.28988E-06 6.15899E-19-1.71586E-19
 -1      3429 9.32242E-05-2.59749E-05-2.88195E-05-3.79897E-06 9.18035E-20 3.68131E-19
 -1      3430 9.41773E-05-2.66853E-05-2.89204E-05-2.93071E-06 1.05037E-18-3.47474E-19
 -1      3431 9.42251E-05-2.67960E-05-2.89035E-05-2.60401E-06 9.41445E-19 1.84890E-19
 -1      3432 9.35660E-05-2.62415E-05-2.88509E-05-3.02211E-06 8.26950E-19-3.45659E-19
 -1      3433 9.43860E-05-2.69503E-05-2.88971E-05-2.30508E-06 4.03215E-19 5.12880E-19
 -1      3434 9.44392E-05-2.70732E-05-2.88759E-05-2.02882E-06 6.17548E-19 6.54746E-19
 -1      3435 9.39003E-05-2.65666E-05-2.88548E-05-2.37317E-06 1.01047E-18-4.10044E-19
 -1      3436 9.45798E-05-2.72248E-05-2.88632E-05-1.78357E-06 4.02782E-19 7.31553E-19
 -1      3437 9.46299E-05-2.73451E-05-2.88404E-05-1.55468E-06 2.16802E-19 9.47311E-19
 -1      3438 9.42014E-05-2.69019E-05-2.88403E-05-1.83748E-06 3.70201E-19 8.91752E-19
 -1      3439 9.47471E-05-2.74838E-05-2.88245E-05-1.35644E-06-2.07021E-19 3.14250E-19
 -1      3440 9.47903E-05-2.75936E-05-2.88020E-05-1.17043E-06-4.94341E-19 6.24385E-19
 -1      3441 9.44582E-05-2.72185E-05-2.88150E-05-1.40100E-06-1.68440E-19 9.02346E-19
 -1      3442 9.48846E-05-2.77145E-05-2.87850E-05-1.01262E-06-8.28674E-19 7.24205E-19
 -1      3443 9.49198E-05-2.78100E-05-2.87641E-05-8.64240E-07-4.15152E-19 6.17173E-19
 -1      3444 9.46687E-05-2.75013E-05-2.87845E-05-1.05033E-06-3.79131E-19 9.19449E-19
 -1      3445 9.49933E-05-2.79116E-05-2.87475E-05-7.40598E-07-4.21889E-21 3.26283E-19
 -1      3446 9.50206E-05-2.79917E-05-2.87288E-05-6.24384E-07 3.99530E-19 5.35150E-19
 -1      3447 9.48356E-05-2.77438E-05-2.87524E-05-7.72746E-07-6.18293E-19 1.86035E-18
 -1      3448 9.50764E-05-2.80748E-05-2.87135E-05-5.29103E-07 3.33862E-19 8.85058E-20
 -1      3449 9.50968E-05-2.81401E-05-2.86974E-05-4.39739E-07 4.25455E-19-5.08090E-19
 -1      3450 9.49643E-05-2.79452E-05-2.87215E-05-5.56420E-07 1.89364E-20 4.19982E-19
 -1      3451 9.51380E-05-2.82062E-05-2.86839E-05-3.67584E-07 6.41233E-19-5.94455E-19
 -1      3452 9.51526E-05-2.82581E-05-2.86703E-05-3.00163E-07 4.34235E-19-6.17539E-19
 -1      3453 9.50607E-05-2.81083E-05-2.86932E-05-3.90582E-07 5.29068E-19-3.33834E-19
 -1      3454 9.51821E-05-2.83097E-05-2.86587E-05-2.46539E-07 1.05571E-20-3.96065E-19
 -1      3455 9.51922E-05-2.83500E-05-2.86476E-05-1.96695E-07-3.10469E-19 9.68780E-20
 -1      3456 9.51309E-05-2.82372E-05-2.86683E-05-2.65659E-07 1.67772E-19-3.88742E-19
 -1      3457 9.52126E-05-2.83892E-05-2.86379E-05-1.57667E-07-8.89508E-19 6.08315E-20
 -1      3458 9.52192E-05-2.84199E-05-2.86290E-05-1.21637E-07-5.02777E-19-4.42099E-19
 -1      3459 9.51805E-05-2.83369E-05-2.86470E-05-1.73336E-07-1.88133E-19 5.43683E-19
 -1      3460 9.52328E-05-2.84492E-05-2.86210E-05-9.39029E-08-5.44111E-19-5.96556E-19
 -1      3461 9.52368E-05-2.84720E-05-2.86140E-05-6.85269E-08-1.02335E-18-6.90754E-19
 -1      3462 9.52144E-05-2.84123E-05-2.86293E-05-1.06552E-07-6.09155E-19 4.34867E-19
 -1      3463 9.52453E-05-2.84933E-05-2.86076E-05-4.93789E-08-7.28367E-19-9.47093E-19
 -1      3464 9.52475E-05-2.85098E-05-2.86022E-05-3.20632E-08 3.40969E-19-1.16888E-18
 -1      3465 9.52363E-05-2.84682E-05-2.86148E-05-5.94307E-08-9.51735E-19-9.95421E-19
 -1      3466 9.52524E-05-2.85249E-05-2.85972E-05-1.93183E-08 1.33388E-18-1.27807E-18
 -1      3467 9.52533E-05-2.85366E-05-2.85931E-05-7.97810E-09 2.01254E-18-5.72101E-19
 -1      3468 9.52497E-05-2.85086E-05-2.86033E-05-2.71791E-08 5.37789E-19-3.15909E-19
 -1      3469 9.52557E-05-2.85470E-05-2.85892E-05 8.99938E-11 9.98697E-19-1.42439E-18
 -1      3470 9.52558E-05-2.85550E-05-2.85862E-05 7.09779E-09 8.52369E-20-2.45444E-18
 -1      3471 9.52570E-05-2.85370E-05-2.85943E-05-5.95639E-09 8.60686E-19-1.10128E-18
 -1      3472 9.52565E-05-2.85619E-05-2.85832E-05 1.18303E-08-4.45388E-19-2.91200E-18
 -1      3473 9.52561E-05-2.85672E-05-2.85810E-05 1.57762E-08-8.29756E-19-2.19149E-18
 -1      3474 9.52601E-05-2.85563E-05-2.85874E-05 7.25908E-09-4.56365E-19-3.42245E-18
 -1      3475 9.52557E-05-2.85714E-05-2.85789E-05 1.81959E-08-1.12536E-18-1.04743E-18
 -1      3476 9.52550E-05-2.85747E-05-2.85773E-05 2.00438E-08-1.63972E-18-7.86984E-19
 -1      3477 9.52605E-05-2.85689E-05-2.85821E-05 1.48028E-08-6.33929E-19-2.26613E-18
 -1      3478 9.52540E-05-2.85771E-05-2.85757E-05 2.09162E-08-1.43770E-18 4.34492E-19
 -1      3479 9.52532E-05-2.85790E-05-2.85747E-05 2.13822E-08 2.35554E-19 6.18195E-19
 -1      3480 9.52592E-05-2.85766E-05-2.85783E-05 1.84469E-08-1.06903E-18 4.22796E-19
 -1      3481 9.52519E-05-2.85802E-05-2.85735E-05 2.12680E-08 1.48402E-18-2.58202E-19
 -1      3482 9.52510E-05-2.85811E-05-2.85728E-05 2.08728E-08 9.56400E-19 4.09612E-19
 -1      3483 9.52570E-05-2.85809E-05-2.85755E-05 1.95102E-08 2.20506E-19-6.11026E-19
 -1      3484 9.52496E-05-2.85814E-05-2.85721E-05 2.01730E-08 4.06247E-20 1.05591E-18
 -1      3485 9.52488E-05-2.85817E-05-2.85716E-05 1.92850E-08 7.80934E-19 1.14199E-18
 -1      3486 9.52543E-05-2.85828E-05-2.85735E-05 1.89531E-08 1.12317E-18-5.49944E-19
 -1      3487 9.52474E-05-2.85815E-05-2.85711E-05 1.82784E-08 1.42009E-18 5.02488E-19
 -1      3488 9.52467E-05-2.85813E-05-2.85708E-05 1.71499E-08 6.73059E-19 1.21356E-18
 -1      3489 9.52515E-05-2.85832E-05-2.85722E-05 1.74573E-08 7.39162E-19-1.52902E-18
 -1      3490 9.52454E-05-2.85809E-05-2.85705E-05 1.60226E-08-3.90069E-20 1.10296E-18
 -1      3491 9.52447E-05-2.85805E-05-2.85704E-05 1.48188E-08 2.93362E-19 1.14197E-18
 -1      3492 9.52489E-05-2.85827E-05-2.85713E-05 1.54921E-08 8.33245E-19-8.80218E-19
 -1      3493 9.52436E-05-2.85799E-05-2.85702E-05 1.36894E-08-2.77076E-19 1.73507E-18
 -1      3494 9.52430E-05-2.85794E-05-2.85701E-05 1.25127E-08-1.16823E-19 1.36130E-18
 -1      3495 9.52465E-05-2.85816E-05-2.85707E-05 1.33672E-08 4.00913E-19 9.91129E-19
 -1      3496 9.52421E-05-2.85788E-05-2.85700E-05 1.14373E-08-4.94403E-19 3.53038E-19
 -1      3497 9.52416E-05-2.85784E-05-2.85700E-05 1.03622E-08-5.59018E-19 4.10689E-19
 -1      3498 9.52444E-05-2.85804E-05-2.85703E-05 1.12817E-08-4.83405E-19 2.68845E-19
 -1      3499 9.18837E-05-2.66955E-05-2.79425E-05 1.26730E-05-8.60845E-19 5.98705E-19
 -1      3500 9.29900E-05-2.81489E-05-2.77323E-05 1.36598E-05-6.66480E-19 4.22614E-19
 -1      3501 9.35692E-05-2.97016E-05-2.73215E-05 1.53193E-05-7.19067E-19 1.03454E-19
 -1      3502 9.58380E-05-3.23941E-05-2.71318E-05 1.63064E-05-7.79753E-19-2.18126E-19
 -1      3503 8.91768E-05-2.70632E-05-2.66581E-05 1.52023E-05-8.42083E-19 6.61190E-20
 -1      3504 9.17972E-05-2.47490E-05-2.87508E-05 8.62940E-06 1.93824E-19 4.56977E-19
 -1      3505 9.18876E-05-2.49863E-05-2.86504E-05 9.43163E-06 5.73464E-21 7.21394E-19
 -1      3506 9.23260E-05-2.48212E-05-2.89455E-05 7.09870E-06 5.60762E-19-3.24751E-19
 -1      3507 9.22602E-05-2.48045E-05-2.88962E-05 7.80756E-06 2.71257E-19 8.10601E-20
 -1      3508 9.02315E-05-2.37611E-05-2.84772E-05 7.92053E-06 5.08933E-19 1.29817E-19
 -1      3509 9.29027E-05-2.51717E-05-2.90407E-05 5.79702E-06 5.57284E-19 9.11377E-21
 -1      3510 9.27828E-05-2.50271E-05-2.90292E-05 6.42007E-06 6.52020E-19-2.39269E-19
 -1      3511 9.11625E-05-2.40924E-05-2.87333E-05 6.46750E-06 6.94555E-19-1.92902E-19
 -1      3512 9.34331E-05-2.56360E-05-2.90671E-05 4.68548E-06-7.74584E-20 6.66181E-19
 -1      3513 9.33089E-05-2.54390E-05-2.90804E-05 5.22728E-06 2.53210E-19 2.66439E-19
 -1      3514 9.20250E-05-2.46220E-05-2.88771E-05 5.26390E-06 2.29539E-19 8.99693E-19
 -1      3515 9.38815E-05-2.61201E-05-2.90500E-05 3.74061E-06 1.55012E-20-2.21638E-19
 -1      3516 9.37736E-05-2.59132E-05-2.90776E-05 4.20500E-06 2.55497E-19 2.80775E-19
 -1      3517 9.27668E-05-2.52149E-05-2.89426E-05 4.25035E-06 4.08206E-19 1.65023E-18
 -1      3518 9.42416E-05-2.65747E-05-2.90078E-05 2.94541E-06 2.48090E-19 9.07011E-20
 -1      3519 9.41561E-05-2.63799E-05-2.90422E-05 3.33707E-06-2.26615E-19-3.55957E-20
 -1      3520 9.33761E-05-2.57952E-05-2.89568E-05 3.39403E-06-2.69431E-20 9.87623E-19
 -1      3521 9.45215E-05-2.69773E-05-2.89537E-05 2.28501E-06 4.38501E-19 3.84602E-19
 -1      3522 9.44572E-05-2.68046E-05-2.89898E-05 2.60979E-06 6.60568E-19 6.35397E-19
 -1      3523 9.38611E-05-2.63242E-05-2.89395E-05 2.67448E-06 1.57837E-19 1.25323E-18
 -1      3524 9.47336E-05-2.73208E-05-2.88962E-05 1.74477E-06-3.41702E-20 4.20259E-19
 -1      3525 9.46872E-05-2.71734E-05-2.89308E-05 2.00956E-06 4.30111E-19 2.79638E-19
 -1      3526 9.42383E-05-2.67854E-05-2.89048E-05 2.07664E-06 2.66495E-19 5.04679E-19
 -1      3527 9.48912E-05-2.76060E-05-2.88404E-05 1.30971E-06-9.86058E-19 8.62851E-19
 -1      3528 9.48588E-05-2.74835E-05-2.88720E-05 1.52203E-06-4.34711E-19 9.24095E-19
 -1      3529 9.45262E-05-2.71754E-05-2.88621E-05 1.58692E-06-1.14784E-19 8.71778E-19
 -1      3530 9.50064E-05-2.78378E-05-2.87895E-05 9.64879E-07-1.04783E-18-6.41866E-20
 -1      3531 9.49843E-05-2.77382E-05-2.88171E-05 1.13237E-06-9.50892E-19 5.23646E-19
 -1      3532 9.47423E-05-2.74975E-05-2.88175E-05 1.19191E-06-5.60977E-19 1.33379E-18
 -1      3533 9.50890E-05-2.80231E-05-2.87448E-05 6.95950E-07-3.21516E-19-2.14142E-19
 -1      3534 9.50744E-05-2.79434E-05-2.87682E-05 8.25926E-07-3.70236E-19-3.71680E-19
 -1      3535 9.49020E-05-2.77583E-05-2.87747E-05 8.78336E-07-4.95605E-19 8.85518E-20
 -1      3536 9.51472E-05-2.81687E-05-2.87068E-05 4.89677E-07 1.54948E-20-7.58007E-19
 -1      3537 9.51379E-05-2.81060E-05-2.87261E-05 5.88865E-07-4.72555E-19-7.25005E-19
 -1      3538 9.50182E-05-2.79660E-05-2.87359E-05 6.33479E-07-1.87616E-19-5.15879E-19
 -1      3539 9.51874E-05-2.82815E-05-2.86752E-05 3.34199E-07 9.05935E-19-1.44734E-18
 -1      3540 9.51818E-05-2.82329E-05-2.86909E-05 4.08570E-07 5.62445E-19-1.14605E-18
 -1      3541 9.51011E-05-2.81288E-05-2.87020E-05 4.45498E-07 7.60903E-19-1.93573E-18
 -1      3542 9.52144E-05-2.83676E-05-2.86496E-05 2.19193E-07 5.00895E-19-3.69171E-19
 -1      3543 9.52112E-05-2.83305E-05-2.86620E-05 2.73901E-07 5.19769E-19-1.16144E-18
 -1      3544 9.51592E-05-2.82545E-05-2.86732E-05 3.03732E-07 6.75505E-19-1.53813E-18
 -1      3545 9.52319E-05-2.84322E-05-2.86291E-05 1.35887E-07-6.86441E-20 4.47492E-19
 -1      3546 9.52303E-05-2.84043E-05-2.86388E-05 1.75276E-07 3.92831E-19 3.55360E-19
 -1      3547 9.51987E-05-2.83501E-05-2.86493E-05 1.98850E-07-3.44787E-19-1.33011E-19
 -1      3548 9.52426E-05-2.84798E-05-2.86131E-05 7.69884E-08-2.27132E-19 1.84828E-19
 -1      3549 9.52420E-05-2.84592E-05-2.86205E-05 1.04644E-07 1.79348E-19 1.11595E-18
 -1      3550 9.52248E-05-2.84215E-05-2.86299E-05 1.22893E-07-3.90436E-19 1.07704E-18
 -1      3551 9.52486E-05-2.85142E-05-2.86008E-05 3.65522E-08 3.64303E-19 6.36808E-19
 -1      3552 9.52487E-05-2.84993E-05-2.86064E-05 5.53786E-08-7.15828E-20 1.50544E-20
 -1      3553 9.52412E-05-2.84740E-05-2.86145E-05 6.92242E-08 1.79253E-19 1.55768E-19
 -1      3554 9.52515E-05-2.85386E-05-2.85915E-05 9.82037E-09 6.33628E-19 1.29137E-18
 -1      3555 9.52519E-05-2.85280E-05-2.85956E-05 2.21289E-08 3.38550E-19 1.62277E-18
 -1      3556 9.52507E-05-2.85117E-05-2.86024E-05 3.24195E-08-3.25531E-19 1.20784E-18
 -1      3557 9.52523E-05-2.85553E-05-2.85845E-05-6.94870E-09 1.22255E-18 2.68378E-18
 -1      3558 9.52529E-05-2.85480E-05-2.85875E-05 6.49368E-10 1.57200E-18 1.77313E-18
 -1      3559 9.52555E-05-2.85382E-05-2.85932E-05 8.13183E-09 8.51729E-19 2.00209E-18
 -1      3560 9.52518E-05-2.85664E-05-2.85795E-05-1.66464E-08 7.57080E-19 2.55062E-18
 -1      3561 9.52525E-05-2.85615E-05-2.85816E-05-1.23693E-08 1.11464E-18 2.52362E-18
 -1      3562 9.52572E-05-2.85562E-05-2.85862E-05-7.06030E-09 1.40271E-18 3.79790E-18
 -1      3563 9.52505E-05-2.85733E-05-2.85760E-05-2.14674E-08 6.11874E-20 2.05400E-18
 -1      3564 9.52512E-05-2.85703E-05-2.85774E-05-1.94619E-08 7.24309E-19 2.70104E-18
 -1      3565 9.52570E-05-2.85680E-05-2.85810E-05-1.58020E-08 7.34388E-19 3.80187E-18
 -1      3566 9.52489E-05-2.85773E-05-2.85735E-05-2.30464E-08-1.12294E-18 1.55559E-18
 -1      3567 9.52495E-05-2.85756E-05-2.85745E-05-2.25353E-08-4.73561E-19 1.95044E-18
 -1      3568 9.52555E-05-2.85753E-05-2.85773E-05-2.01010E-08 1.69472E-19 2.81086E-18
 -1      3569 9.52471E-05-2.85794E-05-2.85719E-05-2.25757E-08-1.91863E-18 7.84741E-19
 -1      3570 9.52477E-05-2.85785E-05-2.85725E-05-2.29953E-08-1.86355E-18 1.22014E-18
 -1      3571 9.52534E-05-2.85794E-05-2.85746E-05-2.14521E-08-9.44425E-19 2.06857E-18
 -1      3572 9.52454E-05-2.85800E-05-2.85709E-05-2.09039E-08-1.32450E-19-4.24210E-19
 -1      3573 9.52459E-05-2.85797E-05-2.85712E-05-2.18558E-08-9.92785E-19 4.38100E-19
 -1      3574 9.52511E-05-2.85813E-05-2.85728E-05-2.09447E-08-1.09619E-18-8.24201E-19
 -1      3575 9.52438E-05-2.85799E-05-2.85703E-05-1.86172E-08 2.82154E-19-6.17759E-19
 -1      3576 9.52443E-05-2.85799E-05-2.85704E-05-1.98287E-08 1.30425E-19-3.88936E-19
 -1      3577 9.52488E-05-2.85818E-05-2.85716E-05-1.93535E-08 3.32117E-19-4.32648E-19
 -1      3578 9.52424E-05-2.85792E-05-2.85699E-05-1.61041E-08 1.36290E-19-1.39027E-18
 -1      3579 9.52428E-05-2.85795E-05-2.85700E-05-1.73969E-08 5.39450E-19-9.68225E-19
 -1      3580 9.52466E-05-2.85814E-05-2.85708E-05-1.72125E-08 3.42837E-19-9.60082E-19
 -1      3581 9.52412E-05-2.85783E-05-2.85698E-05-1.36077E-08-9.30125E-19-9.87097E-19
 -1      3582 9.52415E-05-2.85787E-05-2.85698E-05-1.48724E-08-6.19877E-19-1.73234E-18
 -1      3583 9.52446E-05-2.85805E-05-2.85704E-05-1.48748E-08-8.39108E-20-1.09551E-18
 -1      3584 9.52403E-05-2.85774E-05-2.85698E-05-1.12664E-08-5.02406E-19-1.63812E-18
 -1      3585 9.52405E-05-2.85778E-05-2.85697E-05-1.24442E-08-8.16097E-19-8.59251E-19
 -1      3586 9.52429E-05-2.85794E-05-2.85701E-05-1.25621E-08-1.31031E-18-9.09891E-19
 -1      3587 9.52395E-05-2.85766E-05-2.85698E-05-9.14400E-09 1.20930E-18-1.17608E-18
 -1      3588 9.52396E-05-2.85769E-05-2.85697E-05-1.01997E-08 8.69578E-19-1.19852E-18
 -1      3589 9.52416E-05-2.85783E-05-2.85700E-05-1.04054E-08 1.01790E-19-3.88501E-18
 -1      3590 9.52439E-05-2.85802E-05-2.85702E-05-3.99453E-09 1.06153E-18 1.40817E-18
 -1      3591 1.17099E-04-5.05394E-05-2.85000E-05 1.57193E-05-1.51055E-18-1.68456E-18
 -1      3592 1.12462E-04-5.05649E-05-2.64534E-05 2.26891E-05-2.04363E-18-1.61528E-18
 -1      3593 6.64999E-05-2.08882E-05-1.92663E-05 2.22098E-05-1.36896E-18 1.54753E-18
 -1      3594 5.92624E-05-1.53864E-05-1.86955E-05 1.36284E-05-8.52989E-19 1.66966E-18
 -1      3595 1.04284E-04-4.51226E-05-2.53625E-05 2.39342E-05-1.98343E-18-1.16033E-18
 -1      3596 1.23457E-04-4.15640E-05-3.53794E-05 7.41774E-06-7.90176E-19-3.06503E-18
 -1      3597 1.03567E-04-4.32306E-05-2.57791E-05 2.20951E-05-1.82255E-18-1.08449E-18
 -1      3598 9.75789E-05-4.04185E-05-2.42689E-05 2.54511E-05-2.08633E-18-4.63512E-19
 -1      3599 8.99240E-05-3.53229E-05-2.34434E-05 2.53590E-05-1.86996E-18-9.21810E-20
 -1      3600 1.02608E-04-4.31966E-05-2.53803E-05-2.24729E-05 2.18826E-18-8.42004E-19
 -1      3601 1.10402E-04-4.72890E-05-2.71045E-05-1.86104E-05 2.13889E-18-1.26397E-18
 -1      3602 9.52428E-05-2.85792E-05-2.85701E-05 7.25769E-09-6.92502E-19-2.79637E-18
 -1      3603 9.52437E-05-2.85799E-05-2.85702E-05 6.29646E-09-1.06120E-18-2.29914E-18
 -1      3604 9.52408E-05-2.85777E-05-2.85699E-05 8.69411E-09-5.83157E-20-1.91951E-18
 -1      3605 1.24077E-04-4.60467E-05-3.34677E-05 2.28663E-06-7.38375E-20-2.97657E-18
 -1      3606 9.52400E-05-2.85769E-05-2.85699E-05-6.73568E-09 5.51734E-19-6.52678E-18
 -1      3607 9.52392E-05-2.85762E-05-2.85698E-05-6.93565E-09 7.11414E-19-4.04539E-18
 -1      3608 9.52392E-05-2.85762E-05-2.85698E-05-7.54246E-09-4.48828E-20-2.19949E-18
 -1      3609 9.52409E-05-2.85777E-05-2.85699E-05-7.12878E-09 1.59464E-18-6.46489E-18
 -1      3610 1.22106E-04-4.78053E-05-3.18347E-05-1.39797E-06 8.65008E-19-2.44382E-18
 -1      3611 9.15160E-05-2.52272E-05-2.84247E-05 1.04567E-05-4.23046E-19 7.47592E-19
 -1      3612 9.19548E-05-2.59209E-05-2.82644E-05 1.13596E-05-5.45180E-19 6.52978E-19
 -1      3613 8.88194E-05-2.47502E-05-2.74706E-05 1.20886E-05-5.40885E-19 7.93280E-19
 -1      3614 8.93588E-05-2.38520E-05-2.80697E-05 9.73121E-06-9.94910E-20 9.16132E-19
 -1      3615 1.14429E-04-4.83847E-05-2.81254E-05-1.46017E-05 1.98506E-18-1.71690E-18
 -1      3616 1.19839E-04-4.90155E-05-3.04599E-05-7.35728E-06 1.17023E-18-2.37773E-18
 -1      3617 1.21155E-04-2.85884E-05-4.01405E-05-1.68787E-05-2.45801E-18 1.28204E-18
 -1      3618 6.04869E-05-1.49707E-05-1.92680E-05-1.06883E-05 6.72690E-19 2.39647E-18
 -1      3619 1.10406E-04-4.55485E-05-2.78108E-05-1.45436E-05 1.44933E-18-1.29366E-18
 -1      3620 1.32457E-04-3.55792E-05-4.20024E-05 1.99090E-05 2.58462E-18 3.23492E-18
 -1      3621 7.58031E-05-2.55818E-05-2.12521E-05-2.34973E-05 2.15967E-18 1.43741E-18
 -1      3622 8.32613E-05-2.95800E-05-2.30437E-05-2.25925E-05 1.85122E-18 1.15346E-18
 -1      3623 7.27563E-05-2.22237E-05-2.16217E-05-1.92802E-05 1.27047E-18 1.61439E-18
 -1      3624 9.52453E-05-2.85811E-05-2.85704E-05-3.75242E-09 1.44870E-18 2.71409E-18
 -1      3625 9.52446E-05-2.85806E-05-2.85703E-05-5.00844E-09 1.31883E-18 6.87495E-19
 -1      3626 7.53959E-05-2.50263E-05-2.13729E-05 2.20671E-05-1.51436E-18 1.15527E-18
 -1      3627 9.52391E-05-2.85762E-05-2.85698E-05-8.18211E-09 2.18314E-19-1.43584E-18
 -1      3628 1.10173E-04-4.53914E-05-2.75438E-05 1.76703E-05-1.41471E-18-1.30269E-18
 -1      3629 9.52405E-05-2.85774E-05-2.85699E-05-8.39783E-09 9.16608E-19-4.11633E-18
 -1      3630 9.52452E-05-2.85810E-05-2.85704E-05-5.94232E-09 1.19079E-18-1.18144E-18
 -1      3631 9.52439E-05-2.85800E-05-2.85702E-05-6.09537E-09 1.83629E-18-2.78742E-18
 -1      3632 9.52430E-05-2.85794E-05-2.85701E-05-6.91607E-09 2.16539E-18-5.22446E-18
 -1      3633 9.52460E-05-2.85816E-05-2.85704E-05-7.87870E-10-4.19983E-19 1.99393E-18
 -1      3634 9.52457E-05-2.85815E-05-2.85704E-05-2.19908E-09 7.34470E-19 2.51934E-18
 -1      3635 9.52466E-05-2.85820E-05-2.85706E-05-3.24019E-09 1.04503E-18 2.14066E-18
 -1      3636 1.23692E-04-3.95912E-05-3.64681E-05-1.14206E-05-1.19547E-18 1.44764E-18
 -1      3637 6.60000E-05-1.67957E-05-2.10366E-05 1.26560E-05-1.07100E-18 9.04247E-19
 -1      3638 5.89388E-05-1.37142E-05-1.90718E-05 8.79669E-06-7.94603E-19 2.05106E-18
 -1      3639 5.96497E-05-1.32961E-05-1.98979E-05 3.23496E-06-6.69130E-19 2.28511E-18
 -1      3640 9.24698E-05-3.31215E-05-2.54392E-05 2.03529E-05-1.17084E-18-1.33236E-19
 -1      3641 9.94650E-05-3.72472E-05-2.65605E-05 1.89849E-05-1.06740E-18-4.66603E-19
 -1      3642 9.82647E-05-3.99311E-05-2.48855E-05-2.30387E-05 1.98572E-18-3.45034E-19
 -1      3643 1.02510E-04-4.09516E-05-2.63357E-05-1.83893E-05 1.53012E-18-6.08587E-19
 -1      3644 9.34428E-05-3.59496E-05-2.45718E-05-2.21143E-05 1.97681E-18 2.04267E-19
 -1      3645 9.52451E-05-2.85809E-05-2.85704E-05 6.18589E-09-1.13401E-18-5.09840E-19
 -1      3646 9.52446E-05-2.85806E-05-2.85703E-05 5.02975E-09-1.08450E-18-3.89287E-19
 -1      3647 9.52453E-05-2.85811E-05-2.85704E-05 3.78408E-09-8.48879E-19 1.09127E-18
 -1      3648 1.03573E-04-4.15331E-05-2.65682E-05 1.96956E-05-1.17101E-18-8.44565E-19
 -1      3649 9.52417E-05-2.85784E-05-2.85700E-05 9.68886E-09-1.37772E-18-1.29550E-18
 -1      3650 9.52425E-05-2.85790E-05-2.85701E-05 7.92861E-09-1.33680E-18-2.63940E-18
 -1      3651 9.52457E-05-2.85814E-05-2.85704E-05 2.24232E-09-1.02841E-18 2.07916E-18
 -1      3652 9.52460E-05-2.85816E-05-2.85704E-05 8.42882E-10-3.32832E-19 2.39908E-18
 -1      3653 9.52471E-05-2.85823E-05-2.85706E-05 2.66846E-11 3.44968E-19 2.19522E-18
 -1      3654 9.52465E-05-2.85820E-05-2.85706E-05 3.28670E-09-5.31950E-19 1.13462E-18
 -1      3655 9.52436E-05-2.85797E-05-2.85702E-05 9.55872E-09-1.38790E-18-1.44182E-18
 -1      3656 9.56832E-05-3.23237E-05-2.70968E-05-1.31951E-05 5.34790E-19-3.24762E-19
 -1      3657 9.38462E-05-3.03262E-05-2.72087E-05-1.23630E-05 5.65213E-19-3.26386E-19
 -1      3658 9.31040E-05-2.89064E-05-2.74668E-05-1.09676E-05 7.59258E-19-6.42134E-19
 -1      3659 9.20930E-05-2.76509E-05-2.76188E-05-1.00959E-05 7.14721E-19-7.66303E-19
 -1      3660 9.07197E-05-2.81581E-05-2.68378E-05-1.24410E-05 3.19310E-19 6.45962E-20
 -1      3661 9.19059E-05-2.68495E-05-2.78506E-05-8.95938E-06 5.41429E-19-6.08264E-19
 -1      3662 9.14320E-05-2.61318E-05-2.79931E-05-8.16699E-06 5.03727E-20-6.00242E-20
 -1      3663 8.99244E-05-2.60741E-05-2.73800E-05-9.76064E-06 8.18577E-19-6.67035E-19
 -1      3664 9.15468E-05-2.57488E-05-2.81790E-05-7.26098E-06-1.25663E-19 4.90572E-19
 -1      3665 9.13970E-05-2.54032E-05-2.82927E-05-6.57828E-06 1.27316E-19 7.75701E-19
 -1      3666 8.99237E-05-2.49991E-05-2.78299E-05-7.65740E-06 2.56851E-19 3.49976E-19
 -1      3667 9.16631E-05-2.52929E-05-2.84310E-05-5.85802E-06-2.53351E-19 5.20727E-19
 -1      3668 9.16976E-05-2.51916E-05-2.85124E-05-5.27884E-06-6.88075E-19 5.02306E-19
 -1      3669 9.03408E-05-2.45944E-05-2.81758E-05-6.02114E-06-1.60021E-19 8.17861E-19
 -1      3670 9.20261E-05-2.52519E-05-2.86087E-05-4.70408E-06-3.10124E-19 5.22032E-19
 -1      3671 9.21552E-05-2.53012E-05-2.86609E-05-4.21540E-06 1.30426E-19 7.56889E-19
 -1      3672 9.09533E-05-2.46172E-05-2.84256E-05-4.73972E-06-4.31740E-19 1.68585E-19
 -1      3673 9.24932E-05-2.54588E-05-2.87231E-05-3.75388E-06 9.25201E-20 1.01582E-18
 -1      3674 9.26612E-05-2.55929E-05-2.87518E-05-3.34280E-06 1.19796E-21 6.91156E-19
 -1      3675 9.16273E-05-2.48932E-05-2.85950E-05-3.72702E-06 1.07249E-19 9.25358E-19
 -1      3676 9.29797E-05-2.57982E-05-2.87880E-05-2.97042E-06 5.07548E-20 6.71114E-19
 -1      3677 9.31538E-05-2.59727E-05-2.87991E-05-2.62667E-06 9.41613E-19 2.58399E-19
 -1      3678 9.22859E-05-2.53034E-05-2.87013E-05-2.91870E-06-2.00879E-19 8.65953E-19
 -1      3679 9.34376E-05-2.61927E-05-2.88162E-05-2.32635E-06 1.17073E-18-4.26164E-19
 -1      3680 9.35999E-05-2.63787E-05-2.88152E-05-2.04149E-06 8.83660E-19-2.23339E-19
 -1      3681 9.28874E-05-2.57679E-05-2.87604E-05-2.27009E-06 6.89868E-19 5.55246E-19
 -1      3682 9.38423E-05-2.65922E-05-2.88192E-05-1.80032E-06 1.09540E-18 1.31908E-19
 -1      3683 9.39840E-05-2.67717E-05-2.88104E-05-1.56680E-06 6.12814E-19 7.61360E-19
 -1      3684 9.34116E-05-2.62344E-05-2.87857E-05-1.74979E-06 1.11694E-18-4.08660E-19
 -1      3685 9.41845E-05-2.69666E-05-2.88059E-05-1.37441E-06-1.75660E-19 8.73467E-19
 -1      3686 9.43027E-05-2.71294E-05-2.87928E-05-1.18537E-06-7.35523E-20 9.10994E-19
 -1      3687 9.38520E-05-2.66707E-05-2.87882E-05-1.33377E-06 3.37011E-19 1.84837E-19
 -1      3688 9.44641E-05-2.72998E-05-2.87833E-05-1.03329E-06-5.18914E-20 9.98960E-19
 -1      3689 9.45592E-05-2.74414E-05-2.87682E-05-8.82349E-07-4.88700E-19 1.25929E-18
 -1      3690 9.42115E-05-2.70596E-05-2.87763E-05-1.00326E-06-2.23087E-20 1.20483E-18
 -1      3691 9.46860E-05-2.75855E-05-2.87562E-05-7.63498E-07-7.12191E-19 1.31708E-18
 -1      3692 9.47602E-05-2.77045E-05-2.87408E-05-6.44730E-07-4.78335E-19 1.26271E-18
 -1      3693 9.44975E-05-2.73939E-05-2.87563E-05-7.43066E-07-5.76762E-19 1.13200E-18
 -1      3694 9.48575E-05-2.78231E-05-2.87281E-05-5.53038E-07-7.28118E-19 1.29192E-18
 -1      3695 9.49138E-05-2.79205E-05-2.87135E-05-4.61033E-07-2.71323E-19 5.89874E-19
 -1      3696 9.47197E-05-2.76731E-05-2.87324E-05-5.40516E-07-8.53078E-19 7.71717E-19
 -1      3697 9.49867E-05-2.80158E-05-2.87010E-05-3.91309E-07-7.95038E-20-1.76591E-19
 -1      3698 9.50283E-05-2.80936E-05-2.86879E-05-3.21203E-07-9.26795E-20-4.17100E-19
 -1      3699 9.48883E-05-2.79004E-05-2.87077E-05-3.84862E-07-7.39384E-19-2.96142E-19
 -1      3700 9.50815E-05-2.81685E-05-2.86764E-05-2.69031E-07 2.18364E-19-5.32937E-19
 -1      3701 9.51114E-05-2.82293E-05-2.86649E-05-2.16553E-07 4.57870E-19-2.20489E-19
 -1      3702 9.50132E-05-2.80814E-05-2.86841E-05-2.66971E-07-2.23555E-19-9.24551E-19
 -1      3703 9.51492E-05-2.82869E-05-2.86548E-05-1.78213E-07 1.13368E-19 2.51027E-20
 -1      3704 9.51699E-05-2.83335E-05-2.86450E-05-1.39694E-07 3.36895E-20 7.06864E-19
 -1      3705 9.51035E-05-2.82225E-05-2.86626E-05-1.79118E-07 5.43823E-19-3.94184E-19
 -1      3706 9.51960E-05-2.83769E-05-2.86363E-05-1.12098E-07-3.94083E-19 8.06497E-19
 -1      3707 9.52097E-05-2.84118E-05-2.86283E-05-8.44469E-08-7.88552E-19 7.54471E-19
 -1      3708 9.51668E-05-2.83303E-05-2.86437E-05-1.14846E-07-2.95462E-19-2.93607E-19
 -1      3709 9.52270E-05-2.84439E-05-2.86210E-05-6.50686E-08-1.04816E-18 6.97172E-19
 -1      3710 9.52356E-05-2.84694E-05-2.86145E-05-4.57343E-08-1.09013E-18 2.63586E-19
 -1      3711 9.52097E-05-2.84110E-05-2.86277E-05-6.88165E-08-1.10463E-18 1.03871E-18
 -1      3712 9.52464E-05-2.84925E-05-2.86086E-05-3.25354E-08-6.56236E-19 7.70021E-19
 -1      3713 9.52514E-05-2.85107E-05-2.86034E-05-1.94512E-08 7.25136E-19 2.13030E-19
 -1      3714 9.52374E-05-2.84700E-05-2.86144E-05-3.66849E-08-6.03960E-19 1.24472E-18
 -1      3715 9.52576E-05-2.85269E-05-2.85987E-05-1.08144E-08 5.58130E-19-4.73026E-19
 -1      3716 9.52600E-05-2.85396E-05-2.85947E-05-2.33496E-09-4.60267E-19-1.37915E-18
 -1      3717 9.52541E-05-2.85122E-05-2.86036E-05-1.49624E-08-4.27958E-19 2.31401E-19
 -1      3718 9.52630E-05-2.85505E-05-2.85909E-05 3.00360E-09-6.00322E-19-1.99496E-18
 -1      3719 9.52637E-05-2.85590E-05-2.85879E-05 8.16487E-09-2.85426E-19-1.90395E-18
 -1      3720 9.52631E-05-2.85414E-05-2.85950E-05-8.91301E-10-4.11180E-19-1.26909E-18
 -1      3721 9.52645E-05-2.85660E-05-2.85850E-05 1.11765E-08-2.99465E-19-2.11975E-18
 -1      3722 9.52642E-05-2.85714E-05-2.85827E-05 1.40080E-08-6.04770E-19-1.62332E-18
 -1      3723 9.52669E-05-2.85609E-05-2.85883E-05 7.67487E-09-3.59067E-19-1.76139E-18
 -1      3724 9.52637E-05-2.85757E-05-2.85805E-05 1.54265E-08-2.46916E-19-1.35684E-18
 -1      3725 9.52627E-05-2.85789E-05-2.85788E-05 1.66736E-08 2.03618E-19-3.65444E-19
 -1      3726 9.52672E-05-2.85733E-05-2.85831E-05 1.23796E-08 2.81204E-19-1.80803E-18
 -1      3727 9.52615E-05-2.85812E-05-2.85772E-05 1.70429E-08-8.13106E-20-2.60834E-19
 -1      3728 9.52602E-05-2.85829E-05-2.85760E-05 1.72565E-08 3.59225E-19-5.67136E-19
 -1      3729 9.52654E-05-2.85806E-05-2.85792E-05 1.44595E-08 3.65214E-19-9.51397E-19
 -1      3730 9.52585E-05-2.85839E-05-2.85748E-05 1.69716E-08 7.16939E-19-3.15582E-19
 -1      3731 9.52571E-05-2.85845E-05-2.85740E-05 1.65496E-08 5.09106E-19-2.20415E-19
 -1      3732 9.52625E-05-2.85844E-05-2.85764E-05 1.48272E-08 6.23735E-19 7.03794E-19
 -1      3733 9.52553E-05-2.85846E-05-2.85731E-05 1.58904E-08 4.04525E-19-1.31809E-18
 -1      3734 9.52539E-05-2.85846E-05-2.85725E-05 1.51129E-08 8.54018E-19-1.46260E-18
 -1      3735 9.52590E-05-2.85858E-05-2.85743E-05 1.41419E-08-6.96766E-20-7.50383E-19
 -1      3736 9.52521E-05-2.85842E-05-2.85720E-05 1.42709E-08 1.59095E-18-1.16613E-18
 -1      3737 9.52508E-05-2.85838E-05-2.85716E-05 1.33279E-08 1.44700E-18 8.01224E-20
 -1      3738 9.52554E-05-2.85856E-05-2.85728E-05 1.28679E-08 1.73273E-18-4.06143E-19
 -1      3739 9.52492E-05-2.85831E-05-2.85712E-05 1.24302E-08 6.90245E-19-2.44436E-19
 -1      3740 9.52480E-05-2.85825E-05-2.85709E-05 1.14472E-08 5.76143E-19 1.71462E-20
 -1      3741 9.52520E-05-2.85846E-05-2.85718E-05 1.13204E-08 1.09515E-18-6.47681E-19
 -1      3742 9.52465E-05-2.85817E-05-2.85706E-05 1.05628E-08-8.98330E-19-7.39619E-19
 -1      3743 9.52455E-05-2.85810E-05-2.85705E-05 9.63882E-09-1.29477E-18-2.39057E-18
 -1      3744 9.52490E-05-2.85832E-05-2.85711E-05 9.70863E-09-5.50088E-19-1.73069E-18
 -1      3745 1.27838E-04-2.75455E-05-4.33935E-05-1.33797E-05 3.48808E-18-2.24104E-18
 -1      3746 9.12442E-05-2.41944E-05-2.87501E-05 4.47807E-06 1.22690E-19 1.56751E-18
 -1      3747 9.08326E-05-2.38766E-05-2.86928E-05 4.99251E-06 2.11849E-19 1.46770E-18
 -1      3748 9.01162E-05-2.34877E-05-2.85734E-05 5.50214E-06 3.87669E-19 9.32542E-19
 -1      3749 8.96506E-05-2.32161E-05-2.84666E-05 6.11394E-06 4.29010E-19 7.46859E-19
 -1      3750 8.94650E-05-2.30348E-05-2.84519E-05 4.65674E-06 6.20330E-20 1.42134E-18
 -1      3751 8.87935E-05-2.28741E-05-2.82751E-05 6.75119E-06 5.09887E-19 6.41774E-19
 -1      3752 8.83154E-05-2.27247E-05-2.80992E-05 7.50077E-06 5.47876E-19 7.14910E-19
 -1      3753 8.79037E-05-2.22300E-05-2.81234E-05 5.70756E-06 1.77088E-19 1.63857E-18
 -1      3754 9.21762E-05-2.49038E-05-2.88427E-05 3.61869E-06 4.20262E-19 1.90841E-18
 -1      3755 9.18321E-05-2.45841E-05-2.88189E-05 4.05594E-06 6.96051E-19 2.04762E-18
 -1      3756 9.07560E-05-2.38648E-05-2.86533E-05 3.79962E-06 2.32962E-19 2.02784E-18
 -1      3757 9.29271E-05-2.55638E-05-2.88794E-05 2.89227E-06 2.71909E-19 1.01624E-18
 -1      3758 9.26499E-05-2.52666E-05-2.88772E-05 3.26376E-06 3.82123E-19 1.42947E-18
 -1      3759 9.18055E-05-2.46573E-05-2.87667E-05 3.07999E-06 4.53306E-19 1.87498E-18
 -1      3760 9.35211E-05-2.61506E-05-2.88807E-05 2.28059E-06 1.45405E-19 1.20329E-18
 -1      3761 9.33035E-05-2.58869E-05-2.88914E-05 2.59324E-06-4.85451E-20 5.47852E-19
 -1      3762 9.26454E-05-2.53767E-05-2.88209E-05 2.46871E-06 1.69025E-19 5.06490E-19
 -1      3763 9.39834E-05-2.66554E-05-2.88609E-05 1.77131E-06 5.83470E-19 5.48608E-19
 -1      3764 9.38160E-05-2.64291E-05-2.88786E-05 2.03086E-06 6.89001E-19 8.20372E-19
 -1      3765 9.33086E-05-2.60082E-05-2.88365E-05 1.95143E-06 6.05691E-19 4.68608E-19
 -1      3766 9.43378E-05-2.70789E-05-2.88301E-05 1.35334E-06-5.13993E-19 1.05251E-18
 -1      3767 9.42113E-05-2.68895E-05-2.88507E-05 1.56549E-06 1.30158E-20 9.61239E-19
 -1      3768 9.38252E-05-2.65477E-05-2.88283E-05 1.51870E-06 1.22464E-19 7.13822E-19
 -1      3769 9.46057E-05-2.74268E-05-2.87948E-05 1.01569E-06-7.96167E-19 1.22842E-18
 -1      3770 9.45115E-05-2.72716E-05-2.88157E-05 1.18628E-06-6.98341E-19 1.19684E-18
 -1      3771 9.42221E-05-2.69983E-05-2.88066E-05 1.16205E-06-5.89708E-19 1.19639E-18
 -1      3772 9.48052E-05-2.77077E-05-2.87590E-05 7.47394E-07-2.42628E-19 2.93118E-19
 -1      3773 9.47363E-05-2.75826E-05-2.87788E-05 8.82302E-07-3.15331E-19 9.09278E-19
 -1      3774 9.45230E-05-2.73676E-05-2.87782E-05 8.72917E-07-6.34582E-19 8.15387E-19
 -1      3775 9.49516E-05-2.79308E-05-2.87255E-05 5.37821E-07 3.36821E-19-3.79349E-19
 -1      3776 9.49019E-05-2.78316E-05-2.87432E-05 6.42712E-07 2.49571E-19 3.04903E-19
 -1      3777 9.47478E-05-2.76651E-05-2.87478E-05 6.42566E-07 2.95215E-19 2.73376E-19
 -1      3778 9.50570E-05-2.81052E-05-2.86954E-05 3.76976E-07 1.04430E-18-9.52278E-19
 -1      3779 9.50220E-05-2.80278E-05-2.87108E-05 4.57113E-07 4.68788E-19-7.75924E-19
 -1      3780 9.49132E-05-2.79010E-05-2.87182E-05 4.62287E-07 6.35133E-19 2.32338E-19
 -1      3781 9.51315E-05-2.82395E-05-2.86693E-05 2.55790E-07 5.26395E-19-3.18246E-19
 -1      3782 9.51074E-05-2.81800E-05-2.86823E-05 3.15896E-07 1.19280E-18-4.48759E-19
 -1      3783 9.50327E-05-2.80852E-05-2.86909E-05 3.23754E-07 6.60927E-19 2.64318E-19
 -1      3784 9.51828E-05-2.83413E-05-2.86473E-05 1.66282E-07-6.33050E-19 1.46917E-19
 -1      3785 9.51666E-05-2.82963E-05-2.86580E-05 2.10474E-07-1.95468E-19 1.63314E-19
 -1      3786 9.51173E-05-2.82267E-05-2.86668E-05 2.19313E-07-1.55988E-19 1.80938E-19
 -1      3787 9.52170E-05-2.84171E-05-2.86292E-05 1.01617E-07-2.82526E-19 2.40655E-19
 -1      3788 9.52066E-05-2.83836E-05-2.86379E-05 1.33389E-07-5.68946E-19 5.75126E-20
 -1      3789 9.51756E-05-2.83336E-05-2.86461E-05 1.42168E-07-4.73164E-19 7.85852E-19
 -1      3790 9.52387E-05-2.84724E-05-2.86146E-05 5.60811E-08 1.59861E-19-1.70670E-20
 -1      3791 9.52324E-05-2.84481E-05-2.86214E-05 7.83341E-08 7.04999E-19-1.09008E-19
 -1      3792 9.52145E-05-2.84131E-05-2.86289E-05 8.64608E-08 2.01829E-19 7.90890E-21
 -1      3793 9.52517E-05-2.85121E-05-2.86030E-05 2.50015E-08-4.12657E-19 2.60841E-19
 -1      3794 9.52482E-05-2.84947E-05-2.86083E-05 4.00922E-08-7.63429E-19-5.40865E-20
 -1      3795 9.52392E-05-2.84709E-05-2.86149E-05 4.72749E-08-3.95687E-19-1.63229E-20
 -1      3796 9.52585E-05-2.85397E-05-2.85940E-05 4.63025E-09 8.85232E-19 1.24102E-18
 -1      3797 9.52570E-05-2.85276E-05-2.85981E-05 1.44387E-08 1.33811E-19 8.03000E-19
 -1      3798 9.52540E-05-2.85122E-05-2.86036E-05 2.05763E-08-3.43652E-19 1.63493E-19
 -1      3799 9.52612E-05-2.85583E-05-2.85871E-05-7.98079E-09 3.45919E-19 3.09380E-18
 -1      3800 9.52610E-05-2.85502E-05-2.85902E-05-1.98262E-09 5.22212E-19 1.82691E-18
 -1      3801 9.52617E-05-2.85407E-05-2.85947E-05 3.12506E-09-4.01100E-19 3.93107E-19
 -1      3802 9.52613E-05-2.85703E-05-2.85819E-05-1.51083E-08 7.58703E-19 3.36061E-18
 -1      3803 9.52618E-05-2.85651E-05-2.85842E-05-1.17888E-08 1.25150E-18 3.58863E-18
 -1      3804 9.52648E-05-2.85598E-05-2.85879E-05-7.63024E-09 4.37661E-19 2.91459E-18
 -1      3805 9.52598E-05-2.85775E-05-2.85781E-05-1.84773E-08 2.58939E-19 2.61865E-18
 -1      3806 9.52607E-05-2.85744E-05-2.85797E-05-1.69827E-08 6.63719E-19 3.57267E-18
 -1      3807 9.52649E-05-2.85721E-05-2.85827E-05-1.36603E-08 7.45979E-19 3.60707E-18
 -1      3808 9.52574E-05-2.85815E-05-2.85754E-05-1.93691E-08-3.96602E-19 1.66730E-18
 -1      3809 9.52585E-05-2.85798E-05-2.85765E-05-1.90678E-08-2.25300E-20 2.78359E-18
 -1      3810 9.52631E-05-2.85793E-05-2.85788E-05-1.64582E-08 8.34522E-20 2.97719E-18
 -1      3811 9.52546E-05-2.85832E-05-2.85734E-05-1.87145E-08 6.82513E-20-6.38427E-19
 -1      3812 9.52558E-05-2.85825E-05-2.85742E-05-1.91498E-08-7.40144E-20 2.48786E-19
 -1      3813 9.52603E-05-2.85832E-05-2.85760E-05-1.71316E-08 5.96133E-19 2.67899E-18
 -1      3814 9.52517E-05-2.85834E-05-2.85721E-05-1.71729E-08 1.82983E-19-3.98235E-19
 -1      3815 9.52529E-05-2.85834E-05-2.85726E-05-1.80232E-08-1.91065E-20-3.38388E-19
 -1      3816 9.52571E-05-2.85847E-05-2.85739E-05-1.64846E-08 2.97398E-19 4.94802E-19
 -1      3817 9.52490E-05-2.85827E-05-2.85712E-05-1.51972E-08 7.40449E-20 9.91355E-19
 -1      3818 9.52501E-05-2.85831E-05-2.85716E-05-1.62433E-08 4.21596E-19 3.16264E-19
 -1      3819 9.52538E-05-2.85847E-05-2.85725E-05-1.50871E-08-2.61653E-19 1.63288E-18
 -1      3820 9.52466E-05-2.85816E-05-2.85707E-05-1.30829E-08-6.45891E-19 9.91034E-19
 -1      3821 9.52475E-05-2.85821E-05-2.85709E-05-1.41827E-08-4.09023E-19 1.90849E-19
 -1      3822 9.52507E-05-2.85838E-05-2.85716E-05-1.33255E-08 1.21394E-19 2.59508E-18
 -1      3823 9.52445E-05-2.85803E-05-2.85703E-05-1.10175E-08-8.46677E-19-1.20870E-18
 -1      3824 9.52453E-05-2.85809E-05-2.85704E-05-1.20799E-08 8.25998E-20 1.61891E-19
 -1      3825 9.52479E-05-2.85825E-05-2.85709E-05-1.14579E-08-7.59539E-20 1.07431E-18
 -1      3826 8.28610E-05-2.87913E-05-2.29632E-05 2.30636E-05-1.54712E-18 3.77499E-19
 -1      3827 7.46782E-05-2.26984E-05-2.22767E-05 1.90283E-05-1.32851E-18 9.14332E-19
 -1      3828 8.45006E-05-2.36338E-05-2.61121E-05 1.35399E-05-1.01537E-18 7.73841E-19
 -1      3829 8.49380E-05-2.50195E-05-2.56000E-05 1.53833E-05-8.63795E-19 6.03990E-19
 -1      3830 6.07107E-05-1.32774E-05-2.00578E-05-5.42605E-06 1.61774E-19 2.14929E-18
 -1      3831 6.51196E-05-1.65994E-05-2.08450E-05-1.25344E-05 6.33202E-19 1.64036E-18
 -1      3832 1.06271E-04-4.22443E-05-2.73371E-05-1.51910E-05 1.17827E-18-8.22661E-19
 -1      3833 1.02056E-04-3.92903E-05-2.68647E-05-1.59661E-05 1.01966E-18-4.52838E-19
 -1      3834 9.52482E-05-2.85829E-05-2.85708E-05-2.71058E-09 1.11080E-18 1.81742E-18
 -1      3835 9.52476E-05-2.85826E-05-2.85707E-05-4.31459E-09 1.34992E-18 1.69428E-18
 -1      3836 9.52414E-05-2.85781E-05-2.85700E-05-8.03023E-09 1.53331E-18-5.27908E-18
 -1      3837 9.52427E-05-2.85791E-05-2.85701E-05-8.29269E-09 1.46449E-18-4.61469E-18
 -1      3838 6.42754E-05-1.44025E-05-2.12606E-05 3.07090E-07-4.52360E-19 1.66151E-18
 -1      3839 8.56684E-05-2.31942E-05-2.67323E-05 1.18170E-05-8.60021E-19 7.11279E-19
 -1      3840 8.15659E-05-2.14758E-05-2.57771E-05 1.18029E-05-7.60874E-19 1.00870E-18
 -1      3841 8.57894E-05-2.26140E-05-2.71137E-05 1.04844E-05-4.76228E-19 8.35212E-19
 -1      3842 1.00346E-04-3.74527E-05-2.69110E-05-1.52517E-05 6.69480E-19-1.40273E-19
 -1      3843 9.73993E-05-3.45662E-05-2.68770E-05-1.46582E-05 4.81431E-19-1.63828E-19
 -1      3844 9.52455E-05-2.85810E-05-2.85705E-05 8.87407E-09-1.86192E-18-2.93483E-18
 -1      3845 7.05795E-05-1.91922E-05-2.17929E-05-1.54093E-05 9.14723E-19 1.58999E-18
 -1      3846 7.64073E-05-2.26720E-05-2.30418E-05-1.67380E-05 9.92847E-19 1.47398E-18
 -1      3847 6.96320E-05-1.74661E-05-2.23800E-05-1.08102E-05 3.70021E-19 1.08687E-18
 -1      3848 7.81638E-05-2.30044E-05-2.35877E-05 1.70268E-05-1.00695E-18 8.81867E-19
 -1      3849 7.16837E-05-1.94558E-05-2.21848E-05 1.56536E-05-1.28389E-18 1.14263E-18
 -1      3850 9.52427E-05-2.85791E-05-2.85701E-05-9.10493E-09 1.54553E-18-4.87314E-18
 -1      3851 9.52433E-05-2.85796E-05-2.85702E-05-1.00636E-08 1.70914E-19-4.08377E-18
 -1      3852 9.52469E-05-2.85820E-05-2.85706E-05-5.78448E-09 1.44072E-18 2.23809E-19
 -1      3853 9.52459E-05-2.85814E-05-2.85705E-05-6.90730E-09 2.05506E-18-2.23982E-18
 -1      3854 9.52485E-05-2.85831E-05-2.85709E-05-5.33598E-09 2.72924E-18 1.13421E-18
 -1      3855 6.97507E-05-1.75412E-05-2.23641E-05 1.16127E-05-1.11399E-18 3.85049E-19
 -1      3856 8.57657E-05-2.73719E-05-2.50020E-05 1.83043E-05-8.04268E-19 4.22941E-19
 -1      3857 8.88145E-05-3.21669E-05-2.41373E-05 2.20796E-05-1.42696E-18 1.21417E-19
 -1      3858 9.52438E-05-2.85799E-05-2.85702E-05 8.09068E-09-2.27832E-18-2.80080E-18
 -1      3859 8.75622E-05-3.03522E-05-2.45415E-05-1.92854E-05 1.27061E-18 7.47960E-19
 -1      3860 9.20187E-05-3.39880E-05-2.47152E-05-2.08333E-05 1.59636E-18 5.03534E-19
 -1      3861 9.52485E-05-2.85832E-05-2.85708E-05-8.16549E-10 7.92598E-19 2.21816E-18
 -1      3862 9.52496E-05-2.85838E-05-2.85711E-05-1.91495E-09 2.22244E-18 1.57455E-18
 -1      3863 9.52485E-05-2.85832E-05-2.85708E-05 8.66470E-10 7.76524E-19 2.57624E-18
 -1      3864 8.73181E-05-2.25080E-05-2.78074E-05 8.34196E-06 2.83117E-19 4.56083E-19
 -1      3865 8.69201E-05-2.26076E-05-2.75411E-05 9.30494E-06 7.11905E-20 8.37376E-19
 -1      3866 8.39237E-05-2.11680E-05-2.68634E-05 8.94950E-06-3.48565E-19 2.12643E-19
 -1      3867 9.30434E-05-3.18044E-05-2.62711E-05-1.57079E-05 4.43437E-19 6.15045E-19
 -1      3868 9.52455E-05-2.85811E-05-2.85705E-05-9.63272E-09 1.28120E-18-3.32380E-18
 -1      3869 8.07738E-05-2.37747E-05-2.44325E-05 1.66708E-05-8.03114E-19 8.89616E-19
 -1      3870 9.52452E-05-2.85809E-05-2.85704E-05 7.83291E-09-2.38106E-18-2.36472E-18
 -1      3871 9.52455E-05-2.85811E-05-2.85705E-05 7.12862E-09-1.82900E-18-1.79949E-18
 -1      3872 9.52465E-05-2.85818E-05-2.85706E-05 5.78895E-09-1.29331E-18 2.23268E-19
 -1      3873 9.52473E-05-2.85822E-05-2.85707E-05 7.82246E-09-1.99629E-18-1.63787E-18
 -1      3874 8.60547E-05-2.15539E-05-2.76160E-05 7.06920E-06 2.21204E-19 6.99595E-19
 -1      3875 9.65473E-05-3.61856E-05-2.59670E-05-1.81836E-05 1.11616E-18-1.10716E-19
 -1      3876 9.52476E-05-2.85826E-05-2.85707E-05 4.37123E-09-3.72388E-19 4.94407E-19
 -1      3877 9.52482E-05-2.85829E-05-2.85708E-05 2.77560E-09-1.01931E-18 2.21971E-18
 -1      3878 9.52496E-05-2.85838E-05-2.85710E-05 1.97041E-09 5.31326E-21 9.04654E-19
 -1      3879 8.50724E-05-2.09191E-05-2.75279E-05 5.33949E-06-8.15335E-20 1.08475E-18
 -1      3880 8.40472E-05-2.05610E-05-2.72078E-05 6.02369E-06-2.66105E-19 7.97422E-19
 -1      3881 8.78269E-05-2.49092E-05-2.69289E-05-9.90718E-06 5.22206E-19-7.34239E-20
 -1      3882 8.76838E-05-2.42814E-05-2.71992E-05-8.72008E-06 5.65748E-19 5.92536E-20
 -1      3883 8.82900E-05-2.40474E-05-2.75096E-05-7.57253E-06 7.15634E-19-3.51267E-19
 -1      3884 8.84224E-05-2.37930E-05-2.77202E-05-6.66840E-06 5.09240E-19-2.67788E-19
 -1      3885 8.62179E-05-2.29789E-05-2.70941E-05-7.64493E-06 6.22048E-19-9.92840E-20
 -1      3886 8.90534E-05-2.38070E-05-2.79486E-05-5.82635E-06 6.06132E-20-4.86488E-20
 -1      3887 8.93303E-05-2.37948E-05-2.81041E-05-5.13134E-06-6.63605E-19-8.53097E-20
 -1      3888 8.74812E-05-2.29261E-05-2.76555E-05-5.70154E-06 3.26723E-19-6.40298E-19
 -1      3889 8.99320E-05-2.39572E-05-2.82665E-05-4.50757E-06-6.69635E-19 3.85523E-21
 -1      3890 9.02672E-05-2.40919E-05-2.83751E-05-3.96525E-06 9.08494E-20 4.52319E-20
 -1      3891 8.87246E-05-2.32226E-05-2.80607E-05-4.29505E-06-5.19630E-19-8.45453E-20
 -1      3892 9.08175E-05-2.43393E-05-2.84857E-05-3.49677E-06 2.91864E-19 2.53783E-19
 -1      3893 9.11590E-05-2.45530E-05-2.85570E-05-3.06899E-06 1.00320E-19 4.16719E-19
 -1      3894 8.98772E-05-2.37170E-05-2.83431E-05-3.25472E-06 1.64088E-19-3.09303E-19
 -1      3895 9.16445E-05-2.48377E-05-2.86287E-05-2.70980E-06-1.80828E-19 2.94428E-19
 -1      3896 9.19656E-05-2.50874E-05-2.86715E-05-2.36869E-06 2.98818E-20 3.68275E-19
 -1      3897 9.09080E-05-2.43110E-05-2.85319E-05-2.47860E-06 7.21691E-20-3.07385E-19
 -1      3898 9.23836E-05-2.53797E-05-2.87143E-05-2.09191E-06 1.11324E-19 6.23010E-19
 -1      3899 9.26691E-05-2.56355E-05-2.87364E-05-1.81905E-06 7.67120E-19 1.58821E-19
 -1      3900 9.18074E-05-2.49353E-05-2.86511E-05-1.88397E-06 1.65502E-19 1.14175E-19
 -1      3901 9.30195E-05-2.59141E-05-2.87586E-05-1.60490E-06 1.06992E-18-1.68667E-19
 -1      3902 9.32632E-05-2.61567E-05-2.87661E-05-1.38653E-06 9.15945E-19-3.89238E-19
 -1      3903 9.25708E-05-2.55430E-05-2.87192E-05-1.42883E-06 5.66327E-19-2.41398E-19
 -1      3904 9.35506E-05-2.64095E-05-2.87742E-05-1.22028E-06 8.12597E-19-1.94788E-19
 -1      3905 9.37521E-05-2.66284E-05-2.87723E-05-1.04617E-06 6.26780E-19 1.24380E-19
 -1      3906 9.32036E-05-2.61028E-05-2.87518E-05-1.07737E-06 9.49854E-19-1.40242E-19
 -1      3907 9.39831E-05-2.68494E-05-2.87712E-05-9.17368E-07 4.93623E-19 6.75748E-19
 -1      3908 9.41453E-05-2.70397E-05-2.87635E-05-7.79515E-07-8.45190E-20 1.18217E-18
 -1      3909 9.37176E-05-2.65993E-05-2.87604E-05-8.05321E-07 8.63153E-19 3.14711E-19
 -1      3910 9.43273E-05-2.72273E-05-2.87569E-05-6.80276E-07-1.07833E-18 1.75762E-18
 -1      3911 9.44547E-05-2.73877E-05-2.87461E-05-5.72163E-07-9.09789E-19 1.35637E-18
 -1      3912 9.41268E-05-2.70262E-05-2.87538E-05-5.95202E-07-2.12556E-19 9.72921E-19
 -1      3913 9.45952E-05-2.75430E-05-2.87365E-05-4.96316E-07-1.01979E-18 6.50302E-19
 -1      3914 9.46930E-05-2.76749E-05-2.87244E-05-4.12495E-07-1.12221E-18 7.57956E-19
 -1      3915 9.44463E-05-2.73838E-05-2.87383E-05-4.33769E-07-1.59417E-18 1.73245E-18
 -1      3916 9.47993E-05-2.78005E-05-2.87136E-05-3.55121E-07-1.22996E-18 3.14617E-19
 -1      3917 9.48726E-05-2.79064E-05-2.87016E-05-2.90981E-07-1.06807E-18-3.54404E-19
 -1      3918 9.46906E-05-2.76764E-05-2.87183E-05-3.10710E-07-1.37829E-18 8.33035E-19
 -1      3919 9.49514E-05-2.80059E-05-2.86907E-05-2.48119E-07-7.62249E-19-9.51425E-20
 -1      3920 9.50050E-05-2.80894E-05-2.86795E-05-1.99760E-07 1.06597E-19-3.26773E-19
 -1      3921 9.48738E-05-2.79109E-05-2.86968E-05-2.17847E-07-1.14969E-18 4.60198E-19
 -1      3922 9.50620E-05-2.81666E-05-2.86693E-05-1.68209E-07 7.82678E-19-9.43026E-19
 -1      3923 9.51001E-05-2.82310E-05-2.86592E-05-1.32348E-07 6.14903E-19-5.49606E-19
 -1      3924 9.50080E-05-2.80951E-05-2.86759E-05-1.48631E-07 1.72372E-19 3.46544E-19
 -1      3925 9.51402E-05-2.82898E-05-2.86500E-05-1.09528E-07 4.04388E-19-7.43934E-19
 -1      3926 9.51665E-05-2.83384E-05-2.86413E-05-8.34350E-08-4.85848E-19-2.64212E-19
 -1      3927 9.51039E-05-2.82369E-05-2.86565E-05-9.77975E-08 6.64541E-19-6.15920E-19
 -1      3928 9.51938E-05-2.83823E-05-2.86333E-05-6.72738E-08-8.68580E-19 9.20735E-20
 -1      3929 9.52112E-05-2.84183E-05-2.86260E-05-4.87048E-08-4.29016E-19 1.08367E-18
 -1      3930 9.51705E-05-2.83441E-05-2.86393E-05-6.11161E-08 9.49474E-20 8.72558E-19
 -1      3931 9.52290E-05-2.84503E-05-2.86193E-05-3.75550E-08-4.53380E-19 1.38604E-18
 -1      3932 9.52398E-05-2.84764E-05-2.86133E-05-2.46914E-08-4.86753E-19 1.21400E-18
 -1      3933 9.52150E-05-2.84234E-05-2.86246E-05-3.52065E-08-2.65005E-19 1.52128E-18
 -1      3934 9.52507E-05-2.84991E-05-2.86077E-05-1.72547E-08-9.61382E-19 1.08536E-18
 -1      3935 9.52570E-05-2.85175E-05-2.86029E-05-8.64347E-09-5.27817E-19 7.35968E-20
 -1      3936 9.52433E-05-2.84807E-05-2.86123E-05-1.73865E-08-9.04950E-19 1.91887E-18
 -1      3937 9.52630E-05-2.85332E-05-2.85984E-05-3.90883E-09-7.42874E-19-5.73887E-19
 -1      3938 9.52660E-05-2.85457E-05-2.85946E-05 1.59344E-09-7.98505E-19-1.64919E-19
 -1      3939 9.52600E-05-2.85211E-05-2.86022E-05-5.54816E-09-1.10719E-18 8.22348E-19
 -1      3940 9.52687E-05-2.85562E-05-2.85910E-05 4.40323E-09-5.15356E-19-1.20387E-18
 -1      3941 9.52696E-05-2.85643E-05-2.85881E-05 7.68248E-09-4.32764E-19-1.20686E-18
 -1      3942 9.52685E-05-2.85487E-05-2.85942E-05 1.94670E-09-9.59286E-19-6.13660E-19
 -1      3943 9.52701E-05-2.85710E-05-2.85853E-05 9.15630E-09-1.72823E-19-9.05513E-19
 -1      3944 9.52697E-05-2.85760E-05-2.85830E-05 1.08877E-08 4.22954E-19-9.18152E-19
 -1      3945 9.52717E-05-2.85667E-05-2.85878E-05 6.35483E-09 1.50745E-19-7.69923E-19
 -1      3946 9.52688E-05-2.85799E-05-2.85809E-05 1.14646E-08 6.87542E-19-1.31883E-18
 -1      3947 9.52675E-05-2.85827E-05-2.85792E-05 1.21537E-08 6.44964E-19-6.30866E-19
 -1      3948 9.52713E-05-2.85778E-05-2.85829E-05 8.62668E-09 7.62274E-19-3.36543E-19
 -1      3949 9.52659E-05-2.85846E-05-2.85777E-05 1.21547E-08 1.21707E-18-3.37128E-20
 -1      3950 9.52642E-05-2.85859E-05-2.85764E-05 1.21725E-08 9.28714E-19-1.32310E-19
 -1      3951 9.52688E-05-2.85841E-05-2.85792E-05 9.46933E-09 1.30155E-18-6.95663E-19
 -1      3952 9.52623E-05-2.85866E-05-2.85753E-05 1.18275E-08 9.32392E-20-2.59530E-19
 -1      3953 9.52604E-05-2.85869E-05-2.85744E-05 1.14401E-08 2.30587E-20 1.57853E-20
 -1      3954 9.52652E-05-2.85870E-05-2.85764E-05 9.39877E-09 3.94619E-19-1.10856E-18
 -1      3955 9.52584E-05-2.85868E-05-2.85735E-05 1.09102E-08 3.52929E-19-4.40137E-19
 -1      3956 9.52566E-05-2.85865E-05-2.85729E-05 1.03037E-08 1.21078E-18-1.46154E-18
 -1      3957 9.52612E-05-2.85877E-05-2.85744E-05 8.78307E-09-2.07954E-19-8.60551E-19
 -1      3958 9.52546E-05-2.85858E-05-2.85723E-05 9.69524E-09 1.30969E-18-1.58982E-18
 -1      3959 9.52529E-05-2.85852E-05-2.85719E-05 8.99675E-09 3.02486E-19-1.50216E-18
 -1      3960 9.52571E-05-2.85870E-05-2.85729E-05 7.88146E-09 3.80332E-19-2.24196E-18
 -1      3961 9.52511E-05-2.85844E-05-2.85714E-05 8.37779E-09 1.35833E-19-1.48048E-18
 -1      3962 9.52495E-05-2.85836E-05-2.85711E-05 7.68064E-09-3.83113E-19-1.49913E-18
 -1      3963 9.52532E-05-2.85856E-05-2.85719E-05 6.86708E-09 1.57284E-19-1.43620E-18
 -1      3964 8.89845E-05-2.27963E-05-2.83831E-05 3.60532E-06 7.02084E-20 1.26902E-18
 -1      3965 8.82612E-05-2.23574E-05-2.82483E-05 4.01753E-06-1.42434E-20 1.45529E-18
 -1      3966 7.76074E-05-2.08481E-05-2.42776E-05 1.36803E-05-8.13003E-19 1.04790E-18
 -1      3967 9.15330E-05-2.45529E-05-2.87161E-05 2.42128E-06 3.79002E-19 1.05114E-18
 -1      3968 9.10569E-05-2.41612E-05-2.86726E-05 2.72033E-06 5.18875E-19 1.17241E-18
 -1      3969 9.03986E-05-2.37108E-05-2.85934E-05 2.96716E-06 6.67890E-20 1.55628E-18
 -1      3970 8.98059E-05-2.32841E-05-2.85129E-05 3.31461E-06 6.60020E-20 1.46153E-18
 -1      3971 9.02489E-05-2.35990E-05-2.85489E-05 2.26507E-06 3.86174E-19 8.45637E-19
 -1      3972 8.72345E-05-2.18482E-05-2.80459E-05 4.36757E-06-7.86368E-20 1.37093E-18
 -1      3973 8.63632E-05-2.14246E-05-2.78340E-05 4.88085E-06 2.33766E-19 1.32118E-18
 -1      3974 8.69702E-05-2.15940E-05-2.79911E-05 3.23760E-06-9.07663E-20 1.02172E-18
 -1      3975 9.24375E-05-2.53054E-05-2.87792E-05 1.94932E-06 5.77773E-19 5.69391E-19
 -1      3976 9.20596E-05-2.49566E-05-2.87605E-05 2.20626E-06 3.83431E-19 8.05709E-19
 -1      3977 9.14175E-05-2.44734E-05-2.86783E-05 1.86750E-06 5.35263E-19 7.79795E-19
 -1      3978 9.31508E-05-2.59594E-05-2.88030E-05 1.54540E-06 5.98099E-19 1.13696E-19
 -1      3979 9.28548E-05-2.56574E-05-2.88001E-05 1.76398E-06 4.22151E-19 1.42279E-19
 -1      3980 9.23492E-05-2.52488E-05-2.87480E-05 1.51579E-06 8.35334E-19 7.22703E-19
 -1      3981 9.37068E-05-2.65146E-05-2.88020E-05 1.20463E-06-3.43618E-19 6.69695E-19
 -1      3982 9.34780E-05-2.62593E-05-2.88087E-05 1.38781E-06 3.48537E-19 4.69649E-19
 -1      3983 9.30840E-05-2.59189E-05-2.87780E-05 1.20937E-06 1.92481E-19 2.98887E-19
 -1      3984 9.41349E-05-2.69767E-05-2.87864E-05 9.22042E-07-1.05797E-18 7.12397E-19
 -1      3985 9.39605E-05-2.67650E-05-2.87983E-05 1.07292E-06-8.27659E-19 7.72287E-19
 -1      3986 9.36574E-05-2.64861E-05-2.87824E-05 9.47127E-07-2.87854E-19 5.64153E-19
 -1      3987 9.44603E-05-2.73545E-05-2.87630E-05 6.92054E-07 3.83212E-21 5.22600E-20
 -1      3988 9.43291E-05-2.71820E-05-2.87773E-05 8.14096E-07-3.19802E-19 5.95337E-19
 -1      3989 9.40996E-05-2.69572E-05-2.87713E-05 7.27337E-07-5.78675E-19 4.28414E-20
 -1      3990 9.47042E-05-2.76581E-05-2.87366E-05 5.08419E-07 1.66020E-19-9.33833E-20
 -1      3991 9.46070E-05-2.75200E-05-2.87514E-05 6.05334E-07 1.14746E-19-1.51897E-19
 -1      3992 9.44361E-05-2.73419E-05-2.87517E-05 5.47078E-07 2.55994E-19-2.91381E-19
 -1      3993 9.48840E-05-2.78984E-05-2.87101E-05 3.64586E-07 6.12299E-19-5.10183E-21
 -1      3994 9.48132E-05-2.77895E-05-2.87242E-05 4.40134E-07 4.64173E-19 3.07641E-20
 -1      3995 9.46885E-05-2.76507E-05-2.87283E-05 4.02362E-07 6.19929E-19 5.40485E-20
 -1      3996 9.50142E-05-2.80855E-05-2.86853E-05 2.54102E-07 6.18661E-19 2.21440E-19
 -1      3997 9.49636E-05-2.80009E-05-2.86980E-05 3.11891E-07 7.32399E-19 4.63120E-20
 -1      3998 9.48747E-05-2.78947E-05-2.87042E-05 2.88586E-07 5.91310E-19 3.59588E-19
 -1      3999 9.51066E-05-2.82289E-05-2.86630E-05 1.70926E-07-7.94282E-19 1.11324E-18
 -1      4000 9.50712E-05-2.81643E-05-2.86741E-05 2.14269E-07-3.87956E-19 9.72614E-19
 -1      4001 9.50096E-05-2.80845E-05-2.86811E-05 2.00976E-07-3.28436E-19 1.12601E-18
 -1      4002 9.51703E-05-2.83369E-05-2.86437E-05 1.09639E-07-1.18403E-19 1.47564E-18
 -1      4003 9.51463E-05-2.82884E-05-2.86531E-05 1.41466E-07-2.83532E-19 2.01308E-18
 -1      4004 9.51050E-05-2.82296E-05-2.86601E-05 1.34929E-07-7.97745E-19 1.96324E-18
 -1      4005 9.52128E-05-2.84169E-05-2.86274E-05 6.55423E-08 1.06400E-19 1.45976E-18
 -1      4006 9.51972E-05-2.83811E-05-2.86352E-05 8.83669E-08 2.51104E-20 1.28060E-18
 -1      4007 9.51708E-05-2.83387E-05-2.86418E-05 8.62399E-08 1.60264E-19 1.09967E-18
 -1      4008 9.52399E-05-2.84748E-05-2.86140E-05 3.46785E-08-4.67965E-19 7.24576E-19
 -1      4009 9.52303E-05-2.84490E-05-2.86203E-05 5.06003E-08 2.32956E-19 7.83324E-19
 -1      4010 9.52146E-05-2.84192E-05-2.86263E-05 5.12196E-08 2.26326E-19 1.35376E-18
 -1      4011 9.52561E-05-2.85159E-05-2.86032E-05 1.37959E-08-2.87357E-19 5.38178E-20
 -1      4012 9.52506E-05-2.84977E-05-2.86082E-05 2.45286E-08-7.74141E-19 3.52794E-19
 -1      4013 9.52424E-05-2.84774E-05-2.86134E-05 2.67373E-08-2.58222E-19 7.03047E-19
 -1      4014 9.52645E-05-2.85441E-05-2.85946E-05 2.82750E-10-3.43272E-19 9.12384E-19
 -1      4015 9.52620E-05-2.85317E-05-2.85986E-05 7.19595E-09-3.68902E-19 5.19437E-19
 -1      4016 9.52587E-05-2.85184E-05-2.86029E-05 1.02083E-08-7.76129E-19 9.42387E-20
 -1      4017 9.52678E-05-2.85628E-05-2.85880E-05-7.91564E-09-3.96248E-19 2.56405E-18
 -1      4018 9.52672E-05-2.85546E-05-2.85910E-05-3.74892E-09-8.19656E-19 1.55089E-18
 -1      4019 9.52672E-05-2.85464E-05-2.85946E-05-4.49562E-10-1.25398E-18 8.28281E-19
 -1      4020 9.52678E-05-2.85746E-05-2.85829E-05-1.23833E-08 5.01320E-19 3.41651E-18
 -1      4021 9.52684E-05-2.85695E-05-2.85851E-05-1.01387E-08 6.06677E-19 3.70167E-18
 -1      4022 9.52703E-05-2.85649E-05-2.85880E-05-6.87689E-09-6.90473E-19 3.17707E-18
 -1      4023 9.52658E-05-2.85814E-05-2.85790E-05-1.43170E-08-2.94191E-19 3.38405E-18
 -1      4024 9.52670E-05-2.85785E-05-2.85807E-05-1.33736E-08 4.05962E-19 3.72873E-18
 -1      4025 9.52700E-05-2.85764E-05-2.85830E-05-1.03395E-08 1.66712E-19 4.74062E-18
 -1      4026 9.52627E-05-2.85849E-05-2.85762E-05-1.46016E-08 7.76111E-19 3.57573E-18
 -1      4027 9.52643E-05-2.85835E-05-2.85774E-05-1.45017E-08 4.31267E-19 3.57774E-18
 -1      4028 9.52677E-05-2.85829E-05-2.85792E-05-1.17934E-08-2.67308E-19 3.76344E-18
 -1      4029 9.52591E-05-2.85860E-05-2.85742E-05-1.38760E-08 7.69208E-20 3.03782E-18
 -1      4030 9.52608E-05-2.85856E-05-2.85750E-05-1.42897E-08 7.66545E-19 3.47316E-18
 -1      4031 9.52642E-05-2.85861E-05-2.85764E-05-1.19448E-08 5.10386E-19 4.36418E-18
 -1      4032 9.52555E-05-2.85857E-05-2.85727E-05-1.25886E-08-4.08218E-19 2.58491E-18
 -1      4033 9.52571E-05-2.85860E-05-2.85733E-05-1.32849E-08-6.05065E-19 2.20938E-18
 -1      4034 9.52604E-05-2.85870E-05-2.85743E-05-1.13007E-08 1.21676E-19 3.84050E-18
 -1      4035 9.52521E-05-2.85846E-05-2.85717E-05-1.10588E-08 3.70291E-20 2.00378E-18
 -1      4036 9.52535E-05-2.85852E-05-2.85721E-05-1.18803E-08 2.55388E-19 2.19673E-18
 -1      4037 9.52564E-05-2.85865E-05-2.85729E-05-1.02214E-08 4.15342E-19 6.47890E-19
 -1      4038 9.52489E-05-2.85831E-05-2.85710E-05-9.45819E-09 1.34419E-18 4.22835E-19
 -1      4039 9.52503E-05-2.85838E-05-2.85713E-05-1.02984E-08 1.04628E-18 2.15653E-18
 -1      4040 9.52528E-05-2.85853E-05-2.85718E-05-8.97579E-09 6.36013E-19 1.18013E-18
 -1      4041 6.73847E-05-1.50284E-05-2.23806E-05 4.72299E-06-7.32803E-19 1.00486E-18
 -1      4042 6.75893E-05-1.51748E-05-2.24896E-05-2.80461E-06 9.74518E-20 1.35499E-18
 -1      4043 7.39559E-05-1.87212E-05-2.37274E-05 1.13806E-05-1.17145E-18 3.08313E-19
 -1      4044 6.94173E-05-1.62324E-05-2.27151E-05 8.33851E-06-1.05241E-18 3.49619E-19
 -1      4045 7.18869E-05-1.65009E-05-2.37300E-05 5.08640E-06-6.79129E-19 5.28805E-19
 -1      4046 7.69417E-05-1.96058E-05-2.45340E-05 1.11464E-05-7.55682E-19 8.00479E-19
 -1      4047 8.19134E-05-2.55910E-05-2.40119E-05-1.78214E-05 1.16483E-18 1.35886E-18
 -1      4048 8.92273E-05-2.97847E-05-2.54582E-05-1.66522E-05 8.24388E-19 6.17149E-19
 -1      4049 8.76097E-05-2.76098E-05-2.57680E-05-1.47267E-05 3.27456E-19 5.53591E-19
 -1      4050 7.88040E-05-2.27662E-05-2.40971E-05-1.46970E-05 6.49032E-19 1.19751E-18
 -1      4051 9.52444E-05-2.85803E-05-2.85703E-05-7.91781E-09 2.27883E-18-4.97038E-18
 -1      4052 8.79449E-05-2.66149E-05-2.62382E-05-1.28422E-05-1.94742E-19 8.83216E-19
 -1      4053 8.73134E-05-2.54333E-05-2.65569E-05-1.13178E-05 1.24575E-19 4.95491E-19
 -1      4054 8.50628E-05-2.34742E-05-2.63763E-05-1.01582E-05-1.11315E-19 8.08286E-19
 -1      4055 8.42156E-05-2.46227E-05-2.54887E-05-1.34260E-05 3.12149E-19 9.26894E-19
 -1      4056 9.52460E-05-2.85814E-05-2.85705E-05-7.81239E-09 2.53664E-18-3.29742E-18
 -1      4057 9.52481E-05-2.85828E-05-2.85708E-05 5.36452E-09-1.39838E-18-9.85874E-19
 -1      4058 8.46908E-05-2.05049E-05-2.74709E-05 3.88755E-06-3.01715E-19 7.57631E-19
 -1      4059 9.52472E-05-2.85822E-05-2.85707E-05-8.60133E-09 1.84028E-18-1.75829E-18
 -1      4060 9.52491E-05-2.85834E-05-2.85710E-05 6.56103E-09-1.08545E-18-1.59884E-18
 -1      4061 8.87888E-05-2.26319E-05-2.83326E-05 2.71438E-06-8.02737E-21 1.19523E-18
 -1      4062 6.98766E-05-1.60334E-05-2.29177E-05-6.15224E-06 2.29146E-20 1.16615E-18
 -1      4063 7.33560E-05-1.82473E-05-2.36430E-05-9.06215E-06 2.17009E-19 7.40770E-19
 -1      4064 7.16817E-05-1.61917E-05-2.37933E-05-2.02977E-06-9.92468E-20 1.08584E-18
 -1      4065 9.52493E-05-2.85835E-05-2.85711E-05-7.49426E-09 3.17598E-18-9.68829E-20
 -1      4066 7.82541E-05-1.93502E-05-2.52751E-05 9.44362E-06-5.37859E-19 6.45131E-19
 -1      4067 8.18034E-05-1.93961E-05-2.66942E-05 4.78998E-06-5.75821E-19 7.73425E-19
 -1      4068 8.24056E-05-2.01064E-05-2.67532E-05 6.69041E-06-3.73186E-19 2.52972E-19
 -1      4069 8.13448E-05-1.99101E-05-2.63089E-05 7.63460E-06-6.24596E-19 2.97439E-19
 -1      4070 9.52514E-05-2.85848E-05-2.85714E-05-1.13610E-09 1.82657E-18-2.21124E-19
 -1      4071 9.52511E-05-2.85846E-05-2.85713E-05-3.02304E-09 3.17003E-18 9.65617E-19
 -1      4072 9.52503E-05-2.85841E-05-2.85712E-05-5.99064E-09 2.82684E-18 1.28249E-18
 -1      4073 9.52521E-05-2.85851E-05-2.85716E-05-5.27121E-09 2.06408E-18 1.02171E-18
 -1      4074 9.14065E-05-2.45454E-05-2.86642E-05 1.26456E-06 5.74733E-19 1.31856E-18
 -1      4075 9.08802E-05-2.41288E-05-2.86146E-05 1.41402E-06 6.78339E-19 1.29110E-18
 -1      4076 8.60309E-05-2.20524E-05-2.74113E-05-5.12366E-06 4.11021E-19-5.31866E-19
 -1      4077 8.66897E-05-2.22123E-05-2.76570E-05-4.34840E-06-1.14990E-19-3.15283E-19
 -1      4078 8.76339E-05-2.25394E-05-2.78937E-05-3.76833E-06-2.86441E-19-3.05322E-19
 -1      4079 8.82433E-05-2.27973E-05-2.80679E-05-3.21205E-06-1.90786E-19-7.16417E-20
 -1      4080 8.63848E-05-2.17630E-05-2.76806E-05-3.17763E-06 1.76180E-19-1.02057E-18
 -1      4081 8.90479E-05-2.31700E-05-2.82308E-05-2.79466E-06-1.92244E-19 3.71627E-19
 -1      4082 8.95888E-05-2.34860E-05-2.83491E-05-2.39744E-06 2.44823E-19 3.58707E-21
 -1      4083 8.81223E-05-2.25365E-05-2.80853E-05-2.25138E-06 4.63504E-20-2.08415E-19
 -1      4084 9.02613E-05-2.38579E-05-2.84582E-05-2.07584E-06 3.13302E-19-2.73541E-19
 -1      4085 9.07478E-05-2.41959E-05-2.85353E-05-1.77538E-06-1.28218E-19-4.98085E-19
 -1      4086 8.95285E-05-2.33010E-05-2.83578E-05-1.60425E-06-4.64239E-20-4.11072E-19
 -1      4087 9.13054E-05-2.45655E-05-2.86042E-05-1.55151E-06 2.11577E-19-1.32673E-20
 -1      4088 9.17258E-05-2.48973E-05-2.86508E-05-1.32359E-06 4.84538E-19-2.12008E-19
 -1      4089 9.07601E-05-2.41135E-05-2.85387E-05-1.15740E-06 1.43693E-19-6.26480E-19
 -1      4090 9.21820E-05-2.52395E-05-2.86912E-05-1.16020E-06 3.61399E-19 2.18984E-19
 -1      4091 9.25341E-05-2.55476E-05-2.87161E-05-9.84739E-07 5.96795E-19-1.82097E-19
 -1      4092 9.17621E-05-2.48672E-05-2.86502E-05-8.36782E-07 5.71905E-19 1.06600E-19
 -1      4093 9.29041E-05-2.58553E-05-2.87368E-05-8.64948E-07 9.00855E-19-2.83894E-19
 -1      4094 9.31932E-05-2.61308E-05-2.87468E-05-7.28848E-07 1.01412E-18 7.54890E-20
 -1      4095 9.25809E-05-2.55498E-05-2.87129E-05-6.03606E-07 8.95447E-19 3.55507E-19
 -1      4096 9.34891E-05-2.63994E-05-2.87542E-05-6.41059E-07 7.12202E-19-9.40675E-21
 -1      4097 9.37217E-05-2.66382E-05-2.87544E-05-5.35343E-07 6.91580E-19-2.76962E-19
 -1      4098 9.32417E-05-2.61506E-05-2.87420E-05-4.34125E-07 9.28571E-19-8.53723E-20
 -1      4099 9.39546E-05-2.68666E-05-2.87532E-05-4.71096E-07 6.44691E-19-3.42253E-19
 -1      4100 9.41381E-05-2.70682E-05-2.87475E-05-3.89179E-07-2.66284E-19 3.12432E-19
 -1      4101 9.37669E-05-2.66662E-05-2.87489E-05-3.10769E-07 6.59099E-19-5.40916E-19
 -1      4102 9.43183E-05-2.72579E-05-2.87412E-05-3.42299E-07-1.06642E-18 9.92203E-19
 -1      4103 9.44602E-05-2.74242E-05-2.87322E-05-2.79162E-07-1.35283E-18 1.10441E-18
 -1      4104 9.41776E-05-2.70984E-05-2.87418E-05-2.20869E-07-2.01968E-19-4.12863E-19
 -1      4105 9.45973E-05-2.75786E-05-2.87231E-05-2.45127E-07-1.73778E-18 1.88829E-18
 -1      4106 9.47048E-05-2.77128E-05-2.87127E-05-1.96843E-07-1.81910E-18 1.55639E-18
 -1      4107 9.44932E-05-2.74532E-05-2.87267E-05-1.55350E-07-1.26959E-18 1.37192E-18
 -1      4108 9.48071E-05-2.78359E-05-2.87025E-05-1.72321E-07-1.64517E-18 1.28226E-18
 -1      4109 9.48868E-05-2.79422E-05-2.86918E-05-1.35763E-07-5.54449E-19 1.60562E-18
 -1      4110 9.47314E-05-2.77389E-05-2.87076E-05-1.07691E-07-1.35162E-18 2.12379E-18
 -1      4111 9.49615E-05-2.80386E-05-2.86817E-05-1.18281E-07-3.50203E-19 1.63097E-18
 -1      4112 9.50193E-05-2.81211E-05-2.86716E-05-9.09382E-08 4.54616E-19 1.50996E-18
 -1      4113 9.49076E-05-2.79646E-05-2.86874E-05-7.31747E-08-5.00338E-19 2.00023E-18
 -1      4114 9.50726E-05-2.81952E-05-2.86621E-05-7.86505E-08 8.30240E-19 4.77577E-19
 -1      4115 9.51133E-05-2.82580E-05-2.86529E-05-5.84950E-08 3.41871E-19 7.17215E-19
 -1      4116 9.50351E-05-2.81396E-05-2.86678E-05-4.83541E-08-1.07858E-19 1.61507E-18
 -1      4117 9.51503E-05-2.83138E-05-2.86444E-05-5.00207E-08-1.19505E-19 5.91857E-19
 -1      4118 9.51780E-05-2.83608E-05-2.86364E-05-3.54177E-08-9.14637E-20 5.79516E-19
 -1      4119 9.51250E-05-2.82729E-05-2.86498E-05-3.06922E-08-1.30438E-19-1.74747E-19
 -1      4120 9.52027E-05-2.84019E-05-2.86290E-05-2.97209E-08 3.87674E-20 5.03263E-19
 -1      4121 9.52209E-05-2.84363E-05-2.86223E-05-1.93585E-08-2.19807E-19 5.10341E-19
 -1      4122 9.51865E-05-2.83725E-05-2.86339E-05-1.83060E-08-2.19509E-19-7.25023E-19
 -1      4123 9.52366E-05-2.84660E-05-2.86161E-05-1.56625E-08-8.62580E-19 1.61316E-18
 -1      4124 9.52478E-05-2.84904E-05-2.86105E-05-8.49623E-09-8.10694E-19 1.34041E-18
 -1      4125 9.52268E-05-2.84452E-05-2.86203E-05-9.78987E-09 6.55953E-20 5.20003E-19
 -1      4126 9.52571E-05-2.85113E-05-2.86054E-05-6.22064E-09-1.56697E-18 1.49594E-18
 -1      4127 9.52634E-05-2.85283E-05-2.86008E-05-1.42652E-09-1.95364E-18 7.17808E-19
 -1      4128 9.52518E-05-2.84972E-05-2.86089E-05-4.09087E-09-1.33068E-18 1.87420E-18
 -1      4129 9.52682E-05-2.85425E-05-2.85967E-05-1.40112E-10-1.60480E-18 4.59003E-19
 -1      4130 9.52710E-05-2.85539E-05-2.85931E-05 2.92443E-09-6.98779E-19 6.53955E-19
 -1      4131 9.52659E-05-2.85332E-05-2.85996E-05-4.19879E-10-1.34633E-18 1.04324E-18
 -1      4132 9.52728E-05-2.85631E-05-2.85899E-05 3.53938E-09-2.70095E-19 4.52606E-19
 -1      4133 9.52734E-05-2.85703E-05-2.85870E-05 5.36910E-09 7.02861E-19 2.11098E-19
 -1      4134 9.52725E-05-2.85574E-05-2.85922E-05 1.81318E-09-6.38070E-19 1.82430E-18
 -1      4135 9.52733E-05-2.85760E-05-2.85845E-05 5.54399E-09 5.96817E-19-6.53497E-19
 -1      4136 9.52725E-05-2.85803E-05-2.85824E-05 6.51433E-09 6.64886E-20-6.30332E-19
 -1      4137 9.52742E-05-2.85728E-05-2.85864E-05 3.04714E-09-7.46921E-21 6.60291E-19
 -1      4138 9.52712E-05-2.85835E-05-2.85804E-05 6.41525E-09 5.71798E-19-4.08567E-19
 -1      4139 9.52696E-05-2.85857E-05-2.85788E-05 6.80641E-09 1.25764E-18-1.28809E-18
 -1      4140 9.52728E-05-2.85819E-05-2.85819E-05 3.60569E-09 4.64230E-19-9.59282E-19
 -1      4141 9.52677E-05-2.85871E-05-2.85773E-05 6.55034E-09 1.18348E-18-2.12437E-18
 -1      4142 9.52657E-05-2.85879E-05-2.85762E-05 6.56718E-09 1.92601E-19-1.93229E-18
 -1      4143 9.52696E-05-2.85867E-05-2.85785E-05 3.72527E-09 4.10514E-19-2.63775E-18
 -1      4144 9.52635E-05-2.85883E-05-2.85751E-05 6.23394E-09-7.22272E-20-1.48597E-18
 -1      4145 9.52614E-05-2.85882E-05-2.85742E-05 6.02163E-09-2.73847E-19-1.76731E-18
 -1      4146 9.52655E-05-2.85885E-05-2.85759E-05 3.57789E-09 3.43108E-19-1.99382E-18
 -1      4147 9.52592E-05-2.85878E-05-2.85734E-05 5.65999E-09-1.79354E-19-1.19592E-18
 -1      4148 9.52572E-05-2.85872E-05-2.85728E-05 5.31240E-09-1.15559E-19-2.15619E-18
 -1      4149 9.52611E-05-2.85885E-05-2.85740E-05 3.29350E-09 7.65281E-21-8.85479E-19
 -1      4150 9.52551E-05-2.85865E-05-2.85722E-05 4.98360E-09 5.44900E-19-1.90657E-18
 -1      4151 9.52532E-05-2.85856E-05-2.85718E-05 4.60208E-09 3.74383E-19-1.43075E-18
 -1      4152 9.52568E-05-2.85873E-05-2.85727E-05 2.93964E-09 3.98015E-19-1.25653E-18
 -1      4153 9.52504E-05-2.85842E-05-2.85712E-05 5.10376E-09-9.68828E-19-7.27662E-19
 -1      4154 9.23392E-05-2.53141E-05-2.87327E-05 1.04116E-06 8.07346E-19 5.54482E-19
 -1      4155 9.19229E-05-2.49492E-05-2.87078E-05 1.17727E-06 7.18318E-19 1.05322E-18
 -1      4156 9.14918E-05-2.45850E-05-2.86510E-05 7.73191E-07 9.99032E-19 7.13128E-19
 -1      4157 8.69568E-05-2.16521E-05-2.80046E-05 1.99382E-06-1.51705E-21 9.04544E-19
 -1      4158 8.59198E-05-2.11062E-05-2.77913E-05 2.20507E-06-1.05095E-19 1.11620E-18
 -1      4159 9.30755E-05-2.59760E-05-2.87631E-05 8.38410E-07 2.97044E-19 9.81171E-19
 -1      4160 9.27497E-05-2.56634E-05-2.87545E-05 9.59618E-07 4.44906E-19 7.73875E-19
 -1      4161 9.24029E-05-2.53497E-05-2.87190E-05 6.58340E-07 9.84614E-19 1.06715E-18
 -1      4162 9.36510E-05-2.65352E-05-2.87689E-05 6.60187E-07 7.04521E-20 2.40490E-19
 -1      4163 9.33989E-05-2.62726E-05-2.87705E-05 7.65290E-07 6.52223E-19 9.40362E-19
 -1      4164 9.31236E-05-2.60077E-05-2.87502E-05 5.42403E-07 4.13517E-19 4.16970E-19
 -1      4165 9.40956E-05-2.69991E-05-2.87597E-05 5.08292E-07-3.25932E-20-9.79107E-19
 -1      4166 9.39030E-05-2.67824E-05-2.87672E-05 5.97054E-07-3.91806E-19-5.67238E-19
 -1      4167 9.36880E-05-2.65631E-05-2.87574E-05 4.34112E-07 5.08353E-19-7.44111E-19
 -1      4168 9.44345E-05-2.73772E-05-2.87420E-05 3.82409E-07 9.63048E-20-4.24829E-19
 -1      4169 9.42892E-05-2.72015E-05-2.87526E-05 4.55534E-07-1.17459E-19-7.03286E-19
 -1      4170 9.41244E-05-2.70234E-05-2.87498E-05 3.38192E-07-1.05777E-19-1.85496E-18
 -1      4171 9.46888E-05-2.76803E-05-2.87204E-05 2.80724E-07 5.01466E-19 1.63634E-19
 -1      4172 9.45810E-05-2.75401E-05-2.87322E-05 3.39582E-07 5.60184E-19 4.82136E-20
 -1      4173 9.44569E-05-2.73981E-05-2.87338E-05 2.56620E-07-4.19046E-19-1.18307E-18
 -1      4174 9.48764E-05-2.79192E-05-2.86978E-05 2.00530E-07 1.54006E-19 9.86663E-19
 -1      4175 9.47978E-05-2.78092E-05-2.87096E-05 2.46871E-07 5.84115E-19 5.40831E-19
 -1      4176 9.47064E-05-2.76981E-05-2.87137E-05 1.89542E-07 5.55188E-20-3.33349E-19
 -1      4177 9.50122E-05-2.81045E-05-2.86761E-05 1.38731E-07-5.14207E-19 1.37288E-18
 -1      4178 9.49560E-05-2.80196E-05-2.86871E-05 1.74442E-07-9.60946E-20 1.33647E-18
 -1      4179 9.48902E-05-2.79342E-05-2.86925E-05 1.35975E-07-3.08284E-19 4.58446E-19
 -1      4180 9.51082E-05-2.82458E-05-2.86563E-05 9.21973E-08-6.36021E-19 9.94232E-19
 -1      4181 9.50690E-05-2.81813E-05-2.86661E-05 1.19127E-07-7.50790E-19 1.67191E-18
 -1      4182 9.50230E-05-2.81170E-05-2.86720E-05 9.43303E-08-7.40647E-19 9.94372E-19
 -1      4183 9.51741E-05-2.83517E-05-2.86389E-05 5.79950E-08 5.72750E-20 1.30792E-18
 -1      4184 9.51477E-05-2.83036E-05-2.86474E-05 7.78488E-08 5.43834E-20 1.19553E-18
 -1      4185 9.51165E-05-2.82561E-05-2.86531E-05 6.27785E-08-5.39953E-19 6.65943E-19
 -1      4186 9.52179E-05-2.84295E-05-2.86241E-05 3.35130E-08 3.10994E-19 1.38321E-18
 -1      4187 9.52008E-05-2.83943E-05-2.86312E-05 4.77918E-08 1.30506E-19 1.69524E-18
 -1      4188 9.51806E-05-2.83600E-05-2.86365E-05 3.94899E-08-7.41794E-22 1.76301E-18
 -1      4189 9.52454E-05-2.84853E-05-2.86118E-05 1.65184E-08-3.38411E-19 1.02196E-18
 -1      4190 9.52350E-05-2.84602E-05-2.86176E-05 2.64989E-08 1.65448E-19 1.61858E-18
 -1      4191 9.52227E-05-2.84361E-05-2.86223E-05 2.27750E-08 2.99077E-19 2.55949E-18
 -1      4192 9.52615E-05-2.85245E-05-2.86018E-05 5.16087E-09-8.09861E-19 1.14406E-18
 -1      4193 9.52557E-05-2.85070E-05-2.86065E-05 1.18977E-08-6.77476E-19 9.81262E-19
 -1      4194 9.52490E-05-2.84906E-05-2.86105E-05 1.11547E-08-4.54767E-19 1.56698E-18
 -1      4195 9.52695E-05-2.85510E-05-2.85938E-05-2.05178E-09-2.00015E-18 2.18278E-18
 -1      4196 9.52670E-05-2.85393E-05-2.85975E-05 2.29120E-09-1.45969E-18 1.30022E-18
 -1      4197 9.52641E-05-2.85285E-05-2.86008E-05 3.38583E-09-1.43658E-18 2.22890E-18
 -1      4198 9.52723E-05-2.85683E-05-2.85875E-05-6.29450E-09-7.42576E-19 2.91851E-18
 -1      4199 9.52718E-05-2.85608E-05-2.85904E-05-3.67591E-09-1.64044E-18 2.03569E-18
 -1      4200 9.52714E-05-2.85541E-05-2.85931E-05-1.54418E-09-1.86464E-18 1.45822E-18
 -1      4201 9.52716E-05-2.85788E-05-2.85826E-05-8.47165E-09-3.40851E-19 3.98253E-18
 -1      4202 9.52725E-05-2.85743E-05-2.85849E-05-7.06122E-09-3.37945E-19 3.50229E-18
 -1      4203 9.52736E-05-2.85706E-05-2.85871E-05-4.43740E-09-1.46953E-18 1.40889E-18
 -1      4204 9.52690E-05-2.85847E-05-2.85790E-05-9.26403E-09-2.72306E-19 2.35216E-18
 -1      4205 9.52706E-05-2.85822E-05-2.85806E-05-8.67212E-09 4.27155E-20 3.42111E-18
 -1      4206 9.52725E-05-2.85805E-05-2.85824E-05-5.91379E-09-8.46411E-20 6.47471E-19
 -1      4207 9.52653E-05-2.85873E-05-2.85763E-05-9.17200E-09 8.36721E-19 2.66041E-18
 -1      4208 9.52672E-05-2.85863E-05-2.85775E-05-9.11151E-09 3.36110E-19 2.64905E-18
 -1      4209 9.52695E-05-2.85859E-05-2.85788E-05-6.44157E-09 1.67250E-19-3.03781E-19
 -1      4210 9.52611E-05-2.85878E-05-2.85743E-05-8.55154E-09 6.66164E-19 1.19883E-18
 -1      4211 9.52631E-05-2.85877E-05-2.85752E-05-8.81809E-09 8.12793E-19 2.08034E-18
 -1      4212 9.52656E-05-2.85881E-05-2.85762E-05-6.36703E-09 1.17224E-18-3.56320E-19
 -1      4213 9.52571E-05-2.85870E-05-2.85728E-05-7.62326E-09 5.10858E-19 1.01043E-18
 -1      4214 9.52590E-05-2.85875E-05-2.85735E-05-8.08839E-09 5.35490E-19 1.01385E-18
 -1      4215 9.52613E-05-2.85883E-05-2.85742E-05-5.93877E-09 9.54975E-19 2.06534E-19
 -1      4216 9.52537E-05-2.85858E-05-2.85719E-05-6.14708E-09 4.73576E-19 1.36162E-18
 -1      4217 9.52554E-05-2.85865E-05-2.85724E-05-6.64490E-09 2.29025E-19 5.31013E-19
 -1      4218 9.52576E-05-2.85876E-05-2.85729E-05-4.73609E-09 7.56085E-19 1.35257E-18
 -1      4219 9.52544E-05-2.85863E-05-2.85721E-05-3.04663E-09 1.68066E-18 1.25203E-19
 -1      4220 7.64544E-05-1.98947E-05-2.41164E-05-1.14110E-05 5.57520E-20 1.01133E-18
 -1      4221 8.08949E-05-2.26580E-05-2.49459E-05-1.25325E-05 2.41475E-19 1.07431E-18
 -1      4222 8.12853E-05-2.20787E-05-2.54628E-05-1.07273E-05 9.61746E-20 1.07074E-18
 -1      4223 7.56836E-05-1.85704E-05-2.45419E-05-7.49987E-06-4.24903E-19 6.57616E-19
 -1      4224 7.70957E-05-1.81825E-05-2.52004E-05 6.78097E-06-3.30172E-19 5.92648E-19
 -1      4225 8.46550E-05-2.05180E-05-2.75111E-05 2.27102E-06-4.15709E-19 1.13594E-18
 -1      4226 8.33518E-05-1.99486E-05-2.71906E-05 2.53382E-06-4.43260E-19 8.63242E-19
 -1      4227 8.49396E-05-2.05797E-05-2.75486E-05 9.48746E-07-2.32891E-19 9.71282E-19
 -1      4228 8.87782E-05-2.26982E-05-2.83307E-05 1.74694E-06-2.92262E-19 1.04410E-18
 -1      4229 8.79575E-05-2.21948E-05-2.81922E-05 1.94076E-06 7.66021E-21 1.00984E-18
 -1      4230 8.71776E-05-2.17518E-05-2.80207E-05 9.66582E-07 1.67930E-19 8.99484E-19
 -1      4231 9.02341E-05-2.36700E-05-2.85387E-05 1.50627E-06 5.71969E-19 8.12880E-19
 -1      4232 8.95773E-05-2.32108E-05-2.84522E-05 1.67211E-06 4.92702E-20 9.81683E-19
 -1      4233 9.03445E-05-2.37133E-05-2.85283E-05 8.72403E-07 4.32902E-19 1.15626E-18
 -1      4234 8.42321E-05-2.18414E-05-2.67322E-05-7.06089E-06 2.77304E-20 7.03060E-19
 -1      4235 8.49076E-05-2.18100E-05-2.70746E-05-5.96013E-06 2.56976E-19 2.08280E-19
 -1      4236 8.43184E-05-2.10490E-05-2.70973E-05-4.49578E-06-1.75507E-19 1.67709E-19
 -1      4237 9.52523E-05-2.85853E-05-2.85716E-05 1.35823E-09 1.32856E-18-7.62660E-19
 -1      4238 9.52540E-05-2.85861E-05-2.85719E-05 2.08326E-10 1.53963E-18-1.13202E-18
 -1      4239 9.52519E-05-2.85850E-05-2.85715E-05 3.31463E-09 1.26138E-19-2.56707E-19
 -1      4240 7.34299E-05-1.62826E-05-2.43594E-05 1.01060E-06-4.21376E-19 7.01241E-19
 -1      4241 7.44956E-05-1.70842E-05-2.46604E-05-2.00745E-06-4.97346E-19 7.23862E-19
 -1      4242 8.89285E-05-2.27955E-05-2.83346E-05 9.71020E-07 9.85390E-20 1.45641E-18
 -1      4243 9.52557E-05-2.85868E-05-2.85723E-05-4.59488E-10 1.17208E-18-7.32690E-19
 -1      4244 7.45513E-05-1.71679E-05-2.45953E-05 4.26932E-06-5.58466E-19 3.65700E-19
 -1      4245 7.78296E-05-1.79719E-05-2.57059E-05 3.12186E-06-5.14748E-19 7.79404E-19
 -1      4246 8.25693E-05-2.19816E-05-2.59531E-05-9.35382E-06-1.28395E-19 9.78179E-19
 -1      4247 8.31640E-05-2.17697E-05-2.63612E-05-8.01913E-06-1.27849E-19 9.83431E-19
 -1      4248 8.21263E-05-2.05680E-05-2.63676E-05-6.22029E-06-2.80337E-19 1.29331E-18
 -1      4249 7.98423E-05-2.02245E-05-2.54857E-05-8.27695E-06-2.60956E-19 5.96080E-19
 -1      4250 8.73464E-05-2.20422E-05-2.79854E-05-1.51196E-06 4.51845E-19-6.26890E-19
 -1      4251 8.80964E-05-2.24661E-05-2.81492E-05-1.17374E-06 2.13209E-19-3.07049E-19
 -1      4252 8.91181E-05-2.30253E-05-2.83345E-05-4.45399E-07-1.17935E-19-2.65850E-20
 -1      4253 8.97823E-05-2.34630E-05-2.84415E-05-2.54415E-07-5.09709E-21-1.06472E-19
 -1      4254 9.04312E-05-2.39181E-05-2.85231E-05-2.45395E-07 3.54607E-19 5.35082E-21
 -1      4255 9.09979E-05-2.43176E-05-2.85935E-05-9.87137E-08 7.94276E-19 9.40674E-20
 -1      4256 9.15241E-05-2.47276E-05-2.86421E-05-1.14807E-07 1.15469E-18-1.42705E-20
 -1      4257 9.19902E-05-2.50902E-05-2.86838E-05-9.72608E-09 1.04283E-18 3.81837E-19
 -1      4258 9.24106E-05-2.54498E-05-2.87095E-05-3.82230E-08 7.38313E-19 4.03283E-19
 -1      4259 9.27880E-05-2.57701E-05-2.87311E-05 3.58191E-08 7.88403E-19 1.95776E-19
 -1      4260 9.31201E-05-2.60787E-05-2.87414E-05 2.68219E-09 6.71083E-19 9.49178E-20
 -1      4261 9.34211E-05-2.63546E-05-2.87494E-05 5.47613E-08 9.13088E-19 4.63250E-19
 -1      4262 9.36802E-05-2.66141E-05-2.87498E-05 2.15696E-08 8.16245E-19-1.43930E-19
 -1      4263 9.39165E-05-2.68464E-05-2.87491E-05 5.82801E-08 2.96701E-19-4.25047E-19
 -1      4264 9.41159E-05-2.70605E-05-2.87436E-05 2.76728E-08-1.94743E-19-6.17808E-19
 -1      4265 9.42984E-05-2.72520E-05-2.87376E-05 5.36383E-08-5.51821E-19-7.60072E-19
 -1      4266 9.44496E-05-2.74255E-05-2.87288E-05 2.69420E-08-4.40880E-19-3.70043E-19
 -1      4267 9.45882E-05-2.75804E-05-2.87200E-05 4.53691E-08-8.82283E-19-1.43057E-19
 -1      4268 9.47009E-05-2.77186E-05-2.87098E-05 2.30394E-08-7.32596E-19 1.84968E-19
 -1      4269 9.48041E-05-2.78415E-05-2.86999E-05 3.61476E-08-4.63115E-19 5.26102E-19
 -1      4270 9.48866E-05-2.79497E-05-2.86895E-05 1.80975E-08-4.49533E-19 7.15464E-19
 -1      4271 9.49619E-05-2.80456E-05-2.86795E-05 2.74270E-08-6.05481E-19 5.90346E-19
 -1      4272 9.50209E-05-2.81287E-05-2.86697E-05 1.32635E-08-1.00190E-18 6.78899E-19
 -1      4273 9.50746E-05-2.82022E-05-2.86603E-05 1.98901E-08-6.69682E-19 3.28067E-19
 -1      4274 9.51158E-05-2.82650E-05-2.86514E-05 9.07711E-09-4.10780E-19 6.99960E-19
 -1      4275 9.51529E-05-2.83202E-05-2.86430E-05 1.37588E-08-3.50976E-19 3.56330E-19
 -1      4276 9.51807E-05-2.83668E-05-2.86353E-05 5.72283E-09-1.91320E-19 9.90186E-19
 -1      4277 9.52055E-05-2.84074E-05-2.86280E-05 8.99940E-09 1.32886E-19 7.14807E-19
 -1      4278 9.52235E-05-2.84412E-05-2.86214E-05 3.19231E-09 5.96969E-19 4.70656E-19
 -1      4279 9.52392E-05-2.84704E-05-2.86153E-05 5.45240E-09 5.45968E-19 7.36639E-19
 -1      4280 9.52501E-05-2.84944E-05-2.86099E-05 1.38477E-09-8.76512E-19 7.55937E-19
 -1      4281 9.52594E-05-2.85149E-05-2.86048E-05 2.91095E-09-1.54160E-18 1.04661E-18
 -1      4282 9.52653E-05-2.85313E-05-2.86004E-05 1.66008E-10-1.37679E-18 1.01082E-18
 -1      4283 9.52701E-05-2.85453E-05-2.85963E-05 1.16535E-09-7.89358E-19 1.26685E-18
 -1      4284 9.52727E-05-2.85562E-05-2.85928E-05-5.99222E-10-8.02184E-19 6.17989E-19
 -1      4285 9.52744E-05-2.85652E-05-2.85896E-05 2.57309E-11-1.33610E-18 7.64380E-19
 -1      4286 9.52748E-05-2.85720E-05-2.85869E-05-1.03143E-09-1.20817E-18 9.65651E-19
 -1      4287 9.52745E-05-2.85776E-05-2.85843E-05-6.68464E-10-2.99788E-19-3.16042E-19
 -1      4288 9.52735E-05-2.85815E-05-2.85823E-05-1.23035E-09 4.99320E-19-5.89799E-19
 -1      4289 9.52722E-05-2.85846E-05-2.85803E-05-1.04661E-09 4.61160E-19-8.25875E-19
 -1      4290 9.52704E-05-2.85865E-05-2.85788E-05-1.27453E-09 4.95589E-19-1.20615E-18
 -1      4291 9.52684E-05-2.85879E-05-2.85773E-05-1.20898E-09 4.04035E-19-1.26521E-18
 -1      4292 9.52663E-05-2.85885E-05-2.85761E-05-1.22491E-09 9.28387E-19-1.24976E-18
 -1      4293 9.52640E-05-2.85888E-05-2.85751E-05-1.23108E-09 7.40669E-19-5.93845E-19
 -1      4294 9.52618E-05-2.85886E-05-2.85742E-05-1.13627E-09 6.25290E-19-7.31914E-19
 -1      4295 9.52595E-05-2.85881E-05-2.85734E-05-1.17092E-09 7.75428E-19-1.06886E-19
 -1      4296 9.52578E-05-2.85876E-05-2.85729E-05-3.79025E-10 6.80880E-19-1.01036E-18
 -1      4297 8.17062E-05-1.93170E-05-2.67757E-05 2.60630E-06-5.48972E-19 8.29558E-19
 -1      4298 8.00329E-05-1.87185E-05-2.63007E-05 2.99967E-06-5.35552E-19 8.96066E-19
 -1      4299 8.55705E-05-2.10155E-05-2.76695E-05-2.98907E-07 4.06588E-20 2.41849E-19
 -1      4300 8.42904E-05-2.04536E-05-2.73831E-05-4.21997E-07-4.73000E-19 5.31713E-19
 -1      4301 8.52700E-05-2.11395E-05-2.74776E-05-2.65353E-06-1.31383E-20-8.26914E-19
 -1      4302 8.61901E-05-2.15481E-05-2.77242E-05-2.16474E-06 2.78947E-19-8.82339E-19
 -1      4303 8.28364E-05-2.03019E-05-2.67970E-05-3.88872E-06-6.72207E-19 5.88676E-19
 -1      4304 8.39545E-05-2.06661E-05-2.71486E-05-3.18373E-06-7.32074E-19-2.34787E-19
 -1      4305 8.39204E-05-2.03978E-05-2.71988E-05-2.10667E-06-7.55665E-19 7.61052E-20
 -1      4306 8.78274E-05-2.21697E-05-2.81355E-05 2.75099E-07 1.96879E-19 4.95885E-19
 -1      4307 8.67823E-05-2.16201E-05-2.79451E-05 2.23691E-07 3.29864E-19 2.82162E-19
 -1      4308 7.83965E-05-1.79303E-05-2.58295E-05 7.42952E-07-7.43228E-19 7.28537E-19
 -1      4309 8.21019E-05-1.93317E-05-2.68514E-05 8.57111E-07-5.46707E-19 9.77359E-19
 -1      4310 8.29574E-05-1.98956E-05-2.70437E-05-7.83826E-07-7.25274E-19 6.59826E-19
 -1      4311 8.13376E-05-1.92751E-05-2.66278E-05-9.66243E-07-6.69095E-19 3.67057E-19
 -1      4312 7.94066E-05-1.85963E-05-2.60905E-05-1.32409E-06-7.21558E-19 4.66926E-19
 -1      4313 7.72644E-05-1.79107E-05-2.54809E-05-1.57298E-06-7.68480E-19 4.14120E-19
 -1      4314 7.62830E-05-1.77600E-05-2.49898E-05-4.22592E-06-3.61983E-19 7.91240E-19
 -1      4315 8.07948E-05-1.92477E-05-2.63375E-05-3.08052E-06-6.36330E-19 1.73941E-19
 -1      4316 8.63631E-05-2.14532E-05-2.78060E-05-1.03109E-06 4.22680E-19-5.85258E-19
 -1      4317 7.83801E-05-1.92418E-05-2.53637E-05-6.47444E-06-3.28186E-19 8.40501E-19
 -1      4318 8.86111E-05-2.26276E-05-2.82650E-05 2.81160E-07-3.24491E-20 7.60662E-19
 -1      4319 8.09202E-05-1.96524E-05-2.62723E-05-4.53205E-06-2.26614E-19 1.03943E-18
 -1      4320 7.97426E-05-1.94701E-05-2.58641E-05-5.39663E-06-2.18482E-19 1.01788E-18
 -3
    1PSTEP                         4           1           1          
  100CL  101 1.000000000        4320                     0    1           1
 -4  ERROR       1    1
 -5  STR(%)      1    1    0    0
 -1         1 1.24544E+01
 -1         2 2.57695E+01
 -1         3 7.61864E-05
 -1         4 8.63280E-05
 -1         5 1.21887E+01
 -1         6 1.30582E+01
 -1         7 1.30582E+01
 -1         8 4.26828E+00
 -1         9 2.62667E+00
 -1        10 2.52590E+00
 -1        11 2.81687E+00
 -1        12 3.42732E+00
 -1        13 3.71866E+00
 -1        14 3.71866E+00
 -1        15 3.05193E+00
 -1        16 3.78204E+00
 -1        17 4.46730E+00
 -1        18 4.46730E+00
 -1        19 4.16630E+00
 -1        20 3.84342E+00
 -1        21 4.81136E+00
 -1        22 8.71629E+00
 -1        23 1.30582E+01
 -1        24 3.28977E+00
 -1        25 2.54115E+00
 -1        26 2.37910E+00
 -1        27 3.01696E+00
 -1        28 3.44951E+00
 -1        29 3.44951E+00
 -1        30 3.27134E+00
 -1        31 3.25340E+00
 -1        32 2.61491E+00
 -1        33 1.58503E+00
 -1        34 1.15387E+00
 -1        35 8.93221E-01
 -1        36 8.93221E-01
 -1        37 8.49689E-01
 -1        38 8.49689E-01
 -1        39 7.52557E-01
 -1        40 6.14121E-01
 -1        41 4.88202E-01
 -1        42 3.86318E-01
 -1        43 3.36293E-01
 -1        44 2.79872E-01
 -1        45 2.24497E-01
 -1        46 1.74377E-01
 -1        47 1.31449E-01
 -1        48 9.61744E-02
 -1        49 8.12755E-02
 -1        50 6.71099E-02
 -1        51 5.40992E-02
 -1        52 4.26751E-02
 -1        53 3.29795E-02
 -1        54 2.49741E-02
 -1        55 1.93241E-02
 -1        56 1.59799E-02
 -1        57 1.29310E-02
 -1        58 1.02588E-02
 -1        59 7.98668E-03
 -1        60 6.21141E-03
 -1        61 4.80776E-03
 -1        62 3.64941E-03
 -1        63 2.71160E-03
 -1        64 2.01849E-03
 -1        65 1.66002E-03
 -1        66 1.34436E-03
 -1        67 1.07126E-03
 -1        68 8.33221E-04
 -1        69 6.37036E-04
 -1        70 5.58052E-04
 -1        71 3.43828E-04
 -1        72 1.21887E+01
 -1        73 1.85865E+00
 -1        74 1.53784E+00
 -1        75 2.13986E+00
 -1        76 2.71521E+00
 -1        77 3.95995E+00
 -1        78 4.41923E+00
 -1        79 4.86856E+00
 -1        80 4.86856E+00
 -1        81 3.75398E+00
 -1        82 1.94399E+00
 -1        83 1.34206E+00
 -1        84 1.56430E+00
 -1        85 1.62773E+00
 -1        86 1.62773E+00
 -1        87 1.47114E+00
 -1        88 1.23616E+00
 -1        89 1.02260E+00
 -1        90 8.07278E-01
 -1        91 6.13386E-01
 -1        92 4.50494E-01
 -1        93 3.39093E-01
 -1        94 2.59231E-01
 -1        95 1.93717E-01
 -1        96 1.41541E-01
 -1        97 1.00975E-01
 -1        98 7.00940E-02
 -1        99 4.94216E-02
 -1       100 4.10435E-02
 -1       101 3.33865E-02
 -1       102 2.66526E-02
 -1       103 2.09024E-02
 -1       104 1.72259E-02
 -1       105 1.49701E-02
 -1       106 1.26579E-02
 -1       107 1.04590E-02
 -1       108 8.46858E-03
 -1       109 6.79820E-03
 -1       110 5.45761E-03
 -1       111 4.30111E-03
 -1       112 3.32803E-03
 -1       113 2.52545E-03
 -1       114 1.87355E-03
 -1       115 1.34925E-03
 -1       116 1.06760E-03
 -1       117 8.30255E-04
 -1       118 6.12619E-04
 -1       119 3.89627E-04
 -1       120 2.63976E-04
 -1       121 1.12915E-04
 -1       122 1.12915E-04
 -1       123 1.02042E-04
 -1       124 5.69036E-05
 -1       125 4.82922E-05
 -1       126 8.35022E-05
 -1       127 1.04859E-04
 -1       128 1.11141E-04
 -1       129 1.11141E-04
 -1       130 1.04615E-04
 -1       131 8.23395E-05
 -1       132 4.79998E-05
 -1       133 5.78938E-05
 -1       134 1.01619E-04
 -1       135 1.50211E-04
 -1       136 1.61553E-04
 -1       137 2.61807E+01
 -1       138 4.67109E+01
 -1       139 4.67109E+01
 -1       140 1.93672E+01
 -1       141 1.17021E+01
 -1       142 1.22305E+01
 -1       143 1.32053E+01
 -1       144 1.32936E+01
 -1       145 1.32936E+01
 -1       146 1.36035E+01
 -1       147 2.91328E+01
 -1       148 3.00017E+01
 -1       149 2.89169E+01
 -1       150 2.80223E+01
 -1       151 2.76567E+01
 -1       152 2.76567E+01
 -1       153 3.85614E+01
 -1       154 3.85614E+01
 -1       155 1.41674E+01
 -1       156 1.29573E+01
 -1       157 1.29573E+01
 -1       158 1.21079E+01
 -1       159 1.21079E+01
 -1       160 1.14099E+01
 -1       161 2.31235E+01
 -1       162 4.81389E+01
 -1       163 4.81389E+01
 -1       164 2.52982E+01
 -1       165 6.75478E+00
 -1       166 3.03938E+00
 -1       167 2.54857E+00
 -1       168 2.59361E+00
 -1       169 3.18180E+00
 -1       170 4.06305E+00
 -1       171 4.40451E+00
 -1       172 4.40451E+00
 -1       173 4.21182E+00
 -1       174 5.11035E+00
 -1       175 5.11035E+00
 -1       176 4.68359E+00
 -1       177 3.84342E+00
 -1       178 3.99429E+00
 -1       179 4.81136E+00
 -1       180 1.21887E+01
 -1       181 3.28977E+00
 -1       182 2.54115E+00
 -1       183 2.06290E+00
 -1       184 2.37910E+00
 -1       185 3.01696E+00
 -1       186 3.44951E+00
 -1       187 3.27134E+00
 -1       188 3.25340E+00
 -1       189 2.61491E+00
 -1       190 1.72829E+00
 -1       191 1.15387E+00
 -1       192 8.54049E-01
 -1       193 8.93221E-01
 -1       194 8.48722E-01
 -1       195 8.49689E-01
 -1       196 7.52557E-01
 -1       197 6.16776E-01
 -1       198 5.19661E-01
 -1       199 4.46766E-01
 -1       200 3.63652E-01
 -1       201 2.82515E-01
 -1       202 2.24497E-01
 -1       203 1.75322E-01
 -1       204 1.37156E-01
 -1       205 1.04410E-01
 -1       206 8.12755E-02
 -1       207 6.71099E-02
 -1       208 5.40992E-02
 -1       209 4.26751E-02
 -1       210 3.29795E-02
 -1       211 2.52024E-02
 -1       212 1.97088E-02
 -1       213 1.59799E-02
 -1       214 1.29310E-02
 -1       215 1.02588E-02
 -1       216 8.25435E-03
 -1       217 6.55398E-03
 -1       218 5.29611E-03
 -1       219 4.23138E-03
 -1       220 3.31191E-03
 -1       221 2.53728E-03
 -1       222 1.89764E-03
 -1       223 1.37836E-03
 -1       224 1.07126E-03
 -1       225 8.33221E-04
 -1       226 6.37036E-04
 -1       227 5.58052E-04
 -1       228 3.43828E-04
 -1       229 2.38776E+00
 -1       230 1.64038E+00
 -1       231 1.53784E+00
 -1       232 2.13986E+00
 -1       233 2.71521E+00
 -1       234 3.95995E+00
 -1       235 4.41923E+00
 -1       236 4.86856E+00
 -1       237 3.75398E+00
 -1       238 1.94399E+00
 -1       239 1.21465E+00
 -1       240 1.34206E+00
 -1       241 1.56430E+00
 -1       242 1.62773E+00
 -1       243 1.47114E+00
 -1       244 1.23616E+00
 -1       245 1.02612E+00
 -1       246 8.34902E-01
 -1       247 6.52439E-01
 -1       248 4.92754E-01
 -1       249 3.60751E-01
 -1       250 2.60859E-01
 -1       251 1.93717E-01
 -1       252 1.41541E-01
 -1       253 1.03329E-01
 -1       254 7.37801E-02
 -1       255 5.13026E-02
 -1       256 4.10435E-02
 -1       257 3.33865E-02
 -1       258 2.66526E-02
 -1       259 2.09024E-02
 -1       260 1.72259E-02
 -1       261 1.49701E-02
 -1       262 1.26579E-02
 -1       263 1.04590E-02
 -1       264 8.46858E-03
 -1       265 6.79820E-03
 -1       266 5.45761E-03
 -1       267 4.30111E-03
 -1       268 3.38879E-03
 -1       269 2.61835E-03
 -1       270 1.98002E-03
 -1       271 1.45881E-03
 -1       272 1.06760E-03
 -1       273 8.30255E-04
 -1       274 6.12619E-04
 -1       275 4.07527E-04
 -1       276 2.63976E-04
 -1       277 1.59198E-04
 -1       278 1.61279E-04
 -1       279 1.61279E-04
 -1       280 8.38972E-05
 -1       281 1.50804E-04
 -1       282 1.94997E-04
 -1       283 2.13035E-04
 -1       284 2.13035E-04
 -1       285 2.12929E-04
 -1       286 1.93746E-04
 -1       287 1.51325E-04
 -1       288 8.48810E-05
 -1       289 1.62958E-04
 -1       290 1.62958E-04
 -1       291 2.05992E-04
 -1       292 3.15106E+01
 -1       293 2.69359E+01
 -1       294 4.67109E+01
 -1       295 2.12100E+01
 -1       296 1.08495E+01
 -1       297 1.17021E+01
 -1       298 1.22305E+01
 -1       299 1.32053E+01
 -1       300 1.32936E+01
 -1       301 1.12848E+01
 -1       302 1.36035E+01
 -1       303 3.00017E+01
 -1       304 3.56939E+01
 -1       305 3.56939E+01
 -1       306 3.60949E+01
 -1       307 3.60949E+01
 -1       308 3.58491E+01
 -1       309 3.85614E+01
 -1       310 1.41674E+01
 -1       311 1.10080E+01
 -1       312 1.29573E+01
 -1       313 1.24544E+01
 -1       314 1.16617E+01
 -1       315 1.21079E+01
 -1       316 1.12697E+01
 -1       317 1.14099E+01
 -1       318 2.41896E+01
 -1       319 4.81389E+01
 -1       320 2.98138E+01
 -1       321 3.15106E+01
 -1       322 1.80389E+00
 -1       323 2.90947E+00
 -1       324 3.11927E+00
 -1       325 4.17716E+00
 -1       326 5.21533E+00
 -1       327 5.43875E+00
 -1       328 5.59171E+00
 -1       329 6.30651E+00
 -1       330 6.30651E+00
 -1       331 5.77261E+00
 -1       332 4.45857E+00
 -1       333 3.35205E+00
 -1       334 2.96569E+00
 -1       335 2.23417E+00
 -1       336 1.64038E+00
 -1       337 1.67693E+00
 -1       338 1.82241E+00
 -1       339 2.09504E+00
 -1       340 2.30542E+00
 -1       341 2.25185E+00
 -1       342 2.08289E+00
 -1       343 2.01140E+00
 -1       344 1.60399E+00
 -1       345 1.21906E+00
 -1       346 7.28854E-01
 -1       347 5.10805E-01
 -1       348 4.78608E-01
 -1       349 6.13314E-01
 -1       350 6.43205E-01
 -1       351 5.98057E-01
 -1       352 5.34406E-01
 -1       353 4.75291E-01
 -1       354 4.09173E-01
 -1       355 3.35990E-01
 -1       356 2.65060E-01
 -1       357 2.01628E-01
 -1       358 1.48008E-01
 -1       359 1.04616E-01
 -1       360 7.73732E-02
 -1       361 5.57388E-02
 -1       362 4.07111E-02
 -1       363 3.41410E-02
 -1       364 2.81772E-02
 -1       365 2.27508E-02
 -1       366 1.80021E-02
 -1       367 1.39712E-02
 -1       368 1.14000E-02
 -1       369 9.65016E-03
 -1       370 7.97290E-03
 -1       371 6.49066E-03
 -1       372 5.31572E-03
 -1       373 4.27279E-03
 -1       374 3.42865E-03
 -1       375 2.74095E-03
 -1       376 2.14167E-03
 -1       377 1.63290E-03
 -1       378 1.21077E-03
 -1       379 8.68489E-04
 -1       380 6.24801E-04
 -1       381 4.57125E-04
 -1       382 2.99639E-04
 -1       383 1.19605E+00
 -1       384 1.92038E+00
 -1       385 2.47109E+00
 -1       386 2.70953E+00
 -1       387 2.53029E+00
 -1       388 2.62101E+00
 -1       389 2.37745E+00
 -1       390 1.44086E+00
 -1       391 1.00601E+00
 -1       392 1.00532E+00
 -1       393 1.17294E+00
 -1       394 1.21598E+00
 -1       395 1.18279E+00
 -1       396 1.05991E+00
 -1       397 9.34729E-01
 -1       398 7.78747E-01
 -1       399 6.21525E-01
 -1       400 4.79177E-01
 -1       401 3.58543E-01
 -1       402 2.60859E-01
 -1       403 1.89527E-01
 -1       404 1.41430E-01
 -1       405 1.03329E-01
 -1       406 7.37801E-02
 -1       407 5.13026E-02
 -1       408 3.45233E-02
 -1       409 2.61340E-02
 -1       410 2.21994E-02
 -1       411 1.84119E-02
 -1       412 1.49543E-02
 -1       413 1.19153E-02
 -1       414 9.45209E-03
 -1       415 8.16408E-03
 -1       416 6.86457E-03
 -1       417 5.64038E-03
 -1       418 4.67036E-03
 -1       419 3.82741E-03
 -1       420 3.07278E-03
 -1       421 2.41810E-03
 -1       422 1.86351E-03
 -1       423 1.40234E-03
 -1       424 1.02447E-03
 -1       425 7.70759E-04
 -1       426 5.85383E-04
 -1       427 4.07527E-04
 -1       428 2.34157E-04
 -1       429 1.68101E-04
 -1       430 3.13811E-04
 -1       431 3.13811E-04
 -1       432 2.03634E-04
 -1       433 2.69264E-04
 -1       434 3.00299E-04
 -1       435 3.00299E-04
 -1       436 2.99289E-04
 -1       437 2.99289E-04
 -1       438 2.69591E-04
 -1       439 2.05208E-04
 -1       440 1.79312E-04
 -1       441 2.68904E-04
 -1       442 2.69359E+01
 -1       443 3.15106E+01
 -1       444 2.53242E+01
 -1       445 1.56302E+01
 -1       446 9.05465E+00
 -1       447 2.20118E+00
 -1       448 9.58232E+00
 -1       449 9.89238E+00
 -1       450 8.84433E+00
 -1       451 7.55910E+00
 -1       452 7.50757E+00
 -1       453 1.22470E+01
 -1       454 2.11301E+01
 -1       455 3.56939E+01
 -1       456 3.43091E+01
 -1       457 3.60949E+01
 -1       458 2.67812E+01
 -1       459 2.37183E+01
 -1       460 1.36528E+01
 -1       461 7.65103E+00
 -1       462 7.26953E+00
 -1       463 9.26753E+00
 -1       464 1.07523E+01
 -1       465 1.03955E+01
 -1       466 8.47129E+00
 -1       467 7.03195E+00
 -1       468 1.01957E+01
 -1       469 1.74898E+01
 -1       470 2.98138E+01
 -1       471 3.05407E+01
 -1       472 7.05162E+00
 -1       473 9.11964E+00
 -1       474 3.44384E+00
 -1       475 5.89782E+00
 -1       476 5.17433E+00
 -1       477 7.45304E+00
 -1       478 9.21144E+00
 -1       479 9.21144E+00
 -1       480 8.04356E+00
 -1       481 6.02760E+00
 -1       482 3.85422E+00
 -1       483 2.24203E+00
 -1       484 1.02443E+00
 -1       485 5.35665E+00
 -1       486 1.45056E+00
 -1       487 1.69330E+00
 -1       488 1.75625E+00
 -1       489 1.90946E+00
 -1       490 1.94064E+00
 -1       491 1.49485E+00
 -1       492 1.30998E+00
 -1       493 1.12605E+00
 -1       494 9.54768E-01
 -1       495 8.18213E-01
 -1       496 6.93373E-01
 -1       497 6.88519E-01
 -1       498 6.34997E-01
 -1       499 5.59793E-01
 -1       500 5.07363E-01
 -1       501 4.44361E-01
 -1       502 3.72907E-01
 -1       503 3.02018E-01
 -1       504 2.37076E-01
 -1       505 1.80756E-01
 -1       506 1.33897E-01
 -1       507 9.62064E-02
 -1       508 6.67710E-02
 -1       509 4.44045E-02
 -1       510 2.91375E-02
 -1       511 2.02327E-02
 -1       512 1.71787E-02
 -1       513 1.49501E-02
 -1       514 1.26459E-02
 -1       515 1.04414E-02
 -1       516 8.43744E-03
 -1       517 7.10675E-03
 -1       518 6.10415E-03
 -1       519 5.10436E-03
 -1       520 4.20909E-03
 -1       521 3.45253E-03
 -1       522 2.76743E-03
 -1       523 2.16791E-03
 -1       524 1.70589E-03
 -1       525 1.31567E-03
 -1       526 9.86825E-04
 -1       527 7.17238E-04
 -1       528 4.65453E-04
 -1       529 2.70953E+00
 -1       530 3.57614E+00
 -1       531 3.27213E+00
 -1       532 2.37915E+00
 -1       533 2.18776E+00
 -1       534 1.98650E+00
 -1       535 1.62544E+00
 -1       536 1.53013E+00
 -1       537 1.40540E+00
 -1       538 1.22194E+00
 -1       539 1.10047E+00
 -1       540 9.76729E-01
 -1       541 8.23893E-01
 -1       542 6.68482E-01
 -1       543 5.25768E-01
 -1       544 4.02741E-01
 -1       545 3.01194E-01
 -1       546 2.20043E-01
 -1       547 1.56847E-01
 -1       548 1.08726E-01
 -1       549 7.28430E-02
 -1       550 4.85802E-02
 -1       551 3.40866E-02
 -1       552 2.61340E-02
 -1       553 2.21994E-02
 -1       554 1.84119E-02
 -1       555 1.49543E-02
 -1       556 1.19153E-02
 -1       557 9.59310E-03
 -1       558 8.16408E-03
 -1       559 6.86457E-03
 -1       560 5.64038E-03
 -1       561 4.64735E-03
 -1       562 3.76986E-03
 -1       563 2.99327E-03
 -1       564 2.38697E-03
 -1       565 1.87640E-03
 -1       566 1.43900E-03
 -1       567 1.07358E-03
 -1       568 7.76108E-04
 -1       569 5.34856E-04
 -1       570 3.72189E-04
 -1       571 3.38432E-04
 -1       572 3.95189E-04
 -1       573 3.26425E-04
 -1       574 2.87312E-04
 -1       575 3.97241E-04
 -1       576 3.97241E-04
 -1       577 3.96832E-04
 -1       578 3.94758E-04
 -1       579 3.44275E-04
 -1       580 3.84336E-04
 -1       581 3.37778E-04
 -1       582 2.53242E+01
 -1       583 1.94871E+01
 -1       584 3.05407E+01
 -1       585 2.07822E+00
 -1       586 1.16716E+01
 -1       587 4.76748E+00
 -1       588 7.00106E+00
 -1       589 1.34629E+01
 -1       590 8.25966E+00
 -1       591 5.62465E+00
 -1       592 6.92460E+00
 -1       593 9.99738E+00
 -1       594 3.88941E+00
 -1       595 5.17563E+00
 -1       596 6.64748E+00
 -1       597 1.56546E+01
 -1       598 2.38379E+01
 -1       599 2.36913E+01
 -1       600 2.67812E+01
 -1       601 1.73448E+01
 -1       602 8.31755E+00
 -1       603 4.67313E+00
 -1       604 7.49113E+00
 -1       605 6.12610E+00
 -1       606 4.06937E+00
 -1       607 5.87615E+00
 -1       608 8.23966E+00
 -1       609 1.41181E+01
 -1       610 1.96499E+01
 -1       611 1.81058E+00
 -1       612 3.34532E+00
 -1       613 8.55964E+00
 -1       614 2.80134E+00
 -1       615 2.95459E-04
 -1       616 3.51297E+00
 -1       617 1.55915E+01
 -1       618 7.52447E+00
 -1       619 7.33569E+00
 -1       620 6.85920E+00
 -1       621 3.16177E+00
 -1       622 1.50057E+01
 -1       623 1.72093E+01
 -1       624 9.10082E+00
 -1       625 5.45616E+00
 -1       626 3.66511E+00
 -1       627 5.94807E-04
 -1       628 1.41282E+00
 -1       629 1.75625E+00
 -1       630 3.19074E+00
 -1       631 5.18150E+00
 -1       632 3.07944E+00
 -1       633 1.72153E+00
 -1       634 1.59248E+00
 -1       635 1.54442E+00
 -1       636 1.25027E+00
 -1       637 1.02474E+00
 -1       638 9.19687E-01
 -1       639 7.83857E-01
 -1       640 6.51355E-01
 -1       641 5.70669E-01
 -1       642 4.87292E-01
 -1       643 4.03753E-01
 -1       644 3.26128E-01
 -1       645 2.57460E-01
 -1       646 1.98871E-01
 -1       647 1.50313E-01
 -1       648 1.11064E-01
 -1       649 8.00462E-02
 -1       650 5.60531E-02
 -1       651 3.78853E-02
 -1       652 2.44303E-02
 -1       653 1.47045E-02
 -1       654 9.75164E-03
 -1       655 9.28035E-03
 -1       656 8.61208E-03
 -1       657 7.65722E-03
 -1       658 6.58801E-03
 -1       659 5.51677E-03
 -1       660 4.76004E-03
 -1       661 4.05475E-03
 -1       662 3.36334E-03
 -1       663 2.72336E-03
 -1       664 2.17094E-03
 -1       665 1.71166E-03
 -1       666 1.31567E-03
 -1       667 9.86825E-04
 -1       668 7.40206E-04
 -1       669 5.83561E-04
 -1       670 3.68591E+00
 -1       671 3.57614E+00
 -1       672 2.18776E+00
 -1       673 2.65701E+00
 -1       674 2.92565E+00
 -1       675 2.40961E+00
 -1       676 1.91166E+00
 -1       677 1.50048E+00
 -1       678 1.30565E+00
 -1       679 1.10162E+00
 -1       680 9.04117E-01
 -1       681 7.26092E-01
 -1       682 5.72420E-01
 -1       683 4.43603E-01
 -1       684 3.38078E-01
 -1       685 2.53296E-01
 -1       686 1.86364E-01
 -1       687 1.34391E-01
 -1       688 9.46900E-02
 -1       689 6.48642E-02
 -1       690 4.28504E-02
 -1       691 2.69166E-02
 -1       692 1.71729E-02
 -1       693 1.32996E-02
 -1       694 1.20608E-02
 -1       695 1.05404E-02
 -1       696 8.94790E-03
 -1       697 7.41355E-03
 -1       698 6.15642E-03
 -1       699 5.23922E-03
 -1       700 4.41944E-03
 -1       701 3.64270E-03
 -1       702 2.99397E-03
 -1       703 2.40746E-03
 -1       704 1.89084E-03
 -1       705 1.47154E-03
 -1       706 1.13637E-03
 -1       707 8.52520E-04
 -1       708 6.10980E-04
 -1       709 4.58426E-04
 -1       710 5.17630E-04
 -1       711 4.94016E-04
 -1       712 5.15899E-04
 -1       713 5.17630E-04
 -1       714 5.15899E-04
 -1       715 4.97460E-04
 -1       716 5.94807E-04
 -1       717 4.85454E+00
 -1       718 9.68795E+00
 -1       719 1.98261E+00
 -1       720 5.44908E+00
 -1       721 4.10824E+00
 -1       722 2.66293E+00
 -1       723 6.88554E+00
 -1       724 1.15186E+01
 -1       725 3.27213E+00
 -1       726 2.10927E+00
 -1       727 5.65255E+00
 -1       728 5.13332E+00
 -1       729 7.24556E+00
 -1       730 1.26790E+01
 -1       731 1.05420E+01
 -1       732 9.10378E+00
 -1       733 5.20320E+00
 -1       734 8.24170E+00
 -1       735 1.31148E+01
 -1       736 1.04334E+01
 -1       737 5.18150E+00
 -1       738 2.60124E+00
 -1       739 3.49094E+00
 -1       740 5.13141E+00
 -1       741 3.44429E+00
 -1       742 2.77325E+00
 -1       743 3.34709E+00
 -1       744 3.86300E-04
 -1       745 9.72549E+00
 -1       746 1.36640E+01
 -1       747 4.18284E-04
 -1       748 1.04832E+01
 -1       749 3.96649E+00
 -1       750 2.97120E+00
 -1       751 6.69552E+00
 -1       752 3.05895E+00
 -1       753 3.65484E+00
 -1       754 1.72153E+00
 -1       755 3.12894E+00
 -1       756 1.81440E+00
 -1       757 1.59077E+00
 -1       758 1.29412E+00
 -1       759 1.00999E+00
 -1       760 8.31491E-01
 -1       761 6.82799E-01
 -1       762 5.50913E-01
 -1       763 4.40697E-01
 -1       764 3.45590E-01
 -1       765 2.66377E-01
 -1       766 2.08873E-01
 -1       767 1.59329E-01
 -1       768 1.18034E-01
 -1       769 8.49176E-02
 -1       770 6.02837E-02
 -1       771 4.16150E-02
 -1       772 2.82392E-02
 -1       773 1.83845E-02
 -1       774 1.12713E-02
 -1       775 6.26100E-03
 -1       776 5.40416E-03
 -1       777 5.72810E-03
 -1       778 5.55786E-03
 -1       779 5.09756E-03
 -1       780 4.49000E-03
 -1       781 3.86425E-03
 -1       782 3.40538E-03
 -1       783 2.90492E-03
 -1       784 2.41029E-03
 -1       785 1.94964E-03
 -1       786 1.53773E-03
 -1       787 1.17988E-03
 -1       788 8.95374E-04
 -1       789 2.87309E+00
 -1       790 2.19199E+00
 -1       791 1.68597E+00
 -1       792 1.28154E+00
 -1       793 9.87079E-01
 -1       794 7.60005E-01
 -1       795 6.00450E-01
 -1       796 4.63553E-01
 -1       797 3.49892E-01
 -1       798 2.58575E-01
 -1       799 1.90326E-01
 -1       800 1.40684E-01
 -1       801 1.02236E-01
 -1       802 7.27948E-02
 -1       803 5.05511E-02
 -1       804 3.40031E-02
 -1       805 2.19087E-02
 -1       806 1.32499E-02
 -1       807 8.00893E-03
 -1       808 7.46409E-03
 -1       809 7.25856E-03
 -1       810 6.66669E-03
 -1       811 5.88012E-03
 -1       812 5.02616E-03
 -1       813 4.33186E-03
 -1       814 3.74028E-03
 -1       815 3.13877E-03
 -1       816 2.56854E-03
 -1       817 2.05233E-03
 -1       818 1.60036E-03
 -1       819 1.21459E-03
 -1       820 8.92354E-04
 -1       821 6.30105E-04
 -1       822 5.21334E-04
 -1       823 7.02512E-04
 -1       824 6.04544E+00
 -1       825 6.12647E+00
 -1       826 6.23096E-04
 -1       827 3.79732E+00
 -1       828 6.51460E-04
 -1       829 3.17928E+00
 -1       830 4.64023E+00
 -1       831 4.16273E+00
 -1       832 2.13606E+00
 -1       833 7.93200E+00
 -1       834 7.96843E+00
 -1       835 6.51460E-04
 -1       836 6.22921E-04
 -1       837 3.53792E+00
 -1       838 3.16177E+00
 -1       839 7.80499E+00
 -1       840 5.21432E+00
 -1       841 6.43298E-04
 -1       842 6.10580E+00
 -1       843 6.43298E-04
 -1       844 2.30249E+00
 -1       845 6.32055E-04
 -1       846 7.93200E+00
 -1       847 5.98513E+00
 -1       848 3.12894E+00
 -1       849 2.35287E+00
 -1       850 1.83355E+00
 -1       851 1.47015E+00
 -1       852 1.13459E+00
 -1       853 8.45982E-01
 -1       854 6.42876E-01
 -1       855 5.11643E-01
 -1       856 4.16718E-01
 -1       857 3.36462E-01
 -1       858 2.65510E-01
 -1       859 2.05044E-01
 -1       860 1.54970E-01
 -1       861 1.14516E-01
 -1       862 8.25461E-02
 -1       863 5.78044E-02
 -1       864 3.98889E-02
 -1       865 2.66863E-02
 -1       866 1.69715E-02
 -1       867 9.99528E-03
 -1       868 5.23313E-03
 -1       869 2.97400E-03
 -1       870 3.79440E-03
 -1       871 4.04725E-03
 -1       872 3.93932E-03
 -1       873 3.61913E-03
 -1       874 3.19021E-03
 -1       875 2.80957E-03
 -1       876 2.43766E-03
 -1       877 2.05150E-03
 -1       878 1.68029E-03
 -1       879 1.34063E-03
 -1       880 1.04474E-03
 -1       881 2.24590E+00
 -1       882 3.32851E+00
 -1       883 1.23289E+00
 -1       884 9.68983E-01
 -1       885 7.54147E-01
 -1       886 5.80563E-01
 -1       887 4.42158E-01
 -1       888 3.32784E-01
 -1       889 2.47174E-01
 -1       890 1.80725E-01
 -1       891 1.29732E-01
 -1       892 9.10878E-02
 -1       893 6.32770E-02
 -1       894 4.29877E-02
 -1       895 2.80951E-02
 -1       896 1.74756E-02
 -1       897 1.00533E-02
 -1       898 5.25146E-03
 -1       899 4.27139E-03
 -1       900 4.82475E-03
 -1       901 4.84567E-03
 -1       902 4.54474E-03
 -1       903 4.06883E-03
 -1       904 3.51725E-03
 -1       905 3.10724E-03
 -1       906 2.66787E-03
 -1       907 2.22604E-03
 -1       908 1.80982E-03
 -1       909 1.43418E-03
 -1       910 1.10509E-03
 -1       911 8.23571E-04
 -1       912 3.99936E+00
 -1       913 6.69785E+00
 -1       914 4.01999E+00
 -1       915 3.35362E+00
 -1       916 6.99334E-04
 -1       917 5.84443E-04
 -1       918 1.60949E+00
 -1       919 4.58428E+00
 -1       920 7.78165E-04
 -1       921 7.97076E-04
 -1       922 7.74941E-04
 -1       923 5.74470E+00
 -1       924 3.06343E+00
 -1       925 7.80642E-04
 -1       926 9.41299E-04
 -1       927 7.80642E-04
 -1       928 2.55014E+00
 -1       929 1.59173E+00
 -1       930 1.06875E+00
 -1       931 8.02292E-01
 -1       932 6.42876E-01
 -1       933 5.11643E-01
 -1       934 4.02460E-01
 -1       935 3.13108E-01
 -1       936 2.40608E-01
 -1       937 1.82320E-01
 -1       938 1.36041E-01
 -1       939 9.97114E-02
 -1       940 7.15566E-02
 -1       941 5.00545E-02
 -1       942 3.40326E-02
 -1       943 2.29441E-02
 -1       944 1.47921E-02
 -1       945 8.92723E-03
 -1       946 5.04046E-03
 -1       947 2.88787E-03
 -1       948 2.57634E-03
 -1       949 2.98983E-03
 -1       950 3.04671E-03
 -1       951 2.88373E-03
 -1       952 2.59763E-03
 -1       953 2.25524E-03
 -1       954 1.97052E-03
 -1       955 1.66810E-03
 -1       956 1.37280E-03
 -1       957 1.10238E-03
 -1       958 6.61764E-01
 -1       959 8.78201E-01
 -1       960 1.17662E+00
 -1       961 5.01068E-01
 -1       962 3.78993E-01
 -1       963 2.85319E-01
 -1       964 2.12665E-01
 -1       965 1.56508E-01
 -1       966 1.13357E-01
 -1       967 8.04915E-02
 -1       968 5.57508E-02
 -1       969 3.81343E-02
 -1       970 2.54521E-02
 -1       971 1.62130E-02
 -1       972 9.62499E-03
 -1       973 5.15854E-03
 -1       974 2.82102E-03
 -1       975 3.21513E-03
 -1       976 3.53716E-03
 -1       977 3.50190E-03
 -1       978 3.25326E-03
 -1       979 2.89136E-03
 -1       980 2.52194E-03
 -1       981 2.19332E-03
 -1       982 1.84922E-03
 -1       983 1.51719E-03
 -1       984 1.21256E-03
 -1       985 4.95727E+00
 -1       986 2.54025E+00
 -1       987 4.83942E+00
 -1       988 9.05769E-04
 -1       989 2.62073E+00
 -1       990 4.18337E+00
 -1       991 3.50491E+00
 -1       992 3.85194E+00
 -1       993 9.47472E-04
 -1       994 9.51297E-04
 -1       995 1.33661E-03
 -1       996 1.60949E+00
 -1       997 1.10780E-03
 -1       998 1.33661E-03
 -1       999 1.29173E+00
 -1      1000 1.40193E+00
 -1      1001 1.06875E+00
 -1      1002 8.02292E-01
 -1      1003 6.01578E-01
 -1      1004 4.55548E-01
 -1      1005 3.44883E-01
 -1      1006 2.60341E-01
 -1      1007 1.95296E-01
 -1      1008 1.45424E-01
 -1      1009 1.07028E-01
 -1      1010 7.75721E-02
 -1      1011 5.51516E-02
 -1      1012 3.82710E-02
 -1      1013 2.58562E-02
 -1      1014 1.82377E-02
 -1      1015 1.24605E-02
 -1      1016 8.16408E-03
 -1      1017 5.04046E-03
 -1      1018 2.82720E-03
 -1      1019 1.83161E-03
 -1      1020 2.23594E-03
 -1      1021 2.33592E-03
 -1      1022 2.24523E-03
 -1      1023 2.04472E-03
 -1      1024 1.79014E-03
 -1      1025 1.51836E-03
 -1      1026 1.27518E-03
 -1      1027 1.24745E-03
 -1      1028 6.71085E-01
 -1      1029 3.81649E-01
 -1      1030 5.03409E-01
 -1      1031 9.14502E-01
 -1      1032 2.91066E-01
 -1      1033 2.20058E-01
 -1      1034 1.64989E-01
 -1      1035 1.22206E-01
 -1      1036 8.90789E-02
 -1      1037 6.36493E-02
 -1      1038 4.43648E-02
 -1      1039 3.01372E-02
 -1      1040 2.03548E-02
 -1      1041 1.31658E-02
 -1      1042 8.31182E-03
 -1      1043 5.10604E-03
 -1      1044 2.84619E-03
 -1      1045 2.20236E-03
 -1      1046 2.60791E-03
 -1      1047 2.68326E-03
 -1      1048 2.55445E-03
 -1      1049 2.31033E-03
 -1      1050 2.01181E-03
 -1      1051 1.72312E-03
 -1      1052 1.45518E-03
 -1      1053 1.32159E-03
 -1      1054 3.50043E+00
 -1      1055 3.50043E+00
 -1      1056 3.10674E+00
 -1      1057 1.80213E+00
 -1      1058 2.75374E+00
 -1      1059 2.62073E+00
 -1      1060 1.13022E-03
 -1      1061 3.10911E-01
 -1      1062 9.27916E-01
 -1      1063 6.60445E-01
 -1      1064 5.58292E-01
 -1      1065 3.57425E-01
 -1      1066 2.66118E-01
 -1      1067 2.07306E-01
 -1      1068 1.59942E-01
 -1      1069 1.21797E-01
 -1      1070 9.13491E-02
 -1      1071 6.73258E-02
 -1      1072 4.86228E-02
 -1      1073 3.42768E-02
 -1      1074 2.36729E-02
 -1      1075 1.64002E-02
 -1      1076 1.09604E-02
 -1      1077 6.97357E-03
 -1      1078 4.11849E-03
 -1      1079 2.12917E-03
 -1      1080 1.35782E-03
 -1      1081 1.76080E-03
 -1      1082 1.95784E-03
 -1      1083 1.95041E-03
 -1      1084 1.81737E-03
 -1      1085 1.59776E-03
 -1      1086 1.28270E-03
 -1      1087 1.33661E-03
 -1      1088 2.54850E-01
 -1      1089 6.93562E-01
 -1      1090 2.01631E-01
 -1      1091 1.56301E-01
 -1      1092 1.18927E-01
 -1      1093 8.87395E-02
 -1      1094 6.48028E-02
 -1      1095 4.62232E-02
 -1      1096 3.28759E-02
 -1      1097 2.26867E-02
 -1      1098 1.50670E-02
 -1      1099 9.49371E-03
 -1      1100 5.51722E-03
 -1      1101 2.84619E-03
 -1      1102 1.57947E-03
 -1      1103 1.93442E-03
 -1      1104 2.02331E-03
 -1      1105 1.95784E-03
 -1      1106 1.95041E-03
 -1      1107 1.81737E-03
 -1      1108 1.59776E-03
 -1      1109 1.32159E-03
 -1      1110 2.41216E+00
 -1      1111 9.55457E-01
 -1      1112 5.26146E-01
 -1      1113 5.58292E-01
 -1      1114 1.28377E+00
 -1      1115 1.96879E+00
 -1      1116 1.50385E+00
 -1      1117 6.60445E-01
 -1      1118 1.34157E+00
 -1      1119 7.69076E-01
 -1      1120 1.19419E+00
 -1      1121 1.75795E+00
 -1      1122 1.30582E+01
 -1      1123 8.66323E+00
 -1      1124 3.44748E+00
 -1      1125 2.57628E+00
 -1      1126 2.67139E+00
 -1      1127 3.12210E+00
 -1      1128 3.57299E+00
 -1      1129 3.71866E+00
 -1      1130 3.38530E+00
 -1      1131 3.41699E+00
 -1      1132 4.12467E+00
 -1      1133 4.46730E+00
 -1      1134 4.31680E+00
 -1      1135 4.00486E+00
 -1      1136 4.32739E+00
 -1      1137 6.76382E+00
 -1      1138 1.04525E+01
 -1      1139 1.30582E+01
 -1      1140 8.17397E+00
 -1      1141 2.91546E+00
 -1      1142 2.46013E+00
 -1      1143 2.69803E+00
 -1      1144 3.23323E+00
 -1      1145 3.44951E+00
 -1      1146 3.36043E+00
 -1      1147 3.26237E+00
 -1      1148 2.93416E+00
 -1      1149 2.09997E+00
 -1      1150 1.36945E+00
 -1      1151 1.02355E+00
 -1      1152 8.93221E-01
 -1      1153 8.71455E-01
 -1      1154 8.49689E-01
 -1      1155 8.01123E-01
 -1      1156 6.83339E-01
 -1      1157 5.51161E-01
 -1      1158 4.37260E-01
 -1      1159 3.61305E-01
 -1      1160 3.08082E-01
 -1      1161 2.52184E-01
 -1      1162 1.99437E-01
 -1      1163 1.52913E-01
 -1      1164 1.13812E-01
 -1      1165 8.87250E-02
 -1      1166 7.41927E-02
 -1      1167 6.06046E-02
 -1      1168 4.83872E-02
 -1      1169 3.78273E-02
 -1      1170 2.89768E-02
 -1      1171 2.21491E-02
 -1      1172 1.76520E-02
 -1      1173 1.44555E-02
 -1      1174 1.15949E-02
 -1      1175 9.12272E-03
 -1      1176 7.09905E-03
 -1      1177 5.50959E-03
 -1      1178 4.22859E-03
 -1      1179 3.18050E-03
 -1      1180 2.36504E-03
 -1      1181 1.83925E-03
 -1      1182 1.50219E-03
 -1      1183 1.20781E-03
 -1      1184 9.52238E-04
 -1      1185 7.35128E-04
 -1      1186 5.97544E-04
 -1      1187 4.50940E-04
 -1      1188 2.15078E-04
 -1      1189 1.21887E+01
 -1      1190 7.02365E+00
 -1      1191 1.69825E+00
 -1      1192 1.83885E+00
 -1      1193 2.42754E+00
 -1      1194 3.33758E+00
 -1      1195 4.18959E+00
 -1      1196 4.64389E+00
 -1      1197 4.86856E+00
 -1      1198 4.31127E+00
 -1      1199 2.84899E+00
 -1      1200 1.64303E+00
 -1      1201 1.45318E+00
 -1      1202 1.59601E+00
 -1      1203 1.62773E+00
 -1      1204 1.54943E+00
 -1      1205 1.35365E+00
 -1      1206 1.12938E+00
 -1      1207 9.14941E-01
 -1      1208 7.10332E-01
 -1      1209 5.31940E-01
 -1      1210 3.94794E-01
 -1      1211 2.99162E-01
 -1      1212 2.26474E-01
 -1      1213 1.67629E-01
 -1      1214 1.21258E-01
 -1      1215 8.55347E-02
 -1      1216 5.97578E-02
 -1      1217 4.52325E-02
 -1      1218 3.72150E-02
 -1      1219 3.00195E-02
 -1      1220 2.37775E-02
 -1      1221 1.90641E-02
 -1      1222 1.60980E-02
 -1      1223 1.38140E-02
 -1      1224 1.15585E-02
 -1      1225 9.46381E-03
 -1      1226 7.63339E-03
 -1      1227 6.12790E-03
 -1      1228 4.87936E-03
 -1      1229 3.81457E-03
 -1      1230 2.92674E-03
 -1      1231 2.19950E-03
 -1      1232 1.61140E-03
 -1      1233 1.20842E-03
 -1      1234 9.48927E-04
 -1      1235 7.21437E-04
 -1      1236 5.01123E-04
 -1      1237 3.26801E-04
 -1      1238 1.70081E-04
 -1      1239 9.45509E-05
 -1      1240 1.12915E-04
 -1      1241 1.07479E-04
 -1      1242 7.94726E-05
 -1      1243 5.25979E-05
 -1      1244 6.58972E-05
 -1      1245 9.41805E-05
 -1      1246 1.08000E-04
 -1      1247 1.11141E-04
 -1      1248 1.07878E-04
 -1      1249 9.34773E-05
 -1      1250 6.51696E-05
 -1      1251 5.29468E-05
 -1      1252 7.97564E-05
 -1      1253 1.25915E-04
 -1      1254 1.55882E-04
 -1      1255 1.23941E-04
 -1      1256 2.59751E+01
 -1      1257 3.64458E+01
 -1      1258 4.67109E+01
 -1      1259 3.30390E+01
 -1      1260 1.55346E+01
 -1      1261 1.19663E+01
 -1      1262 1.27179E+01
 -1      1263 1.32494E+01
 -1      1264 1.32936E+01
 -1      1265 1.34485E+01
 -1      1266 2.13681E+01
 -1      1267 2.95672E+01
 -1      1268 2.94593E+01
 -1      1269 2.84696E+01
 -1      1270 2.78395E+01
 -1      1271 2.76567E+01
 -1      1272 3.31091E+01
 -1      1273 3.85614E+01
 -1      1274 2.63644E+01
 -1      1275 1.35624E+01
 -1      1276 1.29573E+01
 -1      1277 1.27059E+01
 -1      1278 1.22811E+01
 -1      1279 1.21079E+01
 -1      1280 1.17589E+01
 -1      1281 1.72667E+01
 -1      1282 3.56312E+01
 -1      1283 4.81389E+01
 -1      1284 3.67186E+01
 -1      1285 2.55339E+01
 -1      1286 1.30582E+01
 -1      1287 5.51153E+00
 -1      1288 9.90648E+00
 -1      1289 2.83303E+00
 -1      1290 3.65383E+00
 -1      1291 4.89708E+00
 -1      1292 2.53724E+00
 -1      1293 2.58762E+00
 -1      1294 2.79398E+00
 -1      1295 2.70524E+00
 -1      1296 2.55976E+00
 -1      1297 2.57109E+00
 -1      1298 3.30456E+00
 -1      1299 2.99933E+00
 -1      1300 2.88770E+00
 -1      1301 3.89086E+00
 -1      1302 3.74519E+00
 -1      1303 3.62243E+00
 -1      1304 4.06158E+00
 -1      1305 4.06158E+00
 -1      1306 4.23378E+00
 -1      1307 3.72822E+00
 -1      1308 4.06158E+00
 -1      1309 4.40451E+00
 -1      1310 3.99693E+00
 -1      1311 3.63188E+00
 -1      1312 4.30816E+00
 -1      1313 4.78883E+00
 -1      1314 4.44620E+00
 -1      1315 4.66109E+00
 -1      1316 4.78883E+00
 -1      1317 4.78883E+00
 -1      1318 5.11035E+00
 -1      1319 4.42495E+00
 -1      1320 4.57545E+00
 -1      1321 4.89697E+00
 -1      1322 3.84342E+00
 -1      1323 4.00486E+00
 -1      1324 4.26351E+00
 -1      1325 4.40282E+00
 -1      1326 3.91885E+00
 -1      1327 3.91886E+00
 -1      1328 6.76382E+00
 -1      1329 4.81136E+00
 -1      1330 4.40282E+00
 -1      1331 1.21887E+01
 -1      1332 1.04525E+01
 -1      1333 8.50000E+00
 -1      1334 1.21887E+01
 -1      1335 8.17397E+00
 -1      1336 3.28977E+00
 -1      1337 2.91546E+00
 -1      1338 2.54115E+00
 -1      1339 2.91546E+00
 -1      1340 2.30203E+00
 -1      1341 2.22100E+00
 -1      1342 2.30203E+00
 -1      1343 2.37910E+00
 -1      1344 2.69803E+00
 -1      1345 2.22100E+00
 -1      1346 3.01696E+00
 -1      1347 3.23323E+00
 -1      1348 2.69803E+00
 -1      1349 3.44951E+00
 -1      1350 3.44951E+00
 -1      1351 3.23323E+00
 -1      1352 3.36043E+00
 -1      1353 3.27134E+00
 -1      1354 3.36043E+00
 -1      1355 3.26237E+00
 -1      1356 3.25340E+00
 -1      1357 3.26237E+00
 -1      1358 2.93416E+00
 -1      1359 2.61491E+00
 -1      1360 2.93416E+00
 -1      1361 2.17160E+00
 -1      1362 1.65666E+00
 -1      1363 2.17160E+00
 -1      1364 1.36945E+00
 -1      1365 1.15387E+00
 -1      1366 1.44108E+00
 -1      1367 1.00396E+00
 -1      1368 8.73635E-01
 -1      1369 1.00396E+00
 -1      1370 8.93221E-01
 -1      1371 8.93221E-01
 -1      1372 8.73635E-01
 -1      1373 8.70971E-01
 -1      1374 8.49205E-01
 -1      1375 8.70971E-01
 -1      1376 8.49689E-01
 -1      1377 8.49689E-01
 -1      1378 8.49205E-01
 -1      1379 8.01123E-01
 -1      1380 7.52557E-01
 -1      1381 8.01123E-01
 -1      1382 6.84666E-01
 -1      1383 6.15449E-01
 -1      1384 6.84666E-01
 -1      1385 5.66891E-01
 -1      1386 5.03931E-01
 -1      1387 5.68219E-01
 -1      1388 4.67484E-01
 -1      1389 4.16542E-01
 -1      1390 4.83214E-01
 -1      1391 3.74985E-01
 -1      1392 3.49972E-01
 -1      1393 4.05209E-01
 -1      1394 3.09404E-01
 -1      1395 2.81193E-01
 -1      1396 3.23083E-01
 -1      1397 2.52184E-01
 -1      1398 2.24497E-01
 -1      1399 2.53506E-01
 -1      1400 1.99909E-01
 -1      1401 1.74850E-01
 -1      1402 1.99909E-01
 -1      1403 1.55767E-01
 -1      1404 1.34302E-01
 -1      1405 1.56239E-01
 -1      1406 1.17930E-01
 -1      1407 1.00292E-01
 -1      1408 1.20783E-01
 -1      1409 8.87250E-02
 -1      1410 8.12755E-02
 -1      1411 9.28430E-02
 -1      1412 7.41927E-02
 -1      1413 6.71099E-02
 -1      1414 7.41927E-02
 -1      1415 6.06046E-02
 -1      1416 5.40992E-02
 -1      1417 6.06046E-02
 -1      1418 4.83872E-02
 -1      1419 4.26751E-02
 -1      1420 4.83872E-02
 -1      1421 3.78273E-02
 -1      1422 3.29795E-02
 -1      1423 3.78273E-02
 -1      1424 2.90909E-02
 -1      1425 2.50882E-02
 -1      1426 2.90909E-02
 -1      1427 2.23414E-02
 -1      1428 1.95164E-02
 -1      1429 2.24556E-02
 -1      1430 1.76520E-02
 -1      1431 1.59799E-02
 -1      1432 1.78443E-02
 -1      1433 1.44555E-02
 -1      1434 1.29310E-02
 -1      1435 1.44555E-02
 -1      1436 1.15949E-02
 -1      1437 1.02588E-02
 -1      1438 1.15949E-02
 -1      1439 9.25655E-03
 -1      1440 8.12052E-03
 -1      1441 9.25655E-03
 -1      1442 7.27033E-03
 -1      1443 6.38270E-03
 -1      1444 7.40417E-03
 -1      1445 5.75376E-03
 -1      1446 5.05194E-03
 -1      1447 5.92505E-03
 -1      1448 4.51957E-03
 -1      1449 3.94040E-03
 -1      1450 4.76375E-03
 -1      1451 3.48066E-03
 -1      1452 3.01175E-03
 -1      1453 3.77164E-03
 -1      1454 2.62444E-03
 -1      1455 2.27788E-03
 -1      1456 2.92460E-03
 -1      1457 1.95806E-03
 -1      1458 1.77883E-03
 -1      1459 2.21746E-03
 -1      1460 1.51919E-03
 -1      1461 1.36136E-03
 -1      1462 1.63800E-03
 -1      1463 1.20781E-03
 -1      1464 1.07126E-03
 -1      1465 1.22481E-03
 -1      1466 9.52238E-04
 -1      1467 8.33221E-04
 -1      1468 9.52238E-04
 -1      1469 7.35128E-04
 -1      1470 6.37036E-04
 -1      1471 7.35128E-04
 -1      1472 5.97544E-04
 -1      1473 5.58052E-04
 -1      1474 5.97544E-04
 -1      1475 4.50940E-04
 -1      1476 3.43828E-04
 -1      1477 4.50940E-04
 -1      1478 2.52690E-04
 -1      1479 2.52690E-04
 -1      1480 2.12321E+00
 -1      1481 7.28821E+00
 -1      1482 7.28821E+00
 -1      1483 1.58911E+00
 -1      1484 1.74952E+00
 -1      1485 2.01407E+00
 -1      1486 1.83885E+00
 -1      1487 1.53784E+00
 -1      1488 1.58911E+00
 -1      1489 2.42754E+00
 -1      1490 2.13986E+00
 -1      1491 1.83885E+00
 -1      1492 3.33758E+00
 -1      1493 2.71521E+00
 -1      1494 2.42754E+00
 -1      1495 4.18959E+00
 -1      1496 3.95995E+00
 -1      1497 3.33758E+00
 -1      1498 4.64389E+00
 -1      1499 4.41923E+00
 -1      1500 4.18959E+00
 -1      1501 4.86856E+00
 -1      1502 4.86856E+00
 -1      1503 4.64389E+00
 -1      1504 3.75398E+00
 -1      1505 4.31127E+00
 -1      1506 4.31127E+00
 -1      1507 1.94399E+00
 -1      1508 2.84899E+00
 -1      1509 2.84899E+00
 -1      1510 1.27836E+00
 -1      1511 1.57932E+00
 -1      1512 1.57932E+00
 -1      1513 1.45318E+00
 -1      1514 1.34206E+00
 -1      1515 1.27836E+00
 -1      1516 1.59601E+00
 -1      1517 1.56430E+00
 -1      1518 1.45318E+00
 -1      1519 1.62773E+00
 -1      1520 1.62773E+00
 -1      1521 1.59601E+00
 -1      1522 1.47114E+00
 -1      1523 1.54943E+00
 -1      1524 1.54943E+00
 -1      1525 1.23616E+00
 -1      1526 1.35365E+00
 -1      1527 1.35365E+00
 -1      1528 1.02436E+00
 -1      1529 1.13114E+00
 -1      1530 1.13114E+00
 -1      1531 8.21090E-01
 -1      1532 9.28754E-01
 -1      1533 9.30511E-01
 -1      1534 6.32912E-01
 -1      1535 7.29859E-01
 -1      1536 7.43671E-01
 -1      1537 4.71624E-01
 -1      1538 5.53070E-01
 -1      1539 5.72596E-01
 -1      1540 3.49922E-01
 -1      1541 4.05623E-01
 -1      1542 4.26753E-01
 -1      1543 2.60045E-01
 -1      1544 2.99976E-01
 -1      1545 3.10805E-01
 -1      1546 1.93717E-01
 -1      1547 2.26474E-01
 -1      1548 2.27288E-01
 -1      1549 1.41541E-01
 -1      1550 1.67629E-01
 -1      1551 1.67629E-01
 -1      1552 1.02152E-01
 -1      1553 1.22435E-01
 -1      1554 1.22435E-01
 -1      1555 7.19371E-02
 -1      1556 8.73777E-02
 -1      1557 8.85545E-02
 -1      1558 5.03621E-02
 -1      1559 6.06983E-02
 -1      1560 6.25413E-02
 -1      1561 4.10435E-02
 -1      1562 4.52325E-02
 -1      1563 4.61730E-02
 -1      1564 3.33865E-02
 -1      1565 3.72150E-02
 -1      1566 3.72150E-02
 -1      1567 2.66526E-02
 -1      1568 3.00195E-02
 -1      1569 3.00195E-02
 -1      1570 2.09024E-02
 -1      1571 2.37775E-02
 -1      1572 2.37775E-02
 -1      1573 1.72259E-02
 -1      1574 1.90641E-02
 -1      1575 1.90641E-02
 -1      1576 1.49701E-02
 -1      1577 1.60980E-02
 -1      1578 1.60980E-02
 -1      1579 1.26579E-02
 -1      1580 1.38140E-02
 -1      1581 1.38140E-02
 -1      1582 1.04590E-02
 -1      1583 1.15585E-02
 -1      1584 1.15585E-02
 -1      1585 8.46858E-03
 -1      1586 9.46381E-03
 -1      1587 9.46381E-03
 -1      1588 6.79820E-03
 -1      1589 7.63339E-03
 -1      1590 7.63339E-03
 -1      1591 5.45761E-03
 -1      1592 6.12790E-03
 -1      1593 6.12790E-03
 -1      1594 4.30111E-03
 -1      1595 4.87936E-03
 -1      1596 4.87936E-03
 -1      1597 3.35841E-03
 -1      1598 3.84495E-03
 -1      1599 3.84495E-03
 -1      1600 2.57190E-03
 -1      1601 2.97319E-03
 -1      1602 3.00357E-03
 -1      1603 1.92679E-03
 -1      1604 2.25273E-03
 -1      1605 2.29918E-03
 -1      1606 1.40403E-03
 -1      1607 1.66618E-03
 -1      1608 1.71941E-03
 -1      1609 1.06760E-03
 -1      1610 1.20842E-03
 -1      1611 1.26321E-03
 -1      1612 8.30255E-04
 -1      1613 9.48927E-04
 -1      1614 9.48927E-04
 -1      1615 6.12619E-04
 -1      1616 7.21437E-04
 -1      1617 7.21437E-04
 -1      1618 3.98577E-04
 -1      1619 5.10073E-04
 -1      1620 5.10073E-04
 -1      1621 2.63976E-04
 -1      1622 3.26801E-04
 -1      1623 3.35751E-04
 -1      1624 1.88446E-04
 -1      1625 1.36057E-04
 -1      1626 1.36057E-04
 -1      1627 1.31660E-04
 -1      1628 1.37097E-04
 -1      1629 1.60238E-04
 -1      1630 1.09091E-04
 -1      1631 1.31660E-04
 -1      1632 1.61279E-04
 -1      1633 6.60947E-05
 -1      1634 7.04004E-05
 -1      1635 1.22588E-04
 -1      1636 1.17153E-04
 -1      1637 9.95480E-05
 -1      1638 1.17350E-04
 -1      1639 1.49928E-04
 -1      1640 1.39250E-04
 -1      1641 1.72901E-04
 -1      1642 1.62088E-04
 -1      1643 1.58947E-04
 -1      1644 2.04016E-04
 -1      1645 1.62088E-04
 -1      1646 1.62088E-04
 -1      1647 2.13035E-04
 -1      1648 1.58772E-04
 -1      1649 1.62035E-04
 -1      1650 2.12982E-04
 -1      1651 1.38043E-04
 -1      1652 1.49180E-04
 -1      1653 2.03337E-04
 -1      1654 9.96623E-05
 -1      1655 1.16832E-04
 -1      1656 1.72535E-04
 -1      1657 7.13874E-05
 -1      1658 6.64404E-05
 -1      1659 1.18103E-04
 -1      1660 1.32289E-04
 -1      1661 1.10426E-04
 -1      1662 1.23920E-04
 -1      1663 1.56584E-04
 -1      1664 1.32289E-04
 -1      1665 1.62958E-04
 -1      1666 1.83772E-04
 -1      1667 1.78101E-04
 -1      1668 1.84475E-04
 -1      1669 2.74910E-04
 -1      1670 2.88457E+01
 -1      1671 2.86400E+01
 -1      1672 3.68234E+01
 -1      1673 2.65583E+01
 -1      1674 4.67109E+01
 -1      1675 4.67109E+01
 -1      1676 2.02886E+01
 -1      1677 3.39604E+01
 -1      1678 1.12758E+01
 -1      1679 1.51084E+01
 -1      1680 1.19663E+01
 -1      1681 1.17021E+01
 -1      1682 1.27179E+01
 -1      1683 1.22305E+01
 -1      1684 1.32494E+01
 -1      1685 1.32053E+01
 -1      1686 1.32936E+01
 -1      1687 1.32936E+01
 -1      1688 1.24441E+01
 -1      1689 1.22892E+01
 -1      1690 2.13681E+01
 -1      1691 1.36035E+01
 -1      1692 3.00017E+01
 -1      1693 2.95672E+01
 -1      1694 3.23054E+01
 -1      1695 3.28478E+01
 -1      1696 3.18581E+01
 -1      1697 3.23054E+01
 -1      1698 3.18758E+01
 -1      1699 3.20586E+01
 -1      1700 3.18758E+01
 -1      1701 3.18758E+01
 -1      1702 3.72052E+01
 -1      1703 3.17529E+01
 -1      1704 3.85614E+01
 -1      1705 3.85614E+01
 -1      1706 1.41674E+01
 -1      1707 2.63644E+01
 -1      1708 1.19827E+01
 -1      1709 1.25877E+01
 -1      1710 1.29573E+01
 -1      1711 1.29573E+01
 -1      1712 1.24544E+01
 -1      1713 1.27059E+01
 -1      1714 1.18848E+01
 -1      1715 1.20580E+01
 -1      1716 1.21079E+01
 -1      1717 1.21079E+01
 -1      1718 1.13398E+01
 -1      1719 1.16888E+01
 -1      1720 1.72667E+01
 -1      1721 1.14099E+01
 -1      1722 3.61643E+01
 -1      1723 2.36566E+01
 -1      1724 4.81389E+01
 -1      1725 4.81389E+01
 -1      1726 2.75560E+01
 -1      1727 3.89764E+01
 -1      1728 2.86400E+01
 -1      1729 2.84044E+01
 -1      1730 1.60297E+01
 -1      1731 3.39604E+01
 -1      1732 1.88446E-04
 -1      1733 2.11587E-04
 -1      1734 2.92232E+01
 -1      1735 3.68234E+01
 -1      1736 3.15106E+01
 -1      1737 1.12758E+01
 -1      1738 1.19663E+01
 -1      1739 1.27179E+01
 -1      1740 1.32494E+01
 -1      1741 1.22892E+01
 -1      1742 1.24441E+01
 -1      1743 2.18026E+01
 -1      1744 3.28478E+01
 -1      1745 3.56939E+01
 -1      1746 3.58944E+01
 -1      1747 3.60949E+01
 -1      1748 3.59720E+01
 -1      1749 3.72052E+01
 -1      1750 2.63644E+01
 -1      1751 1.25877E+01
 -1      1752 1.19827E+01
 -1      1753 1.27059E+01
 -1      1754 1.20580E+01
 -1      1755 1.18848E+01
 -1      1756 1.16888E+01
 -1      1757 1.13398E+01
 -1      1758 1.77998E+01
 -1      1759 3.61643E+01
 -1      1760 3.89764E+01
 -1      1761 3.06622E+01
 -1      1762 9.90648E+00
 -1      1763 2.17623E+00
 -1      1764 2.42164E+00
 -1      1765 2.97443E+00
 -1      1766 4.83212E+00
 -1      1767 2.35668E+00
 -1      1768 3.15053E+00
 -1      1769 2.85644E+00
 -1      1770 4.12010E+00
 -1      1771 3.67948E+00
 -1      1772 3.64821E+00
 -1      1773 4.80992E+00
 -1      1774 4.63919E+00
 -1      1775 4.69624E+00
 -1      1776 4.92163E+00
 -1      1777 4.92163E+00
 -1      1778 5.32704E+00
 -1      1779 4.90176E+00
 -1      1780 4.99811E+00
 -1      1781 5.51523E+00
 -1      1782 5.70843E+00
 -1      1783 5.25917E+00
 -1      1784 5.94911E+00
 -1      1785 5.70843E+00
 -1      1786 5.70843E+00
 -1      1787 6.30651E+00
 -1      1788 5.22810E+00
 -1      1789 5.44148E+00
 -1      1790 6.03956E+00
 -1      1791 4.15100E+00
 -1      1792 4.57108E+00
 -1      1793 5.11559E+00
 -1      1794 3.67317E+00
 -1      1795 3.59774E+00
 -1      1796 3.90531E+00
 -1      1797 3.88852E+00
 -1      1798 3.47999E+00
 -1      1799 3.15887E+00
 -1      1800 7.21141E+00
 -1      1801 3.52277E+00
 -1      1802 2.59993E+00
 -1      1803 2.31097E+00
 -1      1804 5.02227E+00
 -1      1805 1.64038E+00
 -1      1806 2.01407E+00
 -1      1807 1.93728E+00
 -1      1808 3.09962E+00
 -1      1809 2.10904E+00
 -1      1810 1.86991E+00
 -1      1811 1.94266E+00
 -1      1812 2.10076E+00
 -1      1813 1.74967E+00
 -1      1814 2.23707E+00
 -1      1815 2.55600E+00
 -1      1816 1.95873E+00
 -1      1817 2.66119E+00
 -1      1818 2.87746E+00
 -1      1819 2.20023E+00
 -1      1820 2.85068E+00
 -1      1821 2.76160E+00
 -1      1822 2.27863E+00
 -1      1823 2.67712E+00
 -1      1824 2.66815E+00
 -1      1825 2.16737E+00
 -1      1826 2.63240E+00
 -1      1827 2.31316E+00
 -1      1828 2.04715E+00
 -1      1829 2.10945E+00
 -1      1830 1.66614E+00
 -1      1831 1.80769E+00
 -1      1832 1.47368E+00
 -1      1833 1.18647E+00
 -1      1834 1.41152E+00
 -1      1835 9.41363E-01
 -1      1836 7.91452E-01
 -1      1837 9.73958E-01
 -1      1838 6.82427E-01
 -1      1839 7.02013E-01
 -1      1840 6.19829E-01
 -1      1841 6.85915E-01
 -1      1842 6.63665E-01
 -1      1843 4.94707E-01
 -1      1844 7.31018E-01
 -1      1845 7.31502E-01
 -1      1846 5.45961E-01
 -1      1847 7.46447E-01
 -1      1848 6.97881E-01
 -1      1849 6.28260E-01
 -1      1850 6.75307E-01
 -1      1851 6.07416E-01
 -1      1852 6.20631E-01
 -1      1853 5.75591E-01
 -1      1854 5.27033E-01
 -1      1855 5.66231E-01
 -1      1856 4.97476E-01
 -1      1857 4.61029E-01
 -1      1858 5.04848E-01
 -1      1859 4.27970E-01
 -1      1860 3.86412E-01
 -1      1861 4.42232E-01
 -1      1862 3.49821E-01
 -1      1863 3.09252E-01
 -1      1864 3.72581E-01
 -1      1865 2.73787E-01
 -1      1866 2.44778E-01
 -1      1867 3.00525E-01
 -1      1868 2.13062E-01
 -1      1869 1.88475E-01
 -1      1870 2.33344E-01
 -1      1871 1.61665E-01
 -1      1872 1.42582E-01
 -1      1873 1.74818E-01
 -1      1874 1.20886E-01
 -1      1875 1.04513E-01
 -1      1876 1.26312E-01
 -1      1877 9.08918E-02
 -1      1878 7.93244E-02
 -1      1879 9.09947E-02
 -1      1880 6.85072E-02
 -1      1881 6.14244E-02
 -1      1882 6.65560E-02
 -1      1883 5.39105E-02
 -1      1884 4.74052E-02
 -1      1885 4.82250E-02
 -1      1886 4.41201E-02
 -1      1887 3.84081E-02
 -1      1888 3.74261E-02
 -1      1889 3.54261E-02
 -1      1890 3.05783E-02
 -1      1891 3.11591E-02
 -1      1892 2.78652E-02
 -1      1893 2.39766E-02
 -1      1894 2.54640E-02
 -1      1895 2.16023E-02
 -1      1896 1.88554E-02
 -1      1897 2.03765E-02
 -1      1898 1.68400E-02
 -1      1899 1.49755E-02
 -1      1900 1.59866E-02
 -1      1901 1.36899E-02
 -1      1902 1.21655E-02
 -1      1903 1.26856E-02
 -1      1904 1.12906E-02
 -1      1905 9.95445E-03
 -1      1906 1.05251E-02
 -1      1907 9.11583E-03
 -1      1908 8.11363E-03
 -1      1909 8.81153E-03
 -1      1910 7.37251E-03
 -1      1911 6.52232E-03
 -1      1912 7.23178E-03
 -1      1913 5.93485E-03
 -1      1914 5.30592E-03
 -1      1915 5.90319E-03
 -1      1916 4.78445E-03
 -1      1917 4.25209E-03
 -1      1918 4.79426E-03
 -1      1919 3.83002E-03
 -1      1920 3.37028E-03
 -1      1921 3.85072E-03
 -1      1922 3.02643E-03
 -1      1923 2.63912E-03
 -1      1924 3.08480E-03
 -1      1925 2.33947E-03
 -1      1926 2.01965E-03
 -1      1927 2.44131E-03
 -1      1928 1.76527E-03
 -1      1929 1.50563E-03
 -1      1930 1.88729E-03
 -1      1931 1.29457E-03
 -1      1932 1.14101E-03
 -1      1933 1.42184E-03
 -1      1934 9.69872E-04
 -1      1935 8.50855E-04
 -1      1936 1.03963E-03
 -1      1937 7.29011E-04
 -1      1938 6.30919E-04
 -1      1939 7.46645E-04
 -1      1940 5.47080E-04
 -1      1941 5.07588E-04
 -1      1942 5.40963E-04
 -1      1943 4.28846E-04
 -1      1944 3.21733E-04
 -1      1945 2.52815E-04
 -1      1946 3.78382E-04
 -1      1947 1.36694E+00
 -1      1948 1.41822E+00
 -1      1949 1.41822E+00
 -1      1950 2.03012E+00
 -1      1951 1.72911E+00
 -1      1952 1.55821E+00
 -1      1953 2.59315E+00
 -1      1954 2.30547E+00
 -1      1955 2.19573E+00
 -1      1956 3.33474E+00
 -1      1957 2.71237E+00
 -1      1958 2.59031E+00
 -1      1959 3.47476E+00
 -1      1960 3.24512E+00
 -1      1961 2.61991E+00
 -1      1962 3.74479E+00
 -1      1963 3.52012E+00
 -1      1964 2.57565E+00
 -1      1965 3.06572E+00
 -1      1966 3.62301E+00
 -1      1967 2.49923E+00
 -1      1968 1.69243E+00
 -1      1969 2.59742E+00
 -1      1970 1.90916E+00
 -1      1971 1.11033E+00
 -1      1972 1.47500E+00
 -1      1973 1.22344E+00
 -1      1974 1.17369E+00
 -1      1975 1.10999E+00
 -1      1976 1.00567E+00
 -1      1977 1.36862E+00
 -1      1978 1.25750E+00
 -1      1979 1.08913E+00
 -1      1980 1.42185E+00
 -1      1981 1.39014E+00
 -1      1982 1.19446E+00
 -1      1983 1.32696E+00
 -1      1984 1.40526E+00
 -1      1985 1.19938E+00
 -1      1986 1.14804E+00
 -1      1987 1.26552E+00
 -1      1988 1.12135E+00
 -1      1989 9.80425E-01
 -1      1990 1.08545E+00
 -1      1991 9.97319E-01
 -1      1992 8.06825E-01
 -1      1993 9.02434E-01
 -1      1994 8.56738E-01
 -1      1995 6.36982E-01
 -1      1996 7.28214E-01
 -1      1997 7.00136E-01
 -1      1998 4.85966E-01
 -1      1999 5.65808E-01
 -1      2000 5.50351E-01
 -1      2001 3.59647E-01
 -1      2002 4.25648E-01
 -1      2003 4.18860E-01
 -1      2004 2.60859E-01
 -1      2005 3.10805E-01
 -1      2006 3.09701E-01
 -1      2007 1.91622E-01
 -1      2008 2.25193E-01
 -1      2009 2.25193E-01
 -1      2010 1.41486E-01
 -1      2011 1.67573E-01
 -1      2012 1.65479E-01
 -1      2013 1.03329E-01
 -1      2014 1.22435E-01
 -1      2015 1.22380E-01
 -1      2016 7.37801E-02
 -1      2017 8.85545E-02
 -1      2018 8.85545E-02
 -1      2019 5.13026E-02
 -1      2020 6.25413E-02
 -1      2021 6.25413E-02
 -1      2022 3.77834E-02
 -1      2023 4.29130E-02
 -1      2024 4.29130E-02
 -1      2025 2.97602E-02
 -1      2026 3.35887E-02
 -1      2027 3.03287E-02
 -1      2028 2.44260E-02
 -1      2029 2.77930E-02
 -1      2030 2.41667E-02
 -1      2031 1.96572E-02
 -1      2032 2.25323E-02
 -1      2033 2.03057E-02
 -1      2034 1.60901E-02
 -1      2035 1.79283E-02
 -1      2036 1.66831E-02
 -1      2037 1.34427E-02
 -1      2038 1.45706E-02
 -1      2039 1.34348E-02
 -1      2040 1.10550E-02
 -1      2041 1.22111E-02
 -1      2042 1.06837E-02
 -1      2043 9.31156E-03
 -1      2044 1.04110E-02
 -1      2045 8.80809E-03
 -1      2046 7.66657E-03
 -1      2047 8.66181E-03
 -1      2048 7.51432E-03
 -1      2049 6.21929E-03
 -1      2050 7.05448E-03
 -1      2051 6.25247E-03
 -1      2052 5.06398E-03
 -1      2053 5.73428E-03
 -1      2054 5.15537E-03
 -1      2055 4.06426E-03
 -1      2056 4.64251E-03
 -1      2057 4.24888E-03
 -1      2058 3.23078E-03
 -1      2059 3.68694E-03
 -1      2060 3.45009E-03
 -1      2061 2.51822E-03
 -1      2062 2.90344E-03
 -1      2063 2.74544E-03
 -1      2064 1.92177E-03
 -1      2065 2.24093E-03
 -1      2066 2.14081E-03
 -1      2067 1.43058E-03
 -1      2068 1.69118E-03
 -1      2069 1.63293E-03
 -1      2070 1.04603E-03
 -1      2071 1.24164E-03
 -1      2072 1.21340E-03
 -1      2073 8.00507E-04
 -1      2074 9.19180E-04
 -1      2075 8.97613E-04
 -1      2076 5.99001E-04
 -1      2077 7.07819E-04
 -1      2078 6.78071E-04
 -1      2079 4.07527E-04
 -1      2080 5.10073E-04
 -1      2081 4.96455E-04
 -1      2082 2.49067E-04
 -1      2083 3.20842E-04
 -1      2084 3.20842E-04
 -1      2085 1.96678E-04
 -1      2086 1.25999E-04
 -1      2087 1.64690E-04
 -1      2088 2.37545E-04
 -1      2089 2.37545E-04
 -1      2090 2.40956E-04
 -1      2091 2.37545E-04
 -1      2092 2.36504E-04
 -1      2093 2.73984E-04
 -1      2094 3.13811E-04
 -1      2095 1.77219E-04
 -1      2096 1.43766E-04
 -1      2097 1.85868E-04
 -1      2098 2.32130E-04
 -1      2099 2.10034E-04
 -1      2100 2.36449E-04
 -1      2101 2.56667E-04
 -1      2102 2.47648E-04
 -1      2103 2.84781E-04
 -1      2104 2.56667E-04
 -1      2105 2.56667E-04
 -1      2106 3.00299E-04
 -1      2107 2.56109E-04
 -1      2108 2.56162E-04
 -1      2109 2.99794E-04
 -1      2110 2.46517E-04
 -1      2111 2.56109E-04
 -1      2112 2.99289E-04
 -1      2113 2.10458E-04
 -1      2114 2.31668E-04
 -1      2115 2.84440E-04
 -1      2116 1.45044E-04
 -1      2117 1.78266E-04
 -1      2118 2.37399E-04
 -1      2119 1.71135E-04
 -1      2120 1.32096E-04
 -1      2121 1.92260E-04
 -1      2122 2.15931E-04
 -1      2123 2.15931E-04
 -1      2124 2.24108E-04
 -1      2125 3.68234E+01
 -1      2126 2.69359E+01
 -1      2127 3.15106E+01
 -1      2128 3.15106E+01
 -1      2129 2.61300E+01
 -1      2130 2.84174E+01
 -1      2131 1.84201E+01
 -1      2132 3.11705E+01
 -1      2133 2.12830E+01
 -1      2134 9.95208E+00
 -1      2135 1.51323E+01
 -1      2136 2.39739E+00
 -1      2137 2.37487E+00
 -1      2138 2.00253E+00
 -1      2139 2.66022E+00
 -1      2140 1.09064E+01
 -1      2141 1.06422E+01
 -1      2142 1.15488E+01
 -1      2143 1.10615E+01
 -1      2144 9.73735E+00
 -1      2145 1.10690E+01
 -1      2146 1.10248E+01
 -1      2147 9.42195E+00
 -1      2148 1.04264E+01
 -1      2149 1.05555E+01
 -1      2150 9.39618E+00
 -1      2151 7.53333E+00
 -1      2152 2.11243E+01
 -1      2153 1.29252E+01
 -1      2154 2.84120E+01
 -1      2155 2.55659E+01
 -1      2156 3.56939E+01
 -1      2157 3.56939E+01
 -1      2158 3.52020E+01
 -1      2159 3.50015E+01
 -1      2160 3.60949E+01
 -1      2161 3.60949E+01
 -1      2162 3.13151E+01
 -1      2163 3.14381E+01
 -1      2164 3.11398E+01
 -1      2165 2.97837E+01
 -1      2166 1.39101E+01
 -1      2167 2.61071E+01
 -1      2168 9.32952E+00
 -1      2169 1.09092E+01
 -1      2170 1.06519E+01
 -1      2171 1.01134E+01
 -1      2172 9.13877E+00
 -1      2173 1.08610E+01
 -1      2174 1.11124E+01
 -1      2175 1.12070E+01
 -1      2176 1.16034E+01
 -1      2177 1.12517E+01
 -1      2178 1.10286E+01
 -1      2179 1.05739E+01
 -1      2180 9.87052E+00
 -1      2181 1.02896E+01
 -1      2182 9.22092E+00
 -1      2183 9.15084E+00
 -1      2184 7.75162E+00
 -1      2185 1.71927E+01
 -1      2186 1.08028E+01
 -1      2187 3.28144E+01
 -1      2188 2.08397E+01
 -1      2189 1.38428E+01
 -1      2190 2.98138E+01
 -1      2191 3.89764E+01
 -1      2192 3.10257E+01
 -1      2193 3.01773E+01
 -1      2194 3.01773E+01
 -1      2195 9.37684E+00
 -1      2196 8.95057E+00
 -1      2197 1.23424E+01
 -1      2198 2.72531E+00
 -1      2199 8.31697E+00
 -1      2200 2.29320E+00
 -1      2201 2.61300E+01
 -1      2202 2.84174E+01
 -1      2203 2.37448E-04
 -1      2204 3.10257E+01
 -1      2205 8.05314E+00
 -1      2206 2.36518E+01
 -1      2207 8.61383E+00
 -1      2208 9.43342E+00
 -1      2209 1.00099E+01
 -1      2210 7.46028E+00
 -1      2211 1.86855E+01
 -1      2212 2.52498E+01
 -1      2213 3.14381E+01
 -1      2214 3.52020E+01
 -1      2215 3.50015E+01
 -1      2216 2.84120E+01
 -1      2217 9.87728E+00
 -1      2218 8.98198E+00
 -1      2219 1.11624E+01
 -1      2220 9.50601E+00
 -1      2221 8.20171E+00
 -1      2222 1.66886E+01
 -1      2223 8.26853E+00
 -1      2224 2.31995E+00
 -1      2225 2.54211E+00
 -1      2226 5.55657E+00
 -1      2227 5.03749E+00
 -1      2228 4.67574E+00
 -1      2229 4.14680E+00
 -1      2230 5.53607E+00
 -1      2231 6.52237E+00
 -1      2232 6.44590E+00
 -1      2233 7.75898E+00
 -1      2234 7.40158E+00
 -1      2235 8.33224E+00
 -1      2236 7.75898E+00
 -1      2237 7.75898E+00
 -1      2238 9.21144E+00
 -1      2239 6.90808E+00
 -1      2240 7.17504E+00
 -1      2241 8.62750E+00
 -1      2242 5.24309E+00
 -1      2243 5.90010E+00
 -1      2244 7.03558E+00
 -1      2245 3.60314E+00
 -1      2246 4.15640E+00
 -1      2247 4.94091E+00
 -1      2248 2.08120E+00
 -1      2249 1.71904E+00
 -1      2250 2.84294E+00
 -1      2251 1.35068E+00
 -1      2252 1.42342E+00
 -1      2253 7.46948E+00
 -1      2254 6.20414E+00
 -1      2255 1.63649E+00
 -1      2256 1.77280E+00
 -1      2257 1.23749E+00
 -1      2258 1.89417E+00
 -1      2259 1.99936E+00
 -1      2260 1.57193E+00
 -1      2261 2.03083E+00
 -1      2262 2.00405E+00
 -1      2263 1.72477E+00
 -1      2264 2.08066E+00
 -1      2265 1.99618E+00
 -1      2266 1.83286E+00
 -1      2267 2.01176E+00
 -1      2268 1.97602E+00
 -1      2269 1.92505E+00
 -1      2270 1.75313E+00
 -1      2271 1.54942E+00
 -1      2272 1.71774E+00
 -1      2273 1.45698E+00
 -1      2274 1.26452E+00
 -1      2275 1.40242E+00
 -1      2276 1.17256E+00
 -1      2277 9.27454E-01
 -1      2278 1.21802E+00
 -1      2279 8.41811E-01
 -1      2280 7.32786E-01
 -1      2281 1.04041E+00
 -1      2282 6.64509E-01
 -1      2283 6.48410E-01
 -1      2284 8.86490E-01
 -1      2285 5.85991E-01
 -1      2286 6.53344E-01
 -1      2287 7.55793E-01
 -1      2288 6.50917E-01
 -1      2289 6.65862E-01
 -1      2290 6.90946E-01
 -1      2291 6.39101E-01
 -1      2292 6.16527E-01
 -1      2293 6.61758E-01
 -1      2294 5.78925E-01
 -1      2295 5.47099E-01
 -1      2296 5.97395E-01
 -1      2297 5.20884E-01
 -1      2298 4.91327E-01
 -1      2299 5.33578E-01
 -1      2300 4.59826E-01
 -1      2301 4.26767E-01
 -1      2302 4.75862E-01
 -1      2303 3.91040E-01
 -1      2304 3.54448E-01
 -1      2305 4.08634E-01
 -1      2306 3.19004E-01
 -1      2307 2.83539E-01
 -1      2308 3.37462E-01
 -1      2309 2.51068E-01
 -1      2310 2.19352E-01
 -1      2311 2.69547E-01
 -1      2312 1.91192E-01
 -1      2313 1.64382E-01
 -1      2314 2.08916E-01
 -1      2315 1.40953E-01
 -1      2316 1.19257E-01
 -1      2317 1.57327E-01
 -1      2318 1.00411E-01
 -1      2319 8.67898E-02
 -1      2320 1.15052E-01
 -1      2321 7.20721E-02
 -1      2322 6.12549E-02
 -1      2323 8.14887E-02
 -1      2324 5.00717E-02
 -1      2325 4.25578E-02
 -1      2326 5.55877E-02
 -1      2327 3.49243E-02
 -1      2328 3.16393E-02
 -1      2329 3.67710E-02
 -1      2330 2.71869E-02
 -1      2331 2.42049E-02
 -1      2332 2.46851E-02
 -1      2333 2.26779E-02
 -1      2334 1.99648E-02
 -1      2335 1.87057E-02
 -1      2336 1.88505E-02
 -1      2337 1.64761E-02
 -1      2338 1.60644E-02
 -1      2339 1.53240E-02
 -1      2340 1.33085E-02
 -1      2341 1.37980E-02
 -1      2342 1.22063E-02
 -1      2343 1.09207E-02
 -1      2344 1.15436E-02
 -1      2345 9.91872E-03
 -1      2346 9.04380E-03
 -1      2347 9.43942E-03
 -1      2348 8.37845E-03
 -1      2349 7.53983E-03
 -1      2350 7.77209E-03
 -1      2351 7.03853E-03
 -1      2352 6.29740E-03
 -1      2353 6.60545E-03
 -1      2354 5.79751E-03
 -1      2355 5.21004E-03
 -1      2356 5.60426E-03
 -1      2357 4.76241E-03
 -1      2358 4.24094E-03
 -1      2359 4.65673E-03
 -1      2360 3.86266E-03
 -1      2361 3.44059E-03
 -1      2362 3.83081E-03
 -1      2363 3.09804E-03
 -1      2364 2.75419E-03
 -1      2365 3.10998E-03
 -1      2366 2.45443E-03
 -1      2367 2.15479E-03
 -1      2368 2.46767E-03
 -1      2369 1.92378E-03
 -1      2370 1.66940E-03
 -1      2371 1.93690E-03
 -1      2372 1.47429E-03
 -1      2373 1.26322E-03
 -1      2374 1.51078E-03
 -1      2375 1.09880E-03
 -1      2376 9.27657E-04
 -1      2377 1.15125E-03
 -1      2378 7.92863E-04
 -1      2379 6.71020E-04
 -1      2380 8.52032E-04
 -1      2381 5.45127E-04
 -1      2382 4.61289E-04
 -1      2383 5.91346E-04
 -1      2384 2.70953E+00
 -1      2385 2.59031E+00
 -1      2386 3.05322E+00
 -1      2387 3.14283E+00
 -1      2388 3.14283E+00
 -1      2389 2.94657E+00
 -1      2390 2.90121E+00
 -1      2391 3.42413E+00
 -1      2392 2.37830E+00
 -1      2393 2.50008E+00
 -1      2394 2.82564E+00
 -1      2395 1.81431E+00
 -1      2396 2.28261E+00
 -1      2397 2.28345E+00
 -1      2398 1.49626E+00
 -1      2399 1.71368E+00
 -1      2400 2.08713E+00
 -1      2401 1.31538E+00
 -1      2402 1.31572E+00
 -1      2403 1.80597E+00
 -1      2404 1.35154E+00
 -1      2405 1.26773E+00
 -1      2406 1.57778E+00
 -1      2407 1.31069E+00
 -1      2408 1.28917E+00
 -1      2409 1.46777E+00
 -1      2410 1.20236E+00
 -1      2411 1.21896E+00
 -1      2412 1.31367E+00
 -1      2413 1.08019E+00
 -1      2414 1.14163E+00
 -1      2415 1.16120E+00
 -1      2416 9.55729E-01
 -1      2417 1.01832E+00
 -1      2418 1.03860E+00
 -1      2419 8.01320E-01
 -1      2420 8.79311E-01
 -1      2421 9.00311E-01
 -1      2422 6.45004E-01
 -1      2423 7.23615E-01
 -1      2424 7.46188E-01
 -1      2425 5.02473E-01
 -1      2426 5.73647E-01
 -1      2427 5.97125E-01
 -1      2428 3.80642E-01
 -1      2429 4.40959E-01
 -1      2430 4.64254E-01
 -1      2431 2.81027E-01
 -1      2432 3.29868E-01
 -1      2433 3.51967E-01
 -1      2434 2.04785E-01
 -1      2435 2.40451E-01
 -1      2436 2.60618E-01
 -1      2437 1.49139E-01
 -1      2438 1.73187E-01
 -1      2439 1.88445E-01
 -1      2440 1.06027E-01
 -1      2441 1.25078E-01
 -1      2442 1.32787E-01
 -1      2443 7.33115E-02
 -1      2444 8.80859E-02
 -1      2445 9.07845E-02
 -1      2446 4.99414E-02
 -1      2447 6.11802E-02
 -1      2448 6.07116E-02
 -1      2449 3.43049E-02
 -1      2450 4.26946E-02
 -1      2451 4.13334E-02
 -1      2452 2.61340E-02
 -1      2453 3.03287E-02
 -1      2454 3.01103E-02
 -1      2455 2.21994E-02
 -1      2456 2.41667E-02
 -1      2457 2.41667E-02
 -1      2458 1.84119E-02
 -1      2459 2.03057E-02
 -1      2460 2.03057E-02
 -1      2461 1.49543E-02
 -1      2462 1.66831E-02
 -1      2463 1.66831E-02
 -1      2464 1.19153E-02
 -1      2465 1.34348E-02
 -1      2466 1.34348E-02
 -1      2467 9.52260E-03
 -1      2468 1.07542E-02
 -1      2469 1.07542E-02
 -1      2470 8.16408E-03
 -1      2471 8.80809E-03
 -1      2472 8.87859E-03
 -1      2473 6.86457E-03
 -1      2474 7.51432E-03
 -1      2475 7.51432E-03
 -1      2476 5.64038E-03
 -1      2477 6.25247E-03
 -1      2478 6.25247E-03
 -1      2479 4.65885E-03
 -1      2480 5.14386E-03
 -1      2481 5.14386E-03
 -1      2482 3.79863E-03
 -1      2483 4.22011E-03
 -1      2484 4.20860E-03
 -1      2485 3.03303E-03
 -1      2486 3.41034E-03
 -1      2487 3.38157E-03
 -1      2488 2.40253E-03
 -1      2489 2.72987E-03
 -1      2490 2.69012E-03
 -1      2491 1.86996E-03
 -1      2492 2.14725E-03
 -1      2493 2.13168E-03
 -1      2494 1.42067E-03
 -1      2495 1.65126E-03
 -1      2496 1.65770E-03
 -1      2497 1.04902E-03
 -1      2498 1.23796E-03
 -1      2499 1.25629E-03
 -1      2500 7.73434E-04
 -1      2501 9.00287E-04
 -1      2502 9.24843E-04
 -1      2503 5.60119E-04
 -1      2504 6.52808E-04
 -1      2505 6.55482E-04
 -1      2506 3.89858E-04
 -1      2507 4.78786E-04
 -1      2508 4.53523E-04
 -1      2509 3.60669E-04
 -1      2510 3.03848E-04
 -1      2511 2.71033E-04
 -1      2512 3.47744E-04
 -1      2513 3.32226E-04
 -1      2514 3.66810E-04
 -1      2515 2.47263E-04
 -1      2516 3.20118E-04
 -1      2517 2.45473E-04
 -1      2518 2.27706E-04
 -1      2519 3.06869E-04
 -1      2520 3.12872E-04
 -1      2521 3.48770E-04
 -1      2522 3.48770E-04
 -1      2523 3.96215E-04
 -1      2524 3.48265E-04
 -1      2525 3.48770E-04
 -1      2526 3.97241E-04
 -1      2527 3.48060E-04
 -1      2528 3.48060E-04
 -1      2529 3.97036E-04
 -1      2530 3.32174E-04
 -1      2531 3.47023E-04
 -1      2532 3.95795E-04
 -1      2533 2.74741E-04
 -1      2534 3.06933E-04
 -1      2535 3.69516E-04
 -1      2536 2.81824E-04
 -1      2537 2.94772E-04
 -1      2538 3.64305E-04
 -1      2539 3.03341E-04
 -1      2540 2.58545E-04
 -1      2541 3.61057E-04
 -1      2542 2.53242E+01
 -1      2543 2.84174E+01
 -1      2544 2.32115E+01
 -1      2545 2.24057E+01
 -1      2546 3.10257E+01
 -1      2547 3.05407E+01
 -1      2548 2.79324E+01
 -1      2549 2.27465E+00
 -1      2550 1.99930E+00
 -1      2551 2.16012E+00
 -1      2552 2.84271E-04
 -1      2553 1.36509E+01
 -1      2554 1.93037E+01
 -1      2555 5.90955E+00
 -1      2556 6.91106E+00
 -1      2557 8.87668E+00
 -1      2558 8.13429E+00
 -1      2559 1.35578E+01
 -1      2560 1.85906E+01
 -1      2561 6.84921E+00
 -1      2562 6.73750E+00
 -1      2563 7.07874E+00
 -1      2564 6.59187E+00
 -1      2565 7.23449E+00
 -1      2566 8.40849E+00
 -1      2567 8.25346E+00
 -1      2568 6.14062E+00
 -1      2569 1.55638E+01
 -1      2570 1.11222E+01
 -1      2571 5.69849E+00
 -1      2572 5.72426E+00
 -1      2573 7.22158E+00
 -1      2574 6.22258E+00
 -1      2575 6.08834E+00
 -1      2576 9.44724E+00
 -1      2577 7.07752E+00
 -1      2578 2.56743E+01
 -1      2579 1.83924E+01
 -1      2580 1.28260E+01
 -1      2581 2.90735E+01
 -1      2582 2.97659E+01
 -1      2583 2.98931E+01
 -1      2584 2.90002E+01
 -1      2585 2.67812E+01
 -1      2586 3.14381E+01
 -1      2587 2.05316E+01
 -1      2588 2.20630E+01
 -1      2589 2.20630E+01
 -1      2590 7.98429E+00
 -1      2591 1.09852E+01
 -1      2592 5.97133E+00
 -1      2593 6.16208E+00
 -1      2594 8.94334E+00
 -1      2595 9.12172E+00
 -1      2596 7.29870E+00
 -1      2597 8.26083E+00
 -1      2598 5.55066E+00
 -1      2599 6.27033E+00
 -1      2600 8.03593E+00
 -1      2601 6.45405E+00
 -1      2602 1.28647E+01
 -1      2603 9.21768E+00
 -1      2604 2.19660E+01
 -1      2605 1.58039E+01
 -1      2606 2.50953E+01
 -1      2607 2.47319E+01
 -1      2608 1.68840E+01
 -1      2609 2.50953E+01
 -1      2610 2.36002E+00
 -1      2611 1.74375E+00
 -1      2612 1.41750E+00
 -1      2613 1.80723E+00
 -1      2614 2.49285E+00
 -1      2615 2.78975E+00
 -1      2616 3.15551E+00
 -1      2617 3.39458E+00
 -1      2618 8.80714E+00
 -1      2619 1.20949E+01
 -1      2620 7.85635E+00
 -1      2621 3.98784E+00
 -1      2622 2.96031E+00
 -1      2623 2.50126E+00
 -1      2624 2.97549E-04
 -1      2625 2.82181E-04
 -1      2626 3.16618E-04
 -1      2627 3.76292E-04
 -1      2628 3.34869E+00
 -1      2629 6.66356E+00
 -1      2630 7.05790E+00
 -1      2631 4.97276E+00
 -1      2632 5.06206E+00
 -1      2633 3.80456E-04
 -1      2634 5.09774E+00
 -1      2635 6.80862E+00
 -1      2636 1.55794E+01
 -1      2637 3.59977E+00
 -1      2638 5.39125E+00
 -1      2639 4.09305E+00
 -1      2640 4.34430E+00
 -1      2641 3.43000E-04
 -1      2642 3.43000E-04
 -1      2643 1.54038E+01
 -1      2644 2.04579E+01
 -1      2645 2.04579E+01
 -1      2646 1.75393E+01
 -1      2647 1.08902E+01
 -1      2648 2.39387E+00
 -1      2649 2.52362E+01
 -1      2650 1.01156E+01
 -1      2651 1.97463E+01
 -1      2652 2.00588E+00
 -1      2653 1.11789E+01
 -1      2654 5.26844E+00
 -1      2655 8.70843E+00
 -1      2656 7.22454E+00
 -1      2657 8.32205E+00
 -1      2658 7.24609E+00
 -1      2659 8.66654E+00
 -1      2660 9.79134E+00
 -1      2661 6.99159E+00
 -1      2662 7.85176E+00
 -1      2663 7.98942E+00
 -1      2664 6.24192E+00
 -1      2665 4.75703E+00
 -1      2666 2.37646E+01
 -1      2667 6.49534E+00
 -1      2668 3.49307E-04
 -1      2669 3.61557E+00
 -1      2670 4.64394E+00
 -1      2671 1.21086E+01
 -1      2672 1.21086E+01
 -1      2673 1.32104E+01
 -1      2674 1.23312E+01
 -1      2675 7.56421E+00
 -1      2676 8.57219E+00
 -1      2677 4.65519E+00
 -1      2678 5.74188E+00
 -1      2679 7.27849E+00
 -1      2680 2.95357E+00
 -1      2681 3.55448E+00
 -1      2682 4.45133E-04
 -1      2683 4.66292E-04
 -1      2684 5.30130E-04
 -1      2685 3.64903E+00
 -1      2686 1.43169E+00
 -1      2687 1.55306E+00
 -1      2688 1.72477E+00
 -1      2689 1.75625E+00
 -1      2690 1.58453E+00
 -1      2691 2.47349E+00
 -1      2692 2.55010E+00
 -1      2693 2.47349E+00
 -1      2694 3.54548E+00
 -1      2695 3.56107E+00
 -1      2696 4.18612E+00
 -1      2697 2.51004E+00
 -1      2698 2.28715E+00
 -1      2699 4.13047E+00
 -1      2700 1.60819E+00
 -1      2701 1.51576E+00
 -1      2702 2.40049E+00
 -1      2703 1.45123E+00
 -1      2704 1.35926E+00
 -1      2705 1.65700E+00
 -1      2706 1.33524E+00
 -1      2707 1.24960E+00
 -1      2708 1.56845E+00
 -1      2709 1.10252E+00
 -1      2710 1.03424E+00
 -1      2711 1.39734E+00
 -1      2712 9.21476E-01
 -1      2713 8.59057E-01
 -1      2714 1.13750E+00
 -1      2715 8.06530E-01
 -1      2716 8.04103E-01
 -1      2717 9.72213E-01
 -1      2718 7.36188E-01
 -1      2719 7.09427E-01
 -1      2720 8.51772E-01
 -1      2721 6.43176E-01
 -1      2722 6.05574E-01
 -1      2723 7.17606E-01
 -1      2724 5.65231E-01
 -1      2725 5.39016E-01
 -1      2726 6.11012E-01
 -1      2727 4.97327E-01
 -1      2728 4.65827E-01
 -1      2729 5.28981E-01
 -1      2730 4.24057E-01
 -1      2731 3.88330E-01
 -1      2732 4.45522E-01
 -1      2733 3.49517E-01
 -1      2734 3.14073E-01
 -1      2735 3.64940E-01
 -1      2736 2.79739E-01
 -1      2737 2.47268E-01
 -1      2738 2.91794E-01
 -1      2739 2.17973E-01
 -1      2740 1.89813E-01
 -1      2741 2.28165E-01
 -1      2742 1.65535E-01
 -1      2743 1.42105E-01
 -1      2744 1.74592E-01
 -1      2745 1.22481E-01
 -1      2746 1.03635E-01
 -1      2747 1.30689E-01
 -1      2748 8.81263E-02
 -1      2749 7.34086E-02
 -1      2750 9.55551E-02
 -1      2751 6.14121E-02
 -1      2752 5.02288E-02
 -1      2753 6.80497E-02
 -1      2754 4.11449E-02
 -1      2755 3.35114E-02
 -1      2756 4.69692E-02
 -1      2757 2.67839E-02
 -1      2758 2.23315E-02
 -1      2759 3.11578E-02
 -1      2760 1.74686E-02
 -1      2761 1.59416E-02
 -1      2762 1.95674E-02
 -1      2763 1.34652E-02
 -1      2764 1.23509E-02
 -1      2765 1.22281E-02
 -1      2766 1.21152E-02
 -1      2767 1.09631E-02
 -1      2768 9.51599E-03
 -1      2769 1.06290E-02
 -1      2770 9.52674E-03
 -1      2771 8.94621E-03
 -1      2772 9.04931E-03
 -1      2773 8.04733E-03
 -1      2774 8.13465E-03
 -1      2775 7.51272E-03
 -1      2776 6.84738E-03
 -1      2777 7.12262E-03
 -1      2778 6.31176E-03
 -1      2779 5.81046E-03
 -1      2780 6.05239E-03
 -1      2781 5.43209E-03
 -1      2782 4.93220E-03
 -1      2783 5.13840E-03
 -1      2784 4.57956E-03
 -1      2785 4.13192E-03
 -1      2786 4.40740E-03
 -1      2787 3.78621E-03
 -1      2788 3.40793E-03
 -1      2789 3.70905E-03
 -1      2790 3.08795E-03
 -1      2791 2.74540E-03
 -1      2792 3.04335E-03
 -1      2793 2.46918E-03
 -1      2794 2.16943E-03
 -1      2795 2.44715E-03
 -1      2796 1.93979E-03
 -1      2797 1.70878E-03
 -1      2798 1.94130E-03
 -1      2799 1.51078E-03
 -1      2800 1.31567E-03
 -1      2801 1.51366E-03
 -1      2802 1.15125E-03
 -1      2803 9.86825E-04
 -1      2804 1.15125E-03
 -1      2805 8.63515E-04
 -1      2806 7.28722E-04
 -1      2807 8.63515E-04
 -1      2808 6.50400E-04
 -1      2809 5.24507E-04
 -1      2810 5.89184E-04
 -1      2811 6.61883E-04
 -1      2812 3.47902E+00
 -1      2813 3.63102E+00
 -1      2814 3.57614E+00
 -1      2815 3.14283E+00
 -1      2816 2.18776E+00
 -1      2817 2.28345E+00
 -1      2818 2.32175E+00
 -1      2819 2.42238E+00
 -1      2820 2.42238E+00
 -1      2821 2.27554E+00
 -1      2822 2.45608E+00
 -1      2823 2.79133E+00
 -1      2824 1.96987E+00
 -1      2825 2.01752E+00
 -1      2826 2.66763E+00
 -1      2827 1.65853E+00
 -1      2828 1.72090E+00
 -1      2829 2.16063E+00
 -1      2830 1.36121E+00
 -1      2831 1.45294E+00
 -1      2832 1.70607E+00
 -1      2833 1.20306E+00
 -1      2834 1.26379E+00
 -1      2835 1.40306E+00
 -1      2836 1.03917E+00
 -1      2837 1.10104E+00
 -1      2838 1.20363E+00
 -1      2839 8.64005E-01
 -1      2840 9.40423E-01
 -1      2841 1.00287E+00
 -1      2842 6.97287E-01
 -1      2843 7.74992E-01
 -1      2844 8.15104E-01
 -1      2845 5.49094E-01
 -1      2846 6.20451E-01
 -1      2847 6.49256E-01
 -1      2848 4.23172E-01
 -1      2849 4.84686E-01
 -1      2850 5.08011E-01
 -1      2851 3.19636E-01
 -1      2852 3.70409E-01
 -1      2853 3.90840E-01
 -1      2854 2.36669E-01
 -1      2855 2.77245E-01
 -1      2856 2.95687E-01
 -1      2857 1.71605E-01
 -1      2858 2.03203E-01
 -1      2859 2.19830E-01
 -1      2860 1.21559E-01
 -1      2861 1.45619E-01
 -1      2862 1.60377E-01
 -1      2863 8.37665E-02
 -1      2864 1.01708E-01
 -1      2865 1.14541E-01
 -1      2866 5.67222E-02
 -1      2867 6.88536E-02
 -1      2868 7.97771E-02
 -1      2869 3.84685E-02
 -1      2870 4.57153E-02
 -1      2871 5.38573E-02
 -1      2872 2.65253E-02
 -1      2873 3.05016E-02
 -1      2874 3.48835E-02
 -1      2875 1.96862E-02
 -1      2876 2.16535E-02
 -1      2877 2.20448E-02
 -1      2878 1.58558E-02
 -1      2879 1.77495E-02
 -1      2880 1.52363E-02
 -1      2881 1.35075E-02
 -1      2882 1.52364E-02
 -1      2883 1.26802E-02
 -1      2884 1.12279E-02
 -1      2885 1.27473E-02
 -1      2886 1.13006E-02
 -1      2887 9.27050E-03
 -1      2888 1.04316E-02
 -1      2889 9.74414E-03
 -1      2890 7.78881E-03
 -1      2891 8.50332E-03
 -1      2892 8.18072E-03
 -1      2893 6.51049E-03
 -1      2894 7.16025E-03
 -1      2895 6.78498E-03
 -1      2896 5.43980E-03
 -1      2897 6.05189E-03
 -1      2898 5.69782E-03
 -1      2899 4.53339E-03
 -1      2900 5.02991E-03
 -1      2901 4.82933E-03
 -1      2902 3.70628E-03
 -1      2903 4.14502E-03
 -1      2904 4.03107E-03
 -1      2905 2.99362E-03
 -1      2906 3.38191E-03
 -1      2907 3.31833E-03
 -1      2908 2.39721E-03
 -1      2909 2.70036E-03
 -1      2910 2.70071E-03
 -1      2911 1.88362E-03
 -1      2912 2.13890E-03
 -1      2913 2.14915E-03
 -1      2914 1.45527E-03
 -1      2915 1.67397E-03
 -1      2916 1.68119E-03
 -1      2917 1.10497E-03
 -1      2918 1.28768E-03
 -1      2919 1.30395E-03
 -1      2920 8.14314E-04
 -1      2921 9.63049E-04
 -1      2922 9.94443E-04
 -1      2923 5.72918E-04
 -1      2924 6.93544E-04
 -1      2925 7.31750E-04
 -1      2926 4.15308E-04
 -1      2927 4.96641E-04
 -1      2928 5.34703E-04
 -1      2929 3.92426E-04
 -1      2930 4.57435E-04
 -1      2931 4.57435E-04
 -1      2932 4.44603E-04
 -1      2933 4.16224E-04
 -1      2934 4.56365E-04
 -1      2935 4.56570E-04
 -1      2936 5.16764E-04
 -1      2937 4.57435E-04
 -1      2938 4.56409E-04
 -1      2939 5.05823E-04
 -1      2940 5.17630E-04
 -1      2941 4.55328E-04
 -1      2942 4.56365E-04
 -1      2943 5.15899E-04
 -1      2944 4.20867E-04
 -1      2945 4.46109E-04
 -1      2946 5.06679E-04
 -1      2947 4.89571E-04
 -1      2948 4.69541E-04
 -1      2949 5.46133E-04
 -1      2950 4.89571E-04
 -1      2951 3.46638E+00
 -1      2952 3.54828E+00
 -1      2953 4.25983E+00
 -1      2954 9.00275E+00
 -1      2955 1.15754E+01
 -1      2956 1.89660E+00
 -1      2957 1.50352E+00
 -1      2958 3.75967E+00
 -1      2959 6.84437E+00
 -1      2960 5.66262E+00
 -1      2961 5.55465E+00
 -1      2962 4.64194E+00
 -1      2963 2.68623E+00
 -1      2964 2.37057E+00
 -1      2965 3.75873E+00
 -1      2966 7.57260E+00
 -1      2967 6.39168E+00
 -1      2968 1.84214E+01
 -1      2969 2.10296E+01
 -1      2970 2.82564E+00
 -1      2971 3.27213E+00
 -1      2972 3.47902E+00
 -1      2973 2.72994E+00
 -1      2974 1.56685E+00
 -1      2975 1.77991E+00
 -1      2976 1.76104E+00
 -1      2977 2.04594E+00
 -1      2978 6.57184E+00
 -1      2979 6.32680E+00
 -1      2980 4.95040E+00
 -1      2981 6.84648E+00
 -1      2982 1.06818E+01
 -1      2983 7.74261E+00
 -1      2984 1.03613E+01
 -1      2985 1.09452E+01
 -1      2986 1.38424E+01
 -1      2987 2.09190E+00
 -1      2988 1.93485E+01
 -1      2989 1.94218E+01
 -1      2990 1.20024E+01
 -1      2991 1.39434E+01
 -1      2992 1.23792E+01
 -1      2993 9.55058E+00
 -1      2994 4.93816E+00
 -1      2995 6.76037E+00
 -1      2996 8.40067E+00
 -1      2997 9.95666E+00
 -1      2998 1.52298E+01
 -1      2999 1.99480E+01
 -1      3000 2.19953E+01
 -1      3001 2.04503E+01
 -1      3002 1.10525E+01
 -1      3003 1.49602E+01
 -1      3004 5.65380E+00
 -1      3005 6.33632E+00
 -1      3006 3.97894E+00
 -1      3007 3.68436E+00
 -1      3008 4.68355E+00
 -1      3009 3.78015E+00
 -1      3010 5.88944E+00
 -1      3011 4.51041E+00
 -1      3012 1.02839E+01
 -1      3013 1.06872E+01
 -1      3014 4.30931E+00
 -1      3015 3.12282E+00
 -1      3016 1.61075E+01
 -1      3017 1.51621E+01
 -1      3018 1.08899E+01
 -1      3019 1.01150E+01
 -1      3020 3.14311E+00
 -1      3021 3.72319E+00
 -1      3022 3.98822E+00
 -1      3023 7.43114E+00
 -1      3024 6.56612E+00
 -1      3025 6.23355E+00
 -1      3026 5.41703E+00
 -1      3027 4.47001E+00
 -1      3028 4.17163E+00
 -1      3029 9.33753E+00
 -1      3030 3.63102E+00
 -1      3031 3.11953E+00
 -1      3032 4.26136E+00
 -1      3033 3.43003E+00
 -1      3034 3.72767E+00
 -1      3035 1.18284E+01
 -1      3036 3.56363E-04
 -1      3037 4.22363E-04
 -1      3038 3.36806E-04
 -1      3039 6.68751E+00
 -1      3040 3.32635E+00
 -1      3041 4.88040E+00
 -1      3042 1.46063E+01
 -1      3043 1.26585E+01
 -1      3044 1.00794E+01
 -1      3045 5.94807E-04
 -1      3046 1.82585E+01
 -1      3047 7.44558E+00
 -1      3048 4.56064E+00
 -1      3049 6.34732E+00
 -1      3050 1.35551E+01
 -1      3051 2.21023E+01
 -1      3052 1.66570E+01
 -1      3053 2.39198E+00
 -1      3054 1.25913E+01
 -1      3055 8.21974E+00
 -1      3056 3.78358E-04
 -1      3057 3.52798E-04
 -1      3058 4.02292E-04
 -1      3059 4.56150E-04
 -1      3060 1.23007E+01
 -1      3061 8.86440E+00
 -1      3062 3.86728E+00
 -1      3063 5.44555E+00
 -1      3064 4.66157E+00
 -1      3065 7.79288E+00
 -1      3066 3.43030E+00
 -1      3067 4.29792E+00
 -1      3068 1.41668E+01
 -1      3069 3.28387E+00
 -1      3070 4.05130E+00
 -1      3071 1.50666E+01
 -1      3072 4.91520E+00
 -1      3073 5.74548E+00
 -1      3074 6.07584E+00
 -1      3075 7.89817E+00
 -1      3076 5.18031E+00
 -1      3077 5.77503E+00
 -1      3078 7.01561E+00
 -1      3079 5.91346E+00
 -1      3080 2.23588E+00
 -1      3081 2.40760E+00
 -1      3082 2.70555E+00
 -1      3083 3.42279E+00
 -1      3084 4.42164E+00
 -1      3085 5.41703E+00
 -1      3086 5.18150E+00
 -1      3087 4.13047E+00
 -1      3088 1.72153E+00
 -1      3089 1.65700E+00
 -1      3090 2.36071E+00
 -1      3091 2.33668E+00
 -1      3092 2.42524E+00
 -1      3093 1.67941E+00
 -1      3094 1.53233E+00
 -1      3095 2.47167E+00
 -1      3096 1.42052E+00
 -1      3097 1.30775E+00
 -1      3098 1.70259E+00
 -1      3099 1.15943E+00
 -1      3100 1.10690E+00
 -1      3101 1.44244E+00
 -1      3102 9.64840E-01
 -1      3103 8.96925E-01
 -1      3104 1.15206E+00
 -1      3105 8.07674E-01
 -1      3106 7.41423E-01
 -1      3107 9.20742E-01
 -1      3108 6.67077E-01
 -1      3109 6.26734E-01
 -1      3110 7.57145E-01
 -1      3111 5.60791E-01
 -1      3112 5.19102E-01
 -1      3113 6.16856E-01
 -1      3114 4.63995E-01
 -1      3115 4.22225E-01
 -1      3116 4.95805E-01
 -1      3117 3.74672E-01
 -1      3118 3.35859E-01
 -1      3119 3.93144E-01
 -1      3120 2.96252E-01
 -1      3121 2.61918E-01
 -1      3122 3.05984E-01
 -1      3123 2.33166E-01
 -1      3124 2.03872E-01
 -1      3125 2.37625E-01
 -1      3126 1.79100E-01
 -1      3127 1.54821E-01
 -1      3128 1.84101E-01
 -1      3129 1.34174E-01
 -1      3130 1.14549E-01
 -1      3131 1.38682E-01
 -1      3132 9.79908E-02
 -1      3133 8.24819E-02
 -1      3134 1.01476E-01
 -1      3135 7.01650E-02
 -1      3136 5.81684E-02
 -1      3137 7.26007E-02
 -1      3138 4.88341E-02
 -1      3139 3.97501E-02
 -1      3140 5.09494E-02
 -1      3141 3.30622E-02
 -1      3142 2.63348E-02
 -1      3143 3.49271E-02
 -1      3144 2.14074E-02
 -1      3145 1.65445E-02
 -1      3146 2.33119E-02
 -1      3147 1.29879E-02
 -1      3148 1.05115E-02
 -1      3149 1.48279E-02
 -1      3150 8.00632E-03
 -1      3151 7.77067E-03
 -1      3152 8.76617E-03
 -1      3153 7.34225E-03
 -1      3154 7.00812E-03
 -1      3155 5.83258E-03
 -1      3156 7.17009E-03
 -1      3157 6.69266E-03
 -1      3158 5.56613E-03
 -1      3159 6.60754E-03
 -1      3160 6.07293E-03
 -1      3161 5.64298E-03
 -1      3162 5.84279E-03
 -1      3163 5.30716E-03
 -1      3164 5.32771E-03
 -1      3165 5.00338E-03
 -1      3166 4.62502E-03
 -1      3167 4.79378E-03
 -1      3168 4.31215E-03
 -1      3169 3.95950E-03
 -1      3170 4.17712E-03
 -1      3171 3.73007E-03
 -1      3172 3.38436E-03
 -1      3173 3.63481E-03
 -1      3174 3.13413E-03
 -1      3175 2.81414E-03
 -1      3176 3.15515E-03
 -1      3177 2.56683E-03
 -1      3178 2.29061E-03
 -1      3179 2.65760E-03
 -1      3180 2.06029E-03
 -1      3181 1.83065E-03
 -1      3182 2.17996E-03
 -1      3183 1.62469E-03
 -1      3184 1.42670E-03
 -1      3185 1.74368E-03
 -1      3186 1.24777E-03
 -1      3187 1.08335E-03
 -1      3188 1.35880E-03
 -1      3189 9.41100E-04
 -1      3190 8.17790E-04
 -1      3191 1.03763E-03
 -1      3192 2.39237E+00
 -1      3193 2.64135E+00
 -1      3194 1.84624E+00
 -1      3195 2.05183E+00
 -1      3196 2.53254E+00
 -1      3197 1.49581E+00
 -1      3198 1.59323E+00
 -1      3199 1.93898E+00
 -1      3200 1.19158E+00
 -1      3201 1.29359E+00
 -1      3202 1.48376E+00
 -1      3203 9.45598E-01
 -1      3204 1.04435E+00
 -1      3205 1.13431E+00
 -1      3206 7.43048E-01
 -1      3207 8.32061E-01
 -1      3208 8.73542E-01
 -1      3209 5.86435E-01
 -1      3210 6.63271E-01
 -1      3211 6.80227E-01
 -1      3212 4.53578E-01
 -1      3213 5.17986E-01
 -1      3214 5.32001E-01
 -1      3215 3.43985E-01
 -1      3216 3.96747E-01
 -1      3217 4.06722E-01
 -1      3218 2.55936E-01
 -1      3219 2.98326E-01
 -1      3220 3.04233E-01
 -1      3221 1.88345E-01
 -1      3222 2.21811E-01
 -1      3223 2.24450E-01
 -1      3224 1.37538E-01
 -1      3225 1.63524E-01
 -1      3226 1.65505E-01
 -1      3227 9.84632E-02
 -1      3228 1.18314E-01
 -1      3229 1.21460E-01
 -1      3230 6.88295E-02
 -1      3231 8.37424E-02
 -1      3232 8.75156E-02
 -1      3233 4.67007E-02
 -1      3234 5.77077E-02
 -1      3235 6.16729E-02
 -1      3236 3.04599E-02
 -1      3237 3.84267E-02
 -1      3238 4.22771E-02
 -1      3239 1.95408E-02
 -1      3240 2.44127E-02
 -1      3241 2.79559E-02
 -1      3242 1.32748E-02
 -1      3243 1.52114E-02
 -1      3244 1.75793E-02
 -1      3245 1.00349E-02
 -1      3246 1.06543E-02
 -1      3247 1.06294E-02
 -1      3248 9.00224E-03
 -1      3249 9.76245E-03
 -1      3250 7.73651E-03
 -1      3251 8.10323E-03
 -1      3252 8.89947E-03
 -1      3253 7.36132E-03
 -1      3254 7.04012E-03
 -1      3255 7.80729E-03
 -1      3256 6.96262E-03
 -1      3257 6.01827E-03
 -1      3258 6.64684E-03
 -1      3259 6.27341E-03
 -1      3260 5.13269E-03
 -1      3261 5.59129E-03
 -1      3262 5.45314E-03
 -1      3263 4.37565E-03
 -1      3264 4.78554E-03
 -1      3265 4.67901E-03
 -1      3266 3.69149E-03
 -1      3267 4.07986E-03
 -1      3268 4.03607E-03
 -1      3269 3.06637E-03
 -1      3270 3.39073E-03
 -1      3271 3.43953E-03
 -1      3272 2.48800E-03
 -1      3273 2.78125E-03
 -1      3274 2.85366E-03
 -1      3275 1.97159E-03
 -1      3276 2.22990E-03
 -1      3277 2.31044E-03
 -1      3278 1.53595E-03
 -1      3279 1.74560E-03
 -1      3280 1.82635E-03
 -1      3281 1.17548E-03
 -1      3282 1.34306E-03
 -1      3283 1.40747E-03
 -1      3284 8.72437E-04
 -1      3285 1.01436E-03
 -1      3286 1.05347E-03
 -1      3287 6.20543E-04
 -1      3288 7.41313E-04
 -1      3289 7.61230E-04
 -1      3290 4.89880E-04
 -1      3291 5.66157E-04
 -1      3292 5.75720E-04
 -1      3293 4.53817E-04
 -1      3294 6.48659E-04
 -1      3295 5.99986E-04
 -1      3296 8.26434E+00
 -1      3297 6.64550E+00
 -1      3298 7.18409E+00
 -1      3299 8.27991E+00
 -1      3300 5.69497E-04
 -1      3301 5.70363E-04
 -1      3302 4.46532E+00
 -1      3303 6.01951E+00
 -1      3304 4.32374E+00
 -1      3305 1.08914E+01
 -1      3306 5.74460E-04
 -1      3307 5.83679E-04
 -1      3308 6.76986E-04
 -1      3309 2.71345E+00
 -1      3310 2.79444E+00
 -1      3311 3.05246E+00
 -1      3312 3.02618E+00
 -1      3313 3.36149E+00
 -1      3314 3.22717E+00
 -1      3315 6.87993E+00
 -1      3316 6.08235E+00
 -1      3317 1.20736E+01
 -1      3318 9.40084E+00
 -1      3319 8.71378E+00
 -1      3320 5.70414E+00
 -1      3321 4.80591E+00
 -1      3322 5.10409E+00
 -1      3323 2.81350E+00
 -1      3324 2.64891E+00
 -1      3325 1.17618E+01
 -1      3326 9.72530E+00
 -1      3327 9.10230E+00
 -1      3328 2.77678E+00
 -1      3329 5.74972E+00
 -1      3330 9.74352E+00
 -1      3331 1.08162E+01
 -1      3332 5.83679E-04
 -1      3333 5.83679E-04
 -1      3334 6.37278E-04
 -1      3335 6.51460E-04
 -1      3336 6.08864E-04
 -1      3337 6.08864E-04
 -1      3338 6.62717E-04
 -1      3339 6.03241E-04
 -1      3340 4.49350E+00
 -1      3341 3.51443E+00
 -1      3342 4.65370E+00
 -1      3343 3.88154E+00
 -1      3344 4.17163E+00
 -1      3345 3.12061E+00
 -1      3346 2.44165E+00
 -1      3347 3.16177E+00
 -1      3348 1.07345E+01
 -1      3349 9.14412E+00
 -1      3350 7.88671E+00
 -1      3351 7.89965E+00
 -1      3352 8.28675E+00
 -1      3353 3.28596E+00
 -1      3354 2.91610E+00
 -1      3355 3.35690E+00
 -1      3356 4.99297E+00
 -1      3357 3.91287E+00
 -1      3358 2.83699E+00
 -1      3359 3.89516E+00
 -1      3360 6.81564E-04
 -1      3361 3.50097E+00
 -1      3362 3.27367E+00
 -1      3363 5.21767E+00
 -1      3364 3.66054E+00
 -1      3365 7.84878E+00
 -1      3366 5.62988E+00
 -1      3367 6.50966E+00
 -1      3368 5.80464E-04
 -1      3369 5.68657E-04
 -1      3370 6.11613E+00
 -1      3371 8.26958E+00
 -1      3372 7.91564E+00
 -1      3373 6.33197E-04
 -1      3374 5.80464E-04
 -1      3375 5.80464E-04
 -1      3376 3.75284E+00
 -1      3377 2.87339E+00
 -1      3378 8.82874E+00
 -1      3379 3.48830E+00
 -1      3380 4.16307E+00
 -1      3381 5.60519E+00
 -1      3382 4.10818E+00
 -1      3383 3.85032E+00
 -1      3384 5.63036E-04
 -1      3385 5.25170E-04
 -1      3386 6.37677E-04
 -1      3387 7.59148E-04
 -1      3388 2.39450E+00
 -1      3389 3.82620E+00
 -1      3390 7.93200E+00
 -1      3391 9.72530E+00
 -1      3392 7.95021E+00
 -1      3393 2.44165E+00
 -1      3394 3.07713E+00
 -1      3395 2.20588E+00
 -1      3396 1.85765E+00
 -1      3397 2.68072E+00
 -1      3398 2.64891E+00
 -1      3399 6.97678E+00
 -1      3400 6.89506E+00
 -1      3401 3.12894E+00
 -1      3402 2.47167E+00
 -1      3403 2.08364E+00
 -1      3404 1.97182E+00
 -1      3405 2.74090E+00
 -1      3406 1.71216E+00
 -1      3407 1.56384E+00
 -1      3408 2.09321E+00
 -1      3409 1.38213E+00
 -1      3410 1.24007E+00
 -1      3411 1.65185E+00
 -1      3412 1.07229E+00
 -1      3413 9.83039E-01
 -1      3414 1.30237E+00
 -1      3415 8.38736E-01
 -1      3416 7.64391E-01
 -1      3417 9.90285E-01
 -1      3418 6.62838E-01
 -1      3419 5.96895E-01
 -1      3420 7.44429E-01
 -1      3421 5.31278E-01
 -1      3422 4.76170E-01
 -1      3423 5.77260E-01
 -1      3424 4.28708E-01
 -1      3425 3.81154E-01
 -1      3426 4.64181E-01
 -1      3427 3.41026E-01
 -1      3428 3.01419E-01
 -1      3429 3.76590E-01
 -1      3430 2.65943E-01
 -1      3431 2.37191E-01
 -1      3432 3.00986E-01
 -1      3433 2.06958E-01
 -1      3434 1.82187E-01
 -1      3435 2.35277E-01
 -1      3436 1.57149E-01
 -1      3437 1.36502E-01
 -1      3438 1.80007E-01
 -1      3439 1.16275E-01
 -1      3440 9.97169E-02
 -1      3441 1.34743E-01
 -1      3442 8.37319E-02
 -1      3443 7.14149E-02
 -1      3444 9.85311E-02
 -1      3445 5.90441E-02
 -1      3446 4.97097E-02
 -1      3447 7.01753E-02
 -1      3448 4.07519E-02
 -1      3449 3.40640E-02
 -1      3450 4.88466E-02
 -1      3451 2.74628E-02
 -1      3452 2.25354E-02
 -1      3453 3.32876E-02
 -1      3454 1.76780E-02
 -1      3455 1.41214E-02
 -1      3456 2.18289E-02
 -1      3457 1.06333E-02
 -1      3458 8.12814E-03
 -1      3459 1.34834E-02
 -1      3460 5.74707E-03
 -1      3461 5.31865E-03
 -1      3462 7.61421E-03
 -1      3463 4.18908E-03
 -1      3464 4.35105E-03
 -1      3465 4.10357E-03
 -1      3466 4.76125E-03
 -1      3467 4.67613E-03
 -1      3468 3.38420E-03
 -1      3469 4.80255E-03
 -1      3470 4.57241E-03
 -1      3471 3.92082E-03
 -1      3472 4.51844E-03
 -1      3473 4.21466E-03
 -1      3474 3.99329E-03
 -1      3475 4.05456E-03
 -1      3476 3.74169E-03
 -1      3477 3.77922E-03
 -1      3478 3.52723E-03
 -1      3479 3.29779E-03
 -1      3480 3.40467E-03
 -1      3481 3.10747E-03
 -1      3482 2.85725E-03
 -1      3483 2.99989E-03
 -1      3484 2.67129E-03
 -1      3485 2.42397E-03
 -1      3486 2.62361E-03
 -1      3487 2.23089E-03
 -1      3488 2.00057E-03
 -1      3489 2.24458E-03
 -1      3490 1.81496E-03
 -1      3491 1.60901E-03
 -1      3492 1.86589E-03
 -1      3493 1.43918E-03
 -1      3494 1.26026E-03
 -1      3495 1.51046E-03
 -1      3496 1.11231E-03
 -1      3497 9.70056E-04
 -1      3498 1.19269E-03
 -1      3499 1.96594E+00
 -1      3500 2.21895E+00
 -1      3501 2.76025E+00
 -1      3502 3.10080E+00
 -1      3503 2.78720E+00
 -1      3504 1.10999E+00
 -1      3505 1.25722E+00
 -1      3506 8.64494E-01
 -1      3507 9.78031E-01
 -1      3508 1.10094E+00
 -1      3509 6.77299E-01
 -1      3510 7.57076E-01
 -1      3511 8.61565E-01
 -1      3512 5.22058E-01
 -1      3513 5.90506E-01
 -1      3514 6.67355E-01
 -1      3515 3.96025E-01
 -1      3516 4.52856E-01
 -1      3517 5.11361E-01
 -1      3518 2.95680E-01
 -1      3519 3.41338E-01
 -1      3520 3.87471E-01
 -1      3521 2.18750E-01
 -1      3522 2.52874E-01
 -1      3523 2.89979E-01
 -1      3524 1.60705E-01
 -1      3525 1.85525E-01
 -1      3526 2.13950E-01
 -1      3527 1.15984E-01
 -1      3528 1.35208E-01
 -1      3529 1.55229E-01
 -1      3530 8.19413E-02
 -1      3531 9.66621E-02
 -1      3532 1.10410E-01
 -1      3533 5.69140E-02
 -1      3534 6.80359E-02
 -1      3535 7.71824E-02
 -1      3536 3.84954E-02
 -1      3537 4.67694E-02
 -1      3538 5.31323E-02
 -1      3539 2.50019E-02
 -1      3540 3.10491E-02
 -1      3541 3.55414E-02
 -1      3542 1.53628E-02
 -1      3543 1.96922E-02
 -1      3544 2.27854E-02
 -1      3545 9.03109E-03
 -1      3546 1.16516E-02
 -1      3547 1.37644E-02
 -1      3548 6.35777E-03
 -1      3549 6.63020E-03
 -1      3550 7.65236E-03
 -1      3551 5.76498E-03
 -1      3552 5.86774E-03
 -1      3553 4.76143E-03
 -1      3554 5.74572E-03
 -1      3555 6.04166E-03
 -1      3556 4.54807E-03
 -1      3557 5.36290E-03
 -1      3558 5.75618E-03
 -1      3559 4.83521E-03
 -1      3560 4.78545E-03
 -1      3561 5.21243E-03
 -1      3562 4.69521E-03
 -1      3563 4.20035E-03
 -1      3564 4.54750E-03
 -1      3565 4.30679E-03
 -1      3566 3.62877E-03
 -1      3567 3.92456E-03
 -1      3568 3.79304E-03
 -1      3569 3.12301E-03
 -1      3570 3.42376E-03
 -1      3571 3.31225E-03
 -1      3572 2.61820E-03
 -1      3573 2.90332E-03
 -1      3574 2.88755E-03
 -1      3575 2.13919E-03
 -1      3576 2.39729E-03
 -1      3577 2.44695E-03
 -1      3578 1.70509E-03
 -1      3579 1.93108E-03
 -1      3580 2.01793E-03
 -1      3581 1.32439E-03
 -1      3582 1.51727E-03
 -1      3583 1.62200E-03
 -1      3584 9.98720E-04
 -1      3585 1.15984E-03
 -1      3586 1.26963E-03
 -1      3587 7.26838E-04
 -1      3588 8.57963E-04
 -1      3589 9.64328E-04
 -1      3590 6.43298E-04
 -1      3591 3.89834E+00
 -1      3592 6.12053E+00
 -1      3593 8.21167E+00
 -1      3594 7.31492E+00
 -1      3595 5.06291E+00
 -1      3596 1.92880E+00
 -1      3597 4.00968E+00
 -1      3598 5.07323E+00
 -1      3599 5.06290E+00
 -1      3600 4.69953E+00
 -1      3601 3.75817E+00
 -1      3602 7.00923E-04
 -1      3603 6.75397E-04
 -1      3604 7.98943E-04
 -1      3605 2.62972E+00
 -1      3606 5.01364E-04
 -1      3607 4.85372E-04
 -1      3608 5.52889E-04
 -1      3609 6.08249E-04
 -1      3610 3.33343E+00
 -1      3611 1.44551E+00
 -1      3612 1.64773E+00
 -1      3613 1.92769E+00
 -1      3614 1.42119E+00
 -1      3615 3.64583E+00
 -1      3616 3.33343E+00
 -1      3617 3.20302E+00
 -1      3618 6.95856E+00
 -1      3619 3.24128E+00
 -1      3620 2.81706E+00
 -1      3621 6.19464E+00
 -1      3622 4.89930E+00
 -1      3623 5.28471E+00
 -1      3624 7.10732E-04
 -1      3625 7.10732E-04
 -1      3626 6.40182E+00
 -1      3627 6.07274E-04
 -1      3628 3.58932E+00
 -1      3629 7.04007E-04
 -1      3630 7.87621E-04
 -1      3631 7.20187E-04
 -1      3632 7.14565E-04
 -1      3633 6.99018E-04
 -1      3634 7.09120E-04
 -1      3635 7.76553E-04
 -1      3636 2.53787E+00
 -1      3637 6.22128E+00
 -1      3638 6.83835E+00
 -1      3639 6.83835E+00
 -1      3640 3.67425E+00
 -1      3641 3.44654E+00
 -1      3642 4.55444E+00
 -1      3643 3.20853E+00
 -1      3644 4.13888E+00
 -1      3645 7.39988E-04
 -1      3646 7.16051E-04
 -1      3647 7.16051E-04
 -1      3648 3.59963E+00
 -1      3649 9.18337E-04
 -1      3650 8.21906E-04
 -1      3651 7.16051E-04
 -1      3652 7.01869E-04
 -1      3653 7.77791E-04
 -1      3654 7.80642E-04
 -1      3655 9.93019E-04
 -1      3656 2.19185E+00
 -1      3657 2.01014E+00
 -1      3658 1.53094E+00
 -1      3659 1.36316E+00
 -1      3660 2.07094E+00
 -1      3661 1.10167E+00
 -1      3662 9.57365E-01
 -1      3663 1.33024E+00
 -1      3664 8.24137E-01
 -1      3665 7.22584E-01
 -1      3666 9.35520E-01
 -1      3667 6.42876E-01
 -1      3668 5.77260E-01
 -1      3669 7.22584E-01
 -1      3670 5.11643E-01
 -1      3671 4.64181E-01
 -1      3672 5.77260E-01
 -1      3673 4.09589E-01
 -1      3674 3.69461E-01
 -1      3675 4.57051E-01
 -1      3676 3.24785E-01
 -1      3677 2.89309E-01
 -1      3678 3.57784E-01
 -1      3679 2.53059E-01
 -1      3680 2.22826E-01
 -1      3681 2.76858E-01
 -1      3682 1.93682E-01
 -1      3683 1.68645E-01
 -1      3684 2.11464E-01
 -1      3685 1.45505E-01
 -1      3686 1.25278E-01
 -1      3687 1.59180E-01
 -1      3688 1.07114E-01
 -1      3689 9.11288E-02
 -1      3690 1.17876E-01
 -1      3691 7.70514E-02
 -1      3692 6.46805E-02
 -1      3693 8.56340E-02
 -1      3694 5.39295E-02
 -1      3695 4.49717E-02
 -1      3696 6.08056E-02
 -1      3697 3.69607E-02
 -1      3698 3.03595E-02
 -1      3699 4.20436E-02
 -1      3700 2.48152E-02
 -1      3701 1.99578E-02
 -1      3702 2.84883E-02
 -1      3703 1.58818E-02
 -1      3704 1.23937E-02
 -1      3705 1.88681E-02
 -1      3706 9.46125E-03
 -1      3707 7.08018E-03
 -1      3708 1.18597E-02
 -1      3709 5.13680E-03
 -1      3710 4.00723E-03
 -1      3711 6.98385E-03
 -1      3712 2.93094E-03
 -1      3713 3.34114E-03
 -1      3714 3.96417E-03
 -1      3715 3.18537E-03
 -1      3716 3.31180E-03
 -1      3717 2.73211E-03
 -1      3718 3.51854E-03
 -1      3719 3.46458E-03
 -1      3720 2.78309E-03
 -1      3721 3.49301E-03
 -1      3722 3.33292E-03
 -1      3723 3.01827E-03
 -1      3724 3.25143E-03
 -1      3725 3.03697E-03
 -1      3726 2.96522E-03
 -1      3727 2.89392E-03
 -1      3728 2.70360E-03
 -1      3729 2.74068E-03
 -1      3730 2.53240E-03
 -1      3731 2.34645E-03
 -1      3732 2.42643E-03
 -1      3733 2.20409E-03
 -1      3734 2.01101E-03
 -1      3735 2.11288E-03
 -1      3736 1.85980E-03
 -1      3737 1.67420E-03
 -1      3738 1.81931E-03
 -1      3739 1.52654E-03
 -1      3740 1.35672E-03
 -1      3741 1.52045E-03
 -1      3742 1.22151E-03
 -1      3743 1.07356E-03
 -1      3744 1.23759E-03
 -1      3745 3.61931E+00
 -1      3746 6.21163E-01
 -1      3747 7.07955E-01
 -1      3748 8.16174E-01
 -1      3749 9.23592E-01
 -1      3750 7.69983E-01
 -1      3751 1.07280E+00
 -1      3752 1.20476E+00
 -1      3753 1.02741E+00
 -1      3754 4.71613E-01
 -1      3755 5.40815E-01
 -1      3756 5.81416E-01
 -1      3757 3.55889E-01
 -1      3758 4.10576E-01
 -1      3759 4.40030E-01
 -1      3760 2.66247E-01
 -1      3761 3.09052E-01
 -1      3762 3.32156E-01
 -1      3763 1.96695E-01
 -1      3764 2.29919E-01
 -1      3765 2.48992E-01
 -1      3766 1.43120E-01
 -1      3767 1.68617E-01
 -1      3768 1.84586E-01
 -1      3769 1.02222E-01
 -1      3770 1.21544E-01
 -1      3771 1.34932E-01
 -1      3772 7.18842E-02
 -1      3773 8.57896E-02
 -1      3774 9.69241E-02
 -1      3775 4.93693E-02
 -1      3776 5.95139E-02
 -1      3777 6.81212E-02
 -1      3778 3.31147E-02
 -1      3779 4.05610E-02
 -1      3780 4.69426E-02
 -1      3781 2.14638E-02
 -1      3782 2.67736E-02
 -1      3783 3.17932E-02
 -1      3784 1.31331E-02
 -1      3785 1.68443E-02
 -1      3786 2.08325E-02
 -1      3787 7.43823E-03
 -1      3788 9.83913E-03
 -1      3789 1.29190E-02
 -1      3790 4.71497E-03
 -1      3791 5.20500E-03
 -1      3792 7.39177E-03
 -1      3793 3.82289E-03
 -1      3794 3.54621E-03
 -1      3795 3.98978E-03
 -1      3796 4.03040E-03
 -1      3797 4.01994E-03
 -1      3798 3.01808E-03
 -1      3799 4.04095E-03
 -1      3800 4.19142E-03
 -1      3801 3.37615E-03
 -1      3802 3.78536E-03
 -1      3803 4.02332E-03
 -1      3804 3.51953E-03
 -1      3805 3.38526E-03
 -1      3806 3.66105E-03
 -1      3807 3.37758E-03
 -1      3808 2.99930E-03
 -1      3809 3.20431E-03
 -1      3810 3.07231E-03
 -1      3811 2.59490E-03
 -1      3812 2.81459E-03
 -1      3813 2.70665E-03
 -1      3814 2.20968E-03
 -1      3815 2.43059E-03
 -1      3816 2.35763E-03
 -1      3817 1.82952E-03
 -1      3818 2.03763E-03
 -1      3819 2.02127E-03
 -1      3820 1.47568E-03
 -1      3821 1.66350E-03
 -1      3822 1.68320E-03
 -1      3823 1.15882E-03
 -1      3824 1.32337E-03
 -1      3825 1.36487E-03
 -1      3826 5.53153E+00
 -1      3827 5.82756E+00
 -1      3828 2.39307E+00
 -1      3829 2.93438E+00
 -1      3830 6.38571E+00
 -1      3831 5.41228E+00
 -1      3832 2.85324E+00
 -1      3833 2.70815E+00
 -1      3834 8.40355E-04
 -1      3835 8.41967E-04
 -1      3836 7.27813E-04
 -1      3837 8.10323E-04
 -1      3838 5.29206E+00
 -1      3839 2.43331E+00
 -1      3840 2.58049E+00
 -1      3841 2.11511E+00
 -1      3842 3.26812E+00
 -1      3843 3.00846E+00
 -1      3844 1.02184E-03
 -1      3845 4.74502E+00
 -1      3846 4.04460E+00
 -1      3847 4.17217E+00
 -1      3848 4.40460E+00
 -1      3849 5.27489E+00
 -1      3850 8.85521E-04
 -1      3851 1.02628E-03
 -1      3852 8.64731E-04
 -1      3853 8.74186E-04
 -1      3854 9.28533E-04
 -1      3855 4.79832E+00
 -1      3856 4.14289E+00
 -1      3857 4.48863E+00
 -1      3858 8.20317E-04
 -1      3859 4.38383E+00
 -1      3860 4.69885E+00
 -1      3861 1.05578E-03
 -1      3862 1.12119E-03
 -1      3863 1.05863E-03
 -1      3864 1.42119E+00
 -1      3865 1.60949E+00
 -1      3866 2.11511E+00
 -1      3867 3.36675E+00
 -1      3868 1.08002E-03
 -1      3869 3.74876E+00
 -1      3870 1.02455E-03
 -1      3871 9.03565E-04
 -1      3872 9.44219E-04
 -1      3873 1.10509E-03
 -1      3874 1.39306E+00
 -1      3875 3.62340E+00
 -1      3876 1.05863E-03
 -1      3877 1.05863E-03
 -1      3878 1.33661E-03
 -1      3879 1.23418E+00
 -1      3880 1.45061E+00
 -1      3881 1.49683E+00
 -1      3882 1.23534E+00
 -1      3883 1.06875E+00
 -1      3884 9.35520E-01
 -1      3885 1.23534E+00
 -1      3886 8.02292E-01
 -1      3887 7.22584E-01
 -1      3888 9.35520E-01
 -1      3889 6.22227E-01
 -1      3890 5.56611E-01
 -1      3891 7.01935E-01
 -1      3892 4.83596E-01
 -1      3893 4.29004E-01
 -1      3894 5.28563E-01
 -1      3895 3.73672E-01
 -1      3896 3.28996E-01
 -1      3897 4.00216E-01
 -1      3898 2.86725E-01
 -1      3899 2.50474E-01
 -1      3900 3.02612E-01
 -1      3901 2.17952E-01
 -1      3902 1.88808E-01
 -1      3903 2.27819E-01
 -1      3904 1.63872E-01
 -1      3905 1.40733E-01
 -1      3906 1.70360E-01
 -1      3907 1.21534E-01
 -1      3908 1.03370E-01
 -1      3909 1.26226E-01
 -1      3910 8.86417E-02
 -1      3911 7.45643E-02
 -1      3912 9.22999E-02
 -1      3913 6.33541E-02
 -1      3914 5.26031E-02
 -1      3915 6.63618E-02
 -1      3916 4.41628E-02
 -1      3917 3.61518E-02
 -1      3918 4.67113E-02
 -1      3919 2.99444E-02
 -1      3920 2.44001E-02
 -1      3921 3.20636E-02
 -1      3922 2.05909E-02
 -1      3923 1.65149E-02
 -1      3924 2.20470E-02
 -1      3925 1.36263E-02
 -1      3926 1.06938E-02
 -1      3927 1.53491E-02
 -1      3928 8.54566E-03
 -1      3929 6.60227E-03
 -1      3930 1.03123E-02
 -1      3931 5.04046E-03
 -1      3932 3.96417E-03
 -1      3933 6.60227E-03
 -1      3934 2.85754E-03
 -1      3935 2.70177E-03
 -1      3936 3.93383E-03
 -1      3937 2.20397E-03
 -1      3938 2.41072E-03
 -1      3939 2.32940E-03
 -1      3940 2.61289E-03
 -1      3941 2.64132E-03
 -1      3942 2.03377E-03
 -1      3943 2.69131E-03
 -1      3944 2.60982E-03
 -1      3945 2.28593E-03
 -1      3946 2.56448E-03
 -1      3947 2.42143E-03
 -1      3948 2.29057E-03
 -1      3949 2.32117E-03
 -1      3950 2.14998E-03
 -1      3951 2.14498E-03
 -1      3952 2.02269E-03
 -1      3953 1.88033E-03
 -1      3954 1.91743E-03
 -1      3955 1.74444E-03
 -1      3956 1.59323E-03
 -1      3957 1.65425E-03
 -1      3958 1.47164E-03
 -1      3959 1.32399E-03
 -1      3960 1.39677E-03
 -1      3961 1.31012E-03
 -1      3962 1.17491E-03
 -1      3963 1.26132E-03
 -1      3964 6.66425E-01
 -1      3965 7.74643E-01
 -1      3966 3.19609E+00
 -1      3967 3.80321E-01
 -1      3968 4.41358E-01
 -1      3969 5.02238E-01
 -1      3970 5.82586E-01
 -1      3971 4.42529E-01
 -1      3972 8.96352E-01
 -1      3973 1.04556E+00
 -1      3974 7.92794E-01
 -1      3975 2.88192E-01
 -1      3976 3.35029E-01
 -1      3977 3.36357E-01
 -1      3978 2.16361E-01
 -1      3979 2.52688E-01
 -1      3980 2.55562E-01
 -1      3981 1.60748E-01
 -1      3982 1.88827E-01
 -1      3983 1.92523E-01
 -1      3984 1.17781E-01
 -1      3985 1.39357E-01
 -1      3986 1.43597E-01
 -1      3987 8.47852E-02
 -1      3988 1.01218E-01
 -1      3989 1.05642E-01
 -1      3990 5.97001E-02
 -1      3991 7.20704E-02
 -1      3992 7.63641E-02
 -1      3993 4.12495E-02
 -1      3994 5.00578E-02
 -1      3995 5.40071E-02
 -1      3996 2.77946E-02
 -1      3997 3.41357E-02
 -1      3998 3.72510E-02
 -1      3999 1.82839E-02
 -1      4000 2.29034E-02
 -1      4001 2.52460E-02
 -1      4002 1.13954E-02
 -1      4003 1.46894E-02
 -1      4004 1.67603E-02
 -1      4005 6.73518E-03
 -1      4006 8.96840E-03
 -1      4007 1.07388E-02
 -1      4008 3.96353E-03
 -1      4009 5.13229E-03
 -1      4010 6.70893E-03
 -1      4011 3.03066E-03
 -1      4012 2.83361E-03
 -1      4013 3.97611E-03
 -1      4014 2.86976E-03
 -1      4015 2.70875E-03
 -1      4016 2.52428E-03
 -1      4017 3.05490E-03
 -1      4018 3.07253E-03
 -1      4019 2.40513E-03
 -1      4020 2.96826E-03
 -1      4021 3.09258E-03
 -1      4022 2.64559E-03
 -1      4023 2.72291E-03
 -1      4024 2.90385E-03
 -1      4025 2.61885E-03
 -1      4026 2.41614E-03
 -1      4027 2.60085E-03
 -1      4028 2.43239E-03
 -1      4029 2.10256E-03
 -1      4030 2.26688E-03
 -1      4031 2.16107E-03
 -1      4032 1.78617E-03
 -1      4033 1.95822E-03
 -1      4034 1.86747E-03
 -1      4035 1.48618E-03
 -1      4036 1.65220E-03
 -1      4037 1.58915E-03
 -1      4038 1.26708E-03
 -1      4039 1.41939E-03
 -1      4040 1.38838E-03
 -1      4041 4.62257E+00
 -1      4042 4.16992E+00
 -1      4043 3.67618E+00
 -1      4044 4.62257E+00
 -1      4045 3.50043E+00
 -1      4046 3.02034E+00
 -1      4047 3.84551E+00
 -1      4048 3.64506E+00
 -1      4049 2.82844E+00
 -1      4050 3.30583E+00
 -1      4051 8.72274E-04
 -1      4052 2.17613E+00
 -1      4053 1.69693E+00
 -1      4054 1.60203E+00
 -1      4055 2.45444E+00
 -1      4056 9.49384E-04
 -1      4057 1.22220E-03
 -1      4058 1.10311E+00
 -1      4059 1.08193E-03
 -1      4060 1.17762E-03
 -1      4061 5.87247E-01
 -1      4062 3.79658E+00
 -1      4063 3.12933E+00
 -1      4064 3.12708E+00
 -1      4065 1.13645E-03
 -1      4066 3.06058E+00
 -1      4067 1.95623E+00
 -1      4068 2.11511E+00
 -1      4069 2.62073E+00
 -1      4070 1.23342E-03
 -1      4071 1.01800E-03
 -1      4072 1.11368E-03
 -1      4073 1.22591E-03
 -1      4074 3.00988E-01
 -1      4075 3.46280E-01
 -1      4076 9.98332E-01
 -1      4077 8.65104E-01
 -1      4078 7.31368E-01
 -1      4079 6.31011E-01
 -1      4080 7.94180E-01
 -1      4081 5.79935E-01
 -1      4082 5.06920E-01
 -1      4083 6.09368E-01
 -1      4084 4.06487E-01
 -1      4085 3.51154E-01
 -1      4086 4.57858E-01
 -1      4087 3.05501E-01
 -1      4088 2.63229E-01
 -1      4089 3.11771E-01
 -1      4090 2.33823E-01
 -1      4091 2.01301E-01
 -1      4092 2.36712E-01
 -1      4093 1.77619E-01
 -1      4094 1.52683E-01
 -1      4095 1.83624E-01
 -1      4096 1.33611E-01
 -1      4097 1.14412E-01
 -1      4098 1.40869E-01
 -1      4099 9.91885E-02
 -1      4100 8.44606E-02
 -1      4101 1.06573E-01
 -1      4102 7.24489E-02
 -1      4103 6.12387E-02
 -1      4104 7.93374E-02
 -1      4105 5.18872E-02
 -1      4106 4.34469E-02
 -1      4107 5.79743E-02
 -1      4108 3.62739E-02
 -1      4109 3.00665E-02
 -1      4110 4.14498E-02
 -1      4111 2.47646E-02
 -1      4112 2.09553E-02
 -1      4113 2.89749E-02
 -1      4114 1.73189E-02
 -1      4115 1.44303E-02
 -1      4116 2.00366E-02
 -1      4117 1.17104E-02
 -1      4118 9.56223E-03
 -1      4119 1.36803E-02
 -1      4120 7.56883E-03
 -1      4121 6.00702E-03
 -1      4122 8.96697E-03
 -1      4123 4.57948E-03
 -1      4124 3.47285E-03
 -1      4125 5.54603E-03
 -1      4126 2.47819E-03
 -1      4127 1.98039E-03
 -1      4128 3.12383E-03
 -1      4129 1.59472E-03
 -1      4130 1.79688E-03
 -1      4131 1.74350E-03
 -1      4132 1.99837E-03
 -1      4133 2.04836E-03
 -1      4134 1.55931E-03
 -1      4135 2.14688E-03
 -1      4136 2.10154E-03
 -1      4137 1.85932E-03
 -1      4138 2.09782E-03
 -1      4139 1.99757E-03
 -1      4140 1.95413E-03
 -1      4141 1.93105E-03
 -1      4142 1.80376E-03
 -1      4143 1.88389E-03
 -1      4144 1.69395E-03
 -1      4145 1.55806E-03
 -1      4146 1.70757E-03
 -1      4147 1.40053E-03
 -1      4148 1.27894E-03
 -1      4149 1.44023E-03
 -1      4150 1.30590E-03
 -1      4151 1.29203E-03
 -1      4152 1.30966E-03
 -1      4153 1.29203E-03
 -1      4154 2.37454E-01
 -1      4155 2.72958E-01
 -1      4156 2.82880E-01
 -1      4157 6.82324E-01
 -1      4158 8.04032E-01
 -1      4159 1.83310E-01
 -1      4160 2.10844E-01
 -1      4161 2.28241E-01
 -1      4162 1.39253E-01
 -1      4163 1.60645E-01
 -1      4164 1.78966E-01
 -1      4165 1.04003E-01
 -1      4166 1.20566E-01
 -1      4167 1.37614E-01
 -1      4168 7.61944E-02
 -1      4169 8.89092E-02
 -1      4170 1.03833E-01
 -1      4171 5.45838E-02
 -1      4172 6.42260E-02
 -1      4173 7.67712E-02
 -1      4174 3.81802E-02
 -1      4175 4.52940E-02
 -1      4176 5.55130E-02
 -1      4177 2.66153E-02
 -1      4178 3.15065E-02
 -1      4179 3.95495E-02
 -1      4180 1.79262E-02
 -1      4181 2.15207E-02
 -1      4182 2.77813E-02
 -1      4183 1.16894E-02
 -1      4184 1.41164E-02
 -1      4185 1.88768E-02
 -1      4186 7.29987E-03
 -1      4187 8.90276E-03
 -1      4188 1.22803E-02
 -1      4189 4.18170E-03
 -1      4190 5.31163E-03
 -1      4191 7.50546E-03
 -1      4192 2.52428E-03
 -1      4193 2.84619E-03
 -1      4194 4.18170E-03
 -1      4195 2.09369E-03
 -1      4196 1.89092E-03
 -1      4197 2.21283E-03
 -1      4198 2.30884E-03
 -1      4199 2.27116E-03
 -1      4200 1.75694E-03
 -1      4201 2.28888E-03
 -1      4202 2.35329E-03
 -1      4203 1.97886E-03
 -1      4204 2.13409E-03
 -1      4205 2.25614E-03
 -1      4206 1.99058E-03
 -1      4207 1.98111E-03
 -1      4208 2.13037E-03
 -1      4209 1.95413E-03
 -1      4210 1.77025E-03
 -1      4211 1.91459E-03
 -1      4212 1.88389E-03
 -1      4213 1.52647E-03
 -1      4214 1.66044E-03
 -1      4215 1.70757E-03
 -1      4216 1.32159E-03
 -1      4217 1.38838E-03
 -1      4218 1.45968E-03
 -1      4219 1.22591E-03
 -1      4220 2.95854E+00
 -1      4221 2.75945E+00
 -1      4222 2.10715E+00
 -1      4223 2.58295E+00
 -1      4224 3.06058E+00
 -1      4225 9.34979E-01
 -1      4226 1.12359E+00
 -1      4227 8.24509E-01
 -1      4228 5.14777E-01
 -1      4229 5.98616E-01
 -1      4230 6.09854E-01
 -1      4231 4.69970E-01
 -1      4232 5.30850E-01
 -1      4233 4.34601E-01
 -1      4234 1.34285E+00
 -1      4235 1.17626E+00
 -1      4236 1.10584E+00
 -1      4237 1.33661E-03
 -1      4238 1.23342E-03
 -1      4239 1.33661E-03
 -1      4240 2.73461E+00
 -1      4241 2.36127E+00
 -1      4242 5.42219E-01
 -1      4243 1.32910E-03
 -1      4244 2.73461E+00
 -1      4245 2.29476E+00
 -1      4246 1.65299E+00
 -1      4247 1.45289E+00
 -1      4248 1.39381E+00
 -1      4249 1.95801E+00
 -1      4250 6.60445E-01
 -1      4251 6.09368E-01
 -1      4252 5.58292E-01
 -1      4253 4.57858E-01
 -1      4254 3.34168E-01
 -1      4255 2.88514E-01
 -1      4256 2.60484E-01
 -1      4257 2.31078E-01
 -1      4258 2.04468E-01
 -1      4259 1.80786E-01
 -1      4260 1.58121E-01
 -1      4261 1.39049E-01
 -1      4262 1.20362E-01
 -1      4263 1.05138E-01
 -1      4264 9.00443E-02
 -1      4265 7.80326E-02
 -1      4266 6.60643E-02
 -1      4267 5.67128E-02
 -1      4268 4.74230E-02
 -1      4269 4.02500E-02
 -1      4270 3.35763E-02
 -1      4271 2.82744E-02
 -1      4272 2.31798E-02
 -1      4273 1.95434E-02
 -1      4274 1.57336E-02
 -1      4275 1.30137E-02
 -1      4276 1.02270E-02
 -1      4277 8.23364E-03
 -1      4278 6.24539E-03
 -1      4279 4.81786E-03
 -1      4280 3.48234E-03
 -1      4281 2.48768E-03
 -1      4282 1.85432E-03
 -1      4283 1.46865E-03
 -1      4284 1.64612E-03
 -1      4285 1.84761E-03
 -1      4286 1.89206E-03
 -1      4287 1.99058E-03
 -1      4288 1.95784E-03
 -1      4289 1.95413E-03
 -1      4290 1.95041E-03
 -1      4291 1.88389E-03
 -1      4292 1.81737E-03
 -1      4293 1.70757E-03
 -1      4294 1.59776E-03
 -1      4295 1.44023E-03
 -1      4296 1.30215E-03
 -1      4297 1.31665E+00
 -1      4298 1.98115E+00
 -1      4299 7.31319E-01
 -1      4300 8.62266E-01
 -1      4301 8.48496E-01
 -1      4302 7.14760E-01
 -1      4303 1.23898E+00
 -1      4304 1.06105E+00
 -1      4305 9.81633E-01
 -1      4306 5.93296E-01
 -1      4307 6.77003E-01
 -1      4308 1.65518E+00
 -1      4309 1.14851E+00
 -1      4310 1.07482E+00
 -1      4311 1.26788E+00
 -1      4312 1.54976E+00
 -1      4313 1.86337E+00
 -1      4314 2.25584E+00
 -1      4315 1.47607E+00
 -1      4316 7.14760E-01
 -1      4317 2.08506E+00
 -1      4318 6.09368E-01
 -1      4319 1.52086E+00
 -1      4320 1.63090E+00
 -3
 9999
