    1C
    1UUSER                                                              
    1UDATE              27.october.2022                                 
    1UTIME              00:11:59                                        
    1UHOST                                                              
    1UPGM               CalculiX                                        
    1UVERSION           Version 2.17                             
    1UCOMPILETIME       Thu Jul 23 21:43:50 CEST 2020                    
    1UDIR                                                               
    1UDBN                                                               
    1UMAT    1SOLIDMATERIAL                                             
    2C                          4244                                     1
 -1         1 1.39090E+02 2.42915E+01 0.00000E+00
 -1         2 1.43904E+02 1.76417E+01 0.00000E+00
 -1         3 1.50000E+02 0.00000E+00 0.00000E+00
 -1         4 1.50000E+02 5.00000E+01 0.00000E+00
 -1         5 0.00000E+00 0.00000E+00 0.00000E+00
 -1         6 0.00000E+00 5.00000E+01 0.00000E+00
 -1         7 0.00000E+00 4.70500E+01 0.00000E+00
 -1         8 0.00000E+00 4.41000E+01 0.00000E+00
 -1         9 0.00000E+00 4.11500E+01 0.00000E+00
 -1        10 0.00000E+00 3.82000E+01 0.00000E+00
 -1        11 0.00000E+00 3.52500E+01 0.00000E+00
 -1        12 0.00000E+00 3.23500E+01 0.00000E+00
 -1        13 0.00000E+00 2.94000E+01 0.00000E+00
 -1        14 0.00000E+00 2.64500E+01 0.00000E+00
 -1        15 0.00000E+00 2.35000E+01 0.00000E+00
 -1        16 0.00000E+00 2.05500E+01 0.00000E+00
 -1        17 0.00000E+00 1.76000E+01 0.00000E+00
 -1        18 0.00000E+00 1.47000E+01 0.00000E+00
 -1        19 0.00000E+00 1.17500E+01 0.00000E+00
 -1        20 0.00000E+00 8.80000E+00 0.00000E+00
 -1        21 0.00000E+00 5.85000E+00 0.00000E+00
 -1        22 0.00000E+00 2.90000E+00 0.00000E+00
 -1        23 3.15000E+00 5.00000E+01 0.00000E+00
 -1        24 6.15000E+00 5.00000E+01 0.00000E+00
 -1        25 9.15000E+00 5.00000E+01 0.00000E+00
 -1        26 1.21500E+01 5.00000E+01 0.00000E+00
 -1        27 1.51500E+01 5.00000E+01 0.00000E+00
 -1        28 1.81500E+01 5.00000E+01 0.00000E+00
 -1        29 2.11500E+01 5.00000E+01 0.00000E+00
 -1        30 2.41500E+01 5.00000E+01 0.00000E+00
 -1        31 2.71500E+01 5.00000E+01 0.00000E+00
 -1        32 3.01500E+01 5.00000E+01 0.00000E+00
 -1        33 3.31500E+01 5.00000E+01 0.00000E+00
 -1        34 3.61500E+01 5.00000E+01 0.00000E+00
 -1        35 3.91500E+01 5.00000E+01 0.00000E+00
 -1        36 4.21500E+01 5.00000E+01 0.00000E+00
 -1        37 4.51500E+01 5.00000E+01 0.00000E+00
 -1        38 4.81500E+01 5.00000E+01 0.00000E+00
 -1        39 5.11500E+01 5.00000E+01 0.00000E+00
 -1        40 5.41500E+01 5.00000E+01 0.00000E+00
 -1        41 5.71500E+01 5.00000E+01 0.00000E+00
 -1        42 6.01500E+01 5.00000E+01 0.00000E+00
 -1        43 6.31500E+01 5.00000E+01 0.00000E+00
 -1        44 6.61500E+01 5.00000E+01 0.00000E+00
 -1        45 6.91500E+01 5.00000E+01 0.00000E+00
 -1        46 7.21500E+01 5.00000E+01 0.00000E+00
 -1        47 7.51500E+01 5.00000E+01 0.00000E+00
 -1        48 7.81500E+01 5.00000E+01 0.00000E+00
 -1        49 8.11500E+01 5.00000E+01 0.00000E+00
 -1        50 8.41500E+01 5.00000E+01 0.00000E+00
 -1        51 8.71500E+01 5.00000E+01 0.00000E+00
 -1        52 9.01500E+01 5.00000E+01 0.00000E+00
 -1        53 9.31500E+01 5.00000E+01 0.00000E+00
 -1        54 9.61500E+01 5.00000E+01 0.00000E+00
 -1        55 9.91500E+01 5.00000E+01 0.00000E+00
 -1        56 1.02150E+02 5.00000E+01 0.00000E+00
 -1        57 1.05150E+02 5.00000E+01 0.00000E+00
 -1        58 1.08150E+02 5.00000E+01 0.00000E+00
 -1        59 1.11150E+02 5.00000E+01 0.00000E+00
 -1        60 1.14150E+02 5.00000E+01 0.00000E+00
 -1        61 1.17150E+02 5.00000E+01 0.00000E+00
 -1        62 1.20150E+02 5.00000E+01 0.00000E+00
 -1        63 1.23150E+02 5.00000E+01 0.00000E+00
 -1        64 1.26150E+02 5.00000E+01 0.00000E+00
 -1        65 1.29150E+02 5.00000E+01 0.00000E+00
 -1        66 1.32150E+02 5.00000E+01 0.00000E+00
 -1        67 1.35150E+02 5.00000E+01 0.00000E+00
 -1        68 1.38150E+02 5.00000E+01 0.00000E+00
 -1        69 1.41150E+02 5.00000E+01 0.00000E+00
 -1        70 1.44150E+02 5.00000E+01 0.00000E+00
 -1        71 1.47150E+02 5.00000E+01 0.00000E+00
 -1        72 3.15000E+00 0.00000E+00 0.00000E+00
 -1        73 6.15000E+00 0.00000E+00 0.00000E+00
 -1        74 9.15000E+00 0.00000E+00 0.00000E+00
 -1        75 1.21500E+01 0.00000E+00 0.00000E+00
 -1        76 1.51500E+01 0.00000E+00 0.00000E+00
 -1        77 1.81500E+01 0.00000E+00 0.00000E+00
 -1        78 2.11500E+01 0.00000E+00 0.00000E+00
 -1        79 2.41500E+01 0.00000E+00 0.00000E+00
 -1        80 2.71500E+01 0.00000E+00 0.00000E+00
 -1        81 3.01500E+01 0.00000E+00 0.00000E+00
 -1        82 3.31500E+01 0.00000E+00 0.00000E+00
 -1        83 3.61500E+01 0.00000E+00 0.00000E+00
 -1        84 3.91500E+01 0.00000E+00 0.00000E+00
 -1        85 4.21500E+01 0.00000E+00 0.00000E+00
 -1        86 4.51500E+01 0.00000E+00 0.00000E+00
 -1        87 4.81500E+01 0.00000E+00 0.00000E+00
 -1        88 5.11500E+01 0.00000E+00 0.00000E+00
 -1        89 5.41500E+01 0.00000E+00 0.00000E+00
 -1        90 5.71500E+01 0.00000E+00 0.00000E+00
 -1        91 6.01500E+01 0.00000E+00 0.00000E+00
 -1        92 6.31500E+01 0.00000E+00 0.00000E+00
 -1        93 6.61500E+01 0.00000E+00 0.00000E+00
 -1        94 6.91500E+01 0.00000E+00 0.00000E+00
 -1        95 7.21500E+01 0.00000E+00 0.00000E+00
 -1        96 7.51500E+01 0.00000E+00 0.00000E+00
 -1        97 7.81500E+01 0.00000E+00 0.00000E+00
 -1        98 8.11500E+01 0.00000E+00 0.00000E+00
 -1        99 8.41500E+01 0.00000E+00 0.00000E+00
 -1       100 8.71500E+01 0.00000E+00 0.00000E+00
 -1       101 9.01500E+01 0.00000E+00 0.00000E+00
 -1       102 9.31500E+01 0.00000E+00 0.00000E+00
 -1       103 9.61500E+01 0.00000E+00 0.00000E+00
 -1       104 9.91500E+01 0.00000E+00 0.00000E+00
 -1       105 1.02150E+02 0.00000E+00 0.00000E+00
 -1       106 1.05150E+02 0.00000E+00 0.00000E+00
 -1       107 1.08150E+02 0.00000E+00 0.00000E+00
 -1       108 1.11150E+02 0.00000E+00 0.00000E+00
 -1       109 1.14150E+02 0.00000E+00 0.00000E+00
 -1       110 1.17150E+02 0.00000E+00 0.00000E+00
 -1       111 1.20150E+02 0.00000E+00 0.00000E+00
 -1       112 1.23150E+02 0.00000E+00 0.00000E+00
 -1       113 1.26150E+02 0.00000E+00 0.00000E+00
 -1       114 1.29150E+02 0.00000E+00 0.00000E+00
 -1       115 1.32150E+02 0.00000E+00 0.00000E+00
 -1       116 1.35150E+02 0.00000E+00 0.00000E+00
 -1       117 1.38150E+02 0.00000E+00 0.00000E+00
 -1       118 1.41150E+02 0.00000E+00 0.00000E+00
 -1       119 1.44150E+02 0.00000E+00 0.00000E+00
 -1       120 1.47000E+02 0.00000E+00 0.00000E+00
 -1       121 1.50000E+02 3.00000E+00 0.00000E+00
 -1       122 1.50000E+02 6.00000E+00 0.00000E+00
 -1       123 1.50000E+02 9.00000E+00 0.00000E+00
 -1       124 1.50000E+02 1.18000E+01 0.00000E+00
 -1       125 1.50000E+02 1.43500E+01 0.00000E+00
 -1       126 1.50000E+02 1.67000E+01 0.00000E+00
 -1       127 1.50000E+02 1.91500E+01 0.00000E+00
 -1       128 1.50000E+02 2.13500E+01 0.00000E+00
 -1       129 1.50000E+02 2.37000E+01 0.00000E+00
 -1       130 1.50000E+02 2.61000E+01 0.00000E+00
 -1       131 1.50000E+02 2.90500E+01 0.00000E+00
 -1       132 1.50000E+02 3.20500E+01 0.00000E+00
 -1       133 1.50000E+02 3.50500E+01 0.00000E+00
 -1       134 1.50000E+02 3.80500E+01 0.00000E+00
 -1       135 1.50000E+02 4.10500E+01 0.00000E+00
 -1       136 1.50000E+02 4.40500E+01 0.00000E+00
 -1       137 1.50000E+02 4.70500E+01 0.00000E+00
 -1       138 1.43716E+02 1.60284E+01 0.00000E+00
 -1       139 1.43210E+02 1.46040E+01 0.00000E+00
 -1       140 1.42408E+02 1.33161E+01 0.00000E+00
 -1       141 1.41208E+02 1.21215E+01 0.00000E+00
 -1       142 1.40043E+02 1.13849E+01 0.00000E+00
 -1       143 1.38546E+02 1.08370E+01 0.00000E+00
 -1       144 1.37139E+02 1.06457E+01 0.00000E+00
 -1       145 1.35549E+02 1.07741E+01 0.00000E+00
 -1       146 1.34194E+02 1.11874E+01 0.00000E+00
 -1       147 1.32806E+02 1.19666E+01 0.00000E+00
 -1       148 1.31706E+02 1.29529E+01 0.00000E+00
 -1       149 1.30804E+02 1.42072E+01 0.00000E+00
 -1       150 1.30213E+02 1.55836E+01 0.00000E+00
 -1       151 1.29925E+02 1.70989E+01 0.00000E+00
 -1       152 1.29974E+02 1.86278E+01 0.00000E+00
 -1       153 1.30362E+02 2.01317E+01 0.00000E+00
 -1       154 1.31071E+02 2.15115E+01 0.00000E+00
 -1       155 1.32062E+02 2.26966E+01 0.00000E+00
 -1       156 1.33263E+02 2.36204E+01 0.00000E+00
 -1       157 1.34711E+02 2.42892E+01 0.00000E+00
 -1       158 1.36120E+02 2.45977E+01 0.00000E+00
 -1       159 1.37679E+02 2.45987E+01 0.00000E+00
 -1       160 1.40391E+02 2.37116E+01 0.00000E+00
 -1       161 1.41610E+02 2.28237E+01 0.00000E+00
 -1       162 1.42567E+02 2.17569E+01 0.00000E+00
 -1       163 1.43340E+02 2.03949E+01 0.00000E+00
 -1       164 1.43762E+02 1.90447E+01 0.00000E+00
 -1       165 2.59800E+00 4.55750E+01 0.00000E+00
 -1       166 2.59800E+00 4.26250E+01 0.00000E+00
 -1       167 2.59800E+00 3.96750E+01 0.00000E+00
 -1       168 2.59800E+00 3.67250E+01 0.00000E+00
 -1       169 2.59800E+00 3.38250E+01 0.00000E+00
 -1       170 2.59800E+00 3.08750E+01 0.00000E+00
 -1       171 2.59800E+00 2.79250E+01 0.00000E+00
 -1       172 2.59800E+00 2.49750E+01 0.00000E+00
 -1       173 2.59800E+00 2.20250E+01 0.00000E+00
 -1       174 2.59800E+00 1.90750E+01 0.00000E+00
 -1       175 2.59800E+00 1.61750E+01 0.00000E+00
 -1       176 2.59800E+00 1.32250E+01 0.00000E+00
 -1       177 2.59800E+00 1.02750E+01 0.00000E+00
 -1       178 2.59800E+00 7.32500E+00 0.00000E+00
 -1       179 2.59800E+00 4.37500E+00 0.00000E+00
 -1       180 2.87400E+00 2.18750E+00 0.00000E+00
 -1       181 4.65000E+00 4.74020E+01 0.00000E+00
 -1       182 7.65000E+00 4.74020E+01 0.00000E+00
 -1       183 1.06500E+01 4.74020E+01 0.00000E+00
 -1       184 1.36500E+01 4.74020E+01 0.00000E+00
 -1       185 1.66500E+01 4.74020E+01 0.00000E+00
 -1       186 1.96500E+01 4.74020E+01 0.00000E+00
 -1       187 2.26500E+01 4.74020E+01 0.00000E+00
 -1       188 2.56500E+01 4.74020E+01 0.00000E+00
 -1       189 2.86500E+01 4.74020E+01 0.00000E+00
 -1       190 3.16500E+01 4.74020E+01 0.00000E+00
 -1       191 3.46500E+01 4.74020E+01 0.00000E+00
 -1       192 3.76500E+01 4.74020E+01 0.00000E+00
 -1       193 4.06500E+01 4.74020E+01 0.00000E+00
 -1       194 4.36500E+01 4.74020E+01 0.00000E+00
 -1       195 4.66500E+01 4.74020E+01 0.00000E+00
 -1       196 4.96500E+01 4.74020E+01 0.00000E+00
 -1       197 5.26500E+01 4.74020E+01 0.00000E+00
 -1       198 5.56500E+01 4.74020E+01 0.00000E+00
 -1       199 5.86500E+01 4.74020E+01 0.00000E+00
 -1       200 6.16500E+01 4.74020E+01 0.00000E+00
 -1       201 6.46500E+01 4.74020E+01 0.00000E+00
 -1       202 6.76500E+01 4.74020E+01 0.00000E+00
 -1       203 7.06500E+01 4.74020E+01 0.00000E+00
 -1       204 7.36500E+01 4.74020E+01 0.00000E+00
 -1       205 7.66500E+01 4.74020E+01 0.00000E+00
 -1       206 7.96500E+01 4.74020E+01 0.00000E+00
 -1       207 8.26500E+01 4.74020E+01 0.00000E+00
 -1       208 8.56500E+01 4.74020E+01 0.00000E+00
 -1       209 8.86500E+01 4.74020E+01 0.00000E+00
 -1       210 9.16500E+01 4.74020E+01 0.00000E+00
 -1       211 9.46500E+01 4.74020E+01 0.00000E+00
 -1       212 9.76500E+01 4.74020E+01 0.00000E+00
 -1       213 1.00650E+02 4.74020E+01 0.00000E+00
 -1       214 1.03650E+02 4.74020E+01 0.00000E+00
 -1       215 1.06650E+02 4.74020E+01 0.00000E+00
 -1       216 1.09650E+02 4.74020E+01 0.00000E+00
 -1       217 1.12650E+02 4.74020E+01 0.00000E+00
 -1       218 1.15650E+02 4.74020E+01 0.00000E+00
 -1       219 1.18650E+02 4.74020E+01 0.00000E+00
 -1       220 1.21650E+02 4.74020E+01 0.00000E+00
 -1       221 1.24650E+02 4.74020E+01 0.00000E+00
 -1       222 1.27650E+02 4.74020E+01 0.00000E+00
 -1       223 1.30650E+02 4.74020E+01 0.00000E+00
 -1       224 1.33650E+02 4.74020E+01 0.00000E+00
 -1       225 1.36650E+02 4.74020E+01 0.00000E+00
 -1       226 1.39650E+02 4.74020E+01 0.00000E+00
 -1       227 1.42650E+02 4.74020E+01 0.00000E+00
 -1       228 1.45650E+02 4.74020E+01 0.00000E+00
 -1       229 5.87400E+00 2.18750E+00 0.00000E+00
 -1       230 8.87400E+00 2.18750E+00 0.00000E+00
 -1       231 1.18740E+01 2.18750E+00 0.00000E+00
 -1       232 1.48740E+01 2.18750E+00 0.00000E+00
 -1       233 1.78740E+01 2.18750E+00 0.00000E+00
 -1       234 2.08740E+01 2.18750E+00 0.00000E+00
 -1       235 2.38740E+01 2.18750E+00 0.00000E+00
 -1       236 2.68740E+01 2.18750E+00 0.00000E+00
 -1       237 2.98740E+01 2.18750E+00 0.00000E+00
 -1       238 3.28740E+01 2.18750E+00 0.00000E+00
 -1       239 3.58740E+01 2.18750E+00 0.00000E+00
 -1       240 3.88740E+01 2.18750E+00 0.00000E+00
 -1       241 4.18740E+01 2.18750E+00 0.00000E+00
 -1       242 4.48740E+01 2.18750E+00 0.00000E+00
 -1       243 4.78740E+01 2.18750E+00 0.00000E+00
 -1       244 5.08740E+01 2.18750E+00 0.00000E+00
 -1       245 5.38740E+01 2.18750E+00 0.00000E+00
 -1       246 5.68740E+01 2.18750E+00 0.00000E+00
 -1       247 5.98740E+01 2.18750E+00 0.00000E+00
 -1       248 6.28740E+01 2.18750E+00 0.00000E+00
 -1       249 6.58740E+01 2.18750E+00 0.00000E+00
 -1       250 6.88740E+01 2.18750E+00 0.00000E+00
 -1       251 7.18740E+01 2.18750E+00 0.00000E+00
 -1       252 7.48740E+01 2.18750E+00 0.00000E+00
 -1       253 7.78740E+01 2.18750E+00 0.00000E+00
 -1       254 8.08740E+01 2.18750E+00 0.00000E+00
 -1       255 8.38740E+01 2.18750E+00 0.00000E+00
 -1       256 8.68740E+01 2.18750E+00 0.00000E+00
 -1       257 8.98740E+01 2.18750E+00 0.00000E+00
 -1       258 9.28740E+01 2.18750E+00 0.00000E+00
 -1       259 9.58740E+01 2.18750E+00 0.00000E+00
 -1       260 9.88740E+01 2.18750E+00 0.00000E+00
 -1       261 1.01874E+02 2.18750E+00 0.00000E+00
 -1       262 1.04874E+02 2.18750E+00 0.00000E+00
 -1       263 1.07874E+02 2.18750E+00 0.00000E+00
 -1       264 1.10874E+02 2.18750E+00 0.00000E+00
 -1       265 1.13874E+02 2.18750E+00 0.00000E+00
 -1       266 1.16874E+02 2.18750E+00 0.00000E+00
 -1       267 1.19874E+02 2.18750E+00 0.00000E+00
 -1       268 1.22874E+02 2.18750E+00 0.00000E+00
 -1       269 1.25874E+02 2.18750E+00 0.00000E+00
 -1       270 1.28874E+02 2.18750E+00 0.00000E+00
 -1       271 1.31874E+02 2.18750E+00 0.00000E+00
 -1       272 1.34874E+02 2.18750E+00 0.00000E+00
 -1       273 1.37874E+02 2.18750E+00 0.00000E+00
 -1       274 1.40874E+02 2.18750E+00 0.00000E+00
 -1       275 1.43874E+02 2.18750E+00 0.00000E+00
 -1       276 1.46724E+02 2.18750E+00 0.00000E+00
 -1       277 1.47402E+02 4.50000E+00 0.00000E+00
 -1       278 1.47402E+02 7.50000E+00 0.00000E+00
 -1       279 1.47402E+02 1.03000E+01 0.00000E+00
 -1       280 1.47402E+02 1.28500E+01 0.00000E+00
 -1       281 1.47950E+02 1.79250E+01 0.00000E+00
 -1       282 1.47950E+02 2.01250E+01 0.00000E+00
 -1       283 1.47950E+02 2.24750E+01 0.00000E+00
 -1       284 1.47950E+02 2.48750E+01 0.00000E+00
 -1       285 1.47950E+02 2.78250E+01 0.00000E+00
 -1       286 1.47950E+02 3.08250E+01 0.00000E+00
 -1       287 1.47950E+02 3.38250E+01 0.00000E+00
 -1       288 1.47950E+02 3.68250E+01 0.00000E+00
 -1       289 1.47950E+02 3.98250E+01 0.00000E+00
 -1       290 1.47950E+02 4.28250E+01 0.00000E+00
 -1       291 1.46800E+02 4.51135E+01 0.00000E+00
 -1       292 1.45347E+02 1.66555E+01 0.00000E+00
 -1       293 1.44843E+02 1.48271E+01 0.00000E+00
 -1       294 1.43909E+02 1.32742E+01 0.00000E+00
 -1       295 1.42959E+02 1.15630E+01 0.00000E+00
 -1       296 1.41273E+02 1.07283E+01 0.00000E+00
 -1       297 1.39797E+02 9.73636E+00 0.00000E+00
 -1       298 1.38006E+02 9.53999E+00 0.00000E+00
 -1       299 1.36233E+02 9.33439E+00 0.00000E+00
 -1       300 1.34518E+02 9.82111E+00 0.00000E+00
 -1       301 1.32825E+02 1.03736E+01 0.00000E+00
 -1       302 1.31447E+02 1.15571E+01 0.00000E+00
 -1       303 1.30271E+02 1.28722E+01 0.00000E+00
 -1       304 1.29395E+02 1.44170E+01 0.00000E+00
 -1       305 1.28631E+02 1.60677E+01 0.00000E+00
 -1       306 1.28654E+02 1.79046E+01 0.00000E+00
 -1       307 1.28994E+02 1.96826E+01 0.00000E+00
 -1       308 1.29563E+02 2.14141E+01 0.00000E+00
 -1       309 1.30507E+02 2.29891E+01 0.00000E+00
 -1       310 1.31923E+02 2.41196E+01 0.00000E+00
 -1       311 1.33408E+02 2.52075E+01 0.00000E+00
 -1       312 1.35156E+02 2.56278E+01 0.00000E+00
 -1       313 1.36899E+02 2.59782E+01 0.00000E+00
 -1       314 1.38660E+02 2.57117E+01 0.00000E+00
 -1       315 1.40234E+02 2.51088E+01 0.00000E+00
 -1       316 1.41763E+02 2.43155E+01 0.00000E+00
 -1       317 1.42991E+02 2.30997E+01 0.00000E+00
 -1       318 1.44153E+02 2.17572E+01 0.00000E+00
 -1       319 1.44708E+02 2.00816E+01 0.00000E+00
 -1       320 1.45039E+02 1.84654E+01 0.00000E+00
 -1       321 1.47950E+02 1.55750E+01 0.00000E+00
 -1       322 5.19600E+00 4.11500E+01 0.00000E+00
 -1       323 5.19600E+00 4.41000E+01 0.00000E+00
 -1       324 5.19600E+00 3.52750E+01 0.00000E+00
 -1       325 5.19600E+00 3.23250E+01 0.00000E+00
 -1       326 5.19600E+00 2.93750E+01 0.00000E+00
 -1       327 5.19600E+00 2.64250E+01 0.00000E+00
 -1       328 5.19600E+00 2.34750E+01 0.00000E+00
 -1       329 5.19600E+00 2.05250E+01 0.00000E+00
 -1       330 5.19600E+00 1.76250E+01 0.00000E+00
 -1       331 5.19600E+00 1.46750E+01 0.00000E+00
 -1       332 5.19600E+00 1.17250E+01 0.00000E+00
 -1       333 5.19600E+00 8.77500E+00 0.00000E+00
 -1       334 5.19600E+00 5.82500E+00 0.00000E+00
 -1       335 5.53500E+00 4.00625E+00 0.00000E+00
 -1       336 8.53500E+00 4.00625E+00 0.00000E+00
 -1       337 9.15000E+00 4.48040E+01 0.00000E+00
 -1       338 1.21500E+01 4.48040E+01 0.00000E+00
 -1       339 1.51500E+01 4.48040E+01 0.00000E+00
 -1       340 1.81500E+01 4.48040E+01 0.00000E+00
 -1       341 2.11500E+01 4.48040E+01 0.00000E+00
 -1       342 2.41500E+01 4.48040E+01 0.00000E+00
 -1       343 2.71500E+01 4.48040E+01 0.00000E+00
 -1       344 3.01500E+01 4.48040E+01 0.00000E+00
 -1       345 3.31500E+01 4.48040E+01 0.00000E+00
 -1       346 3.61500E+01 4.48040E+01 0.00000E+00
 -1       347 3.91500E+01 4.48040E+01 0.00000E+00
 -1       348 4.21500E+01 4.48040E+01 0.00000E+00
 -1       349 4.51500E+01 4.48040E+01 0.00000E+00
 -1       350 4.81500E+01 4.48040E+01 0.00000E+00
 -1       351 5.11500E+01 4.48040E+01 0.00000E+00
 -1       352 5.41500E+01 4.48040E+01 0.00000E+00
 -1       353 5.71500E+01 4.48040E+01 0.00000E+00
 -1       354 6.01500E+01 4.48040E+01 0.00000E+00
 -1       355 6.31500E+01 4.48040E+01 0.00000E+00
 -1       356 6.61500E+01 4.48040E+01 0.00000E+00
 -1       357 6.91500E+01 4.48040E+01 0.00000E+00
 -1       358 7.21500E+01 4.48040E+01 0.00000E+00
 -1       359 7.51500E+01 4.48040E+01 0.00000E+00
 -1       360 7.81500E+01 4.48040E+01 0.00000E+00
 -1       361 8.11500E+01 4.48040E+01 0.00000E+00
 -1       362 8.41500E+01 4.48040E+01 0.00000E+00
 -1       363 8.71500E+01 4.48040E+01 0.00000E+00
 -1       364 9.01500E+01 4.48040E+01 0.00000E+00
 -1       365 9.31500E+01 4.48040E+01 0.00000E+00
 -1       366 9.61500E+01 4.48040E+01 0.00000E+00
 -1       367 9.91500E+01 4.48040E+01 0.00000E+00
 -1       368 1.02150E+02 4.48040E+01 0.00000E+00
 -1       369 1.05150E+02 4.48040E+01 0.00000E+00
 -1       370 1.08150E+02 4.48040E+01 0.00000E+00
 -1       371 1.11150E+02 4.48040E+01 0.00000E+00
 -1       372 1.14150E+02 4.48040E+01 0.00000E+00
 -1       373 1.17150E+02 4.48040E+01 0.00000E+00
 -1       374 1.20150E+02 4.48040E+01 0.00000E+00
 -1       375 1.23150E+02 4.48040E+01 0.00000E+00
 -1       376 1.26150E+02 4.48040E+01 0.00000E+00
 -1       377 1.29150E+02 4.48040E+01 0.00000E+00
 -1       378 1.32150E+02 4.48040E+01 0.00000E+00
 -1       379 1.35150E+02 4.48040E+01 0.00000E+00
 -1       380 1.38150E+02 4.48040E+01 0.00000E+00
 -1       381 1.41150E+02 4.48040E+01 0.00000E+00
 -1       382 1.43975E+02 4.49588E+01 0.00000E+00
 -1       383 1.46235E+02 2.36750E+01 0.00000E+00
 -1       384 1.15350E+01 4.00625E+00 0.00000E+00
 -1       385 1.45350E+01 4.00625E+00 0.00000E+00
 -1       386 1.75350E+01 4.00625E+00 0.00000E+00
 -1       387 2.05350E+01 4.00625E+00 0.00000E+00
 -1       388 2.35350E+01 4.00625E+00 0.00000E+00
 -1       389 2.65350E+01 4.00625E+00 0.00000E+00
 -1       390 2.95350E+01 4.00625E+00 0.00000E+00
 -1       391 3.25350E+01 4.00625E+00 0.00000E+00
 -1       392 3.55350E+01 4.00625E+00 0.00000E+00
 -1       393 3.85350E+01 4.00625E+00 0.00000E+00
 -1       394 4.15350E+01 4.00625E+00 0.00000E+00
 -1       395 4.45350E+01 4.00625E+00 0.00000E+00
 -1       396 4.75350E+01 4.00625E+00 0.00000E+00
 -1       397 5.05350E+01 4.00625E+00 0.00000E+00
 -1       398 5.35350E+01 4.00625E+00 0.00000E+00
 -1       399 5.65350E+01 4.00625E+00 0.00000E+00
 -1       400 5.95350E+01 4.00625E+00 0.00000E+00
 -1       401 6.25350E+01 4.00625E+00 0.00000E+00
 -1       402 6.55350E+01 4.00625E+00 0.00000E+00
 -1       403 6.85350E+01 4.00625E+00 0.00000E+00
 -1       404 7.15350E+01 4.00625E+00 0.00000E+00
 -1       405 7.45350E+01 4.00625E+00 0.00000E+00
 -1       406 7.75350E+01 4.00625E+00 0.00000E+00
 -1       407 8.05350E+01 4.00625E+00 0.00000E+00
 -1       408 8.35350E+01 4.00625E+00 0.00000E+00
 -1       409 8.65350E+01 4.00625E+00 0.00000E+00
 -1       410 8.95350E+01 4.00625E+00 0.00000E+00
 -1       411 9.25350E+01 4.00625E+00 0.00000E+00
 -1       412 9.55350E+01 4.00625E+00 0.00000E+00
 -1       413 9.85350E+01 4.00625E+00 0.00000E+00
 -1       414 1.01535E+02 4.00625E+00 0.00000E+00
 -1       415 1.04535E+02 4.00625E+00 0.00000E+00
 -1       416 1.07535E+02 4.00625E+00 0.00000E+00
 -1       417 1.10535E+02 4.00625E+00 0.00000E+00
 -1       418 1.13535E+02 4.00625E+00 0.00000E+00
 -1       419 1.16535E+02 4.00625E+00 0.00000E+00
 -1       420 1.19535E+02 4.00625E+00 0.00000E+00
 -1       421 1.22535E+02 4.00625E+00 0.00000E+00
 -1       422 1.25535E+02 4.00625E+00 0.00000E+00
 -1       423 1.28535E+02 4.00625E+00 0.00000E+00
 -1       424 1.31535E+02 4.00625E+00 0.00000E+00
 -1       425 1.34535E+02 4.00625E+00 0.00000E+00
 -1       426 1.37535E+02 4.00625E+00 0.00000E+00
 -1       427 1.40535E+02 4.00625E+00 0.00000E+00
 -1       428 1.43535E+02 4.00625E+00 0.00000E+00
 -1       429 1.45469E+02 4.25313E+00 0.00000E+00
 -1       430 1.45184E+02 1.15750E+01 0.00000E+00
 -1       431 1.45184E+02 8.77500E+00 0.00000E+00
 -1       432 1.45326E+02 6.51406E+00 0.00000E+00
 -1       433 1.45900E+02 2.63500E+01 0.00000E+00
 -1       434 1.45732E+02 2.93250E+01 0.00000E+00
 -1       435 1.45732E+02 3.23250E+01 0.00000E+00
 -1       436 1.45732E+02 3.53250E+01 0.00000E+00
 -1       437 1.45732E+02 3.83250E+01 0.00000E+00
 -1       438 1.45732E+02 4.13250E+01 0.00000E+00
 -1       439 5.19600E+00 3.82125E+01 0.00000E+00
 -1       440 1.41305E+02 9.08702E+00 0.00000E+00
 -1       441 1.39079E+02 8.01656E+00 0.00000E+00
 -1       442 1.37307E+02 7.81096E+00 0.00000E+00
 -1       443 1.34953E+02 8.08902E+00 0.00000E+00
 -1       444 1.33260E+02 8.64149E+00 0.00000E+00
 -1       445 1.31182E+02 9.85491E+00 0.00000E+00
 -1       446 1.29893E+02 1.13508E+01 0.00000E+00
 -1       447 1.28487E+02 1.28811E+01 0.00000E+00
 -1       448 1.27723E+02 1.45318E+01 0.00000E+00
 -1       449 1.27095E+02 1.70052E+01 0.00000E+00
 -1       450 1.27139E+02 1.91157E+01 0.00000E+00
 -1       451 1.27709E+02 2.08471E+01 0.00000E+00
 -1       452 1.28852E+02 2.29110E+01 0.00000E+00
 -1       453 1.30250E+02 2.47637E+01 0.00000E+00
 -1       454 1.31734E+02 2.58516E+01 0.00000E+00
 -1       455 1.33901E+02 2.70038E+01 0.00000E+00
 -1       456 1.35643E+02 2.73542E+01 0.00000E+00
 -1       457 1.37986E+02 2.72094E+01 0.00000E+00
 -1       458 1.39911E+02 2.66207E+01 0.00000E+00
 -1       459 1.41634E+02 2.59371E+01 0.00000E+00
 -1       460 1.43407E+02 2.47477E+01 0.00000E+00
 -1       461 1.44569E+02 2.34051E+01 0.00000E+00
 -1       462 1.45900E+02 2.14058E+01 0.00000E+00
 -1       463 1.42991E+02 9.92174E+00 0.00000E+00
 -1       464 1.46087E+02 1.47634E+01 0.00000E+00
 -1       465 1.46838E+02 2.00462E+01 0.00000E+00
 -1       466 1.45846E+02 1.31668E+01 0.00000E+00
 -1       467 1.26187E+02 1.54693E+01 0.00000E+00
 -1       468 1.43601E+02 2.77128E+01 0.00000E+00
 -1       469 7.79400E+00 3.08500E+01 0.00000E+00
 -1       470 7.79400E+00 3.38000E+01 0.00000E+00
 -1       471 7.79400E+00 2.49500E+01 0.00000E+00
 -1       472 7.79400E+00 2.20000E+01 0.00000E+00
 -1       473 7.79400E+00 1.91000E+01 0.00000E+00
 -1       474 7.79400E+00 1.61500E+01 0.00000E+00
 -1       475 7.79400E+00 1.32000E+01 0.00000E+00
 -1       476 7.79400E+00 1.02500E+01 0.00000E+00
 -1       477 7.79400E+00 7.30000E+00 0.00000E+00
 -1       478 8.16450E+00 5.65312E+00 0.00000E+00
 -1       479 1.43134E+02 3.68250E+01 0.00000E+00
 -1       480 1.30350E+01 6.60425E+00 0.00000E+00
 -1       481 1.06500E+01 4.22060E+01 0.00000E+00
 -1       482 1.36500E+01 4.22060E+01 0.00000E+00
 -1       483 1.66500E+01 4.22060E+01 0.00000E+00
 -1       484 1.96500E+01 4.22060E+01 0.00000E+00
 -1       485 2.26500E+01 4.22060E+01 0.00000E+00
 -1       486 2.56500E+01 4.22060E+01 0.00000E+00
 -1       487 2.86500E+01 4.22060E+01 0.00000E+00
 -1       488 3.16500E+01 4.22060E+01 0.00000E+00
 -1       489 3.46500E+01 4.22060E+01 0.00000E+00
 -1       490 3.76500E+01 4.22060E+01 0.00000E+00
 -1       491 4.06500E+01 4.22060E+01 0.00000E+00
 -1       492 4.36500E+01 4.22060E+01 0.00000E+00
 -1       493 4.66500E+01 4.22060E+01 0.00000E+00
 -1       494 4.96500E+01 4.22060E+01 0.00000E+00
 -1       495 5.26500E+01 4.22060E+01 0.00000E+00
 -1       496 5.56500E+01 4.22060E+01 0.00000E+00
 -1       497 5.86500E+01 4.22060E+01 0.00000E+00
 -1       498 6.16500E+01 4.22060E+01 0.00000E+00
 -1       499 6.46500E+01 4.22060E+01 0.00000E+00
 -1       500 6.76500E+01 4.22060E+01 0.00000E+00
 -1       501 7.06500E+01 4.22060E+01 0.00000E+00
 -1       502 7.36500E+01 4.22060E+01 0.00000E+00
 -1       503 7.66500E+01 4.22060E+01 0.00000E+00
 -1       504 7.96500E+01 4.22060E+01 0.00000E+00
 -1       505 8.26500E+01 4.22060E+01 0.00000E+00
 -1       506 8.56500E+01 4.22060E+01 0.00000E+00
 -1       507 8.86500E+01 4.22060E+01 0.00000E+00
 -1       508 9.16500E+01 4.22060E+01 0.00000E+00
 -1       509 9.46500E+01 4.22060E+01 0.00000E+00
 -1       510 9.76500E+01 4.22060E+01 0.00000E+00
 -1       511 1.00650E+02 4.22060E+01 0.00000E+00
 -1       512 1.03650E+02 4.22060E+01 0.00000E+00
 -1       513 1.06650E+02 4.22060E+01 0.00000E+00
 -1       514 1.09650E+02 4.22060E+01 0.00000E+00
 -1       515 1.12650E+02 4.22060E+01 0.00000E+00
 -1       516 1.15650E+02 4.22060E+01 0.00000E+00
 -1       517 1.18650E+02 4.22060E+01 0.00000E+00
 -1       518 1.21650E+02 4.22060E+01 0.00000E+00
 -1       519 1.24650E+02 4.22060E+01 0.00000E+00
 -1       520 1.27650E+02 4.22060E+01 0.00000E+00
 -1       521 1.30650E+02 4.22060E+01 0.00000E+00
 -1       522 1.33650E+02 4.22060E+01 0.00000E+00
 -1       523 1.36650E+02 4.22060E+01 0.00000E+00
 -1       524 1.39650E+02 4.22060E+01 0.00000E+00
 -1       525 1.60350E+01 6.60425E+00 0.00000E+00
 -1       526 1.05997E+01 6.12869E+00 0.00000E+00
 -1       527 1.90350E+01 6.60425E+00 0.00000E+00
 -1       528 2.20350E+01 6.60425E+00 0.00000E+00
 -1       529 2.50350E+01 6.60425E+00 0.00000E+00
 -1       530 2.80350E+01 6.60425E+00 0.00000E+00
 -1       531 3.10350E+01 6.60425E+00 0.00000E+00
 -1       532 3.40350E+01 6.60425E+00 0.00000E+00
 -1       533 3.70350E+01 6.60425E+00 0.00000E+00
 -1       534 4.00350E+01 6.60425E+00 0.00000E+00
 -1       535 4.30350E+01 6.60425E+00 0.00000E+00
 -1       536 4.60350E+01 6.60425E+00 0.00000E+00
 -1       537 4.90350E+01 6.60425E+00 0.00000E+00
 -1       538 5.20350E+01 6.60425E+00 0.00000E+00
 -1       539 5.50350E+01 6.60425E+00 0.00000E+00
 -1       540 5.80350E+01 6.60425E+00 0.00000E+00
 -1       541 6.10350E+01 6.60425E+00 0.00000E+00
 -1       542 6.40350E+01 6.60425E+00 0.00000E+00
 -1       543 6.70350E+01 6.60425E+00 0.00000E+00
 -1       544 7.00350E+01 6.60425E+00 0.00000E+00
 -1       545 7.30350E+01 6.60425E+00 0.00000E+00
 -1       546 7.60350E+01 6.60425E+00 0.00000E+00
 -1       547 7.90350E+01 6.60425E+00 0.00000E+00
 -1       548 8.20350E+01 6.60425E+00 0.00000E+00
 -1       549 8.50350E+01 6.60425E+00 0.00000E+00
 -1       550 8.80350E+01 6.60425E+00 0.00000E+00
 -1       551 9.10350E+01 6.60425E+00 0.00000E+00
 -1       552 9.40350E+01 6.60425E+00 0.00000E+00
 -1       553 9.70350E+01 6.60425E+00 0.00000E+00
 -1       554 1.00035E+02 6.60425E+00 0.00000E+00
 -1       555 1.03035E+02 6.60425E+00 0.00000E+00
 -1       556 1.06035E+02 6.60425E+00 0.00000E+00
 -1       557 1.09035E+02 6.60425E+00 0.00000E+00
 -1       558 1.12035E+02 6.60425E+00 0.00000E+00
 -1       559 1.15035E+02 6.60425E+00 0.00000E+00
 -1       560 1.18035E+02 6.60425E+00 0.00000E+00
 -1       561 1.21035E+02 6.60425E+00 0.00000E+00
 -1       562 1.24035E+02 6.60425E+00 0.00000E+00
 -1       563 1.27035E+02 6.60425E+00 0.00000E+00
 -1       564 1.30035E+02 6.60425E+00 0.00000E+00
 -1       565 1.33035E+02 6.05650E+00 0.00000E+00
 -1       566 1.36035E+02 5.88893E+00 0.00000E+00
 -1       567 1.39035E+02 6.05650E+00 0.00000E+00
 -1       568 1.42035E+02 6.39164E+00 0.00000E+00
 -1       569 1.44085E+02 2.55590E+01 0.00000E+00
 -1       570 1.43134E+02 3.38250E+01 0.00000E+00
 -1       571 7.92300E+00 4.16780E+01 0.00000E+00
 -1       572 1.43134E+02 3.08250E+01 0.00000E+00
 -1       573 1.43134E+02 3.98250E+01 0.00000E+00
 -1       574 1.26780E+02 2.27100E+01 0.00000E+00
 -1       575 1.27927E+02 1.09557E+01 0.00000E+00
 -1       576 7.79400E+00 2.79000E+01 0.00000E+00
 -1       577 1.40935E+02 7.00613E+00 0.00000E+00
 -1       578 1.29216E+02 9.45982E+00 0.00000E+00
 -1       579 1.25067E+02 1.81033E+01 0.00000E+00
 -1       580 1.31126E+02 7.75816E+00 0.00000E+00
 -1       581 1.26549E+02 1.29863E+01 0.00000E+00
 -1       582 1.28249E+02 2.48200E+01 0.00000E+00
 -1       583 1.25795E+02 2.05174E+01 0.00000E+00
 -1       584 1.39352E+02 2.82347E+01 0.00000E+00
 -1       585 1.29978E+02 2.66911E+01 0.00000E+00
 -1       586 1.32052E+02 2.78680E+01 0.00000E+00
 -1       587 1.34450E+02 2.87783E+01 0.00000E+00
 -1       588 1.36931E+02 2.91609E+01 0.00000E+00
 -1       589 1.41467E+02 2.80289E+01 0.00000E+00
 -1       590 1.43293E+02 7.82848E+00 0.00000E+00
 -1       591 7.79400E+00 3.67375E+01 0.00000E+00
 -1       592 1.42142E+02 4.23145E+01 0.00000E+00
 -1       593 1.27854E+02 2.69198E+01 0.00000E+00
 -1       594 1.03920E+01 2.05500E+01 0.00000E+00
 -1       595 1.03920E+01 2.35000E+01 0.00000E+00
 -1       596 1.03920E+01 1.46750E+01 0.00000E+00
 -1       597 1.03920E+01 1.17250E+01 0.00000E+00
 -1       598 2.35350E+01 9.20225E+00 0.00000E+00
 -1       599 1.75350E+01 9.20225E+00 0.00000E+00
 -1       600 1.45350E+01 9.20225E+00 0.00000E+00
 -1       601 1.27019E+02 8.86906E+00 0.00000E+00
 -1       602 1.51500E+01 3.96080E+01 0.00000E+00
 -1       603 1.81500E+01 3.96080E+01 0.00000E+00
 -1       604 2.11500E+01 3.96080E+01 0.00000E+00
 -1       605 2.41500E+01 3.96080E+01 0.00000E+00
 -1       606 2.71500E+01 3.96080E+01 0.00000E+00
 -1       607 3.01500E+01 3.96080E+01 0.00000E+00
 -1       608 3.31500E+01 3.96080E+01 0.00000E+00
 -1       609 3.61500E+01 3.96080E+01 0.00000E+00
 -1       610 3.91500E+01 3.96080E+01 0.00000E+00
 -1       611 4.21500E+01 3.96080E+01 0.00000E+00
 -1       612 4.51500E+01 3.96080E+01 0.00000E+00
 -1       613 4.81500E+01 3.96080E+01 0.00000E+00
 -1       614 5.11500E+01 3.96080E+01 0.00000E+00
 -1       615 5.41500E+01 3.96080E+01 0.00000E+00
 -1       616 5.71500E+01 3.96080E+01 0.00000E+00
 -1       617 6.01500E+01 3.96080E+01 0.00000E+00
 -1       618 6.31500E+01 3.96080E+01 0.00000E+00
 -1       619 6.61500E+01 3.96080E+01 0.00000E+00
 -1       620 6.91500E+01 3.96080E+01 0.00000E+00
 -1       621 7.21500E+01 3.96080E+01 0.00000E+00
 -1       622 7.51500E+01 3.96080E+01 0.00000E+00
 -1       623 7.81500E+01 3.96080E+01 0.00000E+00
 -1       624 8.11500E+01 3.96080E+01 0.00000E+00
 -1       625 8.41500E+01 3.96080E+01 0.00000E+00
 -1       626 8.71500E+01 3.96080E+01 0.00000E+00
 -1       627 9.01500E+01 3.96080E+01 0.00000E+00
 -1       628 9.31500E+01 3.96080E+01 0.00000E+00
 -1       629 9.61500E+01 3.96080E+01 0.00000E+00
 -1       630 9.91500E+01 3.96080E+01 0.00000E+00
 -1       631 1.02150E+02 3.96080E+01 0.00000E+00
 -1       632 1.05150E+02 3.96080E+01 0.00000E+00
 -1       633 1.08150E+02 3.96080E+01 0.00000E+00
 -1       634 1.11150E+02 3.96080E+01 0.00000E+00
 -1       635 1.14150E+02 3.96080E+01 0.00000E+00
 -1       636 1.17150E+02 3.96080E+01 0.00000E+00
 -1       637 1.20150E+02 3.96080E+01 0.00000E+00
 -1       638 1.23150E+02 3.96080E+01 0.00000E+00
 -1       639 1.26150E+02 3.96080E+01 0.00000E+00
 -1       640 1.29150E+02 3.96080E+01 0.00000E+00
 -1       641 1.32150E+02 3.96080E+01 0.00000E+00
 -1       642 1.35150E+02 3.96080E+01 0.00000E+00
 -1       643 1.38150E+02 3.96080E+01 0.00000E+00
 -1       644 2.05350E+01 9.20225E+00 0.00000E+00
 -1       645 2.65350E+01 9.20225E+00 0.00000E+00
 -1       646 2.95350E+01 9.20225E+00 0.00000E+00
 -1       647 3.25350E+01 9.20225E+00 0.00000E+00
 -1       648 3.55350E+01 9.20225E+00 0.00000E+00
 -1       649 3.85350E+01 9.20225E+00 0.00000E+00
 -1       650 4.15350E+01 9.20225E+00 0.00000E+00
 -1       651 4.45350E+01 9.20225E+00 0.00000E+00
 -1       652 4.75350E+01 9.20225E+00 0.00000E+00
 -1       653 5.05350E+01 9.20225E+00 0.00000E+00
 -1       654 5.35350E+01 9.20225E+00 0.00000E+00
 -1       655 5.65350E+01 9.20225E+00 0.00000E+00
 -1       656 5.95350E+01 9.20225E+00 0.00000E+00
 -1       657 6.25350E+01 9.20225E+00 0.00000E+00
 -1       658 6.55350E+01 9.20225E+00 0.00000E+00
 -1       659 6.85350E+01 9.20225E+00 0.00000E+00
 -1       660 7.15350E+01 9.20225E+00 0.00000E+00
 -1       661 7.45350E+01 9.20225E+00 0.00000E+00
 -1       662 7.75350E+01 9.20225E+00 0.00000E+00
 -1       663 8.05350E+01 9.20225E+00 0.00000E+00
 -1       664 8.35350E+01 9.20225E+00 0.00000E+00
 -1       665 8.65350E+01 9.20225E+00 0.00000E+00
 -1       666 8.95350E+01 9.20225E+00 0.00000E+00
 -1       667 9.25350E+01 9.20225E+00 0.00000E+00
 -1       668 9.55350E+01 9.20225E+00 0.00000E+00
 -1       669 9.85350E+01 9.20225E+00 0.00000E+00
 -1       670 1.01535E+02 9.20225E+00 0.00000E+00
 -1       671 1.04535E+02 9.20225E+00 0.00000E+00
 -1       672 1.07535E+02 9.20225E+00 0.00000E+00
 -1       673 1.10535E+02 9.20225E+00 0.00000E+00
 -1       674 1.13535E+02 9.20225E+00 0.00000E+00
 -1       675 1.16535E+02 9.20225E+00 0.00000E+00
 -1       676 1.19535E+02 9.20225E+00 0.00000E+00
 -1       677 1.22535E+02 9.20225E+00 0.00000E+00
 -1       678 1.35429E+02 3.06646E+01 0.00000E+00
 -1       679 1.40536E+02 3.53250E+01 0.00000E+00
 -1       680 1.40536E+02 3.23250E+01 0.00000E+00
 -1       681 1.41339E+02 3.88198E+01 0.00000E+00
 -1       682 1.25640E+02 1.08997E+01 0.00000E+00
 -1       683 1.24049E+02 1.61153E+01 0.00000E+00
 -1       684 1.38814E+02 3.04562E+01 0.00000E+00
 -1       685 1.24417E+02 2.24539E+01 0.00000E+00
 -1       686 1.24410E+02 1.36323E+01 0.00000E+00
 -1       687 1.21500E+01 3.96080E+01 0.00000E+00
 -1       688 1.23629E+02 1.98536E+01 0.00000E+00
 -1       689 1.03920E+01 1.76125E+01 0.00000E+00
 -1       690 1.30086E+02 2.89168E+01 0.00000E+00
 -1       691 1.32464E+02 3.03967E+01 0.00000E+00
 -1       692 1.03920E+01 3.23250E+01 0.00000E+00
 -1       693 1.26107E+02 2.47448E+01 0.00000E+00
 -1       694 1.03920E+01 2.64500E+01 0.00000E+00
 -1       695 1.04145E+01 8.42712E+00 0.00000E+00
 -1       696 1.22610E+02 1.78656E+01 0.00000E+00
 -1       697 1.37312E+02 3.19600E+01 0.00000E+00
 -1       698 1.03920E+01 3.52625E+01 0.00000E+00
 -1       699 1.03920E+01 2.93875E+01 0.00000E+00
 -1       700 1.05210E+01 3.87342E+01 0.00000E+00
 -1       701 1.25513E+02 2.70114E+01 0.00000E+00
 -1       702 1.29900E+01 1.32000E+01 0.00000E+00
 -1       703 2.80350E+01 1.18003E+01 0.00000E+00
 -1       704 1.66500E+01 3.70100E+01 0.00000E+00
 -1       705 1.90350E+01 1.18003E+01 0.00000E+00
 -1       706 1.96500E+01 3.70100E+01 0.00000E+00
 -1       707 2.26500E+01 3.70100E+01 0.00000E+00
 -1       708 2.56500E+01 3.70100E+01 0.00000E+00
 -1       709 2.86500E+01 3.70100E+01 0.00000E+00
 -1       710 3.16500E+01 3.70100E+01 0.00000E+00
 -1       711 3.46500E+01 3.70100E+01 0.00000E+00
 -1       712 3.76500E+01 3.70100E+01 0.00000E+00
 -1       713 4.06500E+01 3.70100E+01 0.00000E+00
 -1       714 4.36500E+01 3.70100E+01 0.00000E+00
 -1       715 4.66500E+01 3.70100E+01 0.00000E+00
 -1       716 4.96500E+01 3.70100E+01 0.00000E+00
 -1       717 5.26500E+01 3.70100E+01 0.00000E+00
 -1       718 5.56500E+01 3.70100E+01 0.00000E+00
 -1       719 5.86500E+01 3.70100E+01 0.00000E+00
 -1       720 6.16500E+01 3.70100E+01 0.00000E+00
 -1       721 6.46500E+01 3.70100E+01 0.00000E+00
 -1       722 6.76500E+01 3.70100E+01 0.00000E+00
 -1       723 7.06500E+01 3.70100E+01 0.00000E+00
 -1       724 7.36500E+01 3.70100E+01 0.00000E+00
 -1       725 7.66500E+01 3.70100E+01 0.00000E+00
 -1       726 7.96500E+01 3.70100E+01 0.00000E+00
 -1       727 8.26500E+01 3.70100E+01 0.00000E+00
 -1       728 8.56500E+01 3.70100E+01 0.00000E+00
 -1       729 8.86500E+01 3.70100E+01 0.00000E+00
 -1       730 9.16500E+01 3.70100E+01 0.00000E+00
 -1       731 9.46500E+01 3.70100E+01 0.00000E+00
 -1       732 9.76500E+01 3.70100E+01 0.00000E+00
 -1       733 1.00650E+02 3.70100E+01 0.00000E+00
 -1       734 1.03650E+02 3.70100E+01 0.00000E+00
 -1       735 1.06650E+02 3.70100E+01 0.00000E+00
 -1       736 1.09650E+02 3.70100E+01 0.00000E+00
 -1       737 1.12650E+02 3.70100E+01 0.00000E+00
 -1       738 1.15650E+02 3.70100E+01 0.00000E+00
 -1       739 1.18650E+02 3.70100E+01 0.00000E+00
 -1       740 1.21650E+02 3.70100E+01 0.00000E+00
 -1       741 1.24650E+02 3.70100E+01 0.00000E+00
 -1       742 1.27650E+02 3.70100E+01 0.00000E+00
 -1       743 1.30650E+02 3.70100E+01 0.00000E+00
 -1       744 1.33650E+02 3.70100E+01 0.00000E+00
 -1       745 1.36650E+02 3.70100E+01 0.00000E+00
 -1       746 1.23156E+02 1.14243E+01 0.00000E+00
 -1       747 3.10350E+01 1.18003E+01 0.00000E+00
 -1       748 3.40350E+01 1.18003E+01 0.00000E+00
 -1       749 3.70350E+01 1.18003E+01 0.00000E+00
 -1       750 4.00350E+01 1.18003E+01 0.00000E+00
 -1       751 4.30350E+01 1.18003E+01 0.00000E+00
 -1       752 4.60350E+01 1.18003E+01 0.00000E+00
 -1       753 4.90350E+01 1.18003E+01 0.00000E+00
 -1       754 5.20350E+01 1.18003E+01 0.00000E+00
 -1       755 5.50350E+01 1.18003E+01 0.00000E+00
 -1       756 5.80350E+01 1.18003E+01 0.00000E+00
 -1       757 6.10350E+01 1.18003E+01 0.00000E+00
 -1       758 6.40350E+01 1.18003E+01 0.00000E+00
 -1       759 6.70350E+01 1.18003E+01 0.00000E+00
 -1       760 7.00350E+01 1.18003E+01 0.00000E+00
 -1       761 7.30350E+01 1.18003E+01 0.00000E+00
 -1       762 7.60350E+01 1.18003E+01 0.00000E+00
 -1       763 7.90350E+01 1.18003E+01 0.00000E+00
 -1       764 8.20350E+01 1.18003E+01 0.00000E+00
 -1       765 8.50350E+01 1.18003E+01 0.00000E+00
 -1       766 8.80350E+01 1.18003E+01 0.00000E+00
 -1       767 9.10350E+01 1.18003E+01 0.00000E+00
 -1       768 9.40350E+01 1.18003E+01 0.00000E+00
 -1       769 9.70350E+01 1.18003E+01 0.00000E+00
 -1       770 1.00035E+02 1.18003E+01 0.00000E+00
 -1       771 1.03035E+02 1.18003E+01 0.00000E+00
 -1       772 1.06035E+02 1.18003E+01 0.00000E+00
 -1       773 1.09035E+02 1.18003E+01 0.00000E+00
 -1       774 1.12035E+02 1.18003E+01 0.00000E+00
 -1       775 1.15035E+02 1.18003E+01 0.00000E+00
 -1       776 1.18035E+02 1.18003E+01 0.00000E+00
 -1       777 2.50350E+01 1.18003E+01 0.00000E+00
 -1       778 1.38151E+02 3.38250E+01 0.00000E+00
 -1       779 1.27714E+02 2.93212E+01 0.00000E+00
 -1       780 2.20350E+01 1.18003E+01 0.00000E+00
 -1       781 1.33762E+02 3.25726E+01 0.00000E+00
 -1       782 1.36500E+01 3.70100E+01 0.00000E+00
 -1       783 1.22532E+02 1.46268E+01 0.00000E+00
 -1       784 1.60350E+01 1.18003E+01 0.00000E+00
 -1       785 1.29900E+01 2.20250E+01 0.00000E+00
 -1       786 1.30192E+02 3.13976E+01 0.00000E+00
 -1       787 1.23747E+02 2.47167E+01 0.00000E+00
 -1       788 1.20210E+01 3.61362E+01 0.00000E+00
 -1       789 1.21901E+02 2.17975E+01 0.00000E+00
 -1       790 1.29900E+01 2.49750E+01 0.00000E+00
 -1       791 1.29900E+01 1.61375E+01 0.00000E+00
 -1       792 1.21093E+02 1.63771E+01 0.00000E+00
 -1       793 1.20882E+02 1.98095E+01 0.00000E+00
 -1       794 1.20210E+01 3.31987E+01 0.00000E+00
 -1       795 1.31490E+02 3.35735E+01 0.00000E+00
 -1       796 1.20210E+01 3.02612E+01 0.00000E+00
 -1       797 1.29900E+01 1.90875E+01 0.00000E+00
 -1       798 1.35206E+02 3.47913E+01 0.00000E+00
 -1       799 2.11500E+01 3.44120E+01 0.00000E+00
 -1       800 2.41500E+01 3.44120E+01 0.00000E+00
 -1       801 2.71500E+01 3.44120E+01 0.00000E+00
 -1       802 3.01500E+01 3.44120E+01 0.00000E+00
 -1       803 3.31500E+01 3.44120E+01 0.00000E+00
 -1       804 3.61500E+01 3.44120E+01 0.00000E+00
 -1       805 3.91500E+01 3.44120E+01 0.00000E+00
 -1       806 4.21500E+01 3.44120E+01 0.00000E+00
 -1       807 4.51500E+01 3.44120E+01 0.00000E+00
 -1       808 4.81500E+01 3.44120E+01 0.00000E+00
 -1       809 5.11500E+01 3.44120E+01 0.00000E+00
 -1       810 5.41500E+01 3.44120E+01 0.00000E+00
 -1       811 5.71500E+01 3.44120E+01 0.00000E+00
 -1       812 6.01500E+01 3.44120E+01 0.00000E+00
 -1       813 6.31500E+01 3.44120E+01 0.00000E+00
 -1       814 6.61500E+01 3.44120E+01 0.00000E+00
 -1       815 6.91500E+01 3.44120E+01 0.00000E+00
 -1       816 7.21500E+01 3.44120E+01 0.00000E+00
 -1       817 7.51500E+01 3.44120E+01 0.00000E+00
 -1       818 7.81500E+01 3.44120E+01 0.00000E+00
 -1       819 8.11500E+01 3.44120E+01 0.00000E+00
 -1       820 8.41500E+01 3.44120E+01 0.00000E+00
 -1       821 8.71500E+01 3.44120E+01 0.00000E+00
 -1       822 9.01500E+01 3.44120E+01 0.00000E+00
 -1       823 9.31500E+01 3.44120E+01 0.00000E+00
 -1       824 9.61500E+01 3.44120E+01 0.00000E+00
 -1       825 9.91500E+01 3.44120E+01 0.00000E+00
 -1       826 1.02150E+02 3.44120E+01 0.00000E+00
 -1       827 1.05150E+02 3.44120E+01 0.00000E+00
 -1       828 1.08150E+02 3.44120E+01 0.00000E+00
 -1       829 1.11150E+02 3.44120E+01 0.00000E+00
 -1       830 1.14150E+02 3.44120E+01 0.00000E+00
 -1       831 1.17150E+02 3.44120E+01 0.00000E+00
 -1       832 1.20150E+02 3.44120E+01 0.00000E+00
 -1       833 1.23150E+02 3.44120E+01 0.00000E+00
 -1       834 1.26150E+02 3.44120E+01 0.00000E+00
 -1       835 3.55350E+01 1.43982E+01 0.00000E+00
 -1       836 2.95350E+01 1.43982E+01 0.00000E+00
 -1       837 3.85350E+01 1.43982E+01 0.00000E+00
 -1       838 4.15350E+01 1.43982E+01 0.00000E+00
 -1       839 4.45350E+01 1.43982E+01 0.00000E+00
 -1       840 4.75350E+01 1.43982E+01 0.00000E+00
 -1       841 5.05350E+01 1.43982E+01 0.00000E+00
 -1       842 5.35350E+01 1.43982E+01 0.00000E+00
 -1       843 5.65350E+01 1.43982E+01 0.00000E+00
 -1       844 5.95350E+01 1.43982E+01 0.00000E+00
 -1       845 6.25350E+01 1.43982E+01 0.00000E+00
 -1       846 6.55350E+01 1.43982E+01 0.00000E+00
 -1       847 6.85350E+01 1.43982E+01 0.00000E+00
 -1       848 7.15350E+01 1.43982E+01 0.00000E+00
 -1       849 7.45350E+01 1.43982E+01 0.00000E+00
 -1       850 7.75350E+01 1.43982E+01 0.00000E+00
 -1       851 8.05350E+01 1.43982E+01 0.00000E+00
 -1       852 8.35350E+01 1.43982E+01 0.00000E+00
 -1       853 8.65350E+01 1.43982E+01 0.00000E+00
 -1       854 8.95350E+01 1.43982E+01 0.00000E+00
 -1       855 9.25350E+01 1.43982E+01 0.00000E+00
 -1       856 9.55350E+01 1.43982E+01 0.00000E+00
 -1       857 9.85350E+01 1.43982E+01 0.00000E+00
 -1       858 1.01535E+02 1.43982E+01 0.00000E+00
 -1       859 1.04535E+02 1.43982E+01 0.00000E+00
 -1       860 1.07535E+02 1.43982E+01 0.00000E+00
 -1       861 1.10535E+02 1.43982E+01 0.00000E+00
 -1       862 1.13535E+02 1.43982E+01 0.00000E+00
 -1       863 1.16535E+02 1.43982E+01 0.00000E+00
 -1       864 2.65350E+01 1.43982E+01 0.00000E+00
 -1       865 1.81500E+01 3.44120E+01 0.00000E+00
 -1       866 1.75350E+01 1.43982E+01 0.00000E+00
 -1       867 1.25055E+01 2.76181E+01 0.00000E+00
 -1       868 1.36500E+01 3.40725E+01 0.00000E+00
 -1       869 1.59000E+01 3.42422E+01 0.00000E+00
 -1       870 1.22872E+02 2.72167E+01 0.00000E+00
 -1       871 1.27528E+02 3.20592E+01 0.00000E+00
 -1       872 1.20949E+02 2.44425E+01 0.00000E+00
 -1       873 1.52625E+01 1.52679E+01 0.00000E+00
 -1       874 3.25350E+01 1.43982E+01 0.00000E+00
 -1       875 1.24887E+02 2.98121E+01 0.00000E+00
 -1       876 1.19365E+02 1.83210E+01 0.00000E+00
 -1       877 1.19079E+02 2.19881E+01 0.00000E+00
 -1       878 1.28921E+02 3.42038E+01 0.00000E+00
 -1       879 2.35350E+01 1.43982E+01 0.00000E+00
 -1       880 1.55880E+01 2.35000E+01 0.00000E+00
 -1       881 2.05350E+01 1.43982E+01 0.00000E+00
 -1       882 1.36500E+01 3.11350E+01 0.00000E+00
 -1       883 1.19104E+02 1.50913E+01 0.00000E+00
 -1       884 1.55880E+01 2.05625E+01 0.00000E+00
 -1       885 3.40350E+01 1.69963E+01 0.00000E+00
 -1       886 2.26500E+01 3.18140E+01 0.00000E+00
 -1       887 1.19950E+02 2.71885E+01 0.00000E+00
 -1       888 1.17242E+02 1.68860E+01 0.00000E+00
 -1       889 2.56500E+01 3.18140E+01 0.00000E+00
 -1       890 2.86500E+01 3.18140E+01 0.00000E+00
 -1       891 3.16500E+01 3.18140E+01 0.00000E+00
 -1       892 3.46500E+01 3.18140E+01 0.00000E+00
 -1       893 3.76500E+01 3.18140E+01 0.00000E+00
 -1       894 4.06500E+01 3.18140E+01 0.00000E+00
 -1       895 4.36500E+01 3.18140E+01 0.00000E+00
 -1       896 4.66500E+01 3.18140E+01 0.00000E+00
 -1       897 4.96500E+01 3.18140E+01 0.00000E+00
 -1       898 5.26500E+01 3.18140E+01 0.00000E+00
 -1       899 5.56500E+01 3.18140E+01 0.00000E+00
 -1       900 5.86500E+01 3.18140E+01 0.00000E+00
 -1       901 6.16500E+01 3.18140E+01 0.00000E+00
 -1       902 6.46500E+01 3.18140E+01 0.00000E+00
 -1       903 6.76500E+01 3.18140E+01 0.00000E+00
 -1       904 7.06500E+01 3.18140E+01 0.00000E+00
 -1       905 7.36500E+01 3.18140E+01 0.00000E+00
 -1       906 7.66500E+01 3.18140E+01 0.00000E+00
 -1       907 7.96500E+01 3.18140E+01 0.00000E+00
 -1       908 8.26500E+01 3.18140E+01 0.00000E+00
 -1       909 8.56500E+01 3.18140E+01 0.00000E+00
 -1       910 8.86500E+01 3.18140E+01 0.00000E+00
 -1       911 9.16500E+01 3.18140E+01 0.00000E+00
 -1       912 9.46500E+01 3.18140E+01 0.00000E+00
 -1       913 9.76500E+01 3.18140E+01 0.00000E+00
 -1       914 1.00650E+02 3.18140E+01 0.00000E+00
 -1       915 1.03650E+02 3.18140E+01 0.00000E+00
 -1       916 1.06650E+02 3.18140E+01 0.00000E+00
 -1       917 1.09650E+02 3.18140E+01 0.00000E+00
 -1       918 1.12650E+02 3.18140E+01 0.00000E+00
 -1       919 1.15650E+02 3.18140E+01 0.00000E+00
 -1       920 1.18650E+02 3.18140E+01 0.00000E+00
 -1       921 1.21650E+02 3.18140E+01 0.00000E+00
 -1       922 4.00350E+01 1.69963E+01 0.00000E+00
 -1       923 1.96500E+01 3.18140E+01 0.00000E+00
 -1       924 3.70350E+01 1.69963E+01 0.00000E+00
 -1       925 4.60350E+01 1.69963E+01 0.00000E+00
 -1       926 4.90350E+01 1.69963E+01 0.00000E+00
 -1       927 5.20350E+01 1.69963E+01 0.00000E+00
 -1       928 5.50350E+01 1.69963E+01 0.00000E+00
 -1       929 5.80350E+01 1.69963E+01 0.00000E+00
 -1       930 6.10350E+01 1.69963E+01 0.00000E+00
 -1       931 6.40350E+01 1.69963E+01 0.00000E+00
 -1       932 6.70350E+01 1.69963E+01 0.00000E+00
 -1       933 7.00350E+01 1.69963E+01 0.00000E+00
 -1       934 7.30350E+01 1.69963E+01 0.00000E+00
 -1       935 7.60350E+01 1.69963E+01 0.00000E+00
 -1       936 7.90350E+01 1.69963E+01 0.00000E+00
 -1       937 8.20350E+01 1.69963E+01 0.00000E+00
 -1       938 8.50350E+01 1.69963E+01 0.00000E+00
 -1       939 8.80350E+01 1.69963E+01 0.00000E+00
 -1       940 9.10350E+01 1.69963E+01 0.00000E+00
 -1       941 9.40350E+01 1.69963E+01 0.00000E+00
 -1       942 9.70350E+01 1.69963E+01 0.00000E+00
 -1       943 1.00035E+02 1.69963E+01 0.00000E+00
 -1       944 1.03035E+02 1.69963E+01 0.00000E+00
 -1       945 1.06035E+02 1.69963E+01 0.00000E+00
 -1       946 1.09035E+02 1.69963E+01 0.00000E+00
 -1       947 1.12035E+02 1.69963E+01 0.00000E+00
 -1       948 1.14638E+02 1.69411E+01 0.00000E+00
 -1       949 2.80350E+01 1.69963E+01 0.00000E+00
 -1       950 1.54253E+01 1.79152E+01 0.00000E+00
 -1       951 1.17563E+02 2.04996E+01 0.00000E+00
 -1       952 1.21827E+02 3.01075E+01 0.00000E+00
 -1       953 1.55717E+01 2.64968E+01 0.00000E+00
 -1       954 4.30350E+01 1.69963E+01 0.00000E+00
 -1       955 3.10350E+01 1.69963E+01 0.00000E+00
 -1       956 1.18080E+02 2.47341E+01 0.00000E+00
 -1       957 1.24018E+02 3.21121E+01 0.00000E+00
 -1       958 1.74000E+01 3.16443E+01 0.00000E+00
 -1       959 1.90350E+01 1.69963E+01 0.00000E+00
 -1       960 1.81778E+01 2.50125E+01 0.00000E+00
 -1       961 1.46108E+01 2.88159E+01 0.00000E+00
 -1       962 1.55250E+01 3.13896E+01 0.00000E+00
 -1       963 2.50350E+01 1.69963E+01 0.00000E+00
 -1       964 1.16564E+02 2.32456E+01 0.00000E+00
 -1       965 1.81778E+01 2.20750E+01 0.00000E+00
 -1       966 1.72301E+01 1.74557E+01 0.00000E+00
 -1       967 2.71500E+01 2.92160E+01 0.00000E+00
 -1       968 3.01500E+01 2.92160E+01 0.00000E+00
 -1       969 3.31500E+01 2.92160E+01 0.00000E+00
 -1       970 3.61500E+01 2.92160E+01 0.00000E+00
 -1       971 3.91500E+01 2.92160E+01 0.00000E+00
 -1       972 4.21500E+01 2.92160E+01 0.00000E+00
 -1       973 4.51500E+01 2.92160E+01 0.00000E+00
 -1       974 4.81500E+01 2.92160E+01 0.00000E+00
 -1       975 5.11500E+01 2.92160E+01 0.00000E+00
 -1       976 5.41500E+01 2.92160E+01 0.00000E+00
 -1       977 5.71500E+01 2.92160E+01 0.00000E+00
 -1       978 6.01500E+01 2.92160E+01 0.00000E+00
 -1       979 6.31500E+01 2.92160E+01 0.00000E+00
 -1       980 6.61500E+01 2.92160E+01 0.00000E+00
 -1       981 6.91500E+01 2.92160E+01 0.00000E+00
 -1       982 7.21500E+01 2.92160E+01 0.00000E+00
 -1       983 7.51500E+01 2.92160E+01 0.00000E+00
 -1       984 7.81500E+01 2.92160E+01 0.00000E+00
 -1       985 8.11500E+01 2.92160E+01 0.00000E+00
 -1       986 8.41500E+01 2.92160E+01 0.00000E+00
 -1       987 8.71500E+01 2.92160E+01 0.00000E+00
 -1       988 9.01500E+01 2.92160E+01 0.00000E+00
 -1       989 9.31500E+01 2.92160E+01 0.00000E+00
 -1       990 9.61500E+01 2.92160E+01 0.00000E+00
 -1       991 9.91500E+01 2.92160E+01 0.00000E+00
 -1       992 1.02150E+02 2.92160E+01 0.00000E+00
 -1       993 1.05150E+02 2.92160E+01 0.00000E+00
 -1       994 1.08150E+02 2.92160E+01 0.00000E+00
 -1       995 1.11150E+02 2.92160E+01 0.00000E+00
 -1       996 1.14150E+02 2.92160E+01 0.00000E+00
 -1       997 1.17150E+02 2.92160E+01 0.00000E+00
 -1       998 2.20350E+01 1.69963E+01 0.00000E+00
 -1       999 3.25350E+01 1.95942E+01 0.00000E+00
 -1      1000 2.11500E+01 2.92160E+01 0.00000E+00
 -1      1001 3.85350E+01 1.95942E+01 0.00000E+00
 -1      1002 5.05350E+01 1.95942E+01 0.00000E+00
 -1      1003 4.75350E+01 1.95942E+01 0.00000E+00
 -1      1004 5.65350E+01 1.95942E+01 0.00000E+00
 -1      1005 5.95350E+01 1.95942E+01 0.00000E+00
 -1      1006 6.25350E+01 1.95942E+01 0.00000E+00
 -1      1007 6.55350E+01 1.95942E+01 0.00000E+00
 -1      1008 6.85350E+01 1.95942E+01 0.00000E+00
 -1      1009 7.15350E+01 1.95942E+01 0.00000E+00
 -1      1010 7.45350E+01 1.95942E+01 0.00000E+00
 -1      1011 7.75350E+01 1.95942E+01 0.00000E+00
 -1      1012 8.05350E+01 1.95942E+01 0.00000E+00
 -1      1013 8.35350E+01 1.95942E+01 0.00000E+00
 -1      1014 8.65350E+01 1.95942E+01 0.00000E+00
 -1      1015 8.95350E+01 1.95942E+01 0.00000E+00
 -1      1016 9.25350E+01 1.95942E+01 0.00000E+00
 -1      1017 9.55350E+01 1.95942E+01 0.00000E+00
 -1      1018 9.85350E+01 1.95942E+01 0.00000E+00
 -1      1019 1.01535E+02 1.95942E+01 0.00000E+00
 -1      1020 1.04535E+02 1.95942E+01 0.00000E+00
 -1      1021 1.07535E+02 1.95942E+01 0.00000E+00
 -1      1022 1.10535E+02 1.95942E+01 0.00000E+00
 -1      1023 5.35350E+01 1.95942E+01 0.00000E+00
 -1      1024 1.81605E+01 2.80122E+01 0.00000E+00
 -1      1025 2.95350E+01 1.95942E+01 0.00000E+00
 -1      1026 3.55350E+01 1.95942E+01 0.00000E+00
 -1      1027 1.14959E+02 2.05547E+01 0.00000E+00
 -1      1028 2.41500E+01 2.92160E+01 0.00000E+00
 -1      1029 2.65350E+01 1.95942E+01 0.00000E+00
 -1      1030 1.15357E+02 2.62308E+01 0.00000E+00
 -1      1031 2.05350E+01 1.95942E+01 0.00000E+00
 -1      1032 4.45350E+01 1.95942E+01 0.00000E+00
 -1      1033 1.12747E+02 2.00745E+01 0.00000E+00
 -1      1034 1.77040E+01 1.97654E+01 0.00000E+00
 -1      1035 4.15350E+01 1.95942E+01 0.00000E+00
 -1      1036 2.07671E+01 2.65274E+01 0.00000E+00
 -1      1037 2.07671E+01 2.35899E+01 0.00000E+00
 -1      1038 6.40350E+01 2.21922E+01 0.00000E+00
 -1      1039 4.90350E+01 2.21922E+01 0.00000E+00
 -1      1040 3.16500E+01 2.66180E+01 0.00000E+00
 -1      1041 3.46500E+01 2.66180E+01 0.00000E+00
 -1      1042 3.76500E+01 2.66180E+01 0.00000E+00
 -1      1043 4.06500E+01 2.66180E+01 0.00000E+00
 -1      1044 4.36500E+01 2.66180E+01 0.00000E+00
 -1      1045 4.66500E+01 2.66180E+01 0.00000E+00
 -1      1046 4.96500E+01 2.66180E+01 0.00000E+00
 -1      1047 5.26500E+01 2.66180E+01 0.00000E+00
 -1      1048 5.56500E+01 2.66180E+01 0.00000E+00
 -1      1049 5.86500E+01 2.66180E+01 0.00000E+00
 -1      1050 6.16500E+01 2.66180E+01 0.00000E+00
 -1      1051 6.46500E+01 2.66180E+01 0.00000E+00
 -1      1052 6.76500E+01 2.66180E+01 0.00000E+00
 -1      1053 7.06500E+01 2.66180E+01 0.00000E+00
 -1      1054 7.36500E+01 2.66180E+01 0.00000E+00
 -1      1055 7.66500E+01 2.66180E+01 0.00000E+00
 -1      1056 7.96500E+01 2.66180E+01 0.00000E+00
 -1      1057 8.26500E+01 2.66180E+01 0.00000E+00
 -1      1058 8.56500E+01 2.66180E+01 0.00000E+00
 -1      1059 8.86500E+01 2.66180E+01 0.00000E+00
 -1      1060 9.16500E+01 2.66180E+01 0.00000E+00
 -1      1061 9.46500E+01 2.66180E+01 0.00000E+00
 -1      1062 9.76500E+01 2.66180E+01 0.00000E+00
 -1      1063 1.00650E+02 2.66180E+01 0.00000E+00
 -1      1064 1.03650E+02 2.66180E+01 0.00000E+00
 -1      1065 1.06650E+02 2.66180E+01 0.00000E+00
 -1      1066 1.09650E+02 2.66180E+01 0.00000E+00
 -1      1067 1.12503E+02 2.64244E+01 0.00000E+00
 -1      1068 3.40350E+01 2.21922E+01 0.00000E+00
 -1      1069 2.35350E+01 1.95942E+01 0.00000E+00
 -1      1070 6.10350E+01 2.21922E+01 0.00000E+00
 -1      1071 5.80350E+01 2.21922E+01 0.00000E+00
 -1      1072 6.70350E+01 2.21922E+01 0.00000E+00
 -1      1073 7.00350E+01 2.21922E+01 0.00000E+00
 -1      1074 7.30350E+01 2.21922E+01 0.00000E+00
 -1      1075 7.60350E+01 2.21922E+01 0.00000E+00
 -1      1076 7.90350E+01 2.21922E+01 0.00000E+00
 -1      1077 8.20350E+01 2.21922E+01 0.00000E+00
 -1      1078 8.50350E+01 2.21922E+01 0.00000E+00
 -1      1079 8.80350E+01 2.21922E+01 0.00000E+00
 -1      1080 9.10350E+01 2.21922E+01 0.00000E+00
 -1      1081 9.40350E+01 2.21922E+01 0.00000E+00
 -1      1082 9.70350E+01 2.21922E+01 0.00000E+00
 -1      1083 1.00035E+02 2.21922E+01 0.00000E+00
 -1      1084 1.03035E+02 2.21922E+01 0.00000E+00
 -1      1085 1.06035E+02 2.21922E+01 0.00000E+00
 -1      1086 1.09035E+02 2.21922E+01 0.00000E+00
 -1      1087 1.13530E+02 2.32305E+01 0.00000E+00
 -1      1088 5.50350E+01 2.21922E+01 0.00000E+00
 -1      1089 2.86500E+01 2.66180E+01 0.00000E+00
 -1      1090 5.20350E+01 2.21922E+01 0.00000E+00
 -1      1091 3.10350E+01 2.21922E+01 0.00000E+00
 -1      1092 3.70350E+01 2.21922E+01 0.00000E+00
 -1      1093 2.37671E+01 2.65274E+01 0.00000E+00
 -1      1094 4.60350E+01 2.21922E+01 0.00000E+00
 -1      1095 2.80350E+01 2.21922E+01 0.00000E+00
 -1      1096 1.11247E+02 2.26725E+01 0.00000E+00
 -1      1097 2.62085E+01 2.65727E+01 0.00000E+00
 -1      1098 4.00350E+01 2.21922E+01 0.00000E+00
 -1      1099 4.51500E+01 2.40200E+01 0.00000E+00
 -1      1100 2.50350E+01 2.21922E+01 0.00000E+00
 -1      1101 4.30350E+01 2.21922E+01 0.00000E+00
 -1      1102 4.21500E+01 2.40200E+01 0.00000E+00
 -1      1103 0.00000E+00 4.85250E+01 0.00000E+00
 -1      1104 0.00000E+00 4.55750E+01 0.00000E+00
 -1      1105 0.00000E+00 4.26250E+01 0.00000E+00
 -1      1106 0.00000E+00 3.96750E+01 0.00000E+00
 -1      1107 0.00000E+00 3.67250E+01 0.00000E+00
 -1      1108 0.00000E+00 3.38000E+01 0.00000E+00
 -1      1109 0.00000E+00 3.08750E+01 0.00000E+00
 -1      1110 0.00000E+00 2.79250E+01 0.00000E+00
 -1      1111 0.00000E+00 2.49750E+01 0.00000E+00
 -1      1112 0.00000E+00 2.20250E+01 0.00000E+00
 -1      1113 0.00000E+00 1.90750E+01 0.00000E+00
 -1      1114 0.00000E+00 1.61500E+01 0.00000E+00
 -1      1115 0.00000E+00 1.32250E+01 0.00000E+00
 -1      1116 0.00000E+00 1.02750E+01 0.00000E+00
 -1      1117 0.00000E+00 7.32500E+00 0.00000E+00
 -1      1118 0.00000E+00 4.37500E+00 0.00000E+00
 -1      1119 0.00000E+00 1.45000E+00 0.00000E+00
 -1      1120 1.57500E+00 5.00000E+01 0.00000E+00
 -1      1121 4.65000E+00 5.00000E+01 0.00000E+00
 -1      1122 7.65000E+00 5.00000E+01 0.00000E+00
 -1      1123 1.06500E+01 5.00000E+01 0.00000E+00
 -1      1124 1.36500E+01 5.00000E+01 0.00000E+00
 -1      1125 1.66500E+01 5.00000E+01 0.00000E+00
 -1      1126 1.96500E+01 5.00000E+01 0.00000E+00
 -1      1127 2.26500E+01 5.00000E+01 0.00000E+00
 -1      1128 2.56500E+01 5.00000E+01 0.00000E+00
 -1      1129 2.86500E+01 5.00000E+01 0.00000E+00
 -1      1130 3.16500E+01 5.00000E+01 0.00000E+00
 -1      1131 3.46500E+01 5.00000E+01 0.00000E+00
 -1      1132 3.76500E+01 5.00000E+01 0.00000E+00
 -1      1133 4.06500E+01 5.00000E+01 0.00000E+00
 -1      1134 4.36500E+01 5.00000E+01 0.00000E+00
 -1      1135 4.66500E+01 5.00000E+01 0.00000E+00
 -1      1136 4.96500E+01 5.00000E+01 0.00000E+00
 -1      1137 5.26500E+01 5.00000E+01 0.00000E+00
 -1      1138 5.56500E+01 5.00000E+01 0.00000E+00
 -1      1139 5.86500E+01 5.00000E+01 0.00000E+00
 -1      1140 6.16500E+01 5.00000E+01 0.00000E+00
 -1      1141 6.46500E+01 5.00000E+01 0.00000E+00
 -1      1142 6.76500E+01 5.00000E+01 0.00000E+00
 -1      1143 7.06500E+01 5.00000E+01 0.00000E+00
 -1      1144 7.36500E+01 5.00000E+01 0.00000E+00
 -1      1145 7.66500E+01 5.00000E+01 0.00000E+00
 -1      1146 7.96500E+01 5.00000E+01 0.00000E+00
 -1      1147 8.26500E+01 5.00000E+01 0.00000E+00
 -1      1148 8.56500E+01 5.00000E+01 0.00000E+00
 -1      1149 8.86500E+01 5.00000E+01 0.00000E+00
 -1      1150 9.16500E+01 5.00000E+01 0.00000E+00
 -1      1151 9.46500E+01 5.00000E+01 0.00000E+00
 -1      1152 9.76500E+01 5.00000E+01 0.00000E+00
 -1      1153 1.00650E+02 5.00000E+01 0.00000E+00
 -1      1154 1.03650E+02 5.00000E+01 0.00000E+00
 -1      1155 1.06650E+02 5.00000E+01 0.00000E+00
 -1      1156 1.09650E+02 5.00000E+01 0.00000E+00
 -1      1157 1.12650E+02 5.00000E+01 0.00000E+00
 -1      1158 1.15650E+02 5.00000E+01 0.00000E+00
 -1      1159 1.18650E+02 5.00000E+01 0.00000E+00
 -1      1160 1.21650E+02 5.00000E+01 0.00000E+00
 -1      1161 1.24650E+02 5.00000E+01 0.00000E+00
 -1      1162 1.27650E+02 5.00000E+01 0.00000E+00
 -1      1163 1.30650E+02 5.00000E+01 0.00000E+00
 -1      1164 1.33650E+02 5.00000E+01 0.00000E+00
 -1      1165 1.36650E+02 5.00000E+01 0.00000E+00
 -1      1166 1.39650E+02 5.00000E+01 0.00000E+00
 -1      1167 1.42650E+02 5.00000E+01 0.00000E+00
 -1      1168 1.45650E+02 5.00000E+01 0.00000E+00
 -1      1169 1.48575E+02 5.00000E+01 0.00000E+00
 -1      1170 1.57500E+00 0.00000E+00 0.00000E+00
 -1      1171 4.65000E+00 0.00000E+00 0.00000E+00
 -1      1172 7.65000E+00 0.00000E+00 0.00000E+00
 -1      1173 1.06500E+01 0.00000E+00 0.00000E+00
 -1      1174 1.36500E+01 0.00000E+00 0.00000E+00
 -1      1175 1.66500E+01 0.00000E+00 0.00000E+00
 -1      1176 1.96500E+01 0.00000E+00 0.00000E+00
 -1      1177 2.26500E+01 0.00000E+00 0.00000E+00
 -1      1178 2.56500E+01 0.00000E+00 0.00000E+00
 -1      1179 2.86500E+01 0.00000E+00 0.00000E+00
 -1      1180 3.16500E+01 0.00000E+00 0.00000E+00
 -1      1181 3.46500E+01 0.00000E+00 0.00000E+00
 -1      1182 3.76500E+01 0.00000E+00 0.00000E+00
 -1      1183 4.06500E+01 0.00000E+00 0.00000E+00
 -1      1184 4.36500E+01 0.00000E+00 0.00000E+00
 -1      1185 4.66500E+01 0.00000E+00 0.00000E+00
 -1      1186 4.96500E+01 0.00000E+00 0.00000E+00
 -1      1187 5.26500E+01 0.00000E+00 0.00000E+00
 -1      1188 5.56500E+01 0.00000E+00 0.00000E+00
 -1      1189 5.86500E+01 0.00000E+00 0.00000E+00
 -1      1190 6.16500E+01 0.00000E+00 0.00000E+00
 -1      1191 6.46500E+01 0.00000E+00 0.00000E+00
 -1      1192 6.76500E+01 0.00000E+00 0.00000E+00
 -1      1193 7.06500E+01 0.00000E+00 0.00000E+00
 -1      1194 7.36500E+01 0.00000E+00 0.00000E+00
 -1      1195 7.66500E+01 0.00000E+00 0.00000E+00
 -1      1196 7.96500E+01 0.00000E+00 0.00000E+00
 -1      1197 8.26500E+01 0.00000E+00 0.00000E+00
 -1      1198 8.56500E+01 0.00000E+00 0.00000E+00
 -1      1199 8.86500E+01 0.00000E+00 0.00000E+00
 -1      1200 9.16500E+01 0.00000E+00 0.00000E+00
 -1      1201 9.46500E+01 0.00000E+00 0.00000E+00
 -1      1202 9.76500E+01 0.00000E+00 0.00000E+00
 -1      1203 1.00650E+02 0.00000E+00 0.00000E+00
 -1      1204 1.03650E+02 0.00000E+00 0.00000E+00
 -1      1205 1.06650E+02 0.00000E+00 0.00000E+00
 -1      1206 1.09650E+02 0.00000E+00 0.00000E+00
 -1      1207 1.12650E+02 0.00000E+00 0.00000E+00
 -1      1208 1.15650E+02 0.00000E+00 0.00000E+00
 -1      1209 1.18650E+02 0.00000E+00 0.00000E+00
 -1      1210 1.21650E+02 0.00000E+00 0.00000E+00
 -1      1211 1.24650E+02 0.00000E+00 0.00000E+00
 -1      1212 1.27650E+02 0.00000E+00 0.00000E+00
 -1      1213 1.30650E+02 0.00000E+00 0.00000E+00
 -1      1214 1.33650E+02 0.00000E+00 0.00000E+00
 -1      1215 1.36650E+02 0.00000E+00 0.00000E+00
 -1      1216 1.39650E+02 0.00000E+00 0.00000E+00
 -1      1217 1.42650E+02 0.00000E+00 0.00000E+00
 -1      1218 1.45575E+02 0.00000E+00 0.00000E+00
 -1      1219 1.48500E+02 0.00000E+00 0.00000E+00
 -1      1220 1.50000E+02 1.50000E+00 0.00000E+00
 -1      1221 1.50000E+02 4.50000E+00 0.00000E+00
 -1      1222 1.50000E+02 7.50000E+00 0.00000E+00
 -1      1223 1.50000E+02 1.04000E+01 0.00000E+00
 -1      1224 1.50000E+02 1.30750E+01 0.00000E+00
 -1      1225 1.50000E+02 1.55250E+01 0.00000E+00
 -1      1226 1.50000E+02 1.79250E+01 0.00000E+00
 -1      1227 1.50000E+02 2.02500E+01 0.00000E+00
 -1      1228 1.50000E+02 2.25250E+01 0.00000E+00
 -1      1229 1.50000E+02 2.49000E+01 0.00000E+00
 -1      1230 1.50000E+02 2.75750E+01 0.00000E+00
 -1      1231 1.50000E+02 3.05500E+01 0.00000E+00
 -1      1232 1.50000E+02 3.35500E+01 0.00000E+00
 -1      1233 1.50000E+02 3.65500E+01 0.00000E+00
 -1      1234 1.50000E+02 3.95500E+01 0.00000E+00
 -1      1235 1.50000E+02 4.25500E+01 0.00000E+00
 -1      1236 1.50000E+02 4.55500E+01 0.00000E+00
 -1      1237 1.50000E+02 4.85250E+01 0.00000E+00
 -1      1238 1.43857E+02 1.68296E+01 0.00000E+00
 -1      1239 1.43502E+02 1.53025E+01 0.00000E+00
 -1      1240 1.42844E+02 1.39382E+01 0.00000E+00
 -1      1241 1.41844E+02 1.26824E+01 0.00000E+00
 -1      1242 1.40644E+02 1.17244E+01 0.00000E+00
 -1      1243 1.39310E+02 1.10682E+01 0.00000E+00
 -1      1244 1.37847E+02 1.07056E+01 0.00000E+00
 -1      1245 1.36340E+02 1.06645E+01 0.00000E+00
 -1      1246 1.34861E+02 1.09464E+01 0.00000E+00
 -1      1247 1.33478E+02 1.15374E+01 0.00000E+00
 -1      1248 1.32230E+02 1.24306E+01 0.00000E+00
 -1      1249 1.31221E+02 1.35551E+01 0.00000E+00
 -1      1250 1.30472E+02 1.48795E+01 0.00000E+00
 -1      1251 1.30027E+02 1.63333E+01 0.00000E+00
 -1      1252 1.29908E+02 1.78647E+01 0.00000E+00
 -1      1253 1.30126E+02 1.93905E+01 0.00000E+00
 -1      1254 1.30678E+02 2.08413E+01 0.00000E+00
 -1      1255 1.31533E+02 2.21314E+01 0.00000E+00
 -1      1256 1.32637E+02 2.31911E+01 0.00000E+00
 -1      1257 1.33968E+02 2.39961E+01 0.00000E+00
 -1      1258 1.35407E+02 2.44799E+01 0.00000E+00
 -1      1259 1.36900E+02 2.46417E+01 0.00000E+00
 -1      1260 1.38393E+02 2.44816E+01 0.00000E+00
 -1      1261 1.39755E+02 2.40347E+01 0.00000E+00
 -1      1262 1.41024E+02 2.33006E+01 0.00000E+00
 -1      1263 1.42116E+02 2.23149E+01 0.00000E+00
 -1      1264 1.42991E+02 2.10976E+01 0.00000E+00
 -1      1265 1.43585E+02 1.97305E+01 0.00000E+00
 -1      1266 1.43868E+02 1.83468E+01 0.00000E+00
 -1      1267 1.57500E+00 4.85250E+01 0.00000E+00
 -1      1268 1.29900E+00 4.48375E+01 0.00000E+00
 -1      1269 1.29900E+00 4.63125E+01 0.00000E+00
 -1      1270 1.29900E+00 4.18875E+01 0.00000E+00
 -1      1271 1.29900E+00 4.33625E+01 0.00000E+00
 -1      1272 2.59800E+00 4.41000E+01 0.00000E+00
 -1      1273 1.29900E+00 3.89375E+01 0.00000E+00
 -1      1274 1.29900E+00 4.04125E+01 0.00000E+00
 -1      1275 2.59800E+00 4.11500E+01 0.00000E+00
 -1      1276 1.29900E+00 3.59875E+01 0.00000E+00
 -1      1277 1.29900E+00 3.74625E+01 0.00000E+00
 -1      1278 2.59800E+00 3.82000E+01 0.00000E+00
 -1      1279 1.29900E+00 3.30875E+01 0.00000E+00
 -1      1280 1.29900E+00 3.45375E+01 0.00000E+00
 -1      1281 2.59800E+00 3.52750E+01 0.00000E+00
 -1      1282 1.29900E+00 3.01375E+01 0.00000E+00
 -1      1283 1.29900E+00 3.16125E+01 0.00000E+00
 -1      1284 2.59800E+00 3.23500E+01 0.00000E+00
 -1      1285 1.29900E+00 2.71875E+01 0.00000E+00
 -1      1286 1.29900E+00 2.86625E+01 0.00000E+00
 -1      1287 2.59800E+00 2.94000E+01 0.00000E+00
 -1      1288 1.29900E+00 2.42375E+01 0.00000E+00
 -1      1289 1.29900E+00 2.57125E+01 0.00000E+00
 -1      1290 2.59800E+00 2.64500E+01 0.00000E+00
 -1      1291 1.29900E+00 2.12875E+01 0.00000E+00
 -1      1292 1.29900E+00 2.27625E+01 0.00000E+00
 -1      1293 2.59800E+00 2.35000E+01 0.00000E+00
 -1      1294 1.29900E+00 1.83375E+01 0.00000E+00
 -1      1295 1.29900E+00 1.98125E+01 0.00000E+00
 -1      1296 2.59800E+00 2.05500E+01 0.00000E+00
 -1      1297 1.29900E+00 1.54375E+01 0.00000E+00
 -1      1298 1.29900E+00 1.68875E+01 0.00000E+00
 -1      1299 2.59800E+00 1.76250E+01 0.00000E+00
 -1      1300 1.29900E+00 1.24875E+01 0.00000E+00
 -1      1301 1.29900E+00 1.39625E+01 0.00000E+00
 -1      1302 2.59800E+00 1.47000E+01 0.00000E+00
 -1      1303 1.29900E+00 9.53750E+00 0.00000E+00
 -1      1304 1.29900E+00 1.10125E+01 0.00000E+00
 -1      1305 2.59800E+00 1.17500E+01 0.00000E+00
 -1      1306 1.29900E+00 6.58750E+00 0.00000E+00
 -1      1307 1.29900E+00 8.06250E+00 0.00000E+00
 -1      1308 2.59800E+00 8.80000E+00 0.00000E+00
 -1      1309 1.29900E+00 3.63750E+00 0.00000E+00
 -1      1310 1.29900E+00 5.11250E+00 0.00000E+00
 -1      1311 2.59800E+00 5.85000E+00 0.00000E+00
 -1      1312 1.43700E+00 1.09375E+00 0.00000E+00
 -1      1313 1.43700E+00 2.54375E+00 0.00000E+00
 -1      1314 2.73600E+00 3.28125E+00 0.00000E+00
 -1      1315 3.01200E+00 1.09375E+00 0.00000E+00
 -1      1316 3.90000E+00 4.87010E+01 0.00000E+00
 -1      1317 5.40000E+00 4.87010E+01 0.00000E+00
 -1      1318 6.90000E+00 4.87010E+01 0.00000E+00
 -1      1319 8.40000E+00 4.87010E+01 0.00000E+00
 -1      1320 6.15000E+00 4.74020E+01 0.00000E+00
 -1      1321 9.90000E+00 4.87010E+01 0.00000E+00
 -1      1322 1.14000E+01 4.87010E+01 0.00000E+00
 -1      1323 9.15000E+00 4.74020E+01 0.00000E+00
 -1      1324 1.29000E+01 4.87010E+01 0.00000E+00
 -1      1325 1.44000E+01 4.87010E+01 0.00000E+00
 -1      1326 1.21500E+01 4.74020E+01 0.00000E+00
 -1      1327 1.59000E+01 4.87010E+01 0.00000E+00
 -1      1328 1.74000E+01 4.87010E+01 0.00000E+00
 -1      1329 1.51500E+01 4.74020E+01 0.00000E+00
 -1      1330 1.89000E+01 4.87010E+01 0.00000E+00
 -1      1331 2.04000E+01 4.87010E+01 0.00000E+00
 -1      1332 1.81500E+01 4.74020E+01 0.00000E+00
 -1      1333 2.19000E+01 4.87010E+01 0.00000E+00
 -1      1334 2.34000E+01 4.87010E+01 0.00000E+00
 -1      1335 2.11500E+01 4.74020E+01 0.00000E+00
 -1      1336 2.49000E+01 4.87010E+01 0.00000E+00
 -1      1337 2.64000E+01 4.87010E+01 0.00000E+00
 -1      1338 2.41500E+01 4.74020E+01 0.00000E+00
 -1      1339 2.79000E+01 4.87010E+01 0.00000E+00
 -1      1340 2.94000E+01 4.87010E+01 0.00000E+00
 -1      1341 2.71500E+01 4.74020E+01 0.00000E+00
 -1      1342 3.09000E+01 4.87010E+01 0.00000E+00
 -1      1343 3.24000E+01 4.87010E+01 0.00000E+00
 -1      1344 3.01500E+01 4.74020E+01 0.00000E+00
 -1      1345 3.39000E+01 4.87010E+01 0.00000E+00
 -1      1346 3.54000E+01 4.87010E+01 0.00000E+00
 -1      1347 3.31500E+01 4.74020E+01 0.00000E+00
 -1      1348 3.69000E+01 4.87010E+01 0.00000E+00
 -1      1349 3.84000E+01 4.87010E+01 0.00000E+00
 -1      1350 3.61500E+01 4.74020E+01 0.00000E+00
 -1      1351 3.99000E+01 4.87010E+01 0.00000E+00
 -1      1352 4.14000E+01 4.87010E+01 0.00000E+00
 -1      1353 3.91500E+01 4.74020E+01 0.00000E+00
 -1      1354 4.29000E+01 4.87010E+01 0.00000E+00
 -1      1355 4.44000E+01 4.87010E+01 0.00000E+00
 -1      1356 4.21500E+01 4.74020E+01 0.00000E+00
 -1      1357 4.59000E+01 4.87010E+01 0.00000E+00
 -1      1358 4.74000E+01 4.87010E+01 0.00000E+00
 -1      1359 4.51500E+01 4.74020E+01 0.00000E+00
 -1      1360 4.89000E+01 4.87010E+01 0.00000E+00
 -1      1361 5.04000E+01 4.87010E+01 0.00000E+00
 -1      1362 4.81500E+01 4.74020E+01 0.00000E+00
 -1      1363 5.19000E+01 4.87010E+01 0.00000E+00
 -1      1364 5.34000E+01 4.87010E+01 0.00000E+00
 -1      1365 5.11500E+01 4.74020E+01 0.00000E+00
 -1      1366 5.49000E+01 4.87010E+01 0.00000E+00
 -1      1367 5.64000E+01 4.87010E+01 0.00000E+00
 -1      1368 5.41500E+01 4.74020E+01 0.00000E+00
 -1      1369 5.79000E+01 4.87010E+01 0.00000E+00
 -1      1370 5.94000E+01 4.87010E+01 0.00000E+00
 -1      1371 5.71500E+01 4.74020E+01 0.00000E+00
 -1      1372 6.09000E+01 4.87010E+01 0.00000E+00
 -1      1373 6.24000E+01 4.87010E+01 0.00000E+00
 -1      1374 6.01500E+01 4.74020E+01 0.00000E+00
 -1      1375 6.39000E+01 4.87010E+01 0.00000E+00
 -1      1376 6.54000E+01 4.87010E+01 0.00000E+00
 -1      1377 6.31500E+01 4.74020E+01 0.00000E+00
 -1      1378 6.69000E+01 4.87010E+01 0.00000E+00
 -1      1379 6.84000E+01 4.87010E+01 0.00000E+00
 -1      1380 6.61500E+01 4.74020E+01 0.00000E+00
 -1      1381 6.99000E+01 4.87010E+01 0.00000E+00
 -1      1382 7.14000E+01 4.87010E+01 0.00000E+00
 -1      1383 6.91500E+01 4.74020E+01 0.00000E+00
 -1      1384 7.29000E+01 4.87010E+01 0.00000E+00
 -1      1385 7.44000E+01 4.87010E+01 0.00000E+00
 -1      1386 7.21500E+01 4.74020E+01 0.00000E+00
 -1      1387 7.59000E+01 4.87010E+01 0.00000E+00
 -1      1388 7.74000E+01 4.87010E+01 0.00000E+00
 -1      1389 7.51500E+01 4.74020E+01 0.00000E+00
 -1      1390 7.89000E+01 4.87010E+01 0.00000E+00
 -1      1391 8.04000E+01 4.87010E+01 0.00000E+00
 -1      1392 7.81500E+01 4.74020E+01 0.00000E+00
 -1      1393 8.19000E+01 4.87010E+01 0.00000E+00
 -1      1394 8.34000E+01 4.87010E+01 0.00000E+00
 -1      1395 8.11500E+01 4.74020E+01 0.00000E+00
 -1      1396 8.49000E+01 4.87010E+01 0.00000E+00
 -1      1397 8.64000E+01 4.87010E+01 0.00000E+00
 -1      1398 8.41500E+01 4.74020E+01 0.00000E+00
 -1      1399 8.79000E+01 4.87010E+01 0.00000E+00
 -1      1400 8.94000E+01 4.87010E+01 0.00000E+00
 -1      1401 8.71500E+01 4.74020E+01 0.00000E+00
 -1      1402 9.09000E+01 4.87010E+01 0.00000E+00
 -1      1403 9.24000E+01 4.87010E+01 0.00000E+00
 -1      1404 9.01500E+01 4.74020E+01 0.00000E+00
 -1      1405 9.39000E+01 4.87010E+01 0.00000E+00
 -1      1406 9.54000E+01 4.87010E+01 0.00000E+00
 -1      1407 9.31500E+01 4.74020E+01 0.00000E+00
 -1      1408 9.69000E+01 4.87010E+01 0.00000E+00
 -1      1409 9.84000E+01 4.87010E+01 0.00000E+00
 -1      1410 9.61500E+01 4.74020E+01 0.00000E+00
 -1      1411 9.99000E+01 4.87010E+01 0.00000E+00
 -1      1412 1.01400E+02 4.87010E+01 0.00000E+00
 -1      1413 9.91500E+01 4.74020E+01 0.00000E+00
 -1      1414 1.02900E+02 4.87010E+01 0.00000E+00
 -1      1415 1.04400E+02 4.87010E+01 0.00000E+00
 -1      1416 1.02150E+02 4.74020E+01 0.00000E+00
 -1      1417 1.05900E+02 4.87010E+01 0.00000E+00
 -1      1418 1.07400E+02 4.87010E+01 0.00000E+00
 -1      1419 1.05150E+02 4.74020E+01 0.00000E+00
 -1      1420 1.08900E+02 4.87010E+01 0.00000E+00
 -1      1421 1.10400E+02 4.87010E+01 0.00000E+00
 -1      1422 1.08150E+02 4.74020E+01 0.00000E+00
 -1      1423 1.11900E+02 4.87010E+01 0.00000E+00
 -1      1424 1.13400E+02 4.87010E+01 0.00000E+00
 -1      1425 1.11150E+02 4.74020E+01 0.00000E+00
 -1      1426 1.14900E+02 4.87010E+01 0.00000E+00
 -1      1427 1.16400E+02 4.87010E+01 0.00000E+00
 -1      1428 1.14150E+02 4.74020E+01 0.00000E+00
 -1      1429 1.17900E+02 4.87010E+01 0.00000E+00
 -1      1430 1.19400E+02 4.87010E+01 0.00000E+00
 -1      1431 1.17150E+02 4.74020E+01 0.00000E+00
 -1      1432 1.20900E+02 4.87010E+01 0.00000E+00
 -1      1433 1.22400E+02 4.87010E+01 0.00000E+00
 -1      1434 1.20150E+02 4.74020E+01 0.00000E+00
 -1      1435 1.23900E+02 4.87010E+01 0.00000E+00
 -1      1436 1.25400E+02 4.87010E+01 0.00000E+00
 -1      1437 1.23150E+02 4.74020E+01 0.00000E+00
 -1      1438 1.26900E+02 4.87010E+01 0.00000E+00
 -1      1439 1.28400E+02 4.87010E+01 0.00000E+00
 -1      1440 1.26150E+02 4.74020E+01 0.00000E+00
 -1      1441 1.29900E+02 4.87010E+01 0.00000E+00
 -1      1442 1.31400E+02 4.87010E+01 0.00000E+00
 -1      1443 1.29150E+02 4.74020E+01 0.00000E+00
 -1      1444 1.32900E+02 4.87010E+01 0.00000E+00
 -1      1445 1.34400E+02 4.87010E+01 0.00000E+00
 -1      1446 1.32150E+02 4.74020E+01 0.00000E+00
 -1      1447 1.35900E+02 4.87010E+01 0.00000E+00
 -1      1448 1.37400E+02 4.87010E+01 0.00000E+00
 -1      1449 1.35150E+02 4.74020E+01 0.00000E+00
 -1      1450 1.38900E+02 4.87010E+01 0.00000E+00
 -1      1451 1.40400E+02 4.87010E+01 0.00000E+00
 -1      1452 1.38150E+02 4.74020E+01 0.00000E+00
 -1      1453 1.41900E+02 4.87010E+01 0.00000E+00
 -1      1454 1.43400E+02 4.87010E+01 0.00000E+00
 -1      1455 1.41150E+02 4.74020E+01 0.00000E+00
 -1      1456 1.44900E+02 4.87010E+01 0.00000E+00
 -1      1457 1.46400E+02 4.87010E+01 0.00000E+00
 -1      1458 1.44150E+02 4.74020E+01 0.00000E+00
 -1      1459 1.48575E+02 4.85250E+01 0.00000E+00
 -1      1460 1.47825E+02 4.72260E+01 0.00000E+00
 -1      1461 6.01200E+00 1.09375E+00 0.00000E+00
 -1      1462 4.51200E+00 1.09375E+00 0.00000E+00
 -1      1463 4.37400E+00 2.18750E+00 0.00000E+00
 -1      1464 9.01200E+00 1.09375E+00 0.00000E+00
 -1      1465 7.51200E+00 1.09375E+00 0.00000E+00
 -1      1466 7.37400E+00 2.18750E+00 0.00000E+00
 -1      1467 1.20120E+01 1.09375E+00 0.00000E+00
 -1      1468 1.05120E+01 1.09375E+00 0.00000E+00
 -1      1469 1.03740E+01 2.18750E+00 0.00000E+00
 -1      1470 1.50120E+01 1.09375E+00 0.00000E+00
 -1      1471 1.35120E+01 1.09375E+00 0.00000E+00
 -1      1472 1.33740E+01 2.18750E+00 0.00000E+00
 -1      1473 1.80120E+01 1.09375E+00 0.00000E+00
 -1      1474 1.65120E+01 1.09375E+00 0.00000E+00
 -1      1475 1.63740E+01 2.18750E+00 0.00000E+00
 -1      1476 2.10120E+01 1.09375E+00 0.00000E+00
 -1      1477 1.95120E+01 1.09375E+00 0.00000E+00
 -1      1478 1.93740E+01 2.18750E+00 0.00000E+00
 -1      1479 2.40120E+01 1.09375E+00 0.00000E+00
 -1      1480 2.25120E+01 1.09375E+00 0.00000E+00
 -1      1481 2.23740E+01 2.18750E+00 0.00000E+00
 -1      1482 2.70120E+01 1.09375E+00 0.00000E+00
 -1      1483 2.55120E+01 1.09375E+00 0.00000E+00
 -1      1484 2.53740E+01 2.18750E+00 0.00000E+00
 -1      1485 3.00120E+01 1.09375E+00 0.00000E+00
 -1      1486 2.85120E+01 1.09375E+00 0.00000E+00
 -1      1487 2.83740E+01 2.18750E+00 0.00000E+00
 -1      1488 3.30120E+01 1.09375E+00 0.00000E+00
 -1      1489 3.15120E+01 1.09375E+00 0.00000E+00
 -1      1490 3.13740E+01 2.18750E+00 0.00000E+00
 -1      1491 3.60120E+01 1.09375E+00 0.00000E+00
 -1      1492 3.45120E+01 1.09375E+00 0.00000E+00
 -1      1493 3.43740E+01 2.18750E+00 0.00000E+00
 -1      1494 3.90120E+01 1.09375E+00 0.00000E+00
 -1      1495 3.75120E+01 1.09375E+00 0.00000E+00
 -1      1496 3.73740E+01 2.18750E+00 0.00000E+00
 -1      1497 4.20120E+01 1.09375E+00 0.00000E+00
 -1      1498 4.05120E+01 1.09375E+00 0.00000E+00
 -1      1499 4.03740E+01 2.18750E+00 0.00000E+00
 -1      1500 4.50120E+01 1.09375E+00 0.00000E+00
 -1      1501 4.35120E+01 1.09375E+00 0.00000E+00
 -1      1502 4.33740E+01 2.18750E+00 0.00000E+00
 -1      1503 4.80120E+01 1.09375E+00 0.00000E+00
 -1      1504 4.65120E+01 1.09375E+00 0.00000E+00
 -1      1505 4.63740E+01 2.18750E+00 0.00000E+00
 -1      1506 5.10120E+01 1.09375E+00 0.00000E+00
 -1      1507 4.95120E+01 1.09375E+00 0.00000E+00
 -1      1508 4.93740E+01 2.18750E+00 0.00000E+00
 -1      1509 5.40120E+01 1.09375E+00 0.00000E+00
 -1      1510 5.25120E+01 1.09375E+00 0.00000E+00
 -1      1511 5.23740E+01 2.18750E+00 0.00000E+00
 -1      1512 5.70120E+01 1.09375E+00 0.00000E+00
 -1      1513 5.55120E+01 1.09375E+00 0.00000E+00
 -1      1514 5.53740E+01 2.18750E+00 0.00000E+00
 -1      1515 6.00120E+01 1.09375E+00 0.00000E+00
 -1      1516 5.85120E+01 1.09375E+00 0.00000E+00
 -1      1517 5.83740E+01 2.18750E+00 0.00000E+00
 -1      1518 6.30120E+01 1.09375E+00 0.00000E+00
 -1      1519 6.15120E+01 1.09375E+00 0.00000E+00
 -1      1520 6.13740E+01 2.18750E+00 0.00000E+00
 -1      1521 6.60120E+01 1.09375E+00 0.00000E+00
 -1      1522 6.45120E+01 1.09375E+00 0.00000E+00
 -1      1523 6.43740E+01 2.18750E+00 0.00000E+00
 -1      1524 6.90120E+01 1.09375E+00 0.00000E+00
 -1      1525 6.75120E+01 1.09375E+00 0.00000E+00
 -1      1526 6.73740E+01 2.18750E+00 0.00000E+00
 -1      1527 7.20120E+01 1.09375E+00 0.00000E+00
 -1      1528 7.05120E+01 1.09375E+00 0.00000E+00
 -1      1529 7.03740E+01 2.18750E+00 0.00000E+00
 -1      1530 7.50120E+01 1.09375E+00 0.00000E+00
 -1      1531 7.35120E+01 1.09375E+00 0.00000E+00
 -1      1532 7.33740E+01 2.18750E+00 0.00000E+00
 -1      1533 7.80120E+01 1.09375E+00 0.00000E+00
 -1      1534 7.65120E+01 1.09375E+00 0.00000E+00
 -1      1535 7.63740E+01 2.18750E+00 0.00000E+00
 -1      1536 8.10120E+01 1.09375E+00 0.00000E+00
 -1      1537 7.95120E+01 1.09375E+00 0.00000E+00
 -1      1538 7.93740E+01 2.18750E+00 0.00000E+00
 -1      1539 8.40120E+01 1.09375E+00 0.00000E+00
 -1      1540 8.25120E+01 1.09375E+00 0.00000E+00
 -1      1541 8.23740E+01 2.18750E+00 0.00000E+00
 -1      1542 8.70120E+01 1.09375E+00 0.00000E+00
 -1      1543 8.55120E+01 1.09375E+00 0.00000E+00
 -1      1544 8.53740E+01 2.18750E+00 0.00000E+00
 -1      1545 9.00120E+01 1.09375E+00 0.00000E+00
 -1      1546 8.85120E+01 1.09375E+00 0.00000E+00
 -1      1547 8.83740E+01 2.18750E+00 0.00000E+00
 -1      1548 9.30120E+01 1.09375E+00 0.00000E+00
 -1      1549 9.15120E+01 1.09375E+00 0.00000E+00
 -1      1550 9.13740E+01 2.18750E+00 0.00000E+00
 -1      1551 9.60120E+01 1.09375E+00 0.00000E+00
 -1      1552 9.45120E+01 1.09375E+00 0.00000E+00
 -1      1553 9.43740E+01 2.18750E+00 0.00000E+00
 -1      1554 9.90120E+01 1.09375E+00 0.00000E+00
 -1      1555 9.75120E+01 1.09375E+00 0.00000E+00
 -1      1556 9.73740E+01 2.18750E+00 0.00000E+00
 -1      1557 1.02012E+02 1.09375E+00 0.00000E+00
 -1      1558 1.00512E+02 1.09375E+00 0.00000E+00
 -1      1559 1.00374E+02 2.18750E+00 0.00000E+00
 -1      1560 1.05012E+02 1.09375E+00 0.00000E+00
 -1      1561 1.03512E+02 1.09375E+00 0.00000E+00
 -1      1562 1.03374E+02 2.18750E+00 0.00000E+00
 -1      1563 1.08012E+02 1.09375E+00 0.00000E+00
 -1      1564 1.06512E+02 1.09375E+00 0.00000E+00
 -1      1565 1.06374E+02 2.18750E+00 0.00000E+00
 -1      1566 1.11012E+02 1.09375E+00 0.00000E+00
 -1      1567 1.09512E+02 1.09375E+00 0.00000E+00
 -1      1568 1.09374E+02 2.18750E+00 0.00000E+00
 -1      1569 1.14012E+02 1.09375E+00 0.00000E+00
 -1      1570 1.12512E+02 1.09375E+00 0.00000E+00
 -1      1571 1.12374E+02 2.18750E+00 0.00000E+00
 -1      1572 1.17012E+02 1.09375E+00 0.00000E+00
 -1      1573 1.15512E+02 1.09375E+00 0.00000E+00
 -1      1574 1.15374E+02 2.18750E+00 0.00000E+00
 -1      1575 1.20012E+02 1.09375E+00 0.00000E+00
 -1      1576 1.18512E+02 1.09375E+00 0.00000E+00
 -1      1577 1.18374E+02 2.18750E+00 0.00000E+00
 -1      1578 1.23012E+02 1.09375E+00 0.00000E+00
 -1      1579 1.21512E+02 1.09375E+00 0.00000E+00
 -1      1580 1.21374E+02 2.18750E+00 0.00000E+00
 -1      1581 1.26012E+02 1.09375E+00 0.00000E+00
 -1      1582 1.24512E+02 1.09375E+00 0.00000E+00
 -1      1583 1.24374E+02 2.18750E+00 0.00000E+00
 -1      1584 1.29012E+02 1.09375E+00 0.00000E+00
 -1      1585 1.27512E+02 1.09375E+00 0.00000E+00
 -1      1586 1.27374E+02 2.18750E+00 0.00000E+00
 -1      1587 1.32012E+02 1.09375E+00 0.00000E+00
 -1      1588 1.30512E+02 1.09375E+00 0.00000E+00
 -1      1589 1.30374E+02 2.18750E+00 0.00000E+00
 -1      1590 1.35012E+02 1.09375E+00 0.00000E+00
 -1      1591 1.33512E+02 1.09375E+00 0.00000E+00
 -1      1592 1.33374E+02 2.18750E+00 0.00000E+00
 -1      1593 1.38012E+02 1.09375E+00 0.00000E+00
 -1      1594 1.36512E+02 1.09375E+00 0.00000E+00
 -1      1595 1.36374E+02 2.18750E+00 0.00000E+00
 -1      1596 1.41012E+02 1.09375E+00 0.00000E+00
 -1      1597 1.39512E+02 1.09375E+00 0.00000E+00
 -1      1598 1.39374E+02 2.18750E+00 0.00000E+00
 -1      1599 1.44012E+02 1.09375E+00 0.00000E+00
 -1      1600 1.42512E+02 1.09375E+00 0.00000E+00
 -1      1601 1.42374E+02 2.18750E+00 0.00000E+00
 -1      1602 1.46862E+02 1.09375E+00 0.00000E+00
 -1      1603 1.45437E+02 1.09375E+00 0.00000E+00
 -1      1604 1.45299E+02 2.18750E+00 0.00000E+00
 -1      1605 1.48500E+02 1.50000E+00 0.00000E+00
 -1      1606 1.48701E+02 5.25000E+00 0.00000E+00
 -1      1607 1.48701E+02 3.75000E+00 0.00000E+00
 -1      1608 1.48701E+02 8.25000E+00 0.00000E+00
 -1      1609 1.48701E+02 6.75000E+00 0.00000E+00
 -1      1610 1.47402E+02 6.00000E+00 0.00000E+00
 -1      1611 1.48701E+02 1.10500E+01 0.00000E+00
 -1      1612 1.48701E+02 9.65000E+00 0.00000E+00
 -1      1613 1.47402E+02 8.90000E+00 0.00000E+00
 -1      1614 1.48701E+02 1.36000E+01 0.00000E+00
 -1      1615 1.48701E+02 1.23250E+01 0.00000E+00
 -1      1616 1.47402E+02 1.15750E+01 0.00000E+00
 -1      1617 1.48975E+02 1.85375E+01 0.00000E+00
 -1      1618 1.48975E+02 1.73125E+01 0.00000E+00
 -1      1619 1.48975E+02 2.07375E+01 0.00000E+00
 -1      1620 1.48975E+02 1.96375E+01 0.00000E+00
 -1      1621 1.47950E+02 1.90250E+01 0.00000E+00
 -1      1622 1.48975E+02 2.30875E+01 0.00000E+00
 -1      1623 1.48975E+02 2.19125E+01 0.00000E+00
 -1      1624 1.47950E+02 2.13000E+01 0.00000E+00
 -1      1625 1.48975E+02 2.54875E+01 0.00000E+00
 -1      1626 1.48975E+02 2.42875E+01 0.00000E+00
 -1      1627 1.47950E+02 2.36750E+01 0.00000E+00
 -1      1628 1.48975E+02 2.84375E+01 0.00000E+00
 -1      1629 1.48975E+02 2.69625E+01 0.00000E+00
 -1      1630 1.47950E+02 2.63500E+01 0.00000E+00
 -1      1631 1.48975E+02 3.14375E+01 0.00000E+00
 -1      1632 1.48975E+02 2.99375E+01 0.00000E+00
 -1      1633 1.47950E+02 2.93250E+01 0.00000E+00
 -1      1634 1.48975E+02 3.44375E+01 0.00000E+00
 -1      1635 1.48975E+02 3.29375E+01 0.00000E+00
 -1      1636 1.47950E+02 3.23250E+01 0.00000E+00
 -1      1637 1.48975E+02 3.74375E+01 0.00000E+00
 -1      1638 1.48975E+02 3.59375E+01 0.00000E+00
 -1      1639 1.47950E+02 3.53250E+01 0.00000E+00
 -1      1640 1.48975E+02 4.04375E+01 0.00000E+00
 -1      1641 1.48975E+02 3.89375E+01 0.00000E+00
 -1      1642 1.47950E+02 3.83250E+01 0.00000E+00
 -1      1643 1.48975E+02 4.34375E+01 0.00000E+00
 -1      1644 1.48975E+02 4.19375E+01 0.00000E+00
 -1      1645 1.47950E+02 4.13250E+01 0.00000E+00
 -1      1646 1.48400E+02 4.60817E+01 0.00000E+00
 -1      1647 1.48400E+02 4.45817E+01 0.00000E+00
 -1      1648 1.47375E+02 4.39692E+01 0.00000E+00
 -1      1649 1.46225E+02 4.62578E+01 0.00000E+00
 -1      1650 1.44531E+02 1.63420E+01 0.00000E+00
 -1      1651 1.44625E+02 1.71486E+01 0.00000E+00
 -1      1652 1.44027E+02 1.47155E+01 0.00000E+00
 -1      1653 1.44279E+02 1.54277E+01 0.00000E+00
 -1      1654 1.43158E+02 1.32952E+01 0.00000E+00
 -1      1655 1.43560E+02 1.39391E+01 0.00000E+00
 -1      1656 1.42084E+02 1.18423E+01 0.00000E+00
 -1      1657 1.42683E+02 1.24396E+01 0.00000E+00
 -1      1658 1.40658E+02 1.10566E+01 0.00000E+00
 -1      1659 1.41241E+02 1.14249E+01 0.00000E+00
 -1      1660 1.39172E+02 1.02867E+01 0.00000E+00
 -1      1661 1.39920E+02 1.05606E+01 0.00000E+00
 -1      1662 1.37572E+02 1.00928E+01 0.00000E+00
 -1      1663 1.38276E+02 1.01885E+01 0.00000E+00
 -1      1664 1.35891E+02 1.00542E+01 0.00000E+00
 -1      1665 1.36686E+02 9.99004E+00 0.00000E+00
 -1      1666 1.34356E+02 1.05043E+01 0.00000E+00
 -1      1667 1.35034E+02 1.02976E+01 0.00000E+00
 -1      1668 1.32816E+02 1.11701E+01 0.00000E+00
 -1      1669 1.33510E+02 1.07805E+01 0.00000E+00
 -1      1670 1.31577E+02 1.22550E+01 0.00000E+00
 -1      1671 1.32126E+02 1.17619E+01 0.00000E+00
 -1      1672 1.30538E+02 1.35397E+01 0.00000E+00
 -1      1673 1.30989E+02 1.29125E+01 0.00000E+00
 -1      1674 1.29804E+02 1.50003E+01 0.00000E+00
 -1      1675 1.30100E+02 1.43121E+01 0.00000E+00
 -1      1676 1.29278E+02 1.65833E+01 0.00000E+00
 -1      1677 1.29422E+02 1.58256E+01 0.00000E+00
 -1      1678 1.29314E+02 1.82662E+01 0.00000E+00
 -1      1679 1.29289E+02 1.75018E+01 0.00000E+00
 -1      1680 1.29678E+02 1.99072E+01 0.00000E+00
 -1      1681 1.29484E+02 1.91552E+01 0.00000E+00
 -1      1682 1.30317E+02 2.14628E+01 0.00000E+00
 -1      1683 1.29963E+02 2.07729E+01 0.00000E+00
 -1      1684 1.31285E+02 2.28428E+01 0.00000E+00
 -1      1685 1.30789E+02 2.22503E+01 0.00000E+00
 -1      1686 1.32593E+02 2.38700E+01 0.00000E+00
 -1      1687 1.31992E+02 2.34081E+01 0.00000E+00
 -1      1688 1.34059E+02 2.47484E+01 0.00000E+00
 -1      1689 1.33336E+02 2.44139E+01 0.00000E+00
 -1      1690 1.35638E+02 2.51128E+01 0.00000E+00
 -1      1691 1.34933E+02 2.49585E+01 0.00000E+00
 -1      1692 1.37289E+02 2.52885E+01 0.00000E+00
 -1      1693 1.36510E+02 2.52880E+01 0.00000E+00
 -1      1694 1.38875E+02 2.50016E+01 0.00000E+00
 -1      1695 1.38170E+02 2.51552E+01 0.00000E+00
 -1      1696 1.40313E+02 2.44102E+01 0.00000E+00
 -1      1697 1.39662E+02 2.47002E+01 0.00000E+00
 -1      1698 1.41687E+02 2.35696E+01 0.00000E+00
 -1      1699 1.41077E+02 2.40135E+01 0.00000E+00
 -1      1700 1.42779E+02 2.24283E+01 0.00000E+00
 -1      1701 1.42301E+02 2.29617E+01 0.00000E+00
 -1      1702 1.43747E+02 2.10760E+01 0.00000E+00
 -1      1703 1.43360E+02 2.17571E+01 0.00000E+00
 -1      1704 1.44235E+02 1.95632E+01 0.00000E+00
 -1      1705 1.44024E+02 2.02382E+01 0.00000E+00
 -1      1706 1.44472E+02 1.80536E+01 0.00000E+00
 -1      1707 1.44401E+02 1.87551E+01 0.00000E+00
 -1      1708 1.43434E+02 1.24186E+01 0.00000E+00
 -1      1709 1.48362E+02 2.59375E+00 0.00000E+00
 -1      1710 1.47063E+02 3.34375E+00 0.00000E+00
 -1      1711 1.47950E+02 1.67500E+01 0.00000E+00
 -1      1712 1.48975E+02 1.61375E+01 0.00000E+00
 -1      1713 1.48975E+02 1.49625E+01 0.00000E+00
 -1      1714 1.47676E+02 1.42125E+01 0.00000E+00
 -1      1715 1.45095E+02 1.57413E+01 0.00000E+00
 -1      1716 1.44376E+02 1.40507E+01 0.00000E+00
 -1      1717 1.45193E+02 1.75605E+01 0.00000E+00
 -1      1718 1.42116E+02 1.11457E+01 0.00000E+00
 -1      1719 1.40535E+02 1.02323E+01 0.00000E+00
 -1      1720 1.38901E+02 9.63818E+00 0.00000E+00
 -1      1721 1.37119E+02 9.43719E+00 0.00000E+00
 -1      1722 1.35376E+02 9.57775E+00 0.00000E+00
 -1      1723 1.33672E+02 1.00973E+01 0.00000E+00
 -1      1724 1.32136E+02 1.09654E+01 0.00000E+00
 -1      1725 1.30859E+02 1.22147E+01 0.00000E+00
 -1      1726 1.29833E+02 1.36446E+01 0.00000E+00
 -1      1727 1.29013E+02 1.52423E+01 0.00000E+00
 -1      1728 1.28643E+02 1.69862E+01 0.00000E+00
 -1      1729 1.28824E+02 1.87936E+01 0.00000E+00
 -1      1730 1.29279E+02 2.05483E+01 0.00000E+00
 -1      1731 1.30035E+02 2.22016E+01 0.00000E+00
 -1      1732 1.31215E+02 2.35544E+01 0.00000E+00
 -1      1733 1.32666E+02 2.46636E+01 0.00000E+00
 -1      1734 1.34282E+02 2.54177E+01 0.00000E+00
 -1      1735 1.36028E+02 2.58030E+01 0.00000E+00
 -1      1736 1.37780E+02 2.58449E+01 0.00000E+00
 -1      1737 1.39447E+02 2.54102E+01 0.00000E+00
 -1      1738 1.40999E+02 2.47122E+01 0.00000E+00
 -1      1739 1.42377E+02 2.37076E+01 0.00000E+00
 -1      1740 1.43572E+02 2.24285E+01 0.00000E+00
 -1      1741 1.44431E+02 2.09194E+01 0.00000E+00
 -1      1742 1.44874E+02 1.92735E+01 0.00000E+00
 -1      1743 2.87400E+00 4.77875E+01 0.00000E+00
 -1      1744 3.89700E+00 4.04125E+01 0.00000E+00
 -1      1745 3.89700E+00 4.18875E+01 0.00000E+00
 -1      1746 3.89700E+00 4.33625E+01 0.00000E+00
 -1      1747 3.89700E+00 4.48375E+01 0.00000E+00
 -1      1748 5.19600E+00 4.26250E+01 0.00000E+00
 -1      1749 3.89700E+00 3.45500E+01 0.00000E+00
 -1      1750 3.89700E+00 3.60000E+01 0.00000E+00
 -1      1751 3.89700E+00 3.16000E+01 0.00000E+00
 -1      1752 3.89700E+00 3.30750E+01 0.00000E+00
 -1      1753 5.19600E+00 3.38000E+01 0.00000E+00
 -1      1754 3.89700E+00 2.86500E+01 0.00000E+00
 -1      1755 3.89700E+00 3.01250E+01 0.00000E+00
 -1      1756 5.19600E+00 3.08500E+01 0.00000E+00
 -1      1757 3.89700E+00 2.57000E+01 0.00000E+00
 -1      1758 3.89700E+00 2.71750E+01 0.00000E+00
 -1      1759 5.19600E+00 2.79000E+01 0.00000E+00
 -1      1760 3.89700E+00 2.27500E+01 0.00000E+00
 -1      1761 3.89700E+00 2.42250E+01 0.00000E+00
 -1      1762 5.19600E+00 2.49500E+01 0.00000E+00
 -1      1763 3.89700E+00 1.98000E+01 0.00000E+00
 -1      1764 3.89700E+00 2.12750E+01 0.00000E+00
 -1      1765 5.19600E+00 2.20000E+01 0.00000E+00
 -1      1766 3.89700E+00 1.69000E+01 0.00000E+00
 -1      1767 3.89700E+00 1.83500E+01 0.00000E+00
 -1      1768 5.19600E+00 1.90750E+01 0.00000E+00
 -1      1769 3.89700E+00 1.39500E+01 0.00000E+00
 -1      1770 3.89700E+00 1.54250E+01 0.00000E+00
 -1      1771 5.19600E+00 1.61500E+01 0.00000E+00
 -1      1772 3.89700E+00 1.10000E+01 0.00000E+00
 -1      1773 3.89700E+00 1.24750E+01 0.00000E+00
 -1      1774 5.19600E+00 1.32000E+01 0.00000E+00
 -1      1775 3.89700E+00 8.05000E+00 0.00000E+00
 -1      1776 3.89700E+00 9.52500E+00 0.00000E+00
 -1      1777 5.19600E+00 1.02500E+01 0.00000E+00
 -1      1778 3.89700E+00 5.10000E+00 0.00000E+00
 -1      1779 3.89700E+00 6.57500E+00 0.00000E+00
 -1      1780 5.19600E+00 7.30000E+00 0.00000E+00
 -1      1781 4.20450E+00 3.09687E+00 0.00000E+00
 -1      1782 4.06650E+00 4.19063E+00 0.00000E+00
 -1      1783 5.36550E+00 4.91563E+00 0.00000E+00
 -1      1784 5.70450E+00 3.09687E+00 0.00000E+00
 -1      1785 3.62400E+00 4.64885E+01 0.00000E+00
 -1      1786 8.70450E+00 3.09687E+00 0.00000E+00
 -1      1787 7.20450E+00 3.09687E+00 0.00000E+00
 -1      1788 7.03500E+00 4.00625E+00 0.00000E+00
 -1      1789 4.92300E+00 4.57510E+01 0.00000E+00
 -1      1790 8.40000E+00 4.61030E+01 0.00000E+00
 -1      1791 9.90000E+00 4.61030E+01 0.00000E+00
 -1      1792 1.14000E+01 4.61030E+01 0.00000E+00
 -1      1793 1.29000E+01 4.61030E+01 0.00000E+00
 -1      1794 1.06500E+01 4.48040E+01 0.00000E+00
 -1      1795 1.44000E+01 4.61030E+01 0.00000E+00
 -1      1796 1.59000E+01 4.61030E+01 0.00000E+00
 -1      1797 1.36500E+01 4.48040E+01 0.00000E+00
 -1      1798 1.74000E+01 4.61030E+01 0.00000E+00
 -1      1799 1.89000E+01 4.61030E+01 0.00000E+00
 -1      1800 1.66500E+01 4.48040E+01 0.00000E+00
 -1      1801 2.04000E+01 4.61030E+01 0.00000E+00
 -1      1802 2.19000E+01 4.61030E+01 0.00000E+00
 -1      1803 1.96500E+01 4.48040E+01 0.00000E+00
 -1      1804 2.34000E+01 4.61030E+01 0.00000E+00
 -1      1805 2.49000E+01 4.61030E+01 0.00000E+00
 -1      1806 2.26500E+01 4.48040E+01 0.00000E+00
 -1      1807 2.64000E+01 4.61030E+01 0.00000E+00
 -1      1808 2.79000E+01 4.61030E+01 0.00000E+00
 -1      1809 2.56500E+01 4.48040E+01 0.00000E+00
 -1      1810 2.94000E+01 4.61030E+01 0.00000E+00
 -1      1811 3.09000E+01 4.61030E+01 0.00000E+00
 -1      1812 2.86500E+01 4.48040E+01 0.00000E+00
 -1      1813 3.24000E+01 4.61030E+01 0.00000E+00
 -1      1814 3.39000E+01 4.61030E+01 0.00000E+00
 -1      1815 3.16500E+01 4.48040E+01 0.00000E+00
 -1      1816 3.54000E+01 4.61030E+01 0.00000E+00
 -1      1817 3.69000E+01 4.61030E+01 0.00000E+00
 -1      1818 3.46500E+01 4.48040E+01 0.00000E+00
 -1      1819 3.84000E+01 4.61030E+01 0.00000E+00
 -1      1820 3.99000E+01 4.61030E+01 0.00000E+00
 -1      1821 3.76500E+01 4.48040E+01 0.00000E+00
 -1      1822 4.14000E+01 4.61030E+01 0.00000E+00
 -1      1823 4.29000E+01 4.61030E+01 0.00000E+00
 -1      1824 4.06500E+01 4.48040E+01 0.00000E+00
 -1      1825 4.44000E+01 4.61030E+01 0.00000E+00
 -1      1826 4.59000E+01 4.61030E+01 0.00000E+00
 -1      1827 4.36500E+01 4.48040E+01 0.00000E+00
 -1      1828 4.74000E+01 4.61030E+01 0.00000E+00
 -1      1829 4.89000E+01 4.61030E+01 0.00000E+00
 -1      1830 4.66500E+01 4.48040E+01 0.00000E+00
 -1      1831 5.04000E+01 4.61030E+01 0.00000E+00
 -1      1832 5.19000E+01 4.61030E+01 0.00000E+00
 -1      1833 4.96500E+01 4.48040E+01 0.00000E+00
 -1      1834 5.34000E+01 4.61030E+01 0.00000E+00
 -1      1835 5.49000E+01 4.61030E+01 0.00000E+00
 -1      1836 5.26500E+01 4.48040E+01 0.00000E+00
 -1      1837 5.64000E+01 4.61030E+01 0.00000E+00
 -1      1838 5.79000E+01 4.61030E+01 0.00000E+00
 -1      1839 5.56500E+01 4.48040E+01 0.00000E+00
 -1      1840 5.94000E+01 4.61030E+01 0.00000E+00
 -1      1841 6.09000E+01 4.61030E+01 0.00000E+00
 -1      1842 5.86500E+01 4.48040E+01 0.00000E+00
 -1      1843 6.24000E+01 4.61030E+01 0.00000E+00
 -1      1844 6.39000E+01 4.61030E+01 0.00000E+00
 -1      1845 6.16500E+01 4.48040E+01 0.00000E+00
 -1      1846 6.54000E+01 4.61030E+01 0.00000E+00
 -1      1847 6.69000E+01 4.61030E+01 0.00000E+00
 -1      1848 6.46500E+01 4.48040E+01 0.00000E+00
 -1      1849 6.84000E+01 4.61030E+01 0.00000E+00
 -1      1850 6.99000E+01 4.61030E+01 0.00000E+00
 -1      1851 6.76500E+01 4.48040E+01 0.00000E+00
 -1      1852 7.14000E+01 4.61030E+01 0.00000E+00
 -1      1853 7.29000E+01 4.61030E+01 0.00000E+00
 -1      1854 7.06500E+01 4.48040E+01 0.00000E+00
 -1      1855 7.44000E+01 4.61030E+01 0.00000E+00
 -1      1856 7.59000E+01 4.61030E+01 0.00000E+00
 -1      1857 7.36500E+01 4.48040E+01 0.00000E+00
 -1      1858 7.74000E+01 4.61030E+01 0.00000E+00
 -1      1859 7.89000E+01 4.61030E+01 0.00000E+00
 -1      1860 7.66500E+01 4.48040E+01 0.00000E+00
 -1      1861 8.04000E+01 4.61030E+01 0.00000E+00
 -1      1862 8.19000E+01 4.61030E+01 0.00000E+00
 -1      1863 7.96500E+01 4.48040E+01 0.00000E+00
 -1      1864 8.34000E+01 4.61030E+01 0.00000E+00
 -1      1865 8.49000E+01 4.61030E+01 0.00000E+00
 -1      1866 8.26500E+01 4.48040E+01 0.00000E+00
 -1      1867 8.64000E+01 4.61030E+01 0.00000E+00
 -1      1868 8.79000E+01 4.61030E+01 0.00000E+00
 -1      1869 8.56500E+01 4.48040E+01 0.00000E+00
 -1      1870 8.94000E+01 4.61030E+01 0.00000E+00
 -1      1871 9.09000E+01 4.61030E+01 0.00000E+00
 -1      1872 8.86500E+01 4.48040E+01 0.00000E+00
 -1      1873 9.24000E+01 4.61030E+01 0.00000E+00
 -1      1874 9.39000E+01 4.61030E+01 0.00000E+00
 -1      1875 9.16500E+01 4.48040E+01 0.00000E+00
 -1      1876 9.54000E+01 4.61030E+01 0.00000E+00
 -1      1877 9.69000E+01 4.61030E+01 0.00000E+00
 -1      1878 9.46500E+01 4.48040E+01 0.00000E+00
 -1      1879 9.84000E+01 4.61030E+01 0.00000E+00
 -1      1880 9.99000E+01 4.61030E+01 0.00000E+00
 -1      1881 9.76500E+01 4.48040E+01 0.00000E+00
 -1      1882 1.01400E+02 4.61030E+01 0.00000E+00
 -1      1883 1.02900E+02 4.61030E+01 0.00000E+00
 -1      1884 1.00650E+02 4.48040E+01 0.00000E+00
 -1      1885 1.04400E+02 4.61030E+01 0.00000E+00
 -1      1886 1.05900E+02 4.61030E+01 0.00000E+00
 -1      1887 1.03650E+02 4.48040E+01 0.00000E+00
 -1      1888 1.07400E+02 4.61030E+01 0.00000E+00
 -1      1889 1.08900E+02 4.61030E+01 0.00000E+00
 -1      1890 1.06650E+02 4.48040E+01 0.00000E+00
 -1      1891 1.10400E+02 4.61030E+01 0.00000E+00
 -1      1892 1.11900E+02 4.61030E+01 0.00000E+00
 -1      1893 1.09650E+02 4.48040E+01 0.00000E+00
 -1      1894 1.13400E+02 4.61030E+01 0.00000E+00
 -1      1895 1.14900E+02 4.61030E+01 0.00000E+00
 -1      1896 1.12650E+02 4.48040E+01 0.00000E+00
 -1      1897 1.16400E+02 4.61030E+01 0.00000E+00
 -1      1898 1.17900E+02 4.61030E+01 0.00000E+00
 -1      1899 1.15650E+02 4.48040E+01 0.00000E+00
 -1      1900 1.19400E+02 4.61030E+01 0.00000E+00
 -1      1901 1.20900E+02 4.61030E+01 0.00000E+00
 -1      1902 1.18650E+02 4.48040E+01 0.00000E+00
 -1      1903 1.22400E+02 4.61030E+01 0.00000E+00
 -1      1904 1.23900E+02 4.61030E+01 0.00000E+00
 -1      1905 1.21650E+02 4.48040E+01 0.00000E+00
 -1      1906 1.25400E+02 4.61030E+01 0.00000E+00
 -1      1907 1.26900E+02 4.61030E+01 0.00000E+00
 -1      1908 1.24650E+02 4.48040E+01 0.00000E+00
 -1      1909 1.28400E+02 4.61030E+01 0.00000E+00
 -1      1910 1.29900E+02 4.61030E+01 0.00000E+00
 -1      1911 1.27650E+02 4.48040E+01 0.00000E+00
 -1      1912 1.31400E+02 4.61030E+01 0.00000E+00
 -1      1913 1.32900E+02 4.61030E+01 0.00000E+00
 -1      1914 1.30650E+02 4.48040E+01 0.00000E+00
 -1      1915 1.34400E+02 4.61030E+01 0.00000E+00
 -1      1916 1.35900E+02 4.61030E+01 0.00000E+00
 -1      1917 1.33650E+02 4.48040E+01 0.00000E+00
 -1      1918 1.37400E+02 4.61030E+01 0.00000E+00
 -1      1919 1.38900E+02 4.61030E+01 0.00000E+00
 -1      1920 1.36650E+02 4.48040E+01 0.00000E+00
 -1      1921 1.40400E+02 4.61030E+01 0.00000E+00
 -1      1922 1.41900E+02 4.61030E+01 0.00000E+00
 -1      1923 1.39650E+02 4.48040E+01 0.00000E+00
 -1      1924 1.43312E+02 4.61804E+01 0.00000E+00
 -1      1925 1.44812E+02 4.61804E+01 0.00000E+00
 -1      1926 1.45387E+02 4.50361E+01 0.00000E+00
 -1      1927 1.42562E+02 4.48814E+01 0.00000E+00
 -1      1928 1.47092E+02 2.42750E+01 0.00000E+00
 -1      1929 1.47092E+02 2.30750E+01 0.00000E+00
 -1      1930 1.17045E+01 3.09687E+00 0.00000E+00
 -1      1931 1.02045E+01 3.09687E+00 0.00000E+00
 -1      1932 1.00350E+01 4.00625E+00 0.00000E+00
 -1      1933 1.47045E+01 3.09687E+00 0.00000E+00
 -1      1934 1.32045E+01 3.09687E+00 0.00000E+00
 -1      1935 1.30350E+01 4.00625E+00 0.00000E+00
 -1      1936 1.77045E+01 3.09687E+00 0.00000E+00
 -1      1937 1.62045E+01 3.09687E+00 0.00000E+00
 -1      1938 1.60350E+01 4.00625E+00 0.00000E+00
 -1      1939 2.07045E+01 3.09687E+00 0.00000E+00
 -1      1940 1.92045E+01 3.09687E+00 0.00000E+00
 -1      1941 1.90350E+01 4.00625E+00 0.00000E+00
 -1      1942 2.37045E+01 3.09687E+00 0.00000E+00
 -1      1943 2.22045E+01 3.09687E+00 0.00000E+00
 -1      1944 2.20350E+01 4.00625E+00 0.00000E+00
 -1      1945 2.67045E+01 3.09687E+00 0.00000E+00
 -1      1946 2.52045E+01 3.09687E+00 0.00000E+00
 -1      1947 2.50350E+01 4.00625E+00 0.00000E+00
 -1      1948 2.97045E+01 3.09687E+00 0.00000E+00
 -1      1949 2.82045E+01 3.09687E+00 0.00000E+00
 -1      1950 2.80350E+01 4.00625E+00 0.00000E+00
 -1      1951 3.27045E+01 3.09687E+00 0.00000E+00
 -1      1952 3.12045E+01 3.09687E+00 0.00000E+00
 -1      1953 3.10350E+01 4.00625E+00 0.00000E+00
 -1      1954 3.57045E+01 3.09687E+00 0.00000E+00
 -1      1955 3.42045E+01 3.09687E+00 0.00000E+00
 -1      1956 3.40350E+01 4.00625E+00 0.00000E+00
 -1      1957 3.87045E+01 3.09687E+00 0.00000E+00
 -1      1958 3.72045E+01 3.09687E+00 0.00000E+00
 -1      1959 3.70350E+01 4.00625E+00 0.00000E+00
 -1      1960 4.17045E+01 3.09687E+00 0.00000E+00
 -1      1961 4.02045E+01 3.09687E+00 0.00000E+00
 -1      1962 4.00350E+01 4.00625E+00 0.00000E+00
 -1      1963 4.47045E+01 3.09687E+00 0.00000E+00
 -1      1964 4.32045E+01 3.09687E+00 0.00000E+00
 -1      1965 4.30350E+01 4.00625E+00 0.00000E+00
 -1      1966 4.77045E+01 3.09687E+00 0.00000E+00
 -1      1967 4.62045E+01 3.09687E+00 0.00000E+00
 -1      1968 4.60350E+01 4.00625E+00 0.00000E+00
 -1      1969 5.07045E+01 3.09687E+00 0.00000E+00
 -1      1970 4.92045E+01 3.09687E+00 0.00000E+00
 -1      1971 4.90350E+01 4.00625E+00 0.00000E+00
 -1      1972 5.37045E+01 3.09687E+00 0.00000E+00
 -1      1973 5.22045E+01 3.09687E+00 0.00000E+00
 -1      1974 5.20350E+01 4.00625E+00 0.00000E+00
 -1      1975 5.67045E+01 3.09687E+00 0.00000E+00
 -1      1976 5.52045E+01 3.09687E+00 0.00000E+00
 -1      1977 5.50350E+01 4.00625E+00 0.00000E+00
 -1      1978 5.97045E+01 3.09687E+00 0.00000E+00
 -1      1979 5.82045E+01 3.09687E+00 0.00000E+00
 -1      1980 5.80350E+01 4.00625E+00 0.00000E+00
 -1      1981 6.27045E+01 3.09687E+00 0.00000E+00
 -1      1982 6.12045E+01 3.09687E+00 0.00000E+00
 -1      1983 6.10350E+01 4.00625E+00 0.00000E+00
 -1      1984 6.57045E+01 3.09687E+00 0.00000E+00
 -1      1985 6.42045E+01 3.09687E+00 0.00000E+00
 -1      1986 6.40350E+01 4.00625E+00 0.00000E+00
 -1      1987 6.87045E+01 3.09687E+00 0.00000E+00
 -1      1988 6.72045E+01 3.09687E+00 0.00000E+00
 -1      1989 6.70350E+01 4.00625E+00 0.00000E+00
 -1      1990 7.17045E+01 3.09687E+00 0.00000E+00
 -1      1991 7.02045E+01 3.09687E+00 0.00000E+00
 -1      1992 7.00350E+01 4.00625E+00 0.00000E+00
 -1      1993 7.47045E+01 3.09687E+00 0.00000E+00
 -1      1994 7.32045E+01 3.09687E+00 0.00000E+00
 -1      1995 7.30350E+01 4.00625E+00 0.00000E+00
 -1      1996 7.77045E+01 3.09687E+00 0.00000E+00
 -1      1997 7.62045E+01 3.09687E+00 0.00000E+00
 -1      1998 7.60350E+01 4.00625E+00 0.00000E+00
 -1      1999 8.07045E+01 3.09687E+00 0.00000E+00
 -1      2000 7.92045E+01 3.09687E+00 0.00000E+00
 -1      2001 7.90350E+01 4.00625E+00 0.00000E+00
 -1      2002 8.37045E+01 3.09687E+00 0.00000E+00
 -1      2003 8.22045E+01 3.09687E+00 0.00000E+00
 -1      2004 8.20350E+01 4.00625E+00 0.00000E+00
 -1      2005 8.67045E+01 3.09687E+00 0.00000E+00
 -1      2006 8.52045E+01 3.09687E+00 0.00000E+00
 -1      2007 8.50350E+01 4.00625E+00 0.00000E+00
 -1      2008 8.97045E+01 3.09687E+00 0.00000E+00
 -1      2009 8.82045E+01 3.09687E+00 0.00000E+00
 -1      2010 8.80350E+01 4.00625E+00 0.00000E+00
 -1      2011 9.27045E+01 3.09687E+00 0.00000E+00
 -1      2012 9.12045E+01 3.09687E+00 0.00000E+00
 -1      2013 9.10350E+01 4.00625E+00 0.00000E+00
 -1      2014 9.57045E+01 3.09687E+00 0.00000E+00
 -1      2015 9.42045E+01 3.09687E+00 0.00000E+00
 -1      2016 9.40350E+01 4.00625E+00 0.00000E+00
 -1      2017 9.87045E+01 3.09687E+00 0.00000E+00
 -1      2018 9.72045E+01 3.09687E+00 0.00000E+00
 -1      2019 9.70350E+01 4.00625E+00 0.00000E+00
 -1      2020 1.01704E+02 3.09687E+00 0.00000E+00
 -1      2021 1.00204E+02 3.09687E+00 0.00000E+00
 -1      2022 1.00035E+02 4.00625E+00 0.00000E+00
 -1      2023 1.04704E+02 3.09687E+00 0.00000E+00
 -1      2024 1.03204E+02 3.09687E+00 0.00000E+00
 -1      2025 1.03035E+02 4.00625E+00 0.00000E+00
 -1      2026 1.07704E+02 3.09687E+00 0.00000E+00
 -1      2027 1.06204E+02 3.09687E+00 0.00000E+00
 -1      2028 1.06035E+02 4.00625E+00 0.00000E+00
 -1      2029 1.10704E+02 3.09687E+00 0.00000E+00
 -1      2030 1.09204E+02 3.09687E+00 0.00000E+00
 -1      2031 1.09035E+02 4.00625E+00 0.00000E+00
 -1      2032 1.13704E+02 3.09687E+00 0.00000E+00
 -1      2033 1.12204E+02 3.09687E+00 0.00000E+00
 -1      2034 1.12035E+02 4.00625E+00 0.00000E+00
 -1      2035 1.16704E+02 3.09687E+00 0.00000E+00
 -1      2036 1.15204E+02 3.09687E+00 0.00000E+00
 -1      2037 1.15035E+02 4.00625E+00 0.00000E+00
 -1      2038 1.19704E+02 3.09687E+00 0.00000E+00
 -1      2039 1.18204E+02 3.09687E+00 0.00000E+00
 -1      2040 1.18035E+02 4.00625E+00 0.00000E+00
 -1      2041 1.22704E+02 3.09687E+00 0.00000E+00
 -1      2042 1.21204E+02 3.09687E+00 0.00000E+00
 -1      2043 1.21035E+02 4.00625E+00 0.00000E+00
 -1      2044 1.25704E+02 3.09687E+00 0.00000E+00
 -1      2045 1.24204E+02 3.09687E+00 0.00000E+00
 -1      2046 1.24035E+02 4.00625E+00 0.00000E+00
 -1      2047 1.28704E+02 3.09687E+00 0.00000E+00
 -1      2048 1.27204E+02 3.09687E+00 0.00000E+00
 -1      2049 1.27035E+02 4.00625E+00 0.00000E+00
 -1      2050 1.31704E+02 3.09687E+00 0.00000E+00
 -1      2051 1.30204E+02 3.09687E+00 0.00000E+00
 -1      2052 1.30035E+02 4.00625E+00 0.00000E+00
 -1      2053 1.34704E+02 3.09687E+00 0.00000E+00
 -1      2054 1.33204E+02 3.09687E+00 0.00000E+00
 -1      2055 1.33035E+02 4.00625E+00 0.00000E+00
 -1      2056 1.37704E+02 3.09687E+00 0.00000E+00
 -1      2057 1.36204E+02 3.09687E+00 0.00000E+00
 -1      2058 1.36035E+02 4.00625E+00 0.00000E+00
 -1      2059 1.40704E+02 3.09687E+00 0.00000E+00
 -1      2060 1.39204E+02 3.09687E+00 0.00000E+00
 -1      2061 1.39035E+02 4.00625E+00 0.00000E+00
 -1      2062 1.43704E+02 3.09687E+00 0.00000E+00
 -1      2063 1.42204E+02 3.09687E+00 0.00000E+00
 -1      2064 1.42035E+02 4.00625E+00 0.00000E+00
 -1      2065 1.46096E+02 3.22031E+00 0.00000E+00
 -1      2066 1.44671E+02 3.22031E+00 0.00000E+00
 -1      2067 1.44502E+02 4.12969E+00 0.00000E+00
 -1      2068 1.46435E+02 4.37656E+00 0.00000E+00
 -1      2069 1.46293E+02 1.22125E+01 0.00000E+00
 -1      2070 1.46293E+02 1.09375E+01 0.00000E+00
 -1      2071 1.46293E+02 9.53750E+00 0.00000E+00
 -1      2072 1.46293E+02 8.13750E+00 0.00000E+00
 -1      2073 1.45184E+02 1.01750E+01 0.00000E+00
 -1      2074 1.46648E+02 1.72903E+01 0.00000E+00
 -1      2075 1.46648E+02 1.61153E+01 0.00000E+00
 -1      2076 1.46364E+02 7.00703E+00 0.00000E+00
 -1      2077 1.46364E+02 5.50703E+00 0.00000E+00
 -1      2078 1.45397E+02 5.38359E+00 0.00000E+00
 -1      2079 1.45255E+02 7.64453E+00 0.00000E+00
 -1      2080 1.46925E+02 2.70875E+01 0.00000E+00
 -1      2081 1.46925E+02 2.56125E+01 0.00000E+00
 -1      2082 1.46841E+02 3.00750E+01 0.00000E+00
 -1      2083 1.46841E+02 2.85750E+01 0.00000E+00
 -1      2084 1.46841E+02 3.30750E+01 0.00000E+00
 -1      2085 1.46841E+02 3.15750E+01 0.00000E+00
 -1      2086 1.45732E+02 3.08250E+01 0.00000E+00
 -1      2087 1.46841E+02 3.60750E+01 0.00000E+00
 -1      2088 1.46841E+02 3.45750E+01 0.00000E+00
 -1      2089 1.45732E+02 3.38250E+01 0.00000E+00
 -1      2090 1.46841E+02 3.90750E+01 0.00000E+00
 -1      2091 1.46841E+02 3.75750E+01 0.00000E+00
 -1      2092 1.45732E+02 3.68250E+01 0.00000E+00
 -1      2093 1.46841E+02 4.20750E+01 0.00000E+00
 -1      2094 1.46841E+02 4.05750E+01 0.00000E+00
 -1      2095 1.45732E+02 3.98250E+01 0.00000E+00
 -1      2096 1.46494E+02 1.81952E+01 0.00000E+00
 -1      2097 1.44072E+02 1.15690E+01 0.00000E+00
 -1      2098 1.44547E+02 1.24246E+01 0.00000E+00
 -1      2099 3.89700E+00 3.74688E+01 0.00000E+00
 -1      2100 3.89700E+00 3.89437E+01 0.00000E+00
 -1      2101 5.19600E+00 3.96813E+01 0.00000E+00
 -1      2102 5.19600E+00 3.67438E+01 0.00000E+00
 -1      2103 1.40551E+02 9.41169E+00 0.00000E+00
 -1      2104 1.41289E+02 9.90767E+00 0.00000E+00
 -1      2105 1.38542E+02 8.77828E+00 0.00000E+00
 -1      2106 1.39438E+02 8.87646E+00 0.00000E+00
 -1      2107 1.36770E+02 8.57267E+00 0.00000E+00
 -1      2108 1.37656E+02 8.67548E+00 0.00000E+00
 -1      2109 1.38193E+02 7.91376E+00 0.00000E+00
 -1      2110 1.34736E+02 8.95506E+00 0.00000E+00
 -1      2111 1.35593E+02 8.71170E+00 0.00000E+00
 -1      2112 1.33042E+02 9.50754E+00 0.00000E+00
 -1      2113 1.33889E+02 9.23130E+00 0.00000E+00
 -1      2114 1.34106E+02 8.36525E+00 0.00000E+00
 -1      2115 1.31315E+02 1.07060E+01 0.00000E+00
 -1      2116 1.32004E+02 1.01142E+01 0.00000E+00
 -1      2117 1.30082E+02 1.21115E+01 0.00000E+00
 -1      2118 1.30670E+02 1.14540E+01 0.00000E+00
 -1      2119 1.28941E+02 1.36490E+01 0.00000E+00
 -1      2120 1.29379E+02 1.28767E+01 0.00000E+00
 -1      2121 1.28177E+02 1.52997E+01 0.00000E+00
 -1      2122 1.28559E+02 1.44744E+01 0.00000E+00
 -1      2123 1.28105E+02 1.37064E+01 0.00000E+00
 -1      2124 1.27875E+02 1.74549E+01 0.00000E+00
 -1      2125 1.27863E+02 1.65364E+01 0.00000E+00
 -1      2126 1.28067E+02 1.93992E+01 0.00000E+00
 -1      2127 1.27897E+02 1.85102E+01 0.00000E+00
 -1      2128 1.28636E+02 2.11306E+01 0.00000E+00
 -1      2129 1.28351E+02 2.02649E+01 0.00000E+00
 -1      2130 1.27424E+02 1.99814E+01 0.00000E+00
 -1      2131 1.29680E+02 2.29501E+01 0.00000E+00
 -1      2132 1.29208E+02 2.21625E+01 0.00000E+00
 -1      2133 1.31087E+02 2.44417E+01 0.00000E+00
 -1      2134 1.30379E+02 2.38764E+01 0.00000E+00
 -1      2135 1.32571E+02 2.55295E+01 0.00000E+00
 -1      2136 1.31829E+02 2.49856E+01 0.00000E+00
 -1      2137 1.30992E+02 2.53076E+01 0.00000E+00
 -1      2138 1.34528E+02 2.63158E+01 0.00000E+00
 -1      2139 1.33654E+02 2.61056E+01 0.00000E+00
 -1      2140 1.36271E+02 2.66662E+01 0.00000E+00
 -1      2141 1.35400E+02 2.64910E+01 0.00000E+00
 -1      2142 1.34772E+02 2.71790E+01 0.00000E+00
 -1      2143 1.38323E+02 2.64605E+01 0.00000E+00
 -1      2144 1.37442E+02 2.65938E+01 0.00000E+00
 -1      2145 1.40073E+02 2.58648E+01 0.00000E+00
 -1      2146 1.39286E+02 2.61662E+01 0.00000E+00
 -1      2147 1.41699E+02 2.51263E+01 0.00000E+00
 -1      2148 1.40934E+02 2.55229E+01 0.00000E+00
 -1      2149 1.43199E+02 2.39237E+01 0.00000E+00
 -1      2150 1.42585E+02 2.45316E+01 0.00000E+00
 -1      2151 1.44361E+02 2.25812E+01 0.00000E+00
 -1      2152 1.43780E+02 2.32524E+01 0.00000E+00
 -1      2153 1.43988E+02 2.40764E+01 0.00000E+00
 -1      2154 1.45304E+02 2.07437E+01 0.00000E+00
 -1      2155 1.45027E+02 2.15815E+01 0.00000E+00
 -1      2156 1.42132E+02 1.03250E+01 0.00000E+00
 -1      2157 1.42975E+02 1.07424E+01 0.00000E+00
 -1      2158 1.42148E+02 9.50438E+00 0.00000E+00
 -1      2159 1.46067E+02 2.25404E+01 0.00000E+00
 -1      2160 1.46925E+02 2.19404E+01 0.00000E+00
 -1      2161 6.42300E+00 4.57510E+01 0.00000E+00
 -1      2162 1.46925E+02 2.07654E+01 0.00000E+00
 -1      2163 7.17300E+00 4.44520E+01 0.00000E+00
 -1      2164 1.45816E+02 2.78375E+01 0.00000E+00
 -1      2165 1.45717E+02 1.57095E+01 0.00000E+00
 -1      2166 1.47018E+02 1.51692E+01 0.00000E+00
 -1      2167 1.46067E+02 2.50125E+01 0.00000E+00
 -1      2168 1.46745E+02 1.38067E+01 0.00000E+00
 -1      2169 1.47394E+02 1.89856E+01 0.00000E+00
 -1      2170 1.45939E+02 1.92558E+01 0.00000E+00
 -1      2171 1.46266E+02 4.32192E+01 0.00000E+00
 -1      2172 1.44877E+02 1.32205E+01 0.00000E+00
 -1      2173 1.45344E+02 1.39969E+01 0.00000E+00
 -1      2174 1.44088E+02 1.07484E+01 0.00000E+00
 -1      2175 1.45465E+02 1.47952E+01 0.00000E+00
 -1      2176 1.45235E+02 2.24055E+01 0.00000E+00
 -1      2177 1.42521E+02 2.53424E+01 0.00000E+00
 -1      2178 1.40773E+02 2.62789E+01 0.00000E+00
 -1      2179 1.36815E+02 2.72818E+01 0.00000E+00
 -1      2180 1.32818E+02 2.64277E+01 0.00000E+00
 -1      2181 1.28280E+02 2.18791E+01 0.00000E+00
 -1      2182 1.27409E+02 1.57685E+01 0.00000E+00
 -1      2183 1.26955E+02 1.50005E+01 0.00000E+00
 -1      2184 1.26641E+02 1.62373E+01 0.00000E+00
 -1      2185 1.29190E+02 1.21159E+01 0.00000E+00
 -1      2186 1.32221E+02 9.24820E+00 0.00000E+00
 -1      2187 1.36130E+02 7.94999E+00 0.00000E+00
 -1      2188 1.40192E+02 8.55179E+00 0.00000E+00
 -1      2189 1.30537E+02 1.06029E+01 0.00000E+00
 -1      2190 1.27117E+02 1.80605E+01 0.00000E+00
 -1      2191 1.29551E+02 2.38374E+01 0.00000E+00
 -1      2192 1.38948E+02 2.69150E+01 0.00000E+00
 -1      2193 1.45966E+02 1.39651E+01 0.00000E+00
 -1      2194 1.45773E+02 2.00639E+01 0.00000E+00
 -1      2195 1.44667E+02 2.85189E+01 0.00000E+00
 -1      2196 1.44750E+02 2.70314E+01 0.00000E+00
 -1      2197 6.49500E+00 3.01125E+01 0.00000E+00
 -1      2198 6.49500E+00 3.15875E+01 0.00000E+00
 -1      2199 6.49500E+00 3.30625E+01 0.00000E+00
 -1      2200 6.49500E+00 3.45375E+01 0.00000E+00
 -1      2201 7.79400E+00 3.23250E+01 0.00000E+00
 -1      2202 6.49500E+00 2.42125E+01 0.00000E+00
 -1      2203 6.49500E+00 2.56875E+01 0.00000E+00
 -1      2204 6.49500E+00 2.12625E+01 0.00000E+00
 -1      2205 6.49500E+00 2.27375E+01 0.00000E+00
 -1      2206 7.79400E+00 2.34750E+01 0.00000E+00
 -1      2207 6.49500E+00 1.83625E+01 0.00000E+00
 -1      2208 6.49500E+00 1.98125E+01 0.00000E+00
 -1      2209 7.79400E+00 2.05500E+01 0.00000E+00
 -1      2210 6.49500E+00 1.54125E+01 0.00000E+00
 -1      2211 6.49500E+00 1.68875E+01 0.00000E+00
 -1      2212 7.79400E+00 1.76250E+01 0.00000E+00
 -1      2213 6.49500E+00 1.24625E+01 0.00000E+00
 -1      2214 6.49500E+00 1.39375E+01 0.00000E+00
 -1      2215 7.79400E+00 1.46750E+01 0.00000E+00
 -1      2216 6.49500E+00 9.51250E+00 0.00000E+00
 -1      2217 6.49500E+00 1.09875E+01 0.00000E+00
 -1      2218 7.79400E+00 1.17250E+01 0.00000E+00
 -1      2219 6.49500E+00 6.56250E+00 0.00000E+00
 -1      2220 6.49500E+00 8.03750E+00 0.00000E+00
 -1      2221 7.79400E+00 8.77500E+00 0.00000E+00
 -1      2222 6.84975E+00 4.82969E+00 0.00000E+00
 -1      2223 6.68025E+00 5.73906E+00 0.00000E+00
 -1      2224 7.97925E+00 6.47656E+00 0.00000E+00
 -1      2225 8.34975E+00 4.82969E+00 0.00000E+00
 -1      2226 1.44433E+02 3.75750E+01 0.00000E+00
 -1      2227 1.44433E+02 3.60750E+01 0.00000E+00
 -1      2228 1.37850E+01 5.30525E+00 0.00000E+00
 -1      2229 1.22850E+01 5.30525E+00 0.00000E+00
 -1      2230 9.90000E+00 4.35050E+01 0.00000E+00
 -1      2231 1.14000E+01 4.35050E+01 0.00000E+00
 -1      2232 1.29000E+01 4.35050E+01 0.00000E+00
 -1      2233 1.44000E+01 4.35050E+01 0.00000E+00
 -1      2234 1.21500E+01 4.22060E+01 0.00000E+00
 -1      2235 1.59000E+01 4.35050E+01 0.00000E+00
 -1      2236 1.74000E+01 4.35050E+01 0.00000E+00
 -1      2237 1.51500E+01 4.22060E+01 0.00000E+00
 -1      2238 1.89000E+01 4.35050E+01 0.00000E+00
 -1      2239 2.04000E+01 4.35050E+01 0.00000E+00
 -1      2240 1.81500E+01 4.22060E+01 0.00000E+00
 -1      2241 2.19000E+01 4.35050E+01 0.00000E+00
 -1      2242 2.34000E+01 4.35050E+01 0.00000E+00
 -1      2243 2.11500E+01 4.22060E+01 0.00000E+00
 -1      2244 2.49000E+01 4.35050E+01 0.00000E+00
 -1      2245 2.64000E+01 4.35050E+01 0.00000E+00
 -1      2246 2.41500E+01 4.22060E+01 0.00000E+00
 -1      2247 2.79000E+01 4.35050E+01 0.00000E+00
 -1      2248 2.94000E+01 4.35050E+01 0.00000E+00
 -1      2249 2.71500E+01 4.22060E+01 0.00000E+00
 -1      2250 3.09000E+01 4.35050E+01 0.00000E+00
 -1      2251 3.24000E+01 4.35050E+01 0.00000E+00
 -1      2252 3.01500E+01 4.22060E+01 0.00000E+00
 -1      2253 3.39000E+01 4.35050E+01 0.00000E+00
 -1      2254 3.54000E+01 4.35050E+01 0.00000E+00
 -1      2255 3.31500E+01 4.22060E+01 0.00000E+00
 -1      2256 3.69000E+01 4.35050E+01 0.00000E+00
 -1      2257 3.84000E+01 4.35050E+01 0.00000E+00
 -1      2258 3.61500E+01 4.22060E+01 0.00000E+00
 -1      2259 3.99000E+01 4.35050E+01 0.00000E+00
 -1      2260 4.14000E+01 4.35050E+01 0.00000E+00
 -1      2261 3.91500E+01 4.22060E+01 0.00000E+00
 -1      2262 4.29000E+01 4.35050E+01 0.00000E+00
 -1      2263 4.44000E+01 4.35050E+01 0.00000E+00
 -1      2264 4.21500E+01 4.22060E+01 0.00000E+00
 -1      2265 4.59000E+01 4.35050E+01 0.00000E+00
 -1      2266 4.74000E+01 4.35050E+01 0.00000E+00
 -1      2267 4.51500E+01 4.22060E+01 0.00000E+00
 -1      2268 4.89000E+01 4.35050E+01 0.00000E+00
 -1      2269 5.04000E+01 4.35050E+01 0.00000E+00
 -1      2270 4.81500E+01 4.22060E+01 0.00000E+00
 -1      2271 5.19000E+01 4.35050E+01 0.00000E+00
 -1      2272 5.34000E+01 4.35050E+01 0.00000E+00
 -1      2273 5.11500E+01 4.22060E+01 0.00000E+00
 -1      2274 5.49000E+01 4.35050E+01 0.00000E+00
 -1      2275 5.64000E+01 4.35050E+01 0.00000E+00
 -1      2276 5.41500E+01 4.22060E+01 0.00000E+00
 -1      2277 5.79000E+01 4.35050E+01 0.00000E+00
 -1      2278 5.94000E+01 4.35050E+01 0.00000E+00
 -1      2279 5.71500E+01 4.22060E+01 0.00000E+00
 -1      2280 6.09000E+01 4.35050E+01 0.00000E+00
 -1      2281 6.24000E+01 4.35050E+01 0.00000E+00
 -1      2282 6.01500E+01 4.22060E+01 0.00000E+00
 -1      2283 6.39000E+01 4.35050E+01 0.00000E+00
 -1      2284 6.54000E+01 4.35050E+01 0.00000E+00
 -1      2285 6.31500E+01 4.22060E+01 0.00000E+00
 -1      2286 6.69000E+01 4.35050E+01 0.00000E+00
 -1      2287 6.84000E+01 4.35050E+01 0.00000E+00
 -1      2288 6.61500E+01 4.22060E+01 0.00000E+00
 -1      2289 6.99000E+01 4.35050E+01 0.00000E+00
 -1      2290 7.14000E+01 4.35050E+01 0.00000E+00
 -1      2291 6.91500E+01 4.22060E+01 0.00000E+00
 -1      2292 7.29000E+01 4.35050E+01 0.00000E+00
 -1      2293 7.44000E+01 4.35050E+01 0.00000E+00
 -1      2294 7.21500E+01 4.22060E+01 0.00000E+00
 -1      2295 7.59000E+01 4.35050E+01 0.00000E+00
 -1      2296 7.74000E+01 4.35050E+01 0.00000E+00
 -1      2297 7.51500E+01 4.22060E+01 0.00000E+00
 -1      2298 7.89000E+01 4.35050E+01 0.00000E+00
 -1      2299 8.04000E+01 4.35050E+01 0.00000E+00
 -1      2300 7.81500E+01 4.22060E+01 0.00000E+00
 -1      2301 8.19000E+01 4.35050E+01 0.00000E+00
 -1      2302 8.34000E+01 4.35050E+01 0.00000E+00
 -1      2303 8.11500E+01 4.22060E+01 0.00000E+00
 -1      2304 8.49000E+01 4.35050E+01 0.00000E+00
 -1      2305 8.64000E+01 4.35050E+01 0.00000E+00
 -1      2306 8.41500E+01 4.22060E+01 0.00000E+00
 -1      2307 8.79000E+01 4.35050E+01 0.00000E+00
 -1      2308 8.94000E+01 4.35050E+01 0.00000E+00
 -1      2309 8.71500E+01 4.22060E+01 0.00000E+00
 -1      2310 9.09000E+01 4.35050E+01 0.00000E+00
 -1      2311 9.24000E+01 4.35050E+01 0.00000E+00
 -1      2312 9.01500E+01 4.22060E+01 0.00000E+00
 -1      2313 9.39000E+01 4.35050E+01 0.00000E+00
 -1      2314 9.54000E+01 4.35050E+01 0.00000E+00
 -1      2315 9.31500E+01 4.22060E+01 0.00000E+00
 -1      2316 9.69000E+01 4.35050E+01 0.00000E+00
 -1      2317 9.84000E+01 4.35050E+01 0.00000E+00
 -1      2318 9.61500E+01 4.22060E+01 0.00000E+00
 -1      2319 9.99000E+01 4.35050E+01 0.00000E+00
 -1      2320 1.01400E+02 4.35050E+01 0.00000E+00
 -1      2321 9.91500E+01 4.22060E+01 0.00000E+00
 -1      2322 1.02900E+02 4.35050E+01 0.00000E+00
 -1      2323 1.04400E+02 4.35050E+01 0.00000E+00
 -1      2324 1.02150E+02 4.22060E+01 0.00000E+00
 -1      2325 1.05900E+02 4.35050E+01 0.00000E+00
 -1      2326 1.07400E+02 4.35050E+01 0.00000E+00
 -1      2327 1.05150E+02 4.22060E+01 0.00000E+00
 -1      2328 1.08900E+02 4.35050E+01 0.00000E+00
 -1      2329 1.10400E+02 4.35050E+01 0.00000E+00
 -1      2330 1.08150E+02 4.22060E+01 0.00000E+00
 -1      2331 1.11900E+02 4.35050E+01 0.00000E+00
 -1      2332 1.13400E+02 4.35050E+01 0.00000E+00
 -1      2333 1.11150E+02 4.22060E+01 0.00000E+00
 -1      2334 1.14900E+02 4.35050E+01 0.00000E+00
 -1      2335 1.16400E+02 4.35050E+01 0.00000E+00
 -1      2336 1.14150E+02 4.22060E+01 0.00000E+00
 -1      2337 1.17900E+02 4.35050E+01 0.00000E+00
 -1      2338 1.19400E+02 4.35050E+01 0.00000E+00
 -1      2339 1.17150E+02 4.22060E+01 0.00000E+00
 -1      2340 1.20900E+02 4.35050E+01 0.00000E+00
 -1      2341 1.22400E+02 4.35050E+01 0.00000E+00
 -1      2342 1.20150E+02 4.22060E+01 0.00000E+00
 -1      2343 1.23900E+02 4.35050E+01 0.00000E+00
 -1      2344 1.25400E+02 4.35050E+01 0.00000E+00
 -1      2345 1.23150E+02 4.22060E+01 0.00000E+00
 -1      2346 1.26900E+02 4.35050E+01 0.00000E+00
 -1      2347 1.28400E+02 4.35050E+01 0.00000E+00
 -1      2348 1.26150E+02 4.22060E+01 0.00000E+00
 -1      2349 1.29900E+02 4.35050E+01 0.00000E+00
 -1      2350 1.31400E+02 4.35050E+01 0.00000E+00
 -1      2351 1.29150E+02 4.22060E+01 0.00000E+00
 -1      2352 1.32900E+02 4.35050E+01 0.00000E+00
 -1      2353 1.34400E+02 4.35050E+01 0.00000E+00
 -1      2354 1.32150E+02 4.22060E+01 0.00000E+00
 -1      2355 1.35900E+02 4.35050E+01 0.00000E+00
 -1      2356 1.37400E+02 4.35050E+01 0.00000E+00
 -1      2357 1.35150E+02 4.22060E+01 0.00000E+00
 -1      2358 1.38900E+02 4.35050E+01 0.00000E+00
 -1      2359 1.40400E+02 4.35050E+01 0.00000E+00
 -1      2360 1.38150E+02 4.22060E+01 0.00000E+00
 -1      2361 1.67850E+01 5.30525E+00 0.00000E+00
 -1      2362 1.52850E+01 5.30525E+00 0.00000E+00
 -1      2363 1.45350E+01 6.60425E+00 0.00000E+00
 -1      2364 1.10674E+01 5.06747E+00 0.00000E+00
 -1      2365 9.56738E+00 5.06747E+00 0.00000E+00
 -1      2366 9.38212E+00 5.89091E+00 0.00000E+00
 -1      2367 1.18174E+01 6.36647E+00 0.00000E+00
 -1      2368 1.97850E+01 5.30525E+00 0.00000E+00
 -1      2369 1.82850E+01 5.30525E+00 0.00000E+00
 -1      2370 1.75350E+01 6.60425E+00 0.00000E+00
 -1      2371 2.27850E+01 5.30525E+00 0.00000E+00
 -1      2372 2.12850E+01 5.30525E+00 0.00000E+00
 -1      2373 2.05350E+01 6.60425E+00 0.00000E+00
 -1      2374 2.57850E+01 5.30525E+00 0.00000E+00
 -1      2375 2.42850E+01 5.30525E+00 0.00000E+00
 -1      2376 2.35350E+01 6.60425E+00 0.00000E+00
 -1      2377 2.87850E+01 5.30525E+00 0.00000E+00
 -1      2378 2.72850E+01 5.30525E+00 0.00000E+00
 -1      2379 2.65350E+01 6.60425E+00 0.00000E+00
 -1      2380 3.17850E+01 5.30525E+00 0.00000E+00
 -1      2381 3.02850E+01 5.30525E+00 0.00000E+00
 -1      2382 2.95350E+01 6.60425E+00 0.00000E+00
 -1      2383 3.47850E+01 5.30525E+00 0.00000E+00
 -1      2384 3.32850E+01 5.30525E+00 0.00000E+00
 -1      2385 3.25350E+01 6.60425E+00 0.00000E+00
 -1      2386 3.77850E+01 5.30525E+00 0.00000E+00
 -1      2387 3.62850E+01 5.30525E+00 0.00000E+00
 -1      2388 3.55350E+01 6.60425E+00 0.00000E+00
 -1      2389 4.07850E+01 5.30525E+00 0.00000E+00
 -1      2390 3.92850E+01 5.30525E+00 0.00000E+00
 -1      2391 3.85350E+01 6.60425E+00 0.00000E+00
 -1      2392 4.37850E+01 5.30525E+00 0.00000E+00
 -1      2393 4.22850E+01 5.30525E+00 0.00000E+00
 -1      2394 4.15350E+01 6.60425E+00 0.00000E+00
 -1      2395 4.67850E+01 5.30525E+00 0.00000E+00
 -1      2396 4.52850E+01 5.30525E+00 0.00000E+00
 -1      2397 4.45350E+01 6.60425E+00 0.00000E+00
 -1      2398 4.97850E+01 5.30525E+00 0.00000E+00
 -1      2399 4.82850E+01 5.30525E+00 0.00000E+00
 -1      2400 4.75350E+01 6.60425E+00 0.00000E+00
 -1      2401 5.27850E+01 5.30525E+00 0.00000E+00
 -1      2402 5.12850E+01 5.30525E+00 0.00000E+00
 -1      2403 5.05350E+01 6.60425E+00 0.00000E+00
 -1      2404 5.57850E+01 5.30525E+00 0.00000E+00
 -1      2405 5.42850E+01 5.30525E+00 0.00000E+00
 -1      2406 5.35350E+01 6.60425E+00 0.00000E+00
 -1      2407 5.87850E+01 5.30525E+00 0.00000E+00
 -1      2408 5.72850E+01 5.30525E+00 0.00000E+00
 -1      2409 5.65350E+01 6.60425E+00 0.00000E+00
 -1      2410 6.17850E+01 5.30525E+00 0.00000E+00
 -1      2411 6.02850E+01 5.30525E+00 0.00000E+00
 -1      2412 5.95350E+01 6.60425E+00 0.00000E+00
 -1      2413 6.47850E+01 5.30525E+00 0.00000E+00
 -1      2414 6.32850E+01 5.30525E+00 0.00000E+00
 -1      2415 6.25350E+01 6.60425E+00 0.00000E+00
 -1      2416 6.77850E+01 5.30525E+00 0.00000E+00
 -1      2417 6.62850E+01 5.30525E+00 0.00000E+00
 -1      2418 6.55350E+01 6.60425E+00 0.00000E+00
 -1      2419 7.07850E+01 5.30525E+00 0.00000E+00
 -1      2420 6.92850E+01 5.30525E+00 0.00000E+00
 -1      2421 6.85350E+01 6.60425E+00 0.00000E+00
 -1      2422 7.37850E+01 5.30525E+00 0.00000E+00
 -1      2423 7.22850E+01 5.30525E+00 0.00000E+00
 -1      2424 7.15350E+01 6.60425E+00 0.00000E+00
 -1      2425 7.67850E+01 5.30525E+00 0.00000E+00
 -1      2426 7.52850E+01 5.30525E+00 0.00000E+00
 -1      2427 7.45350E+01 6.60425E+00 0.00000E+00
 -1      2428 7.97850E+01 5.30525E+00 0.00000E+00
 -1      2429 7.82850E+01 5.30525E+00 0.00000E+00
 -1      2430 7.75350E+01 6.60425E+00 0.00000E+00
 -1      2431 8.27850E+01 5.30525E+00 0.00000E+00
 -1      2432 8.12850E+01 5.30525E+00 0.00000E+00
 -1      2433 8.05350E+01 6.60425E+00 0.00000E+00
 -1      2434 8.57850E+01 5.30525E+00 0.00000E+00
 -1      2435 8.42850E+01 5.30525E+00 0.00000E+00
 -1      2436 8.35350E+01 6.60425E+00 0.00000E+00
 -1      2437 8.87850E+01 5.30525E+00 0.00000E+00
 -1      2438 8.72850E+01 5.30525E+00 0.00000E+00
 -1      2439 8.65350E+01 6.60425E+00 0.00000E+00
 -1      2440 9.17850E+01 5.30525E+00 0.00000E+00
 -1      2441 9.02850E+01 5.30525E+00 0.00000E+00
 -1      2442 8.95350E+01 6.60425E+00 0.00000E+00
 -1      2443 9.47850E+01 5.30525E+00 0.00000E+00
 -1      2444 9.32850E+01 5.30525E+00 0.00000E+00
 -1      2445 9.25350E+01 6.60425E+00 0.00000E+00
 -1      2446 9.77850E+01 5.30525E+00 0.00000E+00
 -1      2447 9.62850E+01 5.30525E+00 0.00000E+00
 -1      2448 9.55350E+01 6.60425E+00 0.00000E+00
 -1      2449 1.00785E+02 5.30525E+00 0.00000E+00
 -1      2450 9.92850E+01 5.30525E+00 0.00000E+00
 -1      2451 9.85350E+01 6.60425E+00 0.00000E+00
 -1      2452 1.03785E+02 5.30525E+00 0.00000E+00
 -1      2453 1.02285E+02 5.30525E+00 0.00000E+00
 -1      2454 1.01535E+02 6.60425E+00 0.00000E+00
 -1      2455 1.06785E+02 5.30525E+00 0.00000E+00
 -1      2456 1.05285E+02 5.30525E+00 0.00000E+00
 -1      2457 1.04535E+02 6.60425E+00 0.00000E+00
 -1      2458 1.09785E+02 5.30525E+00 0.00000E+00
 -1      2459 1.08285E+02 5.30525E+00 0.00000E+00
 -1      2460 1.07535E+02 6.60425E+00 0.00000E+00
 -1      2461 1.12785E+02 5.30525E+00 0.00000E+00
 -1      2462 1.11285E+02 5.30525E+00 0.00000E+00
 -1      2463 1.10535E+02 6.60425E+00 0.00000E+00
 -1      2464 1.15785E+02 5.30525E+00 0.00000E+00
 -1      2465 1.14285E+02 5.30525E+00 0.00000E+00
 -1      2466 1.13535E+02 6.60425E+00 0.00000E+00
 -1      2467 1.18785E+02 5.30525E+00 0.00000E+00
 -1      2468 1.17285E+02 5.30525E+00 0.00000E+00
 -1      2469 1.16535E+02 6.60425E+00 0.00000E+00
 -1      2470 1.21785E+02 5.30525E+00 0.00000E+00
 -1      2471 1.20285E+02 5.30525E+00 0.00000E+00
 -1      2472 1.19535E+02 6.60425E+00 0.00000E+00
 -1      2473 1.24785E+02 5.30525E+00 0.00000E+00
 -1      2474 1.23285E+02 5.30525E+00 0.00000E+00
 -1      2475 1.22535E+02 6.60425E+00 0.00000E+00
 -1      2476 1.27785E+02 5.30525E+00 0.00000E+00
 -1      2477 1.26285E+02 5.30525E+00 0.00000E+00
 -1      2478 1.25535E+02 6.60425E+00 0.00000E+00
 -1      2479 1.30785E+02 5.30525E+00 0.00000E+00
 -1      2480 1.29285E+02 5.30525E+00 0.00000E+00
 -1      2481 1.28535E+02 6.60425E+00 0.00000E+00
 -1      2482 1.33785E+02 5.03137E+00 0.00000E+00
 -1      2483 1.32285E+02 5.03137E+00 0.00000E+00
 -1      2484 1.36785E+02 4.94759E+00 0.00000E+00
 -1      2485 1.35285E+02 4.94759E+00 0.00000E+00
 -1      2486 1.39785E+02 5.03138E+00 0.00000E+00
 -1      2487 1.38285E+02 5.03138E+00 0.00000E+00
 -1      2488 1.42785E+02 5.19895E+00 0.00000E+00
 -1      2489 1.41285E+02 5.19895E+00 0.00000E+00
 -1      2490 1.44431E+02 5.26016E+00 0.00000E+00
 -1      2491 1.45402E+02 2.35401E+01 0.00000E+00
 -1      2492 1.44088E+02 9.34837E+00 0.00000E+00
 -1      2493 1.44992E+02 2.59545E+01 0.00000E+00
 -1      2494 1.45160E+02 2.46170E+01 0.00000E+00
 -1      2495 1.44327E+02 2.44820E+01 0.00000E+00
 -1      2496 1.43843E+02 2.66359E+01 0.00000E+00
 -1      2497 1.45515E+02 1.23709E+01 0.00000E+00
 -1      2498 1.44433E+02 3.45750E+01 0.00000E+00
 -1      2499 1.44433E+02 3.30750E+01 0.00000E+00
 -1      2500 1.43134E+02 3.53250E+01 0.00000E+00
 -1      2501 6.55950E+00 4.28890E+01 0.00000E+00
 -1      2502 8.53650E+00 4.32410E+01 0.00000E+00
 -1      2503 9.28650E+00 4.19420E+01 0.00000E+00
 -1      2504 6.55950E+00 4.14140E+01 0.00000E+00
 -1      2505 1.47394E+02 2.00856E+01 0.00000E+00
 -1      2506 1.44433E+02 3.15750E+01 0.00000E+00
 -1      2507 1.44433E+02 3.00750E+01 0.00000E+00
 -1      2508 1.43134E+02 3.23250E+01 0.00000E+00
 -1      2509 1.44433E+02 4.05750E+01 0.00000E+00
 -1      2510 1.44433E+02 3.90750E+01 0.00000E+00
 -1      2511 1.43134E+02 3.83250E+01 0.00000E+00
 -1      2512 1.44853E+02 4.31419E+01 0.00000E+00
 -1      2513 1.46624E+02 1.30084E+01 0.00000E+00
 -1      2514 1.27816E+02 2.28105E+01 0.00000E+00
 -1      2515 1.27244E+02 2.17786E+01 0.00000E+00
 -1      2516 1.28207E+02 1.19184E+01 0.00000E+00
 -1      2517 1.28910E+02 1.11532E+01 0.00000E+00
 -1      2518 6.49500E+00 2.71625E+01 0.00000E+00
 -1      2519 6.49500E+00 2.86375E+01 0.00000E+00
 -1      2520 7.79400E+00 2.93750E+01 0.00000E+00
 -1      2521 7.79400E+00 2.64250E+01 0.00000E+00
 -1      2522 1.40007E+02 7.51135E+00 0.00000E+00
 -1      2523 1.41120E+02 8.04658E+00 0.00000E+00
 -1      2524 1.29554E+02 1.04053E+01 0.00000E+00
 -1      2525 1.30199E+02 9.65737E+00 0.00000E+00
 -1      2526 1.28571E+02 1.02078E+01 0.00000E+00
 -1      2527 1.38171E+02 6.93373E+00 0.00000E+00
 -1      2528 1.39057E+02 7.03653E+00 0.00000E+00
 -1      2529 1.35494E+02 6.98897E+00 0.00000E+00
 -1      2530 1.36671E+02 6.84994E+00 0.00000E+00
 -1      2531 1.33147E+02 7.34899E+00 0.00000E+00
 -1      2532 1.33994E+02 7.07276E+00 0.00000E+00
 -1      2533 1.26103E+02 1.86095E+01 0.00000E+00
 -1      2534 1.26081E+02 1.75543E+01 0.00000E+00
 -1      2535 1.31154E+02 8.80654E+00 0.00000E+00
 -1      2536 1.32193E+02 8.19982E+00 0.00000E+00
 -1      2537 1.32080E+02 6.90733E+00 0.00000E+00
 -1      2538 1.30171E+02 8.60899E+00 0.00000E+00
 -1      2539 1.27136E+02 1.37590E+01 0.00000E+00
 -1      2540 1.27518E+02 1.29337E+01 0.00000E+00
 -1      2541 1.29249E+02 2.47918E+01 0.00000E+00
 -1      2542 1.28550E+02 2.38655E+01 0.00000E+00
 -1      2543 1.26752E+02 2.06823E+01 0.00000E+00
 -1      2544 1.26467E+02 1.98166E+01 0.00000E+00
 -1      2545 1.39632E+02 2.74277E+01 0.00000E+00
 -1      2546 1.38669E+02 2.77220E+01 0.00000E+00
 -1      2547 1.30856E+02 2.62713E+01 0.00000E+00
 -1      2548 1.30114E+02 2.57274E+01 0.00000E+00
 -1      2549 1.32976E+02 2.74359E+01 0.00000E+00
 -1      2550 1.31893E+02 2.68598E+01 0.00000E+00
 -1      2551 1.35047E+02 2.80662E+01 0.00000E+00
 -1      2552 1.34176E+02 2.78910E+01 0.00000E+00
 -1      2553 1.37458E+02 2.81851E+01 0.00000E+00
 -1      2554 1.36287E+02 2.82575E+01 0.00000E+00
 -1      2555 1.41551E+02 2.69830E+01 0.00000E+00
 -1      2556 1.40689E+02 2.73248E+01 0.00000E+00
 -1      2557 1.43142E+02 8.87511E+00 0.00000E+00
 -1      2558 1.44239E+02 8.30174E+00 0.00000E+00
 -1      2559 7.79400E+00 3.52687E+01 0.00000E+00
 -1      2560 6.49500E+00 3.60062E+01 0.00000E+00
 -1      2561 6.49500E+00 3.74750E+01 0.00000E+00
 -1      2562 1.43058E+02 4.36366E+01 0.00000E+00
 -1      2563 1.43937E+02 4.18198E+01 0.00000E+00
 -1      2564 1.42638E+02 4.10698E+01 0.00000E+00
 -1      2565 1.41646E+02 4.35592E+01 0.00000E+00
 -1      2566 1.44310E+02 7.17127E+00 0.00000E+00
 -1      2567 1.40896E+02 4.22603E+01 0.00000E+00
 -1      2568 1.34535E+02 5.97271E+00 0.00000E+00
 -1      2569 1.35691E+02 2.89696E+01 0.00000E+00
 -1      2570 1.33251E+02 2.83231E+01 0.00000E+00
 -1      2571 1.31015E+02 2.72795E+01 0.00000E+00
 -1      2572 1.40409E+02 2.81318E+01 0.00000E+00
 -1      2573 6.55950E+00 3.99453E+01 0.00000E+00
 -1      2574 1.26287E+02 2.16137E+01 0.00000E+00
 -1      2575 1.43368E+02 2.92689E+01 0.00000E+00
 -1      2576 1.39985E+02 6.53132E+00 0.00000E+00
 -1      2577 1.27238E+02 1.19710E+01 0.00000E+00
 -1      2578 1.46369E+02 2.07260E+01 0.00000E+00
 -1      2579 1.27514E+02 2.37650E+01 0.00000E+00
 -1      2580 1.42299E+02 8.45775E+00 0.00000E+00
 -1      2581 1.25627E+02 1.67863E+01 0.00000E+00
 -1      2582 1.26368E+02 1.42278E+01 0.00000E+00
 -1      2583 1.42618E+02 2.68249E+01 0.00000E+00
 -1      2584 1.42534E+02 2.78708E+01 0.00000E+00
 -1      2585 1.38141E+02 2.86978E+01 0.00000E+00
 -1      2586 1.25431E+02 1.93104E+01 0.00000E+00
 -1      2587 1.29114E+02 2.57555E+01 0.00000E+00
 -1      2588 1.42114E+02 7.41731E+00 0.00000E+00
 -1      2589 1.43746E+02 2.51533E+01 0.00000E+00
 -1      2590 1.28916E+02 2.68054E+01 0.00000E+00
 -1      2591 1.28051E+02 2.58699E+01 0.00000E+00
 -1      2592 9.09300E+00 1.98250E+01 0.00000E+00
 -1      2593 9.09300E+00 2.12750E+01 0.00000E+00
 -1      2594 9.09300E+00 2.27500E+01 0.00000E+00
 -1      2595 9.09300E+00 2.42250E+01 0.00000E+00
 -1      2596 1.03920E+01 2.20250E+01 0.00000E+00
 -1      2597 9.09300E+00 1.39375E+01 0.00000E+00
 -1      2598 9.09300E+00 1.54125E+01 0.00000E+00
 -1      2599 9.09300E+00 1.09875E+01 0.00000E+00
 -1      2600 9.09300E+00 1.24625E+01 0.00000E+00
 -1      2601 1.03920E+01 1.32000E+01 0.00000E+00
 -1      2602 9.19687E+00 6.71434E+00 0.00000E+00
 -1      2603 2.42850E+01 7.90325E+00 0.00000E+00
 -1      2604 2.27850E+01 7.90325E+00 0.00000E+00
 -1      2605 1.82850E+01 7.90325E+00 0.00000E+00
 -1      2606 1.67850E+01 7.90325E+00 0.00000E+00
 -1      2607 1.52850E+01 7.90325E+00 0.00000E+00
 -1      2608 1.37850E+01 7.90325E+00 0.00000E+00
 -1      2609 1.60350E+01 9.20225E+00 0.00000E+00
 -1      2610 1.27473E+02 9.91238E+00 0.00000E+00
 -1      2611 1.28117E+02 9.16444E+00 0.00000E+00
 -1      2612 1.44000E+01 4.09070E+01 0.00000E+00
 -1      2613 1.59000E+01 4.09070E+01 0.00000E+00
 -1      2614 1.74000E+01 4.09070E+01 0.00000E+00
 -1      2615 1.89000E+01 4.09070E+01 0.00000E+00
 -1      2616 1.66500E+01 3.96080E+01 0.00000E+00
 -1      2617 2.04000E+01 4.09070E+01 0.00000E+00
 -1      2618 2.19000E+01 4.09070E+01 0.00000E+00
 -1      2619 1.96500E+01 3.96080E+01 0.00000E+00
 -1      2620 2.34000E+01 4.09070E+01 0.00000E+00
 -1      2621 2.49000E+01 4.09070E+01 0.00000E+00
 -1      2622 2.26500E+01 3.96080E+01 0.00000E+00
 -1      2623 2.64000E+01 4.09070E+01 0.00000E+00
 -1      2624 2.79000E+01 4.09070E+01 0.00000E+00
 -1      2625 2.56500E+01 3.96080E+01 0.00000E+00
 -1      2626 2.94000E+01 4.09070E+01 0.00000E+00
 -1      2627 3.09000E+01 4.09070E+01 0.00000E+00
 -1      2628 2.86500E+01 3.96080E+01 0.00000E+00
 -1      2629 3.24000E+01 4.09070E+01 0.00000E+00
 -1      2630 3.39000E+01 4.09070E+01 0.00000E+00
 -1      2631 3.16500E+01 3.96080E+01 0.00000E+00
 -1      2632 3.54000E+01 4.09070E+01 0.00000E+00
 -1      2633 3.69000E+01 4.09070E+01 0.00000E+00
 -1      2634 3.46500E+01 3.96080E+01 0.00000E+00
 -1      2635 3.84000E+01 4.09070E+01 0.00000E+00
 -1      2636 3.99000E+01 4.09070E+01 0.00000E+00
 -1      2637 3.76500E+01 3.96080E+01 0.00000E+00
 -1      2638 4.14000E+01 4.09070E+01 0.00000E+00
 -1      2639 4.29000E+01 4.09070E+01 0.00000E+00
 -1      2640 4.06500E+01 3.96080E+01 0.00000E+00
 -1      2641 4.44000E+01 4.09070E+01 0.00000E+00
 -1      2642 4.59000E+01 4.09070E+01 0.00000E+00
 -1      2643 4.36500E+01 3.96080E+01 0.00000E+00
 -1      2644 4.74000E+01 4.09070E+01 0.00000E+00
 -1      2645 4.89000E+01 4.09070E+01 0.00000E+00
 -1      2646 4.66500E+01 3.96080E+01 0.00000E+00
 -1      2647 5.04000E+01 4.09070E+01 0.00000E+00
 -1      2648 5.19000E+01 4.09070E+01 0.00000E+00
 -1      2649 4.96500E+01 3.96080E+01 0.00000E+00
 -1      2650 5.34000E+01 4.09070E+01 0.00000E+00
 -1      2651 5.49000E+01 4.09070E+01 0.00000E+00
 -1      2652 5.26500E+01 3.96080E+01 0.00000E+00
 -1      2653 5.64000E+01 4.09070E+01 0.00000E+00
 -1      2654 5.79000E+01 4.09070E+01 0.00000E+00
 -1      2655 5.56500E+01 3.96080E+01 0.00000E+00
 -1      2656 5.94000E+01 4.09070E+01 0.00000E+00
 -1      2657 6.09000E+01 4.09070E+01 0.00000E+00
 -1      2658 5.86500E+01 3.96080E+01 0.00000E+00
 -1      2659 6.24000E+01 4.09070E+01 0.00000E+00
 -1      2660 6.39000E+01 4.09070E+01 0.00000E+00
 -1      2661 6.16500E+01 3.96080E+01 0.00000E+00
 -1      2662 6.54000E+01 4.09070E+01 0.00000E+00
 -1      2663 6.69000E+01 4.09070E+01 0.00000E+00
 -1      2664 6.46500E+01 3.96080E+01 0.00000E+00
 -1      2665 6.84000E+01 4.09070E+01 0.00000E+00
 -1      2666 6.99000E+01 4.09070E+01 0.00000E+00
 -1      2667 6.76500E+01 3.96080E+01 0.00000E+00
 -1      2668 7.14000E+01 4.09070E+01 0.00000E+00
 -1      2669 7.29000E+01 4.09070E+01 0.00000E+00
 -1      2670 7.06500E+01 3.96080E+01 0.00000E+00
 -1      2671 7.44000E+01 4.09070E+01 0.00000E+00
 -1      2672 7.59000E+01 4.09070E+01 0.00000E+00
 -1      2673 7.36500E+01 3.96080E+01 0.00000E+00
 -1      2674 7.74000E+01 4.09070E+01 0.00000E+00
 -1      2675 7.89000E+01 4.09070E+01 0.00000E+00
 -1      2676 7.66500E+01 3.96080E+01 0.00000E+00
 -1      2677 8.04000E+01 4.09070E+01 0.00000E+00
 -1      2678 8.19000E+01 4.09070E+01 0.00000E+00
 -1      2679 7.96500E+01 3.96080E+01 0.00000E+00
 -1      2680 8.34000E+01 4.09070E+01 0.00000E+00
 -1      2681 8.49000E+01 4.09070E+01 0.00000E+00
 -1      2682 8.26500E+01 3.96080E+01 0.00000E+00
 -1      2683 8.64000E+01 4.09070E+01 0.00000E+00
 -1      2684 8.79000E+01 4.09070E+01 0.00000E+00
 -1      2685 8.56500E+01 3.96080E+01 0.00000E+00
 -1      2686 8.94000E+01 4.09070E+01 0.00000E+00
 -1      2687 9.09000E+01 4.09070E+01 0.00000E+00
 -1      2688 8.86500E+01 3.96080E+01 0.00000E+00
 -1      2689 9.24000E+01 4.09070E+01 0.00000E+00
 -1      2690 9.39000E+01 4.09070E+01 0.00000E+00
 -1      2691 9.16500E+01 3.96080E+01 0.00000E+00
 -1      2692 9.54000E+01 4.09070E+01 0.00000E+00
 -1      2693 9.69000E+01 4.09070E+01 0.00000E+00
 -1      2694 9.46500E+01 3.96080E+01 0.00000E+00
 -1      2695 9.84000E+01 4.09070E+01 0.00000E+00
 -1      2696 9.99000E+01 4.09070E+01 0.00000E+00
 -1      2697 9.76500E+01 3.96080E+01 0.00000E+00
 -1      2698 1.01400E+02 4.09070E+01 0.00000E+00
 -1      2699 1.02900E+02 4.09070E+01 0.00000E+00
 -1      2700 1.00650E+02 3.96080E+01 0.00000E+00
 -1      2701 1.04400E+02 4.09070E+01 0.00000E+00
 -1      2702 1.05900E+02 4.09070E+01 0.00000E+00
 -1      2703 1.03650E+02 3.96080E+01 0.00000E+00
 -1      2704 1.07400E+02 4.09070E+01 0.00000E+00
 -1      2705 1.08900E+02 4.09070E+01 0.00000E+00
 -1      2706 1.06650E+02 3.96080E+01 0.00000E+00
 -1      2707 1.10400E+02 4.09070E+01 0.00000E+00
 -1      2708 1.11900E+02 4.09070E+01 0.00000E+00
 -1      2709 1.09650E+02 3.96080E+01 0.00000E+00
 -1      2710 1.13400E+02 4.09070E+01 0.00000E+00
 -1      2711 1.14900E+02 4.09070E+01 0.00000E+00
 -1      2712 1.12650E+02 3.96080E+01 0.00000E+00
 -1      2713 1.16400E+02 4.09070E+01 0.00000E+00
 -1      2714 1.17900E+02 4.09070E+01 0.00000E+00
 -1      2715 1.15650E+02 3.96080E+01 0.00000E+00
 -1      2716 1.19400E+02 4.09070E+01 0.00000E+00
 -1      2717 1.20900E+02 4.09070E+01 0.00000E+00
 -1      2718 1.18650E+02 3.96080E+01 0.00000E+00
 -1      2719 1.22400E+02 4.09070E+01 0.00000E+00
 -1      2720 1.23900E+02 4.09070E+01 0.00000E+00
 -1      2721 1.21650E+02 3.96080E+01 0.00000E+00
 -1      2722 1.25400E+02 4.09070E+01 0.00000E+00
 -1      2723 1.26900E+02 4.09070E+01 0.00000E+00
 -1      2724 1.24650E+02 3.96080E+01 0.00000E+00
 -1      2725 1.28400E+02 4.09070E+01 0.00000E+00
 -1      2726 1.29900E+02 4.09070E+01 0.00000E+00
 -1      2727 1.27650E+02 3.96080E+01 0.00000E+00
 -1      2728 1.31400E+02 4.09070E+01 0.00000E+00
 -1      2729 1.32900E+02 4.09070E+01 0.00000E+00
 -1      2730 1.30650E+02 3.96080E+01 0.00000E+00
 -1      2731 1.34400E+02 4.09070E+01 0.00000E+00
 -1      2732 1.35900E+02 4.09070E+01 0.00000E+00
 -1      2733 1.33650E+02 3.96080E+01 0.00000E+00
 -1      2734 1.37400E+02 4.09070E+01 0.00000E+00
 -1      2735 1.38900E+02 4.09070E+01 0.00000E+00
 -1      2736 1.36650E+02 3.96080E+01 0.00000E+00
 -1      2737 2.12850E+01 7.90325E+00 0.00000E+00
 -1      2738 1.97850E+01 7.90325E+00 0.00000E+00
 -1      2739 1.90350E+01 9.20225E+00 0.00000E+00
 -1      2740 1.37535E+02 5.97271E+00 0.00000E+00
 -1      2741 2.72850E+01 7.90325E+00 0.00000E+00
 -1      2742 2.57850E+01 7.90325E+00 0.00000E+00
 -1      2743 2.50350E+01 9.20225E+00 0.00000E+00
 -1      2744 3.02850E+01 7.90325E+00 0.00000E+00
 -1      2745 2.87850E+01 7.90325E+00 0.00000E+00
 -1      2746 2.80350E+01 9.20225E+00 0.00000E+00
 -1      2747 3.32850E+01 7.90325E+00 0.00000E+00
 -1      2748 3.17850E+01 7.90325E+00 0.00000E+00
 -1      2749 3.10350E+01 9.20225E+00 0.00000E+00
 -1      2750 3.62850E+01 7.90325E+00 0.00000E+00
 -1      2751 3.47850E+01 7.90325E+00 0.00000E+00
 -1      2752 3.40350E+01 9.20225E+00 0.00000E+00
 -1      2753 3.92850E+01 7.90325E+00 0.00000E+00
 -1      2754 3.77850E+01 7.90325E+00 0.00000E+00
 -1      2755 3.70350E+01 9.20225E+00 0.00000E+00
 -1      2756 4.22850E+01 7.90325E+00 0.00000E+00
 -1      2757 4.07850E+01 7.90325E+00 0.00000E+00
 -1      2758 4.00350E+01 9.20225E+00 0.00000E+00
 -1      2759 4.52850E+01 7.90325E+00 0.00000E+00
 -1      2760 4.37850E+01 7.90325E+00 0.00000E+00
 -1      2761 4.30350E+01 9.20225E+00 0.00000E+00
 -1      2762 4.82850E+01 7.90325E+00 0.00000E+00
 -1      2763 4.67850E+01 7.90325E+00 0.00000E+00
 -1      2764 4.60350E+01 9.20225E+00 0.00000E+00
 -1      2765 5.12850E+01 7.90325E+00 0.00000E+00
 -1      2766 4.97850E+01 7.90325E+00 0.00000E+00
 -1      2767 4.90350E+01 9.20225E+00 0.00000E+00
 -1      2768 5.42850E+01 7.90325E+00 0.00000E+00
 -1      2769 5.27850E+01 7.90325E+00 0.00000E+00
 -1      2770 5.20350E+01 9.20225E+00 0.00000E+00
 -1      2771 5.72850E+01 7.90325E+00 0.00000E+00
 -1      2772 5.57850E+01 7.90325E+00 0.00000E+00
 -1      2773 5.50350E+01 9.20225E+00 0.00000E+00
 -1      2774 6.02850E+01 7.90325E+00 0.00000E+00
 -1      2775 5.87850E+01 7.90325E+00 0.00000E+00
 -1      2776 5.80350E+01 9.20225E+00 0.00000E+00
 -1      2777 6.32850E+01 7.90325E+00 0.00000E+00
 -1      2778 6.17850E+01 7.90325E+00 0.00000E+00
 -1      2779 6.10350E+01 9.20225E+00 0.00000E+00
 -1      2780 6.62850E+01 7.90325E+00 0.00000E+00
 -1      2781 6.47850E+01 7.90325E+00 0.00000E+00
 -1      2782 6.40350E+01 9.20225E+00 0.00000E+00
 -1      2783 6.92850E+01 7.90325E+00 0.00000E+00
 -1      2784 6.77850E+01 7.90325E+00 0.00000E+00
 -1      2785 6.70350E+01 9.20225E+00 0.00000E+00
 -1      2786 7.22850E+01 7.90325E+00 0.00000E+00
 -1      2787 7.07850E+01 7.90325E+00 0.00000E+00
 -1      2788 7.00350E+01 9.20225E+00 0.00000E+00
 -1      2789 7.52850E+01 7.90325E+00 0.00000E+00
 -1      2790 7.37850E+01 7.90325E+00 0.00000E+00
 -1      2791 7.30350E+01 9.20225E+00 0.00000E+00
 -1      2792 7.82850E+01 7.90325E+00 0.00000E+00
 -1      2793 7.67850E+01 7.90325E+00 0.00000E+00
 -1      2794 7.60350E+01 9.20225E+00 0.00000E+00
 -1      2795 8.12850E+01 7.90325E+00 0.00000E+00
 -1      2796 7.97850E+01 7.90325E+00 0.00000E+00
 -1      2797 7.90350E+01 9.20225E+00 0.00000E+00
 -1      2798 8.42850E+01 7.90325E+00 0.00000E+00
 -1      2799 8.27850E+01 7.90325E+00 0.00000E+00
 -1      2800 8.20350E+01 9.20225E+00 0.00000E+00
 -1      2801 8.72850E+01 7.90325E+00 0.00000E+00
 -1      2802 8.57850E+01 7.90325E+00 0.00000E+00
 -1      2803 8.50350E+01 9.20225E+00 0.00000E+00
 -1      2804 9.02850E+01 7.90325E+00 0.00000E+00
 -1      2805 8.87850E+01 7.90325E+00 0.00000E+00
 -1      2806 8.80350E+01 9.20225E+00 0.00000E+00
 -1      2807 9.32850E+01 7.90325E+00 0.00000E+00
 -1      2808 9.17850E+01 7.90325E+00 0.00000E+00
 -1      2809 9.10350E+01 9.20225E+00 0.00000E+00
 -1      2810 9.62850E+01 7.90325E+00 0.00000E+00
 -1      2811 9.47850E+01 7.90325E+00 0.00000E+00
 -1      2812 9.40350E+01 9.20225E+00 0.00000E+00
 -1      2813 9.92850E+01 7.90325E+00 0.00000E+00
 -1      2814 9.77850E+01 7.90325E+00 0.00000E+00
 -1      2815 9.70350E+01 9.20225E+00 0.00000E+00
 -1      2816 1.02285E+02 7.90325E+00 0.00000E+00
 -1      2817 1.00785E+02 7.90325E+00 0.00000E+00
 -1      2818 1.00035E+02 9.20225E+00 0.00000E+00
 -1      2819 1.05285E+02 7.90325E+00 0.00000E+00
 -1      2820 1.03785E+02 7.90325E+00 0.00000E+00
 -1      2821 1.03035E+02 9.20225E+00 0.00000E+00
 -1      2822 1.08285E+02 7.90325E+00 0.00000E+00
 -1      2823 1.06785E+02 7.90325E+00 0.00000E+00
 -1      2824 1.06035E+02 9.20225E+00 0.00000E+00
 -1      2825 1.11285E+02 7.90325E+00 0.00000E+00
 -1      2826 1.09785E+02 7.90325E+00 0.00000E+00
 -1      2827 1.09035E+02 9.20225E+00 0.00000E+00
 -1      2828 1.14285E+02 7.90325E+00 0.00000E+00
 -1      2829 1.12785E+02 7.90325E+00 0.00000E+00
 -1      2830 1.12035E+02 9.20225E+00 0.00000E+00
 -1      2831 1.17285E+02 7.90325E+00 0.00000E+00
 -1      2832 1.15785E+02 7.90325E+00 0.00000E+00
 -1      2833 1.15035E+02 9.20225E+00 0.00000E+00
 -1      2834 1.20285E+02 7.90325E+00 0.00000E+00
 -1      2835 1.18785E+02 7.90325E+00 0.00000E+00
 -1      2836 1.18035E+02 9.20225E+00 0.00000E+00
 -1      2837 1.23285E+02 7.90325E+00 0.00000E+00
 -1      2838 1.21785E+02 7.90325E+00 0.00000E+00
 -1      2839 1.21035E+02 9.20225E+00 0.00000E+00
 -1      2840 1.27027E+02 7.73665E+00 0.00000E+00
 -1      2841 1.25527E+02 7.73665E+00 0.00000E+00
 -1      2842 1.28527E+02 7.73665E+00 0.00000E+00
 -1      2843 1.31535E+02 6.33037E+00 0.00000E+00
 -1      2844 1.36180E+02 2.99127E+01 0.00000E+00
 -1      2845 1.34940E+02 2.97215E+01 0.00000E+00
 -1      2846 1.40535E+02 6.22407E+00 0.00000E+00
 -1      2847 1.43681E+02 6.45285E+00 0.00000E+00
 -1      2848 1.41835E+02 3.60750E+01 0.00000E+00
 -1      2849 1.41835E+02 3.45750E+01 0.00000E+00
 -1      2850 1.41835E+02 3.30750E+01 0.00000E+00
 -1      2851 1.41835E+02 3.15750E+01 0.00000E+00
 -1      2852 1.40536E+02 3.38250E+01 0.00000E+00
 -1      2853 1.42236E+02 3.93224E+01 0.00000E+00
 -1      2854 1.42236E+02 3.78224E+01 0.00000E+00
 -1      2855 1.40937E+02 3.70724E+01 0.00000E+00
 -1      2856 1.41740E+02 4.05671E+01 0.00000E+00
 -1      2857 1.43504E+02 2.62302E+01 0.00000E+00
 -1      2858 1.26094E+02 1.19430E+01 0.00000E+00
 -1      2859 1.26784E+02 1.09277E+01 0.00000E+00
 -1      2860 1.26330E+02 9.88436E+00 0.00000E+00
 -1      2861 1.24558E+02 1.71093E+01 0.00000E+00
 -1      2862 1.25118E+02 1.57923E+01 0.00000E+00
 -1      2863 1.39083E+02 2.93454E+01 0.00000E+00
 -1      2864 1.37872E+02 2.98085E+01 0.00000E+00
 -1      2865 1.25599E+02 2.25819E+01 0.00000E+00
 -1      2866 1.25106E+02 2.14857E+01 0.00000E+00
 -1      2867 1.25299E+02 1.45508E+01 0.00000E+00
 -1      2868 1.25479E+02 1.33093E+01 0.00000E+00
 -1      2869 1.24230E+02 1.48738E+01 0.00000E+00
 -1      2870 1.14000E+01 4.09070E+01 0.00000E+00
 -1      2871 1.29000E+01 4.09070E+01 0.00000E+00
 -1      2872 1.36500E+01 3.96080E+01 0.00000E+00
 -1      2873 1.24712E+02 2.01855E+01 0.00000E+00
 -1      2874 1.24348E+02 1.89784E+01 0.00000E+00
 -1      2875 9.09300E+00 1.68813E+01 0.00000E+00
 -1      2876 9.09300E+00 1.83563E+01 0.00000E+00
 -1      2877 1.03920E+01 1.90812E+01 0.00000E+00
 -1      2878 1.03920E+01 1.61437E+01 0.00000E+00
 -1      2879 1.31069E+02 2.83924E+01 0.00000E+00
 -1      2880 1.30032E+02 2.78039E+01 0.00000E+00
 -1      2881 1.33457E+02 2.95875E+01 0.00000E+00
 -1      2882 1.32258E+02 2.91323E+01 0.00000E+00
 -1      2883 9.09300E+00 3.15875E+01 0.00000E+00
 -1      2884 9.09300E+00 3.30625E+01 0.00000E+00
 -1      2885 1.42300E+02 2.94270E+01 0.00000E+00
 -1      2886 7.85850E+00 3.92077E+01 0.00000E+00
 -1      2887 1.40494E+02 4.05129E+01 0.00000E+00
 -1      2888 1.27178E+02 2.47824E+01 0.00000E+00
 -1      2889 1.26443E+02 2.37274E+01 0.00000E+00
 -1      2890 1.41001E+02 3.01770E+01 0.00000E+00
 -1      2891 1.28970E+02 2.79183E+01 0.00000E+00
 -1      2892 1.03920E+01 2.49750E+01 0.00000E+00
 -1      2893 9.09300E+00 2.57000E+01 0.00000E+00
 -1      2894 9.09300E+00 2.71750E+01 0.00000E+00
 -1      2895 1.05071E+01 7.27791E+00 0.00000E+00
 -1      2896 9.10425E+00 7.86356E+00 0.00000E+00
 -1      2897 9.10425E+00 9.33856E+00 0.00000E+00
 -1      2898 1.17247E+01 7.51569E+00 0.00000E+00
 -1      2899 1.25025E+02 1.22660E+01 0.00000E+00
 -1      2900 2.20350E+01 9.20225E+00 0.00000E+00
 -1      2901 1.24747E+01 8.81469E+00 0.00000E+00
 -1      2902 1.23119E+02 1.88596E+01 0.00000E+00
 -1      2903 1.23839E+02 1.79844E+01 0.00000E+00
 -1      2904 1.23329E+02 1.69904E+01 0.00000E+00
 -1      2905 1.39744E+02 3.92139E+01 0.00000E+00
 -1      2906 1.42664E+02 7.11006E+00 0.00000E+00
 -1      2907 1.24777E+02 9.03565E+00 0.00000E+00
 -1      2908 1.30580E+02 7.18120E+00 0.00000E+00
 -1      2909 1.29626E+02 8.03203E+00 0.00000E+00
 -1      2910 1.37122E+02 3.05604E+01 0.00000E+00
 -1      2911 1.36371E+02 3.13123E+01 0.00000E+00
 -1      2912 1.38063E+02 3.12081E+01 0.00000E+00
 -1      2913 1.33947E+02 3.05307E+01 0.00000E+00
 -1      2914 1.25262E+02 2.35994E+01 0.00000E+00
 -1      2915 1.04032E+01 1.00761E+01 0.00000E+00
 -1      2916 1.26980E+02 2.58323E+01 0.00000E+00
 -1      2917 9.09300E+00 3.45313E+01 0.00000E+00
 -1      2918 9.09300E+00 3.60000E+01 0.00000E+00
 -1      2919 1.03920E+01 3.37938E+01 0.00000E+00
 -1      2920 9.09300E+00 2.86437E+01 0.00000E+00
 -1      2921 9.09300E+00 3.01187E+01 0.00000E+00
 -1      2922 1.03920E+01 3.08563E+01 0.00000E+00
 -1      2923 1.03920E+01 2.79188E+01 0.00000E+00
 -1      2924 1.24023E+02 2.11538E+01 0.00000E+00
 -1      2925 1.31275E+02 2.96567E+01 0.00000E+00
 -1      2926 1.41485E+02 6.69889E+00 0.00000E+00
 -1      2927 1.39944E+02 3.02798E+01 0.00000E+00
 -1      2928 9.15750E+00 3.77359E+01 0.00000E+00
 -1      2929 9.22200E+00 4.02061E+01 0.00000E+00
 -1      2930 1.05855E+01 4.04701E+01 0.00000E+00
 -1      2931 1.04565E+01 3.69984E+01 0.00000E+00
 -1      2932 1.13355E+01 3.91711E+01 0.00000E+00
 -1      2933 1.26683E+02 2.69656E+01 0.00000E+00
 -1      2934 1.25810E+02 2.58781E+01 0.00000E+00
 -1      2935 1.16910E+01 1.24625E+01 0.00000E+00
 -1      2936 1.16910E+01 1.39375E+01 0.00000E+00
 -1      2937 2.87850E+01 1.05013E+01 0.00000E+00
 -1      2938 2.72850E+01 1.05013E+01 0.00000E+00
 -1      2939 1.59000E+01 3.83090E+01 0.00000E+00
 -1      2940 1.74000E+01 3.83090E+01 0.00000E+00
 -1      2941 1.97850E+01 1.05013E+01 0.00000E+00
 -1      2942 1.82850E+01 1.05013E+01 0.00000E+00
 -1      2943 1.89000E+01 3.83090E+01 0.00000E+00
 -1      2944 2.04000E+01 3.83090E+01 0.00000E+00
 -1      2945 1.81500E+01 3.70100E+01 0.00000E+00
 -1      2946 2.19000E+01 3.83090E+01 0.00000E+00
 -1      2947 2.34000E+01 3.83090E+01 0.00000E+00
 -1      2948 2.11500E+01 3.70100E+01 0.00000E+00
 -1      2949 2.49000E+01 3.83090E+01 0.00000E+00
 -1      2950 2.64000E+01 3.83090E+01 0.00000E+00
 -1      2951 2.41500E+01 3.70100E+01 0.00000E+00
 -1      2952 2.79000E+01 3.83090E+01 0.00000E+00
 -1      2953 2.94000E+01 3.83090E+01 0.00000E+00
 -1      2954 2.71500E+01 3.70100E+01 0.00000E+00
 -1      2955 3.09000E+01 3.83090E+01 0.00000E+00
 -1      2956 3.24000E+01 3.83090E+01 0.00000E+00
 -1      2957 3.01500E+01 3.70100E+01 0.00000E+00
 -1      2958 3.39000E+01 3.83090E+01 0.00000E+00
 -1      2959 3.54000E+01 3.83090E+01 0.00000E+00
 -1      2960 3.31500E+01 3.70100E+01 0.00000E+00
 -1      2961 3.69000E+01 3.83090E+01 0.00000E+00
 -1      2962 3.84000E+01 3.83090E+01 0.00000E+00
 -1      2963 3.61500E+01 3.70100E+01 0.00000E+00
 -1      2964 3.99000E+01 3.83090E+01 0.00000E+00
 -1      2965 4.14000E+01 3.83090E+01 0.00000E+00
 -1      2966 3.91500E+01 3.70100E+01 0.00000E+00
 -1      2967 4.29000E+01 3.83090E+01 0.00000E+00
 -1      2968 4.44000E+01 3.83090E+01 0.00000E+00
 -1      2969 4.21500E+01 3.70100E+01 0.00000E+00
 -1      2970 4.59000E+01 3.83090E+01 0.00000E+00
 -1      2971 4.74000E+01 3.83090E+01 0.00000E+00
 -1      2972 4.51500E+01 3.70100E+01 0.00000E+00
 -1      2973 4.89000E+01 3.83090E+01 0.00000E+00
 -1      2974 5.04000E+01 3.83090E+01 0.00000E+00
 -1      2975 4.81500E+01 3.70100E+01 0.00000E+00
 -1      2976 5.19000E+01 3.83090E+01 0.00000E+00
 -1      2977 5.34000E+01 3.83090E+01 0.00000E+00
 -1      2978 5.11500E+01 3.70100E+01 0.00000E+00
 -1      2979 5.49000E+01 3.83090E+01 0.00000E+00
 -1      2980 5.64000E+01 3.83090E+01 0.00000E+00
 -1      2981 5.41500E+01 3.70100E+01 0.00000E+00
 -1      2982 5.79000E+01 3.83090E+01 0.00000E+00
 -1      2983 5.94000E+01 3.83090E+01 0.00000E+00
 -1      2984 5.71500E+01 3.70100E+01 0.00000E+00
 -1      2985 6.09000E+01 3.83090E+01 0.00000E+00
 -1      2986 6.24000E+01 3.83090E+01 0.00000E+00
 -1      2987 6.01500E+01 3.70100E+01 0.00000E+00
 -1      2988 6.39000E+01 3.83090E+01 0.00000E+00
 -1      2989 6.54000E+01 3.83090E+01 0.00000E+00
 -1      2990 6.31500E+01 3.70100E+01 0.00000E+00
 -1      2991 6.69000E+01 3.83090E+01 0.00000E+00
 -1      2992 6.84000E+01 3.83090E+01 0.00000E+00
 -1      2993 6.61500E+01 3.70100E+01 0.00000E+00
 -1      2994 6.99000E+01 3.83090E+01 0.00000E+00
 -1      2995 7.14000E+01 3.83090E+01 0.00000E+00
 -1      2996 6.91500E+01 3.70100E+01 0.00000E+00
 -1      2997 7.29000E+01 3.83090E+01 0.00000E+00
 -1      2998 7.44000E+01 3.83090E+01 0.00000E+00
 -1      2999 7.21500E+01 3.70100E+01 0.00000E+00
 -1      3000 7.59000E+01 3.83090E+01 0.00000E+00
 -1      3001 7.74000E+01 3.83090E+01 0.00000E+00
 -1      3002 7.51500E+01 3.70100E+01 0.00000E+00
 -1      3003 7.89000E+01 3.83090E+01 0.00000E+00
 -1      3004 8.04000E+01 3.83090E+01 0.00000E+00
 -1      3005 7.81500E+01 3.70100E+01 0.00000E+00
 -1      3006 8.19000E+01 3.83090E+01 0.00000E+00
 -1      3007 8.34000E+01 3.83090E+01 0.00000E+00
 -1      3008 8.11500E+01 3.70100E+01 0.00000E+00
 -1      3009 8.49000E+01 3.83090E+01 0.00000E+00
 -1      3010 8.64000E+01 3.83090E+01 0.00000E+00
 -1      3011 8.41500E+01 3.70100E+01 0.00000E+00
 -1      3012 8.79000E+01 3.83090E+01 0.00000E+00
 -1      3013 8.94000E+01 3.83090E+01 0.00000E+00
 -1      3014 8.71500E+01 3.70100E+01 0.00000E+00
 -1      3015 9.09000E+01 3.83090E+01 0.00000E+00
 -1      3016 9.24000E+01 3.83090E+01 0.00000E+00
 -1      3017 9.01500E+01 3.70100E+01 0.00000E+00
 -1      3018 9.39000E+01 3.83090E+01 0.00000E+00
 -1      3019 9.54000E+01 3.83090E+01 0.00000E+00
 -1      3020 9.31500E+01 3.70100E+01 0.00000E+00
 -1      3021 9.69000E+01 3.83090E+01 0.00000E+00
 -1      3022 9.84000E+01 3.83090E+01 0.00000E+00
 -1      3023 9.61500E+01 3.70100E+01 0.00000E+00
 -1      3024 9.99000E+01 3.83090E+01 0.00000E+00
 -1      3025 1.01400E+02 3.83090E+01 0.00000E+00
 -1      3026 9.91500E+01 3.70100E+01 0.00000E+00
 -1      3027 1.02900E+02 3.83090E+01 0.00000E+00
 -1      3028 1.04400E+02 3.83090E+01 0.00000E+00
 -1      3029 1.02150E+02 3.70100E+01 0.00000E+00
 -1      3030 1.05900E+02 3.83090E+01 0.00000E+00
 -1      3031 1.07400E+02 3.83090E+01 0.00000E+00
 -1      3032 1.05150E+02 3.70100E+01 0.00000E+00
 -1      3033 1.08900E+02 3.83090E+01 0.00000E+00
 -1      3034 1.10400E+02 3.83090E+01 0.00000E+00
 -1      3035 1.08150E+02 3.70100E+01 0.00000E+00
 -1      3036 1.11900E+02 3.83090E+01 0.00000E+00
 -1      3037 1.13400E+02 3.83090E+01 0.00000E+00
 -1      3038 1.11150E+02 3.70100E+01 0.00000E+00
 -1      3039 1.14900E+02 3.83090E+01 0.00000E+00
 -1      3040 1.16400E+02 3.83090E+01 0.00000E+00
 -1      3041 1.14150E+02 3.70100E+01 0.00000E+00
 -1      3042 1.17900E+02 3.83090E+01 0.00000E+00
 -1      3043 1.19400E+02 3.83090E+01 0.00000E+00
 -1      3044 1.17150E+02 3.70100E+01 0.00000E+00
 -1      3045 1.20900E+02 3.83090E+01 0.00000E+00
 -1      3046 1.22400E+02 3.83090E+01 0.00000E+00
 -1      3047 1.20150E+02 3.70100E+01 0.00000E+00
 -1      3048 1.23900E+02 3.83090E+01 0.00000E+00
 -1      3049 1.25400E+02 3.83090E+01 0.00000E+00
 -1      3050 1.23150E+02 3.70100E+01 0.00000E+00
 -1      3051 1.26900E+02 3.83090E+01 0.00000E+00
 -1      3052 1.28400E+02 3.83090E+01 0.00000E+00
 -1      3053 1.26150E+02 3.70100E+01 0.00000E+00
 -1      3054 1.29900E+02 3.83090E+01 0.00000E+00
 -1      3055 1.31400E+02 3.83090E+01 0.00000E+00
 -1      3056 1.29150E+02 3.70100E+01 0.00000E+00
 -1      3057 1.32900E+02 3.83090E+01 0.00000E+00
 -1      3058 1.34400E+02 3.83090E+01 0.00000E+00
 -1      3059 1.32150E+02 3.70100E+01 0.00000E+00
 -1      3060 1.35900E+02 3.83090E+01 0.00000E+00
 -1      3061 1.37400E+02 3.83090E+01 0.00000E+00
 -1      3062 1.35150E+02 3.70100E+01 0.00000E+00
 -1      3063 1.24635E+01 1.04636E+01 0.00000E+00
 -1      3064 1.23783E+02 1.25283E+01 0.00000E+00
 -1      3065 1.24398E+02 1.11620E+01 0.00000E+00
 -1      3066 3.17850E+01 1.05013E+01 0.00000E+00
 -1      3067 3.02850E+01 1.05013E+01 0.00000E+00
 -1      3068 2.95350E+01 1.18003E+01 0.00000E+00
 -1      3069 3.47850E+01 1.05013E+01 0.00000E+00
 -1      3070 3.32850E+01 1.05013E+01 0.00000E+00
 -1      3071 3.25350E+01 1.18003E+01 0.00000E+00
 -1      3072 3.77850E+01 1.05013E+01 0.00000E+00
 -1      3073 3.62850E+01 1.05013E+01 0.00000E+00
 -1      3074 3.55350E+01 1.18003E+01 0.00000E+00
 -1      3075 4.07850E+01 1.05013E+01 0.00000E+00
 -1      3076 3.92850E+01 1.05013E+01 0.00000E+00
 -1      3077 3.85350E+01 1.18003E+01 0.00000E+00
 -1      3078 4.37850E+01 1.05013E+01 0.00000E+00
 -1      3079 4.22850E+01 1.05013E+01 0.00000E+00
 -1      3080 4.15350E+01 1.18003E+01 0.00000E+00
 -1      3081 4.67850E+01 1.05013E+01 0.00000E+00
 -1      3082 4.52850E+01 1.05013E+01 0.00000E+00
 -1      3083 4.45350E+01 1.18003E+01 0.00000E+00
 -1      3084 4.97850E+01 1.05013E+01 0.00000E+00
 -1      3085 4.82850E+01 1.05013E+01 0.00000E+00
 -1      3086 4.75350E+01 1.18003E+01 0.00000E+00
 -1      3087 5.27850E+01 1.05013E+01 0.00000E+00
 -1      3088 5.12850E+01 1.05013E+01 0.00000E+00
 -1      3089 5.05350E+01 1.18003E+01 0.00000E+00
 -1      3090 5.57850E+01 1.05013E+01 0.00000E+00
 -1      3091 5.42850E+01 1.05013E+01 0.00000E+00
 -1      3092 5.35350E+01 1.18003E+01 0.00000E+00
 -1      3093 5.87850E+01 1.05013E+01 0.00000E+00
 -1      3094 5.72850E+01 1.05013E+01 0.00000E+00
 -1      3095 5.65350E+01 1.18003E+01 0.00000E+00
 -1      3096 6.17850E+01 1.05013E+01 0.00000E+00
 -1      3097 6.02850E+01 1.05013E+01 0.00000E+00
 -1      3098 5.95350E+01 1.18003E+01 0.00000E+00
 -1      3099 6.47850E+01 1.05013E+01 0.00000E+00
 -1      3100 6.32850E+01 1.05013E+01 0.00000E+00
 -1      3101 6.25350E+01 1.18003E+01 0.00000E+00
 -1      3102 6.77850E+01 1.05013E+01 0.00000E+00
 -1      3103 6.62850E+01 1.05013E+01 0.00000E+00
 -1      3104 6.55350E+01 1.18003E+01 0.00000E+00
 -1      3105 7.07850E+01 1.05013E+01 0.00000E+00
 -1      3106 6.92850E+01 1.05013E+01 0.00000E+00
 -1      3107 6.85350E+01 1.18003E+01 0.00000E+00
 -1      3108 7.37850E+01 1.05013E+01 0.00000E+00
 -1      3109 7.22850E+01 1.05013E+01 0.00000E+00
 -1      3110 7.15350E+01 1.18003E+01 0.00000E+00
 -1      3111 7.67850E+01 1.05013E+01 0.00000E+00
 -1      3112 7.52850E+01 1.05013E+01 0.00000E+00
 -1      3113 7.45350E+01 1.18003E+01 0.00000E+00
 -1      3114 7.97850E+01 1.05013E+01 0.00000E+00
 -1      3115 7.82850E+01 1.05013E+01 0.00000E+00
 -1      3116 7.75350E+01 1.18003E+01 0.00000E+00
 -1      3117 8.27850E+01 1.05013E+01 0.00000E+00
 -1      3118 8.12850E+01 1.05013E+01 0.00000E+00
 -1      3119 8.05350E+01 1.18003E+01 0.00000E+00
 -1      3120 8.57850E+01 1.05013E+01 0.00000E+00
 -1      3121 8.42850E+01 1.05013E+01 0.00000E+00
 -1      3122 8.35350E+01 1.18003E+01 0.00000E+00
 -1      3123 8.87850E+01 1.05013E+01 0.00000E+00
 -1      3124 8.72850E+01 1.05013E+01 0.00000E+00
 -1      3125 8.65350E+01 1.18003E+01 0.00000E+00
 -1      3126 9.17850E+01 1.05013E+01 0.00000E+00
 -1      3127 9.02850E+01 1.05013E+01 0.00000E+00
 -1      3128 8.95350E+01 1.18003E+01 0.00000E+00
 -1      3129 9.47850E+01 1.05013E+01 0.00000E+00
 -1      3130 9.32850E+01 1.05013E+01 0.00000E+00
 -1      3131 9.25350E+01 1.18003E+01 0.00000E+00
 -1      3132 9.77850E+01 1.05013E+01 0.00000E+00
 -1      3133 9.62850E+01 1.05013E+01 0.00000E+00
 -1      3134 9.55350E+01 1.18003E+01 0.00000E+00
 -1      3135 1.00785E+02 1.05013E+01 0.00000E+00
 -1      3136 9.92850E+01 1.05013E+01 0.00000E+00
 -1      3137 9.85350E+01 1.18003E+01 0.00000E+00
 -1      3138 1.03785E+02 1.05013E+01 0.00000E+00
 -1      3139 1.02285E+02 1.05013E+01 0.00000E+00
 -1      3140 1.01535E+02 1.18003E+01 0.00000E+00
 -1      3141 1.06785E+02 1.05013E+01 0.00000E+00
 -1      3142 1.05285E+02 1.05013E+01 0.00000E+00
 -1      3143 1.04535E+02 1.18003E+01 0.00000E+00
 -1      3144 1.09785E+02 1.05013E+01 0.00000E+00
 -1      3145 1.08285E+02 1.05013E+01 0.00000E+00
 -1      3146 1.07535E+02 1.18003E+01 0.00000E+00
 -1      3147 1.12785E+02 1.05013E+01 0.00000E+00
 -1      3148 1.11285E+02 1.05013E+01 0.00000E+00
 -1      3149 1.10535E+02 1.18003E+01 0.00000E+00
 -1      3150 1.15785E+02 1.05013E+01 0.00000E+00
 -1      3151 1.14285E+02 1.05013E+01 0.00000E+00
 -1      3152 1.13535E+02 1.18003E+01 0.00000E+00
 -1      3153 1.18785E+02 1.05013E+01 0.00000E+00
 -1      3154 1.17285E+02 1.05013E+01 0.00000E+00
 -1      3155 1.16535E+02 1.18003E+01 0.00000E+00
 -1      3156 2.57850E+01 1.05013E+01 0.00000E+00
 -1      3157 2.42850E+01 1.05013E+01 0.00000E+00
 -1      3158 2.65350E+01 1.18003E+01 0.00000E+00
 -1      3159 1.39343E+02 3.45750E+01 0.00000E+00
 -1      3160 1.39343E+02 3.30750E+01 0.00000E+00
 -1      3161 1.28900E+02 2.91190E+01 0.00000E+00
 -1      3162 1.27784E+02 2.81205E+01 0.00000E+00
 -1      3163 2.27850E+01 1.05013E+01 0.00000E+00
 -1      3164 2.12850E+01 1.05013E+01 0.00000E+00
 -1      3165 2.05350E+01 1.18003E+01 0.00000E+00
 -1      3166 2.35350E+01 1.18003E+01 0.00000E+00
 -1      3167 1.39343E+02 3.74665E+01 0.00000E+00
 -1      3168 1.34596E+02 3.16186E+01 0.00000E+00
 -1      3169 1.33113E+02 3.14846E+01 0.00000E+00
 -1      3170 1.29000E+01 3.83090E+01 0.00000E+00
 -1      3171 1.44000E+01 3.83090E+01 0.00000E+00
 -1      3172 1.51500E+01 3.70100E+01 0.00000E+00
 -1      3173 1.23291E+02 1.53710E+01 0.00000E+00
 -1      3174 1.23471E+02 1.41295E+01 0.00000E+00
 -1      3175 1.67850E+01 1.05013E+01 0.00000E+00
 -1      3176 1.52850E+01 1.05013E+01 0.00000E+00
 -1      3177 1.75350E+01 1.18003E+01 0.00000E+00
 -1      3178 1.16910E+01 2.12875E+01 0.00000E+00
 -1      3179 1.16910E+01 2.27625E+01 0.00000E+00
 -1      3180 1.31328E+02 3.08971E+01 0.00000E+00
 -1      3181 1.30139E+02 3.01572E+01 0.00000E+00
 -1      3182 1.24927E+02 2.47308E+01 0.00000E+00
 -1      3183 1.24082E+02 2.35853E+01 0.00000E+00
 -1      3184 1.12710E+01 3.74352E+01 0.00000E+00
 -1      3185 1.20855E+01 3.78721E+01 0.00000E+00
 -1      3186 1.12065E+01 3.56994E+01 0.00000E+00
 -1      3187 1.23159E+02 2.21257E+01 0.00000E+00
 -1      3188 1.22765E+02 2.08255E+01 0.00000E+00
 -1      3189 1.37625E+01 1.12011E+01 0.00000E+00
 -1      3190 1.38593E+02 3.61675E+01 0.00000E+00
 -1      3191 1.16910E+01 2.42375E+01 0.00000E+00
 -1      3192 1.16910E+01 2.57125E+01 0.00000E+00
 -1      3193 1.29900E+01 2.35000E+01 0.00000E+00
 -1      3194 1.29900E+01 1.46687E+01 0.00000E+00
 -1      3195 1.16910E+01 1.54063E+01 0.00000E+00
 -1      3196 1.16910E+01 1.68750E+01 0.00000E+00
 -1      3197 1.21852E+02 1.71213E+01 0.00000E+00
 -1      3198 1.22571E+02 1.62462E+01 0.00000E+00
 -1      3199 1.21813E+02 1.55019E+01 0.00000E+00
 -1      3200 1.37732E+02 3.28925E+01 0.00000E+00
 -1      3201 1.38924E+02 3.21425E+01 0.00000E+00
 -1      3202 1.22255E+02 1.98315E+01 0.00000E+00
 -1      3203 1.21746E+02 1.88375E+01 0.00000E+00
 -1      3204 1.21391E+02 2.08035E+01 0.00000E+00
 -1      3205 1.22844E+02 1.30256E+01 0.00000E+00
 -1      3206 1.21345E+02 1.03133E+01 0.00000E+00
 -1      3207 1.20595E+02 1.16123E+01 0.00000E+00
 -1      3208 1.22845E+02 1.03133E+01 0.00000E+00
 -1      3209 1.37400E+02 3.54175E+01 0.00000E+00
 -1      3210 1.26613E+02 2.81663E+01 0.00000E+00
 -1      3211 1.24088E+02 1.00510E+01 0.00000E+00
 -1      3212 1.12065E+01 3.27619E+01 0.00000E+00
 -1      3213 1.12065E+01 3.42306E+01 0.00000E+00
 -1      3214 1.20210E+01 3.46675E+01 0.00000E+00
 -1      3215 1.35537E+02 3.22663E+01 0.00000E+00
 -1      3216 1.31977E+02 3.19851E+01 0.00000E+00
 -1      3217 1.30841E+02 3.24855E+01 0.00000E+00
 -1      3218 1.32626E+02 3.30730E+01 0.00000E+00
 -1      3219 1.24630E+02 2.58641E+01 0.00000E+00
 -1      3220 1.12065E+01 3.12931E+01 0.00000E+00
 -1      3221 1.20210E+01 3.17300E+01 0.00000E+00
 -1      3222 1.12065E+01 2.98244E+01 0.00000E+00
 -1      3223 1.45125E+01 1.25001E+01 0.00000E+00
 -1      3224 1.16910E+01 1.98188E+01 0.00000E+00
 -1      3225 1.29900E+01 2.05562E+01 0.00000E+00
 -1      3226 1.16910E+01 1.83500E+01 0.00000E+00
 -1      3227 1.28953E+02 3.03594E+01 0.00000E+00
 -1      3228 1.28355E+01 3.65731E+01 0.00000E+00
 -1      3229 1.22824E+02 2.32571E+01 0.00000E+00
 -1      3230 1.36678E+02 3.43081E+01 0.00000E+00
 -1      3231 1.36259E+02 3.33756E+01 0.00000E+00
 -1      3232 1.34484E+02 3.36819E+01 0.00000E+00
 -1      3233 1.35928E+02 3.59006E+01 0.00000E+00
 -1      3234 2.04000E+01 3.57110E+01 0.00000E+00
 -1      3235 2.19000E+01 3.57110E+01 0.00000E+00
 -1      3236 2.34000E+01 3.57110E+01 0.00000E+00
 -1      3237 2.49000E+01 3.57110E+01 0.00000E+00
 -1      3238 2.26500E+01 3.44120E+01 0.00000E+00
 -1      3239 2.64000E+01 3.57110E+01 0.00000E+00
 -1      3240 2.79000E+01 3.57110E+01 0.00000E+00
 -1      3241 2.56500E+01 3.44120E+01 0.00000E+00
 -1      3242 2.94000E+01 3.57110E+01 0.00000E+00
 -1      3243 3.09000E+01 3.57110E+01 0.00000E+00
 -1      3244 2.86500E+01 3.44120E+01 0.00000E+00
 -1      3245 3.24000E+01 3.57110E+01 0.00000E+00
 -1      3246 3.39000E+01 3.57110E+01 0.00000E+00
 -1      3247 3.16500E+01 3.44120E+01 0.00000E+00
 -1      3248 3.54000E+01 3.57110E+01 0.00000E+00
 -1      3249 3.69000E+01 3.57110E+01 0.00000E+00
 -1      3250 3.46500E+01 3.44120E+01 0.00000E+00
 -1      3251 3.84000E+01 3.57110E+01 0.00000E+00
 -1      3252 3.99000E+01 3.57110E+01 0.00000E+00
 -1      3253 3.76500E+01 3.44120E+01 0.00000E+00
 -1      3254 4.14000E+01 3.57110E+01 0.00000E+00
 -1      3255 4.29000E+01 3.57110E+01 0.00000E+00
 -1      3256 4.06500E+01 3.44120E+01 0.00000E+00
 -1      3257 4.44000E+01 3.57110E+01 0.00000E+00
 -1      3258 4.59000E+01 3.57110E+01 0.00000E+00
 -1      3259 4.36500E+01 3.44120E+01 0.00000E+00
 -1      3260 4.74000E+01 3.57110E+01 0.00000E+00
 -1      3261 4.89000E+01 3.57110E+01 0.00000E+00
 -1      3262 4.66500E+01 3.44120E+01 0.00000E+00
 -1      3263 5.04000E+01 3.57110E+01 0.00000E+00
 -1      3264 5.19000E+01 3.57110E+01 0.00000E+00
 -1      3265 4.96500E+01 3.44120E+01 0.00000E+00
 -1      3266 5.34000E+01 3.57110E+01 0.00000E+00
 -1      3267 5.49000E+01 3.57110E+01 0.00000E+00
 -1      3268 5.26500E+01 3.44120E+01 0.00000E+00
 -1      3269 5.64000E+01 3.57110E+01 0.00000E+00
 -1      3270 5.79000E+01 3.57110E+01 0.00000E+00
 -1      3271 5.56500E+01 3.44120E+01 0.00000E+00
 -1      3272 5.94000E+01 3.57110E+01 0.00000E+00
 -1      3273 6.09000E+01 3.57110E+01 0.00000E+00
 -1      3274 5.86500E+01 3.44120E+01 0.00000E+00
 -1      3275 6.24000E+01 3.57110E+01 0.00000E+00
 -1      3276 6.39000E+01 3.57110E+01 0.00000E+00
 -1      3277 6.16500E+01 3.44120E+01 0.00000E+00
 -1      3278 6.54000E+01 3.57110E+01 0.00000E+00
 -1      3279 6.69000E+01 3.57110E+01 0.00000E+00
 -1      3280 6.46500E+01 3.44120E+01 0.00000E+00
 -1      3281 6.84000E+01 3.57110E+01 0.00000E+00
 -1      3282 6.99000E+01 3.57110E+01 0.00000E+00
 -1      3283 6.76500E+01 3.44120E+01 0.00000E+00
 -1      3284 7.14000E+01 3.57110E+01 0.00000E+00
 -1      3285 7.29000E+01 3.57110E+01 0.00000E+00
 -1      3286 7.06500E+01 3.44120E+01 0.00000E+00
 -1      3287 7.44000E+01 3.57110E+01 0.00000E+00
 -1      3288 7.59000E+01 3.57110E+01 0.00000E+00
 -1      3289 7.36500E+01 3.44120E+01 0.00000E+00
 -1      3290 7.74000E+01 3.57110E+01 0.00000E+00
 -1      3291 7.89000E+01 3.57110E+01 0.00000E+00
 -1      3292 7.66500E+01 3.44120E+01 0.00000E+00
 -1      3293 8.04000E+01 3.57110E+01 0.00000E+00
 -1      3294 8.19000E+01 3.57110E+01 0.00000E+00
 -1      3295 7.96500E+01 3.44120E+01 0.00000E+00
 -1      3296 8.34000E+01 3.57110E+01 0.00000E+00
 -1      3297 8.49000E+01 3.57110E+01 0.00000E+00
 -1      3298 8.26500E+01 3.44120E+01 0.00000E+00
 -1      3299 8.64000E+01 3.57110E+01 0.00000E+00
 -1      3300 8.79000E+01 3.57110E+01 0.00000E+00
 -1      3301 8.56500E+01 3.44120E+01 0.00000E+00
 -1      3302 8.94000E+01 3.57110E+01 0.00000E+00
 -1      3303 9.09000E+01 3.57110E+01 0.00000E+00
 -1      3304 8.86500E+01 3.44120E+01 0.00000E+00
 -1      3305 9.24000E+01 3.57110E+01 0.00000E+00
 -1      3306 9.39000E+01 3.57110E+01 0.00000E+00
 -1      3307 9.16500E+01 3.44120E+01 0.00000E+00
 -1      3308 9.54000E+01 3.57110E+01 0.00000E+00
 -1      3309 9.69000E+01 3.57110E+01 0.00000E+00
 -1      3310 9.46500E+01 3.44120E+01 0.00000E+00
 -1      3311 9.84000E+01 3.57110E+01 0.00000E+00
 -1      3312 9.99000E+01 3.57110E+01 0.00000E+00
 -1      3313 9.76500E+01 3.44120E+01 0.00000E+00
 -1      3314 1.01400E+02 3.57110E+01 0.00000E+00
 -1      3315 1.02900E+02 3.57110E+01 0.00000E+00
 -1      3316 1.00650E+02 3.44120E+01 0.00000E+00
 -1      3317 1.04400E+02 3.57110E+01 0.00000E+00
 -1      3318 1.05900E+02 3.57110E+01 0.00000E+00
 -1      3319 1.03650E+02 3.44120E+01 0.00000E+00
 -1      3320 1.07400E+02 3.57110E+01 0.00000E+00
 -1      3321 1.08900E+02 3.57110E+01 0.00000E+00
 -1      3322 1.06650E+02 3.44120E+01 0.00000E+00
 -1      3323 1.10400E+02 3.57110E+01 0.00000E+00
 -1      3324 1.11900E+02 3.57110E+01 0.00000E+00
 -1      3325 1.09650E+02 3.44120E+01 0.00000E+00
 -1      3326 1.13400E+02 3.57110E+01 0.00000E+00
 -1      3327 1.14900E+02 3.57110E+01 0.00000E+00
 -1      3328 1.12650E+02 3.44120E+01 0.00000E+00
 -1      3329 1.16400E+02 3.57110E+01 0.00000E+00
 -1      3330 1.17900E+02 3.57110E+01 0.00000E+00
 -1      3331 1.15650E+02 3.44120E+01 0.00000E+00
 -1      3332 1.19400E+02 3.57110E+01 0.00000E+00
 -1      3333 1.20900E+02 3.57110E+01 0.00000E+00
 -1      3334 1.18650E+02 3.44120E+01 0.00000E+00
 -1      3335 1.22400E+02 3.57110E+01 0.00000E+00
 -1      3336 1.23900E+02 3.57110E+01 0.00000E+00
 -1      3337 1.21650E+02 3.44120E+01 0.00000E+00
 -1      3338 1.25400E+02 3.57110E+01 0.00000E+00
 -1      3339 1.26900E+02 3.57110E+01 0.00000E+00
 -1      3340 1.24650E+02 3.44120E+01 0.00000E+00
 -1      3341 1.31070E+02 3.52917E+01 0.00000E+00
 -1      3342 1.32570E+02 3.52917E+01 0.00000E+00
 -1      3343 1.34428E+02 3.59006E+01 0.00000E+00
 -1      3344 3.62850E+01 1.30992E+01 0.00000E+00
 -1      3345 3.47850E+01 1.30992E+01 0.00000E+00
 -1      3346 3.02850E+01 1.30992E+01 0.00000E+00
 -1      3347 2.87850E+01 1.30992E+01 0.00000E+00
 -1      3348 3.92850E+01 1.30992E+01 0.00000E+00
 -1      3349 3.77850E+01 1.30992E+01 0.00000E+00
 -1      3350 3.70350E+01 1.43982E+01 0.00000E+00
 -1      3351 4.22850E+01 1.30992E+01 0.00000E+00
 -1      3352 4.07850E+01 1.30992E+01 0.00000E+00
 -1      3353 4.00350E+01 1.43982E+01 0.00000E+00
 -1      3354 4.52850E+01 1.30992E+01 0.00000E+00
 -1      3355 4.37850E+01 1.30992E+01 0.00000E+00
 -1      3356 4.30350E+01 1.43982E+01 0.00000E+00
 -1      3357 4.82850E+01 1.30992E+01 0.00000E+00
 -1      3358 4.67850E+01 1.30992E+01 0.00000E+00
 -1      3359 4.60350E+01 1.43982E+01 0.00000E+00
 -1      3360 5.12850E+01 1.30992E+01 0.00000E+00
 -1      3361 4.97850E+01 1.30992E+01 0.00000E+00
 -1      3362 4.90350E+01 1.43982E+01 0.00000E+00
 -1      3363 5.42850E+01 1.30992E+01 0.00000E+00
 -1      3364 5.27850E+01 1.30992E+01 0.00000E+00
 -1      3365 5.20350E+01 1.43982E+01 0.00000E+00
 -1      3366 5.72850E+01 1.30992E+01 0.00000E+00
 -1      3367 5.57850E+01 1.30992E+01 0.00000E+00
 -1      3368 5.50350E+01 1.43982E+01 0.00000E+00
 -1      3369 6.02850E+01 1.30992E+01 0.00000E+00
 -1      3370 5.87850E+01 1.30992E+01 0.00000E+00
 -1      3371 5.80350E+01 1.43982E+01 0.00000E+00
 -1      3372 6.32850E+01 1.30992E+01 0.00000E+00
 -1      3373 6.17850E+01 1.30992E+01 0.00000E+00
 -1      3374 6.10350E+01 1.43982E+01 0.00000E+00
 -1      3375 6.62850E+01 1.30992E+01 0.00000E+00
 -1      3376 6.47850E+01 1.30992E+01 0.00000E+00
 -1      3377 6.40350E+01 1.43982E+01 0.00000E+00
 -1      3378 6.92850E+01 1.30992E+01 0.00000E+00
 -1      3379 6.77850E+01 1.30992E+01 0.00000E+00
 -1      3380 6.70350E+01 1.43982E+01 0.00000E+00
 -1      3381 7.22850E+01 1.30992E+01 0.00000E+00
 -1      3382 7.07850E+01 1.30992E+01 0.00000E+00
 -1      3383 7.00350E+01 1.43982E+01 0.00000E+00
 -1      3384 7.52850E+01 1.30992E+01 0.00000E+00
 -1      3385 7.37850E+01 1.30992E+01 0.00000E+00
 -1      3386 7.30350E+01 1.43982E+01 0.00000E+00
 -1      3387 7.82850E+01 1.30992E+01 0.00000E+00
 -1      3388 7.67850E+01 1.30992E+01 0.00000E+00
 -1      3389 7.60350E+01 1.43982E+01 0.00000E+00
 -1      3390 8.12850E+01 1.30992E+01 0.00000E+00
 -1      3391 7.97850E+01 1.30992E+01 0.00000E+00
 -1      3392 7.90350E+01 1.43982E+01 0.00000E+00
 -1      3393 8.42850E+01 1.30992E+01 0.00000E+00
 -1      3394 8.27850E+01 1.30992E+01 0.00000E+00
 -1      3395 8.20350E+01 1.43982E+01 0.00000E+00
 -1      3396 8.72850E+01 1.30992E+01 0.00000E+00
 -1      3397 8.57850E+01 1.30992E+01 0.00000E+00
 -1      3398 8.50350E+01 1.43982E+01 0.00000E+00
 -1      3399 9.02850E+01 1.30992E+01 0.00000E+00
 -1      3400 8.87850E+01 1.30992E+01 0.00000E+00
 -1      3401 8.80350E+01 1.43982E+01 0.00000E+00
 -1      3402 9.32850E+01 1.30992E+01 0.00000E+00
 -1      3403 9.17850E+01 1.30992E+01 0.00000E+00
 -1      3404 9.10350E+01 1.43982E+01 0.00000E+00
 -1      3405 9.62850E+01 1.30992E+01 0.00000E+00
 -1      3406 9.47850E+01 1.30992E+01 0.00000E+00
 -1      3407 9.40350E+01 1.43982E+01 0.00000E+00
 -1      3408 9.92850E+01 1.30992E+01 0.00000E+00
 -1      3409 9.77850E+01 1.30992E+01 0.00000E+00
 -1      3410 9.70350E+01 1.43982E+01 0.00000E+00
 -1      3411 1.02285E+02 1.30992E+01 0.00000E+00
 -1      3412 1.00785E+02 1.30992E+01 0.00000E+00
 -1      3413 1.00035E+02 1.43982E+01 0.00000E+00
 -1      3414 1.05285E+02 1.30992E+01 0.00000E+00
 -1      3415 1.03785E+02 1.30992E+01 0.00000E+00
 -1      3416 1.03035E+02 1.43982E+01 0.00000E+00
 -1      3417 1.08285E+02 1.30992E+01 0.00000E+00
 -1      3418 1.06785E+02 1.30992E+01 0.00000E+00
 -1      3419 1.06035E+02 1.43982E+01 0.00000E+00
 -1      3420 1.11285E+02 1.30992E+01 0.00000E+00
 -1      3421 1.09785E+02 1.30992E+01 0.00000E+00
 -1      3422 1.09035E+02 1.43982E+01 0.00000E+00
 -1      3423 1.14285E+02 1.30992E+01 0.00000E+00
 -1      3424 1.12785E+02 1.30992E+01 0.00000E+00
 -1      3425 1.12035E+02 1.43982E+01 0.00000E+00
 -1      3426 1.17285E+02 1.30992E+01 0.00000E+00
 -1      3427 1.15785E+02 1.30992E+01 0.00000E+00
 -1      3428 1.15035E+02 1.43982E+01 0.00000E+00
 -1      3429 2.72850E+01 1.30992E+01 0.00000E+00
 -1      3430 2.57850E+01 1.30992E+01 0.00000E+00
 -1      3431 2.80350E+01 1.43982E+01 0.00000E+00
 -1      3432 1.74000E+01 3.57110E+01 0.00000E+00
 -1      3433 1.89000E+01 3.57110E+01 0.00000E+00
 -1      3434 1.96500E+01 3.44120E+01 0.00000E+00
 -1      3435 1.39675E+02 3.13906E+01 0.00000E+00
 -1      3436 1.82850E+01 1.30992E+01 0.00000E+00
 -1      3437 1.67850E+01 1.30992E+01 0.00000E+00
 -1      3438 1.14487E+01 2.70341E+01 0.00000E+00
 -1      3439 1.14487E+01 2.85028E+01 0.00000E+00
 -1      3440 1.22633E+01 2.89397E+01 0.00000E+00
 -1      3441 1.27478E+01 2.62966E+01 0.00000E+00
 -1      3442 1.28355E+01 3.36356E+01 0.00000E+00
 -1      3443 1.28355E+01 3.51044E+01 0.00000E+00
 -1      3444 1.36500E+01 3.55412E+01 0.00000E+00
 -1      3445 1.47750E+01 3.56261E+01 0.00000E+00
 -1      3446 1.62750E+01 3.56261E+01 0.00000E+00
 -1      3447 1.70250E+01 3.43271E+01 0.00000E+00
 -1      3448 1.47750E+01 3.41574E+01 0.00000E+00
 -1      3449 1.24192E+02 2.71141E+01 0.00000E+00
 -1      3450 1.23309E+02 2.59667E+01 0.00000E+00
 -1      3451 1.28860E+02 3.17284E+01 0.00000E+00
 -1      3452 1.27621E+02 3.06902E+01 0.00000E+00
 -1      3453 1.22348E+02 2.45796E+01 0.00000E+00
 -1      3454 1.21425E+02 2.31200E+01 0.00000E+00
 -1      3455 1.20284E+02 1.32135E+01 0.00000E+00
 -1      3456 1.56488E+01 1.35341E+01 0.00000E+00
 -1      3457 1.41263E+01 1.42339E+01 0.00000E+00
 -1      3458 1.41263E+01 1.57027E+01 0.00000E+00
 -1      3459 1.63988E+01 1.48331E+01 0.00000E+00
 -1      3460 3.32850E+01 1.30992E+01 0.00000E+00
 -1      3461 3.17850E+01 1.30992E+01 0.00000E+00
 -1      3462 3.40350E+01 1.43982E+01 0.00000E+00
 -1      3463 1.26301E+02 2.95667E+01 0.00000E+00
 -1      3464 1.25200E+02 2.84118E+01 0.00000E+00
 -1      3465 1.20988E+02 1.80933E+01 0.00000E+00
 -1      3466 1.20229E+02 1.73490E+01 0.00000E+00
 -1      3467 1.20124E+02 1.90652E+01 0.00000E+00
 -1      3468 1.21911E+02 2.58296E+01 0.00000E+00
 -1      3469 1.29900E+01 1.76125E+01 0.00000E+00
 -1      3470 1.20490E+02 2.18928E+01 0.00000E+00
 -1      3471 1.19981E+02 2.08988E+01 0.00000E+00
 -1      3472 1.29785E+02 3.56069E+01 0.00000E+00
 -1      3473 1.30205E+02 3.38886E+01 0.00000E+00
 -1      3474 1.29556E+02 3.28007E+01 0.00000E+00
 -1      3475 1.28285E+02 3.56069E+01 0.00000E+00
 -1      3476 2.50350E+01 1.43982E+01 0.00000E+00
 -1      3477 2.42850E+01 1.30992E+01 0.00000E+00
 -1      3478 2.27850E+01 1.30992E+01 0.00000E+00
 -1      3479 1.42890E+01 2.27625E+01 0.00000E+00
 -1      3480 1.42890E+01 2.42375E+01 0.00000E+00
 -1      3481 2.12850E+01 1.30992E+01 0.00000E+00
 -1      3482 1.97850E+01 1.30992E+01 0.00000E+00
 -1      3483 1.90350E+01 1.43982E+01 0.00000E+00
 -1      3484 2.20350E+01 1.43982E+01 0.00000E+00
 -1      3485 1.33348E+02 3.41824E+01 0.00000E+00
 -1      3486 1.28225E+02 3.31315E+01 0.00000E+00
 -1      3487 1.26208E+02 3.09356E+01 0.00000E+00
 -1      3488 1.28355E+01 3.21669E+01 0.00000E+00
 -1      3489 1.36500E+01 3.26037E+01 0.00000E+00
 -1      3490 1.28355E+01 3.06981E+01 0.00000E+00
 -1      3491 1.23879E+02 2.85144E+01 0.00000E+00
 -1      3492 3.10350E+01 1.43982E+01 0.00000E+00
 -1      3493 1.20014E+02 2.32153E+01 0.00000E+00
 -1      3494 1.20818E+02 1.48590E+01 0.00000E+00
 -1      3495 1.18569E+02 1.34458E+01 0.00000E+00
 -1      3496 1.42890E+01 1.98250E+01 0.00000E+00
 -1      3497 1.42890E+01 2.12938E+01 0.00000E+00
 -1      3498 1.55880E+01 2.20313E+01 0.00000E+00
 -1      3499 1.27535E+02 3.43079E+01 0.00000E+00
 -1      3500 1.17819E+02 1.47448E+01 0.00000E+00
 -1      3501 1.20098E+02 1.57342E+01 0.00000E+00
 -1      3502 3.47850E+01 1.56973E+01 0.00000E+00
 -1      3503 3.32850E+01 1.56973E+01 0.00000E+00
 -1      3504 2.19000E+01 3.31130E+01 0.00000E+00
 -1      3505 2.34000E+01 3.31130E+01 0.00000E+00
 -1      3506 1.21411E+02 2.72026E+01 0.00000E+00
 -1      3507 1.20450E+02 2.58155E+01 0.00000E+00
 -1      3508 1.18173E+02 1.59886E+01 0.00000E+00
 -1      3509 1.16888E+02 1.56421E+01 0.00000E+00
 -1      3510 2.49000E+01 3.31130E+01 0.00000E+00
 -1      3511 2.64000E+01 3.31130E+01 0.00000E+00
 -1      3512 2.41500E+01 3.18140E+01 0.00000E+00
 -1      3513 2.79000E+01 3.31130E+01 0.00000E+00
 -1      3514 2.94000E+01 3.31130E+01 0.00000E+00
 -1      3515 2.71500E+01 3.18140E+01 0.00000E+00
 -1      3516 3.09000E+01 3.31130E+01 0.00000E+00
 -1      3517 3.24000E+01 3.31130E+01 0.00000E+00
 -1      3518 3.01500E+01 3.18140E+01 0.00000E+00
 -1      3519 3.39000E+01 3.31130E+01 0.00000E+00
 -1      3520 3.54000E+01 3.31130E+01 0.00000E+00
 -1      3521 3.31500E+01 3.18140E+01 0.00000E+00
 -1      3522 3.69000E+01 3.31130E+01 0.00000E+00
 -1      3523 3.84000E+01 3.31130E+01 0.00000E+00
 -1      3524 3.61500E+01 3.18140E+01 0.00000E+00
 -1      3525 3.99000E+01 3.31130E+01 0.00000E+00
 -1      3526 4.14000E+01 3.31130E+01 0.00000E+00
 -1      3527 3.91500E+01 3.18140E+01 0.00000E+00
 -1      3528 4.29000E+01 3.31130E+01 0.00000E+00
 -1      3529 4.44000E+01 3.31130E+01 0.00000E+00
 -1      3530 4.21500E+01 3.18140E+01 0.00000E+00
 -1      3531 4.59000E+01 3.31130E+01 0.00000E+00
 -1      3532 4.74000E+01 3.31130E+01 0.00000E+00
 -1      3533 4.51500E+01 3.18140E+01 0.00000E+00
 -1      3534 4.89000E+01 3.31130E+01 0.00000E+00
 -1      3535 5.04000E+01 3.31130E+01 0.00000E+00
 -1      3536 4.81500E+01 3.18140E+01 0.00000E+00
 -1      3537 5.19000E+01 3.31130E+01 0.00000E+00
 -1      3538 5.34000E+01 3.31130E+01 0.00000E+00
 -1      3539 5.11500E+01 3.18140E+01 0.00000E+00
 -1      3540 5.49000E+01 3.31130E+01 0.00000E+00
 -1      3541 5.64000E+01 3.31130E+01 0.00000E+00
 -1      3542 5.41500E+01 3.18140E+01 0.00000E+00
 -1      3543 5.79000E+01 3.31130E+01 0.00000E+00
 -1      3544 5.94000E+01 3.31130E+01 0.00000E+00
 -1      3545 5.71500E+01 3.18140E+01 0.00000E+00
 -1      3546 6.09000E+01 3.31130E+01 0.00000E+00
 -1      3547 6.24000E+01 3.31130E+01 0.00000E+00
 -1      3548 6.01500E+01 3.18140E+01 0.00000E+00
 -1      3549 6.39000E+01 3.31130E+01 0.00000E+00
 -1      3550 6.54000E+01 3.31130E+01 0.00000E+00
 -1      3551 6.31500E+01 3.18140E+01 0.00000E+00
 -1      3552 6.69000E+01 3.31130E+01 0.00000E+00
 -1      3553 6.84000E+01 3.31130E+01 0.00000E+00
 -1      3554 6.61500E+01 3.18140E+01 0.00000E+00
 -1      3555 6.99000E+01 3.31130E+01 0.00000E+00
 -1      3556 7.14000E+01 3.31130E+01 0.00000E+00
 -1      3557 6.91500E+01 3.18140E+01 0.00000E+00
 -1      3558 7.29000E+01 3.31130E+01 0.00000E+00
 -1      3559 7.44000E+01 3.31130E+01 0.00000E+00
 -1      3560 7.21500E+01 3.18140E+01 0.00000E+00
 -1      3561 7.59000E+01 3.31130E+01 0.00000E+00
 -1      3562 7.74000E+01 3.31130E+01 0.00000E+00
 -1      3563 7.51500E+01 3.18140E+01 0.00000E+00
 -1      3564 7.89000E+01 3.31130E+01 0.00000E+00
 -1      3565 8.04000E+01 3.31130E+01 0.00000E+00
 -1      3566 7.81500E+01 3.18140E+01 0.00000E+00
 -1      3567 8.19000E+01 3.31130E+01 0.00000E+00
 -1      3568 8.34000E+01 3.31130E+01 0.00000E+00
 -1      3569 8.11500E+01 3.18140E+01 0.00000E+00
 -1      3570 8.49000E+01 3.31130E+01 0.00000E+00
 -1      3571 8.64000E+01 3.31130E+01 0.00000E+00
 -1      3572 8.41500E+01 3.18140E+01 0.00000E+00
 -1      3573 8.79000E+01 3.31130E+01 0.00000E+00
 -1      3574 8.94000E+01 3.31130E+01 0.00000E+00
 -1      3575 8.71500E+01 3.18140E+01 0.00000E+00
 -1      3576 9.09000E+01 3.31130E+01 0.00000E+00
 -1      3577 9.24000E+01 3.31130E+01 0.00000E+00
 -1      3578 9.01500E+01 3.18140E+01 0.00000E+00
 -1      3579 9.39000E+01 3.31130E+01 0.00000E+00
 -1      3580 9.54000E+01 3.31130E+01 0.00000E+00
 -1      3581 9.31500E+01 3.18140E+01 0.00000E+00
 -1      3582 9.69000E+01 3.31130E+01 0.00000E+00
 -1      3583 9.84000E+01 3.31130E+01 0.00000E+00
 -1      3584 9.61500E+01 3.18140E+01 0.00000E+00
 -1      3585 9.99000E+01 3.31130E+01 0.00000E+00
 -1      3586 1.01400E+02 3.31130E+01 0.00000E+00
 -1      3587 9.91500E+01 3.18140E+01 0.00000E+00
 -1      3588 1.02900E+02 3.31130E+01 0.00000E+00
 -1      3589 1.04400E+02 3.31130E+01 0.00000E+00
 -1      3590 1.02150E+02 3.18140E+01 0.00000E+00
 -1      3591 1.05900E+02 3.31130E+01 0.00000E+00
 -1      3592 1.07400E+02 3.31130E+01 0.00000E+00
 -1      3593 1.05150E+02 3.18140E+01 0.00000E+00
 -1      3594 1.08900E+02 3.31130E+01 0.00000E+00
 -1      3595 1.10400E+02 3.31130E+01 0.00000E+00
 -1      3596 1.08150E+02 3.18140E+01 0.00000E+00
 -1      3597 1.11900E+02 3.31130E+01 0.00000E+00
 -1      3598 1.13400E+02 3.31130E+01 0.00000E+00
 -1      3599 1.11150E+02 3.18140E+01 0.00000E+00
 -1      3600 1.14900E+02 3.31130E+01 0.00000E+00
 -1      3601 1.16400E+02 3.31130E+01 0.00000E+00
 -1      3602 1.14150E+02 3.18140E+01 0.00000E+00
 -1      3603 1.17900E+02 3.31130E+01 0.00000E+00
 -1      3604 1.19400E+02 3.31130E+01 0.00000E+00
 -1      3605 1.17150E+02 3.18140E+01 0.00000E+00
 -1      3606 1.20900E+02 3.31130E+01 0.00000E+00
 -1      3607 1.22400E+02 3.31130E+01 0.00000E+00
 -1      3608 1.20150E+02 3.18140E+01 0.00000E+00
 -1      3609 1.26839E+02 3.32356E+01 0.00000E+00
 -1      3610 4.07850E+01 1.56973E+01 0.00000E+00
 -1      3611 3.92850E+01 1.56973E+01 0.00000E+00
 -1      3612 1.89000E+01 3.31130E+01 0.00000E+00
 -1      3613 2.04000E+01 3.31130E+01 0.00000E+00
 -1      3614 2.11500E+01 3.18140E+01 0.00000E+00
 -1      3615 3.77850E+01 1.56973E+01 0.00000E+00
 -1      3616 3.62850E+01 1.56973E+01 0.00000E+00
 -1      3617 3.85350E+01 1.69963E+01 0.00000E+00
 -1      3618 4.67850E+01 1.56973E+01 0.00000E+00
 -1      3619 4.52850E+01 1.56973E+01 0.00000E+00
 -1      3620 4.97850E+01 1.56973E+01 0.00000E+00
 -1      3621 4.82850E+01 1.56973E+01 0.00000E+00
 -1      3622 4.75350E+01 1.69963E+01 0.00000E+00
 -1      3623 5.27850E+01 1.56973E+01 0.00000E+00
 -1      3624 5.12850E+01 1.56973E+01 0.00000E+00
 -1      3625 5.05350E+01 1.69963E+01 0.00000E+00
 -1      3626 5.57850E+01 1.56973E+01 0.00000E+00
 -1      3627 5.42850E+01 1.56973E+01 0.00000E+00
 -1      3628 5.35350E+01 1.69963E+01 0.00000E+00
 -1      3629 5.87850E+01 1.56973E+01 0.00000E+00
 -1      3630 5.72850E+01 1.56973E+01 0.00000E+00
 -1      3631 5.65350E+01 1.69963E+01 0.00000E+00
 -1      3632 6.17850E+01 1.56973E+01 0.00000E+00
 -1      3633 6.02850E+01 1.56973E+01 0.00000E+00
 -1      3634 5.95350E+01 1.69963E+01 0.00000E+00
 -1      3635 6.47850E+01 1.56973E+01 0.00000E+00
 -1      3636 6.32850E+01 1.56973E+01 0.00000E+00
 -1      3637 6.25350E+01 1.69963E+01 0.00000E+00
 -1      3638 6.77850E+01 1.56973E+01 0.00000E+00
 -1      3639 6.62850E+01 1.56973E+01 0.00000E+00
 -1      3640 6.55350E+01 1.69963E+01 0.00000E+00
 -1      3641 7.07850E+01 1.56973E+01 0.00000E+00
 -1      3642 6.92850E+01 1.56973E+01 0.00000E+00
 -1      3643 6.85350E+01 1.69963E+01 0.00000E+00
 -1      3644 7.37850E+01 1.56973E+01 0.00000E+00
 -1      3645 7.22850E+01 1.56973E+01 0.00000E+00
 -1      3646 7.15350E+01 1.69963E+01 0.00000E+00
 -1      3647 7.67850E+01 1.56973E+01 0.00000E+00
 -1      3648 7.52850E+01 1.56973E+01 0.00000E+00
 -1      3649 7.45350E+01 1.69963E+01 0.00000E+00
 -1      3650 7.97850E+01 1.56973E+01 0.00000E+00
 -1      3651 7.82850E+01 1.56973E+01 0.00000E+00
 -1      3652 7.75350E+01 1.69963E+01 0.00000E+00
 -1      3653 8.27850E+01 1.56973E+01 0.00000E+00
 -1      3654 8.12850E+01 1.56973E+01 0.00000E+00
 -1      3655 8.05350E+01 1.69963E+01 0.00000E+00
 -1      3656 8.57850E+01 1.56973E+01 0.00000E+00
 -1      3657 8.42850E+01 1.56973E+01 0.00000E+00
 -1      3658 8.35350E+01 1.69963E+01 0.00000E+00
 -1      3659 8.87850E+01 1.56973E+01 0.00000E+00
 -1      3660 8.72850E+01 1.56973E+01 0.00000E+00
 -1      3661 8.65350E+01 1.69963E+01 0.00000E+00
 -1      3662 9.17850E+01 1.56973E+01 0.00000E+00
 -1      3663 9.02850E+01 1.56973E+01 0.00000E+00
 -1      3664 8.95350E+01 1.69963E+01 0.00000E+00
 -1      3665 9.47850E+01 1.56973E+01 0.00000E+00
 -1      3666 9.32850E+01 1.56973E+01 0.00000E+00
 -1      3667 9.25350E+01 1.69963E+01 0.00000E+00
 -1      3668 9.77850E+01 1.56973E+01 0.00000E+00
 -1      3669 9.62850E+01 1.56973E+01 0.00000E+00
 -1      3670 9.55350E+01 1.69963E+01 0.00000E+00
 -1      3671 1.00785E+02 1.56973E+01 0.00000E+00
 -1      3672 9.92850E+01 1.56973E+01 0.00000E+00
 -1      3673 9.85350E+01 1.69963E+01 0.00000E+00
 -1      3674 1.03785E+02 1.56973E+01 0.00000E+00
 -1      3675 1.02285E+02 1.56973E+01 0.00000E+00
 -1      3676 1.01535E+02 1.69963E+01 0.00000E+00
 -1      3677 1.06785E+02 1.56973E+01 0.00000E+00
 -1      3678 1.05285E+02 1.56973E+01 0.00000E+00
 -1      3679 1.04535E+02 1.69963E+01 0.00000E+00
 -1      3680 1.09785E+02 1.56973E+01 0.00000E+00
 -1      3681 1.08285E+02 1.56973E+01 0.00000E+00
 -1      3682 1.07535E+02 1.69963E+01 0.00000E+00
 -1      3683 1.12785E+02 1.56973E+01 0.00000E+00
 -1      3684 1.11285E+02 1.56973E+01 0.00000E+00
 -1      3685 1.10535E+02 1.69963E+01 0.00000E+00
 -1      3686 1.15587E+02 1.56697E+01 0.00000E+00
 -1      3687 1.14087E+02 1.56697E+01 0.00000E+00
 -1      3688 1.13337E+02 1.69687E+01 0.00000E+00
 -1      3689 1.15940E+02 1.69136E+01 0.00000E+00
 -1      3690 1.19235E+02 1.67061E+01 0.00000E+00
 -1      3691 2.87850E+01 1.56973E+01 0.00000E+00
 -1      3692 2.72850E+01 1.56973E+01 0.00000E+00
 -1      3693 1.42076E+01 1.70263E+01 0.00000E+00
 -1      3694 1.42076E+01 1.85013E+01 0.00000E+00
 -1      3695 1.55066E+01 1.92388E+01 0.00000E+00
 -1      3696 1.53439E+01 1.65915E+01 0.00000E+00
 -1      3697 1.18321E+02 2.12438E+01 0.00000E+00
 -1      3698 1.19222E+02 2.01545E+01 0.00000E+00
 -1      3699 1.18464E+02 1.94103E+01 0.00000E+00
 -1      3700 1.23357E+02 2.99598E+01 0.00000E+00
 -1      3701 1.22350E+02 2.86621E+01 0.00000E+00
 -1      3702 1.55798E+01 2.49984E+01 0.00000E+00
 -1      3703 1.42808E+01 2.57359E+01 0.00000E+00
 -1      3704 4.37850E+01 1.56973E+01 0.00000E+00
 -1      3705 4.22850E+01 1.56973E+01 0.00000E+00
 -1      3706 4.15350E+01 1.69963E+01 0.00000E+00
 -1      3707 4.45350E+01 1.69963E+01 0.00000E+00
 -1      3708 3.17850E+01 1.56973E+01 0.00000E+00
 -1      3709 3.02850E+01 1.56973E+01 0.00000E+00
 -1      3710 3.25350E+01 1.69963E+01 0.00000E+00
 -1      3711 1.19515E+02 2.45883E+01 0.00000E+00
 -1      3712 1.18580E+02 2.33611E+01 0.00000E+00
 -1      3713 1.19015E+02 2.59613E+01 0.00000E+00
 -1      3714 1.25084E+02 3.32620E+01 0.00000E+00
 -1      3715 1.25773E+02 3.20856E+01 0.00000E+00
 -1      3716 1.24453E+02 3.09621E+01 0.00000E+00
 -1      3717 1.23584E+02 3.32620E+01 0.00000E+00
 -1      3718 1.22923E+02 3.11098E+01 0.00000E+00
 -1      3719 1.18304E+02 1.76035E+01 0.00000E+00
 -1      3720 1.20889E+02 2.86480E+01 0.00000E+00
 -1      3721 3.55350E+01 1.69963E+01 0.00000E+00
 -1      3722 1.77750E+01 3.30281E+01 0.00000E+00
 -1      3723 1.85250E+01 3.17291E+01 0.00000E+00
 -1      3724 1.66500E+01 3.29432E+01 0.00000E+00
 -1      3725 2.95350E+01 1.69963E+01 0.00000E+00
 -1      3726 1.97850E+01 1.56973E+01 0.00000E+00
 -1      3727 1.82850E+01 1.56973E+01 0.00000E+00
 -1      3728 1.40386E+01 2.70574E+01 0.00000E+00
 -1      3729 1.68829E+01 2.42563E+01 0.00000E+00
 -1      3730 1.68747E+01 2.57547E+01 0.00000E+00
 -1      3731 1.35582E+01 2.82170E+01 0.00000E+00
 -1      3732 1.33159E+01 2.95386E+01 0.00000E+00
 -1      3733 1.41304E+01 2.99754E+01 0.00000E+00
 -1      3734 1.50913E+01 2.76563E+01 0.00000E+00
 -1      3735 1.45875E+01 3.27311E+01 0.00000E+00
 -1      3736 1.57125E+01 3.28159E+01 0.00000E+00
 -1      3737 1.64625E+01 3.15169E+01 0.00000E+00
 -1      3738 1.45875E+01 3.12623E+01 0.00000E+00
 -1      3739 2.57850E+01 1.56973E+01 0.00000E+00
 -1      3740 2.42850E+01 1.56973E+01 0.00000E+00
 -1      3741 2.65350E+01 1.69963E+01 0.00000E+00
 -1      3742 1.17322E+02 2.39898E+01 0.00000E+00
 -1      3743 1.17821E+02 2.26168E+01 0.00000E+00
 -1      3744 1.17063E+02 2.18726E+01 0.00000E+00
 -1      3745 1.68829E+01 2.13188E+01 0.00000E+00
 -1      3746 1.68829E+01 2.27875E+01 0.00000E+00
 -1      3747 1.81778E+01 2.35438E+01 0.00000E+00
 -1      3748 1.73826E+01 1.59270E+01 0.00000E+00
 -1      3749 1.62463E+01 1.63618E+01 0.00000E+00
 -1      3750 1.63277E+01 1.76855E+01 0.00000E+00
 -1      3751 1.81326E+01 1.72260E+01 0.00000E+00
 -1      3752 1.22834E+02 3.19630E+01 0.00000E+00
 -1      3753 2.64000E+01 3.05150E+01 0.00000E+00
 -1      3754 2.79000E+01 3.05150E+01 0.00000E+00
 -1      3755 2.94000E+01 3.05150E+01 0.00000E+00
 -1      3756 3.09000E+01 3.05150E+01 0.00000E+00
 -1      3757 2.86500E+01 2.92160E+01 0.00000E+00
 -1      3758 3.24000E+01 3.05150E+01 0.00000E+00
 -1      3759 3.39000E+01 3.05150E+01 0.00000E+00
 -1      3760 3.16500E+01 2.92160E+01 0.00000E+00
 -1      3761 3.54000E+01 3.05150E+01 0.00000E+00
 -1      3762 3.69000E+01 3.05150E+01 0.00000E+00
 -1      3763 3.46500E+01 2.92160E+01 0.00000E+00
 -1      3764 3.84000E+01 3.05150E+01 0.00000E+00
 -1      3765 3.99000E+01 3.05150E+01 0.00000E+00
 -1      3766 3.76500E+01 2.92160E+01 0.00000E+00
 -1      3767 4.14000E+01 3.05150E+01 0.00000E+00
 -1      3768 4.29000E+01 3.05150E+01 0.00000E+00
 -1      3769 4.06500E+01 2.92160E+01 0.00000E+00
 -1      3770 4.44000E+01 3.05150E+01 0.00000E+00
 -1      3771 4.59000E+01 3.05150E+01 0.00000E+00
 -1      3772 4.36500E+01 2.92160E+01 0.00000E+00
 -1      3773 4.74000E+01 3.05150E+01 0.00000E+00
 -1      3774 4.89000E+01 3.05150E+01 0.00000E+00
 -1      3775 4.66500E+01 2.92160E+01 0.00000E+00
 -1      3776 5.04000E+01 3.05150E+01 0.00000E+00
 -1      3777 5.19000E+01 3.05150E+01 0.00000E+00
 -1      3778 4.96500E+01 2.92160E+01 0.00000E+00
 -1      3779 5.34000E+01 3.05150E+01 0.00000E+00
 -1      3780 5.49000E+01 3.05150E+01 0.00000E+00
 -1      3781 5.26500E+01 2.92160E+01 0.00000E+00
 -1      3782 5.64000E+01 3.05150E+01 0.00000E+00
 -1      3783 5.79000E+01 3.05150E+01 0.00000E+00
 -1      3784 5.56500E+01 2.92160E+01 0.00000E+00
 -1      3785 5.94000E+01 3.05150E+01 0.00000E+00
 -1      3786 6.09000E+01 3.05150E+01 0.00000E+00
 -1      3787 5.86500E+01 2.92160E+01 0.00000E+00
 -1      3788 6.24000E+01 3.05150E+01 0.00000E+00
 -1      3789 6.39000E+01 3.05150E+01 0.00000E+00
 -1      3790 6.16500E+01 2.92160E+01 0.00000E+00
 -1      3791 6.54000E+01 3.05150E+01 0.00000E+00
 -1      3792 6.69000E+01 3.05150E+01 0.00000E+00
 -1      3793 6.46500E+01 2.92160E+01 0.00000E+00
 -1      3794 6.84000E+01 3.05150E+01 0.00000E+00
 -1      3795 6.99000E+01 3.05150E+01 0.00000E+00
 -1      3796 6.76500E+01 2.92160E+01 0.00000E+00
 -1      3797 7.14000E+01 3.05150E+01 0.00000E+00
 -1      3798 7.29000E+01 3.05150E+01 0.00000E+00
 -1      3799 7.06500E+01 2.92160E+01 0.00000E+00
 -1      3800 7.44000E+01 3.05150E+01 0.00000E+00
 -1      3801 7.59000E+01 3.05150E+01 0.00000E+00
 -1      3802 7.36500E+01 2.92160E+01 0.00000E+00
 -1      3803 7.74000E+01 3.05150E+01 0.00000E+00
 -1      3804 7.89000E+01 3.05150E+01 0.00000E+00
 -1      3805 7.66500E+01 2.92160E+01 0.00000E+00
 -1      3806 8.04000E+01 3.05150E+01 0.00000E+00
 -1      3807 8.19000E+01 3.05150E+01 0.00000E+00
 -1      3808 7.96500E+01 2.92160E+01 0.00000E+00
 -1      3809 8.34000E+01 3.05150E+01 0.00000E+00
 -1      3810 8.49000E+01 3.05150E+01 0.00000E+00
 -1      3811 8.26500E+01 2.92160E+01 0.00000E+00
 -1      3812 8.64000E+01 3.05150E+01 0.00000E+00
 -1      3813 8.79000E+01 3.05150E+01 0.00000E+00
 -1      3814 8.56500E+01 2.92160E+01 0.00000E+00
 -1      3815 8.94000E+01 3.05150E+01 0.00000E+00
 -1      3816 9.09000E+01 3.05150E+01 0.00000E+00
 -1      3817 8.86500E+01 2.92160E+01 0.00000E+00
 -1      3818 9.24000E+01 3.05150E+01 0.00000E+00
 -1      3819 9.39000E+01 3.05150E+01 0.00000E+00
 -1      3820 9.16500E+01 2.92160E+01 0.00000E+00
 -1      3821 9.54000E+01 3.05150E+01 0.00000E+00
 -1      3822 9.69000E+01 3.05150E+01 0.00000E+00
 -1      3823 9.46500E+01 2.92160E+01 0.00000E+00
 -1      3824 9.84000E+01 3.05150E+01 0.00000E+00
 -1      3825 9.99000E+01 3.05150E+01 0.00000E+00
 -1      3826 9.76500E+01 2.92160E+01 0.00000E+00
 -1      3827 1.01400E+02 3.05150E+01 0.00000E+00
 -1      3828 1.02900E+02 3.05150E+01 0.00000E+00
 -1      3829 1.00650E+02 2.92160E+01 0.00000E+00
 -1      3830 1.04400E+02 3.05150E+01 0.00000E+00
 -1      3831 1.05900E+02 3.05150E+01 0.00000E+00
 -1      3832 1.03650E+02 2.92160E+01 0.00000E+00
 -1      3833 1.07400E+02 3.05150E+01 0.00000E+00
 -1      3834 1.08900E+02 3.05150E+01 0.00000E+00
 -1      3835 1.06650E+02 2.92160E+01 0.00000E+00
 -1      3836 1.10400E+02 3.05150E+01 0.00000E+00
 -1      3837 1.11900E+02 3.05150E+01 0.00000E+00
 -1      3838 1.09650E+02 2.92160E+01 0.00000E+00
 -1      3839 1.13400E+02 3.05150E+01 0.00000E+00
 -1      3840 1.14900E+02 3.05150E+01 0.00000E+00
 -1      3841 1.12650E+02 2.92160E+01 0.00000E+00
 -1      3842 1.16400E+02 3.05150E+01 0.00000E+00
 -1      3843 1.17900E+02 3.05150E+01 0.00000E+00
 -1      3844 1.15650E+02 2.92160E+01 0.00000E+00
 -1      3845 1.21739E+02 3.09608E+01 0.00000E+00
 -1      3846 2.27850E+01 1.56973E+01 0.00000E+00
 -1      3847 2.12850E+01 1.56973E+01 0.00000E+00
 -1      3848 2.35350E+01 1.69963E+01 0.00000E+00
 -1      3849 1.19489E+02 2.96618E+01 0.00000E+00
 -1      3850 1.18550E+02 2.82023E+01 0.00000E+00
 -1      3851 3.32850E+01 1.82952E+01 0.00000E+00
 -1      3852 3.17850E+01 1.82952E+01 0.00000E+00
 -1      3853 2.04000E+01 3.05150E+01 0.00000E+00
 -1      3854 2.19000E+01 3.05150E+01 0.00000E+00
 -1      3855 3.92850E+01 1.82952E+01 0.00000E+00
 -1      3856 3.77850E+01 1.82952E+01 0.00000E+00
 -1      3857 5.12850E+01 1.82952E+01 0.00000E+00
 -1      3858 4.97850E+01 1.82952E+01 0.00000E+00
 -1      3859 4.82850E+01 1.82952E+01 0.00000E+00
 -1      3860 4.67850E+01 1.82952E+01 0.00000E+00
 -1      3861 4.90350E+01 1.95942E+01 0.00000E+00
 -1      3862 5.72850E+01 1.82952E+01 0.00000E+00
 -1      3863 5.57850E+01 1.82952E+01 0.00000E+00
 -1      3864 6.02850E+01 1.82952E+01 0.00000E+00
 -1      3865 5.87850E+01 1.82952E+01 0.00000E+00
 -1      3866 5.80350E+01 1.95942E+01 0.00000E+00
 -1      3867 6.32850E+01 1.82952E+01 0.00000E+00
 -1      3868 6.17850E+01 1.82952E+01 0.00000E+00
 -1      3869 6.10350E+01 1.95942E+01 0.00000E+00
 -1      3870 6.62850E+01 1.82952E+01 0.00000E+00
 -1      3871 6.47850E+01 1.82952E+01 0.00000E+00
 -1      3872 6.40350E+01 1.95942E+01 0.00000E+00
 -1      3873 6.92850E+01 1.82952E+01 0.00000E+00
 -1      3874 6.77850E+01 1.82952E+01 0.00000E+00
 -1      3875 6.70350E+01 1.95942E+01 0.00000E+00
 -1      3876 7.22850E+01 1.82952E+01 0.00000E+00
 -1      3877 7.07850E+01 1.82952E+01 0.00000E+00
 -1      3878 7.00350E+01 1.95942E+01 0.00000E+00
 -1      3879 7.52850E+01 1.82952E+01 0.00000E+00
 -1      3880 7.37850E+01 1.82952E+01 0.00000E+00
 -1      3881 7.30350E+01 1.95942E+01 0.00000E+00
 -1      3882 7.82850E+01 1.82952E+01 0.00000E+00
 -1      3883 7.67850E+01 1.82952E+01 0.00000E+00
 -1      3884 7.60350E+01 1.95942E+01 0.00000E+00
 -1      3885 8.12850E+01 1.82952E+01 0.00000E+00
 -1      3886 7.97850E+01 1.82952E+01 0.00000E+00
 -1      3887 7.90350E+01 1.95942E+01 0.00000E+00
 -1      3888 8.42850E+01 1.82952E+01 0.00000E+00
 -1      3889 8.27850E+01 1.82952E+01 0.00000E+00
 -1      3890 8.20350E+01 1.95942E+01 0.00000E+00
 -1      3891 8.72850E+01 1.82952E+01 0.00000E+00
 -1      3892 8.57850E+01 1.82952E+01 0.00000E+00
 -1      3893 8.50350E+01 1.95942E+01 0.00000E+00
 -1      3894 9.02850E+01 1.82952E+01 0.00000E+00
 -1      3895 8.87850E+01 1.82952E+01 0.00000E+00
 -1      3896 8.80350E+01 1.95942E+01 0.00000E+00
 -1      3897 9.32850E+01 1.82952E+01 0.00000E+00
 -1      3898 9.17850E+01 1.82952E+01 0.00000E+00
 -1      3899 9.10350E+01 1.95942E+01 0.00000E+00
 -1      3900 9.62850E+01 1.82952E+01 0.00000E+00
 -1      3901 9.47850E+01 1.82952E+01 0.00000E+00
 -1      3902 9.40350E+01 1.95942E+01 0.00000E+00
 -1      3903 9.92850E+01 1.82952E+01 0.00000E+00
 -1      3904 9.77850E+01 1.82952E+01 0.00000E+00
 -1      3905 9.70350E+01 1.95942E+01 0.00000E+00
 -1      3906 1.02285E+02 1.82952E+01 0.00000E+00
 -1      3907 1.00785E+02 1.82952E+01 0.00000E+00
 -1      3908 1.00035E+02 1.95942E+01 0.00000E+00
 -1      3909 1.05285E+02 1.82952E+01 0.00000E+00
 -1      3910 1.03785E+02 1.82952E+01 0.00000E+00
 -1      3911 1.03035E+02 1.95942E+01 0.00000E+00
 -1      3912 1.08285E+02 1.82952E+01 0.00000E+00
 -1      3913 1.06785E+02 1.82952E+01 0.00000E+00
 -1      3914 1.06035E+02 1.95942E+01 0.00000E+00
 -1      3915 1.11285E+02 1.82952E+01 0.00000E+00
 -1      3916 1.09785E+02 1.82952E+01 0.00000E+00
 -1      3917 1.09035E+02 1.95942E+01 0.00000E+00
 -1      3918 5.42850E+01 1.82952E+01 0.00000E+00
 -1      3919 5.27850E+01 1.82952E+01 0.00000E+00
 -1      3920 5.50350E+01 1.95942E+01 0.00000E+00
 -1      3921 2.05350E+01 1.69963E+01 0.00000E+00
 -1      3922 1.17402E+02 1.86928E+01 0.00000E+00
 -1      3923 1.81691E+01 2.65124E+01 0.00000E+00
 -1      3924 1.68661E+01 2.72545E+01 0.00000E+00
 -1      3925 3.02850E+01 1.82952E+01 0.00000E+00
 -1      3926 2.87850E+01 1.82952E+01 0.00000E+00
 -1      3927 3.10350E+01 1.95942E+01 0.00000E+00
 -1      3928 1.17615E+02 2.69750E+01 0.00000E+00
 -1      3929 3.62850E+01 1.82952E+01 0.00000E+00
 -1      3930 3.47850E+01 1.82952E+01 0.00000E+00
 -1      3931 3.70350E+01 1.95942E+01 0.00000E+00
 -1      3932 1.16261E+02 2.05272E+01 0.00000E+00
 -1      3933 1.16100E+02 1.87204E+01 0.00000E+00
 -1      3934 1.14799E+02 1.87479E+01 0.00000E+00
 -1      3935 2.34000E+01 3.05150E+01 0.00000E+00
 -1      3936 2.49000E+01 3.05150E+01 0.00000E+00
 -1      3937 2.56500E+01 2.92160E+01 0.00000E+00
 -1      3938 2.26500E+01 2.92160E+01 0.00000E+00
 -1      3939 2.72850E+01 1.82952E+01 0.00000E+00
 -1      3940 2.57850E+01 1.82952E+01 0.00000E+00
 -1      3941 2.80350E+01 1.95942E+01 0.00000E+00
 -1      3942 1.20239E+02 3.09608E+01 0.00000E+00
 -1      3943 3.40350E+01 1.95942E+01 0.00000E+00
 -1      3944 1.63857E+01 2.84140E+01 0.00000E+00
 -1      3945 1.16253E+02 2.77234E+01 0.00000E+00
 -1      3946 1.16718E+02 2.54824E+01 0.00000E+00
 -1      3947 1.15960E+02 2.47382E+01 0.00000E+00
 -1      3948 1.14753E+02 2.77234E+01 0.00000E+00
 -1      3949 2.12850E+01 1.82952E+01 0.00000E+00
 -1      3950 1.97850E+01 1.82952E+01 0.00000E+00
 -1      3951 4.60350E+01 1.95942E+01 0.00000E+00
 -1      3952 4.52850E+01 1.82952E+01 0.00000E+00
 -1      3953 4.37850E+01 1.82952E+01 0.00000E+00
 -1      3954 5.20350E+01 1.95942E+01 0.00000E+00
 -1      3955 1.13693E+02 1.85078E+01 0.00000E+00
 -1      3956 1.12391E+02 1.85354E+01 0.00000E+00
 -1      3957 1.11641E+02 1.98344E+01 0.00000E+00
 -1      3958 1.13853E+02 2.03146E+01 0.00000E+00
 -1      3959 1.65646E+01 1.88403E+01 0.00000E+00
 -1      3960 1.66460E+01 2.01639E+01 0.00000E+00
 -1      3961 1.79409E+01 2.09202E+01 0.00000E+00
 -1      3962 1.74670E+01 1.86105E+01 0.00000E+00
 -1      3963 1.50679E+01 3.01028E+01 0.00000E+00
 -1      3964 4.07850E+01 1.82952E+01 0.00000E+00
 -1      3965 4.00350E+01 1.95942E+01 0.00000E+00
 -1      3966 4.22850E+01 1.82952E+01 0.00000E+00
 -1      3967 1.94725E+01 2.57699E+01 0.00000E+00
 -1      3968 1.94638E+01 2.72698E+01 0.00000E+00
 -1      3969 1.94725E+01 2.28324E+01 0.00000E+00
 -1      3970 1.94725E+01 2.43012E+01 0.00000E+00
 -1      3971 2.07671E+01 2.50586E+01 0.00000E+00
 -1      3972 1.77802E+01 2.98282E+01 0.00000E+00
 -1      3973 1.89052E+01 2.99131E+01 0.00000E+00
 -1      3974 1.83695E+01 1.83808E+01 0.00000E+00
 -1      3975 1.15761E+02 2.19002E+01 0.00000E+00
 -1      3976 1.91195E+01 1.96798E+01 0.00000E+00
 -1      3977 6.47850E+01 2.08932E+01 0.00000E+00
 -1      3978 6.32850E+01 2.08932E+01 0.00000E+00
 -1      3979 4.97850E+01 2.08932E+01 0.00000E+00
 -1      3980 4.82850E+01 2.08932E+01 0.00000E+00
 -1      3981 3.09000E+01 2.79170E+01 0.00000E+00
 -1      3982 3.24000E+01 2.79170E+01 0.00000E+00
 -1      3983 3.39000E+01 2.79170E+01 0.00000E+00
 -1      3984 3.54000E+01 2.79170E+01 0.00000E+00
 -1      3985 3.31500E+01 2.66180E+01 0.00000E+00
 -1      3986 3.69000E+01 2.79170E+01 0.00000E+00
 -1      3987 3.84000E+01 2.79170E+01 0.00000E+00
 -1      3988 3.61500E+01 2.66180E+01 0.00000E+00
 -1      3989 3.99000E+01 2.79170E+01 0.00000E+00
 -1      3990 4.14000E+01 2.79170E+01 0.00000E+00
 -1      3991 3.91500E+01 2.66180E+01 0.00000E+00
 -1      3992 4.29000E+01 2.79170E+01 0.00000E+00
 -1      3993 4.44000E+01 2.79170E+01 0.00000E+00
 -1      3994 4.21500E+01 2.66180E+01 0.00000E+00
 -1      3995 4.59000E+01 2.79170E+01 0.00000E+00
 -1      3996 4.74000E+01 2.79170E+01 0.00000E+00
 -1      3997 4.51500E+01 2.66180E+01 0.00000E+00
 -1      3998 4.89000E+01 2.79170E+01 0.00000E+00
 -1      3999 5.04000E+01 2.79170E+01 0.00000E+00
 -1      4000 4.81500E+01 2.66180E+01 0.00000E+00
 -1      4001 5.19000E+01 2.79170E+01 0.00000E+00
 -1      4002 5.34000E+01 2.79170E+01 0.00000E+00
 -1      4003 5.11500E+01 2.66180E+01 0.00000E+00
 -1      4004 5.49000E+01 2.79170E+01 0.00000E+00
 -1      4005 5.64000E+01 2.79170E+01 0.00000E+00
 -1      4006 5.41500E+01 2.66180E+01 0.00000E+00
 -1      4007 5.79000E+01 2.79170E+01 0.00000E+00
 -1      4008 5.94000E+01 2.79170E+01 0.00000E+00
 -1      4009 5.71500E+01 2.66180E+01 0.00000E+00
 -1      4010 6.09000E+01 2.79170E+01 0.00000E+00
 -1      4011 6.24000E+01 2.79170E+01 0.00000E+00
 -1      4012 6.01500E+01 2.66180E+01 0.00000E+00
 -1      4013 6.39000E+01 2.79170E+01 0.00000E+00
 -1      4014 6.54000E+01 2.79170E+01 0.00000E+00
 -1      4015 6.31500E+01 2.66180E+01 0.00000E+00
 -1      4016 6.69000E+01 2.79170E+01 0.00000E+00
 -1      4017 6.84000E+01 2.79170E+01 0.00000E+00
 -1      4018 6.61500E+01 2.66180E+01 0.00000E+00
 -1      4019 6.99000E+01 2.79170E+01 0.00000E+00
 -1      4020 7.14000E+01 2.79170E+01 0.00000E+00
 -1      4021 6.91500E+01 2.66180E+01 0.00000E+00
 -1      4022 7.29000E+01 2.79170E+01 0.00000E+00
 -1      4023 7.44000E+01 2.79170E+01 0.00000E+00
 -1      4024 7.21500E+01 2.66180E+01 0.00000E+00
 -1      4025 7.59000E+01 2.79170E+01 0.00000E+00
 -1      4026 7.74000E+01 2.79170E+01 0.00000E+00
 -1      4027 7.51500E+01 2.66180E+01 0.00000E+00
 -1      4028 7.89000E+01 2.79170E+01 0.00000E+00
 -1      4029 8.04000E+01 2.79170E+01 0.00000E+00
 -1      4030 7.81500E+01 2.66180E+01 0.00000E+00
 -1      4031 8.19000E+01 2.79170E+01 0.00000E+00
 -1      4032 8.34000E+01 2.79170E+01 0.00000E+00
 -1      4033 8.11500E+01 2.66180E+01 0.00000E+00
 -1      4034 8.49000E+01 2.79170E+01 0.00000E+00
 -1      4035 8.64000E+01 2.79170E+01 0.00000E+00
 -1      4036 8.41500E+01 2.66180E+01 0.00000E+00
 -1      4037 8.79000E+01 2.79170E+01 0.00000E+00
 -1      4038 8.94000E+01 2.79170E+01 0.00000E+00
 -1      4039 8.71500E+01 2.66180E+01 0.00000E+00
 -1      4040 9.09000E+01 2.79170E+01 0.00000E+00
 -1      4041 9.24000E+01 2.79170E+01 0.00000E+00
 -1      4042 9.01500E+01 2.66180E+01 0.00000E+00
 -1      4043 9.39000E+01 2.79170E+01 0.00000E+00
 -1      4044 9.54000E+01 2.79170E+01 0.00000E+00
 -1      4045 9.31500E+01 2.66180E+01 0.00000E+00
 -1      4046 9.69000E+01 2.79170E+01 0.00000E+00
 -1      4047 9.84000E+01 2.79170E+01 0.00000E+00
 -1      4048 9.61500E+01 2.66180E+01 0.00000E+00
 -1      4049 9.99000E+01 2.79170E+01 0.00000E+00
 -1      4050 1.01400E+02 2.79170E+01 0.00000E+00
 -1      4051 9.91500E+01 2.66180E+01 0.00000E+00
 -1      4052 1.02900E+02 2.79170E+01 0.00000E+00
 -1      4053 1.04400E+02 2.79170E+01 0.00000E+00
 -1      4054 1.02150E+02 2.66180E+01 0.00000E+00
 -1      4055 1.05900E+02 2.79170E+01 0.00000E+00
 -1      4056 1.07400E+02 2.79170E+01 0.00000E+00
 -1      4057 1.05150E+02 2.66180E+01 0.00000E+00
 -1      4058 1.08900E+02 2.79170E+01 0.00000E+00
 -1      4059 1.10400E+02 2.79170E+01 0.00000E+00
 -1      4060 1.08150E+02 2.66180E+01 0.00000E+00
 -1      4061 1.11827E+02 2.78202E+01 0.00000E+00
 -1      4062 1.13327E+02 2.78202E+01 0.00000E+00
 -1      4063 1.13930E+02 2.63276E+01 0.00000E+00
 -1      4064 1.11077E+02 2.65212E+01 0.00000E+00
 -1      4065 3.47850E+01 2.08932E+01 0.00000E+00
 -1      4066 3.32850E+01 2.08932E+01 0.00000E+00
 -1      4067 2.42850E+01 1.82952E+01 0.00000E+00
 -1      4068 2.27850E+01 1.82952E+01 0.00000E+00
 -1      4069 2.50350E+01 1.95942E+01 0.00000E+00
 -1      4070 1.93564E+01 2.08346E+01 0.00000E+00
 -1      4071 6.17850E+01 2.08932E+01 0.00000E+00
 -1      4072 6.02850E+01 2.08932E+01 0.00000E+00
 -1      4073 6.25350E+01 2.21922E+01 0.00000E+00
 -1      4074 5.87850E+01 2.08932E+01 0.00000E+00
 -1      4075 5.72850E+01 2.08932E+01 0.00000E+00
 -1      4076 5.95350E+01 2.21922E+01 0.00000E+00
 -1      4077 6.77850E+01 2.08932E+01 0.00000E+00
 -1      4078 6.62850E+01 2.08932E+01 0.00000E+00
 -1      4079 6.55350E+01 2.21922E+01 0.00000E+00
 -1      4080 7.07850E+01 2.08932E+01 0.00000E+00
 -1      4081 6.92850E+01 2.08932E+01 0.00000E+00
 -1      4082 6.85350E+01 2.21922E+01 0.00000E+00
 -1      4083 7.37850E+01 2.08932E+01 0.00000E+00
 -1      4084 7.22850E+01 2.08932E+01 0.00000E+00
 -1      4085 7.15350E+01 2.21922E+01 0.00000E+00
 -1      4086 7.67850E+01 2.08932E+01 0.00000E+00
 -1      4087 7.52850E+01 2.08932E+01 0.00000E+00
 -1      4088 7.45350E+01 2.21922E+01 0.00000E+00
 -1      4089 7.97850E+01 2.08932E+01 0.00000E+00
 -1      4090 7.82850E+01 2.08932E+01 0.00000E+00
 -1      4091 7.75350E+01 2.21922E+01 0.00000E+00
 -1      4092 8.27850E+01 2.08932E+01 0.00000E+00
 -1      4093 8.12850E+01 2.08932E+01 0.00000E+00
 -1      4094 8.05350E+01 2.21922E+01 0.00000E+00
 -1      4095 8.57850E+01 2.08932E+01 0.00000E+00
 -1      4096 8.42850E+01 2.08932E+01 0.00000E+00
 -1      4097 8.35350E+01 2.21922E+01 0.00000E+00
 -1      4098 8.87850E+01 2.08932E+01 0.00000E+00
 -1      4099 8.72850E+01 2.08932E+01 0.00000E+00
 -1      4100 8.65350E+01 2.21922E+01 0.00000E+00
 -1      4101 9.17850E+01 2.08932E+01 0.00000E+00
 -1      4102 9.02850E+01 2.08932E+01 0.00000E+00
 -1      4103 8.95350E+01 2.21922E+01 0.00000E+00
 -1      4104 9.47850E+01 2.08932E+01 0.00000E+00
 -1      4105 9.32850E+01 2.08932E+01 0.00000E+00
 -1      4106 9.25350E+01 2.21922E+01 0.00000E+00
 -1      4107 9.77850E+01 2.08932E+01 0.00000E+00
 -1      4108 9.62850E+01 2.08932E+01 0.00000E+00
 -1      4109 9.55350E+01 2.21922E+01 0.00000E+00
 -1      4110 1.00785E+02 2.08932E+01 0.00000E+00
 -1      4111 9.92850E+01 2.08932E+01 0.00000E+00
 -1      4112 9.85350E+01 2.21922E+01 0.00000E+00
 -1      4113 1.03785E+02 2.08932E+01 0.00000E+00
 -1      4114 1.02285E+02 2.08932E+01 0.00000E+00
 -1      4115 1.01535E+02 2.21922E+01 0.00000E+00
 -1      4116 1.06785E+02 2.08932E+01 0.00000E+00
 -1      4117 1.05285E+02 2.08932E+01 0.00000E+00
 -1      4118 1.04535E+02 2.21922E+01 0.00000E+00
 -1      4119 1.09785E+02 2.08932E+01 0.00000E+00
 -1      4120 1.08285E+02 2.08932E+01 0.00000E+00
 -1      4121 1.07535E+02 2.21922E+01 0.00000E+00
 -1      4122 1.15047E+02 2.32381E+01 0.00000E+00
 -1      4123 1.14245E+02 2.18926E+01 0.00000E+00
 -1      4124 5.57850E+01 2.08932E+01 0.00000E+00
 -1      4125 5.42850E+01 2.08932E+01 0.00000E+00
 -1      4126 5.65350E+01 2.21922E+01 0.00000E+00
 -1      4127 2.79000E+01 2.79170E+01 0.00000E+00
 -1      4128 2.94000E+01 2.79170E+01 0.00000E+00
 -1      4129 3.01500E+01 2.66180E+01 0.00000E+00
 -1      4130 5.27850E+01 2.08932E+01 0.00000E+00
 -1      4131 5.12850E+01 2.08932E+01 0.00000E+00
 -1      4132 5.05350E+01 2.21922E+01 0.00000E+00
 -1      4133 3.17850E+01 2.08932E+01 0.00000E+00
 -1      4134 3.02850E+01 2.08932E+01 0.00000E+00
 -1      4135 3.25350E+01 2.21922E+01 0.00000E+00
 -1      4136 1.96552E+01 2.86141E+01 0.00000E+00
 -1      4137 2.20350E+01 1.95942E+01 0.00000E+00
 -1      4138 2.09585E+01 2.78717E+01 0.00000E+00
 -1      4139 3.77850E+01 2.08932E+01 0.00000E+00
 -1      4140 3.62850E+01 2.08932E+01 0.00000E+00
 -1      4141 3.55350E+01 2.21922E+01 0.00000E+00
 -1      4142 2.22671E+01 2.65274E+01 0.00000E+00
 -1      4143 2.24585E+01 2.78717E+01 0.00000E+00
 -1      4144 2.39585E+01 2.78717E+01 0.00000E+00
 -1      4145 2.06510E+01 2.15921E+01 0.00000E+00
 -1      4146 4.75350E+01 2.21922E+01 0.00000E+00
 -1      4147 4.67850E+01 2.08932E+01 0.00000E+00
 -1      4148 4.52850E+01 2.08932E+01 0.00000E+00
 -1      4149 2.87850E+01 2.08932E+01 0.00000E+00
 -1      4150 2.72850E+01 2.08932E+01 0.00000E+00
 -1      4151 2.95350E+01 2.21922E+01 0.00000E+00
 -1      4152 4.30350E+01 1.95942E+01 0.00000E+00
 -1      4153 1.13139E+02 2.16525E+01 0.00000E+00
 -1      4154 1.10891E+02 2.11334E+01 0.00000E+00
 -1      4155 1.10141E+02 2.24324E+01 0.00000E+00
 -1      4156 1.11997E+02 2.13735E+01 0.00000E+00
 -1      4157 1.14443E+02 2.47307E+01 0.00000E+00
 -1      4158 5.35350E+01 2.21922E+01 0.00000E+00
 -1      4159 2.51793E+01 2.78943E+01 0.00000E+00
 -1      4160 2.66793E+01 2.78943E+01 0.00000E+00
 -1      4161 2.74293E+01 2.65953E+01 0.00000E+00
 -1      4162 2.49878E+01 2.65500E+01 0.00000E+00
 -1      4163 1.68427E+01 2.97009E+01 0.00000E+00
 -1      4164 4.07850E+01 2.08932E+01 0.00000E+00
 -1      4165 3.92850E+01 2.08932E+01 0.00000E+00
 -1      4166 3.85350E+01 2.21922E+01 0.00000E+00
 -1      4167 2.22671E+01 2.50586E+01 0.00000E+00
 -1      4168 2.21510E+01 2.15921E+01 0.00000E+00
 -1      4169 3.58425E+01 2.44051E+01 0.00000E+00
 -1      4170 3.43425E+01 2.44051E+01 0.00000E+00
 -1      4171 3.73425E+01 2.44051E+01 0.00000E+00
 -1      4172 3.88425E+01 2.44051E+01 0.00000E+00
 -1      4173 4.03425E+01 2.44051E+01 0.00000E+00
 -1      4174 4.44000E+01 2.53190E+01 0.00000E+00
 -1      4175 4.59000E+01 2.53190E+01 0.00000E+00
 -1      4176 4.78425E+01 2.44051E+01 0.00000E+00
 -1      4177 4.93425E+01 2.44051E+01 0.00000E+00
 -1      4178 5.08425E+01 2.44051E+01 0.00000E+00
 -1      4179 5.23425E+01 2.44051E+01 0.00000E+00
 -1      4180 5.38425E+01 2.44051E+01 0.00000E+00
 -1      4181 5.53425E+01 2.44051E+01 0.00000E+00
 -1      4182 5.68425E+01 2.44051E+01 0.00000E+00
 -1      4183 5.83425E+01 2.44051E+01 0.00000E+00
 -1      4184 5.98425E+01 2.44051E+01 0.00000E+00
 -1      4185 6.13425E+01 2.44051E+01 0.00000E+00
 -1      4186 6.28425E+01 2.44051E+01 0.00000E+00
 -1      4187 6.43425E+01 2.44051E+01 0.00000E+00
 -1      4188 6.58425E+01 2.44051E+01 0.00000E+00
 -1      4189 6.73425E+01 2.44051E+01 0.00000E+00
 -1      4190 6.88425E+01 2.44051E+01 0.00000E+00
 -1      4191 7.03425E+01 2.44051E+01 0.00000E+00
 -1      4192 7.18425E+01 2.44051E+01 0.00000E+00
 -1      4193 7.33425E+01 2.44051E+01 0.00000E+00
 -1      4194 7.48425E+01 2.44051E+01 0.00000E+00
 -1      4195 7.63425E+01 2.44051E+01 0.00000E+00
 -1      4196 7.78425E+01 2.44051E+01 0.00000E+00
 -1      4197 7.93425E+01 2.44051E+01 0.00000E+00
 -1      4198 8.08425E+01 2.44051E+01 0.00000E+00
 -1      4199 8.23425E+01 2.44051E+01 0.00000E+00
 -1      4200 8.38425E+01 2.44051E+01 0.00000E+00
 -1      4201 8.53425E+01 2.44051E+01 0.00000E+00
 -1      4202 8.68425E+01 2.44051E+01 0.00000E+00
 -1      4203 8.83425E+01 2.44051E+01 0.00000E+00
 -1      4204 8.98425E+01 2.44051E+01 0.00000E+00
 -1      4205 9.13425E+01 2.44051E+01 0.00000E+00
 -1      4206 9.28425E+01 2.44051E+01 0.00000E+00
 -1      4207 9.43425E+01 2.44051E+01 0.00000E+00
 -1      4208 9.58425E+01 2.44051E+01 0.00000E+00
 -1      4209 9.73425E+01 2.44051E+01 0.00000E+00
 -1      4210 9.88425E+01 2.44051E+01 0.00000E+00
 -1      4211 1.00342E+02 2.44051E+01 0.00000E+00
 -1      4212 1.01842E+02 2.44051E+01 0.00000E+00
 -1      4213 1.03342E+02 2.44051E+01 0.00000E+00
 -1      4214 1.04842E+02 2.44051E+01 0.00000E+00
 -1      4215 1.06342E+02 2.44051E+01 0.00000E+00
 -1      4216 1.07842E+02 2.44051E+01 0.00000E+00
 -1      4217 1.09342E+02 2.44051E+01 0.00000E+00
 -1      4218 2.57850E+01 2.08932E+01 0.00000E+00
 -1      4219 2.42850E+01 2.08932E+01 0.00000E+00
 -1      4220 2.65350E+01 2.21922E+01 0.00000E+00
 -1      4221 3.28425E+01 2.44051E+01 0.00000E+00
 -1      4222 3.13425E+01 2.44051E+01 0.00000E+00
 -1      4223 1.12389E+02 2.29515E+01 0.00000E+00
 -1      4224 1.13017E+02 2.48275E+01 0.00000E+00
 -1      4225 2.29010E+01 2.28911E+01 0.00000E+00
 -1      4226 2.98425E+01 2.44051E+01 0.00000E+00
 -1      4227 4.37850E+01 2.08932E+01 0.00000E+00
 -1      4228 4.22850E+01 2.08932E+01 0.00000E+00
 -1      4229 4.45350E+01 2.21922E+01 0.00000E+00
 -1      4230 2.83425E+01 2.44051E+01 0.00000E+00
 -1      4231 4.14000E+01 2.53190E+01 0.00000E+00
 -1      4232 4.29000E+01 2.53190E+01 0.00000E+00
 -1      4233 1.10449E+02 2.46452E+01 0.00000E+00
 -1      4234 4.10925E+01 2.31061E+01 0.00000E+00
 -1      4235 1.11875E+02 2.45484E+01 0.00000E+00
 -1      4236 2.44010E+01 2.43598E+01 0.00000E+00
 -1      4237 2.56218E+01 2.43825E+01 0.00000E+00
 -1      4238 4.70925E+01 2.31061E+01 0.00000E+00
 -1      4239 4.36500E+01 2.40200E+01 0.00000E+00
 -1      4240 2.71218E+01 2.43825E+01 0.00000E+00
 -1      4241 4.25925E+01 2.31061E+01 0.00000E+00
 -1      4242 4.40925E+01 2.31061E+01 0.00000E+00
 -1      4243 4.15350E+01 2.21922E+01 0.00000E+00
 -1      4244 4.55925E+01 2.31061E+01 0.00000E+00
 -3
    3C                          2040                                     1
 -1       165    8    0    1
 -2         6         7        23      1103      1267      1120
 -1       166    8    0    1
 -2         7         8       165      1104      1268      1269
 -1       167    8    0    1
 -2         8         9       166      1105      1270      1271
 -1       168    8    0    1
 -2         8       166       165      1271      1272      1268
 -1       169    8    0    1
 -2         9        10       167      1106      1273      1274
 -1       170    8    0    1
 -2         9       167       166      1274      1275      1270
 -1       171    8    0    1
 -2        10        11       168      1107      1276      1277
 -1       172    8    0    1
 -2        10       168       167      1277      1278      1273
 -1       173    8    0    1
 -2        11        12       169      1108      1279      1280
 -1       174    8    0    1
 -2        11       169       168      1280      1281      1276
 -1       175    8    0    1
 -2        12        13       170      1109      1282      1283
 -1       176    8    0    1
 -2        12       170       169      1283      1284      1279
 -1       177    8    0    1
 -2        13        14       171      1110      1285      1286
 -1       178    8    0    1
 -2        13       171       170      1286      1287      1282
 -1       179    8    0    1
 -2        14        15       172      1111      1288      1289
 -1       180    8    0    1
 -2        14       172       171      1289      1290      1285
 -1       181    8    0    1
 -2        15        16       173      1112      1291      1292
 -1       182    8    0    1
 -2        15       173       172      1292      1293      1288
 -1       183    8    0    1
 -2        16        17       174      1113      1294      1295
 -1       184    8    0    1
 -2        16       174       173      1295      1296      1291
 -1       185    8    0    1
 -2        17        18       175      1114      1297      1298
 -1       186    8    0    1
 -2        17       175       174      1298      1299      1294
 -1       187    8    0    1
 -2        18        19       176      1115      1300      1301
 -1       188    8    0    1
 -2        18       176       175      1301      1302      1297
 -1       189    8    0    1
 -2        19        20       177      1116      1303      1304
 -1       190    8    0    1
 -2        19       177       176      1304      1305      1300
 -1       191    8    0    1
 -2        20        21       178      1117      1306      1307
 -1       192    8    0    1
 -2        20       178       177      1307      1308      1303
 -1       193    8    0    1
 -2        21        22       179      1118      1309      1310
 -1       194    8    0    1
 -2        21       179       178      1310      1311      1306
 -1       195    8    0    1
 -2        22         5       180      1119      1312      1313
 -1       196    8    0    1
 -2       179        22       180      1309      1313      1314
 -1       197    8    0    1
 -2         5        72       180      1170      1315      1312
 -1       198    8    0    1
 -2        24        23       181      1121      1316      1317
 -1       199    8    0    1
 -2        25        24       182      1122      1318      1319
 -1       200    8    0    1
 -2        24       181       182      1317      1320      1318
 -1       201    8    0    1
 -2        26        25       183      1123      1321      1322
 -1       202    8    0    1
 -2        25       182       183      1319      1323      1321
 -1       203    8    0    1
 -2        27        26       184      1124      1324      1325
 -1       204    8    0    1
 -2        26       183       184      1322      1326      1324
 -1       205    8    0    1
 -2        28        27       185      1125      1327      1328
 -1       206    8    0    1
 -2        27       184       185      1325      1329      1327
 -1       207    8    0    1
 -2        29        28       186      1126      1330      1331
 -1       208    8    0    1
 -2        28       185       186      1328      1332      1330
 -1       209    8    0    1
 -2        30        29       187      1127      1333      1334
 -1       210    8    0    1
 -2        29       186       187      1331      1335      1333
 -1       211    8    0    1
 -2        31        30       188      1128      1336      1337
 -1       212    8    0    1
 -2        30       187       188      1334      1338      1336
 -1       213    8    0    1
 -2        32        31       189      1129      1339      1340
 -1       214    8    0    1
 -2        31       188       189      1337      1341      1339
 -1       215    8    0    1
 -2        33        32       190      1130      1342      1343
 -1       216    8    0    1
 -2        32       189       190      1340      1344      1342
 -1       217    8    0    1
 -2        34        33       191      1131      1345      1346
 -1       218    8    0    1
 -2        33       190       191      1343      1347      1345
 -1       219    8    0    1
 -2        35        34       192      1132      1348      1349
 -1       220    8    0    1
 -2        34       191       192      1346      1350      1348
 -1       221    8    0    1
 -2        36        35       193      1133      1351      1352
 -1       222    8    0    1
 -2        35       192       193      1349      1353      1351
 -1       223    8    0    1
 -2        37        36       194      1134      1354      1355
 -1       224    8    0    1
 -2        36       193       194      1352      1356      1354
 -1       225    8    0    1
 -2        38        37       195      1135      1357      1358
 -1       226    8    0    1
 -2        37       194       195      1355      1359      1357
 -1       227    8    0    1
 -2        39        38       196      1136      1360      1361
 -1       228    8    0    1
 -2        38       195       196      1358      1362      1360
 -1       229    8    0    1
 -2        40        39       197      1137      1363      1364
 -1       230    8    0    1
 -2        39       196       197      1361      1365      1363
 -1       231    8    0    1
 -2        41        40       198      1138      1366      1367
 -1       232    8    0    1
 -2        40       197       198      1364      1368      1366
 -1       233    8    0    1
 -2        42        41       199      1139      1369      1370
 -1       234    8    0    1
 -2        41       198       199      1367      1371      1369
 -1       235    8    0    1
 -2        43        42       200      1140      1372      1373
 -1       236    8    0    1
 -2        42       199       200      1370      1374      1372
 -1       237    8    0    1
 -2        44        43       201      1141      1375      1376
 -1       238    8    0    1
 -2        43       200       201      1373      1377      1375
 -1       239    8    0    1
 -2        45        44       202      1142      1378      1379
 -1       240    8    0    1
 -2        44       201       202      1376      1380      1378
 -1       241    8    0    1
 -2        46        45       203      1143      1381      1382
 -1       242    8    0    1
 -2        45       202       203      1379      1383      1381
 -1       243    8    0    1
 -2        47        46       204      1144      1384      1385
 -1       244    8    0    1
 -2        46       203       204      1382      1386      1384
 -1       245    8    0    1
 -2        48        47       205      1145      1387      1388
 -1       246    8    0    1
 -2        47       204       205      1385      1389      1387
 -1       247    8    0    1
 -2        49        48       206      1146      1390      1391
 -1       248    8    0    1
 -2        48       205       206      1388      1392      1390
 -1       249    8    0    1
 -2        50        49       207      1147      1393      1394
 -1       250    8    0    1
 -2        49       206       207      1391      1395      1393
 -1       251    8    0    1
 -2        51        50       208      1148      1396      1397
 -1       252    8    0    1
 -2        50       207       208      1394      1398      1396
 -1       253    8    0    1
 -2        52        51       209      1149      1399      1400
 -1       254    8    0    1
 -2        51       208       209      1397      1401      1399
 -1       255    8    0    1
 -2        53        52       210      1150      1402      1403
 -1       256    8    0    1
 -2        52       209       210      1400      1404      1402
 -1       257    8    0    1
 -2        54        53       211      1151      1405      1406
 -1       258    8    0    1
 -2        53       210       211      1403      1407      1405
 -1       259    8    0    1
 -2        55        54       212      1152      1408      1409
 -1       260    8    0    1
 -2        54       211       212      1406      1410      1408
 -1       261    8    0    1
 -2        56        55       213      1153      1411      1412
 -1       262    8    0    1
 -2        55       212       213      1409      1413      1411
 -1       263    8    0    1
 -2        57        56       214      1154      1414      1415
 -1       264    8    0    1
 -2        56       213       214      1412      1416      1414
 -1       265    8    0    1
 -2        58        57       215      1155      1417      1418
 -1       266    8    0    1
 -2        57       214       215      1415      1419      1417
 -1       267    8    0    1
 -2        59        58       216      1156      1420      1421
 -1       268    8    0    1
 -2        58       215       216      1418      1422      1420
 -1       269    8    0    1
 -2        60        59       217      1157      1423      1424
 -1       270    8    0    1
 -2        59       216       217      1421      1425      1423
 -1       271    8    0    1
 -2        61        60       218      1158      1426      1427
 -1       272    8    0    1
 -2        60       217       218      1424      1428      1426
 -1       273    8    0    1
 -2        62        61       219      1159      1429      1430
 -1       274    8    0    1
 -2        61       218       219      1427      1431      1429
 -1       275    8    0    1
 -2        63        62       220      1160      1432      1433
 -1       276    8    0    1
 -2        62       219       220      1430      1434      1432
 -1       277    8    0    1
 -2        64        63       221      1161      1435      1436
 -1       278    8    0    1
 -2        63       220       221      1433      1437      1435
 -1       279    8    0    1
 -2        65        64       222      1162      1438      1439
 -1       280    8    0    1
 -2        64       221       222      1436      1440      1438
 -1       281    8    0    1
 -2        66        65       223      1163      1441      1442
 -1       282    8    0    1
 -2        65       222       223      1439      1443      1441
 -1       283    8    0    1
 -2        67        66       224      1164      1444      1445
 -1       284    8    0    1
 -2        66       223       224      1442      1446      1444
 -1       285    8    0    1
 -2        68        67       225      1165      1447      1448
 -1       286    8    0    1
 -2        67       224       225      1445      1449      1447
 -1       287    8    0    1
 -2        69        68       226      1166      1450      1451
 -1       288    8    0    1
 -2        68       225       226      1448      1452      1450
 -1       289    8    0    1
 -2        70        69       227      1167      1453      1454
 -1       290    8    0    1
 -2        69       226       227      1451      1455      1453
 -1       291    8    0    1
 -2        71        70       228      1168      1456      1457
 -1       292    8    0    1
 -2        70       227       228      1454      1458      1456
 -1       293    8    0    1
 -2         4        71       137      1169      1459      1237
 -1       294    8    0    1
 -2       137        71       228      1459      1457      1460
 -1       295    8    0    1
 -2        72        73       229      1171      1461      1462
 -1       296    8    0    1
 -2        72       229       180      1462      1463      1315
 -1       297    8    0    1
 -2        73        74       230      1172      1464      1465
 -1       298    8    0    1
 -2        73       230       229      1465      1466      1461
 -1       299    8    0    1
 -2        74        75       231      1173      1467      1468
 -1       300    8    0    1
 -2        74       231       230      1468      1469      1464
 -1       301    8    0    1
 -2        75        76       232      1174      1470      1471
 -1       302    8    0    1
 -2        75       232       231      1471      1472      1467
 -1       303    8    0    1
 -2        76        77       233      1175      1473      1474
 -1       304    8    0    1
 -2        76       233       232      1474      1475      1470
 -1       305    8    0    1
 -2        77        78       234      1176      1476      1477
 -1       306    8    0    1
 -2        77       234       233      1477      1478      1473
 -1       307    8    0    1
 -2        78        79       235      1177      1479      1480
 -1       308    8    0    1
 -2        78       235       234      1480      1481      1476
 -1       309    8    0    1
 -2        79        80       236      1178      1482      1483
 -1       310    8    0    1
 -2        79       236       235      1483      1484      1479
 -1       311    8    0    1
 -2        80        81       237      1179      1485      1486
 -1       312    8    0    1
 -2        80       237       236      1486      1487      1482
 -1       313    8    0    1
 -2        81        82       238      1180      1488      1489
 -1       314    8    0    1
 -2        81       238       237      1489      1490      1485
 -1       315    8    0    1
 -2        82        83       239      1181      1491      1492
 -1       316    8    0    1
 -2        82       239       238      1492      1493      1488
 -1       317    8    0    1
 -2        83        84       240      1182      1494      1495
 -1       318    8    0    1
 -2        83       240       239      1495      1496      1491
 -1       319    8    0    1
 -2        84        85       241      1183      1497      1498
 -1       320    8    0    1
 -2        84       241       240      1498      1499      1494
 -1       321    8    0    1
 -2        85        86       242      1184      1500      1501
 -1       322    8    0    1
 -2        85       242       241      1501      1502      1497
 -1       323    8    0    1
 -2        86        87       243      1185      1503      1504
 -1       324    8    0    1
 -2        86       243       242      1504      1505      1500
 -1       325    8    0    1
 -2        87        88       244      1186      1506      1507
 -1       326    8    0    1
 -2        87       244       243      1507      1508      1503
 -1       327    8    0    1
 -2        88        89       245      1187      1509      1510
 -1       328    8    0    1
 -2        88       245       244      1510      1511      1506
 -1       329    8    0    1
 -2        89        90       246      1188      1512      1513
 -1       330    8    0    1
 -2        89       246       245      1513      1514      1509
 -1       331    8    0    1
 -2        90        91       247      1189      1515      1516
 -1       332    8    0    1
 -2        90       247       246      1516      1517      1512
 -1       333    8    0    1
 -2        91        92       248      1190      1518      1519
 -1       334    8    0    1
 -2        91       248       247      1519      1520      1515
 -1       335    8    0    1
 -2        92        93       249      1191      1521      1522
 -1       336    8    0    1
 -2        92       249       248      1522      1523      1518
 -1       337    8    0    1
 -2        93        94       250      1192      1524      1525
 -1       338    8    0    1
 -2        93       250       249      1525      1526      1521
 -1       339    8    0    1
 -2        94        95       251      1193      1527      1528
 -1       340    8    0    1
 -2        94       251       250      1528      1529      1524
 -1       341    8    0    1
 -2        95        96       252      1194      1530      1531
 -1       342    8    0    1
 -2        95       252       251      1531      1532      1527
 -1       343    8    0    1
 -2        96        97       253      1195      1533      1534
 -1       344    8    0    1
 -2        96       253       252      1534      1535      1530
 -1       345    8    0    1
 -2        97        98       254      1196      1536      1537
 -1       346    8    0    1
 -2        97       254       253      1537      1538      1533
 -1       347    8    0    1
 -2        98        99       255      1197      1539      1540
 -1       348    8    0    1
 -2        98       255       254      1540      1541      1536
 -1       349    8    0    1
 -2        99       100       256      1198      1542      1543
 -1       350    8    0    1
 -2        99       256       255      1543      1544      1539
 -1       351    8    0    1
 -2       100       101       257      1199      1545      1546
 -1       352    8    0    1
 -2       100       257       256      1546      1547      1542
 -1       353    8    0    1
 -2       101       102       258      1200      1548      1549
 -1       354    8    0    1
 -2       101       258       257      1549      1550      1545
 -1       355    8    0    1
 -2       102       103       259      1201      1551      1552
 -1       356    8    0    1
 -2       102       259       258      1552      1553      1548
 -1       357    8    0    1
 -2       103       104       260      1202      1554      1555
 -1       358    8    0    1
 -2       103       260       259      1555      1556      1551
 -1       359    8    0    1
 -2       104       105       261      1203      1557      1558
 -1       360    8    0    1
 -2       104       261       260      1558      1559      1554
 -1       361    8    0    1
 -2       105       106       262      1204      1560      1561
 -1       362    8    0    1
 -2       105       262       261      1561      1562      1557
 -1       363    8    0    1
 -2       106       107       263      1205      1563      1564
 -1       364    8    0    1
 -2       106       263       262      1564      1565      1560
 -1       365    8    0    1
 -2       107       108       264      1206      1566      1567
 -1       366    8    0    1
 -2       107       264       263      1567      1568      1563
 -1       367    8    0    1
 -2       108       109       265      1207      1569      1570
 -1       368    8    0    1
 -2       108       265       264      1570      1571      1566
 -1       369    8    0    1
 -2       109       110       266      1208      1572      1573
 -1       370    8    0    1
 -2       109       266       265      1573      1574      1569
 -1       371    8    0    1
 -2       110       111       267      1209      1575      1576
 -1       372    8    0    1
 -2       110       267       266      1576      1577      1572
 -1       373    8    0    1
 -2       111       112       268      1210      1578      1579
 -1       374    8    0    1
 -2       111       268       267      1579      1580      1575
 -1       375    8    0    1
 -2       112       113       269      1211      1581      1582
 -1       376    8    0    1
 -2       112       269       268      1582      1583      1578
 -1       377    8    0    1
 -2       113       114       270      1212      1584      1585
 -1       378    8    0    1
 -2       113       270       269      1585      1586      1581
 -1       379    8    0    1
 -2       114       115       271      1213      1587      1588
 -1       380    8    0    1
 -2       114       271       270      1588      1589      1584
 -1       381    8    0    1
 -2       115       116       272      1214      1590      1591
 -1       382    8    0    1
 -2       115       272       271      1591      1592      1587
 -1       383    8    0    1
 -2       116       117       273      1215      1593      1594
 -1       384    8    0    1
 -2       116       273       272      1594      1595      1590
 -1       385    8    0    1
 -2       117       118       274      1216      1596      1597
 -1       386    8    0    1
 -2       117       274       273      1597      1598      1593
 -1       387    8    0    1
 -2       118       119       275      1217      1599      1600
 -1       388    8    0    1
 -2       118       275       274      1600      1601      1596
 -1       389    8    0    1
 -2       119       120       276      1218      1602      1603
 -1       390    8    0    1
 -2       119       276       275      1603      1604      1599
 -1       391    8    0    1
 -2       120         3       121      1219      1220      1605
 -1       392    8    0    1
 -2       121       122       277      1221      1606      1607
 -1       393    8    0    1
 -2       122       123       278      1222      1608      1609
 -1       394    8    0    1
 -2       122       278       277      1609      1610      1606
 -1       395    8    0    1
 -2       123       124       279      1223      1611      1612
 -1       396    8    0    1
 -2       123       279       278      1612      1613      1608
 -1       397    8    0    1
 -2       124       125       280      1224      1614      1615
 -1       398    8    0    1
 -2       124       280       279      1615      1616      1611
 -1       399    8    0    1
 -2       126       127       281      1226      1617      1618
 -1       400    8    0    1
 -2       127       128       282      1227      1619      1620
 -1       401    8    0    1
 -2       127       282       281      1620      1621      1617
 -1       402    8    0    1
 -2       128       129       283      1228      1622      1623
 -1       403    8    0    1
 -2       128       283       282      1623      1624      1619
 -1       404    8    0    1
 -2       129       130       284      1229      1625      1626
 -1       405    8    0    1
 -2       129       284       283      1626      1627      1622
 -1       406    8    0    1
 -2       130       131       285      1230      1628      1629
 -1       407    8    0    1
 -2       130       285       284      1629      1630      1625
 -1       408    8    0    1
 -2       131       132       286      1231      1631      1632
 -1       409    8    0    1
 -2       131       286       285      1632      1633      1628
 -1       410    8    0    1
 -2       132       133       287      1232      1634      1635
 -1       411    8    0    1
 -2       132       287       286      1635      1636      1631
 -1       412    8    0    1
 -2       133       134       288      1233      1637      1638
 -1       413    8    0    1
 -2       133       288       287      1638      1639      1634
 -1       414    8    0    1
 -2       134       135       289      1234      1640      1641
 -1       415    8    0    1
 -2       134       289       288      1641      1642      1637
 -1       416    8    0    1
 -2       135       136       290      1235      1643      1644
 -1       417    8    0    1
 -2       135       290       289      1644      1645      1640
 -1       418    8    0    1
 -2       136       137       291      1236      1646      1647
 -1       419    8    0    1
 -2       290       136       291      1643      1647      1648
 -1       420    8    0    1
 -2       137       228       291      1460      1649      1646
 -1       421    8    0    1
 -2         2       138       292      1238      1650      1651
 -1       422    8    0    1
 -2       138       139       293      1239      1652      1653
 -1       423    8    0    1
 -2       139       140       294      1240      1654      1655
 -1       424    8    0    1
 -2       140       141       295      1241      1656      1657
 -1       425    8    0    1
 -2       141       142       296      1242      1658      1659
 -1       426    8    0    1
 -2       142       143       297      1243      1660      1661
 -1       427    8    0    1
 -2       143       144       298      1244      1662      1663
 -1       428    8    0    1
 -2       144       145       299      1245      1664      1665
 -1       429    8    0    1
 -2       145       146       300      1246      1666      1667
 -1       430    8    0    1
 -2       146       147       301      1247      1668      1669
 -1       431    8    0    1
 -2       147       148       302      1248      1670      1671
 -1       432    8    0    1
 -2       148       149       303      1249      1672      1673
 -1       433    8    0    1
 -2       149       150       304      1250      1674      1675
 -1       434    8    0    1
 -2       150       151       305      1251      1676      1677
 -1       435    8    0    1
 -2       151       152       306      1252      1678      1679
 -1       436    8    0    1
 -2       152       153       307      1253      1680      1681
 -1       437    8    0    1
 -2       153       154       308      1254      1682      1683
 -1       438    8    0    1
 -2       154       155       309      1255      1684      1685
 -1       439    8    0    1
 -2       155       156       310      1256      1686      1687
 -1       440    8    0    1
 -2       156       157       311      1257      1688      1689
 -1       441    8    0    1
 -2       157       158       312      1258      1690      1691
 -1       442    8    0    1
 -2       158       159       313      1259      1692      1693
 -1       443    8    0    1
 -2       159         1       314      1260      1694      1695
 -1       444    8    0    1
 -2         1       160       315      1261      1696      1697
 -1       445    8    0    1
 -2       160       161       316      1262      1698      1699
 -1       446    8    0    1
 -2       161       162       317      1263      1700      1701
 -1       447    8    0    1
 -2       162       163       318      1264      1702      1703
 -1       448    8    0    1
 -2       163       164       319      1265      1704      1705
 -1       449    8    0    1
 -2       164         2       320      1266      1706      1707
 -1       450    8    0    1
 -2       294       140       295      1654      1657      1708
 -1       451    8    0    1
 -2       120       121       276      1605      1709      1602
 -1       452    8    0    1
 -2       121       277       276      1607      1710      1709
 -1       453    8    0    1
 -2       126       281       321      1618      1711      1712
 -1       454    8    0    1
 -2       126       321       125      1712      1713      1225
 -1       455    8    0    1
 -2       280       125       321      1614      1713      1714
 -1       456    8    0    1
 -2       292       138       293      1650      1653      1715
 -1       457    8    0    1
 -2       293       139       294      1652      1655      1716
 -1       458    8    0    1
 -2         2       292       320      1651      1717      1706
 -1       459    8    0    1
 -2       141       296       295      1659      1718      1656
 -1       460    8    0    1
 -2       142       297       296      1661      1719      1658
 -1       461    8    0    1
 -2       143       298       297      1663      1720      1660
 -1       462    8    0    1
 -2       144       299       298      1665      1721      1662
 -1       463    8    0    1
 -2       145       300       299      1667      1722      1664
 -1       464    8    0    1
 -2       146       301       300      1669      1723      1666
 -1       465    8    0    1
 -2       147       302       301      1671      1724      1668
 -1       466    8    0    1
 -2       148       303       302      1673      1725      1670
 -1       467    8    0    1
 -2       149       304       303      1675      1726      1672
 -1       468    8    0    1
 -2       150       305       304      1677      1727      1674
 -1       469    8    0    1
 -2       151       306       305      1679      1728      1676
 -1       470    8    0    1
 -2       152       307       306      1681      1729      1678
 -1       471    8    0    1
 -2       153       308       307      1683      1730      1680
 -1       472    8    0    1
 -2       154       309       308      1685      1731      1682
 -1       473    8    0    1
 -2       155       310       309      1687      1732      1684
 -1       474    8    0    1
 -2       156       311       310      1689      1733      1686
 -1       475    8    0    1
 -2       157       312       311      1691      1734      1688
 -1       476    8    0    1
 -2       158       313       312      1693      1735      1690
 -1       477    8    0    1
 -2       159       314       313      1695      1736      1692
 -1       478    8    0    1
 -2         1       315       314      1697      1737      1694
 -1       479    8    0    1
 -2       160       316       315      1699      1738      1696
 -1       480    8    0    1
 -2       161       317       316      1701      1739      1698
 -1       481    8    0    1
 -2       162       318       317      1703      1740      1700
 -1       482    8    0    1
 -2       163       319       318      1705      1741      1702
 -1       483    8    0    1
 -2       164       320       319      1707      1742      1704
 -1       484    8    0    1
 -2        23         7       165      1267      1269      1743
 -1       485    8    0    1
 -2       166       167       322      1275      1744      1745
 -1       486    8    0    1
 -2       165       166       323      1272      1746      1747
 -1       487    8    0    1
 -2       166       322       323      1745      1748      1746
 -1       488    8    0    1
 -2       168       169       324      1281      1749      1750
 -1       489    8    0    1
 -2       169       170       325      1284      1751      1752
 -1       490    8    0    1
 -2       169       325       324      1752      1753      1749
 -1       491    8    0    1
 -2       170       171       326      1287      1754      1755
 -1       492    8    0    1
 -2       170       326       325      1755      1756      1751
 -1       493    8    0    1
 -2       171       172       327      1290      1757      1758
 -1       494    8    0    1
 -2       171       327       326      1758      1759      1754
 -1       495    8    0    1
 -2       172       173       328      1293      1760      1761
 -1       496    8    0    1
 -2       172       328       327      1761      1762      1757
 -1       497    8    0    1
 -2       173       174       329      1296      1763      1764
 -1       498    8    0    1
 -2       173       329       328      1764      1765      1760
 -1       499    8    0    1
 -2       174       175       330      1299      1766      1767
 -1       500    8    0    1
 -2       174       330       329      1767      1768      1763
 -1       501    8    0    1
 -2       175       176       331      1302      1769      1770
 -1       502    8    0    1
 -2       175       331       330      1770      1771      1766
 -1       503    8    0    1
 -2       176       177       332      1305      1772      1773
 -1       504    8    0    1
 -2       176       332       331      1773      1774      1769
 -1       505    8    0    1
 -2       177       178       333      1308      1775      1776
 -1       506    8    0    1
 -2       177       333       332      1776      1777      1772
 -1       507    8    0    1
 -2       178       179       334      1311      1778      1779
 -1       508    8    0    1
 -2       178       334       333      1779      1780      1775
 -1       509    8    0    1
 -2       179       180       335      1314      1781      1782
 -1       510    8    0    1
 -2       334       179       335      1778      1782      1783
 -1       511    8    0    1
 -2       180       229       335      1463      1784      1781
 -1       512    8    0    1
 -2       181        23       165      1316      1743      1785
 -1       513    8    0    1
 -2       229       230       336      1466      1786      1787
 -1       514    8    0    1
 -2       229       336       335      1787      1788      1784
 -1       515    8    0    1
 -2       181       165       323      1785      1747      1789
 -1       516    8    0    1
 -2       183       182       337      1323      1790      1791
 -1       517    8    0    1
 -2       184       183       338      1326      1792      1793
 -1       518    8    0    1
 -2       183       337       338      1791      1794      1792
 -1       519    8    0    1
 -2       185       184       339      1329      1795      1796
 -1       520    8    0    1
 -2       184       338       339      1793      1797      1795
 -1       521    8    0    1
 -2       186       185       340      1332      1798      1799
 -1       522    8    0    1
 -2       185       339       340      1796      1800      1798
 -1       523    8    0    1
 -2       187       186       341      1335      1801      1802
 -1       524    8    0    1
 -2       186       340       341      1799      1803      1801
 -1       525    8    0    1
 -2       188       187       342      1338      1804      1805
 -1       526    8    0    1
 -2       187       341       342      1802      1806      1804
 -1       527    8    0    1
 -2       189       188       343      1341      1807      1808
 -1       528    8    0    1
 -2       188       342       343      1805      1809      1807
 -1       529    8    0    1
 -2       190       189       344      1344      1810      1811
 -1       530    8    0    1
 -2       189       343       344      1808      1812      1810
 -1       531    8    0    1
 -2       191       190       345      1347      1813      1814
 -1       532    8    0    1
 -2       190       344       345      1811      1815      1813
 -1       533    8    0    1
 -2       192       191       346      1350      1816      1817
 -1       534    8    0    1
 -2       191       345       346      1814      1818      1816
 -1       535    8    0    1
 -2       193       192       347      1353      1819      1820
 -1       536    8    0    1
 -2       192       346       347      1817      1821      1819
 -1       537    8    0    1
 -2       194       193       348      1356      1822      1823
 -1       538    8    0    1
 -2       193       347       348      1820      1824      1822
 -1       539    8    0    1
 -2       195       194       349      1359      1825      1826
 -1       540    8    0    1
 -2       194       348       349      1823      1827      1825
 -1       541    8    0    1
 -2       196       195       350      1362      1828      1829
 -1       542    8    0    1
 -2       195       349       350      1826      1830      1828
 -1       543    8    0    1
 -2       197       196       351      1365      1831      1832
 -1       544    8    0    1
 -2       196       350       351      1829      1833      1831
 -1       545    8    0    1
 -2       198       197       352      1368      1834      1835
 -1       546    8    0    1
 -2       197       351       352      1832      1836      1834
 -1       547    8    0    1
 -2       199       198       353      1371      1837      1838
 -1       548    8    0    1
 -2       198       352       353      1835      1839      1837
 -1       549    8    0    1
 -2       200       199       354      1374      1840      1841
 -1       550    8    0    1
 -2       199       353       354      1838      1842      1840
 -1       551    8    0    1
 -2       201       200       355      1377      1843      1844
 -1       552    8    0    1
 -2       200       354       355      1841      1845      1843
 -1       553    8    0    1
 -2       202       201       356      1380      1846      1847
 -1       554    8    0    1
 -2       201       355       356      1844      1848      1846
 -1       555    8    0    1
 -2       203       202       357      1383      1849      1850
 -1       556    8    0    1
 -2       202       356       357      1847      1851      1849
 -1       557    8    0    1
 -2       204       203       358      1386      1852      1853
 -1       558    8    0    1
 -2       203       357       358      1850      1854      1852
 -1       559    8    0    1
 -2       205       204       359      1389      1855      1856
 -1       560    8    0    1
 -2       204       358       359      1853      1857      1855
 -1       561    8    0    1
 -2       206       205       360      1392      1858      1859
 -1       562    8    0    1
 -2       205       359       360      1856      1860      1858
 -1       563    8    0    1
 -2       207       206       361      1395      1861      1862
 -1       564    8    0    1
 -2       206       360       361      1859      1863      1861
 -1       565    8    0    1
 -2       208       207       362      1398      1864      1865
 -1       566    8    0    1
 -2       207       361       362      1862      1866      1864
 -1       567    8    0    1
 -2       209       208       363      1401      1867      1868
 -1       568    8    0    1
 -2       208       362       363      1865      1869      1867
 -1       569    8    0    1
 -2       210       209       364      1404      1870      1871
 -1       570    8    0    1
 -2       209       363       364      1868      1872      1870
 -1       571    8    0    1
 -2       211       210       365      1407      1873      1874
 -1       572    8    0    1
 -2       210       364       365      1871      1875      1873
 -1       573    8    0    1
 -2       212       211       366      1410      1876      1877
 -1       574    8    0    1
 -2       211       365       366      1874      1878      1876
 -1       575    8    0    1
 -2       213       212       367      1413      1879      1880
 -1       576    8    0    1
 -2       212       366       367      1877      1881      1879
 -1       577    8    0    1
 -2       214       213       368      1416      1882      1883
 -1       578    8    0    1
 -2       213       367       368      1880      1884      1882
 -1       579    8    0    1
 -2       215       214       369      1419      1885      1886
 -1       580    8    0    1
 -2       214       368       369      1883      1887      1885
 -1       581    8    0    1
 -2       216       215       370      1422      1888      1889
 -1       582    8    0    1
 -2       215       369       370      1886      1890      1888
 -1       583    8    0    1
 -2       217       216       371      1425      1891      1892
 -1       584    8    0    1
 -2       216       370       371      1889      1893      1891
 -1       585    8    0    1
 -2       218       217       372      1428      1894      1895
 -1       586    8    0    1
 -2       217       371       372      1892      1896      1894
 -1       587    8    0    1
 -2       219       218       373      1431      1897      1898
 -1       588    8    0    1
 -2       218       372       373      1895      1899      1897
 -1       589    8    0    1
 -2       220       219       374      1434      1900      1901
 -1       590    8    0    1
 -2       219       373       374      1898      1902      1900
 -1       591    8    0    1
 -2       221       220       375      1437      1903      1904
 -1       592    8    0    1
 -2       220       374       375      1901      1905      1903
 -1       593    8    0    1
 -2       222       221       376      1440      1906      1907
 -1       594    8    0    1
 -2       221       375       376      1904      1908      1906
 -1       595    8    0    1
 -2       223       222       377      1443      1909      1910
 -1       596    8    0    1
 -2       222       376       377      1907      1911      1909
 -1       597    8    0    1
 -2       224       223       378      1446      1912      1913
 -1       598    8    0    1
 -2       223       377       378      1910      1914      1912
 -1       599    8    0    1
 -2       225       224       379      1449      1915      1916
 -1       600    8    0    1
 -2       224       378       379      1913      1917      1915
 -1       601    8    0    1
 -2       226       225       380      1452      1918      1919
 -1       602    8    0    1
 -2       225       379       380      1916      1920      1918
 -1       603    8    0    1
 -2       227       226       381      1455      1921      1922
 -1       604    8    0    1
 -2       226       380       381      1919      1923      1921
 -1       605    8    0    1
 -2       228       227       382      1458      1924      1925
 -1       606    8    0    1
 -2       291       228       382      1649      1925      1926
 -1       607    8    0    1
 -2       227       381       382      1922      1927      1924
 -1       608    8    0    1
 -2       283       284       383      1627      1928      1929
 -1       609    8    0    1
 -2       230       231       384      1469      1930      1931
 -1       610    8    0    1
 -2       230       384       336      1931      1932      1786
 -1       611    8    0    1
 -2       231       232       385      1472      1933      1934
 -1       612    8    0    1
 -2       231       385       384      1934      1935      1930
 -1       613    8    0    1
 -2       232       233       386      1475      1936      1937
 -1       614    8    0    1
 -2       232       386       385      1937      1938      1933
 -1       615    8    0    1
 -2       233       234       387      1478      1939      1940
 -1       616    8    0    1
 -2       233       387       386      1940      1941      1936
 -1       617    8    0    1
 -2       234       235       388      1481      1942      1943
 -1       618    8    0    1
 -2       234       388       387      1943      1944      1939
 -1       619    8    0    1
 -2       235       236       389      1484      1945      1946
 -1       620    8    0    1
 -2       235       389       388      1946      1947      1942
 -1       621    8    0    1
 -2       236       237       390      1487      1948      1949
 -1       622    8    0    1
 -2       236       390       389      1949      1950      1945
 -1       623    8    0    1
 -2       237       238       391      1490      1951      1952
 -1       624    8    0    1
 -2       237       391       390      1952      1953      1948
 -1       625    8    0    1
 -2       238       239       392      1493      1954      1955
 -1       626    8    0    1
 -2       238       392       391      1955      1956      1951
 -1       627    8    0    1
 -2       239       240       393      1496      1957      1958
 -1       628    8    0    1
 -2       239       393       392      1958      1959      1954
 -1       629    8    0    1
 -2       240       241       394      1499      1960      1961
 -1       630    8    0    1
 -2       240       394       393      1961      1962      1957
 -1       631    8    0    1
 -2       241       242       395      1502      1963      1964
 -1       632    8    0    1
 -2       241       395       394      1964      1965      1960
 -1       633    8    0    1
 -2       242       243       396      1505      1966      1967
 -1       634    8    0    1
 -2       242       396       395      1967      1968      1963
 -1       635    8    0    1
 -2       243       244       397      1508      1969      1970
 -1       636    8    0    1
 -2       243       397       396      1970      1971      1966
 -1       637    8    0    1
 -2       244       245       398      1511      1972      1973
 -1       638    8    0    1
 -2       244       398       397      1973      1974      1969
 -1       639    8    0    1
 -2       245       246       399      1514      1975      1976
 -1       640    8    0    1
 -2       245       399       398      1976      1977      1972
 -1       641    8    0    1
 -2       246       247       400      1517      1978      1979
 -1       642    8    0    1
 -2       246       400       399      1979      1980      1975
 -1       643    8    0    1
 -2       247       248       401      1520      1981      1982
 -1       644    8    0    1
 -2       247       401       400      1982      1983      1978
 -1       645    8    0    1
 -2       248       249       402      1523      1984      1985
 -1       646    8    0    1
 -2       248       402       401      1985      1986      1981
 -1       647    8    0    1
 -2       249       250       403      1526      1987      1988
 -1       648    8    0    1
 -2       249       403       402      1988      1989      1984
 -1       649    8    0    1
 -2       250       251       404      1529      1990      1991
 -1       650    8    0    1
 -2       250       404       403      1991      1992      1987
 -1       651    8    0    1
 -2       251       252       405      1532      1993      1994
 -1       652    8    0    1
 -2       251       405       404      1994      1995      1990
 -1       653    8    0    1
 -2       252       253       406      1535      1996      1997
 -1       654    8    0    1
 -2       252       406       405      1997      1998      1993
 -1       655    8    0    1
 -2       253       254       407      1538      1999      2000
 -1       656    8    0    1
 -2       253       407       406      2000      2001      1996
 -1       657    8    0    1
 -2       254       255       408      1541      2002      2003
 -1       658    8    0    1
 -2       254       408       407      2003      2004      1999
 -1       659    8    0    1
 -2       255       256       409      1544      2005      2006
 -1       660    8    0    1
 -2       255       409       408      2006      2007      2002
 -1       661    8    0    1
 -2       256       257       410      1547      2008      2009
 -1       662    8    0    1
 -2       256       410       409      2009      2010      2005
 -1       663    8    0    1
 -2       257       258       411      1550      2011      2012
 -1       664    8    0    1
 -2       257       411       410      2012      2013      2008
 -1       665    8    0    1
 -2       258       259       412      1553      2014      2015
 -1       666    8    0    1
 -2       258       412       411      2015      2016      2011
 -1       667    8    0    1
 -2       259       260       413      1556      2017      2018
 -1       668    8    0    1
 -2       259       413       412      2018      2019      2014
 -1       669    8    0    1
 -2       260       261       414      1559      2020      2021
 -1       670    8    0    1
 -2       260       414       413      2021      2022      2017
 -1       671    8    0    1
 -2       261       262       415      1562      2023      2024
 -1       672    8    0    1
 -2       261       415       414      2024      2025      2020
 -1       673    8    0    1
 -2       262       263       416      1565      2026      2027
 -1       674    8    0    1
 -2       262       416       415      2027      2028      2023
 -1       675    8    0    1
 -2       263       264       417      1568      2029      2030
 -1       676    8    0    1
 -2       263       417       416      2030      2031      2026
 -1       677    8    0    1
 -2       264       265       418      1571      2032      2033
 -1       678    8    0    1
 -2       264       418       417      2033      2034      2029
 -1       679    8    0    1
 -2       265       266       419      1574      2035      2036
 -1       680    8    0    1
 -2       265       419       418      2036      2037      2032
 -1       681    8    0    1
 -2       266       267       420      1577      2038      2039
 -1       682    8    0    1
 -2       266       420       419      2039      2040      2035
 -1       683    8    0    1
 -2       267       268       421      1580      2041      2042
 -1       684    8    0    1
 -2       267       421       420      2042      2043      2038
 -1       685    8    0    1
 -2       268       269       422      1583      2044      2045
 -1       686    8    0    1
 -2       268       422       421      2045      2046      2041
 -1       687    8    0    1
 -2       269       270       423      1586      2047      2048
 -1       688    8    0    1
 -2       269       423       422      2048      2049      2044
 -1       689    8    0    1
 -2       270       271       424      1589      2050      2051
 -1       690    8    0    1
 -2       270       424       423      2051      2052      2047
 -1       691    8    0    1
 -2       271       272       425      1592      2053      2054
 -1       692    8    0    1
 -2       271       425       424      2054      2055      2050
 -1       693    8    0    1
 -2       272       273       426      1595      2056      2057
 -1       694    8    0    1
 -2       272       426       425      2057      2058      2053
 -1       695    8    0    1
 -2       273       274       427      1598      2059      2060
 -1       696    8    0    1
 -2       273       427       426      2060      2061      2056
 -1       697    8    0    1
 -2       274       275       428      1601      2062      2063
 -1       698    8    0    1
 -2       274       428       427      2063      2064      2059
 -1       699    8    0    1
 -2       275       276       429      1604      2065      2066
 -1       700    8    0    1
 -2       428       275       429      2062      2066      2067
 -1       701    8    0    1
 -2       276       277       429      1710      2068      2065
 -1       702    8    0    1
 -2       279       280       430      1616      2069      2070
 -1       703    8    0    1
 -2       278       279       431      1613      2071      2072
 -1       704    8    0    1
 -2       279       430       431      2070      2073      2071
 -1       705    8    0    1
 -2       321       281       292      1711      2074      2075
 -1       706    8    0    1
 -2       277       278       432      1610      2076      2077
 -1       707    8    0    1
 -2       429       277       432      2068      2077      2078
 -1       708    8    0    1
 -2       278       431       432      2072      2079      2076
 -1       709    8    0    1
 -2       284       285       433      1630      2080      2081
 -1       710    8    0    1
 -2       285       286       434      1633      2082      2083
 -1       711    8    0    1
 -2       286       287       435      1636      2084      2085
 -1       712    8    0    1
 -2       286       435       434      2085      2086      2082
 -1       713    8    0    1
 -2       287       288       436      1639      2087      2088
 -1       714    8    0    1
 -2       287       436       435      2088      2089      2084
 -1       715    8    0    1
 -2       288       289       437      1642      2090      2091
 -1       716    8    0    1
 -2       288       437       436      2091      2092      2087
 -1       717    8    0    1
 -2       289       290       438      1645      2093      2094
 -1       718    8    0    1
 -2       289       438       437      2094      2095      2090
 -1       719    8    0    1
 -2       320       292       281      1717      2074      2096
 -1       720    8    0    1
 -2       294       295       430      1708      2097      2098
 -1       721    8    0    1
 -2       167       168       439      1278      2099      2100
 -1       722    8    0    1
 -2       322       167       439      1744      2100      2101
 -1       723    8    0    1
 -2       168       324       439      1750      2102      2099
 -1       724    8    0    1
 -2       296       297       440      1719      2103      2104
 -1       725    8    0    1
 -2       297       298       441      1720      2105      2106
 -1       726    8    0    1
 -2       298       299       442      1721      2107      2108
 -1       727    8    0    1
 -2       298       442       441      2108      2109      2105
 -1       728    8    0    1
 -2       299       300       443      1722      2110      2111
 -1       729    8    0    1
 -2       300       301       444      1723      2112      2113
 -1       730    8    0    1
 -2       300       444       443      2113      2114      2110
 -1       731    8    0    1
 -2       301       302       445      1724      2115      2116
 -1       732    8    0    1
 -2       302       303       446      1725      2117      2118
 -1       733    8    0    1
 -2       303       304       447      1726      2119      2120
 -1       734    8    0    1
 -2       304       305       448      1727      2121      2122
 -1       735    8    0    1
 -2       304       448       447      2122      2123      2119
 -1       736    8    0    1
 -2       305       306       449      1728      2124      2125
 -1       737    8    0    1
 -2       306       307       450      1729      2126      2127
 -1       738    8    0    1
 -2       307       308       451      1730      2128      2129
 -1       739    8    0    1
 -2       307       451       450      2129      2130      2126
 -1       740    8    0    1
 -2       308       309       452      1731      2131      2132
 -1       741    8    0    1
 -2       309       310       453      1732      2133      2134
 -1       742    8    0    1
 -2       310       311       454      1733      2135      2136
 -1       743    8    0    1
 -2       310       454       453      2136      2137      2133
 -1       744    8    0    1
 -2       311       312       455      1734      2138      2139
 -1       745    8    0    1
 -2       312       313       456      1735      2140      2141
 -1       746    8    0    1
 -2       312       456       455      2141      2142      2138
 -1       747    8    0    1
 -2       313       314       457      1736      2143      2144
 -1       748    8    0    1
 -2       314       315       458      1737      2145      2146
 -1       749    8    0    1
 -2       315       316       459      1738      2147      2148
 -1       750    8    0    1
 -2       316       317       460      1739      2149      2150
 -1       751    8    0    1
 -2       317       318       461      1740      2151      2152
 -1       752    8    0    1
 -2       317       461       460      2152      2153      2149
 -1       753    8    0    1
 -2       318       319       462      1741      2154      2155
 -1       754    8    0    1
 -2       295       296       463      1718      2156      2157
 -1       755    8    0    1
 -2       296       440       463      2104      2158      2156
 -1       756    8    0    1
 -2       283       383       462      1929      2159      2160
 -1       757    8    0    1
 -2       181       323       182      1789      2161      1320
 -1       758    8    0    1
 -2       283       462       282      2160      2162      1624
 -1       759    8    0    1
 -2       337       182       323      1790      2161      2163
 -1       760    8    0    1
 -2       433       285       434      2080      2083      2164
 -1       761    8    0    1
 -2       321       292       464      2075      2165      2166
 -1       762    8    0    1
 -2       284       433       383      2081      2167      1928
 -1       763    8    0    1
 -2       280       321       464      1714      2166      2168
 -1       764    8    0    1
 -2       320       281       465      2096      2169      2170
 -1       765    8    0    1
 -2       438       290       291      2093      1648      2171
 -1       766    8    0    1
 -2       293       294       466      1716      2172      2173
 -1       767    8    0    1
 -2       430       295       463      2097      2157      2174
 -1       768    8    0    1
 -2       292       293       464      1715      2175      2165
 -1       769    8    0    1
 -2       461       318       462      2151      2155      2176
 -1       770    8    0    1
 -2       459       316       460      2147      2150      2177
 -1       771    8    0    1
 -2       458       315       459      2145      2148      2178
 -1       772    8    0    1
 -2       456       313       457      2140      2144      2179
 -1       773    8    0    1
 -2       454       311       455      2135      2139      2180
 -1       774    8    0    1
 -2       451       308       452      2128      2132      2181
 -1       775    8    0    1
 -2       448       305       467      2121      2182      2183
 -1       776    8    0    1
 -2       305       449       467      2125      2184      2182
 -1       777    8    0    1
 -2       446       303       447      2117      2120      2185
 -1       778    8    0    1
 -2       444       301       445      2112      2116      2186
 -1       779    8    0    1
 -2       442       299       443      2107      2111      2187
 -1       780    8    0    1
 -2       440       297       441      2103      2106      2188
 -1       781    8    0    1
 -2       445       302       446      2115      2118      2189
 -1       782    8    0    1
 -2       449       306       450      2124      2127      2190
 -1       783    8    0    1
 -2       452       309       453      2131      2134      2191
 -1       784    8    0    1
 -2       457       314       458      2143      2146      2192
 -1       785    8    0    1
 -2       464       293       466      2175      2173      2193
 -1       786    8    0    1
 -2       319       320       465      1742      2170      2194
 -1       787    8    0    1
 -2       433       434       468      2164      2195      2196
 -1       788    8    0    1
 -2       325       326       469      1756      2197      2198
 -1       789    8    0    1
 -2       324       325       470      1753      2199      2200
 -1       790    8    0    1
 -2       325       469       470      2198      2201      2199
 -1       791    8    0    1
 -2       327       328       471      1762      2202      2203
 -1       792    8    0    1
 -2       328       329       472      1765      2204      2205
 -1       793    8    0    1
 -2       328       472       471      2205      2206      2202
 -1       794    8    0    1
 -2       329       330       473      1768      2207      2208
 -1       795    8    0    1
 -2       329       473       472      2208      2209      2204
 -1       796    8    0    1
 -2       330       331       474      1771      2210      2211
 -1       797    8    0    1
 -2       330       474       473      2211      2212      2207
 -1       798    8    0    1
 -2       331       332       475      1774      2213      2214
 -1       799    8    0    1
 -2       331       475       474      2214      2215      2210
 -1       800    8    0    1
 -2       332       333       476      1777      2216      2217
 -1       801    8    0    1
 -2       332       476       475      2217      2218      2213
 -1       802    8    0    1
 -2       333       334       477      1780      2219      2220
 -1       803    8    0    1
 -2       333       477       476      2220      2221      2216
 -1       804    8    0    1
 -2       334       335       478      1783      2222      2223
 -1       805    8    0    1
 -2       477       334       478      2219      2223      2224
 -1       806    8    0    1
 -2       335       336       478      1788      2225      2222
 -1       807    8    0    1
 -2       436       437       479      2092      2226      2227
 -1       808    8    0    1
 -2       384       385       480      1935      2228      2229
 -1       809    8    0    1
 -2       338       337       481      1794      2230      2231
 -1       810    8    0    1
 -2       339       338       482      1797      2232      2233
 -1       811    8    0    1
 -2       338       481       482      2231      2234      2232
 -1       812    8    0    1
 -2       340       339       483      1800      2235      2236
 -1       813    8    0    1
 -2       339       482       483      2233      2237      2235
 -1       814    8    0    1
 -2       341       340       484      1803      2238      2239
 -1       815    8    0    1
 -2       340       483       484      2236      2240      2238
 -1       816    8    0    1
 -2       342       341       485      1806      2241      2242
 -1       817    8    0    1
 -2       341       484       485      2239      2243      2241
 -1       818    8    0    1
 -2       343       342       486      1809      2244      2245
 -1       819    8    0    1
 -2       342       485       486      2242      2246      2244
 -1       820    8    0    1
 -2       344       343       487      1812      2247      2248
 -1       821    8    0    1
 -2       343       486       487      2245      2249      2247
 -1       822    8    0    1
 -2       345       344       488      1815      2250      2251
 -1       823    8    0    1
 -2       344       487       488      2248      2252      2250
 -1       824    8    0    1
 -2       346       345       489      1818      2253      2254
 -1       825    8    0    1
 -2       345       488       489      2251      2255      2253
 -1       826    8    0    1
 -2       347       346       490      1821      2256      2257
 -1       827    8    0    1
 -2       346       489       490      2254      2258      2256
 -1       828    8    0    1
 -2       348       347       491      1824      2259      2260
 -1       829    8    0    1
 -2       347       490       491      2257      2261      2259
 -1       830    8    0    1
 -2       349       348       492      1827      2262      2263
 -1       831    8    0    1
 -2       348       491       492      2260      2264      2262
 -1       832    8    0    1
 -2       350       349       493      1830      2265      2266
 -1       833    8    0    1
 -2       349       492       493      2263      2267      2265
 -1       834    8    0    1
 -2       351       350       494      1833      2268      2269
 -1       835    8    0    1
 -2       350       493       494      2266      2270      2268
 -1       836    8    0    1
 -2       352       351       495      1836      2271      2272
 -1       837    8    0    1
 -2       351       494       495      2269      2273      2271
 -1       838    8    0    1
 -2       353       352       496      1839      2274      2275
 -1       839    8    0    1
 -2       352       495       496      2272      2276      2274
 -1       840    8    0    1
 -2       354       353       497      1842      2277      2278
 -1       841    8    0    1
 -2       353       496       497      2275      2279      2277
 -1       842    8    0    1
 -2       355       354       498      1845      2280      2281
 -1       843    8    0    1
 -2       354       497       498      2278      2282      2280
 -1       844    8    0    1
 -2       356       355       499      1848      2283      2284
 -1       845    8    0    1
 -2       355       498       499      2281      2285      2283
 -1       846    8    0    1
 -2       357       356       500      1851      2286      2287
 -1       847    8    0    1
 -2       356       499       500      2284      2288      2286
 -1       848    8    0    1
 -2       358       357       501      1854      2289      2290
 -1       849    8    0    1
 -2       357       500       501      2287      2291      2289
 -1       850    8    0    1
 -2       359       358       502      1857      2292      2293
 -1       851    8    0    1
 -2       358       501       502      2290      2294      2292
 -1       852    8    0    1
 -2       360       359       503      1860      2295      2296
 -1       853    8    0    1
 -2       359       502       503      2293      2297      2295
 -1       854    8    0    1
 -2       361       360       504      1863      2298      2299
 -1       855    8    0    1
 -2       360       503       504      2296      2300      2298
 -1       856    8    0    1
 -2       362       361       505      1866      2301      2302
 -1       857    8    0    1
 -2       361       504       505      2299      2303      2301
 -1       858    8    0    1
 -2       363       362       506      1869      2304      2305
 -1       859    8    0    1
 -2       362       505       506      2302      2306      2304
 -1       860    8    0    1
 -2       364       363       507      1872      2307      2308
 -1       861    8    0    1
 -2       363       506       507      2305      2309      2307
 -1       862    8    0    1
 -2       365       364       508      1875      2310      2311
 -1       863    8    0    1
 -2       364       507       508      2308      2312      2310
 -1       864    8    0    1
 -2       366       365       509      1878      2313      2314
 -1       865    8    0    1
 -2       365       508       509      2311      2315      2313
 -1       866    8    0    1
 -2       367       366       510      1881      2316      2317
 -1       867    8    0    1
 -2       366       509       510      2314      2318      2316
 -1       868    8    0    1
 -2       368       367       511      1884      2319      2320
 -1       869    8    0    1
 -2       367       510       511      2317      2321      2319
 -1       870    8    0    1
 -2       369       368       512      1887      2322      2323
 -1       871    8    0    1
 -2       368       511       512      2320      2324      2322
 -1       872    8    0    1
 -2       370       369       513      1890      2325      2326
 -1       873    8    0    1
 -2       369       512       513      2323      2327      2325
 -1       874    8    0    1
 -2       371       370       514      1893      2328      2329
 -1       875    8    0    1
 -2       370       513       514      2326      2330      2328
 -1       876    8    0    1
 -2       372       371       515      1896      2331      2332
 -1       877    8    0    1
 -2       371       514       515      2329      2333      2331
 -1       878    8    0    1
 -2       373       372       516      1899      2334      2335
 -1       879    8    0    1
 -2       372       515       516      2332      2336      2334
 -1       880    8    0    1
 -2       374       373       517      1902      2337      2338
 -1       881    8    0    1
 -2       373       516       517      2335      2339      2337
 -1       882    8    0    1
 -2       375       374       518      1905      2340      2341
 -1       883    8    0    1
 -2       374       517       518      2338      2342      2340
 -1       884    8    0    1
 -2       376       375       519      1908      2343      2344
 -1       885    8    0    1
 -2       375       518       519      2341      2345      2343
 -1       886    8    0    1
 -2       377       376       520      1911      2346      2347
 -1       887    8    0    1
 -2       376       519       520      2344      2348      2346
 -1       888    8    0    1
 -2       378       377       521      1914      2349      2350
 -1       889    8    0    1
 -2       377       520       521      2347      2351      2349
 -1       890    8    0    1
 -2       379       378       522      1917      2352      2353
 -1       891    8    0    1
 -2       378       521       522      2350      2354      2352
 -1       892    8    0    1
 -2       380       379       523      1920      2355      2356
 -1       893    8    0    1
 -2       379       522       523      2353      2357      2355
 -1       894    8    0    1
 -2       381       380       524      1923      2358      2359
 -1       895    8    0    1
 -2       380       523       524      2356      2360      2358
 -1       896    8    0    1
 -2       385       386       525      1938      2361      2362
 -1       897    8    0    1
 -2       385       525       480      2362      2363      2228
 -1       898    8    0    1
 -2       336       384       526      1932      2364      2365
 -1       899    8    0    1
 -2       478       336       526      2225      2365      2366
 -1       900    8    0    1
 -2       384       480       526      2229      2367      2364
 -1       901    8    0    1
 -2       386       387       527      1941      2368      2369
 -1       902    8    0    1
 -2       386       527       525      2369      2370      2361
 -1       903    8    0    1
 -2       387       388       528      1944      2371      2372
 -1       904    8    0    1
 -2       387       528       527      2372      2373      2368
 -1       905    8    0    1
 -2       388       389       529      1947      2374      2375
 -1       906    8    0    1
 -2       388       529       528      2375      2376      2371
 -1       907    8    0    1
 -2       389       390       530      1950      2377      2378
 -1       908    8    0    1
 -2       389       530       529      2378      2379      2374
 -1       909    8    0    1
 -2       390       391       531      1953      2380      2381
 -1       910    8    0    1
 -2       390       531       530      2381      2382      2377
 -1       911    8    0    1
 -2       391       392       532      1956      2383      2384
 -1       912    8    0    1
 -2       391       532       531      2384      2385      2380
 -1       913    8    0    1
 -2       392       393       533      1959      2386      2387
 -1       914    8    0    1
 -2       392       533       532      2387      2388      2383
 -1       915    8    0    1
 -2       393       394       534      1962      2389      2390
 -1       916    8    0    1
 -2       393       534       533      2390      2391      2386
 -1       917    8    0    1
 -2       394       395       535      1965      2392      2393
 -1       918    8    0    1
 -2       394       535       534      2393      2394      2389
 -1       919    8    0    1
 -2       395       396       536      1968      2395      2396
 -1       920    8    0    1
 -2       395       536       535      2396      2397      2392
 -1       921    8    0    1
 -2       396       397       537      1971      2398      2399
 -1       922    8    0    1
 -2       396       537       536      2399      2400      2395
 -1       923    8    0    1
 -2       397       398       538      1974      2401      2402
 -1       924    8    0    1
 -2       397       538       537      2402      2403      2398
 -1       925    8    0    1
 -2       398       399       539      1977      2404      2405
 -1       926    8    0    1
 -2       398       539       538      2405      2406      2401
 -1       927    8    0    1
 -2       399       400       540      1980      2407      2408
 -1       928    8    0    1
 -2       399       540       539      2408      2409      2404
 -1       929    8    0    1
 -2       400       401       541      1983      2410      2411
 -1       930    8    0    1
 -2       400       541       540      2411      2412      2407
 -1       931    8    0    1
 -2       401       402       542      1986      2413      2414
 -1       932    8    0    1
 -2       401       542       541      2414      2415      2410
 -1       933    8    0    1
 -2       402       403       543      1989      2416      2417
 -1       934    8    0    1
 -2       402       543       542      2417      2418      2413
 -1       935    8    0    1
 -2       403       404       544      1992      2419      2420
 -1       936    8    0    1
 -2       403       544       543      2420      2421      2416
 -1       937    8    0    1
 -2       404       405       545      1995      2422      2423
 -1       938    8    0    1
 -2       404       545       544      2423      2424      2419
 -1       939    8    0    1
 -2       405       406       546      1998      2425      2426
 -1       940    8    0    1
 -2       405       546       545      2426      2427      2422
 -1       941    8    0    1
 -2       406       407       547      2001      2428      2429
 -1       942    8    0    1
 -2       406       547       546      2429      2430      2425
 -1       943    8    0    1
 -2       407       408       548      2004      2431      2432
 -1       944    8    0    1
 -2       407       548       547      2432      2433      2428
 -1       945    8    0    1
 -2       408       409       549      2007      2434      2435
 -1       946    8    0    1
 -2       408       549       548      2435      2436      2431
 -1       947    8    0    1
 -2       409       410       550      2010      2437      2438
 -1       948    8    0    1
 -2       409       550       549      2438      2439      2434
 -1       949    8    0    1
 -2       410       411       551      2013      2440      2441
 -1       950    8    0    1
 -2       410       551       550      2441      2442      2437
 -1       951    8    0    1
 -2       411       412       552      2016      2443      2444
 -1       952    8    0    1
 -2       411       552       551      2444      2445      2440
 -1       953    8    0    1
 -2       412       413       553      2019      2446      2447
 -1       954    8    0    1
 -2       412       553       552      2447      2448      2443
 -1       955    8    0    1
 -2       413       414       554      2022      2449      2450
 -1       956    8    0    1
 -2       413       554       553      2450      2451      2446
 -1       957    8    0    1
 -2       414       415       555      2025      2452      2453
 -1       958    8    0    1
 -2       414       555       554      2453      2454      2449
 -1       959    8    0    1
 -2       415       416       556      2028      2455      2456
 -1       960    8    0    1
 -2       415       556       555      2456      2457      2452
 -1       961    8    0    1
 -2       416       417       557      2031      2458      2459
 -1       962    8    0    1
 -2       416       557       556      2459      2460      2455
 -1       963    8    0    1
 -2       417       418       558      2034      2461      2462
 -1       964    8    0    1
 -2       417       558       557      2462      2463      2458
 -1       965    8    0    1
 -2       418       419       559      2037      2464      2465
 -1       966    8    0    1
 -2       418       559       558      2465      2466      2461
 -1       967    8    0    1
 -2       419       420       560      2040      2467      2468
 -1       968    8    0    1
 -2       419       560       559      2468      2469      2464
 -1       969    8    0    1
 -2       420       421       561      2043      2470      2471
 -1       970    8    0    1
 -2       420       561       560      2471      2472      2467
 -1       971    8    0    1
 -2       421       422       562      2046      2473      2474
 -1       972    8    0    1
 -2       421       562       561      2474      2475      2470
 -1       973    8    0    1
 -2       422       423       563      2049      2476      2477
 -1       974    8    0    1
 -2       422       563       562      2477      2478      2473
 -1       975    8    0    1
 -2       423       424       564      2052      2479      2480
 -1       976    8    0    1
 -2       423       564       563      2480      2481      2476
 -1       977    8    0    1
 -2       424       425       565      2055      2482      2483
 -1       978    8    0    1
 -2       425       426       566      2058      2484      2485
 -1       979    8    0    1
 -2       426       427       567      2061      2486      2487
 -1       980    8    0    1
 -2       427       428       568      2064      2488      2489
 -1       981    8    0    1
 -2       428       429       432      2067      2078      2490
 -1       982    8    0    1
 -2       461       462       383      2176      2159      2491
 -1       983    8    0    1
 -2       431       430       463      2073      2174      2492
 -1       984    8    0    1
 -2       383       433       569      2167      2493      2494
 -1       985    8    0    1
 -2       461       383       569      2491      2494      2495
 -1       986    8    0    1
 -2       433       468       569      2196      2496      2493
 -1       987    8    0    1
 -2       294       430       466      2098      2497      2172
 -1       988    8    0    1
 -2       435       436       570      2089      2498      2499
 -1       989    8    0    1
 -2       436       479       570      2227      2500      2498
 -1       990    8    0    1
 -2       337       323       571      2163      2501      2502
 -1       991    8    0    1
 -2       481       337       571      2230      2502      2503
 -1       992    8    0    1
 -2       323       322       571      1748      2504      2501
 -1       993    8    0    1
 -2       281       282       465      1621      2505      2169
 -1       994    8    0    1
 -2       434       435       572      2086      2506      2507
 -1       995    8    0    1
 -2       435       570       572      2499      2508      2506
 -1       996    8    0    1
 -2       437       438       573      2095      2509      2510
 -1       997    8    0    1
 -2       437       573       479      2510      2511      2226
 -1       998    8    0    1
 -2       438       291       382      2171      1926      2512
 -1       999    8    0    1
 -2       280       464       466      2168      2193      2513
 -1      1000    8    0    1
 -2       451       452       574      2181      2514      2515
 -1      1001    8    0    1
 -2       446       447       575      2185      2516      2517
 -1      1002    8    0    1
 -2       326       327       576      1759      2518      2519
 -1      1003    8    0    1
 -2       469       326       576      2197      2519      2520
 -1      1004    8    0    1
 -2       327       471       576      2203      2521      2518
 -1      1005    8    0    1
 -2       280       466       430      2513      2497      2069
 -1      1006    8    0    1
 -2       440       441       577      2188      2522      2523
 -1      1007    8    0    1
 -2       445       446       578      2189      2524      2525
 -1      1008    8    0    1
 -2       446       575       578      2517      2526      2524
 -1      1009    8    0    1
 -2       441       442       567      2109      2527      2528
 -1      1010    8    0    1
 -2       442       443       566      2187      2529      2530
 -1      1011    8    0    1
 -2       443       444       565      2114      2531      2532
 -1      1012    8    0    1
 -2       449       450       579      2190      2533      2534
 -1      1013    8    0    1
 -2       444       445       580      2186      2535      2536
 -1      1014    8    0    1
 -2       565       444       580      2531      2536      2537
 -1      1015    8    0    1
 -2       445       578       580      2525      2538      2535
 -1      1016    8    0    1
 -2       447       448       581      2123      2539      2540
 -1      1017    8    0    1
 -2       452       453       582      2191      2541      2542
 -1      1018    8    0    1
 -2       450       451       583      2130      2543      2544
 -1      1019    8    0    1
 -2       457       458       584      2192      2545      2546
 -1      1020    8    0    1
 -2       453       454       585      2137      2547      2548
 -1      1021    8    0    1
 -2       454       455       586      2180      2549      2550
 -1      1022    8    0    1
 -2       455       456       587      2142      2551      2552
 -1      1023    8    0    1
 -2       456       457       588      2179      2553      2554
 -1      1024    8    0    1
 -2       458       459       589      2178      2555      2556
 -1      1025    8    0    1
 -2       431       463       590      2492      2557      2558
 -1      1026    8    0    1
 -2       324       470       591      2200      2559      2560
 -1      1027    8    0    1
 -2       324       591       439      2560      2561      2102
 -1      1028    8    0    1
 -2       438       382       592      2512      2562      2563
 -1      1029    8    0    1
 -2       573       438       592      2509      2563      2564
 -1      1030    8    0    1
 -2       382       381       592      1927      2565      2562
 -1      1031    8    0    1
 -2       432       431       590      2079      2558      2566
 -1      1032    8    0    1
 -2       381       524       592      2359      2567      2565
 -1      1033    8    0    1
 -2       565       425       566      2482      2485      2568
 -1      1034    8    0    1
 -2       587       456       588      2551      2554      2569
 -1      1035    8    0    1
 -2       586       455       587      2549      2552      2570
 -1      1036    8    0    1
 -2       585       454       586      2547      2550      2571
 -1      1037    8    0    1
 -2       584       458       589      2545      2556      2572
 -1      1038    8    0    1
 -2       571       322       439      2504      2101      2573
 -1      1039    8    0    1
 -2       583       451       574      2543      2515      2574
 -1      1040    8    0    1
 -2       434       572       468      2507      2575      2195
 -1      1041    8    0    1
 -2       577       441       567      2522      2528      2576
 -1      1042    8    0    1
 -2       575       447       581      2516      2540      2577
 -1      1043    8    0    1
 -2       319       465       462      2194      2578      2154
 -1      1044    8    0    1
 -2       574       452       582      2514      2542      2579
 -1      1045    8    0    1
 -2       463       440       590      2158      2580      2557
 -1      1046    8    0    1
 -2       467       449       579      2184      2534      2581
 -1      1047    8    0    1
 -2       448       467       581      2183      2582      2539
 -1      1048    8    0    1
 -2       589       459       468      2555      2583      2584
 -1      1049    8    0    1
 -2       588       457       584      2553      2546      2585
 -1      1050    8    0    1
 -2       579       450       583      2533      2544      2586
 -1      1051    8    0    1
 -2       443       565       566      2532      2568      2529
 -1      1052    8    0    1
 -2       582       453       585      2541      2548      2587
 -1      1053    8    0    1
 -2       590       440       577      2580      2523      2588
 -1      1054    8    0    1
 -2       460       461       569      2153      2495      2589
 -1      1055    8    0    1
 -2       582       585       593      2587      2590      2591
 -1      1056    8    0    1
 -2       472       473       594      2209      2592      2593
 -1      1057    8    0    1
 -2       471       472       595      2206      2594      2595
 -1      1058    8    0    1
 -2       472       594       595      2593      2596      2594
 -1      1059    8    0    1
 -2       474       475       596      2215      2597      2598
 -1      1060    8    0    1
 -2       475       476       597      2218      2599      2600
 -1      1061    8    0    1
 -2       475       597       596      2600      2601      2597
 -1      1062    8    0    1
 -2       477       478       526      2224      2366      2602
 -1      1063    8    0    1
 -2       528       529       598      2376      2603      2604
 -1      1064    8    0    1
 -2       525       527       599      2370      2605      2606
 -1      1065    8    0    1
 -2       480       525       600      2363      2607      2608
 -1      1066    8    0    1
 -2       525       599       600      2606      2609      2607
 -1      1067    8    0    1
 -2       282       462       465      2162      2578      2505
 -1      1068    8    0    1
 -2       578       575       601      2526      2610      2611
 -1      1069    8    0    1
 -2       483       482       602      2237      2612      2613
 -1      1070    8    0    1
 -2       484       483       603      2240      2614      2615
 -1      1071    8    0    1
 -2       483       602       603      2613      2616      2614
 -1      1072    8    0    1
 -2       485       484       604      2243      2617      2618
 -1      1073    8    0    1
 -2       484       603       604      2615      2619      2617
 -1      1074    8    0    1
 -2       486       485       605      2246      2620      2621
 -1      1075    8    0    1
 -2       485       604       605      2618      2622      2620
 -1      1076    8    0    1
 -2       487       486       606      2249      2623      2624
 -1      1077    8    0    1
 -2       486       605       606      2621      2625      2623
 -1      1078    8    0    1
 -2       488       487       607      2252      2626      2627
 -1      1079    8    0    1
 -2       487       606       607      2624      2628      2626
 -1      1080    8    0    1
 -2       489       488       608      2255      2629      2630
 -1      1081    8    0    1
 -2       488       607       608      2627      2631      2629
 -1      1082    8    0    1
 -2       490       489       609      2258      2632      2633
 -1      1083    8    0    1
 -2       489       608       609      2630      2634      2632
 -1      1084    8    0    1
 -2       491       490       610      2261      2635      2636
 -1      1085    8    0    1
 -2       490       609       610      2633      2637      2635
 -1      1086    8    0    1
 -2       492       491       611      2264      2638      2639
 -1      1087    8    0    1
 -2       491       610       611      2636      2640      2638
 -1      1088    8    0    1
 -2       493       492       612      2267      2641      2642
 -1      1089    8    0    1
 -2       492       611       612      2639      2643      2641
 -1      1090    8    0    1
 -2       494       493       613      2270      2644      2645
 -1      1091    8    0    1
 -2       493       612       613      2642      2646      2644
 -1      1092    8    0    1
 -2       495       494       614      2273      2647      2648
 -1      1093    8    0    1
 -2       494       613       614      2645      2649      2647
 -1      1094    8    0    1
 -2       496       495       615      2276      2650      2651
 -1      1095    8    0    1
 -2       495       614       615      2648      2652      2650
 -1      1096    8    0    1
 -2       497       496       616      2279      2653      2654
 -1      1097    8    0    1
 -2       496       615       616      2651      2655      2653
 -1      1098    8    0    1
 -2       498       497       617      2282      2656      2657
 -1      1099    8    0    1
 -2       497       616       617      2654      2658      2656
 -1      1100    8    0    1
 -2       499       498       618      2285      2659      2660
 -1      1101    8    0    1
 -2       498       617       618      2657      2661      2659
 -1      1102    8    0    1
 -2       500       499       619      2288      2662      2663
 -1      1103    8    0    1
 -2       499       618       619      2660      2664      2662
 -1      1104    8    0    1
 -2       501       500       620      2291      2665      2666
 -1      1105    8    0    1
 -2       500       619       620      2663      2667      2665
 -1      1106    8    0    1
 -2       502       501       621      2294      2668      2669
 -1      1107    8    0    1
 -2       501       620       621      2666      2670      2668
 -1      1108    8    0    1
 -2       503       502       622      2297      2671      2672
 -1      1109    8    0    1
 -2       502       621       622      2669      2673      2671
 -1      1110    8    0    1
 -2       504       503       623      2300      2674      2675
 -1      1111    8    0    1
 -2       503       622       623      2672      2676      2674
 -1      1112    8    0    1
 -2       505       504       624      2303      2677      2678
 -1      1113    8    0    1
 -2       504       623       624      2675      2679      2677
 -1      1114    8    0    1
 -2       506       505       625      2306      2680      2681
 -1      1115    8    0    1
 -2       505       624       625      2678      2682      2680
 -1      1116    8    0    1
 -2       507       506       626      2309      2683      2684
 -1      1117    8    0    1
 -2       506       625       626      2681      2685      2683
 -1      1118    8    0    1
 -2       508       507       627      2312      2686      2687
 -1      1119    8    0    1
 -2       507       626       627      2684      2688      2686
 -1      1120    8    0    1
 -2       509       508       628      2315      2689      2690
 -1      1121    8    0    1
 -2       508       627       628      2687      2691      2689
 -1      1122    8    0    1
 -2       510       509       629      2318      2692      2693
 -1      1123    8    0    1
 -2       509       628       629      2690      2694      2692
 -1      1124    8    0    1
 -2       511       510       630      2321      2695      2696
 -1      1125    8    0    1
 -2       510       629       630      2693      2697      2695
 -1      1126    8    0    1
 -2       512       511       631      2324      2698      2699
 -1      1127    8    0    1
 -2       511       630       631      2696      2700      2698
 -1      1128    8    0    1
 -2       513       512       632      2327      2701      2702
 -1      1129    8    0    1
 -2       512       631       632      2699      2703      2701
 -1      1130    8    0    1
 -2       514       513       633      2330      2704      2705
 -1      1131    8    0    1
 -2       513       632       633      2702      2706      2704
 -1      1132    8    0    1
 -2       515       514       634      2333      2707      2708
 -1      1133    8    0    1
 -2       514       633       634      2705      2709      2707
 -1      1134    8    0    1
 -2       516       515       635      2336      2710      2711
 -1      1135    8    0    1
 -2       515       634       635      2708      2712      2710
 -1      1136    8    0    1
 -2       517       516       636      2339      2713      2714
 -1      1137    8    0    1
 -2       516       635       636      2711      2715      2713
 -1      1138    8    0    1
 -2       518       517       637      2342      2716      2717
 -1      1139    8    0    1
 -2       517       636       637      2714      2718      2716
 -1      1140    8    0    1
 -2       519       518       638      2345      2719      2720
 -1      1141    8    0    1
 -2       518       637       638      2717      2721      2719
 -1      1142    8    0    1
 -2       520       519       639      2348      2722      2723
 -1      1143    8    0    1
 -2       519       638       639      2720      2724      2722
 -1      1144    8    0    1
 -2       521       520       640      2351      2725      2726
 -1      1145    8    0    1
 -2       520       639       640      2723      2727      2725
 -1      1146    8    0    1
 -2       522       521       641      2354      2728      2729
 -1      1147    8    0    1
 -2       521       640       641      2726      2730      2728
 -1      1148    8    0    1
 -2       523       522       642      2357      2731      2732
 -1      1149    8    0    1
 -2       522       641       642      2729      2733      2731
 -1      1150    8    0    1
 -2       524       523       643      2360      2734      2735
 -1      1151    8    0    1
 -2       523       642       643      2732      2736      2734
 -1      1152    8    0    1
 -2       527       528       644      2373      2737      2738
 -1      1153    8    0    1
 -2       527       644       599      2738      2739      2605
 -1      1154    8    0    1
 -2       566       426       567      2484      2487      2740
 -1      1155    8    0    1
 -2       529       530       645      2379      2741      2742
 -1      1156    8    0    1
 -2       529       645       598      2742      2743      2603
 -1      1157    8    0    1
 -2       530       531       646      2382      2744      2745
 -1      1158    8    0    1
 -2       530       646       645      2745      2746      2741
 -1      1159    8    0    1
 -2       531       532       647      2385      2747      2748
 -1      1160    8    0    1
 -2       531       647       646      2748      2749      2744
 -1      1161    8    0    1
 -2       532       533       648      2388      2750      2751
 -1      1162    8    0    1
 -2       532       648       647      2751      2752      2747
 -1      1163    8    0    1
 -2       533       534       649      2391      2753      2754
 -1      1164    8    0    1
 -2       533       649       648      2754      2755      2750
 -1      1165    8    0    1
 -2       534       535       650      2394      2756      2757
 -1      1166    8    0    1
 -2       534       650       649      2757      2758      2753
 -1      1167    8    0    1
 -2       535       536       651      2397      2759      2760
 -1      1168    8    0    1
 -2       535       651       650      2760      2761      2756
 -1      1169    8    0    1
 -2       536       537       652      2400      2762      2763
 -1      1170    8    0    1
 -2       536       652       651      2763      2764      2759
 -1      1171    8    0    1
 -2       537       538       653      2403      2765      2766
 -1      1172    8    0    1
 -2       537       653       652      2766      2767      2762
 -1      1173    8    0    1
 -2       538       539       654      2406      2768      2769
 -1      1174    8    0    1
 -2       538       654       653      2769      2770      2765
 -1      1175    8    0    1
 -2       539       540       655      2409      2771      2772
 -1      1176    8    0    1
 -2       539       655       654      2772      2773      2768
 -1      1177    8    0    1
 -2       540       541       656      2412      2774      2775
 -1      1178    8    0    1
 -2       540       656       655      2775      2776      2771
 -1      1179    8    0    1
 -2       541       542       657      2415      2777      2778
 -1      1180    8    0    1
 -2       541       657       656      2778      2779      2774
 -1      1181    8    0    1
 -2       542       543       658      2418      2780      2781
 -1      1182    8    0    1
 -2       542       658       657      2781      2782      2777
 -1      1183    8    0    1
 -2       543       544       659      2421      2783      2784
 -1      1184    8    0    1
 -2       543       659       658      2784      2785      2780
 -1      1185    8    0    1
 -2       544       545       660      2424      2786      2787
 -1      1186    8    0    1
 -2       544       660       659      2787      2788      2783
 -1      1187    8    0    1
 -2       545       546       661      2427      2789      2790
 -1      1188    8    0    1
 -2       545       661       660      2790      2791      2786
 -1      1189    8    0    1
 -2       546       547       662      2430      2792      2793
 -1      1190    8    0    1
 -2       546       662       661      2793      2794      2789
 -1      1191    8    0    1
 -2       547       548       663      2433      2795      2796
 -1      1192    8    0    1
 -2       547       663       662      2796      2797      2792
 -1      1193    8    0    1
 -2       548       549       664      2436      2798      2799
 -1      1194    8    0    1
 -2       548       664       663      2799      2800      2795
 -1      1195    8    0    1
 -2       549       550       665      2439      2801      2802
 -1      1196    8    0    1
 -2       549       665       664      2802      2803      2798
 -1      1197    8    0    1
 -2       550       551       666      2442      2804      2805
 -1      1198    8    0    1
 -2       550       666       665      2805      2806      2801
 -1      1199    8    0    1
 -2       551       552       667      2445      2807      2808
 -1      1200    8    0    1
 -2       551       667       666      2808      2809      2804
 -1      1201    8    0    1
 -2       552       553       668      2448      2810      2811
 -1      1202    8    0    1
 -2       552       668       667      2811      2812      2807
 -1      1203    8    0    1
 -2       553       554       669      2451      2813      2814
 -1      1204    8    0    1
 -2       553       669       668      2814      2815      2810
 -1      1205    8    0    1
 -2       554       555       670      2454      2816      2817
 -1      1206    8    0    1
 -2       554       670       669      2817      2818      2813
 -1      1207    8    0    1
 -2       555       556       671      2457      2819      2820
 -1      1208    8    0    1
 -2       555       671       670      2820      2821      2816
 -1      1209    8    0    1
 -2       556       557       672      2460      2822      2823
 -1      1210    8    0    1
 -2       556       672       671      2823      2824      2819
 -1      1211    8    0    1
 -2       557       558       673      2463      2825      2826
 -1      1212    8    0    1
 -2       557       673       672      2826      2827      2822
 -1      1213    8    0    1
 -2       558       559       674      2466      2828      2829
 -1      1214    8    0    1
 -2       558       674       673      2829      2830      2825
 -1      1215    8    0    1
 -2       559       560       675      2469      2831      2832
 -1      1216    8    0    1
 -2       559       675       674      2832      2833      2828
 -1      1217    8    0    1
 -2       560       561       676      2472      2834      2835
 -1      1218    8    0    1
 -2       560       676       675      2835      2836      2831
 -1      1219    8    0    1
 -2       561       562       677      2475      2837      2838
 -1      1220    8    0    1
 -2       561       677       676      2838      2839      2834
 -1      1221    8    0    1
 -2       562       563       601      2478      2840      2841
 -1      1222    8    0    1
 -2       563       564       601      2481      2842      2840
 -1      1223    8    0    1
 -2       424       565       564      2483      2843      2479
 -1      1224    8    0    1
 -2       587       588       678      2569      2844      2845
 -1      1225    8    0    1
 -2       427       568       567      2489      2846      2486
 -1      1226    8    0    1
 -2       428       432       568      2490      2847      2488
 -1      1227    8    0    1
 -2       570       479       679      2500      2848      2849
 -1      1228    8    0    1
 -2       572       570       680      2508      2850      2851
 -1      1229    8    0    1
 -2       570       679       680      2849      2852      2850
 -1      1230    8    0    1
 -2       479       573       681      2511      2853      2854
 -1      1231    8    0    1
 -2       679       479       681      2848      2854      2855
 -1      1232    8    0    1
 -2       573       592       681      2564      2856      2853
 -1      1233    8    0    1
 -2       459       460       468      2177      2857      2583
 -1      1234    8    0    1
 -2       575       581       682      2577      2858      2859
 -1      1235    8    0    1
 -2       575       682       601      2859      2860      2610
 -1      1236    8    0    1
 -2       467       579       683      2581      2861      2862
 -1      1237    8    0    1
 -2       588       584       684      2585      2863      2864
 -1      1238    8    0    1
 -2       583       574       685      2574      2865      2866
 -1      1239    8    0    1
 -2       567       442       566      2527      2530      2740
 -1      1240    8    0    1
 -2       581       467       686      2582      2867      2868
 -1      1241    8    0    1
 -2       467       683       686      2862      2869      2867
 -1      1242    8    0    1
 -2       482       481       687      2234      2870      2871
 -1      1243    8    0    1
 -2       482       687       602      2871      2872      2612
 -1      1244    8    0    1
 -2       579       583       688      2586      2873      2874
 -1      1245    8    0    1
 -2       473       474       689      2212      2875      2876
 -1      1246    8    0    1
 -2       594       473       689      2592      2876      2877
 -1      1247    8    0    1
 -2       474       596       689      2598      2878      2875
 -1      1248    8    0    1
 -2       585       586       690      2571      2879      2880
 -1      1249    8    0    1
 -2       586       587       691      2570      2881      2882
 -1      1250    8    0    1
 -2       470       469       692      2201      2883      2884
 -1      1251    8    0    1
 -2       468       572       589      2575      2885      2584
 -1      1252    8    0    1
 -2       571       439       591      2573      2561      2886
 -1      1253    8    0    1
 -2       592       524       681      2567      2887      2856
 -1      1254    8    0    1
 -2       574       582       693      2579      2888      2889
 -1      1255    8    0    1
 -2       589       572       680      2885      2851      2890
 -1      1256    8    0    1
 -2       585       690       593      2880      2891      2590
 -1      1257    8    0    1
 -2       471       595       694      2595      2892      2893
 -1      1258    8    0    1
 -2       471       694       576      2893      2894      2521
 -1      1259    8    0    1
 -2       477       526       695      2602      2895      2896
 -1      1260    8    0    1
 -2       476       477       695      2221      2896      2897
 -1      1261    8    0    1
 -2       526       480       695      2367      2898      2895
 -1      1262    8    0    1
 -2       581       686       682      2868      2899      2858
 -1      1263    8    0    1
 -2       528       598       644      2604      2900      2737
 -1      1264    8    0    1
 -2       480       600       695      2608      2901      2898
 -1      1265    8    0    1
 -2       579       688       696      2874      2902      2903
 -1      1266    8    0    1
 -2       579       696       683      2903      2904      2861
 -1      1267    8    0    1
 -2       524       643       681      2735      2905      2887
 -1      1268    8    0    1
 -2       432       590       568      2566      2906      2847
 -1      1269    8    0    1
 -2       562       601       677      2841      2907      2837
 -1      1270    8    0    1
 -2       564       565       580      2843      2537      2908
 -1      1271    8    0    1
 -2       601       564       578      2842      2909      2611
 -1      1272    8    0    1
 -2       678       588       697      2844      2910      2911
 -1      1273    8    0    1
 -2       588       684       697      2864      2912      2910
 -1      1274    8    0    1
 -2       587       678       691      2845      2913      2881
 -1      1275    8    0    1
 -2       574       693       685      2889      2914      2865
 -1      1276    8    0    1
 -2       476       695       597      2897      2915      2599
 -1      1277    8    0    1
 -2       582       593       693      2591      2916      2888
 -1      1278    8    0    1
 -2       591       470       698      2559      2917      2918
 -1      1279    8    0    1
 -2       470       692       698      2884      2919      2917
 -1      1280    8    0    1
 -2       469       576       699      2520      2920      2921
 -1      1281    8    0    1
 -2       692       469       699      2883      2921      2922
 -1      1282    8    0    1
 -2       576       694       699      2894      2923      2920
 -1      1283    8    0    1
 -2       583       685       688      2866      2924      2873
 -1      1284    8    0    1
 -2       578       564       580      2909      2908      2538
 -1      1285    8    0    1
 -2       690       586       691      2879      2882      2925
 -1      1286    8    0    1
 -2       590       577       568      2588      2926      2906
 -1      1287    8    0    1
 -2       584       589       680      2572      2890      2927
 -1      1288    8    0    1
 -2       571       591       700      2886      2928      2929
 -1      1289    8    0    1
 -2       481       571       700      2503      2929      2930
 -1      1290    8    0    1
 -2       591       698       700      2918      2931      2928
 -1      1291    8    0    1
 -2       481       700       687      2930      2932      2870
 -1      1292    8    0    1
 -2       693       593       701      2916      2933      2934
 -1      1293    8    0    1
 -2       596       597       702      2601      2935      2936
 -1      1294    8    0    1
 -2       645       646       703      2746      2937      2938
 -1      1295    8    0    1
 -2       603       602       704      2616      2939      2940
 -1      1296    8    0    1
 -2       599       644       705      2739      2941      2942
 -1      1297    8    0    1
 -2       604       603       706      2619      2943      2944
 -1      1298    8    0    1
 -2       603       704       706      2940      2945      2943
 -1      1299    8    0    1
 -2       605       604       707      2622      2946      2947
 -1      1300    8    0    1
 -2       604       706       707      2944      2948      2946
 -1      1301    8    0    1
 -2       606       605       708      2625      2949      2950
 -1      1302    8    0    1
 -2       605       707       708      2947      2951      2949
 -1      1303    8    0    1
 -2       607       606       709      2628      2952      2953
 -1      1304    8    0    1
 -2       606       708       709      2950      2954      2952
 -1      1305    8    0    1
 -2       608       607       710      2631      2955      2956
 -1      1306    8    0    1
 -2       607       709       710      2953      2957      2955
 -1      1307    8    0    1
 -2       609       608       711      2634      2958      2959
 -1      1308    8    0    1
 -2       608       710       711      2956      2960      2958
 -1      1309    8    0    1
 -2       610       609       712      2637      2961      2962
 -1      1310    8    0    1
 -2       609       711       712      2959      2963      2961
 -1      1311    8    0    1
 -2       611       610       713      2640      2964      2965
 -1      1312    8    0    1
 -2       610       712       713      2962      2966      2964
 -1      1313    8    0    1
 -2       612       611       714      2643      2967      2968
 -1      1314    8    0    1
 -2       611       713       714      2965      2969      2967
 -1      1315    8    0    1
 -2       613       612       715      2646      2970      2971
 -1      1316    8    0    1
 -2       612       714       715      2968      2972      2970
 -1      1317    8    0    1
 -2       614       613       716      2649      2973      2974
 -1      1318    8    0    1
 -2       613       715       716      2971      2975      2973
 -1      1319    8    0    1
 -2       615       614       717      2652      2976      2977
 -1      1320    8    0    1
 -2       614       716       717      2974      2978      2976
 -1      1321    8    0    1
 -2       616       615       718      2655      2979      2980
 -1      1322    8    0    1
 -2       615       717       718      2977      2981      2979
 -1      1323    8    0    1
 -2       617       616       719      2658      2982      2983
 -1      1324    8    0    1
 -2       616       718       719      2980      2984      2982
 -1      1325    8    0    1
 -2       618       617       720      2661      2985      2986
 -1      1326    8    0    1
 -2       617       719       720      2983      2987      2985
 -1      1327    8    0    1
 -2       619       618       721      2664      2988      2989
 -1      1328    8    0    1
 -2       618       720       721      2986      2990      2988
 -1      1329    8    0    1
 -2       620       619       722      2667      2991      2992
 -1      1330    8    0    1
 -2       619       721       722      2989      2993      2991
 -1      1331    8    0    1
 -2       621       620       723      2670      2994      2995
 -1      1332    8    0    1
 -2       620       722       723      2992      2996      2994
 -1      1333    8    0    1
 -2       622       621       724      2673      2997      2998
 -1      1334    8    0    1
 -2       621       723       724      2995      2999      2997
 -1      1335    8    0    1
 -2       623       622       725      2676      3000      3001
 -1      1336    8    0    1
 -2       622       724       725      2998      3002      3000
 -1      1337    8    0    1
 -2       624       623       726      2679      3003      3004
 -1      1338    8    0    1
 -2       623       725       726      3001      3005      3003
 -1      1339    8    0    1
 -2       625       624       727      2682      3006      3007
 -1      1340    8    0    1
 -2       624       726       727      3004      3008      3006
 -1      1341    8    0    1
 -2       626       625       728      2685      3009      3010
 -1      1342    8    0    1
 -2       625       727       728      3007      3011      3009
 -1      1343    8    0    1
 -2       627       626       729      2688      3012      3013
 -1      1344    8    0    1
 -2       626       728       729      3010      3014      3012
 -1      1345    8    0    1
 -2       628       627       730      2691      3015      3016
 -1      1346    8    0    1
 -2       627       729       730      3013      3017      3015
 -1      1347    8    0    1
 -2       629       628       731      2694      3018      3019
 -1      1348    8    0    1
 -2       628       730       731      3016      3020      3018
 -1      1349    8    0    1
 -2       630       629       732      2697      3021      3022
 -1      1350    8    0    1
 -2       629       731       732      3019      3023      3021
 -1      1351    8    0    1
 -2       631       630       733      2700      3024      3025
 -1      1352    8    0    1
 -2       630       732       733      3022      3026      3024
 -1      1353    8    0    1
 -2       632       631       734      2703      3027      3028
 -1      1354    8    0    1
 -2       631       733       734      3025      3029      3027
 -1      1355    8    0    1
 -2       633       632       735      2706      3030      3031
 -1      1356    8    0    1
 -2       632       734       735      3028      3032      3030
 -1      1357    8    0    1
 -2       634       633       736      2709      3033      3034
 -1      1358    8    0    1
 -2       633       735       736      3031      3035      3033
 -1      1359    8    0    1
 -2       635       634       737      2712      3036      3037
 -1      1360    8    0    1
 -2       634       736       737      3034      3038      3036
 -1      1361    8    0    1
 -2       636       635       738      2715      3039      3040
 -1      1362    8    0    1
 -2       635       737       738      3037      3041      3039
 -1      1363    8    0    1
 -2       637       636       739      2718      3042      3043
 -1      1364    8    0    1
 -2       636       738       739      3040      3044      3042
 -1      1365    8    0    1
 -2       638       637       740      2721      3045      3046
 -1      1366    8    0    1
 -2       637       739       740      3043      3047      3045
 -1      1367    8    0    1
 -2       639       638       741      2724      3048      3049
 -1      1368    8    0    1
 -2       638       740       741      3046      3050      3048
 -1      1369    8    0    1
 -2       640       639       742      2727      3051      3052
 -1      1370    8    0    1
 -2       639       741       742      3049      3053      3051
 -1      1371    8    0    1
 -2       641       640       743      2730      3054      3055
 -1      1372    8    0    1
 -2       640       742       743      3052      3056      3054
 -1      1373    8    0    1
 -2       642       641       744      2733      3057      3058
 -1      1374    8    0    1
 -2       641       743       744      3055      3059      3057
 -1      1375    8    0    1
 -2       643       642       745      2736      3060      3061
 -1      1376    8    0    1
 -2       642       744       745      3058      3062      3060
 -1      1377    8    0    1
 -2       695       600       597      2901      3063      2915
 -1      1378    8    0    1
 -2       682       686       746      2899      3064      3065
 -1      1379    8    0    1
 -2       646       647       747      2749      3066      3067
 -1      1380    8    0    1
 -2       646       747       703      3067      3068      2937
 -1      1381    8    0    1
 -2       647       648       748      2752      3069      3070
 -1      1382    8    0    1
 -2       647       748       747      3070      3071      3066
 -1      1383    8    0    1
 -2       648       649       749      2755      3072      3073
 -1      1384    8    0    1
 -2       648       749       748      3073      3074      3069
 -1      1385    8    0    1
 -2       649       650       750      2758      3075      3076
 -1      1386    8    0    1
 -2       649       750       749      3076      3077      3072
 -1      1387    8    0    1
 -2       650       651       751      2761      3078      3079
 -1      1388    8    0    1
 -2       650       751       750      3079      3080      3075
 -1      1389    8    0    1
 -2       651       652       752      2764      3081      3082
 -1      1390    8    0    1
 -2       651       752       751      3082      3083      3078
 -1      1391    8    0    1
 -2       652       653       753      2767      3084      3085
 -1      1392    8    0    1
 -2       652       753       752      3085      3086      3081
 -1      1393    8    0    1
 -2       653       654       754      2770      3087      3088
 -1      1394    8    0    1
 -2       653       754       753      3088      3089      3084
 -1      1395    8    0    1
 -2       654       655       755      2773      3090      3091
 -1      1396    8    0    1
 -2       654       755       754      3091      3092      3087
 -1      1397    8    0    1
 -2       655       656       756      2776      3093      3094
 -1      1398    8    0    1
 -2       655       756       755      3094      3095      3090
 -1      1399    8    0    1
 -2       656       657       757      2779      3096      3097
 -1      1400    8    0    1
 -2       656       757       756      3097      3098      3093
 -1      1401    8    0    1
 -2       657       658       758      2782      3099      3100
 -1      1402    8    0    1
 -2       657       758       757      3100      3101      3096
 -1      1403    8    0    1
 -2       658       659       759      2785      3102      3103
 -1      1404    8    0    1
 -2       658       759       758      3103      3104      3099
 -1      1405    8    0    1
 -2       659       660       760      2788      3105      3106
 -1      1406    8    0    1
 -2       659       760       759      3106      3107      3102
 -1      1407    8    0    1
 -2       660       661       761      2791      3108      3109
 -1      1408    8    0    1
 -2       660       761       760      3109      3110      3105
 -1      1409    8    0    1
 -2       661       662       762      2794      3111      3112
 -1      1410    8    0    1
 -2       661       762       761      3112      3113      3108
 -1      1411    8    0    1
 -2       662       663       763      2797      3114      3115
 -1      1412    8    0    1
 -2       662       763       762      3115      3116      3111
 -1      1413    8    0    1
 -2       663       664       764      2800      3117      3118
 -1      1414    8    0    1
 -2       663       764       763      3118      3119      3114
 -1      1415    8    0    1
 -2       664       665       765      2803      3120      3121
 -1      1416    8    0    1
 -2       664       765       764      3121      3122      3117
 -1      1417    8    0    1
 -2       665       666       766      2806      3123      3124
 -1      1418    8    0    1
 -2       665       766       765      3124      3125      3120
 -1      1419    8    0    1
 -2       666       667       767      2809      3126      3127
 -1      1420    8    0    1
 -2       666       767       766      3127      3128      3123
 -1      1421    8    0    1
 -2       667       668       768      2812      3129      3130
 -1      1422    8    0    1
 -2       667       768       767      3130      3131      3126
 -1      1423    8    0    1
 -2       668       669       769      2815      3132      3133
 -1      1424    8    0    1
 -2       668       769       768      3133      3134      3129
 -1      1425    8    0    1
 -2       669       670       770      2818      3135      3136
 -1      1426    8    0    1
 -2       669       770       769      3136      3137      3132
 -1      1427    8    0    1
 -2       670       671       771      2821      3138      3139
 -1      1428    8    0    1
 -2       670       771       770      3139      3140      3135
 -1      1429    8    0    1
 -2       671       672       772      2824      3141      3142
 -1      1430    8    0    1
 -2       671       772       771      3142      3143      3138
 -1      1431    8    0    1
 -2       672       673       773      2827      3144      3145
 -1      1432    8    0    1
 -2       672       773       772      3145      3146      3141
 -1      1433    8    0    1
 -2       673       674       774      2830      3147      3148
 -1      1434    8    0    1
 -2       673       774       773      3148      3149      3144
 -1      1435    8    0    1
 -2       674       675       775      2833      3150      3151
 -1      1436    8    0    1
 -2       674       775       774      3151      3152      3147
 -1      1437    8    0    1
 -2       675       676       776      2836      3153      3154
 -1      1438    8    0    1
 -2       675       776       775      3154      3155      3150
 -1      1439    8    0    1
 -2       598       645       777      2743      3156      3157
 -1      1440    8    0    1
 -2       645       703       777      2938      3158      3156
 -1      1441    8    0    1
 -2       680       679       778      2852      3159      3160
 -1      1442    8    0    1
 -2       593       690       779      2891      3161      3162
 -1      1443    8    0    1
 -2       644       598       780      2900      3163      3164
 -1      1444    8    0    1
 -2       705       644       780      2941      3164      3165
 -1      1445    8    0    1
 -2       598       777       780      3157      3166      3163
 -1      1446    8    0    1
 -2       681       643       679      2905      3167      2855
 -1      1447    8    0    1
 -2       691       678       781      2913      3168      3169
 -1      1448    8    0    1
 -2       602       687       782      2872      3170      3171
 -1      1449    8    0    1
 -2       602       782       704      3171      3172      2939
 -1      1450    8    0    1
 -2       686       683       783      2869      3173      3174
 -1      1451    8    0    1
 -2       600       599       784      2609      3175      3176
 -1      1452    8    0    1
 -2       599       705       784      2942      3177      3175
 -1      1453    8    0    1
 -2       595       594       785      2596      3178      3179
 -1      1454    8    0    1
 -2       690       691       786      2925      3180      3181
 -1      1455    8    0    1
 -2       685       693       787      2914      3182      3183
 -1      1456    8    0    1
 -2       687       700       788      2932      3184      3185
 -1      1457    8    0    1
 -2       700       698       788      2931      3186      3184
 -1      1458    8    0    1
 -2       688       685       789      2924      3187      3188
 -1      1459    8    0    1
 -2       597       600       702      3063      3189      2935
 -1      1460    8    0    1
 -2       679       643       745      3167      3061      3190
 -1      1461    8    0    1
 -2       694       595       790      2892      3191      3192
 -1      1462    8    0    1
 -2       595       785       790      3179      3193      3191
 -1      1463    8    0    1
 -2       596       702       791      2936      3194      3195
 -1      1464    8    0    1
 -2       596       791       689      3195      3196      2878
 -1      1465    8    0    1
 -2       683       696       792      2904      3197      3198
 -1      1466    8    0    1
 -2       683       792       783      3198      3199      3173
 -1      1467    8    0    1
 -2       680       778       697      3160      3200      3201
 -1      1468    8    0    1
 -2       696       688       793      2902      3202      3203
 -1      1469    8    0    1
 -2       688       789       793      3188      3204      3202
 -1      1470    8    0    1
 -2       746       686       783      3064      3174      3205
 -1      1471    8    0    1
 -2       776       676       746      3153      3206      3207
 -1      1472    8    0    1
 -2       676       677       746      2839      3208      3206
 -1      1473    8    0    1
 -2       567       568       577      2846      2926      2576
 -1      1474    8    0    1
 -2       778       679       745      3159      3190      3209
 -1      1475    8    0    1
 -2       593       779       701      3162      3210      2933
 -1      1476    8    0    1
 -2       460       569       468      2589      2496      2857
 -1      1477    8    0    1
 -2       682       746       677      3065      3208      3211
 -1      1478    8    0    1
 -2       682       677       601      3211      2907      2860
 -1      1479    8    0    1
 -2       698       692       794      2919      3212      3213
 -1      1480    8    0    1
 -2       698       794       788      3213      3214      3186
 -1      1481    8    0    1
 -2       781       678       697      3168      2911      3215
 -1      1482    8    0    1
 -2       786       691       795      3180      3216      3217
 -1      1483    8    0    1
 -2       691       781       795      3169      3218      3216
 -1      1484    8    0    1
 -2       787       693       701      3182      2934      3219
 -1      1485    8    0    1
 -2       794       692       796      3212      3220      3221
 -1      1486    8    0    1
 -2       692       699       796      2922      3222      3220
 -1      1487    8    0    1
 -2       600       784       702      3176      3223      3189
 -1      1488    8    0    1
 -2       785       594       797      3178      3224      3225
 -1      1489    8    0    1
 -2       594       689       797      2877      3226      3224
 -1      1490    8    0    1
 -2       779       690       786      3161      3181      3227
 -1      1491    8    0    1
 -2       782       687       788      3170      3185      3228
 -1      1492    8    0    1
 -2       685       787       789      3183      3229      3187
 -1      1493    8    0    1
 -2       697       778       798      3200      3230      3231
 -1      1494    8    0    1
 -2       781       697       798      3215      3231      3232
 -1      1495    8    0    1
 -2       778       745       798      3209      3233      3230
 -1      1496    8    0    1
 -2       707       706       799      2948      3234      3235
 -1      1497    8    0    1
 -2       708       707       800      2951      3236      3237
 -1      1498    8    0    1
 -2       707       799       800      3235      3238      3236
 -1      1499    8    0    1
 -2       709       708       801      2954      3239      3240
 -1      1500    8    0    1
 -2       708       800       801      3237      3241      3239
 -1      1501    8    0    1
 -2       710       709       802      2957      3242      3243
 -1      1502    8    0    1
 -2       709       801       802      3240      3244      3242
 -1      1503    8    0    1
 -2       711       710       803      2960      3245      3246
 -1      1504    8    0    1
 -2       710       802       803      3243      3247      3245
 -1      1505    8    0    1
 -2       712       711       804      2963      3248      3249
 -1      1506    8    0    1
 -2       711       803       804      3246      3250      3248
 -1      1507    8    0    1
 -2       713       712       805      2966      3251      3252
 -1      1508    8    0    1
 -2       712       804       805      3249      3253      3251
 -1      1509    8    0    1
 -2       714       713       806      2969      3254      3255
 -1      1510    8    0    1
 -2       713       805       806      3252      3256      3254
 -1      1511    8    0    1
 -2       715       714       807      2972      3257      3258
 -1      1512    8    0    1
 -2       714       806       807      3255      3259      3257
 -1      1513    8    0    1
 -2       716       715       808      2975      3260      3261
 -1      1514    8    0    1
 -2       715       807       808      3258      3262      3260
 -1      1515    8    0    1
 -2       717       716       809      2978      3263      3264
 -1      1516    8    0    1
 -2       716       808       809      3261      3265      3263
 -1      1517    8    0    1
 -2       718       717       810      2981      3266      3267
 -1      1518    8    0    1
 -2       717       809       810      3264      3268      3266
 -1      1519    8    0    1
 -2       719       718       811      2984      3269      3270
 -1      1520    8    0    1
 -2       718       810       811      3267      3271      3269
 -1      1521    8    0    1
 -2       720       719       812      2987      3272      3273
 -1      1522    8    0    1
 -2       719       811       812      3270      3274      3272
 -1      1523    8    0    1
 -2       721       720       813      2990      3275      3276
 -1      1524    8    0    1
 -2       720       812       813      3273      3277      3275
 -1      1525    8    0    1
 -2       722       721       814      2993      3278      3279
 -1      1526    8    0    1
 -2       721       813       814      3276      3280      3278
 -1      1527    8    0    1
 -2       723       722       815      2996      3281      3282
 -1      1528    8    0    1
 -2       722       814       815      3279      3283      3281
 -1      1529    8    0    1
 -2       724       723       816      2999      3284      3285
 -1      1530    8    0    1
 -2       723       815       816      3282      3286      3284
 -1      1531    8    0    1
 -2       725       724       817      3002      3287      3288
 -1      1532    8    0    1
 -2       724       816       817      3285      3289      3287
 -1      1533    8    0    1
 -2       726       725       818      3005      3290      3291
 -1      1534    8    0    1
 -2       725       817       818      3288      3292      3290
 -1      1535    8    0    1
 -2       727       726       819      3008      3293      3294
 -1      1536    8    0    1
 -2       726       818       819      3291      3295      3293
 -1      1537    8    0    1
 -2       728       727       820      3011      3296      3297
 -1      1538    8    0    1
 -2       727       819       820      3294      3298      3296
 -1      1539    8    0    1
 -2       729       728       821      3014      3299      3300
 -1      1540    8    0    1
 -2       728       820       821      3297      3301      3299
 -1      1541    8    0    1
 -2       730       729       822      3017      3302      3303
 -1      1542    8    0    1
 -2       729       821       822      3300      3304      3302
 -1      1543    8    0    1
 -2       731       730       823      3020      3305      3306
 -1      1544    8    0    1
 -2       730       822       823      3303      3307      3305
 -1      1545    8    0    1
 -2       732       731       824      3023      3308      3309
 -1      1546    8    0    1
 -2       731       823       824      3306      3310      3308
 -1      1547    8    0    1
 -2       733       732       825      3026      3311      3312
 -1      1548    8    0    1
 -2       732       824       825      3309      3313      3311
 -1      1549    8    0    1
 -2       734       733       826      3029      3314      3315
 -1      1550    8    0    1
 -2       733       825       826      3312      3316      3314
 -1      1551    8    0    1
 -2       735       734       827      3032      3317      3318
 -1      1552    8    0    1
 -2       734       826       827      3315      3319      3317
 -1      1553    8    0    1
 -2       736       735       828      3035      3320      3321
 -1      1554    8    0    1
 -2       735       827       828      3318      3322      3320
 -1      1555    8    0    1
 -2       737       736       829      3038      3323      3324
 -1      1556    8    0    1
 -2       736       828       829      3321      3325      3323
 -1      1557    8    0    1
 -2       738       737       830      3041      3326      3327
 -1      1558    8    0    1
 -2       737       829       830      3324      3328      3326
 -1      1559    8    0    1
 -2       739       738       831      3044      3329      3330
 -1      1560    8    0    1
 -2       738       830       831      3327      3331      3329
 -1      1561    8    0    1
 -2       740       739       832      3047      3332      3333
 -1      1562    8    0    1
 -2       739       831       832      3330      3334      3332
 -1      1563    8    0    1
 -2       741       740       833      3050      3335      3336
 -1      1564    8    0    1
 -2       740       832       833      3333      3337      3335
 -1      1565    8    0    1
 -2       742       741       834      3053      3338      3339
 -1      1566    8    0    1
 -2       741       833       834      3336      3340      3338
 -1      1567    8    0    1
 -2       744       743       795      3059      3341      3342
 -1      1568    8    0    1
 -2       745       744       798      3062      3343      3233
 -1      1569    8    0    1
 -2       748       749       835      3074      3344      3345
 -1      1570    8    0    1
 -2       703       747       836      3068      3346      3347
 -1      1571    8    0    1
 -2       749       750       837      3077      3348      3349
 -1      1572    8    0    1
 -2       749       837       835      3349      3350      3344
 -1      1573    8    0    1
 -2       750       751       838      3080      3351      3352
 -1      1574    8    0    1
 -2       750       838       837      3352      3353      3348
 -1      1575    8    0    1
 -2       751       752       839      3083      3354      3355
 -1      1576    8    0    1
 -2       751       839       838      3355      3356      3351
 -1      1577    8    0    1
 -2       752       753       840      3086      3357      3358
 -1      1578    8    0    1
 -2       752       840       839      3358      3359      3354
 -1      1579    8    0    1
 -2       753       754       841      3089      3360      3361
 -1      1580    8    0    1
 -2       753       841       840      3361      3362      3357
 -1      1581    8    0    1
 -2       754       755       842      3092      3363      3364
 -1      1582    8    0    1
 -2       754       842       841      3364      3365      3360
 -1      1583    8    0    1
 -2       755       756       843      3095      3366      3367
 -1      1584    8    0    1
 -2       755       843       842      3367      3368      3363
 -1      1585    8    0    1
 -2       756       757       844      3098      3369      3370
 -1      1586    8    0    1
 -2       756       844       843      3370      3371      3366
 -1      1587    8    0    1
 -2       757       758       845      3101      3372      3373
 -1      1588    8    0    1
 -2       757       845       844      3373      3374      3369
 -1      1589    8    0    1
 -2       758       759       846      3104      3375      3376
 -1      1590    8    0    1
 -2       758       846       845      3376      3377      3372
 -1      1591    8    0    1
 -2       759       760       847      3107      3378      3379
 -1      1592    8    0    1
 -2       759       847       846      3379      3380      3375
 -1      1593    8    0    1
 -2       760       761       848      3110      3381      3382
 -1      1594    8    0    1
 -2       760       848       847      3382      3383      3378
 -1      1595    8    0    1
 -2       761       762       849      3113      3384      3385
 -1      1596    8    0    1
 -2       761       849       848      3385      3386      3381
 -1      1597    8    0    1
 -2       762       763       850      3116      3387      3388
 -1      1598    8    0    1
 -2       762       850       849      3388      3389      3384
 -1      1599    8    0    1
 -2       763       764       851      3119      3390      3391
 -1      1600    8    0    1
 -2       763       851       850      3391      3392      3387
 -1      1601    8    0    1
 -2       764       765       852      3122      3393      3394
 -1      1602    8    0    1
 -2       764       852       851      3394      3395      3390
 -1      1603    8    0    1
 -2       765       766       853      3125      3396      3397
 -1      1604    8    0    1
 -2       765       853       852      3397      3398      3393
 -1      1605    8    0    1
 -2       766       767       854      3128      3399      3400
 -1      1606    8    0    1
 -2       766       854       853      3400      3401      3396
 -1      1607    8    0    1
 -2       767       768       855      3131      3402      3403
 -1      1608    8    0    1
 -2       767       855       854      3403      3404      3399
 -1      1609    8    0    1
 -2       768       769       856      3134      3405      3406
 -1      1610    8    0    1
 -2       768       856       855      3406      3407      3402
 -1      1611    8    0    1
 -2       769       770       857      3137      3408      3409
 -1      1612    8    0    1
 -2       769       857       856      3409      3410      3405
 -1      1613    8    0    1
 -2       770       771       858      3140      3411      3412
 -1      1614    8    0    1
 -2       770       858       857      3412      3413      3408
 -1      1615    8    0    1
 -2       771       772       859      3143      3414      3415
 -1      1616    8    0    1
 -2       771       859       858      3415      3416      3411
 -1      1617    8    0    1
 -2       772       773       860      3146      3417      3418
 -1      1618    8    0    1
 -2       772       860       859      3418      3419      3414
 -1      1619    8    0    1
 -2       773       774       861      3149      3420      3421
 -1      1620    8    0    1
 -2       773       861       860      3421      3422      3417
 -1      1621    8    0    1
 -2       774       775       862      3152      3423      3424
 -1      1622    8    0    1
 -2       774       862       861      3424      3425      3420
 -1      1623    8    0    1
 -2       775       776       863      3155      3426      3427
 -1      1624    8    0    1
 -2       775       863       862      3427      3428      3423
 -1      1625    8    0    1
 -2       777       703       864      3158      3429      3430
 -1      1626    8    0    1
 -2       703       836       864      3347      3431      3429
 -1      1627    8    0    1
 -2       706       704       865      2945      3432      3433
 -1      1628    8    0    1
 -2       706       865       799      3433      3434      3234
 -1      1629    8    0    1
 -2       684       584       680      2863      2927      3435
 -1      1630    8    0    1
 -2       784       705       866      3177      3436      3437
 -1      1631    8    0    1
 -2       699       694       867      2923      3438      3439
 -1      1632    8    0    1
 -2       796       699       867      3222      3439      3440
 -1      1633    8    0    1
 -2       694       790       867      3192      3441      3438
 -1      1634    8    0    1
 -2       788       794       868      3214      3442      3443
 -1      1635    8    0    1
 -2       788       868       782      3443      3444      3228
 -1      1636    8    0    1
 -2       704       782       869      3172      3445      3446
 -1      1637    8    0    1
 -2       865       704       869      3432      3446      3447
 -1      1638    8    0    1
 -2       782       868       869      3444      3448      3445
 -1      1639    8    0    1
 -2       684       680       697      3435      3201      2912
 -1      1640    8    0    1
 -2       787       701       870      3219      3449      3450
 -1      1641    8    0    1
 -2       779       786       871      3227      3451      3452
 -1      1642    8    0    1
 -2       789       787       872      3229      3453      3454
 -1      1643    8    0    1
 -2       776       746       783      3207      3205      3455
 -1      1644    8    0    1
 -2       702       784       873      3223      3456      3457
 -1      1645    8    0    1
 -2       791       702       873      3194      3457      3458
 -1      1646    8    0    1
 -2       784       866       873      3437      3459      3456
 -1      1647    8    0    1
 -2       747       748       874      3071      3460      3461
 -1      1648    8    0    1
 -2       748       835       874      3345      3462      3460
 -1      1649    8    0    1
 -2       701       779       875      3210      3463      3464
 -1      1650    8    0    1
 -2       792       696       876      3197      3465      3466
 -1      1651    8    0    1
 -2       696       793       876      3203      3467      3465
 -1      1652    8    0    1
 -2       872       787       870      3453      3450      3468
 -1      1653    8    0    1
 -2       689       791       797      3196      3469      3226
 -1      1654    8    0    1
 -2       793       789       877      3204      3470      3471
 -1      1655    8    0    1
 -2       795       743       878      3341      3472      3473
 -1      1656    8    0    1
 -2       786       795       878      3217      3473      3474
 -1      1657    8    0    1
 -2       743       742       878      3056      3475      3472
 -1      1658    8    0    1
 -2       777       864       879      3430      3476      3477
 -1      1659    8    0    1
 -2       777       879       780      3477      3478      3166
 -1      1660    8    0    1
 -2       790       785       880      3193      3479      3480
 -1      1661    8    0    1
 -2       705       780       881      3165      3481      3482
 -1      1662    8    0    1
 -2       866       705       881      3436      3482      3483
 -1      1663    8    0    1
 -2       780       879       881      3478      3484      3481
 -1      1664    8    0    1
 -2       795       781       798      3218      3232      3485
 -1      1665    8    0    1
 -2       871       786       878      3451      3474      3486
 -1      1666    8    0    1
 -2       779       871       875      3452      3487      3463
 -1      1667    8    0    1
 -2       868       794       882      3442      3488      3489
 -1      1668    8    0    1
 -2       794       796       882      3221      3490      3488
 -1      1669    8    0    1
 -2       870       701       875      3449      3464      3491
 -1      1670    8    0    1
 -2       836       747       874      3346      3461      3492
 -1      1671    8    0    1
 -2       789       872       877      3454      3493      3470
 -1      1672    8    0    1
 -2       776       783       883      3455      3494      3495
 -1      1673    8    0    1
 -2       785       797       884      3225      3496      3497
 -1      1674    8    0    1
 -2       785       884       880      3497      3498      3479
 -1      1675    8    0    1
 -2       744       795       798      3342      3485      3343
 -1      1676    8    0    1
 -2       878       742       834      3475      3339      3499
 -1      1677    8    0    1
 -2       776       883       863      3495      3500      3426
 -1      1678    8    0    1
 -2       883       783       792      3494      3199      3501
 -1      1679    8    0    1
 -2       874       835       885      3462      3502      3503
 -1      1680    8    0    1
 -2       800       799       886      3238      3504      3505
 -1      1681    8    0    1
 -2       872       870       887      3468      3506      3507
 -1      1682    8    0    1
 -2       863       883       888      3500      3508      3509
 -1      1683    8    0    1
 -2       801       800       889      3241      3510      3511
 -1      1684    8    0    1
 -2       800       886       889      3505      3512      3510
 -1      1685    8    0    1
 -2       802       801       890      3244      3513      3514
 -1      1686    8    0    1
 -2       801       889       890      3511      3515      3513
 -1      1687    8    0    1
 -2       803       802       891      3247      3516      3517
 -1      1688    8    0    1
 -2       802       890       891      3514      3518      3516
 -1      1689    8    0    1
 -2       804       803       892      3250      3519      3520
 -1      1690    8    0    1
 -2       803       891       892      3517      3521      3519
 -1      1691    8    0    1
 -2       805       804       893      3253      3522      3523
 -1      1692    8    0    1
 -2       804       892       893      3520      3524      3522
 -1      1693    8    0    1
 -2       806       805       894      3256      3525      3526
 -1      1694    8    0    1
 -2       805       893       894      3523      3527      3525
 -1      1695    8    0    1
 -2       807       806       895      3259      3528      3529
 -1      1696    8    0    1
 -2       806       894       895      3526      3530      3528
 -1      1697    8    0    1
 -2       808       807       896      3262      3531      3532
 -1      1698    8    0    1
 -2       807       895       896      3529      3533      3531
 -1      1699    8    0    1
 -2       809       808       897      3265      3534      3535
 -1      1700    8    0    1
 -2       808       896       897      3532      3536      3534
 -1      1701    8    0    1
 -2       810       809       898      3268      3537      3538
 -1      1702    8    0    1
 -2       809       897       898      3535      3539      3537
 -1      1703    8    0    1
 -2       811       810       899      3271      3540      3541
 -1      1704    8    0    1
 -2       810       898       899      3538      3542      3540
 -1      1705    8    0    1
 -2       812       811       900      3274      3543      3544
 -1      1706    8    0    1
 -2       811       899       900      3541      3545      3543
 -1      1707    8    0    1
 -2       813       812       901      3277      3546      3547
 -1      1708    8    0    1
 -2       812       900       901      3544      3548      3546
 -1      1709    8    0    1
 -2       814       813       902      3280      3549      3550
 -1      1710    8    0    1
 -2       813       901       902      3547      3551      3549
 -1      1711    8    0    1
 -2       815       814       903      3283      3552      3553
 -1      1712    8    0    1
 -2       814       902       903      3550      3554      3552
 -1      1713    8    0    1
 -2       816       815       904      3286      3555      3556
 -1      1714    8    0    1
 -2       815       903       904      3553      3557      3555
 -1      1715    8    0    1
 -2       817       816       905      3289      3558      3559
 -1      1716    8    0    1
 -2       816       904       905      3556      3560      3558
 -1      1717    8    0    1
 -2       818       817       906      3292      3561      3562
 -1      1718    8    0    1
 -2       817       905       906      3559      3563      3561
 -1      1719    8    0    1
 -2       819       818       907      3295      3564      3565
 -1      1720    8    0    1
 -2       818       906       907      3562      3566      3564
 -1      1721    8    0    1
 -2       820       819       908      3298      3567      3568
 -1      1722    8    0    1
 -2       819       907       908      3565      3569      3567
 -1      1723    8    0    1
 -2       821       820       909      3301      3570      3571
 -1      1724    8    0    1
 -2       820       908       909      3568      3572      3570
 -1      1725    8    0    1
 -2       822       821       910      3304      3573      3574
 -1      1726    8    0    1
 -2       821       909       910      3571      3575      3573
 -1      1727    8    0    1
 -2       823       822       911      3307      3576      3577
 -1      1728    8    0    1
 -2       822       910       911      3574      3578      3576
 -1      1729    8    0    1
 -2       824       823       912      3310      3579      3580
 -1      1730    8    0    1
 -2       823       911       912      3577      3581      3579
 -1      1731    8    0    1
 -2       825       824       913      3313      3582      3583
 -1      1732    8    0    1
 -2       824       912       913      3580      3584      3582
 -1      1733    8    0    1
 -2       826       825       914      3316      3585      3586
 -1      1734    8    0    1
 -2       825       913       914      3583      3587      3585
 -1      1735    8    0    1
 -2       827       826       915      3319      3588      3589
 -1      1736    8    0    1
 -2       826       914       915      3586      3590      3588
 -1      1737    8    0    1
 -2       828       827       916      3322      3591      3592
 -1      1738    8    0    1
 -2       827       915       916      3589      3593      3591
 -1      1739    8    0    1
 -2       829       828       917      3325      3594      3595
 -1      1740    8    0    1
 -2       828       916       917      3592      3596      3594
 -1      1741    8    0    1
 -2       830       829       918      3328      3597      3598
 -1      1742    8    0    1
 -2       829       917       918      3595      3599      3597
 -1      1743    8    0    1
 -2       831       830       919      3331      3600      3601
 -1      1744    8    0    1
 -2       830       918       919      3598      3602      3600
 -1      1745    8    0    1
 -2       832       831       920      3334      3603      3604
 -1      1746    8    0    1
 -2       831       919       920      3601      3605      3603
 -1      1747    8    0    1
 -2       833       832       921      3337      3606      3607
 -1      1748    8    0    1
 -2       832       920       921      3604      3608      3606
 -1      1749    8    0    1
 -2       878       834       871      3499      3609      3486
 -1      1750    8    0    1
 -2       837       838       922      3353      3610      3611
 -1      1751    8    0    1
 -2       799       865       923      3434      3612      3613
 -1      1752    8    0    1
 -2       799       923       886      3613      3614      3504
 -1      1753    8    0    1
 -2       835       837       924      3350      3615      3616
 -1      1754    8    0    1
 -2       837       922       924      3611      3617      3615
 -1      1755    8    0    1
 -2       839       840       925      3359      3618      3619
 -1      1756    8    0    1
 -2       840       841       926      3362      3620      3621
 -1      1757    8    0    1
 -2       840       926       925      3621      3622      3618
 -1      1758    8    0    1
 -2       841       842       927      3365      3623      3624
 -1      1759    8    0    1
 -2       841       927       926      3624      3625      3620
 -1      1760    8    0    1
 -2       842       843       928      3368      3626      3627
 -1      1761    8    0    1
 -2       842       928       927      3627      3628      3623
 -1      1762    8    0    1
 -2       843       844       929      3371      3629      3630
 -1      1763    8    0    1
 -2       843       929       928      3630      3631      3626
 -1      1764    8    0    1
 -2       844       845       930      3374      3632      3633
 -1      1765    8    0    1
 -2       844       930       929      3633      3634      3629
 -1      1766    8    0    1
 -2       845       846       931      3377      3635      3636
 -1      1767    8    0    1
 -2       845       931       930      3636      3637      3632
 -1      1768    8    0    1
 -2       846       847       932      3380      3638      3639
 -1      1769    8    0    1
 -2       846       932       931      3639      3640      3635
 -1      1770    8    0    1
 -2       847       848       933      3383      3641      3642
 -1      1771    8    0    1
 -2       847       933       932      3642      3643      3638
 -1      1772    8    0    1
 -2       848       849       934      3386      3644      3645
 -1      1773    8    0    1
 -2       848       934       933      3645      3646      3641
 -1      1774    8    0    1
 -2       849       850       935      3389      3647      3648
 -1      1775    8    0    1
 -2       849       935       934      3648      3649      3644
 -1      1776    8    0    1
 -2       850       851       936      3392      3650      3651
 -1      1777    8    0    1
 -2       850       936       935      3651      3652      3647
 -1      1778    8    0    1
 -2       851       852       937      3395      3653      3654
 -1      1779    8    0    1
 -2       851       937       936      3654      3655      3650
 -1      1780    8    0    1
 -2       852       853       938      3398      3656      3657
 -1      1781    8    0    1
 -2       852       938       937      3657      3658      3653
 -1      1782    8    0    1
 -2       853       854       939      3401      3659      3660
 -1      1783    8    0    1
 -2       853       939       938      3660      3661      3656
 -1      1784    8    0    1
 -2       854       855       940      3404      3662      3663
 -1      1785    8    0    1
 -2       854       940       939      3663      3664      3659
 -1      1786    8    0    1
 -2       855       856       941      3407      3665      3666
 -1      1787    8    0    1
 -2       855       941       940      3666      3667      3662
 -1      1788    8    0    1
 -2       856       857       942      3410      3668      3669
 -1      1789    8    0    1
 -2       856       942       941      3669      3670      3665
 -1      1790    8    0    1
 -2       857       858       943      3413      3671      3672
 -1      1791    8    0    1
 -2       857       943       942      3672      3673      3668
 -1      1792    8    0    1
 -2       858       859       944      3416      3674      3675
 -1      1793    8    0    1
 -2       858       944       943      3675      3676      3671
 -1      1794    8    0    1
 -2       859       860       945      3419      3677      3678
 -1      1795    8    0    1
 -2       859       945       944      3678      3679      3674
 -1      1796    8    0    1
 -2       860       861       946      3422      3680      3681
 -1      1797    8    0    1
 -2       860       946       945      3681      3682      3677
 -1      1798    8    0    1
 -2       861       862       947      3425      3683      3684
 -1      1799    8    0    1
 -2       861       947       946      3684      3685      3680
 -1      1800    8    0    1
 -2       862       863       948      3428      3686      3687
 -1      1801    8    0    1
 -2       947       862       948      3683      3687      3688
 -1      1802    8    0    1
 -2       863       888       948      3509      3689      3686
 -1      1803    8    0    1
 -2       883       792       876      3501      3466      3690
 -1      1804    8    0    1
 -2       864       836       949      3431      3691      3692
 -1      1805    8    0    1
 -2       797       791       950      3469      3693      3694
 -1      1806    8    0    1
 -2       884       797       950      3496      3694      3695
 -1      1807    8    0    1
 -2       791       873       950      3458      3696      3693
 -1      1808    8    0    1
 -2       793       877       951      3471      3697      3698
 -1      1809    8    0    1
 -2       793       951       876      3698      3699      3467
 -1      1810    8    0    1
 -2       870       875       952      3491      3700      3701
 -1      1811    8    0    1
 -2       790       880       953      3480      3702      3703
 -1      1812    8    0    1
 -2       838       839       954      3356      3704      3705
 -1      1813    8    0    1
 -2       922       838       954      3610      3705      3706
 -1      1814    8    0    1
 -2       839       925       954      3619      3707      3704
 -1      1815    8    0    1
 -2       836       874       955      3492      3708      3709
 -1      1816    8    0    1
 -2       874       885       955      3503      3710      3708
 -1      1817    8    0    1
 -2       877       872       956      3493      3711      3712
 -1      1818    8    0    1
 -2       872       887       956      3507      3713      3711
 -1      1819    8    0    1
 -2       871       834       957      3609      3714      3715
 -1      1820    8    0    1
 -2       875       871       957      3487      3715      3716
 -1      1821    8    0    1
 -2       834       833       957      3340      3717      3714
 -1      1822    8    0    1
 -2       875       957       952      3716      3718      3700
 -1      1823    8    0    1
 -2       883       876       888      3690      3719      3508
 -1      1824    8    0    1
 -2       887       870       952      3506      3701      3720
 -1      1825    8    0    1
 -2       835       924       885      3616      3721      3502
 -1      1826    8    0    1
 -2       923       865       958      3612      3722      3723
 -1      1827    8    0    1
 -2       865       869       958      3447      3724      3722
 -1      1828    8    0    1
 -2       949       836       955      3691      3709      3725
 -1      1829    8    0    1
 -2       866       881       959      3483      3726      3727
 -1      1830    8    0    1
 -2       867       790       953      3441      3703      3728
 -1      1831    8    0    1
 -2       953       880       960      3702      3729      3730
 -1      1832    8    0    1
 -2       796       867       961      3440      3731      3732
 -1      1833    8    0    1
 -2       882       796       961      3490      3732      3733
 -1      1834    8    0    1
 -2       867       953       961      3728      3734      3731
 -1      1835    8    0    1
 -2       869       868       962      3448      3735      3736
 -1      1836    8    0    1
 -2       958       869       962      3724      3736      3737
 -1      1837    8    0    1
 -2       868       882       962      3489      3738      3735
 -1      1838    8    0    1
 -2       879       864       963      3476      3739      3740
 -1      1839    8    0    1
 -2       864       949       963      3692      3741      3739
 -1      1840    8    0    1
 -2       877       956       964      3712      3742      3743
 -1      1841    8    0    1
 -2       877       964       951      3743      3744      3697
 -1      1842    8    0    1
 -2       880       884       965      3498      3745      3746
 -1      1843    8    0    1
 -2       880       965       960      3746      3747      3729
 -1      1844    8    0    1
 -2       873       866       966      3459      3748      3749
 -1      1845    8    0    1
 -2       950       873       966      3696      3749      3750
 -1      1846    8    0    1
 -2       866       959       966      3727      3751      3748
 -1      1847    8    0    1
 -2       833       921       957      3607      3752      3717
 -1      1848    8    0    1
 -2       890       889       967      3515      3753      3754
 -1      1849    8    0    1
 -2       891       890       968      3518      3755      3756
 -1      1850    8    0    1
 -2       890       967       968      3754      3757      3755
 -1      1851    8    0    1
 -2       892       891       969      3521      3758      3759
 -1      1852    8    0    1
 -2       891       968       969      3756      3760      3758
 -1      1853    8    0    1
 -2       893       892       970      3524      3761      3762
 -1      1854    8    0    1
 -2       892       969       970      3759      3763      3761
 -1      1855    8    0    1
 -2       894       893       971      3527      3764      3765
 -1      1856    8    0    1
 -2       893       970       971      3762      3766      3764
 -1      1857    8    0    1
 -2       895       894       972      3530      3767      3768
 -1      1858    8    0    1
 -2       894       971       972      3765      3769      3767
 -1      1859    8    0    1
 -2       896       895       973      3533      3770      3771
 -1      1860    8    0    1
 -2       895       972       973      3768      3772      3770
 -1      1861    8    0    1
 -2       897       896       974      3536      3773      3774
 -1      1862    8    0    1
 -2       896       973       974      3771      3775      3773
 -1      1863    8    0    1
 -2       898       897       975      3539      3776      3777
 -1      1864    8    0    1
 -2       897       974       975      3774      3778      3776
 -1      1865    8    0    1
 -2       899       898       976      3542      3779      3780
 -1      1866    8    0    1
 -2       898       975       976      3777      3781      3779
 -1      1867    8    0    1
 -2       900       899       977      3545      3782      3783
 -1      1868    8    0    1
 -2       899       976       977      3780      3784      3782
 -1      1869    8    0    1
 -2       901       900       978      3548      3785      3786
 -1      1870    8    0    1
 -2       900       977       978      3783      3787      3785
 -1      1871    8    0    1
 -2       902       901       979      3551      3788      3789
 -1      1872    8    0    1
 -2       901       978       979      3786      3790      3788
 -1      1873    8    0    1
 -2       903       902       980      3554      3791      3792
 -1      1874    8    0    1
 -2       902       979       980      3789      3793      3791
 -1      1875    8    0    1
 -2       904       903       981      3557      3794      3795
 -1      1876    8    0    1
 -2       903       980       981      3792      3796      3794
 -1      1877    8    0    1
 -2       905       904       982      3560      3797      3798
 -1      1878    8    0    1
 -2       904       981       982      3795      3799      3797
 -1      1879    8    0    1
 -2       906       905       983      3563      3800      3801
 -1      1880    8    0    1
 -2       905       982       983      3798      3802      3800
 -1      1881    8    0    1
 -2       907       906       984      3566      3803      3804
 -1      1882    8    0    1
 -2       906       983       984      3801      3805      3803
 -1      1883    8    0    1
 -2       908       907       985      3569      3806      3807
 -1      1884    8    0    1
 -2       907       984       985      3804      3808      3806
 -1      1885    8    0    1
 -2       909       908       986      3572      3809      3810
 -1      1886    8    0    1
 -2       908       985       986      3807      3811      3809
 -1      1887    8    0    1
 -2       910       909       987      3575      3812      3813
 -1      1888    8    0    1
 -2       909       986       987      3810      3814      3812
 -1      1889    8    0    1
 -2       911       910       988      3578      3815      3816
 -1      1890    8    0    1
 -2       910       987       988      3813      3817      3815
 -1      1891    8    0    1
 -2       912       911       989      3581      3818      3819
 -1      1892    8    0    1
 -2       911       988       989      3816      3820      3818
 -1      1893    8    0    1
 -2       913       912       990      3584      3821      3822
 -1      1894    8    0    1
 -2       912       989       990      3819      3823      3821
 -1      1895    8    0    1
 -2       914       913       991      3587      3824      3825
 -1      1896    8    0    1
 -2       913       990       991      3822      3826      3824
 -1      1897    8    0    1
 -2       915       914       992      3590      3827      3828
 -1      1898    8    0    1
 -2       914       991       992      3825      3829      3827
 -1      1899    8    0    1
 -2       916       915       993      3593      3830      3831
 -1      1900    8    0    1
 -2       915       992       993      3828      3832      3830
 -1      1901    8    0    1
 -2       917       916       994      3596      3833      3834
 -1      1902    8    0    1
 -2       916       993       994      3831      3835      3833
 -1      1903    8    0    1
 -2       918       917       995      3599      3836      3837
 -1      1904    8    0    1
 -2       917       994       995      3834      3838      3836
 -1      1905    8    0    1
 -2       919       918       996      3602      3839      3840
 -1      1906    8    0    1
 -2       918       995       996      3837      3841      3839
 -1      1907    8    0    1
 -2       920       919       997      3605      3842      3843
 -1      1908    8    0    1
 -2       919       996       997      3840      3844      3842
 -1      1909    8    0    1
 -2       952       957       921      3718      3752      3845
 -1      1910    8    0    1
 -2       881       879       998      3484      3846      3847
 -1      1911    8    0    1
 -2       879       963       998      3740      3848      3846
 -1      1912    8    0    1
 -2       887       952       997      3720      3849      3850
 -1      1913    8    0    1
 -2       955       885       999      3710      3851      3852
 -1      1914    8    0    1
 -2       886       923      1000      3614      3853      3854
 -1      1915    8    0    1
 -2       924       922      1001      3617      3855      3856
 -1      1916    8    0    1
 -2       926       927      1002      3625      3857      3858
 -1      1917    8    0    1
 -2       925       926      1003      3622      3859      3860
 -1      1918    8    0    1
 -2       926      1002      1003      3858      3861      3859
 -1      1919    8    0    1
 -2       928       929      1004      3631      3862      3863
 -1      1920    8    0    1
 -2       929       930      1005      3634      3864      3865
 -1      1921    8    0    1
 -2       929      1005      1004      3865      3866      3862
 -1      1922    8    0    1
 -2       930       931      1006      3637      3867      3868
 -1      1923    8    0    1
 -2       930      1006      1005      3868      3869      3864
 -1      1924    8    0    1
 -2       931       932      1007      3640      3870      3871
 -1      1925    8    0    1
 -2       931      1007      1006      3871      3872      3867
 -1      1926    8    0    1
 -2       932       933      1008      3643      3873      3874
 -1      1927    8    0    1
 -2       932      1008      1007      3874      3875      3870
 -1      1928    8    0    1
 -2       933       934      1009      3646      3876      3877
 -1      1929    8    0    1
 -2       933      1009      1008      3877      3878      3873
 -1      1930    8    0    1
 -2       934       935      1010      3649      3879      3880
 -1      1931    8    0    1
 -2       934      1010      1009      3880      3881      3876
 -1      1932    8    0    1
 -2       935       936      1011      3652      3882      3883
 -1      1933    8    0    1
 -2       935      1011      1010      3883      3884      3879
 -1      1934    8    0    1
 -2       936       937      1012      3655      3885      3886
 -1      1935    8    0    1
 -2       936      1012      1011      3886      3887      3882
 -1      1936    8    0    1
 -2       937       938      1013      3658      3888      3889
 -1      1937    8    0    1
 -2       937      1013      1012      3889      3890      3885
 -1      1938    8    0    1
 -2       938       939      1014      3661      3891      3892
 -1      1939    8    0    1
 -2       938      1014      1013      3892      3893      3888
 -1      1940    8    0    1
 -2       939       940      1015      3664      3894      3895
 -1      1941    8    0    1
 -2       939      1015      1014      3895      3896      3891
 -1      1942    8    0    1
 -2       940       941      1016      3667      3897      3898
 -1      1943    8    0    1
 -2       940      1016      1015      3898      3899      3894
 -1      1944    8    0    1
 -2       941       942      1017      3670      3900      3901
 -1      1945    8    0    1
 -2       941      1017      1016      3901      3902      3897
 -1      1946    8    0    1
 -2       942       943      1018      3673      3903      3904
 -1      1947    8    0    1
 -2       942      1018      1017      3904      3905      3900
 -1      1948    8    0    1
 -2       943       944      1019      3676      3906      3907
 -1      1949    8    0    1
 -2       943      1019      1018      3907      3908      3903
 -1      1950    8    0    1
 -2       944       945      1020      3679      3909      3910
 -1      1951    8    0    1
 -2       944      1020      1019      3910      3911      3906
 -1      1952    8    0    1
 -2       945       946      1021      3682      3912      3913
 -1      1953    8    0    1
 -2       945      1021      1020      3913      3914      3909
 -1      1954    8    0    1
 -2       946       947      1022      3685      3915      3916
 -1      1955    8    0    1
 -2       946      1022      1021      3916      3917      3912
 -1      1956    8    0    1
 -2       927       928      1023      3628      3918      3919
 -1      1957    8    0    1
 -2       928      1004      1023      3863      3920      3918
 -1      1958    8    0    1
 -2       959       881       998      3726      3847      3921
 -1      1959    8    0    1
 -2       888       876       951      3719      3699      3922
 -1      1960    8    0    1
 -2       953       960      1024      3730      3923      3924
 -1      1961    8    0    1
 -2       949       955      1025      3725      3925      3926
 -1      1962    8    0    1
 -2       955       999      1025      3852      3927      3925
 -1      1963    8    0    1
 -2       956       887       997      3713      3850      3928
 -1      1964    8    0    1
 -2       885       924      1026      3721      3929      3930
 -1      1965    8    0    1
 -2       924      1001      1026      3856      3931      3929
 -1      1966    8    0    1
 -2       888       951      1027      3922      3932      3933
 -1      1967    8    0    1
 -2       888      1027       948      3933      3934      3689
 -1      1968    8    0    1
 -2       889       886      1028      3512      3935      3936
 -1      1969    8    0    1
 -2       967       889      1028      3753      3936      3937
 -1      1970    8    0    1
 -2       886      1000      1028      3854      3938      3935
 -1      1971    8    0    1
 -2       963       949      1029      3741      3939      3940
 -1      1972    8    0    1
 -2       949      1025      1029      3926      3941      3939
 -1      1973    8    0    1
 -2       952       921       920      3845      3608      3942
 -1      1974    8    0    1
 -2       999       885      1026      3851      3930      3943
 -1      1975    8    0    1
 -2       961       953      1024      3734      3924      3944
 -1      1976    8    0    1
 -2       997       952       920      3849      3942      3843
 -1      1977    8    0    1
 -2       956       997      1030      3928      3945      3946
 -1      1978    8    0    1
 -2       964       956      1030      3742      3946      3947
 -1      1979    8    0    1
 -2       997       996      1030      3844      3948      3945
 -1      1980    8    0    1
 -2       959       998      1031      3921      3949      3950
 -1      1981    8    0    1
 -2       925      1003      1032      3860      3951      3952
 -1      1982    8    0    1
 -2       925      1032       954      3952      3953      3707
 -1      1983    8    0    1
 -2       927      1023      1002      3919      3954      3857
 -1      1984    8    0    1
 -2       947       948      1033      3688      3955      3956
 -1      1985    8    0    1
 -2      1022       947      1033      3915      3956      3957
 -1      1986    8    0    1
 -2       948      1027      1033      3934      3958      3955
 -1      1987    8    0    1
 -2       884       950      1034      3695      3959      3960
 -1      1988    8    0    1
 -2       965       884      1034      3745      3960      3961
 -1      1989    8    0    1
 -2       950       966      1034      3750      3962      3959
 -1      1990    8    0    1
 -2       882       961       962      3733      3963      3738
 -1      1991    8    0    1
 -2      1001       922      1035      3855      3964      3965
 -1      1992    8    0    1
 -2       922       954      1035      3706      3966      3964
 -1      1993    8    0    1
 -2      1024       960      1036      3923      3967      3968
 -1      1994    8    0    1
 -2       960       965      1037      3747      3969      3970
 -1      1995    8    0    1
 -2       960      1037      1036      3970      3971      3967
 -1      1996    8    0    1
 -2       923       958      1024      3723      3972      3973
 -1      1997    8    0    1
 -2       966       959      1034      3751      3974      3962
 -1      1998    8    0    1
 -2      1027       951       964      3932      3744      3975
 -1      1999    8    0    1
 -2       959      1031      1034      3950      3976      3974
 -1      2000    8    0    1
 -2      1006      1007      1038      3872      3977      3978
 -1      2001    8    0    1
 -2      1003      1002      1039      3861      3979      3980
 -1      2002    8    0    1
 -2       969       968      1040      3760      3981      3982
 -1      2003    8    0    1
 -2       970       969      1041      3763      3983      3984
 -1      2004    8    0    1
 -2       969      1040      1041      3982      3985      3983
 -1      2005    8    0    1
 -2       971       970      1042      3766      3986      3987
 -1      2006    8    0    1
 -2       970      1041      1042      3984      3988      3986
 -1      2007    8    0    1
 -2       972       971      1043      3769      3989      3990
 -1      2008    8    0    1
 -2       971      1042      1043      3987      3991      3989
 -1      2009    8    0    1
 -2       973       972      1044      3772      3992      3993
 -1      2010    8    0    1
 -2       972      1043      1044      3990      3994      3992
 -1      2011    8    0    1
 -2       974       973      1045      3775      3995      3996
 -1      2012    8    0    1
 -2       973      1044      1045      3993      3997      3995
 -1      2013    8    0    1
 -2       975       974      1046      3778      3998      3999
 -1      2014    8    0    1
 -2       974      1045      1046      3996      4000      3998
 -1      2015    8    0    1
 -2       976       975      1047      3781      4001      4002
 -1      2016    8    0    1
 -2       975      1046      1047      3999      4003      4001
 -1      2017    8    0    1
 -2       977       976      1048      3784      4004      4005
 -1      2018    8    0    1
 -2       976      1047      1048      4002      4006      4004
 -1      2019    8    0    1
 -2       978       977      1049      3787      4007      4008
 -1      2020    8    0    1
 -2       977      1048      1049      4005      4009      4007
 -1      2021    8    0    1
 -2       979       978      1050      3790      4010      4011
 -1      2022    8    0    1
 -2       978      1049      1050      4008      4012      4010
 -1      2023    8    0    1
 -2       980       979      1051      3793      4013      4014
 -1      2024    8    0    1
 -2       979      1050      1051      4011      4015      4013
 -1      2025    8    0    1
 -2       981       980      1052      3796      4016      4017
 -1      2026    8    0    1
 -2       980      1051      1052      4014      4018      4016
 -1      2027    8    0    1
 -2       982       981      1053      3799      4019      4020
 -1      2028    8    0    1
 -2       981      1052      1053      4017      4021      4019
 -1      2029    8    0    1
 -2       983       982      1054      3802      4022      4023
 -1      2030    8    0    1
 -2       982      1053      1054      4020      4024      4022
 -1      2031    8    0    1
 -2       984       983      1055      3805      4025      4026
 -1      2032    8    0    1
 -2       983      1054      1055      4023      4027      4025
 -1      2033    8    0    1
 -2       985       984      1056      3808      4028      4029
 -1      2034    8    0    1
 -2       984      1055      1056      4026      4030      4028
 -1      2035    8    0    1
 -2       986       985      1057      3811      4031      4032
 -1      2036    8    0    1
 -2       985      1056      1057      4029      4033      4031
 -1      2037    8    0    1
 -2       987       986      1058      3814      4034      4035
 -1      2038    8    0    1
 -2       986      1057      1058      4032      4036      4034
 -1      2039    8    0    1
 -2       988       987      1059      3817      4037      4038
 -1      2040    8    0    1
 -2       987      1058      1059      4035      4039      4037
 -1      2041    8    0    1
 -2       989       988      1060      3820      4040      4041
 -1      2042    8    0    1
 -2       988      1059      1060      4038      4042      4040
 -1      2043    8    0    1
 -2       990       989      1061      3823      4043      4044
 -1      2044    8    0    1
 -2       989      1060      1061      4041      4045      4043
 -1      2045    8    0    1
 -2       991       990      1062      3826      4046      4047
 -1      2046    8    0    1
 -2       990      1061      1062      4044      4048      4046
 -1      2047    8    0    1
 -2       992       991      1063      3829      4049      4050
 -1      2048    8    0    1
 -2       991      1062      1063      4047      4051      4049
 -1      2049    8    0    1
 -2       993       992      1064      3832      4052      4053
 -1      2050    8    0    1
 -2       992      1063      1064      4050      4054      4052
 -1      2051    8    0    1
 -2       994       993      1065      3835      4055      4056
 -1      2052    8    0    1
 -2       993      1064      1065      4053      4057      4055
 -1      2053    8    0    1
 -2       995       994      1066      3838      4058      4059
 -1      2054    8    0    1
 -2       994      1065      1066      4056      4060      4058
 -1      2055    8    0    1
 -2       996       995      1067      3841      4061      4062
 -1      2056    8    0    1
 -2      1030       996      1067      3948      4062      4063
 -1      2057    8    0    1
 -2       995      1066      1067      4059      4064      4061
 -1      2058    8    0    1
 -2       999      1026      1068      3943      4065      4066
 -1      2059    8    0    1
 -2       998       963      1069      3848      4067      4068
 -1      2060    8    0    1
 -2       963      1029      1069      3940      4069      4067
 -1      2061    8    0    1
 -2       965      1034      1031      3961      3976      4070
 -1      2062    8    0    1
 -2      1005      1006      1070      3869      4071      4072
 -1      2063    8    0    1
 -2      1006      1038      1070      3978      4073      4071
 -1      2064    8    0    1
 -2      1004      1005      1071      3866      4074      4075
 -1      2065    8    0    1
 -2      1005      1070      1071      4072      4076      4074
 -1      2066    8    0    1
 -2      1007      1008      1072      3875      4077      4078
 -1      2067    8    0    1
 -2      1007      1072      1038      4078      4079      3977
 -1      2068    8    0    1
 -2      1008      1009      1073      3878      4080      4081
 -1      2069    8    0    1
 -2      1008      1073      1072      4081      4082      4077
 -1      2070    8    0    1
 -2      1009      1010      1074      3881      4083      4084
 -1      2071    8    0    1
 -2      1009      1074      1073      4084      4085      4080
 -1      2072    8    0    1
 -2      1010      1011      1075      3884      4086      4087
 -1      2073    8    0    1
 -2      1010      1075      1074      4087      4088      4083
 -1      2074    8    0    1
 -2      1011      1012      1076      3887      4089      4090
 -1      2075    8    0    1
 -2      1011      1076      1075      4090      4091      4086
 -1      2076    8    0    1
 -2      1012      1013      1077      3890      4092      4093
 -1      2077    8    0    1
 -2      1012      1077      1076      4093      4094      4089
 -1      2078    8    0    1
 -2      1013      1014      1078      3893      4095      4096
 -1      2079    8    0    1
 -2      1013      1078      1077      4096      4097      4092
 -1      2080    8    0    1
 -2      1014      1015      1079      3896      4098      4099
 -1      2081    8    0    1
 -2      1014      1079      1078      4099      4100      4095
 -1      2082    8    0    1
 -2      1015      1016      1080      3899      4101      4102
 -1      2083    8    0    1
 -2      1015      1080      1079      4102      4103      4098
 -1      2084    8    0    1
 -2      1016      1017      1081      3902      4104      4105
 -1      2085    8    0    1
 -2      1016      1081      1080      4105      4106      4101
 -1      2086    8    0    1
 -2      1017      1018      1082      3905      4107      4108
 -1      2087    8    0    1
 -2      1017      1082      1081      4108      4109      4104
 -1      2088    8    0    1
 -2      1018      1019      1083      3908      4110      4111
 -1      2089    8    0    1
 -2      1018      1083      1082      4111      4112      4107
 -1      2090    8    0    1
 -2      1019      1020      1084      3911      4113      4114
 -1      2091    8    0    1
 -2      1019      1084      1083      4114      4115      4110
 -1      2092    8    0    1
 -2      1020      1021      1085      3914      4116      4117
 -1      2093    8    0    1
 -2      1020      1085      1084      4117      4118      4113
 -1      2094    8    0    1
 -2      1021      1022      1086      3917      4119      4120
 -1      2095    8    0    1
 -2      1021      1086      1085      4120      4121      4116
 -1      2096    8    0    1
 -2      1027       964      1087      3975      4122      4123
 -1      2097    8    0    1
 -2      1023      1004      1088      3920      4124      4125
 -1      2098    8    0    1
 -2      1004      1071      1088      4075      4126      4124
 -1      2099    8    0    1
 -2       968       967      1089      3757      4127      4128
 -1      2100    8    0    1
 -2       968      1089      1040      4128      4129      3981
 -1      2101    8    0    1
 -2      1002      1023      1090      3954      4130      4131
 -1      2102    8    0    1
 -2      1002      1090      1039      4131      4132      3979
 -1      2103    8    0    1
 -2      1025       999      1091      3927      4133      4134
 -1      2104    8    0    1
 -2       999      1068      1091      4066      4135      4133
 -1      2105    8    0    1
 -2       923      1024      1000      3973      4136      3853
 -1      2106    8    0    1
 -2      1031       998      1069      3949      4068      4137
 -1      2107    8    0    1
 -2      1024      1036      1000      3968      4138      4136
 -1      2108    8    0    1
 -2      1026      1001      1092      3931      4139      4140
 -1      2109    8    0    1
 -2      1026      1092      1068      4140      4141      4065
 -1      2110    8    0    1
 -2      1000      1036      1093      4138      4142      4143
 -1      2111    8    0    1
 -2      1000      1093      1028      4143      4144      3938
 -1      2112    8    0    1
 -2       965      1031      1037      4070      4145      3969
 -1      2113    8    0    1
 -2      1003      1039      1094      3980      4146      4147
 -1      2114    8    0    1
 -2      1003      1094      1032      4147      4148      3951
 -1      2115    8    0    1
 -2      1029      1025      1095      3941      4149      4150
 -1      2116    8    0    1
 -2      1025      1091      1095      4134      4151      4149
 -1      2117    8    0    1
 -2       954      1032      1035      3953      4152      3966
 -1      2118    8    0    1
 -2      1027      1087      1033      4123      4153      3958
 -1      2119    8    0    1
 -2      1086      1022      1096      4119      4154      4155
 -1      2120    8    0    1
 -2      1022      1033      1096      3957      4156      4154
 -1      2121    8    0    1
 -2      1087       964      1030      4122      3947      4157
 -1      2122    8    0    1
 -2      1023      1088      1090      4125      4158      4130
 -1      2123    8    0    1
 -2       967      1028      1097      3937      4159      4160
 -1      2124    8    0    1
 -2      1089       967      1097      4127      4160      4161
 -1      2125    8    0    1
 -2      1028      1093      1097      4144      4162      4159
 -1      2126    8    0    1
 -2       958       962      1024      3737      4163      3972
 -1      2127    8    0    1
 -2       962       961      1024      3963      3944      4163
 -1      2128    8    0    1
 -2      1001      1035      1098      3965      4164      4165
 -1      2129    8    0    1
 -2      1001      1098      1092      4165      4166      4139
 -1      2130    8    0    1
 -2      1036      1037      1093      3971      4167      4142
 -1      2131    8    0    1
 -2      1031      1069      1037      4137      4168      4145
 -1      2132    8    0    1
 -2      1068      1092      1041      4141      4169      4170
 -1      2133    8    0    1
 -2      1042      1041      1092      3988      4169      4171
 -1      2134    8    0    1
 -2      1043      1042      1098      3991      4172      4173
 -1      2135    8    0    1
 -2      1045      1044      1099      3997      4174      4175
 -1      2136    8    0    1
 -2      1046      1045      1039      4000      4176      4177
 -1      2137    8    0    1
 -2      1047      1046      1090      4003      4178      4179
 -1      2138    8    0    1
 -2      1048      1047      1088      4006      4180      4181
 -1      2139    8    0    1
 -2      1049      1048      1071      4009      4182      4183
 -1      2140    8    0    1
 -2      1050      1049      1070      4012      4184      4185
 -1      2141    8    0    1
 -2      1051      1050      1038      4015      4186      4187
 -1      2142    8    0    1
 -2      1052      1051      1072      4018      4188      4189
 -1      2143    8    0    1
 -2      1053      1052      1073      4021      4190      4191
 -1      2144    8    0    1
 -2      1054      1053      1074      4024      4192      4193
 -1      2145    8    0    1
 -2      1055      1054      1075      4027      4194      4195
 -1      2146    8    0    1
 -2      1056      1055      1076      4030      4196      4197
 -1      2147    8    0    1
 -2      1057      1056      1077      4033      4198      4199
 -1      2148    8    0    1
 -2      1058      1057      1078      4036      4200      4201
 -1      2149    8    0    1
 -2      1059      1058      1079      4039      4202      4203
 -1      2150    8    0    1
 -2      1060      1059      1080      4042      4204      4205
 -1      2151    8    0    1
 -2      1061      1060      1081      4045      4206      4207
 -1      2152    8    0    1
 -2      1062      1061      1082      4048      4208      4209
 -1      2153    8    0    1
 -2      1063      1062      1083      4051      4210      4211
 -1      2154    8    0    1
 -2      1064      1063      1084      4054      4212      4213
 -1      2155    8    0    1
 -2      1065      1064      1085      4057      4214      4215
 -1      2156    8    0    1
 -2      1066      1065      1086      4060      4216      4217
 -1      2157    8    0    1
 -2      1069      1029      1100      4069      4218      4219
 -1      2158    8    0    1
 -2      1029      1095      1100      4150      4220      4218
 -1      2159    8    0    1
 -2      1072      1073      1052      4082      4190      4189
 -1      2160    8    0    1
 -2      1085      1064      1084      4214      4213      4118
 -1      2161    8    0    1
 -2      1076      1055      1075      4196      4195      4091
 -1      2162    8    0    1
 -2      1084      1063      1083      4212      4211      4115
 -1      2163    8    0    1
 -2      1088      1071      1048      4126      4182      4181
 -1      2164    8    0    1
 -2      1082      1061      1081      4208      4207      4109
 -1      2165    8    0    1
 -2      1070      1038      1050      4073      4186      4185
 -1      2166    8    0    1
 -2      1074      1053      1073      4192      4191      4085
 -1      2167    8    0    1
 -2      1081      1060      1080      4206      4205      4106
 -1      2168    8    0    1
 -2      1071      1070      1049      4076      4184      4183
 -1      2169    8    0    1
 -2      1074      1075      1054      4088      4194      4193
 -1      2170    8    0    1
 -2      1076      1077      1056      4094      4198      4197
 -1      2171    8    0    1
 -2      1077      1078      1057      4097      4200      4199
 -1      2172    8    0    1
 -2      1078      1079      1058      4100      4202      4201
 -1      2173    8    0    1
 -2      1079      1080      1059      4103      4204      4203
 -1      2174    8    0    1
 -2      1082      1083      1062      4112      4210      4209
 -1      2175    8    0    1
 -2      1085      1086      1065      4121      4216      4215
 -1      2176    8    0    1
 -2      1072      1051      1038      4188      4187      4079
 -1      2177    8    0    1
 -2      1091      1068      1040      4135      4221      4222
 -1      2178    8    0    1
 -2      1041      1040      1068      3985      4221      4170
 -1      2179    8    0    1
 -2      1090      1046      1039      4178      4177      4132
 -1      2180    8    0    1
 -2      1033      1087      1096      4153      4223      4156
 -1      2181    8    0    1
 -2      1087      1030      1067      4157      4063      4224
 -1      2182    8    0    1
 -2      1088      1047      1090      4180      4179      4158
 -1      2183    8    0    1
 -2      1037      1069      1100      4168      4219      4225
 -1      2184    8    0    1
 -2      1040      1089      1091      4129      4226      4222
 -1      2185    8    0    1
 -2      1035      1032      1101      4152      4227      4228
 -1      2186    8    0    1
 -2      1032      1094      1101      4148      4229      4227
 -1      2187    8    0    1
 -2      1042      1092      1098      4171      4166      4172
 -1      2188    8    0    1
 -2      1091      1089      1095      4226      4230      4151
 -1      2189    8    0    1
 -2      1044      1043      1102      3994      4231      4232
 -1      2190    8    0    1
 -2      1066      1086      1096      4217      4155      4233
 -1      2191    8    0    1
 -2      1102      1043      1098      4231      4173      4234
 -1      2192    8    0    1
 -2      1067      1066      1096      4064      4233      4235
 -1      2193    8    0    1
 -2      1087      1067      1096      4224      4235      4223
 -1      2194    8    0    1
 -2      1097      1093      1100      4162      4236      4237
 -1      2195    8    0    1
 -2      1039      1045      1099      4176      4175      4238
 -1      2196    8    0    1
 -2      1099      1044      1102      4174      4232      4239
 -1      2197    8    0    1
 -2      1093      1037      1100      4167      4225      4236
 -1      2198    8    0    1
 -2      1100      1095      1097      4220      4240      4237
 -1      2199    8    0    1
 -2      1095      1089      1097      4230      4161      4240
 -1      2200    8    0    1
 -2      1099      1102      1101      4239      4241      4242
 -1      2201    8    0    1
 -2      1102      1098      1101      4234      4243      4241
 -1      2202    8    0    1
 -2      1098      1035      1101      4164      4228      4243
 -1      2203    8    0    1
 -2      1094      1039      1099      4146      4238      4244
 -1      2204    8    0    1
 -2      1101      1094      1099      4229      4244      4242
 -3
    1PSTEP                         1           1           1          
  100CL  101 1.000000000        4244                     0    1           1
 -4  DISP        4    1
 -5  D1          1    2    1    0
 -5  D2          1    2    2    0
 -5  D3          1    2    3    0
 -5  ALL         1    2    0    0    1ALL
 -1         1 1.46333E-02-4.83766E-04-1.17519E-13
 -1         2 1.75649E-02 6.59701E-04-1.23383E-13
 -1         3 1.44561E-02 6.18059E-04-1.30103E-13
 -1         4 1.40671E-02-3.80985E-04-1.32155E-13
 -1         5 0.00000E+00 0.00000E+00 0.00000E+00
 -1         6 0.00000E+00 0.00000E+00 0.00000E+00
 -1         7 0.00000E+00 0.00000E+00 0.00000E+00
 -1         8 0.00000E+00 0.00000E+00 0.00000E+00
 -1         9 0.00000E+00 0.00000E+00 0.00000E+00
 -1        10 0.00000E+00 0.00000E+00 0.00000E+00
 -1        11 0.00000E+00 0.00000E+00 0.00000E+00
 -1        12 0.00000E+00 0.00000E+00 0.00000E+00
 -1        13 0.00000E+00 0.00000E+00 0.00000E+00
 -1        14 0.00000E+00 0.00000E+00 0.00000E+00
 -1        15 0.00000E+00 0.00000E+00 0.00000E+00
 -1        16 0.00000E+00 0.00000E+00 0.00000E+00
 -1        17 0.00000E+00 0.00000E+00 0.00000E+00
 -1        18 0.00000E+00 0.00000E+00 0.00000E+00
 -1        19 0.00000E+00 0.00000E+00 0.00000E+00
 -1        20 0.00000E+00 0.00000E+00 0.00000E+00
 -1        21 0.00000E+00 0.00000E+00 0.00000E+00
 -1        22 0.00000E+00 0.00000E+00 0.00000E+00
 -1        23 4.11412E-04-2.60728E-04 4.68816E-17
 -1        24 7.03442E-04-4.00962E-04-7.80727E-17
 -1        25 9.73569E-04-4.98336E-04-3.70655E-16
 -1        26 1.23813E-03-5.67088E-04-8.28212E-16
 -1        27 1.50174E-03-6.16362E-04-1.44560E-15
 -1        28 1.76650E-03-6.51549E-04-2.21896E-15
 -1        29 2.03337E-03-6.76366E-04-3.14393E-15
 -1        30 2.30271E-03-6.93515E-04-4.21794E-15
 -1        31 2.57457E-03-7.05025E-04-5.43985E-15
 -1        32 2.84882E-03-7.12432E-04-6.80542E-15
 -1        33 3.12522E-03-7.16904E-04-8.31219E-15
 -1        34 3.40350E-03-7.19318E-04-9.95100E-15
 -1        35 3.68336E-03-7.20323E-04-1.17210E-14
 -1        36 3.96454E-03-7.20396E-04-1.36170E-14
 -1        37 4.24677E-03-7.19872E-04-1.56282E-14
 -1        38 4.52983E-03-7.18982E-04-1.77533E-14
 -1        39 4.81354E-03-7.17873E-04-1.99853E-14
 -1        40 5.09774E-03-7.16632E-04-2.23241E-14
 -1        41 5.38230E-03-7.15298E-04-2.47683E-14
 -1        42 5.66714E-03-7.13873E-04-2.73147E-14
 -1        43 5.95220E-03-7.12334E-04-2.99600E-14
 -1        44 6.23745E-03-7.10638E-04-3.27031E-14
 -1        45 6.52289E-03-7.08732E-04-3.55430E-14
 -1        46 6.80858E-03-7.06555E-04-3.84731E-14
 -1        47 7.09460E-03-7.04052E-04-4.14863E-14
 -1        48 7.38107E-03-7.01178E-04-4.45894E-14
 -1        49 7.66819E-03-6.97920E-04-4.77711E-14
 -1        50 7.95622E-03-6.94312E-04-5.10318E-14
 -1        51 8.24546E-03-6.90460E-04-5.43661E-14
 -1        52 8.53630E-03-6.86581E-04-5.77674E-14
 -1        53 8.82917E-03-6.83036E-04-6.12341E-14
 -1        54 9.12452E-03-6.80382E-04-6.47571E-14
 -1        55 9.42278E-03-6.79409E-04-6.83261E-14
 -1        56 9.72424E-03-6.81175E-04-7.19283E-14
 -1        57 1.00289E-02-6.86995E-04-7.55585E-14
 -1        58 1.03364E-02-6.98371E-04-7.92121E-14
 -1        59 1.06456E-02-7.16798E-04-8.28833E-14
 -1        60 1.09545E-02-7.43407E-04-8.65707E-14
 -1        61 1.12598E-02-7.78398E-04-9.02828E-14
 -1        62 1.15574E-02-8.20288E-04-9.40182E-14
 -1        63 1.18426E-02-8.65112E-04-9.77757E-14
 -1        64 1.21112E-02-9.05900E-04-1.01556E-13
 -1        65 1.23608E-02-9.32927E-04-1.05369E-13
 -1        66 1.25930E-02-9.35228E-04-1.09212E-13
 -1        67 1.28141E-02-9.03503E-04-1.13082E-13
 -1        68 1.30346E-02-8.33822E-04-1.16953E-13
 -1        69 1.32667E-02-7.30772E-04-1.20821E-13
 -1        70 1.35200E-02-6.08241E-04-1.24681E-13
 -1        71 1.37955E-02-4.85322E-04-1.28512E-13
 -1        72 4.13861E-04 2.61435E-04 5.48030E-17
 -1        73 7.03267E-04 4.03674E-04-5.79066E-17
 -1        74 9.74103E-04 5.00106E-04-3.30777E-16
 -1        75 1.23896E-03 5.68792E-04-7.62072E-16
 -1        76 1.50270E-03 6.18123E-04-1.34846E-15
 -1        77 1.76753E-03 6.53404E-04-2.08798E-15
 -1        78 2.03443E-03 6.78331E-04-2.97795E-15
 -1        79 2.30379E-03 6.95601E-04-4.01262E-15
 -1        80 2.57567E-03 7.07238E-04-5.18834E-15
 -1        81 2.84993E-03 7.14777E-04-6.50318E-15
 -1        82 3.12634E-03 7.19382E-04-7.95030E-15
 -1        83 3.40462E-03 7.21929E-04-9.53027E-15
 -1        84 3.68449E-03 7.23070E-04-1.12423E-14
 -1        85 3.96566E-03 7.23278E-04-1.30847E-14
 -1        86 4.24789E-03 7.22890E-04-1.50557E-14
 -1        87 4.53095E-03 7.22136E-04-1.71519E-14
 -1        88 4.81465E-03 7.21163E-04-1.93620E-14
 -1        89 5.09884E-03 7.20058E-04-2.16813E-14
 -1        90 5.38340E-03 7.18858E-04-2.41104E-14
 -1        91 5.66822E-03 7.17563E-04-2.66444E-14
 -1        92 5.95324E-03 7.16146E-04-2.92782E-14
 -1        93 6.23845E-03 7.14558E-04-3.20070E-14
 -1        94 6.52382E-03 7.12732E-04-3.48316E-14
 -1        95 6.80942E-03 7.10589E-04-3.77452E-14
 -1        96 7.09532E-03 7.08042E-04-4.07403E-14
 -1        97 7.38165E-03 7.05001E-04-4.38056E-14
 -1        98 7.66862E-03 7.01380E-04-4.69458E-14
 -1        99 7.95653E-03 6.97112E-04-5.01563E-14
 -1       100 8.24580E-03 6.92160E-04-5.34475E-14
 -1       101 8.53698E-03 6.86553E-04-5.68198E-14
 -1       102 8.83086E-03 6.80421E-04-6.02487E-14
 -1       103 9.12849E-03 6.74066E-04-6.37451E-14
 -1       104 9.43131E-03 6.68070E-04-6.73000E-14
 -1       105 9.74122E-03 6.63469E-04-7.09158E-14
 -1       106 1.00608E-02 6.62033E-04-7.45901E-14
 -1       107 1.03933E-02 6.66704E-04-7.83010E-14
 -1       108 1.07430E-02 6.82280E-04-8.20241E-14
 -1       109 1.11144E-02 7.16374E-04-8.57567E-14
 -1       110 1.15118E-02 7.80553E-04-8.94945E-14
 -1       111 1.19363E-02 8.91028E-04-9.32252E-14
 -1       112 1.23810E-02 1.06707E-03-9.69420E-14
 -1       113 1.28240E-02 1.32330E-03-1.00641E-13
 -1       114 1.32233E-02 1.65178E-03-1.04337E-13
 -1       115 1.35267E-02 1.99699E-03-1.08031E-13
 -1       116 1.37042E-02 2.24908E-03-1.11697E-13
 -1       117 1.37854E-02 2.28974E-03-1.15375E-13
 -1       118 1.38517E-02 2.07119E-03-1.19079E-13
 -1       119 1.39791E-02 1.64533E-03-1.22797E-13
 -1       120 1.41821E-02 1.14486E-03-1.26347E-13
 -1       121 1.49601E-02 5.20888E-04-1.30273E-13
 -1       122 1.54753E-02 3.68061E-04-1.30437E-13
 -1       123 1.61157E-02 1.89918E-04-1.30624E-13
 -1       124 1.68461E-02 1.28669E-04-1.30793E-13
 -1       125 1.74745E-02 2.84509E-04-1.30987E-13
 -1       126 1.77891E-02 6.19018E-04-1.31169E-13
 -1       127 1.76608E-02 1.02310E-03-1.31342E-13
 -1       128 1.71906E-02 1.26623E-03-1.31445E-13
 -1       129 1.65215E-02 1.31640E-03-1.31487E-13
 -1       130 1.58682E-02 1.18056E-03-1.31513E-13
 -1       131 1.52545E-02 8.88101E-04-1.31540E-13
 -1       132 1.48499E-02 5.73703E-04-1.31596E-13
 -1       133 1.46036E-02 3.03063E-04-1.31681E-13
 -1       134 1.44513E-02 8.86930E-05-1.31764E-13
 -1       135 1.43472E-02-7.54192E-05-1.31839E-13
 -1       136 1.42603E-02-1.99360E-04-1.31933E-13
 -1       137 1.41695E-02-2.96730E-04-1.32046E-13
 -1       138 1.74649E-02 9.93972E-04-1.23110E-13
 -1       139 1.71237E-02 1.29256E-03-1.22427E-13
 -1       140 1.66137E-02 1.55950E-03-1.21379E-13
 -1       141 1.59390E-02 1.80542E-03-1.19838E-13
 -1       142 1.53440E-02 1.95359E-03-1.18349E-13
 -1       143 1.46476E-02 2.05254E-03-1.16464E-13
 -1       144 1.40306E-02 2.05981E-03-1.14710E-13
 -1       145 1.33759E-02 1.97456E-03-1.12735E-13
 -1       146 1.28413E-02 1.82647E-03-1.11064E-13
 -1       147 1.23195E-02 1.60238E-03-1.09352E-13
 -1       148 1.19213E-02 1.36382E-03-1.08003E-13
 -1       149 1.16056E-02 1.10222E-03-1.06915E-13
 -1       150 1.14044E-02 8.48522E-04-1.06213E-13
 -1       151 1.13080E-02 5.99173E-04-1.05890E-13
 -1       152 1.13248E-02 3.63909E-04-1.05986E-13
 -1       153 1.14538E-02 1.43884E-04-1.06504E-13
 -1       154 1.16896E-02-5.14835E-05-1.07415E-13
 -1       155 1.20214E-02-2.17827E-04-1.08671E-13
 -1       156 1.24314E-02-3.49033E-04-1.10182E-13
 -1       157 1.29366E-02-4.48224E-04-1.11999E-13
 -1       158 1.34503E-02-4.99932E-04-1.13778E-13
 -1       159 1.40475E-02-5.13047E-04-1.15742E-13
 -1       160 1.52315E-02-4.14258E-04-1.19153E-13
 -1       161 1.58708E-02-2.91979E-04-1.20674E-13
 -1       162 1.64599E-02-1.26825E-04-1.21838E-13
 -1       163 1.70264E-02 1.10445E-04-1.22753E-13
 -1       164 1.73976E-02 3.70172E-04-1.23235E-13
 -1       165 2.40429E-04-1.25498E-04-3.08388E-17
 -1       166 2.25291E-04-9.45924E-05-5.47759E-17
 -1       167 2.19527E-04-7.27479E-05-6.81082E-17
 -1       168 2.16705E-04-5.50803E-05-7.53182E-17
 -1       169 2.15210E-04-3.99446E-05-7.88147E-17
 -1       170 2.14368E-04-2.58981E-05-8.05122E-17
 -1       171 2.13944E-04-1.26351E-05-8.10373E-17
 -1       172 2.13821E-04 2.72810E-07-8.12000E-17
 -1       173 2.13963E-04 1.31933E-05-8.05596E-17
 -1       174 2.14408E-04 2.64964E-05-7.92891E-17
 -1       175 2.15257E-04 4.03704E-05-7.68225E-17
 -1       176 2.16813E-04 5.58855E-05-7.22214E-17
 -1       177 2.19685E-04 7.37867E-05-6.42051E-17
 -1       178 2.25456E-04 9.59949E-05-5.03239E-17
 -1       179 2.39360E-04 1.27572E-04-2.54076E-17
 -1       180 2.97742E-04 1.85488E-04 4.54010E-19
 -1       181 4.68678E-04-2.63525E-04-8.42256E-17
 -1       182 7.66864E-04-3.82106E-04-3.26745E-16
 -1       183 1.05076E-03-4.64986E-04-7.25609E-16
 -1       184 1.32821E-03-5.23767E-04-1.28101E-15
 -1       185 1.60288E-03-5.65475E-04-1.98972E-15
 -1       186 1.87684E-03-5.94804E-04-2.84919E-15
 -1       187 2.15124E-03-6.15064E-04-3.85667E-15
 -1       188 2.42666E-03-6.28685E-04-5.00939E-15
 -1       189 2.70336E-03-6.37490E-04-6.30486E-15
 -1       190 2.98141E-03-6.42849E-04-7.73988E-15
 -1       191 3.26075E-03-6.45793E-04-9.31015E-15
 -1       192 3.54127E-03-6.47084E-04-1.10107E-14
 -1       193 3.82282E-03-6.47282E-04-1.28402E-14
 -1       194 4.10525E-03-6.46782E-04-1.47890E-14
 -1       195 4.38839E-03-6.45861E-04-1.68531E-14
 -1       196 4.67212E-03-6.44698E-04-1.90270E-14
 -1       197 4.95631E-03-6.43400E-04-2.13081E-14
 -1       198 5.24087E-03-6.42022E-04-2.36951E-14
 -1       199 5.52571E-03-6.40576E-04-2.61863E-14
 -1       200 5.81080E-03-6.39043E-04-2.87759E-14
 -1       201 6.09610E-03-6.37382E-04-3.14645E-14
 -1       202 6.38160E-03-6.35536E-04-3.42492E-14
 -1       203 6.66734E-03-6.33440E-04-3.71283E-14
 -1       204 6.95337E-03-6.31023E-04-4.00952E-14
 -1       205 7.23979E-03-6.28223E-04-4.31462E-14
 -1       206 7.52672E-03-6.24998E-04-4.62822E-14
 -1       207 7.81434E-03-6.21341E-04-4.94937E-14
 -1       208 8.10287E-03-6.17303E-04-5.27809E-14
 -1       209 8.39257E-03-6.13027E-04-5.61398E-14
 -1       210 8.68374E-03-6.08786E-04-5.95652E-14
 -1       211 8.97669E-03-6.05028E-04-6.30498E-14
 -1       212 9.27173E-03-6.02429E-04-6.65844E-14
 -1       213 9.56909E-03-6.01938E-04-7.01581E-14
 -1       214 9.86884E-03-6.04803E-04-7.37658E-14
 -1       215 1.01708E-02-6.12546E-04-7.74036E-14
 -1       216 1.04745E-02-6.26847E-04-8.10648E-14
 -1       217 1.07787E-02-6.49278E-04-8.47396E-14
 -1       218 1.10817E-02-6.80830E-04-8.84361E-14
 -1       219 1.13810E-02-7.21202E-04-9.21528E-14
 -1       220 1.16739E-02-7.67911E-04-9.58968E-14
 -1       221 1.19571E-02-8.15458E-04-9.96629E-14
 -1       222 1.22286E-02-8.54989E-04-1.03451E-13
 -1       223 1.24877E-02-8.75075E-04-1.07268E-13
 -1       224 1.27367E-02-8.64056E-04-1.11112E-13
 -1       225 1.29805E-02-8.13818E-04-1.14967E-13
 -1       226 1.32262E-02-7.23900E-04-1.18825E-13
 -1       227 1.34807E-02-6.04114E-04-1.22680E-13
 -1       228 1.37486E-02-4.73717E-04-1.26519E-13
 -1       229 6.04643E-04 3.31018E-04-1.32733E-16
 -1       230 8.93782E-04 4.32616E-04-4.16019E-16
 -1       231 1.17272E-03 5.04349E-04-8.52454E-16
 -1       232 1.44713E-03 5.55459E-04-1.44063E-15
 -1       233 1.72002E-03 5.91735E-04-2.17850E-15
 -1       234 1.99300E-03 6.17169E-04-3.06459E-15
 -1       235 2.26692E-03 6.34644E-04-4.09487E-15
 -1       236 2.54219E-03 6.46300E-04-5.26558E-15
 -1       237 2.81893E-03 6.53750E-04-6.57300E-15
 -1       238 3.09713E-03 6.58209E-04-8.01340E-15
 -1       239 3.37668E-03 6.60587E-04-9.58495E-15
 -1       240 3.65743E-03 6.61556E-04-1.12874E-14
 -1       241 3.93919E-03 6.61603E-04-1.31199E-14
 -1       242 4.22181E-03 6.61071E-04-1.50773E-14
 -1       243 4.50513E-03 6.60196E-04-1.71595E-14
 -1       244 4.78900E-03 6.59125E-04-1.93567E-14
 -1       245 5.07330E-03 6.57942E-04-2.16641E-14
 -1       246 5.35794E-03 6.56684E-04-2.40784E-14
 -1       247 5.64285E-03 6.55348E-04-2.65954E-14
 -1       248 5.92798E-03 6.53902E-04-2.92160E-14
 -1       249 6.21330E-03 6.52294E-04-3.19317E-14
 -1       250 6.49884E-03 6.50450E-04-3.47429E-14
 -1       251 6.78462E-03 6.48284E-04-3.76395E-14
 -1       252 7.07072E-03 6.45701E-04-4.06204E-14
 -1       253 7.35728E-03 6.42598E-04-4.36795E-14
 -1       254 7.64446E-03 6.38875E-04-4.68118E-14
 -1       255 7.93252E-03 6.34440E-04-5.00160E-14
 -1       256 8.22182E-03 6.29229E-04-5.32976E-14
 -1       257 8.51282E-03 6.23228E-04-5.66549E-14
 -1       258 8.80614E-03 6.16511E-04-6.00792E-14
 -1       259 9.10262E-03 6.09303E-04-6.35632E-14
 -1       260 9.40334E-03 6.02078E-04-6.71067E-14
 -1       261 9.70970E-03 5.95722E-04-7.07081E-14
 -1       262 1.00235E-02 5.91798E-04-7.43652E-14
 -1       263 1.03469E-02 5.92976E-04-7.80626E-14
 -1       264 1.06826E-02 6.03715E-04-8.17746E-14
 -1       265 1.10332E-02 6.31260E-04-8.54964E-14
 -1       266 1.14011E-02 6.86935E-04-8.92270E-14
 -1       267 1.17870E-02 7.87220E-04-9.29544E-14
 -1       268 1.21874E-02 9.53023E-04-9.66735E-14
 -1       269 1.25920E-02 1.20317E-03-1.00382E-13
 -1       270 1.29809E-02 1.53695E-03-1.04089E-13
 -1       271 1.33273E-02 1.90548E-03-1.07789E-13
 -1       272 1.36111E-02 2.19555E-03-1.11472E-13
 -1       273 1.38400E-02 2.27189E-03-1.15158E-13
 -1       274 1.40504E-02 2.07110E-03-1.18863E-13
 -1       275 1.42777E-02 1.64553E-03-1.22580E-13
 -1       276 1.45206E-02 1.13586E-03-1.26128E-13
 -1       277 1.49473E-02 9.30018E-04-1.27109E-13
 -1       278 1.54999E-02 8.04643E-04-1.27282E-13
 -1       279 1.61833E-02 6.91519E-04-1.27453E-13
 -1       280 1.69125E-02 6.32425E-04-1.27604E-13
 -1       281 1.76926E-02 7.48545E-04-1.28596E-13
 -1       282 1.73613E-02 8.48671E-04-1.28702E-13
 -1       283 1.67021E-02 8.73319E-04-1.28785E-13
 -1       284 1.59728E-02 8.03785E-04-1.28847E-13
 -1       285 1.52471E-02 6.33226E-04-1.28906E-13
 -1       286 1.47593E-02 4.25536E-04-1.28971E-13
 -1       287 1.44651E-02 2.24331E-04-1.29048E-13
 -1       288 1.42900E-02 4.71223E-05-1.29128E-13
 -1       289 1.41785E-02-1.02401E-04-1.29211E-13
 -1       290 1.40938E-02-2.26691E-04-1.29299E-13
 -1       291 1.39222E-02-3.55236E-04-1.27912E-13
 -1       292 1.75972E-02 7.39877E-04-1.25199E-13
 -1       293 1.72548E-02 8.88130E-04-1.24486E-13
 -1       294 1.66935E-02 1.14438E-03-1.23243E-13
 -1       295 1.59473E-02 1.42663E-03-1.21972E-13
 -1       296 1.53592E-02 1.79030E-03-1.19835E-13
 -1       297 1.47515E-02 2.03289E-03-1.17950E-13
 -1       298 1.42557E-02 2.15562E-03-1.15723E-13
 -1       299 1.37685E-02 2.12651E-03-1.13510E-13
 -1       300 1.32831E-02 1.93245E-03-1.11403E-13
 -1       301 1.28164E-02 1.64340E-03-1.09318E-13
 -1       302 1.23121E-02 1.33186E-03-1.07647E-13
 -1       303 1.18797E-02 1.04582E-03-1.06226E-13
 -1       304 1.15366E-02 8.11658E-04-1.05178E-13
 -1       305 1.13233E-02 6.17686E-04-1.04270E-13
 -1       306 1.12664E-02 4.84971E-04-1.04339E-13
 -1       307 1.13725E-02 3.44867E-04-1.04798E-13
 -1       308 1.16241E-02 1.91238E-04-1.05542E-13
 -1       309 1.19866E-02 9.36860E-06-1.06748E-13
 -1       310 1.23882E-02-2.03570E-04-1.08535E-13
 -1       311 1.28480E-02-3.97229E-04-1.10403E-13
 -1       312 1.32818E-02-5.38747E-04-1.12596E-13
 -1       313 1.37274E-02-6.08571E-04-1.14799E-13
 -1       314 1.41985E-02-5.70499E-04-1.17019E-13
 -1       315 1.47030E-02-4.45793E-04-1.18999E-13
 -1       316 1.52566E-02-2.35557E-04-1.20919E-13
 -1       317 1.59038E-02 1.13356E-05-1.22434E-13
 -1       318 1.65600E-02 3.00548E-04-1.23863E-13
 -1       319 1.71768E-02 4.88803E-04-1.24506E-13
 -1       320 1.75422E-02 6.31864E-04-1.24873E-13
 -1       321 1.75792E-02 6.26113E-04-1.28462E-13
 -1       322 4.55420E-04-1.64744E-04-2.31182E-16
 -1       323 4.74302E-04-2.12936E-04-1.91711E-16
 -1       324 4.40433E-04-9.39709E-05-2.68970E-16
 -1       325 4.37452E-04-6.48761E-05-2.76577E-16
 -1       326 4.35818E-04-3.78841E-05-2.80293E-16
 -1       327 4.35102E-04-1.20104E-05-2.81486E-16
 -1       328 4.35133E-04 1.35281E-05-2.80839E-16
 -1       329 4.35916E-04 3.94597E-05-2.77745E-16
 -1       330 4.37593E-04 6.61045E-05-2.71911E-16
 -1       331 4.40663E-04 9.53726E-05-2.61787E-16
 -1       332 4.46066E-04 1.28281E-04-2.45497E-16
 -1       333 4.56009E-04 1.67268E-04-2.19273E-16
 -1       334 4.75928E-04 2.16938E-04-1.77541E-16
 -1       335 5.32048E-04 2.69928E-04-1.63494E-16
 -1       336 8.24581E-04 3.73446E-04-4.51201E-16
 -1       337 8.63365E-04-3.57350E-04-6.05300E-16
 -1       338 1.14976E-03-4.26103E-04-1.10314E-15
 -1       339 1.43259E-03-4.75280E-04-1.75182E-15
 -1       340 1.71336E-03-5.10036E-04-2.54835E-15
 -1       341 1.99319E-03-5.34174E-04-3.49157E-15
 -1       342 2.27285E-03-5.50523E-04-4.57904E-15
 -1       343 2.55280E-03-5.61206E-04-5.80678E-15
 -1       344 2.83331E-03-5.67824E-04-7.17341E-15
 -1       345 3.11447E-03-5.71579E-04-8.67507E-15
 -1       346 3.39633E-03-5.73365E-04-1.03086E-14
 -1       347 3.67885E-03-5.73839E-04-1.20707E-14
 -1       348 3.96196E-03-5.73473E-04-1.39567E-14
 -1       349 4.24558E-03-5.72594E-04-1.59593E-14
 -1       350 4.52964E-03-5.71424E-04-1.80753E-14
 -1       351 4.81407E-03-5.70099E-04-2.02992E-14
 -1       352 5.09879E-03-5.68693E-04-2.26289E-14
 -1       353 5.38376E-03-5.67233E-04-2.50640E-14
 -1       354 5.66893E-03-5.65710E-04-2.76004E-14
 -1       355 5.95428E-03-5.64088E-04-3.02350E-14
 -1       356 6.23981E-03-5.62314E-04-3.29656E-14
 -1       357 6.52553E-03-5.60318E-04-3.57921E-14
 -1       358 6.81146E-03-5.58027E-04-3.87114E-14
 -1       359 7.09767E-03-5.55365E-04-4.17162E-14
 -1       360 7.38424E-03-5.52270E-04-4.48033E-14
 -1       361 7.67128E-03-5.48703E-04-4.79674E-14
 -1       362 7.95893E-03-5.44672E-04-5.12081E-14
 -1       363 8.24736E-03-5.40255E-04-5.45239E-14
 -1       364 8.53678E-03-5.35638E-04-5.79084E-14
 -1       365 8.82743E-03-5.31159E-04-6.13527E-14
 -1       366 9.11954E-03-5.27356E-04-6.48513E-14
 -1       367 9.41337E-03-5.25026E-04-6.83978E-14
 -1       368 9.70911E-03-5.25267E-04-7.19823E-14
 -1       369 1.00069E-02-5.29494E-04-7.56002E-14
 -1       370 1.03067E-02-5.39396E-04-7.92477E-14
 -1       371 1.06082E-02-5.56770E-04-8.29113E-14
 -1       372 1.09107E-02-5.83192E-04-8.65974E-14
 -1       373 1.12130E-02-6.19439E-04-9.02980E-14
 -1       374 1.15134E-02-6.64644E-04-9.40230E-14
 -1       375 1.18094E-02-7.15287E-04-9.77719E-14
 -1       376 1.20982E-02-7.64302E-04-1.01546E-13
 -1       377 1.23775E-02-8.00922E-04-1.05343E-13
 -1       378 1.26462E-02-8.12016E-04-1.09165E-13
 -1       379 1.29061E-02-7.85405E-04-1.13000E-13
 -1       380 1.31616E-02-7.14613E-04-1.16842E-13
 -1       381 1.34191E-02-6.03255E-04-1.20684E-13
 -1       382 1.36655E-02-4.79380E-04-1.24302E-13
 -1       383 1.61346E-02 5.65432E-04-1.26601E-13
 -1       384 1.11008E-03 4.47743E-04-8.87443E-16
 -1       385 1.39092E-03 5.00845E-04-1.47250E-15
 -1       386 1.66929E-03 5.38477E-04-2.20507E-15
 -1       387 1.94676E-03 5.64796E-04-3.08370E-15
 -1       388 2.22426E-03 5.82820E-04-4.10538E-15
 -1       389 2.50232E-03 5.94793E-04-5.26751E-15
 -1       390 2.78123E-03 6.02402E-04-6.56485E-15
 -1       391 3.06108E-03 6.06918E-04-7.99432E-15
 -1       392 3.34187E-03 6.09288E-04-9.55467E-15
 -1       393 3.62353E-03 6.10212E-04-1.12443E-14
 -1       394 3.90596E-03 6.10196E-04-1.30641E-14
 -1       395 4.18907E-03 6.09597E-04-1.50082E-14
 -1       396 4.47272E-03 6.08656E-04-1.70748E-14
 -1       397 4.75684E-03 6.07527E-04-1.92575E-14
 -1       398 5.04132E-03 6.06297E-04-2.15510E-14
 -1       399 5.32610E-03 6.05004E-04-2.39501E-14
 -1       400 5.61112E-03 6.03643E-04-2.64523E-14
 -1       401 5.89635E-03 6.02185E-04-2.90576E-14
 -1       402 6.18177E-03 6.00572E-04-3.17595E-14
 -1       403 6.46738E-03 5.98730E-04-3.45550E-14
 -1       404 6.75324E-03 5.96570E-04-3.74372E-14
 -1       405 7.03938E-03 5.93991E-04-4.04041E-14
 -1       406 7.32594E-03 5.90883E-04-4.34533E-14
 -1       407 7.61303E-03 5.87136E-04-4.65757E-14
 -1       408 7.90088E-03 5.82648E-04-4.97714E-14
 -1       409 8.18974E-03 5.77336E-04-5.30420E-14
 -1       410 8.47998E-03 5.71160E-04-5.63890E-14
 -1       411 8.77205E-03 5.64162E-04-5.98038E-14
 -1       412 9.06654E-03 5.56515E-04-6.32787E-14
 -1       413 9.36421E-03 5.48624E-04-6.68095E-14
 -1       414 9.66598E-03 5.41270E-04-7.03987E-14
 -1       415 9.97299E-03 5.35857E-04-7.40414E-14
 -1       416 1.02866E-02 5.34812E-04-7.77274E-14
 -1       417 1.06084E-02 5.42210E-04-8.14329E-14
 -1       418 1.09403E-02 5.64710E-04-8.51470E-14
 -1       419 1.12841E-02 6.12801E-04-8.88692E-14
 -1       420 1.16419E-02 7.02033E-04-9.25947E-14
 -1       421 1.20156E-02 8.53025E-04-9.63181E-14
 -1       422 1.24048E-02 1.08751E-03-1.00033E-13
 -1       423 1.28037E-02 1.41324E-03-1.03747E-13
 -1       424 1.31947E-02 1.79622E-03-1.07455E-13
 -1       425 1.35540E-02 2.12801E-03-1.11145E-13
 -1       426 1.38736E-02 2.25102E-03-1.14837E-13
 -1       427 1.41745E-02 2.07489E-03-1.18544E-13
 -1       428 1.44782E-02 1.65397E-03-1.22261E-13
 -1       429 1.47104E-02 1.30381E-03-1.24682E-13
 -1       430 1.62763E-02 1.00272E-03-1.24747E-13
 -1       431 1.55024E-02 1.16099E-03-1.24587E-13
 -1       432 1.50594E-02 1.24310E-03-1.24632E-13
 -1       433 1.53265E-02 3.72765E-04-1.26249E-13
 -1       434 1.47188E-02 1.96658E-04-1.26112E-13
 -1       435 1.43565E-02 6.27067E-05-1.26191E-13
 -1       436 1.41416E-02-6.00834E-05-1.26272E-13
 -1       437 1.40103E-02-1.74371E-04-1.26355E-13
 -1       438 1.39202E-02-2.80400E-04-1.26438E-13
 -1       439 4.45602E-04-1.26436E-04-2.55062E-16
 -1       440 1.49279E-02 1.84427E-03-1.19780E-13
 -1       441 1.43352E-02 2.14400E-03-1.16965E-13
 -1       442 1.39930E-02 2.20787E-03-1.14761E-13
 -1       443 1.35469E-02 2.05909E-03-1.11861E-13
 -1       444 1.31841E-02 1.81072E-03-1.09789E-13
 -1       445 1.26396E-02 1.39454E-03-1.07262E-13
 -1       446 1.21719E-02 1.08265E-03-1.05715E-13
 -1       447 1.17459E-02 8.00793E-04-1.04017E-13
 -1       448 1.14562E-02 6.40970E-04-1.03111E-13
 -1       449 1.12516E-02 5.02596E-04-1.02388E-13
 -1       450 1.12836E-02 4.23529E-04-1.02489E-13
 -1       451 1.14512E-02 3.38400E-04-1.03230E-13
 -1       452 1.18173E-02 1.67334E-04-1.04690E-13
 -1       453 1.22716E-02-6.10588E-05-1.06470E-13
 -1       454 1.26451E-02-2.64658E-04-1.08340E-13
 -1       455 1.31233E-02-5.04281E-04-1.11064E-13
 -1       456 1.34468E-02-6.11107E-04-1.13256E-13
 -1       457 1.38872E-02-6.21890E-04-1.16208E-13
 -1       458 1.43206E-02-5.01325E-04-1.18634E-13
 -1       459 1.47701E-02-2.87488E-04-1.20808E-13
 -1       460 1.53911E-02 3.76170E-05-1.23025E-13
 -1       461 1.60039E-02 3.06098E-04-1.24459E-13
 -1       462 1.68470E-02 6.09619E-04-1.26095E-13
 -1       463 1.54378E-02 1.50370E-03-1.21919E-13
 -1       464 1.73135E-02 7.49569E-04-1.26050E-13
 -1       465 1.73089E-02 7.39461E-04-1.27254E-13
 -1       466 1.68541E-02 8.26688E-04-1.25663E-13
 -1       467 1.13103E-02 5.24414E-04-1.01225E-13
 -1       468 1.47158E-02-5.05676E-05-1.23364E-13
 -1       469 6.65779E-04-7.51040E-05-5.92161E-16
 -1       470 6.69762E-04-1.15848E-04-5.81417E-16
 -1       471 6.63094E-04 1.10381E-06-5.97565E-16
 -1       472 6.63818E-04 3.87497E-05-5.93770E-16
 -1       473 6.65969E-04 7.67881E-05-5.85066E-16
 -1       474 6.70079E-04 1.17685E-04-5.70226E-16
 -1       475 6.77104E-04 1.62295E-04-5.46987E-16
 -1       476 6.89024E-04 2.12668E-04-5.11076E-16
 -1       477 7.09820E-04 2.71677E-04-4.57571E-16
 -1       478 7.63572E-04 3.20480E-04-4.60329E-16
 -1       479 1.38228E-02-3.16465E-04-1.23008E-13
 -1       480 1.21726E-03 4.06502E-04-1.27657E-15
 -1       481 9.76363E-04-3.28588E-04-9.15873E-16
 -1       482 1.26231E-03-3.83444E-04-1.50638E-15
 -1       483 1.54735E-03-4.23207E-04-2.24296E-15
 -1       484 1.83151E-03-4.51291E-04-3.12410E-15
 -1       485 2.11508E-03-4.70606E-04-4.14803E-15
 -1       486 2.39838E-03-4.83448E-04-5.31107E-15
 -1       487 2.68166E-03-4.91594E-04-6.61117E-15
 -1       488 2.96508E-03-4.96400E-04-8.04576E-15
 -1       489 3.24874E-03-4.98885E-04-9.61264E-15
 -1       490 3.53266E-03-4.99804E-04-1.13095E-14
 -1       491 3.81685E-03-4.99706E-04-1.31308E-14
 -1       492 4.10131E-03-4.98977E-04-1.50715E-14
 -1       493 4.38600E-03-4.97883E-04-1.71283E-14
 -1       494 4.67090E-03-4.96593E-04-1.92953E-14
 -1       495 4.95597E-03-4.95205E-04-2.15697E-14
 -1       496 5.24120E-03-4.93767E-04-2.39502E-14
 -1       497 5.52655E-03-4.92282E-04-2.64317E-14
 -1       498 5.81202E-03-4.90725E-04-2.90139E-14
 -1       499 6.09759E-03-4.89050E-04-3.16944E-14
 -1       500 6.38328E-03-4.87191E-04-3.44671E-14
 -1       501 6.66910E-03-4.85073E-04-3.73360E-14
 -1       502 6.95507E-03-4.82619E-04-4.02936E-14
 -1       503 7.24124E-03-4.79752E-04-4.33331E-14
 -1       504 7.52766E-03-4.76412E-04-4.64524E-14
 -1       505 7.81441E-03-4.72571E-04-4.96483E-14
 -1       506 8.10160E-03-4.68250E-04-5.29181E-14
 -1       507 8.38935E-03-4.63554E-04-5.62625E-14
 -1       508 8.67783E-03-4.58704E-04-5.96695E-14
 -1       509 8.96725E-03-4.54091E-04-6.31312E-14
 -1       510 9.25786E-03-4.50321E-04-6.66459E-14
 -1       511 9.54996E-03-4.48277E-04-7.02051E-14
 -1       512 9.84392E-03-4.49157E-04-7.37999E-14
 -1       513 1.01401E-02-4.54494E-04-7.74317E-14
 -1       514 1.04389E-02-4.66099E-04-8.10856E-14
 -1       515 1.07406E-02-4.85893E-04-8.47599E-14
 -1       516 1.10451E-02-5.15540E-04-8.84513E-14
 -1       517 1.13517E-02-5.55801E-04-9.21594E-14
 -1       518 1.16588E-02-6.05544E-04-9.58882E-14
 -1       519 1.19635E-02-6.60462E-04-9.96470E-14
 -1       520 1.22617E-02-7.11890E-04-1.03426E-13
 -1       521 1.25496E-02-7.46554E-04-1.07227E-13
 -1       522 1.28251E-02-7.48563E-04-1.11047E-13
 -1       523 1.30902E-02-7.04317E-04-1.14873E-13
 -1       524 1.33505E-02-6.08864E-04-1.18701E-13
 -1       525 1.50140E-03 4.50146E-04-1.95359E-15
 -1       526 9.90938E-04 3.71032E-04-8.17678E-16
 -1       527 1.78418E-03 4.81054E-04-2.77446E-15
 -1       528 2.06621E-03 5.02447E-04-3.73754E-15
 -1       529 2.34800E-03 5.16829E-04-4.83971E-15
 -1       530 2.62989E-03 5.26120E-04-6.07860E-15
 -1       531 2.91208E-03 5.31775E-04-7.44950E-15
 -1       532 3.19468E-03 5.34890E-04-8.94987E-15
 -1       533 3.47772E-03 5.36276E-04-1.05804E-14
 -1       534 3.76120E-03 5.36528E-04-1.23383E-14
 -1       535 4.04508E-03 5.36066E-04-1.42226E-14
 -1       536 4.32931E-03 5.35182E-04-1.62284E-14
 -1       537 4.61385E-03 5.34066E-04-1.83521E-14
 -1       538 4.89864E-03 5.32831E-04-2.05890E-14
 -1       539 5.18365E-03 5.31534E-04-2.29341E-14
 -1       540 5.46883E-03 5.30188E-04-2.53816E-14
 -1       541 5.75418E-03 5.28770E-04-2.79312E-14
 -1       542 6.03967E-03 5.27233E-04-3.05810E-14
 -1       543 6.32531E-03 5.25509E-04-3.33239E-14
 -1       544 6.61111E-03 5.23513E-04-3.61568E-14
 -1       545 6.89711E-03 5.21145E-04-3.90769E-14
 -1       546 7.18336E-03 5.18296E-04-4.20814E-14
 -1       547 7.46995E-03 5.14851E-04-4.51652E-14
 -1       548 7.75697E-03 5.10698E-04-4.83229E-14
 -1       549 8.04456E-03 5.05739E-04-5.15543E-14
 -1       550 8.33289E-03 4.99903E-04-5.48620E-14
 -1       551 8.62216E-03 4.93183E-04-5.82412E-14
 -1       552 8.91261E-03 4.85671E-04-6.16823E-14
 -1       553 9.20450E-03 4.77636E-04-6.51808E-14
 -1       554 9.49814E-03 4.69629E-04-6.87355E-14
 -1       555 9.79381E-03 4.62663E-04-7.23422E-14
 -1       556 1.00919E-02 4.58485E-04-7.59997E-14
 -1       557 1.03926E-02 4.59995E-04-7.96890E-14
 -1       558 1.06968E-02 4.71862E-04-8.33898E-14
 -1       559 1.10055E-02 5.01391E-04-8.71014E-14
 -1       560 1.13217E-02 5.59643E-04-9.08234E-14
 -1       561 1.16512E-02 6.62606E-04-9.45495E-14
 -1       562 1.20046E-02 8.31698E-04-9.82744E-14
 -1       563 1.23946E-02 1.09292E-03-1.01994E-13
 -1       564 1.28291E-02 1.45795E-03-1.05713E-13
 -1       565 1.33148E-02 1.90179E-03-1.09398E-13
 -1       566 1.37452E-02 2.19350E-03-1.13087E-13
 -1       567 1.41588E-02 2.17363E-03-1.16801E-13
 -1       568 1.46045E-02 1.82266E-03-1.20531E-13
 -1       569 1.52683E-02 1.15324E-04-1.23916E-13
 -1       570 1.39764E-02-2.54948E-04-1.22928E-13
 -1       571 7.12674E-04-2.51772E-04-5.16721E-16
 -1       572 1.42229E-02-1.95225E-04-1.22852E-13
 -1       573 1.37209E-02-3.85980E-04-1.23085E-13
 -1       574 1.16039E-02 2.62859E-04-1.02115E-13
 -1       575 1.20053E-02 8.77065E-04-1.03262E-13
 -1       576 6.63706E-04-3.65066E-05-5.97063E-16
 -1       577 1.45253E-02 1.96507E-03-1.19203E-13
 -1       578 1.23971E-02 1.13875E-03-1.04811E-13
 -1       579 1.12006E-02 4.27898E-04-9.98972E-14
 -1       580 1.29011E-02 1.53752E-03-1.07110E-13
 -1       581 1.15871E-02 6.43299E-04-1.01609E-13
 -1       582 1.20113E-02 7.55281E-05-1.03981E-13
 -1       583 1.13290E-02 3.69818E-04-1.00851E-13
 -1       584 1.40185E-02-5.52515E-04-1.17969E-13
 -1       585 1.24512E-02-1.65301E-04-1.06170E-13
 -1       586 1.28543E-02-3.93111E-04-1.08778E-13
 -1       587 1.32461E-02-5.78380E-04-1.11797E-13
 -1       588 1.35960E-02-6.37677E-04-1.14928E-13
 -1       589 1.43556E-02-3.47425E-04-1.20658E-13
 -1       590 1.50179E-02 1.55539E-03-1.22174E-13
 -1       591 6.76613E-04-1.60000E-04-5.62569E-16
 -1       592 1.35664E-02-4.99184E-04-1.21885E-13
 -1       593 1.21584E-02-5.14892E-05-1.03528E-13
 -1       594 8.99694E-04 7.40907E-05-1.01284E-15
 -1       595 8.97595E-04 2.51724E-05-1.02272E-15
 -1       596 9.11802E-04 1.78176E-04-9.65983E-16
 -1       597 9.24151E-04 2.36605E-04-9.23391E-16
 -1       598 2.19078E-03 4.37484E-04-4.40930E-15
 -1       599 1.62042E-03 3.96178E-04-2.45958E-15
 -1       600 1.33474E-03 3.61540E-04-1.69458E-15
 -1       601 1.21646E-02 9.38574E-04-1.02060E-13
 -1       602 1.38334E-03-3.37001E-04-1.93610E-15
 -1       603 1.66954E-03-3.67937E-04-2.75615E-15
 -1       604 1.95575E-03-3.89749E-04-3.71798E-15
 -1       605 2.24180E-03-4.04598E-04-4.81855E-15
 -1       606 2.52766E-03-4.14281E-04-6.05451E-15
 -1       607 2.81337E-03-4.20223E-04-7.42437E-15
 -1       608 3.09899E-03-4.23524E-04-8.92529E-15
 -1       609 3.38456E-03-4.25015E-04-1.05554E-14
 -1       610 3.67011E-03-4.25307E-04-1.23131E-14
 -1       611 3.95566E-03-4.24839E-04-1.41927E-14
 -1       612 4.24122E-03-4.23916E-04-1.61883E-14
 -1       613 4.52679E-03-4.22742E-04-1.82974E-14
 -1       614 4.81239E-03-4.21441E-04-2.05170E-14
 -1       615 5.09801E-03-4.20079E-04-2.28418E-14
 -1       616 5.38365E-03-4.18679E-04-2.52710E-14
 -1       617 5.66932E-03-4.17228E-04-2.78000E-14
 -1       618 5.95500E-03-4.15690E-04-3.04289E-14
 -1       619 6.24071E-03-4.14010E-04-3.31517E-14
 -1       620 6.52645E-03-4.12118E-04-3.59679E-14
 -1       621 6.81222E-03-4.09937E-04-3.88769E-14
 -1       622 7.09803E-03-4.07388E-04-4.18704E-14
 -1       623 7.38389E-03-4.04399E-04-4.49432E-14
 -1       624 7.66985E-03-4.00912E-04-4.80953E-14
 -1       625 7.95592E-03-3.96906E-04-5.13247E-14
 -1       626 8.24218E-03-3.92411E-04-5.46262E-14
 -1       627 8.52872E-03-3.87543E-04-5.79930E-14
 -1       628 8.81570E-03-3.82538E-04-6.14222E-14
 -1       629 9.10334E-03-3.77801E-04-6.49028E-14
 -1       630 9.39197E-03-3.73955E-04-6.84338E-14
 -1       631 9.68207E-03-3.71905E-04-7.20060E-14
 -1       632 9.97431E-03-3.72883E-04-7.56180E-14
 -1       633 1.02695E-02-3.78489E-04-7.92601E-14
 -1       634 1.05687E-02-3.90669E-04-8.29235E-14
 -1       635 1.08729E-02-4.11600E-04-8.66042E-14
 -1       636 1.11827E-02-4.43359E-04-9.03004E-14
 -1       637 1.14977E-02-4.87232E-04-9.40150E-14
 -1       638 1.18161E-02-5.42439E-04-9.77547E-14
 -1       639 1.21335E-02-6.04233E-04-1.01518E-13
 -1       640 1.24435E-02-6.61744E-04-1.05302E-13
 -1       641 1.27398E-02-6.97272E-04-1.09106E-13
 -1       642 1.30196E-02-6.89569E-04-1.12915E-13
 -1       643 1.32867E-02-6.22192E-04-1.16725E-13
 -1       644 1.90577E-03 4.20683E-04-3.36530E-15
 -1       645 2.47556E-03 4.48578E-04-5.58959E-15
 -1       646 2.76025E-03 4.55536E-04-6.90241E-15
 -1       647 3.04494E-03 4.59566E-04-8.34477E-15
 -1       648 3.32970E-03 4.61576E-04-9.91599E-15
 -1       649 3.61455E-03 4.62238E-04-1.16154E-14
 -1       650 3.89953E-03 4.62036E-04-1.34395E-14
 -1       651 4.18461E-03 4.61310E-04-1.53869E-14
 -1       652 4.46982E-03 4.60289E-04-1.74521E-14
 -1       653 4.75512E-03 4.59115E-04-1.96303E-14
 -1       654 5.04051E-03 4.57866E-04-2.19207E-14
 -1       655 5.32598E-03 4.56574E-04-2.43176E-14
 -1       656 5.61152E-03 4.55232E-04-2.68139E-14
 -1       657 5.89713E-03 4.53803E-04-2.94105E-14
 -1       658 6.18281E-03 4.52230E-04-3.21033E-14
 -1       659 6.46857E-03 4.50438E-04-3.48864E-14
 -1       660 6.75441E-03 4.48335E-04-3.77576E-14
 -1       661 7.04035E-03 4.45821E-04-4.07154E-14
 -1       662 7.32642E-03 4.42788E-04-4.37576E-14
 -1       663 7.61264E-03 4.39129E-04-4.68775E-14
 -1       664 7.89903E-03 4.34746E-04-5.00711E-14
 -1       665 8.18562E-03 4.29566E-04-5.33390E-14
 -1       666 8.47241E-03 4.23564E-04-5.66824E-14
 -1       667 8.75939E-03 4.16803E-04-6.00914E-14
 -1       668 9.04647E-03 4.09481E-04-6.35567E-14
 -1       669 9.33351E-03 4.02021E-04-6.70808E-14
 -1       670 9.62024E-03 3.95188E-04-7.06552E-14
 -1       671 9.90624E-03 3.90265E-04-7.42811E-14
 -1       672 1.01910E-02 3.89298E-04-7.79501E-14
 -1       673 1.04739E-02 3.95424E-04-8.16378E-14
 -1       674 1.07548E-02 4.13290E-04-8.53365E-14
 -1       675 1.10348E-02 4.49575E-04-8.90497E-14
 -1       676 1.13183E-02 5.14156E-04-9.27741E-14
 -1       677 1.16148E-02 6.21045E-04-9.65027E-14
 -1       678 1.33377E-02-6.24870E-04-1.13075E-13
 -1       679 1.36495E-02-4.72551E-04-1.19661E-13
 -1       680 1.38174E-02-4.58371E-04-1.19586E-13
 -1       681 1.35900E-02-4.68768E-04-1.20772E-13
 -1       682 1.17650E-02 7.01512E-04-1.00418E-13
 -1       683 1.12009E-02 4.44699E-04-9.85840E-14
 -1       684 1.37563E-02-5.73405E-04-1.17347E-13
 -1       685 1.13909E-02 2.87233E-04-9.91790E-14
 -1       686 1.13794E-02 5.19651E-04-9.89667E-14
 -1       687 1.09775E-03-2.94592E-04-1.25847E-15
 -1       688 1.11893E-02 3.62972E-04-9.81492E-14
 -1       689 9.04161E-04 1.24582E-04-9.94579E-16
 -1       690 1.25952E-02-3.05831E-04-1.06346E-13
 -1       691 1.29565E-02-5.09908E-04-1.09346E-13
 -1       692 9.03801E-04-1.22175E-04-1.00956E-15
 -1       693 1.17480E-02 1.54936E-04-1.01317E-13
 -1       694 8.97535E-04-2.31552E-05-1.02559E-15
 -1       695 9.48999E-04 3.10308E-04-8.56384E-16
 -1       696 1.11089E-02 3.82546E-04-9.68404E-14
 -1       697 1.34998E-02-6.17320E-04-1.15484E-13
 -1       698 9.11246E-04-1.75579E-04-9.87485E-16
 -1       699 8.99493E-04-7.18085E-05-1.02151E-15
 -1       700 9.38255E-04-2.47097E-04-9.66251E-16
 -1       701 1.18553E-02 2.43582E-05-1.00613E-13
 -1       702 1.16158E-03 2.43646E-04-1.45206E-15
 -1       703 2.60668E-03 3.78414E-04-6.35632E-15
 -1       704 1.51019E-03-2.86486E-04-2.39261E-15
 -1       705 1.74568E-03 3.39051E-04-2.99102E-15
 -1       706 1.79727E-03-3.09468E-04-3.29220E-15
 -1       707 2.08492E-03-3.25583E-04-4.33020E-15
 -1       708 2.37269E-03-3.36413E-04-5.50391E-15
 -1       709 2.66037E-03-3.43313E-04-6.81042E-15
 -1       710 2.94785E-03-3.47380E-04-8.24779E-15
 -1       711 3.23509E-03-3.49463E-04-9.81308E-15
 -1       712 3.52209E-03-3.50205E-04-1.15058E-14
 -1       713 3.80887E-03-3.50076E-04-1.33218E-14
 -1       714 4.09544E-03-3.49409E-04-1.52566E-14
 -1       715 4.38185E-03-3.48432E-04-1.73074E-14
 -1       716 4.66810E-03-3.47292E-04-1.94693E-14
 -1       717 4.95423E-03-3.46073E-04-2.17380E-14
 -1       718 5.24027E-03-3.44814E-04-2.41155E-14
 -1       719 5.52621E-03-3.43518E-04-2.65940E-14
 -1       720 5.81208E-03-3.42162E-04-2.91707E-14
 -1       721 6.09788E-03-3.40703E-04-3.18443E-14
 -1       722 6.38361E-03-3.39083E-04-3.46103E-14
 -1       723 6.66925E-03-3.37232E-04-3.74675E-14
 -1       724 6.95481E-03-3.35074E-04-4.04126E-14
 -1       725 7.24025E-03-3.32534E-04-4.34427E-14
 -1       726 7.52557E-03-3.29539E-04-4.65502E-14
 -1       727 7.81075E-03-3.26036E-04-4.97366E-14
 -1       728 8.09578E-03-3.21999E-04-5.29966E-14
 -1       729 8.38070E-03-3.17454E-04-5.63257E-14
 -1       730 8.66557E-03-3.12499E-04-5.97194E-14
 -1       731 8.95055E-03-3.07344E-04-6.31686E-14
 -1       732 9.23593E-03-3.02351E-04-6.66712E-14
 -1       733 9.52217E-03-2.98089E-04-7.02196E-14
 -1       734 9.81001E-03-2.95399E-04-7.38070E-14
 -1       735 1.01005E-02-2.95477E-04-7.74317E-14
 -1       736 1.03951E-02-2.99960E-04-8.10865E-14
 -1       737 1.06955E-02-3.11012E-04-8.47595E-14
 -1       738 1.10038E-02-3.31354E-04-8.84444E-14
 -1       739 1.13214E-02-3.64087E-04-9.21486E-14
 -1       740 1.16486E-02-4.11919E-04-9.58723E-14
 -1       741 1.19826E-02-4.75387E-04-9.96207E-14
 -1       742 1.23170E-02-5.49601E-04-1.03389E-13
 -1       743 1.26418E-02-6.19622E-04-1.07173E-13
 -1       744 1.29468E-02-6.58888E-04-1.10965E-13
 -1       745 1.32310E-02-6.37139E-04-1.14763E-13
 -1       746 1.14816E-02 5.54158E-04-9.73431E-14
 -1       747 2.89341E-03 3.83365E-04-7.74151E-15
 -1       748 3.17997E-03 3.86061E-04-9.25376E-15
 -1       749 3.46636E-03 3.87221E-04-1.08939E-14
 -1       750 3.75262E-03 3.87377E-04-1.26599E-14
 -1       751 4.03876E-03 3.86905E-04-1.45492E-14
 -1       752 4.32481E-03 3.86067E-04-1.65564E-14
 -1       753 4.61078E-03 3.85030E-04-1.86791E-14
 -1       754 4.89669E-03 3.83897E-04-2.09126E-14
 -1       755 5.18256E-03 3.82716E-04-2.32558E-14
 -1       756 5.46839E-03 3.81495E-04-2.57024E-14
 -1       757 5.75420E-03 3.80216E-04-2.82472E-14
 -1       758 6.03998E-03 3.78833E-04-3.08887E-14
 -1       759 6.32574E-03 3.77285E-04-3.36232E-14
 -1       760 6.61147E-03 3.75495E-04-3.64472E-14
 -1       761 6.89717E-03 3.73376E-04-3.93582E-14
 -1       762 7.18282E-03 3.70835E-04-4.23551E-14
 -1       763 7.46838E-03 3.67780E-04-4.54366E-14
 -1       764 7.75380E-03 3.64125E-04-4.85939E-14
 -1       765 8.03901E-03 3.59810E-04-5.18234E-14
 -1       766 8.32388E-03 3.54815E-04-5.51279E-14
 -1       767 8.60823E-03 3.49198E-04-5.85025E-14
 -1       768 8.89177E-03 3.43131E-04-6.19372E-14
 -1       769 9.17408E-03 3.36973E-04-6.54280E-14
 -1       770 9.45456E-03 3.31347E-04-6.89765E-14
 -1       771 9.73238E-03 3.27259E-04-7.25722E-14
 -1       772 1.00064E-02 3.26234E-04-7.62122E-14
 -1       773 1.02753E-02 3.30464E-04-7.98865E-14
 -1       774 1.05375E-02 3.42933E-04-8.35756E-14
 -1       775 1.07917E-02 3.67490E-04-8.72794E-14
 -1       776 1.10378E-02 4.09272E-04-9.09966E-14
 -1       777 2.31977E-03 3.70252E-04-5.10070E-15
 -1       778 1.34959E-02-5.86637E-04-1.16592E-13
 -1       779 1.22712E-02-2.00556E-04-1.03393E-13
 -1       780 2.03273E-03 3.57644E-04-3.97781E-15
 -1       781 1.30820E-02-6.01970E-04-1.11021E-13
 -1       782 1.22452E-03-2.54966E-04-1.63256E-15
 -1       783 1.12010E-02 4.38672E-04-9.66595E-14
 -1       784 1.45894E-03 3.12654E-04-2.14187E-15
 -1       785 1.13816E-03 5.90428E-05-1.55057E-15
 -1       786 1.26522E-02-4.28969E-04-1.06523E-13
 -1       787 1.14979E-02 1.79550E-04-9.83830E-14
 -1       788 1.06660E-03-2.14885E-04-1.29155E-15
 -1       789 1.11699E-02 2.82547E-04-9.60407E-14
 -1       790 1.13678E-03 1.19743E-06-1.55988E-15
 -1       791 1.14976E-03 1.79084E-04-1.49899E-15
 -1       792 1.10562E-02 3.75872E-04-9.49195E-14
 -1       793 1.10405E-02 3.14561E-04-9.47376E-14
 -1       794 1.05673E-03-1.54421E-04-1.32277E-15
 -1       795 1.27968E-02-5.53759E-04-1.08185E-13
 -1       796 1.05071E-03-9.72957E-05-1.34080E-15
 -1       797 1.14229E-03 1.17787E-04-1.53091E-15
 -1       798 1.31680E-02-6.39280E-04-1.12890E-13
 -1       799 1.92944E-03-2.47758E-04-3.84995E-15
 -1       800 2.21820E-03-2.58886E-04-4.96107E-15
 -1       801 2.50724E-03-2.66232E-04-6.20467E-15
 -1       802 2.79622E-03-2.70775E-04-7.57982E-15
 -1       803 3.08494E-03-2.73312E-04-9.08202E-15
 -1       804 3.37332E-03-2.74459E-04-1.07101E-14
 -1       805 3.66133E-03-2.74681E-04-1.24615E-14
 -1       806 3.94896E-03-2.74315E-04-1.43346E-14
 -1       807 4.23625E-03-2.73596E-04-1.63255E-14
 -1       808 4.52324E-03-2.72682E-04-1.84302E-14
 -1       809 4.80997E-03-2.71669E-04-2.06427E-14
 -1       810 5.09646E-03-2.70609E-04-2.29650E-14
 -1       811 5.38276E-03-2.69518E-04-2.53929E-14
 -1       812 5.66889E-03-2.68388E-04-2.79197E-14
 -1       813 5.95485E-03-2.67190E-04-3.05424E-14
 -1       814 6.24064E-03-2.65879E-04-3.32592E-14
 -1       815 6.52626E-03-2.64398E-04-3.60682E-14
 -1       816 6.81168E-03-2.62682E-04-3.89649E-14
 -1       817 7.09686E-03-2.60660E-04-4.19463E-14
 -1       818 7.38175E-03-2.58258E-04-4.50119E-14
 -1       819 7.66630E-03-2.55404E-04-4.81572E-14
 -1       820 7.95043E-03-2.52037E-04-5.13756E-14
 -1       821 8.23412E-03-2.48117E-04-5.46655E-14
 -1       822 8.51733E-03-2.43636E-04-5.80235E-14
 -1       823 8.80013E-03-2.38641E-04-6.14410E-14
 -1       824 9.08267E-03-2.33258E-04-6.49126E-14
 -1       825 9.36529E-03-2.27737E-04-6.84372E-14
 -1       826 9.64862E-03-2.22502E-04-7.20040E-14
 -1       827 9.93364E-03-2.18238E-04-7.56087E-14
 -1       828 1.02218E-02-2.16024E-04-7.92494E-14
 -1       829 1.05153E-02-2.17522E-04-8.29124E-14
 -1       830 1.08169E-02-2.25244E-04-8.65879E-14
 -1       831 1.11297E-02-2.42878E-04-9.02830E-14
 -1       832 1.14567E-02-2.75504E-04-9.39988E-14
 -1       833 1.17992E-02-3.28594E-04-9.77322E-14
 -1       834 1.21539E-02-4.05586E-04-1.01486E-13
 -1       835 3.31715E-03 3.11508E-04-1.01768E-14
 -1       836 2.74105E-03 3.06587E-04-7.13984E-15
 -1       837 3.60474E-03 3.12054E-04-1.18832E-14
 -1       838 3.89201E-03 3.11896E-04-1.37151E-14
 -1       839 4.17901E-03 3.11311E-04-1.56652E-14
 -1       840 4.46576E-03 3.10485E-04-1.77310E-14
 -1       841 4.75229E-03 3.09536E-04-1.99097E-14
 -1       842 5.03865E-03 3.08526E-04-2.22000E-14
 -1       843 5.32485E-03 3.07482E-04-2.45950E-14
 -1       844 5.61092E-03 3.06397E-04-2.70910E-14
 -1       845 5.89687E-03 3.05243E-04-2.96823E-14
 -1       846 6.18270E-03 3.03975E-04-3.23681E-14
 -1       847 6.46841E-03 3.02532E-04-3.51442E-14
 -1       848 6.75397E-03 3.00847E-04-3.80092E-14
 -1       849 7.03933E-03 2.98845E-04-4.09620E-14
 -1       850 7.32444E-03 2.96452E-04-4.40013E-14
 -1       851 7.60920E-03 2.93604E-04-4.71194E-14
 -1       852 7.89346E-03 2.90258E-04-5.03133E-14
 -1       853 8.17703E-03 2.86411E-04-5.35781E-14
 -1       854 8.45965E-03 2.82125E-04-5.69157E-14
 -1       855 8.74091E-03 2.77569E-04-6.03206E-14
 -1       856 9.02029E-03 2.73065E-04-6.37835E-14
 -1       857 9.29707E-03 2.69158E-04-6.73009E-14
 -1       858 9.57025E-03 2.66694E-04-7.08680E-14
 -1       859 9.83852E-03 2.66905E-04-7.44844E-14
 -1       860 1.01002E-02 2.71487E-04-7.81361E-14
 -1       861 1.03531E-02 2.82607E-04-8.18125E-14
 -1       862 1.05945E-02 3.02811E-04-8.55063E-14
 -1       863 1.08213E-02 3.34757E-04-8.92125E-14
 -1       864 2.45262E-03 3.00955E-04-5.81141E-15
 -1       865 1.64152E-03-2.31722E-04-2.87492E-15
 -1       866 1.58825E-03 2.59667E-04-2.61882E-15
 -1       867 1.09271E-03-4.91640E-05-1.45220E-15
 -1       868 1.21219E-03-1.88386E-04-1.67430E-15
 -1       869 1.42603E-03-2.11672E-04-2.23591E-15
 -1       870 1.15552E-02 5.11542E-05-9.73290E-14
 -1       871 1.23093E-02-3.42546E-04-1.03195E-13
 -1       872 1.12195E-02 1.79107E-04-9.49017E-14
 -1       873 1.36777E-03 2.19797E-04-2.02253E-15
 -1       874 3.02925E-03 3.09866E-04-8.59549E-15
 -1       875 1.19142E-02-1.30869E-04-9.98684E-14
 -1       876 1.09375E-02 3.13943E-04-9.28214E-14
 -1       877 1.09748E-02 2.34480E-04-9.25395E-14
 -1       878 1.24856E-02-4.86116E-04-1.04968E-13
 -1       879 2.16411E-03 2.92047E-04-4.61356E-15
 -1       880 1.38090E-03 3.41021E-05-2.19501E-15
 -1       881 1.87582E-03 2.78724E-04-3.54816E-15
 -1       882 1.20431E-03-1.25200E-04-1.69963E-15
 -1       883 1.09762E-02 3.60994E-04-9.24154E-14
 -1       884 1.38407E-03 9.98259E-05-2.17577E-15
 -1       885 3.16756E-03 2.35279E-04-9.46348E-15
 -1       886 2.06540E-03-1.82840E-04-4.42864E-15
 -1       887 1.12425E-02 5.85691E-05-9.36927E-14
 -1       888 1.08144E-02 3.03240E-04-9.01515E-14
 -1       889 2.35506E-03-1.89776E-04-5.60933E-15
 -1       890 2.64501E-03-1.94243E-04-6.92115E-15
 -1       891 2.93487E-03-1.96895E-04-8.36105E-15
 -1       892 3.22441E-03-1.98262E-04-9.92585E-15
 -1       893 3.51351E-03-1.98751E-04-1.16144E-14
 -1       894 3.80215E-03-1.98666E-04-1.34245E-14
 -1       895 4.09031E-03-1.98225E-04-1.53540E-14
 -1       896 4.37803E-03-1.97577E-04-1.74003E-14
 -1       897 4.66537E-03-1.96819E-04-1.95571E-14
 -1       898 4.95236E-03-1.96008E-04-2.18226E-14
 -1       899 5.23905E-03-1.95168E-04-2.41983E-14
 -1       900 5.52548E-03-1.94303E-04-2.66744E-14
 -1       901 5.81166E-03-1.93398E-04-2.92480E-14
 -1       902 6.09760E-03-1.92422E-04-3.19143E-14
 -1       903 6.38328E-03-1.91335E-04-3.46747E-14
 -1       904 6.66869E-03-1.90086E-04-3.75253E-14
 -1       905 6.95377E-03-1.88617E-04-4.04605E-14
 -1       906 7.23845E-03-1.86862E-04-4.34802E-14
 -1       907 7.52264E-03-1.84750E-04-4.65834E-14
 -1       908 7.80623E-03-1.82203E-04-4.97602E-14
 -1       909 8.08912E-03-1.79143E-04-5.30115E-14
 -1       910 8.37121E-03-1.75494E-04-5.63324E-14
 -1       911 8.65242E-03-1.71186E-04-5.97179E-14
 -1       912 8.93277E-03-1.66167E-04-6.31600E-14
 -1       913 9.21240E-03-1.60422E-04-6.66555E-14
 -1       914 9.49166E-03-1.54006E-04-7.02024E-14
 -1       915 9.77127E-03-1.47103E-04-7.37915E-14
 -1       916 1.00524E-02-1.40138E-04-7.74136E-14
 -1       917 1.03369E-02-1.33975E-04-8.10641E-14
 -1       918 1.06277E-02-1.30267E-04-8.47308E-14
 -1       919 1.09284E-02-1.31986E-04-8.84159E-14
 -1       920 1.12442E-02-1.44110E-04-9.21236E-14
 -1       921 1.15803E-02-1.75273E-04-9.58501E-14
 -1       922 3.74475E-03 2.36298E-04-1.28832E-14
 -1       923 1.77663E-03-1.72684E-04-3.38148E-15
 -1       924 3.45637E-03 2.36147E-04-1.11113E-14
 -1       925 4.32025E-03 2.35431E-04-1.67884E-14
 -1       926 4.60745E-03 2.34722E-04-1.89126E-14
 -1       927 4.89435E-03 2.33941E-04-2.11493E-14
 -1       928 5.18097E-03 2.33124E-04-2.34932E-14
 -1       929 5.46736E-03 2.32277E-04-2.59389E-14
 -1       930 5.75354E-03 2.31389E-04-2.84823E-14
 -1       931 6.03952E-03 2.30429E-04-3.11198E-14
 -1       932 6.32528E-03 2.29355E-04-3.38506E-14
 -1       933 6.61081E-03 2.28120E-04-3.66680E-14
 -1       934 6.89606E-03 2.26669E-04-3.95766E-14
 -1       935 7.18093E-03 2.24951E-04-4.25728E-14
 -1       936 7.46531E-03 2.22924E-04-4.56530E-14
 -1       937 7.74905E-03 2.20565E-04-4.88085E-14
 -1       938 8.03191E-03 2.17886E-04-5.20348E-14
 -1       939 8.31359E-03 2.14960E-04-5.53354E-14
 -1       940 8.59369E-03 2.11950E-04-5.87091E-14
 -1       941 8.87166E-03 2.09154E-04-6.21412E-14
 -1       942 9.14681E-03 2.07054E-04-6.56284E-14
 -1       943 9.41819E-03 2.06384E-04-6.91686E-14
 -1       944 9.68458E-03 2.08192E-04-7.27586E-14
 -1       945 9.94442E-03 2.13889E-04-7.63889E-14
 -1       946 1.01956E-02 2.25247E-04-8.00490E-14
 -1       947 1.04356E-02 2.44335E-04-8.37297E-14
 -1       948 1.06326E-02 2.69712E-04-8.69353E-14
 -1       949 2.58887E-03 2.29774E-04-6.54097E-15
 -1       950 1.37436E-03 1.59241E-04-2.10472E-15
 -1       951 1.08357E-02 2.45194E-04-9.06308E-14
 -1       952 1.15541E-02-9.13939E-05-9.60554E-14
 -1       953 1.37928E-03-3.24050E-05-2.19691E-15
 -1       954 4.03270E-03 2.35997E-04-1.47775E-14
 -1       955 2.87836E-03 2.33320E-04-7.93978E-15
 -1       956 1.09784E-02 1.40703E-04-9.13465E-14
 -1       957 1.18689E-02-2.35803E-04-9.88025E-14
 -1       958 1.56074E-03-1.58322E-04-2.68609E-15
 -1       959 1.72160E-03 2.02446E-04-3.12315E-15
 -1       960 1.62658E-03 5.73407E-07-2.94044E-15
 -1       961 1.29076E-03-8.07084E-05-1.94469E-15
 -1       962 1.38174E-03-1.42230E-04-2.16636E-15
 -1       963 2.29929E-03 2.23996E-04-5.27023E-15
 -1       964 1.08112E-02 1.67265E-04-8.94444E-14
 -1       965 1.62828E-03 7.20882E-05-2.92434E-15
 -1       966 1.54743E-03 1.81175E-04-2.59030E-15
 -1       967 2.49508E-03-1.18460E-04-6.27359E-15
 -1       968 2.78563E-03-1.20684E-04-7.65065E-15
 -1       969 3.07600E-03-1.21927E-04-9.15233E-15
 -1       970 3.36597E-03-1.22483E-04-1.07786E-14
 -1       971 3.65544E-03-1.22576E-04-1.25262E-14
 -1       972 3.94436E-03-1.22376E-04-1.43942E-14
 -1       973 4.23275E-03-1.21997E-04-1.63802E-14
 -1       974 4.52066E-03-1.21518E-04-1.84812E-14
 -1       975 4.80813E-03-1.20988E-04-2.06918E-14
 -1       976 5.09521E-03-1.20434E-04-2.30099E-14
 -1       977 5.38195E-03-1.19864E-04-2.54349E-14
 -1       978 5.66837E-03-1.19273E-04-2.79578E-14
 -1       979 5.95450E-03-1.18646E-04-3.05743E-14
 -1       980 6.24033E-03-1.17959E-04-3.32840E-14
 -1       981 6.52583E-03-1.17178E-04-3.60881E-14
 -1       982 6.81095E-03-1.16264E-04-3.89802E-14
 -1       983 7.09561E-03-1.15167E-04-4.19554E-14
 -1       984 7.37970E-03-1.13828E-04-4.50135E-14
 -1       985 7.66310E-03-1.12174E-04-4.81500E-14
 -1       986 7.94565E-03-1.10117E-04-5.13611E-14
 -1       987 8.22717E-03-1.07549E-04-5.46464E-14
 -1       988 8.50749E-03-1.04337E-04-5.79970E-14
 -1       989 8.78647E-03-1.00318E-04-6.14116E-14
 -1       990 9.06403E-03-9.52985E-05-6.48777E-14
 -1       991 9.34023E-03-8.90600E-05-6.83993E-14
 -1       992 9.61536E-03-8.13857E-05-7.19691E-14
 -1       993 9.89006E-03-7.21228E-05-7.55788E-14
 -1       994 1.01655E-02-6.13158E-05-7.92161E-14
 -1       995 1.04438E-02-4.94793E-05-8.28741E-14
 -1       996 1.07281E-02-3.81204E-05-8.65493E-14
 -1       997 1.10237E-02-3.09776E-05-9.02462E-14
 -1       998 2.01001E-03 2.15190E-04-4.13000E-15
 -1       999 3.01829E-03 1.58854E-04-8.75466E-15
 -1      1000 1.91516E-03-1.09510E-04-3.91041E-15
 -1      1001 3.59743E-03 1.60216E-04-1.20587E-14
 -1      1002 4.74982E-03 1.58927E-04-2.01027E-14
 -1      1003 4.46240E-03 1.59439E-04-1.79203E-14
 -1      1004 5.32362E-03 1.57808E-04-2.47913E-14
 -1      1005 5.61006E-03 1.57214E-04-2.72866E-14
 -1      1006 5.89623E-03 1.56580E-04-2.98765E-14
 -1      1007 6.18213E-03 1.55884E-04-3.25607E-14
 -1      1008 6.46773E-03 1.55096E-04-3.53366E-14
 -1      1009 6.75298E-03 1.54183E-04-3.82022E-14
 -1      1010 7.03781E-03 1.53116E-04-4.11546E-14
 -1      1011 7.32209E-03 1.51873E-04-4.41909E-14
 -1      1012 7.60566E-03 1.50452E-04-4.73099E-14
 -1      1013 7.88829E-03 1.48878E-04-5.05001E-14
 -1      1014 8.16970E-03 1.47231E-04-5.37624E-14
 -1      1015 8.44951E-03 1.45662E-04-5.71010E-14
 -1      1016 8.72724E-03 1.44437E-04-6.05049E-14
 -1      1017 9.00227E-03 1.43975E-04-6.39635E-14
 -1      1018 9.27386E-03 1.44899E-04-6.74738E-14
 -1      1019 9.54103E-03 1.48091E-04-7.10356E-14
 -1      1020 9.80260E-03 1.54727E-04-7.46445E-14
 -1      1021 1.00571E-02 1.66300E-04-7.82887E-14
 -1      1022 1.03026E-02 1.84576E-04-8.19557E-14
 -1      1023 5.03688E-03 1.58378E-04-2.23955E-14
 -1      1024 1.62659E-03-7.24084E-05-2.93536E-15
 -1      1025 2.72812E-03 1.56919E-04-7.28732E-15
 -1      1026 3.30810E-03 1.59851E-04-1.03450E-14
 -1      1027 1.06477E-02 2.08902E-04-8.74115E-14
 -1      1028 2.20473E-03-1.14881E-04-5.02644E-15
 -1      1029 2.43781E-03 1.53651E-04-5.94713E-15
 -1      1030 1.07769E-02 6.76957E-05-8.79989E-14
 -1      1031 1.85850E-03 1.41062E-04-3.65473E-15
 -1      1032 4.17455E-03 1.59876E-04-1.58497E-14
 -1      1033 1.04770E-02 1.94163E-04-8.46810E-14
 -1      1034 1.58675E-03 1.27020E-04-2.75935E-15
 -1      1035 3.88624E-03 1.60171E-04-1.38940E-14
 -1      1036 1.87533E-03-3.86813E-05-3.78450E-15
 -1      1037 1.87531E-03 3.75298E-05-3.77495E-15
 -1      1038 6.03897E-03 8.20669E-05-3.12755E-14
 -1      1039 4.60529E-03 8.34919E-05-1.90606E-14
 -1      1040 2.92872E-03-4.58674E-05-8.39162E-15
 -1      1041 3.21925E-03-4.61670E-05-9.95439E-15
 -1      1042 3.50930E-03-4.62446E-05-1.16395E-14
 -1      1043 3.79880E-03-4.61749E-05-1.34455E-14
 -1      1044 4.08771E-03-4.60185E-05-1.53706E-14
 -1      1045 4.37608E-03-4.58096E-05-1.74137E-14
 -1      1046 4.66396E-03-4.55692E-05-1.95685E-14
 -1      1047 4.95138E-03-4.53176E-05-2.18326E-14
 -1      1048 5.23840E-03-4.50587E-05-2.42020E-14
 -1      1049 5.52506E-03-4.47929E-05-2.66744E-14
 -1      1050 5.81139E-03-4.45157E-05-2.92404E-14
 -1      1051 6.09740E-03-4.42176E-05-3.19012E-14
 -1      1052 6.38305E-03-4.38843E-05-3.46554E-14
 -1      1053 6.66832E-03-4.34958E-05-3.75015E-14
 -1      1054 6.95311E-03-4.30245E-05-4.04337E-14
 -1      1055 7.23734E-03-4.24325E-05-4.34510E-14
 -1      1056 7.52084E-03-4.16665E-05-4.65443E-14
 -1      1057 7.80345E-03-4.06516E-05-4.97144E-14
 -1      1058 8.08494E-03-3.92821E-05-5.29588E-14
 -1      1059 8.36507E-03-3.74092E-05-5.62770E-14
 -1      1060 8.64357E-03-3.48261E-05-5.96618E-14
 -1      1061 8.92018E-03-3.12510E-05-6.31006E-14
 -1      1062 9.19468E-03-2.63120E-05-6.65953E-14
 -1      1063 9.46694E-03-1.95399E-05-7.01399E-14
 -1      1064 9.73700E-03-1.03820E-05-7.37343E-14
 -1      1065 1.00052E-02 1.73520E-06-7.73616E-14
 -1      1066 1.02725E-02 1.72784E-05-8.10118E-14
 -1      1067 1.05243E-02 4.07834E-05-8.44972E-14
 -1      1068 3.16050E-03 8.34686E-05-9.58490E-15
 -1      1069 2.14774E-03 1.48550E-04-4.73497E-15
 -1      1070 5.75290E-03 8.23893E-05-2.86377E-14
 -1      1071 5.46652E-03 8.26865E-05-2.60938E-14
 -1      1072 6.32471E-03 8.17073E-05-3.40064E-14
 -1      1073 6.61008E-03 8.12978E-05-3.68312E-14
 -1      1074 6.89501E-03 8.08292E-05-3.97421E-14
 -1      1075 7.17938E-03 8.03000E-05-4.27368E-14
 -1      1076 7.46306E-03 7.97235E-05-4.58152E-14
 -1      1077 7.74584E-03 7.91384E-05-4.89677E-14
 -1      1078 8.02747E-03 7.86224E-05-5.21956E-14
 -1      1079 8.30762E-03 7.83132E-05-5.54973E-14
 -1      1080 8.58589E-03 7.84342E-05-5.88701E-14
 -1      1081 8.86183E-03 7.93283E-05-6.23008E-14
 -1      1082 9.13485E-03 8.14962E-05-6.57819E-14
 -1      1083 9.40432E-03 8.56367E-05-6.93172E-14
 -1      1084 9.66951E-03 9.26785E-05-7.29007E-14
 -1      1085 9.92961E-03 1.03786E-04-7.65266E-14
 -1      1086 1.01837E-02 1.20286E-04-8.01793E-14
 -1      1087 1.05640E-02 1.34021E-04-8.57057E-14
 -1      1088 5.17981E-03 8.29679E-05-2.36465E-14
 -1      1089 2.63790E-03-4.52437E-05-6.95234E-15
 -1      1090 4.89275E-03 8.32375E-05-2.13011E-14
 -1      1091 2.87001E-03 8.26729E-05-8.05177E-15
 -1      1092 3.45055E-03 8.38491E-05-1.12409E-14
 -1      1093 2.16482E-03-4.07011E-05-4.88423E-15
 -1      1094 4.31739E-03 8.37160E-05-1.69317E-14
 -1      1095 2.57928E-03 8.12765E-05-6.64318E-15
 -1      1096 1.03703E-02 1.26061E-04-8.28953E-14
 -1      1097 2.40121E-03-4.31345E-05-5.87526E-15
 -1      1098 3.74006E-03 8.39568E-05-1.30173E-14
 -1      1099 4.23194E-03 3.02269E-05-1.63547E-14
 -1      1100 2.28864E-03 7.90496E-05-5.36214E-15
 -1      1101 4.02899E-03 8.38865E-05-1.49161E-14
 -1      1102 3.94326E-03 3.02341E-05-1.43719E-14
 -1      1103 0.00000E+00 0.00000E+00 0.00000E+00
 -1      1104 0.00000E+00 0.00000E+00 0.00000E+00
 -1      1105 0.00000E+00 0.00000E+00 0.00000E+00
 -1      1106 0.00000E+00 0.00000E+00 0.00000E+00
 -1      1107 0.00000E+00 0.00000E+00 0.00000E+00
 -1      1108 0.00000E+00 0.00000E+00 0.00000E+00
 -1      1109 0.00000E+00 0.00000E+00 0.00000E+00
 -1      1110 0.00000E+00 0.00000E+00 0.00000E+00
 -1      1111 0.00000E+00 0.00000E+00 0.00000E+00
 -1      1112 0.00000E+00 0.00000E+00 0.00000E+00
 -1      1113 0.00000E+00 0.00000E+00 0.00000E+00
 -1      1114 0.00000E+00 0.00000E+00 0.00000E+00
 -1      1115 0.00000E+00 0.00000E+00 0.00000E+00
 -1      1116 0.00000E+00 0.00000E+00 0.00000E+00
 -1      1117 0.00000E+00 0.00000E+00 0.00000E+00
 -1      1118 0.00000E+00 0.00000E+00 0.00000E+00
 -1      1119 0.00000E+00 0.00000E+00 0.00000E+00
 -1      1120 2.11677E-04-1.48327E-04 2.03830E-17
 -1      1121 5.51680E-04-3.37489E-04-3.86247E-17
 -1      1122 8.33548E-04-4.58965E-04-2.43756E-16
 -1      1123 1.10318E-03-5.40641E-04-6.19906E-16
 -1      1124 1.36867E-03-5.97892E-04-1.15839E-15
 -1      1125 1.63357E-03-6.38618E-04-1.85386E-15
 -1      1126 1.89974E-03-6.67473E-04-2.70346E-15
 -1      1127 2.16802E-03-6.87583E-04-3.70265E-15
 -1      1128 2.43871E-03-7.01242E-04-4.84938E-15
 -1      1129 2.71182E-03-7.10184E-04-6.14272E-15
 -1      1130 2.98716E-03-7.15726E-04-7.57840E-15
 -1      1131 3.26450E-03-7.18866E-04-9.15113E-15
 -1      1132 3.54356E-03-7.20348E-04-1.08548E-14
 -1      1133 3.82407E-03-7.20720E-04-1.26869E-14
 -1      1134 4.10575E-03-7.20375E-04-1.46400E-14
 -1      1135 4.38838E-03-7.19585E-04-1.67069E-14
 -1      1136 4.67175E-03-7.18531E-04-1.88849E-14
 -1      1137 4.95570E-03-7.17324E-04-2.11690E-14
 -1      1138 5.24007E-03-7.16021E-04-2.35602E-14
 -1      1139 5.52476E-03-7.14639E-04-2.60560E-14
 -1      1140 5.80971E-03-7.13163E-04-2.86535E-14
 -1      1141 6.09487E-03-7.11558E-04-3.13481E-14
 -1      1142 6.38022E-03-7.09772E-04-3.41371E-14
 -1      1143 6.66579E-03-7.07745E-04-3.70218E-14
 -1      1144 6.95166E-03-7.05414E-04-3.99939E-14
 -1      1145 7.23792E-03-7.02725E-04-4.30502E-14
 -1      1146 7.52475E-03-6.99642E-04-4.61905E-14
 -1      1147 7.81235E-03-6.96167E-04-4.94101E-14
 -1      1148 8.10102E-03-6.92359E-04-5.27110E-14
 -1      1149 8.39109E-03-6.88367E-04-5.60794E-14
 -1      1150 8.68297E-03-6.84468E-04-5.95079E-14
 -1      1151 8.97710E-03-6.81107E-04-6.30005E-14
 -1      1152 9.27391E-03-6.78951E-04-6.65446E-14
 -1      1153 9.57374E-03-6.78930E-04-7.01317E-14
 -1      1154 9.87675E-03-6.82256E-04-7.37482E-14
 -1      1155 1.01827E-02-6.90398E-04-7.73888E-14
 -1      1156 1.04909E-02-7.04964E-04-8.10501E-14
 -1      1157 1.07997E-02-7.27432E-04-8.47309E-14
 -1      1158 1.11066E-02-7.58684E-04-8.84311E-14
 -1      1159 1.14078E-02-7.98308E-04-9.21533E-14
 -1      1160 1.16992E-02-8.43741E-04-9.58981E-14
 -1      1161 1.19761E-02-8.89478E-04-9.96682E-14
 -1      1162 1.22354E-02-9.26808E-04-1.03470E-13
 -1      1163 1.24766E-02-9.44634E-04-1.07298E-13
 -1      1164 1.27034E-02-9.31795E-04-1.11153E-13
 -1      1165 1.29243E-02-8.80698E-04-1.15019E-13
 -1      1166 1.31504E-02-7.91222E-04-1.18887E-13
 -1      1167 1.33930E-02-6.73173E-04-1.22750E-13
 -1      1168 1.36579E-02-5.45393E-04-1.26597E-13
 -1      1169 1.39333E-02-4.29808E-04-1.30335E-13
 -1      1170 2.28438E-04 1.60704E-04 2.87449E-17
 -1      1171 5.53856E-04 3.42129E-04-2.01933E-17
 -1      1172 8.34477E-04 4.61144E-04-2.13303E-16
 -1      1173 1.10408E-03 5.42330E-04-5.66997E-16
 -1      1174 1.36957E-03 5.99572E-04-1.07638E-15
 -1      1175 1.63452E-03 6.40390E-04-1.73921E-15
 -1      1176 1.90074E-03 6.69351E-04-2.55434E-15
 -1      1177 2.16907E-03 6.89579E-04-3.51608E-15
 -1      1178 2.43979E-03 7.03365E-04-4.62103E-15
 -1      1179 2.71291E-03 7.12439E-04-5.86533E-15
 -1      1180 2.98826E-03 7.18117E-04-7.24567E-15
 -1      1181 3.26561E-03 7.21394E-04-8.75808E-15
 -1      1182 3.54468E-03 7.23013E-04-1.04050E-14
 -1      1183 3.82519E-03 7.23523E-04-1.21826E-14
 -1      1184 4.10687E-03 7.23316E-04-1.40885E-14
 -1      1185 4.38950E-03 7.22664E-04-1.61225E-14
 -1      1186 4.67287E-03 7.21748E-04-1.82738E-14
 -1      1187 4.95681E-03 7.20679E-04-2.05376E-14
 -1      1188 5.24117E-03 7.19513E-04-2.29120E-14
 -1      1189 5.52585E-03 7.18266E-04-2.53939E-14
 -1      1190 5.81077E-03 7.16919E-04-2.79775E-14
 -1      1191 6.09588E-03 7.15434E-04-3.06561E-14
 -1      1192 6.38118E-03 7.13748E-04-3.34305E-14
 -1      1193 6.66668E-03 7.11789E-04-3.62993E-14
 -1      1194 6.95244E-03 7.09468E-04-3.92563E-14
 -1      1195 7.23858E-03 7.06695E-04-4.22860E-14
 -1      1196 7.52527E-03 7.03376E-04-4.53862E-14
 -1      1197 7.81276E-03 6.99428E-04-4.85603E-14
 -1      1198 8.10141E-03 6.94787E-04-5.18127E-14
 -1      1199 8.39171E-03 6.89432E-04-5.51448E-14
 -1      1200 8.68435E-03 6.83416E-04-5.85442E-14
 -1      1201 8.98024E-03 6.76915E-04-6.20059E-14
 -1      1202 9.28063E-03 6.70310E-04-6.55297E-14
 -1      1203 9.58719E-03 6.64315E-04-6.91144E-14
 -1      1204 9.90215E-03 6.60189E-04-7.27606E-14
 -1      1205 1.02284E-02 6.60086E-04-7.64481E-14
 -1      1206 1.05696E-02 6.67617E-04-8.01601E-14
 -1      1207 1.09300E-02 6.88729E-04-8.38923E-14
 -1      1208 1.13139E-02 7.32959E-04-8.76272E-14
 -1      1209 1.17238E-02 8.14809E-04-9.13595E-14
 -1      1210 1.21573E-02 9.54113E-04-9.50829E-14
 -1      1211 1.26011E-02 1.17213E-03-9.87921E-14
 -1      1212 1.30245E-02 1.47794E-03-1.02491E-13
 -1      1213 1.33793E-02 1.84316E-03-1.06185E-13
 -1      1214 1.36206E-02 2.17872E-03-1.09863E-13
 -1      1215 1.37454E-02 2.35184E-03-1.13533E-13
 -1      1216 1.38128E-02 2.26234E-03-1.17224E-13
 -1      1217 1.39068E-02 1.91464E-03-1.20942E-13
 -1      1218 1.40737E-02 1.41864E-03-1.24581E-13
 -1      1219 1.43168E-02 8.84351E-04-1.28228E-13
 -1      1220 1.47105E-02 5.76888E-04-1.30189E-13
 -1      1221 1.51983E-02 4.58277E-04-1.30353E-13
 -1      1222 1.57629E-02 2.86791E-04-1.30530E-13
 -1      1223 1.64804E-02 1.51500E-04-1.30708E-13
 -1      1224 1.72295E-02 1.88107E-04-1.30882E-13
 -1      1225 1.77621E-02 4.37029E-04-1.31080E-13
 -1      1226 1.78782E-02 8.24206E-04-1.31259E-13
 -1      1227 1.75280E-02 1.15717E-03-1.31406E-13
 -1      1228 1.68926E-02 1.30263E-03-1.31475E-13
 -1      1229 1.61720E-02 1.24818E-03-1.31505E-13
 -1      1230 1.54987E-02 1.02823E-03-1.31531E-13
 -1      1231 1.49886E-02 7.21628E-04-1.31566E-13
 -1      1232 1.46800E-02 4.32666E-04-1.31633E-13
 -1      1233 1.44986E-02 1.94003E-04-1.31726E-13
 -1      1234 1.43844E-02 6.85391E-06-1.31803E-13
 -1      1235 1.42989E-02-1.36560E-04-1.31880E-13
 -1      1236 1.42161E-02-2.46638E-04-1.31982E-13
 -1      1237 1.41214E-02-3.36036E-04-1.32104E-13
 -1      1238 1.76519E-02 8.09256E-04-1.23301E-13
 -1      1239 1.73857E-02 1.10353E-03-1.22823E-13
 -1      1240 1.68983E-02 1.38625E-03-1.21952E-13
 -1      1241 1.62515E-02 1.66925E-03-1.20664E-13
 -1      1242 1.55902E-02 1.90724E-03-1.19117E-13
 -1      1243 1.49523E-02 2.07049E-03-1.17416E-13
 -1      1244 1.43236E-02 2.14370E-03-1.15588E-13
 -1      1245 1.37212E-02 2.09925E-03-1.13719E-13
 -1      1246 1.31525E-02 1.95050E-03-1.11888E-13
 -1      1247 1.26266E-02 1.72257E-03-1.10183E-13
 -1      1248 1.21502E-02 1.45247E-03-1.08642E-13
 -1      1249 1.17607E-02 1.18287E-03-1.07405E-13
 -1      1250 1.14688E-02 9.28348E-04-1.06509E-13
 -1      1251 1.12971E-02 6.98242E-04-1.05992E-13
 -1      1252 1.12533E-02 4.86767E-04-1.05882E-13
 -1      1253 1.13416E-02 2.87289E-04-1.06192E-13
 -1      1254 1.15543E-02 9.32046E-05-1.06915E-13
 -1      1255 1.18714E-02-9.39269E-05-1.08004E-13
 -1      1256 1.22661E-02-2.66724E-04-1.09393E-13
 -1      1257 1.27295E-02-4.15635E-04-1.11070E-13
 -1      1258 1.32272E-02-5.21806E-04-1.12896E-13
 -1      1259 1.37542E-02-5.72221E-04-1.14778E-13
 -1      1260 1.43141E-02-5.63856E-04-1.16649E-13
 -1      1261 1.48825E-02-4.96794E-04-1.18357E-13
 -1      1262 1.54971E-02-3.70601E-04-1.19950E-13
 -1      1263 1.61354E-02-1.95094E-04-1.21296E-13
 -1      1264 1.67687E-02 2.54218E-05-1.22342E-13
 -1      1265 1.72983E-02 2.73764E-04-1.23022E-13
 -1      1266 1.76092E-02 5.27532E-04-1.23335E-13
 -1      1267 1.66713E-04-1.10334E-04-3.83537E-18
 -1      1268 1.12551E-04-5.69620E-05-3.27700E-17
 -1      1269 1.17633E-04-6.75719E-05-2.47334E-17
 -1      1270 1.08431E-04-4.34771E-05-4.58211E-17
 -1      1271 1.10294E-04-4.95925E-05-4.18231E-17
 -1      1272 2.26350E-04-1.07599E-04-9.84185E-17
 -1      1273 1.06843E-04-3.35928E-05-5.32208E-17
 -1      1274 1.07693E-04-3.83164E-05-5.11201E-17
 -1      1275 2.19122E-04-8.24290E-05-1.22027E-16
 -1      1276 1.06058E-04-2.53399E-05-5.74898E-17
 -1      1277 1.06491E-04-2.93703E-05-5.65276E-17
 -1      1278 2.15863E-04-6.32467E-05-1.36067E-16
 -1      1279 1.05656E-04-1.80801E-05-5.97260E-17
 -1      1280 1.05887E-04-2.16473E-05-5.92381E-17
 -1      1281 2.14203E-04-4.71661E-05-1.44036E-16
 -1      1282 1.05431E-04-1.12312E-05-6.10677E-17
 -1      1283 1.05556E-04-1.46148E-05-6.09457E-17
 -1      1284 2.13283E-04-3.27330E-05-1.48617E-16
 -1      1285 1.05330E-04-4.68549E-06-6.14878E-17
 -1      1286 1.05383E-04-7.93668E-06-6.14336E-17
 -1      1287 2.12780E-04-1.91771E-05-1.50948E-16
 -1      1288 1.05318E-04 1.74189E-06-6.16640E-17
 -1      1289 1.05316E-04-1.46933E-06-6.16776E-17
 -1      1290 2.12562E-04-6.15594E-06-1.51802E-16
 -1      1291 1.05392E-04 8.21913E-06-6.09999E-17
 -1      1292 1.05334E-04 4.96135E-06-6.11490E-17
 -1      1293 2.12570E-04 6.70411E-06-1.51368E-16
 -1      1294 1.05571E-04 1.49225E-05-6.00512E-17
 -1      1295 1.05443E-04 1.15243E-05-6.04036E-17
 -1      1296 2.12805E-04 1.97516E-05-1.49620E-16
 -1      1297 1.05907E-04 2.19383E-05-5.78828E-17
 -1      1298 1.05671E-04 1.83485E-05-5.85334E-17
 -1      1299 2.13321E-04 3.32472E-05-1.46218E-16
 -1      1300 1.06535E-04 2.98020E-05-5.43321E-17
 -1      1301 1.06093E-04 2.57263E-05-5.55925E-17
 -1      1302 2.14267E-04 4.77695E-05-1.40296E-16
 -1      1303 1.07737E-04 3.88995E-05-4.84638E-17
 -1      1304 1.06883E-04 3.41042E-05-5.06729E-17
 -1      1305 2.15985E-04 6.41754E-05-1.30795E-16
 -1      1306 1.10276E-04 5.03377E-05-3.88551E-17
 -1      1307 1.08439E-04 4.41545E-05-4.30835E-17
 -1      1308 2.19234E-04 8.36841E-05-1.15779E-16
 -1      1309 1.16941E-04 6.76051E-05-2.23075E-17
 -1      1310 1.12189E-04 5.77582E-05-3.03577E-17
 -1      1311 2.26327E-04 1.09422E-04-9.19674E-17
 -1      1312 1.57591E-04 1.09850E-04 4.41812E-18
 -1      1313 1.35674E-04 8.60781E-05-1.26987E-17
 -1      1314 2.56058E-04 1.52067E-04-6.29244E-17
 -1      1315 3.35114E-04 2.20717E-04-1.94072E-17
 -1      1316 4.21579E-04-2.61713E-04-5.86147E-17
 -1      1317 5.74695E-04-3.36761E-04-1.27150E-16
 -1      1318 7.21905E-04-3.97354E-04-2.40069E-16
 -1      1319 8.65097E-04-4.46643E-04-3.94121E-16
 -1      1320 6.12141E-04-3.30845E-04-2.29011E-16
 -1      1321 1.00515E-03-4.87711E-04-5.87407E-16
 -1      1322 1.14302E-03-5.21698E-04-8.21107E-16
 -1      1323 9.05418E-04-4.31529E-04-5.49352E-16
 -1      1324 1.27955E-03-5.50471E-04-1.09414E-15
 -1      1325 1.41523E-03-5.74511E-04-1.40674E-15
 -1      1326 1.18790E-03-5.00944E-04-1.02640E-15
 -1      1327 1.55051E-03-5.94881E-04-1.75744E-15
 -1      1328 1.68565E-03-6.11919E-04-2.14644E-15
 -1      1329 1.46489E-03-5.49721E-04-1.65833E-15
 -1      1330 1.82088E-03-6.26252E-04-2.57358E-15
 -1      1331 1.95631E-03-6.38173E-04-3.03830E-15
 -1      1332 1.73965E-03-5.84044E-04-2.44221E-15
 -1      1333 2.09208E-03-6.48086E-04-3.53966E-15
 -1      1334 2.22822E-03-6.56241E-04-4.07786E-15
 -1      1335 2.01405E-03-6.07901E-04-3.37538E-15
 -1      1336 2.36479E-03-6.62915E-04-4.65249E-15
 -1      1337 2.50179E-03-6.68312E-04-5.26318E-15
 -1      1338 2.28906E-03-6.24111E-04-4.45500E-15
 -1      1339 2.63925E-03-6.72631E-04-5.91060E-15
 -1      1340 2.77715E-03-6.76035E-04-6.59301E-15
 -1      1341 2.56517E-03-6.34755E-04-5.67833E-15
 -1      1342 2.91548E-03-6.78666E-04-7.31015E-15
 -1      1343 3.05423E-03-6.80655E-04-8.06196E-15
 -1      1344 2.84256E-03-6.41395E-04-7.04307E-15
 -1      1345 3.19338E-03-6.82103E-04-8.84736E-15
 -1      1346 3.33290E-03-6.83110E-04-9.66578E-15
 -1      1347 3.12125E-03-6.45207E-04-8.54518E-15
 -1      1348 3.47277E-03-6.83746E-04-1.05171E-14
 -1      1349 3.61296E-03-6.84090E-04-1.14000E-14
 -1      1350 3.40117E-03-6.47067E-04-1.01802E-14
 -1      1351 3.75344E-03-6.84190E-04-1.23151E-14
 -1      1352 3.89420E-03-6.84103E-04-1.32609E-14
 -1      1353 3.68219E-03-6.47619E-04-1.19449E-14
 -1      1354 4.03520E-03-6.83860E-04-1.42353E-14
 -1      1355 4.17642E-03-6.83504E-04-1.52391E-14
 -1      1356 3.96416E-03-6.47328E-04-1.38332E-14
 -1      1357 4.31783E-03-6.83053E-04-1.62719E-14
 -1      1358 4.45943E-03-6.82538E-04-1.73324E-14
 -1      1359 4.24692E-03-6.46519E-04-1.58380E-14
 -1      1360 4.60118E-03-6.81968E-04-1.84200E-14
 -1      1361 4.74308E-03-6.81363E-04-1.95344E-14
 -1      1362 4.53034E-03-6.45409E-04-1.79566E-14
 -1      1363 4.88509E-03-6.80727E-04-2.06755E-14
 -1      1364 5.02722E-03-6.80072E-04-2.18433E-14
 -1      1365 4.81428E-03-6.44136E-04-2.01836E-14
 -1      1366 5.16943E-03-6.79396E-04-2.30383E-14
 -1      1367 5.31174E-03-6.78705E-04-2.42591E-14
 -1      1368 5.09864E-03-6.42775E-04-2.25175E-14
 -1      1369 5.45411E-03-6.77995E-04-2.55049E-14
 -1      1370 5.59656E-03-6.77268E-04-2.67764E-14
 -1      1371 5.38334E-03-6.41354E-04-2.49557E-14
 -1      1372 5.73906E-03-6.76515E-04-2.80733E-14
 -1      1373 5.88162E-03-6.75736E-04-2.93962E-14
 -1      1374 5.66830E-03-6.39865E-04-2.74965E-14
 -1      1375 6.02423E-03-6.74920E-04-3.07414E-14
 -1      1376 6.16690E-03-6.74065E-04-3.21098E-14
 -1      1377 5.95349E-03-6.38277E-04-3.01357E-14
 -1      1378 6.30961E-03-6.73158E-04-3.35044E-14
 -1      1379 6.45239E-03-6.72197E-04-3.49205E-14
 -1      1380 6.23889E-03-6.36537E-04-3.28724E-14
 -1      1381 6.59523E-03-6.71167E-04-3.63609E-14
 -1      1382 6.73814E-03-6.70065E-04-3.78247E-14
 -1      1383 6.52452E-03-6.34579E-04-3.57041E-14
 -1      1384 6.88113E-03-6.68877E-04-3.93086E-14
 -1      1385 7.02421E-03-6.67602E-04-4.08147E-14
 -1      1386 6.81042E-03-6.32334E-04-3.86258E-14
 -1      1387 7.16740E-03-6.66226E-04-4.23426E-14
 -1      1388 7.31072E-03-6.64752E-04-4.38885E-14
 -1      1389 7.09666E-03-6.29730E-04-4.16351E-14
 -1      1390 7.45419E-03-6.63167E-04-4.54572E-14
 -1      1391 7.59784E-03-6.61479E-04-4.70457E-14
 -1      1392 7.38335E-03-6.26709E-04-4.47269E-14
 -1      1393 7.74168E-03-6.59682E-04-4.86537E-14
 -1      1394 7.88576E-03-6.57790E-04-5.02813E-14
 -1      1395 7.67066E-03-6.23239E-04-4.78995E-14
 -1      1396 8.03010E-03-6.55806E-04-5.19270E-14
 -1      1397 8.17475E-03-6.53756E-04-5.35934E-14
 -1      1398 7.95877E-03-6.19332E-04-5.11488E-14
 -1      1399 8.31975E-03-6.51655E-04-5.52755E-14
 -1      1400 8.46513E-03-6.49546E-04-5.69707E-14
 -1      1401 8.24792E-03-6.15076E-04-5.44717E-14
 -1      1402 8.61095E-03-6.47463E-04-5.86845E-14
 -1      1403 8.75724E-03-6.45470E-04-6.04135E-14
 -1      1404 8.53840E-03-6.10665E-04-5.78627E-14
 -1      1405 8.90406E-03-6.43627E-04-6.21579E-14
 -1      1406 9.05145E-03-6.42024E-04-6.39140E-14
 -1      1407 8.83049E-03-6.06447E-04-6.13162E-14
 -1      1408 9.19945E-03-6.40757E-04-6.56822E-14
 -1      1409 9.34809E-03-6.39942E-04-6.74617E-14
 -1      1410 9.12451E-03-6.02973E-04-6.48229E-14
 -1      1411 9.49740E-03-6.39723E-04-6.92519E-14
 -1      1412 9.64738E-03-6.40242E-04-7.10524E-14
 -1      1413 9.42070E-03-6.01055E-04-6.83762E-14
 -1      1414 9.79803E-03-6.41696E-04-7.28582E-14
 -1      1415 9.94932E-03-6.44244E-04-7.46698E-14
 -1      1416 9.71922E-03-6.01803E-04-7.19684E-14
 -1      1417 1.01012E-02-6.48133E-04-7.64877E-14
 -1      1418 1.02536E-02-6.53525E-04-7.83119E-14
 -1      1419 1.00200E-02-6.06643E-04-7.55892E-14
 -1      1420 1.04063E-02-6.60698E-04-8.01422E-14
 -1      1421 1.05593E-02-6.69779E-04-8.19773E-14
 -1      1422 1.03226E-02-6.17255E-04-7.92361E-14
 -1      1423 1.07122E-02-6.81035E-04-8.38173E-14
 -1      1424 1.08648E-02-6.94504E-04-8.56633E-14
 -1      1425 1.06263E-02-6.35397E-04-8.29053E-14
 -1      1426 1.10169E-02-7.10355E-04-8.75123E-14
 -1      1427 1.11679E-02-7.28463E-04-8.93651E-14
 -1      1428 1.09296E-02-6.62540E-04-8.65929E-14
 -1      1429 1.13176E-02-7.48775E-04-9.12260E-14
 -1      1430 1.14654E-02-7.70910E-04-9.30917E-14
 -1      1431 1.12305E-02-6.99258E-04-9.02993E-14
 -1      1432 1.16110E-02-7.94444E-04-9.49632E-14
 -1      1433 1.17539E-02-8.18662E-04-9.68401E-14
 -1      1434 1.15264E-02-7.44377E-04-9.40286E-14
 -1      1435 1.18936E-02-8.42649E-04-9.87239E-14
 -1      1436 1.20299E-02-8.65330E-04-1.00616E-13
 -1      1437 1.18143E-02-7.94005E-04-9.77825E-14
 -1      1438 1.21626E-02-8.85289E-04-1.02514E-13
 -1      1439 1.22916E-02-9.01196E-04-1.04420E-13
 -1      1440 1.20918E-02-8.40806E-04-1.01561E-13
 -1      1441 1.24171E-02-9.11332E-04-1.06332E-13
 -1      1442 1.25395E-02-9.14381E-04-1.08248E-13
 -1      1443 1.23573E-02-8.74100E-04-1.05366E-13
 -1      1444 1.26593E-02-9.08780E-04-1.10171E-13
 -1      1445 1.27774E-02-8.93639E-04-1.12098E-13
 -1      1446 1.26118E-02-8.81416E-04-1.09196E-13
 -1      1447 1.28946E-02-8.68179E-04-1.14028E-13
 -1      1448 1.30122E-02-8.32397E-04-1.15959E-13
 -1      1449 1.28586E-02-8.51766E-04-1.13042E-13
 -1      1450 1.31312E-02-7.86860E-04-1.17892E-13
 -1      1451 1.32527E-02-7.32729E-04-1.19821E-13
 -1      1452 1.31036E-02-7.80014E-04-1.16898E-13
 -1      1453 1.33775E-02-6.72127E-04-1.21749E-13
 -1      1454 1.35062E-02-6.07342E-04-1.23673E-13
 -1      1455 1.33537E-02-6.70724E-04-1.20750E-13
 -1      1456 1.36391E-02-5.41494E-04-1.25594E-13
 -1      1457 1.37759E-02-4.77464E-04-1.27514E-13
 -1      1458 1.36147E-02-5.39405E-04-1.24596E-13
 -1      1459 1.39861E-02-3.87126E-04-1.30282E-13
 -1      1460 1.39582E-02-3.77056E-04-1.29279E-13
 -1      1461 6.43146E-04 3.71989E-04-1.38439E-16
 -1      1462 4.93000E-04 3.03667E-04-5.84656E-17
 -1      1463 4.44928E-04 2.65864E-04-9.06393E-17
 -1      1464 9.28780E-04 4.71933E-04-4.17865E-16
 -1      1465 7.87894E-04 4.26449E-04-2.58365E-16
 -1      1466 7.44834E-04 3.90672E-04-2.95716E-16
 -1      1467 1.20373E-03 5.41336E-04-8.51871E-16
 -1      1468 1.06703E-03 5.09662E-04-6.15447E-16
 -1      1469 1.03093E-03 4.76095E-04-6.56268E-16
 -1      1470 1.47435E-03 5.90538E-04-1.43855E-15
 -1      1471 1.33926E-03 5.68074E-04-1.12627E-15
 -1      1472 1.30890E-03 5.35912E-04-1.16897E-15
 -1      1473 1.74396E-03 6.25459E-04-2.17666E-15
 -1      1474 1.60910E-03 6.09544E-04-1.78855E-15
 -1      1475 1.58319E-03 5.78213E-04-1.83164E-15
 -1      1476 2.01426E-03 6.49959E-04-3.06396E-15
 -1      1477 1.87894E-03 6.38838E-04-2.60191E-15
 -1      1478 1.85643E-03 6.07968E-04-2.64319E-15
 -1      1479 2.28605E-03 6.66798E-04-4.09511E-15
 -1      1480 2.14993E-03 6.59204E-04-3.56188E-15
 -1      1481 2.13004E-03 6.28567E-04-3.60116E-15
 -1      1482 2.55966E-03 6.78028E-04-5.26766E-15
 -1      1483 2.42262E-03 6.73013E-04-4.66391E-15
 -1      1484 2.40470E-03 6.42467E-04-4.70122E-15
 -1      1485 2.83513E-03 6.85197E-04-6.57647E-15
 -1      1486 2.69716E-03 6.82042E-04-5.90515E-15
 -1      1487 2.68074E-03 6.51503E-04-5.93922E-15
 -1      1488 3.11237E-03 6.89477E-04-8.01990E-15
 -1      1489 2.97354E-03 6.87639E-04-7.28227E-15
 -1      1490 2.95821E-03 6.57058E-04-7.31274E-15
 -1      1491 3.39121E-03 6.91747E-04-9.59505E-15
 -1      1492 3.25160E-03 6.90819E-04-8.79066E-15
 -1      1493 3.23708E-03 6.60171E-04-8.81788E-15
 -1      1494 3.67143E-03 6.92656E-04-1.13032E-14
 -1      1495 3.53116E-03 6.92339E-04-1.04328E-14
 -1      1496 3.51721E-03 6.61614E-04-1.04549E-14
 -1      1497 3.95282E-03 6.92677E-04-1.31391E-14
 -1      1498 3.81199E-03 6.92755E-04-1.22050E-14
 -1      1499 3.79844E-03 6.61952E-04-1.22224E-14
 -1      1500 4.23517E-03 6.92141E-04-1.51032E-14
 -1      1501 4.09389E-03 6.92463E-04-1.41053E-14
 -1      1502 4.08062E-03 6.61587E-04-1.41168E-14
 -1      1503 4.51829E-03 6.91274E-04-1.71897E-14
 -1      1504 4.37664E-03 6.91739E-04-1.61317E-14
 -1      1505 4.36356E-03 6.60798E-04-1.61366E-14
 -1      1506 4.80202E-03 6.90218E-04-1.93908E-14
 -1      1507 4.66009E-03 6.90764E-04-1.82766E-14
 -1      1508 4.64714E-03 6.59769E-04-1.82747E-14
 -1      1509 5.08622E-03 6.89055E-04-2.17046E-14
 -1      1510 4.94407E-03 6.89647E-04-2.05337E-14
 -1      1511 4.93121E-03 6.58609E-04-2.05262E-14
 -1      1512 5.37079E-03 6.87818E-04-2.41252E-14
 -1      1513 5.22847E-03 6.88445E-04-2.29020E-14
 -1      1514 5.21567E-03 6.57372E-04-2.28873E-14
 -1      1515 5.65563E-03 6.86502E-04-2.66515E-14
 -1      1516 5.51318E-03 6.87171E-04-2.53750E-14
 -1      1517 5.50043E-03 6.56072E-04-2.53536E-14
 -1      1518 5.94070E-03 6.85077E-04-2.92751E-14
 -1      1519 5.79814E-03 6.85806E-04-2.79512E-14
 -1      1520 5.78545E-03 6.54688E-04-2.79215E-14
 -1      1521 6.22597E-03 6.83489E-04-3.19974E-14
 -1      1522 6.08331E-03 6.84307E-04-3.06245E-14
 -1      1523 6.07068E-03 6.53176E-04-3.05884E-14
 -1      1524 6.51145E-03 6.81666E-04-3.48099E-14
 -1      1525 6.36868E-03 6.82611E-04-3.33927E-14
 -1      1526 6.35611E-03 6.51469E-04-3.33508E-14
 -1      1527 6.79717E-03 6.79525E-04-3.77173E-14
 -1      1528 6.65428E-03 6.80640E-04-3.62527E-14
 -1      1529 6.64178E-03 6.49486E-04-3.62033E-14
 -1      1530 7.08323E-03 6.76970E-04-4.07052E-14
 -1      1531 6.94015E-03 6.78303E-04-3.92011E-14
 -1      1532 6.92774E-03 6.47134E-04-3.91434E-14
 -1      1533 7.36976E-03 6.73902E-04-4.37644E-14
 -1      1534 7.22643E-03 6.75503E-04-4.22250E-14
 -1      1535 7.21410E-03 6.44310E-04-4.21624E-14
 -1      1536 7.65695E-03 6.70222E-04-4.68989E-14
 -1      1537 7.51326E-03 6.72139E-04-4.53236E-14
 -1      1538 7.50100E-03 6.40906E-04-4.52565E-14
 -1      1539 7.94510E-03 6.65844E-04-5.01082E-14
 -1      1540 7.80089E-03 6.68117E-04-4.84938E-14
 -1      1541 7.78867E-03 6.36820E-04-4.84246E-14
 -1      1542 8.23459E-03 6.60707E-04-5.33952E-14
 -1      1543 8.08965E-03 6.63361E-04-5.17416E-14
 -1      1544 8.07742E-03 6.31964E-04-5.16677E-14
 -1      1545 8.52597E-03 6.54801E-04-5.67563E-14
 -1      1546 8.38001E-03 6.57832E-04-5.50665E-14
 -1      1547 8.36765E-03 6.26282E-04-5.49867E-14
 -1      1548 8.81995E-03 6.48203E-04-6.01810E-14
 -1      1549 8.67259E-03 6.51555E-04-5.84608E-14
 -1      1550 8.65993E-03 6.19779E-04-5.83755E-14
 -1      1551 9.11750E-03 6.41139E-04-6.36708E-14
 -1      1552 8.96821E-03 6.44674E-04-6.19182E-14
 -1      1553 8.95499E-03 6.12567E-04-6.18290E-14
 -1      1554 9.41989E-03 6.34082E-04-6.72188E-14
 -1      1555 9.26800E-03 6.37520E-04-6.54380E-14
 -1      1556 9.25378E-03 6.04938E-04-6.53427E-14
 -1      1557 9.72883E-03 6.27909E-04-7.08288E-14
 -1      1558 9.57343E-03 6.30743E-04-6.90154E-14
 -1      1559 9.55755E-03 5.97485E-04-6.89151E-14
 -1      1560 1.00465E-02 6.24169E-04-7.44904E-14
 -1      1561 9.88641E-03 6.25515E-04-7.26536E-14
 -1      1562 9.86790E-03 5.91304E-04-7.25445E-14
 -1      1563 1.03755E-02 6.25521E-04-7.81816E-14
 -1      1564 1.02094E-02 6.23874E-04-7.63328E-14
 -1      1565 1.01868E-02 5.88329E-04-7.62169E-14
 -1      1566 1.07192E-02 6.36430E-04-8.19000E-14
 -1      1567 1.05453E-02 6.29283E-04-8.00397E-14
 -1      1568 1.05166E-02 5.91888E-04-7.99187E-14
 -1      1569 1.10807E-02 6.64252E-04-8.56304E-14
 -1      1570 1.08975E-02 6.47514E-04-8.37641E-14
 -1      1571 1.08598E-02 6.07582E-04-8.36374E-14
 -1      1572 1.14627E-02 7.20667E-04-8.93605E-14
 -1      1573 1.12689E-02 6.87929E-04-8.74954E-14
 -1      1574 1.12187E-02 6.44581E-04-8.73624E-14
 -1      1575 1.18649E-02 8.22987E-04-9.30866E-14
 -1      1576 1.16613E-02 7.64973E-04-9.12248E-14
 -1      1577 1.15946E-02 7.17184E-04-9.10900E-14
 -1      1578 1.22817E-02 9.93510E-04-9.68065E-14
 -1      1579 1.20722E-02 8.98822E-04-9.49483E-14
 -1      1580 1.19862E-02 8.45693E-04-9.48147E-14
 -1      1581 1.26973E-02 1.25237E-03-1.00513E-13
 -1      1582 1.24912E-02 1.11216E-03-9.86607E-14
 -1      1583 1.23872E-02 1.05376E-03-9.85300E-14
 -1      1584 1.30840E-02 1.59797E-03-1.04213E-13
 -1      1585 1.28968E-02 1.41731E-03-1.02362E-13
 -1      1586 1.27841E-02 1.35633E-03-1.02236E-13
 -1      1587 1.34063E-02 1.97716E-03-1.07903E-13
 -1      1588 1.32554E-02 1.79029E-03-1.06061E-13
 -1      1589 1.31538E-02 1.73397E-03-1.05936E-13
 -1      1590 1.36423E-02 2.27037E-03-1.11586E-13
 -1      1591 1.35349E-02 2.14344E-03-1.09747E-13
 -1      1592 1.34703E-02 2.10191E-03-1.09629E-13
 -1      1593 1.38087E-02 2.33896E-03-1.15270E-13
 -1      1594 1.37309E-02 2.33782E-03-1.13426E-13
 -1      1595 1.37245E-02 2.31653E-03-1.13315E-13
 -1      1596 1.39578E-02 2.12165E-03-1.18973E-13
 -1      1597 1.38815E-02 2.26324E-03-1.17119E-13
 -1      1598 1.39408E-02 2.25728E-03-1.17011E-13
 -1      1599 1.41391E-02 1.67623E-03-1.22697E-13
 -1      1600 1.40424E-02 1.91954E-03-1.20832E-13
 -1      1601 1.41591E-02 1.91921E-03-1.20725E-13
 -1      1602 1.43581E-02 1.15211E-03-1.26248E-13
 -1      1603 1.42428E-02 1.41965E-03-1.24469E-13
 -1      1604 1.43953E-02 1.41797E-03-1.24359E-13
 -1      1605 1.45698E-02 8.39652E-04-1.28315E-13
 -1      1606 1.51910E-02 6.61938E-04-1.28771E-13
 -1      1607 1.49460E-02 7.24348E-04-1.28687E-13
 -1      1608 1.57897E-02 5.25861E-04-1.28955E-13
 -1      1609 1.54662E-02 5.93072E-04-1.28859E-13
 -1      1610 1.51885E-02 8.80129E-04-1.27193E-13
 -1      1611 1.65363E-02 4.38237E-04-1.29120E-13
 -1      1612 1.61410E-02 4.71276E-04-1.29041E-13
 -1      1613 1.58064E-02 7.55278E-04-1.27365E-13
 -1      1614 1.72758E-02 4.59875E-04-1.29286E-13
 -1      1615 1.69128E-02 4.31758E-04-1.29199E-13
 -1      1616 1.65606E-02 6.56713E-04-1.27526E-13
 -1      1617 1.77909E-02 8.39666E-04-1.29965E-13
 -1      1618 1.78632E-02 7.17966E-04-1.29888E-13
 -1      1619 1.73445E-02 1.00534E-03-1.30076E-13
 -1      1620 1.76105E-02 9.35292E-04-1.30026E-13
 -1      1621 1.76656E-02 8.02988E-04-1.28659E-13
 -1      1622 1.66233E-02 1.05066E-03-1.30144E-13
 -1      1623 1.69979E-02 1.04574E-03-1.30117E-13
 -1      1624 1.71029E-02 8.66180E-04-1.28757E-13
 -1      1625 1.58917E-02 9.64953E-04-1.30191E-13
 -1      1626 1.62443E-02 1.02161E-03-1.30167E-13
 -1      1627 1.63327E-02 8.35296E-04-1.28828E-13
 -1      1628 1.52033E-02 7.54520E-04-1.30232E-13
 -1      1629 1.55148E-02 8.68756E-04-1.30212E-13
 -1      1630 1.55502E-02 7.10223E-04-1.28885E-13
 -1      1631 1.47616E-02 5.07894E-04-1.30285E-13
 -1      1632 1.49541E-02 6.31698E-04-1.30257E-13
 -1      1633 1.49347E-02 5.19762E-04-1.28942E-13
 -1      1634 1.45040E-02 2.77671E-04-1.30361E-13
 -1      1635 1.46150E-02 3.89145E-04-1.30319E-13
 -1      1636 1.45589E-02 3.20262E-04-1.29007E-13
 -1      1637 1.43525E-02 8.19276E-05-1.30448E-13
 -1      1638 1.44187E-02 1.75088E-04-1.30405E-13
 -1      1639 1.43429E-02 1.35563E-04-1.29086E-13
 -1      1640 1.42541E-02-7.75047E-05-1.30527E-13
 -1      1641 1.42990E-02-2.20746E-06-1.30487E-13
 -1      1642 1.42149E-02-2.56405E-05-1.29170E-13
 -1      1643 1.41748E-02-2.05537E-04-1.30610E-13
 -1      1644 1.42135E-02-1.45068E-04-1.30568E-13
 -1      1645 1.41279E-02-1.62268E-04-1.29252E-13
 -1      1646 1.40471E-02-3.19186E-04-1.29971E-13
 -1      1647 1.40890E-02-2.69027E-04-1.29920E-13
 -1      1648 1.40057E-02-2.88754E-04-1.28600E-13
 -1      1649 1.38369E-02-4.13589E-04-1.27210E-13
 -1      1650 1.76390E-02 7.95433E-04-1.24150E-13
 -1      1651 1.77093E-02 7.20742E-04-1.24287E-13
 -1      1652 1.72350E-02 9.99580E-04-1.23456E-13
 -1      1653 1.74525E-02 9.00911E-04-1.23802E-13
 -1      1654 1.66369E-02 1.28758E-03-1.22317E-13
 -1      1655 1.69317E-02 1.15518E-03-1.22841E-13
 -1      1656 1.58770E-02 1.59953E-03-1.20912E-13
 -1      1657 1.62201E-02 1.43414E-03-1.21689E-13
 -1      1658 1.52929E-02 1.91423E-03-1.19093E-13
 -1      1659 1.55600E-02 1.79579E-03-1.19841E-13
 -1      1660 1.46759E-02 2.13056E-03-1.17202E-13
 -1      1661 1.49483E-02 2.03813E-03-1.18147E-13
 -1      1662 1.41664E-02 2.20510E-03-1.15215E-13
 -1      1663 1.43955E-02 2.18923E-03-1.16087E-13
 -1      1664 1.36501E-02 2.12507E-03-1.13125E-13
 -1      1665 1.38902E-02 2.18609E-03-1.14111E-13
 -1      1666 1.31553E-02 1.90937E-03-1.11235E-13
 -1      1667 1.33726E-02 2.01789E-03-1.12070E-13
 -1      1668 1.26586E-02 1.59818E-03-1.09340E-13
 -1      1669 1.28987E-02 1.75184E-03-1.10191E-13
 -1      1670 1.21663E-02 1.29169E-03-1.07821E-13
 -1      1671 1.23772E-02 1.43190E-03-1.08497E-13
 -1      1672 1.17456E-02 1.01098E-03-1.06557E-13
 -1      1673 1.19321E-02 1.13660E-03-1.07102E-13
 -1      1674 1.14329E-02 7.86758E-04-1.05687E-13
 -1      1675 1.15616E-02 8.82317E-04-1.06037E-13
 -1      1676 1.12563E-02 6.03071E-04-1.05072E-13
 -1      1677 1.13198E-02 6.75271E-04-1.05233E-13
 -1      1678 1.12422E-02 4.61570E-04-1.05158E-13
 -1      1679 1.12285E-02 5.26144E-04-1.05109E-13
 -1      1680 1.13864E-02 3.09647E-04-1.05650E-13
 -1      1681 1.13006E-02 3.80682E-04-1.05391E-13
 -1      1682 1.16702E-02 1.43171E-04-1.06481E-13
 -1      1683 1.15246E-02 2.24949E-04-1.06024E-13
 -1      1684 1.20539E-02-4.89415E-05-1.07709E-13
 -1      1685 1.18698E-02 4.46226E-05-1.07083E-13
 -1      1686 1.24722E-02-2.62035E-04-1.09355E-13
 -1      1687 1.22710E-02-1.68116E-04-1.08598E-13
 -1      1688 1.29480E-02-4.52211E-04-1.11210E-13
 -1      1689 1.27308E-02-3.65462E-04-1.10294E-13
 -1      1690 1.33904E-02-5.80943E-04-1.13207E-13
 -1      1691 1.31875E-02-5.31028E-04-1.12315E-13
 -1      1692 1.38644E-02-6.35731E-04-1.15284E-13
 -1      1693 1.36431E-02-6.23149E-04-1.14304E-13
 -1      1694 1.43527E-02-5.89919E-04-1.17276E-13
 -1      1695 1.41297E-02-6.21311E-04-1.16391E-13
 -1      1696 1.48797E-02-4.60912E-04-1.19078E-13
 -1      1697 1.46333E-02-5.29984E-04-1.18262E-13
 -1      1698 1.54744E-02-2.50081E-04-1.20799E-13
 -1      1699 1.51840E-02-3.56057E-04-1.20036E-13
 -1      1700 1.61317E-02-1.00978E-05-1.22140E-13
 -1      1701 1.58303E-02-1.24911E-04-1.21557E-13
 -1      1702 1.68106E-02 2.69288E-04-1.23309E-13
 -1      1703 1.64873E-02 1.48698E-04-1.22848E-13
 -1      1704 1.73750E-02 4.66186E-04-1.23859E-13
 -1      1705 1.71487E-02 3.75064E-04-1.23622E-13
 -1      1706 1.76764E-02 6.33042E-04-1.24113E-13
 -1      1707 1.75737E-02 5.59632E-04-1.24042E-13
 -1      1708 1.63066E-02 1.24853E-03-1.22617E-13
 -1      1709 1.47331E-02 8.29424E-04-1.28202E-13
 -1      1710 1.47244E-02 1.04650E-03-1.26621E-13
 -1      1711 1.77964E-02 6.81034E-04-1.28536E-13
 -1      1712 1.78003E-02 5.99402E-04-1.29812E-13
 -1      1713 1.76186E-02 4.98991E-04-1.29732E-13
 -1      1714 1.73582E-02 6.01768E-04-1.28031E-13
 -1      1715 1.75515E-02 7.74350E-04-1.24840E-13
 -1      1716 1.70304E-02 9.60271E-04-1.23865E-13
 -1      1717 1.77185E-02 6.94915E-04-1.25029E-13
 -1      1718 1.56075E-02 1.61347E-03-1.20911E-13
 -1      1719 1.49927E-02 1.95760E-03-1.18894E-13
 -1      1720 1.44790E-02 2.17854E-03-1.16834E-13
 -1      1721 1.40115E-02 2.23106E-03-1.14616E-13
 -1      1722 1.35706E-02 2.09683E-03-1.12459E-13
 -1      1723 1.31027E-02 1.81448E-03-1.10363E-13
 -1      1724 1.26137E-02 1.46772E-03-1.08482E-13
 -1      1725 1.21146E-02 1.13951E-03-1.06927E-13
 -1      1726 1.16905E-02 8.72037E-04-1.05689E-13
 -1      1727 1.13816E-02 6.69630E-04-1.04714E-13
 -1      1728 1.12310E-02 5.44870E-04-1.04296E-13
 -1      1729 1.12626E-02 4.40925E-04-1.04565E-13
 -1      1730 1.14665E-02 3.14930E-04-1.05170E-13
 -1      1731 1.18094E-02 1.52596E-04-1.06145E-13
 -1      1732 1.22219E-02-6.07408E-05-1.07638E-13
 -1      1733 1.26728E-02-2.94772E-04-1.09469E-13
 -1      1734 1.31100E-02-4.99264E-04-1.11510E-13
 -1      1735 1.35358E-02-6.31041E-04-1.13711E-13
 -1      1736 1.39535E-02-6.56725E-04-1.15918E-13
 -1      1737 1.44088E-02-5.65862E-04-1.18014E-13
 -1      1738 1.49231E-02-3.74583E-04-1.19960E-13
 -1      1739 1.55255E-02-1.10217E-04-1.21679E-13
 -1      1740 1.62172E-02 1.88351E-04-1.23150E-13
 -1      1741 1.69196E-02 4.38435E-04-1.24180E-13
 -1      1742 1.74726E-02 5.92885E-04-1.24678E-13
 -1      1743 2.85269E-04-1.76209E-04-5.49691E-17
 -1      1744 3.32205E-04-1.16725E-04-1.94669E-16
 -1      1745 3.36350E-04-1.32971E-04-1.81482E-16
 -1      1746 3.42237E-04-1.51962E-04-1.65680E-16
 -1      1747 3.51796E-04-1.73968E-04-1.43819E-16
 -1      1748 4.58368E-04-1.88017E-04-2.63149E-16
 -1      1749 3.24556E-04-6.53368E-05-2.22302E-16
 -1      1750 3.25699E-04-7.66326E-05-2.18033E-16
 -1      1751 3.23051E-04-4.38558E-05-2.28225E-16
 -1      1752 3.23710E-04-5.43394E-05-2.25622E-16
 -1      1753 4.36491E-04-7.92329E-05-3.30695E-16
 -1      1754 3.22261E-04-2.37523E-05-2.30949E-16
 -1      1755 3.22595E-04-3.36584E-05-2.29892E-16
 -1      1756 4.34478E-04-5.12798E-05-3.37661E-16
 -1      1757 3.21966E-04-4.33338E-06-2.31680E-16
 -1      1758 3.22063E-04-1.39779E-05-2.31437E-16
 -1      1759 4.33452E-04-2.49050E-05-3.40765E-16
 -1      1760 3.22089E-04 1.49689E-05-2.30556E-16
 -1      1761 3.21974E-04 5.31423E-06-2.31464E-16
 -1      1762 4.33153E-04 7.56877E-07-3.41158E-16
 -1      1763 3.22658E-04 3.47034E-05-2.27357E-16
 -1      1764 3.22305E-04 2.47645E-05-2.29160E-16
 -1      1765 4.33511E-04 2.64477E-05-3.38773E-16
 -1      1766 3.23793E-04 5.51289E-05-2.21340E-16
 -1      1767 3.23127E-04 4.47720E-05-2.24891E-16
 -1      1768 4.34593E-04 5.26858E-05-3.33270E-16
 -1      1769 3.25855E-04 7.77712E-05-2.11663E-16
 -1      1770 3.24655E-04 6.61947E-05-2.17261E-16
 -1      1771 4.36657E-04 8.05517E-05-3.23878E-16
 -1      1772 3.29560E-04 1.03599E-04-1.96159E-16
 -1      1773 3.27398E-04 9.02562E-05-2.05050E-16
 -1      1774 4.40311E-04 1.11515E-04-3.08767E-16
 -1      1775 3.36652E-04 1.35086E-04-1.71589E-16
 -1      1776 3.32478E-04 1.18558E-04-1.85466E-16
 -1      1777 4.46839E-04 1.47287E-04-2.84901E-16
 -1      1778 3.52288E-04 1.77533E-04-1.32788E-16
 -1      1779 3.42810E-04 1.54691E-04-1.54824E-16
 -1      1780 4.59314E-04 1.91380E-04-2.48201E-16
 -1      1781 4.07718E-04 2.33642E-04-1.07485E-16
 -1      1782 3.78106E-04 2.02624E-04-1.24914E-16
 -1      1783 4.95891E-04 2.43963E-04-2.16312E-16
 -1      1784 5.58589E-04 3.02463E-04-1.91714E-16
 -1      1785 3.40057E-04-1.90874E-04-1.01630E-16
 -1      1786 8.53683E-04 4.07060E-04-4.77889E-16
 -1      1787 7.07258E-04 3.59324E-04-3.15842E-16
 -1      1788 6.73505E-04 3.28760E-04-3.31644E-16
 -1      1789 4.59002E-04-2.36668E-04-1.85914E-16
 -1      1790 8.07323E-04-3.74038E-04-5.06092E-16
 -1      1791 9.52612E-04-4.15215E-04-7.11481E-16
 -1      1792 1.09547E-03-4.49897E-04-9.54816E-16
 -1      1793 1.23717E-03-4.78786E-04-1.23686E-15
 -1      1794 1.00404E-03-3.97825E-04-8.80142E-16
 -1      1795 1.37760E-03-5.03266E-04-1.55639E-15
 -1      1796 1.51732E-03-5.23637E-04-1.91393E-15
 -1      1797 1.28976E-03-4.55774E-04-1.45233E-15
 -1      1798 1.65651E-03-5.40820E-04-2.30909E-15
 -1      1799 1.79539E-03-5.55052E-04-2.74131E-15
 -1      1800 1.57222E-03-4.96718E-04-2.17418E-15
 -1      1801 1.93415E-03-5.66943E-04-3.20975E-15
 -1      1802 2.07284E-03-5.76695E-04-3.71522E-15
 -1      1803 1.85289E-03-5.25276E-04-3.04342E-15
 -1      1804 2.21163E-03-5.84729E-04-4.25669E-15
 -1      1805 2.35051E-03-5.91215E-04-4.83366E-15
 -1      1806 2.13285E-03-5.44790E-04-4.05774E-15
 -1      1807 2.48960E-03-5.96453E-04-5.44654E-15
 -1      1808 2.62886E-03-6.00581E-04-6.09452E-15
 -1      1809 2.41279E-03-5.57719E-04-5.21501E-15
 -1      1810 2.76838E-03-6.03814E-04-6.77739E-15
 -1      1811 2.90810E-03-6.06266E-04-7.49409E-15
 -1      1812 2.69309E-03-5.65905E-04-6.51206E-15
 -1      1813 3.04808E-03-6.08090E-04-8.24468E-15
 -1      1814 3.18828E-03-6.09375E-04-9.02850E-15
 -1      1815 2.97396E-03-5.70726E-04-7.94549E-15
 -1      1816 3.32873E-03-6.10232E-04-9.84503E-15
 -1      1817 3.46938E-03-6.10729E-04-1.06945E-14
 -1      1818 3.25549E-03-5.73215E-04-9.51200E-15
 -1      1819 3.61026E-03-6.10942E-04-1.15763E-14
 -1      1820 3.75133E-03-6.10923E-04-1.24893E-14
 -1      1821 3.53769E-03-5.74131E-04-1.12094E-14
 -1      1822 3.89259E-03-6.10725E-04-1.34320E-14
 -1      1823 4.03401E-03-6.10384E-04-1.44041E-14
 -1      1824 3.82049E-03-5.74025E-04-1.30324E-14
 -1      1825 4.17560E-03-6.09937E-04-1.54060E-14
 -1      1826 4.31732E-03-6.09408E-04-1.64366E-14
 -1      1827 4.10385E-03-5.73286E-04-1.49754E-14
 -1      1828 4.45918E-03-6.08819E-04-1.74948E-14
 -1      1829 4.60115E-03-6.08188E-04-1.85799E-14
 -1      1830 4.38769E-03-5.72180E-04-1.70343E-14
 -1      1831 4.74323E-03-6.07525E-04-1.96932E-14
 -1      1832 4.88540E-03-6.06841E-04-2.08323E-14
 -1      1833 4.67192E-03-5.70878E-04-1.92038E-14
 -1      1834 5.02767E-03-6.06139E-04-2.19975E-14
 -1      1835 5.17000E-03-6.05427E-04-2.31899E-14
 -1      1836 4.95649E-03-5.69478E-04-2.14800E-14
 -1      1837 5.31241E-03-6.04700E-04-2.44086E-14
 -1      1838 5.45488E-03-6.03961E-04-2.56521E-14
 -1      1839 5.24132E-03-5.68027E-04-2.38624E-14
 -1      1840 5.59741E-03-6.03204E-04-2.69205E-14
 -1      1841 5.73999E-03-6.02428E-04-2.82152E-14
 -1      1842 5.52639E-03-5.66529E-04-2.63478E-14
 -1      1843 5.88263E-03-6.01623E-04-2.95335E-14
 -1      1844 6.02531E-03-6.00787E-04-3.08759E-14
 -1      1845 5.81165E-03-5.64959E-04-2.89329E-14
 -1      1846 6.16805E-03-5.99906E-04-3.22430E-14
 -1      1847 6.31083E-03-5.98977E-04-3.36336E-14
 -1      1848 6.09709E-03-5.63269E-04-3.16164E-14
 -1      1849 6.45368E-03-5.97987E-04-3.50486E-14
 -1      1850 6.59658E-03-5.96930E-04-3.64855E-14
 -1      1851 6.38272E-03-5.61394E-04-3.43945E-14
 -1      1852 6.73955E-03-5.95792E-04-3.79447E-14
 -1      1853 6.88259E-03-5.94570E-04-3.94264E-14
 -1      1854 6.66855E-03-5.59259E-04-3.72669E-14
 -1      1855 7.02572E-03-5.93247E-04-4.09292E-14
 -1      1856 7.16895E-03-5.91824E-04-4.24534E-14
 -1      1857 6.95464E-03-5.56786E-04-4.02260E-14
 -1      1858 7.31228E-03-5.90285E-04-4.39989E-14
 -1      1859 7.45575E-03-5.88633E-04-4.55625E-14
 -1      1860 7.24105E-03-5.53902E-04-4.32714E-14
 -1      1861 7.59936E-03-5.86859E-04-4.71476E-14
 -1      1862 7.74314E-03-5.84970E-04-4.87508E-14
 -1      1863 7.52787E-03-5.50550E-04-4.63976E-14
 -1      1864 7.88711E-03-5.82965E-04-5.03725E-14
 -1      1865 8.03130E-03-5.80858E-04-5.20135E-14
 -1      1866 7.81524E-03-5.46706E-04-4.95996E-14
 -1      1867 8.17572E-03-5.78660E-04-5.36727E-14
 -1      1868 8.32044E-03-5.76398E-04-5.53504E-14
 -1      1869 8.10330E-03-5.42403E-04-5.28769E-14
 -1      1870 8.46544E-03-5.74102E-04-5.70434E-14
 -1      1871 8.61079E-03-5.71813E-04-5.87514E-14
 -1      1872 8.39225E-03-5.37764E-04-5.62260E-14
 -1      1873 8.75650E-03-5.69590E-04-6.04763E-14
 -1      1874 8.90263E-03-5.67493E-04-6.22141E-14
 -1      1875 8.68230E-03-5.33037E-04-5.96391E-14
 -1      1876 9.04918E-03-5.65616E-04-6.39666E-14
 -1      1877 9.19621E-03-5.64045E-04-6.57287E-14
 -1      1878 8.97369E-03-5.28653E-04-6.31109E-14
 -1      1879 9.34372E-03-5.62920E-04-6.75015E-14
 -1      1880 9.49175E-03-5.62352E-04-6.92864E-14
 -1      1881 9.26664E-03-5.25272E-04-6.66321E-14
 -1      1882 9.64029E-03-5.62539E-04-7.10806E-14
 -1      1883 9.78936E-03-5.63617E-04-7.28826E-14
 -1      1884 9.56138E-03-5.23849E-04-7.01950E-14
 -1      1885 9.93895E-03-5.65837E-04-7.46929E-14
 -1      1886 1.00890E-02-5.69359E-04-7.65082E-14
 -1      1887 9.85806E-03-5.25662E-04-7.37952E-14
 -1      1888 1.02395E-02-5.74473E-04-7.83312E-14
 -1      1889 1.03903E-02-5.81344E-04-8.01603E-14
 -1      1890 1.01567E-02-5.32316E-04-7.74279E-14
 -1      1891 1.05415E-02-5.90266E-04-8.19935E-14
 -1      1892 1.06927E-02-6.01375E-04-8.38325E-14
 -1      1893 1.04572E-02-5.45650E-04-8.10836E-14
 -1      1894 1.08440E-02-6.14894E-04-8.56735E-14
 -1      1895 1.09950E-02-6.30874E-04-8.75209E-14
 -1      1896 1.07590E-02-5.67496E-04-8.47569E-14
 -1      1897 1.11456E-02-6.49356E-04-8.93750E-14
 -1      1898 1.12953E-02-6.70213E-04-9.12329E-14
 -1      1899 1.10614E-02-5.99228E-04-8.84505E-14
 -1      1900 1.14442E-02-6.93161E-04-9.30961E-14
 -1      1901 1.15916E-02-7.17787E-04-9.49645E-14
 -1      1902 1.13627E-02-6.41026E-04-9.21646E-14
 -1      1903 1.17375E-02-7.43335E-04-9.68420E-14
 -1      1904 1.18812E-02-7.69006E-04-9.87235E-14
 -1      1905 1.16611E-02-6.90879E-04-9.59025E-14
 -1      1906 1.20227E-02-7.93504E-04-1.00610E-13
 -1      1907 1.21617E-02-8.15612E-04-1.02506E-13
 -1      1908 1.19538E-02-7.43526E-04-9.96632E-14
 -1      1909 1.22979E-02-8.33596E-04-1.04406E-13
 -1      1910 1.24317E-02-8.45968E-04-1.06313E-13
 -1      1911 1.22381E-02-7.89773E-04-1.03448E-13
 -1      1912 1.25626E-02-8.50911E-04-1.08227E-13
 -1      1913 1.26916E-02-8.47025E-04-1.10142E-13
 -1      1914 1.25123E-02-8.16974E-04-1.07258E-13
 -1      1915 1.28184E-02-8.33004E-04-1.12061E-13
 -1      1916 1.29447E-02-8.08078E-04-1.13984E-13
 -1      1917 1.27765E-02-8.11419E-04-1.11086E-13
 -1      1918 1.30699E-02-7.72102E-04-1.15908E-13
 -1      1919 1.31961E-02-7.25490E-04-1.17832E-13
 -1      1920 1.30336E-02-7.62667E-04-1.14922E-13
 -1      1921 1.33230E-02-6.69640E-04-1.19757E-13
 -1      1922 1.34524E-02-6.06397E-04-1.21678E-13
 -1      1923 1.32892E-02-6.68686E-04-1.18763E-13
 -1      1924 1.35743E-02-5.44581E-04-1.23487E-13
 -1      1925 1.37090E-02-4.75339E-04-1.25405E-13
 -1      1926 1.37918E-02-4.15072E-04-1.26104E-13
 -1      1927 1.35405E-02-5.45245E-04-1.22491E-13
 -1      1928 1.60371E-02 6.72392E-04-1.27739E-13
 -1      1929 1.64322E-02 7.21044E-04-1.27707E-13
 -1      1930 1.13877E-03 4.79987E-04-9.14064E-16
 -1      1931 9.96982E-04 4.46758E-04-6.76773E-16
 -1      1932 9.64616E-04 4.17322E-04-6.93225E-16
 -1      1933 1.41795E-03 5.31464E-04-1.50018E-15
 -1      1934 1.27876E-03 5.08016E-04-1.18841E-15
 -1      1935 1.24911E-03 4.79878E-04-1.20342E-15
 -1      1936 1.69439E-03 5.67772E-04-2.23472E-15
 -1      1937 1.55632E-03 5.51272E-04-1.84912E-15
 -1      1938 1.52943E-03 5.24094E-04-1.86197E-15
 -1      1939 1.97003E-03 5.93081E-04-3.11621E-15
 -1      1940 1.83222E-03 5.81630E-04-2.65716E-15
 -1      1941 1.80773E-03 5.55088E-04-2.66730E-15
 -1      1942 2.24596E-03 6.10360E-04-4.14134E-15
 -1      1943 2.10792E-03 6.02598E-04-3.61107E-15
 -1      1944 2.08542E-03 5.76460E-04-3.61707E-15
 -1      1945 2.52271E-03 6.21794E-04-5.30645E-15
 -1      1946 2.38421E-03 6.16713E-04-4.70637E-15
 -1      1947 2.36332E-03 5.90820E-04-4.70801E-15
 -1      1948 2.80056E-03 6.29018E-04-6.60656E-15
 -1      1949 2.66150E-03 6.25861E-04-5.93973E-15
 -1      1950 2.64187E-03 6.00106E-04-5.93664E-15
 -1      1951 3.07957E-03 6.33265E-04-8.04154E-15
 -1      1952 2.93992E-03 6.31461E-04-7.30777E-15
 -1      1953 2.92128E-03 6.05773E-04-7.29923E-15
 -1      1954 3.35969E-03 6.35451E-04-9.60653E-15
 -1      1955 3.21950E-03 6.34577E-04-8.80790E-15
 -1      1956 3.20160E-03 6.08910E-04-8.79411E-15
 -1      1957 3.64084E-03 6.36254E-04-1.13036E-14
 -1      1958 3.50015E-03 6.35998E-04-1.04388E-14
 -1      1959 3.48282E-03 6.10325E-04-1.04194E-14
 -1      1960 3.92289E-03 6.36162E-04-1.31279E-14
 -1      1961 3.78177E-03 6.36300E-04-1.21996E-14
 -1      1962 3.76486E-03 6.10605E-04-1.21738E-14
 -1      1963 4.20570E-03 6.35518E-04-1.50781E-14
 -1      1964 4.06421E-03 6.35896E-04-1.40869E-14
 -1      1965 4.04762E-03 6.10171E-04-1.40544E-14
 -1      1966 4.48913E-03 6.34554E-04-1.71504E-14
 -1      1967 4.34735E-03 6.35068E-04-1.60998E-14
 -1      1968 4.33098E-03 6.09312E-04-1.60595E-14
 -1      1969 4.77308E-03 6.33416E-04-1.93384E-14
 -1      1970 4.63105E-03 6.34002E-04-1.82302E-14
 -1      1971 4.61485E-03 6.08216E-04-1.81831E-14
 -1      1972 5.05744E-03 6.32187E-04-2.16378E-14
 -1      1973 4.91522E-03 6.32811E-04-2.04741E-14
 -1      1974 4.89914E-03 6.06999E-04-2.04201E-14
 -1      1975 5.34213E-03 6.30899E-04-2.40442E-14
 -1      1976 5.19975E-03 6.31550E-04-2.28280E-14
 -1      1977 5.18376E-03 6.05718E-04-2.27661E-14
 -1      1978 5.62708E-03 6.29546E-04-2.65545E-14
 -1      1979 5.48458E-03 6.30232E-04-2.52868E-14
 -1      1980 5.46866E-03 6.04384E-04-2.52175E-14
 -1      1981 5.91225E-03 6.28095E-04-2.91650E-14
 -1      1982 5.76964E-03 6.28836E-04-2.78478E-14
 -1      1983 5.75378E-03 6.02978E-04-2.77713E-14
 -1      1984 6.19763E-03 6.26490E-04-3.18738E-14
 -1      1985 6.05491E-03 6.27315E-04-3.05073E-14
 -1      1986 6.03910E-03 6.01453E-04-3.04246E-14
 -1      1987 6.48322E-03 6.24654E-04-3.46724E-14
 -1      1988 6.34040E-03 6.25605E-04-3.32622E-14
 -1      1989 6.32462E-03 5.99742E-04-3.31714E-14
 -1      1990 6.76906E-03 6.22498E-04-3.75631E-14
 -1      1991 6.62611E-03 6.23620E-04-3.61067E-14
 -1      1992 6.61037E-03 5.97760E-04-3.60090E-14
 -1      1993 7.05524E-03 6.19920E-04-4.05371E-14
 -1      1994 6.91210E-03 6.21266E-04-3.90396E-14
 -1      1995 6.89638E-03 5.95408E-04-3.89343E-14
 -1      1996 7.34185E-03 6.16810E-04-4.35877E-14
 -1      1997 7.19848E-03 6.18435E-04-4.20528E-14
 -1      1998 7.18276E-03 5.92579E-04-4.19413E-14
 -1      1999 7.62908E-03 6.13058E-04-4.67155E-14
 -1      2000 7.48538E-03 6.15017E-04-4.51427E-14
 -1      2001 7.46962E-03 5.89157E-04-4.50265E-14
 -1      2002 7.91716E-03 6.08559E-04-4.99157E-14
 -1      2003 7.77300E-03 6.10902E-04-4.83061E-14
 -1      2004 7.75713E-03 5.85029E-04-4.81861E-14
 -1      2005 8.20640E-03 6.03228E-04-5.31924E-14
 -1      2006 8.06161E-03 6.05993E-04-5.15442E-14
 -1      2007 8.04555E-03 5.80091E-04-5.14191E-14
 -1      2008 8.49723E-03 5.97023E-04-5.65411E-14
 -1      2009 8.35158E-03 6.00225E-04-5.48577E-14
 -1      2010 8.33518E-03 5.74268E-04-5.47268E-14
 -1      2011 8.79020E-03 5.89977E-04-5.99572E-14
 -1      2012 8.64340E-03 5.93585E-04-5.82406E-14
 -1      2013 8.62643E-03 5.67535E-04-5.81051E-14
 -1      2014 9.08604E-03 5.82254E-04-6.34358E-14
 -1      2015 8.93770E-03 5.86165E-04-6.16892E-14
 -1      2016 8.91985E-03 5.59967E-04-6.15484E-14
 -1      2017 9.38566E-03 5.74241E-04-6.69746E-14
 -1      2018 9.23529E-03 5.78224E-04-6.51989E-14
 -1      2019 9.21609E-03 5.51799E-04-6.50522E-14
 -1      2020 9.69025E-03 5.66698E-04-7.05690E-14
 -1      2021 9.53723E-03 5.70315E-04-6.87645E-14
 -1      2022 9.51600E-03 5.43544E-04-6.86136E-14
 -1      2023 1.00012E-02 5.61009E-04-7.42166E-14
 -1      2024 9.84480E-03 5.63469E-04-7.23864E-14
 -1      2025 9.82060E-03 5.36179E-04-7.22282E-14
 -1      2026 1.03204E-02 5.59599E-04-7.78974E-14
 -1      2027 1.01596E-02 5.59529E-04-7.60541E-14
 -1      2028 1.01311E-02 5.31454E-04-7.58890E-14
 -1      2029 1.06496E-02 5.66608E-04-8.16049E-14
 -1      2030 1.04835E-02 5.61677E-04-7.97493E-14
 -1      2031 1.04489E-02 5.32403E-04-7.95809E-14
 -1      2032 1.09909E-02 5.88942E-04-8.53236E-14
 -1      2033 1.08185E-02 5.75289E-04-8.34631E-14
 -1      2034 1.07756E-02 5.44149E-04-8.32900E-14
 -1      2035 1.13461E-02 6.37708E-04-8.90484E-14
 -1      2036 1.11666E-02 6.09176E-04-8.71855E-14
 -1      2037 1.11129E-02 5.75089E-04-8.70081E-14
 -1      2038 1.17162E-02 7.29712E-04-9.27738E-14
 -1      2039 1.15293E-02 6.77147E-04-9.09118E-14
 -1      2040 1.14626E-02 6.38430E-04-9.07331E-14
 -1      2041 1.21004E-02 8.87623E-04-9.64945E-14
 -1      2042 1.19070E-02 7.99150E-04-9.46348E-14
 -1      2043 1.18268E-02 7.53461E-04-9.44573E-14
 -1      2044 1.24945E-02 1.13455E-03-1.00210E-13
 -1      2045 1.22975E-02 9.99211E-04-9.83535E-14
 -1      2046 1.22073E-02 9.44496E-04-9.81770E-14
 -1      2047 1.28878E-02 1.47705E-03-1.03916E-13
 -1      2048 1.26938E-02 1.29530E-03-1.02062E-13
 -1      2049 1.26033E-02 1.23209E-03-1.01889E-13
 -1      2050 1.32582E-02 1.87397E-03-1.07615E-13
 -1      2051 1.30787E-02 1.67495E-03-1.05767E-13
 -1      2052 1.30046E-02 1.61118E-03-1.05597E-13
 -1      2053 1.35802E-02 2.20667E-03-1.11309E-13
 -1      2054 1.34255E-02 2.05820E-03-1.09463E-13
 -1      2055 1.33845E-02 2.00934E-03-1.09298E-13
 -1      2056 1.38530E-02 2.31683E-03-1.14999E-13
 -1      2057 1.37192E-02 2.29611E-03-1.13152E-13
 -1      2058 1.37188E-02 2.27304E-03-1.12989E-13
 -1      2059 1.41078E-02 2.12191E-03-1.18709E-13
 -1      2060 1.39781E-02 2.25476E-03-1.16854E-13
 -1      2061 1.40175E-02 2.25177E-03-1.16692E-13
 -1      2062 1.43745E-02 1.68133E-03-1.22429E-13
 -1      2063 1.42385E-02 1.92444E-03-1.20567E-13
 -1      2064 1.43148E-02 1.92776E-03-1.20408E-13
 -1      2065 1.46137E-02 1.23599E-03-1.25411E-13
 -1      2066 1.44798E-02 1.50463E-03-1.23636E-13
 -1      2067 1.45828E-02 1.50799E-03-1.23478E-13
 -1      2068 1.48178E-02 1.13216E-03-1.25896E-13
 -1      2069 1.66243E-02 7.89358E-04-1.26174E-13
 -1      2070 1.62244E-02 8.48057E-04-1.26103E-13
 -1      2071 1.58287E-02 9.28381E-04-1.26021E-13
 -1      2072 1.54824E-02 9.96540E-04-1.25938E-13
 -1      2073 1.58433E-02 1.07514E-03-1.24675E-13
 -1      2074 1.77628E-02 7.02638E-04-1.26890E-13
 -1      2075 1.76833E-02 6.92625E-04-1.26832E-13
 -1      2076 1.52574E-02 1.03954E-03-1.25959E-13
 -1      2077 1.49878E-02 1.10126E-03-1.25873E-13
 -1      2078 1.48602E-02 1.29243E-03-1.24663E-13
 -1      2079 1.52411E-02 1.21570E-03-1.24616E-13
 -1      2080 1.52456E-02 4.90674E-04-1.27588E-13
 -1      2081 1.56199E-02 5.70566E-04-1.27554E-13
 -1      2082 1.46967E-02 3.08601E-04-1.27546E-13
 -1      2083 1.49353E-02 3.89617E-04-1.27511E-13
 -1      2084 1.43770E-02 1.49673E-04-1.27617E-13
 -1      2085 1.45149E-02 2.26919E-04-1.27582E-13
 -1      2086 1.44789E-02 1.17951E-04-1.26154E-13
 -1      2087 1.41931E-02 3.27546E-06-1.27702E-13
 -1      2088 1.42724E-02 7.48288E-05-1.27656E-13
 -1      2089 1.42088E-02-4.64824E-06-1.26230E-13
 -1      2090 1.40813E-02-1.28908E-04-1.27781E-13
 -1      2091 1.41309E-02-6.43703E-05-1.27741E-13
 -1      2092 1.40515E-02-1.18909E-04-1.26311E-13
 -1      2093 1.40015E-02-2.46402E-04-1.27866E-13
 -1      2094 1.40391E-02-1.89133E-04-1.27824E-13
 -1      2095 1.39526E-02-2.27227E-04-1.26392E-13
 -1      2096 1.77172E-02 7.21566E-04-1.26730E-13
 -1      2097 1.60883E-02 1.17741E-03-1.23366E-13
 -1      2098 1.64659E-02 1.02748E-03-1.24002E-13
 -1      2099 3.27131E-04-8.89372E-05-2.12314E-16
 -1      2100 3.29248E-04-1.02079E-04-2.04386E-16
 -1      2101 4.46329E-04-1.45041E-04-2.97275E-16
 -1      2102 4.39993E-04-1.09886E-04-3.18186E-16
 -1      2103 1.47989E-02 1.99019E-03-1.18869E-13
 -1      2104 1.50615E-02 1.83991E-03-1.19814E-13
 -1      2105 1.42904E-02 2.23247E-03-1.16343E-13
 -1      2106 1.44799E-02 2.15205E-03-1.17457E-13
 -1      2107 1.39203E-02 2.24615E-03-1.14138E-13
 -1      2108 1.40989E-02 2.26239E-03-1.15240E-13
 -1      2109 1.41520E-02 2.25859E-03-1.15864E-13
 -1      2110 1.34907E-02 2.04484E-03-1.11634E-13
 -1      2111 1.36781E-02 2.15883E-03-1.12686E-13
 -1      2112 1.30826E-02 1.73522E-03-1.09556E-13
 -1      2113 1.32882E-02 1.90422E-03-1.10595E-13
 -1      2114 1.34121E-02 1.97939E-03-1.10827E-13
 -1      2115 1.25443E-02 1.32658E-03-1.07450E-13
 -1      2116 1.27848E-02 1.50309E-03-1.08286E-13
 -1      2117 1.20562E-02 1.00796E-03-1.05956E-13
 -1      2118 1.22826E-02 1.15553E-03-1.06670E-13
 -1      2119 1.16344E-02 7.51962E-04-1.04587E-13
 -1      2120 1.18229E-02 8.53374E-04-1.05107E-13
 -1      2121 1.13512E-02 6.00828E-04-1.03680E-13
 -1      2122 1.14766E-02 6.67043E-04-1.04135E-13
 -1      2123 1.15759E-02 6.71908E-04-1.03551E-13
 -1      2124 1.12129E-02 5.05083E-04-1.03356E-13
 -1      2125 1.12416E-02 5.34051E-04-1.03320E-13
 -1      2126 1.12931E-02 4.31535E-04-1.03640E-13
 -1      2127 1.12315E-02 4.64599E-04-1.03408E-13
 -1      2128 1.15261E-02 3.30393E-04-1.04384E-13
 -1      2129 1.13900E-02 3.84882E-04-1.04013E-13
 -1      2130 1.13291E-02 4.16077E-04-1.02855E-13
 -1      2131 1.19262E-02 1.47926E-04-1.05721E-13
 -1      2132 1.17340E-02 2.35851E-04-1.05119E-13
 -1      2133 1.23843E-02-9.46893E-05-1.07498E-13
 -1      2134 1.21799E-02 2.16624E-05-1.06608E-13
 -1      2135 1.28007E-02-3.29096E-04-1.09373E-13
 -1      2136 1.25926E-02-2.11392E-04-1.08432E-13
 -1      2137 1.25031E-02-1.41829E-04-1.07401E-13
 -1      2138 1.32443E-02-5.58187E-04-1.11845E-13
 -1      2139 1.30632E-02-4.67338E-04-1.10741E-13
 -1      2140 1.35924E-02-6.66435E-04-1.14040E-13
 -1      2141 1.34232E-02-6.22962E-04-1.12943E-13
 -1      2142 1.33215E-02-5.97962E-04-1.12170E-13
 -1      2143 1.40095E-02-6.56202E-04-1.16623E-13
 -1      2144 1.38274E-02-6.78757E-04-1.15515E-13
 -1      2145 1.44453E-02-5.16423E-04-1.18820E-13
 -1      2146 1.42397E-02-5.95728E-04-1.17832E-13
 -1      2147 1.49319E-02-2.73769E-04-1.20861E-13
 -1      2148 1.46874E-02-4.04442E-04-1.19901E-13
 -1      2149 1.55783E-02 4.76323E-05-1.22730E-13
 -1      2150 1.52679E-02-9.97890E-05-1.21969E-13
 -1      2151 1.62592E-02 3.43716E-04-1.24169E-13
 -1      2152 1.59136E-02 1.92846E-04-1.23454E-13
 -1      2153 1.56552E-02 1.85255E-04-1.23745E-13
 -1      2154 1.70574E-02 5.86147E-04-1.25303E-13
 -1      2155 1.67212E-02 5.09338E-04-1.24983E-13
 -1      2156 1.53431E-02 1.65628E-03-1.20885E-13
 -1      2157 1.56293E-02 1.44970E-03-1.21959E-13
 -1      2158 1.51319E-02 1.69843E-03-1.20860E-13
 -1      2159 1.64970E-02 6.06685E-04-1.26366E-13
 -1      2160 1.67989E-02 7.38161E-04-1.27449E-13
 -1      2161 6.07944E-04-2.98065E-04-3.04864E-16
 -1      2162 1.71778E-02 7.58597E-04-1.27405E-13
 -1      2163 6.63665E-04-2.92340E-04-4.14951E-16
 -1      2164 1.49502E-02 2.71114E-04-1.26190E-13
 -1      2165 1.75740E-02 7.35717E-04-1.25628E-13
 -1      2166 1.75351E-02 6.59569E-04-1.27257E-13
 -1      2167 1.56801E-02 4.69480E-04-1.26442E-13
 -1      2168 1.71726E-02 6.87819E-04-1.26829E-13
 -1      2169 1.76412E-02 7.75733E-04-1.27937E-13
 -1      2170 1.75246E-02 6.86457E-04-1.26060E-13
 -1      2171 1.39185E-02-3.15173E-04-1.27168E-13
 -1      2172 1.67884E-02 9.26041E-04-1.24455E-13
 -1      2173 1.71023E-02 8.20899E-04-1.25077E-13
 -1      2174 1.58311E-02 1.23628E-03-1.23341E-13
 -1      2175 1.73472E-02 7.74642E-04-1.25270E-13
 -1      2176 1.64399E-02 4.94933E-04-1.25287E-13
 -1      2177 1.50218E-02-1.43489E-04-1.21912E-13
 -1      2178 1.44961E-02-4.39040E-04-1.19719E-13
 -1      2179 1.36741E-02-6.81772E-04-1.14743E-13
 -1      2180 1.29374E-02-3.99728E-04-1.09703E-13
 -1      2181 1.16160E-02 3.04776E-04-1.03959E-13
 -1      2182 1.12864E-02 5.41458E-04-1.02741E-13
 -1      2183 1.13501E-02 5.45495E-04-1.02159E-13
 -1      2184 1.12409E-02 5.02863E-04-1.01799E-13
 -1      2185 1.19597E-02 8.85489E-04-1.04851E-13
 -1      2186 1.29634E-02 1.60780E-03-1.08521E-13
 -1      2187 1.37939E-02 2.21988E-03-1.13312E-13
 -1      2188 1.45793E-02 2.06805E-03-1.18376E-13
 -1      2189 1.24425E-02 1.20321E-03-1.06477E-13
 -1      2190 1.12111E-02 4.71851E-04-1.02431E-13
 -1      2191 1.20653E-02 9.73838E-05-1.05580E-13
 -1      2192 1.40758E-02-6.23805E-04-1.17427E-13
 -1      2193 1.71470E-02 7.57607E-04-1.25861E-13
 -1      2194 1.73061E-02 6.63183E-04-1.25880E-13
 -1      2195 1.46767E-02 6.16905E-05-1.24735E-13
 -1      2196 1.49727E-02 1.40969E-04-1.24806E-13
 -1      2197 5.47736E-04-5.52692E-05-4.80722E-16
 -1      2198 5.48779E-04-7.19765E-05-4.77401E-16
 -1      2199 5.50207E-04-8.92895E-05-4.72590E-16
 -1      2200 5.52091E-04-1.07256E-04-4.66315E-16
 -1      2201 6.65239E-04-9.54457E-05-6.43515E-16
 -1      2202 5.46344E-04 8.85120E-06-4.83229E-16
 -1      2203 5.46324E-04-6.97727E-06-4.83798E-16
 -1      2204 5.47105E-04 4.08446E-05-4.78865E-16
 -1      2205 5.46601E-04 2.47787E-05-4.81657E-16
 -1      2206 6.61267E-04 1.99198E-05-6.52893E-16
 -1      2207 5.48943E-04 7.34504E-05-4.70449E-16
 -1      2208 5.47873E-04 5.69657E-05-4.75341E-16
 -1      2209 6.62602E-04 5.77567E-05-6.46212E-16
 -1      2210 5.52353E-04 1.08911E-04-4.56137E-16
 -1      2211 5.50420E-04 9.08412E-05-4.64201E-16
 -1      2212 6.65480E-04 9.72075E-05-6.33459E-16
 -1      2213 5.58245E-04 1.48242E-04-4.33667E-16
 -1      2214 5.54922E-04 1.28018E-04-4.46136E-16
 -1      2215 6.70596E-04 1.39963E-04-6.12845E-16
 -1      2216 5.68645E-04 1.93835E-04-3.99217E-16
 -1      2217 5.62743E-04 1.70126E-04-4.18326E-16
 -1      2218 6.79259E-04 1.87511E-04-5.81458E-16
 -1      2219 5.88073E-04 2.49428E-04-3.47744E-16
 -1      2220 5.76931E-04 2.20168E-04-3.76381E-16
 -1      2221 6.94257E-04 2.42421E-04-5.34823E-16
 -1      2222 6.42212E-04 3.01258E-04-3.38894E-16
 -1      2223 6.14481E-04 2.73763E-04-3.46863E-16
 -1      2224 7.31631E-04 2.97788E-04-5.05943E-16
 -1      2225 7.88674E-04 3.49670E-04-5.01172E-16
 -1      2226 1.39009E-02-2.44109E-04-1.24678E-13
 -1      2227 1.39599E-02-2.01364E-04-1.24638E-13
 -1      2228 1.30221E-03 4.56649E-04-1.41865E-15
 -1      2229 1.15988E-03 4.30691E-04-1.12150E-15
 -1      2230 9.15256E-04-3.46294E-04-8.02404E-16
 -1      2231 1.05936E-03-3.79609E-04-1.05574E-15
 -1      2232 1.20264E-03-4.07976E-04-1.34627E-15
 -1      2233 1.34547E-03-4.31842E-04-1.67364E-15
 -1      2234 1.11704E-03-3.60408E-04-1.23844E-15
 -1      2235 1.48766E-03-4.52059E-04-2.03787E-15
 -1      2236 1.62945E-03-4.68897E-04-2.43920E-15
 -1      2237 1.40340E-03-4.07162E-04-1.90090E-15
 -1      2238 1.77089E-03-4.83032E-04-2.87647E-15
 -1      2239 1.91209E-03-4.94677E-04-3.34982E-15
 -1      2240 1.68855E-03-4.40398E-04-2.70854E-15
 -1      2241 2.05314E-03-5.04329E-04-3.85887E-15
 -1      2242 2.19407E-03-5.12164E-04-4.40383E-15
 -1      2243 1.97276E-03-4.63456E-04-3.66006E-15
 -1      2244 2.33499E-03-5.18543E-04-4.98335E-15
 -1      2245 2.47590E-03-5.23610E-04-5.59839E-15
 -1      2246 2.25642E-03-4.78981E-04-4.75275E-15
 -1      2247 2.61687E-03-5.27631E-04-6.24750E-15
 -1      2248 2.75789E-03-5.30719E-04-6.93087E-15
 -1      2249 2.53986E-03-4.89018E-04-5.98387E-15
 -1      2250 2.89901E-03-5.33069E-04-7.64753E-15
 -1      2251 3.04021E-03-5.34771E-04-8.39758E-15
 -1      2252 2.82330E-03-4.95125E-04-7.35092E-15
 -1      2253 3.18153E-03-5.35965E-04-9.18077E-15
 -1      2254 3.32295E-03-5.36721E-04-9.99629E-15
 -1      2255 3.10690E-03-4.98478E-04-8.85097E-15
 -1      2256 3.46450E-03-5.37138E-04-1.08446E-14
 -1      2257 3.60613E-03-5.37270E-04-1.17248E-14
 -1      2258 3.39072E-03-4.99953E-04-1.04817E-14
 -1      2259 3.74789E-03-5.37185E-04-1.26350E-14
 -1      2260 3.88974E-03-5.36922E-04-1.35756E-14
 -1      2261 3.67480E-03-5.00190E-04-1.22397E-14
 -1      2262 4.03170E-03-5.36528E-04-1.45462E-14
 -1      2263 4.17374E-03-5.36030E-04-1.55466E-14
 -1      2264 3.95913E-03-4.99647E-04-1.41195E-14
 -1      2265 4.31587E-03-5.35459E-04-1.65756E-14
 -1      2266 4.45807E-03-5.34833E-04-1.76318E-14
 -1      2267 4.24371E-03-4.98642E-04-1.61176E-14
 -1      2268 4.60035E-03-5.34168E-04-1.87158E-14
 -1      2269 4.74269E-03-5.33478E-04-1.98270E-14
 -1      2270 4.52851E-03-4.97384E-04-1.82294E-14
 -1      2271 4.88510E-03-5.32769E-04-2.09641E-14
 -1      2272 5.02755E-03-5.32049E-04-2.21277E-14
 -1      2273 4.81349E-03-4.96001E-04-2.04493E-14
 -1      2274 5.17007E-03-5.31317E-04-2.33184E-14
 -1      2275 5.31262E-03-5.30578E-04-2.45354E-14
 -1      2276 5.09864E-03-4.94562E-04-2.27763E-14
 -1      2277 5.45523E-03-5.29825E-04-2.57765E-14
 -1      2278 5.59787E-03-5.29060E-04-2.70429E-14
 -1      2279 5.38392E-03-4.93087E-04-2.52068E-14
 -1      2280 5.74055E-03-5.28273E-04-2.83349E-14
 -1      2281 5.88327E-03-5.27463E-04-2.96513E-14
 -1      2282 5.66933E-03-4.91562E-04-2.77385E-14
 -1      2283 6.02603E-03-5.26617E-04-3.09907E-14
 -1      2284 6.16882E-03-5.25732E-04-3.23550E-14
 -1      2285 5.95486E-03-4.89948E-04-3.03685E-14
 -1      2286 6.31165E-03-5.24794E-04-3.37452E-14
 -1      2287 6.45453E-03-5.23799E-04-3.51565E-14
 -1      2288 6.24049E-03-4.88186E-04-3.30961E-14
 -1      2289 6.59745E-03-5.22731E-04-3.65907E-14
 -1      2290 6.74042E-03-5.21585E-04-3.80472E-14
 -1      2291 6.52625E-03-4.86204E-04-3.59170E-14
 -1      2292 6.88344E-03-5.20346E-04-3.95257E-14
 -1      2293 7.02653E-03-5.19009E-04-4.10257E-14
 -1      2294 6.81216E-03-4.83921E-04-3.88273E-14
 -1      2295 7.16968E-03-5.17562E-04-4.25475E-14
 -1      2296 7.31292E-03-5.16000E-04-4.40896E-14
 -1      2297 7.09824E-03-4.81257E-04-4.18255E-14
 -1      2298 7.45625E-03-5.14313E-04-4.56509E-14
 -1      2299 7.59968E-03-5.12501E-04-4.72312E-14
 -1      2300 7.38455E-03-4.78139E-04-4.49055E-14
 -1      2301 7.74323E-03-5.10560E-04-4.88296E-14
 -1      2302 7.88691E-03-5.08497E-04-5.04473E-14
 -1      2303 7.67115E-03-4.74514E-04-4.80616E-14
 -1      2304 8.03074E-03-5.06315E-04-5.20847E-14
 -1      2305 8.17475E-03-5.04030E-04-5.37398E-14
 -1      2306 7.95813E-03-4.70374E-04-5.12948E-14
 -1      2307 8.31894E-03-5.01663E-04-5.54133E-14
 -1      2308 8.46336E-03-4.99240E-04-5.71021E-14
 -1      2309 8.24561E-03-4.65770E-04-5.46019E-14
 -1      2310 8.60801E-03-4.96805E-04-5.88058E-14
 -1      2311 8.75293E-03-4.94402E-04-6.05251E-14
 -1      2312 8.53373E-03-4.60858E-04-5.79754E-14
 -1      2313 8.89814E-03-4.92105E-04-6.22576E-14
 -1      2314 9.04369E-03-4.89979E-04-6.40047E-14
 -1      2315 8.82266E-03-4.55932E-04-6.14082E-14
 -1      2316 9.18958E-03-4.88140E-04-6.57636E-14
 -1      2317 9.33587E-03-4.86681E-04-6.75318E-14
 -1      2318 9.11264E-03-4.51485E-04-6.48955E-14
 -1      2319 9.48257E-03-4.85762E-04-6.93124E-14
 -1      2320 9.62972E-03-4.85514E-04-7.11024E-14
 -1      2321 9.40393E-03-4.48260E-04-6.84320E-14
 -1      2322 9.77736E-03-4.86146E-04-7.29013E-14
 -1      2323 9.92549E-03-4.87825E-04-7.47088E-14
 -1      2324 9.69686E-03-4.47306E-04-7.20081E-14
 -1      2325 1.00742E-02-4.90805E-04-7.65239E-14
 -1      2326 1.02234E-02-4.95287E-04-7.83453E-14
 -1      2327 9.99181E-03-4.50018E-04-7.56210E-14
 -1      2328 1.03732E-02-5.01544E-04-8.01725E-14
 -1      2329 1.05234E-02-5.09798E-04-8.20050E-14
 -1      2330 1.02892E-02-4.58126E-04-7.92623E-14
 -1      2331 1.06743E-02-5.20295E-04-8.38412E-14
 -1      2332 1.08255E-02-5.33234E-04-8.56825E-14
 -1      2333 1.05893E-02-4.73595E-04-8.29252E-14
 -1      2334 1.09772E-02-5.48755E-04-8.75277E-14
 -1      2335 1.11290E-02-5.66956E-04-8.93794E-14
 -1      2336 1.08924E-02-4.98369E-04-8.66071E-14
 -1      2337 1.12810E-02-5.87757E-04-9.12368E-14
 -1      2338 1.14327E-02-6.11029E-04-9.30975E-14
 -1      2339 1.11981E-02-5.33869E-04-9.03070E-14
 -1      2340 1.15841E-02-6.36335E-04-9.49641E-14
 -1      2341 1.17345E-02-6.63144E-04-9.68381E-14
 -1      2342 1.15054E-02-5.80156E-04-9.40288E-14
 -1      2343 1.18839E-02-6.90544E-04-9.87169E-14
 -1      2344 1.20315E-02-7.17437E-04-1.00602E-13
 -1      2345 1.18120E-02-6.34726E-04-9.77720E-14
 -1      2346 1.21772E-02-7.42408E-04-1.02493E-13
 -1      2347 1.23205E-02-7.63743E-04-1.04390E-13
 -1      2348 1.21142E-02-6.91135E-04-1.01540E-13
 -1      2349 1.24609E-02-7.79692E-04-1.06292E-13
 -1      2350 1.25986E-02-7.88185E-04-1.08201E-13
 -1      2351 1.24077E-02-7.38053E-04-1.05329E-13
 -1      2352 1.27333E-02-7.87578E-04-1.10113E-13
 -1      2353 1.28658E-02-7.76060E-04-1.12024E-13
 -1      2354 1.26892E-02-7.59976E-04-1.09139E-13
 -1      2355 1.29959E-02-7.52739E-04-1.13941E-13
 -1      2356 1.31252E-02-7.16920E-04-1.15857E-13
 -1      2357 1.29581E-02-7.40791E-04-1.12961E-13
 -1      2358 1.32536E-02-6.68985E-04-1.17773E-13
 -1      2359 1.33833E-02-6.10279E-04-1.19693E-13
 -1      2360 1.32186E-02-6.69855E-04-1.16788E-13
 -1      2361 1.58465E-03 4.96973E-04-2.12242E-15
 -1      2362 1.44370E-03 4.78652E-04-1.75214E-15
 -1      2363 1.35793E-03 4.32636E-04-1.64017E-15
 -1      2364 1.04709E-03 4.12396E-04-8.97625E-16
 -1      2365 9.02859E-04 3.76917E-04-6.68004E-16
 -1      2366 8.73752E-04 3.50553E-04-6.70538E-16
 -1      2367 1.10169E-03 3.93063E-04-1.07827E-15
 -1      2368 1.86544E-03 5.25146E-04-2.97101E-15
 -1      2369 1.72519E-03 5.12399E-04-2.52874E-15
 -1      2370 1.64197E-03 4.69111E-04-2.38825E-15
 -1      2371 2.14556E-03 5.44428E-04-3.96253E-15
 -1      2372 2.00555E-03 5.35762E-04-3.44909E-15
 -1      2373 1.92473E-03 4.94525E-04-3.27959E-15
 -1      2374 2.42567E-03 5.57231E-04-5.09276E-15
 -1      2375 2.28560E-03 5.51534E-04-4.51032E-15
 -1      2376 2.20686E-03 5.11790E-04-4.31176E-15
 -1      2377 2.70613E-03 5.65365E-04-6.35905E-15
 -1      2378 2.56585E-03 5.61800E-04-5.70938E-15
 -1      2379 2.48884E-03 5.23118E-04-5.48093E-15
 -1      2380 2.98715E-03 5.70191E-04-7.75848E-15
 -1      2381 2.84657E-03 5.68129E-04-7.04192E-15
 -1      2382 2.77096E-03 5.30182E-04-6.78461E-15
 -1      2383 3.26880E-03 5.72725E-04-9.28894E-15
 -1      2384 3.12790E-03 5.71697E-04-8.50771E-15
 -1      2385 3.05341E-03 5.34245E-04-8.22014E-15
 -1      2386 3.55109E-03 5.73717E-04-1.09488E-14
 -1      2387 3.40988E-03 5.73378E-04-1.01022E-14
 -1      2388 3.33625E-03 5.36246E-04-9.78583E-15
 -1      2389 3.83399E-03 5.73708E-04-1.27364E-14
 -1      2390 3.69247E-03 5.73812E-04-1.18269E-14
 -1      2391 3.61953E-03 5.36875E-04-1.14795E-14
 -1      2392 4.11741E-03 5.73082E-04-1.46483E-14
 -1      2393 3.97564E-03 5.73454E-04-1.36765E-14
 -1      2394 3.90321E-03 5.36628E-04-1.33002E-14
 -1      2395 4.40130E-03 5.72100E-04-1.66834E-14
 -1      2396 4.25931E-03 5.72623E-04-1.56510E-14
 -1      2397 4.18726E-03 5.35852E-04-1.52437E-14
 -1      2398 4.68557E-03 5.70928E-04-1.88349E-14
 -1      2399 4.54340E-03 5.71529E-04-1.77449E-14
 -1      2400 4.47164E-03 5.34780E-04-1.73076E-14
 -1      2401 4.97017E-03 5.69662E-04-2.10988E-14
 -1      2402 4.82784E-03 5.70302E-04-1.99533E-14
 -1      2403 4.75630E-03 5.33557E-04-1.94867E-14
 -1      2404 5.25503E-03 5.68345E-04-2.34696E-14
 -1      2405 5.11257E-03 5.69008E-04-2.22710E-14
 -1      2406 5.04120E-03 5.32262E-04-2.17771E-14
 -1      2407 5.54011E-03 5.66980E-04-2.59447E-14
 -1      2408 5.39755E-03 5.67669E-04-2.46941E-14
 -1      2409 5.32629E-03 5.30926E-04-2.41734E-14
 -1      2410 5.82539E-03 5.65537E-04-2.85215E-14
 -1      2411 5.68273E-03 5.66270E-04-2.72208E-14
 -1      2412 5.61155E-03 5.29540E-04-2.66721E-14
 -1      2413 6.11084E-03 5.63961E-04-3.11963E-14
 -1      2414 5.96809E-03 5.64768E-04-2.98470E-14
 -1      2415 5.89697E-03 5.28068E-04-2.92720E-14
 -1      2416 6.39648E-03 5.62179E-04-3.39625E-14
 -1      2417 6.25364E-03 5.63100E-04-3.25684E-14
 -1      2418 6.18254E-03 5.26448E-04-3.19674E-14
 -1      2419 6.68233E-03 5.60100E-04-3.68208E-14
 -1      2420 6.53937E-03 5.61181E-04-3.53803E-14
 -1      2421 6.46827E-03 5.24600E-04-3.47547E-14
 -1      2422 6.96844E-03 5.57621E-04-3.97645E-14
 -1      2423 6.82534E-03 5.58915E-04-3.82818E-14
 -1      2424 6.75418E-03 5.22431E-04-3.76317E-14
 -1      2425 7.25489E-03 5.54627E-04-4.27877E-14
 -1      2426 7.11161E-03 5.56193E-04-4.12655E-14
 -1      2427 7.04033E-03 5.19832E-04-4.05919E-14
 -1      2428 7.54179E-03 5.51001E-04-4.58915E-14
 -1      2429 7.39827E-03 5.52897E-04-4.43302E-14
 -1      2430 7.32678E-03 5.16688E-04-4.36353E-14
 -1      2431 7.82931E-03 5.46626E-04-4.90678E-14
 -1      2432 7.68546E-03 5.48910E-04-4.74702E-14
 -1      2433 7.61362E-03 5.12877E-04-4.67556E-14
 -1      2434 8.11763E-03 5.41399E-04-5.23204E-14
 -1      2435 7.97334E-03 5.44119E-04-5.06856E-14
 -1      2436 7.90097E-03 5.08286E-04-4.99512E-14
 -1      2437 8.40703E-03 5.35250E-04-5.56443E-14
 -1      2438 8.26217E-03 5.38436E-04-5.39727E-14
 -1      2439 8.18899E-03 5.02818E-04-5.32202E-14
 -1      2440 8.69783E-03 5.28169E-04-5.90374E-14
 -1      2441 8.55222E-03 5.31816E-04-5.73324E-14
 -1      2442 8.47786E-03 4.96414E-04-5.65612E-14
 -1      2443 8.99044E-03 5.20255E-04-6.24943E-14
 -1      2444 8.84386E-03 5.24296E-04-6.07582E-14
 -1      2445 8.76780E-03 4.89089E-04-5.99704E-14
 -1      2446 9.28536E-03 5.11794E-04-6.60098E-14
 -1      2447 9.13754E-03 5.16058E-04-6.42439E-14
 -1      2448 9.05908E-03 4.80984E-04-6.34388E-14
 -1      2449 9.58315E-03 5.03379E-04-6.95819E-14
 -1      2450 9.43380E-03 5.07522E-04-6.77896E-14
 -1      2451 9.35195E-03 4.72449E-04-6.69661E-14
 -1      2452 9.88449E-03 4.96124E-04-7.32031E-14
 -1      2453 9.73326E-03 4.99510E-04-7.13864E-14
 -1      2454 9.64670E-03 4.64183E-04-7.05477E-14
 -1      2455 1.01901E-02 4.91986E-04-7.68690E-14
 -1      2456 1.00366E-02 4.93509E-04-7.50322E-14
 -1      2457 9.94360E-03 4.57448E-04-7.41768E-14
 -1      2458 1.05010E-02 4.94306E-04-8.05599E-14
 -1      2459 1.03447E-02 4.92085E-04-7.87108E-14
 -1      2460 1.02430E-02 4.54411E-04-7.78466E-14
 -1      2461 1.08180E-02 5.08626E-04-8.42692E-14
 -1      2462 1.06585E-02 4.99553E-04-8.24138E-14
 -1      2463 1.05451E-02 4.58666E-04-8.15391E-14
 -1      2464 1.11429E-02 5.43854E-04-8.79866E-14
 -1      2465 1.09793E-02 5.22954E-04-8.61272E-14
 -1      2466 1.08509E-02 4.76003E-04-8.52465E-14
 -1      2467 1.14785E-02 6.13702E-04-9.17102E-14
 -1      2468 1.13092E-02 5.73351E-04-8.98482E-14
 -1      2469 1.11621E-02 5.15434E-04-8.89634E-14
 -1      2470 1.18297E-02 7.37868E-04-9.54328E-14
 -1      2471 1.16520E-02 6.67299E-04-9.35710E-14
 -1      2472 1.14833E-02 5.90659E-04-9.26857E-14
 -1      2473 1.22045E-02 9.41822E-04-9.91532E-14
 -1      2474 1.20146E-02 8.27840E-04-9.72926E-14
 -1      2475 1.18236E-02 7.21470E-04-9.64087E-14
 -1      2476 1.26099E-02 1.24522E-03-1.02870E-13
 -1      2477 1.24052E-02 1.07907E-03-1.01013E-13
 -1      2478 1.21985E-02 9.34256E-04-1.00131E-13
 -1      2479 1.30391E-02 1.64529E-03-1.06578E-13
 -1      2480 1.28253E-02 1.43572E-03-1.04725E-13
 -1      2481 1.26201E-02 1.25380E-03-1.03849E-13
 -1      2482 1.34618E-02 2.06330E-03-1.10270E-13
 -1      2483 1.32623E-02 1.87255E-03-1.08419E-13
 -1      2484 1.38239E-02 2.28885E-03-1.13964E-13
 -1      2485 1.36464E-02 2.21322E-03-1.12115E-13
 -1      2486 1.41632E-02 2.18354E-03-1.17677E-13
 -1      2487 1.39922E-02 2.27919E-03-1.15821E-13
 -1      2488 1.45276E-02 1.77522E-03-1.21405E-13
 -1      2489 1.43492E-02 2.00446E-03-1.19545E-13
 -1      2490 1.47309E-02 1.48162E-03-1.23452E-13
 -1      2491 1.60518E-02 4.54107E-04-1.25545E-13
 -1      2492 1.54380E-02 1.33382E-03-1.23262E-13
 -1      2493 1.52584E-02 2.40393E-04-1.25087E-13
 -1      2494 1.56679E-02 3.45641E-04-1.25263E-13
 -1      2495 1.55797E-02 2.21752E-04-1.24193E-13
 -1      2496 1.49236E-02 2.01184E-05-1.23636E-13
 -1      2497 1.65793E-02 8.84456E-04-1.25210E-13
 -1      2498 1.40356E-02-1.60047E-04-1.24600E-13
 -1      2499 1.41325E-02-1.18322E-04-1.24561E-13
 -1      2500 1.38736E-02-2.94265E-04-1.22966E-13
 -1      2501 5.88550E-04-2.37906E-04-3.84512E-16
 -1      2502 7.81369E-04-3.04741E-04-6.11761E-16
 -1      2503 8.40790E-04-2.93511E-04-7.49821E-16
 -1      2504 5.79005E-04-2.10106E-04-4.09720E-16
 -1      2505 1.74064E-02 7.98172E-04-1.27985E-13
 -1      2506 1.42586E-02-7.57407E-05-1.24520E-13
 -1      2507 1.44244E-02-2.97008E-05-1.24483E-13
 -1      2508 1.40582E-02-2.41260E-04-1.22888E-13
 -1      2509 1.38117E-02-3.31109E-04-1.24761E-13
 -1      2510 1.38523E-02-2.86988E-04-1.24719E-13
 -1      2511 1.37565E-02-3.55471E-04-1.23044E-13
 -1      2512 1.37881E-02-3.84032E-04-1.25366E-13
 -1      2513 1.69162E-02 7.16567E-04-1.26632E-13
 -1      2514 1.17136E-02 2.68004E-04-1.03404E-13
 -1      2515 1.15235E-02 3.40495E-04-1.02671E-13
 -1      2516 1.18877E-02 7.93300E-04-1.03626E-13
 -1      2517 1.21085E-02 9.27228E-04-1.04474E-13
 -1      2518 5.46539E-04-2.28882E-05-4.83771E-16
 -1      2519 5.47000E-04-3.89202E-05-4.82646E-16
 -1      2520 6.62452E-04-5.57883E-05-6.52093E-16
 -1      2521 6.61214E-04-1.76967E-05-6.54858E-16
 -1      2522 1.44140E-02 2.11941E-03-1.18089E-13
 -1      2523 1.46638E-02 1.94678E-03-1.19500E-13
 -1      2524 1.23279E-02 1.07243E-03-1.05252E-13
 -1      2525 1.25530E-02 1.23433E-03-1.06029E-13
 -1      2526 1.22159E-02 9.69570E-04-1.04026E-13
 -1      2527 1.40882E-02 2.26891E-03-1.15783E-13
 -1      2528 1.42207E-02 2.22045E-03-1.16885E-13
 -1      2529 1.36919E-02 2.18964E-03-1.12478E-13
 -1      2530 1.38620E-02 2.26769E-03-1.13924E-13
 -1      2531 1.33052E-02 1.88356E-03-1.09590E-13
 -1      2532 1.34530E-02 2.02099E-03-1.10625E-13
 -1      2533 1.12072E-02 4.45802E-04-1.01187E-13
 -1      2534 1.11913E-02 4.61064E-04-1.01135E-13
 -1      2535 1.28307E-02 1.45699E-03-1.07180E-13
 -1      2536 1.30792E-02 1.68106E-03-1.08444E-13
 -1      2537 1.31523E-02 1.74349E-03-1.08249E-13
 -1      2538 1.26840E-02 1.32139E-03-1.05954E-13
 -1      2539 1.15081E-02 6.05035E-04-1.02352E-13
 -1      2540 1.16586E-02 6.70379E-04-1.02802E-13
 -1      2541 1.21689E-02 4.87846E-05-1.05223E-13
 -1      2542 1.19433E-02 1.64126E-04-1.04337E-13
 -1      2543 1.13702E-02 3.94604E-04-1.02037E-13
 -1      2544 1.12809E-02 4.19897E-04-1.01665E-13
 -1      2545 1.41250E-02-5.73126E-04-1.18307E-13
 -1      2546 1.39470E-02-6.41372E-04-1.17097E-13
 -1      2547 1.25921E-02-1.96824E-04-1.07251E-13
 -1      2548 1.24137E-02-8.85764E-05-1.06317E-13
 -1      2549 1.30260E-02-4.62242E-04-1.09927E-13
 -1      2550 1.28133E-02-3.30240E-04-1.08557E-13
 -1      2551 1.33687E-02-6.30941E-04-1.12539E-13
 -1      2552 1.32338E-02-5.71284E-04-1.11440E-13
 -1      2553 1.37274E-02-6.80910E-04-1.15578E-13
 -1      2554 1.35538E-02-6.75862E-04-1.14103E-13
 -1      2555 1.44947E-02-3.46336E-04-1.20727E-13
 -1      2556 1.43054E-02-4.65089E-04-1.19644E-13
 -1      2557 1.51678E-02 1.54230E-03-1.22059E-13
 -1      2558 1.52268E-02 1.37325E-03-1.23389E-13
 -1      2559 6.70220E-04-1.37893E-04-6.27116E-16
 -1      2560 5.54608E-04-1.26150E-04-4.57913E-16
 -1      2561 5.57775E-04-1.46144E-04-4.47220E-16
 -1      2562 1.36137E-02-4.89548E-04-1.23090E-13
 -1      2563 1.37356E-02-3.94543E-04-1.24163E-13
 -1      2564 1.36362E-02-4.47768E-04-1.22485E-13
 -1      2565 1.34902E-02-5.55986E-04-1.21286E-13
 -1      2566 1.50165E-02 1.42043E-03-1.23410E-13
 -1      2567 1.34546E-02-5.62008E-04-1.20295E-13
 -1      2568 1.35507E-02 2.11895E-03-1.11241E-13
 -1      2569 1.34423E-02-6.59850E-04-1.13369E-13
 -1      2570 1.30907E-02-5.14880E-04-1.10290E-13
 -1      2571 1.26935E-02-2.77218E-04-1.07472E-13
 -1      2572 1.41575E-02-4.98399E-04-1.19312E-13
 -1      2573 5.71843E-04-1.85133E-04-4.29913E-16
 -1      2574 1.14402E-02 3.54241E-04-1.01481E-13
 -1      2575 1.44012E-02-1.47766E-04-1.23102E-13
 -1      2576 1.43105E-02 2.13722E-03-1.18008E-13
 -1      2577 1.17811E-02 7.12456E-04-1.02427E-13
 -1      2578 1.71454E-02 7.07095E-04-1.26685E-13
 -1      2579 1.18082E-02 2.12050E-04-1.03046E-13
 -1      2580 1.49361E-02 1.72910E-03-1.20986E-13
 -1      2581 1.11990E-02 4.62521E-04-1.00555E-13
 -1      2582 1.14097E-02 5.50089E-04-1.01411E-13
 -1      2583 1.46917E-02-1.85956E-04-1.22080E-13
 -1      2584 1.44957E-02-2.29534E-04-1.22003E-13
 -1      2585 1.37885E-02-6.56096E-04-1.16454E-13
 -1      2586 1.12187E-02 4.19148E-04-1.00369E-13
 -1      2587 1.22609E-02-1.78014E-05-1.05072E-13
 -1      2588 1.47331E-02 1.80773E-03-1.20698E-13
 -1      2589 1.52796E-02 7.96454E-05-1.23468E-13
 -1      2590 1.23295E-02-8.53617E-05-1.04844E-13
 -1      2591 1.21171E-02 3.66930E-05-1.03752E-13
 -1      2592 7.80129E-04 7.73002E-05-8.39227E-16
 -1      2593 7.78861E-04 5.54477E-05-8.45176E-16
 -1      2594 7.78010E-04 3.35450E-05-8.49581E-16
 -1      2595 7.77585E-04 1.18902E-05-8.52305E-16
 -1      2596 8.96409E-04 4.96609E-05-1.07218E-15
 -1      2597 7.91517E-04 1.73059E-04-7.93135E-16
 -1      2598 7.87494E-04 1.47657E-04-8.08842E-16
 -1      2599 8.03384E-04 2.28252E-04-7.51230E-16
 -1      2600 7.96769E-04 1.99861E-04-7.74297E-16
 -1      2601 9.14813E-04 2.07720E-04-9.96097E-16
 -1      2602 8.46308E-04 3.25131E-04-6.70037E-16
 -1      2603 2.26931E-03 4.78515E-04-4.66467E-15
 -1      2604 2.12748E-03 4.71657E-04-4.11182E-15
 -1      2605 1.70128E-03 4.40452E-04-2.65995E-15
 -1      2606 1.55881E-03 4.25580E-04-2.24639E-15
 -1      2607 1.41612E-03 4.07770E-04-1.86857E-15
 -1      2608 1.27308E-03 3.86758E-04-1.52622E-15
 -1      2609 1.47614E-03 3.82107E-04-2.10354E-15
 -1      2610 1.21052E-02 8.77641E-04-1.02652E-13
 -1      2611 1.22957E-02 1.00555E-03-1.03429E-13
 -1      2612 1.32019E-03-3.62676E-04-1.76354E-15
 -1      2613 1.46342E-03-3.81655E-04-2.13433E-15
 -1      2614 1.60647E-03-3.97738E-04-2.54069E-15
 -1      2615 1.74940E-03-4.11150E-04-2.98326E-15
 -1      2616 1.52500E-03-3.55330E-04-2.37355E-15
 -1      2617 1.89218E-03-4.22362E-04-3.46130E-15
 -1      2618 2.03484E-03-4.31563E-04-3.97439E-15
 -1      2619 1.81168E-03-3.81237E-04-3.26299E-15
 -1      2620 2.17740E-03-4.39129E-04-4.52233E-15
 -1      2621 2.31987E-03-4.45212E-04-5.10475E-15
 -1      2622 2.09814E-03-3.99106E-04-4.29282E-15
 -1      2623 2.46229E-03-4.50104E-04-5.72128E-15
 -1      2624 2.60466E-03-4.53925E-04-6.37190E-15
 -1      2625 2.38432E-03-4.10961E-04-5.46018E-15
 -1      2626 2.74702E-03-4.56896E-04-7.05638E-15
 -1      2627 2.88935E-03-4.59112E-04-7.77350E-15
 -1      2628 2.67026E-03-4.18425E-04-6.76285E-15
 -1      2629 3.03171E-03-4.60737E-04-8.52325E-15
 -1      2630 3.17406E-03-4.61842E-04-9.30576E-15
 -1      2631 2.95603E-03-4.22762E-04-8.19796E-15
 -1      2632 3.31644E-03-4.62548E-04-1.01214E-14
 -1      2633 3.45883E-03-4.62908E-04-1.09688E-14
 -1      2634 3.24170E-03-4.24930E-04-9.76278E-15
 -1      2635 3.60126E-03-4.63010E-04-1.18466E-14
 -1      2636 3.74370E-03-4.62891E-04-1.27556E-14
 -1      2637 3.52731E-03-4.25643E-04-1.14560E-14
 -1      2638 3.88619E-03-4.62613E-04-1.36953E-14
 -1      2639 4.02870E-03-4.62202E-04-1.46641E-14
 -1      2640 3.81289E-03-4.25419E-04-1.32730E-14
 -1      2641 4.17124E-03-4.61699E-04-1.56622E-14
 -1      2642 4.31380E-03-4.61122E-04-1.66894E-14
 -1      2643 4.09846E-03-4.24622E-04-1.52094E-14
 -1      2644 4.45640E-03-4.60497E-04-1.77447E-14
 -1      2645 4.59902E-03-4.59836E-04-1.88273E-14
 -1      2646 4.38404E-03-4.23500E-04-1.72617E-14
 -1      2647 4.74167E-03-4.59152E-04-1.99365E-14
 -1      2648 4.88434E-03-4.58452E-04-2.10724E-14
 -1      2649 4.66964E-03-4.22212E-04-1.94253E-14
 -1      2650 5.02703E-03-4.57741E-04-2.22354E-14
 -1      2651 5.16974E-03-4.57023E-04-2.34248E-14
 -1      2652 4.95525E-03-4.20847E-04-2.16962E-14
 -1      2653 5.31247E-03-4.56296E-04-2.46397E-14
 -1      2654 5.45522E-03-4.55560E-04-2.58790E-14
 -1      2655 5.24088E-03-4.19447E-04-2.40730E-14
 -1      2656 5.59799E-03-4.54810E-04-2.71440E-14
 -1      2657 5.74078E-03-4.54042E-04-2.84343E-14
 -1      2658 5.52654E-03-4.18011E-04-2.65524E-14
 -1      2659 5.88358E-03-4.53249E-04-2.97489E-14
 -1      2660 6.02640E-03-4.52425E-04-3.10867E-14
 -1      2661 5.81221E-03-4.16514E-04-2.91302E-14
 -1      2662 6.16924E-03-4.51559E-04-3.24488E-14
 -1      2663 6.31210E-03-4.50646E-04-3.38363E-14
 -1      2664 6.09792E-03-4.14907E-04-3.18058E-14
 -1      2665 6.45498E-03-4.49671E-04-3.52457E-14
 -1      2666 6.59788E-03-4.48629E-04-3.66764E-14
 -1      2667 6.38365E-03-4.13124E-04-3.45744E-14
 -1      2668 6.74081E-03-4.47507E-04-3.81314E-14
 -1      2669 6.88376E-03-4.46295E-04-3.96072E-14
 -1      2670 6.66941E-03-4.11090E-04-3.74366E-14
 -1      2671 7.02674E-03-4.44983E-04-4.11049E-14
 -1      2672 7.16975E-03-4.43562E-04-4.26233E-14
 -1      2673 6.95521E-03-4.08724E-04-4.03866E-14
 -1      2674 7.31280E-03-4.42022E-04-4.41617E-14
 -1      2675 7.45590E-03-4.40359E-04-4.57195E-14
 -1      2676 7.24106E-03-4.05945E-04-4.34201E-14
 -1      2677 7.59905E-03-4.38564E-04-4.72967E-14
 -1      2678 7.74226E-03-4.36637E-04-4.88925E-14
 -1      2679 7.52698E-03-4.02683E-04-4.65324E-14
 -1      2680 7.88553E-03-4.34577E-04-5.05062E-14
 -1      2681 8.02889E-03-4.32390E-04-5.21404E-14
 -1      2682 7.81300E-03-3.98894E-04-4.97217E-14
 -1      2683 8.17233E-03-4.30087E-04-5.37930E-14
 -1      2684 8.31588E-03-4.27681E-04-5.54618E-14
 -1      2685 8.09916E-03-3.94574E-04-5.29858E-14
 -1      2686 8.45955E-03-4.25201E-04-5.71476E-14
 -1      2687 8.60337E-03-4.22673E-04-5.88475E-14
 -1      2688 8.38555E-03-3.89788E-04-5.63204E-14
 -1      2689 8.74735E-03-4.20149E-04-6.05614E-14
 -1      2690 8.89153E-03-4.17675E-04-6.22892E-14
 -1      2691 8.67228E-03-3.84705E-04-5.97178E-14
 -1      2692 9.03593E-03-4.15332E-04-6.40316E-14
 -1      2693 9.18060E-03-4.13193E-04-6.57866E-14
 -1      2694 8.95954E-03-3.79635E-04-6.31693E-14
 -1      2695 9.32558E-03-4.11375E-04-6.75532E-14
 -1      2696 9.47091E-03-4.09989E-04-6.93300E-14
 -1      2697 9.24759E-03-3.75087E-04-6.66765E-14
 -1      2698 9.61667E-03-4.09191E-04-7.11174E-14
 -1      2699 9.76290E-03-4.09137E-04-7.29141E-14
 -1      2700 9.53684E-03-3.71823E-04-7.02282E-14
 -1      2701 9.90969E-03-4.10023E-04-7.47182E-14
 -1      2702 1.00571E-02-4.12062E-04-7.65322E-14
 -1      2703 9.82787E-03-3.70921E-04-7.38182E-14
 -1      2704 1.02053E-02-4.15478E-04-7.83526E-14
 -1      2705 1.03542E-02-4.20542E-04-8.01789E-14
 -1      2706 1.01214E-02-3.73820E-04-7.74431E-14
 -1      2707 1.05041E-02-4.27483E-04-8.20092E-14
 -1      2708 1.06549E-02-4.36618E-04-8.38452E-14
 -1      2709 1.04185E-02-3.82346E-04-8.10941E-14
 -1      2710 1.08068E-02-4.48140E-04-8.56867E-14
 -1      2711 1.09596E-02-4.62363E-04-8.75303E-14
 -1      2712 1.07202E-02-3.98651E-04-8.47657E-14
 -1      2713 1.11137E-02-4.79368E-04-8.93800E-14
 -1      2714 1.12685E-02-4.99369E-04-9.12356E-14
 -1      2715 1.10273E-02-4.25019E-04-8.84543E-14
 -1      2716 1.14244E-02-5.22229E-04-9.30943E-14
 -1      2717 1.15805E-02-5.47862E-04-9.49587E-14
 -1      2718 1.13403E-02-4.63379E-04-9.21615E-14
 -1      2719 1.17370E-02-5.75790E-04-9.68299E-14
 -1      2720 1.18930E-02-6.05322E-04-9.87063E-14
 -1      2721 1.16581E-02-5.14336E-04-9.58891E-14
 -1      2722 1.20480E-02-6.35504E-04-1.00590E-13
 -1      2723 1.22013E-02-6.64756E-04-1.02478E-13
 -1      2724 1.19774E-02-5.75497E-04-9.96418E-14
 -1      2725 1.23521E-02-6.91603E-04-1.04370E-13
 -1      2726 1.24999E-02-7.13433E-04-1.06269E-13
 -1      2727 1.22924E-02-6.39246E-04-1.03414E-13
 -1      2728 1.26438E-02-7.28446E-04-1.08170E-13
 -1      2729 1.27842E-02-7.33556E-04-1.10076E-13
 -1      2730 1.25959E-02-6.90820E-04-1.07206E-13
 -1      2731 1.29204E-02-7.27194E-04-1.11984E-13
 -1      2732 1.30540E-02-7.06938E-04-1.13892E-13
 -1      2733 1.28825E-02-7.09203E-04-1.11009E-13
 -1      2734 1.31846E-02-6.72136E-04-1.15803E-13
 -1      2735 1.33147E-02-6.22426E-04-1.17715E-13
 -1      2736 1.31526E-02-6.73433E-04-1.14820E-13
 -1      2737 1.98555E-03 4.63180E-04-3.59315E-15
 -1      2738 1.84350E-03 4.52918E-04-3.10902E-15
 -1      2739 1.76217E-03 4.11133E-04-2.93774E-15
 -1      2740 1.39492E-02 2.28456E-03-1.14946E-13
 -1      2741 2.55286E-03 4.88459E-04-5.87276E-15
 -1      2742 2.41110E-03 4.84072E-04-5.25205E-15
 -1      2743 2.33280E-03 4.44731E-04-5.02240E-15
 -1      2744 2.83641E-03 4.94544E-04-7.21312E-15
 -1      2745 2.69463E-03 4.91915E-04-6.52665E-15
 -1      2746 2.61769E-03 4.53365E-04-6.26849E-15
 -1      2747 3.12010E-03 4.97926E-04-8.68484E-15
 -1      2748 2.97824E-03 4.96520E-04-7.93263E-15
 -1      2749 2.90248E-03 4.58539E-04-7.64547E-15
 -1      2750 3.40401E-03 4.99466E-04-1.02850E-14
 -1      2751 3.26204E-03 4.98887E-04-9.46900E-15
 -1      2752 3.18727E-03 4.61304E-04-9.15201E-15
 -1      2753 3.68817E-03 4.99794E-04-1.20128E-14
 -1      2754 3.54607E-03 4.99753E-04-1.11328E-14
 -1      2755 3.47212E-03 4.62441E-04-1.07868E-14
 -1      2756 3.97257E-03 4.99361E-04-1.38654E-14
 -1      2757 3.83034E-03 4.99653E-04-1.29242E-14
 -1      2758 3.75706E-03 4.62520E-04-1.25477E-14
 -1      2759 4.25720E-03 4.98479E-04-1.58406E-14
 -1      2760 4.11486E-03 4.98963E-04-1.48376E-14
 -1      2761 4.04211E-03 4.61943E-04-1.44330E-14
 -1      2762 4.54204E-03 4.97351E-04-1.79325E-14
 -1      2763 4.39960E-03 4.97937E-04-1.68723E-14
 -1      2764 4.32726E-03 4.60988E-04-1.64380E-14
 -1      2765 4.82705E-03 4.96104E-04-2.01396E-14
 -1      2766 4.68453E-03 4.96737E-04-1.90223E-14
 -1      2767 4.61251E-03 4.59833E-04-1.85592E-14
 -1      2768 5.11223E-03 4.94801E-04-2.24565E-14
 -1      2769 4.96963E-03 4.95457E-04-2.12847E-14
 -1      2770 4.89786E-03 4.58585E-04-2.07929E-14
 -1      2771 5.39754E-03 4.93462E-04-2.48770E-14
 -1      2772 5.25487E-03 4.94136E-04-2.36535E-14
 -1      2773 5.18329E-03 4.57293E-04-2.31355E-14
 -1      2774 5.68297E-03 4.92069E-04-2.74003E-14
 -1      2775 5.54024E-03 4.92774E-04-2.61265E-14
 -1      2776 5.46880E-03 4.55965E-04-2.55815E-14
 -1      2777 5.96852E-03 4.90579E-04-3.00219E-14
 -1      2778 5.82573E-03 4.91339E-04-2.86983E-14
 -1      2779 5.75438E-03 4.54578E-04-2.81277E-14
 -1      2780 6.25418E-03 4.88925E-04-3.27387E-14
 -1      2781 6.11133E-03 4.89776E-04-3.13689E-14
 -1      2782 6.04003E-03 4.53081E-04-3.07718E-14
 -1      2783 6.53997E-03 4.87024E-04-3.55450E-14
 -1      2784 6.39705E-03 4.88010E-04-3.41304E-14
 -1      2785 6.32576E-03 4.51406E-04-3.35089E-14
 -1      2786 6.82590E-03 4.84779E-04-3.84413E-14
 -1      2787 6.68291E-03 4.85950E-04-3.69830E-14
 -1      2788 6.61157E-03 4.49466E-04-3.63359E-14
 -1      2789 7.11203E-03 4.82080E-04-4.14203E-14
 -1      2790 6.96894E-03 4.83492E-04-3.99209E-14
 -1      2791 6.89748E-03 4.47164E-04-3.92505E-14
 -1      2792 7.39838E-03 4.78811E-04-4.44834E-14
 -1      2793 7.25517E-03 4.80522E-04-4.29414E-14
 -1      2794 7.18350E-03 4.44390E-04-4.22501E-14
 -1      2795 7.68504E-03 4.74855E-04-4.76207E-14
 -1      2796 7.54166E-03 4.76924E-04-4.60422E-14
 -1      2797 7.46968E-03 4.41031E-04-4.53303E-14
 -1      2798 7.97206E-03 4.70104E-04-5.08346E-14
 -1      2799 7.82849E-03 4.72583E-04-4.92178E-14
 -1      2800 7.75602E-03 4.36978E-04-4.84871E-14
 -1      2801 8.25956E-03 4.64473E-04-5.41210E-14
 -1      2802 8.11574E-03 4.67400E-04-5.24697E-14
 -1      2803 8.04255E-03 4.32135E-04-5.17187E-14
 -1      2804 8.54761E-03 4.57928E-04-5.74780E-14
 -1      2805 8.40349E-03 4.61313E-04-5.57904E-14
 -1      2806 8.32929E-03 4.26437E-04-5.50214E-14
 -1      2807 8.83632E-03 4.50520E-04-6.09010E-14
 -1      2808 8.69186E-03 4.54324E-04-5.91829E-14
 -1      2809 8.61624E-03 4.19884E-04-5.83957E-14
 -1      2810 9.12575E-03 4.42446E-04-6.43834E-14
 -1      2811 8.98091E-03 4.46548E-04-6.26354E-14
 -1      2812 8.90333E-03 4.12574E-04-6.18325E-14
 -1      2813 9.41594E-03 4.34141E-04-6.79217E-14
 -1      2814 9.27071E-03 4.38289E-04-6.61442E-14
 -1      2815 9.19044E-03 4.04779E-04-6.53261E-14
 -1      2816 9.70685E-03 4.26424E-04-7.15114E-14
 -1      2817 9.56126E-03 4.30153E-04-6.97114E-14
 -1      2818 9.47735E-03 3.97033E-04-6.88753E-14
 -1      2819 9.99835E-03 4.20713E-04-7.51501E-14
 -1      2820 9.85247E-03 4.23226E-04-7.33260E-14
 -1      2821 9.76368E-03 3.90285E-04-7.24755E-14
 -1      2822 1.02902E-02 4.19350E-04-7.88194E-14
 -1      2823 1.01442E-02 4.19338E-04-7.69814E-14
 -1      2824 1.00489E-02 3.86098E-04-7.61184E-14
 -1      2825 1.05825E-02 4.26076E-04-8.25143E-14
 -1      2826 1.04362E-02 4.21459E-04-8.06649E-14
 -1      2827 1.03323E-02 3.86940E-04-7.97934E-14
 -1      2828 1.08755E-02 4.46679E-04-8.62212E-14
 -1      2829 1.07287E-02 4.34239E-04-8.43661E-14
 -1      2830 1.06135E-02 3.96545E-04-8.34869E-14
 -1      2831 1.11716E-02 4.89837E-04-8.99376E-14
 -1      2832 1.10228E-02 4.64766E-04-8.80777E-14
 -1      2833 1.08926E-02 4.20395E-04-8.71939E-14
 -1      2834 1.14768E-02 5.68515E-04-9.36603E-14
 -1      2835 1.13224E-02 5.23533E-04-9.17993E-14
 -1      2836 1.11720E-02 4.66102E-04-9.09110E-14
 -1      2837 1.18040E-02 7.01528E-04-9.73851E-14
 -1      2838 1.16366E-02 6.25996E-04-9.55226E-14
 -1      2839 1.14596E-02 5.45619E-04-9.46350E-14
 -1      2840 1.22959E-02 9.98839E-04-1.02025E-13
 -1      2841 1.20946E-02 8.62316E-04-1.00161E-13
 -1      2842 1.25139E-02 1.17085E-03-1.03882E-13
 -1      2843 1.30971E-02 1.69757E-03-1.07550E-13
 -1      2844 1.34691E-02-6.68018E-04-1.14009E-13
 -1      2845 1.33210E-02-6.36445E-04-1.12443E-13
 -1      2846 1.43582E-02 2.07968E-03-1.18671E-13
 -1      2847 1.48126E-02 1.57222E-03-1.22586E-13
 -1      2848 1.37228E-02-4.06360E-04-1.21331E-13
 -1      2849 1.37915E-02-3.89300E-04-1.21296E-13
 -1      2850 1.38787E-02-3.76929E-04-1.21258E-13
 -1      2851 1.39845E-02-3.65998E-04-1.21217E-13
 -1      2852 1.37111E-02-4.82518E-04-1.19623E-13
 -1      2853 1.36468E-02-4.32989E-04-1.21927E-13
 -1      2854 1.36924E-02-4.04938E-04-1.21888E-13
 -1      2855 1.36044E-02-4.76908E-04-1.20217E-13
 -1      2856 1.35694E-02-4.86220E-04-1.21328E-13
 -1      2857 1.49632E-02-1.41735E-05-1.23191E-13
 -1      2858 1.16746E-02 6.40751E-04-1.01006E-13
 -1      2859 1.18845E-02 7.47429E-04-1.01829E-13
 -1      2860 1.19635E-02 7.86495E-04-1.01234E-13
 -1      2861 1.11631E-02 4.35959E-04-9.92358E-14
 -1      2862 1.12282E-02 4.66807E-04-9.98980E-14
 -1      2863 1.38591E-02-6.03023E-04-1.17667E-13
 -1      2864 1.36812E-02-6.53040E-04-1.16146E-13
 -1      2865 1.14884E-02 3.10555E-04-1.00646E-13
 -1      2866 1.13498E-02 3.53113E-04-1.00012E-13
 -1      2867 1.13254E-02 5.00517E-04-1.00093E-13
 -1      2868 1.14630E-02 5.46068E-04-1.00284E-13
 -1      2869 1.12537E-02 4.63212E-04-9.87733E-14
 -1      2870 1.03375E-03-3.14157E-04-1.13031E-15
 -1      2871 1.17699E-03-3.40272E-04-1.42869E-15
 -1      2872 1.23843E-03-3.18996E-04-1.62617E-15
 -1      2873 1.12366E-02 3.88355E-04-9.94970E-14
 -1      2874 1.11682E-02 4.03436E-04-9.90182E-14
 -1      2875 7.84338E-04 1.23409E-04-8.21134E-16
 -1      2876 7.81941E-04 9.99819E-05-8.31217E-16
 -1      2877 8.99537E-04 9.94118E-05-1.05721E-15
 -1      2878 9.05295E-04 1.51536E-04-1.03287E-15
 -1      2879 1.27555E-02-3.47453E-04-1.07562E-13
 -1      2880 1.25676E-02-2.30857E-04-1.06256E-13
 -1      2881 1.31222E-02-5.64024E-04-1.10579E-13
 -1      2882 1.29516E-02-4.68642E-04-1.09065E-13
 -1      2883 7.81675E-04-9.79293E-05-8.42899E-16
 -1      2884 7.83996E-04-1.21279E-04-8.35242E-16
 -1      2885 1.42490E-02-2.92162E-04-1.21750E-13
 -1      2886 6.88557E-04-2.03939E-04-5.96691E-16
 -1      2887 1.34616E-02-5.48144E-04-1.19738E-13
 -1      2888 1.18890E-02 1.52239E-04-1.02648E-13
 -1      2889 1.16859E-02 2.40640E-04-1.01717E-13
 -1      2890 1.40136E-02-4.40692E-04-1.20119E-13
 -1      2891 1.24087E-02-1.68877E-04-1.04933E-13
 -1      2892 8.95380E-04 1.00778E-06-1.07920E-15
 -1      2893 7.77556E-04-9.71872E-06-8.53660E-16
 -1      2894 7.77923E-04-3.13578E-05-8.53619E-16
 -1      2895 9.65968E-04 3.42416E-04-8.84357E-16
 -1      2896 8.25856E-04 2.95464E-04-6.87926E-16
 -1      2897 8.14423E-04 2.62628E-04-7.21699E-16
 -1      2898 1.08012E-03 3.61255E-04-1.10198E-15
 -1      2899 1.15452E-02 5.73887E-04-9.96893E-14
 -1      2900 2.04768E-03 4.31252E-04-3.91144E-15
 -1      2901 1.13939E-03 3.41880E-04-1.28557E-15
 -1      2902 1.11187E-02 3.80987E-04-9.74920E-14
 -1      2903 1.11343E-02 4.08283E-04-9.83633E-14
 -1      2904 1.11251E-02 4.08562E-04-9.77086E-14
 -1      2905 1.34318E-02-5.63419E-04-1.18750E-13
 -1      2906 1.47684E-02 1.72405E-03-1.21362E-13
 -1      2907 1.18748E-02 7.30497E-04-9.92764E-14
 -1      2908 1.28926E-02 1.49557E-03-1.06405E-13
 -1      2909 1.26569E-02 1.28767E-03-1.05255E-13
 -1      2910 1.35505E-02-6.61936E-04-1.15215E-13
 -1      2911 1.34302E-02-6.58796E-04-1.14285E-13
 -1      2912 1.36166E-02-6.30660E-04-1.16424E-13
 -1      2913 1.31693E-02-6.02957E-04-1.11213E-13
 -1      2914 1.15556E-02 2.55878E-04-1.00246E-13
 -1      2915 9.32414E-04 2.73972E-04-9.40491E-16
 -1      2916 1.19657E-02 8.08864E-05-1.02420E-13
 -1      2917 7.87071E-04-1.45423E-04-8.25512E-16
 -1      2918 7.90997E-04-1.70599E-04-8.12623E-16
 -1      2919 9.04829E-04-1.49023E-04-1.05211E-15
 -1      2920 7.78705E-04-5.31323E-05-8.51614E-16
 -1      2921 7.79929E-04-7.53142E-05-8.48185E-16
 -1      2922 8.99249E-04-9.70651E-05-1.07007E-15
 -1      2923 8.96278E-04-4.75131E-05-1.07865E-15
 -1      2924 1.12608E-02 3.48485E-04-9.86621E-14
 -1      2925 1.28113E-02-4.22992E-04-1.07846E-13
 -1      2926 1.45398E-02 1.93642E-03-1.19877E-13
 -1      2927 1.38847E-02-5.36846E-04-1.18782E-13
 -1      2928 8.03068E-04-2.03262E-04-8.03570E-16
 -1      2929 8.21709E-04-2.53785E-04-7.75625E-16
 -1      2930 9.52843E-04-2.88178E-04-9.93224E-16
 -1      2931 9.21139E-04-2.11201E-04-1.03018E-15
 -1      2932 1.01523E-03-2.72323E-04-1.15619E-15
 -1      2933 1.20180E-02 9.82257E-06-1.02068E-13
 -1      2934 1.18188E-02 1.10253E-04-1.00966E-13
 -1      2935 1.04025E-03 2.43244E-04-1.22141E-15
 -1      2936 1.03361E-03 2.11488E-04-1.24708E-15
 -1      2937 2.68334E-03 4.17817E-04-6.66779E-15
 -1      2938 2.54036E-03 4.14579E-04-6.00999E-15
 -1      2939 1.44457E-03-3.13675E-04-2.20697E-15
 -1      2940 1.58807E-03-3.28150E-04-2.61871E-15
 -1      2941 1.82458E-03 3.81091E-04-3.22122E-15
 -1      2942 1.68122E-03 3.69500E-04-2.76572E-15
 -1      2943 1.73166E-03-3.40397E-04-3.06587E-15
 -1      2944 1.87532E-03-3.50610E-04-3.54782E-15
 -1      2945 1.65233E-03-3.00076E-04-2.87025E-15
 -1      2946 2.01898E-03-3.59108E-04-4.06439E-15
 -1      2947 2.16261E-03-3.66046E-04-4.61530E-15
 -1      2948 1.94010E-03-3.19301E-04-3.83749E-15
 -1      2949 2.30621E-03-3.71702E-04-5.20036E-15
 -1      2950 2.44975E-03-3.76202E-04-5.81917E-15
 -1      2951 2.22812E-03-3.32443E-04-4.94216E-15
 -1      2952 2.59324E-03-3.79770E-04-6.47111E-15
 -1      2953 2.73666E-03-3.82503E-04-7.15691E-15
 -1      2954 2.51607E-03-3.41007E-04-6.18167E-15
 -1      2955 2.88004E-03-3.84577E-04-7.87437E-15
 -1      2956 3.02335E-03-3.86066E-04-8.62412E-15
 -1      2957 2.80381E-03-3.46231E-04-7.55304E-15
 -1      2958 3.16663E-03-3.87102E-04-9.40701E-15
 -1      2959 3.30985E-03-3.87741E-04-1.02220E-14
 -1      2960 3.09128E-03-3.49092E-04-9.05393E-15
 -1      2961 3.45304E-03-3.88080E-04-1.10680E-14
 -1      2962 3.59618E-03-3.88159E-04-1.19445E-14
 -1      2963 3.37849E-03-3.50334E-04-1.06822E-14
 -1      2964 3.73929E-03-3.88048E-04-1.28527E-14
 -1      2965 3.88237E-03-3.87776E-04-1.37909E-14
 -1      2966 3.66543E-03-3.50506E-04-1.24352E-14
 -1      2967 4.02542E-03-3.87391E-04-1.47582E-14
 -1      2968 4.16845E-03-3.86912E-04-1.57553E-14
 -1      2969 3.95214E-03-3.50006E-04-1.43098E-14
 -1      2970 4.31145E-03-3.86372E-04-1.67805E-14
 -1      2971 4.45444E-03-3.85781E-04-1.78346E-14
 -1      2972 4.23866E-03-3.49108E-04-1.63016E-14
 -1      2973 4.59741E-03-3.85161E-04-1.89148E-14
 -1      2974 4.74036E-03-3.84518E-04-2.00222E-14
 -1      2975 4.52500E-03-3.47995E-04-1.84068E-14
 -1      2976 4.88330E-03-3.83862E-04-2.11586E-14
 -1      2977 5.02623E-03-3.83195E-04-2.23203E-14
 -1      2978 4.81121E-03-3.46778E-04-2.06214E-14
 -1      2979 5.16915E-03-3.82522E-04-2.35078E-14
 -1      2980 5.31206E-03-3.81841E-04-2.47221E-14
 -1      2981 5.09730E-03-3.45515E-04-2.29445E-14
 -1      2982 5.45497E-03-3.81151E-04-2.59611E-14
 -1      2983 5.59786E-03-3.80450E-04-2.72249E-14
 -1      2984 5.38329E-03-3.44223E-04-2.53711E-14
 -1      2985 5.74075E-03-3.79731E-04-2.85140E-14
 -1      2986 5.88363E-03-3.78989E-04-2.98266E-14
 -1      2987 5.66920E-03-3.42891E-04-2.78984E-14
 -1      2988 6.02651E-03-3.78217E-04-3.11633E-14
 -1      2989 6.16939E-03-3.77408E-04-3.25234E-14
 -1      2990 5.95504E-03-3.41482E-04-3.05230E-14
 -1      2991 6.31225E-03-3.76552E-04-3.39077E-14
 -1      2992 6.45511E-03-3.75640E-04-3.53146E-14
 -1      2993 6.24081E-03-3.39943E-04-3.32421E-14
 -1      2994 6.59797E-03-3.74662E-04-3.67440E-14
 -1      2995 6.74082E-03-3.73609E-04-3.81956E-14
 -1      2996 6.52651E-03-3.38209E-04-3.60535E-14
 -1      2997 6.88366E-03-3.72470E-04-3.96692E-14
 -1      2998 7.02650E-03-3.71236E-04-4.11639E-14
 -1      2999 6.81212E-03-3.36205E-04-3.89535E-14
 -1      3000 7.16932E-03-3.69895E-04-4.26794E-14
 -1      3001 7.31214E-03-3.68439E-04-4.42148E-14
 -1      3002 7.09762E-03-3.33850E-04-4.19406E-14
 -1      3003 7.45496E-03-3.66861E-04-4.57700E-14
 -1      3004 7.59776E-03-3.65153E-04-4.73449E-14
 -1      3005 7.38301E-03-3.31068E-04-4.50090E-14
 -1      3006 7.74056E-03-3.63312E-04-4.89387E-14
 -1      3007 7.88337E-03-3.61332E-04-5.05502E-14
 -1      3008 7.66826E-03-3.27792E-04-4.81562E-14
 -1      3009 8.02616E-03-3.59219E-04-5.21803E-14
 -1      3010 8.16898E-03-3.56973E-04-5.38295E-14
 -1      3011 7.95337E-03-3.23976E-04-5.13784E-14
 -1      3012 8.31180E-03-3.54611E-04-5.54954E-14
 -1      3013 8.45465E-03-3.52141E-04-5.71777E-14
 -1      3014 8.23832E-03-3.19613E-04-5.46720E-14
 -1      3015 8.59754E-03-3.49595E-04-5.88735E-14
 -1      3016 8.74051E-03-3.46997E-04-6.05840E-14
 -1      3017 8.52319E-03-3.14758E-04-5.80316E-14
 -1      3018 8.88356E-03-3.44398E-04-6.23100E-14
 -1      3019 9.02674E-03-3.41842E-04-6.40493E-14
 -1      3020 8.80805E-03-3.09559E-04-6.14516E-14
 -1      3021 9.17008E-03-3.39408E-04-6.58009E-14
 -1      3022 9.31366E-03-3.37170E-04-6.75642E-14
 -1      3023 9.09314E-03-3.04291E-04-6.49276E-14
 -1      3024 9.45752E-03-3.35235E-04-6.93397E-14
 -1      3025 9.60177E-03-3.33723E-04-7.11255E-14
 -1      3026 9.37882E-03-2.99412E-04-6.84532E-14
 -1      3027 9.74648E-03-3.32769E-04-7.29199E-14
 -1      3028 9.89179E-03-3.32558E-04-7.47224E-14
 -1      3029 9.66569E-03-2.95621E-04-7.20206E-14
 -1      3030 1.00378E-02-3.33252E-04-7.65339E-14
 -1      3031 1.01847E-02-3.35115E-04-7.83531E-14
 -1      3032 9.95465E-03-2.93936E-04-7.56267E-14
 -1      3033 1.03327E-02-3.38331E-04-8.01785E-14
 -1      3034 1.04819E-02-3.43264E-04-8.20093E-14
 -1      3035 1.02470E-02-2.95779E-04-7.92626E-14
 -1      3036 1.06326E-02-3.50100E-04-8.38453E-14
 -1      3037 1.07848E-02-3.59308E-04-8.56852E-14
 -1      3038 1.05444E-02-3.03078E-04-8.29250E-14
 -1      3039 1.09390E-02-3.71050E-04-8.75288E-14
 -1      3040 1.10949E-02-3.85852E-04-8.93775E-14
 -1      3041 1.08488E-02-3.18350E-04-8.66032E-14
 -1      3042 1.12530E-02-4.03800E-04-9.12298E-14
 -1      3043 1.14127E-02-4.25349E-04-9.30876E-14
 -1      3044 1.11623E-02-3.44673E-04-9.03000E-14
 -1      3045 1.15745E-02-4.50404E-04-9.49514E-14
 -1      3046 1.17373E-02-4.79040E-04-9.68201E-14
 -1      3047 1.14857E-02-3.85294E-04-9.40147E-14
 -1      3048 1.19012E-02-5.10833E-04-9.86957E-14
 -1      3049 1.20647E-02-5.44920E-04-1.00576E-13
 -1      3050 1.18182E-02-4.42441E-04-9.77515E-14
 -1      3051 1.22274E-02-5.80370E-04-1.02460E-13
 -1      3052 1.23876E-02-6.14697E-04-1.04350E-13
 -1      3053 1.21548E-02-5.14729E-04-1.01509E-13
 -1      3054 1.25444E-02-6.46351E-04-1.06242E-13
 -1      3055 1.26967E-02-6.70958E-04-1.08138E-13
 -1      3056 1.24862E-02-5.92766E-04-1.05282E-13
 -1      3057 1.28434E-02-6.86370E-04-1.10038E-13
 -1      3058 1.29855E-02-6.88067E-04-1.11937E-13
 -1      3059 1.28010E-02-6.55181E-04-1.09068E-13
 -1      3060 1.31218E-02-6.74305E-04-1.13841E-13
 -1      3061 1.32554E-02-6.41579E-04-1.15747E-13
 -1      3062 1.30919E-02-6.69987E-04-1.12864E-13
 -1      3063 1.12557E-03 3.01207E-04-1.32934E-15
 -1      3064 1.14212E-02 5.15534E-04-9.81539E-14
 -1      3065 1.16107E-02 5.95676E-04-9.88749E-14
 -1      3066 2.96919E-03 4.22158E-04-8.08090E-15
 -1      3067 2.82629E-03 4.20315E-04-7.35815E-15
 -1      3068 2.74976E-03 3.81895E-04-7.07164E-15
 -1      3069 3.25493E-03 4.24377E-04-9.62244E-15
 -1      3070 3.11207E-03 4.23491E-04-8.83568E-15
 -1      3071 3.03652E-03 3.85475E-04-8.52001E-15
 -1      3072 3.54059E-03 4.25173E-04-1.12907E-14
 -1      3073 3.39777E-03 4.24922E-04-1.04407E-14
 -1      3074 3.32307E-03 3.87208E-04-1.00956E-14
 -1      3075 3.82623E-03 4.25053E-04-1.30853E-14
 -1      3076 3.68342E-03 4.25205E-04-1.21725E-14
 -1      3077 3.60945E-03 3.87713E-04-1.17980E-14
 -1      3078 4.11184E-03 4.24376E-04-1.50015E-14
 -1      3079 3.96904E-03 4.24769E-04-1.40283E-14
 -1      3080 3.89568E-03 3.87439E-04-1.36248E-14
 -1      3081 4.39746E-03 4.23385E-04-1.70358E-14
 -1      3082 4.25466E-03 4.23910E-04-1.60039E-14
 -1      3083 4.18180E-03 3.86697E-04-1.55709E-14
 -1      3084 4.68309E-03 4.22232E-04-1.91855E-14
 -1      3085 4.54028E-03 4.22822E-04-1.80967E-14
 -1      3086 4.46782E-03 3.85697E-04-1.76350E-14
 -1      3087 4.96873E-03 4.21006E-04-2.14467E-14
 -1      3088 4.82591E-03 4.21625E-04-2.03026E-14
 -1      3089 4.75378E-03 3.84570E-04-1.98136E-14
 -1      3090 5.25439E-03 4.19743E-04-2.38143E-14
 -1      3091 5.11156E-03 4.20378E-04-2.26173E-14
 -1      3092 5.03967E-03 3.83385E-04-2.21008E-14
 -1      3093 5.54007E-03 4.18443E-04-2.62859E-14
 -1      3094 5.39723E-03 4.19099E-04-2.50370E-14
 -1      3095 5.32553E-03 3.82168E-04-2.44946E-14
 -1      3096 5.82577E-03 4.17076E-04-2.88553E-14
 -1      3097 5.68292E-03 4.17771E-04-2.75589E-14
 -1      3098 5.61135E-03 3.80911E-04-2.69906E-14
 -1      3099 6.11150E-03 4.15589E-04-3.15220E-14
 -1      3100 5.96863E-03 4.16351E-04-3.01773E-14
 -1      3101 5.89715E-03 3.79579E-04-2.95843E-14
 -1      3102 6.39726E-03 4.13909E-04-3.42789E-14
 -1      3103 6.25438E-03 4.14777E-04-3.28892E-14
 -1      3104 6.18293E-03 3.78116E-04-3.22710E-14
 -1      3105 6.68305E-03 4.11952E-04-3.71274E-14
 -1      3106 6.54015E-03 4.12970E-04-3.56921E-14
 -1      3107 6.46869E-03 3.76451E-04-3.50505E-14
 -1      3108 6.96888E-03 4.09619E-04-4.00608E-14
 -1      3109 6.82596E-03 4.10837E-04-3.85836E-14
 -1      3110 6.75442E-03 3.74499E-04-3.79177E-14
 -1      3111 7.25474E-03 4.06806E-04-4.30802E-14
 -1      3112 7.11181E-03 4.08278E-04-4.15606E-14
 -1      3113 7.04011E-03 3.72167E-04-4.08722E-14
 -1      3114 7.54064E-03 4.03407E-04-4.61779E-14
 -1      3115 7.39768E-03 4.05185E-04-4.46190E-14
 -1      3116 7.32573E-03 3.69358E-04-4.39101E-14
 -1      3117 7.82654E-03 3.99324E-04-4.93531E-14
 -1      3118 7.68358E-03 4.01456E-04-4.77564E-14
 -1      3119 7.61125E-03 3.65975E-04-4.70269E-14
 -1      3120 8.11242E-03 3.94481E-04-5.26031E-14
 -1      3121 7.96948E-03 3.97001E-04-5.09681E-14
 -1      3122 7.89660E-03 3.61939E-04-5.02203E-14
 -1      3123 8.39821E-03 3.88842E-04-5.59226E-14
 -1      3124 8.25533E-03 3.91762E-04-5.42548E-14
 -1      3125 8.18168E-03 3.57197E-04-5.34865E-14
 -1      3126 8.68379E-03 3.82449E-04-5.93127E-14
 -1      3127 8.54103E-03 3.85736E-04-5.76098E-14
 -1      3128 8.46633E-03 3.51753E-04-5.68257E-14
 -1      3129 8.96895E-03 3.75464E-04-6.27623E-14
 -1      3130 8.82642E-03 3.79020E-04-6.10298E-14
 -1      3131 8.75031E-03 3.45702E-04-6.02291E-14
 -1      3132 9.25336E-03 3.68243E-04-6.62679E-14
 -1      3133 9.11125E-03 3.71863E-04-6.45081E-14
 -1      3134 9.03325E-03 3.39279E-04-6.36909E-14
 -1      3135 9.53654E-03 3.61435E-04-6.98298E-14
 -1      3136 9.39511E-03 3.64753E-04-6.80431E-14
 -1      3137 9.31464E-03 3.32940E-04-6.72109E-14
 -1      3138 9.81777E-03 3.56119E-04-7.34369E-14
 -1      3139 9.67740E-03 3.58536E-04-7.16262E-14
 -1      3140 9.59371E-03 3.27452E-04-7.07802E-14
 -1      3141 1.00961E-02 3.53987E-04-7.70846E-14
 -1      3142 9.95731E-03 3.54573E-04-7.52576E-14
 -1      3143 9.86945E-03 3.24025E-04-7.43958E-14
 -1      3144 1.03705E-02 3.57564E-04-8.07639E-14
 -1      3145 1.02338E-02 3.54940E-04-7.89215E-14
 -1      3146 1.01405E-02 3.24449E-04-7.80522E-14
 -1      3147 1.06398E-02 3.70445E-04-8.44579E-14
 -1      3148 1.05057E-02 3.62664E-04-8.26077E-14
 -1      3149 1.04053E-02 3.31232E-04-8.17304E-14
 -1      3150 1.09039E-02 3.97556E-04-8.81652E-14
 -1      3151 1.07723E-02 3.81939E-04-8.63105E-14
 -1      3152 1.06622E-02 3.47664E-04-8.54266E-14
 -1      3153 1.11647E-02 4.45057E-04-9.18836E-14
 -1      3154 1.10343E-02 4.18551E-04-9.00229E-14
 -1      3155 1.09103E-02 3.77881E-04-8.91349E-14
 -1      3156 2.39733E-03 4.10410E-04-5.38493E-15
 -1      3157 2.25424E-03 4.05199E-04-4.79281E-15
 -1      3158 2.46278E-03 3.75634E-04-5.75164E-15
 -1      3159 1.35654E-02-5.53439E-04-1.18129E-13
 -1      3160 1.36395E-02-5.57190E-04-1.18092E-13
 -1      3161 1.24529E-02-2.43791E-04-1.04867E-13
 -1      3162 1.22450E-02-1.16412E-04-1.03456E-13
 -1      3163 2.11109E-03 3.98698E-04-4.23476E-15
 -1      3164 1.96786E-03 3.90767E-04-3.71075E-15
 -1      3165 1.88823E-03 3.50380E-04-3.51044E-15
 -1      3166 2.17559E-03 3.65596E-04-4.56369E-15
 -1      3167 1.34505E-02-5.64278E-04-1.18197E-13
 -1      3168 1.32174E-02-6.35776E-04-1.12053E-13
 -1      3169 1.30453E-02-5.81281E-04-1.10188E-13
 -1      3170 1.15850E-03-2.76847E-04-1.48968E-15
 -1      3171 1.30137E-03-2.96643E-04-1.83074E-15
 -1      3172 1.36542E-03-2.73061E-04-2.04205E-15
 -1      3173 1.11809E-02 4.31131E-04-9.76188E-14
 -1      3174 1.12684E-02 4.58750E-04-9.78116E-14
 -1      3175 1.53788E-03 3.55619E-04-2.34505E-15
 -1      3176 1.39450E-03 3.39232E-04-1.95959E-15
 -1      3177 1.60092E-03 3.28269E-04-2.59385E-15
 -1      3178 1.01647E-03 6.81822E-05-1.32031E-15
 -1      3179 1.01529E-03 4.12103E-05-1.32671E-15
 -1      3180 1.28225E-02-4.76738E-04-1.07935E-13
 -1      3181 1.26559E-02-3.73974E-04-1.06432E-13
 -1      3182 1.16220E-02 1.94185E-04-9.98470E-14
 -1      3183 1.14431E-02 2.54711E-04-9.87778E-14
 -1      3184 9.99576E-04-2.33016E-04-1.17406E-15
 -1      3185 1.07877E-03-2.54978E-04-1.32738E-15
 -1      3186 9.86329E-04-1.95929E-04-1.18547E-15
 -1      3187 1.12658E-02 3.05261E-04-9.76060E-14
 -1      3188 1.11675E-02 3.35091E-04-9.70914E-14
 -1      3189 1.24432E-03 3.02212E-04-1.62335E-15
 -1      3190 1.34314E-02-5.88708E-04-1.17213E-13
 -1      3191 1.01469E-03 1.44468E-05-1.33067E-15
 -1      3192 1.01465E-03-1.22154E-05-1.33276E-15
 -1      3193 1.13536E-03 3.01572E-05-1.60770E-15
 -1      3194 1.15302E-03 2.11771E-04-1.52611E-15
 -1      3195 1.02827E-03 1.81118E-04-1.26816E-15
 -1      3196 1.02408E-03 1.51790E-04-1.28562E-15
 -1      3197 1.10617E-02 3.77131E-04-9.58773E-14
 -1      3198 1.11132E-02 4.02021E-04-9.67477E-14
 -1      3199 1.11051E-02 3.96613E-04-9.57877E-14
 -1      3200 1.34947E-02-6.27070E-04-1.16046E-13
 -1      3201 1.36525E-02-5.84573E-04-1.17536E-13
 -1      3202 1.11017E-02 3.47102E-04-9.64385E-14
 -1      3203 1.10552E-02 3.51728E-04-9.57849E-14
 -1      3204 1.10851E-02 3.09677E-04-9.53834E-14
 -1      3205 1.13137E-02 4.73178E-04-9.69999E-14
 -1      3206 1.14046E-02 5.15183E-04-9.50578E-14
 -1      3207 1.12478E-02 4.53648E-04-9.41651E-14
 -1      3208 1.15443E-02 5.68362E-04-9.69202E-14
 -1      3209 1.33531E-02-6.28832E-04-1.15685E-13
 -1      3210 1.20811E-02-7.20083E-05-1.01999E-13
 -1      3211 1.16936E-02 6.34310E-04-9.84531E-14
 -1      3212 9.77865E-04-1.38580E-04-1.21324E-15
 -1      3213 9.81575E-04-1.66766E-04-1.20096E-15
 -1      3214 1.05902E-03-1.84950E-04-1.35935E-15
 -1      3215 1.32973E-02-6.51874E-04-1.13256E-13
 -1      3216 1.28958E-02-5.43345E-04-1.08771E-13
 -1      3217 1.27466E-02-5.06224E-04-1.07351E-13
 -1      3218 1.29496E-02-5.93449E-04-1.09605E-13
 -1      3219 1.16765E-02 1.26938E-04-9.94944E-14
 -1      3220 9.74971E-04-1.11225E-04-1.22253E-15
 -1      3221 1.05135E-03-1.26016E-04-1.38478E-15
 -1      3222 9.72833E-04-8.45119E-05-1.22923E-15
 -1      3223 1.30791E-03 2.79742E-04-1.82790E-15
 -1      3224 1.01828E-03 9.54342E-05-1.31146E-15
 -1      3225 1.13803E-03 8.85330E-05-1.59267E-15
 -1      3226 1.02076E-03 1.23197E-04-1.29984E-15
 -1      3227 1.24904E-02-3.18205E-04-1.04951E-13
 -1      3228 1.14324E-03-2.35952E-04-1.50655E-15
 -1      3229 1.13122E-02 2.57029E-04-9.72077E-14
 -1      3230 1.33300E-02-6.43700E-04-1.14744E-13
 -1      3231 1.33274E-02-6.51564E-04-1.14193E-13
 -1      3232 1.31364E-02-6.44293E-04-1.11957E-13
 -1      3233 1.32012E-02-6.56520E-04-1.13828E-13
 -1      3234 1.86178E-03-2.79946E-04-3.61291E-15
 -1      3235 2.00599E-03-2.87286E-04-4.13241E-15
 -1      3236 2.15029E-03-2.93357E-04-4.68584E-15
 -1      3237 2.29463E-03-2.98276E-04-5.27314E-15
 -1      3238 2.07284E-03-2.54586E-04-4.43212E-15
 -1      3239 2.43896E-03-3.02245E-04-5.89393E-15
 -1      3240 2.58326E-03-3.05360E-04-6.54786E-15
 -1      3241 2.36203E-03-2.63589E-04-5.60847E-15
 -1      3242 2.72751E-03-3.07788E-04-7.23325E-15
 -1      3243 2.87169E-03-3.09602E-04-7.95181E-15
 -1      3244 2.65125E-03-2.69319E-04-6.91644E-15
 -1      3245 3.01580E-03-3.10934E-04-8.70271E-15
 -1      3246 3.15982E-03-3.11839E-04-9.48521E-15
 -1      3247 2.94026E-03-2.72675E-04-8.35405E-15
 -1      3248 3.30376E-03-3.12418E-04-1.02994E-14
 -1      3249 3.44761E-03-3.12711E-04-1.11443E-14
 -1      3250 3.22893E-03-2.74364E-04-9.91870E-15
 -1      3251 3.59138E-03-3.12793E-04-1.20204E-14
 -1      3252 3.73507E-03-3.12690E-04-1.29268E-14
 -1      3253 3.51720E-03-2.74926E-04-1.16084E-14
 -1      3254 3.87868E-03-3.12458E-04-1.38635E-14
 -1      3255 4.02222E-03-3.12115E-04-1.48295E-14
 -1      3256 3.80508E-03-2.74758E-04-1.34197E-14
 -1      3257 4.16569E-03-3.11698E-04-1.58247E-14
 -1      3258 4.30909E-03-3.11217E-04-1.68489E-14
 -1      3259 4.09259E-03-2.74143E-04-1.53507E-14
 -1      3260 4.45244E-03-3.10699E-04-1.79007E-14
 -1      3261 4.59573E-03-3.10149E-04-1.89798E-14
 -1      3262 4.37975E-03-2.73273E-04-1.73968E-14
 -1      3263 4.73898E-03-3.09582E-04-2.00881E-14
 -1      3264 4.88217E-03-3.09001E-04-2.12226E-14
 -1      3265 4.66663E-03-2.72272E-04-1.95561E-14
 -1      3266 5.02533E-03-3.08412E-04-2.23824E-14
 -1      3267 5.16844E-03-3.07816E-04-2.35693E-14
 -1      3268 4.95325E-03-2.71209E-04-2.18226E-14
 -1      3269 5.31152E-03-3.07214E-04-2.47827E-14
 -1      3270 5.45456E-03-3.06603E-04-2.60212E-14
 -1      3271 5.23966E-03-2.70118E-04-2.41958E-14
 -1      3272 5.59758E-03-3.05982E-04-2.72840E-14
 -1      3273 5.74056E-03-3.05346E-04-2.85724E-14
 -1      3274 5.52588E-03-2.68999E-04-2.66722E-14
 -1      3275 5.88351E-03-3.04689E-04-2.98838E-14
 -1      3276 6.02644E-03-3.04005E-04-3.12187E-14
 -1      3277 5.81193E-03-2.67831E-04-2.92461E-14
 -1      3278 6.16933E-03-3.03288E-04-3.25776E-14
 -1      3279 6.31219E-03-3.02529E-04-3.39605E-14
 -1      3280 6.09781E-03-2.66575E-04-3.19152E-14
 -1      3281 6.45503E-03-3.01720E-04-3.53645E-14
 -1      3282 6.59782E-03-3.00851E-04-3.67910E-14
 -1      3283 6.38353E-03-2.65180E-04-3.46771E-14
 -1      3284 6.74058E-03-2.99915E-04-3.82415E-14
 -1      3285 6.88330E-03-2.98899E-04-3.97119E-14
 -1      3286 6.66906E-03-2.63583E-04-3.75304E-14
 -1      3287 7.02597E-03-2.97797E-04-4.12035E-14
 -1      3288 7.16860E-03-2.96596E-04-4.27158E-14
 -1      3289 6.95437E-03-2.61712E-04-4.04689E-14
 -1      3290 7.31116E-03-2.95289E-04-4.42495E-14
 -1      3291 7.45367E-03-2.93864E-04-4.58039E-14
 -1      3292 7.23941E-03-2.59492E-04-4.34920E-14
 -1      3293 7.59612E-03-2.92318E-04-4.73767E-14
 -1      3294 7.73850E-03-2.90637E-04-4.89680E-14
 -1      3295 7.52413E-03-2.56849E-04-4.65978E-14
 -1      3296 7.88080E-03-2.88823E-04-5.05770E-14
 -1      3297 8.02303E-03-2.86866E-04-5.22041E-14
 -1      3298 7.80847E-03-2.53712E-04-4.97774E-14
 -1      3299 8.16518E-03-2.84772E-04-5.38512E-14
 -1      3300 8.30725E-03-2.82534E-04-5.55147E-14
 -1      3301 8.09236E-03-2.50026E-04-5.30316E-14
 -1      3302 8.44925E-03-2.80171E-04-5.71926E-14
 -1      3303 8.59120E-03-2.77682E-04-5.88858E-14
 -1      3304 8.37578E-03-2.45760E-04-5.63548E-14
 -1      3305 8.73310E-03-2.75095E-04-6.05956E-14
 -1      3306 8.87498E-03-2.72426E-04-6.23194E-14
 -1      3307 8.65872E-03-2.40927E-04-5.97413E-14
 -1      3308 9.01686E-03-2.69717E-04-6.40558E-14
 -1      3309 9.15881E-03-2.67004E-04-6.58049E-14
 -1      3310 8.94130E-03-2.35606E-04-6.31855E-14
 -1      3311 9.30086E-03-2.64348E-04-6.75664E-14
 -1      3312 9.44312E-03-2.61817E-04-6.93410E-14
 -1      3313 9.22375E-03-2.29973E-04-6.66820E-14
 -1      3314 9.58565E-03-2.59493E-04-7.11243E-14
 -1      3315 9.72860E-03-2.57497E-04-7.29168E-14
 -1      3316 9.50654E-03-2.24352E-04-7.02282E-14
 -1      3317 9.87211E-03-2.55930E-04-7.47200E-14
 -1      3318 1.00164E-02-2.54994E-04-7.65304E-14
 -1      3319 9.79048E-03-2.19279E-04-7.38130E-14
 -1      3320 1.01616E-02-2.54810E-04-7.83472E-14
 -1      3321 1.03079E-02-2.55701E-04-8.01729E-14
 -1      3322 1.00768E-02-2.15614E-04-7.74341E-14
 -1      3323 1.04558E-02-2.57803E-04-8.20030E-14
 -1      3324 1.06054E-02-2.61607E-04-8.38381E-14
 -1      3325 1.03675E-02-2.14698E-04-8.10825E-14
 -1      3326 1.07572E-02-2.67266E-04-8.56786E-14
 -1      3327 1.09114E-02-2.75491E-04-8.75220E-14
 -1      3328 1.06649E-02-2.18599E-04-8.47519E-14
 -1      3329 1.10684E-02-2.86462E-04-8.93688E-14
 -1      3330 1.12284E-02-3.01070E-04-9.12217E-14
 -1      3331 1.09723E-02-2.30450E-04-8.84390E-14
 -1      3332 1.13917E-02-3.19482E-04-9.30799E-14
 -1      3333 1.15580E-02-3.42637E-04-9.49428E-14
 -1      3334 1.12930E-02-2.54809E-04-9.21451E-14
 -1      3335 1.17278E-02-3.70528E-04-9.68100E-14
 -1      3336 1.18996E-02-4.03729E-04-9.86819E-14
 -1      3337 1.16295E-02-2.97369E-04-9.58702E-14
 -1      3338 1.20735E-02-4.42090E-04-1.00560E-13
 -1      3339 1.22471E-02-4.84243E-04-1.02443E-13
 -1      3340 1.19813E-02-3.63896E-04-9.96127E-14
 -1      3341 1.27264E-02-5.95166E-04-1.07682E-13
 -1      3342 1.28882E-02-6.30585E-04-1.09571E-13
 -1      3343 1.30581E-02-6.61958E-04-1.11930E-13
 -1      3344 3.39171E-03 3.49796E-04-1.05723E-14
 -1      3345 3.24813E-03 3.49306E-04-9.75196E-15
 -1      3346 2.81694E-03 3.45590E-04-7.47917E-15
 -1      3347 2.67308E-03 3.43340E-04-6.78498E-15
 -1      3348 3.67869E-03 3.50066E-04-1.23079E-14
 -1      3349 3.53524E-03 3.50038E-04-1.14243E-14
 -1      3350 3.46083E-03 3.12197E-04-1.10518E-14
 -1      3351 3.96544E-03 3.49682E-04-1.41661E-14
 -1      3352 3.82210E-03 3.49940E-04-1.32220E-14
 -1      3353 3.74831E-03 3.12279E-04-1.28195E-14
 -1      3354 4.25198E-03 3.48912E-04-1.61426E-14
 -1      3355 4.10874E-03 3.49334E-04-1.51401E-14
 -1      3356 4.03549E-03 3.11823E-04-1.47095E-14
 -1      3357 4.53835E-03 3.47934E-04-1.82362E-14
 -1      3358 4.39519E-03 3.48442E-04-1.71748E-14
 -1      3359 4.32239E-03 3.11055E-04-1.67166E-14
 -1      3360 4.82458E-03 3.46855E-04-2.04427E-14
 -1      3361 4.68149E-03 3.47404E-04-1.93256E-14
 -1      3362 4.60905E-03 3.10122E-04-1.88388E-14
 -1      3363 5.11069E-03 3.45732E-04-2.27565E-14
 -1      3364 4.96765E-03 3.46298E-04-2.15864E-14
 -1      3365 4.89551E-03 3.09112E-04-2.10729E-14
 -1      3366 5.39671E-03 3.44578E-04-2.51765E-14
 -1      3367 5.25371E-03 3.45159E-04-2.39533E-14
 -1      3368 5.18179E-03 3.08066E-04-2.34143E-14
 -1      3369 5.68265E-03 3.43380E-04-2.76957E-14
 -1      3370 5.53969E-03 3.43987E-04-2.64231E-14
 -1      3371 5.46794E-03 3.06990E-04-2.58584E-14
 -1      3372 5.96851E-03 3.42100E-04-3.03121E-14
 -1      3373 5.82559E-03 3.42753E-04-2.89922E-14
 -1      3374 5.75396E-03 3.05867E-04-2.84012E-14
 -1      3375 6.25431E-03 3.40681E-04-3.30209E-14
 -1      3376 6.11142E-03 3.41412E-04-3.16555E-14
 -1      3377 6.03986E-03 3.04655E-04-3.10407E-14
 -1      3378 6.54003E-03 3.39054E-04-3.58208E-14
 -1      3379 6.39718E-03 3.39899E-04-3.44097E-14
 -1      3380 6.32564E-03 3.03300E-04-3.37723E-14
 -1      3381 6.82565E-03 3.37139E-04-3.87089E-14
 -1      3382 6.68285E-03 3.38138E-04-3.72541E-14
 -1      3383 6.61128E-03 3.01737E-04-3.65922E-14
 -1      3384 7.11115E-03 3.34847E-04-4.16840E-14
 -1      3385 6.96842E-03 3.36045E-04-4.01852E-14
 -1      3386 6.89676E-03 2.99890E-04-3.95009E-14
 -1      3387 7.39647E-03 3.32093E-04-4.47407E-14
 -1      3388 7.25384E-03 3.33533E-04-4.32027E-14
 -1      3389 7.18202E-03 2.97682E-04-4.24964E-14
 -1      3390 7.68154E-03 3.28795E-04-4.78778E-14
 -1      3391 7.53904E-03 3.30517E-04-4.62994E-14
 -1      3392 7.46697E-03 2.95039E-04-4.55741E-14
 -1      3393 7.96623E-03 3.24897E-04-5.10887E-14
 -1      3394 7.82394E-03 3.26925E-04-4.94742E-14
 -1      3395 7.75151E-03 2.91902E-04-4.87297E-14
 -1      3396 8.25038E-03 3.20377E-04-5.43721E-14
 -1      3397 8.10838E-03 3.22717E-04-5.27207E-14
 -1      3398 8.03545E-03 2.88238E-04-5.19569E-14
 -1      3399 8.53374E-03 3.15285E-04-5.77266E-14
 -1      3400 8.39217E-03 3.17901E-04-5.60414E-14
 -1      3401 8.31857E-03 2.84066E-04-5.52582E-14
 -1      3402 8.81595E-03 3.09777E-04-6.11452E-14
 -1      3403 8.67501E-03 3.12577E-04-5.94279E-14
 -1      3404 8.60052E-03 2.79487E-04-5.86284E-14
 -1      3405 9.09651E-03 3.04174E-04-6.46212E-14
 -1      3406 8.95646E-03 3.06974E-04-6.28763E-14
 -1      3407 8.88084E-03 2.74727E-04-6.20623E-14
 -1      3408 9.37468E-03 2.99035E-04-6.81525E-14
 -1      3409 9.23592E-03 3.01523E-04-6.63798E-14
 -1      3410 9.15889E-03 2.70198E-04-6.55511E-14
 -1      3411 9.64950E-03 2.95250E-04-7.17306E-14
 -1      3412 9.51256E-03 2.96938E-04-6.99364E-14
 -1      3413 9.43377E-03 2.66568E-04-6.90913E-14
 -1      3414 9.91964E-03 2.94149E-04-7.53542E-14
 -1      3415 9.78521E-03 2.94316E-04-7.35367E-14
 -1      3416 9.70430E-03 2.64852E-04-7.26800E-14
 -1      3417 1.01834E-02 2.97595E-04-7.90154E-14
 -1      3418 1.00524E-02 2.95246E-04-7.71821E-14
 -1      3419 9.96889E-03 2.66487E-04-7.63122E-14
 -1      3420 1.04387E-02 3.08027E-04-8.26957E-14
 -1      3421 1.03121E-02 3.01880E-04-8.08531E-14
 -1      3422 1.02255E-02 2.73381E-04-7.99756E-14
 -1      3423 1.06831E-02 3.28386E-04-8.63923E-14
 -1      3424 1.05623E-02 3.16938E-04-8.45418E-14
 -1      3425 1.04715E-02 2.87874E-04-8.36578E-14
 -1      3426 1.09145E-02 3.61916E-04-9.01039E-14
 -1      3427 1.08003E-02 3.43496E-04-8.82470E-14
 -1      3428 1.07038E-02 3.12450E-04-8.73569E-14
 -1      3429 2.52916E-03 3.40386E-04-6.12322E-15
 -1      3430 2.38518E-03 3.36641E-04-5.49413E-15
 -1      3431 2.59636E-03 3.04725E-04-6.49947E-15
 -1      3432 1.57395E-03-2.60635E-04-2.67677E-15
 -1      3433 1.71774E-03-2.71111E-04-3.12791E-15
 -1      3434 1.78414E-03-2.41228E-04-3.39095E-15
 -1      3435 1.37759E-02-5.47406E-04-1.18472E-13
 -1      3436 1.66528E-03 3.00055E-04-2.84904E-15
 -1      3437 1.52162E-03 2.87846E-04-2.42184E-15
 -1      3438 9.92757E-04-3.55802E-05-1.28357E-15
 -1      3439 9.93772E-04-6.19475E-05-1.28124E-15
 -1      3440 1.06958E-03-7.37260E-05-1.44910E-15
 -1      3441 1.11268E-03-2.43830E-05-1.55834E-15
 -1      3442 1.13223E-03-1.71934E-04-1.54388E-15
 -1      3443 1.13711E-03-2.03432E-04-1.52713E-15
 -1      3444 1.21582E-03-2.22155E-04-1.70442E-15
 -1      3445 1.32296E-03-2.35731E-04-1.97279E-15
 -1      3446 1.46598E-03-2.49463E-04-2.36276E-15
 -1      3447 1.53215E-03-2.22906E-04-2.59280E-15
 -1      3448 1.31713E-03-2.01233E-04-1.99389E-15
 -1      3449 1.17076E-02 5.63232E-05-9.89692E-14
 -1      3450 1.15344E-02 1.29974E-04-9.78537E-14
 -1      3451 1.24938E-02-3.83934E-04-1.04858E-13
 -1      3452 1.23140E-02-2.71742E-04-1.03292E-13
 -1      3453 1.13520E-02 1.96865E-04-9.66378E-14
 -1      3454 1.11892E-02 2.43940E-04-9.54674E-14
 -1      3455 1.11244E-02 4.08763E-04-9.38255E-14
 -1      3456 1.41076E-03 2.66364E-04-2.13223E-15
 -1      3457 1.26243E-03 2.34082E-04-1.77422E-15
 -1      3458 1.25656E-03 2.00273E-04-1.79984E-15
 -1      3459 1.47624E-03 2.40806E-04-2.35790E-15
 -1      3460 3.10447E-03 3.48484E-04-8.96220E-15
 -1      3461 2.96074E-03 3.47283E-04-8.20450E-15
 -1      3462 3.17300E-03 3.11246E-04-9.40816E-15
 -1      3463 1.21022E-02-1.52202E-04-1.01628E-13
 -1      3464 1.19045E-02-4.38262E-05-1.00243E-13
 -1      3465 1.10128E-02 3.47617E-04-9.48272E-14
 -1      3466 1.09784E-02 3.42501E-04-9.38680E-14
 -1      3467 1.09723E-02 3.17552E-04-9.37746E-14
 -1      3468 1.13800E-02 1.34925E-04-9.61123E-14
 -1      3469 1.14366E-03 1.48665E-04-1.56617E-15
 -1      3470 1.10645E-02 2.67137E-04-9.42869E-14
 -1      3471 1.09977E-02 2.80732E-04-9.36358E-14
 -1      3472 1.25778E-02-5.66550E-04-1.06066E-13
 -1      3473 1.26513E-02-5.27452E-04-1.06575E-13
 -1      3474 1.25839E-02-4.61852E-04-1.05743E-13
 -1      3475 1.24079E-02-5.22032E-04-1.04180E-13
 -1      3476 2.30768E-03 2.97707E-04-5.23721E-15
 -1      3477 2.24116E-03 3.31915E-04-4.89790E-15
 -1      3478 2.09712E-03 3.26100E-04-4.33497E-15
 -1      3479 1.25734E-03 4.78373E-05-1.90958E-15
 -1      3480 1.25660E-03 1.67811E-05-1.91535E-15
 -1      3481 1.95310E-03 3.18963E-04-3.80544E-15
 -1      3482 1.80912E-03 3.10369E-04-3.31033E-15
 -1      3483 1.73069E-03 2.70941E-04-3.11068E-15
 -1      3484 2.01899E-03 2.86866E-04-4.10673E-15
 -1      3485 1.29994E-02-6.29237E-04-1.10534E-13
 -1      3486 1.24147E-02-4.20692E-04-1.04078E-13
 -1      3487 1.21291E-02-2.31188E-04-1.01530E-13
 -1      3488 1.12835E-03-1.41313E-04-1.55670E-15
 -1      3489 1.20593E-03-1.57064E-04-1.73848E-15
 -1      3490 1.12538E-03-1.11391E-04-1.56651E-15
 -1      3491 1.17421E-02-2.45050E-05-9.85988E-14
 -1      3492 2.88483E-03 3.08964E-04-7.89039E-15
 -1      3493 1.10815E-02 2.20418E-04-9.37183E-14
 -1      3494 1.10766E-02 3.87702E-04-9.45349E-14
 -1      3495 1.09936E-02 3.74828E-04-9.17051E-14
 -1      3496 1.26102E-03 1.10452E-04-1.88947E-15
 -1      3497 1.25880E-03 7.89772E-05-1.90139E-15
 -1      3498 1.38049E-03 6.70760E-05-2.23595E-15
 -1      3499 1.23279E-02-4.47291E-04-1.03226E-13
 -1      3500 1.08922E-02 3.40802E-04-9.08122E-14
 -1      3501 1.10035E-02 3.62551E-04-9.36650E-14
 -1      3502 3.24211E-03 2.73765E-04-9.85762E-15
 -1      3503 3.09782E-03 2.73064E-04-9.06571E-15
 -1      3504 1.99597E-03-2.16333E-04-4.18098E-15
 -1      3505 2.14065E-03-2.21194E-04-4.73643E-15
 -1      3506 1.13962E-02 6.75535E-05-9.55105E-14
 -1      3507 1.12336E-02 1.28401E-04-9.42976E-14
 -1      3508 1.08814E-02 3.27176E-04-9.12832E-14
 -1      3509 1.08054E-02 3.14334E-04-8.96839E-14
 -1      3510 2.28544E-03-2.25181E-04-5.32547E-15
 -1      3511 2.43030E-03-2.28378E-04-5.94781E-15
 -1      3512 2.20930E-03-1.87141E-04-5.04567E-15
 -1      3513 2.57517E-03-2.30923E-04-6.60219E-15
 -1      3514 2.72001E-03-2.32883E-04-7.28867E-15
 -1      3515 2.49937E-03-1.92686E-04-6.29022E-15
 -1      3516 2.86479E-03-2.34377E-04-8.00775E-15
 -1      3517 3.00949E-03-2.35453E-04-8.75904E-15
 -1      3518 2.78947E-03-1.96104E-04-7.66490E-15
 -1      3519 3.15409E-03-2.36207E-04-9.54111E-15
 -1      3520 3.29859E-03-2.36673E-04-1.03547E-14
 -1      3521 3.07932E-03-1.97991E-04-9.16594E-15
 -1      3522 3.44297E-03-2.36925E-04-1.11991E-14
 -1      3523 3.58725E-03-2.36986E-04-1.20738E-14
 -1      3524 3.36876E-03-1.98818E-04-1.07926E-14
 -1      3525 3.73141E-03-2.36913E-04-1.29794E-14
 -1      3526 3.87545E-03-2.36719E-04-1.39146E-14
 -1      3527 3.65771E-03-1.98939E-04-1.25416E-14
 -1      3528 4.01940E-03-2.36446E-04-1.48790E-14
 -1      3529 4.16324E-03-2.36101E-04-1.58732E-14
 -1      3530 3.94616E-03-1.98614E-04-1.44107E-14
 -1      3531 4.30698E-03-2.35713E-04-1.68959E-14
 -1      3532 4.45063E-03-2.35286E-04-1.79467E-14
 -1      3533 4.23415E-03-1.98022E-04-1.63972E-14
 -1      3534 4.59420E-03-2.34839E-04-1.90248E-14
 -1      3535 4.73769E-03-2.34373E-04-2.01320E-14
 -1      3536 4.52171E-03-1.97286E-04-1.84982E-14
 -1      3537 4.88110E-03-2.33898E-04-2.12660E-14
 -1      3538 5.02445E-03-2.33414E-04-2.24254E-14
 -1      3539 4.80889E-03-1.96477E-04-2.07091E-14
 -1      3540 5.16773E-03-2.32926E-04-2.36109E-14
 -1      3541 5.31096E-03-2.32431E-04-2.48237E-14
 -1      3542 5.09575E-03-1.95636E-04-2.30293E-14
 -1      3543 5.45412E-03-2.31931E-04-2.60615E-14
 -1      3544 5.59724E-03-2.31420E-04-2.73240E-14
 -1      3545 5.38232E-03-1.94774E-04-2.54523E-14
 -1      3546 5.74030E-03-2.30898E-04-2.86102E-14
 -1      3547 5.88331E-03-2.30358E-04-2.99201E-14
 -1      3548 5.66863E-03-1.93884E-04-2.79759E-14
 -1      3549 6.02627E-03-2.29796E-04-3.12548E-14
 -1      3550 6.16918E-03-2.29205E-04-3.26122E-14
 -1      3551 5.95470E-03-1.92941E-04-3.05951E-14
 -1      3552 6.31203E-03-2.28581E-04-3.39919E-14
 -1      3553 6.45483E-03-2.27914E-04-3.53947E-14
 -1      3554 6.24052E-03-1.91910E-04-3.33083E-14
 -1      3555 6.59756E-03-2.27197E-04-3.68197E-14
 -1      3556 6.74023E-03-2.26422E-04-3.82679E-14
 -1      3557 6.52608E-03-1.90743E-04-3.61122E-14
 -1      3558 6.88282E-03-2.25581E-04-3.97372E-14
 -1      3559 7.02534E-03-2.24663E-04-4.12259E-14
 -1      3560 6.81133E-03-1.89385E-04-3.90054E-14
 -1      3561 7.16777E-03-2.23663E-04-4.27366E-14
 -1      3562 7.31010E-03-2.22565E-04-4.42686E-14
 -1      3563 7.09622E-03-1.87772E-04-4.19840E-14
 -1      3564 7.45232E-03-2.21366E-04-4.58196E-14
 -1      3565 7.59442E-03-2.20051E-04-4.73903E-14
 -1      3566 7.38066E-03-1.85833E-04-4.50441E-14
 -1      3567 7.73639E-03-2.18618E-04-4.89798E-14
 -1      3568 7.87822E-03-2.17048E-04-5.05864E-14
 -1      3569 7.66455E-03-1.83491E-04-4.81823E-14
 -1      3570 8.01990E-03-2.15345E-04-5.22134E-14
 -1      3571 8.16143E-03-2.13490E-04-5.38580E-14
 -1      3572 7.94778E-03-1.80668E-04-5.13960E-14
 -1      3573 8.30278E-03-2.11489E-04-5.55181E-14
 -1      3574 8.44396E-03-2.09325E-04-5.71940E-14
 -1      3575 8.23024E-03-1.77281E-04-5.46819E-14
 -1      3576 8.58497E-03-2.07011E-04-5.88866E-14
 -1      3577 8.72582E-03-2.04532E-04-6.05947E-14
 -1      3578 8.51184E-03-1.73252E-04-5.80337E-14
 -1      3579 8.86651E-03-2.01908E-04-6.23163E-14
 -1      3580 9.00709E-03-1.99135E-04-6.40507E-14
 -1      3581 8.79253E-03-1.68513E-04-6.14477E-14
 -1      3582 9.14757E-03-1.96238E-04-6.57985E-14
 -1      3583 9.28802E-03-1.93234E-04-6.75586E-14
 -1      3584 9.07239E-03-1.63022E-04-6.49158E-14
 -1      3585 9.42850E-03-1.90155E-04-6.93303E-14
 -1      3586 9.56912E-03-1.87051E-04-7.11147E-14
 -1      3587 9.35165E-03-1.56783E-04-6.84347E-14
 -1      3588 9.70998E-03-1.83964E-04-7.29083E-14
 -1      3589 9.85128E-03-1.81003E-04-7.47106E-14
 -1      3590 9.63085E-03-1.49890E-04-7.20027E-14
 -1      3591 9.99315E-03-1.78221E-04-7.65210E-14
 -1      3592 1.01359E-02-1.75829E-04-7.83377E-14
 -1      3593 9.91092E-03-1.42611E-04-7.56073E-14
 -1      3594 1.02798E-02-1.73896E-04-8.01618E-14
 -1      3595 1.04251E-02-1.72802E-04-8.19901E-14
 -1      3596 1.01934E-02-1.35532E-04-7.92415E-14
 -1      3597 1.05724E-02-1.72640E-04-8.38244E-14
 -1      3598 1.07219E-02-1.74062E-04-8.56642E-14
 -1      3599 1.04807E-02-1.29823E-04-8.28985E-14
 -1      3600 1.08744E-02-1.77186E-04-8.75086E-14
 -1      3601 1.10302E-02-1.83105E-04-8.93555E-14
 -1      3602 1.07763E-02-1.27689E-04-8.65757E-14
 -1      3603 1.11901E-02-1.92069E-04-9.12076E-14
 -1      3604 1.13544E-02-2.05645E-04-9.30674E-14
 -1      3605 1.10848E-02-1.33126E-04-9.02715E-14
 -1      3606 1.15238E-02-2.23795E-04-9.49291E-14
 -1      3607 1.16980E-02-2.48783E-04-9.67945E-14
 -1      3608 1.14122E-02-1.53141E-04-9.39871E-14
 -1      3609 1.22421E-02-3.74538E-04-1.02345E-13
 -1      3610 3.81831E-03 2.74361E-04-1.33339E-14
 -1      3611 3.67441E-03 2.74463E-04-1.24185E-14
 -1      3612 1.70735E-03-2.03416E-04-3.17128E-15
 -1      3613 1.85151E-03-2.10442E-04-3.65928E-15
 -1      3614 1.91975E-03-1.78748E-04-3.93304E-15
 -1      3615 3.53041E-03 2.74418E-04-1.15342E-14
 -1      3616 3.38632E-03 2.74207E-04-1.06807E-14
 -1      3617 3.60044E-03 2.36506E-04-1.20192E-14
 -1      3618 4.39302E-03 2.73135E-04-1.72917E-14
 -1      3619 4.24947E-03 2.73527E-04-1.62590E-14
 -1      3620 4.67991E-03 2.72272E-04-1.94430E-14
 -1      3621 4.53650E-03 2.72716E-04-1.83531E-14
 -1      3622 4.46386E-03 2.35184E-04-1.78694E-14
 -1      3623 4.96655E-03 2.71349E-04-2.17050E-14
 -1      3624 4.82326E-03 2.71817E-04-2.05603E-14
 -1      3625 4.75093E-03 2.34409E-04-2.00486E-14
 -1      3626 5.25297E-03 2.70397E-04-2.40724E-14
 -1      3627 5.10978E-03 2.70877E-04-2.28759E-14
 -1      3628 5.03770E-03 2.33590E-04-2.23388E-14
 -1      3629 5.53921E-03 2.69416E-04-2.65416E-14
 -1      3630 5.39611E-03 2.69912E-04-2.52947E-14
 -1      3631 5.32422E-03 2.32746E-04-2.47320E-14
 -1      3632 5.82527E-03 2.68383E-04-2.91081E-14
 -1      3633 5.68226E-03 2.68908E-04-2.78125E-14
 -1      3634 5.61051E-03 2.31872E-04-2.72264E-14
 -1      3635 6.11118E-03 2.67258E-04-3.17711E-14
 -1      3636 5.96825E-03 2.67835E-04-3.04281E-14
 -1      3637 5.89660E-03 2.30944E-04-2.98163E-14
 -1      3638 6.39692E-03 2.65991E-04-3.45226E-14
 -1      3639 6.25407E-03 2.66646E-04-3.31358E-14
 -1      3640 6.18248E-03 2.29926E-04-3.25011E-14
 -1      3641 6.68245E-03 2.64521E-04-3.73652E-14
 -1      3642 6.53971E-03 2.65286E-04-3.59325E-14
 -1      3643 6.46814E-03 2.28771E-04-3.52753E-14
 -1      3644 6.96775E-03 2.62781E-04-4.02954E-14
 -1      3645 6.82513E-03 2.63689E-04-3.88197E-14
 -1      3646 6.75354E-03 2.27424E-04-3.81403E-14
 -1      3647 7.25272E-03 2.60707E-04-4.33113E-14
 -1      3648 7.11028E-03 2.61790E-04-4.17927E-14
 -1      3649 7.03862E-03 2.25832E-04-4.10915E-14
 -1      3650 7.53725E-03 2.58240E-04-4.64074E-14
 -1      3651 7.39505E-03 2.59527E-04-4.48492E-14
 -1      3652 7.32326E-03 2.23942E-04-4.41265E-14
 -1      3653 7.82120E-03 2.55345E-04-4.95814E-14
 -1      3654 7.67931E-03 2.56850E-04-4.79853E-14
 -1      3655 7.60734E-03 2.21719E-04-4.72430E-14
 -1      3656 8.10434E-03 2.52020E-04-5.28274E-14
 -1      3657 7.96288E-03 2.53738E-04-5.11963E-14
 -1      3658 7.89066E-03 2.19150E-04-5.04351E-14
 -1      3659 8.38636E-03 2.48328E-04-5.61453E-14
 -1      3660 8.24550E-03 2.50219E-04-5.44767E-14
 -1      3661 8.17294E-03 2.16270E-04-5.36984E-14
 -1      3662 8.66685E-03 2.44426E-04-5.95311E-14
 -1      3663 8.52682E-03 2.46398E-04-5.78297E-14
 -1      3664 8.45384E-03 2.13188E-04-5.70330E-14
 -1      3665 8.94525E-03 2.40615E-04-6.29782E-14
 -1      3666 8.80634E-03 2.42497E-04-6.12473E-14
 -1      3667 8.73286E-03 2.10122E-04-6.04345E-14
 -1      3668 9.22081E-03 2.37398E-04-6.64788E-14
 -1      3669 9.08343E-03 2.38913E-04-6.47225E-14
 -1      3670 9.00937E-03 2.07448E-04-6.38941E-14
 -1      3671 9.49249E-03 2.35554E-04-7.00318E-14
 -1      3672 9.35719E-03 2.36276E-04-6.82494E-14
 -1      3673 9.28253E-03 2.05763E-04-6.74076E-14
 -1      3674 9.75896E-03 2.36208E-04-7.36297E-14
 -1      3675 9.62646E-03 2.35532E-04-7.18255E-14
 -1      3676 9.55123E-03 2.05949E-04-7.09704E-14
 -1      3677 1.00184E-02 2.40892E-04-7.72680E-14
 -1      3678 9.88968E-03 2.38008E-04-7.54442E-14
 -1      3679 9.81402E-03 2.09235E-04-7.45784E-14
 -1      3680 1.02686E-02 2.51539E-04-8.09342E-14
 -1      3681 1.01448E-02 2.45445E-04-7.90979E-14
 -1      3682 1.00690E-02 2.17232E-04-7.82210E-14
 -1      3683 1.05064E-02 2.70369E-04-8.46180E-14
 -1      3684 1.03893E-02 2.59967E-04-8.27737E-14
 -1      3685 1.03137E-02 2.31877E-04-8.18901E-14
 -1      3686 1.07144E-02 2.97598E-04-8.80744E-14
 -1      3687 1.06053E-02 2.82343E-04-8.62217E-14
 -1      3688 1.05303E-02 2.53916E-04-8.53320E-14
 -1      3689 1.07178E-02 2.83088E-04-8.85439E-14
 -1      3690 1.09319E-02 3.34562E-04-9.26169E-14
 -1      3691 2.66438E-03 2.68646E-04-6.87962E-15
 -1      3692 2.51977E-03 2.66151E-04-6.21439E-15
 -1      3693 1.25991E-03 1.71221E-04-1.83868E-15
 -1      3694 1.25606E-03 1.38688E-04-1.85663E-15
 -1      3695 1.37723E-03 1.29908E-04-2.19031E-15
 -1      3696 1.36897E-03 1.90062E-04-2.11318E-15
 -1      3697 1.08935E-02 2.44948E-04-9.15852E-14
 -1      3698 1.09322E-02 2.82365E-04-9.26796E-14
 -1      3699 1.08749E-02 2.81815E-04-9.17244E-14
 -1      3700 1.17363E-02-9.92627E-05-9.79634E-14
 -1      3701 1.15653E-02-1.28017E-05-9.66938E-14
 -1      3702 1.37812E-03 8.37332E-07-2.24664E-15
 -1      3703 1.25580E-03-1.46982E-05-1.91612E-15
 -1      3704 4.10583E-03 2.73871E-04-1.52554E-14
 -1      3705 3.96212E-03 2.74160E-04-1.42803E-14
 -1      3706 3.88866E-03 2.36355E-04-1.38514E-14
 -1      3707 4.17645E-03 2.35864E-04-1.58029E-14
 -1      3708 2.95342E-03 2.72017E-04-8.30540E-15
 -1      3709 2.80894E-03 2.70581E-04-7.57668E-15
 -1      3710 3.02264E-03 2.34804E-04-8.72451E-15
 -1      3711 1.10948E-02 1.68087E-04-9.31204E-14
 -1      3712 1.09710E-02 1.95131E-04-9.19445E-14
 -1      3713 1.11031E-02 1.11437E-04-9.25216E-14
 -1      3714 1.20238E-02-3.20035E-04-1.00148E-13
 -1      3715 1.20954E-02-2.80424E-04-1.00999E-13
 -1      3716 1.19035E-02-1.79452E-04-9.93392E-14
 -1      3717 1.18418E-02-2.81040E-04-9.82735E-14
 -1      3718 1.17179E-02-1.55120E-04-9.74323E-14
 -1      3719 1.08646E-02 3.06902E-04-9.14853E-14
 -1      3720 1.13994E-02-3.91669E-06-9.48776E-14
 -1      3721 3.31176E-03 2.36095E-04-1.03099E-14
 -1      3722 1.59925E-03-1.95197E-04-2.82893E-15
 -1      3723 1.66719E-03-1.66288E-04-3.07106E-15
 -1      3724 1.49145E-03-1.86335E-04-2.50551E-15
 -1      3725 2.73314E-03 2.32201E-04-7.26361E-15
 -1      3726 1.79715E-03 2.40934E-04-3.37930E-15
 -1      3727 1.65315E-03 2.32399E-04-2.91267E-15
 -1      3728 1.23362E-03-4.19821E-05-1.85732E-15
 -1      3729 1.50183E-03 1.82363E-05-2.60321E-15
 -1      3730 1.50102E-03-1.68022E-05-2.60477E-15
 -1      3731 1.18955E-03-6.46025E-05-1.74093E-15
 -1      3732 1.16845E-03-9.05910E-05-1.68054E-15
 -1      3733 1.24552E-03-1.03814E-04-1.87093E-15
 -1      3734 1.33312E-03-5.72373E-05-2.11915E-15
 -1      3735 1.29478E-03-1.67115E-04-1.96307E-15
 -1      3736 1.40176E-03-1.77122E-04-2.25103E-15
 -1      3737 1.46955E-03-1.50930E-04-2.46771E-15
 -1      3738 1.29109E-03-1.34333E-04-1.97562E-15
 -1      3739 2.37512E-03 2.62958E-04-5.58105E-15
 -1      3740 2.23048E-03 2.58988E-04-4.98062E-15
 -1      3741 2.44340E-03 2.27713E-04-5.93013E-15
 -1      3742 1.08873E-02 1.60377E-04-9.03974E-14
 -1      3743 1.08894E-02 2.04936E-04-9.09921E-14
 -1      3744 1.08150E-02 2.11310E-04-9.00396E-14
 -1      3745 1.50430E-03 8.72201E-05-2.58556E-15
 -1      3746 1.50266E-03 5.26443E-05-2.59605E-15
 -1      3747 1.62564E-03 3.63972E-05-2.98189E-15
 -1      3748 1.56582E-03 2.20774E-04-2.65310E-15
 -1      3749 1.45566E-03 2.02191E-04-2.34600E-15
 -1      3750 1.45918E-03 1.70888E-04-2.38905E-15
 -1      3751 1.63303E-03 1.92559E-04-2.89676E-15
 -1      3752 1.17282E-02-1.98618E-04-9.73277E-14
 -1      3753 2.42397E-03-1.54725E-04-5.98160E-15
 -1      3754 2.56920E-03-1.56528E-04-6.63677E-15
 -1      3755 2.71443E-03-1.57937E-04-7.32414E-15
 -1      3756 2.85962E-03-1.58992E-04-8.04324E-15
 -1      3757 2.63974E-03-1.19949E-04-6.98672E-15
 -1      3758 3.00473E-03-1.59772E-04-8.79442E-15
 -1      3759 3.14975E-03-1.60300E-04-9.57626E-15
 -1      3760 2.93038E-03-1.21602E-04-8.42517E-15
 -1      3761 3.29465E-03-1.60641E-04-1.03889E-14
 -1      3762 3.43942E-03-1.60811E-04-1.12326E-14
 -1      3763 3.22069E-03-1.22432E-04-9.98859E-15
 -1      3764 3.58406E-03-1.60860E-04-1.21066E-14
 -1      3765 3.72857E-03-1.60797E-04-1.30109E-14
 -1      3766 3.51052E-03-1.22701E-04-1.16745E-14
 -1      3767 3.87295E-03-1.60661E-04-1.39452E-14
 -1      3768 4.01719E-03-1.60455E-04-1.49084E-14
 -1      3769 3.79979E-03-1.22602E-04-1.34817E-14
 -1      3770 4.16131E-03-1.60208E-04-1.59012E-14
 -1      3771 4.30531E-03-1.59920E-04-1.69232E-14
 -1      3772 4.08850E-03-1.22278E-04-1.54080E-14
 -1      3773 4.44920E-03-1.59612E-04-1.79729E-14
 -1      3774 4.59297E-03-1.59282E-04-1.90505E-14
 -1      3775 4.37669E-03-1.21824E-04-1.74505E-14
 -1      3776 4.73665E-03-1.58944E-04-2.01556E-14
 -1      3777 4.88024E-03-1.58594E-04-2.12889E-14
 -1      3778 4.66441E-03-1.21301E-04-1.96050E-14
 -1      3779 5.02373E-03-1.58242E-04-2.24489E-14
 -1      3780 5.16715E-03-1.57884E-04-2.36336E-14
 -1      3781 4.95170E-03-1.20747E-04-2.18692E-14
 -1      3782 5.31048E-03-1.57523E-04-2.48450E-14
 -1      3783 5.45374E-03-1.57156E-04-2.60820E-14
 -1      3784 5.23863E-03-1.20177E-04-2.42396E-14
 -1      3785 5.59693E-03-1.56783E-04-2.73432E-14
 -1      3786 5.74006E-03-1.56399E-04-2.86278E-14
 -1      3787 5.52522E-03-1.19592E-04-2.67120E-14
 -1      3788 5.88311E-03-1.56005E-04-2.99371E-14
 -1      3789 6.02609E-03-1.55592E-04-3.12698E-14
 -1      3790 5.81151E-03-1.18981E-04-2.92809E-14
 -1      3791 6.16901E-03-1.55160E-04-3.26261E-14
 -1      3792 6.31185E-03-1.54701E-04-3.40042E-14
 -1      3793 6.09750E-03-1.18324E-04-3.19436E-14
 -1      3794 6.45462E-03-1.54212E-04-3.54056E-14
 -1      3795 6.59730E-03-1.53683E-04-3.68295E-14
 -1      3796 6.38317E-03-1.17591E-04-3.47002E-14
 -1      3797 6.73989E-03-1.53112E-04-3.82749E-14
 -1      3798 6.88238E-03-1.52487E-04-3.97429E-14
 -1      3799 6.66849E-03-1.16746E-04-3.75465E-14
 -1      3800 7.02476E-03-1.51806E-04-4.12316E-14
 -1      3801 7.16702E-03-1.51054E-04-4.27401E-14
 -1      3802 6.95339E-03-1.15742E-04-4.04797E-14
 -1      3803 7.30915E-03-1.50229E-04-4.42699E-14
 -1      3804 7.45113E-03-1.49314E-04-4.58186E-14
 -1      3805 7.23777E-03-1.14525E-04-4.34959E-14
 -1      3806 7.59293E-03-1.48308E-04-4.73876E-14
 -1      3807 7.73456E-03-1.47191E-04-4.89737E-14
 -1      3808 7.52153E-03-1.13027E-04-4.65931E-14
 -1      3809 7.87599E-03-1.45961E-04-5.05801E-14
 -1      3810 8.01720E-03-1.44595E-04-5.22057E-14
 -1      3811 7.80449E-03-1.11169E-04-4.97657E-14
 -1      3812 8.15816E-03-1.43092E-04-5.38478E-14
 -1      3813 8.29888E-03-1.41425E-04-5.55063E-14
 -1      3814 8.08651E-03-1.08849E-04-5.30138E-14
 -1      3815 8.43932E-03-1.39596E-04-5.71823E-14
 -1      3816 8.57949E-03-1.37571E-04-5.88739E-14
 -1      3817 8.36739E-03-1.05945E-04-5.63313E-14
 -1      3818 8.71936E-03-1.35354E-04-6.05793E-14
 -1      3819 8.85895E-03-1.32910E-04-6.23001E-14
 -1      3820 8.64697E-03-1.02305E-04-5.97133E-14
 -1      3821 8.99825E-03-1.30242E-04-6.40335E-14
 -1      3822 9.13729E-03-1.27318E-04-6.57801E-14
 -1      3823 8.92513E-03-9.77428E-05-6.31515E-14
 -1      3824 9.27609E-03-1.24140E-04-6.75413E-14
 -1      3825 9.41473E-03-1.20686E-04-6.93125E-14
 -1      3826 9.20185E-03-9.20397E-05-6.66456E-14
 -1      3827 9.55324E-03-1.16958E-04-7.10942E-14
 -1      3828 9.69177E-03-1.12962E-04-7.28900E-14
 -1      3829 9.47728E-03-8.49558E-05-7.01884E-14
 -1      3830 9.83040E-03-1.08699E-04-7.46929E-14
 -1      3831 9.96938E-03-1.04238E-04-7.65028E-14
 -1      3832 9.75189E-03-7.62673E-05-7.37758E-14
 -1      3833 1.01088E-02-9.95776E-05-7.83190E-14
 -1      3834 1.02492E-02-9.49137E-05-8.01413E-14
 -1      3835 1.00266E-02-6.58563E-05-7.73967E-14
 -1      3836 1.03906E-02-9.02545E-05-8.19709E-14
 -1      3837 1.05337E-02-8.60321E-05-8.38044E-14
 -1      3838 1.03030E-02-5.38983E-05-8.10431E-14
 -1      3839 1.06789E-02-8.22533E-05-8.56447E-14
 -1      3840 1.08270E-02-7.98234E-05-8.74884E-14
 -1      3841 1.05838E-02-4.12408E-05-8.47120E-14
 -1      3842 1.09785E-02-7.87945E-05-8.93375E-14
 -1      3843 1.11343E-02-8.05839E-05-9.11894E-14
 -1      3844 1.08735E-02-3.00498E-05-8.84003E-14
 -1      3845 1.15729E-02-1.28613E-04-9.59552E-14
 -1      3846 2.08590E-03 2.54074E-04-4.41376E-15
 -1      3847 1.94142E-03 2.48118E-04-3.87970E-15
 -1      3848 2.15371E-03 2.20612E-04-4.72587E-15
 -1      3849 1.12812E-02-4.69608E-05-9.31502E-14
 -1      3850 1.11358E-02 1.85852E-05-9.19723E-14
 -1      3851 3.09249E-03 1.97334E-04-9.14670E-15
 -1      3852 2.94760E-03 1.96526E-04-8.38361E-15
 -1      3853 1.84432E-03-1.42032E-04-3.68848E-15
 -1      3854 1.98887E-03-1.46178E-04-4.21183E-15
 -1      3855 3.67089E-03 1.98474E-04-1.25072E-14
 -1      3856 3.52647E-03 1.98432E-04-1.16215E-14
 -1      3857 4.82209E-03 1.96544E-04-2.06571E-14
 -1      3858 4.67854E-03 1.96886E-04-1.95390E-14
 -1      3859 4.53490E-03 1.97212E-04-1.84487E-14
 -1      3860 4.39117E-03 1.97526E-04-1.73861E-14
 -1      3861 4.60612E-03 1.59248E-04-1.90300E-14
 -1      3862 5.39553E-03 1.95121E-04-2.53928E-14
 -1      3863 5.25227E-03 1.95486E-04-2.41705E-14
 -1      3864 5.68185E-03 1.94369E-04-2.79101E-14
 -1      3865 5.53872E-03 1.94750E-04-2.66397E-14
 -1      3866 5.46690E-03 1.57540E-04-2.60542E-14
 -1      3867 5.96793E-03 1.93564E-04-3.05249E-14
 -1      3868 5.82492E-03 1.93975E-04-2.92056E-14
 -1      3869 5.75321E-03 1.56922E-04-2.85964E-14
 -1      3870 6.25376E-03 1.92673E-04-3.32323E-14
 -1      3871 6.11088E-03 1.93132E-04-3.18672E-14
 -1      3872 6.03926E-03 1.56255E-04-3.12343E-14
 -1      3873 6.53932E-03 1.91655E-04-3.60294E-14
 -1      3874 6.39658E-03 1.92183E-04-3.46195E-14
 -1      3875 6.32502E-03 1.55511E-04-3.39652E-14
 -1      3876 6.82456E-03 1.90466E-04-3.89160E-14
 -1      3877 6.68198E-03 1.91085E-04-3.74613E-14
 -1      3878 6.61046E-03 1.54657E-04-3.67847E-14
 -1      3879 7.10939E-03 1.89064E-04-4.18881E-14
 -1      3880 6.96703E-03 1.89795E-04-4.03923E-14
 -1      3881 6.89551E-03 1.53661E-04-3.96942E-14
 -1      3882 7.39369E-03 1.87415E-04-4.49442E-14
 -1      3883 7.25161E-03 1.88274E-04-4.34060E-14
 -1      3884 7.18008E-03 1.52494E-04-4.26868E-14
 -1      3885 7.67729E-03 1.85503E-04-4.80786E-14
 -1      3886 7.53559E-03 1.86495E-04-4.65018E-14
 -1      3887 7.46402E-03 1.51141E-04-4.57632E-14
 -1      3888 7.95996E-03 1.83346E-04-5.12893E-14
 -1      3889 7.81875E-03 1.84456E-04-4.96751E-14
 -1      3890 7.74714E-03 1.49609E-04-4.89167E-14
 -1      3891 8.24139E-03 1.81015E-04-5.45705E-14
 -1      3892 8.10085E-03 1.82201E-04-5.29212E-14
 -1      3893 8.02916E-03 1.47945E-04-5.21442E-14
 -1      3894 8.52118E-03 1.78665E-04-5.79229E-14
 -1      3895 8.38152E-03 1.79837E-04-5.62382E-14
 -1      3896 8.30977E-03 1.46259E-04-5.54448E-14
 -1      3897 8.79880E-03 1.76575E-04-6.13377E-14
 -1      3898 8.66030E-03 1.77577E-04-5.96222E-14
 -1      3899 8.58852E-03 1.44754E-04-5.88128E-14
 -1      3900 9.07356E-03 1.75194E-04-6.48096E-14
 -1      3901 8.93658E-03 1.75778E-04-6.30670E-14
 -1      3902 8.86484E-03 1.43763E-04-6.22419E-14
 -1      3903 9.34457E-03 1.75203E-04-6.83351E-14
 -1      3904 9.20959E-03 1.74999E-04-6.65660E-14
 -1      3905 9.13805E-03 1.43803E-04-6.57254E-14
 -1      3906 9.61070E-03 1.77571E-04-7.19081E-14
 -1      3907 9.47833E-03 1.76058E-04-7.01161E-14
 -1      3908 9.40725E-03 1.45627E-04-6.92616E-14
 -1      3909 9.87047E-03 1.83610E-04-7.55238E-14
 -1      3910 9.74149E-03 1.80093E-04-7.37113E-14
 -1      3911 9.67134E-03 1.50278E-04-7.28455E-14
 -1      3912 1.01220E-02 1.94985E-04-7.91736E-14
 -1      3913 9.99742E-03 1.88602E-04-7.73454E-14
 -1      3914 9.92893E-03 1.59125E-04-7.64703E-14
 -1      3915 1.03627E-02 2.13592E-04-8.28439E-14
 -1      3916 1.02440E-02 2.03406E-04-8.10069E-14
 -1      3917 1.01783E-02 1.73862E-04-8.01241E-14
 -1      3918 5.10895E-03 1.95843E-04-2.29734E-14
 -1      3919 4.96556E-03 1.96198E-04-2.18019E-14
 -1      3920 5.18030E-03 1.58129E-04-2.36096E-14
 -1      3921 1.86452E-03 2.10021E-04-3.65420E-15
 -1      3922 1.08044E-02 2.76442E-04-9.03949E-14
 -1      3923 1.62478E-03-3.59981E-05-2.98738E-15
 -1      3924 1.50100E-03-5.19157E-05-2.60226E-15
 -1      3925 2.80262E-03 1.95397E-04-7.65210E-15
 -1      3926 2.65758E-03 1.93912E-04-6.95204E-15
 -1      3927 2.87276E-03 1.58285E-04-8.04460E-15
 -1      3928 1.10039E-02 6.27406E-05-9.08010E-14
 -1      3929 3.38193E-03 1.98245E-04-1.07657E-14
 -1      3930 3.23727E-03 1.97899E-04-9.94093E-15
 -1      3931 3.45257E-03 1.60265E-04-1.12247E-14
 -1      3932 1.07361E-02 2.27937E-04-8.90221E-14
 -1      3933 1.07166E-02 2.56802E-04-8.87863E-14
 -1      3934 1.06250E-02 2.40063E-04-8.71791E-14
 -1      3935 2.13373E-03-1.49624E-04-4.76896E-15
 -1      3936 2.27879E-03-1.52444E-04-5.35898E-15
 -1      3937 2.34905E-03-1.17134E-04-5.67622E-15
 -1      3938 2.05879E-03-1.12745E-04-4.49597E-15
 -1      3939 2.51249E-03 1.91975E-04-6.28394E-15
 -1      3940 2.36741E-03 1.89538E-04-5.64743E-15
 -1      3941 2.58232E-03 1.55792E-04-6.64194E-15
 -1      3942 1.14010E-02-1.12864E-04-9.40905E-14
 -1      3943 3.16289E-03 1.59659E-04-9.57281E-15
 -1      3944 1.45649E-03-7.78251E-05-2.46439E-15
 -1      3945 1.08950E-02 2.68827E-05-8.91287E-14
 -1      3946 1.08769E-02 1.07806E-04-8.96736E-14
 -1      3947 1.07911E-02 1.22596E-04-8.87267E-14
 -1      3948 1.07527E-02 1.82982E-05-8.72798E-14
 -1      3949 1.93280E-03 1.78219E-04-3.93540E-15
 -1      3950 1.78841E-03 1.72810E-04-3.43092E-15
 -1      3951 4.31846E-03 1.59747E-04-1.69048E-14
 -1      3952 4.24734E-03 1.97811E-04-1.63526E-14
 -1      3953 4.10340E-03 1.98067E-04-1.53476E-14
 -1      3954 4.89338E-03 1.58700E-04-2.12669E-14
 -1      3955 1.05449E-02 2.31510E-04-8.58108E-14
 -1      3956 1.04470E-02 2.18643E-04-8.42099E-14
 -1      3957 1.03864E-02 1.88422E-04-8.33212E-14
 -1      3958 1.05576E-02 2.01445E-04-8.60502E-14
 -1      3959 1.47868E-03 1.44677E-04-2.47003E-15
 -1      3960 1.48363E-03 1.13662E-04-2.50785E-15
 -1      3961 1.60585E-03 1.00001E-04-2.89020E-15
 -1      3962 1.56535E-03 1.54706E-04-2.72265E-15
 -1      3963 1.33417E-03-1.11222E-04-2.10445E-15
 -1      3964 3.81518E-03 1.98417E-04-1.34234E-14
 -1      3965 3.74172E-03 1.60365E-04-1.29983E-14
 -1      3966 3.95935E-03 1.98271E-04-1.43710E-14
 -1      3967 1.74933E-03-1.85261E-05-3.39695E-15
 -1      3968 1.74935E-03-5.64393E-05-3.39437E-15
 -1      3969 1.75020E-03 5.56957E-05-3.38371E-15
 -1      3970 1.74934E-03 1.85618E-05-3.39217E-15
 -1      3971 1.87372E-03-5.79224E-07-3.82752E-15
 -1      3972 1.59157E-03-1.16034E-04-2.86023E-15
 -1      3973 1.69945E-03-1.21919E-04-3.20489E-15
 -1      3974 1.65232E-03 1.64631E-04-2.98744E-15
 -1      3975 1.07175E-02 1.92856E-04-8.84327E-14
 -1      3976 1.72107E-03 1.34744E-04-3.23857E-15
 -1      3977 6.11059E-03 1.19029E-04-3.19448E-14
 -1      3978 5.96764E-03 1.19293E-04-3.06030E-14
 -1      3979 4.67751E-03 1.21301E-04-1.96137E-14
 -1      3980 4.53371E-03 1.21500E-04-1.85220E-14
 -1      3981 2.85638E-03-8.35519E-05-8.05863E-15
 -1      3982 3.00173E-03-8.39583E-05-8.80981E-15
 -1      3983 3.14700E-03-8.42417E-05-9.59134E-15
 -1      3984 3.29214E-03-8.44093E-05-1.04028E-14
 -1      3985 3.07361E-03-4.61060E-05-9.19638E-15
 -1      3986 3.43716E-03-8.44962E-05-1.12453E-14
 -1      3987 3.58203E-03-8.45048E-05-1.21187E-14
 -1      3988 3.36402E-03-4.62734E-05-1.08195E-14
 -1      3989 3.72676E-03-8.44634E-05-1.30215E-14
 -1      3990 3.87134E-03-8.43707E-05-1.39546E-14
 -1      3991 3.65389E-03-4.62618E-05-1.25642E-14
 -1      3992 4.01577E-03-8.42508E-05-1.49175E-14
 -1      3993 4.16007E-03-8.40976E-05-1.59096E-14
 -1      3994 3.94317E-03-4.61400E-05-1.44291E-14
 -1      3995 4.30423E-03-8.39311E-05-1.69306E-14
 -1      3996 4.44827E-03-8.37460E-05-1.79798E-14
 -1      3997 4.23186E-03-4.59436E-05-1.64129E-14
 -1      3998 4.59218E-03-8.35545E-05-1.90564E-14
 -1      3999 4.73598E-03-8.33529E-05-2.01615E-14
 -1      4000 4.52002E-03-4.57082E-05-1.85104E-14
 -1      4001 4.87968E-03-8.31510E-05-2.12930E-14
 -1      4002 5.02327E-03-8.29428E-05-2.24515E-14
 -1      4003 4.80769E-03-4.54577E-05-2.07188E-14
 -1      4004 5.16677E-03-8.27351E-05-2.36359E-14
 -1      4005 5.31018E-03-8.25226E-05-2.48462E-14
 -1      4006 5.09493E-03-4.51991E-05-2.30340E-14
 -1      4007 5.45350E-03-8.23094E-05-2.60816E-14
 -1      4008 5.59674E-03-8.20904E-05-2.73417E-14
 -1      4009 5.38178E-03-4.49348E-05-2.54534E-14
 -1      4010 5.73990E-03-8.18677E-05-2.86255E-14
 -1      4011 5.88298E-03-8.16364E-05-2.99324E-14
 -1      4012 5.66829E-03-4.46627E-05-2.79715E-14
 -1      4013 6.02598E-03-8.13968E-05-3.12644E-14
 -1      4014 6.16890E-03-8.11436E-05-3.26186E-14
 -1      4015 5.95447E-03-4.43754E-05-3.05859E-14
 -1      4016 6.31174E-03-8.08762E-05-3.39959E-14
 -1      4017 6.45448E-03-8.05885E-05-3.53962E-14
 -1      4018 6.24031E-03-4.40611E-05-3.32930E-14
 -1      4019 6.59712E-03-8.02789E-05-3.68189E-14
 -1      4020 6.73966E-03-7.99401E-05-3.82636E-14
 -1      4021 6.52578E-03-4.37025E-05-3.60922E-14
 -1      4022 6.88208E-03-7.95699E-05-3.97293E-14
 -1      4023 7.02437E-03-7.91591E-05-4.12168E-14
 -1      4024 6.81083E-03-4.32761E-05-3.89801E-14
 -1      4025 7.16651E-03-7.87049E-05-4.27245E-14
 -1      4026 7.30850E-03-7.81952E-05-4.42525E-14
 -1      4027 7.09535E-03-4.27492E-05-4.19536E-14
 -1      4028 7.45030E-03-7.76266E-05-4.58009E-14
 -1      4029 7.59190E-03-7.69832E-05-4.73673E-14
 -1      4030 7.37922E-03-4.20767E-05-4.50087E-14
 -1      4031 7.73327E-03-7.62608E-05-4.89526E-14
 -1      4032 7.87440E-03-7.54381E-05-5.05575E-14
 -1      4033 7.66228E-03-4.11948E-05-4.81411E-14
 -1      4034 8.01524E-03-7.45095E-05-5.21807E-14
 -1      4035 8.15579E-03-7.34471E-05-5.38211E-14
 -1      4036 7.94432E-03-4.00136E-05-5.13480E-14
 -1      4037 8.29600E-03-7.22429E-05-5.54796E-14
 -1      4038 8.43586E-03-7.08609E-05-5.71557E-14
 -1      4039 8.22510E-03-3.84057E-05-5.46291E-14
 -1      4040 8.57533E-03-6.92889E-05-5.88459E-14
 -1      4041 8.71440E-03-6.74820E-05-6.05508E-14
 -1      4042 8.50437E-03-3.61921E-05-5.79784E-14
 -1      4043 8.85302E-03-6.54215E-05-6.22705E-14
 -1      4044 8.99121E-03-6.30539E-05-6.40032E-14
 -1      4045 8.78185E-03-3.31250E-05-6.13894E-14
 -1      4046 9.12893E-03-6.03510E-05-6.57505E-14
 -1      4047 9.26621E-03-5.72541E-05-6.75107E-14
 -1      4048 9.05728E-03-2.88696E-05-6.48563E-14
 -1      4049 9.40303E-03-5.37216E-05-6.92835E-14
 -1      4050 9.53947E-03-4.96987E-05-7.10655E-14
 -1      4051 9.33047E-03-2.29891E-05-6.83750E-14
 -1      4052 9.67550E-03-4.51274E-05-7.28585E-14
 -1      4053 9.81132E-03-3.99763E-05-7.46634E-14
 -1      4054 9.60136E-03-1.49414E-05-7.19419E-14
 -1      4055 9.94691E-03-3.41698E-05-7.64739E-14
 -1      4056 1.00826E-02-2.77400E-05-7.82907E-14
 -1      4057 9.87013E-03-4.10643E-06-7.55481E-14
 -1      4058 1.02184E-02-2.05947E-05-8.01147E-14
 -1      4059 1.03548E-02-1.29156E-05-8.19449E-14
 -1      4060 1.01374E-02 1.01213E-05-7.91849E-14
 -1      4061 1.04836E-02-2.13372E-06-8.36864E-14
 -1      4062 1.06219E-02 6.51578E-06-8.55263E-14
 -1      4063 1.06479E-02 5.66995E-05-8.62477E-14
 -1      4064 1.03965E-02 3.02766E-05-8.27520E-14
 -1      4065 3.23383E-03 1.21796E-04-1.00023E-14
 -1      4066 3.08874E-03 1.21428E-04-9.20588E-15
 -1      4067 2.22240E-03 1.86484E-04-5.04375E-15
 -1      4068 2.07749E-03 1.82753E-04-4.47309E-15
 -1      4069 2.29188E-03 1.51731E-04-5.36704E-15
 -1      4070 1.74162E-03 1.06121E-04-3.32816E-15
 -1      4071 5.82460E-03 1.19542E-04-2.92834E-14
 -1      4072 5.68150E-03 1.19782E-04-2.79876E-14
 -1      4073 5.89601E-03 8.22391E-05-2.99715E-14
 -1      4074 5.53831E-03 1.20012E-04-2.67162E-14
 -1      4075 5.39506E-03 1.20238E-04-2.54699E-14
 -1      4076 5.60977E-03 8.25509E-05-2.73807E-14
 -1      4077 6.39626E-03 1.18453E-04-3.46985E-14
 -1      4078 6.25347E-03 1.18751E-04-3.33098E-14
 -1      4079 6.18192E-03 8.18962E-05-3.26563E-14
 -1      4080 6.68157E-03 1.17791E-04-3.75425E-14
 -1      4081 6.53896E-03 1.18135E-04-3.61093E-14
 -1      4082 6.46749E-03 8.15090E-05-3.54336E-14
 -1      4083 6.96643E-03 1.17022E-04-4.04724E-14
 -1      4084 6.82406E-03 1.17422E-04-3.89963E-14
 -1      4085 6.75265E-03 8.10653E-05-3.83007E-14
 -1      4086 7.25073E-03 1.16134E-04-4.34872E-14
 -1      4087 7.10866E-03 1.16595E-04-4.19695E-14
 -1      4088 7.03732E-03 8.05583E-05-4.12522E-14
 -1      4089 7.53431E-03 1.15130E-04-4.65822E-14
 -1      4090 7.39262E-03 1.15648E-04-4.50254E-14
 -1      4091 7.32136E-03 7.99920E-05-4.42886E-14
 -1      4092 7.81696E-03 1.14043E-04-4.97555E-14
 -1      4093 7.67577E-03 1.14598E-04-4.81592E-14
 -1      4094 7.60460E-03 7.93897E-05-4.74037E-14
 -1      4095 8.09838E-03 1.12948E-04-5.30014E-14
 -1      4096 7.95784E-03 1.13495E-04-5.13694E-14
 -1      4097 7.88680E-03 7.88066E-05-5.05948E-14
 -1      4098 8.37823E-03 1.11990E-04-5.63202E-14
 -1      4099 8.23852E-03 1.12448E-04-5.46520E-14
 -1      4100 8.16768E-03 7.83468E-05-5.38590E-14
 -1      4101 8.65604E-03 1.11414E-04-5.97019E-14
 -1      4102 8.51742E-03 1.11646E-04-5.80028E-14
 -1      4103 8.44686E-03 7.81870E-05-5.71940E-14
 -1      4104 8.93128E-03 1.11603E-04-6.31452E-14
 -1      4105 8.79402E-03 1.11400E-04-6.14164E-14
 -1      4106 8.72391E-03 7.86074E-05-6.05925E-14
 -1      4107 9.20324E-03 1.13126E-04-6.66419E-14
 -1      4108 9.06772E-03 1.12178E-04-6.48866E-14
 -1      4109 8.99829E-03 8.00293E-05-6.40492E-14
 -1      4110 9.47110E-03 1.16788E-04-7.01896E-14
 -1      4111 9.33775E-03 1.14664E-04-6.84099E-14
 -1      4112 9.26937E-03 8.30574E-05-6.75574E-14
 -1      4113 9.73387E-03 1.23669E-04-7.37823E-14
 -1      4114 9.60321E-03 1.19796E-04-7.19801E-14
 -1      4115 9.53644E-03 8.85221E-05-7.11158E-14
 -1      4116 9.99033E-03 1.35144E-04-7.74128E-14
 -1      4117 9.86300E-03 1.28804E-04-7.55931E-14
 -1      4118 9.79870E-03 9.75070E-05-7.47176E-14
 -1      4119 1.02391E-02 1.52881E-04-8.10703E-14
 -1      4120 1.01158E-02 1.43215E-04-7.92397E-14
 -1      4121 1.00552E-02 1.11352E-04-7.83544E-14
 -1      4122 1.06836E-02 1.52727E-04-8.75753E-14
 -1      4123 1.06001E-02 1.73982E-04-8.65636E-14
 -1      4124 5.25172E-03 1.20458E-04-2.42471E-14
 -1      4125 5.10830E-03 1.20675E-04-2.30491E-14
 -1      4126 5.32321E-03 8.28432E-05-2.48854E-14
 -1      4127 2.56549E-03-8.22315E-05-6.65281E-15
 -1      4128 2.71094E-03-8.29808E-05-7.33991E-15
 -1      4129 2.78276E-03-4.56700E-05-7.69640E-15
 -1      4130 4.96480E-03 1.20887E-04-2.18775E-14
 -1      4131 4.82120E-03 1.21098E-04-2.07320E-14
 -1      4132 4.74904E-03 8.33931E-05-2.01983E-14
 -1      4133 2.94352E-03 1.20885E-04-8.44137E-15
 -1      4134 2.79823E-03 1.20159E-04-7.70720E-15
 -1      4135 3.01485E-03 8.32448E-05-8.84176E-15
 -1      4136 1.76927E-03-9.09451E-05-3.45276E-15
 -1      4137 2.00190E-03 1.45533E-04-4.22267E-15
 -1      4138 1.89372E-03-7.41229E-05-3.89441E-15
 -1      4139 3.52365E-03 1.22170E-04-1.16862E-14
 -1      4140 3.37881E-03 1.22042E-04-1.08290E-14
 -1      4141 3.30525E-03 8.37919E-05-1.04348E-14
 -1      4142 2.01881E-03-3.98871E-05-4.36244E-15
 -1      4143 2.03845E-03-7.61735E-05-4.43071E-15
 -1      4144 2.18350E-03-7.78661E-05-5.00060E-15
 -1      4145 1.86493E-03 8.95408E-05-3.76394E-15
 -1      4146 4.46133E-03 8.36445E-05-1.80148E-14
 -1      4147 4.38980E-03 1.21681E-04-1.74584E-14
 -1      4148 4.24577E-03 1.21854E-04-1.64237E-14
 -1      4149 2.65287E-03 1.19183E-04-7.00458E-15
 -1      4150 2.50750E-03 1.17945E-04-6.33399E-15
 -1      4151 2.72406E-03 8.21974E-05-7.37183E-15
 -1      4152 4.03034E-03 1.60148E-04-1.48928E-14
 -1      4153 1.05113E-02 1.66867E-04-8.51993E-14
 -1      4154 1.03294E-02 1.56562E-04-8.24293E-14
 -1      4155 1.02742E-02 1.23305E-04-8.15390E-14
 -1      4156 1.04189E-02 1.61308E-04-8.37914E-14
 -1      4157 1.06615E-02 1.07000E-04-8.68581E-14
 -1      4158 5.03631E-03 8.31235E-05-2.24894E-14
 -1      4159 2.30173E-03-7.96493E-05-5.48833E-15
 -1      4160 2.44710E-03-8.08144E-05-6.11703E-15
 -1      4161 2.51882E-03-4.43052E-05-6.44471E-15
 -1      4162 2.28208E-03-4.20586E-05-5.41188E-15
 -1      4163 1.50189E-03-1.09544E-04-2.58745E-15
 -1      4164 3.81291E-03 1.22194E-04-1.34914E-14
 -1      4165 3.66836E-03 1.22221E-04-1.25741E-14
 -1      4166 3.59513E-03 8.40023E-05-1.21510E-14
 -1      4167 2.01840E-03-5.74691E-07-4.35940E-15
 -1      4168 2.00957E-03 9.21326E-05-4.29127E-15
 -1      4169 3.33407E-03 1.87808E-05-1.06338E-14
 -1      4170 3.18888E-03 1.87199E-05-9.81413E-15
 -1      4171 3.47913E-03 1.88411E-05-1.14839E-14
 -1      4172 3.62404E-03 1.88721E-05-1.23647E-14
 -1      4173 3.76880E-03 1.89033E-05-1.32749E-14
 -1      4174 4.15962E-03-7.87850E-06-1.58966E-14
 -1      4175 4.30385E-03-7.82735E-06-1.69166E-14
 -1      4176 4.49046E-03 1.89480E-05-1.82698E-14
 -1      4177 4.63439E-03 1.89502E-05-1.93539E-14
 -1      4178 4.77820E-03 1.89442E-05-2.04651E-14
 -1      4179 4.92190E-03 1.89434E-05-2.16042E-14
 -1      4180 5.06550E-03 1.89369E-05-2.27692E-14
 -1      4181 5.20901E-03 1.89342E-05-2.39603E-14
 -1      4182 5.35242E-03 1.89269E-05-2.51770E-14
 -1      4183 5.49574E-03 1.89225E-05-2.64176E-14
 -1      4184 5.63897E-03 1.89143E-05-2.76830E-14
 -1      4185 5.78213E-03 1.89080E-05-2.89716E-14
 -1      4186 5.92519E-03 1.88983E-05-3.02854E-14
 -1      4187 6.06818E-03 1.88903E-05-3.16225E-14
 -1      4188 6.21107E-03 1.88791E-05-3.29813E-14
 -1      4189 6.35388E-03 1.88701E-05-3.43640E-14
 -1      4190 6.49658E-03 1.88585E-05-3.57699E-14
 -1      4191 6.63918E-03 1.88511E-05-3.71974E-14
 -1      4192 6.78166E-03 1.88425E-05-3.86465E-14
 -1      4193 6.92401E-03 1.88426E-05-4.01167E-14
 -1      4194 7.06621E-03 1.88449E-05-4.16094E-14
 -1      4195 7.20825E-03 1.88640E-05-4.31220E-14
 -1      4196 7.35011E-03 1.88919E-05-4.46538E-14
 -1      4197 7.49176E-03 1.89503E-05-4.62066E-14
 -1      4198 7.63317E-03 1.90296E-05-4.77776E-14
 -1      4199 7.77432E-03 1.91617E-05-4.93672E-14
 -1      4200 7.91517E-03 1.93351E-05-5.09763E-14
 -1      4201 8.05569E-03 1.95958E-05-5.26035E-14
 -1      4202 8.19584E-03 1.99308E-05-5.42493E-14
 -1      4203 8.33557E-03 2.04052E-05-5.59133E-14
 -1      4204 8.47485E-03 2.10047E-05-5.75908E-14
 -1      4205 8.61362E-03 2.18198E-05-5.92854E-14
 -1      4206 8.75182E-03 2.28355E-05-6.09952E-14
 -1      4207 8.88943E-03 2.41742E-05-6.27193E-14
 -1      4208 9.02636E-03 2.58216E-05-6.44572E-14
 -1      4209 9.16259E-03 2.79383E-05-6.62068E-14
 -1      4210 9.29802E-03 3.05120E-05-6.79702E-14
 -1      4211 9.43268E-03 3.37460E-05-6.97469E-14
 -1      4212 9.56641E-03 3.76305E-05-7.15330E-14
 -1      4213 9.69932E-03 4.24117E-05-7.33291E-14
 -1      4214 9.83119E-03 4.80808E-05-7.51365E-14
 -1      4215 9.96225E-03 5.49168E-05-7.69512E-14
 -1      4216 1.00922E-02 6.29176E-05-7.87742E-14
 -1      4217 1.02215E-02 7.23205E-05-8.06013E-14
 -1      4218 2.36216E-03 1.16371E-04-5.69523E-15
 -1      4219 2.21692E-03 1.14431E-04-5.08893E-15
 -1      4220 2.43315E-03 8.04436E-05-6.02845E-15
 -1      4221 3.04356E-03 1.86200E-05-9.02502E-15
 -1      4222 2.89814E-03 1.85132E-05-8.26706E-15
 -1      4223 1.04633E-02 1.31077E-04-8.43023E-14
 -1      4224 1.05408E-02 9.08365E-05-8.51045E-14
 -1      4225 2.08059E-03 5.80483E-05-4.58062E-15
 -1      4226 2.75264E-03 1.83562E-05-7.54011E-15
 -1      4227 4.10162E-03 1.21999E-04-1.54172E-14
 -1      4228 3.95734E-03 1.22120E-04-1.44394E-14
 -1      4229 4.17314E-03 8.38592E-05-1.59436E-14
 -1      4230 2.60711E-03 1.81815E-05-6.84438E-15
 -1      4231 3.87073E-03-7.97014E-06-1.39439E-14
 -1      4232 4.01525E-03-7.92187E-06-1.49062E-14
 -1      4233 1.03185E-02 7.43417E-05-8.19556E-14
 -1      4234 3.84143E-03 5.71371E-05-1.37250E-14
 -1      4235 1.04395E-02 8.80434E-05-8.36990E-14
 -1      4236 2.22492E-03 1.87049E-05-5.16938E-15
 -1      4237 2.34321E-03 1.83648E-05-5.66432E-15
 -1      4238 4.41863E-03 5.69513E-05-1.77185E-14
 -1      4239 4.08754E-03 3.02507E-05-1.53834E-14
 -1      4240 2.48868E-03 1.86339E-05-6.30156E-15
 -1      4241 3.98594E-03 5.71115E-05-1.46798E-14
 -1      4242 4.13031E-03 5.70740E-05-1.56634E-14
 -1      4243 3.88443E-03 8.39990E-05-1.39878E-14
 -1      4244 4.27453E-03 5.70174E-05-1.66762E-14
 -3
    1PSTEP                         2           1           1          
  100CL  101 1.000000000        4244                     0    1           1
 -4  STRESS      6    1
 -5  SXX         1    4    1    1
 -5  SYY         1    4    2    2
 -5  SZZ         1    4    3    3
 -5  SXY         1    4    1    2
 -5  SYZ         1    4    2    3
 -5  SZX         1    4    3    1
 -1         1 7.26672E+01 8.43783E+00 4.01180E+00-2.32889E+01-1.26815E-13 3.00704E-13
 -1         2-1.83167E+00-4.40877E+01-8.32110E+00-7.56161E-01 3.13424E-12 5.44703E-14
 -1         3 2.03575E+01 3.61878E-01 8.46976E-01 3.45156E-01 2.94627E-13 2.14526E-13
 -1         4 2.00887E+01 9.38009E-02-2.83500E-02-9.11963E-02-5.14673E-13 5.74131E-13
 -1         5 3.27686E+01 6.14278E+00 2.74212E+00 6.22406E+00-4.21330E-14 3.19664E-12
 -1         6 3.57522E+01 1.22632E+01 5.12510E+00-8.64632E+00-1.98605E-13 3.26922E-12
 -1         7 2.08203E+01 6.10012E+00-1.28505E-01-4.72486E+00-2.95319E-14 6.24990E-13
 -1         8 1.96731E+01 5.93536E+00 5.10231E-02-3.27384E+00-3.82472E-14-2.03820E-13
 -1         9 1.91383E+01 5.77221E+00 4.91966E-02-2.52547E+00-3.52531E-14-6.56814E-13
 -1        10 1.88951E+01 5.69215E+00 5.09584E-02-1.95014E+00-2.14507E-14-8.81409E-13
 -1        11 1.87733E+01 5.65114E+00 5.02761E-02-1.45528E+00-1.80962E-14-9.76421E-13
 -1        12 1.87095E+01 5.62941E+00 4.88105E-02-1.01446E+00-9.85952E-15-1.02021E-12
 -1        13 1.86755E+01 5.61786E+00 4.73906E-02-5.94886E-01-8.43032E-15-1.01951E-12
 -1        14 1.86612E+01 5.61296E+00 4.66543E-02-1.91041E-01 7.27066E-16-1.01921E-12
 -1        15 1.86617E+01 5.61312E+00 4.66958E-02 2.08046E-01 3.46099E-15-1.01793E-12
 -1        16 1.86771E+01 5.61833E+00 4.75238E-02 6.12728E-01 1.17847E-14-1.01084E-12
 -1        17 1.87122E+01 5.63014E+00 4.90509E-02 1.03425E+00 1.31453E-14-9.84709E-13
 -1        18 1.87774E+01 5.65229E+00 5.07988E-02 1.47811E+00 1.88538E-14-9.25931E-13
 -1        19 1.89013E+01 5.69394E+00 5.16857E-02 1.97903E+00 2.81632E-14-8.03007E-13
 -1        20 1.91440E+01 5.77485E+00 4.91540E-02 2.56293E+00 3.98674E-14-5.74491E-13
 -1        21 1.96681E+01 5.94985E+00 4.58632E-02 3.30794E+00 4.63449E-14-1.06413E-13
 -1        22 2.12028E+01 6.38181E+00 1.39555E-01 4.52234E+00 7.29972E-15 8.76119E-13
 -1        23 2.30312E+01-1.37931E+00-9.38352E-01-7.10989E-01-1.33726E-13 2.56564E-12
 -1        24 1.93695E+01-9.94849E-02-3.09809E-01 6.32385E-02-3.82654E-14 1.97635E-12
 -1        25 1.86819E+01-5.63263E-02-6.88029E-02 6.07241E-02-3.01840E-14 1.34043E-12
 -1        26 1.84803E+01-2.20951E-02-6.50262E-03 3.30031E-02-9.32045E-15 8.79807E-13
 -1        27 1.84926E+01-1.18048E-02 1.58247E-03 2.26346E-02-7.74348E-15 6.13318E-13
 -1        28 1.86079E+01-6.24118E-03 1.77963E-03 1.63348E-02-3.98141E-15 4.01295E-13
 -1        29 1.87688E+01-3.08374E-03 1.71897E-03 1.21945E-02 1.41548E-14 2.96165E-13
 -1        30 1.89443E+01-1.22518E-03 1.90401E-03 9.24919E-03 5.70192E-15 2.19934E-13
 -1        31 1.91164E+01-1.24434E-04 2.06942E-03 7.03845E-03-1.48852E-14 2.75890E-14
 -1        32 1.92754E+01 5.09022E-04 2.10758E-03 5.32970E-03-1.63591E-14-1.87325E-13
 -1        33 1.94163E+01 8.44869E-04 2.02597E-03 3.99220E-03-6.37070E-16-3.05483E-13
 -1        34 1.95373E+01 9.89217E-04 1.86310E-03 2.94267E-03 7.77501E-15-2.65731E-13
 -1        35 1.96384E+01 1.01154E-03 1.65535E-03 2.12175E-03-7.72468E-15-3.56897E-13
 -1        36 1.97209E+01 9.58379E-04 1.42963E-03 1.48360E-03 1.60218E-14-3.77610E-13
 -1        37 1.97867E+01 8.60818E-04 1.20374E-03 9.91206E-04-3.73239E-14-3.78346E-13
 -1        38 1.98382E+01 7.39050E-04 9.88070E-04 6.14057E-04-1.88646E-15-4.71237E-13
 -1        39 1.98776E+01 6.05312E-04 7.87213E-04 3.27087E-04 5.99343E-15-5.46439E-13
 -1        40 1.99073E+01 4.65952E-04 6.01231E-04 1.10134E-04 2.33635E-15-6.20211E-13
 -1        41 1.99296E+01 3.22946E-04 4.26705E-04-5.23094E-05 4.14195E-15-7.33188E-13
 -1        42 1.99466E+01 1.75070E-04 2.57541E-04-1.71174E-04-5.26199E-15-8.68179E-13
 -1        43 1.99607E+01 1.88593E-05 8.55992E-05-2.52750E-04-2.92477E-14-7.54496E-13
 -1        44 1.99740E+01-1.50516E-04-9.87531E-05-2.98451E-04 4.10307E-14-4.68485E-13
 -1        45 1.99890E+01-3.38317E-04-3.06027E-04-3.04395E-04-3.20482E-14-4.57655E-13
 -1        46 2.00086E+01-5.49069E-04-5.46731E-04-2.60832E-04 1.70842E-14-4.49447E-13
 -1        47 2.00358E+01-7.84969E-04-8.29946E-04-1.51511E-04-6.52863E-15-1.48118E-13
 -1        48 2.00742E+01-1.04363E-03-1.16100E-03 4.68050E-05 2.35173E-15-1.43512E-13
 -1        49 2.01279E+01-1.31490E-03-1.53771E-03 3.64269E-04-2.12637E-14-4.10058E-13
 -1        50 2.02015E+01-1.57650E-03-1.94462E-03 8.36625E-04 6.63408E-15-5.62813E-13
 -1        51 2.02994E+01-1.78843E-03-2.34444E-03 1.50145E-03 6.42227E-14-3.63340E-13
 -1        52 2.04259E+01-1.88625E-03-2.66613E-03 2.39015E-03-1.26793E-14 5.28006E-14
 -1        53 2.05836E+01-1.77434E-03-2.78958E-03 3.51296E-03-4.26771E-14-2.16112E-13
 -1        54 2.07727E+01-1.32139E-03-2.52857E-03 4.83359E-03-2.67243E-14-5.83442E-13
 -1        55 2.09877E+01-3.63013E-04-1.61729E-03 6.22964E-03-1.65016E-14-8.57597E-13
 -1        56 2.12156E+01 1.28020E-03 2.86592E-04 7.43702E-03 3.85494E-14-6.87279E-13
 -1        57 2.14315E+01 3.75651E-03 3.55804E-03 7.98320E-03-5.78253E-14-6.09699E-13
 -1        58 2.15956E+01 7.09390E-03 8.48108E-03 7.13089E-03 6.93654E-14-5.36788E-13
 -1        59 2.16509E+01 1.10589E-02 1.49998E-02 3.88482E-03-6.37843E-14-4.61543E-13
 -1        60 2.15256E+01 1.49808E-02 2.23329E-02-2.84278E-03-3.79284E-14-3.78999E-13
 -1        61 2.11428E+01 1.76141E-02 2.85402E-02-1.37818E-02 3.66148E-14-4.22792E-13
 -1        62 2.04426E+01 1.71935E-02 3.03330E-02-2.84951E-02-2.24058E-14-3.56781E-13
 -1        63 1.94160E+01 1.18910E-02 2.36532E-02-4.43647E-02-3.69854E-15-5.52417E-13
 -1        64 1.81460E+01 7.83969E-04 5.46554E-03-5.59717E-02-1.00159E-15-7.40522E-13
 -1        65 1.68340E+01-1.48982E-02-2.34076E-02-5.59139E-02-1.17894E-14-5.52058E-13
 -1        66 1.57868E+01-3.10028E-02-5.60204E-02-3.77553E-02 4.05121E-14-1.92311E-13
 -1        67 1.53402E+01-4.10476E-02-7.95072E-02-3.32688E-04 2.29317E-14-1.42014E-13
 -1        68 1.57269E+01-3.82258E-02-7.83389E-02 4.89009E-02 1.01014E-13 2.62779E-13
 -1        69 1.69285E+01-1.89057E-02-4.10549E-02 9.28051E-02-4.82960E-14 1.77438E-13
 -1        70 1.85546E+01 5.64965E-03 2.47661E-02 9.67287E-02-5.43572E-14 3.10786E-13
 -1        71 1.98442E+01-1.34832E-02 5.65866E-02 4.12081E-02 3.25738E-13 8.30109E-13
 -1        72 2.10439E+01-4.05111E-01-9.80566E-01-3.11681E-01 5.90743E-14 2.81815E-12
 -1        73 1.93338E+01-6.59728E-02-2.90830E-01-5.39999E-02 2.18428E-14 2.01541E-12
 -1        74 1.86914E+01-2.04020E-02-6.36675E-02-2.04549E-02 3.23122E-14 1.40963E-12
 -1        75 1.84898E+01-9.90838E-03-8.96159E-03-1.53758E-02-5.27616E-15 1.09724E-12
 -1        76 1.85014E+01-5.17251E-03 5.35976E-04-1.23551E-02 6.50819E-15 8.22337E-13
 -1        77 1.86159E+01-2.62222E-03 1.65112E-03-1.01473E-02 1.75897E-14 5.92646E-13
 -1        78 1.87761E+01-1.14632E-03 1.85493E-03-8.39529E-03-6.14279E-15 4.74213E-13
 -1        79 1.89505E+01-2.79402E-04 2.06195E-03-6.96451E-03 2.13198E-14 3.90833E-13
 -1        80 1.91217E+01 2.23436E-04 2.20463E-03-5.74420E-03-1.92522E-14 3.01368E-13
 -1        81 1.92798E+01 4.98793E-04 2.21955E-03-4.68616E-03 2.19806E-14 2.73507E-13
 -1        82 1.94199E+01 6.28780E-04 2.11852E-03-3.77099E-03 8.55791E-15 1.19234E-13
 -1        83 1.95402E+01 6.66014E-04 1.93913E-03-2.98713E-03 1.45034E-14-1.14008E-13
 -1        84 1.96407E+01 6.45385E-04 1.71725E-03-2.32371E-03-1.48910E-14-1.91814E-13
 -1        85 1.97226E+01 5.90225E-04 1.47974E-03-1.76862E-03 3.35242E-14-2.87237E-13
 -1        86 1.97880E+01 5.15871E-04 1.24439E-03-1.30848E-03 3.28856E-15-4.60890E-13
 -1        87 1.98390E+01 4.31894E-04 1.02156E-03-9.29119E-04-3.22456E-14-4.31135E-13
 -1        88 1.98779E+01 3.43580E-04 8.15883E-04-6.16173E-04-3.71837E-15-4.61266E-13
 -1        89 1.99071E+01 2.52956E-04 6.27474E-04-3.55622E-04 3.55013E-14-6.77985E-13
 -1        90 1.99287E+01 1.59500E-04 4.52928E-04-1.34194E-04-1.89351E-14-7.01772E-13
 -1        91 1.99449E+01 6.06026E-05 2.85988E-04 6.03363E-05-6.37483E-14-5.06106E-13
 -1        92 1.99579E+01-4.81829E-05 1.17920E-04 2.38996E-04 6.58387E-15-3.79232E-13
 -1        93 1.99698E+01-1.73088E-04-6.24420E-05 4.11555E-04-1.83686E-14-3.17804E-13
 -1        94 1.99831E+01-3.22280E-04-2.69014E-04 5.86512E-04 4.54679E-14-6.78225E-13
 -1        95 2.00007E+01-5.06233E-04-5.19202E-04 7.71058E-04 9.29148E-16-8.51390E-13
 -1        96 2.00259E+01-7.38355E-04-8.35212E-04 9.70927E-04 1.73773E-14-4.51447E-13
 -1        97 2.00629E+01-1.03591E-03-1.24614E-03 1.18998E-03-2.70073E-14-1.13421E-13
 -1        98 2.01174E+01-1.42124E-03-1.79123E-03 1.42919E-03 6.05442E-14-1.85840E-13
 -1        99 2.01963E+01-1.92320E-03-2.52473E-03 1.68439E-03-1.81555E-14-6.04042E-13
 -1       100 2.03094E+01-2.57837E-03-3.52300E-03 1.94141E-03-1.24110E-14-5.72879E-13
 -1       101 2.04691E+01-3.43097E-03-4.89422E-03 2.16624E-03-2.28901E-14-5.83647E-13
 -1       102 2.06924E+01-4.52870E-03-6.79036E-03 2.28524E-03 1.61432E-15-4.08538E-13
 -1       103 2.10019E+01-5.90864E-03-9.41762E-03 2.14674E-03-5.67580E-16-3.87712E-13
 -1       104 2.14280E+01-7.56092E-03-1.30326E-02 1.44898E-03 6.94801E-14-4.93814E-13
 -1       105 2.20100E+01-9.34664E-03-1.78853E-02-3.89163E-04 1.94195E-14-8.59541E-13
 -1       106 2.27978E+01-1.08308E-02-2.40049E-02-4.44159E-03-1.01648E-13-5.31564E-13
 -1       107 2.38482E+01-1.09747E-02-3.05852E-02-1.25710E-02-1.14173E-14-5.53099E-13
 -1       108 2.52132E+01-7.67648E-03-3.45229E-02-2.76595E-02 4.99687E-14-7.50726E-13
 -1       109 2.69053E+01 2.60528E-03-2.75627E-02-5.31270E-02-3.82388E-14-4.66439E-13
 -1       110 2.88207E+01 2.46505E-02 7.42397E-03-8.99970E-02 1.82541E-14-2.63206E-13
 -1       111 3.05974E+01 5.99328E-02 9.42683E-02-1.27860E-01 1.40790E-14-3.91007E-14
 -1       112 3.14222E+01 9.70880E-02 2.39147E-01-1.27620E-01-1.29931E-15 2.27153E-13
 -1       113 2.99742E+01 1.00042E-01 3.73257E-01-1.59380E-02 7.72151E-14 4.00180E-13
 -1       114 2.49341E+01 2.89007E-02 3.10323E-01 2.61574E-01-7.77217E-14 6.52672E-13
 -1       115 1.65232E+01-8.70718E-02-8.71563E-02 5.72111E-01 5.02554E-14 6.70047E-13
 -1       116 7.98995E+00-1.45117E-01-6.03252E-01 5.75809E-01 8.95638E-15 9.65922E-13
 -1       117 4.03347E+00-1.07587E-01-7.67097E-01 1.58282E-01 5.93327E-14 5.56173E-13
 -1       118 6.35552E+00-4.07024E-02-4.57529E-01-3.02884E-01 9.53942E-14-2.37296E-13
 -1       119 1.22650E+01 5.59379E-02 1.49256E-02-4.98335E-01-4.37226E-14-4.48586E-13
 -1       120 1.78914E+01 1.13259E-01 4.38812E-01-5.80196E-01-1.33637E-13 1.51629E-13
 -1       121 2.00467E+01-2.16998E+00 1.40960E-01-7.26777E-01 3.98792E-13 2.18169E-13
 -1       122 1.97591E+01-6.55558E+00-7.00718E-01-5.01092E-01-2.00256E-14-3.67099E-13
 -1       123 1.96722E+01-4.33772E+00-1.20781E+00 4.53139E-01-5.49810E-13 7.39235E-14
 -1       124 1.98633E+01 9.18558E+00-3.37529E-01 1.80659E+00-1.12538E-12-2.57348E-13
 -1       125 2.01215E+01 2.87707E+01 1.92365E+00 1.75546E+00-3.23197E-12-2.69909E-13
 -1       126 2.04838E+01 4.16567E+01 3.78182E+00 5.58571E-01-3.08499E-12-1.64833E-13
 -1       127 2.04556E+01 3.73526E+01 3.26231E+00-1.18391E+00-2.24065E-12 1.80321E-13
 -1       128 2.01843E+01 2.05647E+01 1.20276E+00-1.61647E+00 6.23168E-13-2.21091E-14
 -1       129 1.98669E+01 1.20049E+00-6.40629E-01-1.08778E+00 2.26991E-12 2.41175E-13
 -1       130 1.97002E+01-1.17265E+01-1.24976E+00-3.98914E-01 1.98880E-12-3.73476E-13
 -1       131 1.98082E+01-1.65664E+01-7.79141E-01 1.40701E-01 1.10889E-12 6.00952E-14
 -1       132 1.99061E+01-1.47511E+01-2.28072E-01 2.41921E-01 1.56875E-13-1.56878E-13
 -1       133 1.99748E+01-1.08899E+01 2.86571E-02 1.93271E-01-2.28512E-13 1.59182E-13
 -1       134 2.00068E+01-7.08528E+00 9.03898E-02 1.31855E-01 3.74367E-13 8.77197E-14
 -1       135 2.00235E+01-3.93968E+00 9.36822E-02 9.50098E-02 3.12472E-13-3.49853E-13
 -1       136 2.00361E+01-1.62755E+00 8.45516E-02 1.34886E-01-2.99625E-13 1.91761E-13
 -1       137 2.00411E+01-2.89516E-01 6.30887E-02 4.51046E-02-8.15335E-13-2.55906E-13
 -1       138-2.67527E+00-3.34683E+01-6.82895E+00-5.72883E+00 2.83673E-12 6.53977E-13
 -1       139-6.85249E-01-9.32274E+00-3.47209E+00-1.97340E+00 1.19182E-12 6.12843E-13
 -1       140 1.04902E+01 1.16511E+01-7.26808E-02 1.10851E+01 1.42675E-12 8.05800E-13
 -1       141 3.42637E+01 1.93169E+01 2.46730E+00 2.50487E+01 5.59552E-14-3.74478E-13
 -1       142 6.02201E+01 1.45166E+01 4.07112E+00 2.83589E+01-3.56548E-13-1.52434E-13
 -1       143 8.28497E+01 5.99836E+00 5.15565E+00 1.97035E+01 2.07123E-13 6.44373E-13
 -1       144 8.92573E+01 1.32841E+00 5.30101E+00 2.82278E+00 2.46261E-14 2.68729E-13
 -1       145 7.56809E+01 3.46043E+00 4.25163E+00-1.35827E+01 1.09968E-13-6.49480E-13
 -1       146 5.04793E+01 8.55574E+00 2.42530E+00-1.99574E+01 5.97855E-13-1.34337E-12
 -1       147 2.22441E+01 9.84971E+00 2.63507E-01-1.47275E+01 1.34864E-12-1.77336E-12
 -1       148 4.00667E+00 3.02240E+00-1.53826E+00-3.83315E+00 1.34082E-12-1.54232E-12
 -1       149-3.22226E+00-1.11013E+01-2.85513E+00 5.33052E+00 4.32321E-13-1.14742E-13
 -1       150-2.76149E+00-2.53125E+01-3.57198E+00 6.91092E+00 4.10005E-13-2.20643E-13
 -1       151-1.12211E+00-3.24285E+01-3.79132E+00 2.55049E+00 6.20615E-14 1.08177E-14
 -1       152-1.20690E+00-2.89070E+01-3.52003E+00-3.64103E+00-2.92349E-13-1.17141E-13
 -1       153-2.30664E+00-1.57487E+01-2.70522E+00-5.23807E+00-2.32314E-13-8.45157E-14
 -1       154 9.10086E-01-2.97581E-01-1.48468E+00 9.01366E-01-1.42664E-13-5.76761E-14
 -1       155 1.27832E+01 9.94101E+00-7.21718E-02 1.13196E+01 2.24043E-13 2.97928E-13
 -1       156 3.35622E+01 1.14781E+01 1.38542E+00 1.92127E+01 1.02973E-13-7.99361E-14
 -1       157 5.81419E+01 6.58979E+00 2.61310E+00 1.84725E+01-2.80803E-13-1.17012E-12
 -1       158 7.57770E+01 1.63957E+00 3.44154E+00 7.76888E+00-3.23263E-13-4.24050E-13
 -1       159 8.13252E+01 1.99654E+00 3.91344E+00-8.89545E+00-4.06619E-14 4.92398E-13
 -1       160 5.35566E+01 1.77678E+01 3.75122E+00-2.98773E+01 3.86358E-14 2.70062E-13
 -1       161 2.97977E+01 2.27331E+01 2.76370E+00-2.54218E+01-9.22040E-13 6.76681E-13
 -1       162 1.06157E+01 1.57355E+01 6.20299E-01-1.28253E+01-2.16827E-12 1.49147E-12
 -1       163-8.52806E-02-6.70207E+00-2.99980E+00 8.40108E-01-2.32114E-12 8.88511E-13
 -1       164-1.95769E+00-3.16091E+01-6.55649E+00 4.90278E+00 5.02709E-13 4.80657E-13
 -1       165 2.10150E+01 3.69394E+00-5.73347E-02-3.60942E+00-4.66925E-13 1.84373E-13
 -1       166 1.99921E+01 4.20784E+00-4.57216E-02-2.80843E+00-4.40075E-13-3.37889E-13
 -1       167 1.95093E+01 4.47722E+00-3.15864E-02-2.19330E+00-3.61191E-13-6.21616E-13
 -1       168 1.92672E+01 4.61531E+00-2.37288E-02-1.67466E+00-2.76984E-13-7.71922E-13
 -1       169 1.91366E+01 4.69697E+00-1.94747E-02-1.21837E+00-1.95126E-13-8.31992E-13
 -1       170 1.90623E+01 4.74810E+00-1.74049E-02-7.91513E-01-1.24731E-13-8.52090E-13
 -1       171 1.90247E+01 4.77597E+00-1.64135E-02-3.86609E-01-4.46141E-14-8.56147E-13
 -1       172 1.90138E+01 4.78449E+00-1.61269E-02 8.26474E-03 2.57594E-14-8.59500E-13
 -1       173 1.90264E+01 4.77467E+00-1.64612E-02 4.03482E-01 8.85437E-14-8.59405E-13
 -1       174 1.90659E+01 4.74510E+00-1.75164E-02 8.09498E-01 1.54843E-13-8.37320E-13
 -1       175 1.91408E+01 4.69267E+00-1.96841E-02 1.23085E+00 2.31379E-13-7.92706E-13
 -1       176 1.92768E+01 4.60569E+00-2.39724E-02 1.69735E+00 3.18096E-13-7.08333E-13
 -1       177 1.95248E+01 4.45973E+00-3.25728E-02 2.22483E+00 4.06150E-13-5.59598E-13
 -1       178 2.00136E+01 4.18417E+00-4.71880E-02 2.84695E+00 4.76649E-13-2.52198E-13
 -1       179 2.11366E+01 3.46348E+00-6.00641E-02 3.53550E+00 4.77812E-13 3.24782E-13
 -1       180 2.24212E+01 1.14337E+00-3.36571E-01 3.01429E+00 3.78660E-13 1.12002E-12
 -1       181 2.19736E+01 8.58181E-01 6.60771E-04-1.95839E+00-4.00589E-13 7.90697E-13
 -1       182 2.04496E+01 1.90141E-01-9.99237E-03-7.63652E-01-3.66953E-13 5.82812E-13
 -1       183 1.96746E+01 1.01785E-01 1.35590E-02-2.85080E-01-2.80718E-13 4.28014E-13
 -1       184 1.93356E+01 4.72130E-02 1.00094E-02-6.72061E-02-1.92322E-13 2.49557E-13
 -1       185 1.92066E+01 2.25874E-02 5.15981E-03 4.01365E-02-1.33437E-13 1.54697E-13
 -1       186 1.91939E+01 9.56347E-03 2.43152E-03 9.28442E-02-8.67153E-14 9.63192E-14
 -1       187 1.92434E+01 2.16795E-03 1.12815E-03 1.15329E-01-6.26540E-14 1.71774E-14
 -1       188 1.93234E+01-2.07606E-03 4.92666E-04 1.20340E-01-1.06983E-13-3.30293E-14
 -1       189 1.94152E+01-4.39779E-03 1.55641E-04 1.15269E-01-1.01647E-13-4.76498E-14
 -1       190 1.95076E+01-5.49968E-03-3.34528E-05 1.04693E-01-8.26456E-14-6.27186E-14
 -1       191 1.95941E+01-5.82304E-03-1.37941E-04 9.15308E-02-4.86984E-14-2.11546E-13
 -1       192 1.96714E+01-5.66047E-03-1.89521E-04 7.76448E-02-2.26956E-14-2.51880E-13
 -1       193 1.97380E+01-5.20986E-03-2.07073E-04 6.41956E-02-1.23991E-14-1.98948E-13
 -1       194 1.97939E+01-4.60416E-03-2.02895E-04 5.18706E-02-3.73762E-14-1.96059E-13
 -1       195 1.98396E+01-3.92966E-03-1.85157E-04 4.10423E-02-8.05822E-14-2.32000E-13
 -1       196 1.98764E+01-3.23807E-03-1.59171E-04 3.18827E-02-7.48129E-14-3.30886E-13
 -1       197 1.99056E+01-2.55523E-03-1.28192E-04 2.44471E-02-5.18729E-14-3.95384E-13
 -1       198 1.99287E+01-1.88744E-03-9.39816E-05 1.87376E-02-6.98055E-14-4.93661E-13
 -1       199 1.99473E+01-1.22640E-03-5.72123E-05 1.47498E-02-8.05532E-14-4.97701E-13
 -1       200 1.99631E+01-5.53044E-04-1.77993E-05 1.25081E-02 7.15580E-14-5.04559E-13
 -1       201 1.99778E+01 1.59221E-04 2.48073E-05 1.20902E-02 1.01063E-13-3.84164E-13
 -1       202 1.99935E+01 9.41388E-04 7.13252E-05 1.36434E-02-7.68230E-15-3.35040E-13
 -1       203 2.00120E+01 1.82507E-03 1.22297E-04 1.73904E-02 5.57865E-14-2.50116E-13
 -1       204 2.00359E+01 2.83722E-03 1.77656E-04 2.36235E-02 1.37755E-13-1.99995E-13
 -1       205 2.00675E+01 3.99232E-03 2.36148E-04 3.26806E-02 3.76711E-14-8.75891E-14
 -1       206 2.01099E+01 5.28057E-03 2.94568E-04 4.48961E-02-1.00380E-13-1.38475E-13
 -1       207 2.01661E+01 6.65051E-03 3.46787E-04 6.05134E-02-1.00871E-13-1.01694E-13
 -1       208 2.02390E+01 7.98438E-03 3.82604E-04 7.95444E-02 5.08126E-14-2.50507E-13
 -1       209 2.03316E+01 9.06511E-03 3.86579E-04 1.01557E-01 2.07598E-13-2.57648E-13
 -1       210 2.04454E+01 9.53530E-03 3.37238E-04 1.25371E-01-1.20762E-13-1.71474E-13
 -1       211 2.05806E+01 8.85328E-03 2.07409E-04 1.48654E-01-2.17863E-13-9.83981E-14
 -1       212 2.07341E+01 6.25943E-03-3.30420E-05 1.67431E-01-1.42121E-13-9.54234E-14
 -1       213 2.08981E+01 7.82576E-04-4.10268E-04 1.75566E-01-6.21351E-14-2.56449E-13
 -1       214 2.10582E+01-8.65863E-03-9.33466E-04 1.64411E-01 2.41331E-14-3.12548E-13
 -1       215 2.11918E+01-2.29712E-02-1.57523E-03 1.22942E-01-2.24476E-14-4.37437E-13
 -1       216 2.12666E+01-4.23081E-02-2.24807E-03 3.89778E-02 3.76744E-14-5.09717E-13
 -1       217 2.12414E+01-6.51170E-02-2.78937E-03-9.77316E-02 1.76578E-14-3.50202E-13
 -1       218 2.10707E+01-8.69257E-02-2.96934E-03-2.89801E-01 3.12365E-14-8.95560E-14
 -1       219 2.07144E+01-9.94044E-02-2.54586E-03-5.23953E-01 4.07680E-14-1.48267E-13
 -1       220 2.01541E+01-9.08917E-02-1.38170E-03-7.62330E-01-2.21120E-13-2.73997E-13
 -1       221 1.94140E+01-4.99584E-02 4.29676E-04-9.38812E-01-1.90930E-13-4.68908E-13
 -1       222 1.85801E+01 2.72092E-02 2.46521E-03-9.68665E-01 2.37695E-13-4.80016E-13
 -1       223 1.78038E+01 1.28182E-01 4.07409E-03-7.77942E-01 3.33729E-13-9.73332E-14
 -1       224 1.72748E+01 2.20868E-01 4.55868E-03-3.47909E-01 2.64676E-13 2.72754E-13
 -1       225 1.71599E+01 2.60857E-01 3.53424E-03 2.45674E-01 2.66938E-13 4.92068E-13
 -1       226 1.75237E+01 2.07905E-01 1.85858E-03 8.24220E-01-1.35906E-13 3.23764E-13
 -1       227 1.82701E+01 3.73673E-02 3.71042E-04 1.14144E+00-1.33298E-13 2.85410E-13
 -1       228 1.91744E+01-2.34546E-01 1.37495E-03 9.73988E-01 1.97892E-13 1.95696E-13
 -1       229 2.09663E+01 2.77967E-01-5.07565E-02 1.16475E+00 3.79401E-13 9.33444E-13
 -1       230 1.98711E+01 1.27937E-01 8.87994E-03 4.43297E-01 2.82554E-13 6.55244E-13
 -1       231 1.93655E+01 5.76407E-02 1.27161E-02 1.49677E-01 1.54305E-13 4.44963E-13
 -1       232 1.91566E+01 2.79188E-02 7.52965E-03 1.03061E-02 1.70098E-13 2.98545E-13
 -1       233 1.91077E+01 1.30975E-02 3.76412E-03-5.90900E-02 1.03176E-13 1.87955E-13
 -1       234 1.91443E+01 5.13625E-03 1.89344E-03-9.15661E-02 5.53246E-14 9.27129E-14
 -1       235 1.92243E+01 6.12786E-04 1.00090E-03-1.03394E-01 8.48076E-14 4.59936E-14
 -1       236 1.93229E+01-1.97139E-03 5.40521E-04-1.03285E-01 9.47178E-15 4.66588E-14
 -1       237 1.94255E+01-3.35552E-03 2.75924E-04-9.64067E-02 5.37462E-14-5.03381E-14
 -1       238 1.95234E+01-3.97221E-03 1.13983E-04-8.60049E-02 9.46244E-14-5.96346E-14
 -1       239 1.96121E+01-4.09989E-03 1.44107E-05-7.41563E-02 1.03581E-13-6.65408E-14
 -1       240 1.96894E+01-3.92548E-03-4.41201E-05-6.21753E-02 8.12315E-14-1.61184E-13
 -1       241 1.97547E+01-3.57578E-03-7.49387E-05-5.08643E-02 7.05641E-14-3.26653E-13
 -1       242 1.98086E+01-3.13557E-03-8.70215E-05-4.06810E-02 3.15706E-14-2.74414E-13
 -1       243 1.98520E+01-2.65910E-03-8.65034E-05-3.18562E-02-1.33167E-14-2.20365E-13
 -1       244 1.98864E+01-2.17802E-03-7.75090E-05-2.44795E-02 7.73409E-14-3.08982E-13
 -1       245 1.99132E+01-1.70684E-03-6.26933E-05-1.85638E-02 1.00627E-13-3.38601E-13
 -1       246 1.99343E+01-1.24693E-03-4.36082E-05-1.40933E-02-2.46862E-14-3.57708E-13
 -1       247 1.99512E+01-7.89192E-04-2.09471E-05-1.10619E-02-1.18740E-13-2.96702E-13
 -1       248 1.99658E+01-3.15871E-04 5.29254E-06-9.50351E-03-8.02356E-14-2.46114E-13
 -1       249 1.99798E+01 1.98711E-04 3.57032E-05-9.51838E-03 1.13131E-14-1.60853E-13
 -1       250 1.99956E+01 7.88369E-04 7.14055E-05-1.12984E-02 2.43504E-13-3.07790E-13
 -1       251 2.00154E+01 1.49633E-03 1.14027E-04-1.51546E-02-6.07816E-14-4.08124E-13
 -1       252 2.00422E+01 2.37772E-03 1.65705E-04-2.15490E-02-1.27071E-13-2.49608E-13
 -1       253 2.00798E+01 3.50374E-03 2.29083E-04-3.11378E-02-7.71959E-14-2.10003E-13
 -1       254 2.01327E+01 4.96779E-03 3.07244E-04-4.48270E-02 1.06100E-13-3.12431E-13
 -1       255 2.02066E+01 6.89443E-03 4.03417E-04-6.38509E-02 8.13206E-14-2.26607E-13
 -1       256 2.03093E+01 9.45117E-03 5.20179E-04-8.98769E-02-4.47286E-14-2.63405E-13
 -1       257 2.04505E+01 1.28627E-02 6.57484E-04-1.25144E-01-2.97421E-14-3.18907E-13
 -1       258 2.06427E+01 1.74235E-02 8.08254E-04-1.72631E-01-2.33730E-14-3.50084E-13
 -1       259 2.09020E+01 2.34978E-02 9.49151E-04-2.36220E-01-1.01490E-13-2.61058E-13
 -1       260 2.12490E+01 3.14760E-02 1.02275E-03-3.20770E-01 1.38020E-13-2.93755E-13
 -1       261 2.17084E+01 4.16183E-02 9.07427E-04-4.31841E-01 6.49073E-14-1.60577E-13
 -1       262 2.23089E+01 5.36255E-02 3.79844E-04-5.74506E-01-1.54278E-13-2.35586E-13
 -1       263 2.30789E+01 6.56175E-02-8.92113E-04-7.50019E-01 9.66130E-14-2.36605E-13
 -1       264 2.40372E+01 7.19611E-02-3.19475E-03-9.48002E-01 1.85691E-14-3.67015E-13
 -1       265 2.51723E+01 5.92493E-02-6.23876E-03-1.13042E+00-2.23716E-13-2.59569E-13
 -1       266 2.64052E+01 9.81673E-04-7.86808E-03-1.20365E+00-2.16647E-14-1.82592E-13
 -1       267 2.75332E+01-1.43723E-01-2.28067E-03-9.84807E-01-1.27815E-13-1.06840E-13
 -1       268 2.81682E+01-4.08166E-01 1.46144E-02-1.92948E-01-1.42691E-13 4.17834E-14
 -1       269 2.77300E+01-7.27510E-01 3.40916E-02 1.39893E+00-1.41146E-13 2.62099E-13
 -1       270 2.56473E+01-8.20797E-01 2.39681E-02 3.58949E+00-1.44598E-13 4.61239E-13
 -1       271 2.18745E+01-2.69530E-01-5.43361E-02 5.16015E+00 7.88553E-14 5.02959E-13
 -1       272 1.76657E+01 8.04133E-01-1.58721E-01 4.38340E+00-1.22291E-13 3.55441E-13
 -1       273 1.51856E+01 1.37712E+00-1.87220E-01 1.18441E+00 3.05055E-13 3.07828E-13
 -1       274 1.54296E+01 8.78087E-01-1.09543E-01-2.03780E+00 2.67078E-13 1.95875E-13
 -1       275 1.71365E+01 1.04577E-01-3.44574E-03-3.27880E+00 4.96738E-14 1.99507E-13
 -1       276 1.87691E+01-5.18144E-01 9.33736E-02-2.81946E+00-1.87300E-13-1.93005E-14
 -1       277 2.06132E+01-1.76472E+00-5.53430E-03-2.48629E+00-3.37327E-13-1.34268E-14
 -1       278 2.28827E+01-2.10526E+00-6.37270E-02 1.43923E+00-3.39121E-14-3.60392E-13
 -1       279 2.38916E+01-1.65565E-01-2.64855E-02 8.44766E+00-5.16464E-13-3.31409E-13
 -1       280 2.10982E+01 4.10617E+00 1.18343E-01 1.33401E+01-3.08996E-13-1.00636E-12
 -1       281 1.47338E+01 1.63560E+01 8.18935E-01-2.80489E+00-9.15863E-13 4.20886E-13
 -1       282 1.74072E+01 1.17276E+01 5.17131E-01-1.12499E+01-9.76788E-14 1.97670E-12
 -1       283 2.12600E+01 4.04602E+00 1.32350E-01-1.27188E+01 2.19158E-13 9.41580E-13
 -1       284 2.25301E+01-2.83878E+00-1.27211E-01-8.43393E+00 2.50140E-13-2.03310E-13
 -1       285 2.16993E+01-7.42137E+00-1.57722E-01-2.46053E+00 2.67250E-13-5.74228E-13
 -1       286 2.06119E+01-8.29547E+00-4.15269E-02 9.51361E-01-2.04003E-15-6.41789E-13
 -1       287 2.00765E+01-7.21245E+00 2.05449E-02 2.06869E+00 9.75088E-14-5.50844E-14
 -1       288 1.98964E+01-5.40956E+00 2.63516E-02 2.09707E+00 1.92485E-14 2.08638E-13
 -1       289 1.98653E+01-3.57029E+00 1.52826E-02 1.76972E+00-2.28232E-13-9.39936E-14
 -1       290 1.98388E+01-1.98517E+00 9.40158E-03 1.30808E+00 2.87036E-14-2.01577E-13
 -1       291 1.96134E+01-8.99791E-01-6.47966E-04 1.33577E+00-1.11675E-14-2.18334E-13
 -1       292 1.60669E+00-8.76787E+00-1.78136E+00 3.94369E+00 8.71608E-13 2.41973E-13
 -1       293 9.04530E+00-9.08624E+00-1.27706E+00 1.05053E+01 9.62730E-13-4.28879E-13
 -1       294 1.91280E+01-5.11174E+00-5.27993E-01 1.22397E+01 4.12226E-13 2.51743E-13
 -1       295 3.32207E+01-1.78765E-01 2.69811E-01 1.16514E+01 4.16389E-13-6.94944E-13
 -1       296 4.45277E+01 7.16904E+00 1.00390E+00 1.23319E+01-9.30644E-14-1.19682E-13
 -1       297 5.24426E+01 9.13366E+00 1.12509E+00 8.17123E+00-2.44194E-13-3.81806E-13
 -1       298 5.99453E+01 9.46485E+00 1.58159E+00 6.01361E+00 1.05971E-13-3.17878E-13
 -1       299 5.64091E+01 8.22449E+00 1.25976E+00 2.15909E+00 3.88356E-13-2.96957E-13
 -1       300 5.08435E+01 4.63406E+00 9.85749E-01-2.48093E+00 6.98858E-13-6.06848E-13
 -1       301 3.84752E+01 1.25242E-01 3.06977E-01-4.11945E+00 7.41809E-13-6.60527E-13
 -1       302 2.41518E+01-3.56706E+00-2.41555E-01-5.81414E+00 7.47846E-13-8.53317E-13
 -1       303 1.16732E+01-8.40018E+00-7.37235E-01-4.28761E+00 4.05509E-13-1.21356E-12
 -1       304 3.07968E+00-1.29511E+01-1.00166E+00-2.15272E+00 5.29771E-13-3.21004E-13
 -1       305-9.93951E-01-1.39582E+01-7.90972E-01-9.87081E-01 5.01557E-13-4.17472E-13
 -1       306-2.05327E+00-1.55437E+01-1.00317E+00 1.37592E+00 2.28192E-13-2.30427E-13
 -1       307 9.11866E-01-1.36165E+01-9.40472E-01 3.00133E+00-1.00780E-13-1.21847E-14
 -1       308 7.87272E+00-8.69134E+00-5.86509E-01 5.35321E+00-2.47080E-13-1.07477E-13
 -1       309 1.83924E+01-3.93703E+00-2.01444E-01 7.09586E+00-2.19824E-13 2.54519E-13
 -1       310 2.95169E+01 1.34966E+00 1.76245E-01 8.01545E+00 1.53488E-14-4.10949E-13
 -1       311 4.16281E+01 4.22721E+00 4.81446E-01 5.58925E+00 2.12361E-13-6.14064E-13
 -1       312 5.18507E+01 6.76447E+00 8.58815E-01 2.77276E+00-4.58772E-13 7.92699E-14
 -1       313 5.48340E+01 9.17028E+00 9.00879E-01-3.07312E+00-4.51306E-13 1.92055E-13
 -1       314 5.50338E+01 1.05293E+01 1.09027E+00-8.61313E+00 2.07556E-13 4.38316E-13
 -1       315 5.00797E+01 1.13206E+01 1.22990E+00-1.32611E+01 3.22797E-14 9.29812E-15
 -1       316 4.03752E+01 9.53057E+00 1.01542E+00-1.45389E+01-6.66842E-13-8.42659E-14
 -1       317 2.95342E+01 4.96205E+00 5.93471E-01-1.49126E+01-1.17167E-12 1.37168E-13
 -1       318 1.91910E+01-3.10106E+00-2.95355E-01-1.43166E+01-7.79210E-13 4.05204E-13
 -1       319 7.81303E+00-9.45467E+00-1.52427E+00-1.10178E+01 1.22291E-13 1.56428E-12
 -1       320 5.25502E-01-1.24309E+01-2.35996E+00-5.32892E+00 8.09797E-13 1.28747E-12
 -1       321 1.64667E+01 1.41613E+01 5.67817E-01 8.01936E+00-1.03698E-12-1.50324E-13
 -1       322 2.01464E+01 3.01527E+00-1.79046E-02-2.10892E+00-4.57949E-13-3.34863E-13
 -1       323 2.07574E+01 2.20828E+00-1.78554E-02-2.36239E+00-5.07708E-13-2.30701E-14
 -1       324 1.95839E+01 3.69200E+00-1.50728E-02-1.31589E+00-2.99356E-13-6.22292E-13
 -1       325 1.94592E+01 3.84929E+00-1.35569E-02-9.22810E-01-2.05256E-13-6.55620E-13
 -1       326 1.93898E+01 3.94005E+00-1.26715E-02-5.43456E-01-1.08414E-13-6.56489E-13
 -1       327 1.93591E+01 3.98135E+00-1.22797E-02-1.73120E-01-8.65168E-15-6.62672E-13
 -1       328 1.93604E+01 3.97974E+00-1.23065E-02 1.94233E-01 7.23106E-14-6.69149E-13
 -1       329 1.93940E+01 3.93480E+00-1.27581E-02 5.64915E-01 1.60541E-13-6.59027E-13
 -1       330 1.94653E+01 3.84140E+00-1.37801E-02 9.38613E-01 2.47523E-13-6.29429E-13
 -1       331 1.95928E+01 3.67882E+00-1.57070E-02 1.33269E+00 3.46791E-13-5.67108E-13
 -1       332 1.98081E+01 3.41013E+00-1.90780E-02 1.73824E+00 4.29936E-13-4.61999E-13
 -1       333 2.01757E+01 2.95116E+00-2.33363E-02 2.12341E+00 5.16771E-13-2.75148E-13
 -1       334 2.07619E+01 2.10573E+00-2.95142E-02 2.30594E+00 5.49712E-13 7.08114E-14
 -1       335 2.10950E+01 1.18646E+00-2.40706E-02 1.91419E+00 5.01842E-13 4.20341E-13
 -1       336 2.03842E+01 4.92101E-01 8.71070E-03 9.21378E-01 3.91007E-13 2.95565E-13
 -1       337 2.04603E+01 6.75288E-01 1.23337E-02-1.02453E+00-4.06855E-13 4.41068E-14
 -1       338 2.00391E+01 3.37116E-01 7.17776E-03-4.56470E-01-3.20410E-13 2.41850E-14
 -1       339 1.97853E+01 1.76561E-01 4.12828E-03-1.47597E-01-2.30206E-13-1.60929E-14
 -1       340 1.96502E+01 9.06176E-02 1.88913E-03 2.37186E-02-1.54618E-13-7.23894E-14
 -1       341 1.95953E+01 4.15016E-02 7.89466E-04 1.15031E-01-1.13508E-13-1.01095E-13
 -1       342 1.95904E+01 1.25030E-02 2.72068E-04 1.58319E-01-1.01800E-13-1.35039E-13
 -1       343 1.96149E+01-4.54550E-03 1.44694E-05 1.72453E-01-1.37732E-13-1.56515E-13
 -1       344 1.96546E+01-1.41022E-02-1.21058E-04 1.69151E-01-8.89282E-14-1.72500E-13
 -1       345 1.97006E+01-1.88415E-02-1.89924E-04 1.55947E-01-1.43285E-13-1.33566E-13
 -1       346 1.97472E+01-2.04811E-02-2.18232E-04 1.37755E-01-8.39342E-14-1.97983E-13
 -1       347 1.97910E+01-2.01672E-02-2.21094E-04 1.17767E-01-3.57981E-15-2.67421E-13
 -1       348 1.98302E+01-1.86750E-02-2.08329E-04 9.80089E-02-2.48949E-14-2.32222E-13
 -1       349 1.98642E+01-1.65226E-02-1.86462E-04 7.97192E-02-9.06331E-14-2.72849E-13
 -1       350 1.98929E+01-1.40432E-02-1.59704E-04 6.36099E-02-1.47075E-13-2.98614E-13
 -1       351 1.99167E+01-1.14335E-02-1.30589E-04 5.00592E-02-9.53691E-14-3.71778E-13
 -1       352 1.99364E+01-8.78800E-03-1.00413E-04 3.92530E-02-7.13826E-14-3.64851E-13
 -1       353 1.99529E+01-6.12532E-03-6.95609E-05 3.12902E-02-1.43981E-14-3.17578E-13
 -1       354 1.99672E+01-3.40794E-03-3.77510E-05 2.62607E-02 3.69678E-15-2.44565E-13
 -1       355 1.99805E+01-5.58462E-04-4.24387E-06 2.43017E-02 9.04938E-14-2.72809E-13
 -1       356 1.99941E+01 2.52592E-03 3.19630E-05 2.56354E-02 1.32839E-13-2.93420E-13
 -1       357 2.00093E+01 5.95794E-03 7.19217E-05 3.05891E-02 7.06462E-14-1.42317E-13
 -1       358 2.00277E+01 9.84075E-03 1.16463E-04 3.95953E-02 1.32078E-13-1.19744E-13
 -1       359 2.00511E+01 1.42406E-02 1.65824E-04 5.31654E-02 6.22600E-14-1.84381E-13
 -1       360 2.00814E+01 1.91473E-02 2.19123E-04 7.18267E-02-1.94585E-14-2.34895E-13
 -1       361 2.01206E+01 2.44164E-02 2.73622E-04 9.60077E-02-7.89733E-14-1.92569E-13
 -1       362 2.01708E+01 2.96890E-02 3.23747E-04 1.25851E-01-4.27520E-14-3.08588E-14
 -1       363 2.02340E+01 3.42827E-02 3.59864E-04 1.60930E-01 1.78515E-14-5.35318E-14
 -1       364 2.03119E+01 3.70567E-02 3.66917E-04 1.99842E-01 6.19318E-14-2.34013E-13
 -1       365 2.04055E+01 3.62603E-02 3.23265E-04 2.39660E-01-1.24989E-13-2.80237E-13
 -1       366 2.05143E+01 2.94021E-02 2.00411E-04 2.75253E-01-9.04442E-14-1.09043E-13
 -1       367 2.06361E+01 1.32192E-02-3.50970E-05 2.98530E-01-8.74139E-14 3.72427E-14
 -1       368 2.07655E+01-1.61041E-02-4.15619E-04 2.97788E-01-2.37689E-13-1.34372E-13
 -1       369 2.08932E+01-6.22159E-02-9.59827E-04 2.57520E-01-9.70699E-14-2.48536E-13
 -1       370 2.10049E+01-1.27027E-01-1.65131E-03 1.59332E-01 2.07859E-14-2.11779E-13
 -1       371 2.10797E+01-2.07946E-01-2.40773E-03-1.50566E-02 1.44349E-13-1.59071E-14
 -1       372 2.10903E+01-2.93927E-01-3.05832E-03-2.77501E-01 1.70852E-13 7.87714E-15
 -1       373 2.10037E+01-3.61379E-01-3.32828E-03-6.22964E-01 1.10337E-13-1.39946E-14
 -1       374 2.07859E+01-3.72917E-01-2.87569E-03-1.01579E+00-1.13874E-13 1.07625E-13
 -1       375 2.04129E+01-2.84088E-01-1.45074E-03-1.37752E+00-2.49192E-13 9.45139E-14
 -1       376 1.98890E+01-6.31947E-02 9.44521E-04-1.58691E+00-1.79992E-14 2.18888E-13
 -1       377 1.92696E+01 2.77063E-01 3.79193E-03-1.50664E+00 3.66396E-13-3.84178E-14
 -1       378 1.86717E+01 6.53297E-01 6.26215E-03-1.04461E+00 5.31135E-13 3.21191E-14
 -1       379 1.82515E+01 9.18169E-01 7.10939E-03-2.30159E-01 2.40632E-13 7.74214E-14
 -1       380 1.81477E+01 9.10049E-01 5.29006E-03 7.40481E-01-1.43936E-13 9.14837E-14
 -1       381 1.84086E+01 5.23358E-01 2.22053E-03 1.53937E+00-1.84824E-13 2.58110E-14
 -1       382 1.89154E+01-1.51835E-01-6.97352E-03 1.76859E+00-1.96376E-13-6.31006E-14
 -1       383 2.58120E+01-2.62655E+00 1.13034E-02-1.36941E+01-6.93889E-17 1.89904E-13
 -1       384 1.98876E+01 2.33986E-01 1.10514E-02 3.99356E-01 2.71746E-13 1.85034E-13
 -1       385 1.96045E+01 1.15807E-01 5.87434E-03 1.19208E-01 2.63692E-13 4.68881E-14
 -1       386 1.94708E+01 5.77170E-02 2.72923E-03-3.00310E-02 1.52143E-13-4.20434E-14
 -1       387 1.94315E+01 2.57688E-02 1.16128E-03-1.06879E-01 9.22904E-14-9.29359E-14
 -1       388 1.94478E+01 7.34838E-03 4.48879E-04-1.42137E-01 5.31404E-14-1.14973E-13
 -1       389 1.94944E+01-3.37595E-03 1.01429E-04-1.52633E-01 6.73573E-14-7.68669E-14
 -1       390 1.95552E+01-9.34720E-03-8.22170E-05-1.48535E-01 9.19976E-14-1.30064E-13
 -1       391 1.96202E+01-1.22823E-02-1.79851E-04-1.36260E-01 7.42855E-14-1.37582E-13
 -1       392 1.96832E+01-1.32711E-02-2.25720E-04-1.19949E-01 8.57719E-14-1.95009E-13
 -1       393 1.97408E+01-1.30383E-02-2.38753E-04-1.02267E-01 1.02212E-13-1.59488E-13
 -1       394 1.97914E+01-1.20738E-02-2.31146E-04-8.48933E-02 1.44107E-13-1.35525E-13
 -1       395 1.98344E+01-1.07062E-02-2.11114E-04-6.88397E-02 1.32267E-14-1.04063E-13
 -1       396 1.98701E+01-9.14797E-03-1.84089E-04-5.46744E-02 1.88321E-14-1.57377E-13
 -1       397 1.98992E+01-7.52627E-03-1.53459E-04-4.26821E-02 9.64338E-14-1.99117E-13
 -1       398 1.99228E+01-5.90417E-03-1.21081E-04-3.29837E-02 1.11210E-13-3.26980E-13
 -1       399 1.99419E+01-4.29541E-03-8.76520E-05-2.56255E-02 2.17097E-14-3.10925E-13
 -1       400 1.99579E+01-2.67504E-03-5.29457E-05-2.06497E-02-1.16092E-13-2.86977E-13
 -1       401 1.99721E+01-9.86142E-04-1.59705E-05-1.81495E-02-9.45146E-14-2.83048E-13
 -1       402 1.99862E+01 8.56786E-04 2.49575E-05-1.83164E-02-2.06218E-14-2.66611E-13
 -1       403 2.00018E+01 2.96791E-03 7.22099E-05-2.14834E-02 2.78420E-13-2.22354E-13
 -1       404 2.00210E+01 5.49357E-03 1.28925E-04-2.81704E-02 4.46133E-14-1.93379E-13
 -1       405 2.00462E+01 8.61977E-03 1.99174E-04-3.91355E-02-1.73318E-13-3.59909E-13
 -1       406 2.00803E+01 1.25845E-02 2.88216E-04-5.54390E-02-6.89801E-14-3.61339E-13
 -1       407 2.01268E+01 1.76961E-02 4.02854E-04-7.85261E-02 1.11194E-13-2.63538E-13
 -1       408 2.01903E+01 2.43584E-02 5.51831E-04-1.10336E-01 7.58309E-14-2.40116E-14
 -1       409 2.02762E+01 3.31032E-02 7.46133E-04-1.53443E-01-1.84852E-14-1.87518E-14
 -1       410 2.03915E+01 4.46240E-02 9.98758E-04-2.11236E-01 5.84911E-15 9.10617E-14
 -1       411 2.05447E+01 5.97968E-02 1.32296E-03-2.88108E-01-3.87834E-14 1.30530E-13
 -1       412 2.07459E+01 7.96464E-02 1.72673E-03-3.89621E-01-7.42212E-15-2.03465E-13
 -1       413 2.10075E+01 1.05158E-01 2.19898E-03-5.22470E-01 4.69245E-14-3.56049E-13
 -1       414 2.13431E+01 1.36719E-01 2.67983E-03-6.93907E-01-1.32656E-13-1.21244E-13
 -1       415 2.17672E+01 1.72732E-01 3.00610E-03-9.09872E-01 3.86830E-14-1.24284E-14
 -1       416 2.22932E+01 2.06559E-01 2.83407E-03-1.17033E+00 7.16070E-14-6.87667E-14
 -1       417 2.29299E+01 2.20411E-01 1.58241E-03-1.45916E+00-1.74992E-14-3.91161E-14
 -1       418 2.36771E+01 1.74906E-01-1.44961E-03-1.72471E+00-1.80144E-13 1.49610E-13
 -1       419 2.45212E+01-3.98260E-03-6.75787E-03-1.84732E+00-1.65249E-14-4.30610E-14
 -1       420 2.54293E+01-4.23824E-01-1.22458E-02-1.60120E+00-1.85185E-13-7.02988E-14
 -1       421 2.63459E+01-1.17542E+00-1.14865E-02-6.34814E-01-2.68278E-13-7.50658E-14
 -1       422 2.70791E+01-2.07998E+00-1.26696E-02 1.39135E+00-3.09192E-13 1.95368E-13
 -1       423 2.72842E+01-2.50308E+00-3.68079E-02 4.36483E+00-3.27811E-14 4.50902E-13
 -1       424 2.62284E+01-1.07397E+00-1.00121E-01 6.86942E+00 1.02328E-13 2.61038E-13
 -1       425 2.40641E+01 2.06530E+00-1.55212E-01 6.43805E+00 2.47996E-14 1.57373E-13
 -1       426 2.22051E+01 4.06051E+00-1.66897E-01 2.38590E+00 2.58862E-13-2.33543E-13
 -1       427 2.17122E+01 2.75267E+00-1.32639E-01-2.06834E+00 2.34909E-13 1.28140E-13
 -1       428 2.16206E+01 2.92516E-01-5.65278E-02-3.66106E+00 2.65642E-13 3.59874E-13
 -1       429 2.15063E+01-7.71564E-01-1.33721E-02-3.28041E+00-6.80571E-14 1.15154E-13
 -1       430 2.82120E+01-4.50121E+00-1.28834E-02 1.23517E+01-1.11466E-13-7.58678E-13
 -1       431 2.96129E+01-2.74121E+00-2.90840E-02 4.20013E+00-5.81861E-14-3.53634E-13
 -1       432 2.55944E+01-1.54562E+00-7.49780E-02-9.80594E-01 6.34076E-14-1.56819E-15
 -1       433 2.71135E+01-3.31512E+00-4.30216E-02-6.62888E+00-4.19846E-13-8.74280E-13
 -1       434 2.39252E+01-2.62957E+00-3.96012E-02-5.69092E-01-1.31735E-13-5.93359E-13
 -1       435 2.12429E+01-2.39453E+00 6.41032E-03 2.19089E+00-2.09260E-14-3.23457E-13
 -1       436 2.00136E+01-2.17644E+00 9.24591E-03 2.95324E+00-2.07307E-13 1.64284E-13
 -1       437 1.96063E+01-1.79256E+00 1.39709E-03 2.82559E+00-1.29657E-13-1.96866E-13
 -1       438 1.94973E+01-1.28094E+00-6.31809E-03 2.37999E+00-1.76149E-13-2.89980E-13
 -1       439 1.97865E+01 3.44020E+00-2.09028E-02-1.72550E+00-3.85666E-13-5.22786E-13
 -1       440 4.12297E+01 4.35998E+00 1.27115E-01 3.24240E+00-1.44565E-13-6.20448E-13
 -1       441 4.09787E+01 9.19216E+00 4.18644E-02 1.99047E+00-8.89566E-14-8.22509E-13
 -1       442 4.08762E+01 1.00003E+01 3.55372E-02 3.91364E+00-7.31915E-14-8.73933E-13
 -1       443 4.09394E+01 5.89987E+00 1.70270E-02 5.55326E+00 5.32657E-13-4.89886E-13
 -1       444 3.95893E+01 3.24084E-01 2.58121E-02 4.31306E+00 6.85160E-13-4.63851E-13
 -1       445 3.30073E+01-6.25997E+00-7.00825E-02-3.90350E-01 3.54591E-13-3.55910E-13
 -1       446 2.34451E+01-9.00828E+00-1.09760E-01-4.49403E+00-3.98570E-14-6.12663E-13
 -1       447 1.34217E+01-9.60559E+00-6.91085E-02-6.04038E+00 1.06914E-13-5.80064E-13
 -1       448 5.68822E+00-8.47268E+00-3.72159E-03-4.86016E+00 5.54681E-13-3.23061E-13
 -1       449 5.58924E-01-6.78614E+00 6.26943E-02 1.78398E-02 4.51153E-13-4.61547E-13
 -1       450 2.44527E+00-6.83437E+00 6.99826E-02 4.76944E+00 3.51288E-13-2.54463E-13
 -1       451 7.75454E+00-8.02915E+00-7.39483E-03 7.33660E+00 1.69892E-13-1.30659E-13
 -1       452 1.78528E+01-7.90810E+00-2.00438E-02 7.60130E+00-2.94181E-13-9.26342E-16
 -1       453 2.84317E+01-5.42539E+00 1.68462E-02 4.69856E+00-1.36724E-13-3.95614E-13
 -1       454 3.45673E+01-1.39323E+00-3.53301E-02 1.45622E+00 2.33265E-13-5.36349E-13
 -1       455 3.89882E+01 5.20061E+00-3.00541E-02-2.39905E+00-3.22770E-13-1.26649E-13
 -1       456 4.03825E+01 9.46324E+00-6.06265E-02-3.58433E+00-6.06737E-13 6.18949E-15
 -1       457 4.19806E+01 1.19723E+01 4.05264E-02-4.14903E+00 1.61815E-14 6.13051E-15
 -1       458 4.19272E+01 1.08410E+01 1.56996E-01-5.40521E+00 1.81827E-13 3.07282E-13
 -1       459 3.91855E+01 6.98242E+00 1.77297E-01-6.70404E+00-2.76924E-13 7.46903E-14
 -1       460 3.48404E+01 9.39205E-01 1.85406E-01-1.00270E+01-9.94399E-13-4.80976E-13
 -1       461 2.89468E+01-2.61980E+00 1.35685E-01-1.42277E+01-5.07094E-13 5.14172E-14
 -1       462 1.86975E+01-2.29848E+00-1.74725E-01-1.64971E+01 9.84490E-14 7.19161E-13
 -1       463 3.71393E+01-1.13860E+00 1.06752E-01 5.97747E+00 1.50026E-13-6.51257E-13
 -1       464 1.30997E+01-5.87085E-02-1.77757E-01 1.27432E+01 3.56243E-13-7.90423E-13
 -1       465 1.45086E+01 4.53327E+00 2.17115E-01-1.33128E+01 2.49557E-13 2.38859E-12
 -1       466 2.11953E+01-2.38404E+00 2.26576E-02 1.50903E+01 1.98175E-14-4.35596E-13
 -1       467 4.89267E+00-4.74800E+00 1.87374E-01-3.21318E+00 3.14276E-13-4.12739E-13
 -1       468 3.02931E+01 1.51635E+00-7.55669E-02-2.41528E+00-1.18454E-13 1.59872E-14
 -1       469 1.97311E+01 3.10481E+00-5.34770E-03-6.33413E-01-1.61053E-13-5.77264E-13
 -1       470 1.98274E+01 2.93176E+00-5.79589E-03-9.49796E-01-2.51850E-13-5.70622E-13
 -1       471 1.96632E+01 3.22748E+00-5.02915E-03 8.82319E-03 3.26285E-14-6.12650E-13
 -1       472 1.96819E+01 3.19443E+00-5.11100E-03 3.30118E-01 1.15956E-13-6.05180E-13
 -1       473 1.97360E+01 3.09764E+00-5.43162E-03 6.45236E-01 2.02025E-13-5.76131E-13
 -1       474 1.98350E+01 2.91986E+00-5.98321E-03 9.60360E-01 2.99013E-13-5.35290E-13
 -1       475 1.99921E+01 2.63277E+00-6.76625E-03 1.25594E+00 3.73534E-13-4.74400E-13
 -1       476 2.02210E+01 2.19197E+00-6.26713E-03 1.48748E+00 4.23005E-13-3.41005E-13
 -1       477 2.04949E+01 1.53080E+00-1.83121E-03 1.53535E+00 4.77048E-13-1.07466E-13
 -1       478 2.05327E+01 9.92614E-01 3.70401E-03 1.29549E+00 4.49047E-13 7.52850E-14
 -1       479 1.96726E+01 1.41872E+00-6.27901E-03 2.72020E+00-3.35035E-13-1.27188E-14
 -1       480 2.01136E+01 4.46081E-01 2.86087E-03 4.65802E-01 3.30858E-13-1.08412E-13
 -1       481 2.03446E+01 9.75838E-01 2.90745E-03-9.42304E-01-3.58492E-13-1.89416E-13
 -1       482 2.01726E+01 5.44087E-01 1.92193E-03-4.66726E-01-2.86499E-13-1.61782E-13
 -1       483 2.00258E+01 3.03978E-01 1.06408E-03-1.64935E-01-2.23452E-13-1.54010E-13
 -1       484 1.99252E+01 1.61946E-01 4.48958E-04 1.67006E-02-1.74743E-13-1.74619E-13
 -1       485 1.98666E+01 7.56117E-02 1.57283E-04 1.19422E-01-1.51321E-13-2.28758E-13
 -1       486 1.98393E+01 2.27957E-02 2.17737E-05 1.70820E-01-1.37852E-13-2.67031E-13
 -1       487 1.98332E+01-8.85750E-03-4.68548E-05 1.89432E-01-9.51685E-14-2.33048E-13
 -1       488 1.98403E+01-2.67586E-02-8.23481E-05 1.87768E-01-7.75451E-14-2.37613E-13
 -1       489 1.98548E+01-3.56406E-02-9.82339E-05 1.74287E-01-1.43985E-13-1.91022E-13
 -1       490 1.98728E+01-3.86567E-02-1.01616E-04 1.54681E-01-4.11803E-14-1.84683E-13
 -1       491 1.98917E+01-3.79517E-02-9.71540E-05 1.32720E-01 1.18284E-14-2.23059E-13
 -1       492 1.99098E+01-3.49854E-02-8.80704E-05 1.10845E-01-7.77967E-14-2.52872E-13
 -1       493 1.99265E+01-3.07307E-02-7.65042E-05 9.05771E-02-1.47346E-13-2.16323E-13
 -1       494 1.99412E+01-2.58054E-02-6.37726E-05 7.28241E-02-1.56727E-13-1.76265E-13
 -1       495 1.99542E+01-2.05623E-02-5.06054E-05 5.81074E-02-7.81455E-14-1.75190E-13
 -1       496 1.99655E+01-1.51571E-02-3.72894E-05 4.67300E-02-1.57986E-14-1.61502E-13
 -1       497 1.99757E+01-9.59962E-03-2.37887E-05 3.89017E-02 2.27059E-14-1.28504E-13
 -1       498 1.99853E+01-3.79412E-03-9.83065E-06 3.48310E-02 6.25864E-14-2.42223E-14
 -1       499 1.99949E+01 2.42696E-03 5.01172E-06 3.47887E-02 1.34951E-13-1.36225E-13
 -1       500 2.00053E+01 9.27029E-03 2.12377E-05 3.91490E-02 1.19976E-13-9.74632E-14
 -1       501 2.00175E+01 1.69445E-02 3.93215E-05 4.84056E-02 9.85858E-14-1.10648E-13
 -1       502 2.00323E+01 2.56114E-02 5.95822E-05 6.31586E-02 2.87843E-14-2.00203E-13
 -1       503 2.00508E+01 3.53185E-02 8.19978E-05 8.40645E-02 1.00420E-14-2.10394E-13
 -1       504 2.00743E+01 4.59016E-02 1.05940E-04 1.11735E-01-9.71037E-14-2.34317E-13
 -1       505 2.01042E+01 5.68494E-02 1.29802E-04 1.46564E-01 3.43285E-14-1.85987E-13
 -1       506 2.01419E+01 6.71188E-02 1.50511E-04 1.88464E-01 6.54402E-14-1.84583E-13
 -1       507 2.01890E+01 7.48994E-02 1.62917E-04 2.36475E-01-6.50150E-14-5.24116E-14
 -1       508 2.02473E+01 7.73369E-02 1.59146E-04 2.88228E-01-7.34777E-14-1.04013E-14
 -1       509 2.03186E+01 7.02586E-02 1.28083E-04 3.39254E-01-3.21680E-14 6.04621E-14
 -1       510 2.04046E+01 4.80011E-02 5.53634E-05 3.82148E-01-7.21213E-14-4.60457E-14
 -1       511 2.05071E+01 3.54252E-03-7.54363E-05 4.05692E-01-2.51954E-13-2.05391E-13
 -1       512 2.06270E+01-7.07026E-02-2.79386E-04 3.94146E-01-1.45113E-13-1.74006E-13
 -1       513 2.07640E+01-1.80875E-01-5.63554E-04 3.27171E-01 5.22658E-14-1.05066E-13
 -1       514 2.09142E+01-3.27748E-01-9.14440E-04 1.81151E-01 2.03566E-13 9.90579E-14
 -1       515 2.10675E+01-5.00312E-01-1.27321E-03-6.67955E-02 1.59816E-13 1.63624E-13
 -1       516 2.12018E+01-6.67337E-01-1.54901E-03-4.30322E-01 7.38927E-14-8.49874E-14
 -1       517 2.12785E+01-7.70050E-01-1.57629E-03-8.99281E-01-4.20036E-15-3.54686E-14
 -1       518 2.12411E+01-7.23540E-01-1.11141E-03-1.41983E+00-8.80481E-14 9.92743E-14
 -1       519 2.10264E+01-4.38719E-01-1.00093E-04-1.87586E+00-7.84554E-14 3.81394E-13
 -1       520 2.05958E+01 1.25148E-01 1.40268E-03-2.08940E+00-2.44146E-14 1.87239E-13
 -1       521 1.99848E+01 8.87192E-01 2.82582E-03-1.86846E+00 2.89515E-13-4.48838E-14
 -1       522 1.93333E+01 1.60564E+00 3.79398E-03-1.11510E+00 3.56199E-13-1.57008E-13
 -1       523 1.88414E+01 1.94539E+00 2.98562E-03 6.21824E-02 1.03215E-13-6.74119E-14
 -1       524 1.86770E+01 1.61636E+00-3.35269E-03 1.31532E+00-1.82624E-13-4.64436E-14
 -1       525 1.99270E+01 2.46105E-01 2.37903E-03 1.57117E-01 2.58083E-13-1.16195E-13
 -1       526 2.02824E+01 6.52579E-01 5.26941E-03 8.01299E-01 3.63231E-13-2.71420E-14
 -1       527 1.98117E+01 1.29036E-01 9.80445E-04-2.10898E-02 1.85363E-13-1.73684E-13
 -1       528 1.97540E+01 5.97209E-02 3.69288E-04-1.19818E-01 1.17334E-13-2.24899E-13
 -1       529 1.97354E+01 1.79369E-02 8.73760E-05-1.68076E-01 5.62442E-14-2.63118E-13
 -1       530 1.97416E+01-6.89184E-03-5.14408E-05-1.84772E-01 6.26393E-14-2.54258E-13
 -1       531 1.97620E+01-2.08764E-02-1.22487E-04-1.82222E-01 9.61986E-14-2.12989E-13
 -1       532 1.97895E+01-2.78120E-02-1.55688E-04-1.68579E-01 1.16044E-13-2.05986E-13
 -1       533 1.98194E+01-3.01869E-02-1.65592E-04-1.49255E-01 1.03294E-13-2.03030E-13
 -1       534 1.98487E+01-2.96810E-02-1.60970E-04-1.27804E-01 7.80804E-14-1.86410E-13
 -1       535 1.98758E+01-2.74348E-02-1.47685E-04-1.06503E-01 3.00468E-14-1.18648E-13
 -1       536 1.98997E+01-2.42094E-02-1.29648E-04-8.67556E-02-1.68126E-14-1.18885E-13
 -1       537 1.99204E+01-2.04910E-02-1.09338E-04-6.93871E-02 1.19446E-13-1.11515E-13
 -1       538 1.99380E+01-1.65619E-02-8.81615E-05-5.48529E-02 2.23497E-13-1.72258E-13
 -1       539 1.99529E+01-1.25495E-02-6.67395E-05-4.34006E-02 8.16442E-14-1.06727E-13
 -1       540 1.99660E+01-8.46164E-03-4.50990E-05-3.51928E-02-8.73256E-14-1.72341E-13
 -1       541 1.99778E+01-4.21107E-03-2.27778E-05-3.04015E-02-1.20934E-13-2.05740E-13
 -1       542 1.99894E+01 3.69757E-04 1.11218E-06-2.92849E-02-2.42815E-14-2.17137E-13
 -1       543 2.00019E+01 5.52236E-03 2.78488E-05-3.22530E-02 7.34432E-14-2.82022E-13
 -1       544 2.00164E+01 1.15643E-02 5.91276E-05-3.99284E-02 1.10596E-13-1.62022E-13
 -1       545 2.00344E+01 1.88995E-02 9.71344E-05-5.32088E-02 2.73362E-14-8.22834E-14
 -1       546 2.00576E+01 2.80381E-02 1.44674E-04-7.33370E-02-3.82513E-15-3.17865E-13
 -1       547 2.00880E+01 3.96273E-02 2.05363E-04-1.01983E-01 7.68332E-15-4.02541E-13
 -1       548 2.01277E+01 5.44944E-02 2.83879E-04-1.41347E-01-3.89103E-14-2.59406E-13
 -1       549 2.01793E+01 7.37002E-02 3.86242E-04-1.94280E-01-2.37063E-14-7.95729E-14
 -1       550 2.02457E+01 9.85963E-02 5.20010E-04-2.64430E-01-5.74317E-14 7.99743E-14
 -1       551 2.03297E+01 1.30858E-01 6.94085E-04-3.56391E-01-1.17241E-13 2.77755E-14
 -1       552 2.04343E+01 1.72432E-01 9.17383E-04-4.75809E-01 2.51252E-13-7.08524E-15
 -1       553 2.05618E+01 2.25248E-01 1.19470E-03-6.29330E-01 1.98827E-14 3.60319E-14
 -1       554 2.07135E+01 2.90381E-01 1.51635E-03-8.24170E-01-1.29585E-13 1.19425E-13
 -1       555 2.08893E+01 3.66050E-01 1.83553E-03-1.06683E+00-1.57452E-13 2.33160E-13
 -1       556 2.10876E+01 4.43273E-01 2.02785E-03-1.36021E+00 7.79568E-15 2.87780E-13
 -1       557 2.13082E+01 4.97301E-01 1.84378E-03-1.69766E+00 1.46943E-14 3.31643E-13
 -1       558 2.15602E+01 4.72410E-01 8.87320E-04-2.05225E+00-3.79735E-14 2.09014E-13
 -1       559 2.18834E+01 2.59067E-01-1.19728E-03-2.35828E+00 2.86119E-14 7.72257E-14
 -1       560 2.23846E+01-3.23870E-01-5.35944E-03-2.47611E+00-5.39520E-14 2.56537E-13
 -1       561 2.32807E+01-1.49273E+00-6.10330E-03-2.17617E+00-1.85111E-13 2.08985E-13
 -1       562 2.49526E+01-3.35659E+00 1.24947E-02-1.00361E+00-2.32014E-13-1.78368E-13
 -1       563 2.73993E+01-5.03757E+00-2.30287E-02 1.46186E+00-2.80053E-13-3.27967E-13
 -1       564 3.08333E+01-4.85097E+00-7.23118E-02 5.11443E+00 1.56086E-13-1.18933E-13
 -1       565 3.11171E+01 4.43019E-01-1.79571E-01 7.95940E+00 3.92228E-13-8.59174E-14
 -1       566 3.00735E+01 6.11280E+00-2.61463E-01 5.63490E+00 9.40220E-14-4.61183E-13
 -1       567 2.99782E+01 6.87059E+00-1.98857E-01 3.82805E-01-4.55191E-15-1.85494E-13
 -1       568 2.95770E+01 2.19793E+00-1.72120E-01-2.15611E+00 1.59713E-13-1.23457E-13
 -1       569 3.25132E+01-7.52743E-01 6.57293E-03-8.21922E+00-6.00842E-13-8.79283E-13
 -1       570 2.10669E+01 2.41938E+00-2.13900E-02 2.43890E+00-1.99766E-13-7.66366E-14
 -1       571 2.03929E+01 1.77168E+00-5.67245E-03-1.54528E+00-4.33694E-13-2.61734E-13
 -1       572 2.43792E+01 3.07985E+00-9.54765E-02 1.13836E+00 1.07955E-13-8.68404E-13
 -1       573 1.91847E+01 6.91789E-01 3.41563E-03 2.54909E+00-3.14665E-13-2.89597E-13
 -1       574 1.59600E+01-7.00626E+00 1.30542E-01 7.94018E+00 4.12864E-14-3.21250E-13
 -1       575 2.21522E+01-8.84539E+00 9.87821E-02-4.58548E+00-2.56656E-13-6.26085E-13
 -1       576 1.96789E+01 3.19884E+00-5.09772E-03-3.12607E-01-4.70327E-14-5.79961E-13
 -1       577 3.29727E+01 4.46049E+00-2.44810E-01-1.01759E+00-4.76424E-14-4.70554E-13
 -1       578 2.89405E+01-8.50530E+00-1.29744E-02-8.56517E-01 6.56419E-15-3.72452E-13
 -1       579 4.93464E+00-2.50841E+00 2.52744E-01 2.39862E+00 3.74095E-13-2.29039E-13
 -1       580 3.34285E+01-4.75763E+00-1.10987E-01 4.70972E+00 2.48919E-13-5.90222E-14
 -1       581 1.29972E+01-6.67165E+00 1.65756E-01-5.91824E+00 1.25802E-13-3.03577E-14
 -1       582 2.48789E+01-7.64354E+00 3.84816E-02 5.47168E+00-2.95167E-13-1.59085E-13
 -1       583 8.48754E+00-4.64763E+00 1.93954E-01 6.65635E+00 4.12684E-13-3.22159E-13
 -1       584 3.42887E+01 1.10140E+01-1.78438E-01-2.44073E+00 9.00668E-15 7.80626E-15
 -1       585 3.11460E+01-4.82140E+00-4.68175E-02 6.91412E-01 2.42029E-14-3.18530E-13
 -1       586 3.36825E+01 5.97310E-01-1.35123E-01-3.12771E+00 1.08760E-13-1.84741E-13
 -1       587 3.34093E+01 6.98566E+00-1.91974E-01-4.72454E+00-4.65419E-13-9.88098E-14
 -1       588 3.19834E+01 1.09476E+01-2.41235E-01-3.74515E+00-3.03785E-13-3.99751E-13
 -1       589 3.22660E+01 7.13247E+00-1.79820E-01-1.60836E+00-4.71845E-16 2.09013E-13
 -1       590 3.23323E+01-3.97735E-01-9.99351E-02 3.57254E-01 9.22318E-14-3.88953E-13
 -1       591 1.99783E+01 2.66325E+00-6.57906E-03-1.25353E+00-3.31232E-13-5.31060E-13
 -1       592 1.88787E+01 7.18067E-01 3.42746E-03 2.08528E+00-3.63915E-13-9.38269E-16
 -1       593 2.78046E+01-6.48974E+00-1.12663E-03 2.19021E+00-1.90788E-13-2.24452E-13
 -1       594 1.99584E+01 2.45015E+00-1.60713E-03 3.93708E-01 1.56595E-13-5.31059E-13
 -1       595 1.99263E+01 2.52512E+00-1.52295E-03 1.35737E-01 8.94002E-14-5.41883E-13
 -1       596 2.01179E+01 2.04830E+00-1.79431E-03 8.49673E-01 2.88690E-13-4.42309E-13
 -1       597 2.02489E+01 1.67530E+00-7.48476E-04 9.98958E-01 3.56735E-13-3.74539E-13
 -1       598 1.99738E+01 8.80538E-02 7.08036E-05-1.21148E-01 1.22005E-13-1.82426E-13
 -1       599 2.01058E+01 3.52287E-01 5.37621E-04 1.47966E-01 2.40357E-13-1.86482E-13
 -1       600 2.02213E+01 5.98773E-01 1.82092E-03 4.20713E-01 3.20616E-13-2.16568E-13
 -1       601 2.58283E+01-7.23769E+00 3.60368E-02-1.63661E+00-3.01491E-13-3.05630E-13
 -1       602 2.02397E+01 6.73699E-01 2.87231E-04-3.92277E-01-2.53627E-13-2.81921E-13
 -1       603 2.01676E+01 3.92161E-01 1.67727E-04-1.38110E-01-1.94793E-13-2.55948E-13
 -1       604 2.01021E+01 2.12666E-01 4.96955E-05 2.37104E-02-1.69845E-13-2.54510E-13
 -1       605 2.00517E+01 9.83046E-02 3.30979E-06 1.18715E-01-1.83298E-13-3.05475E-13
 -1       606 2.00165E+01 2.64314E-02-1.60704E-05 1.67405E-01-1.02123E-13-3.45535E-13
 -1       607 1.99939E+01-1.71552E-02-2.63830E-05 1.85316E-01-3.69298E-14-2.57990E-13
 -1       608 1.99806E+01-4.17707E-02-3.17472E-05 1.83725E-01-6.33123E-14-1.48642E-13
 -1       609 1.99739E+01-5.37235E-02-3.33912E-05 1.70605E-01-5.82956E-14-5.98966E-14
 -1       610 1.99717E+01-5.73675E-02-3.23618E-05 1.51475E-01-1.15341E-13-5.73261E-14
 -1       611 1.99723E+01-5.57182E-02-2.96826E-05 1.30059E-01-4.32351E-14-1.85705E-13
 -1       612 1.99746E+01-5.08391E-02-2.61337E-05 1.08797E-01-1.42778E-14-1.64564E-13
 -1       613 1.99778E+01-4.40987E-02-2.21719E-05 8.92403E-02-9.73655E-14-3.14715E-14
 -1       614 1.99816E+01-3.63483E-02-1.80533E-05 7.23382E-02-1.50719E-13-1.58612E-14
 -1       615 1.99856E+01-2.80509E-02-1.38843E-05 5.86700E-02-1.01789E-13-1.04732E-13
 -1       616 1.99897E+01-1.93818E-02-9.70782E-06 4.86127E-02 2.45165E-14-1.22893E-13
 -1       617 1.99940E+01-1.03054E-02-5.47631E-06 4.24667E-02 1.24147E-13-1.60658E-13
 -1       618 1.99985E+01-6.36735E-04-1.06859E-06 4.05461E-02 1.70969E-14-1.27995E-13
 -1       619 2.00035E+01 9.90424E-03 3.67804E-06 4.32423E-02 1.35183E-13-1.62644E-13
 -1       620 2.00091E+01 2.16362E-02 8.93830E-06 5.10601E-02 1.12879E-13-1.58800E-13
 -1       621 2.00157E+01 3.48489E-02 1.48672E-05 6.46279E-02 1.64654E-14-1.01253E-13
 -1       622 2.00236E+01 4.97138E-02 2.15562E-05 8.46741E-02-9.65816E-14-1.32181E-13
 -1       623 2.00334E+01 6.61590E-02 2.89679E-05 1.11961E-01-1.11317E-13-1.59607E-13
 -1       624 2.00456E+01 8.36946E-02 3.68427E-05 1.47165E-01 2.00512E-14 1.66071E-15
 -1       625 2.00612E+01 1.01174E-01 4.45650E-05 1.90674E-01 9.46305E-14 6.69993E-14
 -1       626 2.00816E+01 1.16479E-01 5.09840E-05 2.42293E-01 6.94244E-16 1.35310E-14
 -1       627 2.01086E+01 1.26137E-01 5.41864E-05 3.00815E-01-5.56754E-14 5.76855E-14
 -1       628 2.01451E+01 1.24895E-01 5.12351E-05 3.63443E-01 5.40116E-15-2.41436E-14
 -1       629 2.01952E+01 1.05339E-01 3.79139E-05 4.25036E-01-1.16704E-13-1.15385E-13
 -1       630 2.02651E+01 5.77583E-02 8.56888E-06 4.77193E-01-1.73139E-13-6.49431E-14
 -1       631 2.03626E+01-2.94002E-02-4.36846E-05 5.07204E-01-2.22510E-13 7.24653E-14
 -1       632 2.04979E+01-1.67864E-01-1.26151E-04 4.97045E-01-6.52294E-14 8.65294E-14
 -1       633 2.06818E+01-3.65730E-01-2.45990E-04 4.22733E-01 2.85775E-14-7.31702E-14
 -1       634 2.09222E+01-6.20357E-01-4.01192E-04 2.54865E-01 1.81343E-13-3.74129E-13
 -1       635 2.12175E+01-9.06949E-01-5.39515E-04-3.80850E-02 5.56602E-14-4.23078E-13
 -1       636 2.15439E+01-1.16366E+00-6.98776E-04-4.80244E-01 1.70316E-15-2.16852E-13
 -1       637 2.18416E+01-1.27990E+00-7.93536E-04-1.06820E+00 1.22961E-13-1.61003E-13
 -1       638 2.20076E+01-1.10256E+00-4.92204E-04-1.73916E+00 8.89678E-14-2.39385E-13
 -1       639 2.19109E+01-4.83322E-01-1.46832E-04-2.33346E+00 2.30994E-14 5.38561E-14
 -1       640 2.14593E+01 6.06735E-01 4.73857E-04-2.58421E+00 1.05244E-13 2.84570E-13
 -1       641 2.07023E+01 1.93353E+00 5.43307E-04-2.20423E+00 1.05119E-13 2.15194E-14
 -1       642 1.98691E+01 2.97596E+00 4.62601E-04-1.10244E+00-2.00265E-14-3.38791E-13
 -1       643 1.92539E+01 3.17048E+00 3.56783E-05 4.76243E-01-2.67541E-13-5.35144E-13
 -1       644 2.00274E+01 1.89656E-01 2.34514E-04-2.26859E-02 1.79179E-13-1.93621E-13
 -1       645 1.99419E+01 2.48611E-02 4.38288E-06-1.71084E-01 4.45115E-14-1.76996E-13
 -1       646 1.99261E+01-1.32983E-02-2.81953E-05-1.89243E-01 1.97556E-14-2.08930E-13
 -1       647 1.99213E+01-3.48736E-02-4.48890E-05-1.87456E-01 7.73669E-14-1.95848E-13
 -1       648 1.99235E+01-4.54556E-02-5.22026E-05-1.73947E-01 9.44118E-14-1.23263E-13
 -1       649 1.99298E+01-4.88523E-02-5.33890E-05-1.54343E-01 9.07526E-14-1.03079E-13
 -1       650 1.99381E+01-4.76855E-02-5.06602E-05-1.32412E-01 4.68660E-14-4.75950E-14
 -1       651 1.99471E+01-4.37451E-02-4.56645E-05-1.10604E-01 2.31359E-14-8.47855E-14
 -1       652 1.99560E+01-3.82202E-02-3.95037E-05-9.04652E-02-1.73267E-14-1.53945E-13
 -1       653 1.99646E+01-3.18580E-02-3.28030E-05-7.29319E-02 1.42511E-13-9.85047E-14
 -1       654 1.99725E+01-2.50728E-02-2.58595E-05-5.85606E-02 1.18478E-13-7.54305E-14
 -1       655 1.99799E+01-1.80232E-02-1.88039E-05-4.77016E-02 1.73732E-14 2.32866E-14
 -1       656 1.99871E+01-1.06692E-02-1.15823E-05-4.06331E-02-6.84805E-14 4.34143E-14
 -1       657 1.99943E+01-2.81097E-03-3.94758E-06-3.76646E-02-3.07290E-14-5.02337E-14
 -1       658 2.00020E+01 5.88931E-03 4.46618E-06-3.92206E-02 9.95478E-14-9.39476E-14
 -1       659 2.00107E+01 1.58994E-02 1.41682E-05-4.59111E-02 7.28655E-14-1.17675E-13
 -1       660 2.00209E+01 2.78220E-02 2.58256E-05-5.85965E-02 8.63189E-14-1.92826E-13
 -1       661 2.00333E+01 4.24132E-02 4.02973E-05-7.84489E-02 9.47949E-15-1.15851E-13
 -1       662 2.00485E+01 6.06152E-02 5.86901E-05-1.07017E-01 8.54522E-14-7.11530E-14
 -1       663 2.00670E+01 8.36030E-02 8.24405E-05-1.46291E-01-1.35846E-13-8.31999E-14
 -1       664 2.00891E+01 1.12845E-01 1.13422E-04-1.98779E-01-1.68238E-13-4.71961E-14
 -1       665 2.01147E+01 1.50167E-01 1.54075E-04-2.67571E-01-1.89816E-13 4.97622E-14
 -1       666 2.01431E+01 1.97794E-01 2.07511E-04-3.56398E-01-4.35392E-14 3.90342E-14
 -1       667 2.01721E+01 2.58305E-01 2.77504E-04-4.69642E-01 1.88517E-14-8.62403E-14
 -1       668 2.01979E+01 3.34362E-01 3.68000E-04-6.12249E-01 8.67124E-14 1.25005E-13
 -1       669 2.02138E+01 4.27925E-01 4.81258E-04-7.89454E-01-8.49345E-14 2.18626E-13
 -1       670 2.02103E+01 5.38401E-01 6.12482E-04-1.00620E+00-2.07485E-13-8.77965E-14
 -1       671 2.01742E+01 6.58730E-01 7.36129E-04-1.26610E+00-7.89519E-14 7.33793E-15
 -1       672 2.00920E+01 7.67727E-01 7.89732E-04-1.57000E+00 1.65750E-13-1.12713E-13
 -1       673 1.99572E+01 8.16268E-01 7.17886E-04-1.91424E+00 6.37065E-14-2.41112E-13
 -1       674 1.97901E+01 7.05242E-01 8.10386E-04-2.28888E+00-7.71504E-14-1.47096E-13
 -1       675 1.96707E+01 2.54359E-01 3.61498E-04-2.68293E+00-1.38337E-13 1.88353E-14
 -1       676 1.98915E+01-8.02398E-01 5.87511E-03-2.98490E+00-1.09014E-13 1.26662E-13
 -1       677 2.07389E+01-2.82501E+00 3.78020E-02-3.23828E+00 8.52157E-14-9.59129E-14
 -1       678 2.82140E+01 8.22688E+00-1.66644E-01-4.29068E+00-3.83249E-13-6.96344E-13
 -1       679 2.04914E+01 4.80187E+00-2.01792E-02 1.34471E+00-1.03310E-13-9.92255E-14
 -1       680 2.30314E+01 6.91722E+00-1.12653E-01 7.85859E-01 5.05915E-14-6.46333E-13
 -1       681 1.92606E+01 2.23668E+00 1.53988E-03 2.01321E+00-1.80307E-13-2.22073E-13
 -1       682 1.95873E+01-6.16638E+00 1.06992E-01-4.63473E+00 2.41057E-14-3.04971E-13
 -1       683 7.45677E+00-1.62966E+00 1.83761E-01-1.32011E+00 7.57762E-14-2.47080E-13
 -1       684 2.70583E+01 9.89146E+00-2.63835E-01-1.40111E+00-2.40308E-13-4.41647E-13
 -1       685 1.46457E+01-4.40706E+00 1.16670E-01 6.84197E+00 3.53505E-13-6.49199E-13
 -1       686 1.16151E+01-3.23936E+00 1.33110E-01-4.47199E+00 9.97570E-14-2.43833E-14
 -1       687 2.02902E+01 1.12589E+00 8.68127E-04-7.61786E-01-2.86993E-13-3.03646E-13
 -1       688 9.45323E+00-1.92269E+00 1.50944E-01 4.59703E+00 2.91328E-13-2.50827E-13
 -1       689 2.00225E+01 2.29563E+00-1.72059E-03 6.37292E-01 2.15000E-13-4.82555E-13
 -1       690 3.04338E+01-2.48035E+00-6.28937E-02-2.51790E+00-8.19622E-14-5.69298E-13
 -1       691 2.92940E+01 2.91121E+00-1.23949E-01-4.88574E+00-2.41127E-13-5.68750E-13
 -1       692 2.00151E+01 2.30864E+00-1.79949E-03-6.27637E-01-1.70617E-13-4.87504E-13
 -1       693 2.16654E+01-6.88083E+00 7.05265E-02 6.08060E+00-8.84987E-14-1.40159E-13
 -1       694 1.99246E+01 2.52735E+00-1.65226E-03-1.25481E-01-1.67722E-14-5.31807E-13
 -1       695 2.03499E+01 1.12285E+00 3.25798E-03 9.93633E-01 3.93684E-13-1.87499E-13
 -1       696 9.05900E+00-5.11165E-01 1.27851E-01 1.53643E+00 8.50951E-14-6.68389E-14
 -1       697 2.49881E+01 8.77640E+00-1.13377E-01-2.32845E+00-5.04784E-13-5.02028E-13
 -1       698 2.01070E+01 2.06849E+00-2.32202E-03-8.44094E-01-2.63453E-13-5.06173E-13
 -1       699 1.99537E+01 2.45756E+00-1.74815E-03-3.82592E-01-8.88733E-14-4.75145E-13
 -1       700 2.02557E+01 1.60412E+00-8.53636E-04-9.93443E-01-3.05681E-13-4.02965E-13
 -1       701 2.46808E+01-6.18009E+00 1.74749E-02 3.39039E+00-7.96585E-14-1.38079E-14
 -1       702 2.02693E+01 1.29834E+00-1.73278E-03 6.28827E-01 2.76555E-13-3.49347E-13
 -1       703 2.00885E+01 2.30560E-02-9.58582E-06-1.61748E-01 5.44827E-14-2.59443E-13
 -1       704 2.02880E+01 7.31937E-01 1.14534E-04-2.89690E-01-1.85069E-13-3.29362E-13
 -1       705 2.02204E+01 4.13041E-01-8.13116E-05 1.09106E-01 1.75238E-13-2.10029E-13
 -1       706 2.02612E+01 4.33206E-01-4.65766E-05-9.23991E-02-1.67569E-13-3.26293E-13
 -1       707 2.02209E+01 2.34404E-01-1.86193E-05 3.71827E-02-1.74598E-13-2.88606E-13
 -1       708 2.01792E+01 1.03754E-01-1.47087E-05 1.14305E-01-1.54911E-13-2.57173E-13
 -1       709 2.01413E+01 2.03863E-02-1.09781E-05 1.53716E-01-1.13810E-14-2.35049E-13
 -1       710 2.01091E+01-3.02773E-02-9.85163E-06 1.67453E-01 5.07545E-14-2.36801E-13
 -1       711 2.00828E+01-5.84970E-02-9.30696E-06 1.64714E-01 2.97497E-16-1.37775E-13
 -1       712 2.00618E+01-7.15548E-02-8.45796E-06 1.52227E-01-5.20102E-14-1.36569E-13
 -1       713 2.00455E+01-7.46163E-02-7.39749E-06 1.34739E-01-1.08950E-13-2.58900E-14
 -1       714 2.00330E+01-7.13015E-02-6.42064E-06 1.15493E-01-6.59012E-14-4.02388E-14
 -1       715 2.00238E+01-6.40923E-02-5.60026E-06 9.66402E-02-6.11713E-14-5.61165E-14
 -1       716 2.00171E+01-5.46166E-02-4.82845E-06 7.95582E-02-1.14875E-13-1.67934E-13
 -1       717 2.00125E+01-4.38537E-02-3.89321E-06 6.51140E-02-1.86694E-13-8.96582E-14
 -1       718 2.00094E+01-3.22977E-02-2.88849E-06 5.38676E-02-1.16374E-13-1.40409E-13
 -1       719 2.00074E+01-2.00860E-02-1.90615E-06 4.62210E-02-1.61492E-14-1.67968E-13
 -1       720 2.00062E+01-7.09596E-03-9.41009E-07 4.25289E-02 1.17245E-13-1.74958E-13
 -1       721 2.00055E+01 6.97451E-03 5.57880E-08 4.31808E-02 7.65039E-14-1.23050E-13
 -1       722 2.00049E+01 2.25304E-02 1.13890E-06 4.86579E-02 1.66119E-13-2.09605E-14
 -1       723 2.00042E+01 3.99965E-02 2.36274E-06 5.95652E-02 1.18435E-13 2.72223E-14
 -1       724 2.00031E+01 5.97139E-02 3.77804E-06 7.66388E-02-1.23637E-13 4.11665E-14
 -1       725 2.00014E+01 8.18019E-02 5.42430E-06 1.00723E-01-1.80302E-13 2.65652E-15
 -1       726 1.99991E+01 1.05966E-01 7.31625E-06 1.32711E-01 1.53456E-14 9.87430E-15
 -1       727 1.99964E+01 1.31235E-01 9.42175E-06 1.73431E-01 7.42155E-14-2.52910E-14
 -1       728 1.99940E+01 1.55605E-01 1.16272E-05 2.23473E-01 3.39329E-14-8.19154E-14
 -1       729 1.99933E+01 1.75592E-01 1.36842E-05 2.82918E-01 1.16377E-14 1.29461E-14
 -1       730 1.99972E+01 1.85690E-01 1.51271E-05 3.50954E-01-1.57929E-13 9.26335E-15
 -1       731 2.00103E+01 1.77803E-01 1.51357E-05 4.25337E-01-2.28196E-13-1.75175E-13
 -1       732 2.00403E+01 1.40772E-01 1.22942E-05 5.01643E-01-1.57250E-13-4.54466E-13
 -1       733 2.00985E+01 6.02897E-02 4.22706E-06 5.72247E-01-7.06363E-14-4.17049E-13
 -1       734 2.02009E+01-8.03192E-02-1.24434E-05 6.24929E-01-5.78547E-14-1.29748E-13
 -1       735 2.03684E+01-2.97540E-01-4.27190E-05 6.40993E-01-1.61098E-13-6.70204E-14
 -1       736 2.06253E+01-6.01951E-01-1.01539E-04 5.92978E-01-5.92247E-14 7.09523E-14
 -1       737 2.09944E+01-9.87493E-01-1.89102E-04 4.42511E-01-8.37657E-14-1.64293E-13
 -1       738 2.14852E+01-1.41334E+00-1.66469E-04 1.39893E-01 1.36650E-13-2.21543E-13
 -1       739 2.20707E+01-1.77742E+00-5.00768E-04-3.66450E-01 2.20429E-13-8.82322E-14
 -1       740 2.26612E+01-1.89704E+00-1.30777E-03-1.09985E+00 3.04205E-13 9.41575E-15
 -1       741 2.30839E+01-1.51641E+00-1.95283E-03-2.00107E+00 7.08526E-14 1.83228E-13
 -1       742 2.30992E+01-3.81877E-01-2.26430E-03-2.83868E+00 3.58813E-13 1.41902E-13
 -1       743 2.25625E+01 1.47745E+00-1.35487E-03-3.19578E+00 9.88062E-14 4.57552E-13
 -1       744 2.15331E+01 3.53482E+00-1.70927E-02-2.59760E+00-1.43538E-13 3.30710E-13
 -1       745 2.05046E+01 4.73198E+00-2.02346E-02-1.02292E+00-2.54415E-13 1.84959E-13
 -1       746 1.70473E+01-2.88695E+00 9.45111E-02-4.17357E+00 2.02514E-13-7.34031E-14
 -1       747 2.00605E+01-2.44142E-02-1.24368E-05-1.77103E-01 2.34418E-14-2.93004E-13
 -1       748 2.00397E+01-5.10331E-02-1.42440E-05-1.74637E-01 3.82525E-15-2.81438E-13
 -1       749 2.00247E+01-6.36273E-02-1.47917E-05-1.61633E-01 6.66487E-14-1.91282E-13
 -1       750 2.00144E+01-6.69964E-02-1.43140E-05-1.43187E-01 1.32646E-14-1.66228E-13
 -1       751 2.00075E+01-6.44933E-02-1.30401E-05-1.22760E-01 4.69498E-14-2.61881E-13
 -1       752 2.00032E+01-5.84085E-02-1.14656E-05-1.02635E-01 1.02284E-13-2.20277E-13
 -1       753 2.00008E+01-5.02524E-02-9.77556E-06-8.42733E-02 5.00289E-14-3.58814E-13
 -1       754 1.99999E+01-4.09511E-02-7.91181E-06-6.85875E-02 4.54662E-14-2.30878E-13
 -1       755 2.00001E+01-3.09796E-02-6.00112E-06-5.61510E-02 2.21512E-14-1.15148E-13
 -1       756 2.00010E+01-2.04662E-02-4.14494E-06-4.73684E-02-7.66084E-14-9.90876E-14
 -1       757 2.00027E+01-9.26990E-03-2.21919E-06-4.25998E-02-4.93894E-14-1.19952E-13
 -1       758 2.00049E+01 2.97085E-03-1.58484E-07-4.22569E-02 9.11795E-14-8.82567E-14
 -1       759 2.00075E+01 1.68111E-02 2.14802E-06-4.68798E-02 9.79824E-14 6.02528E-14
 -1       760 2.00103E+01 3.29895E-02 4.84875E-06-5.71992E-02 1.03029E-13 9.26073E-14
 -1       761 2.00132E+01 5.24341E-02 8.13066E-06-7.41864E-02 2.99968E-14 9.98590E-14
 -1       762 2.00158E+01 7.62843E-02 1.22275E-05-9.90936E-02-9.07240E-15 4.84108E-14
 -1       763 2.00173E+01 1.05927E-01 1.74343E-05-1.33482E-01-2.47601E-14 2.82210E-13
 -1       764 2.00167E+01 1.43045E-01 2.41317E-05-1.79236E-01-1.80236E-13 1.35118E-13
 -1       765 2.00119E+01 1.89666E-01 3.28248E-05-2.38549E-01-1.07529E-13 5.67024E-14
 -1       766 1.99999E+01 2.48197E-01 4.42069E-05-3.13883E-01-1.31187E-13-1.23471E-14
 -1       767 1.99760E+01 3.21386E-01 5.92553E-05-4.07854E-01 3.51242E-14-8.11260E-14
 -1       768 1.99330E+01 4.12103E-01 7.93159E-05-5.23056E-01-4.98082E-14-8.42800E-14
 -1       769 1.98602E+01 5.22751E-01 1.05895E-04-6.61782E-01-3.48289E-14-2.82341E-13
 -1       770 1.97428E+01 6.53907E-01 1.39079E-04-8.25697E-01-1.66848E-16-1.63858E-13
 -1       771 1.95608E+01 8.01566E-01 1.71967E-04-1.01564E+00-1.51024E-13-2.96111E-13
 -1       772 1.92896E+01 9.51963E-01 1.73583E-04-1.23210E+00 6.78722E-14-4.24298E-13
 -1       773 1.89022E+01 1.07244E+00 1.01722E-04-1.47766E+00 4.10361E-14-2.60767E-13
 -1       774 1.83771E+01 1.09644E+00 2.71540E-04-1.76368E+00-1.19413E-13-7.20492E-14
 -1       775 1.77145E+01 8.99725E-01 2.00709E-03-2.12892E+00-1.49159E-13-7.08421E-14
 -1       776 1.70089E+01 3.27639E-01 9.76321E-03-2.64967E+00-2.02377E-13-2.15425E-13
 -1       777 2.01251E+01 1.01156E-01-5.51162E-06-1.18489E-01 6.97403E-14-2.09800E-13
 -1       778 2.22850E+01 7.18470E+00-4.78038E-02-9.07590E-01-3.69246E-13-7.13117E-13
 -1       779 2.80198E+01-4.53400E+00-1.26890E-02-6.97148E-01-8.14503E-14-4.66132E-13
 -1       780 2.01701E+01 2.24147E-01 1.36422E-06-3.38948E-02 1.33221E-13-1.62459E-13
 -1       781 2.55074E+01 5.20804E+00-8.97725E-02-4.35562E+00-2.88367E-13-6.68129E-13
 -1       782 2.02783E+01 1.17191E+00 9.94056E-05-5.64408E-01-2.28391E-13-4.19457E-13
 -1       783 1.13402E+01-1.01980E+00 9.13120E-02-2.59226E+00-2.79733E-14-3.25597E-13
 -1       784 2.02726E+01 7.01076E-01 8.53199E-04 3.34316E-01 2.61807E-13-2.64876E-13
 -1       785 2.01367E+01 1.88958E+00-3.28690E-04 1.98784E-01 9.50006E-14-4.78661E-13
 -1       786 2.76993E+01-3.61714E-01-4.12203E-02-3.84259E+00-1.39415E-13-3.86582E-13
 -1       787 1.94565E+01-4.98086E+00 5.38520E-02 5.69257E+00 3.33629E-13-6.02213E-13
 -1       788 2.02224E+01 1.59213E+00-4.41468E-06-7.19791E-01-2.21099E-13-4.98295E-13
 -1       789 1.39227E+01-2.01568E+00 6.55700E-02 5.02662E+00 1.59125E-13-5.92408E-13
 -1       790 2.01254E+01 1.92786E+00-1.23998E-04 3.57567E-03 1.60238E-14-4.32077E-13
 -1       791 2.02171E+01 1.58346E+00-3.30448E-04 5.32739E-01 2.05997E-13-4.00468E-13
 -1       792 1.11201E+01 1.79903E-01 6.90348E-02-3.67645E-01-1.04985E-13-1.03197E-13
 -1       793 1.21927E+01-4.15499E-01 6.20587E-02 3.13767E+00-1.18039E-14-1.42244E-13
 -1       794 2.01482E+01 1.85586E+00-7.21985E-04-5.72210E-01-1.77738E-13-4.53889E-13
 -1       795 2.51041E+01 2.16828E+00-3.36978E-02-4.21200E+00 1.34033E-14-4.77298E-13
 -1       796 2.00931E+01 2.02935E+00-7.99076E-04-3.81411E-01-9.06454E-14-4.38584E-13
 -1       797 2.01688E+01 1.77658E+00-4.56973E-04 3.80207E-01 1.51846E-13-4.62599E-13
 -1       798 2.25107E+01 5.58353E+00-4.24879E-02-2.74304E+00-2.66443E-13-2.13406E-13
 -1       799 2.03285E+01 4.30958E-01-4.02412E-05-4.54325E-02-1.06572E-13-2.40279E-13
 -1       800 2.03024E+01 2.27500E-01-1.23517E-05 4.85608E-02-1.29128E-13-2.23596E-13
 -1       801 2.02658E+01 9.18237E-02-8.96535E-06 1.04147E-01-8.96678E-14-2.06032E-13
 -1       802 2.02262E+01 4.92253E-03-6.13632E-06 1.31668E-01 8.24987E-15-2.42182E-13
 -1       803 2.01878E+01-4.74082E-02-4.45198E-06 1.39884E-01 3.31151E-14-2.87254E-13
 -1       804 2.01528E+01-7.56920E-02-2.87246E-06 1.35725E-01 1.26759E-14-2.88125E-13
 -1       805 2.01223E+01-8.76524E-02-1.21854E-06 1.24345E-01-4.17506E-14-2.21386E-13
 -1       806 2.00965E+01-8.88468E-02-1.84775E-07 1.09412E-01-5.58794E-14-1.62274E-13
 -1       807 2.00751E+01-8.31898E-02-3.34946E-07 9.34585E-02-9.74540E-14-2.04890E-13
 -1       808 2.00579E+01-7.33590E-02-1.07770E-06 7.81659E-02-8.39901E-14-2.46301E-13
 -1       809 2.00443E+01-6.10675E-02-1.16026E-06 6.46156E-02-1.31748E-13-1.34337E-13
 -1       810 2.00335E+01-4.72928E-02-8.25741E-07 5.35132E-02-9.04516E-14-6.84340E-14
 -1       811 2.00249E+01-3.24744E-02-5.33729E-07 4.53453E-02-1.30504E-13-1.55097E-14
 -1       812 2.00179E+01-1.66540E-02-3.85059E-07 4.04933E-02 8.68980E-14-3.95775E-14
 -1       813 2.00117E+01 4.17181E-04-3.21551E-07 3.93263E-02 4.80645E-14-2.47082E-14
 -1       814 2.00056E+01 1.91799E-02-3.04469E-07 4.22724E-02 1.42474E-13-1.43464E-13
 -1       815 1.99988E+01 4.01697E-02-3.15421E-07 4.98680E-02 1.34153E-13-2.36707E-13
 -1       816 1.99906E+01 6.39065E-02-3.42729E-07 6.27900E-02 1.95979E-14-2.27769E-13
 -1       817 1.99802E+01 9.07561E-02-3.74594E-07 8.18709E-02-1.82823E-13-2.18514E-13
 -1       818 1.99668E+01 1.20741E-01-3.96905E-07 1.08095E-01-1.01888E-13-1.32884E-13
 -1       819 1.99499E+01 1.53282E-01-3.93286E-07 1.42573E-01-2.94822E-14-1.33452E-13
 -1       820 1.99294E+01 1.86847E-01-3.46927E-07 1.86481E-01 1.26711E-14-1.61253E-13
 -1       821 1.99057E+01 2.18483E-01-2.44845E-07 2.40961E-01-2.72585E-14-2.87120E-13
 -1       822 1.98807E+01 2.43239E-01-8.85704E-08 3.06954E-01-1.17492E-13-4.08311E-13
 -1       823 1.98581E+01 2.53471E-01 6.79018E-08 3.84938E-01-1.63212E-13-3.01794E-13
 -1       824 1.98447E+01 2.38127E-01-1.56559E-08 4.74506E-01-2.45359E-13-9.07997E-14
 -1       825 1.98514E+01 1.82141E-01-1.09368E-06 5.73678E-01-2.33901E-13-2.61529E-13
 -1       826 1.98953E+01 6.62653E-02-4.59952E-06 6.77747E-01 1.68859E-13-2.97431E-13
 -1       827 2.00009E+01-1.32073E-01-9.59506E-06 7.77327E-01 3.08495E-15-1.06457E-13
 -1       828 2.02017E+01-4.35807E-01-1.11885E-05 8.54984E-01-2.59819E-14 6.83004E-14
 -1       829 2.05393E+01-8.60979E-01-3.71634E-05 8.79966E-01-1.95831E-13-6.14556E-14
 -1       830 2.10581E+01-1.40283E+00-8.43606E-05 8.01485E-01-6.81196E-14 3.20389E-15
 -1       831 2.17939E+01-2.00938E+00 6.80308E-04 5.37886E-01 1.14532E-13-1.50773E-13
 -1       832 2.27207E+01-2.52048E+00 3.11972E-04-1.50938E-02 3.20398E-13-1.60493E-13
 -1       833 2.37404E+01-2.66919E+00-7.11980E-04-9.47057E-01 2.35832E-13-2.30456E-13
 -1       834 2.45529E+01-2.01905E+00-5.20463E-03-2.21468E+00 3.15564E-13 7.43331E-14
 -1       835 2.01236E+01-6.82508E-02-1.31041E-06-1.49781E-01 3.70438E-15-2.92785E-13
 -1       836 2.01904E+01 1.15353E-02-3.54245E-06-1.43304E-01 7.16947E-14-3.23444E-13
 -1       837 2.00971E+01-8.07107E-02-1.25143E-06-1.37660E-01 4.37758E-14-2.91475E-13
 -1       838 2.00753E+01-8.27732E-02-1.57587E-06-1.21391E-01 1.16510E-13-2.65646E-13
 -1       839 2.00578E+01-7.82206E-02-1.61959E-06-1.03805E-01 5.51037E-14-2.52281E-13
 -1       840 2.00440E+01-6.96220E-02-1.64406E-06-8.67953E-02 8.58238E-14-2.58340E-13
 -1       841 2.00334E+01-5.86590E-02-1.13723E-06-7.15921E-02-3.36038E-14-2.25058E-13
 -1       842 2.00255E+01-4.63165E-02-5.91595E-07-5.89722E-02-9.82558E-14-1.81610E-13
 -1       843 2.00195E+01-3.30344E-02-4.48695E-07-4.94593E-02-6.44001E-14-1.75049E-13
 -1       844 2.00150E+01-1.88462E-02-2.76517E-07-4.34600E-02-4.52374E-14-2.72643E-13
 -1       845 2.00115E+01-3.46289E-03-9.09046E-08-4.13616E-02 6.55586E-15-2.45233E-13
 -1       846 2.00083E+01 1.36728E-02 1.21813E-07-4.36120E-02-1.54850E-14-1.30798E-13
 -1       847 2.00047E+01 3.33528E-02 3.83155E-07-5.07772E-02 4.88145E-14-1.16272E-13
 -1       848 2.00000E+01 5.65882E-02 7.14639E-07-6.35804E-02 4.49735E-14-1.00373E-13
 -1       849 1.99930E+01 8.46099E-02 1.13805E-06-8.29200E-02-1.64430E-14 3.03712E-14
 -1       850 1.99823E+01 1.18882E-01 1.67693E-06-1.09866E-01-1.55343E-13-1.05898E-15
 -1       851 1.99658E+01 1.61120E-01 2.35955E-06-1.45626E-01-6.43505E-14 5.19240E-15
 -1       852 1.99407E+01 2.13315E-01 3.22683E-06-1.91467E-01-1.82045E-13 7.59034E-14
 -1       853 1.99030E+01 2.77729E-01 4.35142E-06-2.48581E-01-6.00880E-14 2.02035E-14
 -1       854 1.98466E+01 3.56841E-01 5.87463E-06-3.17874E-01 4.00447E-14-3.01458E-13
 -1       855 1.97636E+01 4.53163E-01 8.04681E-06-3.99662E-01 6.68602E-14-2.77762E-13
 -1       856 1.96422E+01 5.68804E-01 1.11296E-05-4.93281E-01-1.49471E-14-1.57700E-13
 -1       857 1.94666E+01 7.04555E-01 1.44641E-05-5.96673E-01-6.54882E-14-1.62616E-13
 -1       858 1.92153E+01 8.58164E-01 1.21652E-05-7.06145E-01-7.42817E-14-6.84027E-14
 -1       859 1.88600E+01 1.02132E+00-2.14530E-05-8.16805E-01-6.74060E-14-3.33475E-13
 -1       860 1.83642E+01 1.17469E+00-1.66917E-04-9.24682E-01 2.64510E-14-2.22920E-13
 -1       861 1.76804E+01 1.28095E+00-5.68552E-04-1.03228E+00-1.85681E-13-5.52987E-14
 -1       862 1.67479E+01 1.26736E+00-1.55575E-03-1.16218E+00-1.40556E-13 3.94006E-14
 -1       863 1.55116E+01 1.02336E+00 7.22286E-03-1.38012E+00-2.01426E-14-8.22703E-14
 -1       864 2.02291E+01 9.67061E-02-8.32131E-06-1.10951E-01 7.08590E-14-2.88165E-13
 -1       865 2.03314E+01 7.28538E-01-2.95207E-05-1.88150E-01-1.53991E-13-3.47031E-13
 -1       866 2.03126E+01 7.27189E-01 1.20539E-04 2.29381E-01 2.08248E-13-2.84027E-13
 -1       867 2.00998E+01 2.00617E+00-4.34712E-04-1.81676E-01-4.63688E-14-4.65505E-13
 -1       868 2.02425E+01 1.44665E+00-4.45360E-05-4.87887E-01-1.47884E-13-4.35321E-13
 -1       869 2.03063E+01 1.04350E+00-1.01535E-04-3.26078E-01-1.28872E-13-3.97244E-13
 -1       870 2.22596E+01-4.77113E+00 1.33545E-02 3.64430E+00 3.20353E-13-4.12843E-14
 -1       871 2.63753E+01-2.57926E+00-1.06005E-02-2.29516E+00 1.43491E-13-1.84054E-13
 -1       872 1.78785E+01-2.88458E+00 1.98758E-02 4.67281E+00 1.95947E-13-5.28921E-13
 -1       873 2.02960E+01 1.10356E+00 8.10385E-05 3.80350E-01 2.00167E-13-3.35089E-13
 -1       874 2.01548E+01-4.00025E-02-1.99489E-06-1.53611E-01 8.72419E-16-2.86744E-13
 -1       875 2.54272E+01-4.78185E+00 2.40385E-03 8.15467E-01 3.06583E-13-3.40756E-13
 -1       876 1.25873E+01 5.07138E-01 2.24215E-02 1.37462E+00-9.48478E-14-2.48317E-14
 -1       877 1.52208E+01-7.81424E-01 2.13759E-02 3.56053E+00 9.81894E-14-4.27716E-13
 -1       878 2.49158E+01-3.65027E-01-1.25061E-02-3.38845E+00 3.77474E-13-1.91161E-13
 -1       879 2.02675E+01 2.29690E-01-1.79858E-05-4.63936E-02 1.05295E-13-3.03492E-13
 -1       880 2.02728E+01 1.40683E+00-1.89748E-05 6.94626E-02 2.75084E-14-4.28216E-13
 -1       881 2.02993E+01 4.29972E-01-8.53230E-05 6.25618E-02 1.40444E-13-3.27143E-13
 -1       882 2.02034E+01 1.63690E+00-1.59999E-04-3.56553E-01-1.12936E-13-3.93333E-13
 -1       883 1.35593E+01 6.51552E-01 2.37080E-02-1.32349E+00-5.24763E-14-1.74281E-13
 -1       884 2.02822E+01 1.33920E+00-9.06261E-05 1.95204E-01 8.18768E-14-4.27655E-13
 -1       885 2.02163E+01-5.84907E-02 9.55591E-06-1.21935E-01 3.79290E-15-3.40138E-13
 -1       886 2.03777E+01 3.92824E-01-3.17782E-05-8.90181E-03-9.76011E-14-2.62897E-13
 -1       887 2.04570E+01-3.15668E+00 8.39792E-03 3.35392E+00 2.97373E-13 1.89308E-14
 -1       888 1.40834E+01 1.04684E+00 4.41410E-03 6.30466E-02-7.34900E-14-1.83220E-13
 -1       889 2.03565E+01 1.96933E-01-1.55818E-05 5.14180E-02-1.11521E-13-2.41946E-13
 -1       890 2.03208E+01 6.58925E-02-6.37992E-06 8.61481E-02-3.04618E-14-2.42532E-13
 -1       891 2.02789E+01-1.74227E-02-2.18683E-06 1.02120E-01-7.26854E-15-2.66386E-13
 -1       892 2.02360E+01-6.64684E-02-6.35226E-07 1.05298E-01 2.62137E-14-2.57830E-13
 -1       893 2.01954E+01-9.16015E-02 1.73134E-06 1.00395E-01 5.48423E-14-2.38929E-13
 -1       894 2.01588E+01-1.00548E-01 3.22395E-06 9.09105E-02-1.97268E-14-1.72657E-13
 -1       895 2.01271E+01-9.88317E-02 3.32879E-06 7.93627E-02-8.46436E-14-1.49855E-13
 -1       896 2.01003E+01-9.03938E-02 7.97578E-07 6.74806E-02-8.55251E-14-1.27423E-13
 -1       897 2.00781E+01-7.78841E-02-1.97420E-07 5.63959E-02-4.26377E-14-1.35135E-13
 -1       898 2.00599E+01-6.29023E-02 4.13968E-07 4.68540E-02-3.91270E-14-8.48584E-14
 -1       899 2.00450E+01-4.63125E-02 6.48695E-07 3.93752E-02-6.13844E-14-1.09654E-13
 -1       900 2.00325E+01-2.84317E-02 4.28328E-07 3.43335E-02 4.24976E-14 5.35262E-14
 -1       901 2.00214E+01-9.15215E-03-4.40812E-08 3.20498E-02 8.91705E-14 1.17354E-13
 -1       902 2.00108E+01 1.19330E-02-6.80294E-07 3.28722E-02 5.18359E-14 9.28885E-14
 -1       903 1.99994E+01 3.54176E-02-1.47643E-06 3.72304E-02-3.40211E-15-3.67668E-14
 -1       904 1.99862E+01 6.19702E-02-2.46269E-06 4.56819E-02 8.04343E-14-2.94481E-13
 -1       905 1.99698E+01 9.22029E-02-3.67893E-06 5.89518E-02 2.08002E-14-2.20046E-13
 -1       906 1.99491E+01 1.26501E-01-5.16602E-06 7.79708E-02-9.31561E-14-6.79575E-14
 -1       907 1.99226E+01 1.64792E-01-6.96103E-06 1.03913E-01 5.15831E-14-3.38531E-14
 -1       908 1.98893E+01 2.06230E-01-9.09201E-06 1.38232E-01-1.10855E-13-8.50091E-14
 -1       909 1.98486E+01 2.48768E-01-1.15694E-05 1.82698E-01-1.75799E-13-2.59251E-13
 -1       910 1.98007E+01 2.88601E-01-1.43716E-05 2.39430E-01-1.54552E-13-3.91344E-13
 -1       911 1.97475E+01 3.19465E-01-1.74334E-05 3.10895E-01-1.29770E-14-3.07007E-13
 -1       912 1.96931E+01 3.31808E-01-2.07161E-05 3.99850E-01-1.22684E-13-1.87587E-13
 -1       913 1.96455E+01 3.11883E-01-2.46109E-05 5.09125E-01-2.27342E-13-5.81591E-14
 -1       914 1.96185E+01 2.40905E-01-3.08952E-05 6.41085E-01-1.46622E-13-2.61978E-14
 -1       915 1.96335E+01 9.45433E-02-4.18539E-05 7.96430E-01 1.95745E-13-2.96483E-13
 -1       916 1.97228E+01-1.56749E-01-4.23839E-05 9.71757E-01 5.08469E-14-3.38048E-13
 -1       917 1.99337E+01-5.45632E-01 2.61176E-05 1.15436E+00-7.71332E-14-1.75135E-13
 -1       918 2.03302E+01-1.09965E+00 2.80730E-04 1.31254E+00-1.03267E-13-4.94022E-14
 -1       919 2.09849E+01-1.82321E+00-2.90318E-05 1.38250E+00-2.39591E-14-2.36457E-14
 -1       920 2.19968E+01-2.69006E+00 1.24982E-03 1.23903E+00 1.14997E-13-9.52929E-14
 -1       921 2.33597E+01-3.43034E+00-4.49020E-03 6.98186E-01 2.68872E-13-3.22206E-13
 -1       922 2.01441E+01-9.52045E-02 7.64706E-06-1.06456E-01 8.99283E-15-2.97415E-13
 -1       923 2.03728E+01 6.76434E-01-2.47043E-05-1.01920E-01-7.31001E-14-3.20818E-13
 -1       924 2.01781E+01-8.49675E-02 9.65497E-06-1.17021E-01 3.89387E-14-2.63761E-13
 -1       925 2.00904E+01-8.76433E-02-4.48442E-07-7.94286E-02 2.73503E-14-1.41201E-13
 -1       926 2.00703E+01-7.63271E-02 2.34794E-06-6.64203E-02-5.31706E-14-9.35759E-14
 -1       927 2.00542E+01-6.25803E-02 3.78851E-06-5.51202E-02-5.92873E-14-1.22750E-13
 -1       928 2.00412E+01-4.72844E-02 2.98536E-06-4.61138E-02-1.46498E-14-2.08849E-13
 -1       929 2.00306E+01-3.07687E-02 2.16003E-06-3.98334E-02-1.49568E-14-2.36724E-13
 -1       930 2.00216E+01-1.29218E-02 1.34628E-06-3.66291E-02-6.60211E-15-3.02408E-13
 -1       931 2.00133E+01 6.72406E-03 5.41330E-07-3.68504E-02-1.25900E-14-3.44575E-13
 -1       932 2.00045E+01 2.89281E-02-2.66853E-07-4.08977E-02-2.41342E-14-3.44650E-13
 -1       933 1.99941E+01 5.46978E-02-1.10753E-06-4.92503E-02-8.00110E-15-2.01651E-13
 -1       934 1.99806E+01 8.52625E-02-2.01890E-06-6.24689E-02-1.05463E-13-1.14678E-13
 -1       935 1.99621E+01 1.22056E-01-3.04116E-06-8.11706E-02-7.54375E-14 9.58112E-14
 -1       936 1.99361E+01 1.66700E-01-4.21067E-06-1.05963E-01-1.41747E-13-2.41377E-14
 -1       937 1.98996E+01 2.20983E-01-5.55176E-06-1.37328E-01-1.05026E-13-2.15831E-14
 -1       938 1.98481E+01 2.86809E-01-7.06366E-06-1.75432E-01-5.47182E-14-2.08472E-13
 -1       939 1.97759E+01 3.66101E-01-8.70215E-06-2.19845E-01 4.13308E-14-1.53525E-13
 -1       940 1.96754E+01 4.60598E-01-1.03656E-05-2.69148E-01-5.88397E-14-8.38837E-14
 -1       941 1.95360E+01 5.71484E-01-1.19329E-05-3.20421E-01-9.79450E-14 2.26639E-14
 -1       942 1.93439E+01 6.98716E-01-1.35460E-05-3.68647E-01-3.97761E-15 8.27813E-14
 -1       943 1.90804E+01 8.39890E-01-1.69456E-05-4.06138E-01-9.89942E-14 7.89946E-14
 -1       944 1.87208E+01 9.88448E-01-2.95661E-05-4.22239E-01 4.27929E-14 1.24386E-13
 -1       945 1.82315E+01 1.13117E+00-8.13082E-05-4.03763E-01 4.09532E-14 5.55212E-15
 -1       946 1.75659E+01 1.24419E+00-5.16940E-04-3.38537E-01-1.92812E-13-5.31004E-14
 -1       947 1.66555E+01 1.28473E+00-2.82788E-04-2.14786E-01-1.36198E-13-1.29776E-13
 -1       948 1.55781E+01 1.24405E+00 4.50156E-03-7.15805E-02-4.18062E-14-2.06039E-13
 -1       949 2.02979E+01 7.66355E-02 5.09789E-06-9.63881E-02 8.96696E-14-3.64964E-13
 -1       950 2.02893E+01 1.24967E+00 1.43421E-05 2.99279E-01 1.60228E-13-4.06948E-13
 -1       951 1.47501E+01 2.33942E-01 1.07789E-02 2.32185E+00-6.83568E-15 9.90819E-14
 -1       952 2.31715E+01-3.92258E+00 5.19317E-03 1.69294E+00 3.23398E-13-2.61106E-13
 -1       953 2.02727E+01 1.40901E+00 1.49359E-04-6.73518E-02-8.67422E-15-3.84095E-13
 -1       954 2.01148E+01-9.48122E-02 1.58943E-06-9.32424E-02 9.75618E-14-2.09720E-13
 -1       955 2.02572E+01-8.07772E-03 8.10457E-06-1.16949E-01 4.43610E-14-3.34896E-13
 -1       956 1.78804E+01-1.57739E+00 6.07737E-03 3.47766E+00 3.92531E-13-3.02992E-13
 -1       957 2.46602E+01-3.61300E+00 2.26746E-04-3.38399E-01 4.50008E-13-1.34985E-14
 -1       958 2.03401E+01 9.73299E-01 7.88242E-04-1.91496E-01-7.51554E-14-3.55696E-13
 -1       959 2.03545E+01 6.95582E-01-1.60480E-04 1.35575E-01 1.55398E-13-3.40560E-13
 -1       960 2.03655E+01 1.00014E+00 2.75090E-05 2.16666E-04-4.08477E-15-3.58928E-13
 -1       961 2.02350E+01 1.53903E+00 1.50344E-04-1.97459E-01-7.97847E-14-4.12555E-13
 -1       962 2.02879E+01 1.27345E+00-1.78624E-04-2.69307E-01-1.07931E-13-3.84640E-13
 -1       963 2.03337E+01 2.09363E-01 1.49779E-05-5.30449E-02 1.05037E-13-3.55005E-13
 -1       964 1.67923E+01-5.05674E-01 3.13557E-03 2.82266E+00 2.46970E-13-1.72322E-13
 -1       965 2.03659E+01 9.71940E-01 3.51870E-04 7.81088E-02 6.94286E-14-3.90079E-13
 -1       966 2.03344E+01 9.50305E-01 5.27914E-04 2.16395E-01 1.64116E-13-3.67886E-13
 -1       967 2.03867E+01 1.50365E-01 2.40357E-05 4.21152E-02-7.30301E-14-2.02059E-13
 -1       968 2.03489E+01 3.09451E-02-3.23089E-05 5.93148E-02-5.77928E-14-2.43839E-13
 -1       969 2.03041E+01-4.29850E-02-1.48399E-05 6.62135E-02 4.82639E-14-1.83093E-13
 -1       970 2.02580E+01-8.48411E-02-3.97598E-06 6.61469E-02 2.89385E-14-1.91646E-13
 -1       971 2.02141E+01-1.04362E-01 1.33284E-06 6.18489E-02 6.42700E-14-2.29547E-13
 -1       972 2.01744E+01-1.08900E-01 1.04725E-05 5.52139E-02-8.04406E-15-1.32284E-13
 -1       973 2.01399E+01-1.03754E-01-8.51629E-07 4.77750E-02-1.04010E-13-1.74196E-13
 -1       974 2.01105E+01-9.24629E-02 4.68776E-07 4.04259E-02-4.42286E-14-1.72443E-13
 -1       975 2.00860E+01-7.75098E-02 5.48375E-06 3.37203E-02 9.00516E-16-1.98154E-13
 -1       976 2.00655E+01-6.01623E-02 4.14528E-06 2.81854E-02-5.36546E-16-8.76616E-14
 -1       977 2.00483E+01-4.11641E-02 2.79247E-06 2.41142E-02 5.31078E-14 5.90688E-14
 -1       978 2.00333E+01-2.06277E-02 6.13628E-07 2.17331E-02 1.60147E-13 5.76327E-14
 -1       979 2.00192E+01 1.74558E-03-2.10102E-06 2.12858E-02 2.83551E-14-1.00428E-14
 -1       980 2.00048E+01 2.65383E-02-5.30016E-06 2.30678E-02-6.02431E-14-2.96618E-14
 -1       981 1.99886E+01 5.45054E-02-9.02459E-06 2.74723E-02-1.06891E-13-4.08322E-14
 -1       982 1.99691E+01 8.64554E-02-1.33330E-05 3.50402E-02 1.94205E-14-1.20139E-13
 -1       983 1.99445E+01 1.23106E-01-1.82676E-05 4.65186E-02 3.72794E-14-3.27964E-13
 -1       984 1.99130E+01 1.64897E-01-2.38254E-05 6.29353E-02 3.13792E-14-1.30706E-13
 -1       985 1.98727E+01 2.11726E-01-2.99229E-05 8.56962E-02-1.11194E-13-1.89644E-13
 -1       986 1.98218E+01 2.62602E-01-3.63501E-05 1.16714E-01-2.10260E-13-2.73726E-13
 -1       987 1.97591E+01 3.15166E-01-4.27061E-05 1.58576E-01-1.96917E-13-2.31823E-13
 -1       988 1.96840E+01 3.65067E-01-4.83198E-05 2.14747E-01-1.30496E-14-2.81413E-13
 -1       989 1.95975E+01 4.05169E-01-5.22304E-05 2.89801E-01 1.14619E-14-2.11450E-13
 -1       990 1.95032E+01 4.24584E-01-5.36143E-05 3.89640E-01-6.62317E-15-3.44143E-14
 -1       991 1.94086E+01 4.07547E-01-5.39241E-05 5.21599E-01-1.95718E-13 1.08977E-13
 -1       992 1.93276E+01 3.32176E-01-6.18779E-05 6.94230E-01-2.02178E-13 1.22286E-13
 -1       993 1.92830E+01 1.69321E-01-9.15710E-05 9.16316E-01-9.34533E-15-1.78269E-13
 -1       994 1.93115E+01-1.18240E-01-1.10341E-04 1.19480E+00-4.33179E-14-4.06801E-13
 -1       995 1.94714E+01-5.76417E-01 1.45685E-04 1.52879E+00 1.00045E-13-4.81911E-13
 -1       996 1.98480E+01-1.25737E+00-6.11970E-04 1.90475E+00-1.61266E-14-3.98136E-13
 -1       997 2.05929E+01-2.20328E+00 4.66691E-03 2.25831E+00-9.23384E-14-2.83750E-13
 -1       998 2.03569E+01 4.07322E-01-7.73366E-05 2.12198E-02 1.10959E-13-2.94017E-13
 -1       999 2.02946E+01-3.26580E-02-4.56219E-07-8.36569E-02-7.63787E-17-2.48979E-13
 -1      1000 2.04070E+01 5.87604E-01 3.25630E-06-3.86565E-02-4.27674E-14-3.30407E-13
 -1      1001 2.02073E+01-9.93757E-02 1.47413E-05-7.96366E-02 8.40217E-15-1.78960E-13
 -1      1002 2.00836E+01-7.81120E-02 1.19692E-05-4.41604E-02-4.08202E-14-2.24644E-13
 -1      1003 2.01071E+01-9.20140E-02 8.93743E-07-5.27325E-02 1.59866E-14-1.05739E-13
 -1      1004 2.00480E+01-4.38437E-02 6.77580E-06-3.15494E-02-2.17715E-14-3.02941E-13
 -1      1005 2.00342E+01-2.43951E-02 4.01042E-06-2.82282E-02-6.65674E-15-3.43566E-13
 -1      1006 2.00216E+01-3.16422E-03 1.01772E-06-2.72356E-02 2.41451E-14-3.51082E-13
 -1      1007 2.00090E+01 2.04975E-02-2.24080E-06-2.88199E-02 3.77809E-14-3.00409E-13
 -1      1008 1.99949E+01 4.75200E-02-5.84920E-06-3.32469E-02-6.09801E-14-3.15461E-13
 -1      1009 1.99776E+01 7.90588E-02-9.92902E-06-4.07918E-02-1.19038E-13-2.21814E-13
 -1      1010 1.99550E+01 1.16446E-01-1.46265E-05-5.17029E-02-2.01462E-13-2.44383E-13
 -1      1011 1.99248E+01 1.61139E-01-2.01032E-05-6.61244E-02-1.11440E-13-2.71394E-13
 -1      1012 1.98837E+01 2.14650E-01-2.65260E-05-8.39656E-02-7.73144E-14-2.22879E-13
 -1      1013 1.98278E+01 2.78446E-01-3.40548E-05-1.04696E-01-9.80435E-14-3.01799E-13
 -1      1014 1.97520E+01 3.53789E-01-4.28283E-05-1.27045E-01-3.85922E-14-1.77980E-13
 -1      1015 1.96498E+01 4.41493E-01-5.29502E-05-1.48580E-01-1.15697E-13-1.22728E-13
 -1      1016 1.95132E+01 5.41525E-01-6.44732E-05-1.65147E-01-7.11869E-14-1.18890E-13
 -1      1017 1.93315E+01 6.52414E-01-7.72676E-05-1.70165E-01-1.21673E-13-1.61363E-13
 -1      1018 1.90914E+01 7.70344E-01-9.00635E-05-1.53821E-01-2.72670E-14-8.77538E-14
 -1      1019 1.87756E+01 8.87862E-01-9.62263E-05-1.02238E-01-2.77284E-14-1.45692E-13
 -1      1020 1.83617E+01 9.92003E-01-7.57722E-05 3.18625E-03-3.17501E-14-1.05710E-13
 -1      1021 1.78207E+01 1.06178E+00 2.61495E-04 1.87336E-01-2.86221E-14 6.85928E-14
 -1      1022 1.70990E+01 1.06902E+00 1.01184E-03 4.86728E-01-1.90158E-13 1.12884E-13
 -1      1023 2.00641E+01-6.18051E-02 9.44467E-06-3.69535E-02 4.44069E-14-3.14164E-13
 -1      1024 2.03649E+01 9.73242E-01-2.25409E-04-7.90732E-02-2.78258E-14-3.56365E-13
 -1      1025 2.03381E+01 4.51818E-02-1.89657E-05-7.33148E-02 8.77065E-14-2.56947E-13
 -1      1026 2.02499E+01-7.75325E-02 1.04977E-05-8.45774E-02 7.67150E-15-2.30116E-13
 -1      1027 1.58150E+01 6.57380E-01 4.14476E-03 1.60347E+00-8.56417E-15 2.32444E-13
 -1      1028 2.04098E+01 3.29853E-01 1.31230E-04 1.11360E-02-4.87703E-14-2.63772E-13
 -1      1029 2.03748E+01 1.69163E-01-1.56015E-05-4.91292E-02 1.09950E-13-2.53369E-13
 -1      1030 1.86889E+01-1.06594E+00 3.05369E-03 2.54054E+00 1.45336E-13-5.52054E-13
 -1      1031 2.03923E+01 6.24402E-01-7.19272E-05 6.40303E-02 8.93637E-14-3.38148E-13
 -1      1032 2.01353E+01-1.02035E-01-3.87055E-06-6.21950E-02 4.09649E-14-7.60091E-14
 -1      1033 1.64813E+01 9.32338E-01 2.37848E-03 9.64901E-01-1.13954E-13 2.15285E-13
 -1      1034 2.03511E+01 9.78945E-01 4.37816E-04 1.48168E-01 1.28064E-13-3.75657E-13
 -1      1035 2.01688E+01-1.05758E-01 1.16356E-05-7.16039E-02 4.57271E-14-1.85724E-13
 -1      1036 2.04139E+01 6.68659E-01 4.59927E-04-1.87055E-02-1.77417E-14-3.35462E-13
 -1      1037 2.04179E+01 6.64669E-01 5.02493E-05 1.84186E-02 3.34497E-14-3.22174E-13
 -1      1038 2.00165E+01 9.42509E-03-7.45180E-07-1.55716E-02-6.24254E-14-2.00198E-13
 -1      1039 2.01107E+01-9.15814E-02-1.05085E-05-2.65653E-02 2.73502E-14-1.42883E-13
 -1      1040 2.03534E+01-5.87236E-03 8.57308E-05 2.45225E-02 2.58169E-14-1.37445E-13
 -1      1041 2.03060E+01-6.69311E-02 7.22935E-05 2.58483E-02 2.85503E-14-1.61794E-13
 -1      1042 2.02584E+01-9.93669E-02 6.43809E-05 2.50767E-02 2.40526E-14-1.20461E-13
 -1      1043 2.02125E+01-1.11765E-01-5.05001E-05 2.30966E-02 4.69264E-15-1.89349E-13
 -1      1044 2.01724E+01-1.11651E-01 2.10572E-05 2.03016E-02 6.58069E-15-1.79398E-13
 -1      1045 2.01381E+01-1.03441E-01-3.39203E-05 1.69672E-02-8.55215E-14-6.69608E-14
 -1      1046 2.01090E+01-8.96663E-02 3.66302E-06 1.42010E-02-3.28248E-14-2.63685E-14
 -1      1047 2.00842E+01-7.25721E-02 1.18942E-05 1.19102E-02 8.27629E-14-2.79973E-14
 -1      1048 2.00633E+01-5.34406E-02 9.38825E-06 1.00449E-02 1.35891E-13 4.10550E-14
 -1      1049 2.00453E+01-3.26056E-02 7.14929E-06 8.77987E-03 7.81437E-14-2.43038E-14
 -1      1050 2.00290E+01-9.95016E-03 5.95295E-06 8.24412E-03-1.62590E-14-1.20767E-13
 -1      1051 2.00129E+01 1.50199E-02 5.82407E-06 8.58628E-03-2.95869E-14-1.98200E-13
 -1      1052 1.99955E+01 4.30654E-02 6.78467E-06 1.00160E-02-7.61439E-14-2.11543E-13
 -1      1053 1.99751E+01 7.51064E-02 8.96134E-06 1.28494E-02-4.33328E-14-1.80878E-13
 -1      1054 1.99498E+01 1.12104E-01 1.26318E-05 1.75684E-02-1.06410E-13-1.79749E-13
 -1      1055 1.99174E+01 1.54916E-01 1.82889E-05 2.49062E-02-2.72954E-14-2.87001E-13
 -1      1056 1.98753E+01 2.04104E-01 2.67420E-05 3.59677E-02-1.16515E-13-4.75546E-13
 -1      1057 1.98212E+01 2.59668E-01 3.92729E-05 5.24015E-02-1.35117E-13-4.07689E-13
 -1      1058 1.97522E+01 3.20680E-01 5.78695E-05 7.66369E-02-1.42571E-13-3.63498E-13
 -1      1059 1.96659E+01 3.84797E-01 8.55518E-05 1.12202E-01-1.71741E-13-2.99187E-13
 -1      1060 1.95602E+01 4.47594E-01 1.26729E-04 1.64130E-01 2.52444E-14-3.28477E-13
 -1      1061 1.94341E+01 5.01723E-01 1.87154E-04 2.39458E-01 9.41048E-14-3.72064E-13
 -1      1062 1.92889E+01 5.35819E-01 2.71627E-04 3.47786E-01 2.38369E-14-2.73911E-13
 -1      1063 1.91288E+01 5.33147E-01 3.72930E-04 5.01830E-01-1.20740E-13-1.73231E-13
 -1      1064 1.89637E+01 4.69828E-01 4.34590E-04 7.17864E-01-2.52099E-13-2.20673E-14
 -1      1065 1.88138E+01 3.12513E-01 4.82357E-04 1.01545E+00-1.78331E-13-1.36608E-13
 -1      1066 1.87094E+01 1.74679E-02 9.89874E-04 1.41533E+00-2.24581E-13-1.46564E-13
 -1      1067 1.86291E+01-4.10026E-01 1.37820E-05 1.90823E+00 4.82448E-15-6.01586E-13
 -1      1068 2.03076E+01-5.75946E-02-1.34169E-05-4.48463E-02 2.44170E-14-2.05938E-13
 -1      1069 2.03983E+01 3.53021E-01-2.53288E-04-4.42350E-03 9.94611E-14-3.12455E-13
 -1      1070 2.00317E+01-1.47110E-02-2.24277E-06-1.54432E-02-3.67288E-14-2.62907E-13
 -1      1071 2.00476E+01-3.66188E-02-4.01620E-06-1.65986E-02 2.92712E-15-2.65919E-13
 -1      1072 2.00002E+01 3.65819E-02 1.44241E-07-1.70729E-02-4.83813E-15-1.98797E-13
 -1      1073 1.99813E+01 6.77898E-02 1.32933E-07-1.99963E-02-5.77045E-14-2.18013E-13
 -1      1074 1.99577E+01 1.04239E-01-1.16147E-06-2.43110E-02-4.78490E-14-2.95262E-13
 -1      1075 1.99270E+01 1.47195E-01-4.29615E-06-2.98309E-02-2.01490E-13-3.16612E-13
 -1      1076 1.98863E+01 1.97889E-01-1.00942E-05-3.60904E-02-1.33912E-13-2.35912E-13
 -1      1077 1.98322E+01 2.57370E-01-1.97660E-05-4.21555E-02-2.62799E-14-2.30867E-13
 -1      1078 1.97606E+01 3.26293E-01-3.50807E-05-4.63461E-02-8.61215E-14-2.45984E-13
 -1      1079 1.96666E+01 4.04610E-01-5.86165E-05-4.58469E-02-6.25964E-14-1.19927E-13
 -1      1080 1.95444E+01 4.91133E-01-9.41317E-05-3.61835E-02-1.32690E-13-6.75035E-14
 -1      1081 1.93872E+01 5.82913E-01-1.47102E-04-1.05433E-02-2.43233E-14-1.20607E-13
 -1      1082 1.91874E+01 6.74381E-01-2.25254E-04 4.10623E-02 3.92526E-14-2.83149E-13
 -1      1083 1.89359E+01 7.56184E-01-3.37256E-04 1.32793E-01-4.35471E-14-3.55781E-13
 -1      1084 1.86227E+01 8.13675E-01-4.78432E-04 2.84125E-01-7.98832E-14-2.11203E-13
 -1      1085 1.82360E+01 8.25261E-01-5.57346E-04 5.21120E-01-9.95985E-14-1.79528E-13
 -1      1086 1.77608E+01 7.56251E-01-6.72897E-04 8.76972E-01-1.77991E-13 7.73684E-15
 -1      1087 1.72415E+01 1.45731E-01-2.54535E-03 1.93085E+00-1.76671E-14 3.43090E-14
 -1      1088 2.00653E+01-5.67698E-02-5.35764E-06-1.89214E-02 8.82922E-14-1.89930E-13
 -1      1089 2.03953E+01 9.54559E-02-1.41954E-06 1.98464E-02-3.98499E-14-1.78738E-13
 -1      1090 2.00861E+01-7.52148E-02-3.50110E-06-2.22557E-02 4.29806E-14-1.37648E-13
 -1      1091 2.03540E+01 8.99519E-03-9.07518E-06-4.12068E-02 1.22588E-14-2.10999E-13
 -1      1092 2.02604E+01-9.41566E-02-2.60224E-05-4.42688E-02 3.77561E-15-2.01112E-13
 -1      1093 2.04313E+01 3.82253E-01-3.75124E-04 1.33560E-04 2.61560E-14-2.70253E-13
 -1      1094 2.01390E+01-1.03715E-01-7.78677E-05-3.13525E-02 5.73625E-14-2.06024E-13
 -1      1095 2.03941E+01 1.18373E-01 3.77881E-05-3.14236E-02 7.33766E-14-2.72277E-13
 -1      1096 1.74590E+01 5.40118E-01-1.19951E-03 1.33258E+00-1.19004E-13 1.61974E-14
 -1      1097 2.04201E+01 2.18475E-01-5.36799E-05 1.24894E-02-2.25509E-15-2.51668E-13
 -1      1098 2.02157E+01-1.10048E-01-9.63262E-05-4.08427E-02-1.00285E-14-2.24099E-13
 -1      1099 2.01563E+01-1.08885E-01 9.44141E-05-1.12935E-02 2.23051E-14-2.39599E-13
 -1      1100 2.04212E+01 2.83356E-01 1.99824E-04-1.19712E-02 5.49424E-14-3.06275E-13
 -1      1101 2.01740E+01-1.10937E-01-1.28922E-05-3.59198E-02 1.56121E-15-2.03593E-13
 -1      1102 2.01945E+01-1.13714E-01 1.19236E-04-1.35822E-02-1.10193E-15-1.85511E-13
 -1      1103 2.79641E+01 9.08686E+00 2.32529E+00-6.69792E+00-5.49005E-14 1.91122E-12
 -1      1104 2.05489E+01 6.22762E+00 2.09826E-01-3.90334E+00-3.06144E-14 2.96929E-13
 -1      1105 1.94357E+01 5.85336E+00 7.54282E-02-2.88712E+00-2.18575E-14-4.09965E-13
 -1      1106 1.90264E+01 5.72603E+00 6.03272E-02-2.23407E+00-1.59421E-14-7.49979E-13
 -1      1107 1.88394E+01 5.66909E+00 5.75101E-02-1.70067E+00-1.06009E-14-9.12233E-13
 -1      1108 1.87455E+01 5.64031E+00 5.55470E-02-1.23349E+00-6.33521E-15-9.79330E-13
 -1      1109 1.86962E+01 5.62498E+00 5.37616E-02-8.03828E-01-4.16464E-15-1.00547E-12
 -1      1110 1.86718E+01 5.61730E+00 5.24821E-02-3.92565E-01-2.02117E-15-9.99091E-13
 -1      1111 1.86649E+01 5.61509E+00 5.20774E-02 8.48242E-03 1.64484E-15-1.00245E-12
 -1      1112 1.86729E+01 5.61765E+00 5.25944E-02 4.09943E-01 3.73378E-15-9.92905E-13
 -1      1113 1.86983E+01 5.62568E+00 5.39924E-02 8.22547E-01 4.51765E-15-9.82182E-13
 -1      1114 1.87493E+01 5.64165E+00 5.62043E-02 1.25477E+00 7.29104E-15-9.36751E-13
 -1      1115 1.88450E+01 5.67106E+00 5.84837E-02 1.72638E+00 1.15446E-14-8.46538E-13
 -1      1116 1.90324E+01 5.72795E+00 6.06944E-02 2.26743E+00 1.68476E-14-6.66732E-13
 -1      1117 1.94324E+01 5.85058E+00 6.94887E-02 2.92791E+00 2.32869E-14-3.21524E-13
 -1      1118 2.04544E+01 6.18224E+00 1.53028E-01 3.87791E+00 2.94487E-14 3.90063E-13
 -1      1119 2.52186E+01 7.99471E+00 1.43030E+00 5.84600E+00 6.56142E-14 1.93340E-12
 -1      1120 2.88137E+01 3.61619E+00 1.27107E+00-4.21687E+00-2.26957E-13 2.93349E-12
 -1      1121 2.02298E+01-1.77745E-01-6.16326E-01-1.09825E-01-7.76462E-14 2.41376E-12
 -1      1122 1.88365E+01-9.63648E-02-2.36350E-01 6.25325E-02-3.35305E-14 1.65692E-12
 -1      1123 1.85033E+01-4.81006E-02-5.96365E-02 4.05267E-02-2.60725E-14 1.10841E-12
 -1      1124 1.84491E+01-2.46219E-02-1.52205E-02 2.68266E-02-1.36527E-14 7.47274E-13
 -1      1125 1.85320E+01-1.30660E-02-4.98936E-03 1.90997E-02-1.34712E-14 5.02390E-13
 -1      1126 1.86800E+01-6.62076E-03-1.49162E-03 1.41600E-02 7.01587E-16 3.45205E-13
 -1      1127 1.88538E+01-2.84675E-03 5.47650E-04 1.07412E-02-5.68772E-15 2.69852E-13
 -1      1128 1.90309E+01-6.05807E-04 1.87281E-03 8.21640E-03-1.17857E-14 1.42042E-13
 -1      1129 1.91982E+01 6.99922E-04 2.62931E-03 6.27596E-03-9.71866E-15-8.04044E-14
 -1      1130 1.93491E+01 1.41274E-03 2.95307E-03 4.75530E-03-1.27102E-14-2.78374E-13
 -1      1131 1.94803E+01 1.74380E-03 2.97930E-03 3.55595E-03 1.60667E-14-2.70845E-13
 -1      1132 1.95913E+01 1.83039E-03 2.81752E-03 2.61106E-03-1.09619E-14-3.20259E-13
 -1      1133 1.96829E+01 1.76449E-03 2.54742E-03 1.87050E-03 6.00076E-15-4.08268E-13
 -1      1134 1.97567E+01 1.60797E-03 2.22359E-03 1.29423E-03-9.31514E-15-3.37656E-13
 -1      1135 1.98150E+01 1.40168E-03 1.88127E-03 8.49284E-04-1.61454E-14-4.67646E-13
 -1      1136 1.98600E+01 1.17120E-03 1.54105E-03 5.08343E-04 1.07073E-14-5.02713E-13
 -1      1137 1.98941E+01 9.30769E-04 1.21236E-03 2.49048E-04 1.08861E-14-5.74383E-13
 -1      1138 1.99197E+01 6.86231E-04 8.96191E-04 5.37159E-05-1.04578E-14-6.60067E-13
 -1      1139 1.99389E+01 4.37162E-04 5.87094E-04-9.07719E-05 4.31021E-15-8.23254E-13
 -1      1140 1.99540E+01 1.78621E-04 2.74872E-04-1.92938E-04-1.51688E-14-8.31773E-13
 -1      1141 1.99672E+01-9.73980E-05-5.40975E-05-2.56539E-04 1.60239E-15-5.86359E-13
 -1      1142 1.99809E+01-4.00538E-04-4.15519E-04-2.80238E-04 4.77647E-15-4.35422E-13
 -1      1143 1.99976E+01-7.40426E-04-8.25557E-04-2.57130E-04-7.30298E-15-4.83480E-13
 -1      1144 2.00203E+01-1.12447E-03-1.29851E-03-1.74183E-04 1.19449E-15-2.79638E-13
 -1      1145 2.00523E+01-1.55473E-03-1.84321E-03-1.17776E-05-4.80914E-15-1.13674E-13
 -1      1146 2.00976E+01-2.02343E-03-2.45755E-03 2.56374E-04-8.60046E-15-2.80963E-13
 -1      1147 2.01603E+01-2.50661E-03-3.12015E-03 6.62327E-04 9.55323E-15-5.20639E-13
 -1      1148 2.02452E+01-2.95545E-03-3.77833E-03 1.24110E-03 3.80710E-14-5.33989E-13
 -1      1149 2.03568E+01-3.28526E-03-4.33160E-03 2.02447E-03 1.33541E-14-1.09082E-13
 -1      1150 2.04987E+01-3.36262E-03-4.61054E-03 3.02918E-03-1.86029E-14-7.92057E-14
 -1      1151 2.06727E+01-2.99296E-03-4.35321E-03 4.23657E-03-2.07818E-14-3.73031E-13
 -1      1152 2.08766E+01-1.91403E-03-3.18541E-03 5.56031E-03-4.21156E-15-7.78739E-13
 -1      1153 2.11018E+01 1.94551E-04-6.19810E-04 6.79990E-03 4.07792E-14-8.65133E-13
 -1      1154 2.13299E+01 3.66721E-03 3.89704E-03 7.58188E-03-1.55313E-14-6.24347E-13
 -1      1155 2.15291E+01 8.74744E-03 1.08426E-02 7.30251E-03 1.44959E-14-5.92568E-13
 -1      1156 2.16510E+01 1.53917E-02 2.03206E-02 5.10864E-03-2.42664E-14-5.10758E-13
 -1      1157 2.16300E+01 2.29675E-02 3.15691E-02-1.12080E-05-1.44487E-14-4.20955E-13
 -1      1158 2.13888E+01 2.98959E-02 4.23396E-02-8.91948E-03-3.79614E-14-4.58708E-13
 -1      1159 2.08537E+01 3.34199E-02 4.84402E-02-2.17116E-02 2.60508E-14-3.27252E-13
 -1      1160 1.99834E+01 2.98548E-02 4.40622E-02-3.68314E-02-6.88252E-15-4.01540E-13
 -1      1161 1.88086E+01 1.57908E-02 2.36510E-02-5.02826E-02 1.89855E-14-6.85743E-13
 -1      1162 1.74701E+01-9.61106E-03-1.44402E-02-5.57390E-02-1.04864E-14-7.16670E-13
 -1      1163 1.62304E+01-4.19827E-02-6.38635E-02-4.64048E-02-1.73117E-14-1.87468E-13
 -1      1164 1.54301E+01-7.08861E-02-1.08731E-01-1.85965E-02 1.67566E-14-2.21821E-13
 -1      1165 1.53796E+01-8.24343E-02-1.26811E-01 2.44413E-02 1.53514E-14 2.79499E-14
 -1      1166 1.62090E+01-6.48099E-02-9.75329E-02 7.05727E-02 2.39392E-15 2.09097E-13
 -1      1167 1.77249E+01-1.51374E-02-1.51458E-02 9.65580E-02-6.65744E-15 2.52826E-13
 -1      1168 1.93189E+01 5.30771E-02 8.60740E-02 7.15859E-02 1.91665E-14 5.30090E-13
 -1      1169 2.00218E+01 2.31926E-03 1.29997E-02-1.23384E-02 4.89283E-14 7.99767E-13
 -1      1170 2.77935E+01 5.25661E-01 3.76720E-01 1.96658E+00-3.19120E-14 3.22492E-12
 -1      1171 2.00872E+01-6.65742E-02-5.73697E-01 1.29493E-01 2.52125E-14 2.44754E-12
 -1      1172 1.89110E+01-4.09028E-02-1.92871E-01 1.92942E-02 2.59411E-14 1.71137E-12
 -1      1173 1.85326E+01-2.12777E-02-4.99922E-02 1.40422E-03 1.37334E-14 1.25643E-12
 -1      1174 1.84619E+01-1.24717E-02-1.33480E-02-4.04218E-03 5.24732E-15 9.85659E-13
 -1      1175 1.85381E+01-7.42328E-03-4.83647E-03-5.53732E-03 1.49540E-14 7.12895E-13
 -1      1176 1.86832E+01-4.35340E-03-2.02140E-03-5.75393E-03 7.04780E-15 5.33231E-13
 -1      1177 1.88554E+01-2.37828E-03-3.96293E-04-5.47509E-03 1.23515E-15 4.66231E-13
 -1      1178 1.90315E+01-1.09867E-03 7.32530E-04-4.98817E-03 5.36359E-15 3.44225E-13
 -1      1179 1.91983E+01-2.81856E-04 1.45271E-03-4.40585E-03 1.02564E-14 3.03358E-13
 -1      1180 1.93489E+01 2.20424E-04 1.83624E-03-3.79324E-03 4.03634E-15 2.17216E-13
 -1      1181 1.94800E+01 5.07912E-04 1.97263E-03-3.19281E-03 3.53663E-15-8.86877E-15
 -1      1182 1.95909E+01 6.49807E-04 1.94330E-03-2.63097E-03 7.20208E-16-1.61066E-13
 -1      1183 1.96824E+01 6.94628E-04 1.81130E-03-2.12225E-03 9.66259E-15-2.26484E-13
 -1      1184 1.97562E+01 6.76141E-04 1.62163E-03-1.67241E-03 2.20428E-14-3.78949E-13
 -1      1185 1.98145E+01 6.17209E-04 1.40440E-03-1.28101E-03-8.25993E-15-4.35611E-13
 -1      1186 1.98594E+01 5.32385E-04 1.17807E-03-9.43274E-04-2.29931E-14-4.44458E-13
 -1      1187 1.98933E+01 4.29709E-04 9.51929E-04-6.51559E-04 1.65560E-14-5.96298E-13
 -1      1188 1.99186E+01 3.11953E-04 7.27932E-04-3.96436E-04 1.97527E-14-6.52387E-13
 -1      1189 1.99374E+01 1.77456E-04 5.02019E-04-1.67452E-04-1.82264E-14-6.22282E-13
 -1      1190 1.99517E+01 2.05830E-05 2.64904E-04 4.63680E-05-2.06671E-14-4.41773E-13
 -1      1191 1.99639E+01-1.68197E-04 2.34863E-06 2.56250E-04-1.93552E-14-3.48201E-13
 -1      1192 1.99762E+01-4.02632E-04-3.05142E-04 4.73608E-04-1.85625E-15-3.99844E-13
 -1      1193 1.99912E+01-7.01466E-04-6.83307E-04 7.10123E-04 2.73999E-14-8.70776E-13
 -1      1194 2.00120E+01-1.08980E-03-1.16596E-03 9.77943E-04 3.53995E-15-7.47295E-13
 -1      1195 2.00424E+01-1.60119E-03-1.79801E-03 1.28993E-03-3.60965E-15-2.57000E-13
 -1      1196 2.00870E+01-2.28079E-03-2.64008E-03 1.65982E-03-3.74581E-15-9.67214E-14
 -1      1197 2.01523E+01-3.18955E-03-3.77545E-03 2.10197E-03 1.87725E-14-4.26625E-13
 -1      1198 2.02463E+01-4.40969E-03-5.31997E-03 2.62992E-03-2.34079E-15-5.68306E-13
 -1      1199 2.03799E+01-6.05045E-03-7.43549E-03 3.25226E-03-5.94674E-15-6.27571E-13
 -1      1200 2.05676E+01-8.25165E-03-1.03460E-02 3.96226E-03 1.40838E-16-3.96826E-13
 -1      1201 2.08287E+01-1.11777E-02-1.43515E-02 4.71472E-03 3.50076E-14-4.65114E-13
 -1      1202 2.11892E+01-1.49853E-02-1.98238E-02 5.37686E-03 1.20151E-15-3.96239E-13
 -1      1203 2.16834E+01-1.97260E-02-2.71402E-02 5.62987E-03 2.87643E-14-7.68108E-13
 -1      1204 2.23556E+01-2.51085E-02-3.64426E-02 4.78328E-03-2.44184E-14-7.20701E-13
 -1      1205 2.32598E+01-2.99816E-02-4.69710E-02 1.45716E-03-2.74776E-14-5.30742E-13
 -1      1206 2.44536E+01-3.13424E-02-5.54945E-02-6.86375E-03 2.05231E-14-6.36602E-13
 -1      1207 2.59782E+01-2.28254E-02-5.32266E-02-2.41463E-02 2.17248E-14-6.31536E-13
 -1      1208 2.78074E+01 6.57565E-03-2.13983E-02-5.49849E-02-4.01516E-14-3.92145E-13
 -1      1209 2.97423E+01 7.11718E-02 7.01997E-02-9.98166E-02 3.40830E-14-1.81355E-13
 -1      1210 3.12320E+01 1.73026E-01 2.45022E-01-1.42107E-01-4.95437E-15-3.08781E-15
 -1      1211 3.11987E+01 2.73312E-01 4.64445E-01-1.31579E-01 3.00246E-14 3.59060E-13
 -1      1212 2.81779E+01 2.63814E-01 5.51722E-01 5.80758E-03 8.91648E-15 5.81035E-13
 -1      1213 2.13274E+01 5.20877E-02 2.60671E-01 2.76807E-01 2.83992E-14 6.12732E-13
 -1      1214 1.22491E+01-2.46053E-01-3.86161E-01 4.97382E-01 4.53214E-14 8.73190E-13
 -1      1215 5.33131E+00-3.50215E-01-8.98696E-01 4.19095E-01-7.64666E-15 8.24341E-13
 -1      1216 4.35490E+00-2.13593E-01-8.33103E-01 7.16853E-02 1.16941E-13 2.15716E-13
 -1      1217 8.81832E+00-3.55580E-02-3.35986E-01-2.63609E-01 8.23092E-14-4.28602E-13
 -1      1218 1.51037E+01 1.98731E-01 2.88616E-01-4.79806E-01-6.34432E-14-2.47524E-13
 -1      1219 1.94348E+01 2.07711E-01 6.76656E-01-1.93280E-01 1.75224E-14 3.48582E-13
 -1      1220 2.01534E+01-6.10727E-01 4.94616E-01-2.43180E-01 3.80779E-13 8.10896E-14
 -1      1221 1.98247E+01-4.82965E+00-3.68255E-01-5.40609E-01 3.78975E-13-8.80442E-14
 -1      1222 1.93139E+01-7.07243E+00-1.42051E+00-4.69314E-02-4.82628E-13-1.22430E-13
 -1      1223 1.91718E+01 7.45864E-01-1.33653E+00 1.12332E+00-3.06644E-13-6.34458E-14
 -1      1224 1.97125E+01 1.88901E+01 6.78118E-01 1.86315E+00-2.43983E-12-3.85122E-13
 -1      1225 2.09582E+01 3.71846E+01 3.49758E+00 1.19335E+00-3.29647E-12-4.04121E-14
 -1      1226 2.12212E+01 4.23031E+01 4.43385E+00-3.29396E-01-2.88858E-12-4.90857E-14
 -1      1227 2.07697E+01 3.01813E+01 2.67624E+00-1.44331E+00-8.23785E-13 1.06526E-13
 -1      1228 1.98130E+01 1.04072E+01 1.10988E-01-1.38356E+00 1.66755E-12 1.81240E-13
 -1      1229 1.93508E+01-6.49838E+00-1.37033E+00-7.08519E-01 2.05513E-12-6.43929E-14
 -1      1230 1.95768E+01-1.52877E+01-1.30103E+00-1.81721E-01 1.74150E-12-6.65266E-14
 -1      1231 1.98294E+01-1.61842E+01-6.14260E-01 1.47714E-01 6.91780E-13-6.22766E-15
 -1      1232 1.99638E+01-1.29532E+01-1.20330E-01 1.99749E-01-1.84519E-13-1.11368E-13
 -1      1233 2.00160E+01-8.96563E+00 6.90368E-02 1.63033E-01 1.00808E-13 8.24640E-14
 -1      1234 2.00309E+01-5.44652E+00 1.08370E-01 1.19773E-01 4.29684E-13-3.24964E-14
 -1      1235 2.00560E+01-2.62659E+00 1.33222E-01 1.17103E-01-3.62488E-14 1.24067E-14
 -1      1236 2.01027E+01-7.47973E-01 1.48868E-01 7.02212E-02-5.42455E-13-5.33046E-14
 -1      1237 1.99802E+01-2.74064E-03 1.43409E-02 1.15954E-02-8.77424E-13 4.76594E-14
 -1      1238-2.78683E+00-4.31333E+01-8.87881E+00-3.97475E+00 3.21199E-12 3.64681E-13
 -1      1239-2.56481E+00-2.36355E+01-6.02041E+00-5.26602E+00 1.86384E-12 5.76761E-13
 -1      1240 4.08062E+00 1.70336E+00-1.82342E+00 3.87120E+00 1.45661E-12 9.31033E-13
 -1      1241 2.22502E+01 1.70025E+01 1.56696E+00 1.86231E+01 7.33191E-13 2.92655E-13
 -1      1242 4.86521E+01 1.82272E+01 4.03202E+00 2.81914E+01-2.79110E-13-4.10338E-13
 -1      1243 7.39441E+01 1.11332E+01 5.49974E+00 2.51598E+01-1.42109E-14 2.70228E-13
 -1      1244 8.99508E+01 3.80490E+00 6.36739E+00 1.18487E+01 1.66742E-13 6.26027E-13
 -1      1245 8.56748E+01 2.71289E+00 5.73296E+00-5.90659E+00 4.18415E-14-2.83773E-13
 -1      1246 6.51522E+01 6.60240E+00 4.09706E+00-1.79131E+01 3.19300E-13-9.33476E-13
 -1      1247 3.66675E+01 1.01242E+01 1.68549E+00-1.81185E+01 1.13709E-12-1.57119E-12
 -1      1248 1.25080E+01 7.10723E+00-5.99091E-01-9.28862E+00 1.46638E-12-1.73239E-12
 -1      1249-4.41119E-01-4.19252E+00-2.45012E+00 1.43334E+00 7.32081E-13-8.06022E-13
 -1      1250-3.47481E+00-1.95741E+01-3.71706E+00 7.08766E+00 5.32463E-13-1.02474E-13
 -1      1251-2.19543E+00-3.07847E+01-4.26129E+00 5.20888E+00 1.66200E-13-8.38704E-14
 -1      1252-1.15261E+00-3.29060E+01-4.26025E+00-6.79235E-01-6.70020E-14-8.02761E-14
 -1      1253-1.91462E+00-2.38331E+01-3.55364E+00-5.17726E+00-2.95319E-13-1.05638E-13
 -1      1254-1.28079E+00-8.42072E+00-2.34729E+00-2.89347E+00-2.19824E-13-1.09690E-13
 -1      1255 6.22014E+00 5.28087E+00-8.17370E-01 5.87251E+00 6.83897E-14 1.22569E-13
 -1      1256 2.30860E+01 1.16022E+01 8.90763E-01 1.57969E+01 2.00950E-13 1.42775E-13
 -1      1257 4.68287E+01 9.82801E+00 2.48921E+00 1.97160E+01-1.25899E-13-5.59774E-13
 -1      1258 6.91860E+01 4.40527E+00 3.74144E+00 1.39344E+01-3.17996E-13-1.12599E-12
 -1      1259 8.12242E+01 2.04090E+00 4.47723E+00-4.19551E-01-1.68747E-13 3.09641E-13
 -1      1260 7.96401E+01 5.57887E+00 4.80714E+00-1.66950E+01-8.03593E-14 2.39087E-13
 -1      1261 6.52057E+01 1.37907E+01 4.65755E+00-2.77214E+01-1.21902E-13 4.30322E-13
 -1      1262 4.27450E+01 2.15752E+01 3.91136E+00-2.88035E+01-2.26263E-13 2.66009E-13
 -1      1263 2.03030E+01 2.08483E+01 2.15757E+00-1.98079E+01-1.58185E-12 1.15286E-12
 -1      1264 4.66610E+00 5.22854E+00-1.14604E+00-5.55901E+00-2.33324E-12 1.34248E-12
 -1      1265-1.62538E+00-2.08322E+01-5.38692E+00 4.06678E+00-1.24878E-12 6.71463E-13
 -1      1266-2.10163E+00-4.22784E+01-8.74009E+00 2.78056E+00 2.20179E-12 1.19765E-13
 -1      1267 2.22683E+01 1.83828E+00-7.25841E-01-2.79028E+00-8.55149E-14 1.56403E-12
 -1      1268 2.03607E+01 4.69034E+00-4.86296E-02-3.30625E+00-2.39475E-13-3.66512E-14
 -1      1269 2.08683E+01 4.81081E+00-1.13309E-01-4.16057E+00-3.07032E-13 3.36800E-13
 -1      1270 1.95328E+01 4.99351E+00-1.96021E-02-2.65376E+00-2.42875E-13-5.59556E-13
 -1      1271 1.98310E+01 5.09046E+00 3.00341E-04-3.04484E+00-2.77604E-13-3.34503E-13
 -1      1272 2.05273E+01 3.95289E+00-2.58738E-02-3.07419E+00-4.27148E-13-3.65818E-14
 -1      1273 1.91843E+01 5.08429E+00-3.65303E-03-2.06949E+00-1.96620E-13-8.20628E-13
 -1      1274 1.93340E+01 5.13964E+00 1.06218E-02-2.36262E+00-2.26121E-13-7.04166E-13
 -1      1275 1.97550E+01 4.36619E+00-2.42606E-02-2.48874E+00-3.78801E-13-4.69534E-13
 -1      1276 1.90087E+01 5.13092E+00 3.27661E-03-1.56407E+00-1.53631E-13-9.45034E-13
 -1      1277 1.90864E+01 5.16089E+00 1.25713E-02-1.81397E+00-1.69620E-13-8.90770E-13
 -1      1278 1.93927E+01 4.55586E+00-1.95274E-02-1.93044E+00-3.01958E-13-6.86992E-13
 -1      1279 1.89149E+01 5.16059E+00 6.59323E-03-1.11643E+00-1.02806E-13-9.97428E-13
 -1      1280 1.89575E+01 5.17694E+00 1.27368E-02-1.33784E+00-1.21214E-13-9.70463E-13
 -1      1281 1.92054E+01 4.66152E+00-1.60481E-02-1.44426E+00-2.27753E-13-7.93133E-13
 -1      1282 1.88631E+01 5.18039E+00 8.18679E-03-6.93352E-01-6.75187E-14-1.00957E-12
 -1      1283 1.88862E+01 5.18930E+00 1.20310E-02-9.03453E-01-7.76696E-14-1.00729E-12
 -1      1284 1.91021E+01 4.72693E+00-1.39393E-02-1.00365E+00-1.50884E-13-8.38787E-13
 -1      1285 1.88389E+01 5.19229E+00 9.27349E-03-2.88954E-01-1.73710E-14-1.01070E-12
 -1      1286 1.88489E+01 5.19614E+00 1.10585E-02-4.90928E-01-3.44759E-14-1.00893E-12
 -1      1287 1.90459E+01 4.76593E+00-1.29075E-02-5.88392E-01-8.38500E-14-8.46073E-13
 -1      1288 1.88352E+01 5.19723E+00 1.02054E-02 1.08141E-01 1.83281E-14-1.01110E-12
 -1      1289 1.88348E+01 5.19710E+00 1.01327E-02-9.13776E-02 9.98051E-15-1.01298E-12
 -1      1290 1.90215E+01 4.78393E+00-1.24736E-02-1.88969E-01-5.70908E-15-8.53238E-13
 -1      1291 1.88506E+01 5.19577E+00 1.11481E-02 5.08285E-01 6.05991E-14-1.00296E-12
 -1      1292 1.88399E+01 5.19164E+00 9.20644E-03 3.05889E-01 4.25215E-14-1.00846E-12
 -1      1293 1.90224E+01 4.78328E+00-1.24934E-02 2.05634E-01 4.97355E-14-8.52176E-13
 -1      1294 1.88895E+01 5.18812E+00 1.20888E-02 9.22314E-01 9.55052E-14-9.81423E-13
 -1      1295 1.88655E+01 5.17905E+00 8.11581E-03 7.11251E-01 8.43004E-14-9.96444E-13
 -1      1296 1.90485E+01 4.76383E+00-1.29794E-02 6.05766E-01 1.19331E-13-8.41584E-13
 -1      1297 1.89617E+01 5.17519E+00 1.28921E-02 1.35537E+00 1.40278E-13-9.28401E-13
 -1      1298 1.89183E+01 5.15840E+00 6.43735E-03 1.13256E+00 1.24901E-13-9.60645E-13
 -1      1299 1.91063E+01 4.72339E+00-1.40028E-02 1.01889E+00 1.84629E-13-8.07378E-13
 -1      1300 1.90949E+01 5.15693E+00 1.29189E-02 1.83983E+00 1.94469E-13-8.22897E-13
 -1      1301 1.90151E+01 5.12646E+00 3.14655E-03 1.58711E+00 1.71729E-13-8.85129E-13
 -1      1302 1.92121E+01 4.65508E+00-1.61492E-02 1.46188E+00 2.59821E-13-7.41331E-13
 -1      1303 1.93450E+01 5.13341E+00 1.04563E-02 2.39682E+00 2.56226E-13-6.26953E-13
 -1      1304 1.91941E+01 5.07648E+00-4.16069E-03 2.09947E+00 2.24487E-13-7.47558E-13
 -1      1305 1.94054E+01 4.54266E+00-1.98888E-02 1.95715E+00 3.43519E-13-6.30447E-13
 -1      1306 1.98556E+01 5.09968E+00 6.04352E-03 3.08347E+00 2.99080E-13-2.42278E-13
 -1      1307 1.95444E+01 4.98473E+00-2.02560E-02 2.69623E+00 2.67349E-13-4.77177E-13
 -1      1308 1.97748E+01 4.34588E+00-2.47330E-02 2.52751E+00 4.25215E-13-3.93262E-13
 -1      1309 2.11042E+01 4.90670E+00 7.99795E-03 4.05324E+00 2.69756E-13 5.21416E-13
 -1      1310 2.03349E+01 4.73404E+00-4.80937E-02 3.41539E+00 2.62221E-13 5.25413E-14
 -1      1311 2.05639E+01 3.91592E+00-2.29295E-02 3.17805E+00 4.58005E-13 5.03764E-14
 -1      1312 2.72038E+01 3.20534E+00 9.28837E-01 4.58202E+00 1.44440E-13 2.05341E-12
 -1      1313 2.20213E+01 3.52226E+00-1.82123E-01 3.88457E+00 1.44412E-13 9.78467E-13
 -1      1314 2.21146E+01 2.56162E+00-3.25039E-02 3.45630E+00 4.51490E-13 7.46792E-13
 -1      1315 2.14282E+01 3.59560E-01-7.63650E-01 1.18353E+00 2.53714E-13 1.93817E-12
 -1      1316 2.20027E+01 1.31338E-01-4.00859E-01-1.28540E+00-2.46067E-13 1.64840E-12
 -1      1317 2.06803E+01 3.06681E-01-1.64800E-01-8.05505E-01-2.32390E-13 1.36766E-12
 -1      1318 2.00828E+01 1.53466E-01-7.35320E-02-4.01892E-01-1.93508E-13 1.23738E-12
 -1      1319 1.96133E+01 9.11889E-02-1.49309E-02-3.29751E-01-1.92232E-13 9.54816E-13
 -1      1320 2.09742E+01 3.69140E-01-1.04235E-01-1.27344E+00-4.11567E-13 7.01460E-13
 -1      1321 1.92562E+01 6.45450E-02 3.02028E-03-1.35089E-01-1.58528E-13 8.64919E-13
 -1      1322 1.91022E+01 4.13110E-02 1.32048E-02-1.17254E-01-1.40445E-13 6.51267E-13
 -1      1323 1.99238E+01 1.33915E-01-3.51677E-02-5.03521E-01-3.28758E-13 5.24174E-13
 -1      1324 1.89421E+01 3.15499E-02 1.32326E-02-2.76680E-02-1.02484E-13 5.48801E-13
 -1      1325 1.89231E+01 1.93933E-02 1.10594E-02-1.82842E-02-8.86465E-14 4.18974E-13
 -1      1326 1.94471E+01 5.55362E-02-8.51865E-03-1.69382E-01-2.46261E-13 3.48548E-13
 -1      1327 1.88674E+01 1.60227E-02 8.77273E-03 2.53805E-02-7.97893E-14 3.75958E-13
 -1      1328 1.89102E+01 9.08486E-03 6.43389E-03 3.00148E-02-6.66483E-14 2.69937E-13
 -1      1329 1.92388E+01 2.44114E-02-3.51233E-03-1.04704E-02-1.66581E-13 2.03258E-13
 -1      1330 1.89105E+01 7.87341E-03 4.66707E-03 5.12079E-02-4.50464E-14 2.42273E-13
 -1      1331 1.89814E+01 3.51804E-03 3.63953E-03 5.31084E-02-3.28299E-14 1.88067E-13
 -1      1332 1.91826E+01 1.02182E-02-2.22402E-03 6.82699E-02-1.07166E-13 1.19021E-13
 -1      1333 1.90112E+01 3.20691E-03 2.43786E-03 6.19403E-02-1.99499E-14 1.44421E-13
 -1      1334 1.90923E+01 3.42764E-04 2.20880E-03 6.22178E-02-2.62199E-14 1.00094E-13
 -1      1335 1.92094E+01 2.80970E-03-1.32663E-03 1.05182E-01-7.17033E-14 6.20502E-14
 -1      1336 1.91362E+01 4.58278E-04 1.32673E-03 6.39299E-02-4.42643E-14 8.91223E-14
 -1      1337 1.92176E+01-1.45928E-03 1.43618E-03 6.32541E-02-7.09792E-14-6.22809E-15
 -1      1338 1.92792E+01-1.27479E-03-5.60054E-04 1.18528E-01-8.25793E-14-2.52402E-16
 -1      1339 1.92666E+01-1.13397E-03 7.40144E-04 6.08797E-02-6.30600E-14-1.89918E-14
 -1      1340 1.93428E+01-2.41360E-03 9.66008E-04 5.96811E-02-6.11082E-14-1.16499E-13
 -1      1341 1.93681E+01-3.48828E-03 1.57044E-06 1.18239E-01-1.21389E-13-5.12864E-14
 -1      1342 1.93912E+01-1.99388E-03 4.01580E-04 5.50947E-02-6.13013E-14-1.22281E-13
 -1      1343 1.94594E+01-2.82923E-03 6.52452E-04 5.36550E-02-4.52133E-14-1.92281E-13
 -1      1344 1.94620E+01-4.56364E-03 3.57732E-04 1.10243E-01-9.63132E-14-5.70190E-14
 -1      1345 1.95044E+01-2.38164E-03 1.94926E-04 4.80494E-02-2.48020E-14-2.31009E-13
 -1      1346 1.95633E+01-2.90347E-03 4.34355E-04 4.65510E-02-8.43238E-15-2.39504E-13
 -1      1347 1.95524E+01-4.92596E-03 5.53133E-04 9.82558E-02-6.43063E-14-1.40488E-13
 -1      1348 1.96032E+01-2.46713E-03 6.76865E-05 4.06853E-02-2.13278E-14-2.41562E-13
 -1      1349 1.96527E+01-2.76783E-03 2.81268E-04 3.92424E-02-2.95927E-14-2.85372E-13
 -1      1350 1.96348E+01-4.84505E-03 6.36263E-04 8.46519E-02-3.11451E-14-2.56256E-13
 -1      1351 1.96869E+01-2.36480E-03-8.04434E-06 3.35876E-02-6.52118E-15-2.66669E-13
 -1      1352 1.97275E+01-2.51097E-03 1.74893E-04 3.22675E-02 6.61203E-15-2.82226E-13
 -1      1353 1.97069E+01-4.49996E-03 6.45689E-04 7.09314E-02-1.53236E-14-2.33416E-13
 -1      1354 1.97561E+01-2.15217E-03-4.92957E-05 2.71009E-02-1.41973E-14-2.69886E-13
 -1      1355 1.97887E+01-2.19186E-03 1.02904E-04 2.59392E-02-4.43628E-14-2.81931E-13
 -1      1356 1.97681E+01-4.01062E-03 6.09133E-04 5.80104E-02-2.72928E-14-1.73351E-13
 -1      1357 1.98120E+01-1.88074E-03-6.72625E-05 2.14094E-02-5.81616E-14-3.04890E-13
 -1      1358 1.98376E+01-1.84807E-03 5.65722E-05 2.04208E-02-3.69728E-14-3.60948E-13
 -1      1359 1.98187E+01-3.45575E-03 5.45618E-04 4.64129E-02-6.67161E-14-2.20975E-13
 -1      1360 1.98563E+01-1.58295E-03-6.95416E-05 1.65944E-02-4.18132E-14-3.77583E-13
 -1      1361 1.98760E+01-1.50133E-03 2.95985E-05 1.57813E-02-4.26442E-14-4.50688E-13
 -1      1362 1.98597E+01-2.88401E-03 4.67615E-04 3.64068E-02-7.46433E-14-2.82282E-13
 -1      1363 1.98907E+01-1.27700E-03-6.13570E-05 1.26778E-02-1.62972E-14-4.54024E-13
 -1      1364 1.99057E+01-1.16157E-03 1.74121E-05 1.20368E-02-2.70544E-14-5.40119E-13
 -1      1365 1.98924E+01-2.32167E-03 3.82693E-04 2.81022E-02-5.99300E-14-3.53728E-13
 -1      1366 1.99173E+01-9.70328E-04-4.63331E-05 9.65439E-03-3.39633E-14-5.56335E-13
 -1      1367 1.99286E+01-8.29897E-04 1.67065E-05 9.18065E-03-3.90073E-14-5.88430E-13
 -1      1368 1.99182E+01-1.77815E-03 2.94729E-04 2.15252E-02-7.37788E-14-4.97151E-13
 -1      1369 1.99379E+01-6.62266E-04-2.70287E-05 7.51559E-03-1.78460E-14-6.24860E-13
 -1      1370 1.99467E+01-5.00968E-04 2.50964E-05 7.20668E-03-2.84308E-14-6.96330E-13
 -1      1371 1.99387E+01-1.25013E-03 2.04838E-04 1.66727E-02-7.42258E-14-5.02467E-13
 -1      1372 1.99545E+01-3.46066E-04-5.34756E-06 6.26774E-03 3.43063E-14-6.97346E-13
 -1      1373 1.99619E+01-1.64798E-04 4.08220E-05 6.12625E-03 1.24037E-14-6.55459E-13
 -1      1374 1.99556E+01-7.24840E-04 1.12098E-04 1.35533E-02-6.95907E-15-5.17860E-13
 -1      1375 1.99692E+01-1.05906E-05 1.71085E-05 5.94487E-03 4.59605E-14-5.60471E-13
 -1      1376 1.99762E+01 1.91609E-04 6.24558E-05 5.98032E-03 7.84642E-14-4.12373E-13
 -1      1377 1.99705E+01-1.82584E-04 1.41237E-05 1.22172E-02 7.51815E-14-4.66318E-13
 -1      1378 1.99839E+01 3.58140E-04 3.87081E-05 6.61725E-03 4.21773E-14-3.93866E-13
 -1      1379 1.99918E+01 5.82599E-04 8.85832E-05 6.84719E-03 2.70724E-15-4.04230E-13
 -1      1380 1.99853E+01 4.00868E-04-9.24236E-05 1.27762E-02 4.51757E-14-3.32033E-13
 -1      1381 2.00009E+01 7.75181E-04 5.74623E-05 8.39502E-03 8.30493E-15-3.88012E-13
 -1      1382 2.00111E+01 1.02181E-03 1.17434E-04 8.84535E-03 2.13101E-14-3.60792E-13
 -1      1383 2.00019E+01 1.05171E-03-2.11313E-04 1.54153E-02 2.65374E-14-3.14820E-13
 -1      1384 2.00230E+01 1.25430E-03 7.06942E-05 1.14260E-02 8.41488E-14-3.21187E-13
 -1      1385 2.00369E+01 1.51930E-03 1.46451E-04 1.21299E-02 8.11961E-14-2.02127E-13
 -1      1386 2.00226E+01 1.79466E-03-3.46098E-04 2.03929E-02 9.29403E-14-2.01679E-13
 -1      1387 2.00528E+01 1.80449E-03 7.47223E-05 1.58849E-02 9.82721E-15-9.36794E-14
 -1      1388 2.00723E+01 2.07728E-03 1.71798E-04 1.68801E-02-6.76913E-15-1.05610E-13
 -1      1389 2.00498E+01 2.64784E-03-4.99238E-04 2.80256E-02 9.11722E-14-1.25403E-13
 -1      1390 2.00936E+01 2.42479E-03 6.46087E-05 2.19497E-02-4.33578E-14-1.70779E-13
 -1      1391 2.01208E+01 2.68386E-03 1.87834E-04 2.32725E-02-5.38434E-14-2.82753E-13
 -1      1392 2.00862E+01 3.61498E-03-6.70830E-04 3.86530E-02-4.15118E-14-1.33841E-13
 -1      1393 2.01490E+01 3.09656E-03 3.40858E-05 2.97597E-02-6.14293E-14-2.51201E-13
 -1      1394 2.01859E+01 3.30415E-03 1.86683E-04 3.14353E-02-4.44950E-14-2.96610E-13
 -1      1395 2.01348E+01 4.67373E-03-8.56771E-04 5.25689E-02-8.50269E-14-1.28595E-13
 -1      1396 2.02228E+01 3.77245E-03-2.41233E-05 3.93470E-02 3.28320E-14-3.95250E-13
 -1      1397 2.02716E+01 3.86786E-03 1.58099E-04 4.13729E-02 7.30733E-14-3.34295E-13
 -1      1398 2.01988E+01 5.75853E-03-1.04616E-03 6.99090E-02-3.48416E-14-1.87022E-13
 -1      1399 2.03185E+01 4.36142E-03-1.17230E-04 5.05310E-02 9.97006E-14-2.70384E-13
 -1      1400 2.03811E+01 4.25352E-03 9.00773E-05 5.28530E-02 8.76287E-14-1.05103E-13
 -1      1401 2.02810E+01 6.73699E-03-1.21776E-03 9.04746E-02 1.21164E-13-2.61890E-13
 -1      1402 2.04391E+01 4.70966E-03-2.49988E-04 6.27669E-02-5.66848E-14-4.14209E-14
 -1      1403 2.05167E+01 4.26994E-03-2.91172E-05 6.52435E-02-9.20728E-14-1.62646E-13
 -1      1404 2.03840E+01 7.37914E-03-1.33538E-03 1.13475E-01 4.77157E-14-2.57115E-13
 -1      1405 2.05857E+01 4.57924E-03-4.20228E-04 7.49407E-02-1.27540E-13-1.46719E-13
 -1      1406 2.06780E+01 3.63852E-03-2.06518E-04 7.72958E-02-1.32265E-13-2.73426E-13
 -1      1407 2.05089E+01 7.32177E-03-1.34240E-03 1.37175E-01-1.71035E-13-1.59203E-13
 -1      1408 2.07566E+01 3.62954E-03-6.11562E-04 8.51145E-02-8.04397E-14-3.32481E-13
 -1      1409 2.08606E+01 1.98465E-03-4.36606E-04 8.68797E-02-5.24854E-14-4.38056E-13
 -1      1410 2.06543E+01 6.03525E-03-1.15634E-03 1.58443E-01-1.95200E-13-7.09176E-14
 -1      1411 2.09450E+01 1.41333E-03-7.83085E-04 9.02536E-02-6.07391E-14-5.56771E-13
 -1      1412 2.10539E+01-1.14524E-03-6.89709E-04 9.07087E-02-5.00250E-15-5.33582E-13
 -1      1413 2.08153E+01 2.81074E-03-6.65363E-04 1.72242E-01-1.07817E-13-1.71334E-13
 -1      1414 2.11367E+01-2.58949E-03-8.57898E-04 8.60156E-02 8.31084E-15-4.05493E-13
 -1      1415 2.12380E+01-6.21235E-03-8.98710E-04 8.41491E-02-1.17396E-14-4.30754E-13
 -1      1416 2.09811E+01-3.19657E-03 2.68262E-04 1.71189E-01-1.72398E-14-2.83428E-13
 -1      1417 2.13076E+01-8.86261E-03-7.16624E-04 6.67705E-02-5.77826E-14-4.71990E-13
 -1      1418 2.13818E+01-1.35176E-02-9.51058E-04 6.13059E-02 2.52472E-14-4.65895E-13
 -1      1419 2.11337E+01-1.28076E-02 1.78943E-03 1.45420E-01-3.36970E-16-3.76440E-13
 -1      1420 2.14214E+01-1.76162E-02-2.09082E-04 2.61418E-02 9.44635E-14-5.21627E-13
 -1      1421 2.14410E+01-2.28912E-02-7.01420E-04 1.57071E-02 2.48608E-15-4.58221E-13
 -1      1422 2.12455E+01-2.64585E-02 4.00231E-03 8.32349E-02 2.43026E-14-5.11143E-13
 -1      1423 2.14291E+01-2.83777E-02 7.94331E-04-4.15192E-02 1.14622E-15-4.01039E-13
 -1      1424 2.13604E+01-3.32280E-02-2.51780E-05-5.79732E-02-2.64632E-14-3.91342E-13
 -1      1425 2.12793E+01-4.35593E-02 6.87621E-03-2.67864E-02 4.54359E-14-3.90837E-13
 -1      1426 2.12730E+01-3.94294E-02 2.29655E-03-1.38311E-01 1.60388E-14-2.62105E-13
 -1      1427 2.10808E+01-4.19669E-02 1.07293E-03-1.60753E-01 4.83398E-14-2.70796E-13
 -1      1428 2.11903E+01-6.15954E-02 1.00958E-02-1.91420E-01-1.58866E-14-2.72097E-13
 -1      1429 2.08965E+01-4.72899E-02 4.02140E-03-2.58558E-01 4.07638E-14-2.75223E-13
 -1      1430 2.05551E+01-4.48378E-02 2.31253E-03-2.84811E-01-1.29558E-14-2.93880E-13
 -1      1431 2.09331E+01-7.52529E-02 1.28856E-02-4.05786E-01 5.94394E-14-5.58224E-14
 -1      1432 2.02636E+01-4.67222E-02 5.28776E-03-3.84123E-01-9.11983E-14-3.21139E-13
 -1      1433 1.97726E+01-3.64685E-02 3.04634E-03-4.08860E-01-1.16729E-13-3.89053E-13
 -1      1434 2.04744E+01-7.63023E-02 1.39075E-02-6.44700E-01-8.75012E-14-2.22298E-13
 -1      1435 1.93860E+01-3.19970E-02 5.08191E-03-4.81934E-01-6.39287E-14-5.77181E-13
 -1      1436 1.87878E+01-1.24963E-02 2.37150E-03-4.96537E-01-5.15529E-14-6.47156E-13
 -1      1437 1.98129E+01-5.54026E-02 1.14312E-02-8.56132E-01-2.43755E-13-3.60841E-13
 -1      1438 1.83509E+01 3.35066E-05 2.46218E-03-5.08005E-01 7.26452E-14-5.96179E-13
 -1      1439 1.77417E+01 2.68047E-02-4.14754E-04-5.02441E-01 1.06147E-13-5.43770E-13
 -1      1440 1.90013E+01-6.66692E-03 4.03274E-03-9.63717E-01 2.27807E-15-4.95754E-13
 -1      1441 1.73344E+01 4.58156E-02-2.70621E-03-4.21663E-01 1.76237E-13-3.04146E-13
 -1      1442 1.68551E+01 7.30663E-02-5.14256E-03-3.88878E-01 2.00452E-13-7.06032E-14
 -1      1443 1.81607E+01 6.58908E-02-8.17616E-03-8.86100E-01 3.41680E-13-3.08878E-13
 -1      1444 1.65786E+01 9.25913E-02-9.19266E-03-2.08396E-01 1.42853E-13-5.47045E-14
 -1      1445 1.63796E+01 1.09566E-01-1.02641E-02-1.49847E-01 1.36832E-13 8.61915E-14
 -1      1446 1.74707E+01 1.43983E-01-2.23342E-02-5.74506E-01 2.64793E-13 9.12699E-14
 -1      1447 1.63233E+01 1.20453E-01-1.43099E-02 9.83742E-02 1.28866E-13 1.32784E-13
 -1      1448 1.65039E+01 1.16055E-01-1.27452E-02 1.69068E-01 1.77146E-13 3.33344E-13
 -1      1449 1.71246E+01 1.96713E-01-3.29571E-02-5.59627E-02 2.60410E-13 3.83104E-13
 -1      1450 1.67029E+01 1.09483E-01-1.41070E-02 4.10266E-01 1.73039E-15 2.64531E-13
 -1      1451 1.72460E+01 7.67982E-02-9.08041E-03 4.68265E-01-1.19205E-13 2.64178E-13
 -1      1452 1.72529E+01 1.90054E-01-3.35468E-02 5.41678E-01 7.87877E-14 3.87268E-13
 -1      1453 1.76496E+01 4.62098E-02-4.97587E-03 5.98576E-01-7.07585E-14 1.90008E-13
 -1      1454 1.83743E+01-1.39882E-02 1.03841E-03 6.11592E-01-3.67070E-14 2.86125E-13
 -1      1455 1.78458E+01 9.74069E-02-2.02476E-02 1.00235E+00-1.93167E-13 2.82741E-13
 -1      1456 1.88473E+01-6.52724E-02 1.23314E-02 5.26238E-01 8.28449E-14 2.64719E-13
 -1      1457 1.94410E+01-1.22649E-01 1.37408E-02 4.83760E-01 2.38010E-13 4.68153E-13
 -1      1458 1.87204E+01-9.20940E-02 2.52724E-03 1.08016E+00 5.54374E-14 2.67406E-13
 -1      1459 1.99107E+01-1.27689E-01 4.72281E-02 8.21622E-02-2.40981E-13 3.04982E-13
 -1      1460 1.96829E+01-3.47564E-01 2.72418E-02 5.23738E-01-1.62610E-13 2.25588E-14
 -1      1461 2.02614E+01 7.60063E-02-1.51719E-01 4.83531E-01 2.15890E-13 1.45707E-12
 -1      1462 2.15317E+01 2.16159E-01-2.29224E-01 7.20939E-01 1.95038E-13 1.80363E-12
 -1      1463 2.17305E+01 8.82265E-01-8.52570E-02 2.06494E+00 3.82978E-13 1.12656E-12
 -1      1464 1.93332E+01 3.27290E-02-2.09372E-02 1.85825E-01 1.68299E-13 1.01789E-12
 -1      1465 1.97540E+01 1.13575E-01-6.23650E-02 2.37993E-01 1.53606E-13 1.28746E-12
 -1      1466 2.03054E+01 1.88141E-01-5.47505E-02 7.86254E-01 3.29445E-13 8.14875E-13
 -1      1467 1.89525E+01 1.48730E-02 5.82342E-03 5.33452E-02 7.07689E-14 7.57946E-13
 -1      1468 1.90909E+01 5.15273E-02 1.34820E-03 7.93849E-02 8.91986E-14 9.10480E-13
 -1      1469 1.95604E+01 7.27484E-02-1.16752E-02 2.98628E-01 2.21817E-13 5.69565E-13
 -1      1470 1.88425E+01 7.18025E-03 6.85897E-03-9.18959E-03 8.79704E-14 5.56674E-13
 -1      1471 1.88569E+01 2.59583E-02 1.11829E-02 5.26277E-03 7.95297E-14 6.88748E-13
 -1      1472 1.92256E+01 3.09795E-02-2.53252E-03 8.31259E-02 1.60909E-13 3.77160E-13
 -1      1473 1.88693E+01 3.21575E-03 4.71579E-03-3.96141E-02 6.66073E-14 3.78475E-13
 -1      1474 1.88251E+01 1.38431E-02 8.42586E-03-3.14363E-02 5.51584E-14 4.82940E-13
 -1      1475 1.91097E+01 1.33860E-02-1.69593E-03-2.20420E-02 1.34466E-13 2.50369E-13
 -1      1476 1.89644E+01 1.05500E-03 3.28088E-03-5.30488E-02 2.78375E-14 2.71116E-13
 -1      1477 1.88934E+01 7.29478E-03 5.33055E-03-4.85651E-02 3.36737E-14 3.36963E-13
 -1      1478 1.91116E+01 4.52930E-03-1.68064E-03-7.36662E-02 8.30735E-14 1.56608E-13
 -1      1479 1.90896E+01-1.88058E-04 2.50895E-03-5.70149E-02 5.05150E-14 2.05282E-13
 -1      1480 1.90089E+01 3.46616E-03 3.42469E-03-5.47842E-02 3.19755E-14 2.47004E-13
 -1      1481 1.91750E+01-1.13036E-04-1.39744E-03-9.63312E-02 6.06517E-14 6.85875E-14
 -1      1482 1.92232E+01-8.95402E-04 2.04425E-03-5.55412E-02-1.15007E-15 1.47524E-13
 -1      1483 1.91425E+01 1.13688E-03 2.32806E-03-5.47254E-02 3.01946E-14 2.02288E-13
 -1      1484 1.92677E+01-2.61916E-03-1.01570E-03-1.02559E-01 6.55410E-14 6.07897E-14
 -1      1485 1.93528E+01-1.26101E-03 1.70002E-03-5.10394E-02 4.16390E-14 1.14715E-13
 -1      1486 1.92773E+01-2.72632E-04 1.64923E-03-5.11014E-02 1.09868E-14 1.47576E-13
 -1      1487 1.93705E+01-3.89079E-03-6.73337E-04-9.93252E-02 1.99738E-14 1.15745E-14
 -1      1488 1.94713E+01-1.40454E-03 1.41081E-03-4.50347E-02 6.27989E-14 3.16795E-14
 -1      1489 1.94039E+01-1.08559E-03 1.18809E-03-4.56162E-02 5.84792E-14 1.02375E-13
 -1      1490 1.94723E+01-4.40061E-03-4.09806E-04-9.08685E-02 8.01670E-14-7.57205E-14
 -1      1491 1.95756E+01-1.40623E-03 1.15854E-03-3.85021E-02 7.16021E-14-9.96924E-14
 -1      1492 1.95174E+01-1.50465E-03 8.55688E-04-3.93621E-02 6.15870E-14 6.50565E-15
 -1      1493 1.95667E+01-4.43687E-03-2.20540E-04-7.98723E-02 9.70545E-14-5.55014E-14
 -1      1494 1.96643E+01-1.32120E-03 9.38722E-04-3.20535E-02 3.17265E-14-1.88420E-13
 -1      1495 1.96154E+01-1.66503E-03 6.10025E-04-3.30315E-02 4.26910E-14-1.58071E-13
 -1      1496 1.96503E+01-4.18772E-03-9.01606E-05-6.80472E-02 8.84456E-14-1.12397E-13
 -1      1497 1.97379E+01-1.18715E-03 7.49605E-04-2.60562E-02 3.55273E-14-3.02634E-13
 -1      1498 1.96979E+01-1.65947E-03 4.27617E-04-2.70477E-02 1.42727E-14-2.47182E-13
 -1      1499 1.97221E+01-3.77890E-03-3.86608E-06-5.64622E-02 8.39702E-14-2.36593E-13
 -1      1500 1.97976E+01-1.02913E-03 5.89309E-04-2.07125E-02 2.41460E-14-3.68047E-13
 -1      1501 1.97655E+01-1.55173E-03 2.93076E-04-2.16522E-02 5.91733E-14-2.75637E-13
 -1      1502 1.97819E+01-3.29394E-03 5.01369E-05-4.57551E-02 7.05806E-14-3.04921E-13
 -1      1503 1.98448E+01-8.62886E-04 4.55351E-04-1.61170E-02-2.56549E-14-3.19022E-13
 -1      1504 1.98197E+01-1.38475E-03 1.95346E-04-1.69661E-02-1.15580E-14-3.43152E-13
 -1      1505 1.98307E+01-2.78637E-03 8.06849E-05-3.62754E-02-8.94228E-15-2.66798E-13
 -1      1506 1.98816E+01-6.97092E-04 3.44709E-04-1.22983E-02 2.73208E-14-3.86238E-13
 -1      1507 1.98623E+01-1.18600E-03 1.26151E-04-1.30354E-02 2.55634E-14-3.79175E-13
 -1      1508 1.98696E+01-2.28788E-03 9.41176E-05-2.81873E-02 4.76069E-14-2.57158E-13
 -1      1509 1.99097E+01-5.35063E-04 2.53964E-04-9.25056E-03 5.23961E-14-5.16912E-13
 -1      1510 1.98952E+01-9.71249E-04 7.92112E-05-9.86431E-03 4.69533E-14-4.19144E-13
 -1      1511 1.99003E+01-1.81406E-03 9.46686E-05-2.15445E-02 8.08102E-14-3.35488E-13
 -1      1512 1.99312E+01-3.75907E-04 1.79462E-04-6.95683E-03-4.09293E-14-5.25049E-13
 -1      1513 1.99203E+01-7.47042E-04 4.97837E-05-7.44015E-03 1.19854E-14-5.02692E-13
 -1      1514 1.99242E+01-1.36835E-03 8.47489E-05-1.63469E-02 5.06627E-14-3.30610E-13
 -1      1515 1.99479E+01-2.15346E-04 1.17447E-04-5.40824E-03-8.35406E-14-3.97138E-13
 -1      1516 1.99396E+01-5.12571E-04 3.43743E-05-5.75362E-03-6.64618E-14-4.85375E-13
 -1      1517 1.99431E+01-9.44988E-04 6.51446E-05-1.25839E-02-7.76972E-14-3.25168E-13
 -1      1518 1.99618E+01-4.62030E-05 6.41479E-05-4.61882E-03-8.42843E-15-2.90069E-13
 -1      1519 1.99551E+01-2.60814E-04 3.05610E-05-4.81426E-03-6.32631E-14-3.53303E-13
 -1      1520 1.99586E+01-5.30946E-04 3.51211E-05-1.02690E-02-9.75354E-14-2.99644E-13
 -1      1521 1.99749E+01 1.41459E-04 1.57987E-05-4.63879E-03 9.43699E-15-2.57721E-13
 -1      1522 1.99687E+01 2.09052E-05 3.68779E-05-4.66402E-03-5.22585E-16-2.64196E-13
 -1      1523 1.99728E+01-1.07125E-04-7.58081E-06-9.46799E-03-4.65779E-14-1.85171E-13
 -1      1524 1.99896E+01 3.60530E-04-3.14222E-05-5.56736E-03 1.54604E-13-4.64349E-13
 -1      1525 1.99826E+01 3.50965E-04 5.27390E-05-5.38997E-03 9.24668E-14-3.07596E-13
 -1      1526 1.99874E+01 3.51299E-04-6.68788E-05-1.03244E-02 1.28497E-13-2.23082E-13
 -1      1527 2.00086E+01 6.27429E-04-8.15380E-05-7.56687E-03-2.47029E-14-6.13468E-13
 -1      1528 1.99994E+01 7.54162E-04 7.83946E-05-7.13777E-03 2.47904E-14-5.72801E-13
 -1      1529 2.00048E+01 8.75321E-04-1.48643E-04-1.30862E-02 1.38362E-13-3.83365E-13
 -1      1530 2.00349E+01 9.63129E-04-1.39041E-04-1.08800E-02-7.13831E-14-3.54658E-13
 -1      1531 2.00219E+01 1.26321E-03 1.14911E-04-1.01278E-02-7.27220E-14-5.32824E-13
 -1      1532 2.00277E+01 1.50345E-03-2.61209E-04-1.81347E-02-1.07494E-13-3.32759E-13
 -1      1533 2.00726E+01 1.39479E-03-2.09351E-04-1.58521E-02-5.15211E-14-1.82155E-13
 -1      1534 2.00536E+01 1.92127E-03 1.64153E-04-1.46758E-02-3.65192E-14-2.72023E-13
 -1      1535 2.00594E+01 2.28409E-03-4.16197E-04-2.60222E-02-1.13880E-13-1.96933E-13
 -1      1536 2.01268E+01 1.95811E-03-2.99605E-04-2.29624E-02 8.33854E-14-2.06670E-13
 -1      1537 2.00991E+01 2.78580E-03 2.28701E-04-2.12205E-02 1.36930E-14-1.87409E-13
 -1      1538 2.01038E+01 3.27943E-03-6.29788E-04-3.75198E-02 5.04815E-15-2.71273E-13
 -1      1539 2.02040E+01 2.70065E-03-4.20009E-04-3.28660E-02 4.00509E-14-4.44412E-13
 -1      1540 2.01640E+01 3.93417E-03 3.11597E-04-3.03617E-02 1.15902E-13-2.65303E-13
 -1      1541 2.01661E+01 4.57099E-03-9.24642E-04-5.36843E-02 1.35411E-13-2.68626E-13
 -1      1542 2.03128E+01 3.68606E-03-5.86147E-04-4.64526E-02-4.22981E-14-4.11824E-13
 -1      1543 2.02558E+01 5.47143E-03 4.15631E-04-4.29128E-02-4.60075E-14-4.10662E-13
 -1      1544 2.02530E+01 6.26754E-03-1.33275E-03-7.59479E-02-2.39151E-14-2.17871E-13
 -1      1545 2.04645E+01 4.99858E-03-8.22903E-04-6.49241E-02-2.29073E-14-4.05934E-13
 -1      1546 2.03843E+01 7.53994E-03 5.41653E-04-5.99697E-02-7.68396E-15-3.95213E-13
 -1      1547 2.03729E+01 8.51513E-03-1.89952E-03-1.06239E-01-3.26432E-14-2.71936E-13
 -1      1548 2.06740E+01 6.74611E-03-1.17095E-03-8.98909E-02-1.71256E-14-3.65007E-13
 -1      1549 2.05622E+01 1.03294E-02 6.84838E-04-8.29964E-02-2.55022E-14-4.57353E-13
 -1      1550 2.05369E+01 1.15078E-02-2.68935E-03-1.47132E-01-3.45657E-14-3.68300E-13
 -1      1551 2.09608E+01 9.05597E-03-1.69683E-03-1.23471E-01-2.96067E-14-3.14972E-13
 -1      1552 2.08063E+01 1.40814E-02 8.27004E-04-1.13916E-01-4.45514E-14-3.92854E-13
 -1      1553 2.07590E+01 1.54936E-02-3.79245E-03-2.02017E-01-5.09389E-14-2.87798E-13
 -1      1554 2.13503E+01 1.20503E-02-2.50629E-03-1.68345E-01 1.06000E-13-3.28953E-13
 -1      1555 2.11384E+01 1.90734E-02 9.21962E-04-1.55166E-01 3.60458E-14-2.73946E-13
 -1      1556 2.10573E+01 2.07609E-02-5.33102E-03-2.75221E-01-6.96665E-15-2.33770E-13
 -1      1557 2.18748E+01 1.57702E-02-3.75283E-03-2.27626E-01 4.42918E-14-5.52076E-13
 -1      1558 2.15865E+01 2.55435E-02 8.70956E-04-2.09606E-01 1.01886E-13-3.91018E-13
 -1      1559 2.14543E+01 2.75666E-02-7.45731E-03-3.71923E-01 1.51964E-13-2.60909E-13
 -1      1560 2.25733E+01 1.99846E-02-5.60790E-03-3.04239E-01-1.58439E-13-3.60502E-13
 -1      1561 2.21852E+01 3.34723E-02 4.91968E-04-2.80024E-01-6.86578E-14-4.79460E-13
 -1      1562 2.19765E+01 3.59188E-02-1.03208E-02-4.97476E-01-8.28487E-14-2.30282E-13
 -1      1563 2.34875E+01 2.37583E-02-8.09057E-03-3.99102E-01 2.03440E-14-3.68663E-13
 -1      1564 2.29735E+01 4.20452E-02-4.85748E-04-3.67669E-01 1.73472E-18-3.26340E-13
 -1      1565 2.26532E+01 4.50257E-02-1.39417E-02-6.55254E-01-1.68355E-14-2.48756E-13
 -1      1566 2.46503E+01 2.45838E-02-1.05263E-02-5.06756E-01 5.52449E-14-5.60045E-13
 -1      1567 2.39889E+01 4.84861E-02-2.29447E-03-4.68719E-01 2.22153E-14-4.73378E-13
 -1      1568 2.35099E+01 5.20504E-02-1.78503E-02-8.41312E-01 5.57471E-14-3.29578E-13
 -1      1569 2.60570E+01 1.69029E-02-1.02598E-02-6.06223E-01-9.63014E-14-3.69926E-13
 -1      1570 2.52484E+01 4.58654E-02-4.63658E-03-5.66821E-01-6.04911E-14-5.19702E-13
 -1      1571 2.45553E+01 4.96726E-02-2.02398E-02-1.03285E+00-6.67396E-14-2.97372E-13
 -1      1572 2.76071E+01-9.46048E-03-5.56575E-04-6.44883E-01-2.71862E-14-2.05030E-13
 -1      1573 2.67107E+01 2.00399E-02-5.44490E-03-6.19735E-01-6.02725E-14-3.39222E-13
 -1      1574 2.57538E+01 2.21285E-02-1.65165E-02-1.16670E+00-1.32390E-13-2.46671E-13
 -1      1575 2.90075E+01-6.89076E-02 2.98371E-02-5.18103E-01-6.69360E-14-4.20775E-14
 -1      1576 2.82057E+01-5.18666E-02 8.92351E-04-5.41596E-01-2.86091E-14-2.09006E-13
 -1      1577 2.69798E+01-5.79926E-02 2.24406E-03-1.10822E+00-5.46507E-14-1.87461E-13
 -1      1578 2.96580E+01-1.66966E-01 8.68324E-02-6.56558E-02-6.22835E-14 1.17906E-13
 -1      1579 2.93338E+01-1.91443E-01 2.17960E-02-1.94485E-01-6.83446E-14 1.56195E-14
 -1      1580 2.79550E+01-2.21323E-01 4.67656E-02-6.27051E-01-1.48430E-13-8.13238E-15
 -1      1581 2.86423E+01-2.69627E-01 1.43426E-01 8.41651E-01-1.48388E-14 3.05173E-13
 -1      1582 2.93820E+01-3.79360E-01 5.46020E-02 5.55274E-01-6.30884E-14 2.38629E-13
 -1      1583 2.81890E+01-4.65341E-01 1.09400E-01 5.41074E-01-1.56715E-13 5.65555E-14
 -1      1584 2.50909E+01-2.63124E-01 1.14101E-01 2.07072E+00-1.54314E-13 5.27772E-13
 -1      1585 2.74425E+01-4.93305E-01 6.86266E-02 1.65987E+00-5.70342E-14 4.26770E-13
 -1      1586 2.70572E+01-6.56266E-01 1.49429E-01 2.43391E+00-1.32110E-13 4.23911E-13
 -1      1587 1.91548E+01-2.22233E-02-8.06805E-02 2.91165E+00 8.16812E-14 5.83866E-13
 -1      1588 2.29611E+01-3.15944E-01-1.28656E-04 2.60610E+00 5.77359E-14 5.89473E-13
 -1      1589 2.41241E+01-4.83163E-01 9.18871E-02 4.37851E+00 2.61249E-15 5.08704E-13
 -1      1590 1.29992E+01 3.43741E-01-3.49227E-01 2.39270E+00-5.35821E-14 6.08957E-13
 -1      1591 1.68109E+01 1.91553E-01-1.62946E-01 2.50549E+00-7.04437E-14 5.16198E-13
 -1      1592 1.99166E+01 2.37004E-01-7.97582E-02 4.85303E+00-2.63262E-14 3.80612E-13
 -1      1593 9.88103E+00 4.70148E-01-4.33184E-01 5.25476E-01 1.86448E-13 4.38004E-13
 -1      1594 1.16622E+01 6.31453E-01-2.95195E-01 1.04304E+00 1.42650E-13 6.17451E-13
 -1      1595 1.62799E+01 1.05159E+00-2.28540E-01 2.84911E+00 1.04472E-13 3.70204E-13
 -1      1596 1.10941E+01 2.49698E-01-2.40233E-01-1.29209E+00 1.34684E-13 1.99007E-14
 -1      1597 1.01126E+01 5.96147E-01-2.56345E-01-7.81185E-01 1.41512E-13 3.12139E-13
 -1      1598 1.50094E+01 1.11049E+00-2.37819E-01-4.49852E-01 2.79277E-13 2.32390E-13
 -1      1599 1.47649E+01-1.29081E-02 2.76340E-02-1.93701E+00-1.09843E-14-9.08162E-14
 -1      1600 1.22079E+01 2.46026E-01-8.70781E-02-1.72207E+00 9.77760E-14 3.87468E-14
 -1      1601 1.60170E+01 4.36336E-01-1.43797E-01-2.69044E+00 1.55660E-13 2.43194E-13
 -1      1602 1.82192E+01-2.29184E-01 2.37189E-01-1.62612E+00-1.41852E-13-3.41671E-14
 -1      1603 1.57852E+01-1.08114E-01 8.74911E-02-1.60855E+00-1.27738E-13-2.13218E-13
 -1      1604 1.78156E+01-2.55609E-01 5.70021E-04-3.04928E+00-8.15216E-14 3.32234E-14
 -1      1605 1.91621E+01-7.69241E-01 3.12042E-01-7.64776E-01 1.33143E-13 1.66894E-13
 -1      1606 2.05312E+01-3.66277E+00-1.46053E-01-1.34673E+00-1.76248E-13-2.72518E-13
 -1      1607 2.01294E+01-2.12117E+00 4.24263E-02-1.44900E+00 8.82627E-15 1.40402E-13
 -1      1608 2.14727E+01-2.50548E+00-3.13334E-01 1.19389E+00-3.65041E-13-2.28914E-13
 -1      1609 2.10788E+01-3.83958E+00-2.74987E-01 3.56505E-01-5.00849E-14-3.14498E-13
 -1      1610 2.15422E+01-2.36323E+00-2.20555E-01-7.84881E-01-1.30035E-13-1.35683E-13
 -1      1611 2.15635E+01 4.69152E+00-6.87195E-02 5.29878E+00-7.35301E-13-2.42778E-13
 -1      1612 2.16948E+01-1.28710E+00-4.12703E-01 4.26231E+00-5.12701E-13 3.90174E-14
 -1      1613 2.30832E+01-1.67866E+00-3.18227E-01 4.85185E+00-3.00655E-13-2.81011E-13
 -1      1614 1.98393E+01 1.55271E+01 6.98520E-01 7.60987E+00-1.62292E-12-7.23616E-13
 -1      1615 2.08638E+01 7.27640E+00 2.58451E-02 7.49665E+00-8.31224E-13-7.70162E-13
 -1      1616 2.24207E+01 1.74402E+00-8.18660E-02 1.11348E+01-4.05707E-13-8.71081E-13
 -1      1617 1.78922E+01 2.58037E+01 1.64240E+00-2.15814E+00-1.53716E-12 2.94043E-13
 -1      1618 1.77817E+01 2.76797E+01 1.83383E+00-6.95443E-01-1.86701E-12 8.67084E-14
 -1      1619 1.93303E+01 1.61576E+01 8.04101E-01-6.45968E+00 2.17604E-13 9.36584E-13
 -1      1620 1.85296E+01 2.34039E+01 1.44420E+00-5.96201E+00-1.09535E-12 1.06981E-12
 -1      1621 1.62268E+01 1.46741E+01 8.92913E-01-7.21154E+00-6.50563E-13 1.14098E-12
 -1      1622 2.07965E+01 3.30855E+00-1.01378E-01-6.69974E+00 1.17995E-12 6.55198E-13
 -1      1623 2.01410E+01 1.18882E+01 4.91017E-01-7.08781E+00 4.39648E-13 4.48197E-13
 -1      1624 1.95174E+01 8.10993E+00 4.11156E-01-1.24407E+01 1.26149E-13 1.25955E-12
 -1      1625 2.10921E+01-6.57838E+00-5.42976E-01-4.15682E+00 1.03434E-12-3.73146E-13
 -1      1626 2.10069E+01-5.41332E-01-2.58891E-01-4.89824E+00 1.06271E-12 3.10654E-14
 -1      1627 2.16915E+01 3.28195E-01-1.55418E-01-1.07180E+01 1.48132E-13 4.38108E-13
 -1      1628 2.05941E+01-1.16670E+01-4.14143E-01-1.00183E+00 7.10827E-13-2.33841E-13
 -1      1629 2.08680E+01-9.13883E+00-4.58858E-01-1.65631E+00 1.14897E-12-4.73746E-13
 -1      1630 2.18572E+01-5.67799E+00-3.60560E-01-5.38030E+00 4.19706E-13-4.84765E-13
 -1      1631 2.01426E+01-1.14311E+01-1.24233E-01 6.43552E-01 8.55149E-14-2.91753E-13
 -1      1632 2.04611E+01-1.20143E+01-2.19005E-01 3.90452E-01 5.28647E-13-2.53617E-13
 -1      1633 2.09802E+01-8.25501E+00-2.47091E-01-6.13134E-01 1.83391E-13-5.29160E-13
 -1      1634 1.99628E+01-9.06339E+00 2.08461E-02 1.12440E+00-3.58880E-14 5.30756E-14
 -1      1635 2.01639E+01-1.07600E+01-1.96511E-02 1.07741E+00 4.65461E-14-2.19449E-13
 -1      1636 2.02834E+01-7.97159E+00-8.21569E-02 1.58702E+00-4.74620E-14-4.53838E-13
 -1      1637 1.99185E+01-6.29091E+00 5.14028E-02 1.09205E+00 1.67116E-13 6.62283E-14
 -1      1638 2.00215E+01-8.06527E+00 4.65786E-02 1.11654E+00-2.63678E-14 1.99485E-13
 -1      1639 1.99763E+01-6.38635E+00 1.18580E-03 2.11267E+00 1.38903E-13 1.94603E-13
 -1      1640 1.99172E+01-3.80881E+00 4.28882E-02 9.08423E-01 1.18100E-14-2.67350E-13
 -1      1641 1.99726E+01-5.30677E+00 4.68832E-02 9.44745E-01 6.75432E-14 6.67010E-14
 -1      1642 1.98894E+01-4.48858E+00 2.34966E-02 1.94236E+00-9.94413E-14 9.24861E-14
 -1      1643 1.99162E+01-1.90111E+00 1.85884E-02 6.94654E-01-1.46286E-13 3.92776E-14
 -1      1644 1.99575E+01-2.98569E+00 3.55841E-02 7.13005E-01 1.47132E-13-3.72809E-13
 -1      1645 1.98623E+01-2.74160E+00 2.27201E-02 1.55989E+00-1.35600E-13-3.04942E-13
 -1      1646 1.97973E+01-7.12433E-01-2.29853E-03 6.30109E-01-2.84000E-13-2.75960E-13
 -1      1647 1.98326E+01-1.34083E+00 1.17873E-02 7.53928E-01-1.24914E-13-4.62286E-14
 -1      1648 1.97906E+01-1.35382E+00 4.51004E-02 1.30916E+00-5.66595E-14-6.20320E-14
 -1      1649 1.94292E+01-4.82172E-01 3.26522E-02 1.15475E+00 8.19516E-14-4.44297E-14
 -1      1650 3.89534E-01-1.99615E+01-3.54546E+00-1.39800E-01 1.77347E-12 4.23439E-13
 -1      1651 1.41913E-01-2.42807E+01-4.26650E+00 7.99721E-01 1.86839E-12 2.15494E-13
 -1      1652 5.20967E+00-9.08893E+00-1.88949E+00 4.53576E+00 1.04983E-12-4.27436E-14
 -1      1653 3.24670E+00-1.90793E+01-3.42745E+00 2.55412E+00 1.89182E-12 6.87644E-14
 -1      1654 1.47656E+01 3.36120E+00-1.79748E-01 1.09721E+01 8.82405E-13 3.69482E-13
 -1      1655 8.74506E+00-6.18145E+00-1.91508E+00 5.48347E+00 9.01501E-13 5.81757E-13
 -1      1656 3.33429E+01 9.10250E+00 1.21307E+00 1.72955E+01 2.25819E-13-4.58300E-13
 -1      1657 2.22878E+01 5.03557E+00-1.51952E-01 1.20838E+01 7.84706E-13-2.10942E-14
 -1      1658 5.08843E+01 1.10638E+01 2.19988E+00 2.00165E+01-3.06866E-13-1.02141E-13
 -1      1659 3.89164E+01 1.23414E+01 1.24784E+00 1.88158E+01-1.64313E-14-2.57350E-13
 -1      1660 6.57078E+01 7.55115E+00 2.59012E+00 1.39731E+01-2.62707E-14 1.11022E-13
 -1      1661 5.58823E+01 1.04889E+01 1.99443E+00 1.77295E+01-2.92266E-13-1.49880E-13
 -1      1662 7.30472E+01 4.92254E+00 2.82222E+00 4.98850E+00 1.34337E-13 2.39808E-14
 -1      1663 7.02195E+01 6.81614E+00 2.72178E+00 1.21854E+01 1.72196E-13 2.33480E-13
 -1      1664 6.52061E+01 4.85169E+00 2.14973E+00-5.01547E+00 2.41612E-13-4.42868E-13
 -1      1665 7.11920E+01 4.46657E+00 2.71057E+00 1.87214E+00 1.56430E-13-3.84137E-14
 -1      1666 5.02267E+01 5.60741E+00 1.22051E+00-1.10955E+01 5.77316E-13-9.51683E-13
 -1      1667 6.16373E+01 4.21106E+00 2.22740E+00-8.21447E+00 3.85247E-13-5.68212E-13
 -1      1668 3.05670E+01 4.10592E+00-3.90708E-03-9.70688E+00 9.64784E-13-1.24567E-12
 -1      1669 4.35054E+01 4.51019E+00 1.20981E+00-1.15353E+01 7.13873E-13-1.01363E-12
 -1      1670 1.38716E+01-3.35592E-01-1.03118E+00-5.35848E+00 1.10556E-12-1.26099E-12
 -1      1671 2.29519E+01 3.34123E+00 7.15451E-02-9.77386E+00 1.07736E-12-1.29208E-12
 -1      1672 3.94265E+00-9.15168E+00-1.75496E+00 1.28255E-01 4.26992E-13-7.06990E-13
 -1      1673 8.39453E+00-2.55605E+00-8.68792E-01-3.74617E+00 8.28893E-13-1.36846E-12
 -1      1674 1.23139E-02-1.80848E+01-2.04396E+00 2.33901E+00 4.59188E-13-2.56267E-13
 -1      1675 7.63809E-01-1.17422E+01-1.54456E+00 1.50103E+00 4.98712E-13-1.92402E-13
 -1      1676-9.42259E-01-2.20844E+01-1.91602E+00 1.06588E+00 2.32675E-13-1.62426E-13
 -1      1677-1.14341E+00-1.90886E+01-1.74987E+00 2.53779E+00 4.05009E-13-3.18051E-13
 -1      1678-1.12249E+00-2.15483E+01-1.88417E+00-6.97602E-01 3.71370E-14-1.51157E-13
 -1      1679-1.21877E+00-2.30411E+01-2.00262E+00 1.57672E+00 1.74673E-13-8.59313E-14
 -1      1680 7.74707E-03-1.43969E+01-1.48538E+00-9.87634E-01-1.55431E-13 1.32394E-14
 -1      1681-2.75313E-01-2.03332E+01-2.01120E+00-5.44345E-01-1.98508E-13 1.23651E-14
 -1      1682 5.01952E+00-4.45321E+00-7.81575E-01 2.94862E+00-1.77192E-13-6.49480E-14
 -1      1683 2.48609E+00-1.15058E+01-1.57328E+00 3.14746E-01-2.37366E-13-1.33449E-13
 -1      1684 1.58836E+01 2.97276E+00 1.54699E-02 8.72143E+00 9.54792E-15 2.09943E-13
 -1      1685 9.59630E+00-2.00171E+00-8.92901E-01 4.55383E+00-1.54099E-13 4.96270E-14
 -1      1686 3.09236E+01 6.74171E+00 7.47878E-01 1.32201E+01 5.72875E-14-2.07168E-13
 -1      1687 2.08800E+01 5.28421E+00-1.94513E-01 1.00425E+01 2.13163E-14 1.11022E-14
 -1      1688 4.87922E+01 5.62129E+00 1.34051E+00 1.17983E+01-6.49480E-15-8.33111E-13
 -1      1689 3.75927E+01 6.79045E+00 5.44873E-01 1.23946E+01 1.65479E-13-3.85469E-13
 -1      1690 6.25324E+01 4.20890E+00 1.79301E+00 5.57376E+00-4.34056E-13-2.46470E-13
 -1      1691 5.44326E+01 5.74215E+00 1.24418E+00 1.03415E+01-3.56562E-13-5.22693E-13
 -1      1692 6.68191E+01 5.13903E+00 1.90498E+00-5.43605E+00-2.04892E-13 3.56659E-13
 -1      1693 6.43471E+01 4.72971E+00 1.65106E+00 1.73047E+00-3.96461E-13 2.94209E-14
 -1      1694 6.29572E+01 8.64784E+00 2.02023E+00-1.53668E+01-1.01585E-14 3.59768E-13
 -1      1695 6.67252E+01 5.97549E+00 1.98117E+00-9.13095E+00 5.80092E-14 4.45546E-13
 -1      1696 5.12685E+01 1.33562E+01 1.93152E+00-2.12066E+01-3.44447E-14 1.64979E-13
 -1      1697 5.99947E+01 9.88986E+00 2.23045E+00-1.82475E+01-1.45925E-14 1.48215E-13
 -1      1698 3.48817E+01 1.48986E+01 1.38205E+00-2.00203E+01-8.56870E-13 2.41362E-13
 -1      1699 4.58350E+01 1.37315E+01 2.11603E+00-2.17115E+01-2.46247E-13 6.37268E-14
 -1      1700 1.97548E+01 9.99122E+00 3.16988E-01-1.42553E+01-1.57230E-12 7.37188E-13
 -1      1701 2.90380E+01 1.39445E+01 1.58505E+00-1.94414E+01-1.09224E-12 4.52083E-13
 -1      1702 9.53186E+00-4.20282E+00-1.56434E+00-7.36343E+00-1.38867E-12 7.80487E-13
 -1      1703 1.52971E+01 5.76526E+00 2.26447E-01-1.29235E+01-1.47127E-12 8.94396E-13
 -1      1704 2.62678E+00-1.89484E+01-3.69986E+00-2.72490E+00 2.71783E-13 9.98882E-13
 -1      1705 4.53206E+00-8.11673E+00-1.96299E+00-4.88715E+00-1.04494E-12 1.07020E-12
 -1      1706-1.94065E-01-2.63449E+01-4.61848E+00-2.18124E+00 1.81877E-12 5.35572E-13
 -1      1707 1.15784E-01-2.12868E+01-3.90224E+00-6.90377E-01 7.92921E-13 9.81770E-13
 -1      1708 2.67723E+01-2.22711E+00 9.53908E-02 1.25096E+01 3.96350E-13-4.14335E-13
 -1      1709 1.96450E+01-1.29017E+00 1.80037E-01-1.82007E+00 4.88498E-14 8.54880E-14
 -1      1710 1.96032E+01-1.12871E+00 1.17334E-02-2.72391E+00-2.29289E-13 4.64594E-14
 -1      1711 1.59414E+01 1.60554E+01 1.00891E+00 2.80153E+00-1.02075E-12 2.69451E-13
 -1      1712 1.80268E+01 2.67265E+01 1.68617E+00 3.82530E+00-2.02832E-12 5.52336E-14
 -1      1713 1.87510E+01 2.12341E+01 1.14644E+00 4.86119E+00-2.03548E-12-1.71974E-13
 -1      1714 1.87804E+01 9.14121E+00 4.13255E-01 1.12530E+01-6.23779E-13-7.12264E-13
 -1      1715 4.16403E+00-1.08655E+01-2.33505E+00 7.11145E+00 1.05449E-12-1.16351E-13
 -1      1716 1.34934E+01-8.30605E+00-1.33112E+00 1.12264E+01 7.33413E-13 1.82521E-13
 -1      1717-2.75583E-01-1.24783E+01-2.91557E+00-7.59912E-01 8.40383E-13 6.04405E-13
 -1      1718 3.91263E+01 3.97739E+00 9.08497E-01 1.17206E+01 2.39142E-13-3.89688E-13
 -1      1719 5.02294E+01 8.96327E+00 1.73343E+00 1.06894E+01-2.23987E-13-1.61648E-13
 -1      1720 5.78922E+01 1.04200E+01 2.14741E+00 7.28821E+00-9.30922E-14-3.14859E-13
 -1      1721 6.01996E+01 9.92273E+00 2.28151E+00 4.06989E+00 2.60347E-13-3.23130E-13
 -1      1722 5.55695E+01 7.23080E+00 1.86624E+00-2.64279E-01 5.75651E-13-3.82139E-13
 -1      1723 4.54692E+01 3.01305E+00 1.07434E+00-3.35241E+00 7.33025E-13-7.88258E-13
 -1      1724 3.19664E+01-1.46854E+00 2.67902E-01-5.25916E+00 7.33968E-13-7.21090E-13
 -1      1725 1.77292E+01-6.09661E+00-5.54413E-01-5.04320E+00 5.06484E-13-1.16906E-12
 -1      1726 6.85432E+00-1.13034E+01-1.17436E+00-3.09219E+00 4.89386E-13-6.97609E-13
 -1      1727 3.97850E-01-1.46654E+01-1.36666E+00-1.33254E+00 5.14033E-13-4.02733E-13
 -1      1728-2.15021E+00-1.59144E+01-1.36318E+00 2.63592E-01 2.97276E-13-2.15772E-13
 -1      1729-1.17888E+00-1.57413E+01-1.44105E+00 2.11051E+00 7.53841E-14-1.35059E-13
 -1      1730 3.93948E+00-1.17842E+01-1.05211E+00 4.12389E+00-1.86073E-13-9.50975E-14
 -1      1731 1.30044E+01-6.49175E+00-4.80845E-01 6.24847E+00-1.82188E-13 1.06859E-13
 -1      1732 2.39550E+01-1.24080E+00 3.11643E-02 7.44882E+00-1.33227E-13-4.74065E-14
 -1      1733 3.64773E+01 3.26268E+00 6.91927E-01 7.14863E+00 2.01228E-13-5.44675E-13
 -1      1734 4.77296E+01 6.23166E+00 1.16731E+00 4.33342E+00-9.70335E-14-2.86882E-13
 -1      1735 5.50535E+01 8.71581E+00 1.55300E+00-8.36836E-02-5.73930E-13 1.61815E-13
 -1      1736 5.65672E+01 1.06449E+01 1.67048E+00-5.90180E+00-6.37823E-14 2.83142E-13
 -1      1737 5.40955E+01 1.17462E+01 1.81455E+00-1.12147E+01 7.98250E-14 1.76525E-13
 -1      1738 4.62775E+01 1.13488E+01 1.67718E+00-1.41873E+01-1.88280E-13-1.88738E-15
 -1      1739 3.57675E+01 8.03049E+00 1.23691E+00-1.50079E+01-1.07303E-12 2.89768E-14
 -1      1740 2.45669E+01 8.30725E-01 2.21575E-01-1.43732E+01-1.00031E-12 2.34035E-13
 -1      1741 1.32219E+01-6.91324E+00-1.17409E+00-1.29073E+01-3.71037E-13 1.08916E-12
 -1      1742 3.08351E+00-1.30031E+01-2.82193E+00-8.13398E+00 6.35048E-13 1.60832E-12
 -1      1743 2.28613E+01 1.98489E+00-2.35612E-02-2.72192E+00-3.04354E-13 1.27717E-12
 -1      1744 1.98260E+01 3.71374E+00-3.54736E-02-2.15180E+00-4.00919E-13-4.20525E-13
 -1      1745 2.00591E+01 3.56275E+00-4.02399E-02-2.44407E+00-4.55153E-13-2.86521E-13
 -1      1746 2.03649E+01 3.18156E+00-4.57886E-02-2.58397E+00-4.60401E-13-1.09052E-13
 -1      1747 2.05853E+01 2.80974E+00-1.42516E-01-2.85233E+00-4.86222E-13 1.38771E-13
 -1      1748 2.04255E+01 2.69289E+00-4.24183E-03-2.22335E+00-4.80795E-13-1.71099E-13
 -1      1749 1.93544E+01 4.18912E+00-2.00356E-02-1.26962E+00-2.49615E-13-6.60024E-13
 -1      1750 1.94287E+01 4.14955E+00-1.68680E-02-1.49398E+00-2.94635E-13-6.28841E-13
 -1      1751 1.92570E+01 4.29511E+00-1.67390E-02-8.58927E-01-1.63657E-13-6.84577E-13
 -1      1752 1.93001E+01 4.27116E+00-1.42179E-02-1.06957E+00-2.03733E-13-6.76896E-13
 -1      1753 1.95262E+01 3.78368E+00-8.91932E-03-1.11859E+00-2.50023E-13-6.45178E-13
 -1      1754 1.92052E+01 4.35553E+00-1.47825E-02-4.66405E-01-7.65964E-14-6.83533E-13
 -1      1755 1.92273E+01 4.34269E+00-1.32901E-02-6.66566E-01-1.17379E-13-6.83745E-13
 -1      1756 1.94282E+01 3.90393E+00-9.13308E-03-7.32574E-01-1.52798E-13-6.60205E-13
 -1      1757 1.91856E+01 4.38113E+00-1.36606E-02-8.35533E-02 1.20467E-14-6.90432E-13
 -1      1758 1.91921E+01 4.37722E+00-1.32053E-02-2.78857E-01-2.83663E-14-6.88666E-13
 -1      1759 1.93776E+01 3.96836E+00-9.13938E-03-3.57999E-01-5.86820E-14-6.60768E-13
 -1      1760 1.91937E+01 4.37583E+00-1.31653E-02 2.97895E-01 8.16144E-14-6.94174E-13
 -1      1761 1.91861E+01 4.38030E+00-1.37473E-02 1.02429E-01 5.08970E-14-6.93350E-13
 -1      1762 1.93627E+01 3.98776E+00-9.13998E-03 1.05462E-02 3.45149E-14-6.69017E-13
 -1      1763 1.92313E+01 4.33861E+00-1.33260E-02 6.86346E-01 1.59349E-13-6.76443E-13
 -1      1764 1.92079E+01 4.35231E+00-1.49170E-02 4.85667E-01 1.25007E-13-6.90491E-13
 -1      1765 1.93803E+01 3.96503E+00-9.18716E-03 3.79277E-01 1.11942E-13-6.66366E-13
 -1      1766 1.93053E+01 4.26517E+00-1.44028E-02 1.08379E+00 2.43378E-13-6.43050E-13
 -1      1767 1.92617E+01 4.28962E+00-1.69828E-02 8.75908E-01 1.99957E-13-6.65024E-13
 -1      1768 1.94335E+01 3.89748E+00-9.19812E-03 7.51154E-01 2.01236E-13-6.43999E-13
 -1      1769 1.94374E+01 4.13793E+00-1.74239E-02 1.51375E+00 3.38620E-13-5.69846E-13
 -1      1770 1.93608E+01 4.18043E+00-2.05199E-02 1.28426E+00 2.87260E-13-6.11251E-13
 -1      1771 1.95337E+01 3.77340E+00-9.25673E-03 1.13474E+00 2.90316E-13-6.04112E-13
 -1      1772 1.96667E+01 3.92154E+00-2.52937E-02 1.97864E+00 4.24209E-13-4.50293E-13
 -1      1773 1.95340E+01 3.99835E+00-2.68990E-02 1.72138E+00 3.73674E-13-5.24077E-13
 -1      1774 1.97073E+01 3.56606E+00-8.88737E-03 1.53450E+00 3.81445E-13-5.18901E-13
 -1      1775 2.00796E+01 3.52264E+00-4.43394E-02 2.47513E+00 5.03986E-13-2.10835E-13
 -1      1776 1.98418E+01 3.68400E+00-3.78951E-02 2.18035E+00 4.55858E-13-3.55386E-13
 -1      1777 2.00026E+01 3.22141E+00-6.52744E-03 1.93095E+00 4.66994E-13-3.67383E-13
 -1      1778 2.09208E+01 2.66927E+00-6.21880E-02 2.85444E+00 5.15335E-13 2.38032E-13
 -1      1779 2.04140E+01 3.10025E+00-4.97165E-02 2.61218E+00 5.00786E-13-3.20161E-14
 -1      1780 2.04992E+01 2.60868E+00-8.30569E-04 2.23770E+00 5.29398E-13-9.76545E-14
 -1      1781 2.17314E+01 1.21146E+00-1.23374E-01 2.32820E+00 4.47746E-13 8.18179E-13
 -1      1782 2.12791E+01 2.27261E+00 3.35743E-03 2.74103E+00 4.82744E-13 4.37747E-13
 -1      1783 2.09615E+01 1.68894E+00-1.35522E-02 2.14497E+00 5.39627E-13 2.44488E-13
 -1      1784 2.09614E+01 7.79007E-01-6.05471E-02 1.52281E+00 4.43381E-13 6.81930E-13
 -1      1785 2.17994E+01 2.45816E+00 9.09012E-02-3.04739E+00-4.10751E-13 5.56305E-13
 -1      1786 2.01073E+01 2.97995E-01-7.86563E-03 6.56702E-01 3.38233E-13 4.80144E-13
 -1      1787 2.06517E+01 4.39243E-01-1.40981E-02 1.03395E+00 3.73264E-13 6.11245E-13
 -1      1788 2.07503E+01 8.46572E-01 5.38169E-03 1.40859E+00 4.40700E-13 3.72407E-13
 -1      1789 2.15097E+01 1.74229E+00 7.94306E-02-2.33626E+00-4.47333E-13 3.80300E-13
 -1      1790 2.05239E+01 5.00607E-01 3.23896E-02-9.20823E-01-3.73614E-13 3.15763E-13
 -1      1791 2.00925E+01 3.52161E-01 7.57198E-03-6.28937E-01-3.30761E-13 2.26455E-13
 -1      1792 1.98982E+01 2.57515E-01 2.74089E-02-3.90303E-01-3.00460E-13 2.22182E-13
 -1      1793 1.97076E+01 1.78133E-01 1.04260E-02-2.52421E-01-2.57809E-13 1.43528E-13
 -1      1794 2.02019E+01 4.83594E-01-5.98396E-03-7.21629E-01-3.64898E-13 4.00921E-14
 -1      1795 1.95858E+01 1.32735E-01 1.66513E-02-1.18926E-01-2.13668E-13 1.23072E-13
 -1      1796 1.95080E+01 9.30799E-02 6.96564E-03-4.81266E-02-1.70671E-13 7.10330E-14
 -1      1797 1.98764E+01 2.43899E-01-5.78973E-03-2.94377E-01-2.86110E-13 3.54361E-15
 -1      1798 1.94433E+01 6.84040E-02 8.67598E-03 2.53974E-02-1.44104E-13 5.32907E-14
 -1      1799 1.94291E+01 4.67108E-02 4.10865E-03 6.15681E-02-1.17956E-13 1.54063E-14
 -1      1800 1.96941E+01 1.25245E-01-4.64058E-03-5.76397E-02-1.95519E-13-3.96267E-14
 -1      1801 1.94032E+01 3.23585E-02 4.22885E-03 1.00256E-01-1.05798E-13 6.39571E-15
 -1      1802 1.94232E+01 1.98985E-02 2.42918E-03 1.17002E-01-8.47443E-14-3.20931E-14
 -1      1803 1.96079E+01 6.09104E-02-3.45765E-03 7.19279E-02-1.39718E-13-9.08568E-14
 -1      1804 1.94216E+01 1.12340E-02 1.84573E-03 1.34859E-01-8.99858E-14-3.68357E-14
 -1      1805 1.94589E+01 4.02106E-03 1.44168E-03 1.40224E-01-8.94430E-14-6.74287E-14
 -1      1806 1.95839E+01 2.39636E-02-2.33008E-03 1.38230E-01-1.09096E-13-1.13897E-13
 -1      1807 1.94715E+01-1.20923E-03 5.42030E-04 1.45493E-01-1.19620E-13-8.48940E-14
 -1      1808 1.95158E+01-5.23617E-03 8.23379E-04 1.44172E-01-1.04144E-13-8.18758E-14
 -1      1809 1.95976E+01 2.33770E-03-1.42708E-03 1.66336E-01-1.25533E-13-1.61587E-13
 -1      1810 1.95357E+01-8.27404E-03-1.82824E-04 1.41962E-01-8.38727E-14-1.12398E-13
 -1      1811 1.95811E+01-1.02955E-02 4.20706E-04 1.36875E-01-6.92991E-14-1.06958E-13
 -1      1812 1.96323E+01-1.00512E-02-7.77719E-04 1.71364E-01-1.24177E-13-1.65550E-13
 -1      1813 1.96040E+01-1.18979E-02-5.73591E-04 1.30465E-01-1.12279E-13-1.13514E-13
 -1      1814 1.96470E+01-1.26453E-02 1.58823E-04 1.23487E-01-9.87197E-14-1.60753E-13
 -1      1815 1.96768E+01-1.66182E-02-3.40273E-04 1.62857E-01-1.16901E-13-1.66196E-13
 -1      1816 1.96701E+01-1.33065E-02-7.59960E-04 1.15008E-01-7.22024E-14-2.10467E-13
 -1      1817 1.97087E+01-1.32568E-02-5.67787E-06 1.07344E-01-2.23987E-14-2.42729E-13
 -1      1818 1.97241E+01-1.94563E-02-6.04786E-05 1.46991E-01-1.25518E-13-1.49884E-13
 -1      1819 1.97304E+01-1.33120E-02-8.18695E-04 9.81767E-02-5.08220E-16-2.64799E-13
 -1      1820 1.97638E+01-1.27836E-02-1.01711E-04 9.05876E-02 5.83491E-16-2.57354E-13
 -1      1821 1.97698E+01-1.99254E-02 1.07445E-04 1.27792E-01-3.10988E-14-2.45365E-13
 -1      1822 1.97832E+01-1.24625E-02-7.98832E-04 8.16046E-02-2.67186E-14-2.37070E-13
 -1      1823 1.98114E+01-1.16678E-02-1.49543E-04 7.45523E-02-2.48737E-14-1.99846E-13
 -1      1824 1.98117E+01-1.89353E-02 1.97804E-04 1.07850E-01-1.06797E-14-2.58858E-13
 -1      1825 1.98281E+01-1.11262E-02-7.32735E-04 6.62812E-02-6.80426E-14-2.53942E-13
 -1      1826 1.98513E+01-1.02028E-02-1.63308E-04 6.00269E-02-7.73918E-14-2.52398E-13
 -1      1827 1.98484E+01-1.70967E-02 2.35294E-04 8.87854E-02-7.98317E-14-2.57027E-13
 -1      1828 1.98654E+01-9.54277E-03-6.41771E-04 5.27674E-02-1.21449E-13-2.93426E-13
 -1      1829 1.98841E+01-8.57414E-03-1.52483E-04 4.74431E-02-9.05526E-14-3.15402E-13
 -1      1830 1.98797E+01-1.48105E-02 2.37330E-04 7.15629E-02-1.24706E-13-2.97174E-13
 -1      1831 1.98958E+01-7.85745E-03-5.39713E-04 4.13504E-02-7.45067E-14-3.64988E-13
 -1      1832 1.99107E+01-6.88685E-03-1.22936E-04 3.70114E-02-6.86807E-14-3.41059E-13
 -1      1833 1.99058E+01-1.23246E-02 2.15884E-04 5.67210E-02-1.02573E-13-3.61735E-13
 -1      1834 1.99204E+01-6.14505E-03-4.34962E-04 3.21582E-02-8.07203E-14-3.92537E-13
 -1      1835 1.99322E+01-5.18590E-03-7.77269E-05 2.88225E-02-7.53478E-14-4.46920E-13
 -1      1836 1.99274E+01-9.77417E-03 1.78829E-04 4.45365E-02-9.53007E-14-3.35514E-13
 -1      1837 1.99403E+01-4.42784E-03-3.32112E-04 2.52454E-02-3.38013E-14-4.10712E-13
 -1      1838 1.99499E+01-3.47143E-03-1.77272E-05 2.29228E-02-5.35114E-14-3.97126E-13
 -1      1839 1.99453E+01-7.20964E-03 1.30985E-04 3.51480E-02-4.55640E-14-3.76408E-13
 -1      1840 1.99569E+01-2.68917E-03-2.33110E-04 2.06565E-02-5.17894E-14-3.49882E-13
 -1      1841 1.99652E+01-1.71065E-03 5.78657E-05 1.93701E-02 5.40605E-14-3.56434E-13
 -1      1842 1.99604E+01-4.61880E-03 7.49346E-05 2.86469E-02-5.81961E-15-2.84670E-13
 -1      1843 1.99716E+01-8.84338E-04-1.38147E-04 1.84721E-02 7.31989E-14-3.53825E-13
 -1      1844 1.99794E+01 1.52271E-04 1.51028E-04 1.82735E-02 1.01262E-13-3.49471E-13
 -1      1845 1.99739E+01-1.94386E-03 1.16651E-05 2.51449E-02 2.94561E-14-2.76921E-13
 -1      1846 1.99860E+01 1.05003E-03-4.63734E-05 1.88406E-02 1.12190E-13-3.09311E-13
 -1      1847 1.99942E+01 2.18701E-03 2.64334E-04 1.98199E-02 3.01908E-14-2.94007E-13
 -1      1848 1.99871E+01 9.04022E-04-5.89045E-05 2.48201E-02 1.34250E-13-2.90159E-13
 -1      1849 2.00016E+01 3.18645E-03 4.35052E-05 2.19976E-02-1.31301E-14-2.01497E-13
 -1      1850 2.00113E+01 4.46669E-03 4.00198E-04 2.42865E-02 7.46224E-14-1.79844E-13
 -1      1851 2.00011E+01 4.03049E-03-1.37443E-04 2.79471E-02 8.16294E-14-2.30139E-13
 -1      1852 2.00203E+01 5.59505E-03 1.32665E-04 2.82685E-02 1.04676E-13-1.65047E-13
 -1      1853 2.00327E+01 7.05431E-03 5.59807E-04 3.20369E-02 1.27482E-13-1.61103E-13
 -1      1854 2.00176E+01 7.54137E-03-2.24715E-04 3.49061E-02 1.13921E-13-1.08360E-13
 -1      1855 2.00441E+01 8.32763E-03 2.21597E-04 3.80539E-02 7.60904E-14-1.33566E-13
 -1      1856 2.00605E+01 9.98328E-03 7.41577E-04 4.34948E-02 5.75722E-14-9.12382E-14
 -1      1857 2.00381E+01 1.15201E-02-3.21045E-04 4.61709E-02 1.02407E-13-1.64283E-13
 -1      1858 2.00753E+01 1.13947E-02 3.09479E-04 5.17865E-02 3.37455E-14-1.97192E-13
 -1      1859 2.00971E+01 1.32291E-02 9.38973E-04 5.90863E-02-5.92335E-14-1.59957E-13
 -1      1860 2.00645E+01 1.59958E-02-4.25681E-04 6.22647E-02 1.58310E-14-2.38375E-13
 -1      1861 2.01163E+01 1.47318E-02 3.93468E-04 6.98503E-02-1.09232E-13-1.63824E-13
 -1      1862 2.01450E+01 1.66685E-02 1.13751E-03 7.91373E-02-7.92354E-14-1.44940E-13
 -1      1863 2.00988E+01 2.08956E-02-5.36033E-04 8.36715E-02-5.01658E-14-2.03514E-13
 -1      1864 2.01698E+01 1.81522E-02 4.67921E-04 9.24455E-02-1.03010E-13-8.34072E-14
 -1      1865 2.02068E+01 2.00222E-02 1.31083E-03 1.03707E-01-3.00517E-14-1.03672E-13
 -1      1866 2.01431E+01 2.59784E-02-6.46759E-04 1.10687E-01-4.21586E-14-1.06818E-13
 -1      1867 2.02381E+01 2.12814E-02 5.23600E-04 1.19377E-01 2.60256E-14-1.61777E-13
 -1      1868 2.02848E+01 2.27796E-02 1.41606E-03 1.32334E-01 1.44397E-13-1.65275E-13
 -1      1869 2.01994E+01 3.07424E-02-7.48707E-04 1.43185E-01-1.15642E-14-3.70780E-14
 -1      1870 2.03234E+01 2.34738E-02 5.47023E-04 1.49749E-01 1.33922E-13-2.86157E-13
 -1      1871 2.03806E+01 2.41066E-02 1.38893E-03 1.63685E-01 2.60696E-16-2.36371E-13
 -1      1872 2.02698E+01 3.43058E-02-8.27743E-04 1.80270E-01 2.76175E-14-1.49594E-13
 -1      1873 2.04272E+01 2.37164E-02 5.20233E-04 1.81540E-01-1.44764E-13-2.20451E-13
 -1      1874 2.04946E+01 2.27467E-02 1.14028E-03 1.95067E-01-1.76952E-13-1.91614E-13
 -1      1875 2.03556E+01 3.52670E-02-8.63532E-04 2.19807E-01-2.37085E-14-2.65975E-13
 -1      1876 2.05490E+01 2.05358E-02 4.21376E-04 2.11063E-01-1.69657E-13-1.24886E-13
 -1      1877 2.06248E+01 1.69464E-02 5.56920E-04 2.21847E-01-1.35324E-13-1.00687E-13
 -1      1878 2.04572E+01 3.15654E-02-8.28305E-04 2.57799E-01-1.11614E-13-2.08639E-13
 -1      1879 2.06861E+01 1.19531E-02 2.26508E-04 2.32342E-01-1.52316E-13-5.64138E-14
 -1      1880 2.07661E+01 4.46574E-03-4.87974E-04 2.36823E-01-5.46165E-14-1.26331E-13
 -1      1881 2.05735E+01 2.04015E-02-6.85630E-04 2.87671E-01-1.18176E-13 1.48596E-14
 -1      1882 2.08318E+01-4.43154E-03-8.71847E-05 2.36528E-01-1.24261E-13-1.49168E-13
 -1      1883 2.09085E+01-1.72105E-02-2.10686E-03 2.29732E-01-9.76117E-14-2.27204E-13
 -1      1884 2.07009E+01-1.67304E-03-3.89074E-04 2.99550E-01-1.11694E-13-6.22088E-14
 -1      1885 2.09743E+01-3.10785E-02-5.37354E-04 2.11617E-01-6.40971E-14-3.24582E-13
 -1      1886 2.10360E+01-5.02773E-02-4.34273E-03 1.87261E-01-4.86539E-14-3.72366E-13
 -1      1887 2.08322E+01-3.82957E-02 1.19133E-04 2.79829E-01-1.85227E-13-1.79283E-13
 -1      1888 2.10948E+01-6.96588E-02-1.13315E-03 1.42965E-01 3.55549E-14-4.15847E-13
 -1      1889 2.11254E+01-9.53914E-02-7.07885E-03 9.41628E-02 2.02035E-14-3.81991E-13
 -1      1890 2.09557E+01-9.21683E-02 9.08212E-04 2.11483E-01-1.85937E-14-2.51850E-13
 -1      1891 2.11669E+01-1.19476E-01-1.87357E-03 1.53664E-02 3.96840E-14-2.49235E-13
 -1      1892 2.11462E+01-1.49641E-01-9.92052E-03-6.36131E-02 6.98894E-14-1.85059E-13
 -1      1893 2.10538E+01-1.62926E-01 2.05346E-03 7.59816E-02 1.02127E-13-1.04189E-13
 -1      1894 2.11564E+01-1.75071E-01-2.75023E-03-1.82289E-01 1.22078E-13-9.15427E-14
 -1      1895 2.10631E+01-2.03850E-01-1.20882E-02-2.92829E-01 7.68847E-14-9.96290E-15
 -1      1896 2.11021E+01-2.43831E-01 3.60910E-03-1.42119E-01 1.54388E-13-7.07891E-14
 -1      1897 2.10245E+01-2.23474E-01-3.72945E-03-4.49009E-01 5.20235E-14-1.68212E-14
 -1      1898 2.08411E+01-2.40203E-01-1.24122E-02-5.83540E-01 8.28153E-14-7.07338E-14
 -1      1899 2.10696E+01-3.17857E-01 5.52995E-03-4.46815E-01 1.25903E-13 3.59943E-14
 -1      1900 2.07351E+01-2.42672E-01-4.69394E-03-7.60812E-01-2.22222E-14 1.67947E-14
 -1      1901 2.04557E+01-2.32553E-01-9.58967E-03-8.97944E-01-1.60774E-13-4.41079E-14
 -1      1902 2.09212E+01-3.55144E-01 7.53666E-03-8.18466E-01 2.10227E-14 1.80628E-14
 -1      1903 2.02681E+01-2.04344E-01-5.34066E-03-1.06039E+00-2.56972E-13-1.07414E-13
 -1      1904 1.99085E+01-1.52948E-01-2.83737E-03-1.16277E+00-2.32233E-13-8.22285E-14
 -1      1905 2.06256E+01-3.15843E-01 8.91803E-03-1.20051E+00-2.29570E-13 6.75454E-14
 -1      1906 1.96395E+01-8.43774E-02-5.01886E-03-1.25522E+00-1.38119E-13-2.65890E-14
 -1      1907 1.92442E+01 1.30550E-02 7.13688E-03-1.27475E+00 9.63184E-14-1.07067E-13
 -1      1908 2.01702E+01-1.63445E-01 8.42182E-03-1.49270E+00-9.74882E-14 1.89840E-13
 -1      1909 1.89212E+01 1.18093E-01-2.83166E-03-1.23532E+00 3.60775E-13-2.18539E-13
 -1      1910 1.85623E+01 2.45679E-01 1.74560E-02-1.12964E+00 4.18635E-13-1.02676E-13
 -1      1911 1.95827E+01 1.10104E-01 4.66506E-03-1.56371E+00 1.14889E-13 1.13954E-13
 -1      1912 1.82471E+01 3.61595E-01 1.90454E-03-9.17553E-01 4.37838E-13 3.27516E-14
 -1      1913 1.80100E+01 4.78551E-01 2.37066E-02-6.75517E-01 4.60606E-13 3.07346E-13
 -1      1914 1.89511E+01 4.56836E-01-2.65065E-03-1.29507E+00 4.91893E-13-5.82607E-14
 -1      1915 1.77872E+01 5.60007E-01 8.56456E-03-3.04893E-01 2.94674E-13 3.08425E-13
 -1      1916 1.77424E+01 6.10436E-01 2.17212E-02 3.07605E-02 2.89999E-13 3.23845E-13
 -1      1917 1.84193E+01 7.65299E-01-1.13513E-02-6.51854E-01 4.06054E-13 1.85443E-13
 -1      1918 1.76884E+01 6.07529E-01 1.49264E-02 4.70805E-01 5.71678E-14 2.57446E-13
 -1      1919 1.78594E+01 5.44184E-01 1.12148E-02 7.98340E-01-1.12074E-13 1.19334E-13
 -1      1920 1.81450E+01 8.86626E-01-1.79016E-02 2.54532E-01 6.89396E-14 1.72588E-14
 -1      1921 1.80036E+01 4.22962E-01 1.88040E-02 1.16032E+00-1.65006E-13 1.39604E-13
 -1      1922 1.83420E+01 2.24098E-01-5.25669E-03 1.34340E+00-1.79365E-13 2.24992E-13
 -1      1923 1.82282E+01 6.99459E-01-1.79309E-02 1.15635E+00-1.85183E-13 3.61469E-14
 -1      1924 1.86323E+01 1.06031E-02 2.09112E-02 1.43665E+00-1.81013E-13 2.62641E-13
 -1      1925 1.90226E+01-2.87548E-01-2.39812E-02 1.35433E+00-4.87650E-14 6.55500E-14
 -1      1926 1.92336E+01-4.98597E-01-2.83041E-03 1.59096E+00-1.34172E-13-1.94080E-13
 -1      1927 1.86379E+01 1.49845E-01-1.59323E-02 1.68550E+00-1.76020E-13 1.09643E-14
 -1      1928 2.44644E+01-2.74784E+00-5.49953E-02-1.10154E+01 1.66145E-13 2.01020E-14
 -1      1929 2.31205E+01 6.43603E-01 3.35341E-02-1.31093E+01 1.18919E-13 5.91964E-13
 -1      1930 1.96230E+01 1.39915E-01 7.45497E-03 2.57394E-01 2.24511E-13 3.12384E-13
 -1      1931 1.98901E+01 2.04405E-01 1.54335E-02 4.30685E-01 2.62733E-13 4.23037E-13
 -1      1932 2.01074E+01 3.57443E-01 2.15292E-03 6.56406E-01 3.27455E-13 2.56069E-13
 -1      1933 1.93811E+01 7.22063E-02 6.81824E-03 5.57162E-02 2.23093E-13 1.70888E-13
 -1      1934 1.94953E+01 1.01959E-01 1.40047E-02 1.44564E-01 2.02942E-13 2.50099E-13
 -1      1935 1.97154E+01 1.63728E-01-2.01829E-03 2.56060E-01 2.67275E-13 1.29627E-13
 -1      1936 1.92915E+01 3.62184E-02 4.36670E-03-5.02144E-02 1.20553E-13 7.16037E-14
 -1      1937 1.93212E+01 5.21659E-02 8.26048E-03-2.86479E-03 1.58591E-13 1.33213E-13
 -1      1938 1.95138E+01 8.10667E-02-2.97040E-03 4.29750E-02 2.17749E-13 6.59976E-15
 -1      1939 1.92905E+01 1.62521E-02 2.85827E-03-1.02763E-01 7.19219E-14 3.30617E-15
 -1      1940 1.92748E+01 2.51008E-02 4.31339E-03-7.80793E-02 8.65692E-14 6.74192E-14
 -1      1941 1.94356E+01 3.75212E-02-2.88980E-03-6.90992E-02 1.19326E-13-6.13715E-14
 -1      1942 1.93386E+01 4.63988E-03 1.99403E-03-1.24953E-01 7.00040E-14-2.47493E-14
 -1      1943 1.92997E+01 9.66741E-03 2.14215E-03-1.13459E-01 5.35531E-14-7.86025E-15
 -1      1944 1.94297E+01 1.37154E-02-2.32432E-03-1.24753E-01 7.67863E-14-1.03958E-13
 -1      1945 1.94109E+01-2.15532E-03 1.45088E-03-1.29263E-01 1.77964E-14-2.74802E-15
 -1      1946 1.93619E+01 5.98657E-04 9.48335E-04-1.25696E-01 7.91626E-14 1.46118E-15
 -1      1947 1.94649E+01 1.51079E-04-1.69381E-03-1.47423E-01 6.60457E-14-9.17851E-14
 -1      1948 1.94923E+01-5.95336E-03 1.06769E-03-1.23189E-01 6.72764E-14-9.78750E-14
 -1      1949 1.94408E+01-4.61532E-03 2.73273E-04-1.24357E-01 3.62252E-14-2.89016E-14
 -1      1950 1.95211E+01-7.47432E-03-1.16997E-03-1.50515E-01 7.65401E-14-8.82006E-14
 -1      1951 1.95734E+01-7.82596E-03 7.80783E-04-1.11465E-01 7.94679E-14-1.07226E-13
 -1      1952 1.95239E+01-7.37843E-03-1.12854E-04-1.15325E-01 8.00165E-14-1.17165E-13
 -1      1953 1.95857E+01-1.14255E-02-7.76936E-04-1.42276E-01 8.88223E-14-1.35820E-13
 -1      1954 1.96489E+01-8.45960E-03 5.62557E-04-9.71369E-02 7.59238E-14-1.28562E-13
 -1      1955 1.96040E+01-8.56203E-03-3.25131E-04-1.02353E-01 7.88464E-14-1.29687E-13
 -1      1956 1.96508E+01-1.30495E-02-4.94433E-04-1.27961E-01 8.43385E-14-1.66360E-13
 -1      1957 1.97161E+01-8.31349E-03 3.97201E-04-8.21519E-02 1.01137E-13-1.29627E-13
 -1      1958 1.96768E+01-8.73915E-03-4.27430E-04-8.78561E-02 8.82068E-14-9.91030E-14
 -1      1959 1.97118E+01-1.32088E-02-2.96318E-04-1.10961E-01 7.22608E-14-1.84864E-13
 -1      1960 1.97738E+01-7.69915E-03 2.73531E-04-6.77220E-02 1.16917E-13-2.43856E-13
 -1      1961 1.97406E+01-8.29669E-03-4.59328E-04-7.33620E-02 1.19665E-13-1.51912E-13
 -1      1962 1.97663E+01-1.24769E-02-1.60686E-04-9.34400E-02 1.49867E-13-1.59294E-13
 -1      1963 1.98221E+01-6.82555E-03 1.83031E-04-5.45618E-02 2.34421E-15-2.02132E-13
 -1      1964 1.97946E+01-7.49604E-03-4.46895E-04-5.98007E-02 4.91660E-14-2.21328E-13
 -1      1965 1.98133E+01-1.12379E-02-7.09258E-05-7.67381E-02 7.11599E-14-1.07532E-13
 -1      1966 1.98615E+01-5.82773E-03 1.19209E-04-4.30564E-02-6.50605E-15-2.18647E-13
 -1      1967 1.98393E+01-6.50955E-03-4.07535E-04-4.77015E-02-1.41217E-15-2.28085E-13
 -1      1968 1.98528E+01-9.74405E-03-1.48021E-05-6.16422E-02 2.50440E-14-1.60239E-13
 -1      1969 1.98931E+01-4.78605E-03 7.72788E-05-3.33834E-02 1.04645E-13-2.54943E-13
 -1      1970 1.98755E+01-5.44456E-03-3.52633E-04-3.73343E-02 4.32424E-14-2.20949E-13
 -1      1971 1.98852E+01-8.15258E-03 1.65671E-05-4.85763E-02 3.15720E-14-2.20516E-13
 -1      1972 1.99183E+01-3.73960E-03 5.39569E-05-2.56033E-02 1.03660E-13-3.56941E-13
 -1      1973 1.99044E+01-4.35978E-03-2.89226E-04-2.88127E-02 8.65333E-14-3.02884E-13
 -1      1974 1.99115E+01-6.55006E-03 2.94634E-05-3.77412E-02 1.20972E-13-2.18718E-13
 -1      1975 1.99383E+01-2.69557E-03 4.73277E-05-1.97282E-02 5.15729E-15-3.26407E-13
 -1      1976 1.99274E+01-3.27677E-03-2.21141E-04-2.21715E-02 7.09825E-14-2.99115E-13
 -1      1977 1.99327E+01-4.96974E-03 2.80843E-05-2.92188E-02 6.34374E-14-3.38854E-13
 -1      1978 1.99547E+01-1.63596E-03 5.68004E-05-1.57753E-02-1.31476E-13-2.89675E-13
 -1      1979 1.99460E+01-2.18814E-03-1.49776E-04-1.74270E-02-6.54015E-14-3.11625E-13
 -1      1980 1.99502E+01-3.40360E-03 1.49399E-05-2.30520E-02-3.41578E-14-2.96322E-13
 -1      1981 1.99691E+01-5.21751E-04 8.31557E-05-1.38092E-02-1.05321E-13-2.95531E-13
 -1      1982 1.99616E+01-1.06296E-03-7.46477E-05-1.46231E-02-1.17761E-13-3.02242E-13
 -1      1983 1.99651E+01-1.81053E-03-8.84100E-06-1.93068E-02-1.07518E-13-2.89647E-13
 -1      1984 1.99832E+01 7.05181E-04 1.28679E-04-1.39789E-02-3.43178E-14-2.42201E-13
 -1      1985 1.99759E+01 1.50124E-04 6.24893E-06-1.38709E-02-9.03342E-14-2.91262E-13
 -1      1986 1.99790E+01-1.21097E-04-4.33034E-05-1.81239E-02-7.35731E-14-2.88000E-13
 -1      1987 1.99990E+01 2.12237E-03 1.97399E-04-1.65519E-02 2.53554E-13-2.66567E-13
 -1      1988 1.99909E+01 1.52217E-03 9.62318E-05-1.53835E-02 1.50373E-13-2.28539E-13
 -1      1989 1.99936E+01 1.76095E-03-8.95365E-05-1.97631E-02 1.44095E-13-2.49713E-13
 -1      1990 2.00186E+01 3.82944E-03 2.95469E-04-2.19508E-02-2.75479E-14-3.30230E-13
 -1      1991 2.00084E+01 3.14559E-03 1.99859E-04-1.95108E-02 1.62983E-13-2.66879E-13
 -1      1992 2.00107E+01 3.96050E-03-1.49592E-04-2.46480E-02 1.81445E-13-1.97152E-13
 -1      1993 2.00449E+01 5.95343E-03 4.31749E-04-3.07959E-02-1.34917E-13-3.23141E-13
 -1      1994 2.00311E+01 5.13832E-03 3.22976E-04-2.67786E-02-1.57092E-13-3.87926E-13
 -1      1995 2.00324E+01 6.63645E-03-2.26436E-04-3.34132E-02-9.18846E-14-3.16477E-13
 -1      1996 2.00810E+01 8.65756E-03 6.18629E-04-4.39583E-02-8.31784E-14-2.90996E-13
 -1      1997 2.00617E+01 7.65116E-03 4.72865E-04-3.79360E-02-1.00865E-13-3.25278E-13
 -1      1998 2.00615E+01 9.99134E-03-3.23933E-04-4.69626E-02-1.34269E-13-3.44596E-13
 -1      1999 2.01311E+01 1.21540E-02 8.73124E-04-6.26315E-02 9.40140E-14-3.20107E-13
 -1      2000 2.01040E+01 1.08790E-02 6.58479E-04-5.40171E-02 3.04311E-14-2.78421E-13
 -1      2001 2.01011E+01 1.42863E-02-4.46836E-04-6.65408E-02 5.31201E-14-3.25385E-13
 -1      2002 2.02004E+01 1.67216E-02 1.21819E-03-8.84254E-02 7.55103E-14-9.77599E-14
 -1      2003 2.01625E+01 1.50765E-02 8.90666E-04-7.64224E-02 1.11201E-13-1.91278E-13
 -1      2004 2.01553E+01 1.98622E-02-6.00783E-04-9.38294E-02 8.35707E-14-1.20402E-13
 -1      2005 2.02955E+01 2.27280E-02 1.68394E-03-1.23492E-01-1.58425E-14-1.67895E-13
 -1      2006 2.02430E+01 2.05791E-02 1.18220E-03-1.07027E-01-1.69163E-14-1.00053E-13
 -1      2007 2.02289E+01 2.71677E-02-7.92280E-04-1.31071E-01 1.07100E-14-3.66755E-14
 -1      2008 2.04249E+01 3.06528E-02 2.30795E-03-1.70686E-01-3.21660E-14-1.50857E-13
 -1      2009 2.03527E+01 2.78268E-02 1.54715E-03-1.48317E-01-2.68930E-14-1.17688E-13
 -1      2010 2.03281E+01 3.67920E-02-1.02873E-03-1.81227E-01-7.00633E-15 2.55177E-14
 -1      2011 2.05991E+01 4.11000E-02 3.13234E-03-2.33745E-01-2.11682E-14-1.40095E-13
 -1      2012 2.05008E+01 3.73830E-02 1.99857E-03-2.03559E-01-4.92904E-14-1.87397E-13
 -1      2013 2.04606E+01 4.94914E-02-1.31873E-03-2.48165E-01-3.28004E-14 1.15729E-13
 -1      2014 2.08315E+01 5.47695E-02 4.19293E-03-3.17451E-01-9.61178E-14-2.46688E-13
 -1      2015 2.06988E+01 4.99291E-02 2.54234E-03-2.76955E-01-3.32824E-14-2.61692E-13
 -1      2016 2.06356E+01 6.61842E-02-1.67316E-03-3.36835E-01 1.82272E-14-3.49359E-14
 -1      2017 2.11385E+01 7.23147E-02 5.49041E-03-4.27644E-01 9.88550E-14-3.89505E-13
 -1      2018 2.09611E+01 6.61809E-02 3.16323E-03-3.73717E-01-2.87665E-14-3.42930E-13
 -1      2019 2.08643E+01 8.78433E-02-2.10891E-03-4.53344E-01-1.47451E-15-2.82931E-13
 -1      2020 2.15394E+01 9.39270E-02 6.92614E-03-5.70765E-01-4.49376E-14-6.55220E-14
 -1      2021 2.13049E+01 8.66112E-02 3.79629E-03-4.99825E-01 2.60018E-14-2.72432E-13
 -1      2022 2.11598E+01 1.15134E-01-2.65816E-03-6.04672E-01-2.81043E-14-2.17805E-13
 -1      2023 2.20556E+01 1.18315E-01 8.17847E-03-7.52270E-01-6.63796E-14-1.51401E-13
 -1      2024 2.17500E+01 1.10732E-01 4.27648E-03-6.60991E-01-1.73954E-14 1.61519E-14
 -1      2025 2.15365E+01 1.47469E-01-3.38801E-03-7.97498E-01-7.32435E-14-2.05090E-15
 -1      2026 2.27068E+01 1.40466E-01 8.50559E-03-9.72491E-01 7.94208E-14-1.60296E-13
 -1      2027 2.23172E+01 1.35450E-01 4.26890E-03-8.59810E-01-5.89737E-14-1.86840E-13
 -1      2028 2.20086E+01 1.80836E-01-4.43066E-03-1.03505E+00 3.00658E-14-1.13037E-13
 -1      2029 2.35047E+01 1.47220E-01 6.53207E-03-1.21743E+00-9.62702E-14-2.25795E-13
 -1      2030 2.30245E+01 1.51673E-01 3.22055E-03-1.08922E+00 6.27241E-14-2.19032E-13
 -1      2031 2.25883E+01 2.03315E-01-6.00245E-03-1.30991E+00 1.20707E-13-5.74796E-14
 -1      2032 2.44385E+01 1.09898E-01 2.46288E-04-1.44055E+00-2.46076E-13-9.39405E-14
 -1      2033 2.38794E+01 1.38163E-01 4.82062E-04-1.31920E+00-9.94985E-14-1.15036E-13
 -1      2034 2.32813E+01 1.86922E-01-8.33498E-03-1.58959E+00-1.20408E-13 1.24694E-13
 -1      2035 2.54551E+01-2.40610E-02-1.20389E-02-1.53202E+00 1.28985E-14-7.27682E-14
 -1      2036 2.48654E+01 5.27003E-02-4.26969E-03-1.47316E+00-1.89668E-13-8.09856E-14
 -1      2037 2.40827E+01 7.60747E-02-1.13697E-02-1.79100E+00-1.64029E-13 3.35079E-14
 -1      2038 2.64289E+01-3.28286E-01-2.86598E-02-1.28328E+00-1.67992E-13-3.67935E-14
 -1      2039 2.59191E+01-1.71942E-01-9.52067E-03-1.39537E+00-7.24750E-14-8.99142E-14
 -1      2040 2.49709E+01-2.18024E-01-1.34759E-02-1.74447E+00-6.16339E-14-7.94677E-14
 -1      2041 2.71449E+01-8.48201E-01-3.95951E-02-3.71055E-01-1.81938E-13 6.35637E-14
 -1      2042 2.69032E+01-6.10037E-01-1.05318E-02-8.26570E-01-2.07227E-13-5.27009E-14
 -1      2043 2.59025E+01-7.98264E-01-1.06661E-02-1.16602E+00-2.63914E-13-1.26767E-13
 -1      2044 2.72490E+01-1.43234E+00-3.84210E-02 1.47657E+00-2.76432E-13 2.10172E-13
 -1      2045 2.75245E+01-1.21974E+00-1.15065E-02 5.37664E-01-2.14703E-13 7.58876E-14
 -1      2046 2.67599E+01-1.60069E+00 5.97749E-03 3.08252E-01-2.27419E-13 5.38927E-14
 -1      2047 2.63476E+01-1.57678E+00-2.34812E-02 4.09450E+00-9.64714E-14 4.32127E-13
 -1      2048 2.73441E+01-1.67542E+00-2.37830E-02 2.75052E+00-1.11751E-13 4.33889E-13
 -1      2049 2.72617E+01-2.26021E+00 5.16662E-03 2.80169E+00-2.43448E-13 3.10705E-13
 -1      2050 2.40701E+01-5.05126E-01-4.15098E-02 6.10371E+00-7.95197E-15 3.60101E-13
 -1      2051 2.57720E+01-1.17834E+00-6.51273E-02 5.09124E+00-3.35669E-14 3.32769E-13
 -1      2052 2.68847E+01-1.70219E+00-5.76470E-03 5.67512E+00 3.16240E-14 3.27597E-13
 -1      2053 2.09246E+01 1.53461E+00-1.32383E-01 5.40960E+00-2.35922E-16 2.47517E-13
 -1      2054 2.28786E+01 6.24474E-01-1.15528E-01 5.77891E+00 7.50511E-14 3.74145E-13
 -1      2055 2.52828E+01 5.25903E-01-7.87442E-02 6.84296E+00 8.50986E-14 2.61204E-13
 -1      2056 1.86823E+01 2.61957E+00-2.16162E-01 1.71575E+00 3.65791E-13 5.71175E-14
 -1      2057 1.99734E+01 2.39906E+00-1.24845E-01 3.46973E+00 9.84768E-14 2.01490E-13
 -1      2058 2.31867E+01 3.06535E+00-1.62868E-01 4.52825E+00 1.13826E-13-2.49254E-14
 -1      2059 1.85411E+01 1.65232E+00-1.67358E-01-2.11465E+00 2.71033E-13 2.55802E-13
 -1      2060 1.85821E+01 2.29682E+00-9.78160E-02-3.94394E-01 2.04337E-13 1.26399E-13
 -1      2061 2.19948E+01 3.40679E+00-1.46538E-01 5.03165E-02 2.50133E-13-2.22718E-13
 -1      2062 1.93742E+01 1.43313E-01-2.61780E-02-3.48127E+00 1.28540E-13 2.29435E-13
 -1      2063 1.86460E+01 7.93424E-01-6.27139E-02-2.86121E+00 2.74183E-13 2.68813E-13
 -1      2064 2.16986E+01 1.54301E+00-6.94796E-02-3.02745E+00 2.55018E-13 3.70131E-13
 -1      2065 1.99789E+01-7.37392E-01 3.42559E-02-3.00706E+00-1.64618E-13 3.24289E-14
 -1      2066 1.92439E+01-2.45306E-01-4.60693E-02-3.23616E+00-6.48977E-14 6.48093E-14
 -1      2067 2.15386E+01-1.88040E-01-4.73302E-02-3.47408E+00 1.11536E-13 2.43885E-13
 -1      2068 2.12612E+01-1.21430E+00 6.93196E-02-2.87334E+00-2.01068E-13 6.54372E-14
 -1      2069 2.39368E+01-3.55674E-01 3.96373E-02 1.27593E+01-2.20934E-13-7.35620E-13
 -1      2070 2.64191E+01-2.38117E+00-1.54304E-02 1.05135E+01-2.90462E-13-5.44037E-13
 -1      2071 2.70064E+01-1.61893E+00 4.43037E-02 6.30093E+00-1.86420E-13-4.03205E-13
 -1      2072 2.60515E+01-2.57565E+00-1.37387E-01 2.84967E+00-9.65478E-14-3.32012E-13
 -1      2073 2.92998E+01-3.28978E+00 7.01121E-03 8.30431E+00-7.17343E-14-5.38042E-13
 -1      2074 8.15831E+00 4.78554E+00-1.97664E-01 5.97435E-01-9.94205E-14 3.01315E-13
 -1      2075 9.81565E+00 3.62631E+00-2.83044E-01 6.21106E+00-1.11661E-13 1.05027E-13
 -1      2076 2.46752E+01-1.69247E+00 8.63621E-02 3.20052E-01-3.46129E-14-1.90292E-13
 -1      2077 2.27138E+01-1.70298E+00-1.01271E-01-1.70149E+00-1.45876E-13 3.18912E-14
 -1      2078 2.33600E+01-1.17629E+00-1.15077E-01-2.22308E+00 8.94250E-14 1.10675E-13
 -1      2079 2.75219E+01-1.92515E+00-3.95498E-02 1.47239E+00-7.34343E-14-2.35229E-13
 -1      2080 2.42015E+01-5.31243E+00-1.69805E-01-4.47297E+00-8.22615E-14-8.10407E-13
 -1      2081 2.49585E+01-3.02196E+00 3.65942E-02-7.63996E+00 7.34968E-14-5.21055E-13
 -1      2082 2.19717E+01-5.45054E+00-1.05086E-01 2.22165E-01-1.04292E-13-6.79873E-13
 -1      2083 2.32300E+01-4.77742E+00 7.52331E-02-1.60641E+00 6.93820E-14-4.99822E-13
 -1      2084 2.04919E+01-4.81131E+00-1.28710E-02 2.15176E+00 1.44190E-14-1.33824E-13
 -1      2085 2.12303E+01-5.17559E+00 8.10253E-02 1.50300E+00-7.35523E-16-6.14980E-13
 -1      2086 2.25159E+01-2.60152E+00-4.94731E-02 9.40178E-01-1.23219E-13-5.80327E-13
 -1      2087 1.98843E+01-3.80328E+00 1.78564E-02 2.53000E+00-1.09066E-13 1.67585E-13
 -1      2088 2.01922E+01-4.61919E+00 4.84047E-02 2.47343E+00 9.15934E-15 1.71661E-13
 -1      2089 2.05866E+01-2.38850E+00-2.17688E-02 2.62989E+00-1.01676E-13 7.88015E-14
 -1      2090 1.97049E+01-2.69678E+00 1.42049E-02 2.28766E+00-1.20765E-13-7.02533E-14
 -1      2091 1.98079E+01-3.58443E+00 1.47217E-02 2.44572E+00-4.81351E-14-4.86286E-15
 -1      2092 1.97878E+01-2.04682E+00-1.22457E-02 2.91021E+00-1.99143E-13-1.46808E-13
 -1      2093 1.96306E+01-1.66790E+00-3.45581E-05 1.84533E+00-5.84532E-14-2.47321E-13
 -1      2094 1.97199E+01-2.43433E+00 2.61940E-03 2.06470E+00-2.52375E-13-2.69354E-13
 -1      2095 1.95547E+01-1.55001E+00-6.94028E-04 2.60502E+00-1.72426E-13-2.21365E-13
 -1      2096 7.78114E+00 2.88634E+00-3.94870E-01-4.72363E+00-1.01419E-13 8.08131E-13
 -1      2097 3.02601E+01-2.59049E+00 7.85903E-02 1.20803E+01 1.77525E-13-7.61002E-13
 -1      2098 2.43381E+01-4.96203E+00-2.92142E-01 1.23417E+01 1.06137E-13-3.84026E-13
 -1      2099 1.95185E+01 4.01585E+00-2.70063E-02-1.70201E+00-3.27092E-13-5.77939E-13
 -1      2100 1.96467E+01 3.94628E+00-2.46200E-02-1.95330E+00-3.82073E-13-5.01935E-13
 -1      2101 1.99720E+01 3.24711E+00-1.38928E-02-1.91742E+00-4.07681E-13-4.33738E-13
 -1      2102 1.96971E+01 3.58530E+00-7.20930E-03-1.52001E+00-3.34765E-13-5.66481E-13
 -1      2103 4.60417E+01 6.69758E+00 4.28678E-01 5.88466E+00-1.45134E-13-6.15952E-13
 -1      2104 4.30118E+01 5.21042E+00 4.03753E-01 7.47091E+00-1.80439E-13-3.81140E-13
 -1      2105 4.95390E+01 9.27976E+00 5.92841E-01 4.34319E+00-3.19744E-14-7.06629E-13
 -1      2106 4.62459E+01 8.80866E+00 3.11973E-01 4.59208E+00-1.51934E-13-5.98521E-13
 -1      2107 4.78000E+01 8.90361E+00 3.28396E-01 3.52440E+00 2.21601E-13-7.23865E-13
 -1      2108 4.96318E+01 9.36110E+00 5.20107E-01 4.42713E+00 2.86438E-14-6.90697E-13
 -1      2109 4.16680E+01 1.02501E+01 4.55894E-01 3.01717E+00-1.02363E-13-8.25534E-13
 -1      2110 4.55651E+01 4.83399E+00 2.42615E-01 2.09484E+00 6.90836E-13-5.01821E-13
 -1      2111 4.77849E+01 6.82958E+00 3.65150E-01 3.50235E+00 4.93550E-13-4.66738E-13
 -1      2112 3.88732E+01-1.69431E-02-4.72161E-02 3.34914E-01 7.10980E-13-5.29798E-13
 -1      2113 4.46293E+01 2.41060E+00 3.97015E-01 8.03655E-01 7.13846E-13-5.06040E-13
 -1      2114 4.10019E+01 3.53768E+00 3.65120E-01 4.97708E+00 6.33549E-13-4.21774E-13
 -1      2115 2.87092E+01-5.26064E+00-2.93700E-01-2.97723E+00 5.19307E-13-5.24691E-13
 -1      2116 3.52863E+01-3.12355E+00 5.44663E-02-2.32947E+00 5.50615E-13-4.03455E-13
 -1      2117 1.74012E+01-8.64897E+00-5.18764E-01-4.42615E+00 1.77969E-13-9.23761E-13
 -1      2118 2.37886E+01-6.25671E+00-1.05778E-01-5.13149E+00 3.24074E-13-6.56142E-13
 -1      2119 8.26263E+00-1.09316E+01-5.10823E-01-4.19173E+00 3.88245E-13-4.74343E-13
 -1      2120 1.29724E+01-8.98672E+00-2.16858E-01-5.32676E+00 2.49356E-13-8.88928E-13
 -1      2121 2.29503E+00-1.07845E+01-3.27628E-01-2.93635E+00 5.72542E-13-4.39426E-13
 -1      2122 4.76048E+00-1.06507E+01-3.66042E-01-3.82278E+00 5.69322E-13-3.27266E-13
 -1      2123 9.34047E+00-9.40205E+00-1.81721E-01-5.42699E+00 3.84803E-13-3.86607E-13
 -1      2124-7.24300E-01-1.08659E+01-3.96778E-01 9.88088E-01 2.64129E-13-3.90910E-13
 -1      2125-1.21654E-01-1.00828E+01-2.69833E-01-6.61191E-01 5.01765E-13-5.02209E-13
 -1      2126 1.98205E+00-9.87910E+00-2.39466E-01 4.25092E+00 1.06359E-13-1.57097E-13
 -1      2127 2.73058E-01-1.06339E+01-3.26161E-01 2.89272E+00 2.88075E-13-2.79554E-13
 -1      2128 7.99071E+00-8.31155E+00-1.60673E-01 6.53173E+00-7.07212E-14-1.35003E-13
 -1      2129 4.37918E+00-1.04282E+01-4.12697E-01 5.15218E+00 9.11493E-14-1.51990E-13
 -1      2130 4.90858E+00-7.86356E+00-1.34264E-01 6.02926E+00 3.00537E-13-1.32228E-13
 -1      2131 1.81309E+01-5.81523E+00-3.40364E-02 7.39340E+00-2.54463E-13 1.63647E-13
 -1      2132 1.28323E+01-8.21918E+00-3.51122E-01 6.43972E+00-2.29150E-13-6.24362E-14
 -1      2133 2.89817E+01-2.17312E+00 1.34033E-01 6.23112E+00-4.84612E-14-4.92717E-13
 -1      2134 2.34016E+01-4.79705E+00-2.09071E-01 5.88873E+00-2.58960E-13-4.21885E-14
 -1      2135 3.75321E+01 1.43696E+00 1.34127E-01 3.54178E+00 2.18839E-13-5.70433E-13
 -1      2136 3.20684E+01-5.04776E-01-1.11446E-01 4.53274E+00 1.13354E-13-5.80647E-13
 -1      2137 3.18186E+01-3.26609E+00 1.36227E-01 3.03818E+00 5.65381E-14-4.82447E-13
 -1      2138 4.47160E+01 5.96208E+00 2.84461E-01 2.21884E-01-3.44502E-13-2.11497E-14
 -1      2139 4.00298E+01 4.30721E+00-2.69028E-02 1.20966E+00-9.85323E-14-3.22853E-13
 -1      2140 4.68832E+01 9.15136E+00 2.03738E-01-2.95234E+00-5.72764E-13 1.54377E-13
 -1      2141 4.55992E+01 7.73693E+00 1.43099E-01-9.13407E-01-5.16254E-13 1.16018E-13
 -1      2142 4.03235E+01 7.81230E+00 2.88732E-01-3.02046E+00-5.10536E-13-1.08913E-13
 -1      2143 4.81565E+01 1.09242E+01 3.97965E-01-5.96180E+00 1.46383E-13 1.37723E-13
 -1      2144 4.77110E+01 1.04162E+01 2.33267E-01-3.98647E+00-2.15383E-13 3.50969E-14
 -1      2145 4.57350E+01 1.04864E+01 4.39275E-01-8.92629E+00 8.27671E-14 1.99563E-13
 -1      2146 4.78185E+01 1.06363E+01 4.40338E-01-7.18273E+00 2.78721E-13 3.65041E-13
 -1      2147 3.95508E+01 7.63636E+00 3.05757E-01-1.03762E+01-4.52666E-13-1.44329E-15
 -1      2148 4.41260E+01 9.31676E+00 6.55407E-01-1.00457E+01-1.61399E-13 7.41629E-14
 -1      2149 3.21697E+01 2.44115E+00 1.73962E-01-1.24487E+01-1.06670E-12-1.13243E-13
 -1      2150 3.71045E+01 5.31909E+00 5.79008E-01-1.22341E+01-9.01723E-13-2.33591E-13
 -1      2151 2.41077E+01-2.69384E+00-1.18927E-01-1.41269E+01-6.69020E-13 7.33857E-14
 -1      2152 2.92284E+01 1.06163E+00 4.03033E-01-1.46259E+01-8.27005E-13 4.05231E-14
 -1      2153 3.22115E+01-5.97483E-01 3.35502E-01-1.20640E+01-7.48124E-13-1.50269E-13
 -1      2154 1.37179E+01-4.92142E+00-5.79987E-01-1.37390E+01-1.74305E-14 1.11777E-12
 -1      2155 1.88168E+01-2.48986E+00-9.25108E-02-1.56437E+01-3.54716E-13 4.35735E-13
 -1      2156 4.05966E+01 2.94137E+00 5.60949E-01 9.11501E+00 8.41549E-14-4.48086E-13
 -1      2157 3.48218E+01-5.88153E-01 4.96265E-02 8.62745E+00 2.73559E-13-6.45706E-13
 -1      2158 3.95882E+01 1.89997E+00 3.20046E-01 4.59284E+00-3.02675E-14-5.90195E-13
 -1      2159 2.27174E+01-1.89625E+00 4.32966E-02-1.52936E+01-1.33227E-15 6.47704E-13
 -1      2160 2.08362E+01 9.95008E-01 1.19946E-01-1.48304E+01 1.93429E-13 9.05942E-13
 -1      2161 2.07380E+01 1.10841E+00-2.07700E-02-1.61507E+00-4.37265E-13 2.73436E-13
 -1      2162 1.71681E+01 4.20309E+00 6.43201E-03-1.38468E+01 9.79494E-14 1.34504E-12
 -1      2163 2.06283E+01 1.33009E+00-1.86802E-02-1.67671E+00-4.68729E-13 2.90774E-14
 -1      2164 2.54528E+01-3.01433E+00-9.70295E-02-3.39705E+00-1.72674E-13-6.42847E-13
 -1      2165 7.43920E+00-4.14421E+00-9.08072E-01 8.56579E+00 6.55365E-13-3.13638E-13
 -1      2166 1.40442E+01 7.00744E+00 8.43177E-02 1.04295E+01-3.50525E-13-6.30052E-13
 -1      2167 2.66726E+01-3.02698E+00-2.55775E-02-1.01869E+01-1.62561E-13-3.58824E-13
 -1      2168 1.78818E+01 2.27993E+00 6.80451E-02 1.28031E+01 4.18554E-14-7.95308E-13
 -1      2169 1.37972E+01 9.79661E+00 1.89707E-01-7.90944E+00-2.87811E-13 1.37690E-12
 -1      2170 7.89577E+00-2.72069E+00-7.76866E-01-9.52355E+00 5.10925E-13 1.76326E-12
 -1      2171 1.95442E+01-1.16491E+00-1.36514E-02 1.82888E+00-7.78162E-14-2.06193E-13
 -1      2172 2.03710E+01-4.02071E+00-1.62614E-01 1.39460E+01 2.34923E-13-8.57925E-14
 -1      2173 1.52507E+01-5.30513E+00-6.41935E-01 1.26624E+01 4.04787E-13-3.99375E-13
 -1      2174 3.30176E+01-3.23335E+00 1.05152E-01 9.10493E+00 3.06977E-14-7.39575E-13
 -1      2175 1.12883E+01-4.35038E+00-6.07103E-01 1.18787E+01 5.96190E-13-5.74540E-13
 -1      2176 2.38497E+01-3.17163E+00-1.14292E-01-1.54310E+01-1.84519E-13 4.18429E-13
 -1      2177 3.75620E+01 4.24866E+00 4.13743E-01-8.37330E+00-7.40998E-13-2.68008E-13
 -1      2178 4.12715E+01 9.47478E+00 5.12671E-01-6.15204E+00-3.55826E-14 1.80189E-13
 -1      2179 4.20737E+01 1.11632E+01 3.05496E-01-3.89598E+00-3.63709E-13 3.98570E-14
 -1      2180 3.75688E+01 2.10303E+00 1.87293E-01-3.64049E-01 1.09912E-14-2.95985E-13
 -1      2181 1.26672E+01-8.27259E+00-7.22564E-02 7.54695E+00-1.02807E-13-8.29753E-14
 -1      2182 2.32225E+00-8.70763E+00-1.29085E-01-2.25845E+00 4.38510E-13-4.90274E-13
 -1      2183 5.09188E+00-6.73078E+00 1.34367E-03-4.05532E+00 4.48142E-13-4.28935E-13
 -1      2184 2.59869E+00-5.73985E+00 8.12106E-02-1.65227E+00 4.23730E-13-4.64018E-13
 -1      2185 1.83109E+01-9.60458E+00-1.50389E-01-5.22002E+00-3.07532E-14-7.36758E-13
 -1      2186 3.70866E+01-2.85398E+00 1.85625E-01 1.88162E+00 5.01182E-13-5.07372E-13
 -1      2187 4.21332E+01 8.45469E+00 4.15184E-01 4.83228E+00 2.72893E-13-7.12819E-13
 -1      2188 4.21989E+01 7.27335E+00 4.06953E-01 2.65171E+00-6.06182E-14-6.30829E-13
 -1      2189 2.86470E+01-7.51665E+00 4.78698E-02-2.62428E+00 1.97953E-13-4.18499E-13
 -1      2190 1.21040E+00-7.33910E+00-1.19314E-01 2.40406E+00 3.45030E-13-3.22076E-13
 -1      2191 2.33491E+01-6.76049E+00 2.22359E-02 6.29329E+00-2.96541E-13-1.50269E-13
 -1      2192 4.28017E+01 1.18555E+01 4.21393E-01-4.87423E+00 1.43052E-13 7.12763E-14
 -1      2193 1.72797E+01-1.58967E+00-2.04296E-01 1.37357E+01 1.85740E-13-5.04596E-13
 -1      2194 1.15308E+01-1.76570E+00-3.20811E-01-1.29523E+01 1.30118E-13 2.03904E-12
 -1      2195 2.66319E+01-7.34703E-01-2.04123E-01-1.60200E+00-1.43892E-13-2.19880E-13
 -1      2196 2.90370E+01-9.98192E-01 2.24657E-02-4.51698E+00-3.68726E-13-3.49804E-13
 -1      2197 1.95583E+01 3.51683E+00-1.10656E-02-5.91096E-01-1.34471E-13-6.23027E-13
 -1      2198 1.95941E+01 3.47101E+00-1.04015E-02-7.75282E-01-1.84253E-13-6.23492E-13
 -1      2199 1.96408E+01 3.38303E+00-1.26386E-02-9.39556E-01-2.22222E-13-6.13996E-13
 -1      2200 1.97024E+01 3.30199E+00-1.26034E-02-1.12876E+00-2.78379E-13-6.02176E-13
 -1      2201 1.97851E+01 3.03401E+00 2.10247E-04-7.91736E-01-2.00630E-13-5.74680E-13
 -1      2202 1.95107E+01 3.59931E+00-9.61893E-03 9.93764E-02 5.80350E-14-6.44156E-13
 -1      2203 1.95101E+01 3.60014E+00-9.61611E-03-7.99985E-02 9.60730E-15-6.42218E-13
 -1      2204 1.95370E+01 3.55989E+00-9.72452E-03 4.45208E-01 1.44195E-13-6.41266E-13
 -1      2205 1.95195E+01 3.58247E+00-1.01402E-02 2.64473E-01 8.84531E-14-6.43196E-13
 -1      2206 1.96768E+01 3.22212E+00-9.11897E-04 1.69442E-01 7.48256E-14-6.12544E-13
 -1      2207 1.95993E+01 3.46328E+00-1.06360E-02 7.88988E-01 2.31740E-13-6.01508E-13
 -1      2208 1.95628E+01 3.51036E+00-1.12187E-02 6.07626E-01 1.77490E-13-6.25391E-13
 -1      2209 1.97139E+01 3.15862E+00-5.14547E-04 4.87671E-01 1.54861E-13-5.96215E-13
 -1      2210 1.97107E+01 3.28939E+00-1.29696E-02 1.14209E+00 3.27373E-13-5.54222E-13
 -1      2211 1.96476E+01 3.37284E+00-1.29183E-02 9.52878E-01 2.69199E-13-5.85985E-13
 -1      2212 1.97913E+01 3.02501E+00 2.41598E-04 8.03078E-01 2.50284E-13-5.57900E-13
 -1      2213 1.98901E+01 3.00341E+00-1.83887E-02 1.48916E+00 4.06500E-13-4.72442E-13
 -1      2214 1.97907E+01 3.14459E+00-1.53367E-02 1.29889E+00 3.58783E-13-5.26473E-13
 -1      2215 1.99217E+01 2.79963E+00 1.97834E-03 1.10889E+00 3.34461E-13-5.07455E-13
 -1      2216 2.01694E+01 2.53682E+00-2.85412E-02 1.78745E+00 4.77396E-13-3.17158E-13
 -1      2217 2.00174E+01 2.78389E+00-1.73773E-02 1.61996E+00 4.21434E-13-4.04449E-13
 -1      2218 2.01172E+01 2.44788E+00 5.57599E-03 1.37609E+00 3.91560E-13-4.07663E-13
 -1      2219 2.05862E+01 1.78508E+00-2.96716E-02 1.88713E+00 5.07660E-13-2.78111E-14
 -1      2220 2.03636E+01 2.22663E+00-1.07230E-02 1.85059E+00 4.87960E-13-1.94501E-13
 -1      2221 2.03831E+01 1.91265E+00 1.31644E-02 1.52986E+00 4.56637E-13-2.26838E-13
 -1      2222 2.07924E+01 1.06876E+00-1.78451E-02 1.59040E+00 4.67890E-13 2.40049E-13
 -1      2223 2.06819E+01 1.54271E+00 3.25250E-03 1.79447E+00 4.90569E-13 8.12128E-14
 -1      2224 2.05327E+01 1.28559E+00 1.07536E-02 1.42644E+00 4.62139E-13-1.05523E-14
 -1      2225 2.04521E+01 7.41767E-01-2.13839E-03 1.10608E+00 4.23701E-13 1.80247E-13
 -1      2226 1.96050E+01-1.72036E-01 4.67909E-03 2.79206E+00-2.66528E-13-9.41157E-14
 -1      2227 1.99336E+01-2.99187E-01 1.88585E-02 2.80370E+00-3.16584E-13 1.92884E-14
 -1      2228 1.98723E+01 2.71926E-01 5.04882E-03 2.84617E-01 2.97317E-13-4.32709E-14
 -1      2229 2.00241E+01 3.66747E-01 1.62913E-02 4.46778E-01 2.98133E-13 2.41317E-14
 -1      2230 2.04028E+01 8.55146E-01 1.29350E-02-9.99706E-01-3.78039E-13-6.94364E-14
 -1      2231 2.01923E+01 6.28325E-01-4.00142E-03-6.89563E-01-3.32144E-13-8.53788E-14
 -1      2232 2.01264E+01 4.69319E-01 1.61099E-02-4.74122E-01-3.04222E-13-5.96698E-14
 -1      2233 1.99854E+01 3.44604E-01 3.23023E-05-3.02453E-01-2.58515E-13-8.35922E-14
 -1      2234 2.02461E+01 7.45487E-01-1.73081E-03-6.93128E-01-3.27831E-13-1.80201E-13
 -1      2235 1.99222E+01 2.59677E-01 1.08744E-02-1.64767E-01-2.25313E-13-7.78177E-14
 -1      2236 1.98435E+01 1.88175E-01 6.91658E-04-6.75240E-02-1.82125E-13-1.09617E-13
 -1      2237 2.00815E+01 4.16612E-01-3.72230E-03-3.09071E-01-2.57625E-13-1.56975E-13
 -1      2238 1.97992E+01 1.38668E-01 6.38401E-03 1.45790E-02-1.59543E-13-1.19374E-13
 -1      2239 1.97643E+01 9.63064E-02 7.11176E-04 6.78986E-02-1.32725E-13-1.28011E-13
 -1      2240 1.99611E+01 2.27423E-01-3.64158E-03-6.99892E-02-2.01154E-13-1.63916E-13
 -1      2241 1.97385E+01 6.63657E-02 3.57483E-03 1.13596E-01-1.26963E-13-1.65416E-13
 -1      2242 1.97313E+01 4.07798E-02 6.12106E-04 1.40131E-01-1.17959E-13-1.86877E-13
 -1      2243 1.98854E+01 1.14927E-01-2.92692E-03 7.07309E-02-1.66745E-13-1.96330E-13
 -1      2244 1.97196E+01 2.24643E-02 1.85267E-03 1.62308E-01-1.28163E-13-2.17571E-13
 -1      2245 1.97288E+01 7.13876E-03 4.88366E-04 1.72357E-01-1.39878E-13-2.36167E-13
 -1      2246 1.98458E+01 4.66479E-02-2.11483E-03 1.46836E-01-1.50780E-13-2.42715E-13
 -1      2247 1.97268E+01-3.86145E-03 7.90842E-04 1.79610E-01-1.16972E-13-1.96109E-13
 -1      2248 1.97449E+01-1.26536E-02 3.67130E-04 1.79649E-01-9.27918E-14-2.05773E-13
 -1      2249 1.98317E+01 5.36013E-03-1.42436E-03 1.81206E-01-1.13637E-13-2.53923E-13
 -1      2250 1.97489E+01-1.88960E-02 1.40276E-04 1.77747E-01-9.20216E-14-1.96985E-13
 -1      2251 1.97710E+01-2.34477E-02 2.62852E-04 1.71979E-01-1.09455E-13-1.82228E-13
 -1      2252 1.98340E+01-1.87478E-02-9.01474E-04 1.89252E-01-9.35382E-14-2.37189E-13
 -1      2253 1.97783E+01-2.65618E-02-2.43871E-04 1.64812E-01-1.38013E-13-1.49705E-13
 -1      2254 1.98012E+01-2.83636E-02 1.80773E-04 1.55997E-01-1.19333E-13-1.87115E-13
 -1      2255 1.98460E+01-3.16812E-02-5.28119E-04 1.81390E-01-1.13645E-13-2.14651E-13
 -1      2256 1.98100E+01-2.94367E-02-4.52415E-04 1.46171E-01-6.27456E-14-2.03574E-13
 -1      2257 1.98319E+01-2.94891E-02 1.20526E-04 1.36118E-01-3.65949E-15-2.22306E-13
 -1      2258 1.98631E+01-3.73283E-02-2.72480E-04 1.64651E-01-9.67803E-14-2.09561E-13
 -1      2259 1.98411E+01-2.92629E-02-5.45739E-04 1.25351E-01-1.01205E-14-2.18754E-13
 -1      2260 1.98608E+01-2.82445E-02 7.95026E-05 1.15220E-01 6.44288E-15-1.98253E-13
 -1      2261 1.98821E+01-3.82952E-02-1.04905E-04 1.43741E-01-1.58597E-14-1.90879E-13
 -1      2262 1.98696E+01-2.72253E-02-5.65212E-04 1.04618E-01-6.88500E-14-2.16724E-13
 -1      2263 1.98869E+01-2.55913E-02 5.48669E-05 9.51298E-02-9.98366E-14-2.27865E-13
 -1      2264 1.99009E+01-3.63515E-02-1.55947E-06 1.21742E-01-1.94246E-14-2.41846E-13
 -1      2265 1.98948E+01-2.41178E-02-5.39390E-04 8.53738E-02-1.19348E-13-2.34446E-13
 -1      2266 1.99095E+01-2.21629E-02 4.44697E-05 7.69531E-02-1.42136E-13-2.37659E-13
 -1      2267 1.99185E+01-3.26895E-02 5.57086E-05 1.00621E-01-1.28373E-13-2.31744E-13
 -1      2268 1.99166E+01-2.04506E-02-4.87885E-04 6.84449E-02-1.67420E-13-2.01005E-13
 -1      2269 1.99289E+01-1.83512E-02 4.71428E-05 6.13274E-02-1.30511E-13-2.64575E-13
 -1      2270 1.99342E+01-2.80873E-02 8.03444E-05 8.15811E-02-1.48402E-13-2.07547E-13
 -1      2271 1.99350E+01-1.65239E-02-4.23943E-04 5.42924E-02-1.04546E-13-2.46593E-13
 -1      2272 1.99452E+01-1.43683E-02 6.26731E-05 4.86026E-02-6.88967E-14-2.18870E-13
 -1      2273 1.99481E+01-2.30179E-02 8.19655E-05 6.53297E-02-1.16538E-13-1.85021E-13
 -1      2274 1.99506E+01-1.24808E-02-3.56219E-04 4.31681E-02-1.75421E-14-2.70988E-13
 -1      2275 1.99592E+01-1.02919E-02 9.16859E-05 3.89776E-02 1.12076E-15-2.30748E-13
 -1      2276 1.99601E+01-1.77275E-02 6.71951E-05 5.22725E-02-5.63972E-14-1.93022E-13
 -1      2277 1.99640E+01-8.34812E-03-2.90083E-04 3.52313E-02 1.94150E-15-2.07608E-13
 -1      2278 1.99715E+01-6.10090E-03 1.35499E-04 3.26015E-02 1.35486E-14-1.89081E-13
 -1      2279 1.99708E+01-1.22938E-02 4.04292E-05 4.26612E-02 1.44129E-14-1.41200E-13
 -1      2280 1.99760E+01-4.06778E-03-2.28591E-04 3.06336E-02 7.30221E-15-1.69744E-13
 -1      2281 1.99831E+01-1.70310E-03 1.95939E-04 2.96473E-02 7.08730E-14-1.67673E-13
 -1      2282 1.99805E+01-6.67085E-03 4.44139E-06 3.67018E-02 1.72198E-14-9.75437E-14
 -1      2283 1.99876E+01 4.77535E-04-1.73198E-04 2.95805E-02 1.23658E-13-1.64069E-13
 -1      2284 1.99948E+01 3.04039E-03 2.75038E-04 3.03620E-02 1.59592E-13-2.07009E-13
 -1      2285 1.99900E+01-7.25510E-04-3.91620E-05 3.46317E-02 1.04019E-13-6.76132E-14
 -1      2286 1.99997E+01 5.44039E-03-1.24240E-04 3.23704E-02 1.27681E-13-1.78360E-13
 -1      2287 2.00078E+01 8.29067E-03 3.74565E-04 3.50967E-02 1.15044E-13-1.45604E-13
 -1      2288 1.99998E+01 5.72972E-03-8.95555E-05 3.67721E-02 1.27046E-13-1.36925E-13
 -1      2289 2.00135E+01 1.09823E-02-8.12274E-05 3.94133E-02 9.78030E-14-1.82074E-13
 -1      2290 2.00233E+01 1.42016E-02 4.95305E-04 4.43143E-02 1.27472E-13-1.26507E-13
 -1      2291 2.00109E+01 1.29024E-02-1.46352E-04 4.35569E-02 1.10194E-13-1.15117E-13
 -1      2292 2.00302E+01 1.72404E-02-4.29876E-05 5.12250E-02 1.01838E-13-1.97103E-13
 -1      2293 2.00426E+01 2.08804E-02 6.35992E-04 5.85689E-02 8.72749E-14-2.19141E-13
 -1      2294 2.00241E+01 2.09779E-02-2.09305E-04 5.55342E-02 6.39135E-14-1.75970E-13
 -1      2295 2.00513E+01 2.42808E-02-7.62166E-06 6.83890E-02 4.94936E-14-2.58954E-13
 -1      2296 2.00672E+01 2.83313E-02 7.91777E-04 7.84487E-02-6.95522E-15-1.97012E-13
 -1      2297 2.00405E+01 3.00614E-02-2.78065E-04 7.33353E-02 2.39542E-14-2.27315E-13
 -1      2298 2.00783E+01 3.20322E-02 2.77233E-05 9.14743E-02-4.73070E-14-2.31436E-13
 -1      2299 2.00987E+01 3.63754E-02 9.52110E-04 1.04466E-01-5.10601E-14-1.91358E-13
 -1      2300 2.00613E+01 4.00963E-02-3.52005E-04 9.76000E-02-7.63021E-14-2.21976E-13
 -1      2301 2.01130E+01 4.01913E-02 6.72967E-05 1.20893E-01-4.09113E-15-1.76891E-13
 -1      2302 2.01389E+01 4.45386E-02 1.09797E-03 1.36879E-01 4.87779E-14-1.06968E-13
 -1      2303 2.00877E+01 5.07483E-02-4.30157E-04 1.28840E-01-2.19361E-14-2.02250E-13
 -1      2304 2.01571E+01 4.80934E-02 1.17409E-04 1.56674E-01 1.05074E-14-1.02430E-13
 -1      2305 2.01895E+01 5.19007E-02 1.19847E-03 1.75412E-01 1.27796E-14-1.03031E-13
 -1      2306 2.01213E+01 6.12458E-02-5.11318E-04 1.67224E-01 5.68828E-14-1.90176E-13
 -1      2307 2.02124E+01 5.45431E-02 1.87269E-04 1.98127E-01-5.93376E-15-4.96670E-14
 -1      2308 2.02520E+01 5.69062E-02 1.20715E-03 2.18860E-01 3.02104E-14-1.02800E-13
 -1      2309 2.01635E+01 7.01702E-02-5.94367E-04 2.12245E-01-1.34487E-14-1.68731E-13
 -1      2310 2.02807E+01 5.76094E-02 2.89796E-04 2.43371E-01-3.42771E-14-1.74320E-13
 -1      2311 2.03277E+01 5.71488E-02 1.05872E-03 2.64545E-01-6.69577E-14-1.72288E-13
 -1      2312 2.02161E+01 7.51998E-02-6.78757E-04 2.62267E-01-7.89153E-14-6.59045E-14
 -1      2313 2.03632E+01 5.44117E-02 4.41896E-04 2.88713E-01-5.97091E-14-1.91066E-13
 -1      2314 2.04172E+01 4.91724E-02 6.67786E-04 3.07628E-01-4.96961E-14-6.44229E-14
 -1      2315 2.02808E+01 7.28341E-02-7.64932E-04 3.13906E-01-1.85022E-14 7.47486E-14
 -1      2316 2.04608E+01 4.09583E-02 6.63062E-04 3.27893E-01-7.93622E-14-9.38650E-14
 -1      2317 2.05203E+01 2.83857E-02-6.74670E-05 3.40324E-01-8.94639E-14 4.42452E-14
 -1      2318 2.03595E+01 5.81695E-02-8.53845E-04 3.61262E-01-6.68200E-14-3.37039E-15
 -1      2319 2.05731E+01 1.21729E-02 9.70122E-04 3.51269E-01-1.19345E-13-1.02681E-13
 -1      2320 2.06349E+01-1.07265E-02-1.25196E-03 3.51138E-01-2.20641E-13-2.04185E-13
 -1      2321 2.04540E+01 2.48797E-02-9.43834E-04 3.95064E-01-1.55133E-13-1.33362E-13
 -1      2322 2.06979E+01-3.76488E-02 1.36446E-03 3.45142E-01-2.26805E-13-2.38768E-13
 -1      2323 2.07569E+01-7.37759E-02-2.96358E-03 3.24430E-01-9.29318E-14-2.34429E-13
 -1      2324 2.05656E+01-3.43188E-02-1.02158E-03 4.01857E-01-2.47020E-13-2.22207E-13
 -1      2325 2.08302E+01-1.13563E-01 1.80655E-03 2.91633E-01-6.98150E-15-2.00455E-13
 -1      2326 2.08789E+01-1.64564E-01-5.19692E-03 2.40845E-01 1.38862E-14-1.17616E-13
 -1      2327 2.06947E+01-1.26255E-01-1.04281E-03 3.63589E-01-3.18266E-14-1.40124E-13
 -1      2328 2.09609E+01-2.17369E-01 2.17454E-03 1.69825E-01 4.81644E-14-6.16200E-14
 -1      2329 2.09888E+01-2.81565E-01-7.76905E-03 7.94998E-02 1.75620E-13 2.52148E-14
 -1      2330 2.08395E+01-2.54319E-01-8.99194E-04 2.58188E-01 1.20278E-13 2.54079E-14
 -1      2331 2.10741E+01-3.43185E-01 2.21510E-03-4.06942E-02 1.61908E-13 8.82333E-14
 -1      2332 2.10681E+01-4.12534E-01-1.01928E-02-1.76834E-01 1.41797E-13 3.93198E-14
 -1      2333 2.09933E+01-4.13259E-01-3.73403E-04 6.21611E-02 1.94086E-13 9.35624E-14
 -1      2334 2.11445E+01-4.71378E-01 1.49478E-03-3.52415E-01 1.28142E-13-2.41689E-14
 -1      2335 2.10902E+01-5.28136E-01-1.15597E-02-5.32205E-01 1.13730E-13-2.45858E-14
 -1      2336 2.11404E+01-5.81697E-01 8.74592E-04-2.43254E-01 8.69165E-14 4.74324E-14
 -1      2337 2.11358E+01-5.62679E-01-5.11177E-04-7.57454E-01 1.04526E-13-8.67496E-14
 -1      2338 2.10199E+01-5.77938E-01-1.05275E-02-9.63274E-01-3.08217E-15 1.63248E-15
 -1      2339 2.12510E+01-7.14355E-01 3.18562E-03-6.60616E-01 4.98979E-14-1.38330E-13
 -1      2340 2.10026E+01-5.57498E-01-4.12115E-03-1.21098E+00-1.65234E-13-3.27232E-14
 -1      2341 2.08187E+01-4.95542E-01-5.67894E-03-1.40325E+00-2.02679E-13 3.47893E-14
 -1      2342 2.12775E+01-7.39306E-01 6.65188E-03-1.15896E+00-6.61771E-14 7.02113E-14
 -1      2343 2.07023E+01-3.88577E-01-8.96862E-03-1.61631E+00-1.15592E-13 1.35574E-13
 -1      2344 2.04580E+01-2.21717E-01 3.47918E-03-1.73269E+00 5.39613E-15 2.16031E-13
 -1      2345 2.11580E+01-5.70044E-01 1.05423E-02-1.65411E+00-7.16465E-14 2.48579E-13
 -1      2346 2.02210E+01-1.48595E-02-1.32154E-02-1.82570E+00-1.60538E-15 1.02100E-13
 -1      2347 1.99452E+01 2.50732E-01 1.50105E-02-1.79367E+00 1.02134E-13 4.72014E-14
 -1      2348 2.08375E+01-1.43934E-01 1.26308E-02-1.99846E+00-5.46422E-14 3.18310E-13
 -1      2349 1.96077E+01 5.26931E-01-1.37880E-02-1.67717E+00 2.88802E-13-6.55656E-14
 -1      2350 1.93517E+01 8.27472E-01 2.39454E-02-1.44565E+00 3.58360E-13-2.18796E-13
 -1      2351 2.03093E+01 5.16193E-01 1.01673E-02-2.00337E+00 1.03351E-13 1.56387E-13
 -1      2352 1.89938E+01 1.08533E+00-7.73881E-03-1.07692E+00 3.97761E-13-2.06835E-13
 -1      2353 1.88187E+01 1.30354E+00 2.46419E-02-6.58506E-01 3.05632E-13-1.82987E-13
 -1      2354 1.96605E+01 1.24692E+00 1.97088E-03-1.51716E+00 3.11615E-13-1.29021E-13
 -1      2355 1.85566E+01 1.42140E+00 4.21091E-03-9.19531E-02 1.65605E-13-6.94252E-14
 -1      2356 1.85124E+01 1.42810E+00 1.36284E-02 4.12918E-01 1.15541E-14 9.62791E-14
 -1      2357 1.90702E+01 1.76509E+00-8.08956E-03-5.41782E-01 2.66116E-13-1.30818E-13
 -1      2358 1.84484E+01 1.29379E+00 1.53950E-02 1.01212E+00-1.58117E-13 1.25915E-13
 -1      2359 1.85490E+01 1.02449E+00-2.92990E-03 1.42485E+00-1.47082E-13 8.97786E-14
 -1      2360 1.87383E+01 1.76344E+00-1.55139E-02 7.00212E-01-5.18344E-14-3.54025E-14
 -1      2361 1.97077E+01 1.43485E-01 3.20722E-03 5.85973E-02 2.02305E-13-8.06835E-14
 -1      2362 1.97859E+01 1.98568E-01 1.22377E-02 1.45047E-01 2.61444E-13-4.43916E-14
 -1      2363 1.99955E+01 3.40611E-01-4.15749E-03 3.01962E-01 3.06005E-13-1.05597E-13
 -1      2364 2.00993E+01 4.33683E-01 6.52910E-03 5.93517E-01 3.15576E-13 6.73086E-14
 -1      2365 2.03426E+01 5.97995E-01 1.20254E-02 8.73377E-01 3.66710E-13 1.28653E-13
 -1      2366 2.03848E+01 8.12107E-01-5.91933E-03 1.04285E+00 4.05813E-13 3.38163E-14
 -1      2367 2.01703E+01 5.25691E-01-1.08537E-02 6.24273E-01 3.45986E-13-7.72264E-14
 -1      2368 1.96268E+01 7.26783E-02 2.06086E-03-6.74904E-02 1.36285E-13-1.55570E-13
 -1      2369 1.96539E+01 1.04361E-01 6.85115E-03-2.12709E-02 1.67232E-13-1.12961E-13
 -1      2370 1.98513E+01 1.80902E-01-3.97093E-03 6.39469E-02 2.22949E-13-1.46260E-13
 -1      2371 1.96037E+01 3.08535E-02 1.34111E-03-1.33337E-01 6.83485E-14-1.90715E-13
 -1      2372 1.96003E+01 4.97639E-02 3.67916E-03-1.10766E-01 1.08679E-13-1.78290E-13
 -1      2373 1.97706E+01 9.00419E-02-3.17892E-03-7.30672E-02 1.58854E-13-2.03178E-13
 -1      2374 1.96161E+01 5.78440E-03 8.71802E-04-1.61891E-01 6.21644E-14-1.94089E-13
 -1      2375 1.95958E+01 1.70573E-02 1.81666E-03-1.53606E-01 4.94344E-14-1.90677E-13
 -1      2376 1.97367E+01 3.60567E-02-2.27508E-03-1.45593E-01 8.95393E-14-2.30470E-13
 -1      2377 1.96486E+01-8.90343E-03 5.46809E-04-1.67606E-01 8.29201E-14-1.90354E-13
 -1      2378 1.96200E+01-2.42522E-03 7.14773E-04-1.67901E-01 7.95674E-14-1.73159E-13
 -1      2379 1.97336E+01 3.86302E-03-1.50477E-03-1.77453E-01 5.71563E-14-2.71095E-13
 -1      2380 1.96908E+01-1.69232E-02 3.18145E-04-1.59790E-01 7.31266E-14-1.79391E-13
 -1      2381 1.96593E+01-1.35345E-02 5.94908E-05-1.65026E-01 9.89461E-14-1.75748E-13
 -1      2382 1.97490E+01-1.47794E-02-9.26333E-04-1.84118E-01 9.05922E-14-2.23072E-13
 -1      2383 1.97357E+01-2.06118E-02 1.60525E-04-1.44540E-01 1.18205E-13-1.95602E-13
 -1      2384 1.97047E+01-1.92213E-02-3.18193E-04-1.52349E-01 1.06087E-13-1.67474E-13
 -1      2385 1.97744E+01-2.47302E-02-5.19020E-04-1.75748E-01 9.97288E-14-2.11076E-13
 -1      2386 1.97793E+01-2.15157E-02 5.63783E-05-1.25859E-01 8.09436E-14-1.88063E-13
 -1      2387 1.97507E+01-2.13961E-02-5.17038E-04-1.34701E-01 9.37106E-14-1.93371E-13
 -1      2388 1.98041E+01-2.90597E-02-2.44521E-04-1.59082E-01 1.09233E-13-2.03763E-13
 -1      2389 1.98192E+01-2.06825E-02-7.80076E-06-1.06336E-01 1.13065E-13-1.42985E-13
 -1      2390 1.97939E+01-2.13414E-02-6.00005E-04-1.15226E-01 1.06583E-13-1.94008E-13
 -1      2391 1.98342E+01-2.97989E-02-6.77594E-05-1.38575E-01 9.77835E-14-2.09074E-13
 -1      2392 1.98543E+01-1.88215E-02-4.22269E-05-8.75968E-02 1.09253E-14-9.04784E-14
 -1      2393 1.98326E+01-1.99277E-02-6.09278E-04-9.59296E-02 7.74986E-14-9.56958E-14
 -1      2394 1.98627E+01-2.83184E-02 3.88228E-05-1.17122E-01 5.68198E-14-1.28719E-13
 -1      2395 1.98842E+01-1.64017E-02-5.42076E-05-7.06142E-02 2.44165E-14-1.00279E-13
 -1      2396 1.98661E+01-1.77394E-02-5.73559E-04-7.80365E-02 2.96081E-14-9.65932E-14
 -1      2397 1.98883E+01-2.55407E-02 9.56744E-05-9.65515E-02 4.60781E-15-1.41438E-13
 -1      2398 1.99093E+01-1.37164E-02-4.85190E-05-5.59332E-02 9.95966E-14-1.37288E-13
 -1      2399 1.98944E+01-1.51545E-02-5.12229E-04-6.22553E-02 7.64197E-14-7.29676E-14
 -1      2400 1.99107E+01-2.20695E-02 1.17566E-04-7.79667E-02 5.73135E-14-1.08816E-13
 -1      2401 1.99300E+01-1.09279E-02-2.77366E-05-4.38360E-02 1.75636E-13-2.27858E-13
 -1      2402 1.99179E+01-1.23985E-02-4.38078E-04-4.89645E-02 1.63322E-13-1.59115E-13
 -1      2403 1.99298E+01-1.82750E-02 1.14937E-04-6.20002E-02 1.55593E-13-1.62421E-13
 -1      2404 1.99472E+01-8.09838E-03 7.46499E-06-3.44666E-02 3.15028E-14-2.57892E-13
 -1      2405 1.99373E+01-9.58226E-03-3.59187E-04-3.83538E-02 1.06796E-13-2.45979E-13
 -1      2406 1.99459E+01-1.43533E-02 9.48408E-05-4.89980E-02 1.66716E-13-1.27499E-13
 -1      2407 1.99618E+01-5.21183E-03 5.81015E-05-2.79265E-02-9.28234E-14-2.35831E-13
 -1      2408 1.99535E+01-6.72784E-03-2.80237E-04-3.05308E-02-3.60012E-14-2.50656E-13
 -1      2409 1.99598E+01-1.03669E-02 6.16520E-05-3.91606E-02-2.12528E-14-1.46418E-13
 -1      2410 1.99751E+01-2.18937E-03 1.26814E-04-2.43495E-02-1.05800E-13-2.51992E-13
 -1      2411 1.99676E+01-3.78763E-03-2.03467E-04-2.56044E-02-1.19372E-13-2.56908E-13
 -1      2412 1.99720E+01-6.27366E-03 1.77442E-05-3.26518E-02-1.03643E-13-1.85436E-13
 -1      2413 1.99881E+01 1.10241E-03 2.17926E-04-2.39636E-02-2.60612E-14-2.61764E-13
 -1      2414 1.99807E+01-6.55967E-04-1.29424E-04-2.37508E-02-5.43846E-14-2.36286E-13
 -1      2415 1.99835E+01-1.94610E-03-3.59907E-05-2.96839E-02-6.66862E-14-2.15629E-13
 -1      2416 2.00024E+01 4.84895E-03 3.37606E-04-2.71451E-02 1.73004E-13-2.91495E-13
 -1      2417 1.99941E+01 2.82517E-03-5.75366E-05-2.52704E-02 6.17879E-14-2.82393E-13
 -1      2418 1.99953E+01 2.81871E-03-9.97630E-05-3.05883E-02 2.56273E-14-2.70419E-13
 -1      2419 2.00196E+01 9.29109E-03 4.94175E-04-3.44720E-02 1.05778E-13-1.44664E-13
 -1      2420 2.00094E+01 6.86649E-03 1.34374E-05-3.06405E-02 2.14588E-13-1.80338E-13
 -1      2421 2.00085E+01 8.29734E-03-1.74523E-04-3.58789E-02 9.70734E-14-2.28660E-13
 -1      2422 2.00415E+01 1.47347E-02 6.98571E-04-4.67814E-02-8.17777E-14-2.13161E-13
 -1      2423 2.00283E+01 1.17375E-02 8.50196E-05-4.05689E-02 2.01041E-14-1.00502E-13
 -1      2424 2.00244E+01 1.48466E-02-2.61572E-04-4.63130E-02 7.19534E-14-9.83982E-14
 -1      2425 2.00706E+01 2.15674E-02 9.64990E-04-6.52364E-02-4.55191E-14-3.14020E-13
 -1      2426 2.00528E+01 1.77796E-02 1.58622E-04-5.60552E-02-1.09771E-13-2.45965E-13
 -1      2427 2.00446E+01 2.29190E-02-3.62088E-04-6.29579E-02-2.30334E-14-1.62576E-13
 -1      2428 2.01095E+01 3.02841E-02 1.31170E-03-9.14092E-02 4.62750E-14-3.05698E-13
 -1      2429 2.00853E+01 2.54262E-02 2.35092E-04-7.84645E-02-6.62030E-15-3.69854E-13
 -1      2430 2.00709E+01 3.30887E-02-4.76469E-04-8.72662E-02 2.86616E-14-3.95912E-13
 -1      2431 2.01617E+01 4.15215E-02 1.76188E-03-1.27387E-01 1.87449E-14-1.54187E-13
 -1      2432 2.01288E+01 3.52329E-02 3.14112E-04-1.09620E-01 4.84369E-14-2.45240E-13
 -1      2433 2.01053E+01 4.60888E-02-6.03364E-04-1.21168E-01-1.55529E-14-3.21409E-13
 -1      2434 2.02313E+01 5.61008E-02 2.34426E-03-1.75905E-01-1.74334E-14-5.72381E-14
 -1      2435 2.01868E+01 4.79160E-02 3.93349E-04-1.51920E-01 4.74790E-14-5.20212E-14
 -1      2436 2.01503E+01 6.28612E-02-7.38228E-04-1.67183E-01-1.39416E-14-1.54930E-13
 -1      2437 2.03230E+01 7.50704E-02 3.09262E-03-2.40506E-01-3.98835E-14 8.70872E-14
 -1      2438 2.02635E+01 6.43966E-02 4.67233E-04-2.08482E-01-5.08232E-14 5.76920E-14
 -1      2439 2.02086E+01 8.46138E-02-8.71233E-04-2.28555E-01-4.85177E-14-3.96902E-14
 -1      2440 2.04425E+01 9.97256E-02 4.04258E-03-3.25709E-01-9.45396E-14 1.19423E-13
 -1      2441 2.03638E+01 8.58369E-02 5.25245E-04-2.83311E-01-3.44859E-14 1.60770E-13
 -1      2442 2.02830E+01 1.12869E-01-9.84464E-04-3.09399E-01-1.08960E-13 1.02596E-13
 -1      2443 2.05965E+01 1.31546E-01 5.22206E-03-4.37136E-01 1.88660E-13-8.89230E-14
 -1      2444 2.04933E+01 1.13631E-01 5.49674E-04-3.81448E-01 1.19838E-13 1.09509E-13
 -1      2445 2.03766E+01 1.49459E-01-1.04881E-03-4.14830E-01 5.70545E-14-2.69713E-14
 -1      2446 2.07919E+01 1.71918E-01 6.62893E-03-5.81455E-01-2.54744E-15-2.26251E-13
 -1      2447 2.06583E+01 1.49266E-01 5.13170E-04-5.09031E-01 4.25074E-14-9.64955E-14
 -1      2448 2.04921E+01 1.96361E-01-1.02229E-03-5.51000E-01 1.55943E-13 4.78413E-14
 -1      2449 2.10362E+01 2.21359E-01 8.18487E-03-7.65847E-01-1.11546E-13-3.06652E-14
 -1      2450 2.08654E+01 1.93851E-01 3.77596E-04-6.73062E-01-1.39793E-14-1.11840E-13
 -1      2451 2.06314E+01 2.55145E-01-8.54916E-04-7.24870E-01-6.12239E-14-1.01618E-14
 -1      2452 2.13361E+01 2.77670E-01 9.65057E-03-9.96379E-01-5.80382E-14 2.34690E-14
 -1      2453 2.11213E+01 2.46933E-01 9.92602E-05-8.80477E-01-1.24404E-13-4.34115E-15
 -1      2454 2.07955E+01 3.25562E-01-5.12582E-04-9.43379E-01-1.35141E-13 2.47002E-13
 -1      2455 2.16970E+01 3.31993E-01 1.04936E-02-1.27414E+00 1.38895E-14 1.15526E-13
 -1      2456 2.14323E+01 3.03815E-01-3.43161E-04-1.13571E+00 4.30901E-14 7.40804E-14
 -1      2457 2.09837E+01 4.02352E-01-4.50478E-05-1.21140E+00-9.43978E-14 2.07475E-13
 -1      2458 2.21226E+01 3.61096E-01 9.73186E-03-1.58718E+00 3.59955E-16 2.10069E-13
 -1      2459 2.18049E+01 3.50046E-01-8.53067E-04-1.43534E+00 5.01955E-14 2.02010E-13
 -1      2460 2.11950E+01 4.68728E-01 2.63525E-04-1.52739E+00 1.15101E-14 2.71609E-13
 -1      2461 2.26175E+01 3.14104E-01 5.85023E-03-1.89534E+00-8.93519E-14 2.26886E-13
 -1      2462 2.22486E+01 3.51217E-01-9.68154E-04-1.75732E+00-3.79675E-14 1.91215E-13
 -1      2463 2.14325E+01 4.84292E-01-3.79863E-04-1.87520E+00-2.39166E-14 2.70020E-13
 -1      2464 2.31955E+01 9.42782E-02-3.43764E-03-2.10533E+00-1.37260E-14-9.52363E-16
 -1      2465 2.27849E+01 2.37005E-01 6.82306E-04-2.04144E+00-6.69150E-14 1.68394E-13
 -1      2466 2.17165E+01 3.65542E-01-3.69248E-03-2.20948E+00 2.29952E-14 1.13250E-13
 -1      2467 2.38992E+01-4.44197E-01-1.83659E-02-2.03319E+00-1.43861E-13 7.58725E-14
 -1      2468 2.34648E+01-1.15933E-01 6.48572E-03-2.15566E+00-6.01038E-15 2.29634E-14
 -1      2469 2.21132E+01-3.79733E-02-1.31934E-02-2.43028E+00 3.67328E-15 1.30420E-13
 -1      2470 2.48082E+01-1.46033E+00-3.82296E-02-1.39331E+00-2.43985E-13 3.82853E-14
 -1      2471 2.43847E+01-8.66119E-01 2.24719E-02-1.86486E+00-2.08865E-13 4.88507E-14
 -1      2472 2.27695E+01-9.24036E-01-2.97929E-02-2.35180E+00-1.40604E-13 2.91214E-13
 -1      2473 2.60403E+01-2.85088E+00-4.85196E-02 2.39752E-01-2.50494E-13 2.74780E-15
 -1      2474 2.57094E+01-2.13641E+00 4.89456E-02-7.68696E-01-2.58526E-13-1.62075E-13
 -1      2475 2.39863E+01-2.49502E+00-5.25761E-02-1.66295E+00-1.81855E-13-2.03847E-14
 -1      2476 2.74273E+01-3.88893E+00-8.88168E-02 2.92417E+00-1.45207E-13-7.23380E-16
 -1      2477 2.73559E+01-3.47322E+00 4.33250E-02 1.47549E+00-3.16659E-13-8.79696E-14
 -1      2478 2.61203E+01-4.12707E+00 1.57324E-02 2.35979E-01-2.77447E-13-2.10231E-13
 -1      2479 2.85701E+01-2.54469E+00-5.64058E-02 6.13132E+00 1.77698E-13 9.99686E-14
 -1      2480 2.89876E+01-3.70710E+00-3.21605E-02 4.82552E+00 9.94556E-14 1.69156E-13
 -1      2481 2.89169E+01-5.18173E+00-8.63011E-02 3.11785E+00-1.09666E-13-2.43618E-13
 -1      2482 2.76695E+01 1.79096E+00-8.03714E-02 7.13658E+00 1.21125E-13 4.32987E-15
 -1      2483 2.85872E+01-7.35021E-01-2.33891E-01 7.26764E+00 2.20574E-13 6.57668E-14
 -1      2484 2.61668E+01 5.25281E+00-1.71535E-01 3.97063E+00 1.48992E-13-4.12448E-13
 -1      2485 2.70354E+01 3.71627E+00-2.73231E-01 5.92935E+00 2.30926E-14-2.01325E-13
 -1      2486 2.56835E+01 4.45188E+00-2.46781E-01-8.01398E-01 1.27509E-13-2.48135E-14
 -1      2487 2.60393E+01 5.53430E+00-1.77889E-01 1.33658E+00 3.95239E-14-2.02179E-13
 -1      2488 2.54062E+01 9.12218E-01-1.69951E-01-2.86869E+00 2.25861E-13 1.71391E-13
 -1      2489 2.56344E+01 2.82600E+00-1.12647E-01-2.19125E+00 2.04392E-13 6.96665E-14
 -1      2490 2.37685E+01-4.17436E-01-3.42961E-02-2.41973E+00 2.45078E-13 1.49436E-13
 -1      2491 2.73561E+01-2.98485E+00 8.27032E-03-1.42416E+01-3.00648E-13 2.28262E-13
 -1      2492 3.32797E+01-2.36906E+00-5.28097E-02 5.24078E+00-1.89432E-14-4.55080E-13
 -1      2493 2.97394E+01-2.31216E+00-9.67306E-02-7.53236E+00-5.86989E-13-9.25954E-13
 -1      2494 2.93173E+01-2.22796E+00 1.14455E-02-1.09076E+01-3.63987E-13-3.96627E-13
 -1      2495 3.09162E+01-1.39883E+00 1.19808E-01-1.10287E+01-5.68295E-13-3.28515E-13
 -1      2496 3.17853E+01 6.55526E-01 6.84298E-02-5.27473E+00-3.36231E-13-5.69100E-13
 -1      2497 2.45539E+01-3.43749E+00 1.29163E-02 1.38773E+01-3.53606E-14-6.37060E-13
 -1      2498 2.04471E+01 1.14972E-01-1.78832E-02 2.71555E+00-2.08347E-13 6.64642E-14
 -1      2499 2.13624E+01 1.07809E-01 4.10338E-02 2.27725E+00-1.23811E-13-1.65510E-13
 -1      2500 2.03143E+01 1.81385E+00-4.45121E-02 2.60100E+00-3.30820E-13-7.01852E-14
 -1      2501 2.05490E+01 1.95518E+00-1.36856E-02-1.89726E+00-4.62588E-13-1.53190E-13
 -1      2502 2.04124E+01 1.21425E+00-7.26725E-03-1.28610E+00-4.31427E-13-1.14533E-13
 -1      2503 2.03827E+01 1.38058E+00 7.24741E-03-1.23596E+00-3.95356E-13-2.05677E-13
 -1      2504 2.02907E+01 2.38500E+00-4.82912E-03-1.84133E+00-4.45865E-13-2.90707E-13
 -1      2505 1.61481E+01 8.04451E+00 4.69347E-01-1.20187E+01 1.46834E-13 2.32592E-12
 -1      2506 2.26339E+01 2.69964E-01-9.91749E-02 1.64481E+00 6.14439E-14-6.73787E-13
 -1      2507 2.45831E+01 3.80205E-01 5.23803E-02 2.75152E-01-7.13145E-14-7.53050E-13
 -1      2508 2.27762E+01 2.68483E+00-4.57540E-02 1.88269E+00-2.75335E-14-5.05582E-13
 -1      2509 1.93082E+01-3.04575E-01-2.14584E-03 2.46787E+00-2.69899E-13-2.81179E-13
 -1      2510 1.94294E+01-5.16948E-01 1.21719E-03 2.67222E+00-2.39848E-13-2.28106E-13
 -1      2511 1.94156E+01 9.74921E-01-1.86716E-02 2.63759E+00-2.57971E-13-8.06365E-14
 -1      2512 1.92538E+01-5.80476E-01 2.01999E-02 2.05991E+00-1.95459E-13-1.72641E-13
 -1      2513 2.11757E+01 8.99135E-01 9.28524E-02 1.40049E+01-2.02172E-13-5.64770E-13
 -1      2514 1.67101E+01-7.59317E+00 2.70210E-03 7.90473E+00-1.56264E-13-1.17878E-13
 -1      2515 1.19749E+01-7.30298E+00 9.61046E-02 7.58659E+00 9.23150E-14-1.62120E-13
 -1      2516 1.78910E+01-9.07944E+00 2.86958E-02-5.28016E+00-1.83853E-13-6.12836E-13
 -1      2517 2.27000E+01-9.09742E+00-3.68292E-02-4.59240E+00-1.60039E-13-7.32941E-13
 -1      2518 1.95174E+01 3.58550E+00-1.00822E-02-2.45128E-01-2.73044E-14-6.26247E-13
 -1      2519 1.95336E+01 3.56484E+00-9.63264E-03-4.25736E-01-8.33249E-14-6.17643E-13
 -1      2520 1.97097E+01 3.16425E+00-6.19034E-04-4.73034E-01-1.05227E-13-5.73210E-13
 -1      2521 1.96753E+01 3.22420E+00-9.39747E-04-1.51876E-01-1.08032E-14-6.05899E-13
 -1      2522 3.65715E+01 6.78598E+00-1.85394E-01 5.56749E-01-6.71130E-14-6.83148E-13
 -1      2523 3.72027E+01 4.50487E+00-3.41398E-02 8.27867E-01-7.37188E-14-5.54445E-13
 -1      2524 2.63730E+01-8.80487E+00-7.53615E-02-2.57140E+00 1.18239E-14-4.50945E-13
 -1      2525 3.03703E+01-7.59890E+00-1.90113E-01-7.47297E-01 1.86740E-13-3.80584E-13
 -1      2526 2.57899E+01-8.75253E+00 1.07564E-01-2.74550E+00-2.96707E-14-4.92502E-13
 -1      2527 3.49453E+01 8.41897E+00-1.87466E-01 2.33778E+00-1.01030E-13-4.64087E-13
 -1      2528 3.50739E+01 7.66982E+00-2.21899E-01 9.81016E-01-4.69624E-14-5.43732E-13
 -1      2529 3.52809E+01 6.20628E+00-1.58320E-01 5.85014E+00 2.82552E-13-4.43090E-13
 -1      2530 3.50762E+01 7.80091E+00-2.59059E-01 4.55696E+00-3.26961E-14-6.03496E-13
 -1      2531 3.49792E+01 3.20520E-01-1.79501E-01 6.56030E+00 5.74568E-13-2.48523E-13
 -1      2532 3.52260E+01 2.67714E+00-2.93055E-01 6.63753E+00 4.89386E-13-2.59903E-13
 -1      2533 3.66575E+00-4.56787E+00 1.68341E-01 3.64471E+00 3.80626E-13-3.38340E-13
 -1      2534 2.93093E+00-4.51963E+00 2.23524E-01 1.09999E+00 4.02807E-13-3.05256E-13
 -1      2535 3.33741E+01-5.44077E+00-7.18088E-02 2.53167E+00 2.63511E-13-2.50355E-13
 -1      2536 3.58591E+01-2.45090E+00-1.91715E-01 4.47451E+00 4.75835E-13-2.87159E-13
 -1      2537 3.26710E+01-1.79166E+00 1.26796E-03 6.30425E+00 3.57242E-13-6.35880E-14
 -1      2538 3.17927E+01-6.45055E+00 1.32140E-01 2.06800E+00 8.80268E-14-2.81525E-13
 -1      2539 9.47212E+00-7.47115E+00 1.07703E-01-5.26023E+00 2.92433E-13-2.06390E-13
 -1      2540 1.31390E+01-8.16723E+00 2.38732E-02-6.06306E+00 1.26565E-13-2.64594E-13
 -1      2541 2.62737E+01-6.72294E+00-8.46393E-02 5.16780E+00-2.23321E-13-2.69645E-13
 -1      2542 2.16249E+01-7.62538E+00 5.98267E-02 6.43382E+00-3.21076E-13-1.16851E-13
 -1      2543 8.11585E+00-6.27128E+00 9.43282E-02 7.10831E+00 2.96679E-13-2.33064E-13
 -1      2544 5.54898E+00-5.59339E+00 1.52825E-01 5.61107E+00 3.87190E-13-3.04368E-13
 -1      2545 3.79541E+01 1.07685E+01-1.17479E-01-3.66979E+00 9.39804E-14 1.74416E-13
 -1      2546 3.79163E+01 1.15081E+01-1.45692E-01-3.35526E+00 7.39964E-14 7.57588E-14
 -1      2547 3.25010E+01-3.31045E+00-1.39484E-01 1.18535E+00 1.51532E-13-4.02539E-13
 -1      2548 2.99154E+01-5.02806E+00 6.15327E-03 2.50229E+00 3.11556E-14-3.34205E-13
 -1      2549 3.59412E+01 2.68950E+00-2.08327E-01-2.59018E+00-3.99680E-14-1.63869E-13
 -1      2550 3.42758E+01-3.27333E-01-7.08980E-02-9.92128E-01 1.94164E-13-3.20355E-13
 -1      2551 3.65411E+01 8.01195E+00-2.34786E-01-3.98423E+00-5.51614E-13-1.22707E-13
 -1      2552 3.60545E+01 6.12306E+00-1.41336E-01-3.77628E+00-4.07341E-13-8.57370E-14
 -1      2553 3.67042E+01 1.12814E+01-1.94097E-01-3.70984E+00-1.34281E-13-7.11159E-14
 -1      2554 3.60192E+01 1.02311E+01-2.15705E-01-3.86053E+00-4.40536E-13-1.47826E-13
 -1      2555 3.55375E+01 6.78211E+00-1.67164E-01-4.04715E+00-6.68354E-14 1.74694E-13
 -1      2556 3.67084E+01 8.93225E+00-1.06572E-01-3.69826E+00 4.13558E-14 2.84495E-13
 -1      2557 3.46534E+01-6.73604E-01-5.39817E-02 2.97577E+00 9.32136E-14-5.08149E-13
 -1      2558 3.12373E+01-1.72852E+00-1.28798E-02 2.24038E+00-4.46709E-14-3.95683E-13
 -1      2559 1.99121E+01 2.81631E+00 2.42169E-03-1.09784E+00-2.89366E-13-5.55067E-13
 -1      2560 1.97820E+01 3.16073E+00-1.45362E-02-1.28363E+00-3.06034E-13-5.79844E-13
 -1      2561 1.98766E+01 3.03733E+00-1.74657E-02-1.48228E+00-3.63989E-13-5.35727E-13
 -1      2562 1.88763E+01 2.17401E-01-1.82172E-02 1.92367E+00-2.65606E-13-3.47517E-14
 -1      2563 1.91737E+01-2.20639E-01-9.62116E-03 2.29419E+00-2.91922E-13-1.79016E-13
 -1      2564 1.90732E+01 7.56717E-01 2.82499E-02 2.30602E+00-3.87697E-13-2.97271E-13
 -1      2565 1.86735E+01 6.95759E-01 2.99644E-02 1.79145E+00-2.67313E-13 6.56289E-14
 -1      2566 2.87791E+01-1.47212E+00-2.28949E-01-1.24079E-01-4.03323E-15-1.87350E-13
 -1      2567 1.87436E+01 1.15384E+00-1.45627E-02 1.72182E+00-2.71438E-13 1.08415E-13
 -1      2568 3.09385E+01 3.48174E+00-9.01346E-02 6.99155E+00 2.61541E-13-2.04503E-13
 -1      2569 3.31314E+01 9.21749E+00-8.71095E-02-4.31133E+00-4.57856E-13-2.67772E-13
 -1      2570 3.39387E+01 3.90465E+00-5.51983E-02-3.96695E+00-1.37390E-13-7.35523E-14
 -1      2571 3.27522E+01-2.07196E+00 9.58163E-03-1.27863E+00 5.84567E-14-3.13360E-13
 -1      2572 3.36711E+01 9.44458E+00 2.01595E-02-1.95953E+00-5.44009E-15 2.40641E-14
 -1      2573 2.01136E+01 2.62152E+00-1.17070E-02-1.67741E+00-4.01258E-13-3.98355E-13
 -1      2574 1.22002E+01-5.93054E+00 1.57429E-01 7.35421E+00 2.42861E-13-3.06893E-13
 -1      2575 2.69262E+01 2.43585E+00-1.48835E-01-5.37988E-01-1.34059E-14-3.40006E-13
 -1      2576 3.18625E+01 6.21043E+00 2.85655E-02-3.20678E-01 3.18079E-14-3.82805E-13
 -1      2577 1.76113E+01-7.90459E+00 1.39318E-01-5.32851E+00-9.69225E-14-3.39548E-13
 -1      2578 1.58172E+01 2.05092E-01-3.75860E-01-1.48698E+01 1.17961E-13 1.49641E-12
 -1      2579 2.05525E+01-7.44732E+00 1.18586E-01 6.81206E+00-1.72085E-13-2.65407E-13
 -1      2580 3.63028E+01 1.61624E+00-1.19190E-01 1.87924E+00 2.46192E-14-5.28411E-13
 -1      2581 4.55943E+00-3.69656E+00 1.87363E-01-2.95732E-01 3.10413E-13-3.61933E-13
 -1      2582 8.91011E+00-5.80403E+00 1.82699E-01-4.75241E+00 2.18769E-13-1.79773E-13
 -1      2583 3.42540E+01 3.97770E+00-9.31240E-02-4.58637E+00-1.02959E-13 2.10942E-15
 -1      2584 3.17473E+01 4.45389E+00 6.16929E-02-1.97513E+00-8.44047E-14 2.05669E-13
 -1      2585 3.36276E+01 1.12759E+01-8.00349E-02-3.17124E+00-1.06415E-13-2.17585E-13
 -1      2586 6.52297E+00-3.73184E+00 1.80067E-01 4.54448E+00 4.19290E-13-3.06588E-13
 -1      2587 2.82912E+01-6.31626E+00 4.26700E-02 3.16074E+00-8.66252E-14-1.58887E-13
 -1      2588 3.30648E+01 2.12346E+00-5.50330E-02-5.18016E-01 6.10068E-14-3.96627E-13
 -1      2589 3.35477E+01 1.11894E-01 3.82968E-02-9.19750E+00-7.13180E-13-6.80345E-13
 -1      2590 2.90730E+01-5.92637E+00-1.80986E-01 1.57263E+00-1.06172E-13-2.79693E-13
 -1      2591 2.66250E+01-6.80180E+00 1.35356E-01 3.66778E+00-1.61940E-13-1.45405E-13
 -1      2592 1.98434E+01 2.76582E+00-6.30575E-03 5.15780E-01 1.78538E-13-5.49475E-13
 -1      2593 1.98184E+01 2.81555E+00-5.71667E-03 3.65031E-01 1.34211E-13-5.60869E-13
 -1      2594 1.98014E+01 2.85307E+00-5.62304E-03 2.29698E-01 1.01489E-13-5.75831E-13
 -1      2595 1.97928E+01 2.87000E+00-5.43666E-03 7.51789E-02 5.64957E-14-5.71828E-13
 -1      2596 1.99478E+01 2.50185E+00 3.61444E-03 2.65004E-01 1.25111E-13-5.50844E-13
 -1      2597 2.00431E+01 2.32359E+00-1.12053E-02 1.04467E+00 3.34916E-13-4.62027E-13
 -1      2598 1.99781E+01 2.47427E+00-6.41594E-03 9.09549E-01 2.93670E-13-4.90138E-13
 -1      2599 2.02030E+01 1.90560E+00-1.91786E-02 1.22656E+00 3.89837E-13-3.63545E-13
 -1      2600 2.01221E+01 2.14789E+00-5.42575E-03 1.13070E+00 3.62842E-13-4.24530E-13
 -1      2601 2.01895E+01 1.89709E+00 9.17242E-03 9.28401E-01 3.29749E-13-4.08714E-13
 -1      2602 2.04087E+01 1.08160E+00 7.29875E-03 1.16245E+00 4.20282E-13-4.94617E-14
 -1      2603 1.98566E+01 4.94800E-02 4.93390E-05-1.45597E-01 9.53840E-14-2.03758E-13
 -1      2604 1.98704E+01 8.14020E-02 3.16846E-03-1.17237E-01 1.35644E-13-1.88276E-13
 -1      2605 1.99621E+01 2.31513E-01-8.11183E-04 6.13648E-02 2.04187E-13-1.67814E-13
 -1      2606 2.00295E+01 3.15232E-01 8.32303E-03 1.59338E-01 2.46687E-13-1.39321E-13
 -1      2607 2.00710E+01 4.16748E-01-1.34086E-03 2.86500E-01 2.89144E-13-1.54624E-13
 -1      2608 2.01813E+01 5.56422E-01 1.54755E-02 4.50074E-01 3.27220E-13-1.43650E-13
 -1      2609 2.01438E+01 4.76607E-01-3.05298E-03 2.78735E-01 2.87075E-13-1.92630E-13
 -1      2610 2.41887E+01-7.74537E+00 1.59173E-01-2.87873E+00-2.25028E-13-4.29585E-13
 -1      2611 2.71275E+01-8.18927E+00-1.27273E-01-1.32089E+00-1.94400E-13-3.14200E-13
 -1      2612 2.02166E+01 6.27564E-01 8.17643E-03-4.35787E-01-2.61120E-13-2.25101E-13
 -1      2613 2.01331E+01 4.75813E-01-3.38808E-03-2.76943E-01-2.31523E-13-2.25273E-13
 -1      2614 2.01071E+01 3.62949E-01 6.60216E-03-1.57075E-01-2.12668E-13-2.03264E-13
 -1      2615 2.00480E+01 2.68186E-01-1.77916E-03-5.93116E-02-1.84668E-13-2.30705E-13
 -1      2616 2.01955E+01 5.29241E-01-1.70132E-03-2.60357E-01-2.31906E-13-2.63922E-13
 -1      2617 2.00219E+01 1.97910E-01 4.51386E-03 1.60441E-02-1.77061E-13-2.24462E-13
 -1      2618 1.99861E+01 1.38353E-01-8.40320E-04 7.26923E-02-1.58637E-13-2.41344E-13
 -1      2619 2.01267E+01 2.99107E-01-2.09042E-03-5.37964E-02-1.79943E-13-2.56025E-13
 -1      2620 1.99651E+01 9.41865E-02 2.89468E-03 1.16113E-01-1.61665E-13-2.49897E-13
 -1      2621 1.99470E+01 5.68669E-02-2.99562E-04 1.45596E-01-1.52226E-13-2.62538E-13
 -1      2622 2.00701E+01 1.52899E-01-1.89658E-03 7.35847E-02-1.77281E-13-2.74223E-13
 -1      2623 1.99320E+01 2.93557E-02 1.73305E-03 1.67096E-01-1.15372E-13-2.81532E-13
 -1      2624 1.99261E+01 6.52588E-03-2.92344E-06 1.78998E-01-9.92339E-14-2.79649E-13
 -1      2625 2.00289E+01 6.04364E-02-1.51548E-03 1.44655E-01-1.48523E-13-3.26320E-13
 -1      2626 1.99162E+01-1.00374E-02 9.29386E-04 1.86052E-01-7.20580E-14-2.49500E-13
 -1      2627 1.99180E+01-2.32608E-02 1.50645E-04 1.86931E-01-5.47980E-14-2.52094E-13
 -1      2628 2.00014E+01 3.25599E-03-1.13219E-03 1.77392E-01-6.59188E-14-3.22976E-13
 -1      2629 1.99121E+01-3.25333E-02 3.92008E-04 1.84922E-01-6.30890E-14-2.04593E-13
 -1      2630 1.99184E+01-3.93693E-02 2.22473E-04 1.79255E-01-1.07768E-13-1.83857E-13
 -1      2631 1.99845E+01-3.04152E-02-8.09058E-04 1.85152E-01-5.53749E-14-1.86343E-13
 -1      2632 1.99153E+01-4.37964E-02 4.73917E-05 1.71970E-01-1.12810E-13-1.24537E-13
 -1      2633 1.99238E+01-4.64311E-02 2.48348E-04 1.62795E-01-6.80594E-14-1.28468E-13
 -1      2634 1.99754E+01-4.83783E-02-5.57370E-04 1.77518E-01-6.11860E-14-1.14033E-13
 -1      2635 1.99227E+01-4.76893E-02-1.60782E-04 1.52838E-01-8.20918E-14-1.01409E-13
 -1      2636 1.99320E+01-4.76277E-02 2.49167E-04 1.42186E-01-4.32720E-14-1.72097E-13
 -1      2637 1.99716E+01-5.59451E-02-3.70244E-04 1.61203E-01-8.27844E-14-3.73380E-14
 -1      2638 1.99321E+01-4.68740E-02-2.74897E-04 1.31305E-01-1.47967E-14-2.54578E-13
 -1      2639 1.99413E+01-4.51487E-02 2.37614E-04 1.20501E-01-2.75537E-14-2.47054E-13
 -1      2640 1.99712E+01-5.67809E-02-2.36109E-04 1.40803E-01-9.41841E-14-1.69657E-13
 -1      2641 1.99421E+01-4.31730E-02-3.26262E-04 1.09833E-01-3.85895E-14-2.52335E-13
 -1      2642 1.99507E+01-4.04776E-02 2.21847E-04 9.97155E-02-8.19803E-14-2.15094E-13
 -1      2643 1.99730E+01-5.34087E-02-1.43648E-04 1.19383E-01-9.22738E-15-1.57495E-13
 -1      2644 1.99520E+01-3.78027E-02-3.37669E-04 8.99755E-02-1.44508E-13-1.27047E-13
 -1      2645 1.99597E+01-3.45816E-02 2.07557E-04 8.10542E-02-1.25684E-13-9.99018E-14
 -1      2646 1.99760E+01-4.75310E-02-8.29693E-05 9.89232E-02-6.45231E-14-1.25103E-13
 -1      2647 1.99612E+01-3.15315E-02-3.25591E-04 7.26740E-02-1.13083E-13-9.95319E-14
 -1      2648 1.99680E+01-2.80431E-02 1.98970E-04 6.52498E-02-7.20606E-14-9.47322E-14
 -1      2649 1.99796E+01-4.02472E-02-4.60749E-05 8.06631E-02-1.20029E-13-1.62020E-14
 -1      2650 1.99696E+01-2.47930E-02-3.01759E-04 5.84880E-02-8.67980E-14-1.72079E-13
 -1      2651 1.99757E+01-2.11568E-02 1.99354E-04 5.27415E-02-6.76589E-14-1.43254E-13
 -1      2652 1.99835E+01-3.22067E-02-2.69098E-05 6.53589E-02-1.46764E-13-6.21679E-14
 -1      2653 1.99774E+01-1.77710E-02-2.74370E-04 4.77641E-02 4.37342E-16-1.07513E-13
 -1      2654 1.99829E+01-1.40042E-02 2.11327E-04 4.38216E-02 4.47384E-14-1.01598E-13
 -1      2655 1.99876E+01-2.37233E-02-2.09759E-05 5.34826E-02-2.39909E-14-1.13453E-13
 -1      2656 1.99846E+01-1.04660E-02-2.49075E-04 4.07621E-02 6.71480E-14-1.14630E-13
 -1      2657 1.99899E+01-6.51156E-03 2.37112E-04 3.87438E-02 1.03343E-13-6.03593E-14
 -1      2658 1.99918E+01-1.48624E-02-2.49003E-05 4.53686E-02 6.42292E-14-1.38044E-13
 -1      2659 1.99917E+01-2.74665E-03-2.29668E-04 3.77463E-02 6.24494E-14-4.85682E-14
 -1      2660 1.99970E+01 1.50282E-03 2.78607E-04 3.78003E-02 6.68336E-14-1.20966E-13
 -1      2661 1.99962E+01-5.51075E-03-3.62100E-05 4.13208E-02 7.06051E-14-1.90965E-13
 -1      2662 1.99991E+01 5.60508E-03-2.18510E-04 3.90499E-02 1.09310E-13-1.46671E-13
 -1      2663 2.00048E+01 1.02851E-02 3.37245E-04 4.13732E-02 1.19554E-13-1.72747E-13
 -1      2664 2.00008E+01 4.56618E-03-5.31605E-05 4.16898E-02 6.92135E-14-9.91224E-14
 -1      2665 2.00071E+01 1.48497E-02-2.16707E-04 4.51135E-02 9.60125E-14-9.18992E-14
 -1      2666 2.00138E+01 2.00986E-02 4.13693E-04 4.99611E-02 8.73173E-14-8.03337E-14
 -1      2667 2.00061E+01 1.56692E-02-7.45859E-05 4.69227E-02 1.24896E-13-2.03583E-13
 -1      2668 2.00165E+01 2.52383E-02-2.24052E-04 5.64985E-02 6.78261E-14-1.08789E-13
 -1      2669 2.00246E+01 3.11645E-02 5.07313E-04 6.41767E-02 1.97129E-14-9.49157E-14
 -1      2670 2.00121E+01 2.81037E-02-9.98494E-05 5.75865E-02 8.14073E-14-1.85695E-13
 -1      2671 2.00279E+01 3.69443E-02-2.38675E-04 7.38688E-02-5.02195E-14-1.59343E-13
 -1      2672 2.00380E+01 4.35818E-02 6.15367E-04 8.47098E-02-1.09436E-14-1.76772E-13
 -1      2673 2.00192E+01 4.21009E-02-1.28936E-04 7.43611E-02-6.73153E-14-1.03689E-13
 -1      2674 2.00421E+01 4.99690E-02-2.56354E-04 9.79331E-02-5.49946E-14-2.28532E-13
 -1      2675 2.00548E+01 5.72141E-02 7.31879E-04 1.12244E-01-1.34715E-13-1.84335E-13
 -1      2676 2.00279E+01 5.77108E-02-1.62739E-04 9.79961E-02-8.77715E-14-1.58729E-13
 -1      2677 2.00601E+01 6.40082E-02-2.69408E-04 1.29332E-01-3.91163E-14-1.09055E-13
 -1      2678 2.00759E+01 7.15316E-02 8.46148E-04 1.47307E-01 2.95113E-14-9.33245E-14
 -1      2679 2.00388E+01 7.46520E-02-2.03616E-04 1.29217E-01-5.50188E-14-5.96199E-14
 -1      2680 2.00829E+01 7.82680E-02-2.65155E-04 1.68453E-01 5.28759E-14-6.70555E-14
 -1      2681 2.01027E+01 8.53957E-02 9.40875E-04 1.90043E-01 1.10469E-13-6.07097E-14
 -1      2682 2.00526E+01 9.21037E-02-2.56304E-04 1.68566E-01 6.66636E-14 2.09851E-14
 -1      2683 2.01120E+01 9.12199E-02-2.23922E-04 2.15148E-01 9.34302E-14-9.56617E-14
 -1      2684 2.01365E+01 9.67819E-02 9.90009E-04 2.39865E-01-2.87518E-14-7.04573E-15
 -1      2685 2.00705E+01 1.08429E-01-3.29257E-04 2.16156E-01 4.99210E-14-1.65283E-14
 -1      2686 2.01493E+01 1.00294E-01-1.16833E-04 2.68320E-01-8.76527E-14-3.82166E-15
 -1      2687 2.01791E+01 1.02446E-01 9.56457E-04 2.94974E-01-4.20645E-14 2.78812E-14
 -1      2688 2.00939E+01 1.20823E-01-4.36376E-04 2.71306E-01-4.44785E-14 6.04992E-14
 -1      2689 2.01970E+01 1.01531E-01 9.61300E-05 3.25370E-01-6.31275E-15 8.71314E-14
 -1      2690 2.02328E+01 9.75732E-02 7.90033E-04 3.51727E-01-5.57083E-15 1.03262E-13
 -1      2691 2.01254E+01 1.24905E-01-5.98825E-04 3.32043E-01-7.01611E-15 1.05021E-14
 -1      2692 2.02582E+01 8.92520E-02 4.66539E-04 3.81468E-01-1.23353E-13-2.87395E-15
 -1      2693 2.03006E+01 7.55089E-02 4.26219E-04 4.03846E-01-9.51012E-14-9.85059E-14
 -1      2694 2.01682E+01 1.14316E-01-8.46033E-04 3.94435E-01-8.11499E-14-1.29561E-13
 -1      2695 2.03369E+01 5.58971E-02 1.05402E-03 4.28678E-01-1.43278E-13-7.72450E-14
 -1      2696 2.03863E+01 2.77673E-02-2.13164E-04 4.41517E-01-2.38062E-13-1.16993E-13
 -1      2697 2.02275E+01 8.04579E-02-1.21383E-03 4.51752E-01-1.48044E-13-1.21018E-13
 -1      2698 2.04379E+01-7.71248E-03 1.91443E-03 4.55005E-01-2.65555E-13-5.25502E-14
 -1      2699 2.04944E+01-5.53130E-02-1.21509E-03 4.50520E-01-1.65585E-13-2.87056E-14
 -1      2700 2.03101E+01 1.26542E-02-1.73567E-03 4.93486E-01-2.01233E-13-3.50915E-14
 -1      2701 2.05669E+01-1.11201E-01 3.07223E-03 4.43552E-01-7.45293E-14-2.75893E-14
 -1      2702 2.06295E+01-1.82671E-01-2.66124E-03 4.11672E-01-2.50752E-15-2.71991E-14
 -1      2703 2.04250E+01-1.00771E-01-2.41977E-03 5.04314E-01-1.12377E-13 5.82423E-14
 -1      2704 2.07288E+01-2.61847E-01 4.46600E-03 3.72198E-01 6.81745E-14-7.46386E-14
 -1      2705 2.07952E+01-3.58544E-01-4.59333E-03 3.01162E-01 1.77536E-13 5.98760E-14
 -1      2706 2.05828E+01-2.69718E-01-3.20283E-03 4.63251E-01-2.03638E-14 2.81745E-14
 -1      2707 2.09255E+01-4.59266E-01 5.85980E-03 2.14603E-01 2.04292E-13-1.02773E-13
 -1      2708 2.09902E+01-5.75496E-01-6.92315E-03 9.27889E-02 1.86911E-13-1.33827E-13
 -1      2709 2.07932E+01-4.96785E-01-3.87174E-03 3.43557E-01 8.04933E-14-2.13772E-13
 -1      2710 2.11501E+01-6.86810E-01 6.73371E-03-5.60212E-02 9.96518E-14-9.29340E-14
 -1      2711 2.12026E+01-8.04132E-01-9.26730E-03-2.36154E-01 7.96758E-15-1.98465E-13
 -1      2712 2.10606E+01-7.67908E-01-3.94268E-03 1.14568E-01 1.52414E-13-4.29192E-13
 -1      2713 2.13782E+01-9.00231E-01 6.10245E-03-4.57803E-01 5.28511E-14-1.64302E-13
 -1      2714 2.14016E+01-9.81668E-01-1.07419E-02-6.92723E-01-8.53506E-15-1.06671E-13
 -1      2715 2.13739E+01-1.03888E+00-2.59374E-03-2.52132E-01 3.07255E-14-3.31133E-13
 -1      2716 2.15591E+01-1.01806E+00 2.73285E-03-9.83008E-01 1.83815E-14-3.32409E-14
 -1      2717 2.15304E+01-1.00695E+00-9.71256E-03-1.24817E+00 4.21987E-14 3.26414E-14
 -1      2718 2.16936E+01-1.22251E+00 9.95449E-04-7.68066E-01 5.37704E-14-1.50024E-13
 -1      2719 2.16121E+01-9.24344E-01-4.24134E-03-1.57258E+00 2.91334E-14 4.93942E-14
 -1      2720 2.15081E+01-7.55823E-01-4.11542E-03-1.81231E+00-1.48107E-14 8.55401E-14
 -1      2721 2.19396E+01-1.18597E+00 7.41700E-03-1.40187E+00 7.89858E-14-1.53093E-13
 -1      2722 2.14419E+01-5.00398E-01-1.44559E-02-2.08928E+00-8.29144E-14 2.74825E-13
 -1      2723 2.12522E+01-1.35678E-01 6.66201E-03-2.21451E+00-1.83953E-14 1.50819E-13
 -1      2724 2.19926E+01-7.78615E-01 1.54509E-02-2.04439E+00 8.96725E-14-1.52025E-13
 -1      2725 2.09898E+01 2.97227E-01-2.39620E-02-2.31507E+00 1.61069E-14 2.39645E-13
 -1      2726 2.07335E+01 8.15516E-01 1.94464E-02-2.22475E+00 1.75897E-13 1.58198E-13
 -1      2727 2.17319E+01 8.25152E-02 2.01655E-02-2.48151E+00 8.05474E-14 1.93061E-13
 -1      2728 2.03045E+01 1.33032E+00-2.67473E-02-2.01653E+00 2.79321E-13 9.71940E-14
 -1      2729 2.00381E+01 1.83857E+00 2.59560E-02-1.65161E+00 2.33008E-13 7.35883E-14
 -1      2730 2.11238E+01 1.29396E+00 1.72854E-02-2.42960E+00 1.24384E-13 1.52773E-13
 -1      2731 1.95810E+01 2.23106E+00-1.68947E-02-1.09989E+00 2.02073E-13-1.00996E-13
 -1      2732 1.93717E+01 2.49127E+00 1.83524E-02-5.11149E-01 9.19299E-14-2.07262E-13
 -1      2733 2.03120E+01 2.46471E+00 4.79222E-03-1.68876E+00 2.68632E-14-1.59009E-13
 -1      2734 1.90674E+01 2.53744E+00 2.37099E-03 2.56292E-01-1.52604E-13-2.87672E-13
 -1      2735 1.89490E+01 2.36180E+00-9.76878E-03 8.80799E-01-3.06272E-13-4.24623E-13
 -1      2736 1.95925E+01 3.05345E+00-3.79004E-03-3.21004E-01-1.00979E-13-4.66587E-13
 -1      2737 1.98933E+01 1.19017E-01-2.48213E-04-7.27041E-02 1.38832E-13-1.84955E-13
 -1      2738 1.99290E+01 1.70700E-01 5.27348E-03-1.71310E-02 1.71976E-13-1.56680E-13
 -1      2739 2.00563E+01 2.66691E-01-2.66051E-03 5.87415E-02 2.06917E-13-2.01265E-13
 -1      2740 3.02907E+01 6.84932E+00-1.30360E-01 3.05251E+00 3.11418E-14-2.90285E-13
 -1      2741 1.98431E+01 6.85868E-03 1.85970E-04-1.78551E-01 4.27535E-14-2.34252E-13
 -1      2742 1.98429E+01 2.62343E-02 1.78669E-03-1.67456E-01 5.98980E-14-2.24334E-13
 -1      2743 1.99519E+01 5.42717E-02-1.75473E-03-1.47770E-01 7.98076E-14-1.74376E-13
 -1      2744 1.98450E+01-1.83054E-02 2.33406E-04-1.86097E-01 7.02996E-14-2.07046E-13
 -1      2745 1.98365E+01-7.11638E-03 8.79244E-04-1.85681E-01 5.21325E-14-2.21605E-13
 -1      2746 1.99299E+01 4.30674E-03-1.24685E-03-1.81222E-01 4.24939E-14-1.97932E-13
 -1      2747 1.98560E+01-3.19642E-02 2.36498E-04-1.78205E-01 8.60894E-14-2.13669E-13
 -1      2748 1.98432E+01-2.61678E-02 2.94907E-04-1.84066E-01 8.98877E-14-1.88793E-13
 -1      2749 1.99210E+01-2.50317E-02-8.39972E-04-1.88993E-01 4.63980E-14-1.97089E-13
 -1      2750 1.98718E+01-3.80528E-02 2.19869E-04-1.61673E-01 1.03787E-13-1.60486E-13
 -1      2751 1.98573E+01-3.57835E-02-6.70546E-05-1.70866E-01 1.09279E-13-1.67265E-13
 -1      2752 1.99207E+01-4.07322E-02-5.36853E-04-1.81060E-01 8.91250E-14-1.76897E-13
 -1      2753 1.98894E+01-3.92480E-02 1.96426E-04-1.41076E-01 6.20872E-14-1.42401E-13
 -1      2754 1.98749E+01-3.92331E-02-2.76350E-04-1.51649E-01 9.00975E-14-1.38528E-13
 -1      2755 1.99257E+01-4.74607E-02-3.21137E-04-1.64311E-01 8.81435E-14-1.12966E-13
 -1      2756 1.99070E+01-3.73851E-02 1.73041E-04-1.19422E-01 5.49025E-14-1.02772E-13
 -1      2757 1.98933E+01-3.87544E-02-3.82496E-04-1.30112E-01 7.10554E-14-1.15489E-13
 -1      2758 1.99334E+01-4.84031E-02-1.73706E-04-1.43416E-01 6.95438E-14-7.92880E-14
 -1      2759 1.99234E+01-3.37069E-02 1.53671E-04-9.86304E-02-2.40320E-14-1.46922E-13
 -1      2760 1.99112E+01-3.58762E-02-4.20964E-04-1.08648E-01 3.13544E-14-1.28252E-13
 -1      2761 1.99424E+01-4.57419E-02-7.77546E-05-1.21465E-01 4.28689E-14-5.80523E-14
 -1      2762 1.99382E+01-2.90272E-02 1.40910E-04-7.98794E-02 4.92864E-14-1.69534E-13
 -1      2763 1.99276E+01-3.16204E-02-4.16932E-04-8.87498E-02-7.02691E-15-1.45667E-13
 -1      2764 1.99516E+01-4.09489E-02-2.01077E-05-1.00441E-01 1.43404E-14-1.39182E-13
 -1      2765 1.99513E+01-2.38427E-02 1.36907E-04-6.38612E-02 1.88695E-13-1.52574E-13
 -1      2766 1.99421E+01-2.66378E-02-3.88077E-04-7.13132E-02 1.23847E-13-1.10803E-13
 -1      2767 1.99604E+01-3.49794E-02 9.38939E-06-8.15748E-02 4.58483E-14-1.17151E-13
 -1      2768 1.99628E+01-1.84101E-02 1.43845E-04-5.09754E-02 9.62810E-14-5.56673E-14
 -1      2769 1.99549E+01-2.13024E-02-3.46763E-04-5.68541E-02 1.69339E-13-1.00113E-13
 -1      2770 1.99686E+01-2.84042E-02 1.84039E-05-6.56046E-02 1.45785E-13-9.23048E-14
 -1      2771 1.99731E+01-1.28008E-02 1.64097E-04-4.14774E-02-3.57543E-14-4.22220E-14
 -1      2772 1.99662E+01-1.57761E-02-3.01537E-04-4.56785E-02 5.37659E-14-6.98969E-15
 -1      2773 1.99763E+01-2.15036E-02 1.22402E-05-5.29771E-02 5.42752E-14-3.85908E-14
 -1      2774 1.99826E+01-6.94164E-03 2.00443E-04-3.55923E-02-1.03529E-13-5.47975E-14
 -1      2775 1.99763E+01-1.00573E-02-2.58199E-04-3.80111E-02-8.47907E-14-4.64742E-14
 -1      2776 1.99835E+01-1.43325E-02-5.53167E-06-4.40016E-02-2.13123E-14 4.06317E-14
 -1      2777 1.99922E+01-6.40254E-04 2.56309E-04-3.36050E-02-3.99981E-14-1.42672E-13
 -1      2778 1.99859E+01-4.01305E-03-2.20741E-04-3.40955E-02-8.65480E-14-1.24727E-13
 -1      2779 1.99906E+01-6.76836E-03-3.24469E-05-3.89683E-02-5.68125E-14 5.97431E-15
 -1      2780 2.00024E+01 6.40135E-03 3.35940E-04-3.59341E-02 5.67383E-14-1.45395E-13
 -1      2781 1.99956E+01 2.60026E-03-1.92143E-04-3.42747E-02 3.51079E-14-1.35902E-13
 -1      2782 1.99979E+01 1.45904E-03-6.68188E-05-3.82408E-02 4.21420E-14-9.55811E-14
 -1      2783 2.00141E+01 1.45844E-02 4.44593E-04-4.31977E-02 7.09054E-14-1.55993E-13
 -1      2784 2.00063E+01 1.01294E-02-1.75022E-04-3.90595E-02 7.95971E-14-1.51242E-13
 -1      2785 2.00060E+01 1.07532E-02-1.07311E-04-4.23337E-02 9.29952E-14-9.73593E-14
 -1      2786 2.00285E+01 2.44213E-02 5.88735E-04-5.62769E-02 7.33999E-14-1.67271E-13
 -1      2787 2.00187E+01 1.90267E-02-1.72257E-04-4.91915E-02 8.99614E-14-1.84722E-13
 -1      2788 2.00153E+01 2.16502E-02-1.52408E-04-5.19796E-02 9.35739E-14-1.63363E-13
 -1      2789 2.00465E+01 3.65555E-02 7.76222E-04-7.63808E-02 2.08756E-14-2.53383E-13
 -1      2790 2.00340E+01 2.98634E-02-1.87655E-04-6.57063E-02 2.77065E-14-1.41465E-13
 -1      2791 2.00264E+01 3.48305E-02-1.99754E-04-6.81919E-02 7.98134E-15-1.58031E-13
 -1      2792 2.00696E+01 5.17927E-02 1.01644E-03-1.05120E-01 4.37719E-14-2.73565E-13
 -1      2793 2.00533E+01 4.33548E-02-2.26745E-04-9.00005E-02 8.18261E-14-2.80169E-13
 -1      2794 2.00400E+01 5.11459E-02-2.45235E-04-9.23284E-02 7.99571E-14-9.75033E-14
 -1      2795 2.00990E+01 7.11461E-02 1.32032E-03-1.44588E-01-1.05892E-13-1.87565E-13
 -1      2796 2.00777E+01 6.03984E-02-2.97739E-04-1.23908E-01-4.74187E-14-2.48386E-13
 -1      2797 2.00566E+01 7.16604E-02-2.81681E-04-1.26156E-01-4.87360E-14-6.36780E-14
 -1      2798 2.01362E+01 9.58918E-02 1.69996E-03-1.97460E-01-9.74442E-14-6.55384E-14
 -1      2799 2.01087E+01 8.21243E-02-4.12729E-04-1.69786E-01-8.37709E-14-1.28379E-13
 -1      2800 2.00768E+01 9.77057E-02-2.97016E-04-1.71920E-01-1.36021E-13-5.72955E-14
 -1      2801 2.01826E+01 1.27627E-01 2.16766E-03-2.67095E-01-8.71682E-14 1.06247E-13
 -1      2802 2.01473E+01 1.09954E-01-5.89062E-04-2.30617E-01-1.08820E-13 2.93339E-14
 -1      2803 2.01006E+01 1.30946E-01-2.71708E-04-2.32417E-01-1.78480E-13-4.90514E-14
 -1      2804 2.02392E+01 1.68300E-01 2.73358E-03-3.57634E-01-1.00258E-13-1.83116E-14
 -1      2805 2.01945E+01 1.45651E-01-8.50655E-04-3.10106E-01-3.07737E-14 6.26051E-14
 -1      2806 2.01277E+01 1.73437E-01-1.75496E-04-3.11055E-01-1.28800E-13 6.30137E-14
 -1      2807 2.03062E+01 2.20153E-01 3.40133E-03-4.74053E-01 1.08664E-13-7.75508E-14
 -1      2808 2.02507E+01 1.91317E-01-1.22857E-03-4.12768E-01-2.49813E-14-1.14550E-13
 -1      2809 2.01568E+01 2.27624E-01 3.62496E-05-4.11891E-01 1.53247E-14-7.69531E-15
 -1      2810 2.03829E+01 2.85417E-01 4.16037E-03-6.22086E-01 7.03434E-14 1.59459E-13
 -1      2811 2.03153E+01 2.49248E-01-1.75927E-03-5.43937E-01 1.65061E-13 6.01302E-14
 -1      2812 2.01850E+01 2.96195E-01 4.25035E-04-5.39597E-01 3.14278E-14 2.82413E-15
 -1      2813 2.04665E+01 3.65481E-01 4.97470E-03-8.07866E-01-1.49908E-13 1.23564E-13
 -1      2814 2.03861E+01 3.21412E-01-2.47744E-03-7.09607E-01-2.01394E-14 1.72758E-13
 -1      2815 2.02075E+01 3.81554E-01 1.06654E-03-6.99279E-01 2.80465E-14 2.04904E-13
 -1      2816 2.05519E+01 4.58912E-01 5.76970E-03-1.03699E+00-1.57452E-13 1.23773E-13
 -1      2817 2.04589E+01 4.08166E-01-3.39727E-03-9.15915E-01-1.49318E-13 1.12159E-13
 -1      2818 2.02163E+01 4.84504E-01 2.03296E-03-8.96059E-01-1.53852E-13 7.44632E-14
 -1      2819 2.06317E+01 5.57298E-01 6.42691E-03-1.31261E+00-3.13907E-14 1.98679E-13
 -1      2820 2.05271E+01 5.05369E-01-4.47089E-03-1.16796E+00-1.11514E-13 1.96771E-13
 -1      2821 2.02002E+01 6.01335E-01 3.33945E-03-1.13428E+00-1.58955E-13-1.03129E-13
 -1      2822 2.06995E+01 6.37104E-01 6.82120E-03-1.63184E+00 6.47236E-14 1.07315E-13
 -1      2823 2.05836E+01 5.98534E-01-5.49557E-03-1.46752E+00 8.05172E-14 1.44307E-13
 -1      2824 2.01457E+01 7.17968E-01 4.81930E-03-1.41624E+00 6.20228E-14-5.81818E-14
 -1      2825 2.07581E+01 6.45176E-01 6.96157E-03-1.97982E+00 9.90527E-16-7.04698E-14
 -1      2826 2.06265E+01 6.51863E-01-5.89062E-03-1.80905E+00 5.79302E-14 2.75689E-14
 -1      2827 2.00415E+01 7.99009E-01 5.89586E-03-1.74060E+00 1.00139E-13-1.69982E-13
 -1      2828 2.08416E+01 4.76597E-01 7.76190E-03-2.32018E+00 6.47984E-15-6.99127E-14
 -1      2829 2.06736E+01 5.89987E-01-4.18025E-03-2.17300E+00 1.69099E-14 4.82036E-16
 -1      2830 1.98906E+01 7.69273E-01 5.27655E-03-2.10070E+00 4.67608E-15-2.11054E-13
 -1      2831 2.10448E+01-6.24921E-02 4.39186E-03-2.58536E+00-3.99390E-14 1.57790E-13
 -1      2832 2.07959E+01 2.72917E-01 3.41734E-03-2.51676E+00-2.84614E-14 9.12916E-14
 -1      2833 1.97352E+01 4.87188E-01 1.58440E-04-2.48264E+00-1.43041E-13-1.77706E-14
 -1      2834 2.16073E+01-1.20054E+00 6.39575E-03-2.61509E+00-1.27885E-13 1.93488E-13
 -1      2835 2.11900E+01-5.20986E-01 2.66815E-02-2.72363E+00-8.43764E-14 2.44412E-13
 -1      2836 1.97316E+01-3.29428E-01-2.28819E-02-2.86105E+00-1.35158E-13 5.72851E-14
 -1      2837 2.28476E+01-3.26697E+00-7.74771E-03-2.22849E+00-5.16531E-14-1.26052E-13
 -1      2838 2.21762E+01-2.03543E+00 7.82639E-02-2.64449E+00-5.67810E-14 7.05321E-14
 -1      2839 2.01953E+01-1.82014E+00-3.70650E-02-3.07291E+00 1.99701E-14 2.95632E-14
 -1      2840 2.68665E+01-6.17578E+00 2.82204E-02 6.03036E-04-2.35461E-13-2.76864E-13
 -1      2841 2.53523E+01-5.15355E+00 6.48803E-02-1.28266E+00-2.51313E-13-2.44570E-13
 -1      2842 2.88115E+01-6.31209E+00 1.95973E-02 1.63343E+00-1.00933E-13-2.00839E-13
 -1      2843 3.11630E+01-2.21693E+00-7.88009E-02 6.66452E+00 2.37740E-13-1.34115E-13
 -1      2844 2.99061E+01 9.47810E+00-2.53239E-01-3.93821E+00-3.78031E-13-5.55514E-13
 -1      2845 3.07938E+01 7.80772E+00-1.33167E-01-4.63222E+00-4.38150E-13-4.54053E-13
 -1      2846 3.00413E+01 4.55819E+00-1.68409E-01-1.08151E+00 1.02141E-13-1.93567E-13
 -1      2847 2.78728E+01 1.46671E-01-4.31243E-02-1.64734E+00 1.39153E-13-2.86160E-14
 -1      2848 2.00626E+01 3.11481E+00-8.42932E-03 2.10078E+00-2.00236E-13-5.01179E-14
 -1      2849 2.09051E+01 3.68372E+00 7.42255E-03 1.83561E+00-1.01776E-13-1.33248E-13
 -1      2850 2.19810E+01 4.63961E+00-1.07743E-01 1.58781E+00 1.01932E-14-3.58151E-13
 -1      2851 2.41412E+01 5.22342E+00 2.72140E-02 1.01931E+00 6.07500E-14-7.59767E-13
 -1      2852 2.18367E+01 5.58752E+00-1.04328E-01 1.00774E+00 4.26083E-14-4.29448E-13
 -1      2853 1.91925E+01 1.45550E+00-3.75959E-03 2.31327E+00-2.53022E-13-2.17503E-13
 -1      2854 1.94982E+01 1.89765E+00 1.87773E-02 2.30739E+00-2.25784E-13-3.96193E-14
 -1      2855 1.97838E+01 3.39494E+00-3.07811E-02 1.66291E+00-1.42541E-13 3.33067E-16
 -1      2856 1.90450E+01 1.38352E+00-1.31765E-02 2.03805E+00-2.75988E-13-2.44597E-13
 -1      2857 3.26339E+01 1.13832E+00-6.56534E-02-6.07653E+00-4.24293E-13-4.68126E-13
 -1      2858 1.65039E+01-6.34146E+00 1.78342E-01-5.20107E+00 1.36530E-13-1.57818E-13
 -1      2859 2.05719E+01-7.69342E+00-1.61449E-02-4.69277E+00-1.08552E-13-4.05356E-13
 -1      2860 2.26688E+01-6.75516E+00 5.32334E-02-3.27830E+00-1.80495E-13-3.49165E-13
 -1      2861 5.96426E+00-2.13846E+00 1.57422E-01 4.28331E-01 2.46268E-13-2.34313E-13
 -1      2862 6.18951E+00-3.14731E+00 1.93950E-01-2.22550E+00 1.77303E-13-3.06949E-13
 -1      2863 3.05389E+01 1.03140E+01-2.55321E-01-1.97615E+00-1.36224E-13-1.88752E-13
 -1      2864 2.94864E+01 1.05034E+01-2.57806E-01-2.54015E+00-2.57128E-13-5.20594E-13
 -1      2865 1.50788E+01-5.77278E+00 4.50696E-02 7.44875E+00 2.39697E-13-5.19126E-13
 -1      2866 1.16895E+01-4.45070E+00 1.60871E-01 6.71437E+00 3.62224E-13-3.59102E-13
 -1      2867 8.40048E+00-3.89512E+00 1.73515E-01-3.83921E+00 2.08000E-13-1.36974E-13
 -1      2868 1.20216E+01-5.03388E+00 4.80055E-02-5.22161E+00 1.08691E-13 4.47142E-14
 -1      2869 9.54690E+00-2.42281E+00 1.97759E-01-2.93215E+00 9.36265E-14-1.53627E-13
 -1      2870 2.03123E+01 1.05978E+00 2.48668E-03-8.55505E-01-3.24553E-13-2.52719E-13
 -1      2871 2.02275E+01 8.17434E-01-5.17455E-03-6.11492E-01-2.82638E-13-2.44985E-13
 -1      2872 2.02630E+01 8.91969E-01 3.27757E-04-5.69966E-01-2.77187E-13-2.90854E-13
 -1      2873 8.89349E+00-3.28903E+00 1.51447E-01 5.64775E+00 3.96849E-13-2.88075E-13
 -1      2874 7.16888E+00-2.24072E+00 1.63309E-01 3.51908E+00 3.09364E-13-1.94511E-13
 -1      2875 1.99224E+01 2.59683E+00-7.91796E-03 7.93770E-01 2.64734E-13-5.07502E-13
 -1      2876 1.98783E+01 2.68892E+00-6.14307E-03 6.44964E-01 2.13360E-13-5.26323E-13
 -1      2877 1.99967E+01 2.38919E+00 4.26460E-03 5.16287E-01 1.79923E-13-5.09081E-13
 -1      2878 2.00783E+01 2.19163E+00 5.46645E-03 7.45419E-01 2.52175E-13-4.58222E-13
 -1      2879 3.16748E+01-1.20193E+00-2.29976E-01-2.68942E+00 3.79904E-14-3.68636E-13
 -1      2880 3.09762E+01-3.36646E+00 5.19730E-02-1.10087E+00-5.02133E-14-4.27380E-13
 -1      2881 3.10443E+01 4.68689E+00-2.66238E-01-4.70603E+00-3.09391E-13-3.02036E-13
 -1      2882 3.15401E+01 1.97699E+00-7.37301E-02-4.17097E+00-8.67917E-14-3.30597E-13
 -1      2883 1.98739E+01 2.69731E+00-5.94358E-03-6.34139E-01-1.64774E-13-5.28742E-13
 -1      2884 1.99166E+01 2.60784E+00-7.56709E-03-7.84678E-01-2.18535E-13-5.30713E-13
 -1      2885 2.78548E+01 4.91324E+00-2.42731E-01-2.80777E-01 7.99083E-14-2.59931E-13
 -1      2886 2.01800E+01 2.27276E+00 5.70684E-05-1.42214E+00-3.75683E-13-4.04191E-13
 -1      2887 1.89985E+01 2.00041E+00 1.64439E-02 1.66706E+00-2.47045E-13-3.25602E-13
 -1      2888 2.28941E+01-7.45987E+00-8.00417E-02 5.89569E+00-2.40086E-13-5.91957E-14
 -1      2889 1.90108E+01-6.78540E+00 1.60008E-01 6.90601E+00-2.05808E-14-3.77712E-13
 -1      2890 2.71706E+01 7.09868E+00-2.06256E-01-1.72962E-01-2.42584E-14-2.92766E-13
 -1      2891 2.93648E+01-4.57562E+00-7.34433E-03-1.77272E-01-2.08070E-13-3.74270E-13
 -1      2892 1.99308E+01 2.53876E+00 3.14019E-03 5.09214E-03 3.32240E-14-5.24896E-13
 -1      2893 1.97923E+01 2.87061E+00-5.52578E-03-6.18419E-02 5.68707E-15-5.68019E-13
 -1      2894 1.97998E+01 2.85643E+00-5.41842E-03-2.16681E-01-3.42874E-14-5.59963E-13
 -1      2895 2.03370E+01 9.19206E-01 1.70276E-02 9.06156E-01 3.83422E-13-1.06972E-13
 -1      2896 2.03855E+01 1.30036E+00-1.57615E-02 1.25021E+00 4.46809E-13-1.47642E-13
 -1      2897 2.03095E+01 1.65015E+00 1.63283E-03 1.25825E+00 4.06999E-13-2.53773E-13
 -1      2898 2.02390E+01 7.61614E-01 5.41441E-04 7.19355E-01 3.49459E-13-1.43830E-13
 -1      2899 1.56524E+01-4.72894E+00 1.67656E-01-4.68434E+00 8.82627E-14-1.44815E-13
 -1      2900 1.99924E+01 1.35752E-01-2.29574E-03-7.44126E-02 1.60729E-13-2.02055E-13
 -1      2901 2.02532E+01 8.30147E-01-1.00959E-02 6.83081E-01 3.55420E-13-2.09355E-13
 -1      2902 9.15653E+00-1.23283E+00 1.29819E-01 2.95021E+00 1.82810E-13-1.68768E-13
 -1      2903 7.30563E+00-1.47809E+00 2.33637E-01 1.96843E+00 2.44652E-13-1.20570E-13
 -1      2904 8.10660E+00-1.03500E+00 1.30750E-01 2.20714E-01 1.20133E-13-1.45939E-13
 -1      2905 1.92783E+01 2.75127E+00 2.22862E-03 1.28862E+00-2.07715E-13-3.80846E-13
 -1      2906 3.11228E+01 1.38920E+00 1.97118E-02-9.15053E-01 1.53905E-13-2.28373E-13
 -1      2907 2.27729E+01-4.99490E+00-1.21501E-02-2.57335E+00-1.10446E-13-2.18152E-13
 -1      2908 3.19155E+01-5.10352E+00-2.39720E-01 4.79967E+00 2.16441E-13-4.69069E-14
 -1      2909 3.03608E+01-6.38833E+00 6.33944E-02 2.27339E+00 6.38101E-14-2.69812E-13
 -1      2910 2.82931E+01 9.66634E+00-1.83690E-01-3.05221E+00-3.92936E-13-5.24667E-13
 -1      2911 2.66495E+01 8.70934E+00-6.89274E-02-3.29807E+00-4.62130E-13-6.13702E-13
 -1      2912 2.60357E+01 9.35284E+00-1.84557E-01-1.83118E+00-3.39895E-13-3.55604E-13
 -1      2913 2.89532E+01 5.60353E+00-1.13635E-01-4.69564E+00-3.32262E-13-6.29566E-13
 -1      2914 1.82222E+01-5.65822E+00 1.50861E-01 6.52803E+00 2.10415E-13-6.20927E-13
 -1      2915 2.03253E+01 1.43170E+00 1.48472E-02 1.01162E+00 3.73180E-13-2.77313E-13
 -1      2916 2.49240E+01-6.76286E+00 7.50854E-02 4.22060E+00-1.56042E-13 3.19189E-15
 -1      2917 1.99719E+01 2.48639E+00-6.33017E-03-9.00080E-01-2.56152E-13-5.31609E-13
 -1      2918 2.00271E+01 2.34294E+00-1.32071E-02-1.04054E+00-3.05727E-13-5.21446E-13
 -1      2919 2.00671E+01 2.20114E+00 2.76878E-03-7.35918E-01-2.14067E-13-4.90662E-13
 -1      2920 1.98156E+01 2.82047E+00-5.66828E-03-3.51241E-01-6.50429E-14-5.22393E-13
 -1      2921 1.98398E+01 2.77254E+00-6.05396E-03-5.05407E-01-1.29116E-13-5.22912E-13
 -1      2922 1.99882E+01 2.39495E+00 2.12794E-03-5.05247E-01-1.29206E-13-4.81218E-13
 -1      2923 1.99435E+01 2.50438E+00 2.50405E-03-2.54004E-01-5.20232E-14-5.07113E-13
 -1      2924 1.20482E+01-3.16698E+00 1.65486E-01 5.79193E+00 3.07462E-13-4.03455E-13
 -1      2925 3.01100E+01 2.75468E-01-4.71266E-02-3.77013E+00-1.09496E-13-5.83034E-13
 -1      2926 3.11267E+01 2.84426E+00-3.91806E-01-1.42132E+00 5.48728E-14-2.91600E-13
 -1      2927 2.78451E+01 8.71785E+00-2.55007E-01-8.17718E-01-9.51184E-14-2.87485E-13
 -1      2928 2.01399E+01 2.12924E+00 8.91399E-04-1.13933E+00-3.10379E-13-4.63833E-13
 -1      2929 2.02928E+01 1.68172E+00-1.06610E-02-1.24729E+00-3.75553E-13-3.36833E-13
 -1      2930 2.02881E+01 1.30321E+00-1.32635E-03-9.74791E-01-3.48909E-13-2.88627E-13
 -1      2931 2.01946E+01 1.85389E+00 5.14766E-03-9.26579E-01-2.78028E-13-4.71517E-13
 -1      2932 2.02790E+01 1.37855E+00 5.60223E-03-8.82694E-01-3.01398E-13-3.35731E-13
 -1      2933 2.58508E+01-6.57297E+00-1.43745E-01 2.92101E+00-1.22027E-13-1.35069E-13
 -1      2934 2.34049E+01-6.32875E+00 1.33856E-01 4.61689E+00-9.03097E-14-4.47559E-15
 -1      2935 2.02440E+01 1.46561E+00-1.01778E-02 8.09798E-01 3.18703E-13-3.66587E-13
 -1      2936 2.02011E+01 1.66545E+00-1.29574E-03 7.44805E-01 2.76038E-13-3.96301E-13
 -1      2937 2.00083E+01 2.68448E-03-1.27434E-04-1.75997E-01 2.09891E-14-2.34422E-13
 -1      2938 2.00188E+01 2.83366E-02 1.58682E-03-1.64617E-01 5.83631E-14-2.10858E-13
 -1      2939 2.02692E+01 7.14151E-01 4.23275E-03-3.44400E-01-2.19237E-13-3.12126E-13
 -1      2940 2.02266E+01 5.51616E-01-3.48946E-03-2.13523E-01-1.81594E-13-3.00545E-13
 -1      2941 2.01244E+01 2.93369E-01-2.13267E-03 4.23575E-02 1.86977E-13-2.11571E-13
 -1      2942 2.01706E+01 3.94632E-01 4.77075E-03 1.32525E-01 2.11934E-13-2.11519E-13
 -1      2943 2.02207E+01 4.23249E-01 4.05450E-03-1.18748E-01-1.83173E-13-2.81439E-13
 -1      2944 2.01814E+01 3.15463E-01-2.31824E-03-3.39045E-02-1.75122E-13-2.89976E-13
 -1      2945 2.02718E+01 5.79459E-01-4.38303E-04-1.87580E-01-1.72166E-13-3.15055E-13
 -1      2946 2.01671E+01 2.31818E-01 3.17092E-03 2.75649E-02-1.80846E-13-2.68442E-13
 -1      2947 2.01367E+01 1.61151E-01-1.31737E-03 7.84727E-02-1.92354E-13-2.98847E-13
 -1      2948 2.02367E+01 3.32067E-01-8.69501E-04-2.49447E-02-1.70950E-13-3.12621E-13
 -1      2949 2.01198E+01 1.07005E-01 2.23552E-03 1.14281E-01-1.74189E-13-2.86854E-13
 -1      2950 2.00986E+01 6.16725E-02-6.38841E-04 1.41368E-01-1.29221E-13-3.03524E-13
 -1      2951 2.01958E+01 1.67461E-01-1.01377E-03 7.76548E-02-1.69839E-13-2.66758E-13
 -1      2952 2.00822E+01 2.75075E-02 1.46898E-03 1.58912E-01-5.49817E-14-3.01953E-13
 -1      2953 2.00684E+01-4.98220E-04-2.07178E-04 1.69973E-01-1.90409E-14-2.56248E-13
 -1      2954 2.01565E+01 6.06825E-02-9.64672E-04 1.35333E-01-8.87416E-14-2.44744E-13
 -1      2955 2.00538E+01-2.10460E-02 8.88526E-04 1.75209E-01 6.18925E-15-2.17325E-13
 -1      2956 2.00456E+01-3.72155E-02 5.45558E-05 1.75978E-01-7.27860E-15-1.76611E-13
 -1      2957 2.01222E+01-6.07516E-03-8.35219E-04 1.61453E-01 1.72474E-14-2.34849E-13
 -1      2958 2.00332E+01-4.85071E-02 4.72815E-04 1.73409E-01-2.23064E-14-1.32630E-13
 -1      2959 2.00290E+01-5.66693E-02 2.04065E-04 1.67984E-01-1.13167E-14-1.07478E-13
 -1      2960 2.00935E+01-4.52785E-02-6.88383E-04 1.66618E-01 2.29934E-14-1.93974E-13
 -1      2961 2.00188E+01-6.17501E-02 1.89269E-04 1.60877E-01-3.93344E-14-9.32213E-14
 -1      2962 2.00173E+01-6.45998E-02 2.80734E-04 1.52118E-01-7.73895E-14-6.66094E-14
 -1      2963 2.00704E+01-6.57145E-02-5.50645E-04 1.58767E-01-2.83208E-14-1.52027E-13
 -1      2964 2.00092E+01-6.56089E-02 5.14045E-06 1.42765E-01-1.34759E-13-4.78066E-14
 -1      2965 2.00094E+01-6.50359E-02 3.11431E-04 1.32617E-01-7.83390E-14-6.64555E-14
 -1      2966 2.00522E+01-7.36086E-02-4.31334E-04 1.43615E-01-9.14668E-14-1.00068E-13
 -1      2967 2.00030E+01-6.34633E-02-1.07734E-04 1.22573E-01-6.21132E-14-6.10899E-14
 -1      2968 2.00042E+01-6.07729E-02 3.14575E-04 1.12326E-01-4.86042E-14-7.76181E-14
 -1      2969 2.00382E+01-7.33512E-02-3.32910E-04 1.25137E-01-6.78627E-14-4.99411E-15
 -1      2970 1.99993E+01-5.76350E-02-1.71614E-04 1.02612E-01-4.50816E-14-8.91955E-14
 -1      2971 2.00012E+01-5.37004E-02 3.03157E-04 9.30918E-02-4.89580E-14-6.94109E-14
 -1      2972 2.00276E+01-6.79884E-02-2.54309E-04 1.06016E-01-7.87246E-14-7.59269E-14
 -1      2973 1.99975E+01-4.96611E-02-2.03717E-04 8.43564E-02-9.14046E-14-1.00449E-13
 -1      2974 1.99997E+01-4.50308E-02 2.86652E-04 7.60796E-02-1.52008E-13-1.07010E-13
 -1      2975 2.00199E+01-5.95696E-02-1.92630E-04 8.80032E-02-8.42058E-14-1.09079E-13
 -1      2976 1.99970E+01-4.04870E-02-2.17134E-04 6.87245E-02-2.23091E-13-7.40720E-14
 -1      2977 1.99993E+01-3.54647E-02 2.71887E-04 6.20117E-02-1.60544E-13-8.28984E-14
 -1      2978 2.00144E+01-4.93937E-02-1.44830E-04 7.22117E-02-1.50820E-13-1.51055E-13
 -1      2979 1.99974E+01-3.06141E-02-2.21609E-04 5.62924E-02-9.36927E-14-1.10709E-13
 -1      2980 1.99998E+01-2.53220E-02 2.63499E-04 5.13559E-02-4.43078E-14-1.38119E-13
 -1      2981 2.00106E+01-3.81937E-02-1.08288E-04 5.93472E-02-1.49811E-13-1.06056E-13
 -1      2982 1.99984E+01-2.02152E-02-2.24392E-04 4.74554E-02-1.80346E-14-1.64537E-13
 -1      2983 2.00010E+01-1.46428E-02 2.64793E-04 4.44626E-02 5.24367E-14-1.68021E-13
 -1      2984 2.00081E+01-2.62812E-02-8.03996E-05 4.98856E-02-7.48118E-14-1.65653E-13
 -1      2985 2.00000E+01-9.22378E-03-2.30900E-04 4.25452E-02 1.26444E-13-1.93083E-13
 -1      2986 2.00027E+01-3.26545E-03 2.78227E-04 4.16656E-02 7.44998E-14-1.62623E-13
 -1      2987 2.00066E+01-1.36601E-02-5.87098E-05 4.42012E-02 5.86474E-14-1.86982E-13
 -1      2988 2.00018E+01 2.59501E-03-2.45073E-04 4.19169E-02 3.74762E-14-8.63526E-14
 -1      2989 2.00048E+01 9.10579E-03 3.05552E-04 4.33543E-02 1.06514E-13-8.04321E-14
 -1      2990 2.00057E+01-1.15166E-04-4.11107E-05 4.26632E-02 1.01716E-13-1.52953E-13
 -1      2991 2.00040E+01 1.55783E-02-2.69526E-04 4.60090E-02 1.54123E-13-1.06026E-13
 -1      2992 2.00074E+01 2.28347E-02 3.47828E-04 5.00207E-02 1.61265E-13-1.23793E-13
 -1      2993 2.00051E+01 1.47096E-02-2.58710E-05 4.57051E-02 1.09538E-13-7.91506E-14
 -1      2994 2.00064E+01 3.00960E-02-3.05505E-04 5.53781E-02 1.06955E-13-7.73882E-14
 -1      2995 2.00104E+01 3.82774E-02 4.05340E-04 6.22801E-02 5.02291E-14-5.91143E-14
 -1      2996 2.00044E+01 3.12312E-02-1.18057E-05 5.38690E-02 1.33613E-13 2.51759E-14
 -1      2997 2.00091E+01 4.64661E-02-3.52527E-04 7.07070E-02-9.72514E-14-1.31932E-14
 -1      2998 2.00139E+01 5.56850E-02 4.77369E-04 8.08632E-02-1.46412E-13-4.24053E-14
 -1      2999 2.00036E+01 4.98338E-02 1.37933E-06 6.78260E-02 2.15662E-14 2.42093E-14
 -1      3000 2.00122E+01 6.48421E-02-4.07659E-04 9.27813E-02-1.27338E-13-3.39172E-14
 -1      3001 2.00180E+01 7.50706E-02 5.61815E-04 1.06572E-01-1.28733E-13-3.62328E-14
 -1      3002 2.00022E+01 7.07479E-02 1.24993E-05 8.83679E-02-1.51661E-13 8.43238E-15
 -1      3003 2.00159E+01 8.50567E-02-4.64350E-04 1.22426E-01-7.21202E-14-6.48805E-14
 -1      3004 2.00230E+01 9.60250E-02 6.54669E-04 1.40188E-01-8.66001E-15 1.36674E-14
 -1      3005 2.00002E+01 9.38841E-02 1.79537E-05 1.16367E-01-9.75238E-14-3.78503E-15
 -1      3006 2.00207E+01 1.06405E-01-5.10735E-04 1.60387E-01 3.15498E-14 4.26198E-15
 -1      3007 2.00296E+01 1.17463E-01 7.49326E-04 1.82319E-01 8.13261E-14 7.76833E-14
 -1      3008 1.99978E+01 1.18604E-01 1.03194E-05 1.52689E-01 5.24726E-14-1.35232E-14
 -1      3009 2.00273E+01 1.27354E-01-5.27347E-04 2.07143E-01 5.46778E-14 1.49491E-14
 -1      3010 2.00386E+01 1.37287E-01 8.35713E-04 2.33163E-01-7.18166E-15-3.59776E-14
 -1      3011 1.99952E+01 1.43410E-01-2.36384E-05 1.98054E-01 5.79618E-14-8.90281E-14
 -1      3012 2.00373E+01 1.45161E-01-4.84238E-04 2.62618E-01-4.45093E-14 3.54779E-14
 -1      3013 2.00518E+01 1.51967E-01 8.99140E-04 2.92161E-01-1.48826E-14 7.27926E-14
 -1      3014 1.99935E+01 1.65538E-01-1.05586E-04 2.52810E-01 1.24885E-14-5.28135E-14
 -1      3015 2.00530E+01 1.55422E-01-3.37717E-04 3.25777E-01-1.46599E-13 6.41816E-14
 -1      3016 2.00721E+01 1.56056E-01 9.18594E-04 3.57517E-01-8.40890E-14 3.40973E-14
 -1      3017 1.99948E+01 1.80464E-01-2.68732E-04 3.16610E-01-7.60554E-14-1.27427E-14
 -1      3018 2.00783E+01 1.51575E-01-2.72091E-05 3.94055E-01-1.26270E-13-1.21023E-13
 -1      3019 2.01039E+01 1.41712E-01 8.63883E-04 4.25554E-01-1.22365E-13-1.34413E-13
 -1      3020 2.00027E+01 1.81338E-01-5.60875E-04 3.87953E-01-1.91650E-13-4.04041E-14
 -1      3021 2.01193E+01 1.24482E-01 5.26481E-04 4.62615E-01-1.17475E-13-2.56415E-13
 -1      3022 2.01540E+01 9.83881E-02 6.90420E-04 4.89885E-01-1.31437E-13-2.11487E-13
 -1      3023 2.00232E+01 1.58465E-01-1.04597E-03 4.63541E-01-2.05763E-13-3.86401E-13
 -1      3024 2.01847E+01 6.23120E-02 1.41892E-03 5.23367E-01-9.65706E-14-2.05431E-13
 -1      3025 2.02321E+01 1.30135E-02 3.29883E-04 5.40373E-01-1.88859E-13-1.56155E-13
 -1      3026 2.00655E+01 9.90240E-02-1.80120E-03 5.37399E-01-7.88912E-14-4.49737E-13
 -1      3027 2.02867E+01-4.88492E-02 2.75050E-03 5.63767E-01-1.58697E-13-5.34708E-15
 -1      3028 2.03513E+01-1.28784E-01-3.24485E-04 5.61919E-01-6.63786E-14-2.65876E-14
 -1      3029 2.01430E+01-1.25833E-02-2.90338E-03 5.99672E-01-7.78001E-14-2.64498E-13
 -1      3030 2.04409E+01-2.22938E-01 4.59404E-03 5.65392E-01-1.58199E-13 5.71336E-14
 -1      3031 2.05271E+01-3.39471E-01-1.43441E-03 5.33172E-01-1.07007E-13-6.89352E-14
 -1      3032 2.02741E+01-1.93034E-01-4.39322E-03 6.34998E-01-1.12242E-13-1.08180E-13
 -1      3033 2.06646E+01-4.69270E-01 6.91833E-03 5.02541E-01-7.74913E-14-7.23128E-15
 -1      3034 2.07754E+01-6.23105E-01-3.21892E-03 4.25607E-01 3.09600E-14-8.43473E-14
 -1      3035 2.04815E+01-4.55878E-01-6.20012E-03 6.20410E-01-7.71942E-14-5.97963E-14
 -1      3036 2.09727E+01-7.83896E-01 9.45569E-03 3.41555E-01 8.41145E-14-2.77037E-13
 -1      3037 2.11062E+01-9.64006E-01-5.86167E-03 2.04019E-01 1.81600E-14-3.46461E-13
 -1      3038 2.07893E+01-8.03193E-01-8.01116E-03 5.23100E-01-1.00479E-13-1.85946E-15
 -1      3039 2.13674E+01-1.13547E+00 1.15007E-02 4.25401E-02 1.23698E-13-3.91147E-13
 -1      3040 2.15114E+01-1.30926E+00-9.20124E-03-1.69090E-01 8.16145E-14-2.40663E-13
 -1      3041 2.12156E+01-1.21116E+00-9.01209E-03 2.99088E-01 5.95679E-14-2.07125E-13
 -1      3042 2.18208E+01-1.44549E+00 1.12175E-02-4.30774E-01 7.61189E-14-1.91971E-13
 -1      3043 2.19478E+01-1.54900E+00-1.24584E-02-7.18073E-01 1.59634E-13-1.16378E-13
 -1      3044 2.17553E+01-1.60596E+00-7.58056E-03-1.03080E-01 1.57636E-13-1.47306E-13
 -1      3045 2.22552E+01-1.57278E+00 6.32521E-03-1.08650E+00 1.90814E-13-9.80243E-14
 -1      3046 2.23207E+01-1.50913E+00-1.30669E-02-1.42373E+00 1.57892E-13-1.02067E-13
 -1      3047 2.23544E+01-1.84482E+00-2.86828E-03-7.22421E-01 2.59837E-13-5.21240E-14
 -1      3048 2.25303E+01-1.31947E+00-5.07595E-03-1.86145E+00 9.13611E-14-1.22546E-13
 -1      3049 2.24824E+01-9.80481E-01-7.31843E-03-2.17539E+00 1.01651E-13 3.07470E-14
 -1      3050 2.28858E+01-1.70462E+00 6.92741E-03-1.54419E+00 1.66233E-13 1.62267E-13
 -1      3051 2.24654E+01-4.87924E-01-2.21412E-02-2.56304E+00 1.53948E-13 6.03220E-14
 -1      3052 2.22685E+01 1.71218E-01 4.96545E-03-2.71814E+00 2.13230E-13 1.15619E-13
 -1      3053 2.31415E+01-9.32794E-01 2.07792E-02-2.43065E+00 2.11730E-13 1.30946E-13
 -1      3054 2.19522E+01 9.38838E-01-3.77076E-02-2.85348E+00 9.98502E-14 3.38957E-13
 -1      3055 2.16343E+01 1.80577E+00 2.27763E-02-2.70357E+00 1.72197E-14 9.84890E-14
 -1      3056 2.29136E+01 5.75229E-01 2.92177E-02-3.04711E+00 2.51797E-13 2.25985E-13
 -1      3057 2.10524E+01 2.59943E+00-5.16308E-02-2.34854E+00-8.84941E-14 1.16570E-13
 -1      3058 2.07257E+01 3.31654E+00 2.08114E-02-1.83187E+00-1.48853E-13-1.13763E-13
 -1      3059 2.21190E+01 2.59269E+00 2.94471E-02-2.95750E+00-4.88186E-14 4.64037E-13
 -1      3060 2.01507E+01 3.78940E+00-2.77646E-02-1.03853E+00-1.74528E-13-1.11140E-13
 -1      3061 1.98461E+01 3.98517E+00-2.25066E-03-2.75796E-01-1.76038E-13-2.19297E-13
 -1      3062 2.11011E+01 4.12552E+00-5.15239E-03-1.83499E+00-1.77566E-13 2.22396E-13
 -1      3063 2.02610E+01 1.10726E+00 2.15366E-03 7.12018E-01 3.29303E-13-2.87972E-13
 -1      3064 1.45574E+01-3.01623E+00 1.86828E-01-4.33468E+00 1.12924E-13-7.15539E-14
 -1      3065 1.80974E+01-4.51997E+00 6.64591E-02-4.36870E+00 8.94215E-14-1.56042E-13
 -1      3066 1.99917E+01-3.08959E-02 9.39623E-05-1.82664E-01 4.40586E-14-2.35328E-13
 -1      3067 1.99957E+01-1.60522E-02 9.14676E-04-1.81937E-01-9.75945E-16-2.44631E-13
 -1      3068 2.00711E+01-1.90791E-03-9.50257E-04-1.70366E-01 2.56136E-14-2.77366E-13
 -1      3069 1.99823E+01-4.88553E-02 2.14122E-04-1.74583E-01 4.37877E-14-2.09785E-13
 -1      3070 1.99821E+01-4.12780E-02 4.47331E-04-1.80231E-01 5.29601E-14-2.40667E-13
 -1      3071 2.00475E+01-3.86367E-02-7.31415E-04-1.76448E-01 3.48718E-14-2.89594E-13
 -1      3072 1.99778E+01-5.64255E-02 2.71224E-04-1.58207E-01 9.22871E-14-1.66621E-13
 -1      3073 1.99751E+01-5.36525E-02 1.36865E-04-1.67278E-01 8.16163E-14-1.49209E-13
 -1      3074 2.00304E+01-5.79924E-02-5.47467E-04-1.68456E-01 1.97635E-14-2.34979E-13
 -1      3075 1.99767E+01-5.72532E-02 2.90048E-04-1.37964E-01 3.59338E-15-1.07725E-13
 -1      3076 1.99726E+01-5.75672E-02-5.85093E-05-1.48466E-01 7.34741E-14-1.50077E-13
 -1      3077 2.00183E+01-6.57825E-02-4.01561E-04-1.52555E-01 5.50879E-14-1.84136E-13
 -1      3078 1.99777E+01-5.38613E-02 2.87321E-04-1.16809E-01 4.55007E-14-1.11242E-13
 -1      3079 1.99730E+01-5.60799E-02-1.72609E-04-1.27432E-01 3.14340E-14-1.12751E-13
 -1      3080 2.00100E+01-6.60732E-02-2.89771E-04-1.33001E-01 1.74331E-14-2.15047E-13
 -1      3081 1.99799E+01-4.79541E-02 2.74343E-04-9.66518E-02 3.23884E-14-1.50637E-13
 -1      3082 1.99752E+01-5.12861E-02-2.31722E-04-1.06562E-01 8.02569E-14-1.29820E-13
 -1      3083 2.00047E+01-6.16761E-02-2.06603E-04-1.12649E-01 8.53251E-14-2.54553E-13
 -1      3084 1.99830E+01-4.06340E-02 2.58974E-04-7.86914E-02 6.84385E-14-2.04181E-13
 -1      3085 1.99784E+01-4.45768E-02-2.55264E-04-8.73706E-02 1.36586E-15-2.32134E-13
 -1      3086 2.00016E+01-5.44846E-02-1.47219E-04-9.33570E-02 7.08226E-14-3.00846E-13
 -1      3087 1.99865E+01-3.25506E-02 2.47207E-04-6.36599E-02 9.14869E-14-1.57170E-13
 -1      3088 1.99821E+01-3.68204E-02-2.57640E-04-7.07945E-02 9.07119E-14-1.59934E-13
 -1      3089 2.00001E+01-4.57091E-02-1.06294E-04-7.63039E-02 4.31140E-14-2.82664E-13
 -1      3090 1.99902E+01-2.40045E-02 2.43572E-04-5.20184E-02 1.28929E-14-9.21694E-14
 -1      3091 1.99861E+01-2.84860E-02-2.49763E-04-5.74064E-02 8.97011E-14-1.17015E-13
 -1      3092 1.99998E+01-3.60445E-02-7.95620E-05-6.22234E-02 4.76960E-14-1.55617E-13
 -1      3093 1.99943E+01-1.50277E-02 2.51600E-04-4.41078E-02-6.07902E-14-5.56898E-14
 -1      3094 1.99903E+01-1.97359E-02-2.39705E-04-4.75894E-02-1.49185E-14-6.18409E-14
 -1      3095 2.00004E+01-2.57885E-02-6.39179E-05-5.15986E-02-3.31992E-14-1.46240E-13
 -1      3096 1.99988E+01-5.44017E-03 2.74431E-04-4.02628E-02-3.77542E-14-7.50109E-14
 -1      3097 1.99947E+01-1.04937E-02-2.33561E-04-4.16672E-02-6.26442E-14-3.20334E-15
 -1      3098 2.00017E+01-1.49307E-02-5.62738E-05-4.48075E-02-6.90302E-14-7.38463E-14
 -1      3099 2.00038E+01 5.11590E-03 3.14969E-04-4.09011E-02 1.01047E-13-7.00593E-14
 -1      3100 1.99994E+01-4.90276E-04-2.36394E-04-4.00038E-02 5.05239E-14-2.18541E-14
 -1      3101 2.00036E+01-3.21679E-03-5.37848E-05-4.22324E-02 3.13202E-14-1.29911E-13
 -1      3102 2.00095E+01 1.71588E-02 3.76071E-04-4.65975E-02 8.41971E-14-7.86735E-15
 -1      3103 2.00046E+01 1.07111E-02-2.52859E-04-4.30844E-02 1.45591E-13-3.28543E-16
 -1      3104 2.00060E+01 9.81482E-03-5.35220E-05-4.43461E-02 9.75601E-14-1.92502E-14
 -1      3105 2.00162E+01 3.13649E-02 4.60568E-04-5.81466E-02 9.94797E-14-1.79107E-14
 -1      3106 2.00104E+01 2.37046E-02-2.87791E-04-5.15822E-02 8.43000E-14-2.51296E-14
 -1      3107 2.00087E+01 2.48144E-02-5.19422E-05-5.17819E-02 1.08670E-13 3.05576E-14
 -1      3108 2.00240E+01 4.85811E-02 5.71147E-04-7.66183E-02-4.05034E-14-1.20723E-14
 -1      3109 2.00169E+01 3.92467E-02-3.46864E-04-6.64161E-02 2.52872E-14-3.28015E-14
 -1      3110 2.00115E+01 4.26202E-02-4.42394E-05-6.53889E-02 8.88402E-14 1.15465E-13
 -1      3111 2.00330E+01 6.98512E-02 7.10038E-04-1.03409E-01 5.21660E-14 1.48278E-14
 -1      3112 2.00244E+01 5.82755E-02-4.37311E-04-8.88027E-02 3.22537E-14-3.34773E-14
 -1      3113 2.00143E+01 6.42726E-02-2.34373E-05-8.62772E-02-7.77678E-15 1.61380E-14
 -1      3114 2.00431E+01 9.64569E-02 8.78420E-04-1.40288E-01-9.99093E-14 8.44029E-14
 -1      3115 2.00326E+01 8.19445E-02-5.68782E-04-1.20303E-01 3.68363E-14 1.29824E-13
 -1      3116 2.00164E+01 9.10453E-02 2.08974E-05-1.15853E-01-7.02827E-15 1.95729E-13
 -1      3117 2.00539E+01 1.29969E-01 1.07544E-03-1.89439E-01-1.91331E-13 8.02530E-14
 -1      3118 2.00414E+01 1.11669E-01-7.54361E-04-1.62865E-01-1.27380E-13 5.26399E-14
 -1      3119 2.00170E+01 1.24489E-01 1.04453E-04-1.55838E-01-1.12276E-13 1.46379E-13
 -1      3120 2.00644E+01 1.72305E-01 1.29669E-03-2.53486E-01-1.60640E-13-3.53495E-14
 -1      3121 2.00497E+01 1.49182E-01-1.01173E-03-2.18854E-01-1.43811E-13 2.48273E-14
 -1      3122 2.00147E+01 1.66482E-01 2.50606E-04-2.08273E-01-1.45141E-13 9.86696E-14
 -1      3123 2.00724E+01 2.25755E-01 1.53215E-03-3.35492E-01-1.00070E-13-3.42884E-14
 -1      3124 2.00562E+01 1.96584E-01-1.36432E-03-2.91068E-01-1.50504E-13-6.01235E-14
 -1      3125 2.00069E+01 2.19279E-01 4.93539E-04-2.75488E-01-1.23792E-13-3.49744E-14
 -1      3126 2.00747E+01 2.92941E-01 1.76375E-03-4.38910E-01 2.23514E-14-7.12477E-14
 -1      3127 2.00577E+01 2.56340E-01-1.84217E-03-3.82715E-01 6.50435E-15-4.15377E-14
 -1      3128 1.99900E+01 2.85509E-01 8.81833E-04-3.60029E-01-6.01906E-14-5.97400E-14
 -1      3129 2.00654E+01 3.76563E-01 1.96378E-03-5.67444E-01-7.52000E-15-3.01043E-14
 -1      3130 2.00497E+01 3.31162E-01-2.48168E-03-4.97329E-01-1.32219E-14-5.22922E-14
 -1      3131 1.99582E+01 3.68055E-01 1.48175E-03-4.64510E-01 1.09790E-14-5.50470E-14
 -1      3132 2.00358E+01 4.78711E-01 2.09697E-03-7.24765E-01-1.42407E-14-5.95147E-14
 -1      3133 2.00248E+01 4.23572E-01-3.32346E-03-6.38594E-01 5.66472E-14-1.76206E-14
 -1      3134 1.99028E+01 4.69656E-01 2.37805E-03-5.91390E-01-3.43751E-14-1.48263E-13
 -1      3135 1.99735E+01 5.99275E-01 2.13380E-03-9.14067E-01-1.19883E-13-1.08980E-13
 -1      3136 1.99721E+01 5.34838E-01-4.40717E-03-8.10041E-01-2.70529E-14 2.49480E-14
 -1      3137 1.98113E+01 5.91929E-01 3.66764E-03-7.42665E-01-2.66878E-14-3.03529E-13
 -1      3138 1.98621E+01 7.32682E-01 2.08910E-03-1.13749E+00-1.54172E-13-2.19616E-13
 -1      3139 1.98767E+01 6.62668E-01-5.76334E-03-1.01464E+00-1.95344E-13-2.16494E-13
 -1      3140 1.96669E+01 7.33304E-01 5.43635E-03-9.19594E-01-7.05737E-14-1.98510E-13
 -1      3141 1.96825E+01 8.61640E-01 2.12249E-03-1.39571E+00 1.78736E-13-3.11486E-13
 -1      3142 1.97199E+01 7.96623E-01-7.40370E-03-1.25450E+00 1.75682E-14-2.49241E-13
 -1      3143 1.94473E+01 8.85028E-01 7.70155E-03-1.12280E+00-8.19388E-14-3.75703E-13
 -1      3144 1.94192E+01 9.45978E-01 2.80745E-03-1.68848E+00 8.69688E-14-2.34429E-13
 -1      3145 1.94818E+01 9.09643E-01-9.27570E-03-1.53126E+00 1.28023E-13-2.31616E-13
 -1      3146 1.91266E+01 1.02393E+00 1.03130E-02-1.35366E+00 5.62980E-14-3.74616E-13
 -1      3147 1.90745E+01 9.04609E-01 5.91342E-03-2.01754E+00-1.23348E-13-1.12185E-13
 -1      3148 1.91500E+01 9.43585E-01-1.09661E-02-1.84835E+00 4.10002E-15-1.61806E-13
 -1      3149 1.86795E+01 1.10013E+00 1.29077E-02-1.61874E+00-2.01078E-14-1.53202E-13
 -1      3150 1.86953E+01 5.84018E-01 1.32970E-02-2.39483E+00-1.71942E-13-3.88073E-14
 -1      3151 1.87398E+01 7.86208E-01-1.05797E-02-2.21696E+00-1.65769E-13-8.39825E-14
 -1      3152 1.80924E+01 1.01797E+00 1.52819E-02-1.94024E+00-1.39799E-13-6.89664E-14
 -1      3153 1.84264E+01-2.80582E-01 1.27455E-02-2.86388E+00-1.96031E-13-3.57743E-14
 -1      3154 1.83314E+01 2.93811E-01 1.34501E-02-2.66663E+00-2.36439E-13-1.17981E-13
 -1      3155 1.73989E+01 6.05804E-01 2.22426E-02-2.37046E+00-1.90112E-13-1.52087E-13
 -1      3156 2.00345E+01 5.94577E-02-5.08821E-04-1.45420E-01 4.78361E-14-1.83834E-13
 -1      3157 2.00544E+01 1.01105E-01 2.50998E-03-1.17297E-01 8.27367E-14-1.84972E-13
 -1      3158 2.01025E+01 6.05009E-02-1.18392E-03-1.41559E-01 7.34736E-14-2.51646E-13
 -1      3159 2.13312E+01 6.13037E+00-1.45432E-02 2.65190E-01-2.12025E-13-3.75490E-13
 -1      3160 2.28719E+01 7.18403E+00-3.93398E-02-1.58867E-01-1.18933E-13-6.04296E-13
 -1      3161 2.88968E+01-3.76652E+00-1.76424E-01-1.48932E+00-1.33392E-13-5.36217E-13
 -1      3162 2.81847E+01-5.22265E+00 1.27542E-01 5.90223E-01-2.07138E-13-3.87745E-13
 -1      3163 2.00728E+01 1.50647E-01-1.13684E-03-7.82697E-02 1.19352E-13-1.79193E-13
 -1      3164 2.01053E+01 2.16120E-01 3.71250E-03-2.48992E-02 1.74987E-13-1.82555E-13
 -1      3165 2.01894E+01 3.16363E-01-1.39177E-03 3.46044E-02 1.63428E-13-1.78478E-13
 -1      3166 2.01423E+01 1.60650E-01-1.37082E-03-7.82908E-02 9.05193E-14-1.81525E-13
 -1      3167 1.98204E+01 4.03380E+00-8.11716E-03 8.89820E-01-1.98817E-13-2.17944E-13
 -1      3168 2.68066E+01 6.48140E+00-1.88582E-01-4.27515E+00-3.34066E-13-6.92883E-13
 -1      3169 2.74022E+01 4.24324E+00-6.47598E-02-4.57807E+00-3.09072E-13-6.36179E-13
 -1      3170 2.02816E+01 1.15392E+00 8.22637E-04-6.63972E-01-2.56643E-13-3.63536E-13
 -1      3171 2.02560E+01 9.11526E-01-4.42623E-03-4.79221E-01-2.47522E-13-3.51179E-13
 -1      3172 2.02846E+01 9.48619E-01 1.28793E-03-4.23188E-01-2.11015E-13-3.63790E-13
 -1      3173 9.43617E+00-1.32436E+00 1.48093E-01-1.94902E+00-3.26926E-14-2.62831E-13
 -1      3174 1.11994E+01-2.27575E+00 1.16315E-02-3.56434E+00-5.98133E-15-1.51171E-13
 -1      3175 2.01859E+01 5.15993E-01-3.26682E-03 2.36623E-01 2.56545E-13-2.42241E-13
 -1      3176 2.02448E+01 6.58378E-01 8.58389E-04 3.82637E-01 2.95384E-13-2.54505E-13
 -1      3177 2.02407E+01 5.53565E-01-6.10690E-04 2.15409E-01 2.17844E-13-2.45284E-13
 -1      3178 2.00430E+01 2.16146E+00-4.29717E-03 2.92284E-01 1.34857E-13-5.05834E-13
 -1      3179 2.00298E+01 2.20040E+00-3.27159E-03 1.70730E-01 9.82065E-14-5.16227E-13
 -1      3180 2.83189E+01 1.14585E+00-1.39590E-01-4.27843E+00-1.47868E-13-4.88318E-13
 -1      3181 2.92320E+01-1.17900E+00 4.59017E-02-3.32533E+00-1.38306E-13-5.97508E-13
 -1      3182 2.02925E+01-6.04914E+00-3.95327E-02 5.94190E+00 1.58235E-13-3.84297E-13
 -1      3183 1.71497E+01-4.64428E+00 1.08211E-01 6.22367E+00 3.59157E-13-6.96582E-13
 -1      3184 2.02258E+01 1.59013E+00-6.81646E-03-8.50788E-01-2.57151E-13-4.57616E-13
 -1      3185 2.02559E+01 1.36612E+00-1.07208E-04-7.44995E-01-2.58482E-13-4.08925E-13
 -1      3186 2.01721E+01 1.83558E+00 2.64331E-03-7.87510E-01-2.38448E-13-4.87155E-13
 -1      3187 1.41042E+01-3.23620E+00 3.77977E-02 5.94470E+00 2.64178E-13-6.02587E-13
 -1      3188 1.17532E+01-1.96312E+00 9.77629E-02 4.80772E+00 2.30687E-13-4.48197E-13
 -1      3189 2.02685E+01 9.57898E-01 5.52065E-03 5.38364E-01 3.00454E-13-2.85281E-13
 -1      3190 2.05552E+01 4.92707E+00-6.70300E-03 1.21331E-01-2.09157E-13 3.65437E-14
 -1      3191 2.00225E+01 2.21960E+00-3.55798E-03 6.57163E-02 5.74185E-14-4.74718E-13
 -1      3192 2.00228E+01 2.22259E+00-2.67489E-03-5.71990E-02-4.67227E-15-4.79659E-13
 -1      3193 2.01364E+01 1.92316E+00 4.92157E-03 1.01137E-01 5.40756E-14-4.55285E-13
 -1      3194 2.02480E+01 1.45743E+00 4.16266E-03 5.82846E-01 2.43790E-13-3.74447E-13
 -1      3195 2.01577E+01 1.80264E+00-6.77301E-03 6.86177E-01 2.48985E-13-4.19098E-13
 -1      3196 2.01228E+01 1.93104E+00-2.46761E-03 5.89117E-01 2.06731E-13-4.38396E-13
 -1      3197 9.99340E+00-1.82879E-01 6.40220E-02 5.00967E-01-6.05232E-14-8.23785E-14
 -1      3198 9.48017E+00-6.66178E-01 1.48265E-01-8.07014E-01-2.46764E-14-8.40439E-14
 -1      3199 1.12656E+01-3.64936E-01 1.24475E-01-1.37892E+00-1.01152E-14-2.05849E-13
 -1      3200 2.36200E+01 7.95250E+00-8.51854E-02-1.60429E+00-4.35874E-13-7.05956E-13
 -1      3201 2.43533E+01 7.99793E+00-6.68288E-02-7.44351E-01-1.23346E-13-4.28664E-13
 -1      3202 1.09413E+01-1.11862E+00 1.27992E-01 3.85653E+00 1.64702E-13-2.42278E-13
 -1      3203 1.05469E+01-4.85514E-01 6.63637E-02 2.40305E+00 2.42896E-14-1.24567E-13
 -1      3204 1.30732E+01-1.19923E+00 8.35358E-02 4.00107E+00 1.06018E-13-4.00166E-13
 -1      3205 1.41982E+01-2.01044E+00 1.16800E-01-3.57612E+00 6.56974E-14-1.90764E-13
 -1      3206 1.85683E+01-1.73682E+00 5.55042E-02-3.42786E+00 8.88494E-14-3.69635E-14
 -1      3207 1.68008E+01-1.16202E+00-6.18568E-03-3.34928E+00 4.68106E-14-1.40714E-13
 -1      3208 1.89862E+01-3.00881E+00 2.39017E-02-3.72192E+00 1.45096E-13-1.19293E-13
 -1      3209 2.13452E+01 5.82520E+00-6.43494E-02-9.30545E-01-3.25321E-13-2.47012E-13
 -1      3210 2.65504E+01-5.46076E+00 2.85252E-02 1.37438E+00-6.60340E-14-3.08160E-13
 -1      3211 2.03451E+01-4.27480E+00 1.66599E-01-3.76733E+00 4.03358E-14-2.71005E-13
 -1      3212 2.00851E+01 2.08200E+00-2.77894E-04-6.03105E-01-1.71561E-13-4.68221E-13
 -1      3213 2.01168E+01 1.95576E+00-6.22162E-03-7.02211E-01-2.20821E-13-4.85403E-13
 -1      3214 2.01861E+01 1.73135E+00 1.57566E-03-6.46828E-01-1.95429E-13-4.64530E-13
 -1      3215 2.53465E+01 7.05511E+00-9.87856E-02-3.48449E+00-4.60049E-13-6.47211E-13
 -1      3216 2.71133E+01 2.42312E+00-7.62472E-02-4.50447E+00-9.72139E-14-5.75623E-13
 -1      3217 2.63604E+01 9.34178E-01-4.25550E-02-3.95591E+00-8.59382E-15-4.48468E-13
 -1      3218 2.52756E+01 3.59556E+00-8.13524E-02-4.27571E+00-8.65835E-14-6.08034E-13
 -1      3219 2.22266E+01-5.58524E+00 9.17098E-02 4.58448E+00 1.10960E-13-2.12339E-13
 -1      3220 2.00477E+01 2.16615E+00-4.09503E-03-5.01273E-01-1.29542E-13-4.70758E-13
 -1      3221 2.01215E+01 1.95117E+00 1.29555E-03-4.77218E-01-1.34153E-13-4.48838E-13
 -1      3222 2.00235E+01 2.24006E+00-2.28608E-03-3.85011E-01-8.60352E-14-4.58193E-13
 -1      3223 2.02780E+01 1.00521E+00 3.80642E-03 4.84970E-01 2.72149E-13-2.91223E-13
 -1      3224 2.00638E+01 2.10588E+00-3.02810E-03 3.90701E-01 1.49617E-13-4.93001E-13
 -1      3225 2.01589E+01 1.84798E+00 5.05701E-03 2.90283E-01 1.21889E-13-4.67366E-13
 -1      3226 2.00891E+01 2.02587E+00-5.32532E-03 5.04318E-01 1.81890E-13-4.79434E-13
 -1      3227 2.80230E+01-2.50648E+00-3.01705E-02-2.35966E+00-1.27066E-13-4.03681E-13
 -1      3228 2.02563E+01 1.38723E+00 3.43922E-03-6.46266E-01-2.29067E-13-4.65830E-13
 -1      3229 1.66366E+01-3.45916E+00 1.02953E-01 5.48926E+00 2.50758E-13-6.38725E-13
 -1      3230 2.24516E+01 6.30979E+00-5.36084E-02-1.83991E+00-3.14401E-13-5.29972E-13
 -1      3231 2.36344E+01 7.02014E+00-1.15415E-01-2.50323E+00-4.17597E-13-5.35192E-13
 -1      3232 2.40943E+01 5.54420E+00-7.92386E-03-3.60368E+00-3.24199E-13-4.27158E-13
 -1      3233 2.14813E+01 5.25941E+00 2.38196E-03-1.86563E+00-2.44391E-13 9.81090E-14
 -1      3234 2.02987E+01 4.39413E-01 2.51148E-03-7.09814E-02-1.36041E-13-2.90262E-13
 -1      3235 2.02737E+01 3.26803E-01-2.14594E-03-4.14742E-03-1.35132E-13-2.73828E-13
 -1      3236 2.02653E+01 2.37027E-01 2.15046E-03 4.09530E-02-1.43314E-13-2.58009E-13
 -1      3237 2.02406E+01 1.61433E-01-1.29654E-03 8.16407E-02-1.35577E-13-2.36282E-13
 -1      3238 2.03134E+01 3.28440E-01-7.60285E-05 3.52352E-03-1.24427E-13-2.31326E-13
 -1      3239 2.02256E+01 1.02340E-01 1.61630E-03 1.07606E-01-1.22687E-13-2.33866E-13
 -1      3240 2.02039E+01 5.33242E-02-6.66175E-04 1.29272E-01-4.86068E-14-2.11907E-13
 -1      3241 2.02815E+01 1.58674E-01-4.32211E-04 7.77627E-02-1.14720E-13-2.08222E-13
 -1      3242 2.01863E+01 1.58803E-02 1.13482E-03 1.41400E-01-6.05428E-15-2.28449E-13
 -1      3243 2.01683E+01-1.43738E-02-2.36297E-04 1.49952E-01 2.69161E-14-2.46540E-13
 -1      3244 2.02434E+01 4.73716E-02-5.85800E-04 1.18901E-01-3.93670E-14-2.14940E-13
 -1      3245 2.01504E+01-3.66790E-02 7.42527E-04 1.52673E-01 4.53205E-14-2.74951E-13
 -1      3246 2.01360E+01-5.38620E-02 4.05631E-05 1.52697E-01 1.77154E-14-2.32444E-13
 -1      3247 2.02045E+01-2.21739E-02-6.22631E-04 1.36431E-01 1.77582E-14-2.77525E-13
 -1      3248 2.01192E+01-6.57345E-02 4.46409E-04 1.49473E-01-2.42776E-15-2.26285E-13
 -1      3249 2.01081E+01-7.39881E-02 2.06563E-04 1.44354E-01-2.18108E-14-2.13847E-13
 -1      3250 2.01681E+01-6.23757E-02-5.97764E-04 1.38204E-01 2.42518E-14-3.00665E-13
 -1      3251 2.00930E+01-7.88268E-02 2.34512E-04 1.37739E-01-5.43345E-14-1.72757E-13
 -1      3252 2.00846E+01-8.11381E-02 2.95743E-04 1.29885E-01-7.03212E-14-1.36930E-13
 -1      3253 2.01357E+01-8.23803E-02-5.41152E-04 1.30251E-01-1.74411E-14-2.44871E-13
 -1      3254 2.00717E+01-8.13657E-02 8.83348E-05 1.21684E-01-9.72687E-14-1.01361E-13
 -1      3255 2.00654E+01-7.98490E-02 3.33857E-04 1.12756E-01-5.63206E-14-8.71431E-14
 -1      3256 2.01078E+01-8.88411E-02-4.70645E-04 1.16966E-01-5.10855E-14-1.96489E-13
 -1      3257 2.00546E+01-7.71612E-02-9.34239E-06 1.04204E-01-7.73027E-14-1.21417E-13
 -1      3258 2.00501E+01-7.32798E-02 3.39583E-04 9.53139E-02-7.99056E-14-1.21691E-13
 -1      3259 2.00845E+01-8.65035E-02-3.98663E-04 1.01436E-01-7.50974E-14-1.71839E-13
 -1      3260 2.00412E+01-6.88292E-02-7.29278E-05 8.72208E-02-9.23376E-14-1.38905E-13
 -1      3261 2.00380E+01-6.35506E-02 3.27389E-04 7.90899E-02-1.16752E-13-1.78951E-13
 -1      3262 2.00655E+01-7.86648E-02-3.29757E-04 8.57576E-02-7.56322E-14-2.56376E-13
 -1      3263 2.00309E+01-5.80712E-02-1.14401E-04 7.19726E-02-1.38106E-13-1.59886E-13
 -1      3264 2.00288E+01-5.19818E-02 3.08355E-04 6.50610E-02-1.37871E-13-1.01144E-13
 -1      3265 2.00503E+01-6.75205E-02-2.65244E-04 7.13005E-02-1.29449E-13-1.98011E-13
 -1      3266 2.00230E+01-4.58901E-02-1.43281E-04 5.92506E-02-1.36415E-13-9.29204E-14
 -1      3267 2.00218E+01-3.92912E-02 2.89287E-04 5.38608E-02-1.17474E-13-8.47175E-14
 -1      3268 2.00382E+01-5.44171E-02-2.06553E-04 5.89502E-02-1.00942E-13-1.00841E-13
 -1      3269 2.00171E+01-3.27704E-02-1.67112E-04 4.95833E-02-1.28401E-13-9.90236E-14
 -1      3270 2.00165E+01-2.57546E-02 2.74643E-04 4.59333E-02-7.69597E-14-1.12499E-13
 -1      3271 2.00287E+01-4.00603E-02-1.53256E-04 4.92977E-02-1.02480E-13-2.76141E-14
 -1      3272 2.00126E+01-1.88156E-02-1.92041E-04 4.33672E-02 3.98285E-14-1.31816E-13
 -1      3273 2.00124E+01-1.13217E-02 2.67753E-04 4.16459E-02 9.66616E-14-1.48081E-13
 -1      3274 2.00211E+01-2.46874E-02-1.03798E-04 4.27728E-02-3.26846E-14-2.66543E-14
 -1      3275 2.00088E+01-3.85113E-03-2.22937E-04 4.09679E-02 7.93479E-14-8.51963E-14
 -1      3276 2.00089E+01 4.28951E-03 2.71006E-04 4.13770E-02 6.45089E-14-1.39342E-13
 -1      3277 2.00146E+01-8.19227E-03-5.64805E-05 3.97472E-02 8.67883E-14-1.60181E-14
 -1      3278 2.00053E+01 1.24865E-02-2.63483E-04 4.27974E-02 9.95959E-14-1.50530E-13
 -1      3279 2.00055E+01 2.15062E-02 2.86027E-04 4.55801E-02 1.41666E-13-9.26716E-14
 -1      3280 2.00085E+01 9.77280E-03-9.37446E-06 4.06170E-02 8.73652E-14-9.34489E-14
 -1      3281 2.00016E+01 3.06625E-02-3.16281E-04 4.93671E-02 1.33747E-13-1.18409E-13
 -1      3282 2.00018E+01 4.08102E-02 3.13943E-04 5.48245E-02 1.39343E-13-1.26417E-13
 -1      3283 2.00022E+01 2.96988E-02 3.92686E-05 4.58627E-02 1.38651E-13-2.29923E-13
 -1      3284 1.99970E+01 5.11471E-02-3.82634E-04 6.13197E-02 9.22778E-14-1.27288E-13
 -1      3285 1.99971E+01 6.26317E-02 3.55589E-04 6.98154E-02-2.92022E-14-9.96410E-14
 -1      3286 1.99949E+01 5.21158E-02 9.05024E-05 5.60901E-02 9.05189E-14-2.08359E-13
 -1      3287 1.99912E+01 7.42956E-02-4.61999E-04 7.94401E-02-1.61006E-13-9.08496E-14
 -1      3288 1.99911E+01 8.72103E-02 4.11679E-04 9.13905E-02-2.00557E-13-1.29393E-13
 -1      3289 1.99857E+01 7.74679E-02 1.43971E-04 7.20536E-02-9.17768E-14-1.87542E-13
 -1      3290 1.99835E+01 1.00186E-01-5.51077E-04 1.04641E-01-1.63792E-13-8.98680E-14
 -1      3291 1.99833E+01 1.14404E-01 4.82972E-04 1.20489E-01-3.49005E-14-4.81791E-14
 -1      3292 1.99740E+01 1.05948E-01 1.96849E-04 9.46625E-02-1.32402E-13-2.08606E-13
 -1      3293 1.99738E+01 1.28395E-01-6.42421E-04 1.37920E-01 1.78627E-14-9.63855E-14
 -1      3294 1.99735E+01 1.43428E-01 5.70461E-04 1.58081E-01 3.99150E-14-1.08074E-13
 -1      3295 1.99590E+01 1.37274E-01 2.42305E-04 1.24966E-01-9.06582E-14-1.28628E-13
 -1      3296 1.99622E+01 1.57694E-01-7.22458E-04 1.80270E-01 1.27585E-14-1.17734E-13
 -1      3297 1.99621E+01 1.72500E-01 6.75555E-04 2.05057E-01 2.94341E-14-1.60633E-13
 -1      3298 1.99404E+01 1.70379E-01 2.67309E-04 1.64109E-01 7.07089E-15-1.05696E-13
 -1      3299 1.99491E+01 1.85645E-01-7.68779E-04 2.32539E-01-3.17220E-14-1.90295E-13
 -1      3300 1.99501E+01 1.98381E-01 8.00115E-04 2.62039E-01 7.02394E-17-1.39889E-13
 -1      3301 1.99184E+01 2.03001E-01 2.49680E-04 2.13258E-01 1.30201E-15-3.18018E-13
 -1      3302 1.99364E+01 2.08087E-01-7.46570E-04 2.95211E-01-5.52932E-14-2.04815E-13
 -1      3303 1.99397E+01 2.15813E-01 9.45973E-04 3.29111E-01-1.05602E-13-2.22135E-13
 -1      3304 1.98939E+01 2.31156E-01 1.54282E-04 2.73463E-01-5.41321E-14-3.64638E-13
 -1      3305 1.99274E+01 2.18534E-01-6.04056E-04 3.68076E-01-1.52942E-13-2.51483E-13
 -1      3306 1.99353E+01 2.16883E-01 1.11301E-03 4.05419E-01-2.05148E-13-2.39811E-13
 -1      3307 1.98696E+01 2.48495E-01-7.15215E-05 3.45445E-01-1.43160E-13-3.62453E-13
 -1      3308 1.99279E+01 2.07536E-01-2.66929E-04 4.49743E-01-2.76887E-13-1.83228E-13
 -1      3309 1.99442E+01 1.90415E-01 1.29403E-03 4.88592E-01-2.30872E-13-2.67319E-13
 -1      3310 1.98507E+01 2.45595E-01-5.02698E-04 4.29262E-01-2.30664E-13-1.53935E-13
 -1      3311 1.99475E+01 1.62165E-01 3.68002E-04 5.36920E-01-1.78296E-13-3.63827E-13
 -1      3312 1.99775E+01 1.21605E-01 1.46303E-03 5.73882E-01-1.10527E-13-3.67246E-13
 -1      3313 1.98456E+01 2.09286E-01-1.24043E-03 5.23754E-01-2.36411E-13-1.80602E-13
 -1      3314 2.00006E+01 6.59053E-02 1.43901E-03 6.23317E-01 5.51504E-14-3.30000E-13
 -1      3315 2.00518E+01-7.70790E-03 1.55190E-03 6.52889E-01 6.77477E-14-1.98291E-13
 -1      3316 1.98680E+01 1.22268E-01-2.41200E-03 6.25637E-01-2.25265E-14-2.95921E-13
 -1      3317 2.01077E+01-1.00497E-01 3.12259E-03 6.97976E-01-6.77485E-14-1.39833E-13
 -1      3318 2.01899E+01-2.17403E-01 1.40706E-03 7.11621E-01-9.68450E-14-1.12086E-13
 -1      3319 1.99383E+01-3.65476E-02-4.15955E-03 7.27967E-01 8.42431E-14-2.06323E-13
 -1      3320 2.02962E+01-3.56270E-01 5.61484E-03 7.42674E-01-6.44009E-14-2.10544E-14
 -1      3321 2.04204E+01-5.24764E-01 7.29455E-04 7.27608E-01 2.89694E-14 3.77498E-15
 -1      3322 2.00851E+01-2.90128E-01-6.60312E-03 8.17520E-01-2.81322E-14-1.78047E-14
 -1      3323 2.05992E+01-7.14251E-01 9.04009E-03 7.28233E-01-1.03682E-13-3.88955E-14
 -1      3324 2.07748E+01-9.35446E-01-9.72305E-04 6.66137E-01-1.71412E-13-7.08179E-14
 -1      3325 2.03456E+01-6.58085E-01-9.73932E-03 8.70479E-01-9.05204E-14-4.44105E-14
 -1      3326 2.10495E+01-1.16878E+00 1.33138E-02 6.10159E-01-7.66323E-14-8.43123E-14
 -1      3327 2.12787E+01-1.42758E+00-4.43901E-03 4.76606E-01 4.44545E-14-9.82503E-14
 -1      3328 2.07633E+01-1.14583E+00-1.32732E-02 8.46391E-01-1.49890E-13-8.54243E-16
 -1      3329 2.16674E+01-1.67491E+00 1.78161E-02 3.23409E-01 8.06229E-14-2.06437E-13
 -1      3330 2.19351E+01-1.92154E+00-9.55149E-03 9.01536E-02 1.75965E-13-1.38511E-13
 -1      3331 2.13808E+01-1.72600E+00-1.61952E-02 6.80191E-01 2.17818E-14-2.59070E-14
 -1      3332 2.24224E+01-2.10853E+00 1.89127E-02-2.06988E-01 2.85666E-13-1.19450E-13
 -1      3333 2.26847E+01-2.24450E+00-1.71826E-02-5.54486E-01 3.61024E-13-8.87534E-14
 -1      3334 2.22121E+01-2.28312E+00-1.34775E-02 2.74583E-01 2.47713E-13-1.76278E-13
 -1      3335 2.32126E+01-2.24803E+00 1.39016E-02-1.03235E+00 2.89276E-13-8.94944E-14
 -1      3336 2.33875E+01-2.11637E+00-2.24675E-02-1.47491E+00 1.37621E-13 9.46387E-14
 -1      3337 2.31973E+01-2.61846E+00-9.89987E-03-4.61108E-01 2.73225E-13-1.88192E-13
 -1      3338 2.38005E+01-1.76156E+00-3.07546E-03-2.10241E+00 1.56886E-13 1.08015E-13
 -1      3339 2.37899E+01-1.17443E+00-1.87233E-02-2.53721E+00 3.57839E-13 2.21762E-13
 -1      3340 2.41356E+01-2.37729E+00-7.41896E-03-1.55907E+00 2.53280E-13-1.67887E-13
 -1      3341 2.37266E+01 1.72122E+00-5.67162E-02-3.63589E+00 6.79912E-14 6.95039E-14
 -1      3342 2.32922E+01 3.07084E+00-1.88652E-03-3.43909E+00-1.02727E-13 8.56192E-14
 -1      3343 2.19342E+01 4.44505E+00-8.08220E-02-2.65781E+00-1.50480E-13 8.22432E-14
 -1      3344 2.00749E+01-6.63887E-02 2.07398E-04-1.56060E-01 7.47095E-15-2.45517E-13
 -1      3345 2.00831E+01-5.81685E-02 4.61497E-04-1.61438E-01-2.08577E-14-2.76855E-13
 -1      3346 2.01261E+01-8.32387E-03-2.27482E-04-1.60615E-01 4.29885E-14-3.00300E-13
 -1      3347 2.01423E+01 2.08937E-02 1.27969E-03-1.51090E-01 5.42399E-14-2.78390E-13
 -1      3348 2.00564E+01-7.39141E-02 2.92387E-04-1.40734E-01 4.46567E-14-2.16717E-13
 -1      3349 2.00619E+01-7.13460E-02 2.18292E-04-1.49104E-01 7.09003E-14-2.43157E-13
 -1      3350 2.01085E+01-7.51769E-02-5.38611E-04-1.43969E-01 1.72797E-14-3.05978E-13
 -1      3351 2.00420E+01-7.34461E-02 3.27686E-04-1.22344E-01 6.93736E-14-2.74376E-13
 -1      3352 2.00455E+01-7.45128E-02 5.54925E-05-1.31919E-01 5.76268E-14-2.12127E-13
 -1      3353 2.00847E+01-8.23047E-02-4.51669E-04-1.29631E-01 8.43311E-14-2.83560E-13
 -1      3354 2.00310E+01-6.79757E-02 3.33315E-04-1.03451E-01 5.30871E-14-2.47768E-13
 -1      3355 2.00331E+01-7.12897E-02-4.87487E-05-1.13040E-01 4.27189E-14-2.83175E-13
 -1      3356 2.00654E+01-8.09442E-02-3.70661E-04-1.12607E-01 8.27838E-14-2.57309E-13
 -1      3357 2.00229E+01-5.95107E-02 3.22702E-04-8.57337E-02 7.35105E-14-3.29823E-13
 -1      3358 2.00239E+01-6.41493E-02-1.12608E-04-9.45636E-02 9.02018E-14-2.48656E-13
 -1      3359 2.00500E+01-7.42724E-02-2.99041E-04-9.52453E-02 6.49297E-14-2.60712E-13
 -1      3360 2.00171E+01-4.93292E-02 3.05793E-04-7.02640E-02-1.44154E-15-2.74359E-13
 -1      3361 2.00172E+01-5.47192E-02-1.49572E-04-7.78458E-02 3.39911E-14-2.99949E-13
 -1      3362 2.00380E+01-6.44142E-02-2.37863E-04-7.90986E-02 3.97329E-14-2.07593E-13
 -1      3363 2.00131E+01-3.81400E-02 2.89788E-04-5.77178E-02-4.35095E-14-1.36602E-13
 -1      3364 2.00127E+01-4.39824E-02-1.71292E-04-6.37386E-02-1.75365E-14-2.27479E-13
 -1      3365 2.00289E+01-5.26983E-02-1.85222E-04-6.51614E-02-8.05300E-14-2.25515E-13
 -1      3366 2.00106E+01-2.62130E-02 2.79418E-04-4.85594E-02-8.02475E-14-1.20509E-13
 -1      3367 2.00097E+01-3.24178E-02-1.86932E-04-5.27959E-02-3.58852E-14-1.37774E-13
 -1      3368 2.00220E+01-3.98368E-02-1.41223E-04-5.40763E-02-7.84544E-14-1.91599E-13
 -1      3369 2.00092E+01-1.34839E-02 2.78362E-04-4.31712E-02-4.19366E-14-2.20354E-13
 -1      3370 2.00079E+01-2.01222E-02-2.03209E-04-4.54284E-02-6.10626E-14-1.87959E-13
 -1      3371 2.00169E+01-2.60613E-02-1.03057E-04-4.63043E-02-3.59631E-14-2.32511E-13
 -1      3372 2.00085E+01 3.80442E-04 2.89064E-04-4.19517E-02 4.18081E-14-1.67538E-13
 -1      3373 2.00070E+01-6.89340E-03-2.26022E-04-4.20143E-02-4.55491E-15-2.10917E-13
 -1      3374 2.00130E+01-1.12409E-02-6.77549E-05-4.22385E-02-2.72193E-14-2.47719E-13
 -1      3375 2.00082E+01 1.59419E-02 3.13093E-04-4.53933E-02 3.40496E-15-3.77566E-14
 -1      3376 2.00064E+01 7.71749E-03-2.60780E-04-4.29873E-02 4.55382E-14-1.39409E-13
 -1      3377 2.00097E+01 5.05163E-03-3.18938E-05-4.22936E-02-3.65582E-15-1.92542E-13
 -1      3378 2.00079E+01 3.39687E-02 3.51098E-04-5.41418E-02 7.25998E-14 3.89820E-15
 -1      3379 2.00058E+01 2.43749E-02-3.12788E-04-4.89045E-02 6.25512E-14-2.92288E-14
 -1      3380 2.00064E+01 2.34958E-02 8.95996E-06-4.69745E-02 1.85804E-14-1.20404E-13
 -1      3381 2.00070E+01 5.54308E-02 4.02569E-04-6.90403E-02 7.41746E-14 4.85283E-14
 -1      3382 2.00048E+01 4.39459E-02-3.87780E-04-6.04974E-02 5.93679E-14 2.44414E-14
 -1      3383 2.00024E+01 4.49996E-02 6.07189E-05-5.69247E-02 3.84547E-14-1.42609E-13
 -1      3384 2.00048E+01 8.15105E-02 4.65324E-04-9.11578E-02-4.99603E-14 2.59075E-14
 -1      3385 2.00026E+01 6.75027E-02-4.92421E-04-7.87067E-02 4.28210E-14 5.16492E-14
 -1      3386 1.99967E+01 7.06925E-02 1.31486E-04-7.29544E-02 3.87403E-14-2.14854E-14
 -1      3387 2.00001E+01 1.13625E-01 5.34636E-04-1.21800E-01-9.89831E-14 1.90881E-13
 -1      3388 1.99984E+01 9.63402E-02-6.34860E-04-1.04701E-01-9.63368E-14 6.52025E-14
 -1      3389 1.99881E+01 1.01934E-01 2.32602E-04-9.60489E-02-1.10501E-13-3.15916E-15
 -1      3390 1.99915E+01 1.53458E-01 6.01920E-04-1.62498E-01-1.00753E-13 1.15592E-13
 -1      3391 1.99907E+01 1.32004E-01-8.25348E-04-1.39875E-01-9.34720E-15 2.09389E-13
 -1      3392 1.99749E+01 1.40331E-01 3.80126E-04-1.27349E-01-1.09542E-13 2.26267E-15
 -1      3393 1.99763E+01 2.02994E-01 6.52925E-04-2.14959E-01-1.38986E-13 9.18387E-14
 -1      3394 1.99774E+01 1.76325E-01-1.07694E-03-1.85820E-01-1.82087E-13 1.13737E-13
 -1      3395 1.99547E+01 1.87761E-01 5.96835E-04-1.68096E-01-1.21397E-13 1.22801E-14
 -1      3396 1.99511E+01 2.64526E-01 6.65494E-04-2.80977E-01-1.30619E-13 3.68589E-14
 -1      3397 1.99556E+01 2.31444E-01-1.40628E-03-2.44252E-01-9.19311E-14 8.14317E-14
 -1      3398 1.99241E+01 2.46386E-01 9.14830E-04-2.19527E-01-1.26182E-13 1.11860E-13
 -1      3399 1.99103E+01 3.40609E-01 6.07280E-04-3.62264E-01 4.38522E-14-1.54064E-13
 -1      3400 1.99208E+01 2.99801E-01-1.83447E-03-3.16884E-01-1.68757E-14-4.39583E-14
 -1      3401 1.98784E+01 3.18624E-01 1.37871E-03-2.82701E-01 3.15659E-15-1.68990E-13
 -1      3402 1.98461E+01 4.33856E-01 4.34560E-04-4.60208E-01 3.02823E-14-1.64890E-13
 -1      3403 1.98662E+01 3.84024E-01-2.38814E-03-4.05228E-01 7.67439E-14-1.59074E-13
 -1      3404 1.98106E+01 4.07040E-01 2.04909E-03-3.58246E-01 2.34740E-14-3.62369E-13
 -1      3405 1.97474E+01 5.46428E-01 9.46885E-05-5.75535E-01-6.10241E-14-2.32169E-13
 -1      3406 1.97825E+01 4.86597E-01-3.10130E-03-5.10311E-01-3.27577E-14-1.60124E-13
 -1      3407 1.97111E+01 5.14036E-01 3.00589E-03-4.46006E-01 3.31406E-14-2.39245E-13
 -1      3408 1.95985E+01 6.78927E-01-4.62957E-04-7.07940E-01-4.52596E-14-1.50383E-13
 -1      3409 1.96562E+01 6.09093E-01-4.02026E-03-6.32335E-01-1.09969E-13-2.31484E-13
 -1      3410 1.95665E+01 6.41183E-01 4.35017E-03-5.44640E-01-4.43764E-14-1.77548E-13
 -1      3411 1.93785E+01 8.28228E-01-1.25836E-03-8.55882E-01-1.00549E-13-1.29422E-13
 -1      3412 1.94690E+01 7.50591E-01-5.21788E-03-7.70397E-01-2.18782E-14-7.73059E-14
 -1      3413 1.93585E+01 7.87905E-01 6.20253E-03-6.51281E-01-5.19876E-14-1.00671E-13
 -1      3414 1.90608E+01 9.83535E-01-2.22866E-03-1.01707E+00-4.81725E-14-3.16747E-13
 -1      3415 1.91965E+01 9.04698E-01-6.83152E-03-9.22614E-01-7.99515E-14-2.85661E-13
 -1      3416 1.90628E+01 9.49107E-01 8.69585E-03-7.61601E-01-7.86119E-14-2.40819E-13
 -1      3417 1.86137E+01 1.11967E+00-3.11240E-03-1.19081E+00 4.67003E-14-2.20318E-13
 -1      3418 1.88077E+01 1.05431E+00-9.15236E-03-1.08744E+00 4.10832E-14-2.96000E-13
 -1      3419 1.86476E+01 1.11121E+00 1.19583E-02-8.71035E-01-4.22800E-14-3.20444E-13
 -1      3420 1.80033E+01 1.18648E+00-2.95452E-03-1.38432E+00-1.48257E-13-2.79729E-14
 -1      3421 1.82652E+01 1.16303E+00-1.26988E-02-1.26776E+00-6.44131E-14-1.41169E-13
 -1      3422 1.80723E+01 1.24583E+00 1.61058E-02-9.78440E-01-6.44469E-14-1.36452E-13
 -1      3423 1.71985E+01 1.09099E+00 2.70086E-04-1.62825E+00-1.27936E-13-1.29059E-14
 -1      3424 1.75274E+01 1.16173E+00-1.78149E-02-1.48135E+00-1.20113E-13 1.98560E-14
 -1      3425 1.72836E+01 1.30047E+00 2.13055E-02-1.09589E+00-1.75877E-13 2.81992E-14
 -1      3426 1.61564E+01 6.18153E-01-9.97478E-03-2.00829E+00-8.36432E-14-1.23209E-13
 -1      3427 1.65524E+01 9.33266E-01-2.26509E-02-1.77753E+00-9.54326E-14-1.71564E-14
 -1      3428 1.62238E+01 1.18039E+00 3.12212E-02-1.25948E+00-9.63833E-14-5.78183E-15
 -1      3429 2.01593E+01 5.68166E-02-6.61327E-04-1.36750E-01 6.23310E-14-2.65966E-13
 -1      3430 2.01807E+01 1.04082E-01 1.87756E-03-1.12854E-01 8.32841E-14-2.52439E-13
 -1      3431 2.02067E+01 5.29716E-02-7.31484E-04-1.28263E-01 6.94880E-14-3.13294E-13
 -1      3432 2.03114E+01 7.35689E-01 1.44408E-03-2.40807E-01-1.68410E-13-3.44414E-13
 -1      3433 2.02946E+01 5.73444E-01-2.82111E-03-1.40403E-01-1.52707E-13-3.46982E-13
 -1      3434 2.03296E+01 5.77881E-01 4.41417E-04-1.14032E-01-1.30416E-13-2.82326E-13
 -1      3435 2.51081E+01 8.40238E+00-1.26775E-01-3.44578E-01-1.15796E-13-5.12340E-13
 -1      3436 2.02642E+01 5.61358E-01-3.21971E-03 1.68395E-01 1.88183E-13-2.45736E-13
 -1      3437 2.02914E+01 7.18867E-01 8.55228E-04 2.83843E-01 2.19749E-13-2.66064E-13
 -1      3438 2.00098E+01 2.26034E+00-3.65738E-03-1.56712E-01-2.49988E-14-4.95574E-13
 -1      3439 2.00233E+01 2.22955E+00-2.72761E-03-2.78825E-01-6.88494E-14-4.69763E-13
 -1      3440 2.00997E+01 2.02818E+00 3.01661E-03-2.81018E-01-7.46673E-14-4.51067E-13
 -1      3441 2.01188E+01 1.97809E+00 4.39228E-03-8.83511E-02-1.59249E-14-4.53743E-13
 -1      3442 2.02015E+01 1.65098E+00 1.66509E-03-5.33178E-01-1.66367E-13-4.41643E-13
 -1      3443 2.02242E+01 1.51242E+00-3.86763E-03-6.00811E-01-1.80779E-13-4.82535E-13
 -1      3444 2.02580E+01 1.31486E+00-1.65069E-04-5.27765E-01-1.82727E-13-4.41842E-13
 -1      3445 2.02901E+01 1.10742E+00-5.46053E-04-4.41843E-01-1.64865E-13-4.12384E-13
 -1      3446 2.02941E+01 8.85624E-01-2.27401E-03-3.08698E-01-1.59816E-13-3.66431E-13
 -1      3447 2.03205E+01 8.89023E-01 1.85016E-03-2.56947E-01-1.45355E-13-3.68553E-13
 -1      3448 2.02789E+01 1.24613E+00 2.43338E-03-4.08277E-01-1.28550E-13-4.02837E-13
 -1      3449 2.31775E+01-5.60497E+00-9.22204E-02 3.58515E+00 7.38958E-14 2.19373E-14
 -1      3450 2.10097E+01-4.78061E+00 7.73265E-02 4.58285E+00 3.16655E-13-2.86604E-13
 -1      3451 2.69277E+01-1.58672E+00-7.24355E-02-3.03092E+00-1.82424E-14-2.60417E-13
 -1      3452 2.73380E+01-3.32659E+00 7.59463E-02-1.61652E+00 5.35683E-14-3.69076E-13
 -1      3453 1.84931E+01-3.97739E+00-1.84757E-02 5.20757E+00 2.91909E-13-6.04725E-13
 -1      3454 1.59139E+01-2.46946E+00 3.13163E-02 4.87394E+00 1.44936E-13-5.37386E-13
 -1      3455 1.44625E+01-2.10392E-01 8.75641E-02-2.61166E+00-5.52726E-14-2.79270E-13
 -1      3456 2.02868E+01 9.07017E-01 8.67343E-04 3.62895E-01 2.30162E-13-2.87653E-13
 -1      3457 2.02721E+01 1.19565E+00-4.89107E-03 4.98257E-01 2.36002E-13-3.47877E-13
 -1      3458 2.02610E+01 1.34145E+00 1.25805E-03 4.59388E-01 1.96386E-13-3.67990E-13
 -1      3459 2.03065E+01 9.18730E-01 2.06227E-03 3.06996E-01 1.99867E-13-3.03210E-13
 -1      3460 2.00980E+01-4.65539E-02 4.60080E-05-1.64514E-01 1.29504E-15-2.64782E-13
 -1      3461 2.01097E+01-2.98281E-02 8.08534E-04-1.64290E-01 2.00412E-14-2.83851E-13
 -1      3462 2.01369E+01-5.49744E-02-6.26649E-04-1.52153E-01 1.46998E-14-2.86022E-13
 -1      3463 2.64412E+01-4.86106E+00-1.16475E-01 1.62203E-01 1.32150E-13-4.01077E-13
 -1      3464 2.52712E+01-5.27096E+00 1.03688E-01 1.96888E+00 7.11232E-14-1.75297E-13
 -1      3465 1.10517E+01 1.56359E-02 1.01805E-01 1.46362E+00-3.57353E-14-2.58127E-15
 -1      3466 1.17685E+01 3.11263E-01 1.81559E-02 5.49359E-01-1.24028E-13-8.99975E-14
 -1      3467 1.23437E+01 4.57640E-02 2.77228E-02 2.19185E+00-7.42878E-14-1.02720E-13
 -1      3468 2.01423E+01-3.82337E+00 5.80066E-02 4.23726E+00 3.08614E-13-2.87620E-13
 -1      3469 2.01990E+01 1.69568E+00 5.01369E-03 4.57704E-01 1.81031E-13-4.35412E-13
 -1      3470 1.46329E+01-1.37345E+00 5.06271E-02 4.26635E+00 1.29811E-13-5.40318E-13
 -1      3471 1.36775E+01-6.40618E-01 1.28327E-02 3.37695E+00 2.35766E-14-2.85390E-13
 -1      3472 2.36911E+01 6.12666E-01-1.98313E-02-3.29121E+00 3.63283E-13 1.71708E-13
 -1      3473 2.50620E+01 9.10607E-01 8.64762E-03-3.80357E+00 2.14131E-13-4.30603E-13
 -1      3474 2.62811E+01-3.73411E-01-1.48576E-02-3.60130E+00 6.16590E-14-2.98433E-13
 -1      3475 2.39493E+01-4.11970E-01-2.91417E-02-3.08599E+00 4.87662E-13 7.35409E-14
 -1      3476 2.02450E+01 1.61961E-01-6.68048E-04-8.02954E-02 9.87225E-14-2.93190E-13
 -1      3477 2.01963E+01 1.60797E-01-1.31370E-03-8.27691E-02 8.35003E-14-2.45927E-13
 -1      3478 2.02233E+01 2.33907E-01 2.57035E-03-3.78416E-02 1.11219E-13-2.24773E-13
 -1      3479 2.02005E+01 1.64031E+00-3.33569E-03 1.30273E-01 5.88214E-14-4.49610E-13
 -1      3480 2.01972E+01 1.66037E+00-2.39770E-03 3.99515E-02 1.87671E-14-4.34412E-13
 -1      3481 2.02340E+01 3.20522E-01-2.24090E-03 1.41457E-02 1.34234E-13-2.43542E-13
 -1      3482 2.02647E+01 4.30145E-01 3.02494E-03 8.84967E-02 1.57447E-13-2.66335E-13
 -1      3483 2.03047E+01 5.75511E-01 7.83598E-05 1.42216E-01 1.89509E-13-3.05082E-13
 -1      3484 2.02804E+01 3.28719E-01-4.08217E-04 5.79164E-03 1.16145E-13-3.20506E-13
 -1      3485 2.39446E+01 4.03726E+00-1.14864E-02-3.59531E+00-1.69722E-13-3.47035E-13
 -1      3486 2.56061E+01-1.47554E+00-3.69186E-02-2.81548E+00 1.87436E-13-1.44262E-13
 -1      3487 2.60061E+01-3.80802E+00-1.90242E-02-7.63733E-01 2.12332E-13-2.79469E-13
 -1      3488 2.01704E+01 1.74111E+00-3.43044E-03-4.61570E-01-1.45146E-13-4.30121E-13
 -1      3489 2.02222E+01 1.54760E+00 5.71470E-04-4.22681E-01-1.38725E-13-4.17070E-13
 -1      3490 2.01497E+01 1.82824E+00-1.17290E-03-3.69755E-01-9.66760E-14-4.11660E-13
 -1      3491 2.39963E+01-4.81065E+00 3.88114E-02 2.24163E+00 2.73186E-13-1.89826E-13
 -1      3492 2.01699E+01-1.52401E-02-7.00542E-04-1.49204E-01 2.99593E-14-3.13103E-13
 -1      3493 1.65115E+01-1.78126E+00 4.41956E-02 4.10866E+00 1.54624E-13-5.02688E-13
 -1      3494 1.24610E+01-1.36621E-01 3.34100E-02-1.91641E+00-2.08644E-14-2.34146E-13
 -1      3495 1.53788E+01 4.09230E-01 1.53739E-02-2.06525E+00-9.50282E-14-1.77196E-13
 -1      3496 2.02203E+01 1.54970E+00-3.67080E-03 2.84025E-01 1.18208E-13-4.45000E-13
 -1      3497 2.02096E+01 1.60751E+00-1.93689E-03 2.00998E-01 8.45329E-14-4.50197E-13
 -1      3498 2.02833E+01 1.38621E+00 4.77970E-03 1.33039E-01 6.09935E-14-4.24039E-13
 -1      3499 2.47722E+01-1.16387E+00 1.50520E-02-2.80805E+00 3.35189E-13-1.20234E-14
 -1      3500 1.46840E+01 8.78937E-01 6.07722E-02-1.33924E+00 1.62943E-14-1.14552E-13
 -1      3501 1.23427E+01 4.08906E-01 4.77765E-02-8.38690E-01-8.18711E-14-1.70482E-13
 -1      3502 2.01707E+01-6.40760E-02 7.06787E-05-1.36267E-01 1.41581E-14-3.22016E-13
 -1      3503 2.01872E+01-4.74123E-02 6.47641E-04-1.36877E-01 1.12821E-15-3.31547E-13
 -1      3504 2.03553E+01 4.16839E-01 1.47332E-03-2.82749E-02-1.00715E-13-2.51722E-13
 -1      3505 2.03390E+01 3.05967E-01-1.71303E-03 1.96406E-02-1.17231E-13-2.50198E-13
 -1      3506 2.11783E+01-4.04419E+00-5.45478E-02 3.54029E+00 3.50527E-13-6.06251E-14
 -1      3507 1.92284E+01-3.01056E+00 1.88467E-02 3.98348E+00 2.94453E-13-2.21177E-13
 -1      3508 1.37461E+01 8.04975E-01-1.53475E-02-6.15290E-01-3.76591E-14-2.36863E-13
 -1      3509 1.47714E+01 9.95713E-01-1.30501E-02-7.30789E-01 1.03095E-14-2.67560E-13
 -1      3510 2.03318E+01 2.16364E-01 1.33508E-03 4.87181E-02-1.14229E-13-2.48373E-13
 -1      3511 2.03109E+01 1.41363E-01-1.04138E-03 7.78727E-02-9.36725E-14-2.32305E-13
 -1      3512 2.03661E+01 2.94501E-01 2.53935E-04 2.24601E-02-1.10533E-13-2.44763E-13
 -1      3513 2.02955E+01 8.20532E-02 1.07371E-03 9.39791E-02-5.94806E-14-2.15191E-13
 -1      3514 2.02738E+01 3.34317E-02-5.25608E-04 1.09191E-01-8.16293E-15-2.23299E-13
 -1      3515 2.03369E+01 1.30716E-01-1.52104E-04 6.96991E-02-7.31546E-14-2.34614E-13
 -1      3516 2.02544E+01-3.92686E-03 8.04689E-04 1.15894E-01 7.46562E-15-2.40777E-13
 -1      3517 2.02340E+01-3.35647E-02-1.57103E-04 1.21390E-01 7.83965E-15-2.49372E-13
 -1      3518 2.02978E+01 2.34598E-02-3.74788E-04 9.47948E-02-2.17080E-14-2.46214E-13
 -1      3519 2.02135E+01-5.53412E-02 5.68388E-04 1.21760E-01 2.80758E-14-2.55745E-13
 -1      3520 2.01952E+01-7.16273E-02 8.53621E-05 1.20936E-01 2.39084E-14-2.61434E-13
 -1      3521 2.02553E+01-4.27567E-02-5.01555E-04 1.04139E-01 9.82556E-15-2.66219E-13
 -1      3522 2.01753E+01-8.26116E-02 3.81179E-04 1.17388E-01 3.29990E-14-2.58251E-13
 -1      3523 2.01596E+01-8.97637E-02 2.30538E-04 1.12792E-01 7.91497E-15-2.33180E-13
 -1      3524 2.02137E+01-7.98143E-02-5.43627E-04 1.03103E-01 3.23710E-14-2.46992E-13
 -1      3525 2.01415E+01-9.34800E-02 2.39240E-04 1.07099E-01-2.08954E-14-2.14410E-13
 -1      3526 2.01284E+01-9.45623E-02 3.06904E-04 1.00557E-01-1.69941E-14-1.68377E-13
 -1      3527 2.01752E+01-9.67883E-02-5.33727E-04 9.57877E-02 2.30244E-14-2.05695E-13
 -1      3528 2.01125E+01-9.35225E-02 1.33351E-04 9.39764E-02-6.76118E-14-1.68894E-13
 -1      3529 2.01018E+01-9.07115E-02 3.35305E-04 8.67660E-02-1.07656E-13-1.69462E-13
 -1      3530 2.01413E+01-1.00321E-01-4.94785E-04 8.51807E-02-5.10678E-14-1.52768E-13
 -1      3531 2.00882E+01-8.66900E-02 5.52645E-05 8.01598E-02-9.85087E-14-1.55914E-13
 -1      3532 2.00797E+01-8.14891E-02 3.32868E-04 7.31343E-02-6.12490E-14-1.75176E-13
 -1      3533 2.01123E+01-9.51453E-02-4.35459E-04 7.34060E-02-8.74578E-14-1.33786E-13
 -1      3534 2.00684E+01-7.56694E-02-2.74442E-06 6.70554E-02-7.08439E-14-1.82656E-13
 -1      3535 2.00617E+01-6.90423E-02 3.15875E-04 6.07715E-02-1.09553E-13-1.32532E-13
 -1      3536 2.00880E+01-8.45778E-02-3.68848E-04 6.18871E-02-6.32164E-14-1.50518E-13
 -1      3537 2.00523E+01-6.21426E-02-4.78575E-05 5.55784E-02-8.42413E-14-8.62630E-14
 -1      3538 2.00472E+01-5.46419E-02 2.92899E-04 5.04077E-02-6.26334E-14-5.58980E-14
 -1      3539 2.00681E+01-7.07438E-02-2.99197E-04 5.15481E-02-4.42203E-14-9.57698E-14
 -1      3540 2.00394E+01-4.70459E-02-8.62237E-05 4.63458E-02-5.28270E-14-8.87113E-14
 -1      3541 2.00354E+01-3.89278E-02 2.68505E-04 4.25460E-02-8.18298E-14-3.53356E-14
 -1      3542 2.00518E+01-5.48776E-02-2.30530E-04 4.30193E-02-5.30130E-14-1.06243E-13
 -1      3543 2.00287E+01-3.07702E-02-1.23716E-04 3.97927E-02-6.30693E-14 3.40368E-14
 -1      3544 2.00255E+01-2.20680E-02 2.46917E-04 3.75639E-02 4.01722E-14 5.38033E-14
 -1      3545 2.00383E+01-3.75643E-02-1.61781E-04 3.67456E-02 4.40716E-16-3.79115E-14
 -1      3546 2.00196E+01-1.32947E-02-1.65514E-04 3.62735E-02 1.03961E-13 3.94583E-14
 -1      3547 2.00168E+01-3.87621E-03 2.31245E-04 3.58060E-02 7.71995E-14 5.20108E-14
 -1      3548 2.00267E+01-1.89091E-02-9.29541E-05 3.30695E-02 5.19323E-14 9.04358E-14
 -1      3549 2.00110E+01 5.69906E-03-2.15579E-04 3.61504E-02 4.76630E-14 5.16201E-14
 -1      3550 2.00084E+01 1.60769E-02 2.23531E-04 3.76592E-02 1.10759E-13 3.17825E-14
 -1      3551 2.00160E+01 1.34849E-03-2.23793E-05 3.23230E-02 7.15473E-14 1.12621E-13
 -1      3552 2.00022E+01 2.67213E-02-2.77367E-04 3.98556E-02 8.96332E-14-4.90463E-14
 -1      3553 1.99993E+01 3.83597E-02 2.25359E-04 4.36050E-02 8.39360E-14-1.23218E-13
 -1      3554 2.00052E+01 2.37122E-02 5.20855E-05 3.48932E-02 2.95522E-14 5.50711E-14
 -1      3555 1.99921E+01 5.03682E-02-3.53721E-04 4.79388E-02 1.17486E-13-2.40823E-13
 -1      3556 1.99885E+01 6.35696E-02 2.38382E-04 5.42591E-02 6.16430E-14-2.61631E-13
 -1      3557 1.99931E+01 4.88165E-02 1.32379E-04 4.12717E-02 3.79370E-14-1.72470E-13
 -1      3558 1.99797E+01 7.72021E-02-4.46543E-04 6.11034E-02 1.00713E-14-2.31957E-13
 -1      3559 1.99751E+01 9.21978E-02 2.64846E-04 7.03996E-02-6.92922E-14-1.57468E-13
 -1      3560 1.99786E+01 7.73046E-02 2.19557E-04 5.20983E-02 4.54717E-14-2.93845E-13
 -1      3561 1.99639E+01 1.07597E-01-5.56233E-04 8.02316E-02-1.10564E-13-1.72186E-13
 -1      3562 1.99580E+01 1.24451E-01 3.08218E-04 9.29847E-02-7.63456E-14-1.12185E-13
 -1      3563 1.99602E+01 1.09676E-01 3.12834E-04 6.81995E-02-3.50996E-14-1.21269E-13
 -1      3564 1.99438E+01 1.41529E-01-6.80813E-04 1.06401E-01-2.28631E-14-9.69600E-14
 -1      3565 1.99363E+01 1.60006E-01 3.73957E-04 1.23159E-01 1.97617E-15-5.71544E-15
 -1      3566 1.99369E+01 1.46086E-01 4.08208E-04 9.06259E-02-4.02724E-14-8.87850E-14
 -1      3567 1.99185E+01 1.78293E-01-8.14585E-04 1.40889E-01-5.28032E-14-7.05177E-15
 -1      3568 1.99093E+01 1.97678E-01 4.70477E-04 1.62245E-01-3.65616E-14-1.08936E-14
 -1      3569 1.99073E+01 1.86069E-01 4.96500E-04 1.20690E-01-6.88411E-15-2.00745E-14
 -1      3570 1.98877E+01 2.16113E-01-9.46161E-04 1.85156E-01-1.11145E-13-2.03342E-13
 -1      3571 1.98772E+01 2.34972E-01 6.10202E-04 2.11711E-01-7.81305E-14-2.40567E-13
 -1      3572 1.98705E+01 2.28163E-01 5.60646E-04 1.60002E-01-1.81168E-13-2.10250E-13
 -1      3573 1.98519E+01 2.51637E-01-1.05558E-03 2.40814E-01-9.40702E-14-3.32359E-13
 -1      3574 1.98410E+01 2.67514E-01 8.10502E-04 2.73110E-01-1.34673E-13-4.39559E-13
 -1      3575 1.98264E+01 2.69419E-01 5.72036E-04 2.10506E-01-1.30578E-13-3.14197E-13
 -1      3576 1.98128E+01 2.79303E-01-1.11004E-03 3.09530E-01-8.70569E-14-3.55048E-13
 -1      3577 1.98034E+01 2.88354E-01 1.09383E-03 3.47947E-01-6.52110E-14-2.50310E-13
 -1      3578 1.97758E+01 3.04759E-01 4.85721E-04 2.74493E-01-8.97218E-14-3.77455E-13
 -1      3579 1.97746E+01 2.90589E-01-1.05765E-03 3.92869E-01-1.21077E-13-1.28122E-13
 -1      3580 1.97701E+01 2.87177E-01 1.48568E-03 4.37448E-01-1.65020E-13-8.75167E-14
 -1      3581 1.97215E+01 3.26210E-01 2.34226E-04 3.54580E-01-5.65567E-14-1.90458E-13
 -1      3582 1.97449E+01 2.73225E-01-8.17764E-04 4.91959E-01-2.33266E-13-1.18903E-13
 -1      3583 1.97508E+01 2.49531E-01 2.00745E-03 5.42106E-01-2.80755E-13-1.63770E-13
 -1      3584 1.96694E+01 3.22024E-01-2.80358E-04 4.53572E-01-1.80459E-13-1.74736E-13
 -1      3585 1.97362E+01 2.10503E-01-2.66452E-04 6.06865E-01-2.12967E-13-8.21025E-14
 -1      3586 1.97609E+01 1.56281E-01 2.65975E-03 6.60841E-01 6.65781E-15-1.58211E-13
 -1      3587 1.96300E+01 2.75791E-01-1.19625E-03 5.74096E-01-1.87152E-13 2.85272E-14
 -1      3588 1.97682E+01 8.10011E-02 7.87382E-04 7.35402E-01 1.94619E-13-2.85872E-13
 -1      3589 1.98235E+01-1.62972E-02 3.39115E-03 7.89414E-01 1.66018E-13-1.69367E-13
 -1      3590 1.96203E+01 1.65754E-01-2.70173E-03 7.17748E-01 6.01633E-15-2.42632E-13
 -1      3591 1.98698E+01-1.40725E-01 2.64532E-03 8.70903E-01 4.31589E-14-1.86721E-13
 -1      3592 1.99718E+01-2.95059E-01 4.01998E-03 9.17525E-01-9.76584E-15-1.37394E-13
 -1      3593 1.96664E+01-3.52915E-02-5.03564E-03 8.83299E-01 1.37933E-13-2.63402E-13
 -1      3594 2.00819E+01-4.81442E-01 5.74780E-03 9.97930E-01-7.72728E-14-8.10308E-15
 -1      3595 2.02497E+01-7.05365E-01 4.10752E-03 1.02346E+00-1.48891E-13-6.96442E-14
 -1      3596 1.98072E+01-3.58825E-01-8.47257E-03 1.06302E+00-2.25344E-14-3.01891E-13
 -1      3597 2.04575E+01-9.61683E-01 1.05853E-02 1.08495E+00-1.76578E-13-1.65215E-14
 -1      3598 2.07110E+01-1.25987E+00 3.00444E-03 1.06583E+00-1.03338E-13-2.85039E-14
 -1      3599 2.00972E+01-8.35332E-01-1.31486E-02 1.23520E+00-1.14896E-13-9.19750E-14
 -1      3600 2.10576E+01-1.58059E+00 1.76603E-02 1.07505E+00-7.09263E-14 2.77158E-14
 -1      3601 2.14071E+01-1.93992E+00-1.47640E-03 9.73319E-01 1.20411E-14 3.14698E-15
 -1      3602 2.06062E+01-1.48162E+00-1.91010E-02 1.35195E+00-5.24590E-14-6.67793E-14
 -1      3603 2.19476E+01-2.30243E+00 2.48463E-02 8.64153E-01 1.10904E-13-6.88376E-14
 -1      3604 2.23833E+01-2.64022E+00-7.14688E-03 6.10548E-01 1.98843E-13-9.10084E-14
 -1      3605 2.14206E+01-2.29293E+00-2.81813E-02 1.33298E+00 5.74399E-14-3.88782E-14
 -1      3606 2.30976E+01-2.91636E+00 2.77595E-02 3.19719E-01 2.94553E-13-2.29331E-13
 -1      3607 2.35812E+01-3.12485E+00-2.34506E-02-1.21732E-01 3.01556E-13-2.06487E-13
 -1      3608 2.26347E+01-3.02712E+00 1.67231E-03 9.65361E-01 1.58696E-13-2.71691E-13
 -1      3609 2.54784E+01-2.24600E+00 1.91881E-02-2.25216E+00 2.65885E-13-1.15949E-14
 -1      3610 2.01104E+01-8.89119E-02 3.06912E-04-1.14298E-01 8.17707E-14-2.99164E-13
 -1      3611 2.01216E+01-8.72788E-02 2.39044E-04-1.21522E-01 2.21371E-14-2.89263E-13
 -1      3612 2.03528E+01 7.05762E-01 7.93532E-04-1.45125E-01-1.06240E-13-3.19333E-13
 -1      3613 2.03485E+01 5.48498E-01-2.18874E-03-7.38971E-02-8.00965E-14-2.76913E-13
 -1      3614 2.03759E+01 5.34202E-01 1.08227E-03-5.35564E-02-8.50555E-14-2.89440E-13
 -1      3615 2.01384E+01-8.30705E-02 2.26419E-04-1.27741E-01 1.48531E-14-2.98269E-13
 -1      3616 2.01521E+01-7.54418E-02 4.12832E-04-1.32701E-01 3.76797E-14-2.88659E-13
 -1      3617 2.01592E+01-9.07905E-02-5.24481E-04-1.11903E-01 9.00022E-15-2.82123E-13
 -1      3618 2.00678E+01-7.82452E-02 3.40721E-04-8.34057E-02 3.98521E-14-2.13307E-13
 -1      3619 2.00746E+01-8.28401E-02 2.72092E-05-9.13226E-02 5.16442E-14-1.91631E-13
 -1      3620 2.00524E+01-6.70482E-02 3.28319E-04-6.92612E-02-4.18869E-14-1.08650E-13
 -1      3621 2.00575E+01-7.30533E-02-3.18909E-05-7.63982E-02 2.46233E-14-1.60904E-13
 -1      3622 2.00793E+01-8.24072E-02-3.54943E-04-7.28662E-02-7.49903E-15-1.17023E-13
 -1      3623 2.00403E+01-5.39717E-02 3.08694E-04-5.72648E-02-9.62493E-14-1.28902E-13
 -1      3624 2.00440E+01-6.08127E-02-7.36755E-05-6.32148E-02-4.55599E-14-1.34374E-13
 -1      3625 2.00614E+01-6.97889E-02-2.85373E-04-6.06855E-02-5.05076E-14-9.99992E-14
 -1      3626 2.00308E+01-3.96636E-02 2.87285E-04-4.79739E-02-5.67126E-14-1.87103E-13
 -1      3627 2.00334E+01-4.70802E-02-1.08285E-04-5.24553E-02-6.41508E-14-1.66867E-13
 -1      3628 2.00470E+01-5.51957E-02-2.23003E-04-5.05105E-02-3.94707E-14-1.76881E-13
 -1      3629 2.00232E+01-2.42949E-02 2.69345E-04-4.18071E-02-3.59776E-14-2.57835E-13
 -1      3630 2.00251E+01-3.22531E-02-1.40751E-04-4.46037E-02-1.96301E-14-2.17071E-13
 -1      3631 2.00354E+01-3.92214E-02-1.63071E-04-4.28514E-02-9.89470E-15-2.21818E-13
 -1      3632 2.00169E+01-7.65711E-03 2.57492E-04-3.91319E-02-2.11281E-14-3.16507E-13
 -1      3633 2.00183E+01-1.63056E-02-1.76723E-04-4.00426E-02-5.38147E-14-2.62738E-13
 -1      3634 2.00258E+01-2.19755E-02-1.03437E-04-3.80950E-02-2.60538E-14-2.46743E-13
 -1      3635 2.00110E+01 1.07670E-02 2.52790E-04-4.03451E-02-3.83053E-14-2.64610E-13
 -1      3636 2.00122E+01 1.13026E-03-2.21464E-04-3.91445E-02-4.39926E-16-3.26627E-13
 -1      3637 2.00173E+01-3.16483E-03-4.13508E-05-3.65881E-02 2.01705E-16-3.51711E-13
 -1      3638 2.00048E+01 3.17542E-02 2.54764E-04-4.59265E-02 4.49243E-15-2.22881E-13
 -1      3639 2.00061E+01 2.07045E-02-2.79867E-04-4.23378E-02-6.21313E-15-2.37787E-13
 -1      3640 2.00089E+01 1.78294E-02 2.74329E-05-3.87040E-02-2.04310E-14-3.79931E-13
 -1      3641 1.99972E+01 5.63115E-02 2.61204E-04-5.64721E-02 2.46682E-14-1.93544E-13
 -1      3642 1.99990E+01 4.33106E-02-3.56877E-04-5.01503E-02 3.28765E-14-1.59001E-13
 -1      3643 1.99995E+01 4.18972E-02 1.08739E-04-4.48819E-02-2.65423E-14-2.29467E-13
 -1      3644 1.99869E+01 8.56620E-02 2.67635E-04-7.27046E-02-4.70992E-14-4.66964E-14
 -1      3645 1.99898E+01 7.00641E-02-4.57725E-04-6.32296E-02-8.36195E-15-9.85263E-14
 -1      3646 1.99878E+01 7.01656E-02 2.10363E-04-5.56422E-02-3.51869E-14-1.59681E-13
 -1      3647 1.99721E+01 1.21241E-01 2.66407E-04-9.54569E-02-1.05735E-13 2.69280E-14
 -1      3648 1.99768E+01 1.02295E-01-5.88113E-04-8.23409E-02-5.04029E-14 6.27397E-14
 -1      3649 1.99722E+01 1.03978E-01 3.42747E-04-7.15755E-02-1.17074E-13-2.58240E-14
 -1      3650 1.99507E+01 1.64697E-01 2.45336E-04-1.25621E-01-1.54993E-13-8.15280E-14
 -1      3651 1.99582E+01 1.41546E-01-7.54367E-04-1.08333E-01-1.18995E-13-6.93094E-15
 -1      3652 1.99504E+01 1.44877E-01 5.19987E-04-9.32980E-02-8.88687E-14 5.26388E-14
 -1      3653 1.99195E+01 2.17884E-01 1.85853E-04-1.64050E-01-1.45192E-13 2.94651E-14
 -1      3654 1.99313E+01 1.89574E-01-9.63577E-04-1.42062E-01-1.10970E-13-3.12647E-15
 -1      3655 1.99198E+01 1.94589E-01 7.61203E-04-1.21360E-01-1.50163E-13-4.37346E-14
 -1      3656 1.98743E+01 2.82836E-01 6.06754E-05-2.11391E-01-6.49910E-14-9.07736E-14
 -1      3657 1.98925E+01 2.48334E-01-1.22374E-03-1.84264E-01-1.36487E-13-3.40809E-14
 -1      3658 1.98767E+01 2.54988E-01 1.09235E-03-1.56097E-01-8.54431E-14-1.10527E-13
 -1      3659 1.98093E+01 3.61684E-01-1.68741E-04-2.67839E-01 5.83779E-14-2.31246E-13
 -1      3660 1.98368E+01 3.19932E-01-1.54407E-03-2.35344E-01 4.34158E-14-1.22072E-13
 -1      3661 1.98161E+01 3.28029E-01 1.54852E-03-1.97390E-01-6.70491E-15-2.26770E-13
 -1      3662 1.97163E+01 4.56463E-01-5.54384E-04-3.32784E-01-4.07679E-14-1.48959E-13
 -1      3663 1.97574E+01 4.06499E-01-1.93574E-03-2.95079E-01-3.31575E-14-2.33573E-13
 -1      3664 1.97315E+01 4.15594E-01 2.17680E-03-2.44334E-01 1.27306E-14-1.30892E-13
 -1      3665 1.95841E+01 5.68708E-01-1.16222E-03-4.04353E-01-2.73322E-14-2.71111E-14
 -1      3666 1.96449E+01 5.09901E-01-2.41422E-03-3.62217E-01-1.00876E-14-8.92531E-14
 -1      3667 1.96141E+01 5.19217E-01 3.03972E-03-2.94786E-01-9.02162E-14-1.14971E-14
 -1      3668 1.93977E+01 6.98678E-01-2.06921E-03-4.78910E-01-4.01773E-14-8.92161E-14
 -1      3669 1.94864E+01 6.31177E-01-3.00538E-03-4.33985E-01-3.20970E-15 1.31114E-14
 -1      3670 1.94518E+01 6.39563E-01 4.21992E-03-3.44805E-01-1.91593E-14 4.02640E-14
 -1      3671 1.91367E+01 8.43969E-01-3.35566E-03-5.50642E-01-9.86247E-14-1.87222E-14
 -1      3672 1.92644E+01 7.69480E-01-3.76129E-03-5.05611E-01-7.05520E-14-7.48761E-14
 -1      3673 1.92287E+01 7.75536E-01 5.82724E-03-3.88063E-01-6.08522E-14 1.46326E-14
 -1      3674 1.87743E+01 9.97189E-01-5.09067E-03-6.11622E-01-3.75581E-14-7.84744E-14
 -1      3675 1.89555E+01 9.20244E-01-4.79887E-03-5.70072E-01-4.08611E-14 4.71231E-14
 -1      3676 1.89238E+01 9.22827E-01 8.01193E-03-4.15399E-01-5.18229E-14 1.51105E-13
 -1      3677 1.82752E+01 1.14244E+00-7.27359E-03-6.53078E-01-1.28023E-14-1.38149E-13
 -1      3678 1.85283E+01 1.07224E+00-6.38543E-03-6.18605E-01-1.32408E-14-1.60437E-13
 -1      3679 1.85087E+01 1.07175E+00 1.09955E-02-4.14869E-01 7.77799E-14 4.22018E-14
 -1      3680 1.75911E+01 1.24881E+00-1.04995E-02-6.69942E-01-1.86109E-13-8.57030E-14
 -1      3681 1.79404E+01 1.20304E+00-9.10633E-03-6.43342E-01-6.57731E-14-1.40227E-13
 -1      3682 1.79446E+01 1.20461E+00 1.51249E-02-3.73284E-01-8.79396E-14-2.68934E-14
 -1      3683 1.66555E+01 1.26469E+00-1.33736E-02-6.67532E-01-1.36274E-13-6.43181E-14
 -1      3684 1.71352E+01 1.27490E+00-1.26736E-02-6.39930E-01-1.60451E-13-5.82507E-14
 -1      3685 1.71815E+01 1.28741E+00 2.12447E-02-2.80450E-01-1.63734E-13-2.40025E-14
 -1      3686 1.54854E+01 1.12789E+00-9.25955E-03-7.01391E-01-5.46399E-14-2.23092E-13
 -1      3687 1.61102E+01 1.23196E+00-2.03464E-02-6.44920E-01-9.17866E-14-1.13823E-13
 -1      3688 1.62197E+01 1.29268E+00 3.36419E-02-1.42152E-01-7.58759E-14-1.85337E-13
 -1      3689 1.49620E+01 1.19318E+00 4.51145E-02 6.26744E-03-3.11138E-14-2.01543E-13
 -1      3690 1.29617E+01 5.86592E-01 3.36849E-02 1.99078E-02-8.51662E-14-1.60472E-13
 -1      3691 2.02444E+01 4.17521E-02-5.86886E-04-1.20146E-01 8.69166E-14-3.29033E-13
 -1      3692 2.02661E+01 9.04468E-02 1.31390E-03-1.02325E-01 6.91153E-14-3.38018E-13
 -1      3693 2.02460E+01 1.40884E+00-4.03204E-03 4.11531E-01 1.80888E-13-4.07629E-13
 -1      3694 2.02312E+01 1.50675E+00-1.10771E-03 3.43081E-01 1.52683E-13-4.32901E-13
 -1      3695 2.02906E+01 1.30598E+00 4.14100E-03 2.47696E-01 1.19558E-13-4.16628E-13
 -1      3696 2.02943E+01 1.18572E+00 2.64064E-03 3.40089E-01 1.85287E-13-3.66155E-13
 -1      3697 1.49452E+01-2.65167E-01 6.57981E-03 2.90490E+00 2.76983E-14-2.06976E-13
 -1      3698 1.36435E+01-9.42284E-02 5.78551E-02 2.71182E+00-5.86801E-14-2.86091E-14
 -1      3699 1.36080E+01 3.25078E-01-1.60963E-02 1.86704E+00-4.49840E-14 4.18641E-14
 -1      3700 2.41051E+01-4.43040E+00-6.19037E-02 1.30213E+00 4.04230E-13-3.54248E-13
 -1      3701 2.28890E+01-4.21778E+00 7.21487E-02 2.56676E+00 3.63865E-13-1.57646E-13
 -1      3702 2.02773E+01 1.42260E+00 4.82862E-03 6.19934E-04 1.73493E-14-4.06487E-13
 -1      3703 2.01950E+01 1.66034E+00-3.32729E-03-3.58108E-02 8.16700E-15-4.03635E-13
 -1      3704 2.00870E+01-8.62436E-02 3.37832E-04-9.88596E-02 7.44791E-14-2.18870E-13
 -1      3705 2.00958E+01-8.84565E-02 1.14261E-04-1.06916E-01 1.16839E-13-2.27802E-13
 -1      3706 2.01278E+01-9.56203E-02-4.80872E-04-9.99131E-02 7.21467E-14-2.73558E-13
 -1      3707 2.01013E+01-9.17488E-02-4.25083E-04-8.63262E-02 5.15413E-14-1.69561E-13
 -1      3708 2.02066E+01-2.54314E-02-1.88672E-04-1.35663E-01 7.60266E-15-3.02641E-13
 -1      3709 2.02259E+01 4.43181E-03 9.50338E-04-1.29009E-01 5.64210E-14-3.33852E-13
 -1      3710 2.02345E+01-3.41348E-02-5.32354E-04-1.19970E-01 2.36902E-14-3.31785E-13
 -1      3711 1.78548E+01-2.19402E+00 1.22983E-02 4.05845E+00 2.74489E-13-3.22587E-13
 -1      3712 1.65098E+01-1.22308E+00-9.00317E-03 3.53482E+00 1.90562E-13-2.81468E-13
 -1      3713 1.91766E+01-2.31324E+00 3.23194E-02 3.41754E+00 3.89083E-13-9.15873E-14
 -1      3714 2.46118E+01-2.88669E+00-2.97035E-02-1.26554E+00 3.71634E-13 4.77387E-14
 -1      3715 2.54516E+01-3.22198E+00-3.62066E-02-1.27001E+00 2.72432E-13-7.17247E-14
 -1      3716 2.51377E+01-4.05287E+00 6.64279E-02 1.88717E-01 4.12557E-13-1.84268E-13
 -1      3717 2.42641E+01-3.04319E+00 3.99513E-02-6.77493E-01 3.20038E-13-1.67557E-13
 -1      3718 2.39404E+01-3.84797E+00-1.40426E-02 6.92148E-01 4.46625E-13-1.79967E-13
 -1      3719 1.33675E+01 8.08939E-01 3.80304E-02 6.97149E-01-1.01763E-13-6.79769E-14
 -1      3720 2.18633E+01-3.61634E+00-3.99046E-05 2.58549E+00 2.92559E-13-1.08779E-13
 -1      3721 2.01951E+01-7.25211E-02-5.49729E-04-1.19795E-01 2.96769E-14-2.93194E-13
 -1      3722 2.03327E+01 8.48824E-01-1.68981E-03-1.90295E-01-1.16726E-13-3.52059E-13
 -1      3723 2.03573E+01 8.27251E-01 1.66622E-03-1.45558E-01-7.19340E-14-3.36982E-13
 -1      3724 2.03208E+01 1.00677E+00-1.09454E-03-2.58984E-01-1.13001E-13-3.85635E-13
 -1      3725 2.02753E+01 3.34282E-02-4.39364E-04-1.07473E-01 7.47991E-14-3.46854E-13
 -1      3726 2.03248E+01 5.56964E-01-2.52391E-03 9.93368E-02 1.56589E-13-3.30360E-13
 -1      3727 2.03342E+01 7.15478E-01 8.68268E-04 1.82646E-01 1.90099E-13-3.22610E-13
 -1      3728 2.01862E+01 1.70249E+00-8.94066E-04-1.21203E-01-3.68898E-14-4.24630E-13
 -1      3729 2.03160E+01 1.19668E+00-2.57237E-03 3.12860E-02 1.39905E-14-4.00541E-13
 -1      3730 2.03168E+01 1.19850E+00-2.18905E-03-3.03452E-02-2.31217E-15-3.81246E-13
 -1      3731 2.01640E+01 1.76247E+00-3.92455E-03-1.91712E-01-6.16374E-14-4.34222E-13
 -1      3732 2.01626E+01 1.77905E+00-1.55981E-03-2.86694E-01-8.88649E-14-4.23240E-13
 -1      3733 2.02195E+01 1.59185E+00 9.20831E-04-2.77268E-01-9.66546E-14-4.12418E-13
 -1      3734 2.02598E+01 1.48330E+00 4.51316E-03-1.30599E-01-4.92883E-14-3.94085E-13
 -1      3735 2.02613E+01 1.35798E+00-1.78944E-03-3.76178E-01-1.28613E-13-4.07160E-13
 -1      3736 2.02963E+01 1.16069E+00-4.07112E-04-2.99139E-01-1.25881E-13-4.02628E-13
 -1      3737 2.03168E+01 1.12317E+00 1.42319E-03-2.32139E-01-8.94078E-14-3.65393E-13
 -1      3738 2.02483E+01 1.45883E+00 2.14145E-03-3.14387E-01-1.13915E-13-3.81281E-13
 -1      3739 2.02811E+01 1.49503E-01-1.15458E-03-8.21299E-02 7.80675E-14-3.24716E-13
 -1      3740 2.03035E+01 2.24509E-01 1.69804E-03-4.81781E-02 1.07743E-13-3.31077E-13
 -1      3741 2.03138E+01 1.42261E-01-2.23884E-04-7.58587E-02 9.15832E-14-3.76842E-13
 -1      3742 1.72951E+01-1.00799E+00 5.95209E-03 3.11864E+00 2.75580E-13-2.69976E-13
 -1      3743 1.61312E+01-6.31052E-01 4.09574E-02 3.16840E+00 1.61481E-13-2.57033E-13
 -1      3744 1.57111E+01-1.84821E-01-2.24944E-02 2.61408E+00 1.33567E-13-8.32060E-14
 -1      3745 2.03194E+01 1.14988E+00-2.49803E-03 1.32661E-01 7.28724E-14-4.07649E-13
 -1      3746 2.03173E+01 1.18354E+00-1.78147E-03 7.72253E-02 4.50453E-14-4.06088E-13
 -1      3747 2.03706E+01 9.98374E-01 4.54976E-03 3.95942E-02 2.97409E-14-3.68074E-13
 -1      3748 2.03227E+01 8.41512E-01-1.71639E-04 2.24190E-01 1.87439E-13-3.33104E-13
 -1      3749 2.03107E+01 1.02314E+00-2.04659E-03 2.95416E-01 1.85948E-13-3.55129E-13
 -1      3750 2.03125E+01 1.09744E+00 1.40017E-04 2.58914E-01 1.66699E-13-3.84508E-13
 -1      3751 2.03442E+01 8.25812E-01 1.07674E-03 1.76457E-01 1.56239E-13-3.62281E-13
 -1      3752 2.39530E+01-3.58222E+00-3.09468E-02 2.07974E-01 3.81951E-13-1.85275E-13
 -1      3753 2.03727E+01 1.75854E-01 5.82021E-04 4.58030E-02-9.06142E-14-2.17328E-13
 -1      3754 2.03538E+01 1.06240E-01-6.25358E-04 6.43122E-02-4.58219E-14-2.46179E-13
 -1      3755 2.03363E+01 5.04700E-02 6.18947E-04 7.19020E-02-4.20021E-14-2.77252E-13
 -1      3756 2.03143E+01 5.71635E-03-2.91705E-04 8.10359E-02-3.43337E-14-2.86981E-13
 -1      3757 2.03664E+01 8.96436E-02-1.72864E-04 5.13037E-02-6.46336E-14-2.37661E-13
 -1      3758 2.02929E+01-2.86394E-02 5.25721E-04 8.33824E-02 1.17689E-14-2.71566E-13
 -1      3759 2.02707E+01-5.52370E-02-1.27504E-05 8.61649E-02 3.14198E-14-2.56914E-13
 -1      3760 2.03245E+01-6.78469E-03-3.99336E-04 6.31020E-02-5.60001E-16-1.99662E-13
 -1      3761 2.02483E+01-7.45334E-02 4.17891E-04 8.50221E-02 2.87192E-14-2.28441E-13
 -1      3762 2.02275E+01-8.83473E-02 1.68235E-04 8.37149E-02 3.73293E-14-2.26608E-13
 -1      3763 2.02790E+01-6.47409E-02-5.28871E-04 6.63867E-02 3.61922E-14-1.78073E-13
 -1      3764 2.02058E+01-9.72326E-02 3.19991E-04 8.05104E-02 6.05002E-14-2.24095E-13
 -1      3765 2.01873E+01-1.02365E-01 2.66718E-04 7.68193E-02 1.53522E-14-1.97424E-13
 -1      3766 2.02340E+01-9.54071E-02-5.67041E-04 6.40935E-02 3.69122E-14-2.32713E-13
 -1      3767 2.01675E+01-1.04249E-01 2.37778E-04 7.25482E-02-2.27068E-14-1.63585E-13
 -1      3768 2.01516E+01-1.03610E-01 3.10075E-04 6.77142E-02-2.90215E-14-1.24064E-13
 -1      3769 2.01924E+01-1.07391E-01-5.52113E-04 5.85905E-02 3.53102E-14-1.87496E-13
 -1      3770 2.01342E+01-1.01002E-01 1.66405E-04 6.31657E-02-8.64359E-14-1.48938E-13
 -1      3771 2.01208E+01-9.67192E-02 3.17872E-04 5.80072E-02-8.83287E-14-1.63634E-13
 -1      3772 2.01555E+01-1.06939E-01-5.07932E-04 5.15193E-02-5.90421E-14-1.12888E-13
 -1      3773 2.01060E+01-9.13018E-02 1.05488E-04 5.36312E-02-7.72158E-14-1.59588E-13
 -1      3774 2.00950E+01-8.48012E-02 3.05570E-04 4.87302E-02-4.13610E-14-1.56140E-13
 -1      3775 2.01238E+01-9.86633E-02-4.61067E-04 4.40621E-02-6.96972E-14-1.92061E-13
 -1      3776 2.00825E+01-7.76749E-02 5.57052E-05 4.48145E-02 1.69968E-15-1.76287E-13
 -1      3777 2.00735E+01-6.98056E-02 2.82650E-04 4.05572E-02-8.99446E-16-1.71327E-13
 -1      3778 2.00971E+01-8.54584E-02-3.83814E-04 3.70394E-02-2.87264E-14-1.90539E-13
 -1      3779 2.00630E+01-6.16062E-02 9.55003E-06 3.73422E-02-2.50623E-14-1.27129E-13
 -1      3780 2.00557E+01-5.28434E-02 2.51917E-04 3.39992E-02-5.49288E-14-1.34512E-13
 -1      3781 2.00748E+01-6.92049E-02-3.09739E-04 3.08932E-02-5.08339E-15-1.47453E-13
 -1      3782 2.00468E+01-4.38901E-02-3.49341E-05 3.16312E-02-9.39857E-15-3.59195E-14
 -1      3783 2.00408E+01-3.44142E-02 2.19498E-04 2.93929E-02 7.45561E-14-9.06521E-15
 -1      3784 2.00562E+01-5.09349E-02-2.28680E-04 2.60823E-02 3.65558E-14-1.57803E-14
 -1      3785 2.00329E+01-2.47581E-02-8.35428E-05 2.79808E-02 1.01973E-13 2.85447E-14
 -1      3786 2.00276E+01-1.45130E-02 1.89024E-04 2.70126E-02 9.54589E-14 7.63517E-14
 -1      3787 2.00403E+01-3.10742E-02-1.46381E-04 2.28465E-02 9.61625E-14 2.02068E-14
 -1      3788 2.00202E+01-4.01463E-03-1.38944E-04 2.66766E-02 6.09299E-14 6.95764E-14
 -1      3789 2.00151E+01 7.21785E-03 1.62522E-04 2.71524E-02 3.06806E-14 1.52947E-14
 -1      3790 2.00260E+01-9.52511E-03-6.16079E-05 2.14210E-02 8.86345E-14 8.32640E-15
 -1      3791 2.00076E+01 1.88273E-02-2.04691E-04 2.80439E-02-3.75119E-14 2.33972E-14
 -1      3792 2.00022E+01 3.13706E-02 1.41489E-04 3.01731E-02-5.24969E-14-7.86274E-14
 -1      3793 2.00120E+01 1.41566E-02 2.82264E-05 2.20736E-02-2.73313E-14 1.41321E-14
 -1      3794 1.99936E+01 4.44343E-02-2.84554E-04 3.24981E-02-8.42096E-14-7.18649E-14
 -1      3795 1.99874E+01 5.86613E-02 1.27587E-04 3.65484E-02-3.46446E-14-1.68205E-13
 -1      3796 1.99970E+01 4.06439E-02 1.26009E-04 2.51466E-02-7.49165E-14-8.58222E-14
 -1      3797 1.99771E+01 7.35371E-02-3.82283E-04 4.05919E-02 5.30314E-14-2.40199E-13
 -1      3798 1.99693E+01 8.98054E-02 1.23352E-04 4.69098E-02 4.03111E-14-2.19031E-13
 -1      3799 1.99794E+01 7.07231E-02 2.34469E-04 3.11050E-02-4.55460E-14-7.27575E-14
 -1      3800 1.99564E+01 1.06793E-01-5.01394E-04 5.30643E-02 2.17937E-14-2.75786E-13
 -1      3801 1.99466E+01 1.25362E-01 1.33044E-04 6.20960E-02-2.54643E-14-1.89106E-13
 -1      3802 1.99577E+01 1.05161E-01 3.55475E-04 4.05898E-02 8.61210E-15-2.27519E-13
 -1      3803 1.99300E+01 1.44605E-01-6.44810E-04 7.08966E-02-6.51526E-14-4.00969E-14
 -1      3804 1.99175E+01 1.65524E-01 1.63750E-04 8.32096E-02 8.84761E-15-4.09612E-14
 -1      3805 1.99300E+01 1.44539E-01 4.89018E-04 5.44850E-02 7.54678E-14-2.53356E-13
 -1      3806 1.98963E+01 1.86880E-01-8.14248E-04 9.53784E-02-4.47213E-14-9.28687E-14
 -1      3807 1.98806E+01 2.09835E-01 2.26788E-04 1.11686E-01-1.11216E-13-1.43000E-13
 -1      3808 1.98945E+01 1.89025E-01 6.31760E-04 7.40024E-02-6.89661E-14-1.53285E-13
 -1      3809 1.98540E+01 2.32691E-01-1.00920E-03 1.28189E-01-1.59224E-13-2.70574E-13
 -1      3810 1.98348E+01 2.56796E-01 3.39442E-04 1.49377E-01-1.76202E-13-2.77908E-13
 -1      3811 1.98494E+01 2.38067E-01 7.74980E-04 1.00795E-01-1.46826E-13-2.46038E-13
 -1      3812 1.98020E+01 2.79832E-01-1.22527E-03 1.71499E-01-1.38939E-13-2.84882E-13
 -1      3813 1.97796E+01 3.03357E-01 5.26946E-04 1.98654E-01-1.23668E-13-2.81984E-13
 -1      3814 1.97931E+01 2.89976E-01 9.01733E-04 1.37104E-01-2.06885E-13-2.75754E-13
 -1      3815 1.97403E+01 3.24228E-01-1.45140E-03 2.28078E-01-9.22598E-14-3.54063E-13
 -1      3816 1.97157E+01 3.44247E-01 8.24459E-04 2.62512E-01-1.39542E-14-2.93436E-13
 -1      3817 1.97246E+01 3.41373E-01 9.82928E-04 1.85946E-01-1.11302E-13-2.26709E-13
 -1      3818 1.96702E+01 3.59199E-01-1.66523E-03 3.01415E-01 3.11182E-14-3.19729E-13
 -1      3819 1.96457E+01 3.71164E-01 1.27839E-03 3.44662E-01-4.31905E-14-2.34143E-13
 -1      3820 1.96439E+01 3.86471E-01 9.71884E-04 2.51327E-01 2.46478E-14-2.96096E-13
 -1      3821 1.95960E+01 3.74576E-01-1.82526E-03 3.95781E-01-1.00448E-13-2.08527E-13
 -1      3822 1.95757E+01 3.71824E-01 1.94544E-03 4.49535E-01-1.02925E-13-4.61366E-14
 -1      3823 1.95533E+01 4.16189E-01 7.96412E-04 3.38476E-01-3.04799E-14-8.57150E-14
 -1      3824 1.95255E+01 3.55715E-01-1.85750E-03 5.16165E-01-1.49122E-13 4.12153E-14
 -1      3825 1.95164E+01 3.28951E-01 2.88569E-03 5.82074E-01-1.45358E-13 6.17009E-14
 -1      3826 1.94580E+01 4.17097E-01 3.46119E-04 4.54005E-01-6.72859E-14 5.34245E-15
 -1      3827 1.94727E+01 2.82518E-01-1.63250E-03 6.67873E-01-1.86731E-13-1.47599E-14
 -1      3828 1.94857E+01 2.19353E-01 4.14542E-03 7.47027E-01-2.26111E-14-1.24411E-13
 -1      3829 1.93681E+01 3.70209E-01-5.49190E-04 6.05871E-01-2.17384E-13 1.72823E-13
 -1      3830 1.94605E+01 1.28682E-01-9.20422E-04 8.55413E-01 8.14010E-14-2.25860E-13
 -1      3831 1.95117E+01 1.34339E-02 5.75232E-03 9.47231E-01 3.82417E-14-2.44027E-13
 -1      3832 1.93014E+01 2.49754E-01-2.14796E-03 8.02800E-01-8.02558E-14-3.53449E-14
 -1      3833 1.95242E+01-1.38431E-01 7.11096E-04 1.08009E+00 3.69664E-15-3.82769E-13
 -1      3834 1.96367E+01-3.24582E-01 7.69139E-03 1.17998E+00-2.57715E-14-3.52302E-13
 -1      3835 1.92867E+01 2.22233E-02-4.78464E-03 1.05270E+00-5.13859E-14-2.75589E-13
 -1      3836 1.97174E+01-5.56969E-01 3.87080E-03 1.33437E+00-1.66996E-14-3.30050E-13
 -1      3837 1.99235E+01-8.32466E-01 1.00894E-02 1.42872E+00-3.26618E-14-2.34217E-13
 -1      3838 1.93692E+01-3.53897E-01-8.76952E-03 1.35906E+00 5.07019E-14-4.82601E-13
 -1      3839 2.01190E+01-1.16405E+00 9.63591E-03 1.59165E+00-2.86726E-14-1.78783E-13
 -1      3840 2.04505E+01-1.54697E+00 8.82673E-03 1.65225E+00 6.52809E-15-1.93235E-13
 -1      3841 1.96202E+01-9.25540E-01-1.39300E-02 1.71277E+00 3.80063E-14-4.33988E-13
 -1      3842 2.08362E+01-1.95023E+00 2.84063E-02 1.77144E+00-2.83098E-14-1.66036E-13
 -1      3843 2.12600E+01-2.48419E+00-1.19595E-02 1.77853E+00 5.52136E-14-1.87322E-13
 -1      3844 2.01711E+01-1.74288E+00-1.47861E-02 2.07342E+00-4.39492E-14-3.67484E-13
 -1      3845 2.32910E+01-3.63433E+00 1.46445E-02 1.18068E+00 1.90490E-13-3.36202E-13
 -1      3846 2.03111E+01 3.13653E-01-1.93904E-03-1.23712E-02 1.00219E-13-3.16883E-13
 -1      3847 2.03310E+01 4.24803E-01 1.94625E-03 4.33937E-02 1.24367E-13-3.19018E-13
 -1      3848 2.03438E+01 3.08016E-01 1.51342E-04-1.74254E-02 1.11200E-13-3.17190E-13
 -1      3849 2.17303E+01-3.08582E+00-1.85906E-02 2.01797E+00 1.16870E-13-2.15992E-13
 -1      3850 2.06058E+01-2.60955E+00 4.39800E-02 2.78135E+00 4.54402E-14-1.25279E-13
 -1      3851 2.02560E+01-4.63314E-02-7.02797E-05-1.03181E-01 1.27749E-14-2.92086E-13
 -1      3852 2.02775E+01-1.84357E-02 6.65632E-04-9.94391E-02 3.53546E-14-3.00460E-13
 -1      3853 2.03888E+01 6.33016E-01-4.92924E-04-7.14846E-02-6.19962E-14-3.25921E-13
 -1      3854 2.03909E+01 4.87676E-01-1.40550E-03-2.40722E-02-5.84622E-14-3.04601E-13
 -1      3855 2.01765E+01-9.72616E-02 2.65309E-04-9.34717E-02-1.11291E-14-2.04029E-13
 -1      3856 2.01938E+01-9.12885E-02 3.59449E-04-9.77040E-02 2.45832E-14-2.06036E-13
 -1      3857 2.00694E+01-6.99171E-02 3.10140E-04-4.99123E-02-5.33692E-14-2.03667E-13
 -1      3858 2.00774E+01-7.72275E-02 3.57681E-05-5.50572E-02-4.84080E-14-1.64693E-13
 -1      3859 2.00894E+01-8.37766E-02 3.22447E-04-5.99034E-02-1.99156E-14-1.24886E-13
 -1      3860 2.00993E+01-8.97265E-02 8.24124E-05-6.57668E-02 3.06993E-14-1.08675E-13
 -1      3861 2.00941E+01-8.54910E-02-3.70107E-04-4.84100E-02-9.34296E-15-1.56177E-13
 -1      3862 2.00397E+01-3.68712E-02 2.52501E-04-3.58741E-02-2.91318E-14-2.62265E-13
 -1      3863 2.00448E+01-4.57597E-02-5.51131E-05-3.87208E-02 7.27725E-16-2.60932E-13
 -1      3864 2.00282E+01-1.82274E-02 2.23424E-04-3.25692E-02 1.30408E-14-3.07888E-13
 -1      3865 2.00325E+01-2.78520E-02-9.97343E-05-3.39758E-02-2.74100E-18-2.97657E-13
 -1      3866 2.00406E+01-3.43157E-02-1.57159E-04-2.97929E-02-1.70884E-14-3.33243E-13
 -1      3867 2.00177E+01 2.20984E-03 1.96447E-04-3.21409E-02 1.28356E-14-3.25360E-13
 -1      3868 2.00216E+01-8.38923E-03-1.49985E-04-3.19322E-02 4.20441E-14-3.25701E-13
 -1      3869 2.00276E+01-1.38899E-02-7.85706E-05-2.76268E-02 1.65323E-14-3.55821E-13
 -1      3870 2.00069E+01 2.51441E-02 1.70585E-04-3.49101E-02 1.17293E-14-3.56100E-13
 -1      3871 2.00109E+01 1.31801E-02-2.09728E-04-3.28931E-02 2.56149E-14-3.22865E-13
 -1      3872 2.00152E+01 8.64735E-03 6.51421E-06-2.79129E-02 8.85028E-15-3.17219E-13
 -1      3873 1.99945E+01 5.15402E-02 1.42893E-04-4.12442E-02-5.97978E-14-3.02294E-13
 -1      3874 1.99994E+01 3.76955E-02-2.82801E-04-3.71960E-02-4.82615E-14-3.13889E-13
 -1      3875 2.00021E+01 3.40913E-02 1.03226E-04-3.09079E-02-9.61961E-15-2.83408E-13
 -1      3876 1.99790E+01 8.25815E-02 1.08035E-04-5.15543E-02-1.17888E-13-1.93729E-13
 -1      3877 1.99853E+01 6.62364E-02-3.72900E-04-4.52235E-02-5.62969E-14-2.38786E-13
 -1      3878 1.99867E+01 6.34926E-02 2.18317E-04-3.68831E-02-9.43018E-14-2.88483E-13
 -1      3879 1.99582E+01 1.19636E-01 5.74839E-05-6.62631E-02-1.71145E-13-6.41607E-14
 -1      3880 1.99671E+01 1.00084E-01-4.83413E-04-5.73864E-02-2.11098E-13-1.75020E-13
 -1      3881 1.99672E+01 9.81052E-02 3.60442E-04-4.61027E-02-1.56088E-13-2.31582E-13
 -1      3882 1.99299E+01 1.64219E-01-2.16772E-05-8.57332E-02-9.38946E-14-1.08932E-13
 -1      3883 1.99425E+01 1.40688E-01-6.17170E-04-7.40727E-02-6.65434E-14-5.18128E-14
 -1      3884 1.99413E+01 1.39336E-01 5.40623E-04-5.87671E-02-1.66142E-13-2.41237E-13
 -1      3885 1.98906E+01 2.17945E-01-1.48414E-04-1.10141E-01-1.21147E-13-1.72042E-13
 -1      3886 1.99086E+01 1.89626E-01-7.76044E-04-9.55507E-02-1.17865E-13-1.07332E-13
 -1      3887 1.99063E+01 1.88686E-01 7.72894E-04-7.49103E-02-6.38035E-14-2.34871E-13
 -1      3888 1.98364E+01 2.82449E-01-3.49862E-04-1.39280E-01-7.20004E-14-2.21221E-13
 -1      3889 1.98619E+01 2.48543E-01-9.60422E-04-1.21808E-01-1.01625E-13-2.21571E-13
 -1      3890 1.98586E+01 2.47665E-01 1.07517E-03-9.42325E-02-1.13768E-13-3.22455E-13
 -1      3891 1.97616E+01 3.59251E-01-6.63836E-04-1.72265E-01-3.65454E-14-1.58239E-13
 -1      3892 1.97977E+01 3.19051E-01-1.16863E-03-1.52308E-01-3.18345E-14-2.04526E-13
 -1      3893 1.97939E+01 3.17665E-01 1.47033E-03-1.15849E-01-8.23653E-14-2.26885E-13
 -1      3894 1.96590E+01 4.49535E-01-1.14150E-03-2.07122E-01-7.88096E-14-1.00335E-13
 -1      3895 1.97098E+01 4.02555E-01-1.39656E-03-1.85642E-01-6.96601E-14-1.05437E-13
 -1      3896 1.97064E+01 3.99756E-01 1.98760E-03-1.37930E-01-7.99618E-14-1.60289E-13
 -1      3897 1.95194E+01 5.53759E-01-1.84983E-03-2.40255E-01-1.34861E-13-4.04768E-14
 -1      3898 1.95902E+01 4.99958E-01-1.63824E-03-2.19053E-01-6.69535E-14-7.27719E-14
 -1      3899 1.95890E+01 4.94374E-01 2.66440E-03-1.57211E-01-7.89149E-14-6.79652E-14
 -1      3900 1.93302E+01 6.71028E-01-2.87332E-03-2.65785E-01-4.11422E-14 1.43756E-14
 -1      3901 1.94285E+01 6.11167E-01-1.88871E-03-2.47832E-01-1.25767E-13-9.37307E-14
 -1      3902 1.94325E+01 6.00822E-01 3.54926E-03-1.68360E-01-9.34423E-14-1.94423E-13
 -1      3903 1.90752E+01 7.98091E-01-4.31480E-03-2.74859E-01-8.90375E-14-1.32053E-14
 -1      3904 1.92107E+01 7.34291E-01-2.15193E-03-2.64631E-01-2.73199E-14 2.30261E-14
 -1      3905 1.92252E+01 7.16531E-01 4.70771E-03-1.63222E-01-6.68535E-14-1.15154E-13
 -1      3906 1.87331E+01 9.27815E-01-6.29852E-03-2.55078E-01-4.66239E-15-5.98570E-14
 -1      3907 1.89188E+01 8.64389E-01-2.45763E-03-2.58770E-01-6.65374E-14-1.17897E-14
 -1      3908 1.89520E+01 8.35967E-01 6.23593E-03-1.29993E-01-3.85345E-14-8.80753E-14
 -1      3909 1.82753E+01 1.04691E+00-9.04611E-03-1.90369E-01 1.21509E-14-1.74855E-14
 -1      3910 1.85286E+01 9.91605E-01-2.89417E-03-2.15772E-01 4.70223E-14-5.30461E-14
 -1      3911 1.85936E+01 9.49094E-01 8.28805E-03-5.24521E-02-1.04443E-14-1.47794E-13
 -1      3912 1.76625E+01 1.13349E+00-1.28415E-02-6.15413E-02-1.78282E-13 1.49651E-14
 -1      3913 1.80078E+01 1.09874E+00-3.66291E-03-1.16928E-01-2.07513E-14-1.34007E-15
 -1      3914 1.81248E+01 1.03896E+00 1.11289E-02 9.08694E-02-2.83867E-14-3.83504E-15
 -1      3915 1.68261E+01 1.15212E+00-1.91845E-02 1.47642E-01-1.90841E-13 2.22576E-15
 -1      3916 1.73059E+01 1.16204E+00-4.99547E-03 5.78958E-02-2.09641E-13-2.48978E-14
 -1      3917 1.75085E+01 1.08155E+00 1.50011E-02 3.30339E-01-9.71033E-14 1.01902E-13
 -1      3918 2.00532E+01-5.41066E-02 2.82695E-04-4.17599E-02 2.47627E-14-2.92177E-13
 -1      3919 2.00594E+01-6.23061E-02-1.19283E-05-4.58665E-02-1.14460E-14-2.37360E-13
 -1      3920 2.00553E+01-5.31067E-02-2.32715E-04-3.41650E-02 2.21970E-14-3.08729E-13
 -1      3921 2.03556E+01 5.50461E-01 5.98265E-04 7.58296E-02 1.39221E-13-3.12100E-13
 -1      3922 1.43127E+01 6.74037E-01 1.29870E-02 1.19904E+00-6.60306E-14 5.29281E-14
 -1      3923 2.03689E+01 9.99752E-01 4.23948E-03-4.02302E-02-1.30768E-14-3.65683E-13
 -1      3924 2.03162E+01 1.18118E+00-3.06736E-03-7.65854E-02-1.42146E-14-3.78483E-13
 -1      3925 2.02979E+01 1.71267E-02-3.99032E-04-9.54154E-02 6.99564E-14-3.12850E-13
 -1      3926 2.03197E+01 6.35169E-02 8.43579E-04-8.39019E-02 9.23891E-14-3.12926E-13
 -1      3927 2.03143E+01 5.50922E-03-3.99265E-04-7.89899E-02 4.37288E-14-2.67287E-13
 -1      3928 1.93398E+01-1.98458E+00-9.08510E-03 2.91012E+00 1.75347E-13-3.21704E-13
 -1      3929 2.02147E+01-8.15305E-02 1.41627E-04-1.01224E-01 1.95461E-14-2.39112E-13
 -1      3930 2.02344E+01-6.66561E-02 4.99806E-04-1.02508E-01 6.62698E-15-2.82810E-13
 -1      3931 2.02265E+01-8.92568E-02-5.58488E-04-8.22784E-02 6.65510E-15-2.17726E-13
 -1      3932 1.53502E+01 4.93055E-01 3.94310E-02 1.95267E+00 1.93118E-15 1.82849E-13
 -1      3933 1.48688E+01 8.37716E-01-1.91275E-02 9.24712E-01-2.85332E-14 5.50775E-14
 -1      3934 1.56114E+01 9.47799E-01-7.74332E-03 7.62293E-01 2.83675E-14 2.13343E-14
 -1      3935 2.03940E+01 3.63844E-01 4.33662E-04-1.31294E-04-7.61306E-14-2.73928E-13
 -1      3936 2.03827E+01 2.60916E-01-9.31340E-04 3.10458E-02-9.05050E-14-2.47355E-13
 -1      3937 2.03976E+01 2.38672E-01 1.43220E-04 2.70424E-02-5.82517E-14-2.04297E-13
 -1      3938 2.04084E+01 4.57361E-01 4.10926E-04-1.29644E-02-4.53554E-14-3.15567E-13
 -1      3939 2.03361E+01 1.20551E-01-8.62590E-04-7.28374E-02 9.53455E-14-3.36240E-13
 -1      3940 2.03562E+01 1.92692E-01 1.08302E-03-5.01235E-02 1.13682E-13-3.14762E-13
 -1      3941 2.03548E+01 1.06517E-01-1.47980E-04-6.19324E-02 8.87777E-14-2.52239E-13
 -1      3942 2.25728E+01-3.23290E+00 2.57277E-02 1.45846E+00 1.73981E-13-2.00328E-13
 -1      3943 2.02701E+01-5.59086E-02-5.24128E-04-8.44349E-02 9.79641E-15-2.35406E-13
 -1      3944 2.03023E+01 1.25093E+00 6.05952E-04-1.35121E-01-4.97987E-14-3.78709E-13
 -1      3945 1.96547E+01-1.64801E+00 6.74859E-03 2.42135E+00 1.71220E-14-4.22437E-13
 -1      3946 1.83575E+01-1.32317E+00 1.53922E-02 2.98057E+00 3.05367E-13-4.77910E-13
 -1      3947 1.77106E+01-8.30618E-01-2.29935E-02 2.69815E+00 1.99659E-13-3.29762E-13
 -1      3948 1.92701E+01-1.17044E+00-3.61199E-03 2.21071E+00 1.37329E-14-5.03437E-13
 -1      3949 2.03714E+01 5.11365E-01-2.42164E-03 4.14849E-02 9.54466E-14-3.10173E-13
 -1      3950 2.03753E+01 6.63867E-01 1.36878E-03 9.93464E-02 1.14427E-13-3.31470E-13
 -1      3951 2.01198E+01-9.75919E-02-4.50848E-04-5.74528E-02 1.61391E-14-9.12956E-14
 -1      3952 2.01136E+01-9.45249E-02 3.23829E-04-7.11879E-02 3.12742E-14-1.17543E-13
 -1      3953 2.01258E+01-9.81491E-02 1.44107E-04-7.73013E-02 7.19922E-14-1.44777E-13
 -1      3954 2.00729E+01-7.03305E-02-3.05717E-04-4.04832E-02 3.25581E-15-2.73683E-13
 -1      3955 1.59549E+01 1.05576E+00-2.33565E-02 4.70617E-01-9.69967E-14 1.16985E-13
 -1      3956 1.65157E+01 1.11250E+00-6.94148E-03 3.62200E-01-1.65623E-13 5.19403E-14
 -1      3957 1.68388E+01 1.01912E+00 1.83001E-02 7.20369E-01-1.57000E-13 1.69520E-13
 -1      3958 1.62159E+01 8.14494E-01 2.53977E-02 1.27605E+00-4.13614E-14 2.77762E-13
 -1      3959 2.03158E+01 1.11037E+00-2.03899E-03 2.20077E-01 1.46995E-13-3.97159E-13
 -1      3960 2.03157E+01 1.15323E+00-1.45047E-03 1.72755E-01 9.42758E-14-4.03965E-13
 -1      3961 2.03628E+01 9.83551E-01 3.85607E-03 1.13056E-01 9.05347E-14-3.87834E-13
 -1      3962 2.03434E+01 9.69851E-01 1.87613E-03 1.82862E-01 1.51538E-13-3.59932E-13
 -1      3963 2.02589E+01 1.40645E+00-1.19887E-03-2.34553E-01-9.59600E-14-4.04230E-13
 -1      3964 2.01574E+01-9.99280E-02 2.42698E-04-8.85056E-02 2.41915E-14-2.25670E-13
 -1      3965 2.01862E+01-1.03279E-01-5.44655E-04-7.57065E-02 2.39818E-14-1.64476E-13
 -1      3966 2.01426E+01-1.00063E-01 3.16818E-04-8.28233E-02 8.11189E-14-2.19422E-13
 -1      3967 2.03890E+01 8.27801E-01-1.61289E-03-1.21560E-02-9.13321E-15-3.48943E-13
 -1      3968 2.03872E+01 8.14025E-01-1.95935E-03-4.66995E-02-3.24553E-14-3.56270E-13
 -1      3969 2.03875E+01 8.14793E-01-2.02343E-03 4.40185E-02 5.85243E-14-3.73634E-13
 -1      3970 2.03875E+01 8.27764E-01-2.09723E-03 1.15823E-02 1.10105E-14-3.39112E-13
 -1      3971 2.04179E+01 6.76494E-01 3.15243E-03-2.32343E-03 1.00143E-14-3.26039E-13
 -1      3972 2.03517E+01 9.81284E-01 9.12975E-04-1.34461E-01-4.71656E-14-3.42714E-13
 -1      3973 2.03701E+01 8.26358E-01-7.50697E-04-9.58332E-02-5.52043E-14-3.28687E-13
 -1      3974 2.03515E+01 8.35185E-01-1.46308E-03 1.44114E-01 1.42250E-13-3.45010E-13
 -1      3975 1.62827E+01 9.18455E-02 1.01134E-02 2.19456E+00 7.97704E-14-2.20891E-14
 -1      3976 2.03719E+01 7.98346E-01 1.59073E-04 1.04987E-01 1.08082E-13-3.61885E-13
 -1      3977 2.00128E+01 1.52123E-02 1.05439E-04-2.22093E-02-1.28310E-14-2.13597E-13
 -1      3978 2.00189E+01 2.87607E-03-1.13948E-04-2.13515E-02-3.70530E-15-2.50589E-13
 -1      3979 2.00976E+01-8.42582E-02 3.30814E-04-3.56083E-02-6.91795E-15-1.76156E-13
 -1      3980 2.01093E+01-9.13739E-02 1.85087E-04-3.91987E-02 3.27828E-14-1.16498E-13
 -1      3981 2.03511E+01 1.35256E-02 3.13054E-04 4.08942E-02-1.25979E-14-1.65940E-13
 -1      3982 2.03289E+01-2.45205E-02 2.15223E-04 4.61424E-02 5.22618E-14-1.38933E-13
 -1      3983 2.03053E+01-5.40591E-02 3.50067E-04 4.51076E-02 4.31895E-14-1.38960E-13
 -1      3984 2.02823E+01-7.56600E-02 3.33698E-04 4.67997E-02 3.27339E-14-1.50577E-13
 -1      3985 2.03258E+01-3.85642E-02-1.12408E-03 2.47549E-02 2.76227E-14-1.53531E-13
 -1      3986 2.02586E+01-9.13782E-02 3.41943E-04 4.47686E-02 3.24303E-14-1.44023E-13
 -1      3987 2.02367E+01-1.01488E-01 3.78371E-04 4.41347E-02 3.82574E-14-1.56706E-13
 -1      3988 2.02784E+01-8.51160E-02-1.17018E-03 2.51372E-02 3.61945E-14-1.46962E-13
 -1      3989 2.02143E+01-1.07774E-01 2.92186E-04 4.15826E-02 4.76329E-14-1.90391E-13
 -1      3990 2.01941E+01-1.10193E-01 2.47528E-04 3.94235E-02 1.14471E-14-1.75787E-13
 -1      3991 2.02329E+01-1.07067E-01-8.56481E-04 2.39787E-02 2.37851E-15-1.26389E-13
 -1      3992 2.01743E+01-1.09861E-01 2.80278E-04 3.72843E-02-2.77069E-14-1.62772E-13
 -1      3993 2.01570E+01-1.07420E-01 2.97295E-04 3.44824E-02-6.02362E-14-1.69695E-13
 -1      3994 2.01902E+01-1.12440E-01-6.12415E-04 2.17875E-02 9.86481E-15-1.91674E-13
 -1      3995 2.01394E+01-1.03138E-01 1.75463E-04 3.22096E-02-9.59159E-14-1.24484E-13
 -1      3996 2.01251E+01-9.73799E-02 3.72432E-04 2.94400E-02-5.18583E-14-1.09449E-13
 -1      3997 2.01531E+01-1.08159E-01-6.40760E-04 1.86261E-02-3.70868E-14-1.18076E-13
 -1      3998 2.01101E+01-9.08025E-02 1.63203E-04 2.70405E-02-2.10149E-14-1.12051E-13
 -1      3999 2.00979E+01-8.31103E-02 2.93679E-04 2.44413E-02-9.53583E-15-9.21883E-14
 -1      4000 2.01219E+01-9.75206E-02-6.80128E-04 1.54606E-02-6.01863E-14-7.59794E-14
 -1      4001 2.00853E+01-7.48375E-02 1.38348E-04 2.25630E-02 4.48055E-14-8.82300E-14
 -1      4002 2.00751E+01-6.59369E-02 2.52370E-04 2.03985E-02 6.89405E-14 5.74820E-15
 -1      4003 2.00947E+01-8.18914E-02-6.54728E-04 1.29708E-02 1.05909E-14-5.07282E-14
 -1      4004 2.00646E+01-5.67016E-02 8.20045E-05 1.89231E-02 7.20099E-14 1.08996E-14
 -1      4005 2.00560E+01-4.69313E-02 2.07552E-04 1.73352E-02 1.02386E-13 9.43824E-14
 -1      4006 2.00723E+01-6.36153E-02-5.07970E-04 1.08943E-02 1.24914E-13 6.15571E-15
 -1      4007 2.00469E+01-3.68951E-02 2.30219E-05 1.63071E-02 6.11825E-14 7.63334E-14
 -1      4008 2.00395E+01-2.63080E-02 1.64785E-04 1.54213E-02 1.35283E-13 8.33212E-14
 -1      4009 2.00533E+01-4.34442E-02-3.49780E-04 9.33383E-03 9.67734E-14-9.20578E-15
 -1      4010 2.00311E+01-1.54186E-02-4.17043E-05 1.48951E-02 5.98040E-14 6.40534E-14
 -1      4011 2.00242E+01-3.85409E-03 1.25045E-04 1.48377E-02-3.56949E-15-1.83605E-14
 -1      4012 2.00365E+01-2.15150E-02-1.86113E-04 8.43275E-03 3.31363E-14-3.82517E-14
 -1      4013 2.00159E+01 8.11700E-03-1.15866E-04 1.48861E-02 1.79863E-14-4.47486E-14
 -1      4014 2.00089E+01 2.09717E-02 8.88967E-05 1.58022E-02-2.62297E-14-4.38091E-14
 -1      4015 2.00208E+01 2.48375E-03-1.29900E-05 8.32957E-03 3.46041E-15-1.95569E-13
 -1      4016 1.99999E+01 3.43744E-02-2.03846E-04 1.65362E-02-6.43591E-14-1.12270E-13
 -1      4017 1.99921E+01 4.89305E-02 5.71903E-05 1.86114E-02-8.61590E-14-1.21626E-13
 -1      4018 2.00046E+01 2.91892E-02 1.76270E-04 9.20317E-03-7.45942E-14-1.99472E-13
 -1      4019 1.99815E+01 6.41805E-02-3.10878E-04 2.02031E-02-8.29300E-14-9.10008E-14
 -1      4020 1.99721E+01 8.08914E-02 3.18384E-05 2.36883E-02-4.60767E-14-1.19888E-13
 -1      4021 1.99863E+01 5.94521E-02 3.89505E-04 1.13154E-02-5.85863E-14-1.97689E-13
 -1      4022 1.99589E+01 9.84082E-02-4.43164E-04 2.64013E-02-7.64267E-14-1.32463E-13
 -1      4023 1.99472E+01 1.17703E-01 1.68155E-05 3.16420E-02-5.92417E-14-2.26008E-13
 -1      4024 1.99641E+01 9.42233E-02 6.34662E-04 1.50629E-02-8.27751E-14-2.05332E-13
 -1      4025 1.99302E+01 1.37831E-01-6.07966E-04 3.58722E-02 7.46930E-14-2.81342E-13
 -1      4026 1.99152E+01 1.60027E-01 1.94921E-05 4.33480E-02 9.99131E-14-2.58550E-13
 -1      4027 1.99359E+01 1.34421E-01 9.18605E-04 2.10492E-02-6.76785E-14-2.05830E-13
 -1      4028 1.98932E+01 1.82932E-01-8.13651E-04 4.96820E-02-4.45498E-14-3.58584E-13
 -1      4029 1.98741E+01 2.08119E-01 5.24104E-05 6.00576E-02-9.40076E-14-3.50774E-13
 -1      4030 1.98996E+01 1.80761E-01 1.24550E-03 3.01864E-02-8.45817E-14-4.02569E-13
 -1      4031 1.98457E+01 2.33642E-01-1.06962E-03 6.93532E-02-1.05763E-13-3.61985E-13
 -1      4032 1.98217E+01 2.61519E-01 1.35600E-04 8.35495E-02-1.82299E-13-3.49224E-13
 -1      4033 1.98525E+01 2.33522E-01 1.61459E-03 4.38404E-02-1.20029E-13-4.95371E-13
 -1      4034 1.97855E+01 2.88981E-01-1.38592E-03 9.70465E-02-2.09583E-13-3.04694E-13
 -1      4035 1.97561E+01 3.18637E-01 2.99490E-04 1.16332E-01-2.05970E-13-3.28750E-13
 -1      4036 1.97921E+01 2.92233E-01 2.01706E-03 6.40341E-02-1.52128E-13-3.60208E-13
 -1      4037 1.97105E+01 3.46575E-01-1.77235E-03 1.35798E-01-2.34872E-13-2.35485E-13
 -1      4038 1.96758E+01 3.76199E-01 5.88413E-04 1.61908E-01-1.18423E-13-3.05237E-13
 -1      4039 1.97157E+01 3.55233E-01 2.43186E-03 9.37234E-02-1.50537E-13-3.53910E-13
 -1      4040 1.96197E+01 4.02022E-01-2.23638E-03 1.89819E-01 9.18404E-15-3.13116E-13
 -1      4041 1.95803E+01 4.28521E-01 1.06458E-03 2.25091E-01 1.62129E-14-2.59259E-13
 -1      4042 1.96209E+01 4.19093E-01 2.81987E-03 1.37159E-01-8.49690E-14-3.24925E-13
 -1      4043 1.95129E+01 4.48074E-01-2.77928E-03 2.64853E-01-2.23469E-15-1.99211E-13
 -1      4044 1.94712E+01 4.66604E-01 1.81207E-03 3.12371E-01 3.11686E-14-1.65153E-13
 -1      4045 1.95062E+01 4.77850E-01 3.11557E-03 2.00337E-01 6.86954E-14-3.59239E-13
 -1      4046 1.93925E+01 4.73633E-01-3.38912E-03 3.68549E-01 4.76565E-14-1.68088E-13
 -1      4047 1.93528E+01 4.77021E-01 2.93961E-03 4.32246E-01-9.44145E-14-1.37376E-13
 -1      4048 1.93712E+01 5.22028E-01 3.21306E-03 2.91527E-01 4.67428E-14-3.71694E-13
 -1      4049 1.92647E+01 4.62541E-01-4.02887E-03 5.10770E-01-1.88594E-13-2.06475E-15
 -1      4050 1.92345E+01 4.40603E-01 4.57794E-03 5.95407E-01-1.61632E-13 5.73711E-15
 -1      4051 1.92182E+01 5.37390E-01 2.93746E-03 4.21830E-01-3.85502E-14-2.15233E-13
 -1      4052 1.91413E+01 3.92178E-01-4.61620E-03 7.03656E-01-2.25529E-13 7.43507E-14
 -1      4053 1.91330E+01 3.30912E-01 6.84614E-03 8.14490E-01-1.09737E-13-4.51720E-14
 -1      4054 1.90537E+01 5.03343E-01 1.97660E-03 6.05665E-01-2.06607E-13-9.41000E-14
 -1      4055 1.90439E+01 2.31935E-01-4.96547E-03 9.60866E-01-1.15129E-13-1.43883E-13
 -1      4056 1.90765E+01 1.12958E-01 9.92731E-03 1.10269E+00-1.13464E-13-2.02601E-13
 -1      4057 1.88909E+01 3.90745E-01-2.47098E-04 8.60908E-01-2.41502E-13-4.22177E-14
 -1      4058 1.90077E+01-5.97637E-02-5.22057E-03 1.29526E+00-1.29492E-13-2.52073E-13
 -1      4059 1.91094E+01-2.59417E-01 1.33158E-02 1.46866E+00-2.63869E-14-3.19811E-13
 -1      4060 1.87557E+01 1.60333E-01-3.97416E-03 1.20849E+00-1.71030E-13-1.19135E-13
 -1      4061 1.90552E+01-5.04883E-01-5.00570E-03 1.71011E+00 7.23600E-14-5.46409E-13
 -1      4062 1.92616E+01-8.10391E-01 1.58161E-02 1.90916E+00 4.93819E-15-5.67886E-13
 -1      4063 1.86494E+01-7.34568E-01-9.88636E-04 2.21249E+00 7.19447E-14-6.23570E-13
 -1      4064 1.86621E+01-1.99534E-01-4.79810E-03 1.65228E+00-1.39794E-13-3.13047E-13
 -1      4065 2.02786E+01-6.75992E-02 1.30511E-04-6.54935E-02 2.17320E-14-2.01220E-13
 -1      4066 2.03019E+01-4.36359E-02 6.47314E-04-6.32739E-02 7.98310E-15-2.13633E-13
 -1      4067 2.03641E+01 2.78946E-01-1.45122E-03-2.87501E-02 1.16728E-13-3.32398E-13
 -1      4068 2.03800E+01 3.85171E-01 1.55968E-03 9.32873E-03 1.11402E-13-2.95113E-13
 -1      4069 2.03846E+01 2.62432E-01 3.97061E-04-2.80790E-02 1.15823E-13-2.82877E-13
 -1      4070 2.03793E+01 7.92478E-01-1.56573E-03 7.52009E-02 8.42644E-14-3.65609E-13
 -1      4071 2.00268E+01-8.60250E-03 1.59584E-04-2.13941E-02 1.08845E-14-3.08833E-13
 -1      4072 2.00329E+01-1.96949E-02-5.74271E-05-2.16900E-02-1.21400E-14-2.51871E-13
 -1      4073 2.00238E+01-2.81749E-03-1.03772E-04-1.54873E-02-4.99905E-14-2.45116E-13
 -1      4074 2.00411E+01-3.00944E-02 2.10538E-04-2.25084E-02-1.06414E-14-2.67579E-13
 -1      4075 2.00478E+01-4.02643E-02-5.05632E-06-2.38363E-02 1.12103E-14-2.41420E-13
 -1      4076 2.00389E+01-2.60119E-02-2.74392E-04-1.60140E-02-2.34478E-14-2.66777E-13
 -1      4077 1.99975E+01 4.22057E-02 4.45616E-05-2.51264E-02 1.66335E-14-2.18396E-13
 -1      4078 2.00044E+01 2.81651E-02-1.78030E-04-2.29949E-02 4.68791E-14-1.88805E-13
 -1      4079 2.00085E+01 2.30104E-02 7.92346E-05-1.62953E-02-4.65492E-14-1.59076E-13
 -1      4080 1.99793E+01 7.34603E-02-2.90167E-05-3.03020E-02-1.18862E-13-1.89312E-13
 -1      4081 1.99879E+01 5.71506E-02-2.52404E-04-2.67845E-02-7.58814E-14-2.16538E-13
 -1      4082 1.99915E+01 5.23936E-02 2.83163E-04-1.85065E-02-4.47402E-14-2.36481E-13
 -1      4083 1.99561E+01 1.10222E-01-1.24345E-04-3.78387E-02-8.45337E-14-2.83845E-13
 -1      4084 1.99673E+01 9.10076E-02-3.38825E-04-3.28512E-02-7.94804E-14-2.32649E-13
 -1      4085 1.99709E+01 8.64541E-02 5.17930E-04-2.21315E-02-4.91469E-14-2.66685E-13
 -1      4086 1.99254E+01 1.53828E-01-2.54565E-04-4.77084E-02-1.79132E-13-3.35906E-13
 -1      4087 1.99406E+01 1.31043E-01-4.37478E-04-4.12366E-02-1.61416E-13-3.03636E-13
 -1      4088 1.99445E+01 1.26432E-01 7.94070E-04-2.70655E-02-1.23559E-13-2.91983E-13
 -1      4089 1.98842E+01 2.05618E-01-4.38340E-04-5.96250E-02-8.78911E-14-2.22455E-13
 -1      4090 1.99050E+01 1.78616E-01-5.46067E-04-5.17935E-02-1.44646E-13-2.79119E-13
 -1      4091 1.99097E+01 1.73588E-01 1.12189E-03-3.29896E-02-1.78250E-13-2.93584E-13
 -1      4092 1.98287E+01 2.66805E-01-7.01723E-04-7.28475E-02-3.73476E-14-2.87865E-13
 -1      4093 1.98572E+01 2.35037E-01-6.58546E-04-6.40261E-02-2.65604E-14-2.30323E-13
 -1      4094 1.98634E+01 2.29072E-01 1.51031E-03-3.92156E-02-7.66661E-14-2.38049E-13
 -1      4095 1.97544E+01 3.38289E-01-1.08045E-03-8.58914E-02-9.23961E-14-2.49807E-13
 -1      4096 1.97933E+01 3.01410E-01-7.63477E-04-7.68508E-02-9.33255E-14-2.44984E-13
 -1      4097 1.98020E+01 2.93743E-01 1.96512E-03-4.44538E-02-5.05826E-14-2.46997E-13
 -1      4098 1.96554E+01 4.20373E-01-1.62262E-03-9.61247E-02-7.92287E-14-1.71208E-13
 -1      4099 1.97081E+01 3.78407E-01-8.42095E-04-8.82530E-02-1.84570E-14-1.53808E-13
 -1      4100 1.97208E+01 3.67905E-01 2.48663E-03-4.64818E-02-9.73383E-14-2.28304E-13
 -1      4101 1.95247E+01 5.12352E-01-2.39164E-03-9.92271E-02-1.03552E-13-1.17550E-13
 -1      4102 1.95957E+01 4.65929E-01-8.66330E-04-9.48172E-02-1.16497E-13-1.01791E-13
 -1      4103 1.96147E+01 4.50933E-01 3.06624E-03-4.16898E-02-9.94307E-14-7.84997E-14
 -1      4104 1.93534E+01 6.11898E-01-3.46968E-03-8.85030E-02-8.19325E-14-1.22368E-13
 -1      4105 1.94485E+01 5.62606E-01-7.97253E-04-9.11120E-02-3.07638E-14-1.45435E-13
 -1      4106 1.94773E+01 5.40734E-01 3.68200E-03-2.44807E-02-8.09193E-14-9.99187E-14
 -1      4107 1.91308E+01 7.14187E-01-4.96195E-03-5.40615E-02 1.71698E-14-2.63132E-13
 -1      4108 1.92573E+01 6.65061E-01-5.84524E-04-6.89289E-02-7.98972E-14-1.98474E-13
 -1      4109 1.93014E+01 6.33006E-01 4.29264E-03 1.34867E-02-1.04309E-14-1.43109E-13
 -1      4110 1.88434E+01 8.10671E-01-7.00159E-03 1.80872E-02-6.36232E-14-2.54317E-13
 -1      4111 1.90108E+01 7.66883E-01-1.66270E-04-1.63957E-02-2.91851E-14-2.44078E-13
 -1      4112 1.90784E+01 7.20216E-01 4.83020E-03 8.42121E-02 1.13449E-14-3.91534E-13
 -1      4113 1.84746E+01 8.87417E-01-9.73655E-03 1.46935E-01-4.73401E-14-1.63302E-13
 -1      4114 1.86953E+01 8.57218E-01 5.39905E-04 8.29662E-02 6.08248E-15-1.67334E-13
 -1      4115 1.87989E+01 7.90226E-01 5.19086E-03 2.04418E-01-4.86586E-14-2.44691E-13
 -1      4116 1.80041E+01 9.23083E-01-1.28977E-02 3.57493E-01-9.99353E-15-7.92727E-14
 -1      4117 1.82934E+01 9.19005E-01 1.72628E-03 2.50953E-01-2.94563E-14-1.05733E-13
 -1      4118 1.84515E+01 8.24514E-01 5.19375E-03 3.96705E-01-8.72785E-14-1.80213E-13
 -1      4119 1.74090E+01 8.89323E-01-1.29714E-02 6.85743E-01-1.33970E-13 8.41554E-14
 -1      4120 1.77861E+01 9.24030E-01 3.92070E-03 5.14197E-01-3.28583E-14 9.68311E-14
 -1      4121 1.80206E+01 7.94961E-01 3.69270E-03 6.89850E-01-1.67403E-13-5.30652E-14
 -1      4122 1.70430E+01-1.53339E-01 1.23296E-02 2.35898E+00 1.16924E-13-4.20378E-14
 -1      4123 1.65022E+01 3.50767E-01-2.62200E-02 1.77029E+00-5.80962E-14 1.59211E-13
 -1      4124 2.00569E+01-4.98231E-02 2.59735E-04-2.53756E-02 2.11491E-14-2.55702E-13
 -1      4125 2.00648E+01-5.92107E-02 4.70865E-05-2.76068E-02 7.30348E-14-2.52982E-13
 -1      4126 2.00552E+01-4.72127E-02-4.38525E-04-1.77744E-02 4.35683E-14-2.47782E-13
 -1      4127 2.03907E+01 1.23614E-01 9.81041E-05 3.01741E-02-6.29347E-14-1.82038E-13
 -1      4128 2.03721E+01 6.26058E-02 2.28875E-05 4.01945E-02-5.11351E-14-1.91584E-13
 -1      4129 2.03709E+01 4.25668E-02-8.81084E-04 2.16273E-02-7.52030E-15-1.45159E-13
 -1      4130 2.00754E+01-6.79711E-02 3.05762E-04-2.98077E-02 4.18102E-14-2.22791E-13
 -1      4131 2.00850E+01-7.64763E-02 1.01209E-04-3.27940E-02-5.80329E-15-1.91420E-13
 -1      4132 2.00965E+01-8.41516E-02-7.03267E-04-2.43978E-02 3.05458E-14-1.40805E-13
 -1      4133 2.03237E+01-1.24110E-02-1.33748E-04-6.33734E-02-4.16402E-15-2.01574E-13
 -1      4134 2.03469E+01 2.88861E-02 7.62126E-04-5.63623E-02 5.09898E-14-2.34380E-13
 -1      4135 2.03267E+01-2.61663E-02-1.19261E-03-4.41162E-02 2.04023E-14-1.92978E-13
 -1      4136 2.03869E+01 7.78184E-01 2.12229E-04-6.24703E-02-4.19452E-14-3.40850E-13
 -1      4137 2.03948E+01 4.87460E-01-1.52596E-04 2.65033E-02 9.62806E-14-3.28605E-13
 -1      4138 2.04115E+01 6.33546E-01 1.70234E-03-2.81097E-02-3.06360E-14-3.29836E-13
 -1      4139 2.02340E+01-9.64957E-02 2.64814E-04-6.25427E-02-7.12049E-15-1.96270E-13
 -1      4140 2.02558E+01-8.46659E-02 5.20500E-04-6.34386E-02-8.33413E-16-2.04512E-13
 -1      4141 2.02799E+01-7.76812E-02-1.30974E-03-4.53449E-02 1.74138E-14-2.02263E-13
 -1      4142 2.04221E+01 5.21545E-01-4.44237E-04-8.32056E-03 2.47259E-15-3.00228E-13
 -1      4143 2.04199E+01 4.82830E-01-5.07281E-04-1.53487E-02-8.63667E-15-2.98968E-13
 -1      4144 2.04195E+01 3.59974E-01 3.31365E-04 7.06768E-03-9.93251E-16-2.71485E-13
 -1      4145 2.04081E+01 6.56640E-01 2.67110E-03 4.43980E-02 6.78594E-14-3.38519E-13
 -1      4146 2.01238E+01-9.79097E-02-2.38631E-04-2.90445E-02 3.15640E-14-1.72921E-13
 -1      4147 2.01240E+01-9.77280E-02 2.43707E-04-4.23420E-02 3.35953E-14-1.32343E-13
 -1      4148 2.01381E+01-1.02768E-01 1.23089E-04-4.63448E-02 6.00812E-14-1.08582E-13
 -1      4149 2.03650E+01 8.00854E-02-5.41068E-04-5.33949E-02 6.73967E-14-2.51115E-13
 -1      4150 2.03850E+01 1.45334E-01 6.54925E-04-3.95496E-02 8.33556E-14-2.50423E-13
 -1      4151 2.03707E+01 6.16351E-02-8.44011E-04-3.75986E-02 3.82300E-14-2.46163E-13
 -1      4152 2.01504E+01-1.04522E-01-5.01364E-04-6.68962E-02 4.27401E-14-1.39707E-13
 -1      4153 1.68731E+01 5.52936E-01 1.19118E-02 1.44403E+00-5.39951E-14 4.82643E-14
 -1      4154 1.72837E+01 8.18545E-01 9.20963E-03 9.02894E-01-1.50766E-13 1.27462E-13
 -1      4155 1.76195E+01 6.46782E-01-7.00179E-05 1.09570E+00-1.44434E-13 2.85878E-14
 -1      4156 1.69560E+01 7.05242E-01-1.53449E-02 1.15093E+00-1.00964E-13 4.38191E-14
 -1      4157 1.79532E+01-4.29587E-01 1.39888E-02 2.25186E+00 8.65319E-14-2.87744E-13
 -1      4158 2.00740E+01-6.66815E-02-5.94760E-04-2.06351E-02 8.44530E-14-1.37509E-13
 -1      4159 2.04146E+01 2.73054E-01-2.67145E-04 1.23072E-02-1.43190E-14-2.42858E-13
 -1      4160 2.04030E+01 1.84843E-01 1.07518E-04 2.80004E-02-3.92938E-14-2.22498E-13
 -1      4161 2.04047E+01 1.56662E-01-4.13910E-04 1.52721E-02-1.95705E-14-2.09473E-13
 -1      4162 2.04227E+01 3.03694E-01 1.63797E-04 5.69108E-03 1.41177E-14-2.58981E-13
 -1      4163 2.03252E+01 1.12455E+00-4.09138E-04-1.67660E-01-6.19067E-14-3.66621E-13
 -1      4164 2.01925E+01-1.07179E-01 3.36962E-04-5.65349E-02 2.26967E-14-1.95114E-13
 -1      4165 2.02122E+01-1.03642E-01 4.47318E-04-5.92532E-02 1.56782E-14-1.97731E-13
 -1      4166 2.02346E+01-1.03617E-01-1.17378E-03-4.32101E-02 1.66893E-15-1.98051E-13
 -1      4167 2.04257E+01 5.18158E-01-1.04133E-03 4.29704E-03 2.49242E-14-2.93380E-13
 -1      4168 2.04113E+01 5.05864E-01-6.50806E-04 1.20657E-02 5.49145E-14-3.13966E-13
 -1      4169 2.02877E+01-8.03581E-02 7.31242E-04-9.23844E-03 2.77909E-14-2.18289E-13
 -1      4170 2.03114E+01-6.03337E-02 9.67781E-04-8.47711E-03 2.35639E-14-2.09153E-13
 -1      4171 2.02635E+01-9.54209E-02 8.32420E-04-8.77437E-03 2.65276E-14-1.90132E-13
 -1      4172 2.02408E+01-1.04685E-01 5.47521E-04-8.58154E-03-1.48662E-15-1.90114E-13
 -1      4173 2.02178E+01-1.10300E-01 4.89144E-04-8.43844E-03-2.00321E-14-2.09325E-13
 -1      4174 2.01655E+01-1.10056E-01 3.20810E-04 3.94273E-03 2.73643E-14-2.04899E-13
 -1      4175 2.01486E+01-1.05934E-01 4.06979E-04 2.84383E-03-4.15224E-14-1.35735E-13
 -1      4176 2.01264E+01-9.74575E-02 3.43813E-04-5.47665E-03-3.50038E-14-1.15465E-13
 -1      4177 2.01121E+01-9.02980E-02 4.03295E-04-5.77703E-03-8.28679E-15-6.82205E-14
 -1      4178 2.00996E+01-8.21250E-02 4.87303E-04-4.48740E-03-3.38717E-15-7.09952E-14
 -1      4179 2.00870E+01-7.37297E-02 3.64495E-04-4.95024E-03 5.28913E-14-1.08852E-13
 -1      4180 2.00764E+01-6.44123E-02 4.09206E-04-3.87256E-03 8.38014E-14-8.80506E-14
 -1      4181 2.00657E+01-5.49888E-02 2.76022E-04-4.28336E-03 1.20880E-13-1.10354E-13
 -1      4182 2.00566E+01-4.48377E-02 2.95210E-04-3.53881E-03 5.33904E-14-1.40697E-13
 -1      4183 2.00474E+01-3.45122E-02 1.81529E-04-3.80689E-03 2.30892E-14-2.12923E-13
 -1      4184 2.00393E+01-2.35440E-02 1.70974E-04-3.47191E-03 3.44969E-16-1.88862E-13
 -1      4185 2.00308E+01-1.22218E-02 8.64207E-05-3.54197E-03-3.27652E-14-2.38630E-13
 -1      4186 2.00230E+01-2.38057E-04 3.74407E-05-3.66449E-03-4.52754E-14-2.52844E-13
 -1      4187 2.00147E+01 1.23607E-02-1.16074E-05-3.47644E-03-4.94685E-14-2.69019E-13
 -1      4188 2.00063E+01 2.57186E-02-1.09893E-04-4.08290E-03-5.41461E-14-2.55570E-13
 -1      4189 1.99974E+01 4.00095E-02-1.16162E-04-3.55264E-03-5.14434E-14-2.66197E-13
 -1      4190 1.99876E+01 5.52133E-02-2.77827E-04-4.63962E-03-3.91043E-14-2.35070E-13
 -1      4191 1.99771E+01 7.17002E-02-2.30558E-04-3.63829E-03-2.13107E-15-2.15025E-13
 -1      4192 1.99650E+01 8.92893E-02-4.74658E-04-5.15032E-03-3.39547E-14-2.42144E-13
 -1      4193 1.99520E+01 1.08513E-01-3.56739E-04-3.47569E-03-6.91749E-14-2.34342E-13
 -1      4194 1.99362E+01 1.29043E-01-7.09763E-04-5.26547E-03-1.44483E-13-2.14691E-13
 -1      4195 1.99195E+01 1.51517E-01-4.93971E-04-2.60015E-03-1.80570E-13-2.65296E-13
 -1      4196 1.98986E+01 1.75496E-01-9.93197E-04-4.36493E-03-1.36411E-13-2.64065E-13
 -1      4197 1.98772E+01 2.01624E-01-6.37064E-04-2.15355E-04-1.11255E-13-3.20715E-13
 -1      4198 1.98495E+01 2.29423E-01-1.33512E-03-1.40081E-03-8.68212E-14-3.13323E-13
 -1      4199 1.98219E+01 2.59380E-01-7.73941E-04 4.99032E-03-8.70957E-14-2.62722E-13
 -1      4200 1.97853E+01 2.91112E-01-1.74489E-03 5.32919E-03-8.40459E-14-2.35231E-13
 -1      4201 1.97503E+01 3.24685E-01-8.82422E-04 1.51054E-02-8.87928E-14-2.34888E-13
 -1      4202 1.97023E+01 3.60025E-01-2.22967E-03 1.84979E-02-1.15618E-13-2.11763E-13
 -1      4203 1.96587E+01 3.96387E-01-9.26110E-04 3.33547E-02-1.10169E-13-1.29445E-13
 -1      4204 1.95965E+01 4.34335E-01-2.79217E-03 4.21736E-02-1.27173E-13-1.32246E-13
 -1      4205 1.95432E+01 4.71744E-01-8.49227E-04 6.45733E-02-4.27116E-14-1.59109E-13
 -1      4206 1.94635E+01 5.10286E-01-3.42720E-03 8.23678E-02-1.05656E-14-2.31298E-13
 -1      4207 1.94003E+01 5.45684E-01-5.70027E-04 1.15805E-01 5.92713E-14-2.93351E-13
 -1      4208 1.92993E+01 5.81347E-01-4.11600E-03 1.47709E-01 9.63693E-14-2.92715E-13
 -1      4209 1.92266E+01 6.09841E-01 2.83710E-05 1.97015E-01 4.48358E-14-2.51078E-13
 -1      4210 1.91003E+01 6.37096E-01-4.81639E-03 2.50232E-01-1.37092E-14-2.33122E-13
 -1      4211 1.90205E+01 6.51292E-01 1.11388E-03 3.21892E-01-4.53873E-14-2.58562E-13
 -1      4212 1.88644E+01 6.61797E-01-5.44092E-03 4.06254E-01-1.43046E-13-1.93719E-13
 -1      4213 1.87826E+01 6.50954E-01 2.94739E-03 5.08706E-01-1.87628E-13-2.28785E-13
 -1      4214 1.85921E+01 6.32669E-01-5.79320E-03 6.37383E-01-2.11372E-13-1.92280E-13
 -1      4215 1.85184E+01 5.81546E-01 6.08947E-03 7.81391E-01-1.82113E-13-2.29332E-13
 -1      4216 1.82879E+01 5.16846E-01-5.75496E-03 9.71230E-01-1.98972E-13-1.41437E-13
 -1      4217 1.82312E+01 4.02710E-01 9.61695E-03 1.17235E+00-2.27882E-13-1.76155E-13
 -1      4218 2.03960E+01 2.24098E-01-1.01792E-03-3.21661E-02 9.37449E-14-2.68086E-13
 -1      4219 2.04093E+01 3.18803E-01 7.96800E-05-7.25564E-03 6.60169E-14-3.01786E-13
 -1      4220 2.04053E+01 1.99675E-01-1.86105E-04-2.34805E-02 8.33501E-14-2.89026E-13
 -1      4221 2.03352E+01-3.17804E-02 6.00979E-04-9.69967E-03 2.42268E-14-1.93663E-13
 -1      4222 2.03582E+01 4.21971E-03 9.77209E-04-7.09923E-03 1.65447E-14-1.93312E-13
 -1      4223 1.73593E+01 3.46941E-01 3.16088E-04 1.61982E+00-8.65516E-14 1.12280E-15
 -1      4224 1.79153E+01-1.65884E-01-1.73930E-02 1.93140E+00-1.17460E-14-2.89647E-13
 -1      4225 2.04215E+01 4.65927E-01 1.69184E-04 5.41586E-03 3.02035E-14-2.97214E-13
 -1      4226 2.03790E+01 5.18473E-02 2.81857E-04-9.48265E-03-9.32785E-15-2.23676E-13
 -1      4227 2.01557E+01-1.06242E-01 3.05871E-04-4.95069E-02 2.22368E-14-1.40872E-13
 -1      4228 2.01725E+01-1.08080E-01 2.12462E-04-5.33256E-02 2.04462E-14-1.93868E-13
 -1      4229 2.01554E+01-1.07828E-01-3.90002E-04-3.35023E-02 3.35561E-14-2.10364E-13
 -1      4230 2.03988E+01 1.10321E-01 8.23152E-04-4.47253E-03 2.35486E-14-2.52167E-13
 -1      4231 2.02051E+01-1.12358E-01 4.05701E-04 4.93145E-03-7.22332E-15-2.04665E-13
 -1      4232 2.01844E+01-1.12607E-01 2.90753E-04 3.97095E-03 3.11248E-14-1.94804E-13
 -1      4233 1.80807E+01 2.56376E-01-8.51493E-03 1.39694E+00-1.83934E-13-1.03269E-13
 -1      4234 2.02041E+01-1.12403E-01-4.34076E-04-2.71686E-02-2.09379E-14-2.03555E-13
 -1      4235 1.80403E+01 8.98226E-02 1.18826E-02 1.64125E+00-8.18702E-14-2.70389E-13
 -1      4236 2.04290E+01 3.37958E-01 9.13056E-04-5.70761E-03 2.56664E-14-2.97775E-13
 -1      4237 2.04239E+01 2.53543E-01 1.87506E-04 1.89764E-04 2.23162E-14-2.91165E-13
 -1      4238 2.01318E+01-1.00884E-01-3.96119E-04-1.93351E-02 1.58924E-15-2.03199E-13
 -1      4239 2.01738E+01-1.11959E-01-3.57436E-04-1.23545E-02 3.08160E-14-2.06431E-13
 -1      4240 2.04106E+01 1.68646E-01-7.64488E-05-8.34958E-03 4.30580E-14-2.64673E-13
 -1      4241 2.01839E+01-1.11772E-01 1.79138E-04-2.52677E-02-3.99865E-15-1.78429E-13
 -1      4242 2.01651E+01-1.09826E-01 6.37766E-05-2.31433E-02 3.23939E-14-2.20709E-13
 -1      4243 2.01923E+01-1.10792E-01-5.06862E-04-3.82304E-02-1.31954E-14-2.23083E-13
 -1      4244 2.01472E+01-1.05750E-01 6.10299E-05-2.14519E-02 3.18333E-14-2.50174E-13
 -3
    1PSTEP                         3           1           1          
  100CL  101 1.000000000        4244                     0    1           1
 -4  TOSTRAIN    6    1
 -5  EXX         1    4    1    1
 -5  EYY         1    4    2    2
 -5  EZZ         1    4    3    3
 -5  EXY         1    4    1    2
 -5  EYZ         1    4    2    3
 -5  EZX         1    4    3    1
 -1         1 3.28249E-04-6.93612E-05-9.67605E-05-1.44170E-04-7.85041E-19 1.86199E-18
 -1         2 6.61475E-05-1.95438E-04 2.59749E-05-4.68100E-06 1.94025E-17 3.36696E-19
 -1         3 9.52136E-05-2.85689E-05-2.55659E-05 2.13668E-06 1.82395E-18 1.32801E-18
 -1         4 9.55672E-05-2.82110E-05-2.89672E-05-5.64548E-07-3.18606E-18 3.55415E-18
 -1         5 1.43348E-04-2.14783E-05-4.25300E-05 3.85299E-05-2.60727E-19 1.97888E-17
 -1         6 1.45408E-04 2.57583E-10-4.41881E-05-5.35248E-05-1.23032E-18 2.02382E-17
 -1         7 9.06132E-05-5.11461E-07-3.90696E-05-2.92491E-05-1.82959E-19 3.86880E-18
 -1         8 8.51294E-05 8.62922E-08-3.63405E-05-2.02666E-05-2.36852E-19-1.26174E-18
 -1         9 8.28186E-05 7.59486E-08-3.53522E-05-1.56339E-05-2.18204E-19-4.06599E-18
 -1        10 8.17723E-05 3.96714E-08-3.48820E-05-1.20723E-05-1.32792E-19-5.45632E-18
 -1        11 8.12519E-05 1.93087E-08-3.46527E-05-9.00888E-06-1.12033E-19-6.04451E-18
 -1        12 8.09810E-05 9.17393E-09-3.45374E-05-6.27997E-06-6.10343E-20-6.31557E-18
 -1        13 8.08379E-05 4.65081E-09-3.44792E-05-3.68263E-06-5.21893E-20-6.31129E-18
 -1        14 8.07779E-05 2.82215E-09-3.44553E-05-1.18264E-06 4.50193E-21-6.30937E-18
 -1        15 8.07800E-05 2.80640E-09-3.44560E-05 1.28791E-06 2.14248E-20-6.30144E-18
 -1        16 8.08443E-05 4.57894E-09-3.44814E-05 3.79308E-06 7.29565E-20-6.25756E-18
 -1        17 8.09924E-05 8.46408E-09-3.45411E-05 6.40247E-06 8.13698E-20-6.09582E-18
 -1        18 8.12688E-05 1.82703E-08-3.46576E-05 9.15021E-06 1.16732E-19-5.73196E-18
 -1        19 8.17982E-05 3.82946E-08-3.48900E-05 1.22511E-05 1.74323E-19-4.97098E-18
 -1        20 8.28418E-05 8.05044E-08-3.53643E-05 1.58657E-05 2.46844E-19-3.55635E-18
 -1        21 8.50923E-05 1.69845E-07-3.63787E-05 2.04777E-05 2.86985E-19-6.58710E-19
 -1        22 9.16494E-05-9.94874E-08-3.87420E-05 2.79954E-05 4.51045E-20 5.42358E-18
 -1        23 1.12983E-04-3.81293E-05-3.53996E-05-4.40136E-06-8.27789E-19 1.58822E-17
 -1        24 9.28204E-05-2.77019E-05-2.90039E-05 3.91476E-07-2.36891E-19 1.22345E-17
 -1        25 8.91401E-05-2.68583E-05-2.69356E-05 3.75911E-07-1.86862E-19 8.29795E-18
 -1        26 8.80421E-05-2.64963E-05-2.63998E-05 2.04305E-07-5.77016E-20 5.44640E-18
 -1        27 8.80748E-05-2.64765E-05-2.63937E-05 1.40119E-07-4.79384E-20 3.79675E-18
 -1        28 8.86153E-05-2.66149E-05-2.65653E-05 1.01120E-07-2.46469E-20 2.48420E-18
 -1        29 8.93774E-05-2.68298E-05-2.68000E-05 7.54897E-08 8.76248E-20 1.83340E-18
 -1        30 9.02099E-05-2.70718E-05-2.70524E-05 5.72569E-08 3.52973E-20 1.36150E-18
 -1        31 9.10278E-05-2.73127E-05-2.72992E-05 4.35713E-08-9.21464E-20 1.70781E-19
 -1        32 9.17841E-05-2.75369E-05-2.75270E-05 3.29934E-08-1.01270E-19-1.15963E-18
 -1        33 9.24546E-05-2.77365E-05-2.77292E-05 2.47136E-08-3.94369E-21-1.89109E-18
 -1        34 9.30306E-05-2.79083E-05-2.79029E-05 1.82165E-08 4.81311E-20-1.64500E-18
 -1        35 9.35122E-05-2.80523E-05-2.80484E-05 1.31346E-08-4.78193E-20-2.20936E-18
 -1        36 9.39055E-05-2.81701E-05-2.81672E-05 9.18420E-09 9.91823E-20-2.33759E-18
 -1        37 9.42195E-05-2.82644E-05-2.82622E-05 6.13604E-09-2.31053E-19-2.34214E-18
 -1        38 9.44651E-05-2.83382E-05-2.83366E-05 3.80131E-09-1.16780E-20-2.91718E-18
 -1        39 9.46533E-05-2.83948E-05-2.83937E-05 2.02483E-09 3.71021E-20-3.38272E-18
 -1        40 9.47953E-05-2.84377E-05-2.84368E-05 6.81782E-10 1.44632E-20-3.83940E-18
 -1        41 9.49018E-05-2.84699E-05-2.84693E-05-3.23820E-10 2.56406E-20-4.53878E-18
 -1        42 9.49834E-05-2.84947E-05-2.84942E-05-1.05965E-09-3.25742E-20-5.37444E-18
 -1        43 9.50507E-05-2.85153E-05-2.85149E-05-1.56464E-09-1.81057E-19-4.67069E-18
 -1        44 9.51145E-05-2.85348E-05-2.85345E-05-1.84755E-09 2.53999E-19-2.90014E-18
 -1        45 9.51868E-05-2.85569E-05-2.85567E-05-1.88435E-09-1.98394E-19-2.83310E-18
 -1        46 9.52805E-05-2.85855E-05-2.85855E-05-1.61468E-09 1.05759E-19-2.78229E-18
 -1        47 9.54106E-05-2.86251E-05-2.86253E-05-9.37925E-10-4.04153E-20-9.16921E-19
 -1        48 9.55944E-05-2.86807E-05-2.86814E-05 2.89745E-10 1.45585E-20-8.88406E-19
 -1        49 9.58513E-05-2.87582E-05-2.87596E-05 2.25500E-09-1.31632E-19-2.53845E-18
 -1        50 9.62024E-05-2.88639E-05-2.88662E-05 5.17911E-09 4.10683E-20-3.48408E-18
 -1        51 9.66696E-05-2.90043E-05-2.90077E-05 9.29472E-09 3.97569E-19-2.24925E-18
 -1        52 9.72725E-05-2.91850E-05-2.91898E-05 1.47962E-08-7.84908E-20 3.26862E-19
 -1        53 9.80239E-05-2.94097E-05-2.94160E-05 2.17469E-08-2.64191E-19-1.33784E-18
 -1        54 9.89229E-05-2.96779E-05-2.96854E-05 2.99222E-08-1.65436E-19-3.61179E-18
 -1        55 9.99443E-05-2.99819E-05-2.99896E-05 3.85645E-08-1.02153E-19-5.30893E-18
 -1        56 1.01024E-04-3.03023E-05-3.03084E-05 4.60387E-08 2.38639E-19-4.25459E-18
 -1        57 1.02044E-04-3.06036E-05-3.06048E-05 4.94198E-08-3.57966E-19-3.77432E-18
 -1        58 1.02814E-04-3.08291E-05-3.08205E-05 4.41436E-08 4.29406E-19-3.32297E-18
 -1        59 1.03062E-04-3.08986E-05-3.08742E-05 2.40489E-08-3.94856E-19-2.85717E-18
 -1        60 1.02450E-04-3.07114E-05-3.06659E-05-1.75981E-08-2.34798E-19-2.34618E-18
 -1        61 1.00614E-04-3.01609E-05-3.00933E-05-8.53159E-08 2.26667E-19-2.61730E-18
 -1        62 9.72776E-05-2.91651E-05-2.90838E-05-1.76398E-07-1.38706E-19-2.20866E-18
 -1        63 9.24064E-05-2.77143E-05-2.76415E-05-2.74638E-07-2.28943E-20-3.41966E-18
 -1        64 8.64004E-05-2.59269E-05-2.58979E-05-3.46492E-07-6.20055E-21-4.58421E-18
 -1        65 8.02166E-05-2.40861E-05-2.41387E-05-3.46134E-07-7.29780E-20-3.41753E-18
 -1        66 7.52996E-05-2.26202E-05-2.27751E-05-2.33723E-07 2.50785E-19-1.19047E-18
 -1        67 7.32207E-05-2.19964E-05-2.22345E-05-2.05950E-09 1.41951E-19-8.79126E-19
 -1        68 7.50565E-05-2.25371E-05-2.27854E-05 3.02720E-07 6.25337E-19 1.62671E-18
 -1        69 8.06974E-05-2.42149E-05-2.43520E-05 5.74508E-07-2.98974E-19 1.09839E-18
 -1        70 8.83119E-05-2.65151E-05-2.63967E-05 5.98797E-07-3.36495E-19 1.92393E-18
 -1        71 9.44347E-05-2.84939E-05-2.80602E-05 2.55098E-07 2.01647E-18 5.13878E-18
 -1        72 1.02189E-04-3.05910E-05-3.41533E-05-1.92945E-06 3.65627E-19 1.74454E-17
 -1        73 9.25755E-05-2.75184E-05-2.89104E-05-3.34285E-07 1.35214E-19 1.24763E-17
 -1        74 8.91270E-05-2.67083E-05-2.69761E-05-1.26626E-07 2.00032E-19 8.72620E-18
 -1        75 8.80736E-05-2.64484E-05-2.64425E-05-9.51833E-08-3.26641E-20 6.79242E-18
 -1        76 8.81087E-05-2.64560E-05-2.64207E-05-7.64840E-08 4.02903E-20 5.09066E-18
 -1        77 8.86487E-05-2.66090E-05-2.65826E-05-6.28164E-08 1.08889E-19 3.66874E-18
 -1        78 8.94088E-05-2.68310E-05-2.68125E-05-5.19709E-08-3.80269E-20 2.93562E-18
 -1        79 9.02380E-05-2.70765E-05-2.70620E-05-4.31136E-08 1.31980E-19 2.41945E-18
 -1        80 9.10523E-05-2.73188E-05-2.73066E-05-3.55593E-08-1.19180E-19 1.86560E-18
 -1        81 9.18049E-05-2.75434E-05-2.75328E-05-2.90095E-08 1.36070E-19 1.69313E-18
 -1        82 9.24720E-05-2.77428E-05-2.77336E-05-2.33442E-08 5.29776E-20 7.38110E-19
 -1        83 9.30448E-05-2.79141E-05-2.79063E-05-1.84917E-08 8.97830E-20-7.05763E-19
 -1        84 9.35235E-05-2.80575E-05-2.80508E-05-1.43848E-08-9.21824E-20-1.18742E-18
 -1        85 9.39142E-05-2.81745E-05-2.81690E-05-1.09486E-08 2.07531E-19-1.77814E-18
 -1        86 9.42259E-05-2.82679E-05-2.82633E-05-8.10013E-09 2.03578E-20-2.85313E-18
 -1        87 9.44692E-05-2.83408E-05-2.83371E-05-5.75169E-09-1.99615E-19-2.66893E-18
 -1        88 9.46550E-05-2.83965E-05-2.83936E-05-3.81441E-09-2.30184E-20-2.85546E-18
 -1        89 9.47944E-05-2.84384E-05-2.84361E-05-2.20147E-09 2.19770E-19-4.19705E-18
 -1        90 9.48977E-05-2.84695E-05-2.84676E-05-8.30727E-10-1.17218E-19-4.34430E-18
 -1        91 9.49753E-05-2.84929E-05-2.84915E-05 3.73510E-10-3.94632E-19-3.13304E-18
 -1        92 9.50375E-05-2.85117E-05-2.85106E-05 1.47950E-09 4.07573E-20-2.34763E-18
 -1        93 9.50947E-05-2.85290E-05-2.85284E-05 2.54772E-09-1.13710E-19-1.96736E-18
 -1        94 9.51587E-05-2.85485E-05-2.85482E-05 3.63079E-09 2.81468E-19-4.19854E-18
 -1        95 9.52428E-05-2.85741E-05-2.85742E-05 4.77321E-09 5.75187E-21-5.27051E-18
 -1        96 9.53634E-05-2.86107E-05-2.86113E-05 6.01050E-09 1.07574E-19-2.79467E-18
 -1        97 9.55409E-05-2.86645E-05-2.86658E-05 7.36655E-09-1.67188E-19-7.02130E-19
 -1        98 9.58015E-05-2.87433E-05-2.87456E-05 8.84739E-09 3.74798E-19-1.15044E-18
 -1        99 9.61794E-05-2.88575E-05-2.88612E-05 1.04272E-08-1.12392E-19-3.73931E-18
 -1       100 9.67200E-05-2.90206E-05-2.90265E-05 1.20183E-08-7.68295E-20-3.54640E-18
 -1       101 9.74837E-05-2.92509E-05-2.92599E-05 1.34101E-08-1.41700E-19-3.61305E-18
 -1       102 9.85512E-05-2.95724E-05-2.95864E-05 1.41467E-08 9.99400E-21-2.52905E-18
 -1       103 1.00031E-04-3.00174E-05-3.00391E-05 1.32893E-08-3.51242E-21-2.40012E-18
 -1       104 1.02067E-04-3.06287E-05-3.06626E-05 8.96990E-09 4.30111E-19-3.05695E-18
 -1       105 1.04849E-04-3.14618E-05-3.15147E-05-2.40911E-09 1.20218E-19-5.32095E-18
 -1       106 1.08611E-04-3.25855E-05-3.26671E-05-2.74956E-08-6.29247E-19-3.29061E-18
 -1       107 1.13622E-04-3.40775E-05-3.41989E-05-7.78207E-08-7.06834E-20-3.42392E-18
 -1       108 1.20123E-04-3.60061E-05-3.61723E-05-1.71225E-07 3.09333E-19-4.64737E-18
 -1       109 1.28156E-04-3.83843E-05-3.85711E-05-3.28882E-07-2.36716E-19-2.88751E-18
 -1       110 1.37196E-04-4.10656E-05-4.11723E-05-5.57125E-07 1.13007E-19-1.62929E-18
 -1       111 1.45481E-04-4.35598E-05-4.33472E-05-7.91513E-07 8.71551E-20-2.42013E-19
 -1       112 1.49149E-04-4.47682E-05-4.38888E-05-7.90028E-07-8.06005E-21 1.40618E-18
 -1       113 1.42058E-04-4.28771E-05-4.11858E-05-9.86637E-08 4.77971E-19 2.47731E-18
 -1       114 1.18249E-04-3.59258E-05-3.41837E-05 1.61927E-06-4.81128E-19 4.04035E-18
 -1       115 7.89306E-05-2.38946E-05-2.38952E-05 3.54164E-06 3.11086E-19 4.14813E-18
 -1       116 3.91165E-05-1.12435E-05-1.40795E-05 3.56453E-06 5.54410E-20 5.97942E-18
 -1       117 2.04565E-05-5.17857E-06-9.26124E-06 9.79842E-07 3.67295E-19 3.44292E-18
 -1       118 3.09761E-05-8.61953E-06-1.11999E-05-1.87500E-06 5.90521E-19-1.46928E-18
 -1       119 5.83035E-05-1.72764E-05-1.75303E-05-3.08493E-06-2.70654E-19-2.77679E-18
 -1       120 8.44087E-05-2.56467E-05-2.36314E-05-3.59169E-06-8.27260E-19 9.38513E-19
 -1       121 9.83592E-05-3.91728E-05-2.48670E-05-4.49910E-06 2.46878E-18 1.35057E-18
 -1       122 1.04457E-04-5.84433E-05-2.21989E-05-3.10200E-06-1.23667E-19-2.27250E-18
 -1       123 1.01599E-04-4.70335E-05-2.76578E-05 2.80514E-06-3.40338E-18 4.57636E-19
 -1       124 8.19469E-05 1.58469E-05-4.31056E-05 1.11837E-05-6.96430E-18-1.59308E-18
 -1       125 5.19678E-05 1.05510E-04-6.06858E-05 1.08671E-05-2.00078E-17-1.67098E-18
 -1       126 3.26299E-05 1.63700E-04-7.07636E-05 3.45782E-06-1.90982E-17-1.02083E-18
 -1       127 3.93864E-05 1.43987E-04-6.70484E-05-7.32896E-06-1.38708E-17 1.11634E-18
 -1       128 6.50193E-05 6.73742E-05-5.24854E-05-1.00067E-05 3.85654E-18-1.36836E-19
 -1       129 9.38045E-05-2.17495E-05-3.31469E-05-6.73385E-06 1.40510E-17 1.49297E-18
 -1       130 1.12348E-04-8.21983E-05-1.73422E-05-2.46947E-06 1.23120E-17-2.31207E-18
 -1       131 1.19104E-04-1.06072E-04-8.34131E-06 8.71008E-07 6.86452E-18 3.72000E-19
 -1       132 1.16190E-04-9.83547E-05-8.45042E-06 1.49761E-06 9.71123E-19-9.71137E-19
 -1       133 1.10634E-04-8.04331E-05-1.28419E-05 1.19644E-06-1.41444E-18 9.85408E-19
 -1       134 1.05263E-04-6.24497E-05-1.80289E-05 8.16245E-07 2.31754E-18 5.43028E-19
 -1       135 1.00844E-04-4.74992E-05-2.25308E-05 5.88156E-07 1.93436E-18-2.16575E-18
 -1       136 9.76144E-05-3.64941E-05-2.58953E-05 8.35009E-07-1.85479E-18 1.18710E-18
 -1       137 9.57574E-05-3.00990E-05-2.79162E-05 2.79219E-07-5.04731E-18-1.58418E-18
 -1       138 4.48280E-05-1.45795E-04 1.91148E-05-3.54642E-05 1.75594E-17 4.04818E-18
 -1       139 1.50152E-05-3.84549E-05-2.23665E-06-1.22163E-05 7.37935E-18 3.79513E-18
 -1       140 3.34125E-05 4.05994E-05-3.19765E-05 6.86223E-05 8.83032E-18 4.98987E-18
 -1       141 1.32040E-04 3.95124E-05-6.47947E-05 1.55063E-04 3.48131E-19-2.31918E-18
 -1       142 2.60209E-04-2.27179E-05-8.73805E-05 1.75555E-04-2.20821E-18-9.40207E-19
 -1       143 3.78588E-04-9.71583E-05-1.02375E-04 1.21974E-04 1.28225E-18 3.99101E-18
 -1       144 4.15564E-04-1.28758E-04-1.04165E-04 1.74744E-05 1.52519E-19 1.66463E-18
 -1       145 3.49368E-04-9.77111E-05-9.28131E-05-8.40833E-05 6.80856E-19-4.02171E-18
 -1       146 2.24690E-04-3.48363E-05-7.27867E-05-1.23546E-04 3.69963E-18-8.31702E-18
 -1       147 9.14769E-05 1.47497E-05-4.45935E-05-9.11703E-05 8.34878E-18-1.09775E-17
 -1       148 1.69592E-05 1.08661E-05-1.73666E-05-2.37290E-05 8.30346E-18-9.54648E-18
 -1       149 4.59369E-06-4.41814E-05 6.86639E-06 3.29985E-05 2.67789E-18-7.09602E-19
 -1       150 2.81135E-05-1.11488E-04 2.30962E-05 4.27819E-05 2.53813E-18-1.36584E-18
 -1       151 4.63992E-05-1.47402E-04 2.98755E-05 1.57888E-05 3.84288E-19 6.69950E-20
 -1       152 4.05772E-05-1.30900E-04 2.62578E-05-2.25397E-05-1.81074E-18-7.25140E-19
 -1       153 1.53787E-05-6.78339E-05 1.29113E-05-3.24262E-05-1.43614E-18-5.22831E-19
 -1       154 6.87983E-06-5.96206E-07-7.94490E-06 5.57989E-06-8.83032E-19-3.57871E-19
 -1       155 4.67738E-05 2.91796E-05-3.28068E-05 7.00734E-05 1.38702E-18 1.84611E-18
 -1       156 1.41443E-04 4.73247E-06-5.77460E-05 1.18936E-04 6.38663E-19-4.94667E-19
 -1       157 2.63719E-04-5.54129E-05-8.00305E-05 1.14354E-04-1.73917E-18-7.24510E-18
 -1       158 3.53584E-04-1.05362E-04-9.42068E-05 4.80931E-05-2.00102E-18-2.62580E-18
 -1       159 3.78820E-04-1.12262E-04-1.00396E-04-5.50670E-05-2.51939E-19 3.04815E-18
 -1       160 2.24290E-04 2.74020E-06-8.40291E-05-1.84955E-04 2.39710E-19 1.67162E-18
 -1       161 1.05470E-04 6.17368E-05-6.18835E-05-1.57373E-04-5.71027E-18 4.18773E-18
 -1       162 2.71854E-05 5.88797E-05-3.46908E-05-7.93945E-05-1.34195E-17 9.23266E-18
 -1       163 1.34537E-05-2.75073E-05-4.58854E-06 5.20067E-06-1.43708E-17 5.49936E-18
 -1       164 4.51999E-05-1.38356E-04 1.67311E-05 3.03505E-05 3.11539E-18 2.97552E-18
 -1       165 9.48762E-05-1.23493E-05-3.55715E-05-2.23440E-05-2.89054E-18 1.14138E-18
 -1       166 8.92545E-05-8.45747E-06-3.47890E-05-1.73855E-05-2.72428E-18-2.09171E-18
 -1       167 8.65507E-05-6.50525E-06-3.44169E-05-1.35776E-05-2.23594E-18-3.84807E-18
 -1       168 8.51890E-05-5.51294E-06-3.42308E-05-1.03669E-05-1.71466E-18-4.77858E-18
 -1       169 8.44446E-05-4.94368E-06-3.41407E-05-7.54226E-06-1.20793E-18-5.15042E-18
 -1       170 8.40146E-05-4.59696E-06-3.40977E-05-4.89984E-06-7.72145E-19-5.27486E-18
 -1       171 8.37947E-05-4.41205E-06-3.40792E-05-2.39329E-06-2.76181E-19-5.29994E-18
 -1       172 8.37298E-05-4.35620E-06-3.40743E-05 5.11627E-08 1.59463E-19-5.32072E-18
 -1       173 8.38047E-05-4.42060E-06-3.40800E-05 2.49775E-06 5.48127E-19-5.32012E-18
 -1       174 8.40363E-05-4.61627E-06-3.40991E-05 5.01118E-06 9.58552E-19-5.18341E-18
 -1       175 8.44711E-05-4.96989E-06-3.41416E-05 7.61952E-06 1.43235E-18-4.90721E-18
 -1       176 8.52488E-05-5.57214E-06-3.42319E-05 1.05074E-05 1.96917E-18-4.38491E-18
 -1       177 8.66508E-05-6.60923E-06-3.44187E-05 1.37728E-05 2.51426E-18-3.46415E-18
 -1       178 8.93929E-05-8.59883E-06-3.47930E-05 1.76240E-05 2.95069E-18-1.56127E-18
 -1       179 9.57883E-05-1.36165E-05-3.54289E-05 2.18864E-05 2.95787E-18 2.01064E-18
 -1       180 1.05615E-04-2.61049E-05-3.52664E-05 1.86599E-05 2.34406E-18 6.93339E-18
 -1       181 1.03409E-04-2.73052E-05-3.26136E-05-1.21234E-05-2.47985E-18 4.89477E-18
 -1       182 9.71219E-05-2.82941E-05-2.95330E-05-4.72737E-06-2.27161E-18 3.60789E-18
 -1       183 9.35237E-05-2.76412E-05-2.81874E-05-1.76478E-06-1.73777E-18 2.64960E-18
 -1       184 9.19923E-05-2.74117E-05-2.76420E-05-4.16038E-07-1.19057E-18 1.54489E-18
 -1       185 9.14202E-05-2.73378E-05-2.74457E-05 2.48464E-07-8.26039E-19 9.57649E-19
 -1       186 9.13824E-05-2.73778E-05-2.74220E-05 5.74750E-07-5.36809E-19 5.96262E-19
 -1       187 9.16303E-05-2.74818E-05-2.74882E-05 7.13941E-07-3.87859E-19 1.06338E-19
 -1       188 9.20184E-05-2.76154E-05-2.75995E-05 7.44962E-07-6.62274E-19-2.04468E-19
 -1       189 9.24594E-05-2.77572E-05-2.77290E-05 7.13570E-07-6.29243E-19-2.94976E-19
 -1       190 9.29012E-05-2.78941E-05-2.78603E-05 6.48100E-07-5.11616E-19-3.88258E-19
 -1       191 9.33138E-05-2.80191E-05-2.79839E-05 5.66619E-07-3.01465E-19-1.30957E-18
 -1       192 9.36817E-05-2.81287E-05-2.80948E-05 4.80658E-07-1.40497E-19-1.55926E-18
 -1       193 9.39983E-05-2.82217E-05-2.81907E-05 3.97401E-07-7.67560E-20-1.23158E-18
 -1       194 9.42635E-05-2.82986E-05-2.82714E-05 3.21103E-07-2.31377E-19-1.21370E-18
 -1       195 9.44803E-05-2.83608E-05-2.83376E-05 2.54072E-07-4.98842E-19-1.43619E-18
 -1       196 9.46544E-05-2.84101E-05-2.83910E-05 1.97369E-07-4.63127E-19-2.04834E-18
 -1       197 9.47923E-05-2.84485E-05-2.84335E-05 1.51339E-07-3.21118E-19-2.44761E-18
 -1       198 9.49012E-05-2.84784E-05-2.84673E-05 1.15995E-07-4.32129E-19-3.05599E-18
 -1       199 9.49888E-05-2.85019E-05-2.84946E-05 9.13082E-08-4.98663E-19-3.08101E-18
 -1       200 9.50631E-05-2.85213E-05-2.85180E-05 7.74309E-08 4.42978E-19-3.12346E-18
 -1       201 9.51323E-05-2.85391E-05-2.85399E-05 7.48443E-08 6.25626E-19-2.37816E-18
 -1       202 9.52056E-05-2.85577E-05-2.85631E-05 8.44593E-08-4.75571E-20-2.07406E-18
 -1       203 9.52926E-05-2.85801E-05-2.85907E-05 1.07655E-07 3.45345E-19-1.54834E-18
 -1       204 9.54046E-05-2.86094E-05-2.86259E-05 1.46241E-07 8.52767E-19-1.23806E-18
 -1       205 9.55536E-05-2.86492E-05-2.86725E-05 2.02309E-07 2.33202E-19-5.42218E-19
 -1       206 9.57535E-05-2.87037E-05-2.87346E-05 2.77928E-07-6.21403E-19-8.57227E-19
 -1       207 9.60188E-05-2.87775E-05-2.88165E-05 3.74607E-07-6.24438E-19-6.29533E-19
 -1       208 9.63644E-05-2.88754E-05-2.89225E-05 4.92417E-07 3.14555E-19-1.55076E-18
 -1       209 9.68034E-05-2.90025E-05-2.90562E-05 6.28685E-07 1.28513E-18-1.59496E-18
 -1       210 9.73451E-05-2.91628E-05-2.92198E-05 7.76105E-07-7.47574E-19-1.06151E-18
 -1       211 9.79901E-05-2.93590E-05-2.94126E-05 9.20242E-07-1.34868E-18-6.09131E-19
 -1       212 9.87249E-05-2.95903E-05-2.96292E-05 1.03648E-06-8.79796E-19-5.90716E-19
 -1       213 9.95141E-05-2.98501E-05-2.98575E-05 1.08684E-06-3.84646E-19-1.58754E-18
 -1       214 1.00291E-04-3.01231E-05-3.00753E-05 1.01778E-06 1.49396E-19-1.93482E-18
 -1       215 1.00949E-04-3.03812E-05-3.02487E-05 7.61072E-07-1.38961E-19-2.70794E-18
 -1       216 1.01333E-04-3.05791E-05-3.03311E-05 2.41291E-07 2.33224E-19-3.15539E-18
 -1       217 1.01246E-04-3.06509E-05-3.02651E-05-6.05005E-07 1.09309E-19-2.16792E-18
 -1       218 1.00465E-04-3.05107E-05-2.99909E-05-1.79400E-06 1.93368E-19-5.54394E-19
 -1       219 9.87857E-05-3.00617E-05-2.94621E-05-3.24352E-06 2.52376E-19-9.17839E-19
 -1       220 9.61036E-05-2.92224E-05-2.86683E-05-4.71919E-06-1.36884E-18-1.69618E-18
 -1       221 9.25183E-05-2.79728E-05-2.76608E-05-5.81169E-06-1.18195E-18-2.90277E-18
 -1       222 8.84343E-05-2.64170E-05-2.65702E-05-5.99650E-06 1.47145E-18-2.97152E-18
 -1       223 8.45910E-05-2.48294E-05-2.55977E-05-4.81583E-06 2.06594E-18-6.02542E-19
 -1       224 8.19388E-05-2.36330E-05-2.49721E-05-2.15372E-06 1.63847E-18 1.68848E-18
 -1       225 8.13360E-05-2.32770E-05-2.48699E-05 1.52084E-06 1.65246E-18 3.04613E-18
 -1       226 8.31466E-05-2.40465E-05-2.53220E-05 5.10231E-06-8.41335E-19 2.00427E-18
 -1       227 8.69464E-05-2.59227E-05-2.61517E-05 7.06607E-06-8.25177E-19 1.76682E-18
 -1       228 9.16400E-05-2.85109E-05-2.70504E-05 6.02945E-06 1.22505E-18 1.21147E-18
 -1       229 9.95151E-05-2.85557E-05-3.05907E-05 7.21034E-06 2.34861E-18 5.77846E-18
 -1       230 9.44287E-05-2.77907E-05-2.85277E-05 2.74422E-06 1.74915E-18 4.05626E-18
 -1       231 9.21161E-05-2.74087E-05-2.76868E-05 9.26574E-07 9.55212E-19 2.75454E-18
 -1       232 9.11712E-05-2.72444E-05-2.73706E-05 6.37996E-08 1.05298E-18 1.84813E-18
 -1       233 9.09647E-05-2.72397E-05-2.72974E-05-3.65796E-07 6.38706E-19 1.16353E-18
 -1       234 9.11533E-05-2.73273E-05-2.73473E-05-5.66838E-07 3.42485E-19 5.73938E-19
 -1       235 9.15421E-05-2.74618E-05-2.74594E-05-6.40057E-07 5.24999E-19 2.84722E-19
 -1       236 9.20160E-05-2.76144E-05-2.75988E-05-6.39385E-07 5.86347E-20 2.88841E-19
 -1       237 9.25067E-05-2.77671E-05-2.77446E-05-5.96804E-07 3.32715E-19-3.11618E-19
 -1       238 9.29742E-05-2.79097E-05-2.78844E-05-5.32411E-07 5.85770E-19-3.69167E-19
 -1       239 9.33969E-05-2.80369E-05-2.80114E-05-4.59063E-07 6.41215E-19-4.11918E-19
 -1       240 9.37647E-05-2.81463E-05-2.81223E-05-3.84895E-07 5.02862E-19-9.97805E-19
 -1       241 9.40753E-05-2.82380E-05-2.82163E-05-3.14874E-07 4.36826E-19-2.02214E-18
 -1       242 9.43311E-05-2.83128E-05-2.82939E-05-2.51835E-07 1.95437E-19-1.69875E-18
 -1       243 9.45372E-05-2.83725E-05-2.83566E-05-1.97205E-07-8.24371E-20-1.36417E-18
 -1       244 9.47001E-05-2.84193E-05-2.84063E-05-1.51540E-07 4.78777E-19-1.91274E-18
 -1       245 9.48275E-05-2.84555E-05-2.84453E-05-1.14919E-07 6.22931E-19-2.09610E-18
 -1       246 9.49270E-05-2.84834E-05-2.84760E-05-8.72442E-08-1.52819E-19-2.21438E-18
 -1       247 9.50069E-05-2.85055E-05-2.85007E-05-6.84785E-08-7.35057E-19-1.83673E-18
 -1       248 9.50755E-05-2.85240E-05-2.85220E-05-5.88312E-08-4.96696E-19-1.52357E-18
 -1       249 9.51417E-05-2.85417E-05-2.85427E-05-5.89233E-08 7.00335E-20-9.95755E-19
 -1       250 9.52157E-05-2.85614E-05-2.85659E-05-6.99428E-08 1.50741E-18-1.90537E-18
 -1       251 9.53090E-05-2.85864E-05-2.85950E-05-9.38139E-08-3.76267E-19-2.52648E-18
 -1       252 9.54356E-05-2.86207E-05-2.86344E-05-1.33399E-07-7.86631E-19-1.54519E-18
 -1       253 9.56128E-05-2.86691E-05-2.86894E-05-1.92758E-07-4.77879E-19-1.30002E-18
 -1       254 9.58622E-05-2.87377E-05-2.87666E-05-2.77501E-07 6.56813E-19-1.93410E-18
 -1       255 9.62117E-05-2.88344E-05-2.88746E-05-3.95267E-07 5.03413E-19-1.40281E-18
 -1       256 9.66969E-05-2.89691E-05-2.90244E-05-5.56381E-07-2.76891E-19-1.63060E-18
 -1       257 9.73640E-05-2.91547E-05-2.92302E-05-7.74702E-07-1.84116E-19-1.97418E-18
 -1       258 9.82724E-05-2.94077E-05-2.95106E-05-1.06867E-06-1.44692E-19-2.16719E-18
 -1       259 9.94986E-05-2.97495E-05-2.98891E-05-1.46231E-06-6.28273E-19-1.61607E-18
 -1       260 1.01139E-04-3.02073E-05-3.03958E-05-1.98572E-06 8.54408E-19-1.81848E-18
 -1       261 1.03313E-04-3.08151E-05-3.10671E-05-2.67330E-06 4.01806E-19-9.94049E-19
 -1       262 1.06156E-04-3.16150E-05-3.19447E-05-3.55646E-06-9.55059E-19-1.45839E-18
 -1       263 1.09807E-04-3.26561E-05-3.30679E-05-4.64298E-06 5.98081E-19-1.46469E-18
 -1       264 1.14365E-04-3.39916E-05-3.44569E-05-5.86859E-06 1.14952E-19-2.27200E-18
 -1       265 1.19793E-04-3.56694E-05-3.60748E-05-6.99782E-06-1.38490E-18-1.60685E-18
 -1       266 1.25749E-04-3.77059E-05-3.77607E-05-7.45119E-06-1.34114E-19-1.13031E-18
 -1       267 1.31319E-04-4.00142E-05-3.91386E-05-6.09642E-06-7.91228E-19-6.61367E-19
 -1       268 1.34697E-04-4.22049E-05-3.95876E-05-1.19444E-06-8.83349E-19 2.58643E-19
 -1       269 1.33038E-04-4.31274E-05-3.84127E-05 8.66007E-06-8.73767E-19 1.62256E-18
 -1       270 1.23268E-04-4.05818E-05-3.53523E-05 2.22206E-05-8.95148E-19 2.85522E-18
 -1       271 1.04627E-04-3.24552E-05-3.11230E-05 3.19438E-05 4.88129E-19 3.11369E-18
 -1       272 8.32004E-05-2.11808E-05-2.71413E-05 2.71353E-05-7.57195E-19 2.20035E-18
 -1       273 7.06125E-05-1.48685E-05-2.45526E-05 7.33203E-06 1.88851E-18 1.90560E-18
 -1       274 7.23763E-05-1.77044E-05-2.38183E-05-1.26150E-05 1.65341E-18 1.21261E-18
 -1       275 8.14578E-05-2.39778E-05-2.46465E-05-2.02973E-05 3.07499E-19 1.23516E-18
 -1       276 8.99837E-05-2.94138E-05-2.56282E-05-1.74538E-05-1.15947E-18-1.19405E-19
 -1       277 1.00687E-04-3.78429E-05-2.69527E-05-1.53913E-05-2.08839E-18-8.31019E-20
 -1       278 1.12064E-04-4.26236E-05-2.99856E-05 8.90955E-06-2.09965E-19-2.23101E-18
 -1       279 1.14044E-04-3.48814E-05-3.40204E-05 5.22951E-05-3.19726E-18-2.05151E-18
 -1       280 9.44328E-05-1.07562E-05-3.54428E-05 8.25818E-05-1.91294E-18-6.22972E-18
 -1       281 4.56253E-05 5.56676E-05-4.05144E-05-1.73636E-05-5.66972E-18 2.60611E-18
 -1       282 6.53988E-05 3.02397E-05-3.91586E-05-6.96424E-05-6.04834E-19 1.22367E-17
 -1       283 9.52690E-05-1.12938E-05-3.55212E-05-7.87357E-05 1.35642E-18 5.82902E-18
 -1       284 1.11524E-04-4.55222E-05-2.87363E-05-5.22100E-05 1.54848E-18-1.25861E-18
 -1       285 1.14157E-04-6.61136E-05-2.11481E-05-1.52319E-05 1.65437E-18-3.55489E-18
 -1       286 1.10062E-04-6.88885E-05-1.77927E-05 5.88938E-06-1.26261E-20-3.97290E-18
 -1       287 1.05877E-04-6.30551E-05-1.82794E-05 1.28062E-05 6.03617E-19-3.41004E-19
 -1       288 1.02435E-04-5.42209E-05-2.05701E-05 1.29818E-05 1.19220E-19 1.29157E-18
 -1       289 9.96751E-05-4.54022E-05-2.32058E-05 1.09554E-05-1.41285E-18-5.81862E-19
 -1       290 9.72931E-05-3.78078E-05-2.54604E-05 8.09766E-06 1.77705E-19-1.24786E-18
 -1       291 9.46837E-05-3.23030E-05-2.67369E-05 8.26903E-06-6.91308E-20-1.35157E-18
 -1       292 2.27212E-05-4.15022E-05 1.74758E-06 2.44133E-05 5.39507E-18 1.49755E-18
 -1       293 5.78776E-05-5.43653E-05-6.02278E-06 6.50329E-05 5.95888E-18-2.65471E-18
 -1       294 9.91426E-05-5.09131E-05-2.25375E-05 7.57697E-05 2.55126E-18 1.55833E-18
 -1       295 1.58064E-04-4.86949E-05-4.59180E-05 7.21276E-05 2.57752E-18-4.30250E-18
 -1       296 2.00361E-04-3.09068E-05-6.90720E-05 7.63406E-05-5.75665E-19-7.41577E-19
 -1       297 2.35071E-04-3.30317E-05-8.26086E-05 5.05838E-05-1.51164E-18-2.36174E-18
 -1       298 2.69673E-04-4.28249E-05-9.16260E-05 3.72271E-05 6.56027E-19-1.96808E-18
 -1       299 2.55066E-04-4.32198E-05-8.63348E-05 1.33658E-05 2.40430E-18-1.83827E-18
 -1       300 2.34084E-04-5.19749E-05-7.45596E-05-1.53581E-05 4.32625E-18-3.75617E-18
 -1       301 1.82598E-04-5.48066E-05-5.36816E-05-2.55014E-05 4.59177E-18-4.08948E-18
 -1       302 1.20450E-04-5.11435E-05-3.05571E-05-3.59923E-05 4.62946E-18-5.28337E-18
 -1       303 6.86401E-05-5.56237E-05-8.18639E-06-2.65423E-05 2.51061E-18-7.51212E-18
 -1       304 3.45977E-05-6.46406E-05 9.33226E-06-1.33264E-05 3.28014E-18-1.98714E-18
 -1       305 1.63372E-05-6.39179E-05 1.75937E-05-6.11050E-06 3.10469E-18-2.58451E-18
 -1       306 1.38609E-05-6.96513E-05 2.03615E-05 8.51760E-06 1.41269E-18-1.42662E-18
 -1       307 2.51380E-05-6.47998E-05 1.36711E-05 1.85797E-05-6.24052E-19-7.54918E-20
 -1       308 5.07432E-05-5.17962E-05-1.62345E-06 3.31389E-05-1.52974E-18-6.65318E-19
 -1       309 9.34949E-05-4.47348E-05-2.16097E-05 4.39267E-05-1.36118E-18 1.57527E-18
 -1       310 1.38377E-04-3.59917E-05-4.32558E-05 4.96195E-05 9.48677E-20-2.54470E-18
 -1       311 1.91502E-04-4.00269E-05-6.32150E-05 3.46001E-05 1.31467E-18-3.80043E-18
 -1       312 2.36018E-04-4.30876E-05-7.96464E-05 1.71647E-05-2.84000E-18 4.90856E-19
 -1       313 2.46727E-04-3.59533E-05-8.71448E-05-1.90241E-05-2.79330E-18 1.18860E-18
 -1       314 2.45466E-04-3.00375E-05-8.84699E-05-5.33194E-05 1.28495E-18 2.71321E-18
 -1       315 2.20546E-04-1.93918E-05-8.18581E-05-8.20925E-05 1.99794E-19 5.69630E-20
 -1       316 1.77197E-04-1.37458E-05-6.64586E-05-9.00028E-05-4.12844E-18-5.22619E-19
 -1       317 1.32703E-04-1.94107E-05-4.64543E-05-9.23158E-05-7.25399E-18 8.47880E-19
 -1       318 9.62379E-05-4.17608E-05-2.43921E-05-8.86263E-05-4.82428E-18 2.50849E-18
 -1       319 5.28891E-05-5.40062E-05-4.91321E-06-6.82053E-05 7.57247E-19 9.68339E-18
 -1       320 2.36323E-05-5.65743E-05 5.76987E-06-3.29885E-05 5.01274E-18 7.96994E-18
 -1       321 5.73713E-05 4.30997E-05-4.10504E-05 4.96437E-05-6.41929E-18-9.31313E-19
 -1       322 9.16532E-05-1.43965E-05-3.31733E-05-1.30552E-05-2.83493E-18-2.07295E-18
 -1       323 9.57155E-05-1.91123E-05-3.28931E-05-1.46243E-05-3.14297E-18-1.42864E-19
 -1       324 8.80039E-05-1.03745E-05-3.33231E-05-8.14599E-06-1.85316E-18-3.85229E-18
 -1       325 8.71834E-05-9.44962E-06-3.33624E-05-5.71263E-06-1.27063E-18-4.05860E-18
 -1       326 8.67220E-05-8.91952E-06-3.33887E-05-3.36425E-06-6.71135E-19-4.06399E-18
 -1       327 8.65160E-05-8.67947E-06-3.34020E-05-1.07169E-06-5.35579E-20-4.10226E-18
 -1       328 8.65247E-05-8.68901E-06-3.34017E-05 1.20239E-06 4.47637E-19-4.14235E-18
 -1       329 8.67496E-05-8.95040E-06-3.33877E-05 3.49709E-06 9.93826E-19-4.07969E-18
 -1       330 8.72238E-05-9.49547E-06-3.33609E-05 5.81046E-06 1.53228E-18-3.89646E-18
 -1       331 8.80658E-05-1.04490E-05-3.33199E-05 8.24996E-06 2.14680E-18-3.51067E-18
 -1       332 8.94801E-05-1.20314E-05-3.32598E-05 1.07606E-05 2.66151E-18-2.86001E-18
 -1       333 9.18921E-05-1.47359E-05-3.31495E-05 1.31449E-05 3.19906E-18-1.70330E-18
 -1       334 9.59001E-05-1.95904E-05-3.28086E-05 1.42749E-05 3.40298E-18 4.38340E-19
 -1       335 9.87920E-05-2.44516E-05-3.19453E-05 1.18497E-05 3.10665E-18 2.60212E-18
 -1       336 9.63520E-05-2.67893E-05-2.97817E-05 5.70377E-06 2.42052E-18 1.82967E-18
 -1       337 9.64476E-05-2.60309E-05-3.01350E-05-6.34231E-06-2.51862E-18 2.73039E-19
 -1       338 9.49324E-05-2.70322E-05-2.90747E-05-2.82577E-06-1.98349E-18 1.49716E-19
 -1       339 9.39578E-05-2.74299E-05-2.84973E-05-9.13697E-07-1.42508E-18-9.96190E-20
 -1       340 9.34404E-05-2.76430E-05-2.81922E-05 1.46829E-07-9.57160E-19-4.48124E-19
 -1       341 9.32505E-05-2.77968E-05-2.80488E-05 7.12094E-07-7.02670E-19-6.25823E-19
 -1       342 9.32696E-05-2.79272E-05-2.80029E-05 9.80067E-07-6.30189E-19-8.35958E-19
 -1       343 9.34105E-05-2.80429E-05-2.80147E-05 1.06757E-06-8.52627E-19-9.68902E-19
 -1       344 9.36136E-05-2.81450E-05-2.80584E-05 1.04713E-06-5.50508E-19-1.06786E-18
 -1       345 9.38395E-05-2.82331E-05-2.81177E-05 9.65385E-07-8.87002E-19-8.26839E-19
 -1       346 9.40637E-05-2.83075E-05-2.81820E-05 8.52770E-07-5.19593E-19-1.22561E-18
 -1       347 9.42719E-05-2.83685E-05-2.82451E-05 7.29033E-07-2.21607E-20-1.65546E-18
 -1       348 9.44567E-05-2.84175E-05-2.83032E-05 6.06722E-07-1.54111E-19-1.43756E-18
 -1       349 9.46154E-05-2.84559E-05-2.83547E-05 4.93500E-07-5.61062E-19-1.68907E-18
 -1       350 9.47484E-05-2.84851E-05-2.83991E-05 3.93775E-07-9.10462E-19-1.84856E-18
 -1       351 9.48582E-05-2.85067E-05-2.84368E-05 3.09890E-07-5.90381E-19-2.30148E-18
 -1       352 9.49481E-05-2.85223E-05-2.84686E-05 2.42995E-07-4.41892E-19-2.25860E-18
 -1       353 9.50228E-05-2.85332E-05-2.84958E-05 1.93701E-07-8.91308E-20-1.96596E-18
 -1       354 9.50870E-05-2.85408E-05-2.85199E-05 1.62566E-07 2.28848E-20-1.51397E-18
 -1       355 9.51461E-05-2.85462E-05-2.85428E-05 1.50439E-07 5.60200E-19-1.68881E-18
 -1       356 9.52062E-05-2.85510E-05-2.85664E-05 1.58695E-07 8.22336E-19-1.81641E-18
 -1       357 9.52736E-05-2.85564E-05-2.85928E-05 1.89361E-07 4.37334E-19-8.81012E-19
 -1       358 9.53558E-05-2.85643E-05-2.86245E-05 2.45113E-07 8.17624E-19-7.41275E-19
 -1       359 9.54609E-05-2.85769E-05-2.86640E-05 3.29119E-07 3.85419E-19-1.14141E-18
 -1       360 9.55980E-05-2.85968E-05-2.87140E-05 4.44641E-07-1.20457E-19-1.45411E-18
 -1       361 9.57769E-05-2.86278E-05-2.87772E-05 5.94333E-07-4.88882E-19-1.19209E-18
 -1       362 9.60084E-05-2.86745E-05-2.88562E-05 7.79078E-07-2.64655E-19-1.91030E-19
 -1       363 9.63028E-05-2.87430E-05-2.89530E-05 9.96235E-07 1.10509E-19-3.31388E-19
 -1       364 9.66699E-05-2.88411E-05-2.90682E-05 1.23712E-06 3.83388E-19-1.44865E-18
 -1       365 9.71166E-05-2.89785E-05-2.92009E-05 1.48361E-06-7.73744E-19-1.73480E-18
 -1       366 9.76449E-05-2.91664E-05-2.93472E-05 1.70395E-06-5.59893E-19-6.75025E-19
 -1       367 9.82481E-05-2.94171E-05-2.94991E-05 1.84804E-06-5.41134E-19 2.30550E-19
 -1       368 9.89068E-05-2.97410E-05-2.96439E-05 1.84345E-06-1.47141E-18-8.31825E-19
 -1       369 9.95818E-05-3.01424E-05-2.97631E-05 1.59417E-06-6.00909E-19-1.53855E-18
 -1       370 1.00207E-04-3.06095E-05-2.98334E-05 9.86342E-07 1.28674E-19-1.31102E-18
 -1       371 1.00680E-04-3.11007E-05-2.98283E-05-9.32077E-08 8.93588E-19-9.84727E-20
 -1       372 1.00854E-04-3.15243E-05-2.97237E-05-1.71786E-06 1.05765E-18 4.87640E-20
 -1       373 1.00539E-04-3.17214E-05-2.95049E-05-3.85644E-06 6.83034E-19-8.66337E-20
 -1       374 9.95173E-05-3.14658E-05-2.91751E-05-6.28820E-06-7.04932E-19 6.66250E-19
 -1       375 9.76120E-05-3.05120E-05-2.87623E-05-8.52752E-06-1.54261E-18 5.85086E-19
 -1       376 9.47986E-05-2.87152E-05-2.83181E-05-9.82371E-06-1.11424E-19 1.35502E-18
 -1       377 9.13589E-05-2.62141E-05-2.79058E-05-9.32679E-06 2.26817E-18-2.37826E-19
 -1       378 8.79707E-05-2.35719E-05-2.75773E-05-6.46662E-06 3.28798E-18 1.98830E-19
 -1       379 8.55902E-05-2.17115E-05-2.73514E-05-1.42479E-06 1.48962E-18 4.79273E-19
 -1       380 8.51098E-05-2.15992E-05-2.72001E-05 4.58393E-06-8.91017E-19 5.66327E-19
 -1       381 8.69091E-05-2.38090E-05-2.70351E-05 9.52945E-06-1.14415E-18 1.59783E-19
 -1       382 9.03004E-05-2.77351E-05-2.68384E-05 1.09484E-05-1.21566E-18-3.90620E-19
 -1       383 1.26650E-04-4.93978E-05-3.30682E-05-8.47728E-05-4.23516E-22 1.17576E-18
 -1       384 9.43527E-05-2.73124E-05-2.86925E-05 2.47220E-06 1.68224E-18 1.14545E-18
 -1       385 9.31810E-05-2.74634E-05-2.81439E-05 7.37952E-07 1.63238E-18 2.90259E-19
 -1       386 9.26317E-05-2.75445E-05-2.78849E-05-1.85906E-07 9.41835E-19-2.60268E-19
 -1       387 9.24924E-05-2.76382E-05-2.77905E-05-6.61633E-07 5.71321E-19-5.75317E-19
 -1       388 9.25974E-05-2.77482E-05-2.77909E-05-8.79896E-07 3.28964E-19-7.11740E-19
 -1       389 9.28352E-05-2.78654E-05-2.78439E-05-9.44874E-07 4.16974E-19-4.75842E-19
 -1       390 9.31337E-05-2.79805E-05-2.79231E-05-9.19500E-07 5.69509E-19-8.05160E-19
 -1       391 9.34473E-05-2.80871E-05-2.80122E-05-8.43515E-07 4.59862E-19-8.51700E-19
 -1       392 9.37488E-05-2.81817E-05-2.81010E-05-7.42541E-07 5.30969E-19-1.20720E-18
 -1       393 9.40228E-05-2.82629E-05-2.81836E-05-6.33082E-07 6.32743E-19-9.87310E-19
 -1       394 9.42621E-05-2.83305E-05-2.82572E-05-5.25530E-07 8.92089E-19-8.38965E-19
 -1       395 9.44650E-05-2.83855E-05-2.83205E-05-4.26150E-07 8.18799E-20-6.44198E-19
 -1       396 9.46329E-05-2.84292E-05-2.83737E-05-3.38460E-07 1.16580E-19-9.74236E-19
 -1       397 9.47692E-05-2.84631E-05-2.84175E-05-2.64223E-07 5.96971E-19-1.23263E-18
 -1       398 9.48790E-05-2.84891E-05-2.84533E-05-2.04185E-07 6.88441E-19-2.02416E-18
 -1       399 9.49677E-05-2.85088E-05-2.84827E-05-1.58634E-07 1.34393E-19-1.92477E-18
 -1       400 9.50414E-05-2.85239E-05-2.85077E-05-1.27831E-07-7.18665E-19-1.77652E-18
 -1       401 9.51068E-05-2.85363E-05-2.85303E-05-1.12354E-07-5.85091E-19-1.75220E-18
 -1       402 9.51711E-05-2.85477E-05-2.85528E-05-1.13387E-07-1.27659E-19-1.65045E-18
 -1       403 9.52425E-05-2.85600E-05-2.85779E-05-1.32992E-07 1.72356E-18-1.37648E-18
 -1       404 9.53302E-05-2.85755E-05-2.86087E-05-1.74388E-07 2.76178E-19-1.19711E-18
 -1       405 9.54455E-05-2.85967E-05-2.86488E-05-2.42267E-07-1.07292E-18-2.22801E-18
 -1       406 9.56019E-05-2.86266E-05-2.87027E-05-3.43194E-07-4.27020E-19-2.23686E-18
 -1       407 9.58161E-05-2.86689E-05-2.87760E-05-4.86114E-07 6.88343E-19-1.63143E-18
 -1       408 9.61086E-05-2.87281E-05-2.88754E-05-6.83031E-07 4.69429E-19-1.48643E-19
 -1       409 9.65051E-05-2.88095E-05-2.90098E-05-9.49886E-07-1.14432E-19-1.16083E-19
 -1       410 9.70374E-05-2.89197E-05-2.91898E-05-1.30765E-06 3.62088E-20 5.63715E-19
 -1       411 9.77444E-05-2.90667E-05-2.94287E-05-1.78353E-06-2.40087E-19 8.08043E-19
 -1       412 9.86739E-05-2.92602E-05-2.97426E-05-2.41194E-06-4.59478E-20-1.25955E-18
 -1       413 9.98821E-05-2.95130E-05-3.01504E-05-3.23434E-06 2.90483E-19-2.20411E-18
 -1       414 1.01434E-04-2.98429E-05-3.06726E-05-4.29561E-06-8.21205E-19-7.50558E-19
 -1       415 1.03402E-04-3.02778E-05-3.13285E-05-5.63254E-06 2.39465E-19-7.69383E-20
 -1       416 1.05859E-04-3.08679E-05-3.21291E-05-7.24488E-06 4.43281E-19-4.25699E-19
 -1       417 1.08873E-04-3.17097E-05-3.30644E-05-9.03290E-06-1.08325E-19-2.42145E-19
 -1       418 1.12500E-04-3.29895E-05-3.40812E-05-1.06768E-05-1.11517E-18 9.26158E-19
 -1       419 1.16783E-04-3.50396E-05-3.50567E-05-1.14358E-05-1.02298E-19-2.66561E-19
 -1       420 1.21715E-04-3.83282E-05-3.57804E-05-9.91220E-06-1.14637E-18-4.35173E-19
 -1       421 1.27152E-04-4.32179E-05-3.60126E-05-3.92980E-06-1.66075E-18-4.64690E-19
 -1       422 1.31937E-04-4.85709E-05-3.57733E-05 8.61313E-06-1.91405E-18 1.20941E-18
 -1       423 1.33553E-04-5.08442E-05-3.55769E-05 2.70204E-05-2.02937E-19 2.79127E-18
 -1       424 1.26574E-04-4.24402E-05-3.64116E-05 4.25250E-05 6.33462E-19 1.61598E-18
 -1       425 1.11862E-04-2.43208E-05-3.80668E-05 3.98546E-05 1.53631E-19 9.74204E-19
 -1       426 1.00176E-04-1.21474E-05-3.83171E-05 1.47699E-05 1.60216E-18-1.44577E-18
 -1       427 9.96484E-05-1.77200E-05-3.55814E-05-1.28040E-05 1.45398E-18 7.93250E-19
 -1       428 1.02618E-04-2.94129E-05-3.15736E-05-2.26637E-05 1.64444E-18 2.22781E-18
 -1       429 1.03532E-04-3.43783E-05-2.96847E-05-2.03073E-05-4.21306E-19 7.12904E-19
 -1       430 1.40792E-04-6.17188E-05-3.39339E-05 7.64627E-05-6.89908E-19-4.69664E-18
 -1       431 1.44972E-04-5.53161E-05-3.85267E-05 2.60008E-05-3.60234E-19-2.18910E-18
 -1       432 1.24193E-04-4.38164E-05-3.47124E-05-6.07034E-06 3.92481E-19-9.68794E-21
 -1       433 1.33909E-04-5.44585E-05-3.42026E-05-4.10360E-05-2.59907E-18-5.41222E-18
 -1       434 1.17743E-04-4.66441E-05-3.06110E-05-3.52295E-06-8.15527E-19-3.67329E-18
 -1       435 1.04568E-04-4.17586E-05-2.68957E-05 1.35627E-05-1.29553E-19-2.00236E-18
 -1       436 9.83989E-05-3.89681E-05-2.54377E-05 1.82820E-05-1.28333E-18 1.01699E-18
 -1       437 9.59219E-05-3.65469E-05-2.54415E-05 1.74918E-05-8.02633E-19-1.21870E-18
 -1       438 9.46834E-05-3.39440E-05-2.60535E-05 1.47333E-05-1.09045E-18-1.79513E-18
 -1       439 8.93367E-05-1.18547E-05-3.32805E-05-1.06817E-05-2.38746E-18-3.23629E-18
 -1       440 1.89922E-04-3.83194E-05-6.45228E-05 2.00720E-05-8.94731E-19-3.84066E-18
 -1       441 1.81945E-04-1.48286E-05-7.14733E-05 1.23220E-05-5.50783E-19-5.09141E-18
 -1       442 1.80312E-04-1.08247E-05-7.25116E-05 2.42273E-05-4.53374E-19-5.41009E-18
 -1       443 1.86497E-04-3.04145E-05-6.68321E-05 3.43773E-05 3.29824E-18-3.03270E-18
 -1       444 1.88021E-04-5.50497E-05-5.68962E-05 2.66999E-05 4.24152E-18-2.87144E-18
 -1       445 1.66221E-04-7.68626E-05-3.85442E-05-2.41645E-06 2.19530E-18-2.20345E-18
 -1       446 1.24669E-04-7.62327E-05-2.11466E-05-2.78202E-05-2.46275E-19-3.79280E-18
 -1       447 7.77337E-05-6.48160E-05-5.78063E-06-3.73928E-05 6.61850E-19-3.59089E-18
 -1       448 3.91959E-05-4.84668E-05 3.96008E-06-3.00867E-05 3.43366E-18-1.99910E-18
 -1       449 1.22665E-05-3.32030E-05 9.19456E-06 1.10437E-07 2.79288E-18-2.85768E-18
 -1       450 2.13076E-05-3.61379E-05 6.60340E-06 2.95251E-05 2.17433E-18-1.57485E-18
 -1       451 4.84071E-05-4.93014E-05 3.57099E-07 4.54170E-05 1.05138E-18-8.08599E-19
 -1       452 9.63394E-05-6.31330E-05-1.43022E-05 4.70557E-05-1.82101E-18-5.71747E-21
 -1       453 1.43116E-04-6.64760E-05-3.27860E-05 2.90863E-05-8.46292E-19-2.44888E-18
 -1       454 1.66647E-04-5.59658E-05-4.75598E-05 9.01467E-06 1.44395E-18-3.32058E-18
 -1       455 1.78272E-04-3.08897E-05-6.32700E-05-1.48513E-05-1.99773E-18-7.83823E-19
 -1       456 1.78865E-04-1.25396E-05-7.14969E-05-2.21887E-05-3.75596E-18 3.83282E-20
 -1       457 1.82746E-04-3.01913E-06-7.68826E-05-2.56845E-05 9.99499E-20 3.79577E-20
 -1       458 1.83942E-04-8.49645E-06-7.46356E-05-3.34608E-05 1.12592E-18 1.90244E-18
 -1       459 1.76369E-04-2.29829E-05-6.51098E-05-4.15012E-05-1.71434E-18 4.62056E-19
 -1       460 1.64300E-04-4.55645E-05-5.02309E-05-6.20721E-05-6.15576E-18-2.97774E-18
 -1       461 1.41391E-04-5.40217E-05-3.69639E-05-8.80765E-05-3.13932E-18 3.18061E-19
 -1       462 9.25690E-05-3.74063E-05-2.42592E-05-1.02125E-04 6.09017E-19 4.45211E-18
 -1       463 1.78328E-04-5.86305E-05-5.09212E-05 3.70034E-05 9.28719E-19-4.03167E-18
 -1       464 6.27173E-05-1.87395E-05-1.94764E-05 7.88866E-05 2.20589E-18-4.89246E-18
 -1       465 6.23023E-05 5.50278E-07-2.61688E-05-8.24125E-05 1.54467E-18 1.47871E-17
 -1       466 1.04303E-04-4.16639E-05-2.67653E-05 9.34163E-05 1.22185E-19-2.69653E-18
 -1       467 2.98136E-05-2.98668E-05 6.85588E-07-1.98911E-05 1.94558E-18-2.55497E-18
 -1       468 1.42194E-04-3.59471E-05-4.58018E-05-1.49517E-05-7.33266E-19 9.89440E-20
 -1       469 8.95300E-05-1.33949E-05-3.26483E-05-3.92113E-06-9.96995E-19-3.57354E-18
 -1       470 9.02363E-05-1.43558E-05-3.25407E-05-5.87969E-06-1.55907E-18-3.53243E-18
 -1       471 8.90309E-05-1.27142E-05-3.27250E-05 5.46198E-08 2.01986E-19-3.79260E-18
 -1       472 8.91670E-05-1.28981E-05-3.27048E-05 2.04359E-06 7.17825E-19-3.74635E-18
 -1       473 8.95633E-05-1.34358E-05-3.26453E-05 3.99432E-06 1.25063E-18-3.56652E-18
 -1       474 9.02899E-05-1.44231E-05-3.25355E-05 5.94508E-06 1.85103E-18-3.31370E-18
 -1       475 9.14492E-05-1.60135E-05-3.23535E-05 7.77488E-06 2.31236E-18-2.93676E-18
 -1       476 9.31678E-05-1.84402E-05-3.20483E-05 9.20818E-06 2.61860E-18-2.11098E-18
 -1       477 9.54105E-05-2.19863E-05-3.14740E-05 9.50457E-06 2.95316E-18-6.65258E-19
 -1       478 9.63517E-05-2.46111E-05-3.07329E-05 8.01973E-06 2.77981E-18 4.66046E-19
 -1       479 9.16612E-05-2.13389E-05-3.01603E-05 1.68393E-05-2.07402E-18-7.87360E-20
 -1       480 9.51379E-05-2.66137E-05-2.93574E-05 2.88354E-06 2.04817E-18-6.71126E-19
 -1       481 9.54811E-05-2.44211E-05-3.04440E-05-5.83331E-06-2.21924E-18-1.17258E-18
 -1       482 9.52798E-05-2.62298E-05-2.95861E-05-2.88925E-06-1.77356E-18-1.00151E-18
 -1       483 9.49253E-05-2.71623E-05-2.90375E-05-1.02103E-06-1.38328E-18-9.53399E-19
 -1       484 9.46501E-05-2.76941E-05-2.86938E-05 1.03385E-07-1.08175E-18-1.08097E-18
 -1       485 9.44947E-05-2.80211E-05-2.84882E-05 7.39279E-07-9.36750E-19-1.41612E-18
 -1       486 9.44404E-05-2.82334E-05-2.83744E-05 1.05745E-06-8.53367E-19-1.65305E-18
 -1       487 9.44566E-05-2.83753E-05-2.83207E-05 1.17268E-06-5.89138E-19-1.44268E-18
 -1       488 9.45161E-05-2.84706E-05-2.83055E-05 1.16238E-06-4.80041E-19-1.47094E-18
 -1       489 9.45979E-05-2.85336E-05-2.83136E-05 1.07892E-06-8.91334E-19-1.18252E-18
 -1       490 9.46879E-05-2.85737E-05-2.83350E-05 9.57546E-07-2.54926E-19-1.14328E-18
 -1       491 9.47766E-05-2.85973E-05-2.83629E-05 8.21602E-07 7.32237E-20-1.38084E-18
 -1       492 9.48588E-05-2.86091E-05-2.83931E-05 6.86186E-07-4.81599E-19-1.56540E-18
 -1       493 9.49319E-05-2.86126E-05-2.84228E-05 5.60716E-07-9.12144E-19-1.33914E-18
 -1       494 9.49952E-05-2.86103E-05-2.84509E-05 4.50816E-07-9.70218E-19-1.09117E-18
 -1       495 9.50493E-05-2.86038E-05-2.84768E-05 3.59712E-07-4.83758E-19-1.08451E-18
 -1       496 9.50955E-05-2.85943E-05-2.85007E-05 2.89281E-07-9.78009E-20-9.99773E-19
 -1       497 9.51361E-05-2.85824E-05-2.85231E-05 2.40820E-07 1.40560E-19-7.95500E-19
 -1       498 9.51734E-05-2.85684E-05-2.85450E-05 2.15620E-07 3.87440E-19-1.49947E-19
 -1       499 9.52103E-05-2.85526E-05-2.85676E-05 2.15359E-07 8.35410E-19-8.43297E-19
 -1       500 9.52503E-05-2.85350E-05-2.85922E-05 2.42351E-07 7.42707E-19-6.03344E-19
 -1       501 9.52971E-05-2.85158E-05-2.86204E-05 2.99654E-07 6.10293E-19-6.84965E-19
 -1       502 9.53551E-05-2.84956E-05-2.86538E-05 3.90982E-07 1.78189E-19-1.23935E-18
 -1       503 9.54295E-05-2.84759E-05-2.86941E-05 5.20399E-07 6.21648E-20-1.30244E-18
 -1       504 9.55263E-05-2.84592E-05-2.87427E-05 6.91692E-07-6.01118E-19-1.45053E-18
 -1       505 9.56528E-05-2.84497E-05-2.88009E-05 9.07303E-07 2.12510E-19-1.15135E-18
 -1       506 9.58176E-05-2.84547E-05-2.88693E-05 1.16668E-06 4.05106E-19-1.14265E-18
 -1       507 9.60309E-05-2.84850E-05-2.89477E-05 1.46389E-06-4.02474E-19-3.24453E-19
 -1       508 9.63051E-05-2.85567E-05-2.90345E-05 1.78427E-06-4.54862E-19-6.43889E-20
 -1       509 9.66547E-05-2.86922E-05-2.91263E-05 2.10014E-06-1.99135E-19 3.74289E-19
 -1       510 9.70964E-05-2.89210E-05-2.92178E-05 2.36568E-06-4.46465E-19-2.85045E-19
 -1       511 9.76479E-05-2.92789E-05-2.93013E-05 2.51142E-06-1.55972E-18-1.27147E-18
 -1       512 9.83252E-05-2.98034E-05-2.93675E-05 2.43995E-06-8.98321E-19-1.07718E-18
 -1       513 9.91352E-05-3.05233E-05-2.94071E-05 2.02534E-06 3.23550E-19-6.50406E-19
 -1       514 1.00061E-04-3.14369E-05-2.94136E-05 1.12141E-06 1.26017E-18 6.13216E-19
 -1       515 1.01038E-04-3.24770E-05-2.93878E-05-4.13496E-07 9.89335E-19 1.01291E-18
 -1       516 1.01917E-04-3.34639E-05-2.93423E-05-2.66390E-06 4.57431E-19-5.26113E-19
 -1       517 1.02429E-04-3.40625E-05-2.93053E-05-5.56698E-06-2.60016E-20-2.19568E-19
 -1       518 1.02184E-04-3.37883E-05-2.93162E-05-8.78944E-06-5.45060E-19 6.14555E-19
 -1       519 1.00752E-04-3.21266E-05-2.94114E-05-1.16125E-05-4.85676E-19 2.36101E-18
 -1       520 9.78944E-05-2.88286E-05-2.95947E-05-1.29344E-05-1.51138E-19 1.15910E-18
 -1       521 9.38942E-05-2.43290E-05-2.98036E-05-1.15667E-05 1.79224E-18-2.77853E-19
 -1       522 8.97639E-05-1.99785E-05-2.98946E-05-6.90298E-06 2.20504E-18-9.71959E-19
 -1       523 8.69374E-05-1.76567E-05-2.96811E-05 3.84939E-07 6.38944E-19-4.17310E-19
 -1       524 8.66340E-05-1.89797E-05-2.90065E-05 8.14246E-06-1.13053E-18-2.87507E-19
 -1       525 9.45353E-05-2.72986E-05-2.88073E-05 9.72626E-07 1.59766E-18-7.19301E-19
 -1       526 9.56430E-05-2.58748E-05-2.98820E-05 4.96042E-06 2.24858E-18-1.68022E-19
 -1       527 9.41556E-05-2.76894E-05-2.84821E-05-1.30556E-07 1.14749E-18-1.07519E-18
 -1       528 9.39806E-05-2.79361E-05-2.83035E-05-7.41729E-07 7.26354E-19-1.39223E-18
 -1       529 9.39523E-05-2.81081E-05-2.82186E-05-1.04047E-06 3.48178E-19-1.62883E-18
 -1       530 9.40173E-05-2.82350E-05-2.81926E-05-1.14382E-06 3.87767E-19-1.57398E-18
 -1       531 9.41348E-05-2.83307E-05-2.82022E-05-1.12804E-06 5.95515E-19-1.31850E-18
 -1       532 9.42759E-05-2.84030E-05-2.82318E-05-1.04358E-06 7.18368E-19-1.27515E-18
 -1       533 9.44216E-05-2.84570E-05-2.82711E-05-9.23961E-07 6.39442E-19-1.25685E-18
 -1       534 9.45604E-05-2.84964E-05-2.83137E-05-7.91168E-07 4.83355E-19-1.15397E-18
 -1       535 9.46859E-05-2.85244E-05-2.83555E-05-6.59302E-07 1.86004E-19-7.34489E-19
 -1       536 9.47953E-05-2.85433E-05-2.83942E-05-5.37058E-07-1.04078E-19-7.35952E-19
 -1       537 9.48884E-05-2.85551E-05-2.84289E-05-4.29539E-07 7.39427E-19-6.90331E-19
 -1       538 9.49665E-05-2.85616E-05-2.84596E-05-3.39565E-07 1.38355E-18-1.06636E-18
 -1       539 9.50321E-05-2.85639E-05-2.84866E-05-2.68671E-07 5.05416E-19-6.60691E-19
 -1       540 9.50881E-05-2.85630E-05-2.85109E-05-2.17860E-07-5.40587E-19-1.06687E-18
 -1       541 9.51384E-05-2.85597E-05-2.85338E-05-1.88199E-07-7.48636E-19-1.27363E-18
 -1       542 9.51871E-05-2.85545E-05-2.85568E-05-1.81287E-07-1.50314E-19-1.34418E-18
 -1       543 9.52390E-05-2.85478E-05-2.85818E-05-1.99661E-07 4.54648E-19-1.74585E-18
 -1       544 9.52995E-05-2.85398E-05-2.86111E-05-2.47176E-07 6.84640E-19-1.00300E-18
 -1       545 9.53749E-05-2.85307E-05-2.86471E-05-3.29388E-07 1.69224E-19-5.09373E-19
 -1       546 9.54723E-05-2.85205E-05-2.86931E-05-4.53991E-07-2.36795E-20-1.96774E-18
 -1       547 9.56001E-05-2.85087E-05-2.87527E-05-6.31325E-07 4.75635E-20-2.49192E-18
 -1       548 9.57678E-05-2.84947E-05-2.88303E-05-8.75005E-07-2.40873E-19-1.60585E-18
 -1       549 9.59861E-05-2.84772E-05-2.89310E-05-1.20268E-06-1.46753E-19-4.92594E-19
 -1       550 9.62664E-05-2.84536E-05-2.90608E-05-1.63695E-06-3.55530E-19 4.95079E-19
 -1       551 9.66203E-05-2.84203E-05-2.92261E-05-2.20623E-06-7.25779E-19 1.71944E-19
 -1       552 9.70586E-05-2.83721E-05-2.94338E-05-2.94548E-06 1.55537E-18-4.38611E-20
 -1       553 9.75898E-05-2.83031E-05-2.96901E-05-3.89586E-06 1.23082E-19 2.23055E-19
 -1       554 9.82188E-05-2.82101E-05-2.99983E-05-5.10200E-06-8.02193E-19 7.39295E-19
 -1       555 9.89472E-05-2.81014E-05-3.03560E-05-6.60421E-06-9.74706E-19 1.44337E-18
 -1       556 9.97811E-05-2.80172E-05-3.07488E-05-8.42033E-06 4.82590E-20 1.78149E-18
 -1       557 1.00755E-04-2.80748E-05-3.11419E-05-1.05093E-05 9.09638E-20 2.05303E-18
 -1       558 1.01992E-04-2.85520E-05-3.14710E-05-1.27044E-05-2.35074E-19 1.29390E-18
 -1       559 1.03838E-04-3.00266E-05-3.16378E-05-1.45989E-05 1.77122E-19 4.78064E-19
 -1       560 1.07064E-04-3.35126E-05-3.15408E-05-1.53283E-05-3.33984E-19 1.58809E-18
 -1       561 1.13002E-04-4.03577E-05-3.11547E-05-1.34716E-05-1.14592E-18 1.29372E-18
 -1       562 1.23599E-04-5.16482E-05-3.07919E-05-6.21282E-06-1.43626E-18-1.10418E-18
 -1       563 1.37702E-04-6.30974E-05-3.20550E-05 9.04958E-06-1.73365E-18-2.03025E-18
 -1       564 1.53859E-04-6.70442E-05-3.74620E-05 3.16607E-05 9.66250E-19-7.36204E-19
 -1       565 1.47800E-04-4.20868E-05-4.59410E-05 4.92725E-05 2.42813E-18-5.32043E-19
 -1       566 1.34848E-04-1.34800E-05-5.29397E-05 3.48827E-05 5.82123E-19-2.85500E-18
 -1       567 1.33222E-04-9.82479E-06-5.35880E-05 2.36974E-06-2.82697E-20-1.14826E-18
 -1       568 1.37949E-04-3.15406E-05-4.62124E-05-1.33474E-05 9.88540E-19-7.64288E-19
 -1       569 1.55891E-04-5.00414E-05-4.53409E-05-5.08809E-05-3.71948E-18-5.44388E-18
 -1       570 9.68927E-05-1.85441E-05-3.36536E-05 1.50980E-05-1.23663E-18-4.74411E-19
 -1       571 9.45864E-05-2.06881E-05-3.16908E-05-9.56604E-06-2.68478E-18-1.62026E-18
 -1       572 1.11828E-04-2.00250E-05-3.96818E-05 7.04701E-06 6.68296E-19-5.37591E-18
 -1       573 9.03628E-05-2.41174E-05-2.83788E-05 1.57801E-05-1.94793E-18-1.79275E-18
 -1       574 8.58222E-05-5.63496E-05-1.21694E-05 4.91535E-05 2.55539E-19-1.98867E-18
 -1       575 1.17982E-04-7.39080E-05-1.85393E-05-2.83863E-05-1.58882E-18-3.87578E-18
 -1       576 8.91468E-05-1.28729E-05-3.27068E-05-1.93519E-06-2.91155E-19-3.59024E-18
 -1       577 1.50990E-04-2.55136E-05-5.46417E-05-6.29934E-06-2.95085E-19-2.91305E-18
 -1       578 1.49981E-04-8.18264E-05-2.92549E-05-5.30225E-06 4.06046E-20-2.30557E-18
 -1       579 2.67207E-05-1.93554E-05-2.26249E-06 1.48486E-05 2.31587E-18-1.41793E-18
 -1       580 1.66138E-04-7.02518E-05-4.14869E-05 2.91554E-05 1.54086E-18-3.65389E-19
 -1       581 7.11856E-05-5.05740E-05-8.24720E-06-3.66367E-05 7.79111E-19-1.87830E-19
 -1       582 1.29335E-04-7.19941E-05-2.44387E-05 3.38723E-05-1.82731E-18-9.84742E-19
 -1       583 4.67792E-05-3.45337E-05-4.56199E-06 4.12060E-05 2.55470E-18-1.99423E-18
 -1       584 1.47800E-04 3.71895E-06-6.55679E-05-1.51093E-05 5.53748E-20 4.82809E-20
 -1       585 1.55269E-04-6.73865E-05-3.78295E-05 4.28017E-06 1.49885E-19-1.97184E-18
 -1       586 1.59733E-04-4.50805E-05-4.96146E-05-1.93620E-05 6.73391E-19-1.14381E-18
 -1       587 1.49387E-04-1.41883E-05-5.86213E-05-2.92472E-05-2.88118E-18-6.11664E-19
 -1       588 1.37007E-04 6.78532E-06-6.24787E-05-2.31843E-05-1.88052E-18-2.47467E-18
 -1       589 1.43715E-04-1.18733E-05-5.71398E-05-9.95654E-06-3.07049E-21 1.29395E-18
 -1       590 1.54674E-04-4.79402E-05-4.60967E-05 2.21157E-06 5.70927E-19-2.40790E-18
 -1       591 9.13398E-05-1.58490E-05-3.23765E-05-7.75998E-06-2.05048E-18-3.28752E-18
 -1       592 8.88678E-05-2.35551E-05-2.79790E-05 1.29089E-05-2.25281E-18-5.81177E-21
 -1       593 1.41675E-04-7.06227E-05-3.04551E-05 1.35584E-05-1.18102E-18-1.38946E-18
 -1       594 9.15421E-05-1.68423E-05-3.20199E-05 2.43724E-06 9.69396E-19-3.28751E-18
 -1       595 9.12822E-05-1.64396E-05-3.20808E-05 8.40276E-07 5.53430E-19-3.35451E-18
 -1       596 9.28758E-05-1.89835E-05-3.16745E-05 5.25988E-06 1.78713E-18-2.73811E-18
 -1       597 9.40313E-05-2.09484E-05-3.13239E-05 6.18403E-06 2.20836E-18-2.31857E-18
 -1       598 9.49874E-05-2.81148E-05-2.86595E-05-7.49966E-07 7.55272E-19-1.12931E-18
 -1       599 9.52379E-05-2.70458E-05-2.92233E-05 9.15981E-07 1.48792E-18-1.15441E-18
 -1       600 9.54340E-05-2.60389E-05-2.97343E-05 2.60441E-06 1.98477E-18-1.34066E-18
 -1       601 1.33280E-04-7.14143E-05-2.63864E-05-1.01314E-05-1.86644E-18-1.89198E-18
 -1       602 9.54169E-05-2.57062E-05-2.98750E-05-2.42838E-06-1.57007E-18-1.74523E-18
 -1       603 9.54756E-05-2.69436E-05-2.93702E-05-8.54966E-07-1.20586E-18-1.58444E-18
 -1       604 9.54205E-05-2.77047E-05-2.90209E-05 1.46779E-07-1.05142E-18-1.57554E-18
 -1       605 9.53440E-05-2.81772E-05-2.87858E-05 7.34901E-07-1.13470E-18-1.89103E-18
 -1       606 9.52792E-05-2.84692E-05-2.86329E-05 1.03631E-06-6.32187E-19-2.13903E-18
 -1       607 9.52335E-05-2.86443E-05-2.85383E-05 1.14720E-06-2.28613E-19-1.59708E-18
 -1       608 9.52053E-05-2.87425E-05-2.84842E-05 1.13734E-06-3.91933E-19-9.20164E-19
 -1       609 9.51906E-05-2.87899E-05-2.84575E-05 1.05613E-06-3.60878E-19-3.70788E-19
 -1       610 9.51851E-05-2.88041E-05-2.84491E-05 9.37704E-07-7.14016E-19-3.54876E-19
 -1       611 9.51856E-05-2.87971E-05-2.84523E-05 8.05124E-07-2.67646E-19-1.14960E-18
 -1       612 9.51896E-05-2.87771E-05-2.84626E-05 6.73507E-07-8.83863E-20-1.01873E-18
 -1       613 9.51956E-05-2.87497E-05-2.84769E-05 5.52440E-07-6.02739E-19-1.94823E-19
 -1       614 9.52024E-05-2.87182E-05-2.84933E-05 4.47808E-07-9.33025E-19-9.81883E-20
 -1       615 9.52096E-05-2.86844E-05-2.85108E-05 3.63195E-07-6.30123E-19-6.48342E-19
 -1       616 9.52169E-05-2.86490E-05-2.85291E-05 3.00936E-07 1.51769E-19-7.60768E-19
 -1       617 9.52243E-05-2.86119E-05-2.85482E-05 2.62889E-07 7.68528E-19-9.94551E-19
 -1       618 9.52321E-05-2.85724E-05-2.85684E-05 2.51000E-07 1.05838E-19-7.92351E-19
 -1       619 9.52406E-05-2.85293E-05-2.85906E-05 2.67690E-07 8.36849E-19-1.00685E-18
 -1       620 9.52506E-05-2.84814E-05-2.86153E-05 3.16086E-07 6.98774E-19-9.83045E-19
 -1       621 9.52631E-05-2.84279E-05-2.86436E-05 4.00078E-07 1.01929E-19-6.26803E-19
 -1       622 9.52795E-05-2.83685E-05-2.86761E-05 5.24173E-07-5.97886E-19-8.18263E-19
 -1       623 9.53025E-05-2.83041E-05-2.87135E-05 6.93095E-07-6.89106E-19-9.88044E-19
 -1       624 9.53357E-05-2.82381E-05-2.87560E-05 9.11022E-07 1.24126E-19 1.02806E-20
 -1       625 9.53852E-05-2.81772E-05-2.88032E-05 1.18036E-06 5.85808E-19 4.14757E-19
 -1       626 9.54601E-05-2.81334E-05-2.88541E-05 1.49991E-06 4.29773E-21 8.37631E-20
 -1       627 9.55748E-05-2.81260E-05-2.89065E-05 1.86219E-06-3.44657E-19 3.57101E-19
 -1       628 9.57504E-05-2.81840E-05-2.89568E-05 2.24988E-06 3.34357E-20-1.49460E-19
 -1       629 9.60173E-05-2.83488E-05-2.90007E-05 2.63118E-06-7.22453E-19-7.14288E-19
 -1       630 9.64178E-05-2.86751E-05-2.90326E-05 2.95405E-06-1.07181E-18-4.02029E-19
 -1       631 9.70069E-05-2.92294E-05-2.90477E-05 3.13984E-06-1.37744E-18 4.48595E-19
 -1       632 9.78491E-05-3.00819E-05-2.90435E-05 3.07694E-06-4.03801E-19 5.35658E-19
 -1       633 9.90074E-05-3.12866E-05-2.90241E-05 2.61692E-06 1.76908E-19-4.52958E-19
 -1       634 1.00516E-04-3.28424E-05-2.90046E-05 1.57773E-06 1.12260E-18-2.31604E-18
 -1       635 1.02332E-04-3.46288E-05-2.90177E-05-2.35764E-07 3.44564E-19-2.61905E-18
 -1       636 1.04253E-04-3.63172E-05-2.91179E-05-2.97294E-06 1.05432E-20-1.34242E-18
 -1       637 1.05837E-04-3.72958E-05-2.93776E-05-6.61268E-06 7.61186E-19-9.96684E-19
 -1       638 1.06374E-04-3.66891E-05-2.98667E-05-1.07663E-05 5.50752E-19-1.48191E-18
 -1       639 1.05028E-04-3.36026E-05-3.06115E-05-1.44452E-05 1.42996E-19 3.33395E-19
 -1       640 1.01320E-04-2.77676E-05-3.15207E-05-1.59975E-05 6.51508E-19 1.76163E-18
 -1       641 9.58193E-05-2.03682E-05-3.23343E-05-1.36452E-05 6.50739E-19 1.33218E-19
 -1       642 9.03628E-05-1.42139E-05-3.26336E-05-6.82465E-06-1.23977E-19-2.09727E-18
 -1       643 8.71559E-05-1.24081E-05-3.20346E-05 2.94817E-06-1.65621E-18-3.31279E-18
 -1       644 9.50973E-05-2.77078E-05-2.88804E-05-1.40437E-07 1.10920E-18-1.19860E-18
 -1       645 9.49259E-05-2.83700E-05-2.85239E-05-1.05909E-06 2.75547E-19-1.09569E-18
 -1       646 9.49052E-05-2.85291E-05-2.84470E-05-1.17150E-06 1.22297E-19-1.29338E-18
 -1       647 9.49133E-05-2.86250E-05-2.84094E-05-1.16044E-06 4.78938E-19-1.21239E-18
 -1       648 9.49389E-05-2.86785E-05-2.83975E-05-1.07681E-06 5.84454E-19-7.63059E-19
 -1       649 9.49735E-05-2.87036E-05-2.84016E-05-9.55459E-07 5.61801E-19-6.38111E-19
 -1       650 9.50113E-05-2.87099E-05-2.84151E-05-8.19691E-07 2.90123E-19-2.94636E-19
 -1       651 9.50487E-05-2.87041E-05-2.84336E-05-6.84692E-07 1.43222E-19-5.24863E-19
 -1       652 9.50835E-05-2.86906E-05-2.84542E-05-5.60023E-07-1.07261E-19-9.52994E-19
 -1       653 9.51149E-05-2.86725E-05-2.84754E-05-4.51483E-07 8.82212E-19-6.09791E-19
 -1       654 9.51430E-05-2.86515E-05-2.84964E-05-3.62518E-07 7.33433E-19-4.66951E-19
 -1       655 9.51683E-05-2.86286E-05-2.85171E-05-2.95296E-07 1.07549E-19 1.44155E-19
 -1       656 9.51919E-05-2.86038E-05-2.85378E-05-2.51538E-07-4.23927E-19 2.68755E-19
 -1       657 9.52150E-05-2.85767E-05-2.85593E-05-2.33162E-07-1.90227E-19-3.10970E-19
 -1       658 9.52392E-05-2.85462E-05-2.85827E-05-2.42794E-07 6.16248E-19-5.81580E-19
 -1       659 9.52662E-05-2.85110E-05-2.86093E-05-2.84212E-07 4.51072E-19-7.28467E-19
 -1       660 9.52980E-05-2.84689E-05-2.86410E-05-3.62740E-07 5.34355E-19-1.19368E-18
 -1       661 9.53362E-05-2.84171E-05-2.86795E-05-4.85636E-07 5.86826E-20-7.17171E-19
 -1       662 9.53825E-05-2.83522E-05-2.87271E-05-6.62484E-07 5.28989E-19-4.40471E-19
 -1       663 9.54376E-05-2.82692E-05-2.87862E-05-9.05613E-07-8.40951E-19-5.15047E-19
 -1       664 9.55010E-05-2.81615E-05-2.88594E-05-1.23054E-06-1.04147E-18-2.92166E-19
 -1       665 9.55697E-05-2.80205E-05-2.89491E-05-1.65639E-06-1.17505E-18 3.08052E-19
 -1       666 9.56366E-05-2.78343E-05-2.90574E-05-2.20627E-06-2.69529E-19 2.41640E-19
 -1       667 9.56882E-05-2.75876E-05-2.91850E-05-2.90731E-06 1.16701E-19-5.33868E-19
 -1       668 9.57021E-05-2.72624E-05-2.93300E-05-3.79011E-06 5.36791E-19 7.73841E-19
 -1       669 9.56444E-05-2.68399E-05-2.94860E-05-4.88709E-06-5.25785E-19 1.35340E-18
 -1       670 9.54694E-05-2.63089E-05-2.96381E-05-6.22883E-06-1.28443E-18-5.43502E-19
 -1       671 9.51257E-05-2.56846E-05-2.97579E-05-7.83774E-06-4.88750E-19 4.54255E-20
 -1       672 9.45784E-05-2.50482E-05-2.97959E-05-9.71903E-06 1.02607E-18-6.97747E-19
 -1       673 9.38674E-05-2.46244E-05-2.96730E-05-1.18501E-05 3.94374E-19-1.49260E-18
 -1       674 9.32300E-05-2.49144E-05-2.92752E-05-1.41692E-05-4.77598E-19-9.10594E-19
 -1       675 9.33063E-05-2.68903E-05-2.84627E-05-1.66086E-05-8.56368E-19 1.16602E-19
 -1       676 9.58595E-05-3.22458E-05-2.72422E-05-1.84780E-05-6.74856E-19 7.84098E-19
 -1       677 1.02738E-04-4.31334E-05-2.54112E-05-2.00465E-05 5.27541E-19-5.93717E-19
 -1       678 1.22838E-04-8.92067E-07-5.28520E-05-2.65614E-05-2.37249E-18-4.31067E-18
 -1       679 9.07473E-05-6.37864E-06-3.62294E-05 8.32437E-06-6.39535E-19-6.14251E-19
 -1       680 9.99524E-05 1.98141E-07-4.33201E-05 4.86484E-06 3.13164E-19-4.00114E-18
 -1       681 8.85198E-05-1.68665E-05-3.07031E-05 1.24627E-05-1.11618E-18-1.37473E-18
 -1       682 1.01929E-04-5.74984E-05-1.86632E-05-2.86912E-05 1.49316E-19-1.88788E-18
 -1       683 3.75740E-05-1.86753E-05-7.44939E-06-8.17208E-06 4.69071E-19-1.52927E-18
 -1       684 1.15095E-04 8.82436E-06-5.40417E-05-8.67356E-06-1.48803E-18-2.73409E-18
 -1       685 7.58707E-05-4.20751E-05-1.40711E-05 4.23551E-05 2.18836E-18-4.01883E-18
 -1       686 5.97473E-05-3.22086E-05-1.13314E-05-2.76838E-05 6.17540E-19-1.51195E-19
 -1       687 9.50105E-05-2.36259E-05-3.05903E-05-4.71582E-06-1.77662E-18-1.87971E-18
 -1       688 4.75465E-05-2.28759E-05-1.00391E-05 2.84578E-05 1.80348E-18-1.55261E-18
 -1       689 9.20684E-05-1.76696E-05-3.18913E-05 3.94514E-06 1.33095E-18-2.98725E-18
 -1       690 1.48556E-04-5.51982E-05-4.02329E-05-1.55870E-05-5.07346E-19-3.52413E-18
 -1       691 1.35514E-04-2.78087E-05-4.65977E-05-3.02450E-05-1.49276E-18-3.52086E-18
 -1       692 9.20147E-05-1.75969E-05-3.18997E-05-3.88537E-06-1.05620E-18-3.01788E-18
 -1       693 1.12898E-04-6.38172E-05-2.07850E-05 3.76418E-05-5.47871E-19-8.67640E-19
 -1       694 9.12708E-05-1.64263E-05-3.20821E-05-7.76789E-07-1.03828E-19-3.29214E-18
 -1       695 9.52957E-05-2.37290E-05-3.06599E-05 6.15106E-06 2.43709E-18-1.16071E-18
 -1       696 4.36857E-05-1.55582E-05-1.16024E-05 9.51123E-06 5.26775E-19-4.13696E-19
 -1       697 1.06615E-04 6.25701E-06-4.87749E-05-1.44142E-05-3.12476E-18-3.10777E-18
 -1       698 9.27962E-05-1.88711E-05-3.16904E-05-5.22535E-06-1.63090E-18-3.13345E-18
 -1       699 9.15095E-05-1.68002E-05-3.20245E-05-2.36843E-06-5.50168E-19-2.94137E-18
 -1       700 9.41654E-05-2.12968E-05-3.12324E-05-6.14989E-06-1.89231E-18-2.49455E-18
 -1       701 1.26331E-04-6.47122E-05-2.63463E-05 2.09882E-05-4.93145E-19-8.54693E-20
 -1       702 9.46684E-05-2.27712E-05-3.08192E-05 3.89274E-06 1.71201E-18-2.16262E-18
 -1       703 9.56268E-05-2.85881E-05-2.87309E-05-1.00129E-06 3.37274E-19-1.60608E-18
 -1       704 9.55638E-05-2.54976E-05-3.00279E-05-1.79332E-06-1.14567E-18-2.03891E-18
 -1       705 9.56979E-05-2.69194E-05-2.94768E-05 6.75420E-07 1.08481E-18-1.30018E-18
 -1       706 9.58629E-05-2.68816E-05-2.95636E-05-5.71994E-07-1.03733E-18-2.01991E-18
 -1       707 9.59550E-05-2.77707E-05-2.92219E-05 2.30179E-07-1.08084E-18-1.78661E-18
 -1       708 9.59431E-05-2.83333E-05-2.89757E-05 7.07605E-07-9.58974E-19-1.59203E-18
 -1       709 9.58820E-05-2.86762E-05-2.88025E-05 9.51576E-07-7.04538E-20-1.45506E-18
 -1       710 9.58010E-05-2.88715E-05-2.86841E-05 1.03661E-06 3.14194E-19-1.46591E-18
 -1       711 9.57158E-05-2.89682E-05-2.86061E-05 1.01966E-06 1.84168E-21-8.52892E-19
 -1       712 9.56346E-05-2.90004E-05-2.85575E-05 9.42360E-07-3.21968E-19-8.45427E-19
 -1       713 9.55612E-05-2.89917E-05-2.85298E-05 8.34098E-07-6.74453E-19-1.60271E-19
 -1       714 9.54973E-05-2.89581E-05-2.85168E-05 7.14957E-07-4.07960E-19-2.49097E-19
 -1       715 9.54430E-05-2.89106E-05-2.85139E-05 5.98249E-07-3.78680E-19-3.47388E-19
 -1       716 9.53977E-05-2.88560E-05-2.85179E-05 4.92503E-07-7.11132E-19-1.03959E-18
 -1       717 9.53602E-05-2.87981E-05-2.85266E-05 4.03087E-07-1.15572E-18-5.55027E-19
 -1       718 9.53289E-05-2.87386E-05-2.85387E-05 3.33466E-07-7.20410E-19-8.69199E-19
 -1       719 9.53020E-05-2.86776E-05-2.85533E-05 2.86130E-07-9.99714E-20-1.03980E-18
 -1       720 9.52778E-05-2.86141E-05-2.85702E-05 2.63274E-07 7.25803E-19-1.08307E-18
 -1       721 9.52542E-05-2.85460E-05-2.85892E-05 2.67310E-07 4.73596E-19-7.61739E-19
 -1       722 9.52292E-05-2.84711E-05-2.86106E-05 3.01216E-07 1.02836E-18-1.29755E-19
 -1       723 9.52008E-05-2.83869E-05-2.86345E-05 3.68737E-07 7.33166E-19 1.68519E-19
 -1       724 9.51674E-05-2.82915E-05-2.86611E-05 4.74431E-07-7.65373E-19 2.54840E-19
 -1       725 9.51279E-05-2.81839E-05-2.86903E-05 6.23525E-07-1.11615E-18 1.64451E-20
 -1       726 9.50825E-05-2.80656E-05-2.87215E-05 8.21543E-07 9.49964E-20 6.11266E-20
 -1       727 9.50335E-05-2.79414E-05-2.87537E-05 1.07362E-06 4.59429E-19-1.56563E-19
 -1       728 9.49871E-05-2.78219E-05-2.87851E-05 1.38341E-06 2.10061E-19-5.07095E-19
 -1       729 9.49554E-05-2.77257E-05-2.88126E-05 1.75140E-06 7.20428E-20 8.01428E-20
 -1       730 9.49594E-05-2.76832E-05-2.88326E-05 2.17257E-06-9.77658E-19 5.73446E-20
 -1       731 9.50333E-05-2.77395E-05-2.88401E-05 2.63304E-06-1.41264E-18-1.08442E-18
 -1       732 9.52290E-05-2.79587E-05-2.88301E-05 3.10541E-06-9.73452E-19-2.81336E-18
 -1       733 9.56210E-05-2.84251E-05-2.87983E-05 3.54248E-06-4.37272E-19-2.58173E-18
 -1       734 9.63094E-05-2.92408E-05-2.87437E-05 3.86861E-06-3.58149E-19-8.03204E-19
 -1       735 9.74173E-05-3.05144E-05-2.86728E-05 3.96805E-06-9.97270E-19-4.14888E-19
 -1       736 9.90757E-05-3.23310E-05-2.86053E-05 3.67082E-06-3.66629E-19 4.39229E-19
 -1       737 1.01384E-04-3.46941E-05-2.85822E-05 2.73935E-06-5.18549E-19-1.01705E-18
 -1       738 1.04330E-04-3.74231E-05-2.86749E-05 8.66004E-07 8.45927E-19-1.37145E-18
 -1       739 1.07638E-04-3.99927E-05-2.89927E-05-2.26850E-06 1.36456E-18-5.46200E-19
 -1       740 1.10623E-04-4.14049E-05-2.96694E-05-6.80857E-06 1.88318E-18 5.82869E-20
 -1       741 1.12092E-04-4.01952E-05-3.08200E-05-1.23876E-05 4.38613E-19 1.13427E-18
 -1       742 1.10545E-04-3.48141E-05-3.24641E-05-1.75728E-05 2.22122E-18 8.78443E-19
 -1       743 1.05332E-04-2.51947E-05-3.43492E-05-1.97834E-05 6.11656E-19 2.83247E-18
 -1       744 9.75131E-05-1.39046E-05-3.58927E-05-1.60804E-05-8.88567E-19 2.04725E-18
 -1       745 9.09097E-05-6.73010E-06-3.61485E-05-6.33234E-06-1.57496E-18 1.14499E-18
 -1       746 8.51667E-05-3.82356E-05-1.97790E-05-2.58364E-05 1.25362E-18-4.54354E-19
 -1       747 9.55609E-05-2.87740E-05-2.86230E-05-1.09635E-06 1.45116E-19-1.81384E-18
 -1       748 9.54999E-05-2.88711E-05-2.85553E-05-1.08109E-06 2.36801E-20-1.74224E-18
 -1       749 9.54469E-05-2.89098E-05-2.85160E-05-1.00059E-06 4.12587E-19-1.18412E-18
 -1       750 9.54024E-05-2.89110E-05-2.84963E-05-8.86397E-07 8.21143E-20-1.02903E-18
 -1       751 9.53660E-05-2.88892E-05-2.84901E-05-7.59945E-07 2.90642E-19-1.62117E-18
 -1       752 9.53368E-05-2.88541E-05-2.84926E-05-6.35358E-07 6.33186E-19-1.36362E-18
 -1       753 9.53139E-05-2.88119E-05-2.85009E-05-5.21692E-07 3.09703E-19-2.22123E-18
 -1       754 9.52962E-05-2.87663E-05-2.85128E-05-4.24589E-07 2.81458E-19-1.42925E-18
 -1       755 9.52826E-05-2.87190E-05-2.85273E-05-3.47601E-07 1.37126E-19-7.12824E-19
 -1       756 9.52723E-05-2.86704E-05-2.85437E-05-2.93233E-07-4.74243E-19-6.13400E-19
 -1       757 9.52641E-05-2.86194E-05-2.85620E-05-2.63713E-07-3.05744E-19-7.42561E-19
 -1       758 9.52570E-05-2.85642E-05-2.85826E-05-2.61590E-07 5.64444E-19-5.46351E-19
 -1       759 9.52496E-05-2.85020E-05-2.86061E-05-2.90208E-07 6.06558E-19 3.72993E-19
 -1       760 9.52401E-05-2.84291E-05-2.86333E-05-3.54090E-07 6.37796E-19 5.73284E-19
 -1       761 9.52262E-05-2.83407E-05-2.86652E-05-4.59249E-07 1.85694E-19 6.18175E-19
 -1       762 9.52043E-05-2.82308E-05-2.87029E-05-6.13436E-07-5.61625E-20 2.99686E-19
 -1       763 9.51693E-05-2.80918E-05-2.87474E-05-8.26317E-07-1.53277E-19 1.74701E-18
 -1       764 9.51131E-05-2.79141E-05-2.87995E-05-1.10955E-06-1.11575E-18 8.36446E-19
 -1       765 9.50237E-05-2.76853E-05-2.88592E-05-1.47673E-06-6.65659E-19 3.51015E-19
 -1       766 9.48832E-05-2.73895E-05-2.89257E-05-1.94309E-06-8.12110E-19-7.64345E-20
 -1       767 9.46648E-05-2.70069E-05-2.89960E-05-2.52481E-06 2.17436E-19-5.02208E-19
 -1       768 9.43301E-05-2.65134E-05-2.90640E-05-3.23797E-06-3.08337E-19-5.21734E-19
 -1       769 9.38253E-05-2.58825E-05-2.91180E-05-4.09675E-06-2.15608E-19-1.74782E-18
 -1       770 9.30788E-05-2.50903E-05-2.91374E-05-5.11146E-06-1.03314E-21-1.01436E-18
 -1       771 9.20015E-05-2.41273E-05-2.90883E-05-6.28730E-06-9.34912E-19-1.83307E-18
 -1       772 9.04952E-05-2.30237E-05-2.89158E-05-7.62729E-06 4.20161E-19-2.62660E-18
 -1       773 8.84785E-05-2.18965E-05-2.85348E-05-9.14743E-06 2.54034E-19-1.61427E-18
 -1       774 8.59435E-05-2.10323E-05-2.78181E-05-1.09180E-05-7.39221E-19-4.46020E-19
 -1       775 8.30665E-05-2.10249E-05-2.65822E-05-1.31790E-05-9.23368E-19-4.38545E-19
 -1       776 8.05126E-05-2.27521E-05-2.47199E-05-1.64027E-05-1.25283E-18-1.33358E-18
 -1       777 9.56892E-05-2.82684E-05-2.88946E-05-7.33502E-07 4.31726E-19-1.29876E-18
 -1       778 9.59234E-05 2.44546E-06-4.23272E-05-5.61841E-06-2.28577E-18-4.41454E-18
 -1       779 1.39923E-04-6.16006E-05-3.36115E-05-4.31568E-06-5.04217E-19-2.88556E-18
 -1       780 9.57278E-05-2.77470E-05-2.91346E-05-2.09825E-07 8.24704E-19-1.00570E-18
 -1       781 1.14152E-04-1.15106E-05-4.43066E-05-2.69634E-05-1.78507E-18-4.13604E-18
 -1       782 9.48892E-05-2.33887E-05-3.06427E-05-3.49395E-06-1.41385E-18-2.59664E-18
 -1       783 5.53275E-05-2.11869E-05-1.43086E-05-1.60473E-05-1.73179E-19-2.01570E-18
 -1       784 9.55335E-05-2.56236E-05-2.99583E-05 2.06957E-06 1.62071E-18-1.63971E-18
 -1       785 9.31900E-05-1.97682E-05-3.14677E-05 1.23057E-06 5.88099E-19-2.96314E-18
 -1       786 1.32477E-04-4.12340E-05-3.92500E-05-2.37874E-05-8.63067E-19-2.39315E-18
 -1       787 9.96886E-05-5.15903E-05-2.04231E-05 3.52397E-05 2.06536E-18-3.72799E-18
 -1       788 9.40226E-05-2.13075E-05-3.11636E-05-4.45585E-06-1.36871E-18-3.08468E-18
 -1       789 6.90842E-05-2.95816E-05-1.66977E-05 3.11172E-05 9.85066E-19-3.66724E-18
 -1       790 9.30811E-05-1.95700E-05-3.15052E-05 2.21351E-08 9.91951E-20-2.67476E-18
 -1       791 9.40104E-05-2.13408E-05-3.11452E-05 3.29791E-06 1.27522E-18-2.47909E-18
 -1       792 5.25970E-05-1.51277E-05-1.58141E-05-2.27590E-06-6.49922E-19-6.38888E-19
 -1       793 5.85652E-05-1.94853E-05-1.65290E-05 1.94236E-05-7.30798E-20-8.80557E-19
 -1       794 9.32937E-05-1.99447E-05-3.14378E-05-3.54225E-06-1.10028E-18-2.80979E-18
 -1       795 1.16494E-04-2.54896E-05-3.91210E-05-2.60743E-05 8.29662E-20-2.95470E-18
 -1       796 9.27835E-05-1.90397E-05-3.16073E-05-2.36112E-06-5.61138E-19-2.71505E-18
 -1       797 9.35046E-05-2.03520E-05-3.13527E-05 2.35366E-06 9.40002E-19-2.86371E-18
 -1       798 9.92782E-05-5.50924E-06-4.03370E-05-1.69807E-05-1.64941E-18-1.32109E-18
 -1       799 9.61867E-05-2.69884E-05-2.96565E-05-2.81249E-07-6.59734E-19-1.48744E-18
 -1       800 9.63533E-05-2.79201E-05-2.93285E-05 3.00615E-07-7.99362E-19-1.38417E-18
 -1       801 9.63728E-05-2.85139E-05-2.90824E-05 6.44718E-07-5.55087E-19-1.27543E-18
 -1       802 9.63083E-05-2.88712E-05-2.89017E-05 8.15090E-07 5.10705E-20-1.49922E-18
 -1       803 9.62002E-05-2.90655E-05-2.87720E-05 8.65950E-07 2.04998E-19-1.77824E-18
 -1       804 9.60740E-05-2.91502E-05-2.86817E-05 8.40201E-07 7.84698E-20-1.78363E-18
 -1       805 9.59457E-05-2.91635E-05-2.86209E-05 7.69754E-07-2.58456E-19-1.37049E-18
 -1       806 9.58243E-05-2.91323E-05-2.85823E-05 6.77310E-07-3.45920E-19-1.00456E-18
 -1       807 9.57148E-05-2.90749E-05-2.85599E-05 5.78552E-07-6.03286E-19-1.26836E-18
 -1       808 9.56188E-05-2.90035E-05-2.85494E-05 4.83884E-07-5.19939E-19-1.52472E-18
 -1       809 9.55361E-05-2.89254E-05-2.85474E-05 4.00001E-07-8.15584E-19-8.31610E-19
 -1       810 9.54650E-05-2.88444E-05-2.85517E-05 3.31272E-07-5.59939E-19-4.23639E-19
 -1       811 9.54030E-05-2.87616E-05-2.85606E-05 2.80709E-07-8.07882E-19-9.60123E-20
 -1       812 9.53469E-05-2.86763E-05-2.85732E-05 2.50673E-07 5.37940E-19-2.45003E-19
 -1       813 9.52930E-05-2.85861E-05-2.85887E-05 2.43449E-07 2.97542E-19-1.52955E-19
 -1       814 9.52372E-05-2.84880E-05-2.86068E-05 2.61686E-07 8.81984E-19-8.88112E-19
 -1       815 9.51750E-05-2.83784E-05-2.86271E-05 3.08707E-07 8.30474E-19-1.46533E-18
 -1       816 9.51021E-05-2.82537E-05-2.86493E-05 3.88700E-07 1.21320E-19-1.41000E-18
 -1       817 9.50141E-05-2.81110E-05-2.86728E-05 5.06820E-07-1.13176E-18-1.35271E-18
 -1       818 9.49076E-05-2.79491E-05-2.86965E-05 6.69162E-07-6.30735E-19-8.22614E-19
 -1       819 9.47808E-05-2.77700E-05-2.87189E-05 8.82596E-07-1.82509E-19-8.26132E-19
 -1       820 9.46350E-05-2.75808E-05-2.87375E-05 1.15441E-06 7.84404E-20-9.98234E-19
 -1       821 9.44771E-05-2.73964E-05-2.87489E-05 1.49166E-06-1.68743E-19-1.77741E-18
 -1       822 9.43227E-05-2.72428E-05-2.87485E-05 1.90019E-06-7.27332E-19-2.52764E-18
 -1       823 9.42004E-05-2.71617E-05-2.87308E-05 2.38295E-06-1.01036E-18-1.86825E-18
 -1       824 9.41582E-05-2.72156E-05-2.86897E-05 2.93742E-06-1.51889E-18-5.62093E-19
 -1       825 9.42701E-05-2.74918E-05-2.86193E-05 3.55134E-06-1.44796E-18-1.61899E-18
 -1       826 9.46447E-05-2.81062E-05-2.85165E-05 4.19558E-06 1.04532E-18-1.84124E-18
 -1       827 9.54311E-05-2.92016E-05-2.83841E-05 4.81202E-06 1.90974E-20-6.59019E-19
 -1       828 9.68213E-05-3.09349E-05-2.82371E-05 5.29276E-06-1.60840E-19 4.22812E-19
 -1       829 9.90360E-05-3.34416E-05-2.81120E-05 5.44741E-06-1.21228E-18-3.80439E-19
 -1       830 1.02281E-04-3.67630E-05-2.80793E-05 4.96158E-06-4.21691E-19 1.98338E-20
 -1       831 1.06650E-04-4.07036E-05-2.82604E-05 3.32977E-06 7.09008E-19-9.33358E-19
 -1       832 1.11794E-04-4.44609E-05-2.88559E-05-9.34377E-08 1.98342E-18-9.93527E-19
 -1       833 1.16864E-04-4.66243E-05-3.01051E-05-5.86274E-06 1.45991E-18-1.42664E-18
 -1       834 1.19811E-04-4.46827E-05-3.22160E-05-1.37099E-05 1.95349E-18 4.60156E-19
 -1       835 9.59240E-05-2.90730E-05-2.86505E-05-9.27217E-07 2.29318E-20-1.81248E-18
 -1       836 9.61285E-05-2.87886E-05-2.88600E-05-8.87121E-07 4.43824E-19-2.00228E-18
 -1       837 9.58158E-05-2.90945E-05-2.85949E-05-8.52178E-07 2.70993E-19-1.80437E-18
 -1       838 9.57150E-05-2.90732E-05-2.85608E-05-7.51467E-07 7.21254E-19-1.64447E-18
 -1       839 9.56251E-05-2.90265E-05-2.85423E-05-6.42603E-07 3.41118E-19-1.56174E-18
 -1       840 9.55473E-05-2.89659E-05-2.85349E-05-5.37304E-07 5.31290E-19-1.59925E-18
 -1       841 9.54811E-05-2.88985E-05-2.85354E-05-4.43189E-07-2.08023E-19-1.39322E-18
 -1       842 9.54255E-05-2.88283E-05-2.85416E-05-3.65066E-07-6.08250E-19-1.12426E-18
 -1       843 9.53781E-05-2.87566E-05-2.85521E-05-3.06177E-07-3.98667E-19-1.08364E-18
 -1       844 9.53366E-05-2.86826E-05-2.85660E-05-2.69038E-07-2.80041E-19-1.68779E-18
 -1       845 9.52977E-05-2.86043E-05-2.85829E-05-2.56048E-07 4.05839E-20-1.51811E-18
 -1       846 9.52579E-05-2.85181E-05-2.86028E-05-2.69979E-07-9.58596E-20-8.09702E-19
 -1       847 9.52128E-05-2.84193E-05-2.86258E-05-3.14335E-07 3.02185E-19-7.19778E-19
 -1       848 9.51571E-05-2.83019E-05-2.86522E-05-3.93593E-07 2.78408E-19-6.21354E-19
 -1       849 9.50837E-05-2.81585E-05-2.86822E-05-5.13314E-07-1.01790E-19 1.88012E-19
 -1       850 9.49837E-05-2.79800E-05-2.87159E-05-6.80125E-07-9.61644E-19-6.55564E-21
 -1       851 9.48451E-05-2.77553E-05-2.87527E-05-9.01497E-07-3.98360E-19 3.21434E-20
 -1       852 9.46511E-05-2.74710E-05-2.87915E-05-1.18527E-06-1.12695E-18 4.69878E-19
 -1       853 9.43792E-05-2.71103E-05-2.88295E-05-1.53884E-06-3.71974E-19 1.25069E-19
 -1       854 9.39980E-05-2.66531E-05-2.88621E-05-1.96779E-06 2.47896E-19-1.86617E-18
 -1       855 9.34648E-05-2.60758E-05-2.88810E-05-2.47410E-06 4.13896E-19-1.71948E-18
 -1       856 9.27216E-05-2.53517E-05-2.88728E-05-3.05365E-06-9.25293E-20-9.76236E-19
 -1       857 9.16916E-05-2.44544E-05-2.88159E-05-3.69369E-06-4.05403E-19-1.00667E-18
 -1       858 9.02756E-05-2.33640E-05-2.86764E-05-4.37137E-06-4.59838E-19-4.23445E-19
 -1       859 8.83507E-05-2.20795E-05-2.84020E-05-5.05641E-06-4.17276E-19-2.06437E-18
 -1       860 8.57706E-05-2.06406E-05-2.79135E-05-5.72422E-06 1.63744E-19-1.37998E-18
 -1       861 8.23635E-05-1.91572E-05-2.70904E-05-6.39030E-06-1.14945E-18-3.42326E-19
 -1       862 7.79437E-05-1.78883E-05-2.57435E-05-7.19444E-06-8.70107E-19 2.43907E-19
 -1       863 7.23924E-05-1.72966E-05-2.35869E-05-8.54358E-06-1.24694E-19-5.09292E-19
 -1       864 9.61907E-05-2.84381E-05-2.90368E-05-6.86838E-07 4.38651E-19-1.78388E-18
 -1       865 9.57757E-05-2.55757E-05-3.00858E-05-1.16474E-06-9.53279E-19-2.14829E-18
 -1       866 9.56875E-05-2.55553E-05-3.00562E-05 1.41998E-06 1.28916E-18-1.75826E-18
 -1       867 9.28481E-05-1.91602E-05-3.15821E-05-1.12466E-06-2.87045E-19-2.88170E-18
 -1       868 9.43263E-05-2.20290E-05-3.09847E-05-3.02025E-06-9.15475E-19-2.69485E-18
 -1       869 9.52063E-05-2.40399E-05-3.05002E-05-2.01858E-06-7.97781E-19-2.45913E-18
 -1       870 1.12795E-04-5.45382E-05-2.49200E-05 2.25599E-05 1.98313E-18-2.55559E-19
 -1       871 1.29296E-04-4.99460E-05-3.40448E-05-1.42081E-05 8.88279E-19-1.13939E-18
 -1       872 8.92281E-05-3.93052E-05-2.13252E-05 2.89269E-05 1.21301E-18-3.27429E-18
 -1       873 9.50710E-05-2.37394E-05-3.05704E-05 2.35455E-06 1.23913E-18-2.07436E-18
 -1       874 9.60324E-05-2.89831E-05-2.87355E-05-9.50925E-07 5.40067E-21-1.77508E-18
 -1       875 1.27910E-04-5.90988E-05-2.94820E-05 5.04813E-06 1.89790E-18-2.10944E-18
 -1       876 5.91830E-05-1.55989E-05-1.85996E-05 8.50958E-06-5.87158E-19-1.53710E-19
 -1       877 7.35657E-05-2.54956E-05-2.05259E-05 2.20414E-05 6.07841E-19-2.64776E-18
 -1       878 1.19186E-04-3.73144E-05-3.51321E-05-2.09761E-05 2.33674E-18-1.18338E-18
 -1       879 9.61838E-05-2.78598E-05-2.92818E-05-2.87198E-07 6.51824E-19-1.87876E-18
 -1       880 9.45273E-05-2.22619E-05-3.09709E-05 4.30006E-07 1.70290E-19-2.65086E-18
 -1       881 9.60491E-05-2.69514E-05-2.96136E-05 3.87287E-07 8.69415E-19-2.02517E-18
 -1       882 9.38686E-05-2.10671E-05-3.12012E-05-2.20723E-06-6.99130E-19-2.43492E-18
 -1       883 6.36036E-05-1.63017E-05-2.01884E-05-8.19301E-06-3.24837E-19-1.07889E-18
 -1       884 9.46690E-05-2.25973E-05-3.08882E-05 1.20841E-06 5.06857E-19-2.64739E-18
 -1       885 9.63516E-05-2.91590E-05-2.87968E-05-7.54833E-07 2.34798E-20-2.10562E-18
 -1       886 9.64756E-05-2.72404E-05-2.96724E-05-5.51065E-08-6.04197E-19-1.62746E-18
 -1       887 1.01912E-04-4.42681E-05-2.46747E-05 2.07624E-05 1.84088E-18 1.17187E-19
 -1       888 6.55618E-05-1.51404E-05-2.15936E-05 3.90288E-07-4.54939E-19-1.13422E-18
 -1       889 9.66543E-05-2.81429E-05-2.93621E-05 3.18302E-07-6.90367E-19-1.49776E-18
 -1       890 9.66718E-05-2.87160E-05-2.91239E-05 5.33298E-07-1.88573E-19-1.50139E-18
 -1       891 9.65912E-05-2.90529E-05-2.89450E-05 6.32173E-07-4.49957E-20-1.64906E-18
 -1       892 9.64569E-05-2.92251E-05-2.88136E-05 6.51847E-07 1.62275E-19-1.59609E-18
 -1       893 9.62993E-05-2.92867E-05-2.87197E-05 6.21495E-07 3.39500E-19-1.47908E-18
 -1       894 9.61380E-05-2.92771E-05-2.86546E-05 5.62779E-07-1.22118E-19-1.06883E-18
 -1       895 9.59843E-05-2.92236E-05-2.86117E-05 4.91293E-07-5.23984E-19-9.27675E-19
 -1       896 9.58447E-05-2.91451E-05-2.85855E-05 4.17737E-07-5.29441E-19-7.88810E-19
 -1       897 9.57212E-05-2.90539E-05-2.85717E-05 3.49118E-07-2.63948E-19-8.36551E-19
 -1       898 9.56133E-05-2.89566E-05-2.85672E-05 2.90048E-07-2.42215E-19-5.25314E-19
 -1       899 9.55186E-05-2.88563E-05-2.85696E-05 2.43752E-07-3.79999E-19-6.78808E-19
 -1       900 9.54335E-05-2.87532E-05-2.85772E-05 2.12541E-07 2.63080E-19 3.31353E-19
 -1       901 9.53532E-05-2.86456E-05-2.85890E-05 1.98404E-07 5.52008E-19 7.26475E-19
 -1       902 9.52723E-05-2.85300E-05-2.86039E-05 2.03494E-07 3.20889E-19 5.75024E-19
 -1       903 9.51847E-05-2.84019E-05-2.86212E-05 2.30474E-07-2.10607E-20-2.27604E-19
 -1       904 9.50838E-05-2.82566E-05-2.86403E-05 2.82793E-07 4.97927E-19-1.82298E-18
 -1       905 9.49628E-05-2.80893E-05-2.86601E-05 3.64939E-07 1.28763E-19-1.36219E-18
 -1       906 9.48148E-05-2.78963E-05-2.86794E-05 4.82677E-07-5.76680E-19-4.20689E-19
 -1       907 9.46339E-05-2.76761E-05-2.86962E-05 6.43269E-07 3.19324E-19-2.09567E-19
 -1       908 9.44162E-05-2.74312E-05-2.87079E-05 8.55719E-07-6.86246E-19-5.26247E-19
 -1       909 9.41616E-05-2.71705E-05-2.87105E-05 1.13099E-06-1.08828E-18-1.60489E-18
 -1       910 9.38768E-05-2.69124E-05-2.86991E-05 1.48219E-06-9.56752E-19-2.42260E-18
 -1       911 9.35792E-05-2.66894E-05-2.86671E-05 1.92459E-06-8.03339E-20-1.90052E-18
 -1       912 9.33025E-05-2.65529E-05-2.86071E-05 2.47526E-06-7.59472E-19-1.16125E-18
 -1       913 9.31047E-05-2.65799E-05-2.85107E-05 3.15173E-06-1.40736E-18-3.60033E-19
 -1       914 9.30774E-05-2.68792E-05-2.83707E-05 3.96862E-06-9.07660E-19-1.62177E-19
 -1       915 9.33577E-05-2.75975E-05-2.81831E-05 4.93028E-06 1.21175E-18-1.83537E-18
 -1       916 9.41423E-05-2.89219E-05-2.79518E-05 6.01564E-06 3.14766E-19-2.09268E-18
 -1       917 9.57018E-05-3.10750E-05-2.76971E-05 7.14601E-06-4.77491E-19-1.08417E-18
 -1       918 9.83810E-05-3.42800E-05-2.74709E-05 8.12525E-06-6.39275E-19-3.05823E-19
 -1       919 1.02533E-04-3.86604E-05-2.73740E-05 8.55836E-06-1.48321E-19-1.46379E-19
 -1       920 1.08588E-04-4.42356E-05-2.75751E-05 7.67020E-06 7.11885E-19-5.89908E-19
 -1       921 1.16143E-04-4.96995E-05-2.84919E-05 4.32211E-06 1.66445E-18-1.99461E-18
 -1       922 9.60601E-05-2.92306E-05-2.86412E-05-6.59011E-07 5.56699E-20-1.84114E-18
 -1       923 9.60472E-05-2.58829E-05-3.00705E-05-6.30933E-07-4.52524E-19-1.98602E-18
 -1       924 9.62075E-05-2.92305E-05-2.87044E-05-7.24413E-07 2.41049E-19-1.63280E-18
 -1       925 9.57936E-05-2.91179E-05-2.85753E-05-4.91701E-07 1.69311E-19-8.74103E-19
 -1       926 9.56821E-05-2.90354E-05-2.85629E-05-4.11173E-07-3.29152E-19-5.79280E-19
 -1       927 9.55855E-05-2.89468E-05-2.85594E-05-3.41220E-07-3.67017E-19-7.59882E-19
 -1       928 9.55019E-05-2.88555E-05-2.85627E-05-2.85466E-07-9.06891E-20-1.29287E-18
 -1       929 9.54280E-05-2.87617E-05-2.85712E-05-2.46587E-07-9.25898E-20-1.46543E-18
 -1       930 9.53596E-05-2.86639E-05-2.85839E-05-2.26751E-07-4.08702E-20-1.87205E-18
 -1       931 9.52917E-05-2.85584E-05-2.86000E-05-2.28121E-07-7.79380E-20-2.13308E-18
 -1       932 9.52183E-05-2.84401E-05-2.86192E-05-2.53176E-07-1.49402E-19-2.13355E-18
 -1       933 9.51320E-05-2.83026E-05-2.86412E-05-3.04883E-07-4.95306E-20-1.24831E-18
 -1       934 9.50239E-05-2.81377E-05-2.86655E-05-3.86712E-07-6.52865E-19-7.09910E-19
 -1       935 9.48832E-05-2.79360E-05-2.86916E-05-5.02484E-07-4.66994E-19 5.93117E-19
 -1       936 9.46959E-05-2.76864E-05-2.87184E-05-6.55962E-07-8.77480E-19-1.49424E-19
 -1       937 9.44441E-05-2.73756E-05-2.87437E-05-8.50127E-07-6.50159E-19-1.33610E-19
 -1       938 9.41049E-05-2.69886E-05-2.87641E-05-1.08601E-06-3.38732E-19-1.29054E-18
 -1       939 9.36480E-05-2.65080E-05-2.87743E-05-1.36095E-06 2.55857E-19-9.50391E-19
 -1       940 9.30342E-05-2.59143E-05-2.87657E-05-1.66616E-06-3.64246E-19-5.19280E-19
 -1       941 9.22122E-05-2.51872E-05-2.87250E-05-1.98356E-06-6.06326E-19 1.40300E-19
 -1       942 9.11156E-05-2.43069E-05-2.86324E-05-2.28210E-06-2.46234E-20 5.12456E-19
 -1       943 8.96593E-05-2.32582E-05-2.84576E-05-2.51419E-06-6.12821E-19 4.89014E-19
 -1       944 8.77345E-05-2.20370E-05-2.81562E-05-2.61386E-06 2.64909E-19 7.70010E-19
 -1       945 8.52009E-05-2.06584E-05-2.76614E-05-2.49948E-06 2.53520E-19 3.43695E-20
 -1       946 8.18704E-05-1.91687E-05-2.68740E-05-2.09571E-06-1.19360E-18-3.28717E-19
 -1       947 7.74772E-05-1.76755E-05-2.56303E-05-1.32963E-06-8.43131E-19-8.03368E-19
 -1       948 7.23980E-05-1.63368E-05-2.40103E-05-4.43117E-07-2.58805E-19-1.27548E-18
 -1       949 9.65473E-05-2.86321E-05-2.91065E-05-5.96688E-07 5.55098E-19-2.25930E-18
 -1       950 9.48306E-05-2.30340E-05-3.07699E-05 1.85268E-06 9.91888E-19-2.51920E-18
 -1       951 6.98891E-05-1.99730E-05-2.13545E-05 1.43733E-05-4.23169E-20 6.13364E-19
 -1       952 1.15937E-04-5.17886E-05-2.74738E-05 1.04801E-05 2.00200E-18-1.61636E-18
 -1       953 9.45238E-05-2.22517E-05-3.09732E-05-4.16940E-07-5.36977E-20-2.37773E-18
 -1       954 9.59203E-05-2.91870E-05-2.86000E-05-5.77215E-07 6.03954E-19-1.29826E-18
 -1       955 9.64743E-05-2.89773E-05-2.89272E-05-7.23969E-07 2.74616E-19-2.07316E-18
 -1       956 8.73894E-05-3.30635E-05-2.32610E-05 2.15283E-05 2.42995E-18-1.87567E-18
 -1       957 1.22590E-04-5.24339E-05-3.00663E-05-2.09485E-06 2.78577E-18-8.35576E-20
 -1       958 9.54661E-05-2.44237E-05-3.04440E-05-1.18545E-06-4.65248E-19-2.20193E-18
 -1       959 9.59326E-05-2.57653E-05-3.00723E-05 8.39276E-07 9.61985E-19-2.10823E-18
 -1       960 9.55499E-05-2.43311E-05-3.05223E-05 1.34127E-09-2.52868E-20-2.22193E-18
 -1       961 9.41583E-05-2.15786E-05-3.11050E-05-1.22236E-06-4.93905E-19-2.55391E-18
 -1       962 9.47900E-05-2.29184E-05-3.08028E-05-1.66714E-06-6.68142E-19-2.38110E-18
 -1       963 9.65282E-05-2.80512E-05-2.93472E-05-3.28373E-07 6.50232E-19-2.19765E-18
 -1       964 8.06811E-05-2.64014E-05-2.32516E-05 1.74736E-05 1.52887E-18-1.06676E-18
 -1       965 9.55917E-05-2.44664E-05-3.04810E-05 4.83531E-07 4.29796E-19-2.41478E-18
 -1       966 9.54719E-05-2.45246E-05-3.04041E-05 1.33959E-06 1.01596E-18-2.27739E-18
 -1       967 9.68645E-05-2.84078E-05-2.93385E-05 2.60713E-07-4.52091E-19-1.25084E-18
 -1       968 9.68553E-05-2.89224E-05-2.91142E-05 3.67187E-07-3.57765E-19-1.50948E-18
 -1       969 9.67475E-05-2.92105E-05-2.89445E-05 4.09893E-07 2.98777E-19-1.13343E-18
 -1       970 9.65880E-05-2.93440E-05-2.88188E-05 4.09480E-07 1.79143E-19-1.18638E-18
 -1       971 9.64068E-05-2.93743E-05-2.87282E-05 3.82874E-07 3.97862E-19-1.42101E-18
 -1       972 9.62243E-05-2.93392E-05-2.86650E-05 3.41800E-07-4.97965E-20-8.18903E-19
 -1       973 9.60524E-05-2.92653E-05-2.86231E-05 2.95750E-07-6.43869E-19-1.07836E-18
 -1       974 9.58965E-05-2.91696E-05-2.85972E-05 2.50255E-07-2.73796E-19-1.06750E-18
 -1       975 9.57583E-05-2.90634E-05-2.85835E-05 2.08745E-07 5.57461E-21-1.22667E-18
 -1       976 9.56361E-05-2.89515E-05-2.85791E-05 1.74481E-07-3.32148E-21-5.42667E-19
 -1       977 9.55269E-05-2.88365E-05-2.85816E-05 1.49278E-07 3.28763E-19 3.65664E-19
 -1       978 9.54259E-05-2.87172E-05-2.85895E-05 1.34538E-07 9.91386E-19 3.56774E-19
 -1       979 9.53269E-05-2.85905E-05-2.86013E-05 1.31769E-07 1.75531E-19-6.21700E-20
 -1       980 9.52229E-05-2.84519E-05-2.86162E-05 1.42800E-07-3.72934E-19-1.83621E-19
 -1       981 9.51059E-05-2.82956E-05-2.86330E-05 1.70066E-07-6.61705E-19-2.52771E-19
 -1       982 9.49673E-05-2.81155E-05-2.86508E-05 2.16915E-07 1.20222E-19-7.43719E-19
 -1       983 9.47978E-05-2.79058E-05-2.86680E-05 2.87972E-07 2.30777E-19-2.03025E-18
 -1       984 9.45881E-05-2.76618E-05-2.86828E-05 3.89599E-07 1.94252E-19-8.09131E-19
 -1       985 9.43293E-05-2.73813E-05-2.86921E-05 5.30500E-07-6.88342E-19-1.17398E-18
 -1       986 9.40146E-05-2.70664E-05-2.86922E-05 7.22517E-07-1.30161E-18-1.69449E-18
 -1       987 9.36409E-05-2.67265E-05-2.86778E-05 9.81662E-07-1.21901E-18-1.43510E-18
 -1       988 9.32120E-05-2.63816E-05-2.86418E-05 1.32939E-06-8.07829E-20-1.74208E-18
 -1       989 9.27429E-05-2.60670E-05-2.85755E-05 1.79401E-06 7.09545E-20-1.30898E-18
 -1       990 9.22660E-05-2.58398E-05-2.84685E-05 2.41206E-06-4.10006E-20-2.13041E-19
 -1       991 9.18400E-05-2.57859E-05-2.83091E-05 3.22895E-06-1.21159E-18 6.74620E-19
 -1       992 9.15617E-05-2.60290E-05-2.80857E-05 4.29761E-06-1.25158E-18 7.57011E-19
 -1       993 9.15823E-05-2.67408E-05-2.77895E-05 5.67243E-06-5.78516E-20-1.10357E-18
 -1       994 9.21287E-05-2.81508E-05-2.74195E-05 7.39638E-06-2.68158E-19-2.51829E-18
 -1       995 9.35440E-05-3.05613E-05-2.69921E-05 9.46396E-06 6.19329E-19-2.98326E-18
 -1       996 9.63115E-05-3.43409E-05-2.65610E-05 1.17913E-05-9.98300E-20-2.46465E-18
 -1       997 1.01202E-04-3.99168E-05-2.62486E-05 1.39800E-05-5.71616E-19-1.75655E-18
 -1       998 9.63559E-05-2.71416E-05-2.96635E-05 1.31361E-07 6.86890E-19-1.82011E-18
 -1       999 9.66876E-05-2.91478E-05-2.89456E-05-5.17876E-07-4.72798E-22-1.54130E-18
 -1      1000 9.63367E-05-2.63547E-05-2.99923E-05-2.39302E-07-2.64750E-19-2.04538E-18
 -1      1001 9.63672E-05-2.93408E-05-2.87255E-05-4.92988E-07 5.20135E-20-1.10785E-18
 -1      1002 9.57475E-05-2.90628E-05-2.85791E-05-2.73374E-07-2.52697E-19-1.39065E-18
 -1      1003 9.58794E-05-2.91625E-05-2.85929E-05-3.26439E-07 9.89650E-20-6.54577E-19
 -1      1004 9.55292E-05-2.88488E-05-2.85773E-05-1.95306E-07-1.34776E-19-1.87535E-18
 -1      1005 9.54357E-05-2.87364E-05-2.85854E-05-1.74746E-07-4.12084E-20-2.12684E-18
 -1      1006 9.53455E-05-2.86174E-05-2.85978E-05-1.68601E-07 1.49469E-19-2.17336E-18
 -1      1007 9.52515E-05-2.84866E-05-2.86135E-05-1.78409E-07 2.33882E-19-1.85967E-18
 -1      1008 9.51457E-05-2.83378E-05-2.86320E-05-2.05814E-07-3.77496E-19-1.95285E-18
 -1      1009 9.50183E-05-2.81629E-05-2.86524E-05-2.52521E-07-7.36904E-19-1.37313E-18
 -1      1010 9.48577E-05-2.79527E-05-2.86736E-05-3.20066E-07-1.24715E-18-1.51285E-18
 -1      1011 9.46499E-05-2.76967E-05-2.86943E-05-4.09342E-07-6.89868E-19-1.68006E-18
 -1      1012 9.43777E-05-2.73831E-05-2.87121E-05-5.19787E-07-4.78613E-19-1.37973E-18
 -1      1013 9.40202E-05-2.69994E-05-2.87233E-05-6.48118E-07-6.06936E-19-1.86828E-18
 -1      1014 9.35516E-05-2.65323E-05-2.87227E-05-7.86470E-07-2.38904E-19-1.10178E-18
 -1      1015 9.29400E-05-2.59688E-05-2.87022E-05-9.19782E-07-7.16219E-19-7.59744E-19
 -1      1016 9.21464E-05-2.52972E-05-2.86499E-05-1.02234E-06-4.40681E-19-7.35984E-19
 -1      1017 9.11229E-05-2.45096E-05-2.85488E-05-1.05340E-06-7.53217E-19-9.98915E-19
 -1      1018 8.98111E-05-2.36050E-05-2.83744E-05-9.52223E-07-1.68795E-19-5.43238E-19
 -1      1019 8.81395E-05-2.25943E-05-2.80912E-05-6.32904E-07-1.71652E-19-9.01900E-19
 -1      1020 8.60196E-05-2.15071E-05-2.76485E-05 1.97244E-08-1.96548E-19-6.54395E-19
 -1      1021 8.33432E-05-2.04024E-05-2.69737E-05 1.15970E-06-1.77184E-19 4.24622E-19
 -1      1022 7.98953E-05-1.93380E-05-2.59495E-05 3.01308E-06-1.17717E-18 6.98807E-19
 -1      1023 9.56317E-05-2.89574E-05-2.85747E-05-2.28760E-07 2.74900E-19-1.94483E-18
 -1      1024 9.55856E-05-2.44579E-05-3.04841E-05-4.89501E-07-1.72255E-19-2.20607E-18
 -1      1025 9.67835E-05-2.88392E-05-2.91190E-05-4.53853E-07 5.42945E-19-1.59062E-18
 -1      1026 9.65387E-05-2.92976E-05-2.88176E-05-5.23574E-07 4.74902E-20-1.42453E-18
 -1      1027 7.43643E-05-1.94683E-05-2.35122E-05 9.92623E-06-5.30138E-20 1.43894E-18
 -1      1028 9.67182E-05-2.75863E-05-2.96275E-05 6.89371E-08-3.01911E-19-1.63287E-18
 -1      1029 9.67810E-05-2.83012E-05-2.93485E-05-3.04133E-07 6.80643E-19-1.56848E-18
 -1      1030 9.05134E-05-3.17788E-05-2.51612E-05 1.57272E-05 8.99696E-19-3.41747E-18
 -1      1031 9.62145E-05-2.61585E-05-3.00243E-05 3.96378E-07 5.53204E-19-2.09330E-18
 -1      1032 9.60283E-05-2.92506E-05-2.86190E-05-3.85016E-07 2.53592E-19-4.70532E-19
 -1      1033 7.71468E-05-1.91083E-05-2.48652E-05 5.97320E-06-7.05429E-19 1.33272E-18
 -1      1034 9.55108E-05-2.44120E-05-3.04694E-05 9.17231E-07 7.92780E-19-2.32549E-18
 -1      1035 9.61931E-05-2.93163E-05-2.86615E-05-4.43262E-07 2.83073E-19-1.14972E-18
 -1      1036 9.62532E-05-2.59793E-05-3.01158E-05-1.15796E-07-1.09830E-19-2.07667E-18
 -1      1037 9.62785E-05-2.60034E-05-3.01177E-05 1.14020E-07 2.07070E-19-1.99441E-18
 -1      1038 9.53030E-05-2.85501E-05-2.86084E-05-9.63957E-08-3.86443E-19-1.23932E-18
 -1      1039 9.58961E-05-2.91657E-05-2.85988E-05-1.64452E-07 1.69311E-19-8.84516E-19
 -1      1040 9.69292E-05-2.91044E-05-2.90675E-05 1.51806E-07 1.59819E-19-8.50851E-19
 -1      1041 9.67909E-05-2.93274E-05-2.89127E-05 1.60013E-07 1.76740E-19-1.00159E-18
 -1      1042 9.66103E-05-2.94138E-05-2.87983E-05 1.55237E-07 1.48897E-19-7.45712E-19
 -1      1043 9.64097E-05-2.94071E-05-2.87156E-05 1.42979E-07 2.90497E-20-1.17216E-18
 -1      1044 9.62186E-05-2.93494E-05-2.86581E-05 1.25676E-07 4.07375E-20-1.11056E-18
 -1      1045 9.60435E-05-2.92612E-05-2.86211E-05 1.05035E-07-5.29419E-19-4.14520E-19
 -1      1046 9.58854E-05-2.91542E-05-2.85991E-05 8.79110E-08-2.03201E-19-1.63234E-19
 -1      1047 9.57427E-05-2.90373E-05-2.85880E-05 7.37296E-08 5.12342E-19-1.73316E-19
 -1      1048 9.56160E-05-2.89164E-05-2.85855E-05 6.21826E-08 8.41230E-19 2.54150E-19
 -1      1049 9.55005E-05-2.87914E-05-2.85896E-05 5.43516E-08 4.83747E-19-1.50452E-19
 -1      1050 9.53902E-05-2.86602E-05-2.85986E-05 5.10350E-08-1.00651E-19-7.47605E-19
 -1      1051 9.52780E-05-2.85183E-05-2.86113E-05 5.31531E-08-1.83157E-19-1.22696E-18
 -1      1052 9.51552E-05-2.83600E-05-2.86265E-05 6.20040E-08-4.71367E-19-1.30955E-18
 -1      1053 9.50124E-05-2.81783E-05-2.86432E-05 7.95437E-08-2.68251E-19-1.11972E-18
 -1      1054 9.48390E-05-2.79659E-05-2.86598E-05 1.08757E-07-6.58727E-19-1.11273E-18
 -1      1055 9.46232E-05-2.77157E-05-2.86746E-05 1.54181E-07-1.68971E-19-1.77667E-18
 -1      1056 9.43528E-05-2.74214E-05-2.86848E-05 2.22657E-07-7.21284E-19-2.94386E-18
 -1      1057 9.40155E-05-2.70795E-05-2.86867E-05 3.24390E-07-8.36441E-19-2.52379E-18
 -1      1058 9.35998E-05-2.66904E-05-2.86752E-05 4.74419E-07-8.82581E-19-2.25023E-18
 -1      1059 9.30971E-05-2.62618E-05-2.86434E-05 6.94581E-07-1.06316E-18-1.85211E-18
 -1      1060 9.25040E-05-2.58119E-05-2.85819E-05 1.01604E-06 1.56275E-19-2.03343E-18
 -1      1061 9.18265E-05-2.53742E-05-2.84789E-05 1.48236E-06 5.82553E-19-2.30325E-18
 -1      1062 9.10860E-05-2.50044E-05-2.83197E-05 2.15296E-06 1.47562E-19-1.69564E-18
 -1      1063 9.03272E-05-2.47885E-05-2.80867E-05 3.10657E-06-7.47435E-19-1.07238E-18
 -1      1064 8.96318E-05-2.48544E-05-2.77602E-05 4.44392E-06-1.56061E-18-1.36607E-19
 -1      1065 8.91423E-05-2.53894E-05-2.73210E-05 6.28614E-06-1.10395E-18-8.45669E-19
 -1      1066 8.90662E-05-2.66460E-05-2.67480E-05 8.76157E-06-1.39026E-18-9.07301E-19
 -1      1067 8.92955E-05-2.85655E-05-2.60271E-05 1.18128E-05 2.98668E-20-3.72410E-18
 -1      1068 9.67852E-05-2.92851E-05-2.89287E-05-2.77620E-07 1.51153E-19-1.27486E-18
 -1      1069 9.66309E-05-2.74590E-05-2.96460E-05-2.73836E-08 6.15712E-19-1.93425E-18
 -1      1070 9.54102E-05-2.86868E-05-2.85957E-05-9.56008E-08-2.27369E-19-1.62752E-18
 -1      1071 9.55169E-05-2.88137E-05-2.85871E-05-1.02753E-07 1.81203E-20-1.64617E-18
 -1      1072 9.51870E-05-2.83976E-05-2.86240E-05-1.05690E-07-2.99504E-20-1.23065E-18
 -1      1073 9.50524E-05-2.82220E-05-2.86416E-05-1.23787E-07-3.57219E-19-1.34960E-18
 -1      1074 9.48879E-05-2.80147E-05-2.86599E-05-1.50497E-07-2.96208E-19-1.82781E-18
 -1      1075 9.46801E-05-2.77662E-05-2.86774E-05-1.84667E-07-1.24732E-18-1.95998E-18
 -1      1076 9.44139E-05-2.74666E-05-2.86917E-05-2.23417E-07-8.28981E-19-1.46041E-18
 -1      1077 9.40713E-05-2.71061E-05-2.86994E-05-2.60963E-07-1.62685E-19-1.42918E-18
 -1      1078 9.36319E-05-2.66756E-05-2.86957E-05-2.86904E-07-5.33133E-19-1.52276E-18
 -1      1079 9.30724E-05-2.61683E-05-2.86734E-05-2.83814E-07-3.87502E-19-7.42406E-19
 -1      1080 9.23670E-05-2.55817E-05-2.86226E-05-2.23993E-07-8.21412E-19-4.17879E-19
 -1      1081 9.14877E-05-2.49201E-05-2.85295E-05-6.52682E-08-1.50573E-19-7.46618E-19
 -1      1082 9.04053E-05-2.41989E-05-2.83750E-05 2.54195E-07 2.42992E-19-1.75283E-18
 -1      1083 8.90910E-05-2.34499E-05-2.81331E-05 8.22052E-07-2.69578E-19-2.20245E-18
 -1      1084 8.75177E-05-2.27285E-05-2.77685E-05 1.75887E-06-4.94516E-19-1.30745E-18
 -1      1085 8.56600E-05-2.21208E-05-2.72330E-05 3.22598E-06-6.16562E-19-1.11136E-18
 -1      1086 8.34958E-05-2.17704E-05-2.64561E-05 5.42887E-06-1.10185E-18 4.78942E-20
 -1      1087 8.18976E-05-2.39330E-05-2.48510E-05 1.19529E-05-1.09367E-19 2.12389E-19
 -1      1088 9.56301E-05-2.89350E-05-2.85836E-05-1.17132E-07 5.46571E-19-1.17576E-18
 -1      1089 9.69840E-05-2.86816E-05-2.92725E-05 1.22859E-07-2.46690E-19-1.10647E-18
 -1      1090 9.57555E-05-2.90526E-05-2.85870E-05-1.37773E-07 2.66071E-19-8.52106E-19
 -1      1091 9.69111E-05-2.90343E-05-2.90901E-05-2.55090E-07 7.58881E-20-1.30618E-18
 -1      1092 9.66129E-05-2.93918E-05-2.88091E-05-2.74045E-07 2.33728E-20-1.24498E-18
 -1      1093 9.67463E-05-2.73668E-05-2.97354E-05 8.26798E-10 1.61918E-19-1.67300E-18
 -1      1094 9.60485E-05-2.92638E-05-2.86223E-05-1.94087E-07 3.55101E-19-1.27539E-18
 -1      1095 9.69455E-05-2.85708E-05-2.93033E-05-1.94527E-07 4.54236E-19-1.68552E-18
 -1      1096 8.23684E-05-2.23678E-05-2.57188E-05 8.24928E-06-7.36691E-19 1.00269E-19
 -1      1097 9.69264E-05-2.81311E-05-2.94839E-05 7.73155E-08-1.39601E-20-1.55794E-18
 -1      1098 9.64227E-05-2.94035E-05-2.87228E-05-2.52836E-07-6.20809E-20-1.38728E-18
 -1      1099 9.61376E-05-2.93133E-05-2.86387E-05-6.99124E-08 1.38079E-19-1.48323E-18
 -1      1100 9.68388E-05-2.78241E-05-2.95770E-05-7.41076E-08 3.40119E-19-1.89599E-18
 -1      1101 9.62251E-05-2.93482E-05-2.86616E-05-2.22361E-07 9.66462E-21-1.26034E-18
 -1      1102 9.63264E-05-2.93909E-05-2.86862E-05-8.40800E-08-6.82155E-21-1.14840E-18
 -1      1103 1.16859E-04 2.57583E-10-4.18571E-05-4.14633E-05-3.40084E-19 1.18314E-17
 -1      1104 8.86554E-05 7.19313E-11-3.72530E-05-2.41635E-05-1.89524E-19 1.83806E-18
 -1      1105 8.40814E-05 4.14602E-11-3.57681E-05-1.78727E-05-1.35314E-19-2.53788E-18
 -1      1106 8.23358E-05 3.20243E-11-3.50734E-05-1.38299E-05-9.86264E-20-4.64269E-18
 -1      1107 8.15307E-05 2.73245E-11-3.47383E-05-1.05280E-05-6.56451E-20-5.64716E-18
 -1      1108 8.11272E-05 2.46012E-11-3.45723E-05-7.63591E-06-3.92216E-20-6.06253E-18
 -1      1109 8.09168E-05 2.29396E-11-3.44885E-05-4.97608E-06-2.57816E-20-6.22436E-18
 -1      1110 8.08139E-05 2.20420E-11-3.44489E-05-2.43017E-06-1.25119E-20-6.18487E-18
 -1      1111 8.07845E-05 2.17710E-11-3.44377E-05 5.25102E-08 1.01809E-20-6.20563E-18
 -1      1112 8.08181E-05 2.20866E-11-3.44503E-05 2.53774E-06 2.31164E-20-6.14654E-18
 -1      1113 8.09255E-05 2.30392E-11-3.44914E-05 5.09196E-06 2.79686E-20-6.08017E-18
 -1      1114 8.11425E-05 2.47576E-11-3.45765E-05 7.76763E-06 4.51442E-20-5.79893E-18
 -1      1115 8.15531E-05 2.76317E-11-3.47445E-05 1.06871E-05 7.14684E-20-5.24049E-18
 -1      1116 8.23612E-05 3.25107E-11-3.50830E-05 1.40365E-05 1.04344E-19-4.12736E-18
 -1      1117 8.40780E-05 4.19198E-11-3.57877E-05 1.81251E-05 1.44260E-19-1.99034E-18
 -1      1118 8.83515E-05 6.67586E-11-3.73236E-05 2.40061E-05 1.82324E-19 2.41468E-18
 -1      1119 1.06624E-04 1.63944E-10-4.06367E-05 3.61895E-05 4.06576E-19 1.19687E-17
 -1      1120 1.30226E-04-2.57582E-05-4.02756E-05-2.61044E-05-1.40523E-18 1.81595E-17
 -1      1121 9.74670E-05-2.88657E-05-3.15807E-05-6.79869E-07-4.80612E-19 1.49422E-17
 -1      1122 9.01731E-05-2.70306E-05-2.78972E-05 3.87106E-07-2.07576E-19 1.02572E-17
 -1      1123 8.82649E-05-2.65772E-05-2.66486E-05 2.50880E-07-1.61403E-19 6.86160E-18
 -1      1124 8.79100E-05-2.64514E-05-2.63932E-05 1.66069E-07-8.45180E-20 4.62602E-18
 -1      1125 8.82734E-05-2.65294E-05-2.64794E-05 1.18236E-07-8.33939E-20 3.11001E-18
 -1      1126 8.89641E-05-2.67152E-05-2.66834E-05 8.76573E-08 4.34270E-21 2.13698E-18
 -1      1127 8.97835E-05-2.69484E-05-2.69274E-05 6.64929E-08-3.52102E-20 1.67052E-18
 -1      1128 9.06213E-05-2.71925E-05-2.71771E-05 5.08634E-08-7.29592E-20 8.79300E-19
 -1      1129 9.14154E-05-2.74265E-05-2.74145E-05 3.88512E-08-6.01631E-20-4.97751E-19
 -1      1130 9.21323E-05-2.76390E-05-2.76295E-05 2.94376E-08-7.86825E-20-1.72328E-18
 -1      1131 9.27568E-05-2.78250E-05-2.78174E-05 2.20130E-08 9.94603E-20-1.67666E-18
 -1      1132 9.32855E-05-2.79829E-05-2.79768E-05 1.61637E-08-6.78588E-20-1.98256E-18
 -1      1133 9.37220E-05-2.81137E-05-2.81088E-05 1.15793E-08 3.71474E-20-2.52737E-18
 -1      1134 9.40742E-05-2.82194E-05-2.82156E-05 8.01188E-09-5.76650E-20-2.09025E-18
 -1      1135 9.43524E-05-2.83031E-05-2.83002E-05 5.25747E-09-9.99474E-20-2.89495E-18
 -1      1136 9.45675E-05-2.83680E-05-2.83658E-05 3.14688E-09 6.62833E-20-3.11204E-18
 -1      1137 9.47309E-05-2.84175E-05-2.84157E-05 1.54173E-09 6.73900E-20-3.55571E-18
 -1      1138 9.48534E-05-2.84547E-05-2.84534E-05 3.32527E-10-6.47386E-20-4.08613E-18
 -1      1139 9.49457E-05-2.84829E-05-2.84820E-05-5.61921E-10 2.66822E-20-5.09634E-18
 -1      1140 9.50184E-05-2.85053E-05-2.85047E-05-1.19438E-09-9.39021E-20-5.14907E-18
 -1      1141 9.50821E-05-2.85250E-05-2.85247E-05-1.58810E-09 9.91959E-21-3.62984E-18
 -1      1142 9.51481E-05-2.85454E-05-2.85455E-05-1.73481E-09 2.95687E-20-2.69547E-18
 -1      1143 9.52288E-05-2.85703E-05-2.85708E-05-1.59175E-09-4.52090E-20-2.99297E-18
 -1      1144 9.53381E-05-2.86039E-05-2.86050E-05-1.07828E-09 7.39448E-21-1.73109E-18
 -1      1145 9.54921E-05-2.86509E-05-2.86527E-05-7.29090E-11-2.97709E-20-7.03698E-19
 -1      1146 9.57091E-05-2.87169E-05-2.87196E-05 1.58708E-09-5.32407E-20-1.73930E-18
 -1      1147 9.60097E-05-2.88080E-05-2.88118E-05 4.10012E-09 5.91391E-20-3.22300E-18
 -1      1148 9.64156E-05-2.89305E-05-2.89356E-05 7.68301E-09 2.35678E-19-3.30565E-18
 -1      1149 9.69481E-05-2.90906E-05-2.90971E-05 1.25325E-08 8.26688E-20-6.75271E-19
 -1      1150 9.76245E-05-2.92933E-05-2.93011E-05 1.87521E-08-1.15161E-19-4.90323E-19
 -1      1151 9.84520E-05-2.95405E-05-2.95489E-05 2.62264E-08-1.28649E-19-2.30924E-18
 -1      1152 9.94196E-05-2.98283E-05-2.98361E-05 3.44210E-08-2.60716E-20-4.82076E-18
 -1      1153 1.00485E-04-3.01436E-05-3.01486E-05 4.20946E-08 2.52442E-19-5.35558E-18
 -1      1154 1.01560E-04-3.04593E-05-3.04579E-05 4.69354E-08-9.61469E-20-3.86500E-18
 -1      1155 1.02491E-04-3.07297E-05-3.07167E-05 4.52060E-08 8.97375E-20-3.66829E-18
 -1      1156 1.03049E-04-3.08857E-05-3.08552E-05 3.16249E-08-1.50221E-19-3.16184E-18
 -1      1157 1.02922E-04-3.08357E-05-3.07824E-05-6.93827E-11-8.94447E-20-2.60591E-18
 -1      1158 1.01748E-04-3.04735E-05-3.03965E-05-5.52158E-08-2.35000E-19-2.83964E-18
 -1      1159 9.91863E-05-2.97010E-05-2.96080E-05-1.34405E-07 1.61261E-19-2.02586E-18
 -1      1160 9.50534E-05-2.84685E-05-2.83805E-05-2.28004E-07-4.26031E-20-2.48570E-18
 -1      1161 8.95084E-05-2.68280E-05-2.67793E-05-3.11273E-07 1.17527E-19-4.24512E-18
 -1      1162 8.32253E-05-2.49824E-05-2.50123E-05-3.45051E-07-6.49147E-20-4.43649E-18
 -1      1163 7.74388E-05-2.32949E-05-2.34304E-05-2.87268E-07-1.07163E-19-1.16054E-18
 -1      1164 7.37335E-05-2.22253E-05-2.24596E-05-1.15121E-07 1.03722E-19-1.37320E-18
 -1      1165 7.35351E-05-2.21822E-05-2.24570E-05 1.51303E-07 9.50397E-20 1.72980E-19
 -1      1166 7.74178E-05-2.33251E-05-2.35276E-05 4.36879E-07 1.48198E-20 1.29443E-18
 -1      1167 8.44474E-05-2.53717E-05-2.53717E-05 5.97740E-07-4.12101E-20 1.56500E-18
 -1      1168 9.17959E-05-2.74686E-05-2.72643E-05 4.43151E-07 1.18646E-19 3.28151E-18
 -1      1169 9.53198E-05-2.86100E-05-2.85439E-05-7.63806E-08 3.02894E-19 4.95092E-18
 -1      1170 1.31061E-04-3.77400E-05-3.86620E-05 1.21740E-05-1.97570E-19 1.99637E-17
 -1      1171 9.65680E-05-2.81934E-05-3.13328E-05 8.01622E-07 1.56039E-19 1.51510E-17
 -1      1172 9.03862E-05-2.69349E-05-2.78757E-05 1.19440E-07 1.60586E-19 1.05942E-17
 -1      1173 8.83524E-05-2.65051E-05-2.66828E-05 8.69282E-09 8.50143E-20 7.77783E-18
 -1      1174 8.79509E-05-2.64145E-05-2.64199E-05-2.50230E-08 3.24850E-20 6.10171E-18
 -1      1175 8.82942E-05-2.65115E-05-2.64954E-05-3.42787E-08 9.25731E-20 4.41315E-18
 -1      1176 8.89768E-05-2.67082E-05-2.66937E-05-3.56196E-08 4.36288E-20 3.30097E-18
 -1      1177 8.97917E-05-2.69471E-05-2.69348E-05-3.38934E-08 7.64687E-21 2.88620E-18
 -1      1178 9.06267E-05-2.71941E-05-2.71828E-05-3.08791E-08 3.32032E-20 2.13092E-18
 -1      1179 9.14189E-05-2.74296E-05-2.74188E-05-2.72743E-08 6.34919E-20 1.87792E-18
 -1      1180 9.21345E-05-2.76428E-05-2.76328E-05-2.34820E-08 2.49867E-20 1.34467E-18
 -1      1181 9.27582E-05-2.78289E-05-2.78199E-05-1.97650E-08 2.18935E-20-5.49116E-20
 -1      1182 9.32862E-05-2.79867E-05-2.79787E-05-1.62870E-08 4.45871E-21-9.97077E-19
 -1      1183 9.37223E-05-2.81170E-05-2.81101E-05-1.31377E-08 5.98160E-20-1.40204E-18
 -1      1184 9.40740E-05-2.82223E-05-2.82164E-05-1.03530E-08 1.36455E-19-2.34587E-18
 -1      1185 9.43516E-05-2.83054E-05-2.83006E-05-7.93008E-09-5.11328E-20-2.69664E-18
 -1      1186 9.45660E-05-2.83697E-05-2.83657E-05-5.83931E-09-1.42339E-19-2.75141E-18
 -1      1187 9.47282E-05-2.84184E-05-2.84151E-05-4.03346E-09 1.02490E-19-3.69137E-18
 -1      1188 9.48490E-05-2.84547E-05-2.84521E-05-2.45413E-09 1.22279E-19-4.03859E-18
 -1      1189 9.49388E-05-2.84818E-05-2.84798E-05-1.03661E-09-1.12830E-19-3.85222E-18
 -1      1190 9.50079E-05-2.85028E-05-2.85013E-05 2.87040E-10-1.27939E-19-2.73478E-18
 -1      1191 9.50666E-05-2.85207E-05-2.85197E-05 1.58631E-09-1.19818E-19-2.15553E-18
 -1      1192 9.51259E-05-2.85390E-05-2.85384E-05 2.93186E-09-1.14911E-20-2.47523E-18
 -1      1193 9.51983E-05-2.85613E-05-2.85612E-05 4.39600E-09 1.69619E-19-5.39052E-18
 -1      1194 9.52985E-05-2.85921E-05-2.85926E-05 6.05393E-09 2.19139E-20-4.62612E-18
 -1      1195 9.54446E-05-2.86370E-05-2.86382E-05 7.98529E-09-2.23456E-20-1.59095E-18
 -1      1196 9.56596E-05-2.87029E-05-2.87051E-05 1.02751E-08-2.31886E-20-5.98751E-19
 -1      1197 9.59734E-05-2.87988E-05-2.88024E-05 1.30122E-08 1.16210E-19-2.64101E-18
 -1      1198 9.64250E-05-2.89367E-05-2.89424E-05 1.62805E-08-1.44910E-20-3.51808E-18
 -1      1199 9.70666E-05-2.91324E-05-2.91410E-05 2.01330E-08-3.68133E-20-3.88497E-18
 -1      1200 9.79675E-05-2.94068E-05-2.94197E-05 2.45283E-08 8.73503E-22-2.45654E-18
 -1      1201 9.92207E-05-2.97880E-05-2.98076E-05 2.91863E-08 2.16715E-19-2.87927E-18
 -1      1202 1.00951E-04-3.03133E-05-3.03432E-05 3.32853E-08 7.43966E-21-2.45291E-18
 -1      1203 1.03321E-04-3.10314E-05-3.10773E-05 3.48516E-08 1.78061E-19-4.75494E-18
 -1      1204 1.06543E-04-3.20041E-05-3.20742E-05 2.96108E-08-1.51157E-19-4.46147E-18
 -1      1205 1.10871E-04-3.33039E-05-3.34091E-05 9.02051E-09-1.70100E-19-3.28551E-18
 -1      1206 1.16570E-04-3.50037E-05-3.51532E-05-4.24899E-08 1.27048E-19-3.94093E-18
 -1      1207 1.23814E-04-3.71443E-05-3.73325E-05-1.49477E-07 1.34488E-19-3.90948E-18
 -1      1208 1.32437E-04-3.96630E-05-3.98362E-05-3.40383E-07-2.48556E-19-2.42760E-18
 -1      1209 1.41428E-04-4.22504E-05-4.22564E-05-6.17912E-07 2.10997E-19-1.12264E-18
 -1      1210 1.48126E-04-4.41432E-05-4.36975E-05-8.79712E-07-3.06652E-20-1.91377E-20
 -1      1211 1.47511E-04-4.39316E-05-4.27484E-05-8.14537E-07 1.85844E-19 2.22272E-18
 -1      1212 1.33015E-04-3.97861E-05-3.80038E-05 3.59517E-08 5.51630E-20 3.59650E-18
 -1      1213 1.01112E-04-3.05920E-05-2.93008E-05 1.71357E-06 1.75812E-19 3.79259E-18
 -1      1214 5.92321E-05-1.81187E-05-1.89860E-05 3.07903E-06 2.80553E-19 5.40492E-18
 -1      1215 2.71713E-05-7.99999E-06-1.13953E-05 2.59440E-06-4.73280E-20 5.10316E-18
 -1      1216 2.22329E-05-6.04825E-06-9.88331E-06 4.43766E-07 7.23948E-19 1.33492E-18
 -1      1217 4.25228E-05-1.22869E-05-1.41467E-05-1.63187E-06 5.09504E-19-2.65291E-18
 -1      1218 7.12259E-05-2.10426E-05-2.04862E-05-2.97023E-06-3.92726E-19-1.53271E-18
 -1      1219 9.12833E-05-2.77416E-05-2.48386E-05-1.19649E-06 1.08486E-19 2.15760E-18
 -1      1220 9.61346E-05-3.24054E-05-2.55628E-05-1.50540E-06 2.35708E-18 5.02026E-19
 -1      1221 1.01829E-04-5.07932E-05-2.31751E-05-3.34663E-06 2.34649E-18-5.45039E-19
 -1      1222 1.04104E-04-5.92402E-05-2.42521E-05-2.90528E-07-2.98759E-18-7.57936E-19
 -1      1223 9.21379E-05-2.19272E-05-3.48182E-05 6.95387E-06-1.89905E-18-3.92732E-19
 -1      1224 6.59147E-05 6.08231E-05-5.19174E-05 1.15338E-05-1.51018E-17-2.38408E-18
 -1      1225 4.16835E-05 1.42133E-04-6.64059E-05 7.38738E-06-2.04076E-17-2.50404E-19
 -1      1226 3.42864E-05 1.64793E-04-6.96356E-05-2.03912E-06-1.78817E-17-3.03979E-19
 -1      1227 5.19639E-05 1.10226E-04-6.00431E-05-8.93478E-06-5.10083E-18 6.59733E-19
 -1      1228 7.93215E-05 2.10953E-05-4.26431E-05-8.56491E-06 1.03219E-17 1.12200E-18
 -1      1229 1.03388E-04-5.66310E-05-2.48859E-05-4.38607E-06 1.27224E-17-3.98635E-19
 -1      1230 1.16921E-04-9.89066E-05-1.23228E-05-1.12494E-06 1.07808E-17-4.11870E-19
 -1      1231 1.18424E-04-1.04518E-04-8.13257E-06 9.14418E-07 4.28239E-18-3.85400E-20
 -1      1232 1.13742E-04-9.00299E-05-1.05882E-05 1.23654E-06-1.14222E-18-6.89415E-19
 -1      1233 1.08024E-04-7.13864E-05-1.54575E-05 1.00925E-06 6.24263E-19 5.10498E-19
 -1      1234 1.03011E-04-5.47061E-05-2.03187E-05 7.41452E-07 2.65968E-18-2.01170E-19
 -1      1235 9.90665E-05-4.13493E-05-2.42647E-05 7.24922E-07-2.24252E-19 7.68087E-20
 -1      1236 9.65829E-05-3.24926E-05-2.69407E-05 4.34703E-07-3.35812E-18-3.29966E-19
 -1      1237 9.51274E-05-2.85767E-05-2.84710E-05 7.17813E-08-5.43167E-18 2.95045E-19
 -1      1238 6.10324E-05-1.88731E-04 2.33201E-05-2.46056E-05 1.98824E-17 2.25703E-18
 -1      1239 3.01522E-05-1.00286E-04 8.76044E-06-3.25992E-05 1.15383E-17 3.57109E-18
 -1      1240 1.96031E-05 4.88665E-06-1.69458E-05 2.39646E-05 9.01243E-18 5.76491E-18
 -1      1241 7.94254E-05 4.69396E-05-4.86135E-05 1.15286E-04 4.54179E-18 1.81096E-18
 -1      1242 1.99878E-04 1.15330E-05-7.63417E-05 1.74518E-04-1.72964E-18-2.54110E-18
 -1      1243 3.28353E-04-6.04759E-05-9.53498E-05 1.55751E-04-8.80914E-20 1.67543E-18
 -1      1244 4.13805E-04-1.19479E-04-1.03616E-04 7.33491E-05 1.03227E-18 3.87581E-18
 -1      1245 3.95910E-04-1.17664E-04-9.89683E-05-3.65646E-05 2.59033E-19-1.75505E-18
 -1      1246 2.94964E-04-6.74875E-05-8.29968E-05-1.10891E-04 1.97740E-18-5.77676E-18
 -1      1247 1.57736E-04-6.57969E-06-5.88191E-05-1.12162E-04 7.03461E-18-9.72902E-18
 -1      1248 5.02648E-05 1.68312E-05-3.08746E-05-5.75010E-05 9.08189E-18-1.07234E-17
 -1      1249 7.38891E-06-1.58340E-05-5.04775E-06 8.87305E-06 4.53332E-18-4.98902E-18
 -1      1250 1.67264E-05-8.29360E-05 1.52268E-05 4.38760E-05 3.29496E-18-6.34004E-19
 -1      1251 3.96113E-05-1.37370E-04 2.68226E-05 3.22454E-05 1.02915E-18-5.18966E-19
 -1      1252 4.76060E-05-1.48962E-04 2.83682E-05-4.20479E-06-4.15046E-19-4.96732E-19
 -1      1253 3.00067E-05-1.05679E-04 1.98604E-05-3.20497E-05-1.82705E-18-6.53274E-19
 -1      1254 9.28390E-06-3.49157E-05 2.68171E-06-1.79120E-05-1.36033E-18-6.77626E-19
 -1      1255 2.32433E-05 1.74288E-05-2.03222E-05 3.63536E-05 4.25211E-19 7.60636E-19
 -1      1256 9.20865E-05 2.09958E-05-4.53129E-05 9.77905E-05 1.24683E-18 8.84302E-19
 -1      1257 2.05398E-04-2.36541E-05-6.90848E-05 1.22051E-04-7.78423E-19-3.46436E-18
 -1      1258 3.17819E-04-8.32046E-05-8.73140E-05 8.62605E-05-1.96872E-18-6.96939E-18
 -1      1259 3.77470E-04-1.12712E-04-9.76300E-05-2.59722E-06-1.04450E-18 1.91557E-18
 -1      1260 3.64401E-04-9.40728E-05-9.88502E-05-1.03350E-04-4.97632E-19 1.48104E-18
 -1      1261 2.84149E-04-3.41346E-05-9.06732E-05-1.71609E-04-7.54283E-19 2.66307E-18
 -1      1262 1.67138E-04 3.60869E-05-7.32604E-05-1.78307E-04-1.39845E-18 1.64494E-18
 -1      1263 6.38155E-05 6.71910E-05-4.85134E-05-1.22620E-04-9.79170E-18 7.13541E-18
 -1      1264 1.63874E-05 1.98692E-05-1.95925E-05-3.44129E-05-1.44470E-17 8.31109E-18
 -1      1265 2.97159E-05-8.91832E-05 6.43021E-06 2.51753E-05-7.72494E-18 4.15554E-18
 -1      1266 6.28758E-05-1.85838E-04 2.17806E-05 1.72130E-05 1.36330E-17 7.41260E-19
 -1      1267 1.04450E-04-2.20212E-05-3.78943E-05-1.72732E-05-5.29396E-19 9.68137E-18
 -1      1268 9.03248E-05-6.68235E-06-3.60188E-05-2.04673E-05-1.48263E-18-2.26952E-19
 -1      1269 9.26622E-05-6.74140E-06-3.72240E-05-2.57559E-05-1.90074E-18 2.08497E-18
 -1      1270 8.59076E-05-4.09733E-06-3.51309E-05-1.64280E-05-1.50354E-18-3.46389E-18
 -1      1271 8.71606E-05-4.09008E-06-3.56006E-05-1.88490E-05-1.71858E-18-2.07073E-18
 -1      1272 9.21391E-05-1.04645E-05-3.50949E-05-1.90307E-05-2.64428E-18-2.26422E-19
 -1      1273 8.40960E-05-3.19007E-06-3.46869E-05-1.28111E-05-1.21719E-18-5.08007E-18
 -1      1274 8.47092E-05-3.16071E-06-3.49118E-05-1.46257E-05-1.39980E-18-4.35915E-18
 -1      1275 8.78688E-05-7.39540E-06-3.45744E-05-1.54065E-05-2.34496E-18-2.90662E-18
 -1      1276 8.31829E-05-2.72696E-06-3.44695E-05-9.68232E-06-9.51046E-19-5.85022E-18
 -1      1277 8.34969E-05-2.70857E-06-3.45791E-05-1.12293E-05-1.05003E-18-5.51426E-18
 -1      1278 8.58656E-05-5.98135E-06-3.43052E-05-1.19504E-05-1.86927E-18-4.25279E-18
 -1      1279 8.26895E-05-2.45653E-06-3.43622E-05-6.91120E-06-6.36423E-19-6.17455E-18
 -1      1280 8.28598E-05-2.44818E-06-3.44171E-05-8.28189E-06-7.50372E-19-6.00763E-18
 -1      1281 8.48177E-05-5.21558E-06-3.41720E-05-8.94067E-06-1.40991E-18-4.90991E-18
 -1      1282 8.24120E-05-2.29045E-06-3.43088E-05-4.29218E-06-4.17974E-19-6.24970E-18
 -1      1283 8.25040E-05-2.28658E-06-3.43363E-05-5.59280E-06-4.80804E-19-6.23561E-18
 -1      1284 8.42295E-05-4.75961E-06-3.41078E-05-6.21310E-06-9.34044E-19-5.19250E-18
 -1      1285 8.22783E-05-2.20078E-06-3.42861E-05-1.78876E-06-1.07534E-19-6.25669E-18
 -1      1286 8.23177E-05-2.19923E-06-3.42974E-05-3.03908E-06-2.13423E-19-6.24578E-18
 -1      1287 8.39048E-05-4.49510E-06-3.40784E-05-3.64243E-06-5.19072E-19-5.23759E-18
 -1      1288 8.22520E-05-2.17322E-06-3.42834E-05 6.69446E-07 1.13460E-19-6.25923E-18
 -1      1289 8.22506E-05-2.17326E-06-3.42830E-05-5.65671E-07 6.17854E-20-6.27085E-18
 -1      1290 8.37624E-05-4.37519E-06-3.40672E-05-1.16981E-06-3.53417E-20-5.28195E-18
 -1      1291 8.23263E-05-2.20359E-06-3.42989E-05 3.14653E-06 3.75136E-19-6.20876E-18
 -1      1292 8.22840E-05-2.20520E-06-3.42869E-05 1.89360E-06 2.63229E-19-6.24283E-18
 -1      1293 8.37674E-05-4.37945E-06-3.40676E-05 1.27297E-06 3.07887E-19-5.27540E-18
 -1      1294 8.25209E-05-2.29685E-06-3.43390E-05 5.70956E-06 5.91219E-19-6.07548E-18
 -1      1295 8.24256E-05-2.30022E-06-3.43107E-05 4.40298E-06 5.21862E-19-6.16846E-18
 -1      1296 8.39203E-05-4.50872E-06-3.40795E-05 3.74998E-06 7.38715E-19-5.20980E-18
 -1      1297 8.28822E-05-2.46276E-06-3.44199E-05 8.39038E-06 8.68394E-19-5.74722E-18
 -1      1298 8.27086E-05-2.47149E-06-3.43646E-05 7.01107E-06 7.73192E-19-5.94683E-18
 -1      1299 8.42545E-05-4.78235E-06-3.41090E-05 6.30742E-06 1.14294E-18-4.99805E-18
 -1      1300 8.35426E-05-2.74007E-06-3.45840E-05 1.13894E-05 1.20386E-18-5.09416E-18
 -1      1301 8.32199E-05-2.75718E-06-3.44729E-05 9.82499E-06 1.06309E-18-5.47936E-18
 -1      1302 8.48590E-05-5.25571E-06-3.41728E-05 9.04974E-06 1.60842E-18-4.58915E-18
 -1      1303 8.47706E-05-3.20580E-06-3.49193E-05 1.48375E-05 1.58618E-18-3.88113E-18
 -1      1304 8.41545E-05-3.24055E-06-3.46921E-05 1.29967E-05 1.38968E-18-4.62771E-18
 -1      1305 8.59454E-05-6.06182E-06-3.43062E-05 1.21157E-05 2.12654E-18-3.90276E-18
 -1      1306 8.72567E-05-4.08962E-06-3.56216E-05 1.90881E-05 1.85151E-18-1.49983E-18
 -1      1307 8.59764E-05-4.15483E-06-3.51380E-05 1.66910E-05 1.65500E-18-2.95400E-18
 -1      1308 8.79924E-05-7.51965E-06-3.45758E-05 1.56465E-05 2.63231E-18-2.43453E-18
 -1      1309 9.34752E-05-6.79506E-06-3.71203E-05 2.50915E-05 1.66982E-18 3.22783E-18
 -1      1310 9.01387E-05-6.43810E-06-3.60418E-05 2.11429E-05 1.62334E-18 3.25367E-19
 -1      1311 9.23619E-05-1.06970E-05-3.50803E-05 1.96737E-05 2.83526E-18 3.11867E-19
 -1      1312 1.23636E-04-2.49260E-05-3.90186E-05 2.83649E-05 8.94255E-19 1.27114E-17
 -1      1313 1.00091E-04-1.44261E-05-3.73580E-05 2.40474E-05 8.94043E-19 6.05713E-18
 -1      1314 1.01695E-04-1.93477E-05-3.54066E-05 2.13962E-05 2.79493E-18 4.62268E-18
 -1      1315 1.02616E-04-2.78086E-05-3.47618E-05 7.32664E-06 1.57061E-18 1.19984E-17
 -1      1316 1.05160E-04-3.02343E-05-3.35289E-05-7.95727E-06-1.52318E-18 1.02042E-17
 -1      1317 9.82751E-05-2.78475E-05-3.07662E-05-4.98646E-06-1.43863E-18 8.46646E-18
 -1      1318 9.55184E-05-2.78539E-05-2.92592E-05-2.48790E-06-1.19792E-18 7.65998E-18
 -1      1319 9.32879E-05-2.75635E-05-2.82204E-05-2.04132E-06-1.19000E-18 5.91081E-18
 -1      1320 9.94986E-05-2.80564E-05-3.09868E-05-7.88322E-06-2.54782E-18 4.34239E-18
 -1      1321 9.15995E-05-2.72058E-05-2.75866E-05-8.36267E-07-9.81374E-19 5.35425E-18
 -1      1322 9.08849E-05-2.71110E-05-2.72850E-05-7.25861E-07-8.69420E-19 4.03161E-18
 -1      1323 9.47343E-05-2.77747E-05-2.88214E-05-3.11703E-06-2.03513E-18 3.24488E-18
 -1      1324 9.01366E-05-2.69289E-05-2.70422E-05-1.71278E-07-6.34428E-19 3.39732E-18
 -1      1325 9.00666E-05-2.69565E-05-2.70081E-05-1.13188E-07-5.48771E-19 2.59367E-18
 -1      1326 9.25381E-05-2.75050E-05-2.79015E-05-1.04855E-06-1.52449E-18 2.15768E-18
 -1      1327 8.98092E-05-2.68896E-05-2.69345E-05 1.57118E-07-4.93936E-19 2.32736E-18
 -1      1328 9.00264E-05-2.69805E-05-2.69969E-05 1.85806E-07-4.12586E-19 1.67102E-18
 -1      1329 9.15835E-05-2.73627E-05-2.75356E-05-6.48170E-08-1.03121E-18 1.25825E-18
 -1      1330 9.00323E-05-2.69842E-05-2.70041E-05 3.17001E-07-2.78861E-19 1.49978E-18
 -1      1331 9.03773E-05-2.71047E-05-2.71040E-05 3.28766E-07-2.03233E-19 1.16423E-18
 -1      1332 9.13343E-05-2.73519E-05-2.74289E-05 4.22623E-07-6.63409E-19 7.36800E-19
 -1      1333 9.05216E-05-2.71471E-05-2.71519E-05 3.83440E-07-1.23499E-19 8.94037E-19
 -1      1334 9.09121E-05-2.72762E-05-2.72647E-05 3.85158E-07-1.62313E-19 6.19638E-19
 -1      1335 9.14713E-05-2.74267E-05-2.74523E-05 6.51128E-07-4.43877E-19 3.84120E-19
 -1      1336 9.11224E-05-2.73372E-05-2.73318E-05 3.95757E-07-2.74017E-19 5.51710E-19
 -1      1337 9.15126E-05-2.74628E-05-2.74449E-05 3.91573E-07-4.39395E-19-3.85532E-20
 -1      1338 9.18081E-05-2.75469E-05-2.75425E-05 7.33742E-07-5.11206E-19-1.56337E-21
 -1      1339 9.17461E-05-2.75301E-05-2.75185E-05 3.76874E-07-3.90371E-19-1.17566E-19
 -1      1340 9.21104E-05-2.76454E-05-2.76245E-05 3.69455E-07-3.78289E-19-7.21176E-19
 -1      1341 9.22340E-05-2.76853E-05-2.76637E-05 7.31958E-07-7.51458E-19-3.17488E-19
 -1      1342 9.23415E-05-2.77118E-05-2.76970E-05 3.41063E-07-3.79484E-19-7.56979E-19
 -1      1343 9.26669E-05-2.78135E-05-2.77920E-05 3.32150E-07-2.79892E-19-1.19032E-18
 -1      1344 9.26821E-05-2.78251E-05-2.77946E-05 6.82455E-07-5.96225E-19-3.52975E-19
 -1      1345 9.28811E-05-2.78750E-05-2.78591E-05 2.97449E-07-1.53536E-19-1.43005E-18
 -1      1346 9.31619E-05-2.79620E-05-2.79413E-05 2.88173E-07-5.22003E-20-1.48265E-18
 -1      1347 9.31131E-05-2.79563E-05-2.79224E-05 6.08250E-07-3.98086E-19-8.69689E-19
 -1      1348 9.33520E-05-2.80164E-05-2.80007E-05 2.51861E-07-1.32029E-19-1.49538E-18
 -1      1349 9.35878E-05-2.80889E-05-2.80700E-05 2.42929E-07-1.83193E-19-1.76659E-18
 -1      1350 9.35052E-05-2.80737E-05-2.80398E-05 5.24035E-07-1.92803E-19-1.58635E-18
 -1      1351 9.37507E-05-2.81355E-05-2.81209E-05 2.07923E-07-4.03693E-20-1.65081E-18
 -1      1352 9.39440E-05-2.81944E-05-2.81778E-05 1.99751E-07 4.09316E-20-1.74712E-18
 -1      1353 9.38480E-05-2.81751E-05-2.81432E-05 4.39099E-07-9.48611E-20-1.44496E-18
 -1      1354 9.40800E-05-2.82332E-05-2.82202E-05 1.67768E-07-8.78879E-20-1.67072E-18
 -1      1355 9.42349E-05-2.82802E-05-2.82660E-05 1.60576E-07-2.74627E-19-1.74528E-18
 -1      1356 9.41387E-05-2.82601E-05-2.82315E-05 3.59112E-07-1.68955E-19-1.07312E-18
 -1      1357 9.43458E-05-2.83118E-05-2.83005E-05 1.32534E-07-3.60048E-19-1.88741E-18
 -1      1358 9.44674E-05-2.83483E-05-2.83365E-05 1.26414E-07-2.28879E-19-2.23444E-18
 -1      1359 9.43791E-05-2.83297E-05-2.83049E-05 2.87318E-07-4.13004E-19-1.36794E-18
 -1      1360 9.45561E-05-2.83736E-05-2.83642E-05 1.02727E-07-2.58844E-19-2.33742E-18
 -1      1361 9.46497E-05-2.84015E-05-2.83920E-05 9.76939E-08-2.63988E-19-2.78997E-18
 -1      1362 9.45736E-05-2.83855E-05-2.83647E-05 2.25375E-07-4.62078E-19-1.74746E-18
 -1      1363 9.47197E-05-2.84213E-05-2.84138E-05 7.84817E-08-1.00888E-19-2.81063E-18
 -1      1364 9.47906E-05-2.84423E-05-2.84350E-05 7.45137E-08-1.67479E-19-3.34359E-18
 -1      1365 9.47285E-05-2.84293E-05-2.84126E-05 1.73966E-07-3.70995E-19-2.18975E-18
 -1      1366 9.48458E-05-2.84578E-05-2.84521E-05 5.97653E-08-2.10249E-19-3.44398E-18
 -1      1367 9.48994E-05-2.84734E-05-2.84682E-05 5.68326E-08-2.41473E-19-3.64266E-18
 -1      1368 9.48507E-05-2.84635E-05-2.84506E-05 1.33251E-07-4.56726E-19-3.07760E-18
 -1      1369 9.49435E-05-2.84859E-05-2.84819E-05 4.65251E-08-1.10475E-19-3.86818E-18
 -1      1370 9.49849E-05-2.84977E-05-2.84944E-05 4.46128E-08-1.76000E-19-4.31061E-18
 -1      1371 9.49477E-05-2.84901E-05-2.84811E-05 1.03212E-07-4.59493E-19-3.11051E-18
 -1      1372 9.50222E-05-2.85081E-05-2.85060E-05 3.88003E-08 2.12372E-19-4.31691E-18
 -1      1373 9.50567E-05-2.85178E-05-2.85165E-05 3.79244E-08 7.67849E-20-4.05760E-18
 -1      1374 9.50274E-05-2.85116E-05-2.85064E-05 8.39016E-08-4.30800E-20-3.20580E-18
 -1      1375 9.50912E-05-2.85275E-05-2.85273E-05 3.68016E-08 2.84517E-19-3.46958E-18
 -1      1376 9.51242E-05-2.85365E-05-2.85373E-05 3.70210E-08 4.85731E-19-2.55278E-18
 -1      1377 9.50978E-05-2.85302E-05-2.85289E-05 7.56301E-08 4.65409E-19-2.88673E-18
 -1      1378 9.51607E-05-2.85467E-05-2.85487E-05 4.09639E-08 2.61098E-19-2.43822E-18
 -1      1379 9.51979E-05-2.85570E-05-2.85601E-05 4.23874E-08 1.67591E-20-2.50238E-18
 -1      1380 9.51675E-05-2.85483E-05-2.85514E-05 7.90906E-08 2.79659E-19-2.05544E-18
 -1      1381 9.52414E-05-2.85692E-05-2.85736E-05 5.19692E-08 5.14115E-20-2.40198E-18
 -1      1382 9.52894E-05-2.85826E-05-2.85882E-05 5.47569E-08 1.31920E-19-2.23347E-18
 -1      1383 9.52460E-05-2.85689E-05-2.85767E-05 9.54282E-08 1.64279E-19-1.94889E-18
 -1      1384 9.53455E-05-2.85983E-05-2.86057E-05 7.07325E-08 5.20921E-19-1.98830E-18
 -1      1385 9.54117E-05-2.86172E-05-2.86257E-05 7.50901E-08 5.02643E-19-1.25126E-18
 -1      1386 9.53436E-05-2.85947E-05-2.86079E-05 1.26242E-07 5.75345E-19-1.24849E-18
 -1      1387 9.54866E-05-2.86383E-05-2.86490E-05 9.83350E-08 6.08350E-20-5.79920E-19
 -1      1388 9.55794E-05-2.86651E-05-2.86769E-05 1.04496E-07-4.19041E-20-6.53774E-19
 -1      1389 9.54721E-05-2.86292E-05-2.86487E-05 1.73492E-07 5.64400E-19-7.76305E-19
 -1      1390 9.56802E-05-2.86937E-05-2.87083E-05 1.35879E-07-2.68405E-19-1.05721E-18
 -1      1391 9.58090E-05-2.87314E-05-2.87469E-05 1.44068E-07-3.33316E-19-1.75038E-18
 -1      1392 9.56443E-05-2.86764E-05-2.87029E-05 2.39280E-07-2.56979E-19-8.28538E-19
 -1      1393 9.59433E-05-2.87696E-05-2.87886E-05 1.84227E-07-3.80277E-19-1.55505E-18
 -1      1394 9.61185E-05-2.88216E-05-2.88409E-05 1.94599E-07-2.75446E-19-1.83616E-18
 -1      1395 9.58746E-05-2.87405E-05-2.87748E-05 3.25427E-07-5.26357E-19-7.96062E-19
 -1      1396 9.62938E-05-2.88717E-05-2.88952E-05 2.43576E-07 2.03247E-19-2.44679E-18
 -1      1397 9.65257E-05-2.89412E-05-2.89642E-05 2.56118E-07 4.52359E-19-2.06945E-18
 -1      1398 9.61779E-05-2.88265E-05-2.88686E-05 4.32770E-07-2.15686E-19-1.15775E-18
 -1      1399 9.67489E-05-2.90056E-05-2.90333E-05 3.12811E-07 6.17195E-19-1.67380E-18
 -1      1400 9.70469E-05-2.90958E-05-2.91216E-05 3.27185E-07 5.42464E-19-6.50639E-19
 -1      1401 9.65685E-05-2.89391E-05-2.89883E-05 5.60081E-07 7.50064E-19-1.62123E-18
 -1      1402 9.73227E-05-2.91759E-05-2.92067E-05 3.88557E-07-3.50905E-19-2.56414E-19
 -1      1403 9.76924E-05-2.92892E-05-2.93158E-05 4.03888E-07-5.69974E-19-1.00685E-18
 -1      1404 9.70582E-05-2.90830E-05-2.91370E-05 7.02467E-07 2.95383E-19-1.59166E-18
 -1      1405 9.80214E-05-2.93858E-05-2.94167E-05 4.63919E-07-7.89534E-19-9.08256E-19
 -1      1406 9.84615E-05-2.95223E-05-2.95461E-05 4.78498E-07-8.18783E-19-1.69264E-18
 -1      1407 9.76528E-05-2.92616E-05-2.93152E-05 8.49181E-07-1.05879E-18-9.85545E-19
 -1      1408 9.88368E-05-2.96342E-05-2.96604E-05 5.26899E-07-4.97960E-19-2.05822E-18
 -1      1409 9.93340E-05-2.97908E-05-2.98058E-05 5.37827E-07-3.24910E-19-2.71177E-18
 -1      1410 9.83468E-05-2.94757E-05-2.95203E-05 9.80836E-07-1.20838E-18-4.39013E-19
 -1      1411 9.97372E-05-2.99136E-05-2.99272E-05 5.58713E-07-3.76004E-19-3.44668E-18
 -1      1412 1.00259E-04-3.00814E-05-3.00786E-05 5.61530E-07-3.09679E-20-3.30312E-18
 -1      1413 9.91173E-05-2.97218E-05-2.97433E-05 1.06626E-06-6.67440E-19-1.06064E-18
 -1      1414 1.00656E-04-3.02064E-05-3.01957E-05 5.32477E-07 5.14482E-20-2.51020E-18
 -1      1415 1.01144E-04-3.03684E-05-3.03355E-05 5.20923E-07-7.26740E-20-2.66657E-18
 -1      1416 9.99144E-05-2.99887E-05-2.99672E-05 1.05974E-06-1.06722E-19-1.75455E-18
 -1      1417 1.01478E-04-3.04806E-05-3.04302E-05 4.13341E-07-3.57701E-19-2.92184E-18
 -1      1418 1.01839E-04-3.06085E-05-3.05307E-05 3.79513E-07 1.56293E-19-2.88411E-18
 -1      1419 1.00652E-04-3.02546E-05-3.01642E-05 9.00218E-07-2.08532E-21-2.33034E-18
 -1      1420 1.02032E-04-3.06855E-05-3.05778E-05 1.61830E-07 5.84774E-19-3.22912E-18
 -1      1421 1.02134E-04-3.07380E-05-3.06007E-05 9.72345E-08 1.53889E-20-2.83660E-18
 -1      1422 1.01201E-04-3.04824E-05-3.02938E-05 5.15264E-07 1.50444E-19-3.16422E-18
 -1      1423 1.02083E-04-3.07492E-05-3.05687E-05-2.57023E-07 7.09390E-21-2.48262E-18
 -1      1424 1.01764E-04-3.06730E-05-3.04675E-05-3.58882E-07-1.63821E-19-2.42260E-18
 -1      1425 1.01382E-04-3.06162E-05-3.03040E-05-1.65820E-07 2.81265E-19-2.41947E-18
 -1      1426 1.01353E-04-3.05810E-05-3.03227E-05-8.56214E-07 9.92881E-20-1.62255E-18
 -1      1427 1.00443E-04-3.03168E-05-3.00504E-05-9.95136E-07 2.99241E-19-1.67636E-18
 -1      1428 1.00980E-04-3.05796E-05-3.01358E-05-1.18498E-06-9.83485E-20-1.68441E-18
 -1      1429 9.95688E-05-3.00830E-05-2.97654E-05-1.60060E-06 2.52350E-19-1.70374E-18
 -1      1430 9.79424E-05-2.95813E-05-2.92894E-05-1.76312E-06-8.02034E-20-1.81927E-18
 -1      1431 9.97705E-05-3.02812E-05-2.97356E-05-2.51201E-06 3.67956E-19-3.45565E-19
 -1      1432 9.65525E-05-2.91780E-05-2.88561E-05-2.37790E-06-5.64557E-19-1.98801E-18
 -1      1433 9.42031E-05-2.84246E-05-2.81800E-05-2.53104E-06-7.22605E-19-2.40838E-18
 -1      1434 9.75861E-05-2.96323E-05-2.90739E-05-3.99100E-06-5.41678E-19-1.37613E-18
 -1      1435 9.23526E-05-2.78539E-05-2.76243E-05-2.98340E-06-3.95751E-19-3.57305E-18
 -1      1436 8.94804E-05-2.69027E-05-2.68106E-05-3.07380E-06-3.19138E-19-4.00623E-18
 -1      1437 9.44098E-05-2.85842E-05-2.81705E-05-5.29986E-06-1.50897E-18-2.23378E-18
 -1      1438 8.73817E-05-2.62189E-05-2.62039E-05-3.14479E-06 4.49712E-19-3.69060E-18
 -1      1439 8.44464E-05-2.52170E-05-2.53855E-05-3.11035E-06 6.57101E-19-3.36619E-18
 -1      1440 9.04862E-05-2.71822E-05-2.71160E-05-5.96586E-06 1.41026E-20-3.06893E-18
 -1      1441 8.24830E-05-2.45413E-05-2.48417E-05-2.61029E-06 1.09099E-18-1.88280E-18
 -1      1442 8.01656E-05-2.37235E-05-2.42076E-05-2.40734E-06 1.24089E-18-4.37056E-19
 -1      1443 8.63970E-05-2.56184E-05-2.60769E-05-5.48538E-06 2.11517E-18-1.91209E-18
 -1      1444 7.88265E-05-2.32296E-05-2.38597E-05-1.29007E-06 8.84329E-19-3.38628E-19
 -1      1445 7.78561E-05-2.28630E-05-2.36048E-05-9.27625E-07 8.47046E-19 5.33568E-19
 -1      1446 8.30202E-05-2.42407E-05-2.52702E-05-3.55646E-06 1.63918E-18 5.64991E-19
 -1      1447 7.75784E-05-2.27250E-05-2.35592E-05 6.08983E-07 7.97746E-19 8.22006E-19
 -1      1448 7.84423E-05-2.30061E-05-2.38034E-05 1.04661E-06 1.09663E-18 2.06358E-18
 -1      1449 8.13120E-05-2.34800E-05-2.49017E-05-3.46435E-07 1.61206E-18 2.37160E-18
 -1      1450 7.94016E-05-2.33198E-05-2.40849E-05 2.53974E-06 1.07070E-20 1.63758E-18
 -1      1451 8.20271E-05-2.42585E-05-2.47901E-05 2.89878E-06-7.37944E-19 1.63541E-18
 -1      1452 8.19331E-05-2.36941E-05-2.50782E-05 3.35325E-06 4.87732E-19 2.39739E-18
 -1      1453 8.39866E-05-2.49865E-05-2.53034E-05 3.70547E-06-4.38029E-19 1.17616E-18
 -1      1454 8.75153E-05-2.63171E-05-2.62241E-05 3.78605E-06-2.27231E-19 1.77125E-18
 -1      1455 8.48700E-05-2.50013E-05-2.57296E-05 6.20502E-06-1.19580E-18 1.75031E-18
 -1      1456 8.98247E-05-2.72531E-05-2.67727E-05 3.25766E-06 5.12849E-19 1.63874E-18
 -1      1457 9.27317E-05-2.83765E-05-2.75322E-05 2.99470E-06 1.47339E-18 2.89810E-18
 -1      1458 8.92728E-05-2.71856E-05-2.65999E-05 6.68672E-06 3.43181E-19 1.65537E-18
 -1      1459 9.49277E-05-2.91193E-05-2.80365E-05 5.08623E-07-1.49179E-18 1.88798E-18
 -1      1460 9.41859E-05-2.98125E-05-2.74922E-05 3.24219E-06-1.00663E-18 1.39658E-19
 -1      1461 9.65912E-05-2.83662E-05-2.97760E-05 2.99328E-06 1.33641E-18 9.01995E-18
 -1      1462 1.02551E-04-2.94028E-05-3.21599E-05 4.46296E-06 1.20734E-18 1.11653E-17
 -1      1463 1.02340E-04-2.67205E-05-3.27099E-05 1.27830E-05 2.37085E-18 6.97383E-18
 -1      1464 9.20461E-05-2.74331E-05-2.77653E-05 1.15034E-06 1.04185E-18 6.30121E-18
 -1      1465 9.39934E-05-2.75900E-05-2.86792E-05 1.47329E-06 9.50927E-19 7.96995E-18
 -1      1466 9.65020E-05-2.80336E-05-2.95373E-05 4.86729E-06 2.03947E-18 5.04447E-18
 -1      1467 9.02206E-05-2.70125E-05-2.70686E-05 3.30232E-07 4.38095E-19 4.69203E-18
 -1      1468 9.08333E-05-2.70292E-05-2.73398E-05 4.91430E-07 5.52179E-19 5.63624E-18
 -1      1469 9.30575E-05-2.75803E-05-2.81030E-05 1.84865E-06 1.37315E-18 3.52588E-18
 -1      1470 8.97059E-05-2.68934E-05-2.68954E-05-5.68879E-08 5.44576E-19 3.44607E-18
 -1      1471 8.97418E-05-2.68308E-05-2.69223E-05 3.25790E-08 4.92326E-19 4.26367E-18
 -1      1472 9.15101E-05-2.73141E-05-2.75215E-05 5.14589E-07 9.96098E-19 2.33479E-18
 -1      1473 8.98427E-05-2.69476E-05-2.69383E-05-2.45230E-07 4.12330E-19 2.34295E-18
 -1      1474 8.96114E-05-2.68391E-05-2.68726E-05-1.94606E-07 3.41457E-19 2.98963E-18
 -1      1475 9.09820E-05-2.72334E-05-2.73268E-05-1.36450E-07 8.32402E-19 1.54991E-18
 -1      1476 9.03003E-05-2.70916E-05-2.70778E-05-3.28397E-07 1.72327E-19 1.67836E-18
 -1      1477 8.99504E-05-2.69634E-05-2.69756E-05-3.00641E-07 2.08457E-19 2.08596E-18
 -1      1478 9.10035E-05-2.72783E-05-2.73167E-05-4.56029E-07 5.14266E-19 9.69479E-19
 -1      1479 9.08993E-05-2.72753E-05-2.72586E-05-3.52949E-07 3.12713E-19 1.27079E-18
 -1      1480 9.05088E-05-2.71440E-05-2.71442E-05-3.39140E-07 1.97944E-19 1.52909E-18
 -1      1481 9.13117E-05-2.73914E-05-2.73994E-05-5.96336E-07 3.75461E-19 4.24588E-19
 -1      1482 9.15375E-05-2.74689E-05-2.74507E-05-3.43827E-07-7.11954E-21 9.13247E-19
 -1      1483 9.11498E-05-2.73443E-05-2.73370E-05-3.38776E-07 1.86919E-19 1.25227E-18
 -1      1484 9.17560E-05-2.75363E-05-2.75263E-05-6.34889E-07 4.05730E-19 3.76316E-19
 -1      1485 9.21554E-05-2.76553E-05-2.76369E-05-3.15958E-07 2.57765E-19 7.10135E-19
 -1      1486 9.17948E-05-2.75427E-05-2.75308E-05-3.16342E-07 6.80131E-20 9.13565E-19
 -1      1487 9.22471E-05-2.76897E-05-2.76698E-05-6.14871E-07 1.23647E-19 7.16512E-20
 -1      1488 9.27207E-05-2.78249E-05-2.78075E-05-2.78786E-07 3.88755E-19 1.96110E-19
 -1      1489 9.23996E-05-2.77268E-05-2.77127E-05-2.82386E-07 3.62014E-19 6.33746E-19
 -1      1490 9.27322E-05-2.78380E-05-2.78133E-05-5.62520E-07 4.96272E-19-4.68747E-19
 -1      1491 9.32173E-05-2.79734E-05-2.79575E-05-2.38346E-07 4.43251E-19-6.17143E-19
 -1      1492 9.29407E-05-2.78903E-05-2.78757E-05-2.43670E-07 3.81253E-19 4.02705E-20
 -1      1493 9.31813E-05-2.79732E-05-2.79471E-05-4.94448E-07 6.00814E-19-3.43581E-19
 -1      1494 9.36401E-05-2.80995E-05-2.80855E-05-1.98426E-07 1.96402E-19-1.16641E-18
 -1      1495 9.34083E-05-2.80309E-05-2.80168E-05-2.04481E-07 2.64277E-19-9.78538E-19
 -1      1496 9.35792E-05-2.80917E-05-2.80664E-05-4.21245E-07 5.47520E-19-6.95792E-19
 -1      1497 9.39908E-05-2.82038E-05-2.81918E-05-1.61300E-07 2.19931E-19-1.87345E-18
 -1      1498 9.38012E-05-2.81483E-05-2.81354E-05-1.67438E-07 8.83545E-20-1.53018E-18
 -1      1499 9.39201E-05-2.81924E-05-2.81690E-05-3.49528E-07 5.19816E-19-1.46463E-18
 -1      1500 9.42748E-05-2.82880E-05-2.82780E-05-1.28220E-07 1.49475E-19-2.27839E-18
 -1      1501 9.41232E-05-2.82442E-05-2.82328E-05-1.34037E-07 3.66311E-19-1.70633E-18
 -1      1502 9.42043E-05-2.82757E-05-2.82550E-05-2.83246E-07 4.36928E-19-1.88761E-18
 -1      1503 9.44998E-05-2.83545E-05-2.83464E-05-9.97718E-08-1.58816E-19-1.97490E-18
 -1      1504 9.43812E-05-2.83207E-05-2.83110E-05-1.05028E-07-7.15497E-20-2.12428E-18
 -1      1505 9.44358E-05-2.83430E-05-2.83252E-05-2.24562E-07-5.53570E-20-1.65160E-18
 -1      1506 9.46747E-05-2.84061E-05-2.83996E-05-7.61326E-08 1.69129E-19-2.39100E-18
 -1      1507 9.45839E-05-2.83805E-05-2.83724E-05-8.06956E-08 1.58250E-19-2.34728E-18
 -1      1508 9.46205E-05-2.83962E-05-2.83815E-05-1.74493E-07 2.94709E-19-1.59193E-18
 -1      1509 9.48086E-05-2.84454E-05-2.84405E-05-5.72654E-08 3.24357E-19-3.19993E-18
 -1      1510 9.47402E-05-2.84264E-05-2.84199E-05-6.10648E-08 2.90663E-19-2.59470E-18
 -1      1511 9.47656E-05-2.84377E-05-2.84259E-05-1.33371E-07 5.00254E-19-2.07683E-18
 -1      1512 9.49106E-05-2.84751E-05-2.84717E-05-4.30661E-08-2.53372E-19-3.25030E-18
 -1      1513 9.48595E-05-2.84612E-05-2.84563E-05-4.60581E-08 7.41952E-20-3.11191E-18
 -1      1514 9.48789E-05-2.84697E-05-2.84608E-05-1.01195E-07 3.13626E-19-2.04663E-18
 -1      1515 9.49899E-05-2.84981E-05-2.84961E-05-3.34796E-08-5.17156E-19-2.45847E-18
 -1      1516 9.49512E-05-2.84876E-05-2.84842E-05-3.56176E-08-4.11430E-19-3.00470E-18
 -1      1517 9.49682E-05-2.84947E-05-2.84884E-05-7.79003E-08-4.80983E-19-2.01295E-18
 -1      1518 9.50559E-05-2.85171E-05-2.85164E-05-2.85927E-08-5.21760E-20-1.79567E-18
 -1      1519 9.50244E-05-2.85085E-05-2.85067E-05-2.98026E-08-3.91628E-19-2.18711E-18
 -1      1520 9.50419E-05-2.85149E-05-2.85114E-05-6.35703E-08-6.03790E-19-1.85494E-18
 -1      1521 9.51184E-05-2.85349E-05-2.85357E-05-2.87163E-08 5.84195E-20-1.59541E-18
 -1      1522 9.50888E-05-2.85266E-05-2.85265E-05-2.88725E-08-3.23505E-21-1.63550E-18
 -1      1523 9.51085E-05-2.85330E-05-2.85324E-05-5.86114E-08-2.88339E-19-1.14630E-18
 -1      1524 9.51883E-05-2.85549E-05-2.85573E-05-3.44646E-08 9.57069E-19-2.87454E-18
 -1      1525 9.51549E-05-2.85450E-05-2.85469E-05-3.33665E-08 5.72413E-19-1.90417E-18
 -1      1526 9.51777E-05-2.85517E-05-2.85543E-05-6.39132E-08 7.95456E-19-1.38098E-18
 -1      1527 9.52781E-05-2.85806E-05-2.85849E-05-4.68425E-08-1.52923E-19-3.79766E-18
 -1      1528 9.52341E-05-2.85671E-05-2.85713E-05-4.41862E-08 1.53464E-19-3.54591E-18
 -1      1529 9.52601E-05-2.85740E-05-2.85803E-05-8.10097E-08 8.56525E-19-2.37321E-18
 -1      1530 9.54030E-05-2.86165E-05-2.86233E-05-6.73521E-08-4.41895E-19-2.19550E-18
 -1      1531 9.53403E-05-2.85968E-05-2.86039E-05-6.26961E-08-4.50184E-19-3.29844E-18
 -1      1532 9.53684E-05-2.86035E-05-2.86144E-05-1.12263E-07-6.65442E-19-2.05994E-18
 -1      1533 9.55821E-05-2.86682E-05-2.86781E-05-9.81323E-08-3.18940E-19-1.12763E-18
 -1      1534 9.54904E-05-2.86391E-05-2.86500E-05-9.08502E-08-2.26071E-19-1.68395E-18
 -1      1535 9.55181E-05-2.86447E-05-2.86615E-05-1.61090E-07-7.04970E-19-1.21911E-18
 -1      1536 9.58395E-05-2.87428E-05-2.87568E-05-1.42148E-07 5.16195E-19-1.27939E-18
 -1      1537 9.57056E-05-2.87000E-05-2.87159E-05-1.31365E-07 8.47666E-20-1.16015E-18
 -1      1538 9.57284E-05-2.87031E-05-2.87273E-05-2.32265E-07 3.12501E-20-1.67931E-18
 -1      1539 9.62063E-05-2.88494E-05-2.88687E-05-2.03456E-07 2.47934E-19-2.75112E-18
 -1      1540 9.60130E-05-2.87874E-05-2.88099E-05-1.87954E-07 7.17487E-19-1.64235E-18
 -1      1541 9.60238E-05-2.87856E-05-2.88196E-05-3.32331E-07 8.38257E-19-1.66292E-18
 -1      1542 9.67233E-05-2.89999E-05-2.90264E-05-2.87564E-07-2.61845E-19-2.54939E-18
 -1      1543 9.64480E-05-2.89115E-05-2.89428E-05-2.65651E-07-2.84808E-19-2.54219E-18
 -1      1544 9.64356E-05-2.89011E-05-2.89481E-05-4.70154E-07-1.48046E-19-1.34872E-18
 -1      1545 9.74442E-05-2.92101E-05-2.92461E-05-4.01911E-07-1.41807E-19-2.51293E-18
 -1      1546 9.70566E-05-2.90853E-05-2.91286E-05-3.71241E-07-4.75678E-20-2.44656E-18
 -1      1547 9.70043E-05-2.90609E-05-2.91253E-05-6.57668E-07-2.02076E-19-1.68341E-18
 -1      1548 9.84397E-05-2.95005E-05-2.95495E-05-5.56467E-07-1.06015E-19-2.25956E-18
 -1      1549 9.78996E-05-2.93264E-05-2.93861E-05-5.13787E-07-1.57868E-19-2.83124E-18
 -1      1550 9.77820E-05-2.92797E-05-2.93676E-05-9.10817E-07-2.13977E-19-2.27995E-18
 -1      1551 9.98027E-05-2.98984E-05-2.99650E-05-7.64346E-07-1.83277E-19-1.94983E-18
 -1      1552 9.90563E-05-2.96574E-05-2.97395E-05-7.05196E-07-2.75795E-19-2.43195E-18
 -1      1553 9.88357E-05-2.95765E-05-2.96959E-05-1.25058E-06-3.15338E-19-1.78161E-18
 -1      1554 1.01654E-04-3.04394E-05-3.05296E-05-1.04214E-06 6.56194E-19-2.03639E-18
 -1      1555 1.00631E-04-3.01082E-05-3.02206E-05-9.60552E-07 2.23140E-19-1.69586E-18
 -1      1556 1.00251E-04-2.99754E-05-3.01369E-05-1.70375E-06-4.31325E-20-1.44715E-18
 -1      1557 1.04149E-04-3.11693E-05-3.12901E-05-1.40912E-06 2.74184E-19-3.41761E-18
 -1      1558 1.02755E-04-3.07175E-05-3.08703E-05-1.29756E-06 6.30722E-19-2.42060E-18
 -1      1559 1.02134E-04-3.05070E-05-3.07238E-05-2.30238E-06 9.40726E-19-1.61515E-18
 -1      1560 1.07471E-04-3.21443E-05-3.23028E-05-1.88339E-06-9.80811E-19-2.23167E-18
 -1      1561 1.05595E-04-3.15344E-05-3.17386E-05-1.73348E-06-4.25025E-19-2.96809E-18
 -1      1562 1.04613E-04-3.12092E-05-3.14954E-05-3.07961E-06-5.12875E-19-1.42555E-18
 -1      1563 1.11823E-04-3.34288E-05-3.36260E-05-2.47063E-06 1.25937E-19-2.28214E-18
 -1      1564 1.09338E-04-3.26184E-05-3.28817E-05-2.27605E-06 6.61744E-24-2.02017E-18
 -1      1565 1.07828E-04-3.21273E-05-3.24924E-05-4.05633E-06-1.04225E-19-1.53992E-18
 -1      1566 1.17362E-04-3.50825E-05-3.52999E-05-3.13706E-06 3.41993E-19-3.46693E-18
 -1      1567 1.14167E-04-3.40357E-05-3.43500E-05-2.90159E-06 1.37524E-19-2.93044E-18
 -1      1568 1.11903E-04-3.33122E-05-3.37449E-05-5.20813E-06 3.45113E-19-2.04024E-18
 -1      1569 1.24071E-04-3.71291E-05-3.72972E-05-3.75281E-06-5.96151E-19-2.28995E-18
 -1      1570 1.20172E-04-3.58441E-05-3.61567E-05-3.50889E-06-3.74470E-19-3.21724E-18
 -1      1571 1.16888E-04-3.48135E-05-3.52463E-05-6.39381E-06-4.13157E-19-1.84087E-18
 -1      1572 1.31477E-04-3.94829E-05-3.94278E-05-3.99213E-06-1.68292E-19-1.26923E-18
 -1      1573 1.27173E-04-3.80549E-05-3.82127E-05-3.83645E-06-3.73116E-19-2.10001E-18
 -1      1574 1.22629E-04-3.66622E-05-3.69014E-05-7.22246E-06-8.19556E-19-1.52702E-18
 -1      1575 1.38187E-04-4.18100E-05-4.11987E-05-3.20731E-06-4.14365E-19-2.60463E-19
 -1      1576 1.34386E-04-4.05422E-05-4.02156E-05-3.35273E-06-1.77109E-19-1.29384E-18
 -1      1577 1.28555E-04-3.88220E-05-3.84491E-05-6.86043E-06-3.38297E-19-1.16046E-18
 -1      1578 1.41343E-04-4.32878E-05-4.17166E-05-4.06441E-07-3.85559E-19 7.29881E-19
 -1      1579 1.39927E-04-4.28482E-05-4.15281E-05-1.20395E-06-4.23146E-19 9.66676E-20
 -1      1580 1.33368E-04-4.10564E-05-3.93968E-05-3.88174E-06-9.18845E-19-5.03455E-20
 -1      1581 1.36572E-04-4.24064E-05-3.98495E-05 5.21022E-06-9.18237E-20 1.88931E-18
 -1      1582 1.40378E-04-4.38587E-05-4.11723E-05 3.43741E-06-3.90562E-19 1.47725E-18
 -1      1583 1.34742E-04-4.26422E-05-3.90842E-05 3.34951E-06-9.70117E-19 3.50096E-19
 -1      1584 1.19693E-04-3.72601E-05-3.49249E-05 1.28187E-05-9.55255E-19 3.26743E-18
 -1      1585 1.31285E-04-4.16508E-05-3.81721E-05 1.02754E-05-3.53107E-19 2.64179E-18
 -1      1586 1.29568E-04-4.19917E-05-3.70041E-05 1.50671E-05-8.17863E-19 2.62421E-18
 -1      1587 9.13604E-05-2.73546E-05-2.77165E-05 1.80245E-05 5.05626E-19 3.61387E-18
 -1      1588 1.09790E-04-3.43059E-05-3.23509E-05 1.61330E-05 3.57415E-19 3.64923E-18
 -1      1589 1.15436E-04-3.68951E-05-3.33352E-05 2.71051E-05 1.61995E-20 3.14895E-18
 -1      1590 6.19088E-05-1.64345E-05-2.07243E-05 1.48119E-05-3.31719E-19 3.76951E-18
 -1      1591 8.00110E-05-2.28706E-05-2.50651E-05 1.55102E-05-4.36116E-19 3.19564E-18
 -1      1592 9.46163E-05-2.72097E-05-2.91706E-05 3.00426E-05-1.62948E-19 2.35623E-18
 -1      1593 4.69997E-05-1.12581E-05-1.68502E-05 3.25294E-06 1.15414E-18 2.71139E-18
 -1      1594 5.50541E-05-1.32317E-05-1.89681E-05 6.45692E-06 8.83244E-19 3.82266E-18
 -1      1595 7.63473E-05-1.79229E-05-2.58475E-05 1.76373E-05 6.46816E-19 2.29181E-18
 -1      1596 5.28153E-05-1.43164E-05-1.73493E-05-7.99862E-06 8.33798E-19 1.22820E-19
 -1      1597 4.76696E-05-1.12415E-05-1.65188E-05-4.83591E-06 8.75938E-19 1.93235E-18
 -1      1598 7.02269E-05-1.58143E-05-2.41609E-05-2.78480E-06 1.72879E-18 1.43861E-18
 -1      1599 7.02878E-05-2.11936E-05-2.09426E-05-1.19910E-05-6.79876E-20-5.61795E-19
 -1      1600 5.79058E-05-1.61439E-05-1.82060E-05-1.06604E-05 6.05232E-19 2.39922E-19
 -1      1601 7.58536E-05-2.05982E-05-2.41895E-05-1.66551E-05 9.63606E-19 1.50550E-18
 -1      1602 8.67468E-05-2.74577E-05-2.45706E-05-1.00664E-05-8.78095E-19-2.11335E-19
 -1      1603 7.51970E-05-2.31901E-05-2.19792E-05-9.95767E-06-7.90758E-19-1.32010E-18
 -1      1604 8.52005E-05-2.66688E-05-2.50830E-05-1.88765E-05-5.04686E-19 2.05617E-19
 -1      1605 9.19011E-05-3.14832E-05-2.47895E-05-4.73433E-06 8.24269E-19 1.03306E-18
 -1      1606 1.03209E-04-4.65633E-05-2.47932E-05-8.33691E-06-1.09098E-18-1.68697E-18
 -1      1607 9.88238E-05-3.89177E-05-2.55240E-05-8.97001E-06 5.48454E-20 8.69162E-19
 -1      1608 1.06278E-04-4.21585E-05-2.85881E-05 7.39072E-06-2.25988E-18-1.41709E-18
 -1      1609 1.06253E-04-4.80034E-05-2.59369E-05 2.20694E-06-3.10120E-19-1.94701E-18
 -1      1610 1.06273E-04-4.17130E-05-2.84488E-05-4.85878E-06-8.05105E-19-8.39992E-19
 -1      1611 9.60792E-05-8.36619E-06-3.78344E-05 3.28020E-05-4.55196E-18-1.50293E-18
 -1      1612 1.05737E-04-3.65321E-05-3.11192E-05 2.63857E-05-3.17383E-18 2.41510E-19
 -1      1613 1.12773E-04-4.05150E-05-3.20932E-05 3.00353E-05-1.86112E-18-1.73949E-18
 -1      1614 7.12933E-05 4.45988E-05-4.71971E-05 4.71087E-05-1.00475E-17-4.47996E-18
 -1      1615 8.89194E-05 4.80722E-06-4.00771E-05 4.64079E-05-5.14403E-18-4.76752E-18
 -1      1616 1.04391E-04-2.36078E-05-3.49109E-05 6.89300E-05-2.51180E-18-5.39242E-18
 -1      1617 4.59924E-05 9.49683E-05-5.46019E-05-1.33599E-05-9.51642E-18 1.82027E-18
 -1      1618 4.25126E-05 1.03786E-04-5.62124E-05-4.30513E-06-1.15579E-17 5.35748E-19
 -1      1619 6.78178E-05 4.81778E-05-4.68680E-05-3.99885E-05 1.34594E-18 5.79836E-18
 -1      1620 5.27388E-05 8.29134E-05-5.30279E-05-3.69077E-05-6.78092E-18 6.62337E-18
 -1      1621 5.50319E-05 4.54198E-05-3.98921E-05-4.46429E-05-4.02732E-18 7.06256E-18
 -1      1622 9.44494E-05-1.38095E-05-3.49186E-05-4.14746E-05 7.30397E-18 4.05602E-18
 -1      1623 7.82252E-05 2.71359E-05-4.34178E-05-4.38769E-05 2.72152E-18 2.77456E-18
 -1      1624 8.07670E-05 1.01494E-05-3.75097E-05-7.70139E-05 7.80858E-19 7.79779E-18
 -1      1625 1.10612E-04-6.06814E-05-2.33194E-05-2.57327E-05 6.40272E-18-2.30996E-18
 -1      1626 1.01176E-04-3.22178E-05-3.04693E-05-3.03225E-05 6.57890E-18 1.92276E-19
 -1      1627 1.03046E-04-2.92029E-05-3.21967E-05-6.63493E-05 9.16701E-19 2.71215E-18
 -1      1628 1.15326E-04-8.43858E-05-1.47251E-05-6.20178E-06 4.40030E-18-1.44763E-18
 -1      1629 1.13082E-04-7.26741E-05-1.89409E-05-1.02534E-05 7.11296E-18-2.93264E-18
 -1      1630 1.12708E-04-5.77475E-05-2.48301E-05-3.33066E-05 2.59796E-18-3.00093E-18
 -1      1631 1.12425E-04-8.30313E-05-1.30366E-05 3.98389E-06 5.29184E-19-1.80598E-18
 -1      1632 1.14910E-04-8.61280E-05-1.31097E-05 2.41708E-06 3.27256E-18-1.57003E-18
 -1      1633 1.12052E-04-6.89283E-05-1.93555E-05-3.79559E-06 1.13528E-18-3.27590E-18
 -1      1634 1.07979E-04-7.17070E-05-1.54713E-05 6.96057E-06-2.22346E-19 3.28569E-19
 -1      1635 1.11418E-04-8.00156E-05-1.35277E-05 6.66970E-06 2.87991E-19-1.35848E-18
 -1      1636 1.08093E-04-6.68189E-05-1.79795E-05 9.82442E-06-2.93920E-19-2.80950E-18
 -1      1637 1.03764E-04-5.84852E-05-1.92232E-05 6.76029E-06 1.03476E-18 4.09990E-19
 -1      1638 1.06796E-04-6.70748E-05-1.68586E-05 6.91192E-06-1.63054E-19 1.23490E-18
 -1      1639 1.04247E-04-5.89504E-05-1.94085E-05 1.30784E-05 8.59897E-19 1.20469E-18
 -1      1640 1.00224E-04-4.66516E-05-2.28077E-05 5.62357E-06 7.29507E-20-1.65502E-18
 -1      1641 1.02622E-04-5.38696E-05-2.07280E-05 5.84842E-06 4.18011E-19 4.12902E-19
 -1      1642 1.01090E-04-4.98212E-05-2.18892E-05 1.20242E-05-6.15528E-19 5.72536E-19
 -1      1643 9.75283E-05-3.75312E-05-2.56473E-05 4.30024E-06-9.05584E-19 2.43145E-19
 -1      1644 9.92503E-05-4.27792E-05-2.40760E-05 4.41384E-06 9.10878E-19-2.30789E-18
 -1      1645 9.84663E-05-4.14624E-05-2.43499E-05 9.65643E-06-8.39410E-19-1.88774E-18
 -1      1646 9.52938E-05-3.16711E-05-2.72750E-05 3.90068E-06-1.75811E-18-1.70831E-18
 -1      1647 9.63394E-05-3.47340E-05-2.63606E-05 4.66717E-06-7.73315E-19-2.86165E-19
 -1      1648 9.61107E-05-3.47835E-05-2.61235E-05 8.10434E-06-3.50764E-19-3.83971E-19
 -1      1649 9.31620E-05-3.00987E-05-2.69116E-05 7.14843E-06 5.07323E-19-2.75021E-19
 -1      1650 3.54363E-05-9.05463E-05 1.10768E-05-8.65426E-07 1.09767E-17 2.61987E-18
 -1      1651 4.14575E-05-1.09730E-04 1.41673E-05 4.95066E-06 1.15661E-17 1.33238E-18
 -1      1652 4.04914E-05-4.80237E-05-3.45575E-06 2.80785E-05 6.50521E-18-2.63851E-19
 -1      1653 4.76130E-05-9.05957E-05 6.29682E-06 1.58112E-05 1.17128E-17 4.25687E-19
 -1      1654 6.57674E-05-4.83123E-06-2.67514E-05 6.79225E-05 5.45997E-18 2.28953E-18
 -1      1655 5.32096E-05-3.91926E-05-1.27817E-05 3.39453E-05 5.58364E-18 3.60074E-18
 -1      1656 1.44039E-04-6.02045E-06-5.48598E-05 1.07068E-04 1.39930E-18-2.83756E-18
 -1      1657 9.91559E-05-7.64379E-06-3.97570E-05 7.48046E-05 4.85858E-18-1.30443E-19
 -1      1658 2.23358E-04-2.31499E-05-7.80216E-05 1.23911E-04-1.90074E-18-6.30193E-19
 -1      1659 1.65903E-04 1.39114E-06-6.72834E-05 1.16479E-04-1.02491E-19-1.59412E-18
 -1      1660 2.98407E-04-6.16106E-05-9.23217E-05 8.64999E-05-1.62419E-19 6.88638E-19
 -1      1661 2.48273E-04-3.27341E-05-8.53186E-05 1.09754E-04-1.80969E-18-9.24960E-19
 -1      1662 3.36780E-04-8.49441E-05-9.79461E-05 3.08812E-05 8.30939E-19 1.48760E-19
 -1      1663 3.20753E-04-7.17440E-05-9.70900E-05 7.54336E-05 1.06641E-18 1.44504E-18
 -1      1664 3.00503E-04-7.31193E-05-8.98457E-05-3.10482E-05 1.49544E-18-2.74269E-18
 -1      1665 3.28756E-04-8.43057E-05-9.51762E-05 1.15894E-05 9.68159E-19-2.36746E-19
 -1      1666 2.29421E-04-4.67941E-05-7.39511E-05-6.86865E-05 3.57448E-18-5.88857E-18
 -1      1667 2.84313E-04-7.11827E-05-8.34624E-05-5.08514E-05 2.38509E-18-3.52027E-18
 -1      1668 1.39697E-04-2.41095E-05-4.95513E-05-6.00902E-05 5.97074E-18-7.71139E-18
 -1      1669 1.98997E-04-4.24018E-05-6.28327E-05-7.14092E-05 4.41812E-18-6.27821E-18
 -1      1670 6.80078E-05-1.99415E-05-2.42476E-05-3.31715E-05 6.84741E-18-7.80371E-18
 -1      1671 1.04419E-04-1.69801E-05-3.72209E-05-6.05048E-05 6.67038E-18-7.99769E-18
 -1      1672 3.43554E-05-4.67047E-05-9.15460E-07 7.93961E-07 2.64444E-18-4.37577E-18
 -1      1673 4.48666E-05-2.29227E-05-1.24778E-05-2.31906E-05 5.13302E-18-8.46948E-18
 -1      1674 2.88140E-05-8.32158E-05 1.60847E-05 1.44796E-05 2.84180E-18-1.58633E-18
 -1      1675 2.26183E-05-5.48001E-05 8.32846E-06 9.29211E-06 3.08574E-18-1.19008E-18
 -1      1676 2.97994E-05-1.01081E-04 2.37713E-05 6.59831E-06 1.43996E-18-1.00606E-18
 -1      1677 2.43245E-05-8.67651E-05 2.05702E-05 1.57101E-05 2.50722E-18-1.96882E-18
 -1      1678 2.81298E-05-9.83159E-05 2.34147E-05-4.31849E-06 2.29546E-19-9.35336E-19
 -1      1679 2.99730E-05-1.05117E-04 2.51207E-05 9.76067E-06 1.08118E-18-5.32148E-19
 -1      1680 2.27258E-05-6.64457E-05 1.34827E-05-6.11392E-06-9.59688E-19 8.22681E-20
 -1      1681 3.06096E-05-9.35583E-05 1.98636E-05-3.36975E-06-1.22904E-18 7.63388E-20
 -1      1682 3.13807E-05-2.72600E-05-4.53079E-06 1.82533E-05-1.09691E-18-4.03188E-19
 -1      1683 3.05229E-05-5.60936E-05 5.39349E-06 1.94843E-06-1.46791E-18-8.25857E-19
 -1      1684 7.13675E-05-8.55703E-06-2.68640E-05 5.39898E-05 5.84453E-20 1.30104E-18
 -1      1685 4.98318E-05-2.19654E-05-1.51013E-05 2.81904E-05-9.54606E-19 3.06626E-19
 -1      1686 1.36556E-04-1.31416E-05-5.02463E-05 8.18390E-05 3.54907E-19-1.28241E-18
 -1      1687 9.21577E-05-4.38781E-06-3.83037E-05 6.21680E-05 1.32137E-19 6.77626E-20
 -1      1688 2.22399E-04-4.48501E-05-7.13502E-05 7.30372E-05-4.10811E-20-5.15843E-18
 -1      1689 1.68534E-04-2.21468E-05-6.08099E-05 7.67286E-05 1.02449E-18-2.38524E-18
 -1      1690 2.89199E-04-7.18510E-05-8.68065E-05 3.45042E-05-2.68721E-18-1.52551E-18
 -1      1691 2.49222E-04-5.21947E-05-8.00393E-05 6.40190E-05-2.20747E-18-3.23567E-18
 -1      1692 3.08123E-04-7.37056E-05-9.37259E-05-3.36517E-05-1.26843E-18 2.20758E-18
 -1      1693 2.97299E-04-7.17606E-05-9.08189E-05 1.07125E-05-2.45385E-18 1.80418E-19
 -1      1694 2.84556E-04-5.16447E-05-9.26728E-05-9.51278E-05-6.22569E-20 2.22770E-18
 -1      1695 3.06372E-04-6.96972E-05-9.44239E-05-5.65249E-05 3.58930E-19 2.75794E-18
 -1      1696 2.22296E-04-1.23989E-05-8.31233E-05-1.31279E-04-2.12605E-19 1.02067E-18
 -1      1697 2.68374E-04-4.17985E-05-8.92139E-05-1.12961E-04-9.02619E-20 9.17337E-19
 -1      1698 1.42845E-04 1.91402E-05-6.45335E-05-1.23935E-04-5.30412E-18 1.49247E-18
 -1      1699 1.95623E-04-3.11328E-06-7.50187E-05-1.34404E-04-1.52339E-18 3.94717E-19
 -1      1700 7.93444E-05 1.89033E-05-4.09848E-05-8.82471E-05-9.72902E-18 4.56043E-18
 -1      1701 1.16091E-04 2.26550E-05-5.38558E-05-1.20352E-04-6.76441E-18 2.79860E-18
 -1      1702 5.36286E-05-3.13956E-05-1.50622E-05-4.55831E-05-8.59569E-18 4.83148E-18
 -1      1703 6.42840E-05 5.27705E-06-2.90108E-05-8.00027E-05-9.10730E-18 5.53621E-18
 -1      1704 4.48631E-05-8.86975E-05 5.69822E-06-1.68684E-05 1.68729E-18 6.18376E-18
 -1      1705 3.59808E-05-4.23212E-05-4.22663E-06-3.02538E-05-6.46964E-18 6.62380E-18
 -1      1706 4.33093E-05-1.18577E-04 1.59200E-05-1.35029E-05 1.12579E-17 3.31529E-18
 -1      1707 3.65357E-05-9.59565E-05 1.16622E-05-4.27376E-06 4.90940E-18 6.07788E-18
 -1      1708 1.30533E-04-4.89878E-05-3.46104E-05 7.74404E-05 2.45216E-18-2.56566E-18
 -1      1709 9.51337E-05-3.44652E-05-2.53639E-05-1.12671E-05 3.02391E-19 5.29177E-19
 -1      1710 9.49444E-05-3.33962E-05-2.63363E-05-1.68623E-05-1.41942E-18 2.87588E-19
 -1      1711 5.15337E-05 5.22397E-05-4.09054E-05 1.73428E-05-6.31887E-18 1.66696E-18
 -1      1712 4.52524E-05 9.91075E-05-5.59038E-05 2.36804E-05-1.25568E-17 3.42201E-19
 -1      1713 5.73184E-05 7.26898E-05-5.16624E-05 3.00931E-05-1.26005E-17-1.06557E-18
 -1      1714 7.57814E-05 1.61100E-05-3.79202E-05 6.96616E-05-3.86157E-18-4.40965E-18
 -1      1715 3.86866E-05-5.43533E-05-1.54579E-06 4.40233E-05 6.52724E-18-7.20402E-19
 -1      1716 7.80218E-05-5.69273E-05-1.37492E-05 6.94970E-05 4.54010E-18 1.12984E-18
 -1      1717 2.06789E-05-5.48616E-05 4.33617E-06-4.70422E-06 5.20237E-18 3.74134E-18
 -1      1718 1.79336E-04-3.82526E-05-5.72505E-05 7.25563E-05 1.48061E-18-2.41404E-18
 -1      1719 2.23907E-04-3.15504E-05-7.63066E-05 6.61722E-05-1.38649E-18-1.00035E-18
 -1      1720 2.57724E-04-3.61521E-05-8.73630E-05 4.51175E-05-5.75982E-19-1.94818E-18
 -1      1721 2.69230E-04-4.20077E-05-8.93105E-05 2.51946E-05 1.61190E-18-2.00069E-18
 -1      1722 2.51621E-04-4.76187E-05-8.08279E-05-1.63601E-06 3.56389E-18-2.36576E-18
 -1      1723 2.10681E-04-5.21429E-05-6.41444E-05-2.07530E-05 4.53787E-18-4.88145E-18
 -1      1724 1.53936E-04-5.30420E-05-4.22926E-05-3.25567E-05 4.54433E-18-4.46386E-18
 -1      1725 9.39264E-05-5.35669E-05-1.92581E-05-3.12198E-05 3.13572E-18-7.23705E-18
 -1      1726 5.04650E-05-6.19401E-05 7.63673E-07-1.91421E-05 3.02899E-18-4.31839E-18
 -1      1727 2.47975E-05-6.84513E-05 1.38743E-05-8.24905E-06 3.18273E-18-2.49303E-18
 -1      1728 1.44432E-05-7.07638E-05 1.93153E-05 1.63176E-06 1.84018E-18-1.33619E-18
 -1      1729 1.89325E-05-7.12159E-05 1.73096E-05 1.30651E-05 4.66292E-19-8.36022E-19
 -1      1730 3.70971E-05-6.02402E-05 6.19672E-06 2.55289E-05-1.15281E-18-5.88688E-19
 -1      1731 7.18866E-05-4.88039E-05-1.15935E-05 3.86810E-05-1.12740E-18 6.61109E-19
 -1      1732 1.15800E-04-4.01745E-05-3.23005E-05 4.61117E-05-8.25857E-19-2.93073E-19
 -1      1733 1.68052E-04-3.75623E-05-5.34765E-05 4.42535E-05 1.24599E-18-3.36950E-18
 -1      1734 2.16714E-04-4.01781E-05-7.15288E-05 2.68259E-05-6.00652E-19-1.77369E-18
 -1      1735 2.47490E-04-3.93626E-05-8.37038E-05-5.18041E-07-3.55288E-18 1.00077E-18
 -1      1736 2.51774E-04-3.25067E-05-8.80626E-05-3.65350E-05-3.95564E-19 1.75256E-18
 -1      1737 2.38225E-04-2.39374E-05-8.54188E-05-6.94242E-05 4.94244E-19 1.09310E-18
 -1      1738 2.01761E-04-1.44650E-05-7.43366E-05-8.78259E-05-1.16562E-18-1.18585E-20
 -1      1739 1.57082E-04-1.46230E-05-5.66785E-05-9.29061E-05-6.64243E-18 1.77030E-19
 -1      1740 1.15482E-04-3.14563E-05-3.52272E-05-8.89770E-05-6.19350E-18 1.44927E-18
 -1      1741 7.45145E-05-5.01313E-05-1.46032E-05-7.99024E-05-2.29885E-18 6.74175E-18
 -1      1742 3.72906E-05-6.22934E-05 7.33128E-07-5.03532E-05 3.93108E-18 9.95687E-18
 -1      1743 1.06061E-04-2.31735E-05-3.56067E-05-1.68500E-05-1.88411E-18 7.90621E-18
 -1      1744 8.91548E-05-1.05877E-05-3.37971E-05-1.33206E-05-2.48189E-18-2.60320E-18
 -1      1745 9.04875E-05-1.16329E-05-3.39372E-05-1.51300E-05-2.81762E-18-1.77371E-18
 -1      1746 9.24962E-05-1.38771E-05-3.38559E-05-1.59960E-05-2.85011E-18-6.75085E-19
 -1      1747 9.42151E-05-1.58243E-05-3.41002E-05-1.76573E-05-3.01002E-18 8.59050E-19
 -1      1748 9.34233E-05-1.63499E-05-3.30464E-05-1.37636E-05-2.97636E-18-1.05921E-18
 -1      1749 8.62081E-05-7.67239E-06-3.37290E-05-7.85954E-06-1.54524E-18-4.08585E-18
 -1      1750 8.66138E-05-7.97142E-06-3.37635E-05-9.24844E-06-1.82393E-18-3.89284E-18
 -1      1751 8.55883E-05-7.03327E-06-3.37256E-05-5.31716E-06-1.01312E-18-4.23785E-18
 -1      1752 8.58241E-05-7.21246E-06-3.37410E-05-6.62115E-06-1.26121E-18-4.19030E-18
 -1      1753 8.75896E-05-9.86435E-06-3.33424E-05-6.92458E-06-1.54776E-18-3.99399E-18
 -1      1754 8.52521E-05-6.67419E-06-3.37285E-05-2.88727E-06-4.74169E-19-4.23139E-18
 -1      1755 8.53735E-05-6.76906E-06-3.37346E-05-4.12636E-06-7.26628E-19-4.23269E-18
 -1      1756 8.69511E-05-9.15133E-06-3.33751E-05-4.53498E-06-9.45892E-19-4.08699E-18
 -1      1757 8.51207E-05-6.52594E-06-3.37318E-05-5.17235E-07 7.45743E-20-4.27412E-18
 -1      1758 8.51565E-05-6.55448E-06-3.37333E-05-1.72625E-06-1.75601E-19-4.26317E-18
 -1      1759 8.66181E-05-8.77224E-06-3.33948E-05-2.21618E-06-3.63269E-19-4.09047E-18
 -1      1760 8.51664E-05-6.56354E-06-3.37335E-05 1.84411E-06 5.05232E-19-4.29726E-18
 -1      1761 8.51244E-05-6.53049E-06-3.37317E-05 6.34086E-07 3.15077E-19-4.29218E-18
 -1      1762 8.65196E-05-8.65862E-06-3.34013E-05 6.52859E-08 2.13663E-19-4.14153E-18
 -1      1763 8.53988E-05-6.79423E-06-3.37348E-05 4.24881E-06 9.86443E-19-4.18752E-18
 -1      1764 8.52700E-05-6.69329E-06-3.37285E-05 3.00651E-06 7.73855E-19-4.27449E-18
 -1      1765 8.66358E-05-8.79189E-06-3.33942E-05 2.34790E-06 6.92975E-19-4.12511E-18
 -1      1766 8.58577E-05-7.24814E-06-3.37407E-05 6.70916E-06 1.50662E-18-3.98078E-18
 -1      1767 8.56186E-05-7.06568E-06-3.37256E-05 5.42229E-06 1.23783E-18-4.11682E-18
 -1      1768 8.69856E-05-9.18951E-06-3.33737E-05 4.65000E-06 1.24574E-18-3.98666E-18
 -1      1769 8.66727E-05-8.03844E-06-3.37621E-05 9.37084E-06 2.09621E-18-3.52761E-18
 -1      1770 8.62514E-05-7.72212E-06-3.37280E-05 7.95019E-06 1.77827E-18-3.78388E-18
 -1      1771 8.76405E-05-9.92357E-06-3.33400E-05 7.02458E-06 1.79720E-18-3.73976E-18
 -1      1772 8.80850E-05-9.38519E-06-3.38179E-05 1.22487E-05 2.62606E-18-2.78751E-18
 -1      1773 8.73456E-05-8.82756E-06-3.37458E-05 1.06561E-05 2.31322E-18-3.24430E-18
 -1      1774 8.87628E-05-1.11594E-05-3.32900E-05 9.49927E-06 2.36133E-18-3.21224E-18
 -1      1775 9.06480E-05-1.18473E-05-3.39286E-05 1.53223E-05 3.11991E-18-1.30520E-18
 -1      1776 8.92758E-05-1.07484E-05-3.37887E-05 1.34974E-05 2.82198E-18-2.19996E-18
 -1      1777 9.06579E-05-1.32258E-05-3.32083E-05 1.19535E-05 2.89091E-18-2.27428E-18
 -1      1778 9.58983E-05-1.70872E-05-3.39962E-05 1.76704E-05 3.19015E-18 1.47363E-18
 -1      1779 9.28517E-05-1.43288E-05-3.38286E-05 1.61706E-05 3.10010E-18-1.98259E-19
 -1      1780 9.38897E-05-1.68611E-05-3.30152E-05 1.38525E-05 3.27722E-18-6.04543E-19
 -1      1781 1.01929E-04-2.50998E-05-3.33631E-05 1.44127E-05 2.77181E-18 5.06505E-18
 -1      1782 9.80777E-05-1.95816E-05-3.36293E-05 1.69683E-05 2.98843E-18 2.71003E-18
 -1      1783 9.74234E-05-2.18831E-05-3.24224E-05 1.32784E-05 3.34055E-18 1.51349E-18
 -1      1784 9.87899E-05-2.61488E-05-3.13461E-05 9.42693E-06 2.74468E-18 4.22145E-18
 -1      1785 1.00165E-04-1.95663E-05-3.42208E-05-1.88648E-05-2.54273E-18 3.44361E-18
 -1      1786 9.53344E-05-2.72944E-05-2.91878E-05 4.06530E-06 2.09381E-18 2.97230E-18
 -1      1787 9.77339E-05-2.73906E-05-3.01970E-05 6.40064E-06 2.31071E-18 3.78388E-18
 -1      1788 9.75938E-05-2.56197E-05-3.08270E-05 8.71987E-06 2.72813E-18 2.30535E-18
 -1      1789 9.98247E-05-2.25450E-05-3.28389E-05-1.44626E-05-2.76922E-18 2.35422E-18
 -1      1790 9.69715E-05-2.69823E-05-2.98808E-05-5.70033E-06-2.31288E-18 1.95472E-18
 -1      1791 9.51647E-05-2.70374E-05-2.91706E-05-3.89342E-06-2.04758E-18 1.40188E-18
 -1      1792 9.43462E-05-2.72389E-05-2.86633E-05-2.41616E-06-1.85998E-18 1.37542E-18
 -1      1793 9.35765E-05-2.73204E-05-2.83586E-05-1.56261E-06-1.59597E-18 8.88511E-19
 -1      1794 9.55171E-05-2.65485E-05-2.95792E-05-4.46723E-06-2.25888E-18 2.48192E-19
 -1      1795 9.30522E-05-2.73714E-05-2.80900E-05-7.36206E-07-1.32270E-18 7.61880E-19
 -1      1796 9.27522E-05-2.74353E-05-2.79683E-05-2.97926E-07-1.05653E-18 4.39724E-19
 -1      1797 9.43095E-05-2.72252E-05-2.87709E-05-1.82233E-06-1.77115E-18 2.19434E-20
 -1      1798 9.24769E-05-2.74628E-05-2.78325E-05 1.57222E-07-8.92072E-19 3.29899E-19
 -1      1799 9.24468E-05-2.75393E-05-2.78030E-05 3.81136E-07-7.30207E-19 9.53723E-20
 -1      1800 9.36091E-05-2.75314E-05-2.83354E-05-3.56817E-07-1.21036E-18-2.45307E-19
 -1      1801 9.23438E-05-2.75708E-05-2.77449E-05 6.20635E-07-6.54941E-19 3.95922E-20
 -1      1802 9.24597E-05-2.76562E-05-2.77643E-05 7.24299E-07-5.24608E-19-1.98671E-19
 -1      1803 9.32888E-05-2.77163E-05-2.81148E-05 4.45268E-07-8.64918E-19-5.62447E-19
 -1      1804 9.24652E-05-2.76943E-05-2.77524E-05 8.34842E-07-5.57055E-19-2.28030E-19
 -1      1805 9.26537E-05-2.77814E-05-2.77973E-05 8.68052E-07-5.53695E-19-4.17415E-19
 -1      1806 9.32259E-05-2.78596E-05-2.80224E-05 8.55708E-07-6.75355E-19-7.05074E-19
 -1      1807 9.27222E-05-2.78229E-05-2.78121E-05 9.00671E-07-7.40503E-19-5.25534E-19
 -1      1808 9.29388E-05-2.79059E-05-2.78683E-05 8.92491E-07-6.44704E-19-5.06851E-19
 -1      1809 9.33208E-05-2.79835E-05-2.80068E-05 1.02970E-06-7.77110E-19-1.00030E-18
 -1      1810 9.30394E-05-2.79473E-05-2.78973E-05 8.78811E-07-5.19212E-19-6.95798E-19
 -1      1811 9.32577E-05-2.80227E-05-2.79564E-05 8.47324E-07-4.28994E-19-6.62120E-19
 -1      1812 9.35025E-05-2.80928E-05-2.80354E-05 1.06083E-06-7.68713E-19-1.02483E-18
 -1      1813 9.33704E-05-2.80616E-05-2.79915E-05 8.07639E-07-6.95058E-19-7.02704E-19
 -1      1814 9.35749E-05-2.81276E-05-2.80483E-05 7.64441E-07-6.11122E-19-9.95139E-19
 -1      1815 9.37231E-05-2.81883E-05-2.80876E-05 1.00816E-06-7.23671E-19-1.02883E-18
 -1      1816 9.36871E-05-2.81624E-05-2.80847E-05 7.11954E-07-4.46967E-19-1.30289E-18
 -1      1817 9.38698E-05-2.82184E-05-2.81364E-05 6.64508E-07-1.38658E-19-1.50261E-18
 -1      1818 9.39520E-05-2.82698E-05-2.81497E-05 9.09944E-07-7.77013E-19-9.27850E-19
 -1      1819 9.39743E-05-2.82484E-05-2.81711E-05 6.07761E-07-3.14597E-21-1.63923E-18
 -1      1820 9.41318E-05-2.82947E-05-2.82162E-05 5.60780E-07 3.61250E-21-1.59314E-18
 -1      1821 9.41704E-05-2.83377E-05-2.82137E-05 7.91094E-07-1.92517E-19-1.51892E-18
 -1      1822 9.42247E-05-2.83199E-05-2.82477E-05 5.05171E-07-1.65401E-19-1.46758E-18
 -1      1823 9.43567E-05-2.83573E-05-2.82860E-05 4.61514E-07-1.53980E-19-1.23714E-18
 -1      1824 9.43680E-05-2.83928E-05-2.82744E-05 6.67645E-07-6.61126E-20-1.60245E-18
 -1      1825 9.44366E-05-2.83778E-05-2.83135E-05 4.10312E-07-4.21216E-19-1.57202E-18
 -1      1826 9.45448E-05-2.84073E-05-2.83452E-05 3.71595E-07-4.79092E-19-1.56247E-18
 -1      1827 9.45401E-05-2.84366E-05-2.83293E-05 5.49624E-07-4.94196E-19-1.59112E-18
 -1      1828 9.46118E-05-2.84237E-05-2.83686E-05 3.26655E-07-7.51827E-19-1.81645E-18
 -1      1829 9.46987E-05-2.84465E-05-2.83944E-05 2.93696E-07-5.60564E-19-1.95249E-18
 -1      1830 9.46859E-05-2.84704E-05-2.83772E-05 4.43008E-07-7.71988E-19-1.83965E-18
 -1      1831 9.47541E-05-2.84593E-05-2.84140E-05 2.55979E-07-4.61232E-19-2.25945E-18
 -1      1832 9.48230E-05-2.84765E-05-2.84346E-05 2.29118E-07-4.25166E-19-2.11132E-18
 -1      1833 9.48068E-05-2.84959E-05-2.84182E-05 3.51130E-07-6.34977E-19-2.23931E-18
 -1      1834 9.48684E-05-2.84864E-05-2.84510E-05 1.99075E-07-4.99697E-19-2.42999E-18
 -1      1835 9.49230E-05-2.84992E-05-2.84676E-05 1.78425E-07-4.66439E-19-2.76665E-18
 -1      1836 9.49060E-05-2.85145E-05-2.84529E-05 2.75702E-07-5.89957E-19-2.07699E-18
 -1      1837 9.49607E-05-2.85068E-05-2.84814E-05 1.56281E-07-2.09246E-19-2.54250E-18
 -1      1838 9.50047E-05-2.85164E-05-2.84950E-05 1.41903E-07-3.31261E-19-2.45840E-18
 -1      1839 9.49876E-05-2.85278E-05-2.84823E-05 2.17583E-07-2.82063E-19-2.33015E-18
 -1      1840 9.50372E-05-2.85224E-05-2.85072E-05 1.27874E-07-3.20601E-19-2.16594E-18
 -1      1841 9.50745E-05-2.85299E-05-2.85189E-05 1.19910E-07 3.34660E-19-2.20649E-18
 -1      1842 9.50561E-05-2.85370E-05-2.85079E-05 1.77338E-07-3.60262E-20-1.76224E-18
 -1      1843 9.51046E-05-2.85349E-05-2.85303E-05 1.14351E-07 4.53136E-19-2.19034E-18
 -1      1844 9.51394E-05-2.85414E-05-2.85415E-05 1.13121E-07 6.26862E-19-2.16339E-18
 -1      1845 9.51168E-05-2.85435E-05-2.85314E-05 1.55659E-07 1.82347E-19-1.71427E-18
 -1      1846 9.51699E-05-2.85463E-05-2.85531E-05 1.16632E-07 6.94511E-19-1.91478E-18
 -1      1847 9.52068E-05-2.85530E-05-2.85649E-05 1.22695E-07 1.86895E-19-1.82004E-18
 -1      1848 9.51753E-05-2.85486E-05-2.85545E-05 1.53649E-07 8.31069E-19-1.79622E-18
 -1      1849 9.52410E-05-2.85586E-05-2.85780E-05 1.36176E-07-8.12815E-20-1.24736E-18
 -1      1850 9.52848E-05-2.85668E-05-2.85920E-05 1.50345E-07 4.61948E-19-1.11332E-18
 -1      1851 9.52379E-05-2.85536E-05-2.85794E-05 1.73006E-07 5.05325E-19-1.42467E-18
 -1      1852 9.53265E-05-2.85740E-05-2.86078E-05 1.74996E-07 6.47997E-19-1.02172E-18
 -1      1853 9.53827E-05-2.85853E-05-2.86255E-05 1.98324E-07 7.89177E-19-9.97305E-19
 -1      1854 9.53114E-05-2.85603E-05-2.86084E-05 2.16085E-07 7.05224E-19-6.70799E-19
 -1      1855 9.54360E-05-2.85951E-05-2.86453E-05 2.35572E-07 4.71035E-19-8.26837E-19
 -1      1856 9.55108E-05-2.86113E-05-2.86686E-05 2.69253E-07 3.56399E-19-5.64808E-19
 -1      1857 9.54036E-05-2.85706E-05-2.86439E-05 2.85820E-07 6.33950E-19-1.01699E-18
 -1      1858 9.55800E-05-2.86252E-05-2.86938E-05 3.20583E-07 2.08901E-19-1.22071E-18
 -1      1859 9.56802E-05-2.86485E-05-2.87246E-05 3.65773E-07-3.66684E-19-9.90208E-19
 -1      1860 9.55231E-05-2.85868E-05-2.86885E-05 3.85448E-07 9.80018E-20-1.47565E-18
 -1      1861 9.57705E-05-2.86680E-05-2.87568E-05 4.32407E-07-6.76198E-19-1.01415E-18
 -1      1862 9.59033E-05-2.87009E-05-2.87970E-05 4.89898E-07-4.90505E-19-8.97249E-19
 -1      1863 9.56795E-05-2.86123E-05-2.87450E-05 5.17967E-07-3.10550E-19-1.25985E-18
 -1      1864 9.60199E-05-2.87282E-05-2.88376E-05 5.72281E-07-6.37682E-19-5.16330E-19
 -1      1865 9.61926E-05-2.87734E-05-2.88893E-05 6.41993E-07-1.86035E-19-6.41782E-19
 -1      1866 9.58832E-05-2.86512E-05-2.88160E-05 6.85207E-07-2.60982E-19-6.61254E-19
 -1      1867 9.63406E-05-2.88109E-05-2.89394E-05 7.39002E-07 1.61111E-19-1.00148E-18
 -1      1868 9.65598E-05-2.88719E-05-2.90041E-05 8.19213E-07 8.93884E-19-1.02313E-18
 -1      1869 9.61449E-05-2.87089E-05-2.89038E-05 8.86382E-07-7.15877E-20-2.29530E-19
 -1      1870 9.67439E-05-2.89225E-05-2.90644E-05 9.27020E-07 8.29043E-19-1.77145E-18
 -1      1871 9.70142E-05-2.90024E-05-2.91430E-05 1.01329E-06 1.61300E-21-1.46325E-18
 -1      1872 9.64751E-05-2.87923E-05-2.90098E-05 1.11596E-06 1.70965E-19-9.26056E-19
 -1      1873 9.72375E-05-2.90695E-05-2.92131E-05 1.12382E-06-8.96158E-19-1.36469E-18
 -1      1874 9.75591E-05-2.91713E-05-2.93050E-05 1.20756E-06-1.09542E-18-1.18618E-18
 -1      1875 9.68822E-05-2.89102E-05-2.91339E-05 1.36071E-06-1.46767E-19-1.64651E-18
 -1      1876 9.78223E-05-2.92585E-05-2.93830E-05 1.30658E-06-1.05026E-18-7.73104E-19
 -1      1877 9.81884E-05-2.93841E-05-2.94856E-05 1.37334E-06-8.37719E-19-6.23302E-19
 -1      1878 9.73714E-05-2.90731E-05-2.92736E-05 1.59590E-06-6.90944E-19-1.29157E-18
 -1      1879 9.84877E-05-2.94949E-05-2.95675E-05 1.43831E-06-9.42912E-19-3.49228E-19
 -1      1880 9.88806E-05-2.96439E-05-2.96746E-05 1.46605E-06-3.38102E-19-7.82052E-19
 -1      1881 9.79411E-05-2.92926E-05-2.94232E-05 1.78082E-06-7.31564E-19 9.19883E-20
 -1      1882 9.92056E-05-2.97807E-05-2.97538E-05 1.46422E-06-7.69236E-19-9.23421E-19
 -1      1883 9.95921E-05-2.99483E-05-2.98548E-05 1.42215E-06-6.04262E-19-1.40650E-18
 -1      1884 9.85787E-05-2.95801E-05-2.95722E-05 1.85436E-06-6.91436E-19-3.85103E-19
 -1      1885 9.99227E-05-3.01105E-05-2.99214E-05 1.31001E-06-3.96790E-19-2.00932E-18
 -1      1886 1.00250E-04-3.02847E-05-3.00003E-05 1.15923E-06-3.01190E-19-2.30512E-18
 -1      1887 9.92556E-05-2.99429E-05-2.97050E-05 1.73227E-06-1.14664E-18-1.10985E-18
 -1      1888 1.00553E-04-3.04655E-05-3.00413E-05 8.85020E-07 2.20104E-19-2.57429E-18
 -1      1889 1.00743E-04-3.06232E-05-3.00765E-05 5.82913E-07 1.25068E-19-2.36471E-18
 -1      1890 9.99196E-05-3.03770E-05-2.98008E-05 1.30918E-06-1.15105E-19-1.55907E-18
 -1      1891 1.00968E-04-3.08046E-05-3.00766E-05 9.51255E-08 2.45663E-19-1.54288E-18
 -1      1892 1.00924E-04-3.09073E-05-3.00423E-05-3.93795E-07 4.32649E-19-1.14561E-18
 -1      1893 1.00486E-04-3.08557E-05-2.98344E-05 4.70362E-07 6.32214E-19-6.44983E-19
 -1      1894 1.00999E-04-3.10532E-05-2.99864E-05-1.12845E-06 7.55722E-19-5.66693E-19
 -1      1895 1.00609E-04-3.10436E-05-2.98565E-05-1.81275E-06 4.75950E-19-6.16758E-20
 -1      1896 1.00830E-04-3.13122E-05-2.97804E-05-8.79784E-07 9.55733E-19-4.38218E-19
 -1      1897 1.00441E-04-3.10939E-05-2.97336E-05-2.77958E-06 3.22058E-19-1.04131E-19
 -1      1898 9.96040E-05-3.08990E-05-2.94889E-05-3.61239E-06 5.12673E-19-4.37876E-19
 -1      1899 1.00778E-04-3.16209E-05-2.96190E-05-2.76600E-06 7.79396E-19 2.22822E-19
 -1      1900 9.90919E-05-3.07704E-05-2.92972E-05-4.70979E-06-1.37563E-19 1.03967E-19
 -1      1901 9.77541E-05-3.03162E-05-2.89359E-05-5.55870E-06-9.95267E-19-2.73049E-19
 -1      1902 1.00121E-04-3.15894E-05-2.93442E-05-5.06669E-06 1.30139E-19 1.11818E-19
 -1      1903 9.68143E-05-2.99199E-05-2.86879E-05-6.56432E-06-1.59078E-18-6.64944E-19
 -1      1904 9.50251E-05-2.91650E-05-2.82358E-05-7.19812E-06-1.43763E-18-5.09037E-19
 -1      1905 9.86558E-05-3.09820E-05-2.89715E-05-7.43171E-06-1.42114E-18 4.18136E-19
 -1      1906 9.36492E-05-2.84511E-05-2.79598E-05-7.77041E-06-8.55026E-19-1.64599E-19
 -1      1907 9.16100E-05-2.74397E-05-2.74763E-05-7.89133E-06 5.96257E-19-6.62803E-19
 -1      1908 9.62700E-05-2.96049E-05-2.85409E-05-9.24054E-06-6.03499E-19 1.17520E-18
 -1      1909 8.99364E-05-2.64639E-05-2.72125E-05-7.64725E-06 2.23337E-18-1.35286E-18
 -1      1910 8.80160E-05-2.53726E-05-2.67854E-05-6.99301E-06 2.59156E-18-6.35616E-19
 -1      1911 9.30870E-05-2.74577E-05-2.81104E-05-9.68013E-06 7.11217E-19 7.05426E-19
 -1      1912 8.63717E-05-2.43481E-05-2.65748E-05-5.68009E-06 2.71043E-18 2.02759E-19
 -1      1913 8.50446E-05-2.34837E-05-2.62994E-05-4.18177E-06 2.85137E-18 1.90261E-18
 -1      1914 8.95945E-05-2.48938E-05-2.77382E-05-8.01712E-06 3.04505E-18-3.60667E-19
 -1      1915 8.38886E-05-2.27558E-05-2.61695E-05-1.88744E-06 1.82416E-18 1.90929E-18
 -1      1916 8.35846E-05-2.24705E-05-2.61149E-05 1.90422E-07 1.79521E-18 2.00475E-18
 -1      1917 8.66340E-05-2.26528E-05-2.74607E-05-4.03528E-06 2.51367E-18 1.14798E-18
 -1      1918 8.33411E-05-2.23974E-05-2.60659E-05 2.91451E-06 3.53901E-19 1.59372E-18
 -1      1919 8.42513E-05-2.29381E-05-2.62374E-05 4.94210E-06-6.93786E-19 7.38732E-19
 -1      1920 8.51636E-05-2.16738E-05-2.72732E-05 1.57567E-06 4.26779E-19 1.06840E-19
 -1      1921 8.51006E-05-2.37323E-05-2.62342E-05 7.18296E-06-1.02148E-18 8.64225E-19
 -1      1922 8.70301E-05-2.51282E-05-2.65480E-05 8.31630E-06-1.11035E-18 1.39280E-18
 -1      1923 8.58274E-05-2.26839E-05-2.71249E-05 7.15835E-06-1.14636E-18 2.23766E-19
 -1      1924 8.86800E-05-2.65969E-05-2.65331E-05 8.89352E-06-1.12056E-18 1.62588E-18
 -1      1925 9.10288E-05-2.85102E-05-2.68785E-05 8.38393E-06-3.01879E-19 4.05782E-19
 -1      1926 9.23048E-05-2.98468E-05-2.67777E-05 9.84880E-06-8.30594E-19-1.20144E-18
 -1      1927 8.85607E-05-2.58893E-05-2.69155E-05 1.04341E-05-1.08965E-18 6.78784E-20
 -1      1928 1.20501E-04-4.79556E-05-3.12856E-05-6.81903E-05 1.02862E-18 1.24408E-19
 -1      1929 1.09130E-04-3.00124E-05-3.37890E-05-8.11529E-05 7.36178E-19 3.66464E-18
 -1      1930 9.32322E-05-2.73772E-05-2.81972E-05 1.59339E-06 1.38981E-18 1.93382E-18
 -1      1931 9.44008E-05-2.74632E-05-2.86330E-05 2.66615E-06 1.62642E-18 2.61879E-18
 -1      1932 9.52357E-05-2.70258E-05-2.92252E-05 4.06347E-06 2.02711E-18 1.58519E-18
 -1      1933 9.21781E-05-2.73532E-05-2.77580E-05 3.44910E-07 1.38106E-18 1.05788E-18
 -1      1934 9.26691E-05-2.73849E-05-2.79294E-05 8.94923E-07 1.25631E-18 1.54823E-18
 -1      1935 9.36517E-05-2.73823E-05-2.84083E-05 1.58513E-06 1.65455E-18 8.02445E-19
 -1      1936 9.18061E-05-2.73930E-05-2.75902E-05-3.10851E-07 7.46277E-19 4.43261E-19
 -1      1937 9.19192E-05-2.73651E-05-2.76369E-05-1.77344E-08 9.81754E-19 8.24656E-19
 -1      1938 9.28115E-05-2.74867E-05-2.80069E-05 2.66036E-07 1.34796E-18 4.08561E-20
 -1      1939 9.18324E-05-2.74846E-05-2.75675E-05-6.36150E-07 4.45231E-19 2.04661E-20
 -1      1940 9.17428E-05-2.74221E-05-2.75508E-05-4.83348E-07 5.35904E-19 4.17359E-19
 -1      1941 9.25009E-05-2.75823E-05-2.78325E-05-4.27757E-07 7.38686E-19-3.79917E-19
 -1      1942 9.20789E-05-2.76073E-05-2.76237E-05-7.73516E-07 4.33357E-19-1.53210E-19
 -1      1943 9.18865E-05-2.75281E-05-2.75746E-05-7.02364E-07 3.31518E-19-4.86597E-20
 -1      1944 9.25059E-05-2.76880E-05-2.77873E-05-7.72279E-07 4.75343E-19-6.43550E-19
 -1      1945 9.24339E-05-2.77422E-05-2.77199E-05-8.00198E-07 1.10168E-19-1.70110E-20
 -1      1946 9.21972E-05-2.76583E-05-2.76562E-05-7.78120E-07 4.90054E-19 9.04605E-21
 -1      1947 9.26921E-05-2.78038E-05-2.78153E-05-9.12618E-07 4.08854E-19-5.68193E-19
 -1      1948 9.28273E-05-2.78760E-05-2.78325E-05-7.62600E-07 4.16473E-19-6.05893E-19
 -1      1949 9.25814E-05-2.77949E-05-2.77647E-05-7.69830E-07 2.24251E-19-1.78915E-19
 -1      1950 9.29701E-05-2.79212E-05-2.78822E-05-9.31760E-07 4.73820E-19-5.46004E-19
 -1      1951 9.32167E-05-2.80004E-05-2.79471E-05-6.90024E-07 4.91944E-19-6.63779E-19
 -1      1952 9.29819E-05-2.79263E-05-2.78813E-05-7.13914E-07 4.95340E-19-7.25310E-19
 -1      1953 9.32827E-05-2.80329E-05-2.79669E-05-8.80756E-07 5.49852E-19-8.40789E-19
 -1      1954 9.35776E-05-2.81110E-05-2.80551E-05-6.01324E-07 4.70004E-19-7.95860E-19
 -1      1955 9.33650E-05-2.80460E-05-2.79950E-05-6.33613E-07 4.88097E-19-8.02821E-19
 -1      1956 9.35945E-05-2.81340E-05-2.80562E-05-7.92142E-07 5.22096E-19-1.02985E-18
 -1      1957 9.38975E-05-2.82060E-05-2.81521E-05-5.08559E-07 6.26086E-19-8.02455E-19
 -1      1958 9.37123E-05-2.81508E-05-2.80993E-05-5.43871E-07 5.46042E-19-6.13494E-19
 -1      1959 9.38849E-05-2.82222E-05-2.81422E-05-6.86903E-07 4.47329E-19-1.14440E-18
 -1      1960 9.41717E-05-2.82854E-05-2.82360E-05-4.19232E-07 7.23775E-19-1.50958E-18
 -1      1961 9.40152E-05-2.82396E-05-2.81911E-05-4.54146E-07 7.40783E-19-9.40405E-19
 -1      1962 9.41432E-05-2.82967E-05-2.82205E-05-5.78438E-07 9.27747E-19-9.86108E-19
 -1      1963 9.44003E-05-2.83500E-05-2.83066E-05-3.37764E-07 1.45123E-20-1.25129E-18
 -1      1964 9.42713E-05-2.83130E-05-2.82694E-05-3.70195E-07 3.04361E-19-1.37013E-18
 -1      1965 9.43653E-05-2.83582E-05-2.82890E-05-4.75045E-07 4.40514E-19-6.65676E-19
 -1      1966 9.45867E-05-2.84015E-05-2.83647E-05-2.66540E-07-4.02754E-20-1.35353E-18
 -1      1967 9.44827E-05-2.83723E-05-2.83345E-05-2.95295E-07-8.74185E-21-1.41195E-18
 -1      1968 9.45510E-05-2.84075E-05-2.83473E-05-3.81595E-07 1.55035E-19-9.91953E-19
 -1      1969 9.47359E-05-2.84417E-05-2.84116E-05-2.06659E-07 6.47804E-19-1.57822E-18
 -1      1970 9.46536E-05-2.84190E-05-2.83875E-05-2.31117E-07 2.67691E-19-1.36778E-18
 -1      1971 9.47032E-05-2.84463E-05-2.83957E-05-3.00710E-07 1.95446E-19-1.36510E-18
 -1      1972 9.48542E-05-2.84726E-05-2.84491E-05-1.58496E-07 6.41707E-19-2.20963E-18
 -1      1973 9.47897E-05-2.84553E-05-2.84301E-05-1.78364E-07 5.35682E-19-1.87500E-18
 -1      1974 9.48261E-05-2.84763E-05-2.84355E-05-2.33636E-07 7.48873E-19-1.35397E-18
 -1      1975 9.49481E-05-2.84962E-05-2.84792E-05-1.22127E-07 3.19262E-20-2.02062E-18
 -1      1976 9.48976E-05-2.84831E-05-2.84642E-05-1.37252E-07 4.39415E-19-1.85167E-18
 -1      1977 9.49249E-05-2.84991E-05-2.84681E-05-1.80878E-07 3.92708E-19-2.09767E-18
 -1      1978 9.50247E-05-2.85146E-05-2.85041E-05-9.76566E-08-8.13898E-19-1.79323E-18
 -1      1979 9.49842E-05-2.85045E-05-2.84918E-05-1.07881E-07-4.04866E-19-1.92911E-18
 -1      1980 9.50056E-05-2.85164E-05-2.84953E-05-1.42703E-07-2.11453E-19-1.83437E-18
 -1      1981 9.50917E-05-2.85299E-05-2.85262E-05-8.54857E-08-6.51990E-19-1.82948E-18
 -1      1982 9.50568E-05-2.85215E-05-2.85154E-05-9.05237E-08-7.28999E-19-1.87102E-18
 -1      1983 9.50745E-05-2.85302E-05-2.85190E-05-1.19519E-07-6.65586E-19-1.79305E-18
 -1      1984 9.51570E-05-2.85443E-05-2.85479E-05-8.65360E-08-2.12443E-19-1.49934E-18
 -1      1985 9.51233E-05-2.85364E-05-2.85372E-05-8.58675E-08-5.59211E-19-1.80305E-18
 -1      1986 9.51385E-05-2.85420E-05-2.85415E-05-1.12196E-07-4.55452E-19-1.78286E-18
 -1      1987 9.52299E-05-2.85602E-05-2.85721E-05-1.02464E-07 1.56962E-18-1.65018E-18
 -1      1988 9.51923E-05-2.85513E-05-2.85601E-05-9.52313E-08 9.30879E-19-1.41477E-18
 -1      1989 9.52053E-05-2.85538E-05-2.85652E-05-1.22343E-07 8.92019E-19-1.54584E-18
 -1      1990 9.53209E-05-2.85802E-05-2.86021E-05-1.35886E-07-1.70534E-19-2.04428E-18
 -1      1991 9.52734E-05-2.85688E-05-2.85870E-05-1.20781E-07 1.00894E-18-1.65211E-18
 -1      1992 9.52835E-05-2.85676E-05-2.85931E-05-1.52583E-07 1.12323E-18-1.22046E-18
 -1      1993 9.54426E-05-2.86078E-05-2.86420E-05-1.90641E-07-8.35202E-19-2.00040E-18
 -1      1994 9.53782E-05-2.85918E-05-2.86216E-05-1.65772E-07-9.72472E-19-2.40145E-18
 -1      1995 9.53834E-05-2.85858E-05-2.86283E-05-2.06844E-07-5.68809E-19-1.95914E-18
 -1      1996 9.56103E-05-2.86467E-05-2.86965E-05-2.72123E-07-5.14914E-19-1.80140E-18
 -1      1997 9.55203E-05-2.86238E-05-2.86683E-05-2.34842E-07-6.24400E-19-2.01362E-18
 -1      1998 9.55173E-05-2.86113E-05-2.86751E-05-2.90721E-07-8.31192E-19-2.13321E-18
 -1      1999 9.58436E-05-2.87020E-05-2.87719E-05-3.87719E-07 5.81991E-19-1.98161E-18
 -1      2000 9.57169E-05-2.86692E-05-2.87324E-05-3.34392E-07 1.88383E-19-1.72356E-18
 -1      2001 9.57000E-05-2.86473E-05-2.87385E-05-4.11919E-07 3.28839E-19-2.01429E-18
 -1      2002 9.61667E-05-2.87798E-05-2.88758E-05-5.47395E-07 4.67446E-19-6.05180E-19
 -1      2003 9.59892E-05-2.87331E-05-2.88209E-05-4.73091E-07 6.88384E-19-1.18410E-18
 -1      2004 9.59500E-05-2.86978E-05-2.88245E-05-5.80849E-07 5.17342E-19-7.45346E-19
 -1      2005 9.66104E-05-2.88878E-05-2.90180E-05-7.64476E-07-9.80722E-20-1.03935E-18
 -1      2006 9.63641E-05-2.88222E-05-2.89423E-05-6.62545E-07-1.04720E-19-6.19377E-19
 -1      2007 9.62903E-05-2.87679E-05-2.89410E-05-8.11391E-07 6.63002E-20-2.27039E-19
 -1      2008 9.72142E-05-2.90357E-05-2.92112E-05-1.05663E-06-1.99121E-19-9.33875E-19
 -1      2009 9.68755E-05-2.89450E-05-2.91076E-05-9.18153E-07-1.66480E-19-7.28544E-19
 -1      2010 9.67494E-05-2.88635E-05-2.90976E-05-1.12188E-06-4.33732E-20 1.57966E-19
 -1      2011 9.80276E-05-2.92360E-05-2.94710E-05-1.44699E-06-1.31041E-19-8.67253E-19
 -1      2012 9.75665E-05-2.91117E-05-2.93307E-05-1.26013E-06-3.05130E-19-1.16007E-18
 -1      2013 9.73624E-05-2.89918E-05-2.93063E-05-1.53626E-06-2.03051E-19 7.16418E-19
 -1      2014 9.91133E-05-2.95044E-05-2.98175E-05-1.96518E-06-5.95014E-19-1.52712E-18
 -1      2015 9.84909E-05-2.93356E-05-2.96290E-05-1.71448E-06-2.06037E-19-1.62000E-18
 -1      2016 9.81724E-05-2.91618E-05-2.95819E-05-2.08517E-06 1.12834E-19-2.16270E-19
 -1      2017 1.00548E-04-2.98613E-05-3.02750E-05-2.64732E-06 6.11955E-19-2.41122E-18
 -1      2018 9.97159E-05-2.96339E-05-3.00240E-05-2.31349E-06-1.78080E-19-2.12290E-18
 -1      2019 9.92314E-05-2.93848E-05-2.99417E-05-2.80642E-06-9.12877E-21-1.75148E-18
 -1      2020 1.02425E-04-3.03332E-05-3.08718E-05-3.53331E-06-2.78184E-19-4.05610E-19
 -1      2021 1.01323E-04-3.00286E-05-3.05413E-05-3.09416E-06 1.60966E-19-1.68648E-18
 -1      2022 1.00600E-04-2.96763E-05-3.04055E-05-3.74321E-06-1.73976E-19-1.34832E-18
 -1      2023 1.04846E-04-3.09562E-05-3.16380E-05-4.65691E-06-4.10923E-19-9.37242E-19
 -1      2024 1.03407E-04-3.05502E-05-3.12092E-05-4.09185E-06-1.07682E-19 9.99879E-20
 -1      2025 1.02349E-04-3.00593E-05-3.09932E-05-4.93690E-06-4.53407E-19-1.26964E-20
 -1      2026 1.07915E-04-3.17816E-05-3.25985E-05-6.02018E-06 4.91653E-19-9.92299E-19
 -1      2027 1.06073E-04-3.12428E-05-3.20549E-05-5.32263E-06-3.65078E-19-1.15663E-18
 -1      2028 1.04551E-04-3.05734E-05-3.17203E-05-6.40743E-06 1.86119E-19-6.99751E-19
 -1      2029 1.11707E-04-3.28864E-05-3.37573E-05-7.53645E-06-5.95951E-19-1.39778E-18
 -1      2030 1.09419E-04-3.21745E-05-3.30935E-05-6.74282E-06 3.88298E-19-1.35591E-18
 -1      2031 1.07281E-04-3.12922E-05-3.25880E-05-8.10894E-06 7.47235E-19-3.55827E-19
 -1      2032 1.16217E-04-3.43892E-05-3.50680E-05-8.91769E-06-1.52332E-18-5.81515E-19
 -1      2033 1.13514E-04-3.34563E-05-3.43086E-05-8.16646E-06-6.15942E-19-7.12143E-19
 -1      2034 1.10608E-04-3.23570E-05-3.35657E-05-9.84030E-06-7.45379E-19 7.71918E-19
 -1      2035 1.21266E-04-3.64618E-05-3.63874E-05-9.48392E-06 7.98461E-20-4.50463E-19
 -1      2036 1.18337E-04-3.52649E-05-3.56176E-05-9.11955E-06-1.17414E-18-5.01338E-19
 -1      2037 1.14587E-04-3.40254E-05-3.45667E-05-1.10871E-05-1.01542E-18 2.07430E-19
 -1      2038 1.26362E-04-3.92779E-05-3.74231E-05-7.94411E-06-1.03994E-18-2.27759E-19
 -1      2039 1.23684E-04-3.78325E-05-3.68270E-05-8.63803E-06-4.48663E-19-5.56607E-19
 -1      2040 1.19240E-04-3.66917E-05-3.54255E-05-1.07991E-05-3.81535E-19-4.91941E-19
 -1      2041 1.30530E-04-4.27610E-05-3.77553E-05-2.29701E-06-1.12629E-18 3.93493E-19
 -1      2042 1.28997E-04-4.13230E-05-3.76117E-05-5.11686E-06-1.28278E-18-3.26227E-19
 -1      2043 1.24501E-04-4.07895E-05-3.59139E-05-7.21819E-06-1.63371E-18-7.84723E-19
 -1      2044 1.31858E-04-4.56929E-05-3.70639E-05 9.14065E-06-1.71124E-18 1.30107E-18
 -1      2045 1.32828E-04-4.51125E-05-3.76330E-05 3.32840E-06-1.32910E-18 4.69786E-19
 -1      2046 1.29706E-04-4.58592E-05-3.59132E-05 1.90823E-06-1.40780E-18 3.33618E-19
 -1      2047 1.27751E-04-4.51144E-05-3.54987E-05 2.53469E-05-5.97211E-19 2.67509E-18
 -1      2048 1.32638E-04-4.70072E-05-3.67828E-05 1.70270E-05-6.91867E-19 2.68594E-18
 -1      2049 1.33039E-04-4.97156E-05-3.56918E-05 1.73438E-05-1.50711E-18 1.92339E-18
 -1      2050 1.15400E-04-3.67319E-05-3.38619E-05 3.77849E-05-4.91809E-20 2.22928E-18
 -1      2051 1.24500E-04-4.23353E-05-3.54440E-05 3.15172E-05-2.07801E-19 2.05998E-18
 -1      2052 1.30462E-04-4.65041E-05-3.60025E-05 3.51317E-05 1.95718E-19 2.02801E-18
 -1      2053 9.76376E-05-2.23954E-05-3.27149E-05 3.34880E-05-1.48231E-21 1.53220E-18
 -1      2054 1.08219E-04-2.95450E-05-3.41260E-05 3.57742E-05 4.64809E-19 2.31626E-18
 -1      2055 1.19755E-04-3.35015E-05-3.72445E-05 4.23612E-05 5.26854E-19 1.61700E-18
 -1      2056 8.55299E-05-1.39060E-05-3.14606E-05 1.06213E-05 2.26433E-18 3.53610E-19
 -1      2057 9.18624E-05-1.69309E-05-3.25551E-05 2.14793E-05 6.09440E-19 1.24728E-18
 -1      2058 1.06266E-04-1.82942E-05-3.82784E-05 2.80320E-05 7.04308E-19-1.54292E-19
 -1      2059 8.61694E-05-1.83799E-05-2.96446E-05-1.30907E-05 1.67797E-18 1.58358E-18
 -1      2060 8.53450E-05-1.54690E-05-3.02929E-05-2.44149E-06 1.26504E-18 7.82447E-19
 -1      2061 1.00079E-04-1.49889E-05-3.69857E-05 3.11483E-07 1.54795E-18-1.37878E-18
 -1      2062 9.20908E-05-2.69576E-05-2.80068E-05-2.15507E-05 7.95735E-19 1.42037E-18
 -1      2063 8.77466E-05-2.27694E-05-2.80693E-05-1.77123E-05 1.69730E-18 1.66413E-18
 -1      2064 1.01222E-04-2.35510E-05-3.35331E-05-1.87413E-05 1.57866E-18 2.29130E-18
 -1      2065 9.61421E-05-3.21016E-05-2.73248E-05-1.86151E-05-1.01907E-18 2.00760E-19
 -1      2066 9.20540E-05-2.85936E-05-2.73603E-05-2.00334E-05-4.01752E-19 4.01202E-19
 -1      2067 1.02901E-04-3.15972E-05-3.07262E-05-2.15062E-05 6.90438E-19 1.50981E-18
 -1      2068 1.02879E-04-3.62545E-05-2.83083E-05-1.77874E-05-1.24471E-18 4.05120E-19
 -1      2069 1.14436E-04-3.59458E-05-3.34986E-05 7.89864E-05-1.36775E-18-4.55381E-18
 -1      2070 1.29229E-04-4.90585E-05-3.44134E-05 6.50836E-05-1.79825E-18-3.36780E-18
 -1      2071 1.30851E-04-4.63530E-05-3.60568E-05 3.90057E-05-1.15403E-18-2.49599E-18
 -1      2072 1.27930E-04-4.92851E-05-3.41911E-05 1.76408E-05-5.97794E-19-2.05511E-18
 -1      2073 1.44212E-04-5.75324E-05-3.71237E-05 5.14076E-05-4.43951E-19-3.33053E-18
 -1      2074 3.22950E-05 1.14159E-05-1.94325E-05 3.69841E-06-6.15369E-19 1.86432E-18
 -1      2075 4.19651E-05 3.65014E-06-2.05506E-05 3.84494E-05-6.91391E-19 6.49674E-19
 -1      2076 1.19795E-04-4.34330E-05-3.24212E-05 1.98128E-06-2.14352E-19-1.17812E-18
 -1      2077 1.10738E-04-4.04131E-05-3.04977E-05-1.05330E-05-9.03149E-19 1.97517E-19
 -1      2078 1.13083E-04-3.88084E-05-3.22390E-05-1.37619E-05 5.53615E-19 6.85144E-19
 -1      2079 1.33863E-04-4.84278E-05-3.67551E-05 9.11481E-06-4.54618E-19-1.45626E-18
 -1      2080 1.23077E-04-5.96282E-05-2.77929E-05-2.76898E-05-5.09239E-19-5.01676E-18
 -1      2081 1.23115E-04-5.00976E-05-3.11637E-05-4.72950E-05 4.55174E-19-3.22571E-18
 -1      2082 1.12564E-04-5.71929E-05-2.41021E-05 1.37531E-06-6.45571E-19-4.20880E-18
 -1      2083 1.17336E-04-5.60427E-05-2.60025E-05-9.94447E-06 4.29446E-19-3.09411E-18
 -1      2084 1.04472E-04-5.21668E-05-2.24622E-05 1.33204E-05 8.91502E-20-8.28504E-19
 -1      2085 1.08375E-04-5.50905E-05-2.25495E-05 9.30431E-06-4.55280E-21-3.80699E-18
 -1      2086 1.11005E-04-4.44830E-05-2.86846E-05 5.82015E-06-7.62786E-19-3.59264E-18
 -1      2087 1.00095E-04-4.65425E-05-2.28878E-05 1.56619E-05-6.75165E-19 1.03743E-18
 -1      2088 1.02683E-04-5.09112E-05-2.20166E-05 1.53117E-05 5.66983E-20 1.06268E-18
 -1      2089 1.01475E-04-4.07522E-05-2.61010E-05 1.62803E-05-6.29425E-19 4.87785E-19
 -1      2090 9.76650E-05-4.10120E-05-2.42296E-05 1.41617E-05-7.47639E-19-4.34900E-19
 -1      2091 9.94231E-05-4.53868E-05-2.31063E-05 1.51402E-05-2.97917E-19-3.01061E-20
 -1      2092 9.71694E-05-3.79976E-05-2.54026E-05 1.80156E-05-1.23276E-18-9.08813E-19
 -1      2093 9.58616E-05-3.59860E-05-2.56611E-05 1.14235E-05-3.61842E-19-1.53105E-18
 -1      2094 9.73781E-05-3.97671E-05-2.46812E-05 1.27815E-05-1.56235E-18-1.66742E-18
 -1      2095 9.53327E-05-3.53152E-05-2.57242E-05 1.61263E-05-1.06742E-18-1.37036E-18
 -1      2096 3.34938E-05 3.19264E-06-1.71196E-05-2.92415E-05-6.27440E-19 5.00342E-18
 -1      2097 1.47684E-04-5.56766E-05-3.91537E-05 7.47828E-05 1.09945E-18-4.71077E-18
 -1      2098 1.23402E-04-5.79801E-05-2.90713E-05 7.64010E-05 6.57298E-19-2.37720E-18
 -1      2099 8.72468E-05-8.72187E-06-3.37491E-05-1.05363E-05-2.02485E-18-3.57771E-18
 -1      2100 8.79533E-05-9.23969E-06-3.38215E-05-1.20919E-05-2.36521E-18-3.10721E-18
 -1      2101 9.04857E-05-1.30491E-05-3.32363E-05-1.18698E-05-2.52374E-18-2.68505E-18
 -1      2102 8.86842E-05-1.10555E-05-3.32949E-05-9.40956E-06-2.07235E-18-3.50680E-18
 -1      2103 2.09066E-04-3.44931E-05-7.33006E-05 3.64289E-05-8.98278E-19-3.81250E-18
 -1      2104 1.96798E-04-3.72107E-05-6.69663E-05 4.62485E-05-1.11692E-18-2.35983E-18
 -1      2105 2.21796E-04-2.74276E-05-8.12038E-05 2.68864E-05-1.97359E-19-4.37408E-18
 -1      2106 2.07189E-04-2.45652E-05-7.71638E-05 2.84272E-05-9.40207E-19-3.70492E-18
 -1      2107 2.14431E-04-2.63568E-05-7.94414E-05 2.18177E-05 1.37219E-18-4.48080E-18
 -1      2108 2.22226E-04-2.70689E-05-8.17989E-05 2.74061E-05 1.77877E-19-4.27577E-18
 -1      2109 1.83125E-04-1.13668E-05-7.19978E-05 1.86777E-05-6.34428E-19-5.11047E-18
 -1      2110 2.09724E-04-4.24205E-05-7.08433E-05 1.29680E-05 4.27667E-18-3.10607E-18
 -1      2111 2.17269E-04-3.62639E-05-7.62818E-05 2.16812E-05 3.05567E-18-2.88923E-18
 -1      2112 1.85202E-04-5.55464E-05-5.57338E-05 2.07328E-06 4.40118E-18-3.27971E-18
 -1      2113 2.08510E-04-5.28442E-05-6.53093E-05 4.97501E-06 4.41918E-18-3.13317E-18
 -1      2114 1.89672E-04-4.22496E-05-6.18893E-05 3.08105E-05 3.92282E-18-2.61098E-18
 -1      2115 1.44645E-04-6.56442E-05-3.48965E-05-1.84305E-05 3.21449E-18-3.24837E-18
 -1      2116 1.72414E-04-6.53608E-05-4.56873E-05-1.44205E-05 3.40804E-18-2.49705E-18
 -1      2117 9.59597E-05-6.53033E-05-1.49735E-05-2.74000E-05 1.10284E-18-5.71874E-18
 -1      2118 1.22368E-04-6.36264E-05-2.55492E-05-3.17664E-05 2.00662E-18-4.06279E-18
 -1      2119 5.56922E-05-6.31295E-05 1.38038E-06-2.59488E-05 2.40261E-18-2.93624E-18
 -1      2120 7.49212E-05-6.10161E-05-6.72646E-06-3.29752E-05 1.54499E-18-5.50296E-18
 -1      2121 2.68032E-05-5.41655E-05 1.05677E-05-1.81774E-05 3.54399E-18-2.71982E-18
 -1      2122 3.84072E-05-5.69954E-05 6.67155E-06-2.36648E-05 3.52535E-18-2.02568E-18
 -1      2123 5.81695E-05-5.78556E-05-7.77367E-07-3.35956E-05 2.38186E-18-2.39329E-18
 -1      2124 1.26405E-05-5.01408E-05 1.46680E-05 6.11674E-06 1.63514E-18-2.41997E-18
 -1      2125 1.42102E-05-4.74543E-05 1.32929E-05-4.09309E-06 3.10607E-18-3.10946E-18
 -1      2126 2.38934E-05-4.95327E-05 1.01412E-05 2.63152E-05 6.58145E-19-9.72394E-19
 -1      2127 1.69575E-05-5.05618E-05 1.32481E-05 1.79073E-05 1.78364E-18-1.73006E-18
 -1      2128 5.01542E-05-5.07646E-05-3.06759E-07 4.04345E-05-4.37916E-19-8.35069E-19
 -1      2129 3.63402E-05-5.53243E-05 6.67616E-06 3.18944E-05 5.63700E-19-9.40842E-19
 -1      2130 3.47997E-05-4.42660E-05 3.58205E-06 3.73240E-05 1.86051E-18-8.18234E-19
 -1      2131 9.46939E-05-5.35443E-05-1.77559E-05 4.57687E-05-1.57548E-18 1.01326E-18
 -1      2132 7.33493E-05-5.69691E-05-8.26214E-06 3.98650E-05-1.41920E-18-3.86671E-19
 -1      2133 1.40921E-04-5.19421E-05-3.76598E-05 3.85736E-05-3.00273E-19-3.05017E-18
 -1      2134 1.18588E-04-5.59752E-05-2.75734E-05 3.64540E-05-1.60343E-18-2.61310E-19
 -1      2135 1.76480E-04-4.69662E-05-5.50313E-05 2.19253E-05 1.35462E-18-3.53128E-18
 -1      2136 1.53587E-04-4.80565E-05-4.56216E-05 2.80598E-05 7.02190E-19-3.59565E-18
 -1      2137 1.55988E-04-6.12025E-05-4.01406E-05 1.88078E-05 3.50036E-19-2.98664E-18
 -1      2138 2.04010E-04-3.58956E-05-7.10427E-05 1.37357E-06-2.13262E-18-1.31290E-19
 -1      2139 1.84503E-04-3.66365E-05-6.34667E-05 7.48834E-06-6.09864E-19-1.99773E-18
 -1      2140 2.09889E-04-2.36892E-05-7.90793E-05-1.82764E-05-3.54568E-18 9.55665E-19
 -1      2141 2.05882E-04-2.85037E-05-7.55131E-05-5.65442E-06-3.19586E-18 7.17860E-19
 -1      2142 1.80444E-04-2.08161E-05-6.73906E-05-1.86981E-05-3.15986E-18-6.74026E-19
 -1      2143 2.13142E-04-1.73437E-05-8.25059E-05-3.69064E-05 9.06325E-19 8.52327E-19
 -1      2144 2.11982E-04-1.88908E-05-8.19280E-05-2.46781E-05-1.33323E-18 2.17264E-19
 -1      2145 2.02178E-04-1.60282E-05-7.82245E-05-5.52580E-05 5.12878E-19 1.23540E-18
 -1      2146 2.11883E-04-1.82921E-05-8.14100E-05-4.44645E-05 1.72583E-18 2.25988E-18
 -1      2147 1.76991E-04-2.05743E-05-6.59542E-05-6.42335E-05-2.80241E-18-9.31736E-21
 -1      2148 1.95878E-04-1.96079E-05-7.32259E-05-6.21875E-05-9.99075E-19 4.58668E-19
 -1      2149 1.49453E-04-3.45807E-05-4.86157E-05-7.70632E-05-6.60389E-18-7.01343E-19
 -1      2150 1.68262E-04-2.85046E-05-5.78480E-05-7.57352E-05-5.58237E-18-1.44843E-18
 -1      2151 1.18817E-04-4.70975E-05-3.11576E-05-8.74524E-05-4.14284E-18 4.54857E-19
 -1      2152 1.37091E-04-3.72753E-05-4.13523E-05-9.05414E-05-5.12031E-18 2.50298E-19
 -1      2153 1.53762E-04-4.93408E-05-4.35652E-05-7.46820E-05-4.63115E-18-9.30466E-19
 -1      2154 7.31826E-05-4.22038E-05-1.53283E-05-8.50511E-05-1.08420E-19 6.91899E-18
 -1      2155 9.32931E-05-3.86055E-05-2.37648E-05-9.68422E-05-2.19636E-18 2.69759E-18
 -1      2156 1.88314E-04-4.47900E-05-5.95259E-05 5.64263E-05 5.20714E-19-2.77488E-18
 -1      2157 1.66587E-04-5.26170E-05-4.86688E-05 5.34080E-05 1.69364E-18-3.99630E-18
 -1      2158 1.85344E-04-4.79643E-05-5.77448E-05 2.84319E-05-1.87274E-19-3.65283E-18
 -1      2159 1.10825E-04-4.15450E-05-2.95383E-05-9.46744E-05-8.47033E-21 4.00964E-18
 -1      2160 9.76271E-05-2.51992E-05-3.06162E-05-9.18072E-05 1.19686E-18 5.60863E-18
 -1      2161 9.71987E-05-2.43179E-05-3.13081E-05-9.99804E-06-2.70685E-18 1.69268E-18
 -1      2162 7.57391E-05-4.52031E-06-3.04996E-05-8.57183E-05 6.06052E-19 8.32633E-18
 -1      2163 9.63566E-05-2.31086E-05-3.14581E-05-1.03796E-05-2.90167E-18 1.79968E-19
 -1      2164 1.25649E-04-5.05765E-05-3.25170E-05-2.10294E-05-1.06901E-18-3.97947E-18
 -1      2165 4.26423E-05-2.90645E-05-9.03127E-06 5.30263E-05 4.05644E-18-1.94140E-18
 -1      2166 5.67459E-05 1.31852E-05-2.96722E-05 6.45636E-05-2.16946E-18-3.90143E-18
 -1      2167 1.31373E-04-5.24814E-05-3.39013E-05-6.30619E-05-1.00643E-18-2.22113E-18
 -1      2168 8.17969E-05-1.47857E-05-2.84784E-05 7.92573E-05 2.59192E-19-4.92338E-18
 -1      2169 5.14350E-05 2.66691E-05-3.28021E-05-4.89632E-05-1.78173E-18 8.52454E-18
 -1      2170 4.25954E-05-2.31255E-05-1.10923E-05-5.89553E-05 3.16197E-18 1.09157E-17
 -1      2171 9.47512E-05-3.34480E-05-2.63211E-05 1.13216E-05-4.81717E-19-1.27643E-18
 -1      2172 1.02981E-04-4.80154E-05-2.41320E-05 8.63326E-05 1.45266E-18-5.30825E-19
 -1      2173 8.11183E-05-4.61322E-05-1.72648E-05 7.83861E-05 2.50468E-18-2.47249E-18
 -1      2174 1.61695E-04-6.27151E-05-4.20482E-05 5.63639E-05 1.90159E-19-4.57864E-18
 -1      2175 6.08358E-05-3.59749E-05-1.28022E-05 7.35345E-05 3.68883E-18-3.55584E-18
 -1      2176 1.18264E-04-4.90107E-05-3.00843E-05-9.55254E-05-1.14307E-18 2.59012E-18
 -1      2177 1.72206E-04-3.40193E-05-5.77592E-05-5.18347E-05-4.58705E-18-1.65934E-18
 -1      2178 1.82263E-04-1.45737E-05-7.00535E-05-3.80841E-05-2.20229E-19 1.11512E-18
 -1      2179 1.83967E-04-7.38354E-06-7.45980E-05-2.41180E-05-2.25226E-18 2.46487E-19
 -1      2180 1.75627E-04-4.39228E-05-5.57822E-05-2.25363E-06 6.79744E-20-1.83256E-18
 -1      2181 7.22414E-05-5.73861E-05-6.62215E-06 4.67192E-05-6.36969E-19-5.13408E-19
 -1      2182 2.36822E-05-4.45980E-05 8.50728E-06-1.39809E-05 2.71474E-18-3.03492E-18
 -1      2183 3.38605E-05-3.93274E-05 2.34769E-06-2.51044E-05 2.77403E-18-2.65460E-18
 -1      2184 2.04585E-05-3.11610E-05 4.87408E-06-1.02284E-05 2.62305E-18-2.87314E-18
 -1      2185 1.01131E-04-7.16797E-05-1.31538E-05-3.23144E-05-1.89735E-19-4.56074E-18
 -1      2186 1.80415E-04-6.68364E-05-4.80199E-05 1.16481E-05 3.10236E-18-3.14080E-18
 -1      2187 1.87963E-04-2.05230E-05-7.02914E-05 2.99141E-05 1.68983E-18-4.41241E-18
 -1      2188 1.89975E-04-2.62306E-05-6.87368E-05 1.64153E-05-3.75659E-19-3.90482E-18
 -1      2189 1.47084E-04-7.67863E-05-2.99583E-05-1.62456E-05 1.22650E-18-2.59107E-18
 -1      2190 1.64187E-05-3.65068E-05 8.18712E-06 1.48823E-05 2.13569E-18-1.99434E-18
 -1      2191 1.20812E-04-6.55804E-05-2.35921E-05 3.89584E-05-1.83552E-18-9.30254E-19
 -1      2192 1.86279E-04-5.29255E-06-7.60750E-05-3.01738E-05 8.86420E-19 4.41304E-19
 -1      2193 8.48470E-05-3.19633E-05-2.33872E-05 8.50304E-05 1.15027E-18-3.12343E-18
 -1      2194 5.78894E-05-2.44224E-05-1.54778E-05-8.01810E-05 8.04681E-19 1.26221E-17
 -1      2195 1.28160E-04-4.12526E-05-3.79681E-05-9.91717E-06-8.90761E-19-1.36118E-18
 -1      2196 1.39666E-04-4.62669E-05-3.99485E-05-2.79623E-05-2.28265E-18-2.16544E-18
 -1      2197 8.81267E-05-1.11779E-05-3.30172E-05-3.65916E-06-8.32437E-19-3.85683E-18
 -1      2198 8.83613E-05-1.14480E-05-3.29996E-05-4.79937E-06-1.14061E-18-3.85970E-18
 -1      2199 8.87130E-05-1.19306E-05-3.29514E-05-5.81630E-06-1.37566E-18-3.80093E-18
 -1      2200 8.91217E-05-1.24045E-05-3.29234E-05-6.98758E-06-1.72330E-18-3.72777E-18
 -1      2201 8.98801E-05-1.38170E-05-3.25977E-05-4.90122E-06-1.24200E-18-3.55755E-18
 -1      2202 8.77802E-05-1.07192E-05-3.30602E-05 6.15187E-07 3.59264E-19-3.98762E-18
 -1      2203 8.77758E-05-1.07142E-05-3.30604E-05-4.95229E-07 5.94738E-20-3.97564E-18
 -1      2204 8.79619E-05-1.09443E-05-3.30419E-05 2.75605E-06 8.92638E-19-3.96974E-18
 -1      2205 8.78466E-05-1.08111E-05-3.30511E-05 1.63722E-06 5.47567E-19-3.98169E-18
 -1      2206 8.90974E-05-1.27650E-05-3.27171E-05 1.04893E-06 4.63206E-19-3.79194E-18
 -1      2207 8.83977E-05-1.14920E-05-3.29972E-05 4.88421E-06 1.43458E-18-3.72360E-18
 -1      2208 8.81573E-05-1.12148E-05-3.30151E-05 3.76149E-06 1.09875E-18-3.87148E-18
 -1      2209 8.93640E-05-1.31209E-05-3.26774E-05 3.01891E-06 9.58661E-19-3.69086E-18
 -1      2210 8.91801E-05-1.24759E-05-3.29191E-05 7.07010E-06 2.02659E-18-3.43091E-18
 -1      2211 8.87602E-05-1.19884E-05-3.29479E-05 5.89877E-06 1.66647E-18-3.62753E-18
 -1      2212 8.99227E-05-1.38689E-05-3.25936E-05 4.97144E-06 1.54938E-18-3.45367E-18
 -1      2213 9.04506E-05-1.40863E-05-3.27926E-05 9.21860E-06 2.51643E-18-2.92465E-18
 -1      2214 8.97711E-05-1.32763E-05-3.28377E-05 8.04075E-06 2.22104E-18-3.25911E-18
 -1      2215 9.08630E-05-1.51308E-05-3.24497E-05 6.86457E-06 2.07047E-18-3.14139E-18
 -1      2216 9.24613E-05-1.66925E-05-3.25733E-05 1.10652E-05 2.95531E-18-1.96336E-18
 -1      2217 9.13688E-05-1.53149E-05-3.26560E-05 1.00283E-05 2.60888E-18-2.50374E-18
 -1      2218 9.22911E-05-1.70902E-05-3.22092E-05 8.51867E-06 2.42395E-18-2.52363E-18
 -1      2219 9.55218E-05-2.08661E-05-3.21003E-05 1.16822E-05 3.14264E-18-1.72159E-19
 -1      2220 9.38037E-05-1.84725E-05-3.23228E-05 1.14560E-05 3.02070E-18-1.20403E-18
 -1      2221 9.43110E-05-2.00296E-05-3.17883E-05 9.47057E-06 2.82680E-18-1.40424E-18
 -1      2222 9.75099E-05-2.45886E-05-3.13152E-05 9.84535E-06 2.89648E-18 1.48603E-18
 -1      2223 9.62765E-05-2.22039E-05-3.17339E-05 1.11086E-05 3.03685E-18 5.02741E-19
 -1      2224 9.59229E-05-2.32259E-05-3.11178E-05 8.83034E-06 2.86085E-18-6.53208E-20
 -1      2225 9.63344E-05-2.56820E-05-3.02871E-05 6.84717E-06 2.62290E-18 1.11581E-18
 -1      2226 9.35963E-05-2.88331E-05-2.77391E-05 1.72842E-05-1.64994E-18-5.82613E-19
 -1      2227 9.53223E-05-2.99282E-05-2.79593E-05 1.73562E-05-1.95980E-18 1.19399E-19
 -1      2228 9.42344E-05-2.71013E-05-2.87534E-05 1.76192E-06 1.84053E-18-2.67873E-19
 -1      2229 9.48059E-05-2.68828E-05-2.90523E-05 2.76577E-06 1.84558E-18 1.49386E-19
 -1      2230 9.59161E-05-2.50932E-05-3.03069E-05-6.18865E-06-2.34024E-18-4.29843E-19
 -1      2231 9.52621E-05-2.58485E-05-2.97629E-05-4.26872E-06-2.05613E-18-5.28534E-19
 -1      2232 9.51464E-05-2.65401E-05-2.93457E-05-2.93504E-06-1.88329E-18-3.69386E-19
 -1      2233 9.46764E-05-2.69097E-05-2.90428E-05-1.87233E-06-1.60032E-18-5.17474E-19
 -1      2234 9.53474E-05-2.53706E-05-2.99962E-05-4.29079E-06-2.02943E-18-1.11553E-18
 -1      2235 9.44810E-05-2.72392E-05-2.87794E-05-1.01998E-06-1.39479E-18-4.81728E-19
 -1      2236 9.42231E-05-2.74528E-05-2.86134E-05-4.18006E-07-1.12744E-18-6.78584E-19
 -1      2237 9.50363E-05-2.66986E-05-2.93007E-05-1.91330E-06-1.59482E-18-9.71754E-19
 -1      2238 9.40747E-05-2.76334E-05-2.84523E-05 9.02512E-08-9.87647E-19-7.38982E-19
 -1      2239 9.39771E-05-2.77771E-05-2.83689E-05 4.20325E-07-8.21629E-19-7.92448E-19
 -1      2240 9.47331E-05-2.74277E-05-2.88581E-05-4.33267E-07-1.24524E-18-1.01472E-18
 -1      2241 9.38928E-05-2.78869E-05-2.82756E-05 7.03213E-07-7.85963E-19-1.02400E-18
 -1      2242 9.38992E-05-2.79942E-05-2.82429E-05 8.67476E-07-7.30221E-19-1.15686E-18
 -1      2243 9.45326E-05-2.78563E-05-2.85859E-05 4.37858E-07-1.03223E-18-1.21538E-18
 -1      2244 9.38679E-05-2.80665E-05-2.81941E-05 1.00476E-06-7.93392E-19-1.34687E-18
 -1      2245 9.39358E-05-2.81507E-05-2.81919E-05 1.06697E-06-8.65910E-19-1.46199E-18
 -1      2246 9.44403E-05-2.81260E-05-2.84279E-05 9.08984E-07-9.33398E-19-1.50252E-18
 -1      2247 9.39414E-05-2.82006E-05-2.81718E-05 1.11187E-06-7.24112E-19-1.21401E-18
 -1      2248 9.40409E-05-2.82678E-05-2.81872E-05 1.11211E-06-5.74426E-19-1.27383E-18
 -1      2249 9.44308E-05-2.83034E-05-2.83454E-05 1.12175E-06-7.03464E-19-1.57191E-18
 -1      2250 9.40691E-05-2.83029E-05-2.81850E-05 1.10034E-06-5.69658E-19-1.21943E-18
 -1      2251 9.41806E-05-2.83563E-05-2.82095E-05 1.06463E-06-6.77581E-19-1.12808E-18
 -1      2252 9.44756E-05-2.84222E-05-2.83118E-05 1.17156E-06-5.79046E-19-1.46831E-18
 -1      2253 9.42207E-05-2.83809E-05-2.82179E-05 1.02027E-06-8.54365E-19-9.26744E-19
 -1      2254 9.43317E-05-2.84228E-05-2.82460E-05 9.65697E-07-7.38726E-19-1.15833E-18
 -1      2255 9.45510E-05-2.85016E-05-2.83088E-05 1.12289E-06-7.03519E-19-1.32879E-18
 -1      2256 9.43763E-05-2.84396E-05-2.82602E-05 9.04869E-07-3.88425E-19-1.26022E-18
 -1      2257 9.44796E-05-2.84719E-05-2.82886E-05 8.42633E-07-2.26540E-20-1.37618E-18
 -1      2258 9.46401E-05-2.85533E-05-2.83239E-05 1.01927E-06-5.99116E-19-1.29728E-18
 -1      2259 9.45238E-05-2.84829E-05-2.83052E-05 7.75985E-07-6.26506E-20-1.35419E-18
 -1      2260 9.46157E-05-2.85072E-05-2.83319E-05 7.13269E-07 3.98844E-20-1.22728E-18
 -1      2261 9.47315E-05-2.85852E-05-2.83488E-05 8.89822E-07-9.81790E-20-1.18163E-18
 -1      2262 9.46569E-05-2.85140E-05-2.83489E-05 6.47636E-07-4.26215E-19-1.34163E-18
 -1      2263 9.47358E-05-2.85318E-05-2.83730E-05 5.88899E-07-6.18036E-19-1.41059E-18
 -1      2264 9.48182E-05-2.86030E-05-2.83780E-05 7.53640E-07-1.20248E-19-1.49714E-18
 -1      2265 9.47726E-05-2.85353E-05-2.83893E-05 5.28504E-07-7.38823E-19-1.45133E-18
 -1      2266 9.48389E-05-2.85478E-05-2.84103E-05 4.76376E-07-8.79890E-19-1.47123E-18
 -1      2267 9.48965E-05-2.86107E-05-2.84080E-05 6.22890E-07-7.94692E-19-1.43461E-18
 -1      2268 9.48707E-05-2.85489E-05-2.84254E-05 4.23707E-07-1.03641E-18-1.24432E-18
 -1      2269 9.49255E-05-2.85572E-05-2.84434E-05 3.79646E-07-8.07926E-19-1.63784E-18
 -1      2270 9.49649E-05-2.86113E-05-2.84370E-05 5.05026E-07-9.18679E-19-1.28481E-18
 -1      2271 9.49528E-05-2.85566E-05-2.84570E-05 3.36096E-07-6.47187E-19-1.52653E-18
 -1      2272 9.49977E-05-2.85617E-05-2.84724E-05 3.00873E-07-4.26503E-19-1.35491E-18
 -1      2273 9.50235E-05-2.86070E-05-2.84640E-05 4.04422E-07-7.21428E-19-1.14537E-18
 -1      2274 9.50211E-05-2.85598E-05-2.84847E-05 2.67231E-07-1.08594E-19-1.67755E-18
 -1      2275 9.50584E-05-2.85623E-05-2.84980E-05 2.41290E-07 6.93808E-21-1.42844E-18
 -1      2276 9.50735E-05-2.85990E-05-2.84888E-05 3.23591E-07-3.49126E-19-1.19490E-18
 -1      2277 9.50790E-05-2.85593E-05-2.85095E-05 2.18098E-07 1.20188E-20-1.28519E-18
 -1      2278 9.51111E-05-2.85600E-05-2.85214E-05 2.01819E-07 8.38725E-20-1.17050E-18
 -1      2279 9.51165E-05-2.85883E-05-2.85119E-05 2.64093E-07 8.92225E-20-8.74095E-19
 -1      2280 9.51301E-05-2.85562E-05-2.85325E-05 1.89637E-07 4.52042E-20-1.05080E-18
 -1      2281 9.51598E-05-2.85557E-05-2.85439E-05 1.83531E-07 4.38738E-19-1.03797E-18
 -1      2282 9.51548E-05-2.85754E-05-2.85340E-05 2.27202E-07 1.06599E-19-6.03842E-19
 -1      2283 9.51786E-05-2.85512E-05-2.85552E-05 1.83118E-07 7.65500E-19-1.01567E-18
 -1      2284 9.52087E-05-2.85499E-05-2.85671E-05 1.87955E-07 9.87953E-19-1.28148E-18
 -1      2285 9.51914E-05-2.85605E-05-2.85562E-05 2.14387E-07 6.43924E-19-4.18558E-19
 -1      2286 9.52291E-05-2.85449E-05-2.85794E-05 2.00388E-07 7.90408E-19-1.10413E-18
 -1      2287 9.52629E-05-2.85436E-05-2.85926E-05 2.17265E-07 7.12177E-19-9.01357E-19
 -1      2288 9.52291E-05-2.85437E-05-2.85798E-05 2.27637E-07 7.86475E-19-8.47631E-19
 -1      2289 9.52867E-05-2.85383E-05-2.86068E-05 2.43987E-07 6.05447E-19-1.12712E-18
 -1      2290 9.53279E-05-2.85378E-05-2.86226E-05 2.74327E-07 7.89111E-19-7.83140E-19
 -1      2291 9.52717E-05-2.85253E-05-2.86061E-05 2.69638E-07 6.82154E-19-7.12628E-19
 -1      2292 9.53574E-05-2.85324E-05-2.86394E-05 3.17107E-07 6.30425E-19-1.22016E-18
 -1      2293 9.54100E-05-2.85337E-05-2.86590E-05 3.62570E-07 5.40273E-19-1.35659E-18
 -1      2294 9.53233E-05-2.85057E-05-2.86369E-05 3.43783E-07 3.95655E-19-1.08934E-18
 -1      2295 9.54478E-05-2.85291E-05-2.86795E-05 4.23360E-07 3.06389E-19-1.60305E-18
 -1      2296 9.55163E-05-2.85336E-05-2.87041E-05 4.85635E-07-4.30560E-20-1.21960E-18
 -1      2297 9.53886E-05-2.84858E-05-2.86736E-05 4.53980E-07 1.48288E-19-1.40719E-18
 -1      2298 9.55653E-05-2.85308E-05-2.87290E-05 5.66270E-07-2.92853E-19-1.43270E-18
 -1      2299 9.56548E-05-2.85406E-05-2.87599E-05 6.46697E-07-3.16086E-19-1.18460E-18
 -1      2300 9.54733E-05-2.84676E-05-2.87180E-05 6.04190E-07-4.72346E-19-1.37414E-18
 -1      2301 9.57186E-05-2.85416E-05-2.87899E-05 7.48387E-07-2.53258E-20-1.09504E-18
 -1      2302 9.58343E-05-2.85593E-05-2.88283E-05 8.47349E-07 3.01958E-19-6.62185E-19
 -1      2303 9.55840E-05-2.84545E-05-2.87713E-05 7.97584E-07-1.35795E-19-1.25203E-18
 -1      2304 9.59172E-05-2.85670E-05-2.88640E-05 9.69889E-07 6.50458E-20-6.34089E-19
 -1      2305 9.60644E-05-2.85966E-05-2.89105E-05 1.08589E-06 7.91116E-20-6.37810E-19
 -1      2306 9.57288E-05-2.84523E-05-2.88346E-05 1.03519E-06 3.52132E-19-1.17728E-18
 -1      2307 9.61714E-05-2.86154E-05-2.89519E-05 1.22650E-06-3.67326E-20-3.07462E-19
 -1      2308 9.63549E-05-2.86621E-05-2.90069E-05 1.35485E-06 1.87017E-19-6.36384E-19
 -1      2309 9.59172E-05-2.84700E-05-2.89080E-05 1.31390E-06-8.32543E-20-1.04453E-18
 -1      2310 9.64919E-05-2.86985E-05-2.90533E-05 1.50658E-06-2.12192E-19-1.07912E-18
 -1      2311 9.67152E-05-2.87689E-05-2.91161E-05 1.63766E-06-4.14500E-19-1.06654E-18
 -1      2312 9.61605E-05-2.85210E-05-2.89907E-05 1.62356E-06-4.88523E-19-4.07980E-19
 -1      2313 9.68895E-05-2.88319E-05-2.91660E-05 1.78727E-06-3.69628E-19-1.18279E-18
 -1      2314 9.71537E-05-2.89343E-05-2.92345E-05 1.90437E-06-3.07643E-19-3.98808E-19
 -1      2315 9.64722E-05-2.86246E-05-2.90803E-05 1.94323E-06-1.14538E-19 4.62730E-19
 -1      2316 9.73731E-05-2.90357E-05-2.92851E-05 2.02981E-06-4.91290E-19-5.81069E-19
 -1      2317 9.76751E-05-2.91794E-05-2.93555E-05 2.10677E-06-5.53824E-19 2.73898E-19
 -1      2318 9.68682E-05-2.88068E-05-2.91722E-05 2.23639E-06-4.13648E-19-2.08643E-20
 -1      2319 9.79484E-05-2.93336E-05-2.94029E-05 2.17452E-06-7.38805E-19-6.35642E-19
 -1      2320 9.82785E-05-2.95277E-05-2.94690E-05 2.17371E-06-1.36587E-18-1.26400E-18
 -1      2321 9.73657E-05-2.91002E-05-2.92600E-05 2.44563E-06-9.60346E-19-8.25572E-19
 -1      2322 9.86132E-05-2.97496E-05-2.95081E-05 2.13659E-06-1.40403E-18-1.47809E-18
 -1      2323 9.89520E-05-2.99998E-05-2.95614E-05 2.00837E-06-5.75292E-19-1.45123E-18
 -1      2324 9.79818E-05-2.95414E-05-2.93352E-05 2.48768E-06-1.52917E-18-1.37557E-18
 -1      2325 9.93513E-05-3.03009E-05-2.95867E-05 1.80535E-06-4.32189E-20-1.24091E-18
 -1      2326 9.96659E-05-3.06032E-05-2.96167E-05 1.49095E-06 8.59623E-20-7.28096E-19
 -1      2327 9.87281E-05-3.01636E-05-2.93885E-05 2.25079E-06-1.97022E-19-8.67433E-19
 -1      2328 1.00121E-04-3.09824E-05-2.96233E-05 1.05130E-06 2.98161E-19-3.81458E-19
 -1      2329 1.00360E-04-3.13137E-05-2.96188E-05 4.92142E-07 1.08717E-18 1.56091E-19
 -1      2330 9.96004E-05-3.09805E-05-2.94117E-05 1.59831E-06 7.44582E-19 1.57287E-19
 -1      2331 1.00840E-04-3.17432E-05-2.96050E-05-2.51917E-07 1.00229E-18 5.46206E-19
 -1      2332 1.00928E-04-3.20472E-05-2.95566E-05-1.09469E-06 8.77794E-19 2.43409E-19
 -1      2333 1.00559E-04-3.19577E-05-2.94018E-05 3.84807E-07 1.20149E-18 5.79196E-19
 -1      2334 1.01359E-04-3.24532E-05-2.95259E-05-2.18162E-06 7.93260E-19-1.49615E-19
 -1      2335 1.01201E-04-3.26273E-05-2.94294E-05-3.29460E-06 7.04043E-19-1.52199E-19
 -1      2336 1.01498E-04-3.29717E-05-2.93653E-05-1.50586E-06 5.38055E-19 2.93629E-19
 -1      2337 1.01451E-04-3.28726E-05-2.93926E-05-4.68900E-06 6.47069E-19-5.37022E-19
 -1      2338 1.00936E-04-3.27655E-05-2.92530E-05-5.96313E-06-1.90781E-20 1.01063E-20
 -1      2339 1.02211E-04-3.37648E-05-2.93229E-05-4.08953E-06 3.08892E-19-8.56331E-19
 -1      2340 1.00815E-04-3.26526E-05-2.92269E-05-7.49653E-06-1.02288E-18-2.02573E-19
 -1      2341 9.98525E-05-3.20925E-05-2.90601E-05-8.68680E-06-1.25468E-18 2.15361E-19
 -1      2342 1.02368E-04-3.39264E-05-2.93085E-05-7.17449E-06-4.09665E-19 4.34640E-19
 -1      2343 9.91505E-05-3.14123E-05-2.90624E-05-1.00057E-05-7.15571E-19 8.39267E-19
 -1      2344 9.77308E-05-3.02865E-05-2.88924E-05-1.07261E-05 3.34049E-20 1.33734E-18
 -1      2345 1.01552E-04-3.29553E-05-2.93612E-05-1.02397E-05-4.43527E-19 1.53882E-18
 -1      2346 9.63304E-05-2.89390E-05-2.89288E-05-1.13020E-05-9.93858E-21 6.32049E-19
 -1      2347 9.45975E-05-2.73206E-05-2.87799E-05-1.11037E-05 6.32258E-19 2.92197E-19
 -1      2348 9.94137E-05-3.04713E-05-2.95021E-05-1.23714E-05-3.38260E-19 1.97049E-18
 -1      2349 9.26371E-05-2.54821E-05-2.88295E-05-1.03825E-05 1.78782E-18-4.05884E-19
 -1      2350 9.09345E-05-2.37391E-05-2.87133E-05-8.94927E-06 2.21842E-18-1.35445E-18
 -1      2351 9.59591E-05-2.65698E-05-2.97023E-05-1.24018E-05 6.39792E-19 9.68112E-19
 -1      2352 8.89072E-05-2.19547E-05-2.87213E-05-6.66664E-06 2.46233E-18-1.28041E-18
 -1      2353 8.77155E-05-2.07117E-05-2.86287E-05-4.07646E-06 1.89202E-18-1.13278E-18
 -1      2354 9.18372E-05-2.21515E-05-2.98583E-05-9.39193E-06 1.92905E-18-7.98700E-19
 -1      2355 8.63283E-05-1.97469E-05-2.85200E-05-5.69234E-07 1.02517E-18-4.29775E-19
 -1      2356 8.60948E-05-1.96653E-05-2.84216E-05 2.55616E-06 7.15213E-20 5.96015E-19
 -1      2357 8.83006E-05-1.88264E-05-2.98033E-05-3.35389E-06 1.64738E-18-8.09823E-19
 -1      2358 8.59794E-05-2.02160E-05-2.81299E-05 6.26547E-06-9.78813E-19 7.79473E-19
 -1      2359 8.68693E-05-2.16159E-05-2.79761E-05 8.82053E-06-9.10507E-19 5.55775E-19
 -1      2360 8.67330E-05-1.83495E-05-2.93621E-05 4.33464E-06-3.20880E-19-2.19158E-19
 -1      2361 9.36365E-05-2.74751E-05-2.83435E-05 3.62745E-07 1.25236E-18-4.99470E-19
 -1      2362 9.39175E-05-2.73375E-05-2.84910E-05 8.97913E-07 1.61846E-18-2.74806E-19
 -1      2363 9.47359E-05-2.69371E-05-2.90713E-05 1.86929E-06 1.89431E-18-6.53696E-19
 -1      2364 9.50820E-05-2.66574E-05-2.93017E-05 3.67415E-06 1.95356E-18 4.16671E-19
 -1      2365 9.59980E-05-2.62304E-05-2.98579E-05 5.40662E-06 2.27011E-18 7.96419E-19
 -1      2366 9.59188E-05-2.52455E-05-3.03095E-05 6.45577E-06 2.51218E-18 2.09338E-19
 -1      2367 9.53138E-05-2.62960E-05-2.96174E-05 3.86455E-06 2.14182E-18-4.78069E-19
 -1      2368 9.33543E-05-2.76952E-05-2.81323E-05-4.17797E-07 8.43666E-19-9.63053E-19
 -1      2369 9.34313E-05-2.75899E-05-2.81935E-05-1.31677E-07 1.03524E-18-6.99285E-19
 -1      2370 9.42774E-05-2.74919E-05-2.86364E-05 3.95861E-07 1.38016E-18-9.05422E-19
 -1      2371 9.33047E-05-2.78602E-05-2.80429E-05-8.25422E-07 4.23110E-19-1.18061E-18
 -1      2372 9.32584E-05-2.77687E-05-2.80540E-05-6.85694E-07 6.72777E-19-1.10370E-18
 -1      2373 9.40215E-05-2.78104E-05-2.83874E-05-4.52321E-07 9.83382E-19-1.25777E-18
 -1      2374 9.34005E-05-2.79967E-05-2.80271E-05-1.00218E-06 3.84827E-19-1.20150E-18
 -1      2375 9.32863E-05-2.79153E-05-2.80097E-05-9.50894E-07 3.06023E-19-1.18038E-18
 -1      2376 9.39361E-05-2.80204E-05-2.82577E-05-9.01290E-07 5.54291E-19-1.42672E-18
 -1      2377 9.35769E-05-2.81127E-05-2.80542E-05-1.03756E-06 5.13315E-19-1.17838E-18
 -1      2378 9.34310E-05-2.80411E-05-2.80217E-05-1.03939E-06 4.92560E-19-1.07194E-18
 -1      2379 9.39661E-05-2.81703E-05-2.82035E-05-1.09852E-06 3.53825E-19-1.67821E-18
 -1      2380 9.37892E-05-2.82107E-05-2.81040E-05-9.89174E-07 4.52689E-19-1.11051E-18
 -1      2381 9.36348E-05-2.81492E-05-2.80651E-05-1.02159E-06 6.12524E-19-1.08796E-18
 -1      2382 9.40654E-05-2.82819E-05-2.81962E-05-1.13978E-06 5.60809E-19-1.38092E-18
 -1      2383 9.40088E-05-2.82923E-05-2.81637E-05-8.94769E-07 7.31745E-19-1.21087E-18
 -1      2384 9.38597E-05-2.82406E-05-2.81236E-05-9.43116E-07 6.56729E-19-1.03674E-18
 -1      2385 9.42001E-05-2.83662E-05-2.82163E-05-1.08796E-06 6.17369E-19-1.30666E-18
 -1      2386 9.42179E-05-2.83587E-05-2.82252E-05-7.79124E-07 5.01079E-19-1.16420E-18
 -1      2387 9.40820E-05-2.83164E-05-2.81871E-05-8.33863E-07 5.80113E-19-1.19706E-18
 -1      2388 9.43470E-05-2.84296E-05-2.82512E-05-9.84794E-07 6.76205E-19-1.26139E-18
 -1      2389 9.44068E-05-2.84117E-05-2.82837E-05-6.58270E-07 6.99927E-19-8.85144E-19
 -1      2390 9.42879E-05-2.83777E-05-2.82493E-05-7.13307E-07 6.59799E-19-1.20100E-18
 -1      2391 9.44914E-05-2.84764E-05-2.82924E-05-8.57845E-07 6.05326E-19-1.29427E-18
 -1      2392 9.45712E-05-2.84529E-05-2.83366E-05-5.42266E-07 6.76329E-20-5.60105E-19
 -1      2393 9.44702E-05-2.84263E-05-2.83067E-05-5.93850E-07 4.79753E-19-5.92403E-19
 -1      2394 9.46247E-05-2.85102E-05-2.83347E-05-7.25043E-07 3.51742E-19-7.96832E-19
 -1      2395 9.47103E-05-2.84841E-05-2.83829E-05-4.37136E-07 1.51150E-19-6.20775E-19
 -1      2396 9.46266E-05-2.84638E-05-2.83575E-05-4.83083E-07 1.83288E-19-5.97958E-19
 -1      2397 9.47428E-05-2.85337E-05-2.83750E-05-5.97700E-07 2.85245E-20-8.75568E-19
 -1      2398 9.48257E-05-2.85070E-05-2.84224E-05-3.46253E-07 6.16550E-19-8.49877E-19
 -1      2399 9.47575E-05-2.84920E-05-2.84013E-05-3.85390E-07 4.73075E-19-4.51704E-19
 -1      2400 9.48442E-05-2.85491E-05-2.84118E-05-4.82651E-07 3.54798E-19-6.73625E-19
 -1      2401 9.49203E-05-2.85234E-05-2.84559E-05-2.71365E-07 1.08727E-18-1.41055E-18
 -1      2402 9.48654E-05-2.85125E-05-2.84385E-05-3.03114E-07 1.01104E-18-9.84996E-19
 -1      2403 9.49296E-05-2.85583E-05-2.84444E-05-3.83811E-07 9.63192E-19-1.00546E-18
 -1      2404 9.49981E-05-2.85345E-05-2.84844E-05-2.13365E-07 1.95017E-19-1.59648E-18
 -1      2405 9.49536E-05-2.85269E-05-2.84698E-05-2.37428E-07 6.61117E-19-1.52273E-18
 -1      2406 9.50010E-05-2.85627E-05-2.84732E-05-3.03321E-07 1.03205E-18-7.89280E-19
 -1      2407 9.50637E-05-2.85418E-05-2.85092E-05-1.72878E-07-5.74621E-19-1.45991E-18
 -1      2408 9.50267E-05-2.85366E-05-2.84967E-05-1.89000E-07-2.22865E-19-1.55168E-18
 -1      2409 9.50612E-05-2.85634E-05-2.84989E-05-2.42423E-07-1.31565E-19-9.06395E-19
 -1      2410 9.51223E-05-2.85464E-05-2.85321E-05-1.50735E-07-6.54955E-19-1.55995E-18
 -1      2411 9.50894E-05-2.85429E-05-2.85207E-05-1.58503E-07-7.38972E-19-1.59038E-18
 -1      2412 9.51137E-05-2.85613E-05-2.85224E-05-2.02130E-07-6.41601E-19-1.14794E-18
 -1      2413 9.51796E-05-2.85495E-05-2.85550E-05-1.48346E-07-1.61331E-19-1.62045E-18
 -1      2414 9.51473E-05-2.85468E-05-2.85435E-05-1.47029E-07-3.36667E-19-1.46273E-18
 -1      2415 9.51624E-05-2.85571E-05-2.85453E-05-1.83758E-07-4.12820E-19-1.33485E-18
 -1      2416 9.52421E-05-2.85523E-05-2.85802E-05-1.68041E-07 1.07098E-18-1.80449E-18
 -1      2417 9.52063E-05-2.85495E-05-2.85674E-05-1.56436E-07 3.82496E-19-1.74814E-18
 -1      2418 9.52117E-05-2.85511E-05-2.85692E-05-1.89356E-07 1.58645E-19-1.67403E-18
 -1      2419 9.53173E-05-2.85558E-05-2.86103E-05-2.13398E-07 6.54818E-19-8.95541E-19
 -1      2420 9.52732E-05-2.85522E-05-2.85947E-05-1.89679E-07 1.32840E-18-1.11638E-18
 -1      2421 9.52668E-05-2.85438E-05-2.85962E-05-2.22107E-07 6.00931E-19-1.41551E-18
 -1      2422 9.54138E-05-2.85616E-05-2.86485E-05-2.89599E-07-5.06243E-19-1.31957E-18
 -1      2423 9.53560E-05-2.85561E-05-2.86282E-05-2.51141E-07 1.24454E-19-6.22154E-19
 -1      2424 9.53334E-05-2.85352E-05-2.86287E-05-2.86700E-07 4.45426E-19-6.09132E-19
 -1      2425 9.55420E-05-2.85709E-05-2.86985E-05-4.03844E-07-2.81785E-19-1.94393E-18
 -1      2426 9.54638E-05-2.85624E-05-2.86715E-05-3.47008E-07-6.79538E-19-1.52264E-18
 -1      2427 9.54183E-05-2.85255E-05-2.86696E-05-3.89739E-07-1.42587E-19-1.00642E-18
 -1      2428 9.57145E-05-2.85856E-05-2.87649E-05-5.65866E-07 2.86464E-19-1.89242E-18
 -1      2429 9.56077E-05-2.85726E-05-2.87285E-05-4.85732E-07-4.09831E-20-2.28957E-18
 -1      2430 9.55290E-05-2.85144E-05-2.87222E-05-5.40220E-07 1.77429E-19-2.45089E-18
 -1      2431 9.59465E-05-2.86073E-05-2.88534E-05-7.88587E-07 1.16040E-19-9.54494E-19
 -1      2432 9.58008E-05-2.85881E-05-2.88043E-05-6.78598E-07 2.99848E-19-1.51815E-18
 -1      2433 9.56747E-05-2.85016E-05-2.87906E-05-7.50089E-07-9.62798E-20-1.98967E-18
 -1      2434 9.62559E-05-2.86380E-05-2.89708E-05-1.08894E-06-1.07921E-19-3.54332E-19
 -1      2435 9.60588E-05-2.86107E-05-2.89049E-05-9.40454E-07 2.93918E-19-3.22036E-19
 -1      2436 9.58653E-05-2.84858E-05-2.88795E-05-1.03494E-06-8.63049E-20-9.59088E-19
 -1      2437 9.66644E-05-2.86797E-05-2.91253E-05-1.48885E-06-2.46898E-19 5.39111E-19
 -1      2438 9.64003E-05-2.86419E-05-2.90377E-05-1.29061E-06-3.14619E-19 3.57141E-19
 -1      2439 9.61118E-05-2.84653E-05-2.89945E-05-1.41487E-06-3.00348E-19-2.45701E-19
 -1      2440 9.71972E-05-2.87345E-05-2.93268E-05-2.01630E-06-5.85244E-19 7.39285E-19
 -1      2441 9.68471E-05-2.86831E-05-2.92113E-05-1.75383E-06-2.13484E-19 9.95246E-19
 -1      2442 9.64261E-05-2.84369E-05-2.91417E-05-1.91533E-06-6.74515E-19 6.35121E-19
 -1      2443 9.78831E-05-2.88046E-05-2.95866E-05-2.70608E-06 1.16789E-18-5.50475E-19
 -1      2444 9.74240E-05-2.87358E-05-2.94358E-05-2.36135E-06 7.41854E-19 6.77913E-19
 -1      2445 9.68195E-05-2.83963E-05-2.93280E-05-2.56799E-06 3.53195E-19-1.66965E-19
 -1      2446 9.87542E-05-2.88936E-05-2.99168E-05-3.59949E-06-1.57694E-20-1.40060E-18
 -1      2447 9.81587E-05-2.88018E-05-2.97226E-05-3.15114E-06 2.63139E-19-5.97353E-19
 -1      2448 9.73022E-05-2.83379E-05-2.95598E-05-3.41095E-06 9.65360E-19 2.96160E-19
 -1      2449 9.98446E-05-2.90094E-05-3.03290E-05-4.74096E-06-6.90520E-19-1.89833E-19
 -1      2450 9.90815E-05-2.88851E-05-3.00828E-05-4.16657E-06-8.65396E-20-6.92341E-19
 -1      2451 9.78816E-05-2.82573E-05-2.98420E-05-4.48729E-06-3.79006E-19-6.29068E-20
 -1      2452 1.01190E-04-2.91717E-05-3.08309E-05-6.16806E-06-3.59284E-19 1.45284E-19
 -1      2453 1.00225E-04-2.89975E-05-3.05256E-05-5.45057E-06-7.70117E-19-2.68739E-20
 -1      2454 9.85618E-05-2.81568E-05-3.01754E-05-5.83996E-06-8.36587E-19 1.52906E-18
 -1      2455 1.02830E-04-2.94298E-05-3.14200E-05-7.88755E-06 8.59805E-20 7.15159E-19
 -1      2456 1.01625E-04-2.91704E-05-3.10533E-05-7.03061E-06 2.66749E-19 4.58592E-19
 -1      2457 9.93476E-05-2.80607E-05-3.05517E-05-7.49912E-06-5.84367E-19 1.28437E-18
 -1      2458 1.04816E-04-2.98981E-05-3.20732E-05-9.82540E-06 2.22677E-21 1.30043E-18
 -1      2459 1.03334E-04-2.94818E-05-3.16540E-05-8.88541E-06 3.10732E-19 1.25054E-18
 -1      2460 1.00258E-04-2.80468E-05-3.09469E-05-9.45529E-06 7.12533E-20 1.68139E-18
 -1      2461 1.07245E-04-3.08233E-05-3.27315E-05-1.17330E-05-5.53129E-19 1.40453E-18
 -1      2462 1.05445E-04-3.01099E-05-3.22901E-05-1.08786E-05-2.35037E-19 1.18371E-18
 -1      2463 1.01368E-04-2.83111E-05-3.13114E-05-1.16084E-05-1.48054E-19 1.67156E-18
 -1      2464 1.10325E-04-3.26825E-05-3.32874E-05-1.30330E-05-8.49713E-20-5.88953E-21
 -1      2465 1.08160E-04-3.14222E-05-3.28851E-05-1.26375E-05-4.14235E-19 1.04244E-18
 -1      2466 1.02895E-04-2.92777E-05-3.15634E-05-1.36777E-05 1.42352E-19 7.01068E-19
 -1      2467 1.14466E-04-3.62306E-05-3.35945E-05-1.25864E-05-8.90556E-19 4.69680E-19
 -1      2468 1.11894E-04-3.40825E-05-3.33246E-05-1.33446E-05-3.72000E-20 1.42163E-19
 -1      2469 1.05374E-04-3.17522E-05-3.15988E-05-1.50446E-05 2.27408E-20 8.07360E-19
 -1      2470 1.20275E-04-4.23396E-05-3.35361E-05-8.62526E-06-1.51038E-18 2.37007E-19
 -1      2471 1.17323E-04-3.89918E-05-3.34910E-05-1.15444E-05-1.29297E-18 3.02404E-19
 -1      2472 1.09789E-04-3.68854E-05-3.13497E-05-1.45588E-05-8.70399E-19 1.80275E-18
 -1      2473 1.28143E-04-5.07067E-05-3.33587E-05 1.48418E-06-1.55060E-18 1.69870E-20
 -1      2474 1.25408E-04-4.69710E-05-3.34426E-05-4.75860E-06-1.60042E-18-1.00332E-18
 -1      2475 1.17860E-04-4.60721E-05-3.09522E-05-1.02945E-05-1.12576E-18-1.26208E-19
 -1      2476 1.36289E-04-5.75737E-05-3.40492E-05 1.81020E-05-8.98967E-19-4.46016E-21
 -1      2477 1.35166E-04-5.56809E-05-3.39118E-05 9.13396E-06-1.96027E-18-5.44602E-19
 -1      2478 1.30256E-04-5.69899E-05-3.13440E-05 1.46082E-06-1.71751E-18-1.30141E-18
 -1      2479 1.39764E-04-5.28514E-05-3.74478E-05 3.79558E-05 1.10003E-18 6.18811E-19
 -1      2480 1.43378E-04-5.90178E-05-3.62682E-05 2.98723E-05 6.15684E-19 1.04714E-18
 -1      2481 1.45225E-04-6.58614E-05-3.43183E-05 1.93009E-05-6.78910E-19-1.50809E-18
 -1      2482 1.29316E-04-3.08846E-05-4.24690E-05 4.41788E-05 7.49624E-19 2.68404E-20
 -1      2483 1.37514E-04-4.40049E-05-4.09027E-05 4.49901E-05 1.36547E-18 4.07105E-19
 -1      2484 1.17345E-04-1.21227E-05-4.57020E-05 2.45801E-05 9.22419E-19-2.55327E-18
 -1      2485 1.23821E-04-2.05352E-05-4.52321E-05 3.67055E-05 1.42725E-19-1.24630E-18
 -1      2486 1.16295E-04-1.51388E-05-4.42257E-05-4.96104E-06 7.89435E-19-1.53604E-19
 -1      2487 1.16344E-04-1.05910E-05-4.59522E-05 8.27409E-06 2.44581E-19-1.25165E-18
 -1      2488 1.19922E-04-3.17080E-05-3.84071E-05-1.77585E-05 1.39824E-18 1.06080E-18
 -1      2489 1.18192E-04-2.30025E-05-4.11941E-05-1.35649E-05 1.26526E-18 4.31457E-19
 -1      2490 1.13829E-04-3.58938E-05-3.35220E-05-1.49793E-05 1.51714E-18 9.25013E-19
 -1      2491 1.34519E-04-5.33055E-05-3.47767E-05-8.81626E-05-1.86093E-18 1.41306E-18
 -1      2492 1.61934E-04-5.87482E-05-4.44095E-05 3.24429E-05-1.17526E-19-2.81766E-18
 -1      2493 1.45058E-04-5.33570E-05-3.96425E-05-4.66289E-05-3.63377E-18-5.73230E-18
 -1      2494 1.42773E-04-5.25076E-05-3.86446E-05-6.75233E-05-2.25353E-18-2.45555E-18
 -1      2495 1.49047E-04-5.09983E-05-4.15972E-05-6.82731E-05-3.51773E-18-2.03373E-18
 -1      2496 1.50324E-04-4.23837E-05-4.60181E-05-3.26531E-05-2.08158E-18-3.52323E-18
 -1      2497 1.21816E-04-5.14645E-05-3.01048E-05 8.59069E-05-2.18958E-19-3.94373E-18
 -1      2498 9.72285E-05-2.86371E-05-2.94596E-05 1.68106E-05-1.28978E-18 4.11446E-19
 -1      2499 1.01513E-04-3.00629E-05-3.04763E-05 1.40972E-05-7.66456E-19-1.02459E-18
 -1      2500 9.42071E-05-2.03194E-05-3.18236E-05 1.61014E-05-2.04794E-18-4.34475E-19
 -1      2501 9.50787E-05-2.00257E-05-3.22140E-05-1.17449E-05-2.86365E-18-9.48333E-19
 -1      2502 9.54779E-05-2.33681E-05-3.09299E-05-7.96156E-06-2.67075E-18-7.09014E-19
 -1      2503 9.50777E-05-2.25542E-05-3.10559E-05-7.65117E-06-2.44744E-18-1.27323E-18
 -1      2504 9.32223E-05-1.76227E-05-3.24169E-05-1.13987E-05-2.76012E-18-1.79960E-18
 -1      2505 6.47330E-05 1.45680E-05-3.23258E-05-7.44016E-05 9.08946E-19 1.43996E-17
 -1      2506 1.07536E-04-3.09069E-05-3.31920E-05 1.01822E-05 3.80410E-19-4.17111E-18
 -1      2507 1.16444E-04-3.33830E-05-3.54124E-05 1.70332E-06-4.41384E-19-4.66186E-18
 -1      2508 1.04688E-04-1.96872E-05-3.65908E-05 1.16547E-05-1.70439E-19-3.12989E-18
 -1      2509 9.23818E-05-2.90304E-05-2.71582E-05 1.52773E-05-1.67080E-18-1.74063E-18
 -1      2510 9.32578E-05-3.02197E-05-2.70120E-05 1.65423E-05-1.48477E-18-1.41209E-18
 -1      2511 9.10890E-05-2.30674E-05-2.92182E-05 1.63279E-05-1.59696E-18-4.99182E-19
 -1      2512 9.24853E-05-3.02985E-05-2.65800E-05 1.27518E-05-1.20999E-18-1.06874E-18
 -1      2513 9.94194E-05-2.61020E-05-3.10933E-05 8.66972E-05-1.25149E-18-3.49613E-18
 -1      2514 9.04157E-05-6.00335E-05-1.30114E-05 4.89341E-05-9.66888E-19-7.29719E-19
 -1      2515 6.73187E-05-5.20203E-05-6.21648E-06 4.69646E-05 5.71535E-19-1.00373E-18
 -1      2516 9.81248E-05-6.88350E-05-1.24513E-05-3.26867E-05-1.13799E-18-3.79365E-18
 -1      2517 1.21144E-04-7.56969E-05-1.96076E-05-2.84291E-05-9.91029E-19-4.53713E-18
 -1      2518 8.78324E-05-1.07938E-05-3.30522E-05-1.51746E-06-1.69027E-19-3.87676E-18
 -1      2519 8.79381E-05-1.09159E-05-3.30436E-05-2.63551E-06-5.15821E-19-3.82351E-18
 -1      2520 8.93363E-05-1.30880E-05-3.26800E-05-2.92831E-06-6.51403E-19-3.54845E-18
 -1      2521 8.90875E-05-1.27530E-05-3.27181E-05-9.40184E-07-6.68771E-20-3.75080E-18
 -1      2522 1.64721E-04-1.96660E-05-6.28221E-05 3.44654E-06-4.15893E-19-4.22881E-18
 -1      2523 1.70769E-04-3.16461E-05-5.97448E-05 5.12489E-06-4.55915E-19-3.43218E-18
 -1      2524 1.38272E-04-7.94961E-05-2.54563E-05-1.59182E-05 7.34801E-20-2.79182E-18
 -1      2525 1.55747E-04-7.92997E-05-3.34358E-05-4.62612E-06 1.15599E-18-2.35602E-18
 -1      2526 1.35159E-04-7.86751E-05-2.38269E-05-1.69959E-05-1.83594E-19-3.04884E-18
 -1      2527 1.54647E-04-9.56366E-06-6.28416E-05 1.44720E-05-6.25534E-19-2.87292E-18
 -1      2528 1.56379E-04-1.32656E-05-6.21191E-05 6.07295E-06-2.90532E-19-3.36590E-18
 -1      2529 1.59364E-04-2.06214E-05-6.00212E-05 3.62151E-05 1.74912E-18-2.74269E-18
 -1      2530 1.56256E-04-1.25916E-05-6.24867E-05 2.82098E-05-2.02441E-19-3.73600E-18
 -1      2531 1.66366E-04-4.81876E-05-5.12829E-05 4.06114E-05 3.55711E-18-1.53864E-18
 -1      2532 1.64337E-04-3.71559E-05-5.55428E-05 4.10895E-05 3.03026E-18-1.60873E-18
 -1      2533 2.37410E-05-2.72290E-05 2.09036E-06 2.25625E-05 2.35602E-18-2.09429E-18
 -1      2534 2.00941E-05-2.60284E-05 3.33398E-06 6.80943E-06 2.49357E-18-1.89058E-18
 -1      2535 1.66799E-04-7.34832E-05-4.02467E-05 1.56722E-05 1.63112E-18-1.55092E-18
 -1      2536 1.74533E-04-6.26243E-05-4.86389E-05 2.76994E-05 2.94545E-18-1.77792E-18
 -1      2537 1.58134E-04-5.52064E-05-4.41073E-05 3.90263E-05 2.21139E-18-3.93870E-19
 -1      2538 1.60420E-04-7.63239E-05-3.55739E-05 1.28019E-05 5.44854E-19-1.74235E-18
 -1      2539 5.56245E-05-4.92624E-05-2.34566E-06-3.25633E-05 1.81053E-18-1.27733E-18
 -1      2540 7.42003E-05-5.76957E-05-6.98892E-06-3.75332E-05 7.83505E-19-1.63795E-18
 -1      2541 1.34838E-04-6.94269E-05-2.83326E-05 3.19911E-05-1.38236E-18-1.66908E-18
 -1      2542 1.13784E-04-6.72896E-05-1.97145E-05 3.98284E-05-1.98756E-18-7.23525E-19
 -1      2543 4.74711E-05-4.15921E-05-2.18593E-06 4.40038E-05 1.83679E-18-1.44250E-18
 -1      2544 3.41959E-05-3.47806E-05 7.91176E-07 3.47352E-05 2.39679E-18-1.88401E-18
 -1      2545 1.65518E-04-2.77359E-06-7.01632E-05-2.27177E-05 5.82335E-19 1.07997E-18
 -1      2546 1.64322E-04 8.42604E-07-7.13002E-05-2.07707E-05 4.57398E-19 4.68727E-19
 -1      2547 1.59695E-04-6.19948E-05-4.23650E-05 7.33791E-06 9.38142E-19-2.49218E-18
 -1      2548 1.49628E-04-6.66882E-05-3.55240E-05 1.54904E-05 1.93018E-19-2.06888E-18
 -1      2549 1.67604E-04-3.82398E-05-5.61787E-05-1.60344E-05-2.47122E-19-1.01432E-18
 -1      2550 1.63787E-04-5.04229E-05-4.88354E-05-6.14175E-06 1.20220E-18-1.98333E-18
 -1      2551 1.62895E-04-1.37140E-05-6.47652E-05-2.46643E-05-3.41481E-18-7.59365E-19
 -1      2552 1.63143E-04-2.21471E-05-6.09267E-05-2.33770E-05-2.52119E-18-5.30666E-19
 -1      2553 1.58943E-04 1.56355E-06-6.94752E-05-2.29657E-05-8.31363E-19-4.40242E-19
 -1      2554 1.57212E-04-2.42815E-06-6.70991E-05-2.38985E-05-2.72745E-18-9.14901E-19
 -1      2555 1.59776E-04-1.82333E-05-6.12526E-05-2.50538E-05-4.13776E-19 1.08166E-18
 -1      2556 1.62194E-04-9.75373E-06-6.57084E-05-2.28940E-05 2.56227E-19 1.76141E-18
 -1      2557 1.66055E-04-5.26353E-05-4.87996E-05 1.84214E-05 5.76988E-19-3.14503E-18
 -1      2558 1.51237E-04-5.28374E-05-4.22167E-05 1.38690E-05-2.76616E-19-2.44941E-18
 -1      2559 9.07929E-05-1.50384E-05-3.24577E-05-6.79614E-06-1.79131E-18-3.43614E-18
 -1      2560 8.97056E-05-1.31882E-05-3.28446E-05-7.94628E-06-1.89450E-18-3.58952E-18
 -1      2561 9.03366E-05-1.39068E-05-3.28174E-05-9.17600E-06-2.25326E-18-3.31639E-18
 -1      2562 8.96026E-05-2.59049E-05-2.73635E-05 1.19084E-05-1.64423E-18-2.15133E-19
 -1      2563 9.16321E-05-2.84279E-05-2.71216E-05 1.42022E-05-1.80713E-18-1.10820E-18
 -1      2564 8.97032E-05-2.36843E-05-2.81939E-05 1.42753E-05-2.40003E-18-1.84026E-18
 -1      2565 8.78848E-05-2.34061E-05-2.75277E-05 1.10899E-05-1.65480E-18 4.06276E-19
 -1      2566 1.39474E-04-4.77961E-05-4.01002E-05-7.68106E-07-2.49478E-20-1.15980E-18
 -1      2567 8.76277E-05-2.12613E-05-2.84943E-05 1.06589E-05-1.68033E-18 6.71140E-19
 -1      2568 1.42481E-04-2.74894E-05-4.96009E-05 4.32810E-05 1.61910E-18-1.26589E-18
 -1      2569 1.44725E-04-3.31329E-06-6.09132E-05-2.66892E-05-2.83417E-18-1.65764E-18
 -1      2570 1.56114E-04-2.98114E-05-5.43248E-05-2.45573E-05-8.50633E-19-4.55280E-19
 -1      2571 1.58909E-04-5.66690E-05-4.37833E-05-7.91535E-06 3.62001E-19-1.93992E-18
 -1      2572 1.46818E-04-3.15622E-06-6.14978E-05-1.21304E-05-3.40931E-20 1.49078E-19
 -1      2573 9.20509E-05-1.62336E-05-3.25345E-05-1.03839E-05-2.48398E-18-2.46600E-18
 -1      2574 6.63434E-05-4.58944E-05-8.20695E-06 4.55261E-05 1.50348E-18-1.90011E-18
 -1      2575 1.24953E-04-2.66541E-05-4.26545E-05-3.33040E-06-8.30092E-20-2.10467E-18
 -1      2576 1.42814E-04-1.59852E-05-5.42539E-05-1.98515E-06 1.96935E-19-2.36947E-18
 -1      2577 9.49567E-05-6.29990E-05-1.32033E-05-3.29860E-05-5.99699E-19-2.10191E-18
 -1      2578 7.55639E-05-2.10824E-05-2.46788E-05-9.20511E-05 7.29719E-19 9.26358E-18
 -1      2579 1.08339E-04-6.49935E-05-1.81570E-05 4.21699E-05-1.06536E-18-1.64294E-18
 -1      2580 1.70732E-04-4.39944E-05-5.47376E-05 1.16334E-05 1.52254E-19-3.27082E-18
 -1      2581 2.67247E-05-2.43838E-05-3.40464E-07-1.83072E-06 1.92168E-18-2.24083E-18
 -1      2582 5.04596E-05-4.06279E-05-3.56727E-06-2.94197E-05 1.35441E-18-1.11321E-18
 -1      2583 1.57565E-04-2.98598E-05-5.50601E-05-2.83918E-05-6.37286E-19 1.29173E-20
 -1      2584 1.44727E-04-2.42324E-05-5.14222E-05-1.22270E-05-5.22725E-19 1.27309E-18
 -1      2585 1.44138E-04 5.76948E-06-6.45290E-05-1.96315E-05-6.58992E-19-1.34698E-18
 -1      2586 3.61357E-05-2.73464E-05-3.12986E-06 2.81325E-05 2.59563E-18-1.89820E-18
 -1      2587 1.43682E-04-7.05544E-05-3.11896E-05 1.95665E-05-5.35960E-19-9.83511E-19
 -1      2588 1.54497E-04-3.70452E-05-5.05310E-05-3.20676E-06 3.77777E-19-2.45512E-18
 -1      2589 1.59537E-04-4.74472E-05-4.79028E-05-5.69369E-05-4.41495E-18-4.21272E-18
 -1      2590 1.47168E-04-6.94951E-05-3.39284E-05 9.73535E-06-6.57086E-19-1.73144E-18
 -1      2591 1.36309E-04-7.06186E-05-2.76743E-05 2.27053E-05-1.00241E-18-8.99973E-19
 -1      2592 9.05504E-05-1.51682E-05-3.23290E-05 3.19292E-06 1.10523E-18-3.40151E-18
 -1      2593 9.03594E-05-1.48965E-05-3.23615E-05 2.25971E-06 8.30833E-19-3.47205E-18
 -1      2594 9.02247E-05-1.46937E-05-3.23903E-05 1.42194E-06 6.28265E-19-3.56467E-18
 -1      2595 9.01592E-05-1.46010E-05-3.24013E-05 4.65393E-07 3.49735E-19-3.53989E-18
 -1      2596 9.14101E-05-1.65884E-05-3.20537E-05 1.64050E-06 7.74495E-19-3.40999E-18
 -1      2597 9.21400E-05-1.75523E-05-3.20058E-05 6.46700E-06 2.07329E-18-2.86017E-18
 -1      2598 9.16081E-05-1.67487E-05-3.21053E-05 5.63054E-06 1.81795E-18-3.03418E-18
 -1      2599 9.35097E-05-1.97597E-05-3.16750E-05 7.59296E-06 2.41328E-18-2.25051E-18
 -1      2600 9.27587E-05-1.85100E-05-3.18401E-05 6.99958E-06 2.24617E-18-2.62804E-18
 -1      2601 9.34173E-05-1.98215E-05-3.15086E-05 5.74724E-06 2.04130E-18-2.53013E-18
 -1      2602 9.56287E-05-2.40152E-05-3.06657E-05 7.19610E-06 2.60175E-18-3.06192E-19
 -1      2603 9.44843E-05-2.81310E-05-2.84370E-05-9.01314E-07 5.90472E-19-1.26136E-18
 -1      2604 9.45002E-05-2.80032E-05-2.84875E-05-7.25755E-07 8.39698E-19-1.16552E-18
 -1      2605 9.47281E-05-2.74137E-05-2.88519E-05 3.79877E-07 1.26401E-18-1.03885E-18
 -1      2606 9.49163E-05-2.71243E-05-2.90243E-05 9.86380E-07 1.52711E-18-8.62461E-19
 -1      2607 9.49826E-05-2.66864E-05-2.92746E-05 1.77357E-06 1.78994E-18-9.57194E-19
 -1      2608 9.52844E-05-2.62029E-05-2.95516E-05 2.78617E-06 2.02565E-18-8.89262E-19
 -1      2609 9.52466E-05-2.65030E-05-2.94723E-05 1.72550E-06 1.77713E-18-1.19247E-18
 -1      2610 1.26022E-04-7.16654E-05-2.27326E-05-1.78207E-05-1.39295E-18-2.65935E-18
 -1      2611 1.41059E-04-7.75682E-05-2.76606E-05-8.17692E-06-1.20353E-18-1.94505E-18
 -1      2612 9.53612E-05-2.59041E-05-2.97384E-05-2.69773E-06-1.61646E-18-1.39348E-18
 -1      2613 9.51969E-05-2.64909E-05-2.94574E-05-1.71441E-06-1.43324E-18-1.39455E-18
 -1      2614 9.52200E-05-2.70055E-05-2.92114E-05-9.72370E-07-1.31652E-18-1.25830E-18
 -1      2615 9.50860E-05-2.73603E-05-2.90316E-05-3.67167E-07-1.14318E-18-1.42817E-18
 -1      2616 9.54153E-05-2.63281E-05-2.96148E-05-1.61173E-06-1.43561E-18-1.63380E-18
 -1      2617 9.50530E-05-2.76667E-05-2.88639E-05 9.93208E-08-1.09609E-18-1.38953E-18
 -1      2618 9.49755E-05-2.78916E-05-2.87532E-05 4.50000E-07-9.82041E-19-1.49404E-18
 -1      2619 9.54171E-05-2.73251E-05-2.91897E-05-3.33025E-07-1.11393E-18-1.58492E-18
 -1      2620 9.49332E-05-2.80772E-05-2.86423E-05 7.18794E-07-1.00078E-18-1.54698E-18
 -1      2621 9.49051E-05-2.82245E-05-2.85784E-05 9.01310E-07-9.42350E-19-1.62524E-18
 -1      2622 9.53562E-05-2.79408E-05-2.88990E-05 4.55524E-07-1.09746E-18-1.69757E-18
 -1      2623 9.48698E-05-2.83370E-05-2.85080E-05 1.03440E-06-7.14208E-19-1.74282E-18
 -1      2624 9.48767E-05-2.84347E-05-2.84751E-05 1.10808E-06-6.14305E-19-1.73116E-18
 -1      2625 9.52916E-05-2.83228E-05-2.87063E-05 8.95482E-07-9.19431E-19-2.02008E-18
 -1      2626 9.48520E-05-2.85008E-05-2.84329E-05 1.15175E-06-4.46073E-19-1.54452E-18
 -1      2627 9.48805E-05-2.85652E-05-2.84203E-05 1.15719E-06-3.39226E-19-1.56058E-18
 -1      2628 9.52417E-05-2.85563E-05-2.85835E-05 1.09814E-06-4.08069E-19-1.99938E-18
 -1      2629 9.48652E-05-2.86013E-05-2.83975E-05 1.14476E-06-3.90551E-19-1.26653E-18
 -1      2630 9.49052E-05-2.86426E-05-2.83975E-05 1.10967E-06-6.67134E-19-1.13816E-18
 -1      2631 9.52091E-05-2.86930E-05-2.85098E-05 1.14618E-06-3.42797E-19-1.15355E-18
 -1      2632 9.48971E-05-2.86590E-05-2.83876E-05 1.06458E-06-6.98347E-19-7.70941E-19
 -1      2633 9.49413E-05-2.86840E-05-2.83951E-05 1.00778E-06-4.21320E-19-7.95275E-19
 -1      2634 9.51910E-05-2.87659E-05-2.84699E-05 1.09892E-06-3.78771E-19-7.05921E-19
 -1      2635 9.49381E-05-2.86878E-05-2.83936E-05 9.46143E-07-5.08187E-19-6.27770E-19
 -1      2636 9.49819E-05-2.87014E-05-2.84050E-05 8.80199E-07-2.67874E-19-1.06536E-18
 -1      2637 9.51833E-05-2.87967E-05-2.84527E-05 9.97923E-07-5.12475E-19-2.31140E-19
 -1      2638 9.49819E-05-2.86972E-05-2.84087E-05 8.12841E-07-9.15987E-20-1.57596E-18
 -1      2639 9.50226E-05-2.87029E-05-2.84219E-05 7.45958E-07-1.70570E-19-1.52938E-18
 -1      2640 9.51825E-05-2.88004E-05-2.84503E-05 8.71639E-07-5.83045E-19-1.05025E-18
 -1      2641 9.50246E-05-2.86938E-05-2.84286E-05 6.79921E-07-2.38887E-19-1.56207E-18
 -1      2642 9.50608E-05-2.86940E-05-2.84421E-05 6.17287E-07-5.07497E-19-1.33153E-18
 -1      2643 9.51860E-05-2.87870E-05-2.84572E-05 7.39037E-07-5.71218E-20-9.74966E-19
 -1      2644 9.50638E-05-2.86823E-05-2.84504E-05 5.56991E-07-8.94575E-19-7.86479E-19
 -1      2645 9.50952E-05-2.86788E-05-2.84634E-05 5.01764E-07-7.78045E-19-6.18440E-19
 -1      2646 9.51917E-05-2.87633E-05-2.84696E-05 6.12382E-07-3.99429E-19-7.74445E-19
 -1      2647 9.50987E-05-2.86656E-05-2.84725E-05 4.49886E-07-7.00036E-19-6.16150E-19
 -1      2648 9.51256E-05-2.86596E-05-2.84847E-05 4.03927E-07-4.46089E-19-5.86437E-19
 -1      2649 9.51985E-05-2.87339E-05-2.84850E-05 4.99343E-07-7.43034E-19-1.00298E-19
 -1      2650 9.51293E-05-2.86457E-05-2.84941E-05 3.62068E-07-5.37321E-19-1.06525E-18
 -1      2651 9.51523E-05-2.86378E-05-2.85055E-05 3.26495E-07-4.18841E-19-8.86812E-19
 -1      2652 9.52058E-05-2.87012E-05-2.85020E-05 4.04603E-07-9.08540E-19-3.84849E-19
 -1      2653 9.51562E-05-2.86234E-05-2.85150E-05 2.95683E-07 2.70735E-21-6.65557E-19
 -1      2654 9.51764E-05-2.86140E-05-2.85260E-05 2.71277E-07 2.76952E-19-6.28943E-19
 -1      2655 9.52131E-05-2.86667E-05-2.85199E-05 3.31083E-07-1.48515E-19-7.02330E-19
 -1      2656 9.51803E-05-2.85990E-05-2.85357E-05 2.52337E-07 4.15678E-19-7.09614E-19
 -1      2657 9.51989E-05-2.85883E-05-2.85465E-05 2.39843E-07 6.39741E-19-3.73653E-19
 -1      2658 9.52203E-05-2.86305E-05-2.85386E-05 2.80853E-07 3.97609E-19-8.54561E-19
 -1      2659 9.52030E-05-2.85724E-05-2.85568E-05 2.33668E-07 3.86592E-19-3.00660E-19
 -1      2660 9.52215E-05-2.85604E-05-2.85680E-05 2.34002E-07 4.13732E-19-7.48838E-19
 -1      2661 9.52278E-05-2.85921E-05-2.85582E-05 2.55795E-07 4.37079E-19-1.18216E-18
 -1      2662 9.52260E-05-2.85431E-05-2.85792E-05 2.41737E-07 6.76683E-19-9.07964E-19
 -1      2663 9.52460E-05-2.85298E-05-2.85914E-05 2.56120E-07 7.40098E-19-1.06939E-18
 -1      2664 9.52357E-05-2.85508E-05-2.85794E-05 2.58080E-07 4.28465E-19-6.13615E-19
 -1      2665 9.52512E-05-2.85106E-05-2.86039E-05 2.79274E-07 5.94363E-19-5.68900E-19
 -1      2666 9.52746E-05-2.84961E-05-2.86179E-05 3.09283E-07 5.40536E-19-4.97304E-19
 -1      2667 9.52446E-05-2.85054E-05-2.86028E-05 2.90474E-07 7.73163E-19-1.26027E-18
 -1      2668 9.52811E-05-2.84746E-05-2.86322E-05 3.49753E-07 4.19876E-19-6.73458E-19
 -1      2669 9.53101E-05-2.84589E-05-2.86487E-05 3.97284E-07 1.22032E-19-5.87573E-19
 -1      2670 9.52555E-05-2.84547E-05-2.86293E-05 3.56488E-07 5.03950E-19-1.14954E-18
 -1      2671 9.53187E-05-2.84351E-05-2.86653E-05 4.57283E-07-3.10883E-19-9.86411E-19
 -1      2672 9.53558E-05-2.84190E-05-2.86850E-05 5.24394E-07-6.77459E-20-1.09431E-18
 -1      2673 9.52696E-05-2.83982E-05-2.86596E-05 4.60331E-07-4.16714E-19-6.41882E-19
 -1      2674 9.53677E-05-2.83933E-05-2.87042E-05 6.06252E-07-3.40443E-19-1.41472E-18
 -1      2675 9.54160E-05-2.83782E-05-2.87279E-05 6.94841E-07-8.33947E-19-1.14112E-18
 -1      2676 9.52889E-05-2.83363E-05-2.86946E-05 6.06643E-07-5.43347E-19-9.82606E-19
 -1      2677 9.54330E-05-2.83520E-05-2.87500E-05 8.00627E-07-2.42149E-19-6.75105E-19
 -1      2678 9.54962E-05-2.83405E-05-2.87780E-05 9.11902E-07 1.82689E-19-5.77723E-19
 -1      2679 9.53166E-05-2.82711E-05-2.87345E-05 7.99915E-07-3.40593E-19-3.69076E-19
 -1      2680 9.55213E-05-2.83167E-05-2.88029E-05 1.04281E-06 3.27327E-19-4.15105E-19
 -1      2681 9.56037E-05-2.83128E-05-2.88356E-05 1.17646E-06 6.83853E-19-3.75822E-19
 -1      2682 9.53575E-05-2.82077E-05-2.87794E-05 1.04351E-06 4.12679E-19 1.29908E-19
 -1      2683 9.56415E-05-2.82967E-05-2.88628E-05 1.33187E-06 5.78377E-19-5.92191E-19
 -1      2684 9.57482E-05-2.83069E-05-2.88999E-05 1.48488E-06-1.77987E-19-4.36164E-20
 -1      2685 9.54192E-05-2.81553E-05-2.88286E-05 1.33811E-06 3.09035E-19-1.02318E-19
 -1      2686 9.58057E-05-2.83069E-05-2.89285E-05 1.66103E-06-5.42612E-19-2.36580E-20
 -1      2687 9.59431E-05-2.83408E-05-2.89690E-05 1.82603E-06-2.60399E-19 1.72598E-19
 -1      2688 9.55134E-05-2.81296E-05-2.88803E-05 1.67952E-06-2.75343E-19 3.74519E-19
 -1      2689 9.60309E-05-2.83695E-05-2.89974E-05 2.01419E-06-3.90789E-20 5.39385E-19
 -1      2690 9.62062E-05-2.84405E-05-2.90396E-05 2.17736E-06-3.44860E-20 6.39238E-19
 -1      2691 9.56574E-05-2.81549E-05-2.89318E-05 2.05551E-06-4.34330E-20 6.50128E-20
 -1      2692 9.63394E-05-2.85159E-05-2.90655E-05 2.36147E-06-7.63613E-19-1.77911E-20
 -1      2693 9.65612E-05-2.86420E-05-2.91068E-05 2.50000E-06-5.88722E-19-6.09798E-19
 -1      2694 9.58770E-05-2.82662E-05-2.89791E-05 2.44174E-06-5.02357E-19-8.02045E-19
 -1      2695 9.67608E-05-2.87880E-05-2.91275E-05 2.65372E-06-8.86961E-19-4.78184E-19
 -1      2696 9.70384E-05-2.89908E-05-2.91640E-05 2.73320E-06-1.47372E-18-7.24241E-19
 -1      2697 9.62082E-05-2.85116E-05-2.90171E-05 2.79656E-06-9.16463E-19-7.49159E-19
 -1      2698 9.73316E-05-2.92364E-05-2.91769E-05 2.81670E-06-1.64391E-18-3.25311E-19
 -1      2699 9.76730E-05-2.95393E-05-2.92044E-05 2.78893E-06-1.02505E-18-1.77701E-19
 -1      2700 9.66992E-05-2.89517E-05-2.90408E-05 3.05492E-06-1.24573E-18-2.17233E-19
 -1      2701 9.80919E-05-2.99151E-05-2.92077E-05 2.74580E-06-4.61372E-19-1.70791E-19
 -1      2702 9.85006E-05-3.03368E-05-2.92225E-05 2.54845E-06-1.55225E-20-1.68376E-19
 -1      2703 9.74094E-05-2.96550E-05-2.90462E-05 3.12195E-06-6.95667E-19 3.60548E-19
 -1      2704 9.90764E-05-3.08659E-05-2.92173E-05 2.30408E-06 4.22033E-19-4.62049E-19
 -1      2705 9.95438E-05-3.14083E-05-2.92172E-05 1.86434E-06 1.09903E-18 3.70661E-19
 -1      2706 9.84031E-05-3.06838E-05-2.90339E-05 2.86774E-06-1.26061E-19 1.74414E-19
 -1      2707 1.00293E-04-3.20890E-05-2.92096E-05 1.32850E-06 1.26466E-18-6.36213E-19
 -1      2708 1.00786E-04-3.27166E-05-2.91969E-05 5.74408E-07 1.15707E-18-8.28456E-19
 -1      2709 9.97306E-05-3.20647E-05-2.90134E-05 2.12678E-06 4.98292E-19-1.32335E-18
 -1      2710 1.01686E-04-3.34945E-05-2.92012E-05-3.46798E-07 6.16892E-19-5.75304E-19
 -1      2711 1.02127E-04-3.41055E-05-2.91849E-05-1.46190E-06 4.93231E-20-1.22860E-18
 -1      2712 1.01391E-04-3.37376E-05-2.90083E-05 7.09230E-07 9.43518E-19-2.65690E-18
 -1      2713 1.03078E-04-3.48358E-05-2.92252E-05-2.83402E-06 3.27173E-19-1.01711E-18
 -1      2714 1.03330E-04-3.52330E-05-2.92225E-05-4.28829E-06-5.28362E-20-6.60346E-19
 -1      2715 1.03268E-04-3.54775E-05-2.90624E-05-1.56082E-06 1.90207E-19-2.04987E-18
 -1      2716 1.04113E-04-3.56505E-05-2.93313E-05-6.08529E-06 1.13790E-19-2.05777E-19
 -1      2717 1.03978E-04-3.55388E-05-2.93655E-05-7.72677E-06 2.61229E-19 2.02066E-19
 -1      2718 1.05048E-04-3.68137E-05-2.92396E-05-4.75469E-06 3.32864E-19-9.28718E-19
 -1      2719 1.04241E-04-3.52700E-05-2.95741E-05-9.73500E-06 1.80348E-19 3.05774E-19
 -1      2720 1.03505E-04-3.43191E-05-2.96657E-05-1.12191E-05-9.16868E-20 5.29534E-19
 -1      2721 1.06158E-04-3.70003E-05-2.96127E-05-8.67823E-06 4.88959E-19-9.47719E-19
 -1      2722 1.02840E-04-3.29935E-05-2.99853E-05-1.29336E-05-5.13279E-19 1.70130E-18
 -1      2723 1.01385E-04-3.10160E-05-3.01348E-05-1.37089E-05-1.13878E-19 9.33640E-19
 -1      2724 1.05817E-04-3.51477E-05-3.02321E-05-1.26558E-05 5.55115E-19-9.41104E-19
 -1      2725 9.95612E-05-2.85359E-05-3.05242E-05-1.43314E-05 9.97067E-20 1.48352E-18
 -1      2726 9.75379E-05-2.57636E-05-3.06916E-05-1.37722E-05 1.08889E-18 9.79321E-19
 -1      2727 1.03338E-04-3.06814E-05-3.10674E-05-1.53617E-05 4.98628E-19 1.19514E-18
 -1      2728 9.48260E-05-2.26334E-05-3.10343E-05-1.24833E-05 1.72913E-18 6.01675E-19
 -1      2729 9.27558E-05-1.99078E-05-3.11287E-05-1.02243E-05 1.44243E-18 4.55543E-19
 -1      2730 9.87164E-05-2.40399E-05-3.19431E-05-1.50404E-05 7.70000E-19 9.45735E-19
 -1      2731 9.00797E-05-1.73246E-05-3.12405E-05-6.80882E-06 1.25093E-18-6.25216E-19
 -1      2732 8.86609E-05-1.58369E-05-3.11454E-05-3.16425E-06 5.69094E-19-1.28305E-18
 -1      2733 9.31960E-05-1.72873E-05-3.25153E-05-1.04542E-05 1.66292E-19-9.84342E-19
 -1      2734 8.71689E-05-1.51595E-05-3.08528E-05 1.58657E-06-9.44687E-19-1.78082E-18
 -1      2735 8.68733E-05-1.58094E-05-3.04905E-05 5.45257E-06-1.89598E-18-2.62862E-18
 -1      2736 8.89410E-05-1.34437E-05-3.23694E-05-1.98717E-06-6.25107E-19-2.88839E-18
 -1      2737 9.45603E-05-2.78519E-05-2.85902E-05-4.50073E-07 8.59437E-19-1.14496E-18
 -1      2738 9.46486E-05-2.76647E-05-2.86887E-05-1.06049E-07 1.06462E-18-9.69923E-19
 -1      2739 9.51292E-05-2.73781E-05-2.90456E-05 3.63638E-07 1.28092E-18-1.24592E-18
 -1      2740 1.34643E-04-1.04703E-05-5.36779E-05 1.88965E-05 1.92700E-19-1.79714E-18
 -1      2741 9.44809E-05-2.83149E-05-2.83562E-05-1.10532E-06 2.64665E-19-1.45013E-18
 -1      2742 9.44502E-05-2.82247E-05-2.83760E-05-1.03663E-06 3.70797E-19-1.38873E-18
 -1      2743 9.49338E-05-2.82417E-05-2.85885E-05-9.14767E-07 4.94047E-19-1.07947E-18
 -1      2744 9.45256E-05-2.84375E-05-2.83227E-05-1.15203E-06 4.35188E-19-1.28171E-18
 -1      2745 9.44684E-05-2.83730E-05-2.83235E-05-1.14945E-06 3.22725E-19-1.37184E-18
 -1      2746 9.48997E-05-2.84489E-05-2.84833E-05-1.12185E-06 2.63058E-19-1.22529E-18
 -1      2747 9.45977E-05-2.85183E-05-2.83189E-05-1.10317E-06 5.32935E-19-1.32271E-18
 -1      2748 9.45283E-05-2.84724E-05-2.83086E-05-1.13946E-06 5.56448E-19-1.16872E-18
 -1      2749 9.48988E-05-2.85765E-05-2.84268E-05-1.16996E-06 2.87226E-19-1.22007E-18
 -1      2750 9.46817E-05-2.85698E-05-2.83329E-05-1.00084E-06 6.42489E-19-9.93483E-19
 -1      2751 9.46097E-05-2.85379E-05-2.83168E-05-1.05774E-06 6.76487E-19-1.03545E-18
 -1      2752 9.49195E-05-2.86514E-05-2.84025E-05-1.12085E-06 5.51726E-19-1.09508E-18
 -1      2753 9.47673E-05-2.86006E-05-2.83564E-05-8.73328E-07 3.84349E-19-8.81527E-19
 -1      2754 9.46986E-05-2.85791E-05-2.83379E-05-9.38777E-07 5.57746E-19-8.57553E-19
 -1      2755 9.49524E-05-2.86908E-05-2.83990E-05-1.01716E-06 5.45650E-19-6.99316E-19
 -1      2756 9.48483E-05-2.86168E-05-2.83843E-05-7.39278E-07 3.39872E-19-6.36210E-19
 -1      2757 9.47861E-05-2.86030E-05-2.83655E-05-8.05456E-07 4.39867E-19-7.14932E-19
 -1      2758 9.49905E-05-2.87066E-05-2.84080E-05-8.87813E-07 4.30509E-19-4.90830E-19
 -1      2759 9.49214E-05-2.86228E-05-2.84131E-05-6.10569E-07-1.48770E-19-9.09519E-19
 -1      2760 9.48670E-05-2.86148E-05-2.83953E-05-6.72581E-07 1.94099E-19-7.93938E-19
 -1      2761 9.50292E-05-2.87068E-05-2.84242E-05-7.51924E-07 2.65379E-19-3.59372E-19
 -1      2762 9.49852E-05-2.86216E-05-2.84410E-05-4.94492E-07 3.05106E-19-1.04950E-18
 -1      2763 9.49389E-05-2.86179E-05-2.84247E-05-5.49404E-07-4.34999E-20-9.01750E-19
 -1      2764 9.50660E-05-2.86972E-05-2.84438E-05-6.21778E-07 8.87739E-20-8.61601E-19
 -1      2765 9.50400E-05-2.86156E-05-2.84671E-05-3.95331E-07 1.16811E-18-9.44508E-19
 -1      2766 9.50011E-05-2.86150E-05-2.84525E-05-4.41463E-07 7.66673E-19-6.85923E-19
 -1      2767 9.50995E-05-2.86814E-05-2.84648E-05-5.04987E-07 2.83823E-19-7.25223E-19
 -1      2768 9.50870E-05-2.86061E-05-2.84913E-05-3.15562E-07 5.96025E-19-3.44607E-19
 -1      2769 9.50543E-05-2.86080E-05-2.84782E-05-3.51954E-07 1.04829E-18-6.19748E-19
 -1      2770 9.51293E-05-2.86619E-05-2.84860E-05-4.06124E-07 9.02478E-19-5.71411E-19
 -1      2771 9.51279E-05-2.85941E-05-2.85139E-05-2.56765E-07-2.21336E-19-2.61374E-19
 -1      2772 9.50999E-05-2.85978E-05-2.85020E-05-2.82772E-07 3.32836E-19-4.32695E-20
 -1      2773 9.51559E-05-2.86400E-05-2.85068E-05-3.27953E-07 3.35989E-19-2.38895E-19
 -1      2774 9.51651E-05-2.85800E-05-2.85358E-05-2.20334E-07-6.40896E-19-3.39223E-19
 -1      2775 9.51399E-05-2.85851E-05-2.85244E-05-2.35307E-07-5.24895E-19-2.87697E-19
 -1      2776 9.51801E-05-2.86161E-05-2.85274E-05-2.72391E-07-1.31933E-19 2.51530E-19
 -1      2777 9.52013E-05-2.85636E-05-2.85581E-05-2.08031E-07-2.47607E-19-8.83206E-19
 -1      2778 9.51769E-05-2.85701E-05-2.85466E-05-2.11067E-07-5.35774E-19-7.72118E-19
 -1      2779 9.52030E-05-2.85902E-05-2.85485E-05-2.41232E-07-3.51696E-19 3.69838E-20
 -1      2780 9.52398E-05-2.85448E-05-2.85824E-05-2.22449E-07 3.51237E-19-9.00064E-19
 -1      2781 9.52138E-05-2.85525E-05-2.85698E-05-2.12177E-07 2.17335E-19-8.41295E-19
 -1      2782 9.52262E-05-2.85614E-05-2.85709E-05-2.36729E-07 2.60879E-19-5.91692E-19
 -1      2783 9.52840E-05-2.85228E-05-2.86104E-05-2.67414E-07 4.38938E-19-9.65674E-19
 -1      2784 9.52537E-05-2.85319E-05-2.85957E-05-2.41797E-07 4.92744E-19-9.36263E-19
 -1      2785 9.52513E-05-2.85286E-05-2.85958E-05-2.62066E-07 5.75684E-19-6.02700E-19
 -1      2786 9.53380E-05-2.84967E-05-2.86442E-05-3.48381E-07 4.54380E-19-1.03549E-18
 -1      2787 9.53003E-05-2.85073E-05-2.86262E-05-3.04519E-07 5.56903E-19-1.14351E-18
 -1      2788 9.52800E-05-2.84899E-05-2.86249E-05-3.21778E-07 5.79267E-19-1.01130E-18
 -1      2789 9.54064E-05-2.84650E-05-2.86864E-05-4.72834E-07 1.29230E-19-1.56856E-18
 -1      2790 9.53577E-05-2.84776E-05-2.86636E-05-4.06753E-07 1.71517E-19-8.75737E-19
 -1      2791 9.53143E-05-2.84430E-05-2.86598E-05-4.22141E-07 4.94083E-20-9.78289E-19
 -1      2792 9.54940E-05-2.84257E-05-2.87400E-05-6.50741E-07 2.70969E-19-1.69350E-18
 -1      2793 9.54302E-05-2.84408E-05-2.87106E-05-5.57146E-07 5.06543E-19-1.73438E-18
 -1      2794 9.53558E-05-2.83847E-05-2.87028E-05-5.71556E-07 4.94972E-19-6.03592E-19
 -1      2795 9.56061E-05-2.83760E-05-2.88082E-05-8.95069E-07-6.55522E-19-1.16112E-18
 -1      2796 9.55225E-05-2.83945E-05-2.87702E-05-7.67048E-07-2.93544E-19-1.53763E-18
 -1      2797 9.54058E-05-2.83107E-05-2.87561E-05-7.80964E-07-3.01699E-19-3.94197E-19
 -1      2798 9.57474E-05-2.83119E-05-2.88950E-05-1.22237E-06-6.03226E-19-4.05714E-19
 -1      2799 9.56388E-05-2.83350E-05-2.88460E-05-1.05106E-06-5.18582E-19-7.94725E-19
 -1      2800 9.54646E-05-2.82154E-05-2.88221E-05-1.06427E-06-8.42036E-19-3.54686E-19
 -1      2801 9.59223E-05-2.82277E-05-2.90043E-05-1.65345E-06-5.39613E-19 6.57723E-19
 -1      2802 9.57831E-05-2.82574E-05-2.89417E-05-1.42763E-06-6.73647E-19 1.81591E-19
 -1      2803 9.55304E-05-2.80912E-05-2.89035E-05-1.43877E-06-1.10488E-18-3.03651E-19
 -1      2804 9.61327E-05-2.81156E-05-2.91405E-05-2.21393E-06-6.20645E-19-1.13358E-19
 -1      2805 9.59573E-05-2.81544E-05-2.90614E-05-1.91970E-06-1.90504E-19 3.87556E-19
 -1      2806 9.55986E-05-2.79277E-05-2.90024E-05-1.92558E-06-7.97333E-19 3.90085E-19
 -1      2807 9.63770E-05-2.79654E-05-2.93072E-05-2.93461E-06 6.72682E-19-4.80076E-19
 -1      2808 9.61603E-05-2.80168E-05-2.92087E-05-2.55523E-06-1.54646E-19-7.09119E-19
 -1      2809 9.56593E-05-2.77115E-05-2.91204E-05-2.54980E-06 9.48669E-20-4.76377E-20
 -1      2810 9.66479E-05-2.77653E-05-2.95064E-05-3.85101E-06 4.35458E-19 9.87126E-19
 -1      2811 9.63860E-05-2.78325E-05-2.93863E-05-3.36723E-06 1.02180E-18 3.72234E-19
 -1      2812 9.56954E-05-2.74259E-05-2.92568E-05-3.34036E-06 1.94553E-19 1.74827E-20
 -1      2813 9.69303E-05-2.75046E-05-2.97363E-05-5.00108E-06-9.28001E-19 7.64922E-19
 -1      2814 9.66213E-05-2.75890E-05-2.95940E-05-4.39281E-06-1.24672E-19 1.06945E-18
 -1      2815 9.56795E-05-2.70524E-05-2.94078E-05-4.32887E-06 1.73621E-19 1.26845E-18
 -1      2816 9.72021E-05-2.71827E-05-2.99879E-05-6.41949E-06-9.74707E-19 7.66212E-19
 -1      2817 9.68452E-05-2.72785E-05-2.98263E-05-5.66995E-06-9.24349E-19 6.94321E-19
 -1      2818 9.55728E-05-2.65761E-05-2.95628E-05-5.54703E-06-9.52420E-19 4.60963E-19
 -1      2819 9.74409E-05-2.68293E-05-3.02394E-05-8.12570E-06-1.94323E-19 1.22992E-18
 -1      2820 9.70326E-05-2.69115E-05-3.00677E-05-7.23022E-06-6.90322E-19 1.21810E-18
 -1      2821 9.53274E-05-2.59986E-05-2.97005E-05-7.02171E-06-9.84009E-19-6.38417E-19
 -1      2822 9.76492E-05-2.65466E-05-3.04484E-05-1.01019E-05 4.00670E-19 6.64330E-19
 -1      2823 9.71700E-05-2.65472E-05-3.02864E-05-9.08466E-06 4.98438E-19 8.93331E-19
 -1      2824 9.48993E-05-2.53675E-05-2.97823E-05-8.76718E-06 3.83951E-19-3.60173E-19
 -1      2825 9.79163E-05-2.65921E-05-3.05429E-05-1.22561E-05 6.13437E-21-4.36241E-19
 -1      2826 9.72984E-05-2.63538E-05-3.04256E-05-1.11989E-05 3.58616E-19 1.70666E-19
 -1      2827 9.42857E-05-2.48343E-05-2.97440E-05-1.07751E-05 6.19908E-19-1.05227E-18
 -1      2828 9.85536E-05-2.75152E-05-3.04175E-05-1.43630E-05 4.01133E-20-4.32793E-19
 -1      2829 9.76088E-05-2.67183E-05-3.03965E-05-1.34519E-05 1.04680E-19 2.98447E-21
 -1      2830 9.36106E-05-2.47595E-05-2.94890E-05-1.30043E-05 2.89472E-20-1.30652E-18
 -1      2831 1.00296E-04-3.03679E-05-2.99538E-05-1.60046E-05-2.47238E-19 9.76797E-19
 -1      2832 9.86331E-05-2.84136E-05-3.00820E-05-1.55799E-05-1.76189E-19 5.65138E-19
 -1      2833 9.32808E-05-2.58734E-05-2.88883E-05-1.53687E-05-8.85489E-19-1.10009E-19
 -1      2834 1.04598E-04-3.65935E-05-2.91220E-05-1.61886E-05-7.91668E-19 1.19778E-18
 -1      2835 1.01611E-04-3.27905E-05-2.94001E-05-1.68605E-05-5.22331E-19 1.51303E-18
 -1      2836 9.44631E-05-2.97240E-05-2.78263E-05-1.77112E-05-8.36687E-19 3.54626E-19
 -1      2837 1.13476E-04-4.81853E-05-2.80092E-05-1.37954E-05-3.19808E-19-7.80303E-19
 -1      2838 1.08397E-04-4.14846E-05-2.83999E-05-1.63707E-05-3.51496E-19 4.36632E-19
 -1      2839 9.88215E-05-3.74649E-05-2.64268E-05-1.90227E-05 1.23620E-19 1.83012E-19
 -1      2840 1.36718E-04-6.78295E-05-2.94238E-05 3.73308E-09-1.45758E-18-1.71393E-18
 -1      2841 1.27995E-04-6.08510E-05-2.85464E-05-7.94025E-06-1.55587E-18-1.51399E-18
 -1      2842 1.46187E-04-7.12448E-05-3.20486E-05 1.01117E-05-6.24899E-19-1.24334E-18
 -1      2843 1.51675E-04-5.49628E-05-4.17267E-05 4.12566E-05 1.47167E-18-8.30092E-19
 -1      2844 1.29232E-04 2.77258E-06-5.74690E-05-2.43794E-05-2.34014E-18-3.43895E-18
 -1      2845 1.35673E-04-6.62121E-06-5.57791E-05-2.86757E-05-2.71241E-18-2.81067E-18
 -1      2846 1.36783E-04-2.09699E-05-5.02298E-05-6.69509E-06 6.32522E-19-1.19834E-18
 -1      2847 1.32580E-04-3.90582E-05-4.02332E-05-1.01978E-05 8.61433E-19-1.77242E-19
 -1      2848 9.10987E-05-1.38165E-05-3.31508E-05 1.30048E-05-1.23955E-18-3.10252E-19
 -1      2849 9.42749E-05-1.23335E-05-3.50915E-05 1.13633E-05-6.30034E-19-8.24865E-19
 -1      2850 9.81975E-05-9.15419E-06-3.85425E-05 9.82931E-06 6.30510E-20-2.21714E-18
 -1      2851 1.07457E-04-9.65288E-06-4.18199E-05 6.31004E-06 3.75977E-19-4.70336E-18
 -1      2852 9.61510E-05-4.43898E-06-3.96742E-05 6.23838E-06 2.63798E-19-2.65847E-18
 -1      2853 8.93190E-05-2.04815E-05-2.95151E-05 1.43202E-05-1.56633E-18-1.34645E-18
 -1      2854 9.01109E-05-1.88450E-05-3.04761E-05 1.42838E-05-1.39771E-18-2.45262E-19
 -1      2855 8.94026E-05-1.20522E-05-3.32590E-05 1.02942E-05-8.82416E-19 2.07126E-21
 -1      2856 8.87329E-05-2.06002E-05-2.92463E-05 1.26165E-05-1.70849E-18-1.51418E-18
 -1      2857 1.53867E-04-4.11054E-05-4.85586E-05-3.76166E-05-2.62654E-18-2.89770E-18
 -1      2858 8.73945E-05-5.40292E-05-1.36686E-05-3.21971E-05 8.45233E-19-9.76735E-19
 -1      2859 1.08975E-04-6.60008E-05-1.84747E-05-2.90505E-05-6.71909E-19-2.50934E-18
 -1      2860 1.17521E-04-6.46275E-05-2.24803E-05-2.02942E-05-1.11734E-18-2.16147E-18
 -1      2861 3.12313E-05-1.89284E-05-4.71581E-06 2.65157E-06 1.52453E-18-1.45076E-18
 -1      2862 3.36930E-05-2.41064E-05-3.42243E-06-1.37769E-05 1.09770E-18-1.90011E-18
 -1      2863 1.31054E-04 5.85213E-06-5.95771E-05-1.22333E-05-8.43857E-19-1.16843E-18
 -1      2864 1.25775E-04 8.26089E-06-5.83559E-05-1.57247E-05-1.59157E-18-3.22276E-18
 -1      2865 7.99860E-05-4.90949E-05-1.30796E-05 4.61113E-05 1.48379E-18-3.21354E-18
 -1      2866 6.17928E-05-3.81230E-05-9.57514E-06 4.15652E-05 2.24220E-18-2.22325E-18
 -1      2867 4.53189E-05-3.07968E-05-5.60997E-06-2.37666E-05 1.28765E-18-8.48303E-19
 -1      2868 6.43684E-05-4.12131E-05-9.75386E-06-3.23243E-05 6.72756E-19 2.76768E-19
 -1      2869 4.86401E-05-2.54581E-05-9.23557E-06-1.81514E-05 5.79582E-19-9.50900E-19
 -1      2870 9.52079E-05-2.39746E-05-3.05198E-05-5.29598E-06-2.00914E-18-1.56445E-18
 -1      2871 9.51613E-05-2.49966E-05-3.00889E-05-3.78542E-06-1.74966E-18-1.51657E-18
 -1      2872 9.52157E-05-2.47001E-05-3.02198E-05-3.52836E-06-1.71592E-18-1.80053E-18
 -1      2873 4.68322E-05-2.85834E-05-7.28520E-06 3.49622E-05 2.45671E-18-1.78343E-18
 -1      2874 3.71052E-05-2.11446E-05-6.26256E-06 2.17848E-05 1.91509E-18-1.20406E-18
 -1      2875 9.11700E-05-1.60834E-05-3.22080E-05 4.91381E-06 1.63883E-18-3.14168E-18
 -1      2876 9.08262E-05-1.55845E-05-3.22682E-05 3.99263E-06 1.32080E-18-3.25819E-18
 -1      2877 9.18033E-05-1.71958E-05-3.19596E-05 3.19606E-06 1.11381E-18-3.15145E-18
 -1      2878 9.24723E-05-1.82548E-05-3.17882E-05 4.61450E-06 1.56108E-18-2.83661E-18
 -1      2879 1.52878E-04-5.06447E-05-4.46279E-05-1.66488E-05 2.35263E-19-2.28212E-18
 -1      2880 1.52240E-04-6.03566E-05-3.91949E-05-6.81490E-06-3.10808E-19-2.64539E-18
 -1      2881 1.41515E-04-2.16501E-05-5.23123E-05-2.91326E-05-1.91525E-18-1.86972E-18
 -1      2882 1.47472E-04-3.55377E-05-4.82326E-05-2.58203E-05-5.37231E-19-2.04686E-18
 -1      2883 9.07926E-05-1.55384E-05-3.22728E-05-3.92562E-06-1.02003E-18-3.27317E-18
 -1      2884 9.11264E-05-1.60232E-05-3.22138E-05-4.85753E-06-1.35283E-18-3.28537E-18
 -1      2885 1.25970E-04-1.60494E-05-4.79673E-05-1.73814E-06 4.94773E-19-1.60894E-18
 -1      2886 9.28485E-05-1.80060E-05-3.20751E-05-8.80370E-06-2.32565E-18-2.50213E-18
 -1      2887 8.75877E-05-1.76384E-05-2.99201E-05 1.03199E-05-1.52932E-18-2.01563E-18
 -1      2888 1.19791E-04-6.81147E-05-2.24300E-05 3.64972E-05-1.48623E-18-3.66408E-19
 -1      2889 9.99925E-05-5.96983E-05-1.67029E-05 4.27515E-05-1.27584E-19-2.33813E-18
 -1      2890 1.19538E-04-4.71724E-06-4.99383E-05-1.07072E-06-1.50137E-19-1.81239E-18
 -1      2891 1.46379E-04-6.37278E-05-3.54480E-05-1.09740E-06-1.28797E-18-2.31674E-18
 -1      2892 9.12775E-05-1.63878E-05-3.20845E-05 3.15228E-08 2.05672E-19-3.24936E-18
 -1      2893 9.01559E-05-1.45972E-05-3.24018E-05-3.82831E-07 3.52057E-20-3.51631E-18
 -1      2894 9.02120E-05-1.46757E-05-3.23919E-05-1.34136E-06-2.12255E-19-3.46644E-18
 -1      2895 9.55053E-05-2.47000E-05-3.02849E-05 5.60954E-06 2.37356E-18-6.62207E-19
 -1      2896 9.52385E-05-2.29074E-05-3.10548E-05 7.73939E-06 2.76596E-18-9.13974E-19
 -1      2897 9.43524E-05-2.11581E-05-3.13632E-05 7.78918E-06 2.51952E-18-1.57097E-18
 -1      2898 9.52872E-05-2.52868E-05-2.99982E-05 4.45315E-06 2.16332E-18-8.90376E-19
 -1      2899 8.10513E-05-4.51188E-05-1.48066E-05-2.89983E-05 5.46336E-19-8.96584E-19
 -1      2900 9.50111E-05-2.79108E-05-2.87654E-05-4.60649E-07 9.94991E-19-1.25082E-18
 -1      2901 9.52722E-05-2.49656E-05-3.01671E-05 4.22860E-06 2.20022E-18-1.29601E-18
 -1      2902 4.51783E-05-1.91368E-05-1.07014E-05 1.82632E-05 1.13168E-18-1.04460E-18
 -1      2903 3.65665E-05-1.78089E-05-7.21250E-06 1.21855E-05 1.51455E-18-7.46448E-19
 -1      2904 3.98946E-05-1.66962E-05-9.47967E-06 1.36633E-06 7.43668E-19-9.03149E-19
 -1      2905 8.78679E-05-1.44424E-05-3.14602E-05 7.97716E-06-1.28587E-18-2.35762E-18
 -1      2906 1.46191E-04-3.78740E-05-4.63518E-05-5.66461E-06 9.52806E-19-1.41370E-18
 -1      2907 1.15595E-04-5.63006E-05-2.54550E-05-1.59302E-05-6.83714E-19-1.35044E-18
 -1      2908 1.59612E-04-6.95535E-05-3.94443E-05 2.97122E-05 1.33987E-18-2.90321E-19
 -1      2909 1.53611E-04-7.38837E-05-3.39445E-05 1.40733E-05 3.94982E-19-1.67035E-18
 -1      2910 1.21182E-04 5.87390E-06-5.51025E-05-1.88946E-05-2.43247E-18-3.24792E-18
 -1      2911 1.14559E-04 3.50085E-06-5.08408E-05-2.04166E-05-2.86075E-18-3.79909E-18
 -1      2912 1.10882E-04 7.60712E-06-5.14339E-05-1.13359E-05-2.10414E-18-2.20147E-18
 -1      2913 1.30029E-04-1.45158E-05-4.99078E-05-2.90682E-05-2.05681E-18-3.89720E-18
 -1      2914 9.46402E-05-5.31912E-05-1.72302E-05 4.04116E-05 1.30263E-18-3.84389E-18
 -1      2915 9.47205E-05-2.22397E-05-3.10107E-05 6.26243E-06 2.31017E-18-1.71670E-18
 -1      2916 1.28240E-04-6.79171E-05-2.55869E-05 2.61275E-05-9.65935E-19 1.97994E-20
 -1      2917 9.15612E-05-1.66822E-05-3.21134E-05-5.57192E-06-1.58570E-18-3.29092E-18
 -1      2918 9.20387E-05-1.74344E-05-3.20200E-05-6.44146E-06-1.89259E-18-3.22801E-18
 -1      2919 9.24093E-05-1.81897E-05-3.17986E-05-4.55568E-06-1.32517E-18-3.03743E-18
 -1      2920 9.03391E-05-1.48692E-05-3.23643E-05-2.17435E-06-4.02646E-19-3.23387E-18
 -1      2921 9.05232E-05-1.51314E-05-3.23322E-05-3.12871E-06-7.99293E-19-3.23707E-18
 -1      2922 9.17574E-05-1.71531E-05-3.19657E-05-3.12772E-06-7.99848E-19-2.97897E-18
 -1      2923 9.13878E-05-1.65687E-05-3.20565E-05-1.57241E-06-3.22049E-19-3.13927E-18
 -1      2924 6.16601E-05-3.25290E-05-1.18994E-05 3.58548E-05 1.90344E-18-2.49737E-18
 -1      2925 1.43055E-04-4.16352E-05-4.36322E-05-2.33389E-05-6.77891E-19-3.60931E-18
 -1      2926 1.44719E-04-3.03629E-05-5.03957E-05-8.79865E-06 3.39660E-19-1.80545E-18
 -1      2927 1.20506E-04 2.09912E-06-5.34471E-05-5.06207E-06-5.88900E-19-1.77972E-18
 -1      2928 9.28614E-05-1.86334E-05-3.18089E-05-7.05299E-06-1.92139E-18-2.87135E-18
 -1      2929 9.42451E-05-2.09663E-05-3.14429E-05-7.72133E-06-2.32485E-18-2.08516E-18
 -1      2930 9.47502E-05-2.27754E-05-3.08511E-05-6.03442E-06-2.15991E-18-1.78674E-18
 -1      2931 9.35091E-05-2.00288E-05-3.14733E-05-5.73596E-06-1.72113E-18-2.91892E-18
 -1      2932 9.45893E-05-2.24135E-05-3.09127E-05-5.46430E-06-1.86580E-18-2.07833E-18
 -1      2933 1.32694E-04-6.80243E-05-2.82243E-05 1.80824E-05-7.55448E-19-8.36134E-19
 -1      2934 1.20302E-04-6.37636E-05-2.37570E-05 2.85808E-05-5.59095E-19-2.76973E-20
 -1      2935 9.43208E-05-2.19264E-05-3.10622E-05 5.01303E-06 1.97292E-18-2.26935E-18
 -1      2936 9.38182E-05-2.09261E-05-3.12440E-05 4.61070E-06 1.70881E-18-2.45329E-18
 -1      2937 9.52738E-05-2.85703E-05-2.85877E-05-1.08950E-06 1.29933E-19-1.45118E-18
 -1      2938 9.52848E-05-2.84656E-05-2.86312E-05-1.01906E-06 3.61295E-19-1.30531E-18
 -1      2939 9.54937E-05-2.55613E-05-2.99561E-05-2.13200E-06-1.35718E-18-1.93221E-18
 -1      2940 9.55342E-05-2.62634E-05-2.96998E-05-1.32181E-06-1.12415E-18-1.86052E-18
 -1      2941 9.54143E-05-2.73491E-05-2.91784E-05 2.62213E-07 1.15747E-18-1.30973E-18
 -1      2942 9.54799E-05-2.69428E-05-2.93562E-05 8.20390E-07 1.31197E-18-1.30940E-18
 -1      2943 9.56788E-05-2.68771E-05-2.94721E-05-7.35106E-07-1.13393E-18-1.74224E-18
 -1      2944 9.56545E-05-2.73250E-05-2.92923E-05-2.09885E-07-1.08409E-18-1.79509E-18
 -1      2945 9.57050E-05-2.61997E-05-2.97895E-05-1.16121E-06-1.06579E-18-1.95034E-18
 -1      2946 9.56980E-05-2.77107E-05-2.91262E-05 1.70640E-07-1.11952E-18-1.66179E-18
 -1      2947 9.56608E-05-2.79975E-05-2.90032E-05 4.85784E-07-1.19076E-18-1.85000E-18
 -1      2948 9.58922E-05-2.73271E-05-2.93881E-05-1.54419E-07-1.05826E-18-1.93527E-18
 -1      2949 9.56527E-05-2.82363E-05-2.88848E-05 7.07452E-07-1.07831E-18-1.77576E-18
 -1      2950 9.56203E-05-2.84177E-05-2.88034E-05 8.75136E-07-7.99939E-19-1.87896E-18
 -1      2951 9.59327E-05-2.80523E-05-2.90952E-05 4.80720E-07-1.05138E-18-1.65136E-18
 -1      2952 9.55880E-05-2.85599E-05-2.87211E-05 9.83741E-07-3.40363E-19-1.86923E-18
 -1      2953 9.55648E-05-2.86712E-05-2.86694E-05 1.05222E-06-1.17872E-19-1.58629E-18
 -1      2954 9.58982E-05-2.85047E-05-2.88863E-05 8.37776E-07-5.49353E-19-1.51508E-18
 -1      2955 9.55230E-05-2.87498E-05-2.86140E-05 1.08463E-06 3.83144E-20-1.34535E-18
 -1      2956 9.55084E-05-2.88139E-05-2.85832E-05 1.08939E-06-4.50580E-20-1.09331E-18
 -1      2957 9.58297E-05-2.87737E-05-2.87413E-05 9.99474E-07 1.06770E-19-1.45383E-18
 -1      2958 9.54649E-05-2.88506E-05-2.85473E-05 1.07348E-06-1.38087E-19-8.21044E-19
 -1      2959 9.54570E-05-2.88830E-05-2.85310E-05 1.03990E-06-7.00557E-20-6.65341E-19
 -1      2960 9.57491E-05-2.89197E-05-2.86436E-05 1.03144E-06 1.42340E-19-1.20079E-18
 -1      2961 9.54158E-05-2.88927E-05-2.85092E-05 9.95907E-07-2.43499E-19-5.77084E-19
 -1      2962 9.54125E-05-2.89042E-05-2.85026E-05 9.41684E-07-4.79078E-19-4.12344E-19
 -1      2963 9.56680E-05-2.89841E-05-2.85807E-05 9.82843E-07-1.75319E-19-9.41118E-19
 -1      2964 9.53754E-05-2.88970E-05-2.84908E-05 8.83784E-07-8.34222E-19-2.95946E-19
 -1      2965 9.53752E-05-2.88950E-05-2.84904E-05 8.20965E-07-4.84956E-19-4.11391E-19
 -1      2966 9.55924E-05-2.89959E-05-2.85429E-05 8.89044E-07-5.66223E-19-6.19471E-19
 -1      2967 9.53431E-05-2.88777E-05-2.84855E-05 7.58787E-07-3.84510E-19-3.78176E-19
 -1      2968 9.53447E-05-2.88673E-05-2.84892E-05 6.95349E-07-3.00883E-19-4.80493E-19
 -1      2969 9.55252E-05-2.89748E-05-2.85228E-05 7.74657E-07-4.20103E-19-3.09159E-20
 -1      2970 9.53175E-05-2.88447E-05-2.84889E-05 6.35217E-07-2.79077E-19-5.52162E-19
 -1      2971 9.53201E-05-2.88293E-05-2.84950E-05 5.76282E-07-3.03073E-19-4.29687E-19
 -1      2972 9.54671E-05-2.89343E-05-2.85150E-05 6.56288E-07-4.87343E-19-4.70024E-19
 -1      2973 9.52974E-05-2.88041E-05-2.84979E-05 5.22207E-07-5.65838E-19-6.21830E-19
 -1      2974 9.53006E-05-2.87858E-05-2.85053E-05 4.70969E-07-9.41004E-19-6.62440E-19
 -1      2975 9.54181E-05-2.88832E-05-2.85156E-05 5.44782E-07-5.21274E-19-6.75251E-19
 -1      2976 9.52819E-05-2.87596E-05-2.85103E-05 4.25437E-07-1.38104E-18-4.58541E-19
 -1      2977 9.52853E-05-2.87398E-05-2.85185E-05 3.83882E-07-9.93844E-19-5.13181E-19
 -1      2978 9.53773E-05-2.88270E-05-2.85221E-05 4.47025E-07-9.33647E-19-9.35105E-19
 -1      2979 9.52697E-05-2.87131E-05-2.85250E-05 3.48477E-07-5.80002E-19-6.85341E-19
 -1      2980 9.52732E-05-2.86922E-05-2.85338E-05 3.17917E-07-2.74287E-19-8.55021E-19
 -1      2981 9.53433E-05-2.87683E-05-2.85325E-05 3.67388E-07-9.27400E-19-6.56537E-19
 -1      2982 9.52598E-05-2.86651E-05-2.85414E-05 2.93772E-07-1.11643E-19-1.01856E-18
 -1      2983 9.52634E-05-2.86430E-05-2.85507E-05 2.75245E-07 3.24608E-19-1.04013E-18
 -1      2984 9.53145E-05-2.87081E-05-2.85459E-05 3.08816E-07-4.63121E-19-1.02547E-18
 -1      2985 9.52514E-05-2.86150E-05-2.85593E-05 2.63375E-07 7.82749E-19-1.19528E-18
 -1      2986 9.52552E-05-2.85912E-05-2.85693E-05 2.57930E-07 4.61189E-19-1.00671E-18
 -1      2987 9.52892E-05-2.86458E-05-2.85616E-05 2.73626E-07 3.63055E-19-1.15751E-18
 -1      2988 9.52435E-05-2.85613E-05-2.85789E-05 2.59486E-07 2.31996E-19-5.34564E-19
 -1      2989 9.52477E-05-2.85354E-05-2.85899E-05 2.68383E-07 6.59374E-19-4.97913E-19
 -1      2990 9.52654E-05-2.85800E-05-2.85796E-05 2.64106E-07 6.29671E-19-9.46854E-19
 -1      2991 9.52353E-05-2.85026E-05-2.86007E-05 2.84818E-07 9.54093E-19-6.56351E-19
 -1      2992 9.52402E-05-2.84737E-05-2.86130E-05 3.09652E-07 9.98308E-19-7.66339E-19
 -1      2993 9.52412E-05-2.85086E-05-2.85998E-05 2.82936E-07 6.78090E-19-4.89980E-19
 -1      2994 9.52262E-05-2.84369E-05-2.86251E-05 3.42817E-07 6.62101E-19-4.79070E-19
 -1      2995 9.52323E-05-2.84046E-05-2.86390E-05 3.85544E-07 3.10942E-19-3.65946E-19
 -1      2996 9.52146E-05-2.84290E-05-2.86224E-05 3.33475E-07 8.27130E-19 1.55851E-19
 -1      2997 9.52157E-05-2.83627E-05-2.86525E-05 4.37710E-07-6.02032E-19-8.16723E-20
 -1      2998 9.52238E-05-2.83267E-05-2.86685E-05 5.00582E-07-9.06360E-19-2.62509E-19
 -1      2999 9.51838E-05-2.83392E-05-2.86477E-05 4.19875E-07 1.33505E-19 1.49867E-19
 -1      3000 9.52043E-05-2.82796E-05-2.86835E-05 5.74360E-07-7.88284E-19-2.09963E-19
 -1      3001 9.52156E-05-2.82404E-05-2.87017E-05 6.59729E-07-7.96920E-19-2.24298E-19
 -1      3002 9.51475E-05-2.82377E-05-2.86756E-05 5.47040E-07-9.38851E-19 5.22004E-20
 -1      3003 9.51931E-05-2.81885E-05-2.87179E-05 7.57874E-07-4.46458E-19-4.01641E-19
 -1      3004 9.52096E-05-2.81480E-05-2.87384E-05 8.67827E-07-5.36096E-20 8.46076E-20
 -1      3005 9.51051E-05-2.81247E-05-2.87058E-05 7.20366E-07-6.03718E-19-2.34312E-20
 -1      3006 9.51853E-05-2.80936E-05-2.87554E-05 9.92871E-07 1.95309E-19 2.63837E-20
 -1      3007 9.52100E-05-2.80554E-05-2.87779E-05 1.12864E-06 5.03448E-19 4.80896E-19
 -1      3008 9.50580E-05-2.80035E-05-2.87376E-05 9.45220E-07 3.24831E-19-8.37151E-20
 -1      3009 9.51870E-05-2.80033E-05-2.87949E-05 1.28231E-06 3.38481E-19 9.25422E-20
 -1      3010 9.52245E-05-2.79740E-05-2.88187E-05 1.44339E-06-4.44579E-20-2.22719E-19
 -1      3011 9.50102E-05-2.78816E-05-2.87695E-05 1.22605E-06 3.58811E-19-5.51127E-19
 -1      3012 9.52090E-05-2.79328E-05-2.88344E-05 1.62573E-06-2.75534E-19 2.19625E-19
 -1      3013 9.52665E-05-2.79231E-05-2.88583E-05 1.80861E-06-9.21304E-20 4.50621E-19
 -1      3014 9.49707E-05-2.77737E-05-2.87991E-05 1.56501E-06 7.73096E-20-3.26941E-19
 -1      3015 9.52689E-05-2.79065E-05-2.88708E-05 2.01671E-06-9.07517E-19 3.97314E-19
 -1      3016 9.53572E-05-2.79326E-05-2.88930E-05 2.21320E-06-5.20551E-19 2.11078E-19
 -1      3017 9.49557E-05-2.77042E-05-2.88230E-05 1.95997E-06-4.70819E-19-7.88834E-20
 -1      3018 9.53946E-05-2.79615E-05-2.89000E-05 2.43939E-06-7.81673E-19-7.49189E-19
 -1      3019 9.55293E-05-2.80463E-05-2.89182E-05 2.63438E-06-7.57498E-19-8.32083E-19
 -1      3020 9.49925E-05-2.77109E-05-2.88370E-05 2.40161E-06-1.18640E-18-2.50121E-19
 -1      3021 9.56277E-05-2.81499E-05-2.89172E-05 2.86380E-06-7.27223E-19-1.58733E-18
 -1      3022 9.58300E-05-2.83239E-05-2.89287E-05 3.03262E-06-8.13655E-19-1.30920E-18
 -1      3023 9.51235E-05-2.78484E-05-2.88359E-05 2.86954E-06-1.27377E-18-2.39201E-18
 -1      3024 9.60266E-05-2.85406E-05-2.89176E-05 3.23989E-06-5.97818E-19-1.27172E-18
 -1      3025 9.63245E-05-2.88416E-05-2.89201E-05 3.34517E-06-1.16913E-18-9.66673E-19
 -1      3026 9.54109E-05-2.81908E-05-2.88150E-05 3.32675E-06-4.88375E-19-2.78409E-18
 -1      3027 9.66693E-05-2.92176E-05-2.88981E-05 3.48999E-06-9.82412E-19-3.31010E-20
 -1      3028 9.70952E-05-2.96860E-05-2.88908E-05 3.47854E-06-4.10915E-19-1.64590E-19
 -1      3029 9.59413E-05-2.88315E-05-2.87716E-05 3.71226E-06-4.81620E-19-1.63737E-18
 -1      3030 9.76494E-05-3.02694E-05-2.88609E-05 3.50004E-06-9.79324E-19 3.53684E-19
 -1      3031 9.82350E-05-3.09389E-05-2.88463E-05 3.30059E-06-6.62427E-19-4.26741E-19
 -1      3032 9.68256E-05-2.98760E-05-2.87082E-05 3.93094E-06-6.94829E-19-6.69684E-19
 -1      3033 9.90634E-05-3.17654E-05-2.88175E-05 3.11097E-06-4.79708E-19-4.47647E-20
 -1      3034 9.98255E-05-3.26418E-05-2.88044E-05 2.63471E-06 1.91657E-19-5.22151E-19
 -1      3035 9.81911E-05-3.14213E-05-2.86376E-05 3.84063E-06-4.77869E-19-3.70167E-19
 -1      3036 1.00976E-04-3.37073E-05-2.87961E-05 2.11439E-06 5.20709E-19-1.71499E-18
 -1      3037 1.01891E-04-3.47338E-05-2.88024E-05 1.26298E-06 1.12419E-19-2.14476E-18
 -1      3038 1.00156E-04-3.35123E-05-2.85897E-05 3.23824E-06-6.22013E-19-1.15102E-20
 -1      3039 1.03355E-04-3.59484E-05-2.88480E-05 2.63343E-07 7.65748E-19-2.42139E-18
 -1      3040 1.04319E-04-3.69520E-05-2.89041E-05-1.04674E-06 5.05233E-19-1.48982E-18
 -1      3041 1.02770E-04-3.60625E-05-2.86206E-05 1.85150E-06 3.68753E-19-1.28220E-18
 -1      3042 1.05958E-04-3.80720E-05-2.90542E-05-2.66670E-06 4.71212E-19-1.18839E-18
 -1      3043 1.06744E-04-3.87123E-05-2.92004E-05-4.44521E-06 9.88209E-19-7.20436E-19
 -1      3044 1.05902E-04-3.87156E-05-2.88208E-05-6.38117E-07 9.75845E-19-9.11895E-19
 -1      3045 1.08215E-04-3.92915E-05-2.95161E-05-6.72594E-06 1.18123E-18-6.06815E-19
 -1      3046 1.08464E-04-3.90544E-05-2.97930E-05-8.81356E-06 9.77423E-19-6.31841E-19
 -1      3047 1.09089E-04-4.07156E-05-2.93130E-05-4.47213E-06 1.60852E-18-3.22673E-19
 -1      3048 1.09180E-04-3.84621E-05-3.03254E-05-1.15233E-05 5.65567E-19-7.58615E-19
 -1      3049 1.08470E-04-3.67762E-05-3.07518E-05-1.34667E-05 6.29269E-19 1.90339E-19
 -1      3050 1.11405E-04-4.08211E-05-3.02258E-05-9.55927E-06 1.02906E-18 1.00451E-18
 -1      3051 1.07707E-04-3.43852E-05-3.15018E-05-1.58664E-05 9.53015E-19 3.73421E-19
 -1      3052 1.05789E-04-3.10039E-05-3.20331E-05-1.68266E-05 1.31999E-18 7.15731E-19
 -1      3053 1.11500E-04-3.75308E-05-3.16277E-05-1.50469E-05 1.31071E-18 8.10617E-19
 -1      3054 1.03247E-04-2.68358E-05-3.28810E-05-1.76644E-05 6.18126E-19 2.09830E-18
 -1      3055 1.00408E-04-2.23398E-05-3.33774E-05-1.67364E-05 1.06614E-19 6.09700E-19
 -1      3056 1.08249E-04-3.00363E-05-3.34163E-05-1.88631E-05 1.55874E-18 1.39895E-18
 -1      3057 9.66100E-05-1.76229E-05-3.40343E-05-1.45386E-05-5.47819E-19 7.21626E-19
 -1      3058 9.39263E-05-1.38448E-05-3.42470E-05-1.13401E-05-9.21479E-19-7.04245E-19
 -1      3059 1.01583E-04-1.92945E-05-3.51622E-05-1.83083E-05-3.02205E-19 2.87261E-18
 -1      3060 9.05821E-05-1.07023E-05-3.43324E-05-6.42902E-06-1.08041E-18-6.88006E-19
 -1      3061 8.88156E-05-9.37144E-06-3.40554E-05-1.70731E-06-1.08975E-18-1.35756E-18
 -1      3062 9.45951E-05-1.04917E-05-3.60625E-05-1.13595E-05-1.09923E-18 1.37674E-18
 -1      3063 9.48961E-05-2.36747E-05-3.05158E-05 4.40773E-06 2.03854E-18-1.78268E-18
 -1      3064 7.33629E-05-3.54262E-05-1.55977E-05-2.68337E-05 6.98961E-19-4.43051E-19
 -1      3065 9.25404E-05-4.74721E-05-1.90799E-05-2.70443E-05 5.53695E-19-9.65935E-19
 -1      3066 9.52425E-05-2.87068E-05-2.85150E-05-1.13078E-06 2.72744E-19-1.45679E-18
 -1      3067 9.52393E-05-2.86430E-05-2.85380E-05-1.12628E-06-6.04173E-21-1.51438E-18
 -1      3068 9.55810E-05-2.86808E-05-2.86749E-05-1.05465E-06 1.58560E-19-1.71703E-18
 -1      3069 9.52231E-05-2.87790E-05-2.84753E-05-1.08075E-06 2.71067E-19-1.29867E-18
 -1      3070 9.52110E-05-2.87430E-05-2.84847E-05-1.11571E-06 3.27848E-19-1.48984E-18
 -1      3071 9.55207E-05-2.88223E-05-2.85876E-05-1.09230E-06 2.15873E-19-1.79273E-18
 -1      3072 9.52126E-05-2.88088E-05-2.84578E-05-9.79374E-07 5.71301E-19-1.03146E-18
 -1      3073 9.51959E-05-2.87915E-05-2.84585E-05-1.03553E-06 5.05244E-19-9.23672E-19
 -1      3074 9.54663E-05-2.88902E-05-2.85346E-05-1.04283E-06 1.22346E-19-1.45463E-18
 -1      3075 9.52084E-05-2.88111E-05-2.84549E-05-8.54062E-07 2.22447E-20-6.66869E-19
 -1      3076 9.51900E-05-2.88063E-05-2.84503E-05-9.19076E-07 4.54839E-19-9.29048E-19
 -1      3077 9.54196E-05-2.89102E-05-2.85054E-05-9.44389E-07 3.41020E-19-1.13989E-18
 -1      3078 9.52082E-05-2.87964E-05-2.84612E-05-7.23100E-07 2.81671E-19-6.88643E-19
 -1      3079 9.51899E-05-2.87997E-05-2.84536E-05-7.88867E-07 1.94591E-19-6.97985E-19
 -1      3080 9.53806E-05-2.89000E-05-2.84927E-05-8.23341E-07 1.07919E-19-1.33124E-18
 -1      3081 9.52106E-05-2.87715E-05-2.84729E-05-5.98321E-07 2.00500E-19-9.32513E-19
 -1      3082 9.51935E-05-2.87799E-05-2.84638E-05-6.59667E-07 4.96828E-19-8.03646E-19
 -1      3083 9.53489E-05-2.88716E-05-2.84910E-05-6.97349E-07 5.28203E-19-1.57580E-18
 -1      3084 9.52147E-05-2.87410E-05-2.84878E-05-4.87137E-07 4.23667E-19-1.26397E-18
 -1      3085 9.51992E-05-2.87524E-05-2.84781E-05-5.40865E-07 8.45534E-21-1.43702E-18
 -1      3086 9.53237E-05-2.88329E-05-2.84965E-05-5.77925E-07 4.38425E-19-1.86238E-18
 -1      3087 9.52197E-05-2.87074E-05-2.85044E-05-3.94085E-07 5.66348E-19-9.72959E-19
 -1      3088 9.52059E-05-2.87208E-05-2.84945E-05-4.38252E-07 5.61550E-19-9.90066E-19
 -1      3089 9.53038E-05-2.87890E-05-2.85067E-05-4.72357E-07 2.66896E-19-1.74983E-18
 -1      3090 9.52256E-05-2.86722E-05-2.85220E-05-3.22019E-07 7.98129E-20-5.70572E-19
 -1      3091 9.52131E-05-2.86869E-05-2.85121E-05-3.55373E-07 5.55293E-19-7.24381E-19
 -1      3092 9.52885E-05-2.87426E-05-2.85200E-05-3.85192E-07 2.95261E-19-9.63345E-19
 -1      3093 9.52323E-05-2.86353E-05-2.85407E-05-2.73049E-07-3.76320E-19-3.44746E-19
 -1      3094 9.52206E-05-2.86513E-05-2.85306E-05-2.94601E-07-9.23527E-20-3.82824E-19
 -1      3095 9.52768E-05-2.86947E-05-2.85354E-05-3.19420E-07-2.05519E-19-9.05297E-19
 -1      3096 9.52398E-05-2.85960E-05-2.85607E-05-2.49246E-07-2.33716E-19-4.64354E-19
 -1      3097 9.52283E-05-2.86135E-05-2.85500E-05-2.57940E-07-3.87798E-19-1.98302E-20
 -1      3098 9.52676E-05-2.86449E-05-2.85528E-05-2.77380E-07-4.27330E-19-4.57144E-19
 -1      3099 9.52485E-05-2.85530E-05-2.85827E-05-2.53197E-07 6.25528E-19-4.33700E-19
 -1      3100 9.52364E-05-2.85726E-05-2.85710E-05-2.47642E-07 3.12767E-19-1.35287E-19
 -1      3101 9.52599E-05-2.85918E-05-2.85722E-05-2.61438E-07 1.93887E-19-8.04209E-19
 -1      3102 9.52584E-05-2.85039E-05-2.86078E-05-2.88461E-07 5.21220E-19-4.87026E-20
 -1      3103 9.52450E-05-2.85266E-05-2.85945E-05-2.66713E-07 9.01280E-19-2.03384E-21
 -1      3104 9.52525E-05-2.85331E-05-2.85942E-05-2.74524E-07 6.03943E-19-1.19168E-19
 -1      3105 9.52697E-05-2.84459E-05-2.86372E-05-3.59955E-07 6.15827E-19-1.10876E-19
 -1      3106 9.52540E-05-2.84729E-05-2.86215E-05-3.19318E-07 5.21857E-19-1.55564E-19
 -1      3107 9.52440E-05-2.84656E-05-2.86195E-05-3.20555E-07 6.72719E-19 1.89166E-19
 -1      3108 9.52820E-05-2.83751E-05-2.86723E-05-4.74304E-07-2.50735E-19-7.47333E-20
 -1      3109 9.52631E-05-2.84082E-05-2.86533E-05-4.11147E-07 1.56540E-19-2.03057E-19
 -1      3110 9.52322E-05-2.83849E-05-2.86490E-05-4.04788E-07 5.49963E-19 7.14786E-19
 -1      3111 9.52943E-05-2.82869E-05-2.87149E-05-6.40151E-07 3.22933E-19 9.17911E-20
 -1      3112 9.52714E-05-2.83281E-05-2.86915E-05-5.49731E-07 1.99666E-19-2.07240E-19
 -1      3113 9.52144E-05-2.82858E-05-2.86838E-05-5.34097E-07-4.81419E-20 9.99016E-20
 -1      3114 9.53042E-05-2.81749E-05-2.87666E-05-8.68450E-07-6.18486E-19 5.22494E-19
 -1      3115 9.52771E-05-2.82270E-05-2.87378E-05-7.44734E-07 2.28034E-19 8.03671E-19
 -1      3116 9.51862E-05-2.81614E-05-2.87249E-05-7.17183E-07-4.35084E-20 1.21166E-18
 -1      3117 9.53075E-05-2.80311E-05-2.88290E-05-1.17272E-06-1.18443E-18 4.96805E-19
 -1      3118 9.52766E-05-2.80977E-05-2.87936E-05-1.00821E-06-7.88542E-19 3.25866E-19
 -1      3119 9.51413E-05-2.80031E-05-2.87731E-05-9.64709E-07-6.95042E-19 9.06154E-19
 -1      3120 9.52965E-05-2.78447E-05-2.89033E-05-1.56920E-06-9.94441E-19-2.18831E-19
 -1      3121 9.52633E-05-2.79307E-05-2.88604E-05-1.35481E-06-8.90258E-19 1.53693E-19
 -1      3122 9.50698E-05-2.78000E-05-2.88290E-05-1.28931E-06-8.98491E-19 6.10812E-19
 -1      3123 9.52584E-05-2.76021E-05-2.89901E-05-2.07685E-06-6.19480E-19-2.12262E-19
 -1      3124 9.52266E-05-2.77136E-05-2.89390E-05-1.80185E-06-9.31693E-19-3.72193E-19
 -1      3125 9.49572E-05-2.75379E-05-2.88922E-05-1.70540E-06-7.66333E-19-2.16508E-19
 -1      3126 9.51727E-05-2.72857E-05-2.90882E-05-2.71706E-06 1.38365E-19-4.41057E-19
 -1      3127 9.51494E-05-2.74306E-05-2.90289E-05-2.36919E-06 4.02649E-20-2.57139E-19
 -1      3128 9.47815E-05-2.71989E-05-2.89609E-05-2.22875E-06-3.72609E-19-3.69819E-19
 -1      3129 9.50086E-05-2.68744E-05-2.91934E-05-3.51275E-06-4.65521E-20-1.86360E-19
 -1      3130 9.50053E-05-2.70620E-05-2.91274E-05-3.07870E-06-8.18498E-20-3.23713E-19
 -1      3131 9.45111E-05-2.67612E-05-2.90304E-05-2.87554E-06 6.79653E-20-3.40767E-19
 -1      3132 9.47218E-05-2.63460E-05-2.92965E-05-4.48664E-06-8.81564E-20-3.68424E-19
 -1      3133 9.47558E-05-2.65851E-05-2.92278E-05-3.95320E-06 3.50674E-19-1.09080E-19
 -1      3134 9.41007E-05-2.61995E-05-2.90921E-05-3.66099E-06-2.12798E-19-9.17819E-19
 -1      3135 9.42529E-05-2.56830E-05-2.93796E-05-5.65851E-06-7.42135E-19-6.74638E-19
 -1      3136 9.43475E-05-2.59784E-05-2.93166E-05-5.01454E-06-1.67470E-19 1.54440E-19
 -1      3137 9.34889E-05-2.54885E-05-2.91301E-05-4.59745E-06-1.65210E-19-1.87899E-18
 -1      3138 9.35316E-05-2.48884E-05-2.94111E-05-7.04161E-06-9.54399E-19-1.35953E-18
 -1      3139 9.37126E-05-2.52315E-05-2.93694E-05-6.28111E-06-1.20927E-18-1.34020E-18
 -1      3140 9.25965E-05-2.46114E-05-2.91172E-05-5.69272E-06-4.36885E-19-1.22887E-18
 -1      3141 9.24922E-05-2.40178E-05-2.93386E-05-8.64010E-06 1.10646E-18-1.92824E-18
 -1      3142 9.27768E-05-2.43673E-05-2.93446E-05-7.76597E-06 1.08756E-19-1.54292E-18
 -1      3143 9.13308E-05-2.35784E-05-2.90095E-05-6.95069E-06-5.07240E-19-2.32578E-18
 -1      3144 9.11170E-05-2.32411E-05-2.90797E-05-1.04525E-05 5.38377E-19-1.45123E-18
 -1      3145 9.14843E-05-2.34863E-05-2.91748E-05-9.47921E-06 7.92525E-19-1.43382E-18
 -1      3146 8.96015E-05-2.24626E-05-2.87374E-05-8.37981E-06 3.48511E-19-2.31905E-18
 -1      3147 8.95304E-05-2.29501E-05-2.85135E-05-1.24895E-05-7.63580E-19-6.94476E-19
 -1      3148 8.98580E-05-2.28482E-05-2.87573E-05-1.14421E-05 2.53825E-20-1.00165E-18
 -1      3149 8.73599E-05-2.14647E-05-2.81951E-05-1.00208E-05-1.24476E-19-9.48394E-19
 -1      3150 8.81721E-05-2.39456E-05-2.74786E-05-1.48251E-05-1.06440E-18-2.40232E-19
 -1      3151 8.81289E-05-2.30121E-05-2.79446E-05-1.37240E-05-1.02619E-18-5.19893E-19
 -1      3152 8.46783E-05-2.10207E-05-2.72278E-05-1.20110E-05-8.65420E-19-4.26934E-19
 -1      3153 8.81275E-05-2.76778E-05-2.58619E-05-1.77288E-05-1.21352E-18-2.21448E-19
 -1      3154 8.68536E-05-2.48079E-05-2.65435E-05-1.65077E-05-1.46367E-18-7.30348E-19
 -1      3155 8.19545E-05-2.20025E-05-2.56150E-05-1.46743E-05-1.17688E-18-9.41497E-19
 -1      3156 9.53182E-05-2.83369E-05-2.87081E-05-9.00220E-07 2.96128E-19-1.13802E-18
 -1      3157 9.53493E-05-2.81713E-05-2.87817E-05-7.26126E-07 5.12180E-19-1.14507E-18
 -1      3158 9.56414E-05-2.84281E-05-2.88099E-05-8.76318E-07 4.54836E-19-1.55781E-18
 -1      3159 9.28402E-05-1.26009E-06-3.93001E-05 1.64165E-06-1.31256E-18-2.32446E-18
 -1      3160 9.87070E-05 1.59176E-06-4.31244E-05-9.83460E-07-7.36178E-19-3.74090E-18
 -1      3161 1.43237E-04-5.89649E-05-3.67405E-05-9.21958E-06-8.25784E-19-3.31942E-18
 -1      3162 1.41492E-04-6.53159E-05-3.21956E-05 3.65376E-06-1.28231E-18-2.40033E-18
 -1      3163 9.53714E-05-2.79565E-05-2.88961E-05-4.84527E-07 7.38844E-19-1.10929E-18
 -1      3164 9.54256E-05-2.76981E-05-2.90130E-05-1.54138E-07 1.08325E-18-1.13010E-18
 -1      3165 9.56902E-05-2.73336E-05-2.93006E-05 2.14218E-07 1.01170E-18-1.10486E-18
 -1      3166 9.56883E-05-2.80078E-05-2.90108E-05-4.84658E-07 5.60358E-19-1.12372E-18
 -1      3167 8.86318E-05-9.09464E-06-3.41160E-05 5.50841E-06-1.23077E-18-1.34918E-18
 -1      3168 1.18661E-04-7.16195E-06-4.84523E-05-2.64652E-05-2.06814E-18-4.28930E-18
 -1      3169 1.24517E-04-1.88476E-05-4.55162E-05-2.83404E-05-1.91313E-18-3.93823E-18
 -1      3170 9.49295E-05-2.34800E-05-3.06183E-05-4.11030E-06-1.58874E-18-2.25046E-18
 -1      3171 9.51612E-05-2.45902E-05-3.02604E-05-2.96661E-06-1.53228E-18-2.17397E-18
 -1      3172 9.52361E-05-2.44625E-05-3.03270E-05-2.61973E-06-1.30629E-18-2.25203E-18
 -1      3173 4.66145E-05-1.99983E-05-1.08831E-05-1.20653E-05-2.02388E-19-1.62726E-18
 -1      3174 5.65647E-05-2.68526E-05-1.26926E-05-2.20650E-05-3.70048E-20-9.35971E-19
 -1      3175 9.53907E-05-2.63752E-05-2.95896E-05 1.46481E-06 1.58814E-18-1.49958E-18
 -1      3176 9.54623E-05-2.57873E-05-2.98577E-05 2.36871E-06 1.82857E-18-1.57551E-18
 -1      3177 9.55944E-05-2.62784E-05-2.97090E-05 1.33348E-06 1.34856E-18-1.51843E-18
 -1      3178 9.23612E-05-1.83340E-05-3.17411E-05 1.80938E-06 8.34830E-19-3.13136E-18
 -1      3179 9.22411E-05-1.81312E-05-3.17730E-05 1.05690E-06 6.07945E-19-3.19569E-18
 -1      3180 1.33414E-04-3.47997E-05-4.27572E-05-2.64855E-05-9.15378E-19-3.02295E-18
 -1      3181 1.40819E-04-4.74399E-05-3.98571E-05-2.05854E-05-8.56244E-19-3.69883E-18
 -1      3182 1.05329E-04-5.77382E-05-2.05359E-05 3.67832E-05 9.79594E-19-2.37900E-18
 -1      3183 8.81452E-05-4.67698E-05-1.73496E-05 3.85275E-05 2.22336E-18-4.31214E-18
 -1      3184 9.40514E-05-2.13122E-05-3.11981E-05-5.26678E-06-1.59189E-18-2.83286E-18
 -1      3185 9.45050E-05-2.24315E-05-3.08891E-05-4.61188E-06-1.60013E-18-2.53144E-18
 -1      3186 9.34314E-05-2.00801E-05-3.14269E-05-4.87506E-06-1.47611E-18-3.01572E-18
 -1      3187 7.17320E-05-3.56133E-05-1.53457E-05 3.68005E-05 1.63541E-18-3.73012E-18
 -1      3188 5.86324E-05-2.62782E-05-1.35203E-05 2.97621E-05 1.42804E-18-2.77462E-18
 -1      3189 9.51406E-05-2.44015E-05-3.02972E-05 3.33273E-06 1.85995E-18-1.76603E-18
 -1      3190 9.08527E-05-5.89274E-06-3.64351E-05 7.51099E-07-1.29478E-18 2.26211E-19
 -1      3191 9.21795E-05-1.80290E-05-3.17914E-05 4.06815E-07 3.55448E-19-2.93873E-18
 -1      3192 9.21755E-05-1.80165E-05-3.17919E-05-3.54089E-07-2.89235E-20-2.96932E-18
 -1      3193 9.31334E-05-1.96155E-05-3.14903E-05 6.26086E-07 3.34754E-19-2.81843E-18
 -1      3194 9.43309E-05-2.19915E-05-3.09879E-05 3.60810E-06 1.50918E-18-2.31800E-18
 -1      3195 9.34235E-05-2.02030E-05-3.14042E-05 4.24776E-06 1.54133E-18-2.59442E-18
 -1      3196 9.30680E-05-1.95480E-05-3.15173E-05 3.64692E-06 1.27976E-18-2.71388E-18
 -1      3197 4.77574E-05-1.52386E-05-1.37102E-05 3.10123E-06-3.74686E-19-5.09967E-19
 -1      3198 4.58835E-05-1.69272E-05-1.18854E-05-4.99580E-06-1.52731E-19-5.20290E-19
 -1      3199 5.39892E-05-1.80093E-05-1.49796E-05-8.53615E-06-6.26143E-20-1.27436E-18
 -1      3200 1.01237E-04 4.24784E-06-4.55092E-05-9.93131E-06-2.69812E-18-4.37021E-18
 -1      3201 1.04638E-04 3.39040E-06-4.65343E-05-4.60789E-06-7.63706E-19-2.65370E-18
 -1      3202 5.35167E-05-2.11401E-05-1.34229E-05 2.38738E-05 1.01956E-18-1.49988E-18
 -1      3203 5.08222E-05-1.74738E-05-1.40574E-05 1.48761E-05 1.50375E-19-7.71171E-19
 -1      3204 6.38471E-05-2.45059E-05-1.65650E-05 2.47685E-05 6.56292E-19-2.47720E-18
 -1      3205 7.03159E-05-3.00236E-05-1.68550E-05-2.21379E-05 4.06629E-19-1.18098E-18
 -1      3206 9.08224E-05-3.48760E-05-2.37807E-05-2.12201E-05 5.49992E-19-2.28831E-19
 -1      3207 8.16728E-05-2.95258E-05-2.23706E-05-2.07336E-05 2.89745E-19-8.71094E-19
 -1      3208 9.46745E-05-4.14849E-05-2.27110E-05-2.30405E-05 8.98226E-19-7.38454E-19
 -1      3209 9.34139E-05-2.66213E-06-3.91212E-05-5.76051E-06-2.01389E-18-1.52912E-18
 -1      3210 1.34191E-04-6.39735E-05-2.99922E-05 8.50804E-06-4.08773E-19-1.90765E-18
 -1      3211 1.02751E-04-4.96587E-05-2.21643E-05-2.33215E-05 2.49822E-19-1.67765E-18
 -1      3212 9.26693E-05-1.87783E-05-3.16686E-05-3.73351E-06-1.06204E-18-2.89851E-18
 -1      3213 9.30092E-05-1.94162E-05-3.15619E-05-4.34702E-06-1.36699E-18-3.00487E-18
 -1      3214 9.36484E-05-2.05949E-05-3.13031E-05-4.00418E-06-1.20980E-18-2.87566E-18
 -1      3215 1.10760E-04-2.47238E-06-4.67584E-05-2.15707E-05-2.84788E-18-4.00652E-18
 -1      3216 1.25758E-04-2.70857E-05-4.25580E-05-2.78848E-05-6.01817E-19-3.56339E-18
 -1      3217 1.24252E-04-3.31485E-05-3.91949E-05-2.44890E-05-5.32043E-20-2.77622E-18
 -1      3218 1.15340E-04-1.88700E-05-4.16319E-05-2.64687E-05-5.35987E-19-3.76400E-18
 -1      3219 1.13689E-04-5.84796E-05-2.33366E-05 2.83801E-05 6.86917E-19-1.31446E-18
 -1      3220 9.23767E-05-1.83188E-05-3.17536E-05-3.10312E-06-8.01924E-19-2.91422E-18
 -1      3221 9.30275E-05-1.94556E-05-3.15263E-05-2.95421E-06-8.30469E-19-2.77852E-18
 -1      3222 9.21533E-05-1.79348E-05-3.18160E-05-2.38340E-06-5.32599E-19-2.83643E-18
 -1      3223 9.51204E-05-2.41873E-05-3.03865E-05 3.00220E-06 1.68473E-18-1.80281E-18
 -1      3224 9.25378E-05-1.86303E-05-3.16854E-05 2.41863E-06 9.26202E-19-3.05191E-18
 -1      3225 9.33476E-05-2.00058E-05-3.14143E-05 1.79699E-06 7.54548E-19-2.89322E-18
 -1      3226 9.27760E-05-1.90441E-05-3.16182E-05 3.12197E-06 1.12599E-18-2.96792E-18
 -1      3227 1.37067E-04-5.19254E-05-3.65958E-05-1.46074E-05-7.86602E-19-2.49901E-18
 -1      3228 9.44718E-05-2.23366E-05-3.09029E-05-4.00069E-06-1.41804E-18-2.88371E-18
 -1      3229 8.40166E-05-4.03859E-05-1.83347E-05 3.39812E-05 1.55232E-18-3.95398E-18
 -1      3230 9.79749E-05-1.95047E-06-4.13430E-05-1.13899E-05-1.94627E-18-3.28077E-18
 -1      3231 1.02681E-04-1.69352E-07-4.43419E-05-1.54962E-05-2.58499E-18-3.31310E-18
 -1      3232 1.06826E-04-8.00816E-06-4.23785E-05-2.23085E-05-2.00699E-18-2.64430E-18
 -1      3233 9.47750E-05-5.64615E-06-3.81897E-05-1.15491E-05-1.51291E-18 6.07342E-19
 -1      3234 9.60292E-05-2.69093E-05-2.96139E-05-4.39409E-07-8.42158E-19-1.79686E-18
 -1      3235 9.60777E-05-2.74032E-05-2.94395E-05-2.56745E-08-8.36534E-19-1.69512E-18
 -1      3236 9.61599E-05-2.78249E-05-2.92789E-05 2.53519E-07-8.87183E-19-1.59720E-18
 -1      3237 9.61552E-05-2.81446E-05-2.91520E-05 5.05395E-07-8.39289E-19-1.46270E-18
 -1      3238 9.62615E-05-2.74551E-05-2.94887E-05 2.18123E-08-7.70260E-19-1.43202E-18
 -1      3239 9.61640E-05-2.84087E-05-2.90322E-05 6.66133E-07-7.59490E-19-1.44774E-18
 -1      3240 9.61339E-05-2.86078E-05-2.89421E-05 8.00253E-07-3.00899E-19-1.31181E-18
 -1      3241 9.63527E-05-2.82174E-05-2.92024E-05 4.81388E-07-7.10172E-19-1.28899E-18
 -1      3242 9.61007E-05-2.87635E-05-2.88548E-05 8.75330E-07-3.74789E-20-1.41421E-18
 -1      3243 9.60603E-05-2.88799E-05-2.87924E-05 9.28274E-07 1.66623E-19-1.52620E-18
 -1      3244 9.63301E-05-2.86927E-05-2.89896E-05 7.36051E-07-2.43701E-19-1.33058E-18
 -1      3245 9.60055E-05-2.89620E-05-2.87303E-05 9.45120E-07 2.80555E-19-1.70208E-18
 -1      3246 9.59627E-05-2.90223E-05-2.86886E-05 9.45265E-07 1.09667E-19-1.43894E-18
 -1      3247 9.62447E-05-2.89683E-05-2.88349E-05 8.44573E-07 1.09932E-19-1.71801E-18
 -1      3248 9.58990E-05-2.90554E-05-2.86457E-05 9.25308E-07-1.50290E-20-1.40081E-18
 -1      3249 9.58580E-05-2.90784E-05-2.86191E-05 8.93618E-07-1.35019E-19-1.32382E-18
 -1      3250 9.61287E-05-2.91078E-05-2.87254E-05 8.55546E-07 1.50130E-19-1.86126E-18
 -1      3251 9.57934E-05-2.90801E-05-2.85906E-05 8.52671E-07-3.36357E-19-1.06945E-18
 -1      3252 9.57564E-05-2.90791E-05-2.85750E-05 8.04050E-07-4.35321E-19-8.47664E-19
 -1      3253 9.60027E-05-2.91568E-05-2.86502E-05 8.06313E-07-1.07969E-19-1.51587E-18
 -1      3254 9.56954E-05-2.90614E-05-2.85571E-05 7.53284E-07-6.02139E-19-6.27472E-19
 -1      3255 9.56631E-05-2.90456E-05-2.85492E-05 6.98016E-07-3.48651E-19-5.39457E-19
 -1      3256 9.58791E-05-2.91478E-05-2.86008E-05 7.24076E-07-3.16244E-19-1.21636E-18
 -1      3257 9.56081E-05-2.90168E-05-2.85392E-05 6.45070E-07-4.78540E-19-7.51629E-19
 -1      3258 9.55807E-05-2.89924E-05-2.85366E-05 5.90039E-07-4.94654E-19-7.53326E-19
 -1      3259 9.57648E-05-2.91035E-05-2.85705E-05 6.27938E-07-4.64889E-19-1.06377E-18
 -1      3260 9.55325E-05-2.89579E-05-2.85322E-05 5.39938E-07-5.71614E-19-8.59886E-19
 -1      3261 9.55096E-05-2.89289E-05-2.85334E-05 4.89604E-07-7.22752E-19-1.10779E-18
 -1      3262 9.56629E-05-2.90391E-05-2.85542E-05 5.30880E-07-4.68199E-19-1.58709E-18
 -1      3263 9.54682E-05-2.88919E-05-2.85331E-05 4.45545E-07-8.54941E-19-9.89772E-19
 -1      3264 9.54491E-05-2.88606E-05-2.85369E-05 4.02759E-07-8.53490E-19-6.26127E-19
 -1      3265 9.55744E-05-2.89644E-05-2.85481E-05 4.41384E-07-8.01350E-19-1.22578E-18
 -1      3266 9.54136E-05-2.88227E-05-2.85395E-05 3.66789E-07-8.44474E-19-5.75222E-19
 -1      3267 9.53977E-05-2.87901E-05-2.85451E-05 3.33424E-07-7.27219E-19-5.24442E-19
 -1      3268 9.54982E-05-2.88849E-05-2.85493E-05 3.64930E-07-6.24881E-19-6.24251E-19
 -1      3269 9.53667E-05-2.87517E-05-2.85499E-05 3.06944E-07-7.94861E-19-6.13003E-19
 -1      3270 9.53531E-05-2.87180E-05-2.85569E-05 2.84349E-07-4.76417E-19-6.96423E-19
 -1      3271 9.54323E-05-2.88030E-05-2.85560E-05 3.05176E-07-6.34398E-19-1.70945E-19
 -1      3272 9.53250E-05-2.86787E-05-2.85634E-05 2.68464E-07 2.46557E-19-8.16004E-19
 -1      3273 9.53127E-05-2.86434E-05-2.85716E-05 2.57808E-07 5.98381E-19-9.16694E-19
 -1      3274 9.53738E-05-2.87189E-05-2.85667E-05 2.64784E-07-2.02333E-19-1.65003E-19
 -1      3275 9.52858E-05-2.86020E-05-2.85795E-05 2.53611E-07 4.91201E-19-5.27405E-19
 -1      3276 9.52738E-05-2.85641E-05-2.85889E-05 2.56144E-07 3.99341E-19-8.62594E-19
 -1      3277 9.53192E-05-2.86312E-05-2.85808E-05 2.46054E-07 5.37261E-19-9.91599E-20
 -1      3278 9.52459E-05-2.85192E-05-2.85981E-05 2.64937E-07 6.16546E-19-9.31852E-19
 -1      3279 9.52332E-05-2.84773E-05-2.86087E-05 2.82163E-07 8.76978E-19-5.73681E-19
 -1      3280 9.52648E-05-2.85371E-05-2.85976E-05 2.51439E-07 5.40832E-19-5.78493E-19
 -1      3281 9.52022E-05-2.84272E-05-2.86190E-05 3.05606E-07 8.27957E-19-7.33007E-19
 -1      3282 9.51878E-05-2.83801E-05-2.86308E-05 3.39390E-07 8.62600E-19-7.82580E-19
 -1      3283 9.52062E-05-2.84332E-05-2.86169E-05 2.83912E-07 8.58316E-19-1.42333E-18
 -1      3284 9.51514E-05-2.83231E-05-2.86421E-05 3.79598E-07 5.71244E-19-7.87974E-19
 -1      3285 9.51344E-05-2.82696E-05-2.86551E-05 4.32190E-07-1.80776E-19-6.16825E-19
 -1      3286 9.51392E-05-2.83161E-05-2.86381E-05 3.47224E-07 5.60355E-19-1.28984E-18
 -1      3287 9.50905E-05-2.82043E-05-2.86671E-05 4.91772E-07-9.96706E-19-5.62402E-19
 -1      3288 9.50705E-05-2.81440E-05-2.86813E-05 5.65751E-07-1.24154E-18-8.01004E-19
 -1      3289 9.50593E-05-2.81824E-05-2.86610E-05 4.46046E-07-5.68142E-19-1.16098E-18
 -1      3290 9.50173E-05-2.80700E-05-2.86936E-05 6.47780E-07-1.01395E-18-5.56326E-19
 -1      3291 9.49944E-05-2.80035E-05-2.87087E-05 7.45881E-07-2.16051E-19-2.98251E-19
 -1      3292 9.49626E-05-2.80300E-05-2.86847E-05 5.86006E-07-8.19634E-19-1.29137E-18
 -1      3293 9.49311E-05-2.79217E-05-2.87205E-05 8.53790E-07 1.10579E-19-5.96672E-19
 -1      3294 9.49063E-05-2.78514E-05-2.87358E-05 9.78599E-07 2.47093E-19-6.69027E-19
 -1      3295 9.48465E-05-2.78595E-05-2.87078E-05 7.73596E-07-5.61218E-19-7.96268E-19
 -1      3296 9.48336E-05-2.77654E-05-2.87461E-05 1.11595E-06 7.89813E-20-7.28828E-19
 -1      3297 9.48103E-05-2.76968E-05-2.87605E-05 1.26940E-06 1.82211E-19-9.94396E-19
 -1      3298 9.47107E-05-2.76754E-05-2.87285E-05 1.01591E-06 4.37723E-20-6.54310E-19
 -1      3299 9.47316E-05-2.76136E-05-2.87676E-05 1.43953E-06-1.96375E-19-1.17802E-18
 -1      3300 9.47157E-05-2.75566E-05-2.87797E-05 1.62215E-06 4.34761E-22-8.65981E-19
 -1      3301 9.45590E-05-2.74885E-05-2.87436E-05 1.32017E-06 8.06003E-21-1.96868E-18
 -1      3302 9.46389E-05-2.74886E-05-2.87814E-05 1.82750E-06-3.42291E-19-1.26790E-18
 -1      3303 9.46413E-05-2.74590E-05-2.87891E-05 2.03735E-06-6.53727E-19-1.37512E-18
 -1      3304 9.44024E-05-2.73193E-05-2.87493E-05 1.69286E-06-3.35104E-19-2.25728E-18
 -1      3305 9.45809E-05-2.74262E-05-2.87827E-05 2.27856E-06-9.46783E-19-1.55680E-18
 -1      3306 9.46187E-05-2.74479E-05-2.87836E-05 2.50974E-06-1.26997E-18-1.48455E-18
 -1      3307 9.42625E-05-2.72018E-05-2.87405E-05 2.13847E-06-8.86230E-19-2.24376E-18
 -1      3308 9.45987E-05-2.74798E-05-2.87662E-05 2.78413E-06-1.71406E-18-1.13427E-18
 -1      3309 9.46983E-05-2.75868E-05-2.87575E-05 3.02462E-06-1.42921E-18-1.65483E-18
 -1      3310 9.41769E-05-2.71879E-05-2.87113E-05 2.65733E-06-1.42792E-18-9.52932E-19
 -1      3311 9.47560E-05-2.77248E-05-2.87264E-05 3.32379E-06-1.10374E-18-2.25226E-18
 -1      3312 9.49550E-05-2.79623E-05-2.87060E-05 3.55260E-06-6.84214E-19-2.27343E-18
 -1      3313 9.42055E-05-2.73524E-05-2.86557E-05 3.24229E-06-1.46350E-18-1.11801E-18
 -1      3314 9.51447E-05-2.82605E-05-2.86596E-05 3.85863E-06 3.41407E-19-2.04286E-18
 -1      3315 9.54936E-05-2.86844E-05-2.86270E-05 4.04169E-06 4.19390E-19-1.22751E-18
 -1      3316 9.44384E-05-2.77972E-05-2.85690E-05 3.87299E-06-1.39450E-19-1.83189E-18
 -1      3317 9.58901E-05-2.92083E-05-2.85669E-05 4.32080E-06-4.19396E-19-8.65631E-19
 -1      3318 9.64510E-05-2.98800E-05-2.85255E-05 4.40527E-06-5.99517E-19-6.93867E-19
 -1      3319 9.50026E-05-2.86514E-05-2.84509E-05 4.50646E-06 5.21505E-19-1.27724E-18
 -1      3320 9.71497E-05-3.06992E-05-2.84589E-05 4.59751E-06-3.98671E-19-1.30337E-19
 -1      3321 9.79887E-05-3.16720E-05-2.84189E-05 4.50424E-06 1.79335E-19 2.33688E-20
 -1      3322 9.60672E-05-3.00651E-05-2.83100E-05 5.06084E-06-1.74152E-19-1.10220E-19
 -1      3323 9.90987E-05-3.28415E-05-2.83640E-05 4.50811E-06-6.41840E-19-2.40781E-19
 -1      3324 1.00266E-04-3.41314E-05-2.83466E-05 4.12370E-06-1.06112E-18-4.38396E-19
 -1      3325 9.78379E-05-3.21850E-05-2.81714E-05 5.38868E-06-5.60364E-19-2.74923E-19
 -1      3326 1.01886E-04-3.56554E-05-2.83376E-05 3.77717E-06-4.74390E-19-5.21933E-19
 -1      3327 1.03373E-04-3.71898E-05-2.83799E-05 2.95042E-06 2.75195E-19-6.08216E-19
 -1      3328 1.00529E-04-3.50993E-05-2.80882E-05 5.23957E-06-9.27889E-19-5.28734E-21
 -1      3329 1.05545E-04-3.89547E-05-2.84759E-05 2.00206E-06 4.99094E-19-1.27794E-18
 -1      3330 1.07211E-04-4.04724E-05-2.86362E-05 5.58094E-07 1.08930E-18-8.57448E-19
 -1      3331 1.04302E-04-3.87399E-05-2.81554E-05 4.21071E-06 1.34842E-19-1.60377E-19
 -1      3332 1.09759E-04-4.20997E-05-2.89298E-05-1.28135E-06 1.76841E-18-7.39453E-19
 -1      3333 1.11254E-04-4.30703E-05-2.92822E-05-3.43253E-06 2.23491E-18-5.49425E-19
 -1      3334 1.09053E-04-4.25843E-05-2.85341E-05 1.69980E-06 1.53346E-18-1.09125E-18
 -1      3335 1.13728E-04-4.38856E-05-2.98832E-05-6.39072E-06 1.79077E-18-5.54012E-19
 -1      3336 1.14425E-04-4.34566E-05-3.04943E-05-9.13039E-06 8.51943E-19 5.85858E-19
 -1      3337 1.14218E-04-4.55937E-05-2.94455E-05-2.85448E-06 1.69139E-18-1.16500E-18
 -1      3338 1.15857E-04-4.23847E-05-3.14988E-05-1.30149E-05 9.71204E-19 6.68668E-19
 -1      3339 1.14990E-04-3.95513E-05-3.23969E-05-1.57065E-05 2.21520E-18 1.37281E-18
 -1      3340 1.18338E-04-4.57893E-05-3.11187E-05-9.65137E-06 1.56793E-18-1.03930E-18
 -1      3341 1.10606E-04-2.56178E-05-3.66241E-05-2.25079E-05 4.20898E-19 4.30263E-19
 -1      3342 1.06531E-04-1.86489E-05-3.76705E-05-2.12896E-05-6.35910E-19 5.30024E-19
 -1      3343 9.82140E-05-1.00522E-05-3.80695E-05-1.64531E-05-9.31538E-19 5.09123E-19
 -1      3344 9.56892E-05-2.89948E-05-2.85826E-05-9.66084E-07 4.62487E-20-1.51987E-18
 -1      3345 9.57161E-05-2.89678E-05-2.86048E-05-9.99381E-07-1.29119E-19-1.71386E-18
 -1      3346 9.58509E-05-2.87909E-05-2.87408E-05-9.94282E-07 2.66119E-19-1.85900E-18
 -1      3347 9.58840E-05-2.86770E-05-2.87984E-05-9.35321E-07 3.35771E-19-1.72336E-18
 -1      3348 9.56119E-05-2.90044E-05-2.85450E-05-8.71211E-07 2.76446E-19-1.34158E-18
 -1      3349 9.56346E-05-2.89999E-05-2.85569E-05-9.23027E-07 4.38907E-19-1.50525E-18
 -1      3350 9.58628E-05-2.90836E-05-2.86216E-05-8.91239E-07 1.06970E-19-1.89415E-18
 -1      3351 9.55426E-05-2.89817E-05-2.85250E-05-7.57369E-07 4.29455E-19-1.69852E-18
 -1      3352 9.55612E-05-2.89913E-05-2.85297E-05-8.16640E-07 3.56737E-19-1.31317E-18
 -1      3353 9.57597E-05-2.90837E-05-2.85770E-05-8.02476E-07 5.22050E-19-1.75537E-18
 -1      3354 9.54825E-05-2.89399E-05-2.85171E-05-6.40410E-07 3.28635E-19-1.53380E-18
 -1      3355 9.54974E-05-2.89581E-05-2.85170E-05-6.99769E-07 2.64450E-19-1.75299E-18
 -1      3356 9.56655E-05-2.90497E-05-2.85509E-05-6.97092E-07 5.12471E-19-1.59287E-18
 -1      3357 9.54317E-05-2.88880E-05-2.85176E-05-5.30733E-07 4.55065E-19-2.04176E-18
 -1      3358 9.54435E-05-2.89108E-05-2.85144E-05-5.85394E-07 5.58392E-19-1.53930E-18
 -1      3359 9.55827E-05-2.89961E-05-2.85382E-05-5.89614E-07 4.01946E-19-1.61393E-18
 -1      3360 9.53895E-05-2.88312E-05-2.85239E-05-4.34967E-07-8.92385E-21-1.69842E-18
 -1      3361 9.53986E-05-2.88564E-05-2.85186E-05-4.81903E-07 2.10421E-19-1.85683E-18
 -1      3362 9.55115E-05-2.89321E-05-2.85348E-05-4.89658E-07 2.45966E-19-1.28510E-18
 -1      3363 9.53547E-05-2.87722E-05-2.85343E-05-3.57301E-07-2.69344E-19-8.45631E-19
 -1      3364 9.53617E-05-2.87988E-05-2.85276E-05-3.94572E-07-1.08559E-19-1.40821E-18
 -1      3365 9.54512E-05-2.88634E-05-2.85383E-05-4.03380E-07-4.98519E-19-1.39604E-18
 -1      3366 9.53257E-05-2.87118E-05-2.85478E-05-3.00606E-07-4.96770E-19-7.46006E-19
 -1      3367 9.53311E-05-2.87394E-05-2.85399E-05-3.26832E-07-2.22147E-19-8.52888E-19
 -1      3368 9.54002E-05-2.87924E-05-2.85467E-05-3.34758E-07-4.85670E-19-1.18609E-18
 -1      3369 9.53007E-05-2.86492E-05-2.85640E-05-2.67250E-07-2.59608E-19-1.36409E-18
 -1      3370 9.53050E-05-2.86783E-05-2.85550E-05-2.81224E-07-3.78006E-19-1.16355E-18
 -1      3371 9.53561E-05-2.87196E-05-2.85589E-05-2.86646E-07-2.22629E-19-1.43935E-18
 -1      3372 9.52777E-05-2.85822E-05-2.85828E-05-2.59701E-07 2.58812E-19-1.03714E-18
 -1      3373 9.52814E-05-2.86139E-05-2.85726E-05-2.60089E-07-2.81970E-20-1.30568E-18
 -1      3374 9.53163E-05-2.86435E-05-2.85743E-05-2.61476E-07-1.68500E-19-1.53350E-18
 -1      3375 9.52539E-05-2.85077E-05-2.86044E-05-2.81006E-07 2.10783E-20-2.33731E-19
 -1      3376 9.52578E-05-2.85434E-05-2.85928E-05-2.66112E-07 2.81903E-19-8.63008E-19
 -1      3377 9.52772E-05-2.85612E-05-2.85927E-05-2.61818E-07-2.26313E-20-1.19193E-18
 -1      3378 9.52266E-05-2.84214E-05-2.86295E-05-3.35163E-07 4.49427E-19 2.41317E-20
 -1      3379 9.52315E-05-2.84632E-05-2.86161E-05-3.02742E-07 3.87222E-19-1.80940E-19
 -1      3380 9.52351E-05-2.84687E-05-2.86141E-05-2.90795E-07 1.15021E-19-7.45361E-19
 -1      3381 9.51915E-05-2.83180E-05-2.86587E-05-4.27392E-07 4.59176E-19 3.00413E-19
 -1      3382 9.51988E-05-2.83685E-05-2.86429E-05-3.74508E-07 3.67515E-19 1.51304E-19
 -1      3383 9.51851E-05-2.83607E-05-2.86389E-05-3.52391E-07 2.38053E-19-8.82818E-19
 -1      3384 9.51436E-05-2.81907E-05-2.86925E-05-5.64310E-07-3.09278E-19 1.60380E-19
 -1      3385 9.51550E-05-2.82531E-05-2.86740E-05-4.87232E-07 2.65082E-19 3.19733E-19
 -1      3386 9.51212E-05-2.82303E-05-2.86671E-05-4.51623E-07 2.39821E-19-1.33005E-19
 -1      3387 9.50756E-05-2.80313E-05-2.87314E-05-7.54001E-07-6.12753E-19 1.18165E-18
 -1      3388 9.50937E-05-2.81095E-05-2.87098E-05-6.48149E-07-5.96371E-19 4.03635E-19
 -1      3389 9.50355E-05-2.80694E-05-2.86989E-05-5.94589E-07-6.84057E-19-1.95567E-20
 -1      3390 9.49774E-05-2.78293E-05-2.87756E-05-1.00594E-06-6.23712E-19 7.15571E-19
 -1      3391 9.50063E-05-2.79283E-05-2.87506E-05-8.65895E-07-5.78636E-20 1.29622E-18
 -1      3392 9.49176E-05-2.78679E-05-2.87342E-05-7.88351E-07-6.78115E-19 1.40070E-20
 -1      3393 9.48345E-05-2.75719E-05-2.88245E-05-1.33070E-06-8.60387E-19 5.68525E-19
 -1      3394 9.48803E-05-2.76980E-05-2.87962E-05-1.15032E-06-1.12721E-18 7.04083E-19
 -1      3395 9.47533E-05-2.76135E-05-2.87721E-05-1.04059E-06-7.51505E-19 7.60195E-20
 -1      3396 9.46263E-05-2.72428E-05-2.88763E-05-1.73938E-06-8.08596E-19 2.28174E-19
 -1      3397 9.46982E-05-2.74039E-05-2.88454E-05-1.51204E-06-5.69097E-19 5.04101E-19
 -1      3398 9.45236E-05-2.72911E-05-2.88107E-05-1.35897E-06-7.81127E-19 6.92464E-19
 -1      3399 9.43235E-05-2.68222E-05-2.89270E-05-2.24258E-06 2.71466E-19-9.53728E-19
 -1      3400 9.44351E-05-2.70280E-05-2.88952E-05-1.96166E-06-1.04468E-19-2.72123E-19
 -1      3401 9.42018E-05-2.68824E-05-2.88463E-05-1.75005E-06 1.95408E-20-1.04613E-18
 -1      3402 9.38850E-05-2.62863E-05-2.89694E-05-2.84890E-06 1.87462E-19-1.02075E-18
 -1      3403 9.40558E-05-2.65482E-05-2.89403E-05-2.50856E-06 4.75081E-19-9.84745E-19
 -1      3404 9.37516E-05-2.63654E-05-2.88725E-05-2.21771E-06 1.45315E-19-2.24324E-18
 -1      3405 9.32545E-05-2.56087E-05-2.89907E-05-3.56283E-06-3.77769E-19-1.43724E-18
 -1      3406 9.35116E-05-2.59391E-05-2.89706E-05-3.15907E-06-2.02786E-19-9.91243E-19
 -1      3407 9.31235E-05-2.57152E-05-2.88787E-05-2.76099E-06 2.05156E-19-1.48104E-18
 -1      3408 9.23569E-05-2.47642E-05-2.89699E-05-4.38248E-06-2.80178E-19-9.30941E-19
 -1      3409 9.27367E-05-2.51741E-05-2.89696E-05-3.91445E-06-6.80761E-19-1.43299E-18
 -1      3410 9.22515E-05-2.49051E-05-2.88474E-05-3.37158E-06-2.74711E-19-1.09910E-18
 -1      3411 9.10973E-05-2.37379E-05-2.88728E-05-5.29832E-06-6.22444E-19-8.01181E-19
 -1      3412 9.16448E-05-2.42312E-05-2.89100E-05-4.76912E-06-1.35437E-19-4.78560E-19
 -1      3413 9.10490E-05-2.39120E-05-2.87511E-05-4.03174E-06-3.21827E-19-6.23202E-19
 -1      3414 8.93640E-05-2.25431E-05-2.86454E-05-6.29614E-06-2.98213E-19-1.96082E-18
 -1      3415 9.01292E-05-2.31057E-05-2.87485E-05-5.71142E-06-4.94938E-19-1.76838E-18
 -1      3416 8.94071E-05-2.27255E-05-2.85471E-05-4.71467E-06-4.86644E-19-1.49078E-18
 -1      3417 8.70417E-05-2.12548E-05-2.82054E-05-7.37167E-06 2.89097E-19-1.36387E-18
 -1      3418 8.80672E-05-2.18345E-05-2.84178E-05-6.73175E-06 2.54325E-19-1.83238E-18
 -1      3419 8.71938E-05-2.13651E-05-2.81700E-05-5.39212E-06-2.61734E-19-1.98370E-18
 -1      3420 8.40391E-05-2.00648E-05-2.74280E-05-8.56958E-06-9.17787E-19-1.73168E-19
 -1      3421 8.53337E-05-2.05367E-05-2.78150E-05-7.84807E-06-3.98746E-19-8.73904E-19
 -1      3422 8.42558E-05-1.99081E-05-2.75206E-05-6.05701E-06-3.98957E-19-8.44705E-19
 -1      3423 8.03388E-05-1.93745E-05-2.61266E-05-1.00796E-05-7.91986E-19-7.98924E-20
 -1      3424 8.18296E-05-1.94816E-05-2.67836E-05-9.17026E-06-7.43553E-19 1.22917E-19
 -1      3425 8.04145E-05-1.85285E-05-2.64472E-05-6.78408E-06-1.08876E-18 1.74565E-19
 -1      3426 7.60665E-05-2.01228E-05-2.40112E-05-1.24323E-05-5.17799E-19-7.62727E-19
 -1      3427 7.75200E-05-1.91698E-05-2.50873E-05-1.10038E-05-5.90775E-19-1.06207E-19
 -1      3428 7.55252E-05-1.76005E-05-2.47144E-05-7.79679E-06-5.96658E-19-3.57938E-20
 -1      3429 9.59163E-05-2.85275E-05-2.88833E-05-8.46546E-07 3.85859E-19-1.64645E-18
 -1      3430 9.59472E-05-2.83366E-05-2.89693E-05-6.98618E-07 5.15568E-19-1.56272E-18
 -1      3431 9.61477E-05-2.86134E-05-2.89458E-05-7.94007E-07 4.30164E-19-1.93944E-18
 -1      3432 9.56678E-05-2.55150E-05-3.00604E-05-1.49071E-06-1.04254E-18-2.13209E-18
 -1      3433 9.58257E-05-2.62576E-05-2.98249E-05-8.69158E-07-9.45328E-19-2.14799E-18
 -1      3434 9.59817E-05-2.62912E-05-2.98658E-05-7.05913E-07-8.07338E-19-1.74773E-18
 -1      3435 1.07740E-04 4.32372E-06-4.84758E-05-2.13310E-06-7.17119E-19-3.17166E-18
 -1      3436 9.56990E-05-2.62712E-05-2.97662E-05 1.04245E-06 1.16494E-18-1.52122E-18
 -1      3437 9.55977E-05-2.55658E-05-3.00107E-05 1.75712E-06 1.36035E-18-1.64706E-18
 -1      3438 9.20609E-05-1.78167E-05-3.18319E-05-9.70122E-07-1.54755E-19-3.06784E-18
 -1      3439 9.21678E-05-1.79839E-05-3.18027E-05-1.72606E-06-4.26211E-19-2.90806E-18
 -1      3440 9.28111E-05-1.90602E-05-3.15969E-05-1.73963E-06-4.62226E-19-2.79232E-18
 -1      3441 9.29719E-05-1.93280E-05-3.15461E-05-5.46935E-07-9.85828E-20-2.80888E-18
 -1      3442 9.38365E-05-2.09998E-05-3.12099E-05-3.30062E-06-1.02989E-18-2.73398E-18
 -1      3443 9.41505E-05-2.16841E-05-3.10707E-05-3.71931E-06-1.11911E-18-2.98712E-18
 -1      3444 9.45885E-05-2.26785E-05-3.08192E-05-3.26712E-06-1.13117E-18-2.73521E-18
 -1      3445 9.50381E-05-2.37116E-05-3.05704E-05-2.73522E-06-1.02060E-18-2.55285E-18
 -1      3446 9.53765E-05-2.47710E-05-3.02675E-05-1.91099E-06-9.89339E-19-2.26838E-18
 -1      3447 9.54915E-05-2.47984E-05-3.02905E-05-1.59062E-06-8.99818E-19-2.28152E-18
 -1      3448 9.47826E-05-2.30394E-05-3.07385E-05-2.52743E-06-7.95784E-19-2.49375E-18
 -1      3449 1.18508E-04-5.96692E-05-2.55427E-05 2.21938E-05 4.57464E-19 1.35816E-19
 -1      3450 1.06765E-04-5.28891E-05-2.28162E-05 2.83700E-05 1.96025E-18-1.77422E-18
 -1      3451 1.30597E-04-4.59204E-05-3.65463E-05-1.87628E-05-1.12933E-19-1.61212E-18
 -1      3452 1.34825E-04-5.50036E-05-3.39403E-05-1.00071E-05 3.31613E-19-2.28475E-18
 -1      3453 9.37708E-05-4.53323E-05-2.08247E-05 3.22373E-05 1.80709E-18-3.74357E-18
 -1      3454 7.92634E-05-3.45382E-05-1.90572E-05 3.01720E-05 8.97220E-19-3.32664E-18
 -1      3455 6.90445E-05-2.17877E-05-1.99432E-05-1.61674E-05-3.42205E-19-1.72879E-18
 -1      3456 9.53066E-05-2.46632E-05-3.02727E-05 2.24649E-06 1.42482E-18-1.78071E-18
 -1      3457 9.48328E-05-2.32596E-05-3.06915E-05 3.08445E-06 1.46097E-18-2.15352E-18
 -1      3458 9.45629E-05-2.25583E-05-3.08547E-05 2.84383E-06 1.21572E-18-2.27804E-18
 -1      3459 9.53823E-05-2.46374E-05-3.03120E-05 1.90045E-06 1.23727E-18-1.87701E-18
 -1      3460 9.57711E-05-2.89331E-05-2.86447E-05-1.01842E-06 8.01688E-21-1.63913E-18
 -1      3461 9.58019E-05-2.88713E-05-2.86817E-05-1.01703E-06 1.24065E-19-1.75717E-18
 -1      3462 9.59695E-05-2.90279E-05-2.86915E-05-9.41902E-07 9.09989E-20-1.77061E-18
 -1      3463 1.33021E-04-6.07547E-05-3.13835E-05 1.00411E-06 8.18101E-19-2.48286E-18
 -1      3464 1.27721E-04-6.13496E-05-2.80780E-05 1.21883E-05 4.40285E-19-1.08517E-18
 -1      3465 5.24595E-05-1.58592E-05-1.53257E-05 9.06052E-06-2.21234E-19-1.60142E-20
 -1      3466 5.55700E-05-1.53559E-05-1.71704E-05 3.40079E-06-7.67822E-19-5.57136E-19
 -1      3467 5.86743E-05-1.74555E-05-1.75672E-05 1.35686E-05-4.59873E-19-6.35857E-19
 -1      3468 1.01295E-04-4.70641E-05-2.30365E-05 2.62306E-05 1.91046E-18-1.78052E-18
 -1      3469 9.37560E-05-2.07881E-05-3.12542E-05 2.83340E-06 1.12067E-18-2.69541E-18
 -1      3470 7.15701E-05-2.75166E-05-1.87010E-05 2.64107E-05 8.03616E-19-3.34483E-18
 -1      3471 6.60278E-05-2.26082E-05-1.85630E-05 2.09049E-05 1.45954E-19-1.76666E-18
 -1      3472 1.11968E-04-3.08986E-05-3.48141E-05-2.03742E-05 2.24891E-18 1.06295E-18
 -1      3473 1.18030E-04-3.14790E-05-3.70626E-05-2.35459E-05 1.32558E-18-2.66565E-18
 -1      3474 1.25703E-04-3.93013E-05-3.70817E-05-2.22938E-05 3.81694E-19-1.84745E-18
 -1      3475 1.14674E-04-3.61334E-05-3.37635E-05-1.91038E-05 3.01886E-18 4.55250E-19
 -1      3476 9.61745E-05-2.81493E-05-2.91560E-05-4.97067E-07 6.11139E-19-1.81499E-18
 -1      3477 9.59452E-05-2.80843E-05-2.90879E-05-5.12380E-07 5.16907E-19-1.52240E-18
 -1      3478 9.59635E-05-2.77802E-05-2.92123E-05-2.34258E-07 6.88496E-19-1.39145E-18
 -1      3479 9.38544E-05-2.10421E-05-3.12171E-05 8.06454E-07 3.64132E-19-2.78330E-18
 -1      3480 9.38085E-05-2.09432E-05-3.12365E-05 2.47319E-07 1.16177E-19-2.68922E-18
 -1      3481 9.58977E-05-2.73762E-05-2.93743E-05 8.75687E-08 8.30972E-19-1.50764E-18
 -1      3482 9.58797E-05-2.69056E-05-2.95496E-05 5.47836E-07 9.74673E-19-1.64874E-18
 -1      3483 9.58670E-05-2.62664E-05-2.98286E-05 8.80386E-07 1.17315E-18-1.88860E-18
 -1      3484 9.61044E-05-2.74061E-05-2.94436E-05 3.58530E-08 7.18990E-19-1.98409E-18
 -1      3485 1.08271E-04-1.49651E-05-4.00288E-05-2.22567E-05-1.05069E-18-2.14829E-18
 -1      3486 1.24095E-04-4.35538E-05-3.46481E-05-1.74291E-05 1.16032E-18-8.93049E-19
 -1      3487 1.29306E-04-5.52578E-05-3.18021E-05-4.72787E-06 1.31445E-18-1.73006E-18
 -1      3488 9.35673E-05-2.05190E-05-3.13186E-05-2.85734E-06-8.98522E-19-2.66265E-18
 -1      3489 9.40845E-05-2.15201E-05-3.10970E-05-2.61660E-06-8.58776E-19-2.58186E-18
 -1      3490 9.33408E-05-2.00777E-05-3.14026E-05-2.28896E-06-5.98470E-19-2.54837E-18
 -1      3491 1.21085E-04-5.72437E-05-2.72232E-05 1.38767E-05 1.69113E-18-1.17511E-18
 -1      3492 9.60700E-05-2.88858E-05-2.87957E-05-9.23647E-07 1.85462E-19-1.93826E-18
 -1      3493 8.11079E-05-3.21332E-05-2.08328E-05 2.54345E-05 9.57200E-19-3.11189E-18
 -1      3494 5.94854E-05-1.84997E-05-1.74471E-05-1.18635E-05-1.29169E-19-1.44946E-18
 -1      3495 7.26257E-05-2.00429E-05-2.24811E-05-1.27849E-05-5.88264E-19-1.09693E-18
 -1      3496 9.40787E-05-2.15015E-05-3.11175E-05 1.75825E-06 7.31763E-19-2.75476E-18
 -1      3497 9.39424E-05-2.12133E-05-3.11765E-05 1.24427E-06 5.23299E-19-2.78694E-18
 -1      3498 9.45999E-05-2.23819E-05-3.09337E-05 8.23575E-07 3.77579E-19-2.62501E-18
 -1      3499 1.19604E-04-4.09525E-05-3.36545E-05-1.73832E-05 2.07498E-18-7.44264E-20
 -1      3500 6.85813E-05-1.68785E-05-2.19434E-05-8.29056E-06 1.00863E-19-7.09122E-19
 -1      3501 5.81226E-05-1.57536E-05-1.79891E-05-5.19189E-06-5.06820E-19-1.05535E-18
 -1      3502 9.61422E-05-2.91204E-05-2.87233E-05-8.43559E-07 8.76454E-20-1.99343E-18
 -1      3503 9.61965E-05-2.90656E-05-2.87681E-05-8.47332E-07 6.98399E-21-2.05243E-18
 -1      3504 9.63323E-05-2.70961E-05-2.96674E-05-1.75035E-07-6.23471E-19-1.55828E-18
 -1      3505 9.64179E-05-2.75963E-05-2.95010E-05 1.21585E-07-7.25713E-19-1.54884E-18
 -1      3506 1.06705E-04-4.94349E-05-2.47371E-05 2.19161E-05 2.16993E-18-3.75315E-19
 -1      3507 9.58376E-05-4.18321E-05-2.30786E-05 2.46596E-05 1.82280E-18-1.36920E-18
 -1      3508 6.43296E-05-1.57822E-05-2.08603E-05-3.80894E-06-2.33133E-19-1.46629E-18
 -1      3509 6.89361E-05-1.63418E-05-2.25866E-05-4.52393E-06 6.38120E-20-1.65632E-18
 -1      3510 9.65069E-05-2.80170E-05-2.93481E-05 3.01588E-07-7.07133E-19-1.53755E-18
 -1      3511 9.65181E-05-2.83409E-05-2.92225E-05 4.82069E-07-5.79877E-19-1.43808E-18
 -1      3512 9.65604E-05-2.76924E-05-2.95139E-05 1.39039E-07-6.84253E-19-1.51520E-18
 -1      3513 9.65264E-05-2.86044E-05-2.91057E-05 5.81775E-07-3.68213E-19-1.33214E-18
 -1      3514 9.64949E-05-2.88026E-05-2.90128E-05 6.75944E-07-5.05326E-20-1.38233E-18
 -1      3515 9.66561E-05-2.84301E-05-2.92402E-05 4.31471E-07-4.52862E-19-1.45237E-18
 -1      3516 9.64542E-05-2.89548E-05-2.89255E-05 7.17438E-07 4.62157E-20-1.49052E-18
 -1      3517 9.64003E-05-2.90653E-05-2.88584E-05 7.51461E-07 4.85312E-20-1.54373E-18
 -1      3518 9.66234E-05-2.88847E-05-2.90322E-05 5.86825E-07-1.34383E-19-1.52418E-18
 -1      3519 9.63328E-05-2.91407E-05-2.87946E-05 7.53751E-07 1.73802E-19-1.58318E-18
 -1      3520 9.62697E-05-2.91914E-05-2.87475E-05 7.48651E-07 1.48004E-19-1.61840E-18
 -1      3521 9.65158E-05-2.91391E-05-2.88775E-05 6.44673E-07 6.08248E-20-1.64802E-18
 -1      3522 9.61905E-05-2.92159E-05-2.87021E-05 7.26690E-07 2.04280E-19-1.59870E-18
 -1      3523 9.61262E-05-2.92273E-05-2.86701E-05 6.98239E-07 4.89974E-20-1.44350E-18
 -1      3524 9.63703E-05-2.92560E-05-2.87652E-05 6.38255E-07 2.00392E-19-1.52900E-18
 -1      3525 9.60452E-05-2.92191E-05-2.86389E-05 6.62993E-07-1.29353E-19-1.32730E-18
 -1      3526 9.59843E-05-2.92056E-05-2.86183E-05 6.22493E-07-1.05202E-19-1.04233E-18
 -1      3527 9.62116E-05-2.92819E-05-2.86861E-05 5.92972E-07 1.42532E-19-1.27335E-18
 -1      3528 9.59072E-05-2.91777E-05-2.85979E-05 5.81759E-07-4.18549E-19-1.04553E-18
 -1      3529 9.58521E-05-2.91493E-05-2.85857E-05 5.37123E-07-6.66443E-19-1.04905E-18
 -1      3530 9.60550E-05-2.92503E-05-2.86323E-05 5.27309E-07-3.16134E-19-9.45707E-19
 -1      3531 9.57821E-05-2.91104E-05-2.85734E-05 4.96227E-07-6.09816E-19-9.65182E-19
 -1      3532 9.57338E-05-2.90739E-05-2.85674E-05 4.52736E-07-3.79161E-19-1.08442E-18
 -1      3533 9.59093E-05-2.91843E-05-2.85980E-05 4.54418E-07-5.41405E-19-8.28198E-19
 -1      3534 9.56719E-05-2.90295E-05-2.85610E-05 4.15105E-07-4.38558E-19-1.13073E-18
 -1      3535 9.56303E-05-2.89889E-05-2.85595E-05 3.76205E-07-6.78187E-19-8.20436E-19
 -1      3536 9.57787E-05-2.90994E-05-2.85781E-05 3.83110E-07-3.91339E-19-9.31775E-19
 -1      3537 9.55762E-05-2.89421E-05-2.85577E-05 3.44057E-07-5.21494E-19-5.34009E-19
 -1      3538 9.55404E-05-2.88995E-05-2.85594E-05 3.12048E-07-3.87731E-19-3.46035E-19
 -1      3539 9.56639E-05-2.90052E-05-2.85691E-05 3.19107E-07-2.73745E-19-5.92861E-19
 -1      3540 9.54930E-05-2.88516E-05-2.85609E-05 2.86902E-07-3.27024E-19-5.49166E-19
 -1      3541 9.54617E-05-2.88077E-05-2.85651E-05 2.63380E-07-5.06565E-19-2.18744E-19
 -1      3542 9.55634E-05-2.89064E-05-2.85681E-05 2.66310E-07-3.28176E-19-6.57697E-19
 -1      3543 9.54191E-05-2.87588E-05-2.85691E-05 2.46336E-07-3.90429E-19 2.10704E-19
 -1      3544 9.53908E-05-2.87133E-05-2.85752E-05 2.32538E-07 2.48685E-19 3.33068E-19
 -1      3545 9.54742E-05-2.88047E-05-2.85732E-05 2.27473E-07 2.72824E-21-2.34690E-19
 -1      3546 9.53506E-05-2.86625E-05-2.85812E-05 2.24550E-07 6.43570E-19 2.44266E-19
 -1      3547 9.53234E-05-2.86142E-05-2.85888E-05 2.21656E-07 4.77902E-19 3.21972E-19
 -1      3548 9.53922E-05-2.86994E-05-2.85829E-05 2.04716E-07 3.21485E-19 5.59840E-19
 -1      3549 9.52829E-05-2.85598E-05-2.85964E-05 2.23788E-07 2.95056E-19 3.19553E-19
 -1      3550 9.52547E-05-2.85072E-05-2.86053E-05 2.33128E-07 6.85653E-19 1.96749E-19
 -1      3551 9.53123E-05-2.85878E-05-2.85963E-05 2.00095E-07 4.42912E-19 6.97177E-19
 -1      3552 9.52109E-05-2.84469E-05-2.86141E-05 2.46725E-07 5.54872E-19-3.03620E-19
 -1      3553 9.51795E-05-2.83880E-05-2.86241E-05 2.69936E-07 5.19604E-19-7.62779E-19
 -1      3554 9.52288E-05-2.84660E-05-2.86124E-05 2.16005E-07 1.82942E-19 3.40916E-19
 -1      3555 9.51290E-05-2.83198E-05-2.86338E-05 2.96764E-07 7.27296E-19-1.49081E-18
 -1      3556 9.50923E-05-2.82527E-05-2.86447E-05 3.35890E-07 3.81600E-19-1.61962E-18
 -1      3557 9.51353E-05-2.83293E-05-2.86307E-05 2.55492E-07 2.34848E-19-1.06767E-18
 -1      3558 9.50317E-05-2.81741E-05-2.86548E-05 3.78259E-07 6.23462E-20-1.43592E-18
 -1      3559 9.49874E-05-2.80972E-05-2.86663E-05 4.35807E-07-4.28952E-19-9.74801E-19
 -1      3560 9.50252E-05-2.81730E-05-2.86502E-05 3.22514E-07 2.81491E-19-1.81904E-18
 -1      3561 9.49133E-05-2.80067E-05-2.86762E-05 4.96672E-07-6.84442E-19-1.06592E-18
 -1      3562 9.48597E-05-2.79192E-05-2.86877E-05 5.75620E-07-4.72616E-19-6.94477E-19
 -1      3563 9.48917E-05-2.79928E-05-2.86698E-05 4.22187E-07-2.17283E-19-7.50715E-19
 -1      3564 9.47692E-05-2.78162E-05-2.86965E-05 6.58674E-07-1.41533E-19-6.00229E-19
 -1      3565 9.47054E-05-2.77190E-05-2.87072E-05 7.62414E-07 1.22334E-20-3.53813E-20
 -1      3566 9.47283E-05-2.77862E-05-2.86880E-05 5.61017E-07-2.49305E-19-5.49621E-19
 -1      3567 9.45966E-05-2.76049E-05-2.87136E-05 8.72167E-07-3.26877E-19-4.36538E-20
 -1      3568 9.45233E-05-2.75013E-05-2.87221E-05 1.00437E-06-2.26334E-19-6.74364E-20
 -1      3569 9.45300E-05-2.75536E-05-2.87024E-05 7.47127E-07-4.26159E-20-1.24271E-19
 -1      3570 9.43962E-05-2.73806E-05-2.87243E-05 1.14621E-06-6.88039E-19-1.25879E-18
 -1      3571 9.43170E-05-2.72780E-05-2.87288E-05 1.31059E-06-4.83665E-19-1.48923E-18
 -1      3572 9.42948E-05-2.73008E-05-2.87098E-05 9.90488E-07-1.12152E-18-1.30155E-18
 -1      3573 9.41749E-05-2.71601E-05-2.87244E-05 1.49075E-06-5.82339E-19-2.05746E-18
 -1      3574 9.40976E-05-2.70715E-05-2.87226E-05 1.69068E-06-8.33689E-19-2.72108E-18
 -1      3575 9.40257E-05-2.70413E-05-2.87056E-05 1.30313E-06-8.08337E-19-1.94503E-18
 -1      3576 9.39494E-05-2.69724E-05-2.87083E-05 1.91614E-06-5.38924E-19-2.19792E-18
 -1      3577 9.38885E-05-2.69190E-05-2.86973E-05 2.15396E-06-4.03687E-19-1.54954E-18
 -1      3578 9.37343E-05-2.68006E-05-2.86842E-05 1.69924E-06-5.55421E-19-2.33663E-18
 -1      3579 9.37514E-05-2.68642E-05-2.86697E-05 2.43205E-06-7.49522E-19-7.93134E-19
 -1      3580 9.37311E-05-2.68777E-05-2.86462E-05 2.70801E-06-1.02155E-18-5.41770E-19
 -1      3581 9.34455E-05-2.66205E-05-2.86385E-05 2.19502E-06-3.50113E-19-1.17902E-18
 -1      3582 9.36342E-05-2.69048E-05-2.86012E-05 3.04546E-06-1.44402E-18-7.36066E-19
 -1      3583 9.36921E-05-2.70301E-05-2.85623E-05 3.35589E-06-1.73801E-18-1.01381E-18
 -1      3584 9.32043E-05-2.65653E-05-2.85606E-05 2.80783E-06-1.11712E-18-1.08170E-18
 -1      3585 9.36816E-05-2.71918E-05-2.84966E-05 3.75678E-06-1.31837E-18-5.08253E-19
 -1      3586 9.38723E-05-2.74894E-05-2.84404E-05 4.09092E-06 4.12148E-20-9.79399E-19
 -1      3587 9.30840E-05-2.67279E-05-2.84426E-05 3.55393E-06-1.15856E-18 1.76597E-19
 -1      3588 9.40173E-05-2.78556E-05-2.83522E-05 4.55249E-06 1.20478E-18-1.76969E-18
 -1      3589 9.44162E-05-2.84018E-05-2.82799E-05 4.88685E-06 1.02773E-18-1.04846E-18
 -1      3590 9.31970E-05-2.72358E-05-2.82786E-05 4.44320E-06 3.72442E-20-1.50201E-18
 -1      3591 9.48153E-05-2.90593E-05-2.81718E-05 5.39130E-06 2.67174E-19-1.15589E-18
 -1      3592 9.55197E-05-2.99419E-05-2.80905E-05 5.67992E-06-6.04558E-20-8.50534E-19
 -1      3593 9.37074E-05-2.82558E-05-2.80685E-05 5.46804E-06 8.53870E-19-1.63059E-18
 -1      3594 9.63076E-05-3.09892E-05-2.79733E-05 6.17766E-06-4.78356E-19-5.01620E-20
 -1      3595 9.74291E-05-3.22929E-05-2.79010E-05 6.33571E-06-9.21704E-19-4.31132E-19
 -1      3596 9.48448E-05-2.99926E-05-2.78238E-05 6.58063E-06-1.39500E-19-1.86885E-18
 -1      3597 9.87755E-05-3.38196E-05-2.78008E-05 6.71636E-06-1.09311E-18-1.02276E-19
 -1      3598 1.00419E-04-3.55908E-05-2.77730E-05 6.59802E-06-6.39711E-19-1.76453E-19
 -1      3599 9.69131E-05-3.26693E-05-2.75796E-05 7.64647E-06-7.11260E-19-5.69370E-19
 -1      3600 1.02507E-04-3.76342E-05-2.77402E-05 6.65508E-06-4.39066E-19 1.71575E-19
 -1      3601 1.04712E-04-3.98172E-05-2.78173E-05 6.02531E-06 7.45372E-20 1.94799E-20
 -1      3602 1.00269E-04-3.64655E-05-2.74118E-05 8.36919E-06-3.24747E-19-4.13397E-19
 -1      3603 1.07766E-04-4.23532E-05-2.79463E-05 5.34952E-06 6.86552E-19-4.26141E-19
 -1      3604 1.10369E-04-4.45384E-05-2.82384E-05 3.77959E-06 1.23093E-18-5.63389E-19
 -1      3605 1.05319E-04-4.14793E-05-2.74595E-05 8.25181E-06 3.55578E-19-2.40676E-19
 -1      3606 1.14115E-04-4.69236E-05-2.86981E-05 1.97921E-06 1.82342E-18-1.41967E-18
 -1      3607 1.16789E-04-4.85342E-05-2.93350E-05-7.53577E-07 1.86677E-18-1.27826E-18
 -1      3608 1.12106E-04-4.67525E-05-2.80028E-05 5.97604E-06 9.82401E-19-1.68189E-18
 -1      3609 1.24507E-04-4.71204E-05-3.30978E-05-1.39419E-05 1.64596E-18-7.17794E-20
 -1      3610 9.58906E-05-2.91530E-05-2.86007E-05-7.07561E-07 5.06199E-19-1.85197E-18
 -1      3611 9.59413E-05-2.91610E-05-2.86193E-05-7.52280E-07 1.37039E-19-1.79068E-18
 -1      3612 9.59087E-05-2.57158E-05-3.00799E-05-8.98390E-07-6.57677E-19-1.97682E-18
 -1      3613 9.61174E-05-2.64543E-05-2.98633E-05-4.57458E-07-4.95836E-19-1.71422E-18
 -1      3614 9.62634E-05-2.65661E-05-2.98664E-05-3.31540E-07-5.26534E-19-1.79177E-18
 -1      3615 9.60154E-05-2.91650E-05-2.86494E-05-7.90780E-07 9.19478E-20-1.84643E-18
 -1      3616 9.60697E-05-2.91486E-05-2.86790E-05-8.21484E-07 2.33256E-19-1.78694E-18
 -1      3617 9.61268E-05-2.92305E-05-2.86717E-05-6.92732E-07 5.57156E-20-1.74647E-18
 -1      3618 9.56724E-05-2.90414E-05-2.85549E-05-5.16321E-07 2.46704E-19-1.32047E-18
 -1      3619 9.57116E-05-2.90725E-05-2.85595E-05-5.65330E-07 3.19702E-19-1.18629E-18
 -1      3620 9.55831E-05-2.89661E-05-2.85490E-05-4.28760E-07-2.59300E-19-6.72595E-19
 -1      3621 9.56165E-05-2.90014E-05-2.85494E-05-4.72941E-07 1.52430E-19-9.96073E-19
 -1      3622 9.57337E-05-2.90766E-05-2.85686E-05-4.51077E-07-4.64226E-20-7.24427E-19
 -1      3623 9.55067E-05-2.88865E-05-2.85504E-05-3.54496E-07-5.95829E-19-7.97968E-19
 -1      3624 9.55348E-05-2.89238E-05-2.85478E-05-3.91330E-07-2.82038E-19-8.31838E-19
 -1      3625 9.56305E-05-2.89910E-05-2.85608E-05-3.75672E-07-3.12666E-19-6.19043E-19
 -1      3626 9.54409E-05-2.88047E-05-2.85574E-05-2.96981E-07-3.51078E-19-1.15826E-18
 -1      3627 9.54648E-05-2.88432E-05-2.85525E-05-3.24723E-07-3.97124E-19-1.03299E-18
 -1      3628 9.55412E-05-2.89011E-05-2.85608E-05-3.12684E-07-2.44342E-19-1.09498E-18
 -1      3629 9.53829E-05-2.87206E-05-2.85686E-05-2.58806E-07-2.22719E-19-1.59612E-18
 -1      3630 9.54039E-05-2.87607E-05-2.85619E-05-2.76118E-07-1.21520E-19-1.34377E-18
 -1      3631 9.54630E-05-2.88086E-05-2.85668E-05-2.65271E-07-6.12529E-20-1.37316E-18
 -1      3632 9.53290E-05-2.86324E-05-2.85834E-05-2.42245E-07-1.30793E-19-1.95933E-18
 -1      3633 9.53487E-05-2.86749E-05-2.85751E-05-2.47883E-07-3.33139E-19-1.62647E-18
 -1      3634 9.53925E-05-2.87128E-05-2.85774E-05-2.35826E-07-1.61285E-19-1.52746E-18
 -1      3635 9.52749E-05-2.85363E-05-2.86014E-05-2.49755E-07-2.37128E-19-1.63806E-18
 -1      3636 9.52951E-05-2.85832E-05-2.85916E-05-2.42323E-07-2.72335E-21-2.02197E-18
 -1      3637 9.53250E-05-2.86111E-05-2.85918E-05-2.26498E-07 1.24865E-21-2.17726E-18
 -1      3638 9.52154E-05-2.84275E-05-2.86225E-05-2.84307E-07 2.78103E-20-1.37974E-18
 -1      3639 9.52382E-05-2.84812E-05-2.86111E-05-2.62091E-07-3.84622E-20-1.47201E-18
 -1      3640 9.52550E-05-2.84993E-05-2.86095E-05-2.39596E-07-1.26478E-19-2.35195E-18
 -1      3641 9.51439E-05-2.82996E-05-2.86466E-05-3.49589E-07 1.52708E-19-1.19813E-18
 -1      3642 9.51722E-05-2.83633E-05-2.86336E-05-3.10454E-07 2.03521E-19-9.84290E-19
 -1      3643 9.51758E-05-2.83714E-05-2.86301E-05-2.77841E-07-1.64309E-19-1.42051E-18
 -1      3644 9.50527E-05-2.81451E-05-2.86737E-05-4.50076E-07-2.91566E-19-2.89073E-19
 -1      3645 9.50899E-05-2.82225E-05-2.86591E-05-3.91421E-07-5.17645E-20-6.09925E-19
 -1      3646 9.50796E-05-2.82202E-05-2.86533E-05-3.44452E-07-2.17823E-19-9.88499E-19
 -1      3647 9.49317E-05-2.79546E-05-2.87035E-05-5.90923E-07-6.54552E-19 1.66697E-19
 -1      3648 9.49822E-05-2.80503E-05-2.86872E-05-5.09729E-07-3.12018E-19 3.88388E-19
 -1      3649 9.49565E-05-2.80370E-05-2.86786E-05-4.43087E-07-7.24745E-19-1.59863E-19
 -1      3650 9.47676E-05-2.77171E-05-2.87351E-05-7.77654E-07-9.59481E-19-5.04697E-19
 -1      3651 9.48378E-05-2.78366E-05-2.87175E-05-6.70631E-07-7.36635E-19-4.29058E-20
 -1      3652 9.47942E-05-2.78114E-05-2.87051E-05-5.77559E-07-5.50140E-19 3.25859E-19
 -1      3653 9.45433E-05-2.74192E-05-2.87668E-05-1.01555E-06-8.98811E-19 1.82403E-19
 -1      3654 9.46414E-05-2.75691E-05-2.87487E-05-8.79433E-07-6.86959E-19-1.93544E-20
 -1      3655 9.45771E-05-2.75313E-05-2.87312E-05-7.51279E-07-9.29580E-19-2.70738E-19
 -1      3656 9.42356E-05-2.70452E-05-2.87957E-05-1.30861E-06-4.02325E-19-5.61932E-19
 -1      3657 9.43730E-05-2.72335E-05-2.87784E-05-1.14068E-06-8.44917E-19-2.10977E-19
 -1      3658 9.42849E-05-2.71826E-05-2.87543E-05-9.66314E-07-5.28933E-19-6.84218E-19
 -1      3659 9.38135E-05-2.65764E-05-2.88165E-05-1.65805E-06 3.61387E-19-1.43152E-18
 -1      3660 9.40062E-05-2.68126E-05-2.88027E-05-1.45689E-06 2.68764E-19-7.55686E-19
 -1      3661 9.38916E-05-2.67489E-05-2.87700E-05-1.22194E-06-4.15065E-20-1.40382E-18
 -1      3662 9.32356E-05-2.59917E-05-2.88208E-05-2.06009E-06-2.52373E-19-9.22128E-19
 -1      3663 9.35050E-05-2.62864E-05-2.88148E-05-1.82668E-06-2.05261E-19-1.44593E-18
 -1      3664 9.33629E-05-2.62120E-05-2.87712E-05-1.51255E-06 7.88081E-20-8.10287E-19
 -1      3665 9.24468E-05-2.52675E-05-2.87953E-05-2.50314E-06-1.69199E-19-1.67831E-19
 -1      3666 9.28223E-05-2.56326E-05-2.88041E-05-2.24230E-06-6.24472E-20-5.52519E-19
 -1      3667 9.26542E-05-2.55520E-05-2.87473E-05-1.82487E-06-5.58481E-19-7.11725E-20
 -1      3668 9.13748E-05-2.43810E-05-2.87190E-05-2.96468E-06-2.48717E-19-5.52290E-19
 -1      3669 9.18950E-05-2.48278E-05-2.87537E-05-2.68657E-06-1.98691E-20 8.11658E-20
 -1      3670 9.17077E-05-2.47487E-05-2.86818E-05-2.13450E-06-1.18605E-19 2.49254E-19
 -1      3671 8.99265E-05-2.33145E-05-2.85599E-05-3.40874E-06-6.10534E-19-1.15900E-19
 -1      3672 9.06415E-05-2.38510E-05-2.86378E-05-3.12997E-06-4.36751E-19-4.63519E-19
 -1      3673 9.04491E-05-2.37849E-05-2.85498E-05-2.40229E-06-3.76704E-19 9.05821E-20
 -1      3674 8.79844E-05-2.20647E-05-2.82693E-05-3.78623E-06-2.32502E-19-4.85794E-19
 -1      3675 8.89566E-05-2.26903E-05-2.84168E-05-3.52902E-06-2.52949E-19 2.91714E-19
 -1      3676 8.87834E-05-2.26510E-05-2.83141E-05-2.57152E-06-3.20808E-19 9.35412E-19
 -1      3677 8.54030E-05-2.06568E-05-2.77741E-05-4.04287E-06-7.92505E-20-8.55206E-19
 -1      3678 8.67072E-05-2.13539E-05-2.80311E-05-3.82946E-06-8.19670E-20-9.93184E-19
 -1      3679 8.65897E-05-2.13531E-05-2.79196E-05-2.56824E-06 4.81496E-19 2.61248E-19
 -1      3680 8.19980E-05-1.91684E-05-2.69641E-05-4.14726E-06-1.15210E-18-5.30543E-19
 -1      3681 8.37247E-05-1.98873E-05-2.73911E-05-3.98259E-06-4.07168E-19-8.68073E-19
 -1      3682 8.37081E-05-1.99206E-05-2.72840E-05-2.31080E-06-5.44387E-19-1.66483E-19
 -1      3683 7.75244E-05-1.77521E-05-2.56640E-05-4.13234E-06-8.43600E-19-3.98157E-19
 -1      3684 7.97932E-05-1.83899E-05-2.63606E-05-3.96147E-06-9.93269E-19-3.60600E-19
 -1      3685 7.99470E-05-1.84448E-05-2.62829E-05-1.73612E-06-1.01359E-18-1.48585E-19
 -1      3686 7.21418E-05-1.67378E-05-2.37773E-05-4.34194E-06-3.38251E-19-1.38104E-18
 -1      3687 7.49845E-05-1.71191E-05-2.48715E-05-3.99236E-06-5.68200E-19-7.04621E-19
 -1      3688 7.53420E-05-1.70635E-05-2.48575E-05-8.79986E-07-4.69710E-19-1.14732E-18
 -1      3689 6.94788E-05-1.57570E-05-2.28641E-05 3.87985E-08-1.92616E-19-1.24765E-18
 -1      3690 6.08365E-05-1.57716E-05-1.91944E-05 1.23239E-07-5.27212E-19-9.93398E-19
 -1      3691 9.63433E-05-2.87210E-05-2.89831E-05-7.43762E-07 5.38055E-19-2.03687E-18
 -1      3692 9.63739E-05-2.85227E-05-2.90745E-05-6.33443E-07 4.27856E-19-2.09249E-18
 -1      3693 9.44028E-05-2.22084E-05-3.09547E-05 2.54757E-06 1.11978E-18-2.52342E-18
 -1      3694 9.41879E-05-2.17251E-05-3.10594E-05 2.12384E-06 9.45182E-19-2.67987E-18
 -1      3695 9.47502E-05-2.27735E-05-3.08325E-05 1.53336E-06 7.40119E-19-2.57913E-18
 -1      3696 9.49418E-05-2.33493E-05-3.06731E-05 2.10531E-06 1.14701E-18-2.26667E-18
 -1      3697 7.15370E-05-2.26224E-05-2.09401E-05 1.79827E-05 1.71468E-19-1.28128E-18
 -1      3698 6.50212E-05-2.00221E-05-1.90807E-05 1.67875E-05-3.63255E-19-1.77109E-19
 -1      3699 6.43587E-05-1.78691E-05-1.99811E-05 1.15579E-05-2.78472E-19 2.59179E-19
 -1      3700 1.21204E-04-5.54445E-05-2.84014E-05 8.06078E-06 2.50237E-18-2.19295E-18
 -1      3701 1.14918E-04-5.28863E-05-2.63296E-05 1.58894E-05 2.25251E-18-9.75904E-19
 -1      3702 9.45194E-05-2.22002E-05-3.09769E-05 3.83768E-09 1.07400E-19-2.51635E-18
 -1      3703 9.37996E-05-2.09389E-05-3.12378E-05-2.21686E-07 5.05575E-20-2.49869E-18
 -1      3704 9.57752E-05-2.91069E-05-2.85709E-05-6.11988E-07 4.61061E-19-1.35491E-18
 -1      3705 9.58204E-05-2.91296E-05-2.85814E-05-6.61858E-07 7.23291E-19-1.41020E-18
 -1      3706 9.59842E-05-2.92087E-05-2.86198E-05-6.18510E-07 4.46622E-19-1.69345E-18
 -1      3707 9.58519E-05-2.91524E-05-2.85870E-05-5.34400E-07 3.19065E-19-1.04966E-18
 -1      3708 9.62584E-05-2.89874E-05-2.88311E-05-8.39820E-07 4.70640E-20-1.87349E-18
 -1      3709 9.63063E-05-2.88744E-05-2.88960E-05-7.98627E-07 3.49273E-19-2.06670E-18
 -1      3710 9.64042E-05-2.90682E-05-2.88602E-05-7.42669E-07 1.46654E-19-2.05391E-18
 -1      3711 8.81398E-05-3.59722E-05-2.23140E-05 2.51238E-05 1.69921E-18-1.99696E-18
 -1      3712 8.03780E-05-2.93967E-05-2.18810E-05 2.18822E-05 1.17967E-18-1.74241E-18
 -1      3713 9.45758E-05-3.84568E-05-2.39367E-05 2.11562E-05 2.40861E-18-5.66969E-19
 -1      3714 1.21365E-04-4.88634E-05-3.11773E-05-7.83429E-06 2.30059E-18 2.95524E-19
 -1      3715 1.25853E-04-5.16505E-05-3.19291E-05-7.86199E-06 1.68649E-18-4.44001E-19
 -1      3716 1.25398E-04-5.53053E-05-2.98049E-05 1.16825E-06 2.55393E-18-1.14071E-18
 -1      3717 1.19834E-04-4.92114E-05-3.01253E-05-4.19400E-06 1.98119E-18-1.03726E-18
 -1      3718 1.19519E-04-5.25042E-05-2.87704E-05 4.28473E-06 2.76482E-18-1.11407E-18
 -1      3719 6.24447E-05-1.52986E-05-2.00709E-05 4.31569E-06-6.29960E-19-4.20843E-19
 -1      3720 1.09277E-04-4.84539E-05-2.60673E-05 1.60054E-05 1.81109E-18-6.73391E-19
 -1      3721 9.62716E-05-2.91947E-05-2.87492E-05-7.41587E-07 1.83714E-19-1.81501E-18
 -1      3722 9.56123E-05-2.50023E-05-3.02674E-05-1.17802E-06-7.22588E-19-2.17941E-18
 -1      3723 9.57555E-05-2.51450E-05-3.02558E-05-9.01072E-07-4.45305E-19-2.08608E-18
 -1      3724 9.53291E-05-2.42340E-05-3.04732E-05-1.60324E-06-6.99531E-19-2.38726E-18
 -1      3725 9.65018E-05-2.88049E-05-2.90145E-05-6.65306E-07 4.63042E-19-2.14719E-18
 -1      3726 9.59926E-05-2.63796E-05-2.98431E-05 6.14942E-07 9.69358E-19-2.04509E-18
 -1      3727 9.58063E-05-2.56431E-05-3.00669E-05 1.13066E-06 1.17680E-18-1.99711E-18
 -1      3728 9.36939E-05-2.07291E-05-3.12738E-05-7.50306E-07-2.28365E-19-2.62866E-18
 -1      3729 9.50371E-05-2.33207E-05-3.07447E-05 1.93675E-07 8.66078E-20-2.47954E-18
 -1      3730 9.50376E-05-2.33137E-05-3.07466E-05-1.87851E-07-1.43136E-20-2.36009E-18
 -1      3731 9.35067E-05-2.04073E-05-3.13422E-05-1.18679E-06-3.81565E-19-2.68804E-18
 -1      3732 9.34730E-05-2.03298E-05-3.13526E-05-1.77477E-06-5.50116E-19-2.62006E-18
 -1      3733 9.40079E-05-2.13060E-05-3.11547E-05-1.71642E-06-5.98338E-19-2.55306E-18
 -1      3734 9.43499E-05-2.18857E-05-3.10401E-05-8.08469E-07-3.05118E-19-2.43957E-18
 -1      3735 9.45452E-05-2.24757E-05-3.08933E-05-2.32872E-06-7.96174E-19-2.52051E-18
 -1      3736 9.49917E-05-2.34671E-05-3.06548E-05-1.85181E-06-7.79262E-19-2.49246E-18
 -1      3737 9.51399E-05-2.36776E-05-3.06217E-05-1.43705E-06-5.53477E-19-2.26196E-18
 -1      3738 9.43336E-05-2.19824E-05-3.10001E-05-1.94620E-06-7.05189E-19-2.36031E-18
 -1      3739 9.63648E-05-2.82594E-05-2.91921E-05-5.08423E-07 4.83275E-19-2.01015E-18
 -1      3740 9.63602E-05-2.79383E-05-2.93176E-05-2.98246E-07 6.66980E-19-2.04952E-18
 -1      3741 9.65293E-05-2.83419E-05-2.92239E-05-4.69602E-07 5.66944E-19-2.33283E-18
 -1      3742 8.37890E-05-2.95157E-05-2.32389E-05 1.93059E-05 1.70598E-18-1.67130E-18
 -1      3743 7.76584E-05-2.61082E-05-2.19481E-05 1.96139E-05 9.99649E-19-1.59116E-18
 -1      3744 7.51107E-05-2.32923E-05-2.22875E-05 1.61824E-05 8.26850E-19-5.15087E-19
 -1      3745 9.51197E-05-2.35485E-05-3.06822E-05 8.21236E-07 4.51115E-19-2.52354E-18
 -1      3746 9.50610E-05-2.33863E-05-3.07240E-05 4.78061E-07 2.78852E-19-2.51388E-18
 -1      3747 9.55699E-05-2.43531E-05-3.05054E-05 2.45107E-07 1.84110E-19-2.27856E-18
 -1      3748 9.55726E-05-2.50249E-05-3.02353E-05 1.38784E-06 1.16034E-18-2.06207E-18
 -1      3749 9.52589E-05-2.41402E-05-3.04867E-05 1.82877E-06 1.15111E-18-2.19842E-18
 -1      3750 9.51582E-05-2.37921E-05-3.05849E-05 1.60280E-06 1.03194E-18-2.38029E-18
 -1      3751 9.56957E-05-2.51322E-05-3.02377E-05 1.09235E-06 9.67196E-19-2.24269E-18
 -1      3752 1.19223E-04-5.12325E-05-2.92484E-05 1.28746E-06 2.36446E-18-1.14694E-18
 -1      3753 9.67607E-05-2.82673E-05-2.93523E-05 2.83542E-07-5.60945E-19-1.34537E-18
 -1      3754 9.67719E-05-2.85700E-05-2.92316E-05 3.98123E-07-2.83659E-19-1.52397E-18
 -1      3755 9.67665E-05-2.88124E-05-2.91210E-05 4.45108E-07-2.60013E-19-1.71632E-18
 -1      3756 9.67270E-05-2.89928E-05-2.90300E-05 5.01651E-07-2.12542E-19-1.77655E-18
 -1      3757 9.68549E-05-2.86677E-05-2.92237E-05 3.17595E-07-4.00113E-19-1.47123E-18
 -1      3758 9.66729E-05-2.91269E-05-2.89464E-05 5.16177E-07 7.28549E-20-1.68112E-18
 -1      3759 9.66061E-05-2.92212E-05-2.88793E-05 5.33402E-07 1.94503E-19-1.59042E-18
 -1      3760 9.67938E-05-2.90668E-05-2.90273E-05 3.90632E-07-3.46648E-21-1.23600E-18
 -1      3761 9.65261E-05-2.92816E-05-2.88176E-05 5.26327E-07 1.77786E-19-1.41416E-18
 -1      3762 9.64474E-05-2.93174E-05-2.87694E-05 5.18235E-07 2.31086E-19-1.40281E-18
 -1      3763 9.66597E-05-2.92775E-05-2.88800E-05 4.10965E-07 2.24047E-19-1.10236E-18
 -1      3764 9.63567E-05-2.93289E-05-2.87250E-05 4.98398E-07 3.74525E-19-1.38726E-18
 -1      3765 9.62760E-05-2.93269E-05-2.86915E-05 4.75548E-07 9.50374E-20-1.22215E-18
 -1      3766 9.64897E-05-2.93593E-05-2.87722E-05 3.96769E-07 2.28504E-19-1.44060E-18
 -1      3767 9.61844E-05-2.93075E-05-2.86607E-05 4.49108E-07-1.40566E-19-1.01267E-18
 -1      3768 9.61074E-05-2.92818E-05-2.86384E-05 4.19183E-07-1.79657E-19-7.68012E-19
 -1      3769 9.63086E-05-2.93569E-05-2.86955E-05 3.62703E-07 2.18587E-19-1.16069E-18
 -1      3770 9.60212E-05-2.92444E-05-2.86181E-05 3.91026E-07-5.35079E-19-9.21996E-19
 -1      3771 9.59511E-05-2.92050E-05-2.86043E-05 3.59092E-07-5.46797E-19-1.01297E-18
 -1      3772 9.61320E-05-2.93021E-05-2.86432E-05 3.18929E-07-3.65499E-19-6.98830E-19
 -1      3773 9.58730E-05-2.91577E-05-2.85919E-05 3.32003E-07-4.78003E-19-9.87928E-19
 -1      3774 9.58111E-05-2.91114E-05-2.85845E-05 3.01663E-07-2.56044E-19-9.66582E-19
 -1      3775 9.59692E-05-2.92174E-05-2.86095E-05 2.72765E-07-4.31459E-19-1.18895E-18
 -1      3776 9.57417E-05-2.90592E-05-2.85780E-05 2.77423E-07 1.05218E-20-1.09130E-18
 -1      3777 9.56875E-05-2.90093E-05-2.85754E-05 2.51069E-07-5.56800E-21-1.06059E-18
 -1      3778 9.58232E-05-2.91166E-05-2.85899E-05 2.29291E-07-1.77830E-19-1.17953E-18
 -1      3779 9.56262E-05-2.89548E-05-2.85734E-05 2.31166E-07-1.55148E-19-7.86991E-19
 -1      3780 9.55786E-05-2.89030E-05-2.85744E-05 2.10471E-07-3.40035E-19-8.32695E-19
 -1      3781 9.56937E-05-2.90074E-05-2.85809E-05 1.91244E-07-3.14686E-20-9.12805E-19
 -1      3782 9.55239E-05-2.88473E-05-2.85758E-05 1.95812E-07-5.81816E-20-2.22359E-19
 -1      3783 9.54811E-05-2.87939E-05-2.85795E-05 1.81956E-07 4.61538E-19-5.61179E-20
 -1      3784 9.55789E-05-2.88940E-05-2.85801E-05 1.61462E-07 2.26298E-19-9.76876E-20
 -1      3785 9.54304E-05-2.87363E-05-2.85835E-05 1.73215E-07 6.31263E-19 1.76705E-19
 -1      3786 9.53900E-05-2.86802E-05-2.85892E-05 1.67221E-07 5.90936E-19 4.72654E-19
 -1      3787 9.54747E-05-2.87768E-05-2.85853E-05 1.41431E-07 5.95292E-19 1.25090E-19
 -1      3788 9.53404E-05-2.86192E-05-2.85953E-05 1.65141E-07 3.77185E-19 4.30711E-19
 -1      3789 9.52997E-05-2.85589E-05-2.86026E-05 1.68086E-07 1.89927E-19 9.46815E-20
 -1      3790 9.53756E-05-2.86538E-05-2.85952E-05 1.32606E-07 5.48690E-19 5.15444E-20
 -1      3791 9.52475E-05-2.84923E-05-2.86101E-05 1.73605E-07-2.32217E-19 1.44840E-19
 -1      3792 9.52034E-05-2.84254E-05-2.86187E-05 1.86786E-07-3.24981E-19-4.86741E-19
 -1      3793 9.52750E-05-2.85212E-05-2.86087E-05 1.36646E-07-1.69194E-19 8.74843E-20
 -1      3794 9.51448E-05-2.83504E-05-2.86272E-05 2.01179E-07-5.21297E-19-4.44878E-19
 -1      3795 9.50940E-05-2.82743E-05-2.86366E-05 2.26252E-07-2.14466E-19-1.04127E-18
 -1      3796 9.51654E-05-2.83737E-05-2.86246E-05 1.55669E-07-4.63769E-19-5.31280E-19
 -1      3797 9.50245E-05-2.81880E-05-2.86456E-05 2.51283E-07 3.28289E-19-1.48695E-18
 -1      3798 9.49637E-05-2.81002E-05-2.86553E-05 2.90394E-07 2.49545E-19-1.35591E-18
 -1      3799 9.50387E-05-2.82056E-05-2.86419E-05 1.92555E-07-2.81951E-19-4.50403E-19
 -1      3800 9.48787E-05-2.79999E-05-2.86641E-05 3.28493E-07 1.34913E-19-1.70725E-18
 -1      3801 9.48043E-05-2.78983E-05-2.86735E-05 3.84404E-07-1.57636E-19-1.17066E-18
 -1      3802 9.48859E-05-2.80107E-05-2.86595E-05 2.51270E-07 5.33130E-20-1.40845E-18
 -1      3803 9.46992E-05-2.77819E-05-2.86811E-05 4.38883E-07-4.03326E-19-2.48219E-19
 -1      3804 9.46084E-05-2.76655E-05-2.86892E-05 5.15107E-07 5.47709E-20-2.53570E-19
 -1      3805 9.46977E-05-2.77839E-05-2.86756E-05 3.37288E-07 4.67182E-19-1.56839E-18
 -1      3806 9.44787E-05-2.75323E-05-2.86942E-05 5.90438E-07-2.76846E-19-5.74901E-19
 -1      3807 9.43695E-05-2.74020E-05-2.86995E-05 6.91387E-07-6.88478E-19-8.85235E-19
 -1      3808 9.44650E-05-2.75216E-05-2.86878E-05 4.58110E-07-4.26933E-19-9.48909E-19
 -1      3809 9.42119E-05-2.72534E-05-2.87001E-05 7.93554E-07-9.85673E-19-1.67498E-18
 -1      3810 9.40842E-05-2.71131E-05-2.87007E-05 9.24714E-07-1.09077E-18-1.72038E-18
 -1      3811 9.41799E-05-2.72238E-05-2.86927E-05 6.23970E-07-9.08925E-19-1.52309E-18
 -1      3812 9.38972E-05-2.69543E-05-2.86942E-05 1.06166E-06-8.60098E-19-1.76355E-18
 -1      3813 9.37545E-05-2.68128E-05-2.86874E-05 1.22976E-06-7.65562E-19-1.74561E-18
 -1      3814 9.38373E-05-2.68963E-05-2.86858E-05 8.48741E-07-1.28072E-18-1.70705E-18
 -1      3815 9.35401E-05-2.66544E-05-2.86705E-05 1.41191E-06-5.71132E-19-2.19182E-18
 -1      3816 9.33912E-05-2.65271E-05-2.86531E-05 1.62507E-06-8.63833E-20-1.81651E-18
 -1      3817 9.34374E-05-2.65538E-05-2.86609E-05 1.15109E-06-6.89014E-19-1.40344E-18
 -1      3818 9.31571E-05-2.63875E-05-2.86214E-05 1.86590E-06 1.92637E-19-1.97928E-18
 -1      3819 9.30190E-05-2.62997E-05-2.85895E-05 2.13362E-06-2.67370E-19-1.44946E-18
 -1      3820 9.29890E-05-2.62238E-05-2.86102E-05 1.55583E-06 1.52582E-19-1.83297E-18
 -1      3821 9.27817E-05-2.62080E-05-2.85381E-05 2.45007E-06-6.21819E-19-1.29088E-18
 -1      3822 9.26837E-05-2.61975E-05-2.84872E-05 2.78284E-06-6.37154E-19-2.85608E-19
 -1      3823 9.25153E-05-2.59526E-05-2.85240E-05 2.09533E-06-1.88685E-19-5.30617E-19
 -1      3824 9.24730E-05-2.61970E-05-2.84106E-05 3.19531E-06-9.23135E-19 2.55142E-19
 -1      3825 9.24613E-05-2.63183E-05-2.83368E-05 3.60331E-06-8.99836E-19 3.81958E-19
 -1      3826 9.20606E-05-2.58114E-05-2.83913E-05 2.81051E-06-4.16532E-19 3.30723E-20
 -1      3827 9.23260E-05-2.64705E-05-2.82295E-05 4.13445E-06-1.15595E-18-9.13712E-20
 -1      3828 9.24699E-05-2.67981E-05-2.81304E-05 4.62445E-06-1.39973E-19-7.70162E-19
 -1      3829 9.17010E-05-2.59050E-05-2.82002E-05 3.75063E-06-1.34571E-18 1.06986E-18
 -1      3830 9.24864E-05-2.71866E-05-2.79889E-05 5.29541E-06 5.03910E-19-1.39818E-18
 -1      3831 9.28854E-05-2.78181E-05-2.78656E-05 5.86381E-06 2.36735E-19-1.51064E-18
 -1      3832 9.15579E-05-2.63811E-05-2.79405E-05 4.96972E-06-4.96821E-19-2.18802E-19
 -1      3833 9.31690E-05-2.85519E-05-2.76905E-05 6.68626E-06 2.28835E-20-2.36952E-18
 -1      3834 9.39610E-05-2.96091E-05-2.75522E-05 7.30463E-06-1.59537E-19-2.18092E-18
 -1      3835 9.18166E-05-2.74398E-05-2.76070E-05 6.51670E-06-3.18103E-19-1.70603E-18
 -1      3836 9.46824E-05-3.08254E-05-2.73536E-05 8.26041E-06-1.03378E-19-2.04316E-18
 -1      3837 9.60485E-05-3.24406E-05-2.72248E-05 8.84444E-06-2.02191E-19-1.44992E-18
 -1      3838 9.27526E-05-2.93431E-05-2.72065E-05 8.41324E-06 3.13869E-19-2.98753E-18
 -1      3839 9.74541E-05-3.42983E-05-2.70327E-05 9.85309E-06-1.77496E-19-1.10675E-18
 -1      3840 9.95806E-05-3.65941E-05-2.69630E-05 1.02282E-05 4.04144E-20-1.19622E-18
 -1      3841 9.47718E-05-3.24163E-05-2.67730E-05 1.06029E-05 2.35277E-19-2.68659E-18
 -1      3842 1.01965E-04-3.90934E-05-2.68447E-05 1.09661E-05-1.75256E-19-1.02784E-18
 -1      3843 1.04804E-04-4.21838E-05-2.68795E-05 1.10099E-05 3.41798E-19-1.15961E-18
 -1      3844 9.85638E-05-3.70942E-05-2.63964E-05 1.28355E-05-2.72064E-19-2.27490E-18
 -1      3845 1.16081E-04-5.06002E-05-2.80113E-05 7.30899E-06 1.17922E-18-2.08125E-18
 -1      3846 9.62740E-05-2.75194E-05-2.94731E-05-7.65835E-08 6.20406E-19-1.96165E-18
 -1      3847 9.62049E-05-2.70243E-05-2.96419E-05 2.68628E-07 7.69892E-19-1.97487E-18
 -1      3848 9.64352E-05-2.75961E-05-2.95019E-05-1.07871E-07 6.88382E-19-1.96356E-18
 -1      3849 1.07913E-04-4.57111E-05-2.67235E-05 1.24922E-05 7.23489E-19-1.33707E-18
 -1      3850 1.01788E-04-4.19261E-05-2.54995E-05 1.72179E-05 2.81308E-19-7.75541E-19
 -1      3851 9.65235E-05-2.91577E-05-2.88713E-05-6.38741E-07 7.90830E-20-1.80815E-18
 -1      3852 9.65847E-05-2.90565E-05-2.89383E-05-6.15576E-07 2.18862E-19-1.85999E-18
 -1      3853 9.61857E-05-2.61117E-05-3.00335E-05-4.42523E-07-3.83786E-19-2.01761E-18
 -1      3854 9.64050E-05-2.68056E-05-2.98333E-05-1.49018E-07-3.61909E-19-1.88563E-18
 -1      3855 9.62171E-05-2.92871E-05-2.86834E-05-5.78634E-07-6.88945E-20-1.26304E-18
 -1      3856 9.62910E-05-2.92836E-05-2.87162E-05-6.04834E-07 1.52182E-19-1.27546E-18
 -1      3857 9.56682E-05-2.90040E-05-2.85693E-05-3.08981E-07-3.30381E-19-1.26079E-18
 -1      3858 9.57167E-05-2.90497E-05-2.85714E-05-3.40830E-07-2.99668E-19-1.01953E-18
 -1      3859 9.57828E-05-2.90985E-05-2.85779E-05-3.70830E-07-1.23287E-19-7.73106E-19
 -1      3860 9.58390E-05-2.91407E-05-2.85847E-05-4.07128E-07 1.90043E-19-6.72747E-19
 -1      3861 9.58091E-05-2.91125E-05-2.85856E-05-2.99681E-07-5.78374E-20-9.66807E-19
 -1      3862 9.54795E-05-2.88041E-05-2.85743E-05-2.22077E-07-1.80340E-19-1.62355E-18
 -1      3863 9.55167E-05-2.88532E-05-2.85703E-05-2.39700E-07 4.50499E-21-1.61529E-18
 -1      3864 9.53982E-05-2.86989E-05-2.85846E-05-2.01619E-07 8.07288E-20-1.90597E-18
 -1      3865 9.54326E-05-2.87503E-05-2.85785E-05-2.10326E-07-1.69701E-23-1.84264E-18
 -1      3866 9.54806E-05-2.87926E-05-2.85811E-05-1.84432E-07-1.05785E-19-2.06293E-18
 -1      3867 9.53188E-05-2.85864E-05-2.85989E-05-1.98967E-07 7.94582E-20-2.01413E-18
 -1      3868 9.53530E-05-2.86420E-05-2.85910E-05-1.97676E-07 2.60273E-19-2.01624E-18
 -1      3869 9.53896E-05-2.86769E-05-2.85914E-05-1.71023E-07 1.02343E-19-2.20270E-18
 -1      3870 9.52346E-05-2.84618E-05-2.86164E-05-2.16110E-07 7.26100E-20-2.20443E-18
 -1      3871 9.52717E-05-2.85240E-05-2.86069E-05-2.03624E-07 1.58568E-19-1.99869E-18
 -1      3872 9.52983E-05-2.85520E-05-2.86055E-05-1.72794E-07 5.47875E-20-1.96373E-18
 -1      3873 9.51381E-05-2.83183E-05-2.86365E-05-2.55321E-07-3.70177E-19-1.87134E-18
 -1      3874 9.51816E-05-2.83906E-05-2.86257E-05-2.30261E-07-2.98762E-19-1.94312E-18
 -1      3875 9.51993E-05-2.84123E-05-2.86227E-05-1.91335E-07-5.95500E-20-1.75443E-18
 -1      3876 9.50198E-05-2.81483E-05-2.86588E-05-3.19145E-07-7.29782E-19-1.19927E-18
 -1      3877 9.50742E-05-2.82345E-05-2.86469E-05-2.79955E-07-3.48505E-19-1.47820E-18
 -1      3878 9.50839E-05-2.82504E-05-2.86421E-05-2.28324E-07-5.83773E-19-1.78585E-18
 -1      3879 9.48683E-05-2.79422E-05-2.86824E-05-4.10200E-07-1.05947E-18-3.97185E-19
 -1      3880 9.49392E-05-2.80472E-05-2.86697E-05-3.55249E-07-1.30680E-18-1.08345E-18
 -1      3881 9.49413E-05-2.80579E-05-2.86630E-05-2.85398E-07-9.66259E-19-1.43360E-18
 -1      3882 9.46696E-05-2.76892E-05-2.87060E-05-5.30729E-07-5.81252E-19-6.74338E-19
 -1      3883 9.47640E-05-2.78184E-05-2.86932E-05-4.58546E-07-4.11935E-19-3.20746E-19
 -1      3884 9.47588E-05-2.78249E-05-2.86841E-05-3.63797E-07-1.02850E-18-1.49337E-18
 -1      3885 9.44062E-05-2.73772E-05-2.87273E-05-6.81828E-07-7.49958E-19-1.06502E-18
 -1      3886 9.45331E-05-2.75368E-05-2.87154E-05-5.91504E-07-7.29640E-19-6.64436E-19
 -1      3887 9.45212E-05-2.75402E-05-2.87034E-05-4.63730E-07-3.94974E-19-1.45397E-18
 -1      3888 9.40558E-05-2.69922E-05-2.87428E-05-8.62211E-07-4.45717E-19-1.36947E-18
 -1      3889 9.42268E-05-2.71892E-05-2.87338E-05-7.54049E-07-6.29109E-19-1.37163E-18
 -1      3890 9.42096E-05-2.71916E-05-2.87182E-05-5.83344E-07-7.04281E-19-1.99615E-18
 -1      3891 9.35904E-05-2.65191E-05-2.87472E-05-1.06640E-06-2.26233E-19-9.79577E-19
 -1      3892 9.38205E-05-2.67614E-05-2.87437E-05-9.42861E-07-1.97071E-19-1.26611E-18
 -1      3893 9.38007E-05-2.67664E-05-2.87238E-05-7.17160E-07-5.09880E-19-1.40453E-18
 -1      3894 9.29740E-05-2.59421E-05-2.87320E-05-1.28219E-06-4.87869E-19-6.21118E-19
 -1      3895 9.32831E-05-2.62379E-05-2.87386E-05-1.14921E-06-4.31229E-19-6.52705E-19
 -1      3896 9.32662E-05-2.62513E-05-2.87136E-05-8.53852E-07-4.95001E-19-9.92263E-19
 -1      3897 9.21611E-05-2.52453E-05-2.86847E-05-1.48729E-06-8.34855E-19-2.50571E-19
 -1      3898 9.25750E-05-2.56030E-05-2.87081E-05-1.35604E-06-4.14474E-19-4.50493E-19
 -1      3899 9.25711E-05-2.56340E-05-2.86779E-05-9.73208E-07-4.88521E-19-4.20737E-19
 -1      3900 9.10941E-05-2.44151E-05-2.85869E-05-1.64534E-06-2.54690E-19 8.89918E-20
 -1      3901 9.16462E-05-2.48420E-05-2.86371E-05-1.53420E-06-7.78558E-19-5.80238E-19
 -1      3902 9.16725E-05-2.49048E-05-2.86022E-05-1.04223E-06-5.78452E-19-1.20357E-18
 -1      3903 8.97004E-05-2.34437E-05-2.84110E-05-1.70151E-06-5.51184E-19-8.17478E-20
 -1      3904 9.04336E-05-2.39442E-05-2.85031E-05-1.63819E-06-1.69123E-19 1.42543E-19
 -1      3905 9.05181E-05-2.40592E-05-2.84657E-05-1.01042E-06-4.13855E-19-7.12858E-19
 -1      3906 8.78889E-05-2.23344E-05-2.81170E-05-1.57906E-06-2.88632E-20-3.70543E-19
 -1      3907 8.88580E-05-2.29072E-05-2.82734E-05-1.60191E-06-4.11898E-19-7.29834E-20
 -1      3908 8.90444E-05-2.31024E-05-2.82388E-05-8.04719E-07-2.38547E-19-5.45229E-19
 -1      3909 8.55428E-05-2.11094E-05-2.76463E-05-1.17847E-06 7.52201E-20-1.08245E-19
 -1      3910 8.68192E-05-2.17434E-05-2.78998E-05-1.33573E-06 2.91091E-19-3.28381E-19
 -1      3911 8.71732E-05-2.20546E-05-2.78786E-05-3.24704E-07-6.46555E-20-9.14915E-19
 -1      3912 8.25064E-05-1.98163E-05-2.69126E-05-3.80970E-07-1.10365E-18 9.26407E-20
 -1      3913 8.41869E-05-2.04881E-05-2.73124E-05-7.23842E-07-1.28459E-19-8.29704E-21
 -1      3914 8.48084E-05-2.09610E-05-2.73238E-05 5.62525E-07-1.75727E-19-2.37417E-20
 -1      3915 7.85060E-05-1.85237E-05-2.57746E-05 9.13977E-07-1.18140E-18 1.37783E-20
 -1      3916 8.07561E-05-1.91820E-05-2.64066E-05 3.58403E-07-1.29778E-18-1.54129E-19
 -1      3917 8.18073E-05-1.98833E-05-2.64858E-05 2.04495E-06-6.01115E-19 6.30821E-19
 -1      3918 9.55681E-05-2.89054E-05-2.85687E-05-2.58514E-07 1.53293E-19-1.80872E-18
 -1      3919 9.56101E-05-2.89530E-05-2.85674E-05-2.83935E-07-7.08561E-20-1.46937E-18
 -1      3920 9.55778E-05-2.89030E-05-2.85757E-05-2.11497E-07 1.37410E-19-1.91118E-18
 -1      3921 9.61444E-05-2.64591E-05-2.98630E-05 4.69421E-07 8.61842E-19-1.93204E-18
 -1      3922 6.71742E-05-1.72556E-05-2.13478E-05 7.42263E-06-4.08760E-19 3.27656E-19
 -1      3923 9.55603E-05-2.43437E-05-3.05064E-05-2.49044E-07-8.09517E-20-2.26375E-18
 -1      3924 9.50606E-05-2.33940E-05-3.07251E-05-4.74100E-07-8.79953E-20-2.34299E-18
 -1      3925 9.66327E-05-2.89149E-05-2.90233E-05-5.90666E-07 4.33064E-19-1.93669E-18
 -1      3926 9.66688E-05-2.87270E-05-2.91149E-05-5.19393E-07 5.71932E-19-1.93716E-18
 -1      3927 9.67274E-05-2.89936E-05-2.90302E-05-4.88985E-07 2.70702E-19-1.65463E-18
 -1      3928 9.49425E-05-3.70657E-05-2.48365E-05 1.80150E-05 1.08548E-18-1.99150E-18
 -1      3929 9.63769E-05-2.92666E-05-2.87610E-05-6.26626E-07 1.21000E-19-1.48021E-18
 -1      3930 9.64490E-05-2.92245E-05-2.88087E-05-6.34570E-07 4.10241E-20-1.75073E-18
 -1      3931 9.64451E-05-2.93193E-05-2.87702E-05-5.09342E-07 4.11983E-20-1.34783E-18
 -1      3932 7.23354E-05-1.96373E-05-2.24454E-05 1.20880E-05 1.19478E-20 1.13193E-18
 -1      3933 6.96345E-05-1.72247E-05-2.25290E-05 5.72441E-06-1.76639E-19 3.40977E-19
 -1      3934 7.29971E-05-1.77776E-05-2.36929E-05 4.71896E-06 1.75607E-19 1.32076E-19
 -1      3935 9.65940E-05-2.74024E-05-2.96520E-05-8.12772E-10-4.71285E-19-1.69574E-18
 -1      3936 9.66893E-05-2.78744E-05-2.94954E-05 1.92188E-07-5.60269E-19-1.53125E-18
 -1      3937 9.67904E-05-2.80031E-05-2.94797E-05 1.67405E-07-3.60606E-19-1.26469E-18
 -1      3938 9.65287E-05-2.69775E-05-2.98062E-05-8.02557E-08-2.80771E-19-1.95351E-18
 -1      3939 9.66676E-05-2.84763E-05-2.92279E-05-4.50898E-07 5.90234E-19-2.08149E-18
 -1      3940 9.66573E-05-2.81642E-05-2.93503E-05-3.10288E-07 7.03748E-19-1.94853E-18
 -1      3941 9.67758E-05-2.85709E-05-2.92312E-05-3.83391E-07 5.49576E-19-1.56148E-18
 -1      3942 1.12071E-04-4.76784E-05-2.75060E-05 9.02857E-06 1.07703E-18-1.24012E-18
 -1      3943 9.66047E-05-2.92227E-05-2.88799E-05-5.22692E-07 6.06445E-20-1.45728E-18
 -1      3944 9.48899E-05-2.30474E-05-3.07875E-05-8.36464E-07-3.08277E-19-2.34439E-18
 -1      3945 9.59385E-05-3.59355E-05-2.56917E-05 1.49893E-05 1.05994E-19-2.61509E-18
 -1      3946 8.92849E-05-3.25478E-05-2.42614E-05 1.84512E-05 1.89036E-18-2.95849E-18
 -1      3947 8.55556E-05-2.92233E-05-2.42237E-05 1.67029E-05 1.23598E-18-2.04139E-18
 -1      3948 9.34396E-05-3.30970E-05-2.58738E-05 1.36853E-05 8.50160E-20-3.11651E-18
 -1      3949 9.62798E-05-2.66635E-05-2.98441E-05 2.56811E-07 5.90860E-19-1.92012E-18
 -1      3950 9.60751E-05-2.59483E-05-3.00495E-05 6.15002E-07 7.08359E-19-2.05195E-18
 -1      3951 9.59487E-05-2.92067E-05-2.86053E-05-3.55660E-07 9.99087E-20-5.65163E-19
 -1      3952 9.59136E-05-2.91843E-05-2.85971E-05-4.40687E-07 1.93602E-19-7.27649E-19
 -1      3953 9.59772E-05-2.92187E-05-2.86103E-05-4.78532E-07 4.45666E-19-8.96236E-19
 -1      3954 9.56861E-05-2.90100E-05-2.85766E-05-2.50611E-07 2.01550E-20-1.69423E-18
 -1      3955 7.45010E-05-1.77320E-05-2.44122E-05 2.91335E-06-6.00458E-19 7.24193E-19
 -1      3956 7.70668E-05-1.82863E-05-2.52162E-05 2.24219E-06-1.02529E-18 3.21534E-19
 -1      3957 7.87027E-05-1.92286E-05-2.54242E-05 4.45943E-06-9.71906E-19 1.04941E-18
 -1      3958 7.60187E-05-1.93233E-05-2.42082E-05 7.89936E-06-2.56042E-19 1.71948E-18
 -1      3959 9.51584E-05-2.37321E-05-3.06185E-05 1.36238E-06 9.09970E-19-2.45861E-18
 -1      3960 9.50960E-05-2.35288E-05-3.06768E-05 1.06943E-06 5.83612E-19-2.50074E-18
 -1      3961 9.55552E-05-2.44117E-05-3.04765E-05 6.99872E-07 5.60453E-19-2.40088E-18
 -1      3962 9.54853E-05-2.44464E-05-3.04386E-05 1.13200E-06 9.38091E-19-2.22815E-18
 -1      3963 9.44637E-05-2.22423E-05-3.09563E-05-1.45200E-06-5.94038E-19-2.50237E-18
 -1      3964 9.61299E-05-2.92724E-05-2.86523E-05-5.47892E-07 1.49757E-19-1.39700E-18
 -1      3965 9.62729E-05-2.93284E-05-2.86924E-05-4.68659E-07 1.48459E-19-1.01818E-18
 -1      3966 9.60598E-05-2.92521E-05-2.86307E-05-5.12716E-07 5.02165E-19-1.35833E-18
 -1      3967 9.59101E-05-2.51829E-05-3.03174E-05-7.52517E-08-5.65390E-20-2.16012E-18
 -1      3968 9.59218E-05-2.52455E-05-3.02968E-05-2.89092E-07-2.00914E-19-2.20548E-18
 -1      3969 9.59222E-05-2.52421E-05-3.02986E-05 2.72496E-07 3.62293E-19-2.31297E-18
 -1      3970 9.59036E-05-2.51802E-05-3.03174E-05 7.17003E-08 6.81602E-20-2.09926E-18
 -1      3971 9.62573E-05-2.59516E-05-3.01199E-05-1.43831E-08 6.19934E-20-2.01834E-18
 -1      3972 9.55096E-05-2.44023E-05-3.04713E-05-8.32376E-07-2.91978E-19-2.12156E-18
 -1      3973 9.58209E-05-2.51640E-05-3.02842E-05-5.93253E-07-3.41741E-19-2.03473E-18
 -1      3974 9.57208E-05-2.50944E-05-3.02736E-05 8.92136E-07 8.80594E-19-2.13578E-18
 -1      3975 7.73912E-05-2.28381E-05-2.33441E-05 1.35853E-05 4.93814E-19-1.36746E-19
 -1      3976 9.58684E-05-2.53013E-05-3.02425E-05 6.49917E-07 6.69081E-19-2.24024E-18
 -1      3977 9.52770E-05-2.85174E-05-2.86109E-05-1.37486E-07-7.94300E-20-1.32227E-18
 -1      3978 9.53243E-05-2.85846E-05-2.86031E-05-1.32176E-07-2.29376E-20-1.55127E-18
 -1      3979 9.58229E-05-2.91126E-05-2.85889E-05-2.20432E-07-4.28254E-20-1.09049E-18
 -1      3980 9.58890E-05-2.91630E-05-2.85962E-05-2.42659E-07 2.02941E-19-7.21179E-19
 -1      3981 9.68904E-05-2.90091E-05-2.90909E-05 2.53155E-07-7.79871E-20-1.02725E-18
 -1      3982 9.68390E-05-2.91583E-05-2.90052E-05 2.85644E-07 3.23526E-19-8.60064E-19
 -1      3983 9.67685E-05-2.92654E-05-2.89286E-05 2.79238E-07 2.67363E-19-8.60229E-19
 -1      3984 9.66902E-05-2.93355E-05-2.88651E-05 2.89712E-07 2.02638E-19-9.32143E-19
 -1      3985 9.68464E-05-2.92189E-05-2.89872E-05 1.53245E-07 1.70998E-19-9.50431E-19
 -1      3986 9.65993E-05-2.93764E-05-2.88086E-05 2.77139E-07 2.00759E-19-8.91570E-19
 -1      3987 9.65095E-05-2.93933E-05-2.87627E-05 2.73215E-07 2.36832E-19-9.70083E-19
 -1      3988 9.66869E-05-2.93727E-05-2.88531E-05 1.55611E-07 2.24061E-19-9.09763E-19
 -1      3989 9.64119E-05-2.93911E-05-2.87222E-05 2.57416E-07 2.94871E-19-1.17861E-18
 -1      3990 9.63193E-05-2.93738E-05-2.86901E-05 2.44050E-07 7.08632E-20-1.08821E-18
 -1      3991 9.65014E-05-2.94128E-05-2.87553E-05 1.48439E-07 1.47241E-20-7.82406E-19
 -1      3992 9.62247E-05-2.93440E-05-2.86622E-05 2.30807E-07-1.71519E-19-1.00764E-18
 -1      3993 9.61386E-05-2.93076E-05-2.86408E-05 2.13463E-07-3.72891E-19-1.05049E-18
 -1      3994 9.63053E-05-2.93777E-05-2.86854E-05 1.34875E-07 6.10678E-20-1.18655E-18
 -1      3995 9.60491E-05-2.92620E-05-2.86224E-05 1.99393E-07-5.93765E-19-7.70614E-19
 -1      3996 9.59722E-05-2.92143E-05-2.86092E-05 1.82247E-07-3.21027E-19-6.77540E-19
 -1      3997 9.61228E-05-2.93043E-05-2.86387E-05 1.15305E-07-2.29585E-19-7.30944E-19
 -1      3998 9.58918E-05-2.91613E-05-2.85982E-05 1.67394E-07-1.30092E-19-6.93651E-19
 -1      3999 9.58224E-05-2.91074E-05-2.85911E-05 1.51303E-07-5.90313E-20-5.70690E-19
 -1      4000 9.59587E-05-2.92089E-05-2.86095E-05 9.57082E-08-3.72582E-19-4.70349E-19
 -1      4001 9.57511E-05-2.90499E-05-2.85858E-05 1.39676E-07 2.77368E-19-5.46186E-19
 -1      4002 9.56897E-05-2.89931E-05-2.85834E-05 1.26276E-07 4.26774E-19 3.55841E-20
 -1      4003 9.58069E-05-2.90957E-05-2.85928E-05 8.02957E-08 6.55626E-20-3.14032E-19
 -1      4004 9.56265E-05-2.89338E-05-2.85823E-05 1.17143E-07 4.45776E-19 6.74736E-20
 -1      4005 9.55717E-05-2.88753E-05-2.85834E-05 1.07313E-07 6.33816E-19 5.84272E-19
 -1      4006 9.56738E-05-2.89769E-05-2.85862E-05 6.74408E-08 7.73277E-19 3.81068E-20
 -1      4007 9.55140E-05-2.88141E-05-2.85856E-05 1.00949E-07 3.78749E-19 4.72540E-19
 -1      4008 9.54633E-05-2.87533E-05-2.85894E-05 9.54649E-08 8.37466E-19 5.15798E-19
 -1      4009 9.55543E-05-2.88539E-05-2.85871E-05 5.77809E-08 5.99074E-19-5.69881E-20
 -1      4010 9.54083E-05-2.86892E-05-2.85940E-05 9.22078E-08 3.70215E-19 3.96521E-19
 -1      4011 9.53587E-05-2.86245E-05-2.85999E-05 9.18523E-08-2.20969E-20-1.13660E-19
 -1      4012 9.54431E-05-2.87258E-05-2.85938E-05 5.22027E-08 2.05129E-19-2.36796E-19
 -1      4013 9.53025E-05-2.85554E-05-2.86063E-05 9.21522E-08 1.11344E-19-2.77015E-19
 -1      4014 9.52505E-05-2.84844E-05-2.86137E-05 9.78232E-08-1.62375E-19-2.71199E-19
 -1      4015 9.53335E-05-2.85893E-05-2.86047E-05 5.15640E-08 2.14216E-20-1.21066E-18
 -1      4016 9.51889E-05-2.84073E-05-2.86214E-05 1.02367E-07-3.98414E-19-6.95007E-19
 -1      4017 9.51306E-05-2.83272E-05-2.86298E-05 1.15213E-07-5.33365E-19-7.52921E-19
 -1      4018 9.52178E-05-2.84392E-05-2.86188E-05 5.69720E-08-4.61773E-19-1.23483E-18
 -1      4019 9.50589E-05-2.82390E-05-2.86382E-05 1.25067E-07-5.13376E-19-5.63338E-19
 -1      4020 9.49898E-05-2.81465E-05-2.86470E-05 1.46642E-07-2.85237E-19-7.42162E-19
 -1      4021 9.50871E-05-2.82692E-05-2.86349E-05 7.00474E-08-3.62677E-19-1.22379E-18
 -1      4022 9.49026E-05-2.80435E-05-2.86555E-05 1.63436E-07-4.73118E-19-8.20011E-19
 -1      4023 9.48183E-05-2.79355E-05-2.86640E-05 1.95879E-07-3.66734E-19-1.39910E-18
 -1      4024 9.49314E-05-2.80723E-05-2.86517E-05 9.32465E-08-5.12417E-19-1.27110E-18
 -1      4025 9.47098E-05-2.78145E-05-2.86715E-05 2.22066E-07 4.62385E-19-1.74164E-18
 -1      4026 9.46056E-05-2.76883E-05-2.86788E-05 2.68345E-07 6.18510E-19-1.60055E-18
 -1      4027 9.47396E-05-2.78411E-05-2.86675E-05 1.30305E-07-4.18962E-19-1.27419E-18
 -1      4028 9.44695E-05-2.75466E-05-2.86841E-05 3.07555E-07-2.75785E-19-2.21981E-18
 -1      4029 9.43411E-05-2.74006E-05-2.86886E-05 3.71785E-07-5.81952E-19-2.17146E-18
 -1      4030 9.44999E-05-2.75690E-05-2.86803E-05 1.86868E-07-5.23601E-19-2.49209E-18
 -1      4031 9.41711E-05-2.72369E-05-2.86899E-05 4.29330E-07-6.54723E-19-2.24086E-18
 -1      4032 9.40153E-05-2.70716E-05-2.86897E-05 5.17211E-07-1.12852E-18-2.16186E-18
 -1      4033 9.41999E-05-2.72510E-05-2.86867E-05 2.71393E-07-7.43036E-19-3.06658E-18
 -1      4034 9.38057E-05-2.68869E-05-2.86844E-05 6.00764E-07-1.29742E-18-1.88620E-18
 -1      4035 9.36210E-05-2.67061E-05-2.86768E-05 7.20153E-07-1.27505E-18-2.03512E-18
 -1      4036 9.38278E-05-2.68857E-05-2.86823E-05 3.96401E-07-9.41746E-19-2.22986E-18
 -1      4037 9.33672E-05-2.65050E-05-2.86615E-05 8.40652E-07-1.45397E-18-1.45777E-18
 -1      4038 9.31559E-05-2.63177E-05-2.86429E-05 1.00229E-06-7.33094E-19-1.88956E-18
 -1      4039 9.33733E-05-2.64772E-05-2.86612E-05 5.80193E-07-9.31897E-19-2.19087E-18
 -1      4040 9.28559E-05-2.61105E-05-2.86131E-05 1.17507E-06 5.68537E-20-1.93834E-18
 -1      4041 9.26259E-05-2.59328E-05-2.85790E-05 1.39342E-06 1.00366E-19-1.60494E-18
 -1      4042 9.28303E-05-2.60382E-05-2.86152E-05 8.49079E-07-5.25999E-19-2.01144E-18
 -1      4043 9.22824E-05-2.57379E-05-2.85289E-05 1.63957E-06-1.38337E-20-1.23321E-18
 -1      4044 9.20507E-05-2.55966E-05-2.84739E-05 1.93372E-06 1.92948E-19-1.02237E-18
 -1      4045 9.21993E-05-2.55949E-05-2.85337E-05 1.24018E-06 4.25257E-19-2.22386E-18
 -1      4046 9.16736E-05-2.54434E-05-2.83964E-05 2.28149E-06 2.95017E-19-1.04055E-18
 -1      4047 9.14704E-05-2.53795E-05-2.83143E-05 2.67581E-06-5.84470E-19-8.50423E-19
 -1      4048 9.14933E-05-2.51918E-05-2.84035E-05 1.80469E-06 2.89360E-19-2.30097E-18
 -1      4049 9.10815E-05-2.53126E-05-2.82009E-05 3.16191E-06-1.16749E-18-1.27820E-20
 -1      4050 9.09567E-05-2.53862E-05-2.80854E-05 3.68585E-06-1.00058E-18 3.55154E-20
 -1      4051 9.07434E-05-2.48998E-05-2.82083E-05 2.61133E-06-2.38644E-19-1.33240E-18
 -1      4052 9.05955E-05-2.54706E-05-2.79270E-05 4.35597E-06-1.39613E-18 4.60266E-19
 -1      4053 9.06269E-05-2.57668E-05-2.77730E-05 5.04208E-06-6.79323E-19-2.79636E-19
 -1      4054 9.00101E-05-2.48255E-05-2.79292E-05 3.74935E-06-1.27900E-18-5.82524E-19
 -1      4055 9.03611E-05-2.60940E-05-2.75606E-05 5.94822E-06-7.12704E-19-8.90705E-19
 -1      4056 9.06650E-05-2.67284E-05-2.73663E-05 6.82618E-06-7.02396E-19-1.25420E-18
 -1      4057 8.93987E-05-2.51259E-05-2.75464E-05 5.32943E-06-1.49501E-18-2.61348E-19
 -1      4058 9.06057E-05-2.74310E-05-2.70933E-05 8.01830E-06-8.01621E-19-1.56045E-18
 -1      4059 9.13488E-05-2.85535E-05-2.68652E-05 9.09170E-06-1.63348E-19-1.97978E-18
 -1      4060 8.90895E-05-2.60247E-05-2.70418E-05 7.48113E-06-1.05876E-18-7.37503E-19
 -1      4061 9.14674E-05-2.96188E-05-2.65243E-05 1.05864E-05 4.47943E-19-3.38253E-18
 -1      4062 9.28572E-05-3.13982E-05-2.62836E-05 1.18186E-05 3.05709E-20-3.51548E-18
 -1      4063 8.98576E-05-3.01386E-05-2.55974E-05 1.36964E-05 4.45374E-19-3.86019E-18
 -1      4064 8.91592E-05-2.76035E-05-2.63980E-05 1.02284E-05-8.65389E-19-1.93791E-18
 -1      4065 9.66610E-05-2.92915E-05-2.88722E-05-4.05436E-07 1.34532E-19-1.24565E-18
 -1      4066 9.67370E-05-2.92114E-05-2.89373E-05-3.91695E-07 4.94192E-20-1.32249E-18
 -1      4067 9.65755E-05-2.77612E-05-2.94970E-05-1.77977E-07 7.22604E-19-2.05770E-18
 -1      4068 9.64952E-05-2.72824E-05-2.96571E-05 5.77493E-08 6.89634E-19-1.82689E-18
 -1      4069 9.66942E-05-2.78718E-05-2.94939E-05-1.73823E-07 7.16997E-19-1.75114E-18
 -1      4070 9.59144E-05-2.53373E-05-3.02528E-05 4.65529E-07 5.21637E-19-2.26329E-18
 -1      4071 9.53777E-05-2.86509E-05-2.85967E-05-1.32439E-07 6.73800E-20-1.91182E-18
 -1      4072 9.54230E-05-2.87122E-05-2.85906E-05-1.34271E-07-7.51523E-20-1.55920E-18
 -1      4073 9.53555E-05-2.86187E-05-2.86019E-05-9.58739E-08-3.09465E-19-1.51739E-18
 -1      4074 9.54764E-05-2.87737E-05-2.85861E-05-1.39337E-07-6.58752E-20-1.65644E-18
 -1      4075 9.55232E-05-2.88314E-05-2.85822E-05-1.47558E-07 6.93972E-20-1.49451E-18
 -1      4076 9.54607E-05-2.87504E-05-2.85911E-05-9.91341E-08-1.45153E-19-1.65148E-18
 -1      4077 9.51659E-05-2.83670E-05-2.86280E-05-1.55544E-07 1.02969E-19-1.35197E-18
 -1      4078 9.52192E-05-2.84434E-05-2.86189E-05-1.42349E-07 2.90204E-19-1.16879E-18
 -1      4079 9.52457E-05-2.84741E-05-2.86161E-05-1.00875E-07-2.88162E-19-9.84759E-19
 -1      4080 9.50346E-05-2.81920E-05-2.86469E-05-1.87584E-07-7.35813E-19-1.17193E-18
 -1      4081 9.50990E-05-2.82816E-05-2.86369E-05-1.65809E-07-4.69742E-19-1.34047E-18
 -1      4082 9.51224E-05-2.83102E-05-2.86328E-05-1.14564E-07-2.76963E-19-1.46393E-18
 -1      4083 9.48717E-05-2.79837E-05-2.86667E-05-2.34240E-07-5.23304E-19-1.75713E-18
 -1      4084 9.49529E-05-2.80909E-05-2.86563E-05-2.03364E-07-4.92022E-19-1.44021E-18
 -1      4085 9.49752E-05-2.81189E-05-2.86509E-05-1.37004E-07-3.04243E-19-1.65091E-18
 -1      4086 9.46634E-05-2.77320E-05-2.86858E-05-2.95338E-07-1.10891E-18-2.07942E-18
 -1      4087 9.47685E-05-2.78619E-05-2.86758E-05-2.55274E-07-9.99239E-19-1.87965E-18
 -1      4088 9.47919E-05-2.78912E-05-2.86689E-05-1.67548E-07-7.64892E-19-1.80751E-18
 -1      4089 9.43935E-05-2.74262E-05-2.87018E-05-3.69107E-07-5.44088E-19-1.37710E-18
 -1      4090 9.45312E-05-2.75843E-05-2.86934E-05-3.20626E-07-8.95430E-19-1.72788E-18
 -1      4091 9.45585E-05-2.76174E-05-2.86851E-05-2.04221E-07-1.10345E-18-1.81742E-18
 -1      4092 9.40424E-05-2.70553E-05-2.87113E-05-4.50960E-07-2.31199E-19-1.78202E-18
 -1      4093 9.42233E-05-2.72473E-05-2.87063E-05-3.96352E-07-1.64422E-19-1.42581E-18
 -1      4094 9.42584E-05-2.72877E-05-2.86964E-05-2.42763E-07-4.74600E-19-1.47364E-18
 -1      4095 9.35868E-05-2.66081E-05-2.87090E-05-5.31709E-07-5.71976E-19-1.54643E-18
 -1      4096 9.38241E-05-2.68397E-05-2.87103E-05-4.75743E-07-5.77730E-19-1.51657E-18
 -1      4097 9.38727E-05-2.68926E-05-2.86988E-05-2.75190E-07-3.13130E-19-1.52903E-18
 -1      4098 9.29991E-05-2.60751E-05-2.86874E-05-5.95058E-07-4.90463E-19-1.05986E-18
 -1      4099 9.33088E-05-2.63513E-05-2.86991E-05-5.46328E-07-1.14257E-19-9.52143E-19
 -1      4100 9.33796E-05-2.64242E-05-2.86864E-05-2.87745E-07-6.02570E-19-1.41331E-18
 -1      4101 9.22463E-05-2.54493E-05-2.86358E-05-6.14263E-07-6.41036E-19-7.27692E-19
 -1      4102 9.26485E-05-2.57739E-05-2.86636E-05-5.86963E-07-7.21169E-19-6.30133E-19
 -1      4103 9.27548E-05-2.58781E-05-2.86506E-05-2.58080E-07-6.15524E-19-4.85951E-19
 -1      4104 9.12901E-05-2.47290E-05-2.85384E-05-5.47875E-07-5.07201E-19-7.57518E-19
 -1      4105 9.18092E-05-2.51033E-05-2.85911E-05-5.64027E-07-1.90442E-19-9.00310E-19
 -1      4106 9.19715E-05-2.52551E-05-2.85797E-05-1.51547E-07-5.00929E-19-6.18544E-19
 -1      4107 9.00860E-05-2.39218E-05-2.83736E-05-3.34667E-07 1.06288E-19-1.62891E-18
 -1      4108 9.07520E-05-2.43426E-05-2.84632E-05-4.26703E-07-4.94602E-19-1.22865E-18
 -1      4109 9.10009E-05-2.45652E-05-2.84572E-05 8.34892E-08-6.45730E-20-8.85915E-19
 -1      4110 8.85826E-05-2.30489E-05-2.81106E-05 1.11968E-07-3.93857E-19-1.57435E-18
 -1      4111 8.94324E-05-2.35062E-05-2.82546E-05-1.01497E-07-1.80670E-19-1.51096E-18
 -1      4112 8.98139E-05-2.38322E-05-2.82608E-05 5.21313E-07 7.02301E-20-2.42378E-18
 -1      4113 8.67205E-05-2.21526E-05-2.77064E-05 9.09595E-07-2.93059E-19-1.01092E-18
 -1      4114 8.77999E-05-2.26263E-05-2.79296E-05 5.13600E-07 3.76533E-20-1.03587E-18
 -1      4115 8.83821E-05-2.31000E-05-2.79597E-05 1.26544E-06-3.01220E-19-1.51475E-18
 -1      4116 8.44333E-05-2.13060E-05-2.71002E-05 2.21305E-06-6.18648E-20-4.90737E-19
 -1      4117 8.57960E-05-2.17597E-05-2.74380E-05 1.55352E-06-1.82348E-19-6.54541E-19
 -1      4118 8.66792E-05-2.24405E-05-2.75125E-05 2.45580E-06-5.40296E-19-1.11561E-18
 -1      4119 8.16482E-05-2.06166E-05-2.62023E-05 4.24507E-06-8.29341E-19 5.20961E-19
 -1      4120 8.33698E-05-2.10141E-05-2.67100E-05 3.18312E-06-2.03408E-19 5.99430E-19
 -1      4121 8.46714E-05-2.19635E-05-2.68618E-05 4.27050E-06-1.03630E-18-3.28498E-19
 -1      4122 8.13586E-05-2.50949E-05-2.40694E-05 1.46032E-05 7.23813E-19-2.60236E-19
 -1      4123 7.81184E-05-2.18668E-05-2.42006E-05 1.09590E-05-3.59637E-19 9.85592E-19
 -1      4124 9.55798E-05-2.88903E-05-2.85803E-05-1.57087E-07 1.30923E-19-1.58292E-18
 -1      4125 9.56311E-05-2.89460E-05-2.85792E-05-1.70899E-07 4.52120E-19-1.56608E-18
 -1      4126 9.55690E-05-2.88745E-05-2.85849E-05-1.10032E-07 2.69709E-19-1.53389E-18
 -1      4127 9.69218E-05-2.85411E-05-2.93057E-05 1.86792E-07-3.89596E-19-1.12690E-18
 -1      4128 9.69204E-05-2.88049E-05-2.91923E-05 2.48823E-07-3.16550E-19-1.18600E-18
 -1      4129 9.69447E-05-2.88973E-05-2.91663E-05 1.33883E-07-4.65541E-20-8.98601E-19
 -1      4130 9.56939E-05-2.90033E-05-2.85806E-05-1.84524E-07 2.58825E-19-1.37918E-18
 -1      4131 9.57518E-05-2.90571E-05-2.85831E-05-2.03010E-07-3.59251E-20-1.18498E-18
 -1      4132 9.58189E-05-2.91090E-05-2.85924E-05-1.51034E-07 1.89093E-19-8.71650E-19
 -1      4133 9.67976E-05-2.90928E-05-2.90168E-05-3.92312E-07-2.57772E-20-1.24784E-18
 -1      4134 9.68479E-05-2.89306E-05-2.91047E-05-3.48910E-07 3.15651E-19-1.45092E-18
 -1      4135 9.68329E-05-2.91610E-05-2.90064E-05-2.73100E-07 1.26300E-19-1.19462E-18
 -1      4136 9.59683E-05-2.54187E-05-3.02348E-05-3.86721E-07-2.59661E-19-2.11002E-18
 -1      4137 9.64218E-05-2.68139E-05-2.98325E-05 1.64068E-07 5.96023E-19-2.03422E-18
 -1      4138 9.62902E-05-2.61449E-05-3.00563E-05-1.74013E-07-1.89652E-19-2.04184E-18
 -1      4139 9.64897E-05-2.93656E-05-2.87666E-05-3.87169E-07-4.40792E-20-1.21501E-18
 -1      4140 9.65765E-05-2.93408E-05-2.88135E-05-3.92715E-07-5.15918E-21-1.26603E-18
 -1      4141 9.66836E-05-2.93393E-05-2.88665E-05-2.80706E-07 1.07800E-19-1.25210E-18
 -1      4142 9.65038E-05-2.66903E-05-2.99217E-05-5.15082E-08 1.53065E-20-1.85855E-18
 -1      4143 9.65488E-05-2.68714E-05-2.98635E-05-9.50158E-08-5.34651E-20-1.85076E-18
 -1      4144 9.67211E-05-2.74571E-05-2.96834E-05 4.37523E-08-6.14874E-21-1.68062E-18
 -1      4145 9.62395E-05-2.60314E-05-3.00798E-05 2.74845E-07 4.20082E-19-2.09559E-18
 -1      4146 9.59677E-05-2.92141E-05-2.86095E-05-1.79799E-07 1.95396E-19-1.07046E-18
 -1      4147 9.59680E-05-2.92143E-05-2.86079E-05-2.62117E-07 2.07971E-19-8.19268E-19
 -1      4148 9.60425E-05-2.92583E-05-2.86214E-05-2.86897E-07 3.71931E-19-6.72177E-19
 -1      4149 9.68628E-05-2.87108E-05-2.92099E-05-3.30540E-07 4.17218E-19-1.55452E-18
 -1      4150 9.68628E-05-2.84303E-05-2.93259E-05-2.44831E-07 5.16011E-19-1.55024E-18
 -1      4151 9.69165E-05-2.88063E-05-2.91931E-05-2.32753E-07 2.36662E-19-1.52387E-18
 -1      4152 9.61045E-05-2.92834E-05-2.86394E-05-4.14119E-07 2.64581E-19-8.64853E-19
 -1      4153 7.95412E-05-2.14884E-05-2.48376E-05 8.93923E-06-3.34255E-19 2.98780E-19
 -1      4154 8.11210E-05-2.08064E-05-2.58165E-05 5.58935E-06-9.33316E-19 7.89050E-19
 -1      4155 8.29787E-05-2.20908E-05-2.60951E-05 6.78290E-06-8.94115E-19 1.76971E-19
 -1      4156 7.97571E-05-2.08426E-05-2.53033E-05 7.12483E-06-6.25017E-19 2.71260E-19
 -1      4157 8.60852E-05-2.77131E-05-2.49672E-05 1.39401E-05 5.35674E-19-1.78127E-18
 -1      4158 9.56867E-05-2.89939E-05-2.85848E-05-1.27741E-07 5.22805E-19-8.51244E-19
 -1      4159 9.68227E-05-2.78631E-05-2.95551E-05 7.61877E-08-8.86413E-20-1.50341E-18
 -1      4160 9.68931E-05-2.82672E-05-2.94108E-05 1.73336E-07-2.43247E-19-1.37737E-18
 -1      4161 9.69422E-05-2.84030E-05-2.93754E-05 9.45415E-08-1.21151E-19-1.29674E-18
 -1      4162 9.68168E-05-2.77293E-05-2.96083E-05 3.52305E-08 8.73954E-20-1.60322E-18
 -1      4163 9.51806E-05-2.36804E-05-3.06444E-05-1.03790E-06-3.83232E-19-2.26956E-18
 -1      4164 9.63072E-05-2.93572E-05-2.86917E-05-3.49978E-07 1.40503E-19-1.20785E-18
 -1      4165 9.63960E-05-2.93687E-05-2.87244E-05-3.66805E-07 9.70555E-20-1.22405E-18
 -1      4166 9.65050E-05-2.93983E-05-2.87641E-05-2.67491E-07 1.03313E-20-1.22603E-18
 -1      4167 9.65265E-05-2.67107E-05-2.99248E-05 2.66007E-08 1.54293E-19-1.81616E-18
 -1      4168 9.64748E-05-2.67491E-05-2.98847E-05 7.46926E-08 3.39947E-19-1.94360E-18
 -1      4169 9.67217E-05-2.93661E-05-2.88641E-05-5.71903E-08 1.72039E-19-1.35131E-18
 -1      4170 9.68058E-05-2.93050E-05-2.89255E-05-5.24773E-08 1.45872E-19-1.29476E-18
 -1      4171 9.66280E-05-2.94034E-05-2.88076E-05-5.43176E-08 1.64219E-19-1.17701E-18
 -1      4172 9.65334E-05-2.94147E-05-2.87632E-05-5.31238E-08-9.20285E-21-1.17690E-18
 -1      4173 9.64321E-05-2.94085E-05-2.87227E-05-5.22380E-08-1.24008E-19-1.29582E-18
 -1      4174 9.61829E-05-2.93324E-05-2.86491E-05 2.44074E-08 1.69398E-19-1.26842E-18
 -1      4175 9.60965E-05-2.92888E-05-2.86305E-05 1.76047E-08-2.57043E-19-8.40265E-19
 -1      4176 9.59787E-05-2.92166E-05-2.86111E-05-3.39031E-08-2.16690E-19-7.14783E-19
 -1      4177 9.59002E-05-2.91621E-05-2.86006E-05-3.57625E-08-5.12992E-20-4.22317E-19
 -1      4178 9.58288E-05-2.91054E-05-2.85940E-05-2.77791E-08-2.09682E-20-4.39494E-19
 -1      4179 9.57571E-05-2.90473E-05-2.85886E-05-3.06443E-08 3.27422E-19-6.73843E-19
 -1      4180 9.56932E-05-2.89878E-05-2.85866E-05-2.39730E-08 5.18771E-19-5.45075E-19
 -1      4181 9.56292E-05-2.89276E-05-2.85854E-05-2.65161E-08 7.48302E-19-6.83142E-19
 -1      4182 9.55714E-05-2.88663E-05-2.85869E-05-2.19069E-08 3.30512E-19-8.70981E-19
 -1      4183 9.55128E-05-2.88037E-05-2.85890E-05-2.35665E-08 1.42933E-19-1.31809E-18
 -1      4184 9.54584E-05-2.87399E-05-2.85931E-05-2.14928E-08 2.13550E-21-1.16915E-18
 -1      4185 9.54023E-05-2.86738E-05-2.85976E-05-2.19265E-08-2.02832E-19-1.47723E-18
 -1      4186 9.53478E-05-2.86054E-05-2.86037E-05-2.26849E-08-2.80276E-19-1.56523E-18
 -1      4187 9.52904E-05-2.85335E-05-2.86101E-05-2.15208E-08-3.06234E-19-1.66535E-18
 -1      4188 9.52316E-05-2.84578E-05-2.86177E-05-2.52751E-08-3.35190E-19-1.58210E-18
 -1      4189 9.51686E-05-2.83770E-05-2.86254E-05-2.19925E-08-3.18459E-19-1.64789E-18
 -1      4190 9.51007E-05-2.82904E-05-2.86340E-05-2.87215E-08-2.42074E-19-1.45520E-18
 -1      4191 9.50271E-05-2.81970E-05-2.86423E-05-2.25228E-08-1.31923E-20-1.33111E-18
 -1      4192 9.49444E-05-2.80955E-05-2.86512E-05-3.18829E-08-2.10195E-19-1.49899E-18
 -1      4193 9.48549E-05-2.79856E-05-2.86595E-05-2.15162E-08-4.28225E-19-1.45069E-18
 -1      4194 9.47508E-05-2.78647E-05-2.86680E-05-3.25957E-08-8.94417E-19-1.32904E-18
 -1      4195 9.46392E-05-2.77343E-05-2.86753E-05-1.60962E-08-1.11782E-18-1.64231E-18
 -1      4196 9.45061E-05-2.75895E-05-2.86821E-05-2.70210E-08-8.44447E-19-1.63469E-18
 -1      4197 9.43662E-05-2.74350E-05-2.86871E-05-1.33315E-09-6.88721E-19-1.98538E-18
 -1      4198 9.41954E-05-2.72620E-05-2.86905E-05-8.67169E-09-5.37465E-19-1.93962E-18
 -1      4199 9.40206E-05-2.70808E-05-2.86912E-05 3.08925E-08-5.39164E-19-1.62637E-18
 -1      4200 9.38022E-05-2.68759E-05-2.86889E-05 3.29902E-08-5.20284E-19-1.45619E-18
 -1      4201 9.35864E-05-2.66673E-05-2.86827E-05 9.35098E-08-5.49669E-19-1.45407E-18
 -1      4202 9.33095E-05-2.64286E-05-2.86711E-05 1.14511E-07-7.15732E-19-1.31091E-18
 -1      4203 9.30478E-05-2.61949E-05-2.86545E-05 2.06481E-07-6.81997E-19-8.01324E-19
 -1      4204 9.27002E-05-2.59227E-05-2.86288E-05 2.61075E-07-7.87264E-19-8.18668E-19
 -1      4205 9.23903E-05-2.56713E-05-2.85969E-05 3.99739E-07-2.64405E-19-9.84961E-19
 -1      4206 9.19594E-05-2.53702E-05-2.85503E-05 5.09896E-07-6.54060E-20-1.43184E-18
 -1      4207 9.16034E-05-2.51153E-05-2.84969E-05 7.16886E-07 3.66917E-19-1.81598E-18
 -1      4208 9.10768E-05-2.47962E-05-2.84205E-05 9.14390E-07 5.96572E-19-1.81204E-18
 -1      4209 9.06840E-05-2.45626E-05-2.83376E-05 1.21961E-06 2.77555E-19-1.55429E-18
 -1      4210 9.00504E-05-2.42454E-05-2.82192E-05 1.54905E-06-8.48671E-20-1.44314E-18
 -1      4211 8.96416E-05-2.40723E-05-2.80972E-05 1.99267E-06-2.80969E-19-1.60062E-18
 -1      4212 8.88927E-05-2.37899E-05-2.79204E-05 2.51490E-06-8.85520E-19-1.19921E-18
 -1      4213 8.85066E-05-2.37367E-05-2.77481E-05 3.14913E-06-1.16151E-18-1.41628E-18
 -1      4214 8.76382E-05-2.35391E-05-2.74915E-05 3.94570E-06-1.30849E-18-1.19030E-18
 -1      4215 8.73436E-05-2.36944E-05-2.72567E-05 4.83718E-06-1.12736E-18-1.41968E-18
 -1      4216 8.63551E-05-2.36562E-05-2.68913E-05 6.01238E-06-1.23173E-18-8.75563E-19
 -1      4217 8.62264E-05-2.41407E-05-2.65741E-05 7.25743E-06-1.41070E-18-1.09048E-18
 -1      4218 9.68051E-05-2.80685E-05-2.94621E-05-1.99124E-07 5.80325E-19-1.65958E-18
 -1      4219 9.67314E-05-2.76381E-05-2.96111E-05-4.49159E-08 4.08676E-19-1.86820E-18
 -1      4220 9.68831E-05-2.81993E-05-2.94366E-05-1.45355E-07 5.15977E-19-1.78921E-18
 -1      4221 9.68787E-05-2.92024E-05-2.90020E-05-6.00456E-08 1.49975E-19-1.19887E-18
 -1      4222 9.69366E-05-2.90645E-05-2.90846E-05-4.39476E-08 1.02420E-19-1.19669E-18
 -1      4223 8.21670E-05-2.31473E-05-2.52931E-05 1.00275E-05-5.35796E-19 6.94914E-21
 -1      4224 8.55730E-05-2.63584E-05-2.54392E-05 1.19563E-05-7.27133E-20-1.79305E-18
 -1      4225 9.65794E-05-2.69551E-05-2.98384E-05 3.35268E-08 1.86974E-19-1.83990E-18
 -1      4226 9.69686E-05-2.88664E-05-2.91856E-05-5.87021E-08-5.77437E-20-1.38466E-18
 -1      4227 9.61309E-05-2.93002E-05-2.86406E-05-3.06471E-07 1.37656E-19-8.72063E-19
 -1      4228 9.62135E-05-2.93328E-05-2.86624E-05-3.30111E-07 1.26572E-19-1.20013E-18
 -1      4229 9.61327E-05-2.93063E-05-2.86413E-05-2.07395E-07 2.07728E-19-1.30226E-18
 -1      4230 9.69783E-05-2.86170E-05-2.92948E-05-2.76871E-08 1.45777E-19-1.56103E-18
 -1      4231 9.63748E-05-2.94001E-05-2.87020E-05 3.05280E-08-4.47158E-20-1.26698E-18
 -1      4232 9.62765E-05-2.93715E-05-2.86726E-05 2.45821E-08 1.92677E-19-1.20593E-18
 -1      4233 8.57444E-05-2.45965E-05-2.62363E-05 8.64774E-06-1.13864E-18-6.39287E-19
 -1      4234 9.63712E-05-2.93976E-05-2.87045E-05-1.68187E-07-1.29616E-19-1.26010E-18
 -1      4235 8.57610E-05-2.53611E-05-2.58436E-05 1.01601E-05-5.06816E-19-1.67384E-18
 -1      4236 9.67970E-05-2.75763E-05-2.96628E-05-3.53328E-08 1.58887E-19-1.84337E-18
 -1      4237 9.68941E-05-2.79699E-05-2.95383E-05 1.17473E-09 1.38148E-19-1.80245E-18
 -1      4238 9.60105E-05-2.92396E-05-2.86175E-05-1.19693E-07 9.83818E-21-1.25790E-18
 -1      4239 9.62263E-05-2.93524E-05-2.86615E-05-7.64803E-08 1.90766E-19-1.27791E-18
 -1      4240 9.69525E-05-2.83548E-05-2.93993E-05-5.16879E-08 2.66549E-19-1.63845E-18
 -1      4241 9.62734E-05-2.93667E-05-2.86737E-05-1.56419E-07-2.47536E-20-1.10456E-18
 -1      4242 9.61811E-05-2.93304E-05-2.86501E-05-1.43268E-07 2.00533E-19-1.36629E-18
 -1      4243 9.63130E-05-2.93731E-05-2.86904E-05-2.36664E-07-8.16855E-20-1.38099E-18
 -1      4244 9.60898E-05-2.92853E-05-2.86303E-05-1.32797E-07 1.97064E-19-1.54869E-18
 -3
    1PSTEP                         4           1           1          
  100CL  101 1.000000000        4244                     0    1           1
 -4  ERROR       1    1
 -5  STR(%)      1    1    0    0
 -1         1 1.21625E+01
 -1         2 3.07655E+01
 -1         3 2.34864E+00
 -1         4 3.20106E-01
 -1         5 1.40385E+01
 -1         6 1.31425E+01
 -1         7 1.31425E+01
 -1         8 3.66355E+00
 -1         9 1.82412E+00
 -1        10 1.29176E+00
 -1        11 1.04607E+00
 -1        12 8.99330E-01
 -1        13 8.08801E-01
 -1        14 7.53615E-01
 -1        15 7.55569E-01
 -1        16 8.13064E-01
 -1        17 9.00833E-01
 -1        18 1.05294E+00
 -1        19 1.30658E+00
 -1        20 1.83181E+00
 -1        21 3.50868E+00
 -1        22 8.64103E+00
 -1        23 1.31425E+01
 -1        24 4.31730E+00
 -1        25 3.34015E+00
 -1        26 2.11057E+00
 -1        27 1.36155E+00
 -1        28 1.01373E+00
 -1        29 7.74612E-01
 -1        30 5.94617E-01
 -1        31 4.54072E-01
 -1        32 3.46000E-01
 -1        33 2.66566E-01
 -1        34 2.02429E-01
 -1        35 1.51489E-01
 -1        36 1.11722E-01
 -1        37 8.12777E-02
 -1        38 6.39858E-02
 -1        39 4.95591E-02
 -1        40 3.76882E-02
 -1        41 2.83242E-02
 -1        42 2.14050E-02
 -1        43 2.08582E-02
 -1        44 2.66317E-02
 -1        45 3.40875E-02
 -1        46 4.27771E-02
 -1        47 5.20548E-02
 -1        48 6.93553E-02
 -1        49 9.29301E-02
 -1        50 1.20940E-01
 -1        51 1.52314E-01
 -1        52 1.84738E-01
 -1        53 2.14121E-01
 -1        54 2.68801E-01
 -1        55 3.47522E-01
 -1        56 4.39531E-01
 -1        57 5.19683E-01
 -1        58 5.62488E-01
 -1        59 6.49380E-01
 -1        60 7.50909E-01
 -1        61 8.43864E-01
 -1        62 1.20443E+00
 -1        63 1.48743E+00
 -1        64 2.37333E+00
 -1        65 3.18907E+00
 -1        66 3.47088E+00
 -1        67 3.47088E+00
 -1        68 3.39003E+00
 -1        69 3.06076E+00
 -1        70 2.01422E+00
 -1        71 1.57949E+00
 -1        72 1.40385E+01
 -1        73 3.39563E+00
 -1        74 2.41349E+00
 -1        75 1.66469E+00
 -1        76 1.14418E+00
 -1        77 9.06512E-01
 -1        78 7.31614E-01
 -1        79 5.87887E-01
 -1        80 4.68077E-01
 -1        81 3.68207E-01
 -1        82 2.93398E-01
 -1        83 2.30910E-01
 -1        84 1.78926E-01
 -1        85 1.36581E-01
 -1        86 1.02800E-01
 -1        87 7.64648E-02
 -1        88 5.65163E-02
 -1        89 4.20100E-02
 -1        90 3.21511E-02
 -1        91 2.63096E-02
 -1        92 2.61661E-02
 -1        93 3.27288E-02
 -1        94 4.33815E-02
 -1        95 5.80728E-02
 -1        96 7.73512E-02
 -1        97 1.01934E-01
 -1        98 1.32690E-01
 -1        99 1.70586E-01
 -1       100 2.16582E-01
 -1       101 2.79348E-01
 -1       102 3.77623E-01
 -1       103 5.04076E-01
 -1       104 6.62828E-01
 -1       105 8.54284E-01
 -1       106 1.06976E+00
 -1       107 1.28256E+00
 -1       108 1.43557E+00
 -1       109 1.82328E+00
 -1       110 2.58124E+00
 -1       111 3.25877E+00
 -1       112 4.10400E+00
 -1       113 4.81960E+00
 -1       114 7.49230E+00
 -1       115 1.51665E+01
 -1       116 2.44780E+01
 -1       117 2.55005E+01
 -1       118 2.55005E+01
 -1       119 1.92760E+01
 -1       120 8.72714E+00
 -1       121 4.07661E+00
 -1       122 5.99012E+00
 -1       123 9.53110E+00
 -1       124 1.00588E+01
 -1       125 1.60530E+01
 -1       126 1.97078E+01
 -1       127 1.97078E+01
 -1       128 1.04690E+01
 -1       129 9.49475E+00
 -1       130 7.72618E+00
 -1       131 4.35021E+00
 -1       132 1.81188E+00
 -1       133 5.46496E-01
 -1       134 2.85440E-01
 -1       135 2.50288E-01
 -1       136 6.92731E-01
 -1       137 1.10440E+00
 -1       138 3.07655E+01
 -1       139 4.17174E+01
 -1       140 4.17174E+01
 -1       141 1.48723E+01
 -1       142 1.40737E+01
 -1       143 1.40737E+01
 -1       144 1.38022E+01
 -1       145 1.38022E+01
 -1       146 1.29219E+01
 -1       147 2.17231E+01
 -1       148 4.92686E+01
 -1       149 4.92686E+01
 -1       150 2.37675E+01
 -1       151 2.37675E+01
 -1       152 2.25150E+01
 -1       153 2.85068E+01
 -1       154 3.08275E+01
 -1       155 2.87782E+01
 -1       156 1.29912E+01
 -1       157 1.20437E+01
 -1       158 1.26194E+01
 -1       159 1.26194E+01
 -1       160 1.20856E+01
 -1       161 1.26717E+01
 -1       162 3.74290E+01
 -1       163 3.74290E+01
 -1       164 2.74862E+01
 -1       165 6.07754E+00
 -1       166 2.29829E+00
 -1       167 1.50856E+00
 -1       168 1.15763E+00
 -1       169 9.73277E-01
 -1       170 8.64090E-01
 -1       171 7.95908E-01
 -1       172 7.55569E-01
 -1       173 7.99286E-01
 -1       174 8.67124E-01
 -1       175 9.81080E-01
 -1       176 1.17177E+00
 -1       177 1.52752E+00
 -1       178 2.25945E+00
 -1       179 3.93327E+00
 -1       180 1.40385E+01
 -1       181 4.31730E+00
 -1       182 3.34015E+00
 -1       183 2.11057E+00
 -1       184 1.44614E+00
 -1       185 1.02448E+00
 -1       186 7.74612E-01
 -1       187 5.94617E-01
 -1       188 4.66708E-01
 -1       189 3.66225E-01
 -1       190 2.87687E-01
 -1       191 2.30375E-01
 -1       192 1.81543E-01
 -1       193 1.41007E-01
 -1       194 1.08126E-01
 -1       195 8.20519E-02
 -1       196 6.18686E-02
 -1       197 4.66794E-02
 -1       198 3.56492E-02
 -1       199 2.80225E-02
 -1       200 2.31227E-02
 -1       201 2.19261E-02
 -1       202 2.66317E-02
 -1       203 3.40875E-02
 -1       204 4.27771E-02
 -1       205 5.60326E-02
 -1       206 7.36424E-02
 -1       207 9.45561E-02
 -1       208 1.20940E-01
 -1       209 1.52314E-01
 -1       210 1.93952E-01
 -1       211 2.41919E-01
 -1       212 2.86383E-01
 -1       213 3.51722E-01
 -1       214 4.39531E-01
 -1       215 5.19683E-01
 -1       216 5.62488E-01
 -1       217 6.49380E-01
 -1       218 7.50909E-01
 -1       219 8.43864E-01
 -1       220 1.20443E+00
 -1       221 1.67267E+00
 -1       222 2.37333E+00
 -1       223 3.18907E+00
 -1       224 3.47088E+00
 -1       225 3.39003E+00
 -1       226 3.06076E+00
 -1       227 2.01422E+00
 -1       228 1.57949E+00
 -1       229 3.39563E+00
 -1       230 2.41349E+00
 -1       231 1.66469E+00
 -1       232 1.14418E+00
 -1       233 9.06512E-01
 -1       234 7.31614E-01
 -1       235 5.87887E-01
 -1       236 4.68077E-01
 -1       237 3.68207E-01
 -1       238 2.93398E-01
 -1       239 2.30910E-01
 -1       240 1.81694E-01
 -1       241 1.41480E-01
 -1       242 1.08678E-01
 -1       243 8.25508E-02
 -1       244 6.22974E-02
 -1       245 4.71383E-02
 -1       246 3.63701E-02
 -1       247 2.93946E-02
 -1       248 2.61661E-02
 -1       249 3.10051E-02
 -1       250 3.89205E-02
 -1       251 5.00466E-02
 -1       252 6.46128E-02
 -1       253 8.29083E-02
 -1       254 1.05226E-01
 -1       255 1.36575E-01
 -1       256 1.85754E-01
 -1       257 2.49752E-01
 -1       258 3.31855E-01
 -1       259 4.35668E-01
 -1       260 5.66428E-01
 -1       261 7.21711E-01
 -1       262 8.92561E-01
 -1       263 1.06976E+00
 -1       264 1.28475E+00
 -1       265 1.68541E+00
 -1       266 2.18193E+00
 -1       267 2.58124E+00
 -1       268 3.25877E+00
 -1       269 4.10400E+00
 -1       270 4.81960E+00
 -1       271 8.83808E+00
 -1       272 1.51665E+01
 -1       273 2.44780E+01
 -1       274 2.55005E+01
 -1       275 1.92760E+01
 -1       276 8.72714E+00
 -1       277 6.54204E+00
 -1       278 8.71652E+00
 -1       279 9.53110E+00
 -1       280 1.31106E+01
 -1       281 3.88339E+01
 -1       282 1.40170E+01
 -1       283 9.49475E+00
 -1       284 8.80259E+00
 -1       285 8.80136E+00
 -1       286 4.84696E+00
 -1       287 1.91230E+00
 -1       288 7.72465E-01
 -1       289 4.09892E-01
 -1       290 4.09892E-01
 -1       291 9.01851E-01
 -1       292 3.88339E+01
 -1       293 3.74557E+01
 -1       294 4.17174E+01
 -1       295 1.62589E+01
 -1       296 1.23493E+01
 -1       297 1.40737E+01
 -1       298 1.34491E+01
 -1       299 1.38022E+01
 -1       300 1.29219E+01
 -1       301 1.26586E+01
 -1       302 2.37464E+01
 -1       303 4.92686E+01
 -1       304 3.20599E+01
 -1       305 2.69849E+01
 -1       306 2.69849E+01
 -1       307 2.25150E+01
 -1       308 3.08275E+01
 -1       309 3.08275E+01
 -1       310 1.29912E+01
 -1       311 1.19519E+01
 -1       312 1.20437E+01
 -1       313 1.26194E+01
 -1       314 1.21625E+01
 -1       315 1.20856E+01
 -1       316 1.20079E+01
 -1       317 1.26717E+01
 -1       318 3.74290E+01
 -1       319 3.74189E+01
 -1       320 3.88339E+01
 -1       321 2.84948E+01
 -1       322 1.04723E+00
 -1       323 2.48011E+00
 -1       324 7.91663E-01
 -1       325 6.94109E-01
 -1       326 6.31708E-01
 -1       327 5.87483E-01
 -1       328 5.90746E-01
 -1       329 6.34541E-01
 -1       330 7.01385E-01
 -1       331 7.96492E-01
 -1       332 9.30666E-01
 -1       333 1.14553E+00
 -1       334 1.33194E+00
 -1       335 2.19666E+00
 -1       336 1.91520E+00
 -1       337 1.72841E+00
 -1       338 1.26646E+00
 -1       339 9.05872E-01
 -1       340 6.54485E-01
 -1       341 5.37568E-01
 -1       342 4.40132E-01
 -1       343 3.54140E-01
 -1       344 2.88144E-01
 -1       345 2.32330E-01
 -1       346 1.84212E-01
 -1       347 1.48537E-01
 -1       348 1.18672E-01
 -1       349 9.35532E-02
 -1       350 7.29885E-02
 -1       351 5.65644E-02
 -1       352 4.37559E-02
 -1       353 3.39909E-02
 -1       354 2.66850E-02
 -1       355 2.12545E-02
 -1       356 2.11534E-02
 -1       357 2.43278E-02
 -1       358 3.12725E-02
 -1       359 4.19447E-02
 -1       360 5.60326E-02
 -1       361 7.55640E-02
 -1       362 1.04096E-01
 -1       363 1.38031E-01
 -1       364 1.76143E-01
 -1       365 2.15635E-01
 -1       366 2.51531E-01
 -1       367 2.94106E-01
 -1       368 3.38219E-01
 -1       369 3.75989E-01
 -1       370 3.78995E-01
 -1       371 3.50996E-01
 -1       372 3.58065E-01
 -1       373 4.98012E-01
 -1       374 8.36232E-01
 -1       375 1.31225E+00
 -1       376 1.71193E+00
 -1       377 2.09760E+00
 -1       378 2.26662E+00
 -1       379 2.00185E+00
 -1       380 1.88709E+00
 -1       381 1.57252E+00
 -1       382 9.89839E-01
 -1       383 9.47604E+00
 -1       384 1.12654E+00
 -1       385 8.84668E-01
 -1       386 7.01869E-01
 -1       387 5.43275E-01
 -1       388 4.36434E-01
 -1       389 3.69551E-01
 -1       390 3.05294E-01
 -1       391 2.49241E-01
 -1       392 2.03314E-01
 -1       393 1.62940E-01
 -1       394 1.28828E-01
 -1       395 1.00827E-01
 -1       396 7.79977E-02
 -1       397 5.99053E-02
 -1       398 4.60497E-02
 -1       399 3.59346E-02
 -1       400 2.91109E-02
 -1       401 2.52008E-02
 -1       402 2.54472E-02
 -1       403 2.96846E-02
 -1       404 3.59972E-02
 -1       405 4.54079E-02
 -1       406 6.21724E-02
 -1       407 8.46798E-02
 -1       408 1.14334E-01
 -1       409 1.64651E-01
 -1       410 2.41729E-01
 -1       411 3.48271E-01
 -1       412 4.93522E-01
 -1       413 6.88088E-01
 -1       414 9.42250E-01
 -1       415 1.26174E+00
 -1       416 1.63914E+00
 -1       417 2.03910E+00
 -1       418 2.37910E+00
 -1       419 2.71228E+00
 -1       420 2.79484E+00
 -1       421 3.08304E+00
 -1       422 3.16628E+00
 -1       423 4.46105E+00
 -1       424 5.25324E+00
 -1       425 7.50961E+00
 -1       426 9.78093E+00
 -1       427 8.80587E+00
 -1       428 8.66609E+00
 -1       429 5.50036E+00
 -1       430 1.16790E+01
 -1       431 8.71652E+00
 -1       432 7.16507E+00
 -1       433 8.80136E+00
 -1       434 6.50888E+00
 -1       435 3.84414E+00
 -1       436 2.20449E+00
 -1       437 1.05792E+00
 -1       438 9.89839E-01
 -1       439 9.18496E-01
 -1       440 9.42937E+00
 -1       441 1.33410E+01
 -1       442 1.34491E+01
 -1       443 1.09811E+01
 -1       444 7.99055E+00
 -1       445 1.01363E+01
 -1       446 1.86551E+01
 -1       447 3.20599E+01
 -1       448 2.16622E+01
 -1       449 2.94069E+01
 -1       450 2.94069E+01
 -1       451 1.86035E+01
 -1       452 2.04066E+01
 -1       453 1.18621E+01
 -1       454 6.87878E+00
 -1       455 9.74646E+00
 -1       456 1.09238E+01
 -1       457 1.10441E+01
 -1       458 1.05908E+01
 -1       459 9.90101E+00
 -1       460 7.43456E+00
 -1       461 1.14843E+01
 -1       462 2.18082E+01
 -1       463 7.50007E+00
 -1       464 3.74557E+01
 -1       465 3.74189E+01
 -1       466 2.25087E+01
 -1       467 2.63312E+01
 -1       468 8.43661E+00
 -1       469 4.86114E-01
 -1       470 5.10925E-01
 -1       471 4.31511E-01
 -1       472 4.57535E-01
 -1       473 4.87335E-01
 -1       474 5.11458E-01
 -1       475 5.11458E-01
 -1       476 5.05006E-01
 -1       477 6.74522E-01
 -1       478 1.31723E+00
 -1       479 2.35988E+00
 -1       480 8.84668E-01
 -1       481 8.02545E-01
 -1       482 7.01580E-01
 -1       483 5.87419E-01
 -1       484 4.74848E-01
 -1       485 3.75870E-01
 -1       486 3.21252E-01
 -1       487 2.70763E-01
 -1       488 2.22892E-01
 -1       489 1.84013E-01
 -1       490 1.49860E-01
 -1       491 1.20035E-01
 -1       492 9.48191E-02
 -1       493 7.61849E-02
 -1       494 6.05189E-02
 -1       495 4.76049E-02
 -1       496 3.71296E-02
 -1       497 2.86792E-02
 -1       498 2.17767E-02
 -1       499 1.81596E-02
 -1       500 1.95273E-02
 -1       501 2.43278E-02
 -1       502 3.20367E-02
 -1       503 4.78840E-02
 -1       504 6.79678E-02
 -1       505 9.27818E-02
 -1       506 1.22402E-01
 -1       507 1.56187E-01
 -1       508 1.92384E-01
 -1       509 2.27648E-01
 -1       510 2.66850E-01
 -1       511 2.95220E-01
 -1       512 3.11398E-01
 -1       513 3.11508E-01
 -1       514 2.92000E-01
 -1       515 3.75947E-01
 -1       516 4.49814E-01
 -1       517 7.23732E-01
 -1       518 1.05400E+00
 -1       519 1.46542E+00
 -1       520 1.71487E+00
 -1       521 1.97408E+00
 -1       522 2.10983E+00
 -1       523 1.72281E+00
 -1       524 1.55303E+00
 -1       525 7.01869E-01
 -1       526 9.38183E-01
 -1       527 5.43275E-01
 -1       528 4.36434E-01
 -1       529 3.69551E-01
 -1       530 3.05294E-01
 -1       531 2.49241E-01
 -1       532 2.04115E-01
 -1       533 1.64348E-01
 -1       534 1.30264E-01
 -1       535 1.05094E-01
 -1       536 8.38467E-02
 -1       537 6.61959E-02
 -1       538 5.19031E-02
 -1       539 4.05849E-02
 -1       540 3.17775E-02
 -1       541 2.49714E-02
 -1       542 2.08660E-02
 -1       543 2.12227E-02
 -1       544 2.48280E-02
 -1       545 3.32564E-02
 -1       546 4.63484E-02
 -1       547 7.13337E-02
 -1       548 1.06128E-01
 -1       549 1.54155E-01
 -1       550 2.19846E-01
 -1       551 3.08889E-01
 -1       552 4.28426E-01
 -1       553 5.87097E-01
 -1       554 7.94647E-01
 -1       555 1.06059E+00
 -1       556 1.39102E+00
 -1       557 1.78243E+00
 -1       558 2.21176E+00
 -1       559 2.61947E+00
 -1       560 2.98631E+00
 -1       561 3.74742E+00
 -1       562 5.38870E+00
 -1       563 4.46105E+00
 -1       564 6.61228E+00
 -1       565 7.45221E+00
 -1       566 1.06025E+01
 -1       567 1.15959E+01
 -1       568 8.29481E+00
 -1       569 6.25820E+00
 -1       570 5.01113E+00
 -1       571 8.73477E-01
 -1       572 8.43661E+00
 -1       573 9.35597E-01
 -1       574 1.69453E+01
 -1       575 1.43544E+01
 -1       576 4.57281E-01
 -1       577 8.77248E+00
 -1       578 8.47468E+00
 -1       579 2.94069E+01
 -1       580 6.74624E+00
 -1       581 2.16622E+01
 -1       582 1.06519E+01
 -1       583 1.84718E+01
 -1       584 1.16772E+01
 -1       585 7.19998E+00
 -1       586 4.48892E+00
 -1       587 6.91328E+00
 -1       588 9.74426E+00
 -1       589 1.16772E+01
 -1       590 6.51747E+00
 -1       591 7.20278E-01
 -1       592 9.89839E-01
 -1       593 7.00309E+00
 -1       594 3.58282E-01
 -1       595 3.42591E-01
 -1       596 3.60989E-01
 -1       597 3.37731E-01
 -1       598 3.25853E-01
 -1       599 4.61445E-01
 -1       600 5.14171E-01
 -1       601 7.85727E+00
 -1       602 3.96375E-01
 -1       603 3.82728E-01
 -1       604 3.41705E-01
 -1       605 2.91859E-01
 -1       606 2.41945E-01
 -1       607 2.10773E-01
 -1       608 1.78084E-01
 -1       609 1.46931E-01
 -1       610 1.18889E-01
 -1       611 9.52338E-02
 -1       612 7.63303E-02
 -1       613 6.05189E-02
 -1       614 4.76049E-02
 -1       615 3.71296E-02
 -1       616 2.86792E-02
 -1       617 2.17767E-02
 -1       618 1.65640E-02
 -1       619 1.39111E-02
 -1       620 1.66254E-02
 -1       621 2.53324E-02
 -1       622 3.87653E-02
 -1       623 5.56369E-02
 -1       624 7.65993E-02
 -1       625 1.02122E-01
 -1       626 1.32318E-01
 -1       627 1.66694E-01
 -1       628 2.06156E-01
 -1       629 2.48489E-01
 -1       630 2.86409E-01
 -1       631 3.22124E-01
 -1       632 3.60461E-01
 -1       633 3.94438E-01
 -1       634 4.47718E-01
 -1       635 6.14920E-01
 -1       636 7.71166E-01
 -1       637 1.01501E+00
 -1       638 1.37833E+00
 -1       639 1.66612E+00
 -1       640 1.99522E+00
 -1       641 2.58752E+00
 -1       642 2.91825E+00
 -1       643 2.62768E+00
 -1       644 3.94448E-01
 -1       645 2.71443E-01
 -1       646 2.31256E-01
 -1       647 1.93603E-01
 -1       648 1.59366E-01
 -1       649 1.31109E-01
 -1       650 1.06021E-01
 -1       651 8.45320E-02
 -1       652 6.66504E-02
 -1       653 5.29687E-02
 -1       654 4.19159E-02
 -1       655 3.27730E-02
 -1       656 2.51749E-02
 -1       657 1.99598E-02
 -1       658 1.70071E-02
 -1       659 1.94593E-02
 -1       660 2.50223E-02
 -1       661 4.04075E-02
 -1       662 6.11522E-02
 -1       663 8.91482E-02
 -1       664 1.26765E-01
 -1       665 1.76975E-01
 -1       666 2.43510E-01
 -1       667 3.31042E-01
 -1       668 4.45442E-01
 -1       669 5.94155E-01
 -1       670 7.94647E-01
 -1       671 1.07009E+00
 -1       672 1.46487E+00
 -1       673 1.95957E+00
 -1       674 2.52524E+00
 -1       675 3.31231E+00
 -1       676 3.97050E+00
 -1       677 5.49046E+00
 -1       678 6.44684E+00
 -1       679 4.18103E+00
 -1       680 1.16772E+01
 -1       681 1.71036E+00
 -1       682 1.18337E+01
 -1       683 1.57238E+01
 -1       684 1.00542E+01
 -1       685 1.26847E+01
 -1       686 1.78482E+01
 -1       687 4.07348E-01
 -1       688 1.62335E+01
 -1       689 3.60989E-01
 -1       690 4.49444E+00
 -1       691 4.26262E+00
 -1       692 3.61761E-01
 -1       693 8.86355E+00
 -1       694 3.42015E-01
 -1       695 5.77241E-01
 -1       696 1.12627E+01
 -1       697 7.69965E+00
 -1       698 4.15711E-01
 -1       699 3.57443E-01
 -1       700 4.48190E-01
 -1       701 5.85510E+00
 -1       702 2.46639E-01
 -1       703 2.15442E-01
 -1       704 2.32075E-01
 -1       705 3.06419E-01
 -1       706 2.54216E-01
 -1       707 2.47210E-01
 -1       708 2.25259E-01
 -1       709 1.96751E-01
 -1       710 1.70236E-01
 -1       711 1.48916E-01
 -1       712 1.26559E-01
 -1       713 1.05093E-01
 -1       714 8.55895E-02
 -1       715 6.85295E-02
 -1       716 5.40142E-02
 -1       717 4.18911E-02
 -1       718 3.18428E-02
 -1       719 2.34485E-02
 -1       720 1.62227E-02
 -1       721 9.79944E-03
 -1       722 9.48608E-03
 -1       723 1.66220E-02
 -1       724 2.74930E-02
 -1       725 4.10695E-02
 -1       726 5.88150E-02
 -1       727 8.04554E-02
 -1       728 1.05775E-01
 -1       729 1.38216E-01
 -1       730 1.78729E-01
 -1       731 2.24828E-01
 -1       732 2.74188E-01
 -1       733 3.22124E-01
 -1       734 3.82856E-01
 -1       735 4.56656E-01
 -1       736 5.47125E-01
 -1       737 6.24346E-01
 -1       738 9.03896E-01
 -1       739 1.16318E+00
 -1       740 1.38968E+00
 -1       741 1.81973E+00
 -1       742 2.30634E+00
 -1       743 3.20724E+00
 -1       744 4.63213E+00
 -1       745 3.67699E+00
 -1       746 1.00170E+01
 -1       747 1.87066E-01
 -1       748 1.61218E-01
 -1       749 1.35317E-01
 -1       750 1.11170E-01
 -1       751 8.97021E-02
 -1       752 7.12571E-02
 -1       753 5.58053E-02
 -1       754 4.30877E-02
 -1       755 3.27730E-02
 -1       756 2.51749E-02
 -1       757 1.91642E-02
 -1       758 1.41859E-02
 -1       759 1.25467E-02
 -1       760 1.78900E-02
 -1       761 3.00303E-02
 -1       762 4.56815E-02
 -1       763 6.60385E-02
 -1       764 9.24960E-02
 -1       765 1.32533E-01
 -1       766 1.89686E-01
 -1       767 2.69824E-01
 -1       768 3.79414E-01
 -1       769 5.28625E-01
 -1       770 7.30979E-01
 -1       771 1.00450E+00
 -1       772 1.37326E+00
 -1       773 1.86802E+00
 -1       774 2.52524E+00
 -1       775 3.53124E+00
 -1       776 9.12954E+00
 -1       777 2.52446E-01
 -1       778 4.45471E+00
 -1       779 4.63923E+00
 -1       780 2.85407E-01
 -1       781 4.59993E+00
 -1       782 1.95647E-01
 -1       783 1.04833E+01
 -1       784 2.98665E-01
 -1       785 2.88616E-01
 -1       786 3.72576E+00
 -1       787 7.81937E+00
 -1       788 2.06736E-01
 -1       789 9.64971E+00
 -1       790 2.81465E-01
 -1       791 2.80218E-01
 -1       792 9.12900E+00
 -1       793 8.29338E+00
 -1       794 1.99554E-01
 -1       795 4.63213E+00
 -1       796 1.99554E-01
 -1       797 2.88616E-01
 -1       798 4.63213E+00
 -1       799 1.73769E-01
 -1       800 1.81448E-01
 -1       801 1.74084E-01
 -1       802 1.58262E-01
 -1       803 1.38534E-01
 -1       804 1.22065E-01
 -1       805 1.05618E-01
 -1       806 8.90472E-02
 -1       807 7.34663E-02
 -1       808 5.94757E-02
 -1       809 4.73094E-02
 -1       810 3.69435E-02
 -1       811 2.81751E-02
 -1       812 2.06988E-02
 -1       813 1.41320E-02
 -1       814 1.44821E-02
 -1       815 1.64527E-02
 -1       816 2.64833E-02
 -1       817 4.01767E-02
 -1       818 5.74791E-02
 -1       819 7.89299E-02
 -1       820 1.04854E-01
 -1       821 1.35108E-01
 -1       822 1.68751E-01
 -1       823 2.03556E-01
 -1       824 2.49053E-01
 -1       825 3.11621E-01
 -1       826 3.87833E-01
 -1       827 4.76535E-01
 -1       828 6.00869E-01
 -1       829 7.74916E-01
 -1       830 9.60173E-01
 -1       831 1.24529E+00
 -1       832 1.63621E+00
 -1       833 1.81973E+00
 -1       834 2.39454E+00
 -1       835 1.33573E-01
 -1       836 1.74374E-01
 -1       837 1.14711E-01
 -1       838 9.61013E-02
 -1       839 7.88708E-02
 -1       840 6.35727E-02
 -1       841 5.03758E-02
 -1       842 3.92138E-02
 -1       843 2.98473E-02
 -1       844 2.19096E-02
 -1       845 1.49742E-02
 -1       846 1.18497E-02
 -1       847 1.36965E-02
 -1       848 2.47095E-02
 -1       849 3.92213E-02
 -1       850 5.85248E-02
 -1       851 8.55659E-02
 -1       852 1.22487E-01
 -1       853 1.72127E-01
 -1       854 2.38605E-01
 -1       855 3.27386E-01
 -1       856 4.45879E-01
 -1       857 6.04472E-01
 -1       858 8.18516E-01
 -1       859 1.11266E+00
 -1       860 1.53001E+00
 -1       861 2.15377E+00
 -1       862 3.09408E+00
 -1       863 4.77758E+00
 -1       864 1.95254E-01
 -1       865 1.41003E-01
 -1       866 1.73008E-01
 -1       867 2.67147E-01
 -1       868 1.54833E-01
 -1       869 1.13276E-01
 -1       870 4.92984E+00
 -1       871 2.97983E+00
 -1       872 6.96903E+00
 -1       873 1.49635E-01
 -1       874 1.50798E-01
 -1       875 3.95462E+00
 -1       876 8.00904E+00
 -1       877 5.23234E+00
 -1       878 3.12385E+00
 -1       879 2.08427E-01
 -1       880 2.16893E-01
 -1       881 2.06706E-01
 -1       882 1.96243E-01
 -1       883 9.12954E+00
 -1       884 2.16893E-01
 -1       885 1.23644E-01
 -1       886 1.22918E-01
 -1       887 4.16475E+00
 -1       888 4.41398E+00
 -1       889 1.35231E-01
 -1       890 1.34500E-01
 -1       891 1.25633E-01
 -1       892 1.12345E-01
 -1       893 9.72223E-02
 -1       894 8.47339E-02
 -1       895 7.18916E-02
 -1       896 5.96360E-02
 -1       897 4.85193E-02
 -1       898 3.87854E-02
 -1       899 3.04304E-02
 -1       900 2.33374E-02
 -1       901 1.76710E-02
 -1       902 1.77952E-02
 -1       903 1.95853E-02
 -1       904 2.31619E-02
 -1       905 3.50730E-02
 -1       906 5.04409E-02
 -1       907 7.00333E-02
 -1       908 9.46131E-02
 -1       909 1.24821E-01
 -1       910 1.60993E-01
 -1       911 2.02861E-01
 -1       912 2.49053E-01
 -1       913 3.00845E-01
 -1       914 3.76012E-01
 -1       915 4.84649E-01
 -1       916 6.50450E-01
 -1       917 8.49587E-01
 -1       918 1.07345E+00
 -1       919 1.41519E+00
 -1       920 3.00014E+00
 -1       921 1.68653E+00
 -1       922 9.39073E-02
 -1       923 9.06408E-02
 -1       924 1.08040E-01
 -1       925 6.57582E-02
 -1       926 5.33512E-02
 -1       927 4.24911E-02
 -1       928 3.32004E-02
 -1       929 2.52734E-02
 -1       930 1.84811E-02
 -1       931 1.59901E-02
 -1       932 1.74461E-02
 -1       933 2.20805E-02
 -1       934 3.40005E-02
 -1       935 5.07097E-02
 -1       936 7.29739E-02
 -1       937 1.02280E-01
 -1       938 1.40573E-01
 -1       939 1.90227E-01
 -1       940 2.54171E-01
 -1       941 3.36108E-01
 -1       942 4.40940E-01
 -1       943 5.75668E-01
 -1       944 7.57605E-01
 -1       945 1.02272E+00
 -1       946 1.39240E+00
 -1       947 1.93686E+00
 -1       948 2.60231E+00
 -1       949 1.51225E-01
 -1       950 1.94440E-01
 -1       951 4.75543E+00
 -1       952 3.26798E+00
 -1       953 2.43795E-01
 -1       954 7.94401E-02
 -1       955 1.39556E-01
 -1       956 4.20980E+00
 -1       957 2.49549E+00
 -1       958 1.06188E-01
 -1       959 1.10408E-01
 -1       960 1.51813E-01
 -1       961 2.43795E-01
 -1       962 1.86634E-01
 -1       963 1.54606E-01
 -1       964 3.51072E+00
 -1       965 1.51813E-01
 -1       966 1.07001E-01
 -1       967 1.01303E-01
 -1       968 1.02671E-01
 -1       969 9.72319E-02
 -1       970 8.78988E-02
 -1       971 7.67309E-02
 -1       972 6.51323E-02
 -1       973 5.42568E-02
 -1       974 4.50987E-02
 -1       975 3.68063E-02
 -1       976 2.95309E-02
 -1       977 2.33683E-02
 -1       978 2.01816E-02
 -1       979 1.96608E-02
 -1       980 2.09718E-02
 -1       981 2.42908E-02
 -1       982 3.05041E-02
 -1       983 3.99767E-02
 -1       984 5.58986E-02
 -1       985 7.69706E-02
 -1       986 1.04162E-01
 -1       987 1.38814E-01
 -1       988 1.82352E-01
 -1       989 2.36096E-01
 -1       990 3.00845E-01
 -1       991 3.76012E-01
 -1       992 4.81931E-01
 -1       993 6.34719E-01
 -1       994 8.75533E-01
 -1       995 1.35061E+00
 -1       996 2.08888E+00
 -1       997 3.11998E+00
 -1       998 1.44077E-01
 -1       999 1.09635E-01
 -1      1000 9.54149E-02
 -1      1001 8.57760E-02
 -1      1002 4.18092E-02
 -1      1003 5.14291E-02
 -1      1004 2.62179E-02
 -1      1005 2.01027E-02
 -1      1006 1.87413E-02
 -1      1007 1.93429E-02
 -1      1008 2.18586E-02
 -1      1009 2.71295E-02
 -1      1010 3.97573E-02
 -1      1011 5.61829E-02
 -1      1012 7.72777E-02
 -1      1013 1.03951E-01
 -1      1014 1.37077E-01
 -1      1015 1.77381E-01
 -1      1016 2.34241E-01
 -1      1017 3.18499E-01
 -1      1018 4.31852E-01
 -1      1019 5.84505E-01
 -1      1020 7.90408E-01
 -1      1021 1.07677E+00
 -1      1022 1.48911E+00
 -1      1023 3.34809E-02
 -1      1024 1.86634E-01
 -1      1025 1.16462E-01
 -1      1026 9.86419E-02
 -1      1027 3.78786E+00
 -1      1028 8.94681E-02
 -1      1029 1.15814E-01
 -1      1030 2.61201E+00
 -1      1031 9.21360E-02
 -1      1032 6.20650E-02
 -1      1033 2.16866E+00
 -1      1034 1.37955E-01
 -1      1035 7.32737E-02
 -1      1036 1.00791E-01
 -1      1037 1.00791E-01
 -1      1038 1.93429E-02
 -1      1039 5.84006E-02
 -1      1040 8.59374E-02
 -1      1041 8.31116E-02
 -1      1042 7.44918E-02
 -1      1043 5.98661E-02
 -1      1044 5.13916E-02
 -1      1045 5.84006E-02
 -1      1046 3.90626E-02
 -1      1047 3.20167E-02
 -1      1048 2.61391E-02
 -1      1049 2.23868E-02
 -1      1050 2.01816E-02
 -1      1051 2.09718E-02
 -1      1052 2.42908E-02
 -1      1053 3.05041E-02
 -1      1054 3.99767E-02
 -1      1055 5.37742E-02
 -1      1056 7.45289E-02
 -1      1057 1.02948E-01
 -1      1058 1.41804E-01
 -1      1059 1.95022E-01
 -1      1060 2.68159E-01
 -1      1061 3.69015E-01
 -1      1062 5.08333E-01
 -1      1063 7.00467E-01
 -1      1064 9.64079E-01
 -1      1065 1.38231E+00
 -1      1066 1.71710E+00
 -1      1067 2.01452E+00
 -1      1068 8.59374E-02
 -1      1069 1.04344E-01
 -1      1070 2.06614E-02
 -1      1071 2.57421E-02
 -1      1072 2.18586E-02
 -1      1073 2.68413E-02
 -1      1074 3.53366E-02
 -1      1075 4.75815E-02
 -1      1076 6.44433E-02
 -1      1077 8.68670E-02
 -1      1078 1.16172E-01
 -1      1079 1.53957E-01
 -1      1080 2.02099E-01
 -1      1081 2.68159E-01
 -1      1082 4.02283E-01
 -1      1083 6.09537E-01
 -1      1084 9.18746E-01
 -1      1085 1.38231E+00
 -1      1086 1.71710E+00
 -1      1087 2.31406E+00
 -1      1088 3.20167E-02
 -1      1089 8.13043E-02
 -1      1090 3.90626E-02
 -1      1091 8.79795E-02
 -1      1092 8.31116E-02
 -1      1093 5.58309E-02
 -1      1094 5.53287E-02
 -1      1095 8.66156E-02
 -1      1096 1.86071E+00
 -1      1097 6.22916E-02
 -1      1098 7.44918E-02
 -1      1099 5.84006E-02
 -1      1100 7.61079E-02
 -1      1101 5.54723E-02
 -1      1102 5.14315E-02
 -1      1103 1.31425E+01
 -1      1104 8.40305E+00
 -1      1105 2.74383E+00
 -1      1106 1.55794E+00
 -1      1107 1.16892E+00
 -1      1108 9.72702E-01
 -1      1109 8.54065E-01
 -1      1110 7.81208E-01
 -1      1111 7.54592E-01
 -1      1112 7.84316E-01
 -1      1113 8.56949E-01
 -1      1114 9.76885E-01
 -1      1115 1.17976E+00
 -1      1116 1.56920E+00
 -1      1117 2.67025E+00
 -1      1118 6.07485E+00
 -1      1119 1.13398E+01
 -1      1120 1.31425E+01
 -1      1121 8.72992E+00
 -1      1122 3.82873E+00
 -1      1123 2.72536E+00
 -1      1124 1.73606E+00
 -1      1125 1.18764E+00
 -1      1126 8.94173E-01
 -1      1127 6.84614E-01
 -1      1128 5.24344E-01
 -1      1129 4.00036E-01
 -1      1130 3.06283E-01
 -1      1131 2.34497E-01
 -1      1132 1.76959E-01
 -1      1133 1.31605E-01
 -1      1134 9.64997E-02
 -1      1135 7.26318E-02
 -1      1136 5.67725E-02
 -1      1137 4.36237E-02
 -1      1138 3.30062E-02
 -1      1139 2.48646E-02
 -1      1140 2.11316E-02
 -1      1141 2.37450E-02
 -1      1142 3.03596E-02
 -1      1143 3.84323E-02
 -1      1144 4.74160E-02
 -1      1145 6.07051E-02
 -1      1146 8.11427E-02
 -1      1147 1.06935E-01
 -1      1148 1.36627E-01
 -1      1149 1.68526E-01
 -1      1150 1.99430E-01
 -1      1151 2.41461E-01
 -1      1152 3.08161E-01
 -1      1153 3.93526E-01
 -1      1154 4.79607E-01
 -1      1155 5.41086E-01
 -1      1156 6.05934E-01
 -1      1157 7.00144E-01
 -1      1158 7.97386E-01
 -1      1159 1.02415E+00
 -1      1160 1.34593E+00
 -1      1161 1.93038E+00
 -1      1162 2.78120E+00
 -1      1163 3.32998E+00
 -1      1164 3.47088E+00
 -1      1165 3.43045E+00
 -1      1166 3.22539E+00
 -1      1167 2.53749E+00
 -1      1168 1.79685E+00
 -1      1169 9.49796E-01
 -1      1170 1.40385E+01
 -1      1171 8.71709E+00
 -1      1172 2.90456E+00
 -1      1173 2.03909E+00
 -1      1174 1.40443E+00
 -1      1175 1.02534E+00
 -1      1176 8.19063E-01
 -1      1177 6.59751E-01
 -1      1178 5.27982E-01
 -1      1179 4.18142E-01
 -1      1180 3.30803E-01
 -1      1181 2.62154E-01
 -1      1182 2.04918E-01
 -1      1183 1.57754E-01
 -1      1184 1.19690E-01
 -1      1185 8.96322E-02
 -1      1186 6.64906E-02
 -1      1187 4.92632E-02
 -1      1188 3.70806E-02
 -1      1189 2.92304E-02
 -1      1190 2.62378E-02
 -1      1191 2.94474E-02
 -1      1192 3.80552E-02
 -1      1193 5.07272E-02
 -1      1194 6.77120E-02
 -1      1195 8.96429E-02
 -1      1196 1.17312E-01
 -1      1197 1.51638E-01
 -1      1198 1.93584E-01
 -1      1199 2.47965E-01
 -1      1200 3.28485E-01
 -1      1201 4.40849E-01
 -1      1202 5.83452E-01
 -1      1203 7.58556E-01
 -1      1204 9.62023E-01
 -1      1205 1.17616E+00
 -1      1206 1.35906E+00
 -1      1207 1.62943E+00
 -1      1208 2.20226E+00
 -1      1209 2.92001E+00
 -1      1210 3.68139E+00
 -1      1211 4.46180E+00
 -1      1212 6.15595E+00
 -1      1213 1.13294E+01
 -1      1214 1.98223E+01
 -1      1215 2.49893E+01
 -1      1216 2.55005E+01
 -1      1217 2.23883E+01
 -1      1218 1.40016E+01
 -1      1219 5.53789E+00
 -1      1220 3.21263E+00
 -1      1221 5.03337E+00
 -1      1222 7.76061E+00
 -1      1223 9.79494E+00
 -1      1224 1.30559E+01
 -1      1225 1.78804E+01
 -1      1226 1.97078E+01
 -1      1227 1.50884E+01
 -1      1228 9.98187E+00
 -1      1229 8.61046E+00
 -1      1230 6.03819E+00
 -1      1231 3.08104E+00
 -1      1232 1.17919E+00
 -1      1233 4.15968E-01
 -1      1234 2.67864E-01
 -1      1235 4.71509E-01
 -1      1236 8.98566E-01
 -1      1237 7.12254E-01
 -1      1238 3.07655E+01
 -1      1239 3.62415E+01
 -1      1240 4.17174E+01
 -1      1241 2.82948E+01
 -1      1242 1.44730E+01
 -1      1243 1.40737E+01
 -1      1244 1.39379E+01
 -1      1245 1.38022E+01
 -1      1246 1.33620E+01
 -1      1247 1.73225E+01
 -1      1248 3.54959E+01
 -1      1249 4.92686E+01
 -1      1250 3.65181E+01
 -1      1251 2.37675E+01
 -1      1252 2.31412E+01
 -1      1253 2.55109E+01
 -1      1254 2.96671E+01
 -1      1255 2.98028E+01
 -1      1256 2.08847E+01
 -1      1257 1.25174E+01
 -1      1258 1.23315E+01
 -1      1259 1.26194E+01
 -1      1260 1.23909E+01
 -1      1261 1.21240E+01
 -1      1262 1.23786E+01
 -1      1263 2.50504E+01
 -1      1264 3.74290E+01
 -1      1265 3.24576E+01
 -1      1266 2.91259E+01
 -1      1267 1.31425E+01
 -1      1268 4.87054E+00
 -1      1269 9.61005E+00
 -1      1270 2.06121E+00
 -1      1271 2.98092E+00
 -1      1272 4.18792E+00
 -1      1273 1.40016E+00
 -1      1274 1.66634E+00
 -1      1275 1.90342E+00
 -1      1276 1.10185E+00
 -1      1277 1.22470E+00
 -1      1278 1.33310E+00
 -1      1279 9.36304E-01
 -1      1280 1.00968E+00
 -1      1281 1.06546E+00
 -1      1282 8.36446E-01
 -1      1283 8.81710E-01
 -1      1284 9.18684E-01
 -1      1285 7.74761E-01
 -1      1286 8.02355E-01
 -1      1287 8.29999E-01
 -1      1288 7.55569E-01
 -1      1289 7.54592E-01
 -1      1290 7.75738E-01
 -1      1291 8.06175E-01
 -1      1292 7.77427E-01
 -1      1293 7.77427E-01
 -1      1294 8.83978E-01
 -1      1295 8.40094E-01
 -1      1296 8.33205E-01
 -1      1297 1.01701E+00
 -1      1298 9.40957E-01
 -1      1299 9.24102E-01
 -1      1300 1.23918E+00
 -1      1301 1.11235E+00
 -1      1302 1.07643E+00
 -1      1303 1.67967E+00
 -1      1304 1.41705E+00
 -1      1305 1.34964E+00
 -1      1306 2.88406E+00
 -1      1307 2.04563E+00
 -1      1308 1.89348E+00
 -1      1309 6.28715E+00
 -1      1310 3.72097E+00
 -1      1311 3.09636E+00
 -1      1312 1.40385E+01
 -1      1313 1.13398E+01
 -1      1314 8.98590E+00
 -1      1315 1.40385E+01
 -1      1316 8.72992E+00
 -1      1317 4.31730E+00
 -1      1318 3.82873E+00
 -1      1319 3.34015E+00
 -1      1320 3.82873E+00
 -1      1321 2.72536E+00
 -1      1322 2.11057E+00
 -1      1323 2.72536E+00
 -1      1324 1.77835E+00
 -1      1325 1.40385E+00
 -1      1326 1.77835E+00
 -1      1327 1.19302E+00
 -1      1328 1.01911E+00
 -1      1329 1.23531E+00
 -1      1330 8.94173E-01
 -1      1331 7.74612E-01
 -1      1332 8.99547E-01
 -1      1333 6.84614E-01
 -1      1334 5.94617E-01
 -1      1335 6.84614E-01
 -1      1336 5.30662E-01
 -1      1337 4.60390E-01
 -1      1338 5.30662E-01
 -1      1339 4.10148E-01
 -1      1340 3.56113E-01
 -1      1341 4.16466E-01
 -1      1342 3.16844E-01
 -1      1343 2.77127E-01
 -1      1344 3.26956E-01
 -1      1345 2.48470E-01
 -1      1346 2.16402E-01
 -1      1347 2.59031E-01
 -1      1348 1.91986E-01
 -1      1349 1.66516E-01
 -1      1350 2.05959E-01
 -1      1351 1.46248E-01
 -1      1352 1.26364E-01
 -1      1353 1.61275E-01
 -1      1354 1.09924E-01
 -1      1355 9.47020E-02
 -1      1356 1.24566E-01
 -1      1357 8.16648E-02
 -1      1358 7.30188E-02
 -1      1359 9.50890E-02
 -1      1360 6.29272E-02
 -1      1361 5.57139E-02
 -1      1362 7.19602E-02
 -1      1363 4.81193E-02
 -1      1364 4.21838E-02
 -1      1365 5.42740E-02
 -1      1366 3.66687E-02
 -1      1367 3.19867E-02
 -1      1368 4.11643E-02
 -1      1369 2.81734E-02
 -1      1370 2.47137E-02
 -1      1371 3.18359E-02
 -1      1372 2.22638E-02
 -1      1373 2.19905E-02
 -1      1374 2.55726E-02
 -1      1375 2.13921E-02
 -1      1376 2.42789E-02
 -1      1377 2.25244E-02
 -1      1378 2.66317E-02
 -1      1379 3.03596E-02
 -1      1380 2.42789E-02
 -1      1381 3.40875E-02
 -1      1382 3.84323E-02
 -1      1383 3.03596E-02
 -1      1384 4.27771E-02
 -1      1385 4.74160E-02
 -1      1386 3.84323E-02
 -1      1387 5.40437E-02
 -1      1388 6.26940E-02
 -1      1389 4.94049E-02
 -1      1390 7.14989E-02
 -1      1391 8.32863E-02
 -1      1392 6.48375E-02
 -1      1393 9.37431E-02
 -1      1394 1.07748E-01
 -1      1395 8.40993E-02
 -1      1396 1.20940E-01
 -1      1397 1.36627E-01
 -1      1398 1.07748E-01
 -1      1399 1.52314E-01
 -1      1400 1.68526E-01
 -1      1401 1.36627E-01
 -1      1402 1.89345E-01
 -1      1403 2.04037E-01
 -1      1404 1.73133E-01
 -1      1405 2.28020E-01
 -1      1406 2.55360E-01
 -1      1407 2.17936E-01
 -1      1408 2.77592E-01
 -1      1409 3.16952E-01
 -1      1410 2.64151E-01
 -1      1411 3.49622E-01
 -1      1412 3.95627E-01
 -1      1413 3.19053E-01
 -1      1414 4.39531E-01
 -1      1415 4.79607E-01
 -1      1416 3.95627E-01
 -1      1417 5.19683E-01
 -1      1418 5.41086E-01
 -1      1419 4.79607E-01
 -1      1420 5.62488E-01
 -1      1421 6.05934E-01
 -1      1422 5.41086E-01
 -1      1423 6.49380E-01
 -1      1424 7.00144E-01
 -1      1425 6.05934E-01
 -1      1426 7.50909E-01
 -1      1427 7.97386E-01
 -1      1428 7.00144E-01
 -1      1429 8.43864E-01
 -1      1430 1.02415E+00
 -1      1431 7.97386E-01
 -1      1432 1.20443E+00
 -1      1433 1.34593E+00
 -1      1434 1.02415E+00
 -1      1435 1.58005E+00
 -1      1436 2.02300E+00
 -1      1437 1.43855E+00
 -1      1438 2.37333E+00
 -1      1439 2.78120E+00
 -1      1440 2.02300E+00
 -1      1441 3.18907E+00
 -1      1442 3.32998E+00
 -1      1443 2.78120E+00
 -1      1444 3.47088E+00
 -1      1445 3.47088E+00
 -1      1446 3.32998E+00
 -1      1447 3.43045E+00
 -1      1448 3.39003E+00
 -1      1449 3.43045E+00
 -1      1450 3.22539E+00
 -1      1451 3.06076E+00
 -1      1452 3.22539E+00
 -1      1453 2.53749E+00
 -1      1454 2.01422E+00
 -1      1455 2.53749E+00
 -1      1456 1.79685E+00
 -1      1457 1.57949E+00
 -1      1458 1.79685E+00
 -1      1459 1.34194E+00
 -1      1460 1.34194E+00
 -1      1461 3.39563E+00
 -1      1462 8.71709E+00
 -1      1463 8.71709E+00
 -1      1464 2.41349E+00
 -1      1465 2.90456E+00
 -1      1466 2.90456E+00
 -1      1467 1.66469E+00
 -1      1468 2.03909E+00
 -1      1469 2.03909E+00
 -1      1470 1.14418E+00
 -1      1471 1.40443E+00
 -1      1472 1.40443E+00
 -1      1473 9.06512E-01
 -1      1474 1.02534E+00
 -1      1475 1.02534E+00
 -1      1476 7.31614E-01
 -1      1477 8.19063E-01
 -1      1478 8.19063E-01
 -1      1479 5.87887E-01
 -1      1480 6.59751E-01
 -1      1481 6.59751E-01
 -1      1482 4.68077E-01
 -1      1483 5.27982E-01
 -1      1484 5.27982E-01
 -1      1485 3.68207E-01
 -1      1486 4.18142E-01
 -1      1487 4.18142E-01
 -1      1488 2.93398E-01
 -1      1489 3.30803E-01
 -1      1490 3.30803E-01
 -1      1491 2.30910E-01
 -1      1492 2.62154E-01
 -1      1493 2.62154E-01
 -1      1494 1.80310E-01
 -1      1495 2.06302E-01
 -1      1496 2.06302E-01
 -1      1497 1.39031E-01
 -1      1498 1.60203E-01
 -1      1499 1.61587E-01
 -1      1500 1.05739E-01
 -1      1501 1.22629E-01
 -1      1502 1.25079E-01
 -1      1503 7.95078E-02
 -1      1504 9.26752E-02
 -1      1505 9.56144E-02
 -1      1506 5.94069E-02
 -1      1507 6.93811E-02
 -1      1508 7.24241E-02
 -1      1509 4.45742E-02
 -1      1510 5.18273E-02
 -1      1511 5.47179E-02
 -1      1512 3.42606E-02
 -1      1513 3.91901E-02
 -1      1514 4.17542E-02
 -1      1515 2.78521E-02
 -1      1516 3.07728E-02
 -1      1517 3.28823E-02
 -1      1518 2.61661E-02
 -1      1519 2.62378E-02
 -1      1520 2.77803E-02
 -1      1521 3.18670E-02
 -1      1522 2.85856E-02
 -1      1523 2.85856E-02
 -1      1524 4.11510E-02
 -1      1525 3.58247E-02
 -1      1526 3.49628E-02
 -1      1527 5.40597E-02
 -1      1528 4.67141E-02
 -1      1529 4.44836E-02
 -1      1530 7.09820E-02
 -1      1531 6.13428E-02
 -1      1532 5.73297E-02
 -1      1533 9.24214E-02
 -1      1534 8.01298E-02
 -1      1535 7.37605E-02
 -1      1536 1.18958E-01
 -1      1537 1.03580E-01
 -1      1538 9.40670E-02
 -1      1539 1.53581E-01
 -1      1540 1.34633E-01
 -1      1541 1.20901E-01
 -1      1542 2.01168E-01
 -1      1543 1.78170E-01
 -1      1544 1.61165E-01
 -1      1545 2.64550E-01
 -1      1546 2.33167E-01
 -1      1547 2.17753E-01
 -1      1548 3.54739E-01
 -1      1549 3.05601E-01
 -1      1550 2.90804E-01
 -1      1551 4.69872E-01
 -1      1552 4.06645E-01
 -1      1553 3.83761E-01
 -1      1554 6.14628E-01
 -1      1555 5.35252E-01
 -1      1556 5.01048E-01
 -1      1557 7.87998E-01
 -1      1558 6.92270E-01
 -1      1559 6.44070E-01
 -1      1560 9.81161E-01
 -1      1561 8.73423E-01
 -1      1562 8.07136E-01
 -1      1563 1.17616E+00
 -1      1564 1.06976E+00
 -1      1565 9.81161E-01
 -1      1566 1.36016E+00
 -1      1567 1.28365E+00
 -1      1568 1.17725E+00
 -1      1569 1.75435E+00
 -1      1570 1.56049E+00
 -1      1571 1.48508E+00
 -1      1572 2.38159E+00
 -1      1573 2.00261E+00
 -1      1574 1.93367E+00
 -1      1575 2.92001E+00
 -1      1576 2.58124E+00
 -1      1577 2.38159E+00
 -1      1578 3.68139E+00
 -1      1579 3.25877E+00
 -1      1580 2.92001E+00
 -1      1581 4.46180E+00
 -1      1582 4.10400E+00
 -1      1583 3.68139E+00
 -1      1584 6.15595E+00
 -1      1585 4.81960E+00
 -1      1586 4.46180E+00
 -1      1587 1.20023E+01
 -1      1588 8.16519E+00
 -1      1589 6.82884E+00
 -1      1590 1.98223E+01
 -1      1591 1.51665E+01
 -1      1592 1.20023E+01
 -1      1593 2.49893E+01
 -1      1594 2.44780E+01
 -1      1595 1.98223E+01
 -1      1596 2.55005E+01
 -1      1597 2.55005E+01
 -1      1598 2.49893E+01
 -1      1599 1.92760E+01
 -1      1600 2.23883E+01
 -1      1601 2.23883E+01
 -1      1602 8.72714E+00
 -1      1603 1.40016E+01
 -1      1604 1.40016E+01
 -1      1605 6.40188E+00
 -1      1606 6.26608E+00
 -1      1607 5.30933E+00
 -1      1608 9.12381E+00
 -1      1609 7.35332E+00
 -1      1610 7.62928E+00
 -1      1611 9.79494E+00
 -1      1612 9.53110E+00
 -1      1613 9.12381E+00
 -1      1614 1.45818E+01
 -1      1615 1.15847E+01
 -1      1616 1.13208E+01
 -1      1617 2.92708E+01
 -1      1618 2.92708E+01
 -1      1619 1.22430E+01
 -1      1620 1.68624E+01
 -1      1621 2.64254E+01
 -1      1622 9.49475E+00
 -1      1623 9.98187E+00
 -1      1624 1.17559E+01
 -1      1625 8.26439E+00
 -1      1626 9.14867E+00
 -1      1627 9.14867E+00
 -1      1628 6.57579E+00
 -1      1629 8.26377E+00
 -1      1630 8.80198E+00
 -1      1631 3.32942E+00
 -1      1632 4.59858E+00
 -1      1633 6.82416E+00
 -1      1634 1.22940E+00
 -1      1635 1.86209E+00
 -1      1636 3.37963E+00
 -1      1637 5.28953E-01
 -1      1638 6.59481E-01
 -1      1639 1.34238E+00
 -1      1640 3.30090E-01
 -1      1641 3.47666E-01
 -1      1642 5.91178E-01
 -1      1643 5.51311E-01
 -1      1644 3.30090E-01
 -1      1645 4.09892E-01
 -1      1646 1.00313E+00
 -1      1647 7.97291E-01
 -1      1648 6.55871E-01
 -1      1649 1.24067E+00
 -1      1650 3.47997E+01
 -1      1651 3.47997E+01
 -1      1652 3.95865E+01
 -1      1653 3.41106E+01
 -1      1654 4.17174E+01
 -1      1655 4.17174E+01
 -1      1656 1.55656E+01
 -1      1657 2.89882E+01
 -1      1658 1.32115E+01
 -1      1659 1.36108E+01
 -1      1660 1.40737E+01
 -1      1661 1.40737E+01
 -1      1662 1.36257E+01
 -1      1663 1.37614E+01
 -1      1664 1.38022E+01
 -1      1665 1.38022E+01
 -1      1666 1.29219E+01
 -1      1667 1.33620E+01
 -1      1668 1.71908E+01
 -1      1669 1.27902E+01
 -1      1670 3.65075E+01
 -1      1671 2.27347E+01
 -1      1672 4.92686E+01
 -1      1673 4.92686E+01
 -1      1674 2.79137E+01
 -1      1675 4.06643E+01
 -1      1676 2.53762E+01
 -1      1677 2.53762E+01
 -1      1678 2.47499E+01
 -1      1679 2.53762E+01
 -1      1680 2.55109E+01
 -1      1681 2.25150E+01
 -1      1682 3.08275E+01
 -1      1683 2.96671E+01
 -1      1684 2.98028E+01
 -1      1685 3.08275E+01
 -1      1686 1.29912E+01
 -1      1687 2.08847E+01
 -1      1688 1.19978E+01
 -1      1689 1.24715E+01
 -1      1690 1.23315E+01
 -1      1691 1.20437E+01
 -1      1692 1.26194E+01
 -1      1693 1.26194E+01
 -1      1694 1.21625E+01
 -1      1695 1.23909E+01
 -1      1696 1.20856E+01
 -1      1697 1.21240E+01
 -1      1698 1.23398E+01
 -1      1699 1.20468E+01
 -1      1700 2.50504E+01
 -1      1701 1.26717E+01
 -1      1702 3.74290E+01
 -1      1703 3.74290E+01
 -1      1704 3.24525E+01
 -1      1705 3.74240E+01
 -1      1706 3.47997E+01
 -1      1707 3.31601E+01
 -1      1708 2.89882E+01
 -1      1709 6.40188E+00
 -1      1710 7.63459E+00
 -1      1711 3.36644E+01
 -1      1712 2.41013E+01
 -1      1713 2.22739E+01
 -1      1714 2.08027E+01
 -1      1715 3.81448E+01
 -1      1716 3.95865E+01
 -1      1717 3.88339E+01
 -1      1718 1.43041E+01
 -1      1719 1.32115E+01
 -1      1720 1.37614E+01
 -1      1721 1.36257E+01
 -1      1722 1.33620E+01
 -1      1723 1.27902E+01
 -1      1724 1.82025E+01
 -1      1725 3.65075E+01
 -1      1726 4.06643E+01
 -1      1727 2.95224E+01
 -1      1728 2.69849E+01
 -1      1729 2.47499E+01
 -1      1730 2.66712E+01
 -1      1731 3.08275E+01
 -1      1732 2.19093E+01
 -1      1733 1.24715E+01
 -1      1734 1.19978E+01
 -1      1735 1.23315E+01
 -1      1736 1.23909E+01
 -1      1737 1.21240E+01
 -1      1738 1.20468E+01
 -1      1739 1.23398E+01
 -1      1740 2.50504E+01
 -1      1741 3.74240E+01
 -1      1742 3.81264E+01
 -1      1743 9.61005E+00
 -1      1744 1.27789E+00
 -1      1745 1.67276E+00
 -1      1746 2.38920E+00
 -1      1747 4.27883E+00
 -1      1748 1.76367E+00
 -1      1749 8.82470E-01
 -1      1750 9.74648E-01
 -1      1751 7.79099E-01
 -1      1752 8.33693E-01
 -1      1753 7.42886E-01
 -1      1754 7.13808E-01
 -1      1755 7.47899E-01
 -1      1756 6.62908E-01
 -1      1757 6.71526E-01
 -1      1758 6.91695E-01
 -1      1759 6.09595E-01
 -1      1760 6.95016E-01
 -1      1761 6.73158E-01
 -1      1762 5.89114E-01
 -1      1763 7.50832E-01
 -1      1764 7.16913E-01
 -1      1765 6.12644E-01
 -1      1766 8.41233E-01
 -1      1767 7.84254E-01
 -1      1768 6.67963E-01
 -1      1769 9.84131E-01
 -1      1770 8.88786E-01
 -1      1771 7.48938E-01
 -1      1772 1.22909E+00
 -1      1773 1.05122E+00
 -1      1774 8.63579E-01
 -1      1775 1.70249E+00
 -1      1776 1.33652E+00
 -1      1777 1.03810E+00
 -1      1778 2.63260E+00
 -1      1779 1.79569E+00
 -1      1780 1.23873E+00
 -1      1781 8.11760E+00
 -1      1782 3.06496E+00
 -1      1783 1.76430E+00
 -1      1784 2.79615E+00
 -1      1785 5.19742E+00
 -1      1786 2.16434E+00
 -1      1787 2.65542E+00
 -1      1788 2.05593E+00
 -1      1789 3.39871E+00
 -1      1790 2.53428E+00
 -1      1791 1.91949E+00
 -1      1792 1.68851E+00
 -1      1793 1.35630E+00
 -1      1794 1.49744E+00
 -1      1795 1.17601E+00
 -1      1796 9.65178E-01
 -1      1797 1.08617E+00
 -1      1798 8.39484E-01
 -1      1799 7.14549E-01
 -1      1800 7.80179E-01
 -1      1801 6.56090E-01
 -1      1802 5.66092E-01
 -1      1803 5.96027E-01
 -1      1804 5.17374E-01
 -1      1805 4.53420E-01
 -1      1806 4.88850E-01
 -1      1807 4.10424E-01
 -1      1808 3.60182E-01
 -1      1809 3.97136E-01
 -1      1810 3.27184E-01
 -1      1811 2.87915E-01
 -1      1812 3.21142E-01
 -1      1813 2.60009E-01
 -1      1814 2.31352E-01
 -1      1815 2.60237E-01
 -1      1816 2.07293E-01
 -1      1817 1.82877E-01
 -1      1818 2.08271E-01
 -1      1819 1.65040E-01
 -1      1820 1.44772E-01
 -1      1821 1.66374E-01
 -1      1822 1.29839E-01
 -1      1823 1.13399E-01
 -1      1824 1.33604E-01
 -1      1825 1.00840E-01
 -1      1826 8.78025E-02
 -1      1827 1.06113E-01
 -1      1828 7.75202E-02
 -1      1829 6.74286E-02
 -1      1830 8.32708E-02
 -1      1831 5.92165E-02
 -1      1832 5.16219E-02
 -1      1833 6.47765E-02
 -1      1834 4.52177E-02
 -1      1835 3.97025E-02
 -1      1836 5.01602E-02
 -1      1837 3.48200E-02
 -1      1838 3.10067E-02
 -1      1839 3.88734E-02
 -1      1840 2.73538E-02
 -1      1841 2.49038E-02
 -1      1842 3.03379E-02
 -1      1843 2.21886E-02
 -1      1844 2.15903E-02
 -1      1845 2.39698E-02
 -1      1846 2.15397E-02
 -1      1847 2.38926E-02
 -1      1848 2.12040E-02
 -1      1849 2.54798E-02
 -1      1850 2.92077E-02
 -1      1851 2.27406E-02
 -1      1852 3.26800E-02
 -1      1853 3.70248E-02
 -1      1854 2.78002E-02
 -1      1855 4.23609E-02
 -1      1856 4.89887E-02
 -1      1857 3.66086E-02
 -1      1858 5.60326E-02
 -1      1859 6.48375E-02
 -1      1860 4.89887E-02
 -1      1861 7.46032E-02
 -1      1862 8.50601E-02
 -1      1863 6.57983E-02
 -1      1864 9.93263E-02
 -1      1865 1.12518E-01
 -1      1866 8.98303E-02
 -1      1867 1.29486E-01
 -1      1868 1.45173E-01
 -1      1869 1.21064E-01
 -1      1870 1.64229E-01
 -1      1871 1.85047E-01
 -1      1872 1.57087E-01
 -1      1873 2.04794E-01
 -1      1874 2.28777E-01
 -1      1875 1.95889E-01
 -1      1876 2.46725E-01
 -1      1877 2.68957E-01
 -1      1878 2.33583E-01
 -1      1879 2.90245E-01
 -1      1880 3.22914E-01
 -1      1881 2.72819E-01
 -1      1882 3.44971E-01
 -1      1883 3.88875E-01
 -1      1884 3.16163E-01
 -1      1885 4.07760E-01
 -1      1886 4.47836E-01
 -1      1887 3.57104E-01
 -1      1888 4.49339E-01
 -1      1889 4.70742E-01
 -1      1890 3.77492E-01
 -1      1891 4.56742E-01
 -1      1892 5.00188E-01
 -1      1893 3.64996E-01
 -1      1894 5.03722E-01
 -1      1895 5.54487E-01
 -1      1896 3.54530E-01
 -1      1897 6.24460E-01
 -1      1898 6.70938E-01
 -1      1899 4.28038E-01
 -1      1900 8.40048E-01
 -1      1901 1.02033E+00
 -1      1902 6.67122E-01
 -1      1903 1.25834E+00
 -1      1904 1.49246E+00
 -1      1905 1.07424E+00
 -1      1906 1.69230E+00
 -1      1907 2.04263E+00
 -1      1908 1.51209E+00
 -1      1909 2.23547E+00
 -1      1910 2.64334E+00
 -1      1911 1.90477E+00
 -1      1912 2.72785E+00
 -1      1913 2.86875E+00
 -1      1914 2.18211E+00
 -1      1915 2.73637E+00
 -1      1916 2.69594E+00
 -1      1917 2.13424E+00
 -1      1918 2.63856E+00
 -1      1919 2.47392E+00
 -1      1920 1.94447E+00
 -1      1921 2.31664E+00
 -1      1922 1.79337E+00
 -1      1923 1.72980E+00
 -1      1924 1.50203E+00
 -1      1925 1.28466E+00
 -1      1926 9.45845E-01
 -1      1927 1.28118E+00
 -1      1928 9.13932E+00
 -1      1929 9.48539E+00
 -1      1930 1.39562E+00
 -1      1931 1.77002E+00
 -1      1932 1.52087E+00
 -1      1933 1.01442E+00
 -1      1934 1.27468E+00
 -1      1935 1.00561E+00
 -1      1936 8.04191E-01
 -1      1937 9.23022E-01
 -1      1938 7.93268E-01
 -1      1939 6.37444E-01
 -1      1940 7.24894E-01
 -1      1941 6.22572E-01
 -1      1942 5.12160E-01
 -1      1943 5.84024E-01
 -1      1944 4.89854E-01
 -1      1945 4.18814E-01
 -1      1946 4.78719E-01
 -1      1947 4.02993E-01
 -1      1948 3.36751E-01
 -1      1949 3.86686E-01
 -1      1950 3.37423E-01
 -1      1951 2.71319E-01
 -1      1952 3.08724E-01
 -1      1953 2.77267E-01
 -1      1954 2.17112E-01
 -1      1955 2.48356E-01
 -1      1956 2.26277E-01
 -1      1957 1.72317E-01
 -1      1958 1.96925E-01
 -1      1959 1.83127E-01
 -1      1960 1.35154E-01
 -1      1961 1.55261E-01
 -1      1962 1.45884E-01
 -1      1963 1.04753E-01
 -1      1964 1.21154E-01
 -1      1965 1.14828E-01
 -1      1966 8.02743E-02
 -1      1967 9.33378E-02
 -1      1968 8.94125E-02
 -1      1969 6.11013E-02
 -1      1970 7.12280E-02
 -1      1971 6.89515E-02
 -1      1972 4.65940E-02
 -1      1973 5.41736E-02
 -1      1974 5.29775E-02
 -1      1975 3.61524E-02
 -1      1976 4.15365E-02
 -1      1977 4.09922E-02
 -1      1978 2.92527E-02
 -1      1979 3.27405E-02
 -1      1980 3.25228E-02
 -1      1981 2.56835E-02
 -1      1982 2.72977E-02
 -1      1983 2.71559E-02
 -1      1984 2.82262E-02
 -1      1985 2.58066E-02
 -1      1986 2.53240E-02
 -1      1987 3.43026E-02
 -1      1988 3.03449E-02
 -1      1989 2.75659E-02
 -1      1990 4.30219E-02
 -1      1991 3.74589E-02
 -1      1992 3.28409E-02
 -1      1993 5.50104E-02
 -1      1994 4.77273E-02
 -1      1995 4.07026E-02
 -1      1996 7.25403E-02
 -1      1997 6.33926E-02
 -1      1998 5.37902E-02
 -1      1999 9.49528E-02
 -1      2000 8.37940E-02
 -1      2001 7.34261E-02
 -1      2002 1.25455E-01
 -1      2003 1.09780E-01
 -1      2004 9.95070E-02
 -1      2005 1.75203E-01
 -1      2006 1.50613E-01
 -1      2007 1.39493E-01
 -1      2008 2.45741E-01
 -1      2009 2.13742E-01
 -1      2010 2.03190E-01
 -1      2011 3.40063E-01
 -1      2012 2.99012E-01
 -1      2013 2.95000E-01
 -1      2014 4.64595E-01
 -1      2015 4.12689E-01
 -1      2016 4.20897E-01
 -1      2017 6.27258E-01
 -1      2018 5.61878E-01
 -1      2019 5.90805E-01
 -1      2020 8.31981E-01
 -1      2021 7.54339E-01
 -1      2022 8.15169E-01
 -1      2023 1.07715E+00
 -1      2024 9.91728E-01
 -1      2025 1.10200E+00
 -1      2026 1.35445E+00
 -1      2027 1.26585E+00
 -1      2028 1.45044E+00
 -1      2029 1.66192E+00
 -1      2030 1.55443E+00
 -1      2031 1.83912E+00
 -1      2032 2.03225E+00
 -1      2033 1.83192E+00
 -1      2034 2.20910E+00
 -1      2035 2.44711E+00
 -1      2036 2.19885E+00
 -1      2037 2.54569E+00
 -1      2038 2.68804E+00
 -1      2039 2.48839E+00
 -1      2040 2.75356E+00
 -1      2041 3.17091E+00
 -1      2042 2.83214E+00
 -1      2043 2.93894E+00
 -1      2044 3.63514E+00
 -1      2045 3.21253E+00
 -1      2046 3.12466E+00
 -1      2047 4.64033E+00
 -1      2048 4.28253E+00
 -1      2049 3.81367E+00
 -1      2050 7.04566E+00
 -1      2051 5.03642E+00
 -1      2052 4.85715E+00
 -1      2053 1.13380E+01
 -1      2054 8.17384E+00
 -1      2055 6.38143E+00
 -1      2056 1.71295E+01
 -1      2057 1.24737E+01
 -1      2058 8.64527E+00
 -1      2059 1.71532E+01
 -1      2060 1.66420E+01
 -1      2061 9.29340E+00
 -1      2062 1.39711E+01
 -1      2063 1.70833E+01
 -1      2064 8.73598E+00
 -1      2065 7.11375E+00
 -1      2066 1.23882E+01
 -1      2067 7.08322E+00
 -1      2068 6.02120E+00
 -1      2069 1.23948E+01
 -1      2070 1.06051E+01
 -1      2071 9.12381E+00
 -1      2072 8.71652E+00
 -1      2073 1.01978E+01
 -1      2074 3.88339E+01
 -1      2075 3.36644E+01
 -1      2076 7.94080E+00
 -1      2077 6.85356E+00
 -1      2078 6.33272E+00
 -1      2079 7.94080E+00
 -1      2080 8.80136E+00
 -1      2081 8.80198E+00
 -1      2082 5.67792E+00
 -1      2083 7.65512E+00
 -1      2084 2.87822E+00
 -1      2085 4.34555E+00
 -1      2086 5.17651E+00
 -1      2087 1.48848E+00
 -1      2088 2.05840E+00
 -1      2089 3.02432E+00
 -1      2090 7.33903E-01
 -1      2091 9.15190E-01
 -1      2092 1.63120E+00
 -1      2093 6.99866E-01
 -1      2094 6.99866E-01
 -1      2095 1.02388E+00
 -1      2096 3.88339E+01
 -1      2097 1.39690E+01
 -1      2098 2.66982E+01
 -1      2099 1.03807E+00
 -1      2100 1.21353E+00
 -1      2101 9.82861E-01
 -1      2102 8.55079E-01
 -1      2103 1.17515E+01
 -1      2104 1.08894E+01
 -1      2105 1.33951E+01
 -1      2106 1.37074E+01
 -1      2107 1.36257E+01
 -1      2108 1.34491E+01
 -1      2109 1.33951E+01
 -1      2110 1.19515E+01
 -1      2111 1.23916E+01
 -1      2112 1.03246E+01
 -1      2113 1.04562E+01
 -1      2114 9.48581E+00
 -1      2115 1.69413E+01
 -1      2116 1.13974E+01
 -1      2117 3.39619E+01
 -1      2118 2.12008E+01
 -1      2119 3.20599E+01
 -1      2120 4.06643E+01
 -1      2121 2.43236E+01
 -1      2122 2.68611E+01
 -1      2123 2.68611E+01
 -1      2124 2.81959E+01
 -1      2125 2.81959E+01
 -1      2126 2.59609E+01
 -1      2127 2.81959E+01
 -1      2128 2.47155E+01
 -1      2129 2.05592E+01
 -1      2130 2.40052E+01
 -1      2131 2.56170E+01
 -1      2132 2.56170E+01
 -1      2133 1.24267E+01
 -1      2134 2.13448E+01
 -1      2135 9.41533E+00
 -1      2136 9.93498E+00
 -1      2137 9.37046E+00
 -1      2138 1.08951E+01
 -1      2139 1.08492E+01
 -1      2140 1.17716E+01
 -1      2141 1.14837E+01
 -1      2142 1.03351E+01
 -1      2143 1.16033E+01
 -1      2144 1.18317E+01
 -1      2145 1.13382E+01
 -1      2146 1.13766E+01
 -1      2147 1.09545E+01
 -1      2148 1.09933E+01
 -1      2149 1.00531E+01
 -1      2150 9.72125E+00
 -1      2151 2.44567E+01
 -1      2152 1.20780E+01
 -1      2153 9.45942E+00
 -1      2154 2.96136E+01
 -1      2155 2.96186E+01
 -1      2156 9.92470E+00
 -1      2157 1.18795E+01
 -1      2158 8.46472E+00
 -1      2159 1.56421E+01
 -1      2160 1.56515E+01
 -1      2161 2.91013E+00
 -1      2162 1.79126E+01
 -1      2163 2.10426E+00
 -1      2164 7.65512E+00
 -1      2165 3.81448E+01
 -1      2166 3.29752E+01
 -1      2167 9.13870E+00
 -1      2168 2.52831E+01
 -1      2169 3.81264E+01
 -1      2170 3.81264E+01
 -1      2171 9.45845E-01
 -1      2172 3.21130E+01
 -1      2173 2.99822E+01
 -1      2174 9.58956E+00
 -1      2175 3.74557E+01
 -1      2176 1.66463E+01
 -1      2177 8.66779E+00
 -1      2178 1.02459E+01
 -1      2179 1.09840E+01
 -1      2180 8.31262E+00
 -1      2181 1.95051E+01
 -1      2182 2.66581E+01
 -1      2183 2.39967E+01
 -1      2184 2.78691E+01
 -1      2185 2.53575E+01
 -1      2186 9.06340E+00
 -1      2187 1.22151E+01
 -1      2188 1.13852E+01
 -1      2189 1.43957E+01
 -1      2190 2.94069E+01
 -1      2191 1.61344E+01
 -1      2192 1.08174E+01
 -1      2193 2.99822E+01
 -1      2194 3.74189E+01
 -1      2195 7.47275E+00
 -1      2196 8.61899E+00
 -1      2197 5.58911E-01
 -1      2198 5.90111E-01
 -1      2199 6.02517E-01
 -1      2200 6.51294E-01
 -1      2201 4.98520E-01
 -1      2202 5.11129E-01
 -1      2203 5.09497E-01
 -1      2204 5.46038E-01
 -1      2205 5.24140E-01
 -1      2206 4.44523E-01
 -1      2207 5.94360E-01
 -1      2208 5.60938E-01
 -1      2209 4.72435E-01
 -1      2210 6.53975E-01
 -1      2211 6.06422E-01
 -1      2212 4.99397E-01
 -1      2213 7.21062E-01
 -1      2214 6.53975E-01
 -1      2215 5.11458E-01
 -1      2216 8.25269E-01
 -1      2217 7.17836E-01
 -1      2218 5.08232E-01
 -1      2219 1.00323E+00
 -1      2220 9.10027E-01
 -1      2221 5.89764E-01
 -1      2222 1.75694E+00
 -1      2223 1.32458E+00
 -1      2224 9.95874E-01
 -1      2225 1.61621E+00
 -1      2226 1.70890E+00
 -1      2227 2.28219E+00
 -1      2228 8.84668E-01
 -1      2229 1.00561E+00
 -1      2230 1.26548E+00
 -1      2231 1.03450E+00
 -1      2232 9.84021E-01
 -1      2233 8.03726E-01
 -1      2234 7.52063E-01
 -1      2235 7.46646E-01
 -1      2236 6.20952E-01
 -1      2237 6.44500E-01
 -1      2238 5.64667E-01
 -1      2239 5.06208E-01
 -1      2240 5.31134E-01
 -1      2241 4.56719E-01
 -1      2242 4.08001E-01
 -1      2243 4.25359E-01
 -1      2244 3.80692E-01
 -1      2245 3.37696E-01
 -1      2246 3.48561E-01
 -1      2247 3.12451E-01
 -1      2248 2.79453E-01
 -1      2249 2.96008E-01
 -1      2250 2.55518E-01
 -1      2251 2.27611E-01
 -1      2252 2.46827E-01
 -1      2253 2.08172E-01
 -1      2254 1.84113E-01
 -1      2255 2.03452E-01
 -1      2256 1.67036E-01
 -1      2257 1.49198E-01
 -1      2258 1.66936E-01
 -1      2259 1.34286E-01
 -1      2260 1.19353E-01
 -1      2261 1.34947E-01
 -1      2262 1.06745E-01
 -1      2263 9.41861E-02
 -1      2264 1.07427E-01
 -1      2265 8.48691E-02
 -1      2266 7.45867E-02
 -1      2267 8.55020E-02
 -1      2268 6.67537E-02
 -1      2269 5.85417E-02
 -1      2270 6.83519E-02
 -1      2271 5.20847E-02
 -1      2272 4.56804E-02
 -1      2273 5.40619E-02
 -1      2274 4.04428E-02
 -1      2275 3.55603E-02
 -1      2276 4.23673E-02
 -1      2277 3.13350E-02
 -1      2278 2.76821E-02
 -1      2279 3.29044E-02
 -1      2280 2.42309E-02
 -1      2281 2.15156E-02
 -1      2282 2.52280E-02
 -1      2283 1.97071E-02
 -1      2284 1.96565E-02
 -1      2285 1.99682E-02
 -1      2286 2.03404E-02
 -1      2287 2.19276E-02
 -1      2288 1.88435E-02
 -1      2289 2.43278E-02
 -1      2290 2.78002E-02
 -1      2291 2.19276E-02
 -1      2292 3.16546E-02
 -1      2293 3.69907E-02
 -1      2294 2.81823E-02
 -1      2295 4.49144E-02
 -1      2296 5.19583E-02
 -1      2297 3.99604E-02
 -1      2298 6.20002E-02
 -1      2299 7.17659E-02
 -1      2300 5.79259E-02
 -1      2301 8.41729E-02
 -1      2302 9.84391E-02
 -1      2303 8.03748E-02
 -1      2304 1.13249E-01
 -1      2305 1.30216E-01
 -1      2306 1.07592E-01
 -1      2307 1.47109E-01
 -1      2308 1.66165E-01
 -1      2309 1.39294E-01
 -1      2310 1.84264E-01
 -1      2311 2.04010E-01
 -1      2312 1.74286E-01
 -1      2313 2.21641E-01
 -1      2314 2.39590E-01
 -1      2315 2.10016E-01
 -1      2316 2.59191E-01
 -1      2317 2.80478E-01
 -1      2318 2.47249E-01
 -1      2319 2.94663E-01
 -1      2320 3.16720E-01
 -1      2321 2.81035E-01
 -1      2322 3.24809E-01
 -1      2323 3.43693E-01
 -1      2324 3.03309E-01
 -1      2325 3.43748E-01
 -1      2326 3.45251E-01
 -1      2327 3.11453E-01
 -1      2328 3.35497E-01
 -1      2329 3.21498E-01
 -1      2330 3.01754E-01
 -1      2331 3.63471E-01
 -1      2332 3.67006E-01
 -1      2333 3.33973E-01
 -1      2334 4.03939E-01
 -1      2335 4.73913E-01
 -1      2336 4.12880E-01
 -1      2337 6.10872E-01
 -1      2338 7.79982E-01
 -1      2339 5.86773E-01
 -1      2340 9.45118E-01
 -1      2341 1.18313E+00
 -1      2342 8.88868E-01
 -1      2343 1.38884E+00
 -1      2344 1.58867E+00
 -1      2345 1.25971E+00
 -1      2346 1.71340E+00
 -1      2347 1.90623E+00
 -1      2348 1.59014E+00
 -1      2349 2.03584E+00
 -1      2350 2.12035E+00
 -1      2351 1.84447E+00
 -1      2352 2.18823E+00
 -1      2353 2.05584E+00
 -1      2354 2.04195E+00
 -1      2355 1.86233E+00
 -1      2356 1.80495E+00
 -1      2357 1.91632E+00
 -1      2358 1.72006E+00
 -1      2359 1.56277E+00
 -1      2360 1.63792E+00
 -1      2361 7.01869E-01
 -1      2362 7.93268E-01
 -1      2363 7.93268E-01
 -1      2364 1.03236E+00
 -1      2365 1.42669E+00
 -1      2366 1.12770E+00
 -1      2367 9.11425E-01
 -1      2368 5.43275E-01
 -1      2369 6.22572E-01
 -1      2370 6.22572E-01
 -1      2371 4.36434E-01
 -1      2372 4.89854E-01
 -1      2373 4.89854E-01
 -1      2374 3.69551E-01
 -1      2375 4.02993E-01
 -1      2376 4.02993E-01
 -1      2377 3.05294E-01
 -1      2378 3.37423E-01
 -1      2379 3.37423E-01
 -1      2380 2.49241E-01
 -1      2381 2.77267E-01
 -1      2382 2.77267E-01
 -1      2383 2.03714E-01
 -1      2384 2.26678E-01
 -1      2385 2.26678E-01
 -1      2386 1.63644E-01
 -1      2387 1.83831E-01
 -1      2388 1.84231E-01
 -1      2389 1.29546E-01
 -1      2390 1.46602E-01
 -1      2391 1.47306E-01
 -1      2392 1.02961E-01
 -1      2393 1.16961E-01
 -1      2394 1.17679E-01
 -1      2395 8.09222E-02
 -1      2396 9.23370E-02
 -1      2397 9.44704E-02
 -1      2398 6.30506E-02
 -1      2399 7.20968E-02
 -1      2400 7.50213E-02
 -1      2401 4.89764E-02
 -1      2402 5.59042E-02
 -1      2403 5.90495E-02
 -1      2404 3.82598E-02
 -1      2405 4.33173E-02
 -1      2406 4.62440E-02
 -1      2407 3.04442E-02
 -1      2408 3.38561E-02
 -1      2409 3.61812E-02
 -1      2410 2.50861E-02
 -1      2411 2.70412E-02
 -1      2412 2.83744E-02
 -1      2413 2.31566E-02
 -1      2414 2.30334E-02
 -1      2415 2.29187E-02
 -1      2416 2.54536E-02
 -1      2417 2.33349E-02
 -1      2418 2.10443E-02
 -1      2419 3.04126E-02
 -1      2420 2.72563E-02
 -1      2421 2.30253E-02
 -1      2422 3.93322E-02
 -1      2423 3.46268E-02
 -1      2424 2.90422E-02
 -1      2425 5.42604E-02
 -1      2426 4.58782E-02
 -1      2427 3.98024E-02
 -1      2428 7.80067E-02
 -1      2429 6.67530E-02
 -1      2430 5.88411E-02
 -1      2431 1.10231E-01
 -1      2432 9.54040E-02
 -1      2433 8.87310E-02
 -1      2434 1.59403E-01
 -1      2435 1.34244E-01
 -1      2436 1.30141E-01
 -1      2437 2.30788E-01
 -1      2438 1.92249E-01
 -1      2439 1.87000E-01
 -1      2440 3.28580E-01
 -1      2441 2.75309E-01
 -1      2442 2.64368E-01
 -1      2443 4.60974E-01
 -1      2444 3.88349E-01
 -1      2445 3.68658E-01
 -1      2446 6.37592E-01
 -1      2447 5.40309E-01
 -1      2448 5.07761E-01
 -1      2449 8.68449E-01
 -1      2450 7.41368E-01
 -1      2451 6.90872E-01
 -1      2452 1.16117E+00
 -1      2453 1.00142E+00
 -1      2454 9.27617E-01
 -1      2455 1.51508E+00
 -1      2456 1.32638E+00
 -1      2457 1.22580E+00
 -1      2458 1.91076E+00
 -1      2459 1.71078E+00
 -1      2460 1.58672E+00
 -1      2461 2.29543E+00
 -1      2462 2.12543E+00
 -1      2463 1.99710E+00
 -1      2464 2.66588E+00
 -1      2465 2.49928E+00
 -1      2466 2.41562E+00
 -1      2467 2.89058E+00
 -1      2468 2.84930E+00
 -1      2469 2.80289E+00
 -1      2470 3.41523E+00
 -1      2471 3.27113E+00
 -1      2472 3.36686E+00
 -1      2473 4.27749E+00
 -1      2474 4.23587E+00
 -1      2475 4.56806E+00
 -1      2476 4.46105E+00
 -1      2477 3.81367E+00
 -1      2478 4.92488E+00
 -1      2479 5.93276E+00
 -1      2480 5.53666E+00
 -1      2481 5.53666E+00
 -1      2482 7.48091E+00
 -1      2483 6.35273E+00
 -1      2484 1.01917E+01
 -1      2485 9.05605E+00
 -1      2486 1.02009E+01
 -1      2487 1.06884E+01
 -1      2488 8.48045E+00
 -1      2489 8.55034E+00
 -1      2490 7.91558E+00
 -1      2491 1.04802E+01
 -1      2492 8.10829E+00
 -1      2493 7.52978E+00
 -1      2494 7.86712E+00
 -1      2495 8.87125E+00
 -1      2496 7.34741E+00
 -1      2497 1.70939E+01
 -1      2498 3.60781E+00
 -1      2499 4.42763E+00
 -1      2500 3.68550E+00
 -1      2501 1.67680E+00
 -1      2502 1.30094E+00
 -1      2503 8.38011E-01
 -1      2504 9.60351E-01
 -1      2505 2.57179E+01
 -1      2506 6.14037E+00
 -1      2507 7.47275E+00
 -1      2508 6.72387E+00
 -1      2509 9.62718E-01
 -1      2510 9.96756E-01
 -1      2511 1.64774E+00
 -1      2512 9.89839E-01
 -1      2513 1.78096E+01
 -1      2514 1.86760E+01
 -1      2515 1.77744E+01
 -1      2516 2.32072E+01
 -1      2517 1.65048E+01
 -1      2518 5.22382E-01
 -1      2519 5.44495E-01
 -1      2520 4.71698E-01
 -1      2521 4.44396E-01
 -1      2522 1.10568E+01
 -1      2523 9.10092E+00
 -1      2524 1.35649E+01
 -1      2525 9.30547E+00
 -1      2526 1.14145E+01
 -1      2527 1.25225E+01
 -1      2528 1.24685E+01
 -1      2529 1.07918E+01
 -1      2530 1.20258E+01
 -1      2531 7.72138E+00
 -1      2532 9.21664E+00
 -1      2533 2.94069E+01
 -1      2534 2.94069E+01
 -1      2535 8.44125E+00
 -1      2536 7.36839E+00
 -1      2537 7.09923E+00
 -1      2538 7.61046E+00
 -1      2539 2.16622E+01
 -1      2540 2.68611E+01
 -1      2541 1.12570E+01
 -1      2542 1.55292E+01
 -1      2543 1.85376E+01
 -1      2544 2.39393E+01
 -1      2545 1.11340E+01
 -1      2546 1.13607E+01
 -1      2547 7.03938E+00
 -1      2548 9.53106E+00
 -1      2549 7.11769E+00
 -1      2550 5.68385E+00
 -1      2551 8.91855E+00
 -1      2552 8.32987E+00
 -1      2553 1.03942E+01
 -1      2554 1.03340E+01
 -1      2555 1.07891E+01
 -1      2556 1.11340E+01
 -1      2557 7.00877E+00
 -1      2558 7.61700E+00
 -1      2559 6.15602E-01
 -1      2560 7.55970E-01
 -1      2561 8.19387E-01
 -1      2562 9.89839E-01
 -1      2563 9.89839E-01
 -1      2564 9.62718E-01
 -1      2565 1.28118E+00
 -1      2566 6.84127E+00
 -1      2567 1.27143E+00
 -1      2568 9.02736E+00
 -1      2569 8.32877E+00
 -1      2570 5.70110E+00
 -1      2571 5.84445E+00
 -1      2572 1.16772E+01
 -1      2573 8.95986E-01
 -1      2574 1.77086E+01
 -1      2575 8.43661E+00
 -1      2576 1.01842E+01
 -1      2577 1.80083E+01
 -1      2578 2.96136E+01
 -1      2579 1.37986E+01
 -1      2580 7.97342E+00
 -1      2581 2.78691E+01
 -1      2582 2.39967E+01
 -1      2583 9.16881E+00
 -1      2584 1.00569E+01
 -1      2585 1.07107E+01
 -1      2586 2.39393E+01
 -1      2587 8.92594E+00
 -1      2588 7.64497E+00
 -1      2589 6.84638E+00
 -1      2590 7.10154E+00
 -1      2591 8.82749E+00
 -1      2592 4.22808E-01
 -1      2593 4.07908E-01
 -1      2594 4.00063E-01
 -1      2595 3.87051E-01
 -1      2596 3.50436E-01
 -1      2597 4.36224E-01
 -1      2598 4.36224E-01
 -1      2599 4.21368E-01
 -1      2600 4.24595E-01
 -1      2601 3.49360E-01
 -1      2602 8.06352E-01
 -1      2603 3.47702E-01
 -1      2604 3.81143E-01
 -1      2605 5.02360E-01
 -1      2606 5.81657E-01
 -1      2607 6.08020E-01
 -1      2608 6.99420E-01
 -1      2609 4.87808E-01
 -1      2610 1.11058E+01
 -1      2611 8.16598E+00
 -1      2612 5.48977E-01
 -1      2613 4.91897E-01
 -1      2614 4.85074E-01
 -1      2615 4.28788E-01
 -1      2616 3.89551E-01
 -1      2617 4.08277E-01
 -1      2618 3.58787E-01
 -1      2619 3.62217E-01
 -1      2620 3.33864E-01
 -1      2621 3.06555E-01
 -1      2622 3.16782E-01
 -1      2623 2.81599E-01
 -1      2624 2.56354E-01
 -1      2625 2.66902E-01
 -1      2626 2.40768E-01
 -1      2627 2.16832E-01
 -1      2628 2.26359E-01
 -1      2629 2.00488E-01
 -1      2630 1.81049E-01
 -1      2631 1.94429E-01
 -1      2632 1.65472E-01
 -1      2633 1.48395E-01
 -1      2634 1.62507E-01
 -1      2635 1.34374E-01
 -1      2636 1.19462E-01
 -1      2637 1.32910E-01
 -1      2638 1.07634E-01
 -1      2639 9.50265E-02
 -1      2640 1.07061E-01
 -1      2641 8.55747E-02
 -1      2642 7.62576E-02
 -1      2643 8.57821E-02
 -1      2644 6.83519E-02
 -1      2645 6.05189E-02
 -1      2646 6.84246E-02
 -1      2647 5.40619E-02
 -1      2648 4.76049E-02
 -1      2649 5.40619E-02
 -1      2650 4.23673E-02
 -1      2651 3.71296E-02
 -1      2652 4.23673E-02
 -1      2653 3.29044E-02
 -1      2654 2.86792E-02
 -1      2655 3.29044E-02
 -1      2656 2.52280E-02
 -1      2657 2.17767E-02
 -1      2658 2.52280E-02
 -1      2659 1.91703E-02
 -1      2660 1.73618E-02
 -1      2661 1.91703E-02
 -1      2662 1.60354E-02
 -1      2663 1.67192E-02
 -1      2664 1.52375E-02
 -1      2665 1.80764E-02
 -1      2666 2.04766E-02
 -1      2667 1.52683E-02
 -1      2668 2.48301E-02
 -1      2669 2.86846E-02
 -1      2670 2.09789E-02
 -1      2671 3.54010E-02
 -1      2672 4.33247E-02
 -1      2673 3.20488E-02
 -1      2674 5.17605E-02
 -1      2675 6.18023E-02
 -1      2676 4.72011E-02
 -1      2677 7.22835E-02
 -1      2678 8.46905E-02
 -1      2679 6.61181E-02
 -1      2680 9.74517E-02
 -1      2681 1.12262E-01
 -1      2682 8.93605E-02
 -1      2683 1.27360E-01
 -1      2684 1.44253E-01
 -1      2685 1.17220E-01
 -1      2686 1.61440E-01
 -1      2687 1.79539E-01
 -1      2688 1.49506E-01
 -1      2689 1.99270E-01
 -1      2690 2.16902E-01
 -1      2691 1.86425E-01
 -1      2692 2.38069E-01
 -1      2693 2.57670E-01
 -1      2694 2.27323E-01
 -1      2695 2.76630E-01
 -1      2696 2.90815E-01
 -1      2697 2.67449E-01
 -1      2698 3.08672E-01
 -1      2699 3.16761E-01
 -1      2700 3.04267E-01
 -1      2701 3.35929E-01
 -1      2702 3.35984E-01
 -1      2703 3.41293E-01
 -1      2704 3.52973E-01
 -1      2705 3.43219E-01
 -1      2706 3.77450E-01
 -1      2707 3.69859E-01
 -1      2708 4.11832E-01
 -1      2709 4.21078E-01
 -1      2710 4.95434E-01
 -1      2711 5.32367E-01
 -1      2712 5.31319E-01
 -1      2713 6.10490E-01
 -1      2714 7.47449E-01
 -1      2715 6.93043E-01
 -1      2716 8.69371E-01
 -1      2717 1.03451E+00
 -1      2718 8.93088E-01
 -1      2719 1.21617E+00
 -1      2720 1.42188E+00
 -1      2721 1.19667E+00
 -1      2722 1.56577E+00
 -1      2723 1.69049E+00
 -1      2724 1.52223E+00
 -1      2725 1.85504E+00
 -1      2726 1.98465E+00
 -1      2727 1.83067E+00
 -1      2728 2.28080E+00
 -1      2729 2.34867E+00
 -1      2730 2.29137E+00
 -1      2731 2.51404E+00
 -1      2732 2.32053E+00
 -1      2733 2.75289E+00
 -1      2734 2.17524E+00
 -1      2735 2.09035E+00
 -1      2736 2.77296E+00
 -1      2737 4.15441E-01
 -1      2738 4.68861E-01
 -1      2739 4.27947E-01
 -1      2740 1.10992E+01
 -1      2741 2.88369E-01
 -1      2742 3.20497E-01
 -1      2743 2.98648E-01
 -1      2744 2.40248E-01
 -1      2745 2.68275E-01
 -1      2746 2.51349E-01
 -1      2747 1.98859E-01
 -1      2748 2.21422E-01
 -1      2749 2.12430E-01
 -1      2750 1.61857E-01
 -1      2751 1.81740E-01
 -1      2752 1.76485E-01
 -1      2753 1.30686E-01
 -1      2754 1.47728E-01
 -1      2755 1.45237E-01
 -1      2756 1.05558E-01
 -1      2757 1.18143E-01
 -1      2758 1.18565E-01
 -1      2759 8.41894E-02
 -1      2760 9.48131E-02
 -1      2761 9.52766E-02
 -1      2762 6.64232E-02
 -1      2763 7.52486E-02
 -1      2764 7.55912E-02
 -1      2765 5.24359E-02
 -1      2766 5.95823E-02
 -1      2767 5.98096E-02
 -1      2768 4.12504E-02
 -1      2769 4.69095E-02
 -1      2770 4.74423E-02
 -1      2771 3.22752E-02
 -1      2772 3.66789E-02
 -1      2773 3.73445E-02
 -1      2774 2.50732E-02
 -1      2775 2.84762E-02
 -1      2776 2.89739E-02
 -1      2777 2.04129E-02
 -1      2778 2.24656E-02
 -1      2779 2.25673E-02
 -1      2780 1.91149E-02
 -1      2781 1.89365E-02
 -1      2782 1.84834E-02
 -1      2783 2.21436E-02
 -1      2784 2.03410E-02
 -1      2785 1.82332E-02
 -1      2786 2.91394E-02
 -1      2787 2.49252E-02
 -1      2788 2.22408E-02
 -1      2789 4.33779E-02
 -1      2790 3.68319E-02
 -1      2791 3.27149E-02
 -1      2792 6.62429E-02
 -1      2793 5.37503E-02
 -1      2794 5.07798E-02
 -1      2795 9.76383E-02
 -1      2796 8.02410E-02
 -1      2797 7.51502E-02
 -1      2798 1.40460E-01
 -1      2799 1.16447E-01
 -1      2800 1.07956E-01
 -1      2801 1.98411E-01
 -1      2802 1.65565E-01
 -1      2803 1.51870E-01
 -1      2804 2.76199E-01
 -1      2805 2.31678E-01
 -1      2806 2.10242E-01
 -1      2807 3.79734E-01
 -1      2808 3.19966E-01
 -1      2809 2.87276E-01
 -1      2810 5.16269E-01
 -1      2811 4.36934E-01
 -1      2812 3.88242E-01
 -1      2813 6.94401E-01
 -1      2814 5.90626E-01
 -1      2815 5.19799E-01
 -1      2816 9.27617E-01
 -1      2817 7.94647E-01
 -1      2818 6.94401E-01
 -1      2819 1.23055E+00
 -1      2820 1.06534E+00
 -1      2821 9.32366E-01
 -1      2822 1.62365E+00
 -1      2823 1.42794E+00
 -1      2824 1.26748E+00
 -1      2825 2.08567E+00
 -1      2826 1.87100E+00
 -1      2827 1.71222E+00
 -1      2828 2.57236E+00
 -1      2829 2.36850E+00
 -1      2830 2.24240E+00
 -1      2831 3.14931E+00
 -1      2832 2.96589E+00
 -1      2833 2.91878E+00
 -1      2834 3.85896E+00
 -1      2835 3.47840E+00
 -1      2836 3.64140E+00
 -1      2837 5.43958E+00
 -1      2838 4.61894E+00
 -1      2839 4.73048E+00
 -1      2840 6.15916E+00
 -1      2841 6.62299E+00
 -1      2842 7.23478E+00
 -1      2843 7.03224E+00
 -1      2844 8.09555E+00
 -1      2845 6.68006E+00
 -1      2846 9.94538E+00
 -1      2847 7.72994E+00
 -1      2848 3.27046E+00
 -1      2849 4.59608E+00
 -1      2850 8.34418E+00
 -1      2851 1.00569E+01
 -1      2852 7.92914E+00
 -1      2853 1.32298E+00
 -1      2854 2.03512E+00
 -1      2855 2.94570E+00
 -1      2856 1.35010E+00
 -1      2857 7.93558E+00
 -1      2858 1.67480E+01
 -1      2859 1.30941E+01
 -1      2860 9.84550E+00
 -1      2861 2.25654E+01
 -1      2862 2.10275E+01
 -1      2863 1.08657E+01
 -1      2864 9.89921E+00
 -1      2865 1.48150E+01
 -1      2866 1.55782E+01
 -1      2867 2.20897E+01
 -1      2868 1.97552E+01
 -1      2869 1.67860E+01
 -1      2870 6.04947E-01
 -1      2871 5.54464E-01
 -1      2872 4.01861E-01
 -1      2873 1.73527E+01
 -1      2874 2.28202E+01
 -1      2875 4.36224E-01
 -1      2876 4.24162E-01
 -1      2877 3.59635E-01
 -1      2878 3.60989E-01
 -1      2879 4.49168E+00
 -1      2880 5.84721E+00
 -1      2881 5.58795E+00
 -1      2882 4.37577E+00
 -1      2883 4.23938E-01
 -1      2884 4.36343E-01
 -1      2885 1.00569E+01
 -1      2886 7.96877E-01
 -1      2887 1.63169E+00
 -1      2888 9.75772E+00
 -1      2889 1.29044E+01
 -1      2890 1.16772E+01
 -1      2891 5.74877E+00
 -1      2892 3.42303E-01
 -1      2893 3.86763E-01
 -1      2894 3.99648E-01
 -1      2895 7.57712E-01
 -1      2896 6.25881E-01
 -1      2897 5.41123E-01
 -1      2898 7.30954E-01
 -1      2899 1.48410E+01
 -1      2900 3.60151E-01
 -1      2901 5.45706E-01
 -1      2902 1.37481E+01
 -1      2903 2.03348E+01
 -1      2904 1.34932E+01
 -1      2905 2.16902E+00
 -1      2906 7.40614E+00
 -1      2907 6.67387E+00
 -1      2908 6.67926E+00
 -1      2909 7.54348E+00
 -1      2910 8.72196E+00
 -1      2911 7.07325E+00
 -1      2912 8.87691E+00
 -1      2913 5.35473E+00
 -1      2914 1.07741E+01
 -1      2915 4.57486E-01
 -1      2916 7.93332E+00
 -1      2917 4.63318E-01
 -1      2918 5.67994E-01
 -1      2919 3.88736E-01
 -1      2920 4.07362E-01
 -1      2921 4.21779E-01
 -1      2922 3.59602E-01
 -1      2923 3.49729E-01
 -1      2924 1.44591E+01
 -1      2925 4.37853E+00
 -1      2926 8.53364E+00
 -1      2927 1.16772E+01
 -1      2928 5.84234E-01
 -1      2929 6.60833E-01
 -1      2930 6.25368E-01
 -1      2931 4.31950E-01
 -1      2932 4.27769E-01
 -1      2933 6.42910E+00
 -1      2934 7.35933E+00
 -1      2935 2.92185E-01
 -1      2936 3.03814E-01
 -1      2937 2.23349E-01
 -1      2938 2.43442E-01
 -1      2939 3.14225E-01
 -1      2940 3.07402E-01
 -1      2941 3.50434E-01
 -1      2942 3.83932E-01
 -1      2943 3.18472E-01
 -1      2944 2.97960E-01
 -1      2945 2.43145E-01
 -1      2946 2.94458E-01
 -1      2947 2.69535E-01
 -1      2948 2.50713E-01
 -1      2949 2.58559E-01
 -1      2950 2.33602E-01
 -1      2951 2.36234E-01
 -1      2952 2.19348E-01
 -1      2953 2.03762E-01
 -1      2954 2.11005E-01
 -1      2955 1.90504E-01
 -1      2956 1.74160E-01
 -1      2957 1.83493E-01
 -1      2958 1.63500E-01
 -1      2959 1.47923E-01
 -1      2960 1.59576E-01
 -1      2961 1.36745E-01
 -1      2962 1.22724E-01
 -1      2963 1.37738E-01
 -1      2964 1.11991E-01
 -1      2965 1.00163E-01
 -1      2966 1.15826E-01
 -1      2967 9.04117E-02
 -1      2968 8.09599E-02
 -1      2969 9.53412E-02
 -1      2970 7.24299E-02
 -1      2971 6.45242E-02
 -1      2972 7.70595E-02
 -1      2973 5.72665E-02
 -1      2974 5.08095E-02
 -1      2975 6.12718E-02
 -1      2976 4.47480E-02
 -1      2977 3.95104E-02
 -1      2978 4.79526E-02
 -1      2979 3.44862E-02
 -1      2980 3.02610E-02
 -1      2981 3.68669E-02
 -1      2982 2.60638E-02
 -1      2983 2.26126E-02
 -1      2984 2.76456E-02
 -1      2985 1.89997E-02
 -1      2986 1.63933E-02
 -1      2987 1.98356E-02
 -1      2988 1.31817E-02
 -1      2989 1.18553E-02
 -1      2990 1.30111E-02
 -1      2991 1.16986E-02
 -1      2992 1.30558E-02
 -1      2993 9.64276E-03
 -1      2994 1.66237E-02
 -1      2995 2.09772E-02
 -1      2996 1.30541E-02
 -1      2997 2.64127E-02
 -1      2998 3.31292E-02
 -1      2999 2.20575E-02
 -1      3000 3.99174E-02
 -1      3001 4.83532E-02
 -1      3002 3.42813E-02
 -1      3003 5.72259E-02
 -1      3004 6.77071E-02
 -1      3005 4.99422E-02
 -1      3006 7.85273E-02
 -1      3007 9.12885E-02
 -1      3008 6.96352E-02
 -1      3009 1.03948E-01
 -1      3010 1.19046E-01
 -1      3011 9.31151E-02
 -1      3012 1.35267E-01
 -1      3013 1.52455E-01
 -1      3014 1.21995E-01
 -1      3015 1.72711E-01
 -1      3016 1.92443E-01
 -1      3017 1.58473E-01
 -1      3018 2.15492E-01
 -1      3019 2.36658E-01
 -1      3020 2.01779E-01
 -1      3021 2.61339E-01
 -1      3022 2.80299E-01
 -1      3023 2.49508E-01
 -1      3024 3.04267E-01
 -1      3025 3.22124E-01
 -1      3026 2.98156E-01
 -1      3027 3.52490E-01
 -1      3028 3.71659E-01
 -1      3029 3.52490E-01
 -1      3030 4.08559E-01
 -1      3031 4.25547E-01
 -1      3032 4.19756E-01
 -1      3033 4.70781E-01
 -1      3034 4.97421E-01
 -1      3035 5.01891E-01
 -1      3036 5.36032E-01
 -1      3037 6.19633E-01
 -1      3038 5.85735E-01
 -1      3039 7.59408E-01
 -1      3040 8.37531E-01
 -1      3041 7.64121E-01
 -1      3042 9.67173E-01
 -1      3043 1.08910E+00
 -1      3044 1.03354E+00
 -1      3045 1.20235E+00
 -1      3046 1.38401E+00
 -1      3047 1.27643E+00
 -1      3048 1.59903E+00
 -1      3049 1.74292E+00
 -1      3050 1.60470E+00
 -1      3051 1.98623E+00
 -1      3052 2.15078E+00
 -1      3053 2.06303E+00
 -1      3054 2.60123E+00
 -1      3055 2.89738E+00
 -1      3056 2.75679E+00
 -1      3057 3.60982E+00
 -1      3058 3.77519E+00
 -1      3059 3.91968E+00
 -1      3060 3.29762E+00
 -1      3061 3.15233E+00
 -1      3062 4.15456E+00
 -1      3063 4.25951E-01
 -1      3064 1.39326E+01
 -1      3065 1.09254E+01
 -1      3066 1.90335E-01
 -1      3067 2.09161E-01
 -1      3068 2.01254E-01
 -1      3069 1.60292E-01
 -1      3070 1.77411E-01
 -1      3071 1.74142E-01
 -1      3072 1.33213E-01
 -1      3073 1.47341E-01
 -1      3074 1.48267E-01
 -1      3075 1.08596E-01
 -1      3076 1.21139E-01
 -1      3077 1.23243E-01
 -1      3078 8.71171E-02
 -1      3079 9.78617E-02
 -1      3080 1.00436E-01
 -1      3081 6.89538E-02
 -1      3082 7.78946E-02
 -1      3083 8.04796E-02
 -1      3084 5.43870E-02
 -1      3085 6.12279E-02
 -1      3086 6.35312E-02
 -1      3087 4.25018E-02
 -1      3088 4.80282E-02
 -1      3089 4.94465E-02
 -1      3090 3.27730E-02
 -1      3091 3.73445E-02
 -1      3092 3.79304E-02
 -1      3093 2.51749E-02
 -1      3094 2.89739E-02
 -1      3095 2.89739E-02
 -1      3096 1.95620E-02
 -1      3097 2.21695E-02
 -1      3098 2.21695E-02
 -1      3099 1.55965E-02
 -1      3100 1.70728E-02
 -1      3101 1.66750E-02
 -1      3102 1.60030E-02
 -1      3103 1.47769E-02
 -1      3104 1.33663E-02
 -1      3105 2.14562E-02
 -1      3106 1.86746E-02
 -1      3107 1.52184E-02
 -1      3108 3.52189E-02
 -1      3109 2.75263E-02
 -1      3110 2.39602E-02
 -1      3111 5.34168E-02
 -1      3112 4.30445E-02
 -1      3113 3.78559E-02
 -1      3114 7.75933E-02
 -1      3115 6.35953E-02
 -1      3116 5.58600E-02
 -1      3117 1.09630E-01
 -1      3118 9.08221E-02
 -1      3119 7.92672E-02
 -1      3120 1.54754E-01
 -1      3121 1.29649E-01
 -1      3122 1.12514E-01
 -1      3123 2.16598E-01
 -1      3124 1.83331E-01
 -1      3125 1.61110E-01
 -1      3126 3.00433E-01
 -1      3127 2.56667E-01
 -1      3128 2.29755E-01
 -1      3129 4.12428E-01
 -1      3130 3.55228E-01
 -1      3131 3.24619E-01
 -1      3132 5.61390E-01
 -1      3133 4.87034E-01
 -1      3134 4.54020E-01
 -1      3135 7.62813E-01
 -1      3136 6.62567E-01
 -1      3137 6.29802E-01
 -1      3138 1.03729E+00
 -1      3139 8.99575E-01
 -1      3140 8.67741E-01
 -1      3141 1.41907E+00
 -1      3142 1.22168E+00
 -1      3143 1.18888E+00
 -1      3144 1.91380E+00
 -1      3145 1.66644E+00
 -1      3146 1.62064E+00
 -1      3147 2.52524E+00
 -1      3148 2.24240E+00
 -1      3149 2.19663E+00
 -1      3150 3.42178E+00
 -1      3151 3.02824E+00
 -1      3152 3.02824E+00
 -1      3153 6.55002E+00
 -1      3154 6.22093E+00
 -1      3155 6.33039E+00
 -1      3156 2.61944E-01
 -1      3157 2.89149E-01
 -1      3158 2.33944E-01
 -1      3159 4.31787E+00
 -1      3160 8.06598E+00
 -1      3161 4.56684E+00
 -1      3162 5.82116E+00
 -1      3163 3.05630E-01
 -1      3164 3.39928E-01
 -1      3165 2.95913E-01
 -1      3166 2.68927E-01
 -1      3167 3.40436E+00
 -1      3168 5.52339E+00
 -1      3169 4.43127E+00
 -1      3170 3.01497E-01
 -1      3171 2.96011E-01
 -1      3172 2.13861E-01
 -1      3173 1.31036E+01
 -1      3174 1.41658E+01
 -1      3175 3.80055E-01
 -1      3176 4.06418E-01
 -1      3177 3.02542E-01
 -1      3178 3.23449E-01
 -1      3179 3.15603E-01
 -1      3180 3.99419E+00
 -1      3181 4.11010E+00
 -1      3182 8.34146E+00
 -1      3183 1.02520E+01
 -1      3184 3.27463E-01
 -1      3185 3.07042E-01
 -1      3186 3.11223E-01
 -1      3187 1.11672E+01
 -1      3188 1.29416E+01
 -1      3189 3.80405E-01
 -1      3190 3.92901E+00
 -1      3191 3.12028E-01
 -1      3192 3.11740E-01
 -1      3193 2.85040E-01
 -1      3194 2.63428E-01
 -1      3195 3.20603E-01
 -1      3196 3.20603E-01
 -1      3197 1.01958E+01
 -1      3198 1.24264E+01
 -1      3199 9.80615E+00
 -1      3200 6.07718E+00
 -1      3201 9.68845E+00
 -1      3202 1.22635E+01
 -1      3203 9.77803E+00
 -1      3204 8.97154E+00
 -1      3205 1.02502E+01
 -1      3206 6.99376E+00
 -1      3207 9.57329E+00
 -1      3208 7.75374E+00
 -1      3209 4.06585E+00
 -1      3210 5.24717E+00
 -1      3211 8.66210E+00
 -1      3212 2.80657E-01
 -1      3213 3.07632E-01
 -1      3214 2.03145E-01
 -1      3215 6.14979E+00
 -1      3216 4.44737E+00
 -1      3217 4.17894E+00
 -1      3218 4.61603E+00
 -1      3219 6.83724E+00
 -1      3220 2.80657E-01
 -1      3221 1.99554E-01
 -1      3222 2.78499E-01
 -1      3223 2.72652E-01
 -1      3224 3.23449E-01
 -1      3225 2.88616E-01
 -1      3226 3.24803E-01
 -1      3227 4.18249E+00
 -1      3228 2.01191E-01
 -1      3229 8.73454E+00
 -1      3230 4.54342E+00
 -1      3231 6.16589E+00
 -1      3232 4.61603E+00
 -1      3233 4.15456E+00
 -1      3234 2.13993E-01
 -1      3235 2.10490E-01
 -1      3236 2.14329E-01
 -1      3237 2.03353E-01
 -1      3238 1.77609E-01
 -1      3239 1.99671E-01
 -1      3240 1.85417E-01
 -1      3241 1.77766E-01
 -1      3242 1.77507E-01
 -1      3243 1.64249E-01
 -1      3244 1.66173E-01
 -1      3245 1.54385E-01
 -1      3246 1.43725E-01
 -1      3247 1.48398E-01
 -1      3248 1.35491E-01
 -1      3249 1.24312E-01
 -1      3250 1.30300E-01
 -1      3251 1.16088E-01
 -1      3252 1.05355E-01
 -1      3253 1.13841E-01
 -1      3254 9.70700E-02
 -1      3255 8.73184E-02
 -1      3256 9.73326E-02
 -1      3257 7.95279E-02
 -1      3258 7.09979E-02
 -1      3259 8.12567E-02
 -1      3260 6.40026E-02
 -1      3261 5.67449E-02
 -1      3262 6.64710E-02
 -1      3263 5.06618E-02
 -1      3264 4.46003E-02
 -1      3265 5.33925E-02
 -1      3266 3.94173E-02
 -1      3267 3.43931E-02
 -1      3268 4.21265E-02
 -1      3269 3.00089E-02
 -1      3270 2.58118E-02
 -1      3271 3.25593E-02
 -1      3272 2.20736E-02
 -1      3273 1.84607E-02
 -1      3274 2.44369E-02
 -1      3275 1.51773E-02
 -1      3276 1.19657E-02
 -1      3277 1.74154E-02
 -1      3278 1.21408E-02
 -1      3279 1.19841E-02
 -1      3280 1.43070E-02
 -1      3281 1.29694E-02
 -1      3282 1.65374E-02
 -1      3283 1.54674E-02
 -1      3284 2.15527E-02
 -1      3285 2.69882E-02
 -1      3286 2.14680E-02
 -1      3287 3.38349E-02
 -1      3288 4.06231E-02
 -1      3289 3.33300E-02
 -1      3290 4.92743E-02
 -1      3291 5.81470E-02
 -1      3292 4.88279E-02
 -1      3293 6.88724E-02
 -1      3294 7.96926E-02
 -1      3295 6.82045E-02
 -1      3296 9.26545E-02
 -1      3297 1.05314E-01
 -1      3298 9.18917E-02
 -1      3299 1.20442E-01
 -1      3300 1.36662E-01
 -1      3301 1.19981E-01
 -1      3302 1.53483E-01
 -1      3303 1.73740E-01
 -1      3304 1.51930E-01
 -1      3305 1.91143E-01
 -1      3306 2.14192E-01
 -1      3307 1.86153E-01
 -1      3308 2.36940E-01
 -1      3309 2.61621E-01
 -1      3310 2.26304E-01
 -1      3311 2.92905E-01
 -1      3312 3.16873E-01
 -1      3313 2.80337E-01
 -1      3314 3.54979E-01
 -1      3315 3.85345E-01
 -1      3316 3.49727E-01
 -1      3317 4.29695E-01
 -1      3318 4.66595E-01
 -1      3319 4.32184E-01
 -1      3320 5.28763E-01
 -1      3321 5.73997E-01
 -1      3322 5.38702E-01
 -1      3323 6.61021E-01
 -1      3324 6.99631E-01
 -1      3325 6.87892E-01
 -1      3326 7.92260E-01
 -1      3327 9.32035E-01
 -1      3328 8.67545E-01
 -1      3329 1.07459E+00
 -1      3330 1.20423E+00
 -1      3331 1.10273E+00
 -1      3332 1.39970E+00
 -1      3333 1.51295E+00
 -1      3334 1.44075E+00
 -1      3335 1.60470E+00
 -1      3336 1.81973E+00
 -1      3337 1.72797E+00
 -1      3338 2.10713E+00
 -1      3339 2.35044E+00
 -1      3340 2.10713E+00
 -1      3341 3.91968E+00
 -1      3342 4.63213E+00
 -1      3343 4.63213E+00
 -1      3344 1.34445E-01
 -1      3345 1.47395E-01
 -1      3346 1.80720E-01
 -1      3347 1.94908E-01
 -1      3348 1.12941E-01
 -1      3349 1.25014E-01
 -1      3350 1.24142E-01
 -1      3351 9.29017E-02
 -1      3352 1.03636E-01
 -1      3353 1.05406E-01
 -1      3354 7.50640E-02
 -1      3355 8.42865E-02
 -1      3356 8.74861E-02
 -1      3357 5.96890E-02
 -1      3358 6.74149E-02
 -1      3359 7.12218E-02
 -1      3360 4.67318E-02
 -1      3361 5.30906E-02
 -1      3362 5.69743E-02
 -1      3363 3.59934E-02
 -1      3364 4.11507E-02
 -1      3365 4.47948E-02
 -1      3366 2.75111E-02
 -1      3367 3.13101E-02
 -1      3368 3.45305E-02
 -1      3369 2.05369E-02
 -1      3370 2.35422E-02
 -1      3371 2.58784E-02
 -1      3372 1.45800E-02
 -1      3373 1.70692E-02
 -1      3374 1.84419E-02
 -1      3375 1.21982E-02
 -1      3376 1.30178E-02
 -1      3377 1.34120E-02
 -1      3378 1.57933E-02
 -1      3379 1.31216E-02
 -1      3380 1.27731E-02
 -1      3381 2.73699E-02
 -1      3382 2.12998E-02
 -1      3383 1.92030E-02
 -1      3384 4.24514E-02
 -1      3385 3.46258E-02
 -1      3386 3.19654E-02
 -1      3387 6.22816E-02
 -1      3388 5.21032E-02
 -1      3389 4.88731E-02
 -1      3390 8.90310E-02
 -1      3391 7.58022E-02
 -1      3392 7.20454E-02
 -1      3393 1.27510E-01
 -1      3394 1.07491E-01
 -1      3395 1.04026E-01
 -1      3396 1.80907E-01
 -1      3397 1.52330E-01
 -1      3398 1.47307E-01
 -1      3399 2.54215E-01
 -1      3400 2.14146E-01
 -1      3401 2.05366E-01
 -1      3402 3.53400E-01
 -1      3403 2.98605E-01
 -1      3404 2.82996E-01
 -1      3405 4.87252E-01
 -1      3406 4.12647E-01
 -1      3407 3.86633E-01
 -1      3408 6.67725E-01
 -1      3409 5.66548E-01
 -1      3410 5.25175E-01
 -1      3411 9.11510E-01
 -1      3412 7.74748E-01
 -1      3413 7.11494E-01
 -1      3414 1.24296E+00
 -1      3415 1.05858E+00
 -1      3416 9.65586E-01
 -1      3417 1.69902E+00
 -1      3418 1.45164E+00
 -1      3419 1.32133E+00
 -1      3420 2.33950E+00
 -1      3421 2.01090E+00
 -1      3422 1.84189E+00
 -1      3423 3.31266E+00
 -1      3424 2.80966E+00
 -1      3425 2.62393E+00
 -1      3426 6.95356E+00
 -1      3427 4.15441E+00
 -1      3428 3.93583E+00
 -1      3429 2.05348E-01
 -1      3430 2.23850E-01
 -1      3431 1.84814E-01
 -1      3432 1.86539E-01
 -1      3433 1.97609E-01
 -1      3434 1.57386E-01
 -1      3435 1.08657E+01
 -1      3436 2.39714E-01
 -1      3437 2.35837E-01
 -1      3438 3.04581E-01
 -1      3439 3.12295E-01
 -1      3440 2.33351E-01
 -1      3441 2.74306E-01
 -1      3442 1.77193E-01
 -1      3443 1.80785E-01
 -1      3444 1.75240E-01
 -1      3445 1.54462E-01
 -1      3446 1.72676E-01
 -1      3447 1.27140E-01
 -1      3448 1.34055E-01
 -1      3449 5.39247E+00
 -1      3450 6.37461E+00
 -1      3451 3.35279E+00
 -1      3452 3.80953E+00
 -1      3453 7.39420E+00
 -1      3454 8.30937E+00
 -1      3455 9.80642E+00
 -1      3456 2.24150E-01
 -1      3457 1.98137E-01
 -1      3458 2.14926E-01
 -1      3459 1.61321E-01
 -1      3460 1.56008E-01
 -1      3461 1.68932E-01
 -1      3462 1.42186E-01
 -1      3463 4.29692E+00
 -1      3464 4.90486E+00
 -1      3465 9.63586E+00
 -1      3466 8.56902E+00
 -1      3467 8.15121E+00
 -1      3468 5.94944E+00
 -1      3469 2.84417E-01
 -1      3470 7.44103E+00
 -1      3471 6.76286E+00
 -1      3472 3.16555E+00
 -1      3473 3.87799E+00
 -1      3474 3.42480E+00
 -1      3475 2.71510E+00
 -1      3476 2.01841E-01
 -1      3477 2.30437E-01
 -1      3478 2.46917E-01
 -1      3479 2.52754E-01
 -1      3480 2.49179E-01
 -1      3481 2.46057E-01
 -1      3482 2.56563E-01
 -1      3483 1.89857E-01
 -1      3484 2.07567E-01
 -1      3485 4.63213E+00
 -1      3486 3.05184E+00
 -1      3487 3.46722E+00
 -1      3488 1.97898E-01
 -1      3489 1.75538E-01
 -1      3490 1.97898E-01
 -1      3491 4.44223E+00
 -1      3492 1.62586E-01
 -1      3493 6.10068E+00
 -1      3494 9.80642E+00
 -1      3495 9.12954E+00
 -1      3496 2.52754E-01
 -1      3497 2.52754E-01
 -1      3498 2.16893E-01
 -1      3499 2.75920E+00
 -1      3500 6.95356E+00
 -1      3501 9.12927E+00
 -1      3502 1.28608E-01
 -1      3503 1.37221E-01
 -1      3504 1.48344E-01
 -1      3505 1.52183E-01
 -1      3506 4.54730E+00
 -1      3507 5.56689E+00
 -1      3508 6.77176E+00
 -1      3509 4.59578E+00
 -1      3510 1.58340E-01
 -1      3511 1.54658E-01
 -1      3512 1.29075E-01
 -1      3513 1.54292E-01
 -1      3514 1.46381E-01
 -1      3515 1.34866E-01
 -1      3516 1.41948E-01
 -1      3517 1.32084E-01
 -1      3518 1.30066E-01
 -1      3519 1.25440E-01
 -1      3520 1.17205E-01
 -1      3521 1.18989E-01
 -1      3522 1.09643E-01
 -1      3523 1.01420E-01
 -1      3524 1.04784E-01
 -1      3525 9.51760E-02
 -1      3526 8.68906E-02
 -1      3527 9.09781E-02
 -1      3528 8.04694E-02
 -1      3529 7.26790E-02
 -1      3530 7.83128E-02
 -1      3531 6.65511E-02
 -1      3532 5.95558E-02
 -1      3533 6.57638E-02
 -1      3534 5.39975E-02
 -1      3535 4.79143E-02
 -1      3536 5.40776E-02
 -1      3537 4.30474E-02
 -1      3538 3.78645E-02
 -1      3539 4.36524E-02
 -1      3540 3.36869E-02
 -1      3541 2.93027E-02
 -1      3542 3.46079E-02
 -1      3543 2.57562E-02
 -1      3544 2.20181E-02
 -1      3545 2.68839E-02
 -1      3546 1.91849E-02
 -1      3547 1.59015E-02
 -1      3548 2.05042E-02
 -1      3549 1.59636E-02
 -1      3550 1.61386E-02
 -1      3551 1.77331E-02
 -1      3552 1.70337E-02
 -1      3553 1.80190E-02
 -1      3554 1.86902E-02
 -1      3555 1.98073E-02
 -1      3556 2.48226E-02
 -1      3557 2.13736E-02
 -1      3558 3.07782E-02
 -1      3559 3.76248E-02
 -1      3560 2.91174E-02
 -1      3561 4.53088E-02
 -1      3562 5.39600E-02
 -1      3563 4.27569E-02
 -1      3564 6.37562E-02
 -1      3565 7.44816E-02
 -1      3566 6.02371E-02
 -1      3567 8.67715E-02
 -1      3568 9.97334E-02
 -1      3569 8.23232E-02
 -1      3570 1.14837E-01
 -1      3571 1.29965E-01
 -1      3572 1.09717E-01
 -1      3573 1.48051E-01
 -1      3574 1.64872E-01
 -1      3575 1.42907E-01
 -1      3576 1.85806E-01
 -1      3577 2.03208E-01
 -1      3578 1.81927E-01
 -1      3579 2.26304E-01
 -1      3580 2.49053E-01
 -1      3581 2.25957E-01
 -1      3582 2.74949E-01
 -1      3583 3.06233E-01
 -1      3584 2.74949E-01
 -1      3585 3.43817E-01
 -1      3586 3.81923E-01
 -1      3587 3.38429E-01
 -1      3588 4.36241E-01
 -1      3589 4.80592E-01
 -1      3590 4.30331E-01
 -1      3591 5.63492E-01
 -1      3592 6.25659E-01
 -1      3593 5.67550E-01
 -1      3594 7.25228E-01
 -1      3595 8.12252E-01
 -1      3596 7.50019E-01
 -1      3597 9.24185E-01
 -1      3598 1.01681E+00
 -1      3599 9.61520E-01
 -1      3600 1.18768E+00
 -1      3601 1.33024E+00
 -1      3602 1.24432E+00
 -1      3603 2.12271E+00
 -1      3604 2.31817E+00
 -1      3605 2.20766E+00
 -1      3606 1.66137E+00
 -1      3607 1.75313E+00
 -1      3608 2.34333E+00
 -1      3609 2.68718E+00
 -1      3610 9.50043E-02
 -1      3611 1.04309E-01
 -1      3612 1.15822E-01
 -1      3613 1.32205E-01
 -1      3614 1.06780E-01
 -1      3615 1.11376E-01
 -1      3616 1.20807E-01
 -1      3617 1.00974E-01
 -1      3618 6.46655E-02
 -1      3619 7.23145E-02
 -1      3620 5.18635E-02
 -1      3621 5.84619E-02
 -1      3622 5.95547E-02
 -1      3623 4.08525E-02
 -1      3624 4.64335E-02
 -1      3625 4.79211E-02
 -1      3626 3.15239E-02
 -1      3627 3.62071E-02
 -1      3628 3.78458E-02
 -1      3629 2.35915E-02
 -1      3630 2.75604E-02
 -1      3631 2.92369E-02
 -1      3632 1.67276E-02
 -1      3633 2.01953E-02
 -1      3634 2.18772E-02
 -1      3635 1.39199E-02
 -1      3636 1.54822E-02
 -1      3637 1.72356E-02
 -1      3638 1.55713E-02
 -1      3639 1.46479E-02
 -1      3640 1.67181E-02
 -1      3641 2.33950E-02
 -1      3642 1.78885E-02
 -1      3643 1.97633E-02
 -1      3644 3.66109E-02
 -1      3645 2.93550E-02
 -1      3646 2.80405E-02
 -1      3647 5.46173E-02
 -1      3648 4.49655E-02
 -1      3649 4.23551E-02
 -1      3650 7.92699E-02
 -1      3651 6.57494E-02
 -1      3652 6.18418E-02
 -1      3653 1.12383E-01
 -1      3654 9.39231E-02
 -1      3655 8.76271E-02
 -1      3656 1.56350E-01
 -1      3657 1.31530E-01
 -1      3658 1.21427E-01
 -1      3659 2.14416E-01
 -1      3660 1.81177E-01
 -1      3661 1.65400E-01
 -1      3662 2.90779E-01
 -1      3663 2.46388E-01
 -1      3664 2.22199E-01
 -1      3665 3.90994E-01
 -1      3666 3.31747E-01
 -1      3667 2.95140E-01
 -1      3668 5.22706E-01
 -1      3669 4.43410E-01
 -1      3670 3.88524E-01
 -1      3671 6.97092E-01
 -1      3672 5.90070E-01
 -1      3673 5.08304E-01
 -1      3674 9.35130E-01
 -1      3675 7.88060E-01
 -1      3676 6.66636E-01
 -1      3677 1.27637E+00
 -1      3678 1.06769E+00
 -1      3679 8.90161E-01
 -1      3680 1.77308E+00
 -1      3681 1.46121E+00
 -1      3682 1.20756E+00
 -1      3683 2.51547E+00
 -1      3684 2.04532E+00
 -1      3685 1.66463E+00
 -1      3686 3.68995E+00
 -1      3687 2.84820E+00
 -1      3688 2.26959E+00
 -1      3689 3.50814E+00
 -1      3690 8.56929E+00
 -1      3691 1.62799E-01
 -1      3692 1.73240E-01
 -1      3693 2.37329E-01
 -1      3694 2.41528E-01
 -1      3695 2.05666E-01
 -1      3696 1.72037E-01
 -1      3697 4.99389E+00
 -1      3698 6.52441E+00
 -1      3699 6.38224E+00
 -1      3700 3.61130E+00
 -1      3701 4.09891E+00
 -1      3702 2.30344E-01
 -1      3703 2.62630E-01
 -1      3704 7.91555E-02
 -1      3705 8.77707E-02
 -1      3706 8.66737E-02
 -1      3707 7.25992E-02
 -1      3708 1.45177E-01
 -1      3709 1.56965E-01
 -1      3710 1.31600E-01
 -1      3711 5.58941E+00
 -1      3712 4.72107E+00
 -1      3713 4.18728E+00
 -1      3714 2.44501E+00
 -1      3715 2.73766E+00
 -1      3716 3.22505E+00
 -1      3717 2.15761E+00
 -1      3718 2.88173E+00
 -1      3719 6.21151E+00
 -1      3720 3.71636E+00
 -1      3721 1.15842E-01
 -1      3722 1.23595E-01
 -1      3723 9.84143E-02
 -1      3724 1.09732E-01
 -1      3725 1.45390E-01
 -1      3726 1.58557E-01
 -1      3727 1.41708E-01
 -1      3728 2.55471E-01
 -1      3729 1.84353E-01
 -1      3730 1.97804E-01
 -1      3731 2.55471E-01
 -1      3732 2.21674E-01
 -1      3733 2.20019E-01
 -1      3734 2.43795E-01
 -1      3735 1.70734E-01
 -1      3736 1.49955E-01
 -1      3737 1.46411E-01
 -1      3738 1.91438E-01
 -1      3739 1.74930E-01
 -1      3740 1.81517E-01
 -1      3741 1.52916E-01
 -1      3742 3.86026E+00
 -1      3743 4.37153E+00
 -1      3744 4.13308E+00
 -1      3745 1.84353E-01
 -1      3746 1.84353E-01
 -1      3747 1.51813E-01
 -1      3748 1.40004E-01
 -1      3749 1.28318E-01
 -1      3750 1.50720E-01
 -1      3751 1.08704E-01
 -1      3752 2.09101E+00
 -1      3753 1.18267E-01
 -1      3754 1.17901E-01
 -1      3755 1.18585E-01
 -1      3756 1.14152E-01
 -1      3757 1.01987E-01
 -1      3758 1.11433E-01
 -1      3759 1.04789E-01
 -1      3760 9.99515E-02
 -1      3761 1.00122E-01
 -1      3762 9.25605E-02
 -1      3763 9.25653E-02
 -1      3764 8.69766E-02
 -1      3765 8.07324E-02
 -1      3766 8.23148E-02
 -1      3767 7.49331E-02
 -1      3768 6.85120E-02
 -1      3769 7.09316E-02
 -1      3770 6.30742E-02
 -1      3771 5.69464E-02
 -1      3772 5.96945E-02
 -1      3773 5.23673E-02
 -1      3774 4.68090E-02
 -1      3775 4.96777E-02
 -1      3776 4.26628E-02
 -1      3777 3.77959E-02
 -1      3778 4.09525E-02
 -1      3779 3.41582E-02
 -1      3780 2.99806E-02
 -1      3781 3.31686E-02
 -1      3782 2.68993E-02
 -1      3783 2.33528E-02
 -1      3784 2.64496E-02
 -1      3785 2.17595E-02
 -1      3786 1.89263E-02
 -1      3787 2.17750E-02
 -1      3788 1.86659E-02
 -1      3789 1.87280E-02
 -1      3790 1.99212E-02
 -1      3791 1.93835E-02
 -1      3792 2.02786E-02
 -1      3793 2.03163E-02
 -1      3794 2.19381E-02
 -1      3795 2.37264E-02
 -1      3796 2.26313E-02
 -1      3797 2.68330E-02
 -1      3798 3.27885E-02
 -1      3799 2.73974E-02
 -1      3800 3.75248E-02
 -1      3801 4.52088E-02
 -1      3802 3.52404E-02
 -1      3803 5.31697E-02
 -1      3804 6.29659E-02
 -1      3805 4.79376E-02
 -1      3806 7.35020E-02
 -1      3807 8.57919E-02
 -1      3808 6.64346E-02
 -1      3809 9.93875E-02
 -1      3810 1.14491E-01
 -1      3811 9.05662E-02
 -1      3812 1.31817E-01
 -1      3813 1.49904E-01
 -1      3814 1.21488E-01
 -1      3815 1.71673E-01
 -1      3816 1.92607E-01
 -1      3817 1.60583E-01
 -1      3818 2.19479E-01
 -1      3819 2.42575E-01
 -1      3820 2.09224E-01
 -1      3821 2.74949E-01
 -1      3822 3.00845E-01
 -1      3823 2.68471E-01
 -1      3824 3.38429E-01
 -1      3825 3.76012E-01
 -1      3826 3.38429E-01
 -1      3827 4.28972E-01
 -1      3828 4.83290E-01
 -1      3829 4.28972E-01
 -1      3830 5.59684E-01
 -1      3831 6.42585E-01
 -1      3832 5.58325E-01
 -1      3833 7.62992E-01
 -1      3834 8.62560E-01
 -1      3835 7.55126E-01
 -1      3836 1.10010E+00
 -1      3837 1.21203E+00
 -1      3838 1.11307E+00
 -1      3839 1.58117E+00
 -1      3840 1.75203E+00
 -1      3841 1.71974E+00
 -1      3842 2.26758E+00
 -1      3843 3.06006E+00
 -1      3844 2.60443E+00
 -1      3845 2.47725E+00
 -1      3846 1.76252E-01
 -1      3847 1.75391E-01
 -1      3848 1.49341E-01
 -1      3849 3.19398E+00
 -1      3850 3.64237E+00
 -1      3851 1.16639E-01
 -1      3852 1.24595E-01
 -1      3853 9.30278E-02
 -1      3854 1.09167E-01
 -1      3855 8.98416E-02
 -1      3856 9.69082E-02
 -1      3857 4.21502E-02
 -1      3858 4.75802E-02
 -1      3859 5.23901E-02
 -1      3860 5.85936E-02
 -1      3861 4.66191E-02
 -1      3862 2.57456E-02
 -1      3863 2.97091E-02
 -1      3864 1.92919E-02
 -1      3865 2.26881E-02
 -1      3866 2.31603E-02
 -1      3867 1.73657E-02
 -1      3868 1.86112E-02
 -1      3869 1.94220E-02
 -1      3870 1.83945E-02
 -1      3871 1.76665E-02
 -1      3872 1.90421E-02
 -1      3873 2.19696E-02
 -1      3874 1.96523E-02
 -1      3875 2.06007E-02
 -1      3876 3.05650E-02
 -1      3877 2.46050E-02
 -1      3878 2.44940E-02
 -1      3879 4.52335E-02
 -1      3880 3.68789E-02
 -1      3881 3.34434E-02
 -1      3882 6.45784E-02
 -1      3883 5.34463E-02
 -1      3884 4.79701E-02
 -1      3885 8.97790E-02
 -1      3886 7.51258E-02
 -1      3887 6.67303E-02
 -1      3888 1.22262E-01
 -1      3889 1.03115E-01
 -1      3890 9.06141E-02
 -1      3891 1.63652E-01
 -1      3892 1.38825E-01
 -1      3893 1.20514E-01
 -1      3894 2.15776E-01
 -1      3895 1.83804E-01
 -1      3896 1.57229E-01
 -1      3897 2.85175E-01
 -1      3898 2.44206E-01
 -1      3899 2.05811E-01
 -1      3900 3.79719E-01
 -1      3901 3.27304E-01
 -1      3902 2.76370E-01
 -1      3903 5.03760E-01
 -1      3904 4.36396E-01
 -1      3905 3.75176E-01
 -1      3906 6.71055E-01
 -1      3907 5.80087E-01
 -1      3908 5.08179E-01
 -1      3909 9.06563E-01
 -1      3910 7.74006E-01
 -1      3911 6.87456E-01
 -1      3912 1.23459E+00
 -1      3913 1.04974E+00
 -1      3914 9.33589E-01
 -1      3915 1.71299E+00
 -1      3916 1.44076E+00
 -1      3917 1.28294E+00
 -1      3918 3.33407E-02
 -1      3919 3.79860E-02
 -1      3920 2.98494E-02
 -1      3921 1.27242E-01
 -1      3922 4.58470E+00
 -1      3923 1.69223E-01
 -1      3924 2.15214E-01
 -1      3925 1.28009E-01
 -1      3926 1.33843E-01
 -1      3927 1.13048E-01
 -1      3928 3.66489E+00
 -1      3929 1.03341E-01
 -1      3930 1.11143E-01
 -1      3931 9.22089E-02
 -1      3932 4.27165E+00
 -1      3933 4.10092E+00
 -1      3934 3.19509E+00
 -1      3935 1.06193E-01
 -1      3936 1.12350E-01
 -1      3937 9.53855E-02
 -1      3938 9.24415E-02
 -1      3939 1.33519E-01
 -1      3940 1.35210E-01
 -1      3941 1.16138E-01
 -1      3942 3.13406E+00
 -1      3943 1.04138E-01
 -1      3944 2.15214E-01
 -1      3945 2.86600E+00
 -1      3946 3.41090E+00
 -1      3947 3.06137E+00
 -1      3948 2.35045E+00
 -1      3949 1.18106E-01
 -1      3950 1.01272E-01
 -1      3951 5.67470E-02
 -1      3952 6.39116E-02
 -1      3953 7.07526E-02
 -1      3954 3.76450E-02
 -1      3955 2.38549E+00
 -1      3956 2.05276E+00
 -1      3957 1.82888E+00
 -1      3958 2.97826E+00
 -1      3959 1.66198E-01
 -1      3960 1.77424E-01
 -1      3961 1.44884E-01
 -1      3962 1.22478E-01
 -1      3963 2.15214E-01
 -1      3964 8.35905E-02
 -1      3965 7.95248E-02
 -1      3966 7.63569E-02
 -1      3967 1.26302E-01
 -1      3968 1.43712E-01
 -1      3969 1.26302E-01
 -1      3970 1.26302E-01
 -1      3971 1.00791E-01
 -1      3972 1.46411E-01
 -1      3973 1.38637E-01
 -1      3974 1.24182E-01
 -1      3975 3.64929E+00
 -1      3976 1.15046E-01
 -1      3977 1.93429E-02
 -1      3978 1.90421E-02
 -1      3979 5.01049E-02
 -1      3980 5.49148E-02
 -1      3981 9.43042E-02
 -1      3982 9.15846E-02
 -1      3983 9.01718E-02
 -1      3984 8.55052E-02
 -1      3985 8.45245E-02
 -1      3986 8.11953E-02
 -1      3987 7.56114E-02
 -1      3988 7.88017E-02
 -1      3989 6.82985E-02
 -1      3990 6.24992E-02
 -1      3991 6.71789E-02
 -1      3992 5.82619E-02
 -1      3993 5.28242E-02
 -1      3994 5.56288E-02
 -1      3995 5.63287E-02
 -1      3996 5.17496E-02
 -1      3997 5.48961E-02
 -1      3998 4.20806E-02
 -1      3999 3.79345E-02
 -1      4000 4.87316E-02
 -1      4001 3.44115E-02
 -1      4002 3.07738E-02
 -1      4003 3.55396E-02
 -1      4004 2.78350E-02
 -1      4005 2.47537E-02
 -1      4006 2.90779E-02
 -1      4007 2.28775E-02
 -1      4008 2.12842E-02
 -1      4009 2.42629E-02
 -1      4010 2.01816E-02
 -1      4011 1.99212E-02
 -1      4012 2.12842E-02
 -1      4013 2.03163E-02
 -1      4014 2.09718E-02
 -1      4015 2.05767E-02
 -1      4016 2.26313E-02
 -1      4017 2.42908E-02
 -1      4018 2.26313E-02
 -1      4019 2.73974E-02
 -1      4020 3.05041E-02
 -1      4021 2.73974E-02
 -1      4022 3.52404E-02
 -1      4023 3.99767E-02
 -1      4024 3.52404E-02
 -1      4025 4.68755E-02
 -1      4026 5.48364E-02
 -1      4027 4.68755E-02
 -1      4028 6.52137E-02
 -1      4029 7.57498E-02
 -1      4030 6.41515E-02
 -1      4031 8.99593E-02
 -1      4032 1.03555E-01
 -1      4033 8.87384E-02
 -1      4034 1.22983E-01
 -1      4035 1.40309E-01
 -1      4036 1.22376E-01
 -1      4037 1.66918E-01
 -1      4038 1.88687E-01
 -1      4039 1.68413E-01
 -1      4040 2.25256E-01
 -1      4041 2.52128E-01
 -1      4042 2.31591E-01
 -1      4043 3.02556E-01
 -1      4044 3.34930E-01
 -1      4045 3.18587E-01
 -1      4046 4.04589E-01
 -1      4047 4.42173E-01
 -1      4048 4.38674E-01
 -1      4049 5.38240E-01
 -1      4050 5.91199E-01
 -1      4051 6.04400E-01
 -1      4052 7.23005E-01
 -1      4053 7.99399E-01
 -1      4054 8.32273E-01
 -1      4055 1.00851E+00
 -1      4056 1.12892E+00
 -1      4057 1.17319E+00
 -1      4058 1.29632E+00
 -1      4059 1.53386E+00
 -1      4060 1.54970E+00
 -1      4061 1.68256E+00
 -1      4062 2.05170E+00
 -1      4063 2.31326E+00
 -1      4064 1.86581E+00
 -1      4065 9.22896E-02
 -1      4066 9.77861E-02
 -1      4067 1.29475E-01
 -1      4068 1.24210E-01
 -1      4069 1.10079E-01
 -1      4070 1.21974E-01
 -1      4071 1.97013E-02
 -1      4072 2.03821E-02
 -1      4073 2.00022E-02
 -1      4074 2.29224E-02
 -1      4075 2.59800E-02
 -1      4076 2.32018E-02
 -1      4077 2.18586E-02
 -1      4078 2.06007E-02
 -1      4079 2.06007E-02
 -1      4080 2.69854E-02
 -1      4081 2.43499E-02
 -1      4082 2.43499E-02
 -1      4083 3.75469E-02
 -1      4084 3.12331E-02
 -1      4085 3.10890E-02
 -1      4086 5.18822E-02
 -1      4087 4.36694E-02
 -1      4088 4.14590E-02
 -1      4089 7.08605E-02
 -1      4090 6.03131E-02
 -1      4091 5.60124E-02
 -1      4092 9.54088E-02
 -1      4093 8.20724E-02
 -1      4094 7.56552E-02
 -1      4095 1.26625E-01
 -1      4096 1.10062E-01
 -1      4097 1.01520E-01
 -1      4098 1.65669E-01
 -1      4099 1.45517E-01
 -1      4100 1.35065E-01
 -1      4101 2.18170E-01
 -1      4102 1.89740E-01
 -1      4103 1.78028E-01
 -1      4104 2.93329E-01
 -1      4105 2.51200E-01
 -1      4106 2.35129E-01
 -1      4107 4.17068E-01
 -1      4108 3.60391E-01
 -1      4109 3.35221E-01
 -1      4110 5.97021E-01
 -1      4111 5.20695E-01
 -1      4112 5.05910E-01
 -1      4113 8.54577E-01
 -1      4114 7.51626E-01
 -1      4115 7.64142E-01
 -1      4116 1.22954E+00
 -1      4117 1.08636E+00
 -1      4118 1.15053E+00
 -1      4119 1.60311E+00
 -1      4120 1.39694E+00
 -1      4121 1.54970E+00
 -1      4122 2.91239E+00
 -1      4123 3.05096E+00
 -1      4124 2.91173E-02
 -1      4125 3.27488E-02
 -1      4126 2.88794E-02
 -1      4127 9.13036E-02
 -1      4128 9.19877E-02
 -1      4129 8.36208E-02
 -1      4130 3.62717E-02
 -1      4131 4.04359E-02
 -1      4132 4.87316E-02
 -1      4133 9.88072E-02
 -1      4134 1.02221E-01
 -1      4135 8.69584E-02
 -1      4136 1.41024E-01
 -1      4137 9.82402E-02
 -1      4138 9.81028E-02
 -1      4139 8.44438E-02
 -1      4140 9.08767E-02
 -1      4141 8.45245E-02
 -1      4142 7.83108E-02
 -1      4143 7.56229E-02
 -1      4144 7.26495E-02
 -1      4145 9.64633E-02
 -1      4146 5.68646E-02
 -1      4147 5.33789E-02
 -1      4148 5.86969E-02
 -1      4149 1.01539E-01
 -1      4150 1.01215E-01
 -1      4151 8.72976E-02
 -1      4152 6.76693E-02
 -1      4153 2.24136E+00
 -1      4154 1.67491E+00
 -1      4155 1.78891E+00
 -1      4156 2.01469E+00
 -1      4157 2.46304E+00
 -1      4158 3.55396E-02
 -1      4159 7.58799E-02
 -1      4160 8.17973E-02
 -1      4161 7.17980E-02
 -1      4162 5.90613E-02
 -1      4163 1.86634E-01
 -1      4164 7.38827E-02
 -1      4165 8.01339E-02
 -1      4166 7.88017E-02
 -1      4167 7.83108E-02
 -1      4168 1.02568E-01
 -1      4169 8.31116E-02
 -1      4170 8.45245E-02
 -1      4171 7.88017E-02
 -1      4172 7.44918E-02
 -1      4173 6.71789E-02
 -1      4174 5.48961E-02
 -1      4175 5.84006E-02
 -1      4176 5.84006E-02
 -1      4177 4.87316E-02
 -1      4178 3.90626E-02
 -1      4179 3.55396E-02
 -1      4180 3.20167E-02
 -1      4181 2.90779E-02
 -1      4182 2.59406E-02
 -1      4183 2.40645E-02
 -1      4184 2.15241E-02
 -1      4185 2.04215E-02
 -1      4186 1.97623E-02
 -1      4187 2.01574E-02
 -1      4188 2.14152E-02
 -1      4189 2.30747E-02
 -1      4190 2.55661E-02
 -1      4191 2.86727E-02
 -1      4192 3.29203E-02
 -1      4193 3.76567E-02
 -1      4194 4.37791E-02
 -1      4195 5.06779E-02
 -1      4196 5.91088E-02
 -1      4197 6.94861E-02
 -1      4198 8.06979E-02
 -1      4199 9.49075E-02
 -1      4200 1.09560E-01
 -1      4201 1.28988E-01
 -1      4202 1.47880E-01
 -1      4203 1.74489E-01
 -1      4204 1.98560E-01
 -1      4205 2.35129E-01
 -1      4206 2.68159E-01
 -1      4207 3.18587E-01
 -1      4208 3.85649E-01
 -1      4209 4.55308E-01
 -1      4210 5.58935E-01
 -1      4211 6.55002E-01
 -1      4212 8.09607E-01
 -1      4213 9.41413E-01
 -1      4214 1.17319E+00
 -1      4215 1.38231E+00
 -1      4216 1.54970E+00
 -1      4217 1.71710E+00
 -1      4218 9.59610E-02
 -1      4219 9.02262E-02
 -1      4220 8.13618E-02
 -1      4221 8.59374E-02
 -1      4222 8.69584E-02
 -1      4223 2.08739E+00
 -1      4224 2.16429E+00
 -1      4225 8.84493E-02
 -1      4226 8.46419E-02
 -1      4227 5.87686E-02
 -1      4228 6.43730E-02
 -1      4229 5.54005E-02
 -1      4230 8.39600E-02
 -1      4231 5.56488E-02
 -1      4232 5.14115E-02
 -1      4233 1.78891E+00
 -1      4234 6.29616E-02
 -1      4235 1.93761E+00
 -1      4236 6.59694E-02
 -1      4237 6.91998E-02
 -1      4238 5.84006E-02
 -1      4239 5.49160E-02
 -1      4240 7.44536E-02
 -1      4241 5.34519E-02
 -1      4242 5.69364E-02
 -1      4243 6.49820E-02
 -1      4244 5.68646E-02
 -3
 9999
