    1C
    1UUSER                                                              
    1UDATE              27.october.2022                                 
    1UTIME              00:50:59                                        
    1UHOST                                                              
    1UPGM               CalculiX                                        
    1UVERSION           Version 2.17                             
    1UCOMPILETIME       Thu Jul 23 21:43:50 CEST 2020                    
    1UDIR                                                               
    1UDBN                                                               
    1UMAT    1SOLIDMATERIAL                                             
    2C                          4320                                     1
 -1         1 9.81818E+01 2.89962E+01 0.00000E+00
 -1         2 1.04095E+02 2.20812E+01 0.00000E+00
 -1         3 1.50000E+02 0.00000E+00 0.00000E+00
 -1         4 1.50000E+02 5.00000E+01 0.00000E+00
 -1         5 0.00000E+00 0.00000E+00 0.00000E+00
 -1         6 0.00000E+00 5.00000E+01 0.00000E+00
 -1         7 0.00000E+00 4.70500E+01 0.00000E+00
 -1         8 0.00000E+00 4.41000E+01 0.00000E+00
 -1         9 0.00000E+00 4.11500E+01 0.00000E+00
 -1        10 0.00000E+00 3.82000E+01 0.00000E+00
 -1        11 0.00000E+00 3.52500E+01 0.00000E+00
 -1        12 0.00000E+00 3.23500E+01 0.00000E+00
 -1        13 0.00000E+00 2.94000E+01 0.00000E+00
 -1        14 0.00000E+00 2.64500E+01 0.00000E+00
 -1        15 0.00000E+00 2.35000E+01 0.00000E+00
 -1        16 0.00000E+00 2.05500E+01 0.00000E+00
 -1        17 0.00000E+00 1.76000E+01 0.00000E+00
 -1        18 0.00000E+00 1.47000E+01 0.00000E+00
 -1        19 0.00000E+00 1.17500E+01 0.00000E+00
 -1        20 0.00000E+00 8.80000E+00 0.00000E+00
 -1        21 0.00000E+00 5.85000E+00 0.00000E+00
 -1        22 0.00000E+00 2.90000E+00 0.00000E+00
 -1        23 3.15000E+00 5.00000E+01 0.00000E+00
 -1        24 6.15000E+00 5.00000E+01 0.00000E+00
 -1        25 9.15000E+00 5.00000E+01 0.00000E+00
 -1        26 1.21500E+01 5.00000E+01 0.00000E+00
 -1        27 1.51500E+01 5.00000E+01 0.00000E+00
 -1        28 1.81500E+01 5.00000E+01 0.00000E+00
 -1        29 2.11500E+01 5.00000E+01 0.00000E+00
 -1        30 2.41500E+01 5.00000E+01 0.00000E+00
 -1        31 2.71500E+01 5.00000E+01 0.00000E+00
 -1        32 3.01500E+01 5.00000E+01 0.00000E+00
 -1        33 3.31500E+01 5.00000E+01 0.00000E+00
 -1        34 3.61500E+01 5.00000E+01 0.00000E+00
 -1        35 3.91500E+01 5.00000E+01 0.00000E+00
 -1        36 4.21500E+01 5.00000E+01 0.00000E+00
 -1        37 4.51500E+01 5.00000E+01 0.00000E+00
 -1        38 4.81500E+01 5.00000E+01 0.00000E+00
 -1        39 5.11500E+01 5.00000E+01 0.00000E+00
 -1        40 5.41500E+01 5.00000E+01 0.00000E+00
 -1        41 5.71500E+01 5.00000E+01 0.00000E+00
 -1        42 6.01500E+01 5.00000E+01 0.00000E+00
 -1        43 6.31500E+01 5.00000E+01 0.00000E+00
 -1        44 6.61500E+01 5.00000E+01 0.00000E+00
 -1        45 6.91500E+01 5.00000E+01 0.00000E+00
 -1        46 7.21500E+01 5.00000E+01 0.00000E+00
 -1        47 7.51500E+01 5.00000E+01 0.00000E+00
 -1        48 7.81500E+01 5.00000E+01 0.00000E+00
 -1        49 8.11500E+01 5.00000E+01 0.00000E+00
 -1        50 8.41500E+01 5.00000E+01 0.00000E+00
 -1        51 8.71500E+01 5.00000E+01 0.00000E+00
 -1        52 9.01500E+01 5.00000E+01 0.00000E+00
 -1        53 9.31500E+01 5.00000E+01 0.00000E+00
 -1        54 9.61500E+01 5.00000E+01 0.00000E+00
 -1        55 9.91500E+01 5.00000E+01 0.00000E+00
 -1        56 1.02150E+02 5.00000E+01 0.00000E+00
 -1        57 1.05150E+02 5.00000E+01 0.00000E+00
 -1        58 1.08150E+02 5.00000E+01 0.00000E+00
 -1        59 1.11150E+02 5.00000E+01 0.00000E+00
 -1        60 1.14150E+02 5.00000E+01 0.00000E+00
 -1        61 1.17150E+02 5.00000E+01 0.00000E+00
 -1        62 1.20150E+02 5.00000E+01 0.00000E+00
 -1        63 1.23150E+02 5.00000E+01 0.00000E+00
 -1        64 1.26150E+02 5.00000E+01 0.00000E+00
 -1        65 1.29150E+02 5.00000E+01 0.00000E+00
 -1        66 1.32150E+02 5.00000E+01 0.00000E+00
 -1        67 1.35150E+02 5.00000E+01 0.00000E+00
 -1        68 1.38150E+02 5.00000E+01 0.00000E+00
 -1        69 1.41150E+02 5.00000E+01 0.00000E+00
 -1        70 1.44150E+02 5.00000E+01 0.00000E+00
 -1        71 1.47150E+02 5.00000E+01 0.00000E+00
 -1        72 3.15000E+00 0.00000E+00 0.00000E+00
 -1        73 6.15000E+00 0.00000E+00 0.00000E+00
 -1        74 9.15000E+00 0.00000E+00 0.00000E+00
 -1        75 1.21500E+01 0.00000E+00 0.00000E+00
 -1        76 1.51500E+01 0.00000E+00 0.00000E+00
 -1        77 1.81500E+01 0.00000E+00 0.00000E+00
 -1        78 2.11500E+01 0.00000E+00 0.00000E+00
 -1        79 2.41500E+01 0.00000E+00 0.00000E+00
 -1        80 2.71500E+01 0.00000E+00 0.00000E+00
 -1        81 3.01500E+01 0.00000E+00 0.00000E+00
 -1        82 3.31500E+01 0.00000E+00 0.00000E+00
 -1        83 3.61500E+01 0.00000E+00 0.00000E+00
 -1        84 3.91500E+01 0.00000E+00 0.00000E+00
 -1        85 4.21500E+01 0.00000E+00 0.00000E+00
 -1        86 4.51500E+01 0.00000E+00 0.00000E+00
 -1        87 4.81500E+01 0.00000E+00 0.00000E+00
 -1        88 5.11500E+01 0.00000E+00 0.00000E+00
 -1        89 5.41500E+01 0.00000E+00 0.00000E+00
 -1        90 5.71500E+01 0.00000E+00 0.00000E+00
 -1        91 6.01500E+01 0.00000E+00 0.00000E+00
 -1        92 6.31500E+01 0.00000E+00 0.00000E+00
 -1        93 6.61500E+01 0.00000E+00 0.00000E+00
 -1        94 6.91500E+01 0.00000E+00 0.00000E+00
 -1        95 7.21500E+01 0.00000E+00 0.00000E+00
 -1        96 7.51500E+01 0.00000E+00 0.00000E+00
 -1        97 7.81500E+01 0.00000E+00 0.00000E+00
 -1        98 8.11500E+01 0.00000E+00 0.00000E+00
 -1        99 8.41500E+01 0.00000E+00 0.00000E+00
 -1       100 8.71500E+01 0.00000E+00 0.00000E+00
 -1       101 9.01500E+01 0.00000E+00 0.00000E+00
 -1       102 9.31500E+01 0.00000E+00 0.00000E+00
 -1       103 9.61500E+01 0.00000E+00 0.00000E+00
 -1       104 9.91500E+01 0.00000E+00 0.00000E+00
 -1       105 1.02150E+02 0.00000E+00 0.00000E+00
 -1       106 1.05150E+02 0.00000E+00 0.00000E+00
 -1       107 1.08150E+02 0.00000E+00 0.00000E+00
 -1       108 1.11150E+02 0.00000E+00 0.00000E+00
 -1       109 1.14150E+02 0.00000E+00 0.00000E+00
 -1       110 1.17150E+02 0.00000E+00 0.00000E+00
 -1       111 1.20150E+02 0.00000E+00 0.00000E+00
 -1       112 1.23150E+02 0.00000E+00 0.00000E+00
 -1       113 1.26150E+02 0.00000E+00 0.00000E+00
 -1       114 1.29150E+02 0.00000E+00 0.00000E+00
 -1       115 1.32150E+02 0.00000E+00 0.00000E+00
 -1       116 1.35150E+02 0.00000E+00 0.00000E+00
 -1       117 1.38150E+02 0.00000E+00 0.00000E+00
 -1       118 1.41150E+02 0.00000E+00 0.00000E+00
 -1       119 1.44150E+02 0.00000E+00 0.00000E+00
 -1       120 1.47150E+02 0.00000E+00 0.00000E+00
 -1       121 1.50000E+02 2.95000E+00 0.00000E+00
 -1       122 1.50000E+02 5.90000E+00 0.00000E+00
 -1       123 1.50000E+02 8.85000E+00 0.00000E+00
 -1       124 1.50000E+02 1.18000E+01 0.00000E+00
 -1       125 1.50000E+02 1.47500E+01 0.00000E+00
 -1       126 1.50000E+02 1.76500E+01 0.00000E+00
 -1       127 1.50000E+02 2.06000E+01 0.00000E+00
 -1       128 1.50000E+02 2.35500E+01 0.00000E+00
 -1       129 1.50000E+02 2.65000E+01 0.00000E+00
 -1       130 1.50000E+02 2.94500E+01 0.00000E+00
 -1       131 1.50000E+02 3.24000E+01 0.00000E+00
 -1       132 1.50000E+02 3.53000E+01 0.00000E+00
 -1       133 1.50000E+02 3.82500E+01 0.00000E+00
 -1       134 1.50000E+02 4.12000E+01 0.00000E+00
 -1       135 1.50000E+02 4.41500E+01 0.00000E+00
 -1       136 1.50000E+02 4.71000E+01 0.00000E+00
 -1       137 1.03942E+02 2.06282E+01 0.00000E+00
 -1       138 1.03478E+02 1.92091E+01 0.00000E+00
 -1       139 1.02722E+02 1.79182E+01 0.00000E+00
 -1       140 1.01688E+02 1.67987E+01 0.00000E+00
 -1       141 1.00394E+02 1.59075E+01 0.00000E+00
 -1       142 9.90438E+01 1.53580E+01 0.00000E+00
 -1       143 9.76154E+01 1.51006E+01 0.00000E+00
 -1       144 9.60627E+01 1.51577E+01 0.00000E+00
 -1       145 9.46758E+01 1.55124E+01 0.00000E+00
 -1       146 9.32716E+01 1.62173E+01 0.00000E+00
 -1       147 9.21385E+01 1.71378E+01 0.00000E+00
 -1       148 9.12373E+01 1.82482E+01 0.00000E+00
 -1       149 9.05421E+01 1.96187E+01 0.00000E+00
 -1       150 9.01796E+01 2.09937E+01 0.00000E+00
 -1       151 9.01015E+01 2.23917E+01 0.00000E+00
 -1       152 9.03194E+01 2.38406E+01 0.00000E+00
 -1       153 9.07971E+01 2.51376E+01 0.00000E+00
 -1       154 9.15777E+01 2.63897E+01 0.00000E+00
 -1       155 9.25194E+01 2.73790E+01 0.00000E+00
 -1       156 9.37540E+01 2.82326E+01 0.00000E+00
 -1       157 9.50699E+01 2.87820E+01 0.00000E+00
 -1       158 9.65811E+01 2.90623E+01 0.00000E+00
 -1       159 9.95437E+01 2.86388E+01 0.00000E+00
 -1       160 1.00889E+02 2.79633E+01 0.00000E+00
 -1       161 1.01964E+02 2.71096E+01 0.00000E+00
 -1       162 1.02922E+02 2.59593E+01 0.00000E+00
 -1       163 1.03559E+02 2.47659E+01 0.00000E+00
 -1       164 1.03963E+02 2.34329E+01 0.00000E+00
 -1       165 2.59800E+00 4.55750E+01 0.00000E+00
 -1       166 2.59800E+00 4.26250E+01 0.00000E+00
 -1       167 2.59800E+00 3.96750E+01 0.00000E+00
 -1       168 2.59800E+00 3.67250E+01 0.00000E+00
 -1       169 2.59800E+00 3.38250E+01 0.00000E+00
 -1       170 2.59800E+00 3.08750E+01 0.00000E+00
 -1       171 2.59800E+00 2.79250E+01 0.00000E+00
 -1       172 2.59800E+00 2.49750E+01 0.00000E+00
 -1       173 2.59800E+00 2.20250E+01 0.00000E+00
 -1       174 2.59800E+00 1.90750E+01 0.00000E+00
 -1       175 2.59800E+00 1.61750E+01 0.00000E+00
 -1       176 2.59800E+00 1.32250E+01 0.00000E+00
 -1       177 2.59800E+00 1.02750E+01 0.00000E+00
 -1       178 2.59800E+00 7.32500E+00 0.00000E+00
 -1       179 2.59800E+00 4.37500E+00 0.00000E+00
 -1       180 2.87400E+00 2.18750E+00 0.00000E+00
 -1       181 4.65000E+00 4.74020E+01 0.00000E+00
 -1       182 7.65000E+00 4.74020E+01 0.00000E+00
 -1       183 1.06500E+01 4.74020E+01 0.00000E+00
 -1       184 1.36500E+01 4.74020E+01 0.00000E+00
 -1       185 1.66500E+01 4.74020E+01 0.00000E+00
 -1       186 1.96500E+01 4.74020E+01 0.00000E+00
 -1       187 2.26500E+01 4.74020E+01 0.00000E+00
 -1       188 2.56500E+01 4.74020E+01 0.00000E+00
 -1       189 2.86500E+01 4.74020E+01 0.00000E+00
 -1       190 3.16500E+01 4.74020E+01 0.00000E+00
 -1       191 3.46500E+01 4.74020E+01 0.00000E+00
 -1       192 3.76500E+01 4.74020E+01 0.00000E+00
 -1       193 4.06500E+01 4.74020E+01 0.00000E+00
 -1       194 4.36500E+01 4.74020E+01 0.00000E+00
 -1       195 4.66500E+01 4.74020E+01 0.00000E+00
 -1       196 4.96500E+01 4.74020E+01 0.00000E+00
 -1       197 5.26500E+01 4.74020E+01 0.00000E+00
 -1       198 5.56500E+01 4.74020E+01 0.00000E+00
 -1       199 5.86500E+01 4.74020E+01 0.00000E+00
 -1       200 6.16500E+01 4.74020E+01 0.00000E+00
 -1       201 6.46500E+01 4.74020E+01 0.00000E+00
 -1       202 6.76500E+01 4.74020E+01 0.00000E+00
 -1       203 7.06500E+01 4.74020E+01 0.00000E+00
 -1       204 7.36500E+01 4.74020E+01 0.00000E+00
 -1       205 7.66500E+01 4.74020E+01 0.00000E+00
 -1       206 7.96500E+01 4.74020E+01 0.00000E+00
 -1       207 8.26500E+01 4.74020E+01 0.00000E+00
 -1       208 8.56500E+01 4.74020E+01 0.00000E+00
 -1       209 8.86500E+01 4.74020E+01 0.00000E+00
 -1       210 9.16500E+01 4.74020E+01 0.00000E+00
 -1       211 9.46500E+01 4.74020E+01 0.00000E+00
 -1       212 9.76500E+01 4.74020E+01 0.00000E+00
 -1       213 1.00650E+02 4.74020E+01 0.00000E+00
 -1       214 1.03650E+02 4.74020E+01 0.00000E+00
 -1       215 1.06650E+02 4.74020E+01 0.00000E+00
 -1       216 1.09650E+02 4.74020E+01 0.00000E+00
 -1       217 1.12650E+02 4.74020E+01 0.00000E+00
 -1       218 1.15650E+02 4.74020E+01 0.00000E+00
 -1       219 1.18650E+02 4.74020E+01 0.00000E+00
 -1       220 1.21650E+02 4.74020E+01 0.00000E+00
 -1       221 1.24650E+02 4.74020E+01 0.00000E+00
 -1       222 1.27650E+02 4.74020E+01 0.00000E+00
 -1       223 1.30650E+02 4.74020E+01 0.00000E+00
 -1       224 1.33650E+02 4.74020E+01 0.00000E+00
 -1       225 1.36650E+02 4.74020E+01 0.00000E+00
 -1       226 1.39650E+02 4.74020E+01 0.00000E+00
 -1       227 1.42650E+02 4.74020E+01 0.00000E+00
 -1       228 1.45650E+02 4.74020E+01 0.00000E+00
 -1       229 5.87400E+00 2.18750E+00 0.00000E+00
 -1       230 8.87400E+00 2.18750E+00 0.00000E+00
 -1       231 1.18740E+01 2.18750E+00 0.00000E+00
 -1       232 1.48740E+01 2.18750E+00 0.00000E+00
 -1       233 1.78740E+01 2.18750E+00 0.00000E+00
 -1       234 2.08740E+01 2.18750E+00 0.00000E+00
 -1       235 2.38740E+01 2.18750E+00 0.00000E+00
 -1       236 2.68740E+01 2.18750E+00 0.00000E+00
 -1       237 2.98740E+01 2.18750E+00 0.00000E+00
 -1       238 3.28740E+01 2.18750E+00 0.00000E+00
 -1       239 3.58740E+01 2.18750E+00 0.00000E+00
 -1       240 3.88740E+01 2.18750E+00 0.00000E+00
 -1       241 4.18740E+01 2.18750E+00 0.00000E+00
 -1       242 4.48740E+01 2.18750E+00 0.00000E+00
 -1       243 4.78740E+01 2.18750E+00 0.00000E+00
 -1       244 5.08740E+01 2.18750E+00 0.00000E+00
 -1       245 5.38740E+01 2.18750E+00 0.00000E+00
 -1       246 5.68740E+01 2.18750E+00 0.00000E+00
 -1       247 5.98740E+01 2.18750E+00 0.00000E+00
 -1       248 6.28740E+01 2.18750E+00 0.00000E+00
 -1       249 6.58740E+01 2.18750E+00 0.00000E+00
 -1       250 6.88740E+01 2.18750E+00 0.00000E+00
 -1       251 7.18740E+01 2.18750E+00 0.00000E+00
 -1       252 7.48740E+01 2.18750E+00 0.00000E+00
 -1       253 7.78740E+01 2.18750E+00 0.00000E+00
 -1       254 8.08740E+01 2.18750E+00 0.00000E+00
 -1       255 8.38740E+01 2.18750E+00 0.00000E+00
 -1       256 8.68740E+01 2.18750E+00 0.00000E+00
 -1       257 8.98740E+01 2.18750E+00 0.00000E+00
 -1       258 9.28740E+01 2.18750E+00 0.00000E+00
 -1       259 9.58740E+01 2.18750E+00 0.00000E+00
 -1       260 9.88740E+01 2.18750E+00 0.00000E+00
 -1       261 1.01874E+02 2.18750E+00 0.00000E+00
 -1       262 1.04874E+02 2.18750E+00 0.00000E+00
 -1       263 1.07874E+02 2.18750E+00 0.00000E+00
 -1       264 1.10874E+02 2.18750E+00 0.00000E+00
 -1       265 1.13874E+02 2.18750E+00 0.00000E+00
 -1       266 1.16874E+02 2.18750E+00 0.00000E+00
 -1       267 1.19874E+02 2.18750E+00 0.00000E+00
 -1       268 1.22874E+02 2.18750E+00 0.00000E+00
 -1       269 1.25874E+02 2.18750E+00 0.00000E+00
 -1       270 1.28874E+02 2.18750E+00 0.00000E+00
 -1       271 1.31874E+02 2.18750E+00 0.00000E+00
 -1       272 1.34874E+02 2.18750E+00 0.00000E+00
 -1       273 1.37874E+02 2.18750E+00 0.00000E+00
 -1       274 1.40874E+02 2.18750E+00 0.00000E+00
 -1       275 1.43874E+02 2.18750E+00 0.00000E+00
 -1       276 1.46874E+02 2.18750E+00 0.00000E+00
 -1       277 1.47402E+02 4.42500E+00 0.00000E+00
 -1       278 1.47402E+02 7.37500E+00 0.00000E+00
 -1       279 1.47402E+02 1.03250E+01 0.00000E+00
 -1       280 1.47402E+02 1.32750E+01 0.00000E+00
 -1       281 1.47402E+02 1.61750E+01 0.00000E+00
 -1       282 1.47402E+02 1.91250E+01 0.00000E+00
 -1       283 1.47402E+02 2.20750E+01 0.00000E+00
 -1       284 1.47402E+02 2.50250E+01 0.00000E+00
 -1       285 1.47402E+02 2.79750E+01 0.00000E+00
 -1       286 1.47402E+02 3.09250E+01 0.00000E+00
 -1       287 1.47402E+02 3.38250E+01 0.00000E+00
 -1       288 1.47402E+02 3.67750E+01 0.00000E+00
 -1       289 1.47402E+02 3.97250E+01 0.00000E+00
 -1       290 1.47402E+02 4.26750E+01 0.00000E+00
 -1       291 1.46526E+02 4.50385E+01 0.00000E+00
 -1       292 1.05308E+02 2.12194E+01 0.00000E+00
 -1       293 1.04942E+02 1.95159E+01 0.00000E+00
 -1       294 1.04146E+02 1.79509E+01 0.00000E+00
 -1       295 1.03280E+02 1.63650E+01 0.00000E+00
 -1       296 1.01871E+02 1.51477E+01 0.00000E+00
 -1       297 1.00207E+02 1.44322E+01 0.00000E+00
 -1       298 9.85446E+01 1.40361E+01 0.00000E+00
 -1       299 9.67945E+01 1.39175E+01 0.00000E+00
 -1       300 9.50481E+01 1.40792E+01 0.00000E+00
 -1       301 9.32794E+01 1.44818E+01 0.00000E+00
 -1       302 9.19406E+01 1.57365E+01 0.00000E+00
 -1       303 9.07466E+01 1.69290E+01 0.00000E+00
 -1       304 8.96590E+01 1.83091E+01 0.00000E+00
 -1       305 8.91885E+01 1.99971E+01 0.00000E+00
 -1       306 8.88464E+01 2.16204E+01 0.00000E+00
 -1       307 8.88458E+01 2.33213E+01 0.00000E+00
 -1       308 8.94206E+01 2.49082E+01 0.00000E+00
 -1       309 9.00874E+01 2.64493E+01 0.00000E+00
 -1       310 9.11703E+01 2.77202E+01 0.00000E+00
 -1       311 9.23043E+01 2.90098E+01 0.00000E+00
 -1       312 9.39449E+01 2.96261E+01 0.00000E+00
 -1       313 9.55585E+01 3.03614E+01 0.00000E+00
 -1       314 9.74453E+01 3.05755E+01 0.00000E+00
 -1       315 9.91918E+01 3.00712E+01 0.00000E+00
 -1       316 1.00836E+02 2.95344E+01 0.00000E+00
 -1       317 1.02181E+02 2.84859E+01 0.00000E+00
 -1       318 1.03504E+02 2.74175E+01 0.00000E+00
 -1       319 1.04310E+02 2.59336E+01 0.00000E+00
 -1       320 1.04922E+02 2.44507E+01 0.00000E+00
 -1       321 1.05235E+02 2.28747E+01 0.00000E+00
 -1       322 5.19600E+00 4.11500E+01 0.00000E+00
 -1       323 5.19600E+00 4.41000E+01 0.00000E+00
 -1       324 5.19600E+00 3.52750E+01 0.00000E+00
 -1       325 5.19600E+00 3.23250E+01 0.00000E+00
 -1       326 5.19600E+00 2.93750E+01 0.00000E+00
 -1       327 5.19600E+00 2.64250E+01 0.00000E+00
 -1       328 5.19600E+00 2.34750E+01 0.00000E+00
 -1       329 5.19600E+00 2.05250E+01 0.00000E+00
 -1       330 5.19600E+00 1.76250E+01 0.00000E+00
 -1       331 5.19600E+00 1.46750E+01 0.00000E+00
 -1       332 5.19600E+00 1.17250E+01 0.00000E+00
 -1       333 5.19600E+00 8.77500E+00 0.00000E+00
 -1       334 5.19600E+00 5.82500E+00 0.00000E+00
 -1       335 5.53500E+00 4.00625E+00 0.00000E+00
 -1       336 8.53500E+00 4.00625E+00 0.00000E+00
 -1       337 9.15000E+00 4.48040E+01 0.00000E+00
 -1       338 1.21500E+01 4.48040E+01 0.00000E+00
 -1       339 1.51500E+01 4.48040E+01 0.00000E+00
 -1       340 1.81500E+01 4.48040E+01 0.00000E+00
 -1       341 2.11500E+01 4.48040E+01 0.00000E+00
 -1       342 2.41500E+01 4.48040E+01 0.00000E+00
 -1       343 2.71500E+01 4.48040E+01 0.00000E+00
 -1       344 3.01500E+01 4.48040E+01 0.00000E+00
 -1       345 3.31500E+01 4.48040E+01 0.00000E+00
 -1       346 3.61500E+01 4.48040E+01 0.00000E+00
 -1       347 3.91500E+01 4.48040E+01 0.00000E+00
 -1       348 4.21500E+01 4.48040E+01 0.00000E+00
 -1       349 4.51500E+01 4.48040E+01 0.00000E+00
 -1       350 4.81500E+01 4.48040E+01 0.00000E+00
 -1       351 5.11500E+01 4.48040E+01 0.00000E+00
 -1       352 5.41500E+01 4.48040E+01 0.00000E+00
 -1       353 5.71500E+01 4.48040E+01 0.00000E+00
 -1       354 6.01500E+01 4.48040E+01 0.00000E+00
 -1       355 6.31500E+01 4.48040E+01 0.00000E+00
 -1       356 6.61500E+01 4.48040E+01 0.00000E+00
 -1       357 6.91500E+01 4.48040E+01 0.00000E+00
 -1       358 7.21500E+01 4.48040E+01 0.00000E+00
 -1       359 7.51500E+01 4.48040E+01 0.00000E+00
 -1       360 7.81500E+01 4.48040E+01 0.00000E+00
 -1       361 8.11500E+01 4.48040E+01 0.00000E+00
 -1       362 8.41500E+01 4.48040E+01 0.00000E+00
 -1       363 8.71500E+01 4.48040E+01 0.00000E+00
 -1       364 9.01500E+01 4.48040E+01 0.00000E+00
 -1       365 9.31500E+01 4.48040E+01 0.00000E+00
 -1       366 9.61500E+01 4.48040E+01 0.00000E+00
 -1       367 9.91500E+01 4.48040E+01 0.00000E+00
 -1       368 1.02150E+02 4.48040E+01 0.00000E+00
 -1       369 1.05150E+02 4.48040E+01 0.00000E+00
 -1       370 1.08150E+02 4.48040E+01 0.00000E+00
 -1       371 1.11150E+02 4.48040E+01 0.00000E+00
 -1       372 1.14150E+02 4.48040E+01 0.00000E+00
 -1       373 1.17150E+02 4.48040E+01 0.00000E+00
 -1       374 1.20150E+02 4.48040E+01 0.00000E+00
 -1       375 1.23150E+02 4.48040E+01 0.00000E+00
 -1       376 1.26150E+02 4.48040E+01 0.00000E+00
 -1       377 1.29150E+02 4.48040E+01 0.00000E+00
 -1       378 1.32150E+02 4.48040E+01 0.00000E+00
 -1       379 1.35150E+02 4.48040E+01 0.00000E+00
 -1       380 1.38150E+02 4.48040E+01 0.00000E+00
 -1       381 1.41150E+02 4.48040E+01 0.00000E+00
 -1       382 1.43838E+02 4.49212E+01 0.00000E+00
 -1       383 1.15350E+01 4.00625E+00 0.00000E+00
 -1       384 1.45350E+01 4.00625E+00 0.00000E+00
 -1       385 1.75350E+01 4.00625E+00 0.00000E+00
 -1       386 2.05350E+01 4.00625E+00 0.00000E+00
 -1       387 2.35350E+01 4.00625E+00 0.00000E+00
 -1       388 2.65350E+01 4.00625E+00 0.00000E+00
 -1       389 2.95350E+01 4.00625E+00 0.00000E+00
 -1       390 3.25350E+01 4.00625E+00 0.00000E+00
 -1       391 3.55350E+01 4.00625E+00 0.00000E+00
 -1       392 3.85350E+01 4.00625E+00 0.00000E+00
 -1       393 4.15350E+01 4.00625E+00 0.00000E+00
 -1       394 4.45350E+01 4.00625E+00 0.00000E+00
 -1       395 4.75350E+01 4.00625E+00 0.00000E+00
 -1       396 5.05350E+01 4.00625E+00 0.00000E+00
 -1       397 5.35350E+01 4.00625E+00 0.00000E+00
 -1       398 5.65350E+01 4.00625E+00 0.00000E+00
 -1       399 5.95350E+01 4.00625E+00 0.00000E+00
 -1       400 6.25350E+01 4.00625E+00 0.00000E+00
 -1       401 6.55350E+01 4.00625E+00 0.00000E+00
 -1       402 6.85350E+01 4.00625E+00 0.00000E+00
 -1       403 7.15350E+01 4.00625E+00 0.00000E+00
 -1       404 7.45350E+01 4.00625E+00 0.00000E+00
 -1       405 7.75350E+01 4.00625E+00 0.00000E+00
 -1       406 8.05350E+01 4.00625E+00 0.00000E+00
 -1       407 8.35350E+01 4.00625E+00 0.00000E+00
 -1       408 8.65350E+01 4.00625E+00 0.00000E+00
 -1       409 8.95350E+01 4.00625E+00 0.00000E+00
 -1       410 9.25350E+01 4.00625E+00 0.00000E+00
 -1       411 9.55350E+01 4.00625E+00 0.00000E+00
 -1       412 9.85350E+01 4.00625E+00 0.00000E+00
 -1       413 1.01535E+02 4.00625E+00 0.00000E+00
 -1       414 1.04535E+02 4.00625E+00 0.00000E+00
 -1       415 1.07535E+02 4.00625E+00 0.00000E+00
 -1       416 1.10535E+02 4.00625E+00 0.00000E+00
 -1       417 1.13535E+02 4.00625E+00 0.00000E+00
 -1       418 1.16535E+02 4.00625E+00 0.00000E+00
 -1       419 1.19535E+02 4.00625E+00 0.00000E+00
 -1       420 1.22535E+02 4.00625E+00 0.00000E+00
 -1       421 1.25535E+02 4.00625E+00 0.00000E+00
 -1       422 1.28535E+02 4.00625E+00 0.00000E+00
 -1       423 1.31535E+02 4.00625E+00 0.00000E+00
 -1       424 1.34535E+02 4.00625E+00 0.00000E+00
 -1       425 1.37535E+02 4.00625E+00 0.00000E+00
 -1       426 1.40535E+02 4.00625E+00 0.00000E+00
 -1       427 1.43535E+02 4.00625E+00 0.00000E+00
 -1       428 1.45469E+02 4.21562E+00 0.00000E+00
 -1       429 1.44804E+02 1.18000E+01 0.00000E+00
 -1       430 1.44804E+02 8.85000E+00 0.00000E+00
 -1       431 1.45136E+02 6.53281E+00 0.00000E+00
 -1       432 1.44804E+02 1.47000E+01 0.00000E+00
 -1       433 1.44804E+02 1.76500E+01 0.00000E+00
 -1       434 1.44804E+02 2.06000E+01 0.00000E+00
 -1       435 1.44804E+02 2.35500E+01 0.00000E+00
 -1       436 1.44804E+02 2.65000E+01 0.00000E+00
 -1       437 1.44804E+02 2.94500E+01 0.00000E+00
 -1       438 1.44804E+02 3.23500E+01 0.00000E+00
 -1       439 1.44804E+02 3.53000E+01 0.00000E+00
 -1       440 1.44804E+02 3.82500E+01 0.00000E+00
 -1       441 1.44804E+02 4.12000E+01 0.00000E+00
 -1       442 1.05774E+02 1.81079E+01 0.00000E+00
 -1       443 1.06650E+02 2.21071E+01 0.00000E+00
 -1       444 1.06556E+02 2.00608E+01 0.00000E+00
 -1       445 1.04908E+02 1.65219E+01 0.00000E+00
 -1       446 1.03697E+02 1.44586E+01 0.00000E+00
 -1       447 5.19600E+00 3.82125E+01 0.00000E+00
 -1       448 9.96958E+01 1.28917E+01 0.00000E+00
 -1       449 9.77628E+01 1.26000E+01 0.00000E+00
 -1       450 9.57786E+01 1.24575E+01 0.00000E+00
 -1       451 9.38389E+01 1.28533E+01 0.00000E+00
 -1       452 9.15518E+01 1.39800E+01 0.00000E+00
 -1       453 9.03577E+01 1.51725E+01 0.00000E+00
 -1       454 8.91847E+01 1.68168E+01 0.00000E+00
 -1       455 8.80137E+01 1.87601E+01 0.00000E+00
 -1       456 8.76671E+01 2.05242E+01 0.00000E+00
 -1       457 8.72986E+01 2.24703E+01 0.00000E+00
 -1       458 8.75994E+01 2.46703E+01 0.00000E+00
 -1       459 8.82662E+01 2.62114E+01 0.00000E+00
 -1       460 8.95147E+01 2.80341E+01 0.00000E+00
 -1       461 9.06487E+01 2.93237E+01 0.00000E+00
 -1       462 9.26393E+01 3.06098E+01 0.00000E+00
 -1       463 9.42530E+01 3.13450E+01 0.00000E+00
 -1       464 9.63274E+01 3.20061E+01 0.00000E+00
 -1       465 9.87478E+01 3.18102E+01 0.00000E+00
 -1       466 1.00392E+02 3.12733E+01 0.00000E+00
 -1       467 1.02460E+02 3.02307E+01 0.00000E+00
 -1       468 1.03782E+02 2.91623E+01 0.00000E+00
 -1       469 1.05267E+02 2.74145E+01 0.00000E+00
 -1       470 1.05814E+02 2.56861E+01 0.00000E+00
 -1       471 1.06596E+02 2.39650E+01 0.00000E+00
 -1       472 1.01651E+02 1.33683E+01 0.00000E+00
 -1       473 9.09837E+01 3.09237E+01 0.00000E+00
 -1       474 9.21112E+01 1.23515E+01 0.00000E+00
 -1       475 1.00350E+01 6.60425E+00 0.00000E+00
 -1       476 7.79400E+00 3.08500E+01 0.00000E+00
 -1       477 7.79400E+00 3.38000E+01 0.00000E+00
 -1       478 7.79400E+00 2.49500E+01 0.00000E+00
 -1       479 7.79400E+00 2.20000E+01 0.00000E+00
 -1       480 7.79400E+00 1.91000E+01 0.00000E+00
 -1       481 7.79400E+00 1.61500E+01 0.00000E+00
 -1       482 7.79400E+00 1.32000E+01 0.00000E+00
 -1       483 7.79400E+00 1.02500E+01 0.00000E+00
 -1       484 1.30350E+01 6.60425E+00 0.00000E+00
 -1       485 1.06500E+01 4.22060E+01 0.00000E+00
 -1       486 1.01060E+02 1.15451E+01 0.00000E+00
 -1       487 1.36500E+01 4.22060E+01 0.00000E+00
 -1       488 1.66500E+01 4.22060E+01 0.00000E+00
 -1       489 1.96500E+01 4.22060E+01 0.00000E+00
 -1       490 2.26500E+01 4.22060E+01 0.00000E+00
 -1       491 2.56500E+01 4.22060E+01 0.00000E+00
 -1       492 2.86500E+01 4.22060E+01 0.00000E+00
 -1       493 3.16500E+01 4.22060E+01 0.00000E+00
 -1       494 3.46500E+01 4.22060E+01 0.00000E+00
 -1       495 3.76500E+01 4.22060E+01 0.00000E+00
 -1       496 4.06500E+01 4.22060E+01 0.00000E+00
 -1       497 4.36500E+01 4.22060E+01 0.00000E+00
 -1       498 4.66500E+01 4.22060E+01 0.00000E+00
 -1       499 4.96500E+01 4.22060E+01 0.00000E+00
 -1       500 5.26500E+01 4.22060E+01 0.00000E+00
 -1       501 5.56500E+01 4.22060E+01 0.00000E+00
 -1       502 5.86500E+01 4.22060E+01 0.00000E+00
 -1       503 6.16500E+01 4.22060E+01 0.00000E+00
 -1       504 6.46500E+01 4.22060E+01 0.00000E+00
 -1       505 6.76500E+01 4.22060E+01 0.00000E+00
 -1       506 7.06500E+01 4.22060E+01 0.00000E+00
 -1       507 7.36500E+01 4.22060E+01 0.00000E+00
 -1       508 7.66500E+01 4.22060E+01 0.00000E+00
 -1       509 7.96500E+01 4.22060E+01 0.00000E+00
 -1       510 8.26500E+01 4.22060E+01 0.00000E+00
 -1       511 8.56500E+01 4.22060E+01 0.00000E+00
 -1       512 8.86500E+01 4.22060E+01 0.00000E+00
 -1       513 9.16500E+01 4.22060E+01 0.00000E+00
 -1       514 9.46500E+01 4.22060E+01 0.00000E+00
 -1       515 9.76500E+01 4.22060E+01 0.00000E+00
 -1       516 1.00650E+02 4.22060E+01 0.00000E+00
 -1       517 1.03650E+02 4.22060E+01 0.00000E+00
 -1       518 1.06650E+02 4.22060E+01 0.00000E+00
 -1       519 1.09650E+02 4.22060E+01 0.00000E+00
 -1       520 1.12650E+02 4.22060E+01 0.00000E+00
 -1       521 1.15650E+02 4.22060E+01 0.00000E+00
 -1       522 1.18650E+02 4.22060E+01 0.00000E+00
 -1       523 1.21650E+02 4.22060E+01 0.00000E+00
 -1       524 1.24650E+02 4.22060E+01 0.00000E+00
 -1       525 1.27650E+02 4.22060E+01 0.00000E+00
 -1       526 1.30650E+02 4.22060E+01 0.00000E+00
 -1       527 1.33650E+02 4.22060E+01 0.00000E+00
 -1       528 1.36650E+02 4.22060E+01 0.00000E+00
 -1       529 1.39650E+02 4.22060E+01 0.00000E+00
 -1       530 1.90350E+01 6.60425E+00 0.00000E+00
 -1       531 2.20350E+01 6.60425E+00 0.00000E+00
 -1       532 2.50350E+01 6.60425E+00 0.00000E+00
 -1       533 2.80350E+01 6.60425E+00 0.00000E+00
 -1       534 3.10350E+01 6.60425E+00 0.00000E+00
 -1       535 3.40350E+01 6.60425E+00 0.00000E+00
 -1       536 3.70350E+01 6.60425E+00 0.00000E+00
 -1       537 4.00350E+01 6.60425E+00 0.00000E+00
 -1       538 4.30350E+01 6.60425E+00 0.00000E+00
 -1       539 4.60350E+01 6.60425E+00 0.00000E+00
 -1       540 4.90350E+01 6.60425E+00 0.00000E+00
 -1       541 5.20350E+01 6.60425E+00 0.00000E+00
 -1       542 5.50350E+01 6.60425E+00 0.00000E+00
 -1       543 5.80350E+01 6.60425E+00 0.00000E+00
 -1       544 6.10350E+01 6.60425E+00 0.00000E+00
 -1       545 6.40350E+01 6.60425E+00 0.00000E+00
 -1       546 6.70350E+01 6.60425E+00 0.00000E+00
 -1       547 7.00350E+01 6.60425E+00 0.00000E+00
 -1       548 7.30350E+01 6.60425E+00 0.00000E+00
 -1       549 7.60350E+01 6.60425E+00 0.00000E+00
 -1       550 7.90350E+01 6.60425E+00 0.00000E+00
 -1       551 8.20350E+01 6.60425E+00 0.00000E+00
 -1       552 8.50350E+01 6.60425E+00 0.00000E+00
 -1       553 8.80350E+01 6.60425E+00 0.00000E+00
 -1       554 9.10350E+01 6.60425E+00 0.00000E+00
 -1       555 9.40350E+01 6.60425E+00 0.00000E+00
 -1       556 9.70350E+01 6.60425E+00 0.00000E+00
 -1       557 1.00035E+02 6.60425E+00 0.00000E+00
 -1       558 1.03035E+02 6.60425E+00 0.00000E+00
 -1       559 1.06035E+02 6.60425E+00 0.00000E+00
 -1       560 1.09035E+02 6.60425E+00 0.00000E+00
 -1       561 1.12035E+02 6.60425E+00 0.00000E+00
 -1       562 1.15035E+02 6.60425E+00 0.00000E+00
 -1       563 1.18035E+02 6.60425E+00 0.00000E+00
 -1       564 1.21035E+02 6.60425E+00 0.00000E+00
 -1       565 1.24035E+02 6.60425E+00 0.00000E+00
 -1       566 1.27035E+02 6.60425E+00 0.00000E+00
 -1       567 1.30035E+02 6.60425E+00 0.00000E+00
 -1       568 1.33035E+02 6.60425E+00 0.00000E+00
 -1       569 1.36035E+02 6.60425E+00 0.00000E+00
 -1       570 1.39035E+02 6.60425E+00 0.00000E+00
 -1       571 1.42035E+02 6.60425E+00 0.00000E+00
 -1       572 1.42206E+02 1.61750E+01 0.00000E+00
 -1       573 1.42206E+02 1.91250E+01 0.00000E+00
 -1       574 1.42206E+02 1.03250E+01 0.00000E+00
 -1       575 1.42206E+02 1.32500E+01 0.00000E+00
 -1       576 1.42206E+02 2.20750E+01 0.00000E+00
 -1       577 1.42206E+02 2.50250E+01 0.00000E+00
 -1       578 1.42206E+02 2.79750E+01 0.00000E+00
 -1       579 1.42206E+02 3.08750E+01 0.00000E+00
 -1       580 1.42206E+02 3.38250E+01 0.00000E+00
 -1       581 1.42206E+02 3.67750E+01 0.00000E+00
 -1       582 1.42206E+02 3.97250E+01 0.00000E+00
 -1       583 1.08316E+02 2.10052E+01 0.00000E+00
 -1       584 1.07758E+02 1.84470E+01 0.00000E+00
 -1       585 1.08086E+02 2.30785E+01 0.00000E+00
 -1       586 1.60350E+01 6.60425E+00 0.00000E+00
 -1       587 1.06846E+02 1.64926E+01 0.00000E+00
 -1       588 7.92300E+00 4.16780E+01 0.00000E+00
 -1       589 1.03480E+02 1.23998E+01 0.00000E+00
 -1       590 9.47694E+01 3.33097E+01 0.00000E+00
 -1       591 8.57497E+01 2.38027E+01 0.00000E+00
 -1       592 7.79400E+00 2.79000E+01 0.00000E+00
 -1       593 9.68756E+01 1.10687E+01 0.00000E+00
 -1       594 8.71302E+01 1.69033E+01 0.00000E+00
 -1       595 9.91266E+01 1.12534E+01 0.00000E+00
 -1       596 9.44993E+01 1.11391E+01 0.00000E+00
 -1       597 8.95060E+01 1.31255E+01 0.00000E+00
 -1       598 9.76760E+01 3.36177E+01 0.00000E+00
 -1       599 8.83330E+01 1.47698E+01 0.00000E+00
 -1       600 8.63219E+01 1.93438E+01 0.00000E+00
 -1       601 8.59534E+01 2.12899E+01 0.00000E+00
 -1       602 8.65125E+01 2.60555E+01 0.00000E+00
 -1       603 8.74755E+01 2.80920E+01 0.00000E+00
 -1       604 8.88566E+01 2.97561E+01 0.00000E+00
 -1       605 9.27350E+01 3.25382E+01 0.00000E+00
 -1       606 1.06936E+02 2.69924E+01 0.00000E+00
 -1       607 1.00050E+02 3.30128E+01 0.00000E+00
 -1       608 1.02198E+02 3.22835E+01 0.00000E+00
 -1       609 1.04174E+02 3.10001E+01 0.00000E+00
 -1       610 1.05704E+02 2.92902E+01 0.00000E+00
 -1       611 1.07718E+02 2.52712E+01 0.00000E+00
 -1       612 7.61550E+00 6.21462E+00 0.00000E+00
 -1       613 1.05635E+02 1.44292E+01 0.00000E+00
 -1       614 7.79400E+00 3.67375E+01 0.00000E+00
 -1       615 1.05419E+02 1.23704E+01 0.00000E+00
 -1       616 1.07373E+02 2.88680E+01 0.00000E+00
 -1       617 9.27717E+01 1.06373E+01 0.00000E+00
 -1       618 1.41678E+02 4.22645E+01 0.00000E+00
 -1       619 1.03920E+01 2.05500E+01 0.00000E+00
 -1       620 1.03920E+01 2.35000E+01 0.00000E+00
 -1       621 1.03920E+01 1.46750E+01 0.00000E+00
 -1       622 1.03920E+01 1.17250E+01 0.00000E+00
 -1       623 1.15350E+01 9.20225E+00 0.00000E+00
 -1       624 1.45350E+01 9.20225E+00 0.00000E+00
 -1       625 1.01676E+02 3.42722E+01 0.00000E+00
 -1       626 1.51500E+01 3.96080E+01 0.00000E+00
 -1       627 1.81500E+01 3.96080E+01 0.00000E+00
 -1       628 2.11500E+01 3.96080E+01 0.00000E+00
 -1       629 2.41500E+01 3.96080E+01 0.00000E+00
 -1       630 2.71500E+01 3.96080E+01 0.00000E+00
 -1       631 3.01500E+01 3.96080E+01 0.00000E+00
 -1       632 3.31500E+01 3.96080E+01 0.00000E+00
 -1       633 3.61500E+01 3.96080E+01 0.00000E+00
 -1       634 3.91500E+01 3.96080E+01 0.00000E+00
 -1       635 4.21500E+01 3.96080E+01 0.00000E+00
 -1       636 4.51500E+01 3.96080E+01 0.00000E+00
 -1       637 4.81500E+01 3.96080E+01 0.00000E+00
 -1       638 5.11500E+01 3.96080E+01 0.00000E+00
 -1       639 5.41500E+01 3.96080E+01 0.00000E+00
 -1       640 5.71500E+01 3.96080E+01 0.00000E+00
 -1       641 6.01500E+01 3.96080E+01 0.00000E+00
 -1       642 6.31500E+01 3.96080E+01 0.00000E+00
 -1       643 6.61500E+01 3.96080E+01 0.00000E+00
 -1       644 6.91500E+01 3.96080E+01 0.00000E+00
 -1       645 7.21500E+01 3.96080E+01 0.00000E+00
 -1       646 7.51500E+01 3.96080E+01 0.00000E+00
 -1       647 7.81500E+01 3.96080E+01 0.00000E+00
 -1       648 8.11500E+01 3.96080E+01 0.00000E+00
 -1       649 8.41500E+01 3.96080E+01 0.00000E+00
 -1       650 8.71500E+01 3.96080E+01 0.00000E+00
 -1       651 9.01500E+01 3.96080E+01 0.00000E+00
 -1       652 9.31500E+01 3.96080E+01 0.00000E+00
 -1       653 9.61500E+01 3.96080E+01 0.00000E+00
 -1       654 9.91500E+01 3.96080E+01 0.00000E+00
 -1       655 1.02150E+02 3.96080E+01 0.00000E+00
 -1       656 1.05150E+02 3.96080E+01 0.00000E+00
 -1       657 1.08150E+02 3.96080E+01 0.00000E+00
 -1       658 1.11150E+02 3.96080E+01 0.00000E+00
 -1       659 1.14150E+02 3.96080E+01 0.00000E+00
 -1       660 1.17150E+02 3.96080E+01 0.00000E+00
 -1       661 1.20150E+02 3.96080E+01 0.00000E+00
 -1       662 1.23150E+02 3.96080E+01 0.00000E+00
 -1       663 1.26150E+02 3.96080E+01 0.00000E+00
 -1       664 1.29150E+02 3.96080E+01 0.00000E+00
 -1       665 1.32150E+02 3.96080E+01 0.00000E+00
 -1       666 1.35150E+02 3.96080E+01 0.00000E+00
 -1       667 1.38150E+02 3.96080E+01 0.00000E+00
 -1       668 2.35350E+01 9.20225E+00 0.00000E+00
 -1       669 1.39206E+02 1.03250E+01 0.00000E+00
 -1       670 2.05350E+01 9.20225E+00 0.00000E+00
 -1       671 2.95350E+01 9.20225E+00 0.00000E+00
 -1       672 3.25350E+01 9.20225E+00 0.00000E+00
 -1       673 3.55350E+01 9.20225E+00 0.00000E+00
 -1       674 3.85350E+01 9.20225E+00 0.00000E+00
 -1       675 4.15350E+01 9.20225E+00 0.00000E+00
 -1       676 4.45350E+01 9.20225E+00 0.00000E+00
 -1       677 4.75350E+01 9.20225E+00 0.00000E+00
 -1       678 5.05350E+01 9.20225E+00 0.00000E+00
 -1       679 5.35350E+01 9.20225E+00 0.00000E+00
 -1       680 5.65350E+01 9.20225E+00 0.00000E+00
 -1       681 5.95350E+01 9.20225E+00 0.00000E+00
 -1       682 6.25350E+01 9.20225E+00 0.00000E+00
 -1       683 6.55350E+01 9.20225E+00 0.00000E+00
 -1       684 6.85350E+01 9.20225E+00 0.00000E+00
 -1       685 7.15350E+01 9.20225E+00 0.00000E+00
 -1       686 7.45350E+01 9.20225E+00 0.00000E+00
 -1       687 7.75350E+01 9.20225E+00 0.00000E+00
 -1       688 8.05350E+01 9.20225E+00 0.00000E+00
 -1       689 8.35350E+01 9.20225E+00 0.00000E+00
 -1       690 8.65350E+01 9.20225E+00 0.00000E+00
 -1       691 8.95350E+01 9.20225E+00 0.00000E+00
 -1       692 9.85350E+01 8.98964E+00 0.00000E+00
 -1       693 1.01535E+02 8.98964E+00 0.00000E+00
 -1       694 1.04535E+02 8.98964E+00 0.00000E+00
 -1       695 1.07535E+02 8.98964E+00 0.00000E+00
 -1       696 1.10535E+02 8.98964E+00 0.00000E+00
 -1       697 1.13535E+02 8.98964E+00 0.00000E+00
 -1       698 1.16535E+02 8.98964E+00 0.00000E+00
 -1       699 1.19535E+02 8.98964E+00 0.00000E+00
 -1       700 1.22535E+02 8.98964E+00 0.00000E+00
 -1       701 1.25535E+02 8.98964E+00 0.00000E+00
 -1       702 1.28535E+02 8.98964E+00 0.00000E+00
 -1       703 1.31535E+02 8.98964E+00 0.00000E+00
 -1       704 1.34535E+02 8.98964E+00 0.00000E+00
 -1       705 1.36870E+02 9.65732E+00 0.00000E+00
 -1       706 1.39608E+02 2.35500E+01 0.00000E+00
 -1       707 1.40178E+02 3.96665E+01 0.00000E+00
 -1       708 1.39608E+02 1.76500E+01 0.00000E+00
 -1       709 1.39608E+02 2.65000E+01 0.00000E+00
 -1       710 1.39608E+02 2.06000E+01 0.00000E+00
 -1       711 9.30846E+01 3.46843E+01 0.00000E+00
 -1       712 1.39608E+02 2.94000E+01 0.00000E+00
 -1       713 1.39608E+02 3.23500E+01 0.00000E+00
 -1       714 1.39608E+02 3.53000E+01 0.00000E+00
 -1       715 8.64594E+01 3.03405E+01 0.00000E+00
 -1       716 1.07220E+01 3.94717E+01 0.00000E+00
 -1       717 8.90949E+01 3.18434E+01 0.00000E+00
 -1       718 8.60916E+01 1.49119E+01 0.00000E+00
 -1       719 1.75350E+01 9.20225E+00 0.00000E+00
 -1       720 1.09876E+02 1.93243E+01 0.00000E+00
 -1       721 2.65350E+01 9.20225E+00 0.00000E+00
 -1       722 9.08462E+01 3.34579E+01 0.00000E+00
 -1       723 1.06467E+02 3.15124E+01 0.00000E+00
 -1       724 8.39750E+01 2.23942E+01 0.00000E+00
 -1       725 1.03920E+01 1.76125E+01 0.00000E+00
 -1       726 9.56318E+01 9.22206E+00 0.00000E+00
 -1       727 9.93693E+01 3.53020E+01 0.00000E+00
 -1       728 1.03920E+01 3.23250E+01 0.00000E+00
 -1       729 8.73868E+01 1.28543E+01 0.00000E+00
 -1       730 9.03202E+01 1.10944E+01 0.00000E+00
 -1       731 8.45348E+01 2.00133E+01 0.00000E+00
 -1       732 1.09593E+02 2.44591E+01 0.00000E+00
 -1       733 8.45859E+01 2.54523E+01 0.00000E+00
 -1       734 1.09823E+02 2.22218E+01 0.00000E+00
 -1       735 9.60420E+01 3.51693E+01 0.00000E+00
 -1       736 8.51405E+01 2.79501E+01 0.00000E+00
 -1       737 8.49388E+01 1.75316E+01 0.00000E+00
 -1       738 1.09312E+02 1.65325E+01 0.00000E+00
 -1       739 1.04120E+02 3.30802E+01 0.00000E+00
 -1       740 1.08101E+02 1.44692E+01 0.00000E+00
 -1       741 1.08812E+02 2.68066E+01 0.00000E+00
 -1       742 1.03920E+01 3.52625E+01 0.00000E+00
 -1       743 1.03920E+01 2.64500E+01 0.00000E+00
 -1       744 1.07884E+02 1.24104E+01 0.00000E+00
 -1       745 1.39608E+02 1.47250E+01 0.00000E+00
 -1       746 1.03920E+01 2.93875E+01 0.00000E+00
 -1       747 8.28113E+01 2.40438E+01 0.00000E+00
 -1       748 1.38879E+02 3.74540E+01 0.00000E+00
 -1       749 1.12096E+02 1.74226E+01 0.00000E+00
 -1       750 1.29900E+01 1.32000E+01 0.00000E+00
 -1       751 1.09499E+02 2.88189E+01 0.00000E+00
 -1       752 1.03723E+02 3.53684E+01 0.00000E+00
 -1       753 8.86945E+01 3.40349E+01 0.00000E+00
 -1       754 1.96500E+01 3.70100E+01 0.00000E+00
 -1       755 2.26500E+01 3.70100E+01 0.00000E+00
 -1       756 2.56500E+01 3.70100E+01 0.00000E+00
 -1       757 2.86500E+01 3.70100E+01 0.00000E+00
 -1       758 3.16500E+01 3.70100E+01 0.00000E+00
 -1       759 3.46500E+01 3.70100E+01 0.00000E+00
 -1       760 3.76500E+01 3.70100E+01 0.00000E+00
 -1       761 4.06500E+01 3.70100E+01 0.00000E+00
 -1       762 4.36500E+01 3.70100E+01 0.00000E+00
 -1       763 4.66500E+01 3.70100E+01 0.00000E+00
 -1       764 4.96500E+01 3.70100E+01 0.00000E+00
 -1       765 5.26500E+01 3.70100E+01 0.00000E+00
 -1       766 5.56500E+01 3.70100E+01 0.00000E+00
 -1       767 5.86500E+01 3.70100E+01 0.00000E+00
 -1       768 6.16500E+01 3.70100E+01 0.00000E+00
 -1       769 6.46500E+01 3.70100E+01 0.00000E+00
 -1       770 6.76500E+01 3.70100E+01 0.00000E+00
 -1       771 7.06500E+01 3.70100E+01 0.00000E+00
 -1       772 7.36500E+01 3.70100E+01 0.00000E+00
 -1       773 7.66500E+01 3.70100E+01 0.00000E+00
 -1       774 7.96500E+01 3.70100E+01 0.00000E+00
 -1       775 8.26500E+01 3.70100E+01 0.00000E+00
 -1       776 8.56500E+01 3.70100E+01 0.00000E+00
 -1       777 8.86500E+01 3.70100E+01 0.00000E+00
 -1       778 9.46500E+01 3.72226E+01 0.00000E+00
 -1       779 1.00650E+02 3.73902E+01 0.00000E+00
 -1       780 1.03650E+02 3.72226E+01 0.00000E+00
 -1       781 1.06650E+02 3.72226E+01 0.00000E+00
 -1       782 1.09650E+02 3.72226E+01 0.00000E+00
 -1       783 1.12650E+02 3.72226E+01 0.00000E+00
 -1       784 1.15650E+02 3.72226E+01 0.00000E+00
 -1       785 1.18650E+02 3.72226E+01 0.00000E+00
 -1       786 1.21650E+02 3.72226E+01 0.00000E+00
 -1       787 1.24650E+02 3.72226E+01 0.00000E+00
 -1       788 1.27650E+02 3.72226E+01 0.00000E+00
 -1       789 1.30650E+02 3.72226E+01 0.00000E+00
 -1       790 1.33650E+02 3.72226E+01 0.00000E+00
 -1       791 1.36264E+02 3.73383E+01 0.00000E+00
 -1       792 8.30440E+01 1.84969E+01 0.00000E+00
 -1       793 2.20350E+01 1.18003E+01 0.00000E+00
 -1       794 3.40350E+01 1.18003E+01 0.00000E+00
 -1       795 3.10350E+01 1.18003E+01 0.00000E+00
 -1       796 4.00350E+01 1.18003E+01 0.00000E+00
 -1       797 4.30350E+01 1.18003E+01 0.00000E+00
 -1       798 4.60350E+01 1.18003E+01 0.00000E+00
 -1       799 4.90350E+01 1.18003E+01 0.00000E+00
 -1       800 5.20350E+01 1.18003E+01 0.00000E+00
 -1       801 5.50350E+01 1.18003E+01 0.00000E+00
 -1       802 5.80350E+01 1.18003E+01 0.00000E+00
 -1       803 6.10350E+01 1.18003E+01 0.00000E+00
 -1       804 6.40350E+01 1.18003E+01 0.00000E+00
 -1       805 6.70350E+01 1.18003E+01 0.00000E+00
 -1       806 7.00350E+01 1.18003E+01 0.00000E+00
 -1       807 7.30350E+01 1.18003E+01 0.00000E+00
 -1       808 7.60350E+01 1.18003E+01 0.00000E+00
 -1       809 7.90350E+01 1.18003E+01 0.00000E+00
 -1       810 8.20350E+01 1.18003E+01 0.00000E+00
 -1       811 1.12043E+02 2.03201E+01 0.00000E+00
 -1       812 1.12035E+02 1.15876E+01 0.00000E+00
 -1       813 1.15035E+02 1.15876E+01 0.00000E+00
 -1       814 1.18035E+02 1.15876E+01 0.00000E+00
 -1       815 1.21035E+02 1.15876E+01 0.00000E+00
 -1       816 1.24035E+02 1.15876E+01 0.00000E+00
 -1       817 1.27035E+02 1.15876E+01 0.00000E+00
 -1       818 1.30035E+02 1.15876E+01 0.00000E+00
 -1       819 1.33035E+02 1.15876E+01 0.00000E+00
 -1       820 1.29900E+01 2.20250E+01 0.00000E+00
 -1       821 1.37010E+02 2.50250E+01 0.00000E+00
 -1       822 1.37010E+02 3.38250E+01 0.00000E+00
 -1       823 1.37010E+02 2.79250E+01 0.00000E+00
 -1       824 8.37114E+01 3.02977E+01 0.00000E+00
 -1       825 1.10830E+02 2.61745E+01 0.00000E+00
 -1       826 8.24222E+01 2.07728E+01 0.00000E+00
 -1       827 1.48200E+01 3.53988E+01 0.00000E+00
 -1       828 1.37010E+02 3.08750E+01 0.00000E+00
 -1       829 3.70350E+01 1.18003E+01 0.00000E+00
 -1       830 9.10608E+01 3.57222E+01 0.00000E+00
 -1       831 9.76172E+01 3.74517E+01 0.00000E+00
 -1       832 1.72350E+01 3.62044E+01 0.00000E+00
 -1       833 1.11748E+02 2.35494E+01 0.00000E+00
 -1       834 8.60590E+01 3.25319E+01 0.00000E+00
 -1       835 8.23709E+01 2.72545E+01 0.00000E+00
 -1       836 8.50041E+01 1.27909E+01 0.00000E+00
 -1       837 8.36386E+01 1.53960E+01 0.00000E+00
 -1       838 1.37625E+01 1.12011E+01 0.00000E+00
 -1       839 1.08593E+02 3.14633E+01 0.00000E+00
 -1       840 1.06432E+02 3.40011E+01 0.00000E+00
 -1       841 1.10619E+02 1.43783E+01 0.00000E+00
 -1       842 1.29900E+01 2.49750E+01 0.00000E+00
 -1       843 1.29900E+01 1.61375E+01 0.00000E+00
 -1       844 1.48200E+01 3.24613E+01 0.00000E+00
 -1       845 1.37010E+02 1.61875E+01 0.00000E+00
 -1       846 2.50350E+01 1.18003E+01 0.00000E+00
 -1       847 1.90350E+01 1.18003E+01 0.00000E+00
 -1       848 2.80350E+01 1.18003E+01 0.00000E+00
 -1       849 1.48200E+01 2.95238E+01 0.00000E+00
 -1       850 1.35370E+02 1.22553E+01 0.00000E+00
 -1       851 1.29900E+01 1.90875E+01 0.00000E+00
 -1       852 1.37010E+02 1.91375E+01 0.00000E+00
 -1       853 1.37010E+02 2.20812E+01 0.00000E+00
 -1       854 8.12585E+01 2.24224E+01 0.00000E+00
 -1       855 1.08558E+02 3.39521E+01 0.00000E+00
 -1       856 1.63988E+01 1.15007E+01 0.00000E+00
 -1       857 1.36820E+02 1.27614E+01 0.00000E+00
 -1       858 1.36637E+02 3.55817E+01 0.00000E+00
 -1       859 1.13066E+02 2.54832E+01 0.00000E+00
 -1       860 2.41500E+01 3.44120E+01 0.00000E+00
 -1       861 2.71500E+01 3.44120E+01 0.00000E+00
 -1       862 3.01500E+01 3.44120E+01 0.00000E+00
 -1       863 3.31500E+01 3.44120E+01 0.00000E+00
 -1       864 3.61500E+01 3.44120E+01 0.00000E+00
 -1       865 3.91500E+01 3.44120E+01 0.00000E+00
 -1       866 4.21500E+01 3.44120E+01 0.00000E+00
 -1       867 4.51500E+01 3.44120E+01 0.00000E+00
 -1       868 4.81500E+01 3.44120E+01 0.00000E+00
 -1       869 5.11500E+01 3.44120E+01 0.00000E+00
 -1       870 5.41500E+01 3.44120E+01 0.00000E+00
 -1       871 5.71500E+01 3.44120E+01 0.00000E+00
 -1       872 6.01500E+01 3.44120E+01 0.00000E+00
 -1       873 6.31500E+01 3.44120E+01 0.00000E+00
 -1       874 6.61500E+01 3.44120E+01 0.00000E+00
 -1       875 6.91500E+01 3.44120E+01 0.00000E+00
 -1       876 7.21500E+01 3.44120E+01 0.00000E+00
 -1       877 7.51500E+01 3.44120E+01 0.00000E+00
 -1       878 7.81500E+01 3.44120E+01 0.00000E+00
 -1       879 8.11500E+01 3.44120E+01 0.00000E+00
 -1       880 1.11558E+02 3.39521E+01 0.00000E+00
 -1       881 1.14558E+02 3.39521E+01 0.00000E+00
 -1       882 1.17558E+02 3.39521E+01 0.00000E+00
 -1       883 1.20558E+02 3.39521E+01 0.00000E+00
 -1       884 1.23558E+02 3.39521E+01 0.00000E+00
 -1       885 1.26558E+02 3.39521E+01 0.00000E+00
 -1       886 1.29558E+02 3.39521E+01 0.00000E+00
 -1       887 1.32558E+02 3.39521E+01 0.00000E+00
 -1       888 1.13937E+02 2.21214E+01 0.00000E+00
 -1       889 4.45350E+01 1.43982E+01 0.00000E+00
 -1       890 4.15350E+01 1.43982E+01 0.00000E+00
 -1       891 5.05350E+01 1.43982E+01 0.00000E+00
 -1       892 5.35350E+01 1.43982E+01 0.00000E+00
 -1       893 5.65350E+01 1.43982E+01 0.00000E+00
 -1       894 5.95350E+01 1.43982E+01 0.00000E+00
 -1       895 6.25350E+01 1.43982E+01 0.00000E+00
 -1       896 6.55350E+01 1.43982E+01 0.00000E+00
 -1       897 6.85350E+01 1.43982E+01 0.00000E+00
 -1       898 7.15350E+01 1.43982E+01 0.00000E+00
 -1       899 7.45350E+01 1.43982E+01 0.00000E+00
 -1       900 7.75350E+01 1.43982E+01 0.00000E+00
 -1       901 8.05350E+01 1.43982E+01 0.00000E+00
 -1       902 1.16535E+02 1.41856E+01 0.00000E+00
 -1       903 3.25350E+01 1.43982E+01 0.00000E+00
 -1       904 1.13577E+02 1.42820E+01 0.00000E+00
 -1       905 1.22535E+02 1.41856E+01 0.00000E+00
 -1       906 1.25535E+02 1.41856E+01 0.00000E+00
 -1       907 1.28535E+02 1.41856E+01 0.00000E+00
 -1       908 1.31535E+02 1.41856E+01 0.00000E+00
 -1       909 8.32407E+01 3.31427E+01 0.00000E+00
 -1       910 1.34412E+02 2.64750E+01 0.00000E+00
 -1       911 1.19535E+02 1.41856E+01 0.00000E+00
 -1       912 4.75350E+01 1.43982E+01 0.00000E+00
 -1       913 1.56263E+01 1.34996E+01 0.00000E+00
 -1       914 8.11632E+01 1.65288E+01 0.00000E+00
 -1       915 8.03938E+01 2.53478E+01 0.00000E+00
 -1       916 2.11500E+01 3.44120E+01 0.00000E+00
 -1       917 1.72350E+01 3.32669E+01 0.00000E+00
 -1       918 1.14622E+02 1.89185E+01 0.00000E+00
 -1       919 1.11846E+02 2.83431E+01 0.00000E+00
 -1       920 1.39050E+01 2.72494E+01 0.00000E+00
 -1       921 8.05414E+01 1.88047E+01 0.00000E+00
 -1       922 8.07048E+01 2.98052E+01 0.00000E+00
 -1       923 1.10940E+02 3.09875E+01 0.00000E+00
 -1       924 3.55350E+01 1.43982E+01 0.00000E+00
 -1       925 1.34321E+02 1.46185E+01 0.00000E+00
 -1       926 2.05350E+01 1.43982E+01 0.00000E+00
 -1       927 2.95350E+01 1.43982E+01 0.00000E+00
 -1       928 3.85350E+01 1.43982E+01 0.00000E+00
 -1       929 1.34321E+02 1.75685E+01 0.00000E+00
 -1       930 2.35350E+01 1.43982E+01 0.00000E+00
 -1       931 7.93776E+01 2.04543E+01 0.00000E+00
 -1       932 1.55880E+01 2.35000E+01 0.00000E+00
 -1       933 1.34412E+02 2.94250E+01 0.00000E+00
 -1       934 1.55880E+01 2.05625E+01 0.00000E+00
 -1       935 1.34412E+02 2.35313E+01 0.00000E+00
 -1       936 7.87277E+01 2.78985E+01 0.00000E+00
 -1       937 1.15579E+02 1.65521E+01 0.00000E+00
 -1       938 1.72350E+01 3.03294E+01 0.00000E+00
 -1       939 1.91925E+01 3.38394E+01 0.00000E+00
 -1       940 1.27035E+02 1.67836E+01 0.00000E+00
 -1       941 2.56500E+01 3.18140E+01 0.00000E+00
 -1       942 7.85512E+01 1.70381E+01 0.00000E+00
 -1       943 7.94274E+01 3.21086E+01 0.00000E+00
 -1       944 2.86500E+01 3.18140E+01 0.00000E+00
 -1       945 3.16500E+01 3.18140E+01 0.00000E+00
 -1       946 3.46500E+01 3.18140E+01 0.00000E+00
 -1       947 3.76500E+01 3.18140E+01 0.00000E+00
 -1       948 4.06500E+01 3.18140E+01 0.00000E+00
 -1       949 4.36500E+01 3.18140E+01 0.00000E+00
 -1       950 4.66500E+01 3.18140E+01 0.00000E+00
 -1       951 4.96500E+01 3.18140E+01 0.00000E+00
 -1       952 5.26500E+01 3.18140E+01 0.00000E+00
 -1       953 5.56500E+01 3.18140E+01 0.00000E+00
 -1       954 5.86500E+01 3.18140E+01 0.00000E+00
 -1       955 6.16500E+01 3.18140E+01 0.00000E+00
 -1       956 6.46500E+01 3.18140E+01 0.00000E+00
 -1       957 6.76500E+01 3.18140E+01 0.00000E+00
 -1       958 7.06500E+01 3.18140E+01 0.00000E+00
 -1       959 7.36500E+01 3.18140E+01 0.00000E+00
 -1       960 7.65387E+01 3.19613E+01 0.00000E+00
 -1       961 1.21035E+02 1.67836E+01 0.00000E+00
 -1       962 1.13940E+02 3.09875E+01 0.00000E+00
 -1       963 1.16940E+02 3.09875E+01 0.00000E+00
 -1       964 1.19940E+02 3.09875E+01 0.00000E+00
 -1       965 1.22940E+02 3.09875E+01 0.00000E+00
 -1       966 1.25940E+02 3.09875E+01 0.00000E+00
 -1       967 1.28940E+02 3.09875E+01 0.00000E+00
 -1       968 1.35072E+02 3.46850E+01 0.00000E+00
 -1       969 1.15811E+02 2.44005E+01 0.00000E+00
 -1       970 5.50350E+01 1.69963E+01 0.00000E+00
 -1       971 5.20350E+01 1.69963E+01 0.00000E+00
 -1       972 6.10350E+01 1.69963E+01 0.00000E+00
 -1       973 6.40350E+01 1.69963E+01 0.00000E+00
 -1       974 6.70350E+01 1.69963E+01 0.00000E+00
 -1       975 7.00350E+01 1.69963E+01 0.00000E+00
 -1       976 7.30350E+01 1.69963E+01 0.00000E+00
 -1       977 1.31535E+02 1.71356E+01 0.00000E+00
 -1       978 1.75351E+01 1.43983E+01 0.00000E+00
 -1       979 1.29285E+02 1.69596E+01 0.00000E+00
 -1       980 1.24035E+02 1.67836E+01 0.00000E+00
 -1       981 7.85130E+01 2.33797E+01 0.00000E+00
 -1       982 1.18307E+02 1.66679E+01 0.00000E+00
 -1       983 4.30350E+01 1.69963E+01 0.00000E+00
 -1       984 1.34412E+02 2.05875E+01 0.00000E+00
 -1       985 1.55880E+01 1.76125E+01 0.00000E+00
 -1       986 1.14342E+02 2.77175E+01 0.00000E+00
 -1       987 1.34412E+02 3.23500E+01 0.00000E+00
 -1       988 2.26500E+01 3.18140E+01 0.00000E+00
 -1       989 2.65350E+01 1.43982E+01 0.00000E+00
 -1       990 5.80350E+01 1.69963E+01 0.00000E+00
 -1       991 1.65030E+01 2.57744E+01 0.00000E+00
 -1       992 1.16776E+02 2.10540E+01 0.00000E+00
 -1       993 1.31786E+02 3.11853E+01 0.00000E+00
 -1       994 4.00350E+01 1.69963E+01 0.00000E+00
 -1       995 7.76332E+01 2.99299E+01 0.00000E+00
 -1       996 1.17541E+02 1.88609E+01 0.00000E+00
 -1       997 3.10350E+01 1.69963E+01 0.00000E+00
 -1       998 4.90350E+01 1.69963E+01 0.00000E+00
 -1       999 7.60350E+01 1.69963E+01 0.00000E+00
 -1      1000 4.60350E+01 1.69963E+01 0.00000E+00
 -1      1001 1.90351E+01 1.69963E+01 0.00000E+00
 -1      1002 2.06925E+01 3.12414E+01 0.00000E+00
 -1      1003 1.31786E+02 2.82353E+01 0.00000E+00
 -1      1004 1.81860E+01 2.20313E+01 0.00000E+00
 -1      1005 1.31786E+02 2.52916E+01 0.00000E+00
 -1      1006 7.68469E+01 2.59304E+01 0.00000E+00
 -1      1007 1.89638E+01 3.07854E+01 0.00000E+00
 -1      1008 2.20351E+01 1.69963E+01 0.00000E+00
 -1      1009 3.40350E+01 1.69963E+01 0.00000E+00
 -1      1010 1.68690E+01 2.80519E+01 0.00000E+00
 -1      1011 1.91010E+01 2.43056E+01 0.00000E+00
 -1      1012 3.01500E+01 2.92160E+01 0.00000E+00
 -1      1013 3.31500E+01 2.92160E+01 0.00000E+00
 -1      1014 3.61500E+01 2.92160E+01 0.00000E+00
 -1      1015 3.91500E+01 2.92160E+01 0.00000E+00
 -1      1016 4.21500E+01 2.92160E+01 0.00000E+00
 -1      1017 4.51500E+01 2.92160E+01 0.00000E+00
 -1      1018 4.81500E+01 2.92160E+01 0.00000E+00
 -1      1019 5.11500E+01 2.92160E+01 0.00000E+00
 -1      1020 5.41500E+01 2.92160E+01 0.00000E+00
 -1      1021 5.71500E+01 2.92160E+01 0.00000E+00
 -1      1022 6.01500E+01 2.92160E+01 0.00000E+00
 -1      1023 6.31500E+01 2.92160E+01 0.00000E+00
 -1      1024 6.61500E+01 2.92160E+01 0.00000E+00
 -1      1025 6.91500E+01 2.92160E+01 0.00000E+00
 -1      1026 7.21500E+01 2.92160E+01 0.00000E+00
 -1      1027 5.65350E+01 1.95942E+01 0.00000E+00
 -1      1028 1.18746E+02 2.34348E+01 0.00000E+00
 -1      1029 7.68614E+01 2.04125E+01 0.00000E+00
 -1      1030 1.18440E+02 2.83895E+01 0.00000E+00
 -1      1031 1.21440E+02 2.83895E+01 0.00000E+00
 -1      1032 1.24440E+02 2.83895E+01 0.00000E+00
 -1      1033 1.27440E+02 2.83895E+01 0.00000E+00
 -1      1034 6.55350E+01 1.95942E+01 0.00000E+00
 -1      1035 6.25350E+01 1.95942E+01 0.00000E+00
 -1      1036 7.15350E+01 1.95942E+01 0.00000E+00
 -1      1037 3.70350E+01 1.69963E+01 0.00000E+00
 -1      1038 1.31626E+02 2.01547E+01 0.00000E+00
 -1      1039 2.80350E+01 1.69963E+01 0.00000E+00
 -1      1040 1.31706E+02 2.27231E+01 0.00000E+00
 -1      1041 7.41982E+01 2.00034E+01 0.00000E+00
 -1      1042 1.17104E+02 2.69569E+01 0.00000E+00
 -1      1043 6.85350E+01 1.95942E+01 0.00000E+00
 -1      1044 2.41500E+01 2.92160E+01 0.00000E+00
 -1      1045 5.35350E+01 1.95942E+01 0.00000E+00
 -1      1046 5.95350E+01 1.95942E+01 0.00000E+00
 -1      1047 4.45350E+01 1.95942E+01 0.00000E+00
 -1      1048 2.50350E+01 1.69963E+01 0.00000E+00
 -1      1049 2.71500E+01 2.92160E+01 0.00000E+00
 -1      1050 4.15350E+01 1.95942E+01 0.00000E+00
 -1      1051 7.48916E+01 2.95730E+01 0.00000E+00
 -1      1052 1.22535E+02 1.93816E+01 0.00000E+00
 -1      1053 1.94670E+01 2.65831E+01 0.00000E+00
 -1      1054 7.51953E+01 2.29632E+01 0.00000E+00
 -1      1055 1.27440E+02 2.54458E+01 0.00000E+00
 -1      1056 5.05350E+01 1.95942E+01 0.00000E+00
 -1      1057 2.95350E+01 1.95942E+01 0.00000E+00
 -1      1058 4.75350E+01 1.95942E+01 0.00000E+00
 -1      1059 3.25350E+01 1.95942E+01 0.00000E+00
 -1      1060 1.81860E+01 1.90875E+01 0.00000E+00
 -1      1061 2.21925E+01 2.86434E+01 0.00000E+00
 -1      1062 1.27957E+02 1.94617E+01 0.00000E+00
 -1      1063 1.20038E+02 1.91213E+01 0.00000E+00
 -1      1064 1.29792E+02 1.98082E+01 0.00000E+00
 -1      1065 2.11860E+01 1.90875E+01 0.00000E+00
 -1      1066 2.10538E+01 2.21988E+01 0.00000E+00
 -1      1067 1.19392E+02 2.12781E+01 0.00000E+00
 -1      1068 7.58692E+01 2.77517E+01 0.00000E+00
 -1      1069 1.25246E+02 1.94217E+01 0.00000E+00
 -1      1070 1.92154E+01 2.86843E+01 0.00000E+00
 -1      1071 5.80350E+01 2.21922E+01 0.00000E+00
 -1      1072 3.46500E+01 2.66180E+01 0.00000E+00
 -1      1073 3.76500E+01 2.66180E+01 0.00000E+00
 -1      1074 4.06500E+01 2.66180E+01 0.00000E+00
 -1      1075 4.36500E+01 2.66180E+01 0.00000E+00
 -1      1076 4.66500E+01 2.66180E+01 0.00000E+00
 -1      1077 4.96500E+01 2.66180E+01 0.00000E+00
 -1      1078 5.26500E+01 2.66180E+01 0.00000E+00
 -1      1079 5.56500E+01 2.66180E+01 0.00000E+00
 -1      1080 5.86500E+01 2.66180E+01 0.00000E+00
 -1      1081 6.16500E+01 2.66180E+01 0.00000E+00
 -1      1082 6.46500E+01 2.66180E+01 0.00000E+00
 -1      1083 6.76500E+01 2.66180E+01 0.00000E+00
 -1      1084 7.06500E+01 2.66180E+01 0.00000E+00
 -1      1085 1.22940E+02 2.57915E+01 0.00000E+00
 -1      1086 1.25190E+02 2.56186E+01 0.00000E+00
 -1      1087 7.00350E+01 2.21922E+01 0.00000E+00
 -1      1088 2.37155E+01 2.07535E+01 0.00000E+00
 -1      1089 4.60350E+01 2.21922E+01 0.00000E+00
 -1      1090 6.10350E+01 2.21922E+01 0.00000E+00
 -1      1091 6.70350E+01 2.21922E+01 0.00000E+00
 -1      1092 2.86500E+01 2.66180E+01 0.00000E+00
 -1      1093 2.65350E+01 1.95943E+01 0.00000E+00
 -1      1094 2.56500E+01 2.66180E+01 0.00000E+00
 -1      1095 5.50350E+01 2.21922E+01 0.00000E+00
 -1      1096 6.40350E+01 2.21922E+01 0.00000E+00
 -1      1097 3.16500E+01 2.66180E+01 0.00000E+00
 -1      1098 2.19828E+01 2.50183E+01 0.00000E+00
 -1      1099 7.36499E+01 2.66180E+01 0.00000E+00
 -1      1100 1.19940E+02 2.57915E+01 0.00000E+00
 -1      1101 1.23852E+02 2.19994E+01 0.00000E+00
 -1      1102 5.20350E+01 2.21922E+01 0.00000E+00
 -1      1103 4.90350E+01 2.21922E+01 0.00000E+00
 -1      1104 2.46446E+01 2.35729E+01 0.00000E+00
 -1      1105 3.55350E+01 1.95942E+01 0.00000E+00
 -1      1106 4.30350E+01 2.21922E+01 0.00000E+00
 -1      1107 3.85350E+01 1.95942E+01 0.00000E+00
 -1      1108 1.21622E+02 2.16387E+01 0.00000E+00
 -1      1109 3.10350E+01 2.21922E+01 0.00000E+00
 -1      1110 1.29872E+02 2.23766E+01 0.00000E+00
 -1      1111 1.28038E+02 2.20302E+01 0.00000E+00
 -1      1112 2.40177E+01 1.90192E+01 0.00000E+00
 -1      1113 1.20976E+02 2.37955E+01 0.00000E+00
 -1      1114 2.80350E+01 2.21923E+01 0.00000E+00
 -1      1115 3.91500E+01 2.40200E+01 0.00000E+00
 -1      1116 2.39006E+01 2.64362E+01 0.00000E+00
 -1      1117 2.71500E+01 2.40200E+01 0.00000E+00
 -1      1118 3.31500E+01 2.40200E+01 0.00000E+00
 -1      1119 3.61500E+01 2.40200E+01 0.00000E+00
 -1      1120 7.29158E+01 2.40475E+01 0.00000E+00
 -1      1121 2.98425E+01 2.44051E+01 0.00000E+00
 -1      1122 0.00000E+00 4.85250E+01 0.00000E+00
 -1      1123 0.00000E+00 4.55750E+01 0.00000E+00
 -1      1124 0.00000E+00 4.26250E+01 0.00000E+00
 -1      1125 0.00000E+00 3.96750E+01 0.00000E+00
 -1      1126 0.00000E+00 3.67250E+01 0.00000E+00
 -1      1127 0.00000E+00 3.38000E+01 0.00000E+00
 -1      1128 0.00000E+00 3.08750E+01 0.00000E+00
 -1      1129 0.00000E+00 2.79250E+01 0.00000E+00
 -1      1130 0.00000E+00 2.49750E+01 0.00000E+00
 -1      1131 0.00000E+00 2.20250E+01 0.00000E+00
 -1      1132 0.00000E+00 1.90750E+01 0.00000E+00
 -1      1133 0.00000E+00 1.61500E+01 0.00000E+00
 -1      1134 0.00000E+00 1.32250E+01 0.00000E+00
 -1      1135 0.00000E+00 1.02750E+01 0.00000E+00
 -1      1136 0.00000E+00 7.32500E+00 0.00000E+00
 -1      1137 0.00000E+00 4.37500E+00 0.00000E+00
 -1      1138 0.00000E+00 1.45000E+00 0.00000E+00
 -1      1139 1.57500E+00 5.00000E+01 0.00000E+00
 -1      1140 4.65000E+00 5.00000E+01 0.00000E+00
 -1      1141 7.65000E+00 5.00000E+01 0.00000E+00
 -1      1142 1.06500E+01 5.00000E+01 0.00000E+00
 -1      1143 1.36500E+01 5.00000E+01 0.00000E+00
 -1      1144 1.66500E+01 5.00000E+01 0.00000E+00
 -1      1145 1.96500E+01 5.00000E+01 0.00000E+00
 -1      1146 2.26500E+01 5.00000E+01 0.00000E+00
 -1      1147 2.56500E+01 5.00000E+01 0.00000E+00
 -1      1148 2.86500E+01 5.00000E+01 0.00000E+00
 -1      1149 3.16500E+01 5.00000E+01 0.00000E+00
 -1      1150 3.46500E+01 5.00000E+01 0.00000E+00
 -1      1151 3.76500E+01 5.00000E+01 0.00000E+00
 -1      1152 4.06500E+01 5.00000E+01 0.00000E+00
 -1      1153 4.36500E+01 5.00000E+01 0.00000E+00
 -1      1154 4.66500E+01 5.00000E+01 0.00000E+00
 -1      1155 4.96500E+01 5.00000E+01 0.00000E+00
 -1      1156 5.26500E+01 5.00000E+01 0.00000E+00
 -1      1157 5.56500E+01 5.00000E+01 0.00000E+00
 -1      1158 5.86500E+01 5.00000E+01 0.00000E+00
 -1      1159 6.16500E+01 5.00000E+01 0.00000E+00
 -1      1160 6.46500E+01 5.00000E+01 0.00000E+00
 -1      1161 6.76500E+01 5.00000E+01 0.00000E+00
 -1      1162 7.06500E+01 5.00000E+01 0.00000E+00
 -1      1163 7.36500E+01 5.00000E+01 0.00000E+00
 -1      1164 7.66500E+01 5.00000E+01 0.00000E+00
 -1      1165 7.96500E+01 5.00000E+01 0.00000E+00
 -1      1166 8.26500E+01 5.00000E+01 0.00000E+00
 -1      1167 8.56500E+01 5.00000E+01 0.00000E+00
 -1      1168 8.86500E+01 5.00000E+01 0.00000E+00
 -1      1169 9.16500E+01 5.00000E+01 0.00000E+00
 -1      1170 9.46500E+01 5.00000E+01 0.00000E+00
 -1      1171 9.76500E+01 5.00000E+01 0.00000E+00
 -1      1172 1.00650E+02 5.00000E+01 0.00000E+00
 -1      1173 1.03650E+02 5.00000E+01 0.00000E+00
 -1      1174 1.06650E+02 5.00000E+01 0.00000E+00
 -1      1175 1.09650E+02 5.00000E+01 0.00000E+00
 -1      1176 1.12650E+02 5.00000E+01 0.00000E+00
 -1      1177 1.15650E+02 5.00000E+01 0.00000E+00
 -1      1178 1.18650E+02 5.00000E+01 0.00000E+00
 -1      1179 1.21650E+02 5.00000E+01 0.00000E+00
 -1      1180 1.24650E+02 5.00000E+01 0.00000E+00
 -1      1181 1.27650E+02 5.00000E+01 0.00000E+00
 -1      1182 1.30650E+02 5.00000E+01 0.00000E+00
 -1      1183 1.33650E+02 5.00000E+01 0.00000E+00
 -1      1184 1.36650E+02 5.00000E+01 0.00000E+00
 -1      1185 1.39650E+02 5.00000E+01 0.00000E+00
 -1      1186 1.42650E+02 5.00000E+01 0.00000E+00
 -1      1187 1.45650E+02 5.00000E+01 0.00000E+00
 -1      1188 1.48575E+02 5.00000E+01 0.00000E+00
 -1      1189 1.57500E+00 0.00000E+00 0.00000E+00
 -1      1190 4.65000E+00 0.00000E+00 0.00000E+00
 -1      1191 7.65000E+00 0.00000E+00 0.00000E+00
 -1      1192 1.06500E+01 0.00000E+00 0.00000E+00
 -1      1193 1.36500E+01 0.00000E+00 0.00000E+00
 -1      1194 1.66500E+01 0.00000E+00 0.00000E+00
 -1      1195 1.96500E+01 0.00000E+00 0.00000E+00
 -1      1196 2.26500E+01 0.00000E+00 0.00000E+00
 -1      1197 2.56500E+01 0.00000E+00 0.00000E+00
 -1      1198 2.86500E+01 0.00000E+00 0.00000E+00
 -1      1199 3.16500E+01 0.00000E+00 0.00000E+00
 -1      1200 3.46500E+01 0.00000E+00 0.00000E+00
 -1      1201 3.76500E+01 0.00000E+00 0.00000E+00
 -1      1202 4.06500E+01 0.00000E+00 0.00000E+00
 -1      1203 4.36500E+01 0.00000E+00 0.00000E+00
 -1      1204 4.66500E+01 0.00000E+00 0.00000E+00
 -1      1205 4.96500E+01 0.00000E+00 0.00000E+00
 -1      1206 5.26500E+01 0.00000E+00 0.00000E+00
 -1      1207 5.56500E+01 0.00000E+00 0.00000E+00
 -1      1208 5.86500E+01 0.00000E+00 0.00000E+00
 -1      1209 6.16500E+01 0.00000E+00 0.00000E+00
 -1      1210 6.46500E+01 0.00000E+00 0.00000E+00
 -1      1211 6.76500E+01 0.00000E+00 0.00000E+00
 -1      1212 7.06500E+01 0.00000E+00 0.00000E+00
 -1      1213 7.36500E+01 0.00000E+00 0.00000E+00
 -1      1214 7.66500E+01 0.00000E+00 0.00000E+00
 -1      1215 7.96500E+01 0.00000E+00 0.00000E+00
 -1      1216 8.26500E+01 0.00000E+00 0.00000E+00
 -1      1217 8.56500E+01 0.00000E+00 0.00000E+00
 -1      1218 8.86500E+01 0.00000E+00 0.00000E+00
 -1      1219 9.16500E+01 0.00000E+00 0.00000E+00
 -1      1220 9.46500E+01 0.00000E+00 0.00000E+00
 -1      1221 9.76500E+01 0.00000E+00 0.00000E+00
 -1      1222 1.00650E+02 0.00000E+00 0.00000E+00
 -1      1223 1.03650E+02 0.00000E+00 0.00000E+00
 -1      1224 1.06650E+02 0.00000E+00 0.00000E+00
 -1      1225 1.09650E+02 0.00000E+00 0.00000E+00
 -1      1226 1.12650E+02 0.00000E+00 0.00000E+00
 -1      1227 1.15650E+02 0.00000E+00 0.00000E+00
 -1      1228 1.18650E+02 0.00000E+00 0.00000E+00
 -1      1229 1.21650E+02 0.00000E+00 0.00000E+00
 -1      1230 1.24650E+02 0.00000E+00 0.00000E+00
 -1      1231 1.27650E+02 0.00000E+00 0.00000E+00
 -1      1232 1.30650E+02 0.00000E+00 0.00000E+00
 -1      1233 1.33650E+02 0.00000E+00 0.00000E+00
 -1      1234 1.36650E+02 0.00000E+00 0.00000E+00
 -1      1235 1.39650E+02 0.00000E+00 0.00000E+00
 -1      1236 1.42650E+02 0.00000E+00 0.00000E+00
 -1      1237 1.45650E+02 0.00000E+00 0.00000E+00
 -1      1238 1.48575E+02 0.00000E+00 0.00000E+00
 -1      1239 1.50000E+02 1.47500E+00 0.00000E+00
 -1      1240 1.50000E+02 4.42500E+00 0.00000E+00
 -1      1241 1.50000E+02 7.37500E+00 0.00000E+00
 -1      1242 1.50000E+02 1.03250E+01 0.00000E+00
 -1      1243 1.50000E+02 1.32750E+01 0.00000E+00
 -1      1244 1.50000E+02 1.62000E+01 0.00000E+00
 -1      1245 1.50000E+02 1.91250E+01 0.00000E+00
 -1      1246 1.50000E+02 2.20750E+01 0.00000E+00
 -1      1247 1.50000E+02 2.50250E+01 0.00000E+00
 -1      1248 1.50000E+02 2.79750E+01 0.00000E+00
 -1      1249 1.50000E+02 3.09250E+01 0.00000E+00
 -1      1250 1.50000E+02 3.38500E+01 0.00000E+00
 -1      1251 1.50000E+02 3.67750E+01 0.00000E+00
 -1      1252 1.50000E+02 3.97250E+01 0.00000E+00
 -1      1253 1.50000E+02 4.26750E+01 0.00000E+00
 -1      1254 1.50000E+02 4.56250E+01 0.00000E+00
 -1      1255 1.50000E+02 4.85500E+01 0.00000E+00
 -1      1256 1.04056E+02 2.13507E+01 0.00000E+00
 -1      1257 1.03748E+02 1.99062E+01 0.00000E+00
 -1      1258 1.03135E+02 1.85434E+01 0.00000E+00
 -1      1259 1.02235E+02 1.73302E+01 0.00000E+00
 -1      1260 1.01066E+02 1.63167E+01 0.00000E+00
 -1      1261 9.97332E+01 1.55975E+01 0.00000E+00
 -1      1262 9.83363E+01 1.51922E+01 0.00000E+00
 -1      1263 9.68374E+01 1.50859E+01 0.00000E+00
 -1      1264 9.53602E+01 1.52995E+01 0.00000E+00
 -1      1265 9.39539E+01 1.58253E+01 0.00000E+00
 -1      1266 9.26810E+01 1.66480E+01 0.00000E+00
 -1      1267 9.16595E+01 1.76699E+01 0.00000E+00
 -1      1268 9.08520E+01 1.89143E+01 0.00000E+00
 -1      1269 9.03258E+01 2.02969E+01 0.00000E+00
 -1      1270 9.01055E+01 2.16907E+01 0.00000E+00
 -1      1271 9.01724E+01 2.31219E+01 0.00000E+00
 -1      1272 9.05262E+01 2.45010E+01 0.00000E+00
 -1      1273 9.11543E+01 2.57843E+01 0.00000E+00
 -1      1274 9.20243E+01 2.69074E+01 0.00000E+00
 -1      1275 9.31137E+01 2.78390E+01 0.00000E+00
 -1      1276 9.43980E+01 2.85409E+01 0.00000E+00
 -1      1277 9.58178E+01 2.89638E+01 0.00000E+00
 -1      1278 9.73834E+01 2.90752E+01 0.00000E+00
 -1      1279 9.88717E+01 2.88518E+01 0.00000E+00
 -1      1280 1.00235E+02 2.83373E+01 0.00000E+00
 -1      1281 1.01448E+02 2.75629E+01 0.00000E+00
 -1      1282 1.02474E+02 2.65601E+01 0.00000E+00
 -1      1283 1.03270E+02 2.53780E+01 0.00000E+00
 -1      1284 1.03794E+02 2.41094E+01 0.00000E+00
 -1      1285 1.04062E+02 2.27602E+01 0.00000E+00
 -1      1286 1.57500E+00 4.85250E+01 0.00000E+00
 -1      1287 1.29900E+00 4.48375E+01 0.00000E+00
 -1      1288 1.29900E+00 4.63125E+01 0.00000E+00
 -1      1289 1.29900E+00 4.18875E+01 0.00000E+00
 -1      1290 1.29900E+00 4.33625E+01 0.00000E+00
 -1      1291 2.59800E+00 4.41000E+01 0.00000E+00
 -1      1292 1.29900E+00 3.89375E+01 0.00000E+00
 -1      1293 1.29900E+00 4.04125E+01 0.00000E+00
 -1      1294 2.59800E+00 4.11500E+01 0.00000E+00
 -1      1295 1.29900E+00 3.59875E+01 0.00000E+00
 -1      1296 1.29900E+00 3.74625E+01 0.00000E+00
 -1      1297 2.59800E+00 3.82000E+01 0.00000E+00
 -1      1298 1.29900E+00 3.30875E+01 0.00000E+00
 -1      1299 1.29900E+00 3.45375E+01 0.00000E+00
 -1      1300 2.59800E+00 3.52750E+01 0.00000E+00
 -1      1301 1.29900E+00 3.01375E+01 0.00000E+00
 -1      1302 1.29900E+00 3.16125E+01 0.00000E+00
 -1      1303 2.59800E+00 3.23500E+01 0.00000E+00
 -1      1304 1.29900E+00 2.71875E+01 0.00000E+00
 -1      1305 1.29900E+00 2.86625E+01 0.00000E+00
 -1      1306 2.59800E+00 2.94000E+01 0.00000E+00
 -1      1307 1.29900E+00 2.42375E+01 0.00000E+00
 -1      1308 1.29900E+00 2.57125E+01 0.00000E+00
 -1      1309 2.59800E+00 2.64500E+01 0.00000E+00
 -1      1310 1.29900E+00 2.12875E+01 0.00000E+00
 -1      1311 1.29900E+00 2.27625E+01 0.00000E+00
 -1      1312 2.59800E+00 2.35000E+01 0.00000E+00
 -1      1313 1.29900E+00 1.83375E+01 0.00000E+00
 -1      1314 1.29900E+00 1.98125E+01 0.00000E+00
 -1      1315 2.59800E+00 2.05500E+01 0.00000E+00
 -1      1316 1.29900E+00 1.54375E+01 0.00000E+00
 -1      1317 1.29900E+00 1.68875E+01 0.00000E+00
 -1      1318 2.59800E+00 1.76250E+01 0.00000E+00
 -1      1319 1.29900E+00 1.24875E+01 0.00000E+00
 -1      1320 1.29900E+00 1.39625E+01 0.00000E+00
 -1      1321 2.59800E+00 1.47000E+01 0.00000E+00
 -1      1322 1.29900E+00 9.53750E+00 0.00000E+00
 -1      1323 1.29900E+00 1.10125E+01 0.00000E+00
 -1      1324 2.59800E+00 1.17500E+01 0.00000E+00
 -1      1325 1.29900E+00 6.58750E+00 0.00000E+00
 -1      1326 1.29900E+00 8.06250E+00 0.00000E+00
 -1      1327 2.59800E+00 8.80000E+00 0.00000E+00
 -1      1328 1.29900E+00 3.63750E+00 0.00000E+00
 -1      1329 1.29900E+00 5.11250E+00 0.00000E+00
 -1      1330 2.59800E+00 5.85000E+00 0.00000E+00
 -1      1331 1.43700E+00 1.09375E+00 0.00000E+00
 -1      1332 1.43700E+00 2.54375E+00 0.00000E+00
 -1      1333 2.73600E+00 3.28125E+00 0.00000E+00
 -1      1334 3.01200E+00 1.09375E+00 0.00000E+00
 -1      1335 3.90000E+00 4.87010E+01 0.00000E+00
 -1      1336 5.40000E+00 4.87010E+01 0.00000E+00
 -1      1337 6.90000E+00 4.87010E+01 0.00000E+00
 -1      1338 8.40000E+00 4.87010E+01 0.00000E+00
 -1      1339 6.15000E+00 4.74020E+01 0.00000E+00
 -1      1340 9.90000E+00 4.87010E+01 0.00000E+00
 -1      1341 1.14000E+01 4.87010E+01 0.00000E+00
 -1      1342 9.15000E+00 4.74020E+01 0.00000E+00
 -1      1343 1.29000E+01 4.87010E+01 0.00000E+00
 -1      1344 1.44000E+01 4.87010E+01 0.00000E+00
 -1      1345 1.21500E+01 4.74020E+01 0.00000E+00
 -1      1346 1.59000E+01 4.87010E+01 0.00000E+00
 -1      1347 1.74000E+01 4.87010E+01 0.00000E+00
 -1      1348 1.51500E+01 4.74020E+01 0.00000E+00
 -1      1349 1.89000E+01 4.87010E+01 0.00000E+00
 -1      1350 2.04000E+01 4.87010E+01 0.00000E+00
 -1      1351 1.81500E+01 4.74020E+01 0.00000E+00
 -1      1352 2.19000E+01 4.87010E+01 0.00000E+00
 -1      1353 2.34000E+01 4.87010E+01 0.00000E+00
 -1      1354 2.11500E+01 4.74020E+01 0.00000E+00
 -1      1355 2.49000E+01 4.87010E+01 0.00000E+00
 -1      1356 2.64000E+01 4.87010E+01 0.00000E+00
 -1      1357 2.41500E+01 4.74020E+01 0.00000E+00
 -1      1358 2.79000E+01 4.87010E+01 0.00000E+00
 -1      1359 2.94000E+01 4.87010E+01 0.00000E+00
 -1      1360 2.71500E+01 4.74020E+01 0.00000E+00
 -1      1361 3.09000E+01 4.87010E+01 0.00000E+00
 -1      1362 3.24000E+01 4.87010E+01 0.00000E+00
 -1      1363 3.01500E+01 4.74020E+01 0.00000E+00
 -1      1364 3.39000E+01 4.87010E+01 0.00000E+00
 -1      1365 3.54000E+01 4.87010E+01 0.00000E+00
 -1      1366 3.31500E+01 4.74020E+01 0.00000E+00
 -1      1367 3.69000E+01 4.87010E+01 0.00000E+00
 -1      1368 3.84000E+01 4.87010E+01 0.00000E+00
 -1      1369 3.61500E+01 4.74020E+01 0.00000E+00
 -1      1370 3.99000E+01 4.87010E+01 0.00000E+00
 -1      1371 4.14000E+01 4.87010E+01 0.00000E+00
 -1      1372 3.91500E+01 4.74020E+01 0.00000E+00
 -1      1373 4.29000E+01 4.87010E+01 0.00000E+00
 -1      1374 4.44000E+01 4.87010E+01 0.00000E+00
 -1      1375 4.21500E+01 4.74020E+01 0.00000E+00
 -1      1376 4.59000E+01 4.87010E+01 0.00000E+00
 -1      1377 4.74000E+01 4.87010E+01 0.00000E+00
 -1      1378 4.51500E+01 4.74020E+01 0.00000E+00
 -1      1379 4.89000E+01 4.87010E+01 0.00000E+00
 -1      1380 5.04000E+01 4.87010E+01 0.00000E+00
 -1      1381 4.81500E+01 4.74020E+01 0.00000E+00
 -1      1382 5.19000E+01 4.87010E+01 0.00000E+00
 -1      1383 5.34000E+01 4.87010E+01 0.00000E+00
 -1      1384 5.11500E+01 4.74020E+01 0.00000E+00
 -1      1385 5.49000E+01 4.87010E+01 0.00000E+00
 -1      1386 5.64000E+01 4.87010E+01 0.00000E+00
 -1      1387 5.41500E+01 4.74020E+01 0.00000E+00
 -1      1388 5.79000E+01 4.87010E+01 0.00000E+00
 -1      1389 5.94000E+01 4.87010E+01 0.00000E+00
 -1      1390 5.71500E+01 4.74020E+01 0.00000E+00
 -1      1391 6.09000E+01 4.87010E+01 0.00000E+00
 -1      1392 6.24000E+01 4.87010E+01 0.00000E+00
 -1      1393 6.01500E+01 4.74020E+01 0.00000E+00
 -1      1394 6.39000E+01 4.87010E+01 0.00000E+00
 -1      1395 6.54000E+01 4.87010E+01 0.00000E+00
 -1      1396 6.31500E+01 4.74020E+01 0.00000E+00
 -1      1397 6.69000E+01 4.87010E+01 0.00000E+00
 -1      1398 6.84000E+01 4.87010E+01 0.00000E+00
 -1      1399 6.61500E+01 4.74020E+01 0.00000E+00
 -1      1400 6.99000E+01 4.87010E+01 0.00000E+00
 -1      1401 7.14000E+01 4.87010E+01 0.00000E+00
 -1      1402 6.91500E+01 4.74020E+01 0.00000E+00
 -1      1403 7.29000E+01 4.87010E+01 0.00000E+00
 -1      1404 7.44000E+01 4.87010E+01 0.00000E+00
 -1      1405 7.21500E+01 4.74020E+01 0.00000E+00
 -1      1406 7.59000E+01 4.87010E+01 0.00000E+00
 -1      1407 7.74000E+01 4.87010E+01 0.00000E+00
 -1      1408 7.51500E+01 4.74020E+01 0.00000E+00
 -1      1409 7.89000E+01 4.87010E+01 0.00000E+00
 -1      1410 8.04000E+01 4.87010E+01 0.00000E+00
 -1      1411 7.81500E+01 4.74020E+01 0.00000E+00
 -1      1412 8.19000E+01 4.87010E+01 0.00000E+00
 -1      1413 8.34000E+01 4.87010E+01 0.00000E+00
 -1      1414 8.11500E+01 4.74020E+01 0.00000E+00
 -1      1415 8.49000E+01 4.87010E+01 0.00000E+00
 -1      1416 8.64000E+01 4.87010E+01 0.00000E+00
 -1      1417 8.41500E+01 4.74020E+01 0.00000E+00
 -1      1418 8.79000E+01 4.87010E+01 0.00000E+00
 -1      1419 8.94000E+01 4.87010E+01 0.00000E+00
 -1      1420 8.71500E+01 4.74020E+01 0.00000E+00
 -1      1421 9.09000E+01 4.87010E+01 0.00000E+00
 -1      1422 9.24000E+01 4.87010E+01 0.00000E+00
 -1      1423 9.01500E+01 4.74020E+01 0.00000E+00
 -1      1424 9.39000E+01 4.87010E+01 0.00000E+00
 -1      1425 9.54000E+01 4.87010E+01 0.00000E+00
 -1      1426 9.31500E+01 4.74020E+01 0.00000E+00
 -1      1427 9.69000E+01 4.87010E+01 0.00000E+00
 -1      1428 9.84000E+01 4.87010E+01 0.00000E+00
 -1      1429 9.61500E+01 4.74020E+01 0.00000E+00
 -1      1430 9.99000E+01 4.87010E+01 0.00000E+00
 -1      1431 1.01400E+02 4.87010E+01 0.00000E+00
 -1      1432 9.91500E+01 4.74020E+01 0.00000E+00
 -1      1433 1.02900E+02 4.87010E+01 0.00000E+00
 -1      1434 1.04400E+02 4.87010E+01 0.00000E+00
 -1      1435 1.02150E+02 4.74020E+01 0.00000E+00
 -1      1436 1.05900E+02 4.87010E+01 0.00000E+00
 -1      1437 1.07400E+02 4.87010E+01 0.00000E+00
 -1      1438 1.05150E+02 4.74020E+01 0.00000E+00
 -1      1439 1.08900E+02 4.87010E+01 0.00000E+00
 -1      1440 1.10400E+02 4.87010E+01 0.00000E+00
 -1      1441 1.08150E+02 4.74020E+01 0.00000E+00
 -1      1442 1.11900E+02 4.87010E+01 0.00000E+00
 -1      1443 1.13400E+02 4.87010E+01 0.00000E+00
 -1      1444 1.11150E+02 4.74020E+01 0.00000E+00
 -1      1445 1.14900E+02 4.87010E+01 0.00000E+00
 -1      1446 1.16400E+02 4.87010E+01 0.00000E+00
 -1      1447 1.14150E+02 4.74020E+01 0.00000E+00
 -1      1448 1.17900E+02 4.87010E+01 0.00000E+00
 -1      1449 1.19400E+02 4.87010E+01 0.00000E+00
 -1      1450 1.17150E+02 4.74020E+01 0.00000E+00
 -1      1451 1.20900E+02 4.87010E+01 0.00000E+00
 -1      1452 1.22400E+02 4.87010E+01 0.00000E+00
 -1      1453 1.20150E+02 4.74020E+01 0.00000E+00
 -1      1454 1.23900E+02 4.87010E+01 0.00000E+00
 -1      1455 1.25400E+02 4.87010E+01 0.00000E+00
 -1      1456 1.23150E+02 4.74020E+01 0.00000E+00
 -1      1457 1.26900E+02 4.87010E+01 0.00000E+00
 -1      1458 1.28400E+02 4.87010E+01 0.00000E+00
 -1      1459 1.26150E+02 4.74020E+01 0.00000E+00
 -1      1460 1.29900E+02 4.87010E+01 0.00000E+00
 -1      1461 1.31400E+02 4.87010E+01 0.00000E+00
 -1      1462 1.29150E+02 4.74020E+01 0.00000E+00
 -1      1463 1.32900E+02 4.87010E+01 0.00000E+00
 -1      1464 1.34400E+02 4.87010E+01 0.00000E+00
 -1      1465 1.32150E+02 4.74020E+01 0.00000E+00
 -1      1466 1.35900E+02 4.87010E+01 0.00000E+00
 -1      1467 1.37400E+02 4.87010E+01 0.00000E+00
 -1      1468 1.35150E+02 4.74020E+01 0.00000E+00
 -1      1469 1.38900E+02 4.87010E+01 0.00000E+00
 -1      1470 1.40400E+02 4.87010E+01 0.00000E+00
 -1      1471 1.38150E+02 4.74020E+01 0.00000E+00
 -1      1472 1.41900E+02 4.87010E+01 0.00000E+00
 -1      1473 1.43400E+02 4.87010E+01 0.00000E+00
 -1      1474 1.41150E+02 4.74020E+01 0.00000E+00
 -1      1475 1.44900E+02 4.87010E+01 0.00000E+00
 -1      1476 1.46400E+02 4.87010E+01 0.00000E+00
 -1      1477 1.44150E+02 4.74020E+01 0.00000E+00
 -1      1478 1.48575E+02 4.85500E+01 0.00000E+00
 -1      1479 1.47825E+02 4.72510E+01 0.00000E+00
 -1      1480 6.01200E+00 1.09375E+00 0.00000E+00
 -1      1481 4.51200E+00 1.09375E+00 0.00000E+00
 -1      1482 4.37400E+00 2.18750E+00 0.00000E+00
 -1      1483 9.01200E+00 1.09375E+00 0.00000E+00
 -1      1484 7.51200E+00 1.09375E+00 0.00000E+00
 -1      1485 7.37400E+00 2.18750E+00 0.00000E+00
 -1      1486 1.20120E+01 1.09375E+00 0.00000E+00
 -1      1487 1.05120E+01 1.09375E+00 0.00000E+00
 -1      1488 1.03740E+01 2.18750E+00 0.00000E+00
 -1      1489 1.50120E+01 1.09375E+00 0.00000E+00
 -1      1490 1.35120E+01 1.09375E+00 0.00000E+00
 -1      1491 1.33740E+01 2.18750E+00 0.00000E+00
 -1      1492 1.80120E+01 1.09375E+00 0.00000E+00
 -1      1493 1.65120E+01 1.09375E+00 0.00000E+00
 -1      1494 1.63740E+01 2.18750E+00 0.00000E+00
 -1      1495 2.10120E+01 1.09375E+00 0.00000E+00
 -1      1496 1.95120E+01 1.09375E+00 0.00000E+00
 -1      1497 1.93740E+01 2.18750E+00 0.00000E+00
 -1      1498 2.40120E+01 1.09375E+00 0.00000E+00
 -1      1499 2.25120E+01 1.09375E+00 0.00000E+00
 -1      1500 2.23740E+01 2.18750E+00 0.00000E+00
 -1      1501 2.70120E+01 1.09375E+00 0.00000E+00
 -1      1502 2.55120E+01 1.09375E+00 0.00000E+00
 -1      1503 2.53740E+01 2.18750E+00 0.00000E+00
 -1      1504 3.00120E+01 1.09375E+00 0.00000E+00
 -1      1505 2.85120E+01 1.09375E+00 0.00000E+00
 -1      1506 2.83740E+01 2.18750E+00 0.00000E+00
 -1      1507 3.30120E+01 1.09375E+00 0.00000E+00
 -1      1508 3.15120E+01 1.09375E+00 0.00000E+00
 -1      1509 3.13740E+01 2.18750E+00 0.00000E+00
 -1      1510 3.60120E+01 1.09375E+00 0.00000E+00
 -1      1511 3.45120E+01 1.09375E+00 0.00000E+00
 -1      1512 3.43740E+01 2.18750E+00 0.00000E+00
 -1      1513 3.90120E+01 1.09375E+00 0.00000E+00
 -1      1514 3.75120E+01 1.09375E+00 0.00000E+00
 -1      1515 3.73740E+01 2.18750E+00 0.00000E+00
 -1      1516 4.20120E+01 1.09375E+00 0.00000E+00
 -1      1517 4.05120E+01 1.09375E+00 0.00000E+00
 -1      1518 4.03740E+01 2.18750E+00 0.00000E+00
 -1      1519 4.50120E+01 1.09375E+00 0.00000E+00
 -1      1520 4.35120E+01 1.09375E+00 0.00000E+00
 -1      1521 4.33740E+01 2.18750E+00 0.00000E+00
 -1      1522 4.80120E+01 1.09375E+00 0.00000E+00
 -1      1523 4.65120E+01 1.09375E+00 0.00000E+00
 -1      1524 4.63740E+01 2.18750E+00 0.00000E+00
 -1      1525 5.10120E+01 1.09375E+00 0.00000E+00
 -1      1526 4.95120E+01 1.09375E+00 0.00000E+00
 -1      1527 4.93740E+01 2.18750E+00 0.00000E+00
 -1      1528 5.40120E+01 1.09375E+00 0.00000E+00
 -1      1529 5.25120E+01 1.09375E+00 0.00000E+00
 -1      1530 5.23740E+01 2.18750E+00 0.00000E+00
 -1      1531 5.70120E+01 1.09375E+00 0.00000E+00
 -1      1532 5.55120E+01 1.09375E+00 0.00000E+00
 -1      1533 5.53740E+01 2.18750E+00 0.00000E+00
 -1      1534 6.00120E+01 1.09375E+00 0.00000E+00
 -1      1535 5.85120E+01 1.09375E+00 0.00000E+00
 -1      1536 5.83740E+01 2.18750E+00 0.00000E+00
 -1      1537 6.30120E+01 1.09375E+00 0.00000E+00
 -1      1538 6.15120E+01 1.09375E+00 0.00000E+00
 -1      1539 6.13740E+01 2.18750E+00 0.00000E+00
 -1      1540 6.60120E+01 1.09375E+00 0.00000E+00
 -1      1541 6.45120E+01 1.09375E+00 0.00000E+00
 -1      1542 6.43740E+01 2.18750E+00 0.00000E+00
 -1      1543 6.90120E+01 1.09375E+00 0.00000E+00
 -1      1544 6.75120E+01 1.09375E+00 0.00000E+00
 -1      1545 6.73740E+01 2.18750E+00 0.00000E+00
 -1      1546 7.20120E+01 1.09375E+00 0.00000E+00
 -1      1547 7.05120E+01 1.09375E+00 0.00000E+00
 -1      1548 7.03740E+01 2.18750E+00 0.00000E+00
 -1      1549 7.50120E+01 1.09375E+00 0.00000E+00
 -1      1550 7.35120E+01 1.09375E+00 0.00000E+00
 -1      1551 7.33740E+01 2.18750E+00 0.00000E+00
 -1      1552 7.80120E+01 1.09375E+00 0.00000E+00
 -1      1553 7.65120E+01 1.09375E+00 0.00000E+00
 -1      1554 7.63740E+01 2.18750E+00 0.00000E+00
 -1      1555 8.10120E+01 1.09375E+00 0.00000E+00
 -1      1556 7.95120E+01 1.09375E+00 0.00000E+00
 -1      1557 7.93740E+01 2.18750E+00 0.00000E+00
 -1      1558 8.40120E+01 1.09375E+00 0.00000E+00
 -1      1559 8.25120E+01 1.09375E+00 0.00000E+00
 -1      1560 8.23740E+01 2.18750E+00 0.00000E+00
 -1      1561 8.70120E+01 1.09375E+00 0.00000E+00
 -1      1562 8.55120E+01 1.09375E+00 0.00000E+00
 -1      1563 8.53740E+01 2.18750E+00 0.00000E+00
 -1      1564 9.00120E+01 1.09375E+00 0.00000E+00
 -1      1565 8.85120E+01 1.09375E+00 0.00000E+00
 -1      1566 8.83740E+01 2.18750E+00 0.00000E+00
 -1      1567 9.30120E+01 1.09375E+00 0.00000E+00
 -1      1568 9.15120E+01 1.09375E+00 0.00000E+00
 -1      1569 9.13740E+01 2.18750E+00 0.00000E+00
 -1      1570 9.60120E+01 1.09375E+00 0.00000E+00
 -1      1571 9.45120E+01 1.09375E+00 0.00000E+00
 -1      1572 9.43740E+01 2.18750E+00 0.00000E+00
 -1      1573 9.90120E+01 1.09375E+00 0.00000E+00
 -1      1574 9.75120E+01 1.09375E+00 0.00000E+00
 -1      1575 9.73740E+01 2.18750E+00 0.00000E+00
 -1      1576 1.02012E+02 1.09375E+00 0.00000E+00
 -1      1577 1.00512E+02 1.09375E+00 0.00000E+00
 -1      1578 1.00374E+02 2.18750E+00 0.00000E+00
 -1      1579 1.05012E+02 1.09375E+00 0.00000E+00
 -1      1580 1.03512E+02 1.09375E+00 0.00000E+00
 -1      1581 1.03374E+02 2.18750E+00 0.00000E+00
 -1      1582 1.08012E+02 1.09375E+00 0.00000E+00
 -1      1583 1.06512E+02 1.09375E+00 0.00000E+00
 -1      1584 1.06374E+02 2.18750E+00 0.00000E+00
 -1      1585 1.11012E+02 1.09375E+00 0.00000E+00
 -1      1586 1.09512E+02 1.09375E+00 0.00000E+00
 -1      1587 1.09374E+02 2.18750E+00 0.00000E+00
 -1      1588 1.14012E+02 1.09375E+00 0.00000E+00
 -1      1589 1.12512E+02 1.09375E+00 0.00000E+00
 -1      1590 1.12374E+02 2.18750E+00 0.00000E+00
 -1      1591 1.17012E+02 1.09375E+00 0.00000E+00
 -1      1592 1.15512E+02 1.09375E+00 0.00000E+00
 -1      1593 1.15374E+02 2.18750E+00 0.00000E+00
 -1      1594 1.20012E+02 1.09375E+00 0.00000E+00
 -1      1595 1.18512E+02 1.09375E+00 0.00000E+00
 -1      1596 1.18374E+02 2.18750E+00 0.00000E+00
 -1      1597 1.23012E+02 1.09375E+00 0.00000E+00
 -1      1598 1.21512E+02 1.09375E+00 0.00000E+00
 -1      1599 1.21374E+02 2.18750E+00 0.00000E+00
 -1      1600 1.26012E+02 1.09375E+00 0.00000E+00
 -1      1601 1.24512E+02 1.09375E+00 0.00000E+00
 -1      1602 1.24374E+02 2.18750E+00 0.00000E+00
 -1      1603 1.29012E+02 1.09375E+00 0.00000E+00
 -1      1604 1.27512E+02 1.09375E+00 0.00000E+00
 -1      1605 1.27374E+02 2.18750E+00 0.00000E+00
 -1      1606 1.32012E+02 1.09375E+00 0.00000E+00
 -1      1607 1.30512E+02 1.09375E+00 0.00000E+00
 -1      1608 1.30374E+02 2.18750E+00 0.00000E+00
 -1      1609 1.35012E+02 1.09375E+00 0.00000E+00
 -1      1610 1.33512E+02 1.09375E+00 0.00000E+00
 -1      1611 1.33374E+02 2.18750E+00 0.00000E+00
 -1      1612 1.38012E+02 1.09375E+00 0.00000E+00
 -1      1613 1.36512E+02 1.09375E+00 0.00000E+00
 -1      1614 1.36374E+02 2.18750E+00 0.00000E+00
 -1      1615 1.41012E+02 1.09375E+00 0.00000E+00
 -1      1616 1.39512E+02 1.09375E+00 0.00000E+00
 -1      1617 1.39374E+02 2.18750E+00 0.00000E+00
 -1      1618 1.44012E+02 1.09375E+00 0.00000E+00
 -1      1619 1.42512E+02 1.09375E+00 0.00000E+00
 -1      1620 1.42374E+02 2.18750E+00 0.00000E+00
 -1      1621 1.47012E+02 1.09375E+00 0.00000E+00
 -1      1622 1.45512E+02 1.09375E+00 0.00000E+00
 -1      1623 1.45374E+02 2.18750E+00 0.00000E+00
 -1      1624 1.48575E+02 1.47500E+00 0.00000E+00
 -1      1625 1.48701E+02 5.16250E+00 0.00000E+00
 -1      1626 1.48701E+02 3.68750E+00 0.00000E+00
 -1      1627 1.48701E+02 8.11250E+00 0.00000E+00
 -1      1628 1.48701E+02 6.63750E+00 0.00000E+00
 -1      1629 1.47402E+02 5.90000E+00 0.00000E+00
 -1      1630 1.48701E+02 1.10625E+01 0.00000E+00
 -1      1631 1.48701E+02 9.58750E+00 0.00000E+00
 -1      1632 1.47402E+02 8.85000E+00 0.00000E+00
 -1      1633 1.48701E+02 1.40125E+01 0.00000E+00
 -1      1634 1.48701E+02 1.25375E+01 0.00000E+00
 -1      1635 1.47402E+02 1.18000E+01 0.00000E+00
 -1      1636 1.48701E+02 1.69125E+01 0.00000E+00
 -1      1637 1.48701E+02 1.54625E+01 0.00000E+00
 -1      1638 1.47402E+02 1.47250E+01 0.00000E+00
 -1      1639 1.48701E+02 1.98625E+01 0.00000E+00
 -1      1640 1.48701E+02 1.83875E+01 0.00000E+00
 -1      1641 1.47402E+02 1.76500E+01 0.00000E+00
 -1      1642 1.48701E+02 2.28125E+01 0.00000E+00
 -1      1643 1.48701E+02 2.13375E+01 0.00000E+00
 -1      1644 1.47402E+02 2.06000E+01 0.00000E+00
 -1      1645 1.48701E+02 2.57625E+01 0.00000E+00
 -1      1646 1.48701E+02 2.42875E+01 0.00000E+00
 -1      1647 1.47402E+02 2.35500E+01 0.00000E+00
 -1      1648 1.48701E+02 2.87125E+01 0.00000E+00
 -1      1649 1.48701E+02 2.72375E+01 0.00000E+00
 -1      1650 1.47402E+02 2.65000E+01 0.00000E+00
 -1      1651 1.48701E+02 3.16625E+01 0.00000E+00
 -1      1652 1.48701E+02 3.01875E+01 0.00000E+00
 -1      1653 1.47402E+02 2.94500E+01 0.00000E+00
 -1      1654 1.48701E+02 3.45625E+01 0.00000E+00
 -1      1655 1.48701E+02 3.31125E+01 0.00000E+00
 -1      1656 1.47402E+02 3.23750E+01 0.00000E+00
 -1      1657 1.48701E+02 3.75125E+01 0.00000E+00
 -1      1658 1.48701E+02 3.60375E+01 0.00000E+00
 -1      1659 1.47402E+02 3.53000E+01 0.00000E+00
 -1      1660 1.48701E+02 4.04625E+01 0.00000E+00
 -1      1661 1.48701E+02 3.89875E+01 0.00000E+00
 -1      1662 1.47402E+02 3.82500E+01 0.00000E+00
 -1      1663 1.48701E+02 4.34125E+01 0.00000E+00
 -1      1664 1.48701E+02 4.19375E+01 0.00000E+00
 -1      1665 1.47402E+02 4.12000E+01 0.00000E+00
 -1      1666 1.48263E+02 4.60692E+01 0.00000E+00
 -1      1667 1.48263E+02 4.45942E+01 0.00000E+00
 -1      1668 1.46964E+02 4.38568E+01 0.00000E+00
 -1      1669 1.46088E+02 4.62202E+01 0.00000E+00
 -1      1670 1.04625E+02 2.09238E+01 0.00000E+00
 -1      1671 1.04701E+02 2.16503E+01 0.00000E+00
 -1      1672 1.04210E+02 1.93625E+01 0.00000E+00
 -1      1673 1.04442E+02 2.00720E+01 0.00000E+00
 -1      1674 1.03434E+02 1.79346E+01 0.00000E+00
 -1      1675 1.03812E+02 1.85800E+01 0.00000E+00
 -1      1676 1.02484E+02 1.65818E+01 0.00000E+00
 -1      1677 1.03001E+02 1.71416E+01 0.00000E+00
 -1      1678 1.01132E+02 1.55276E+01 0.00000E+00
 -1      1679 1.01779E+02 1.59732E+01 0.00000E+00
 -1      1680 9.96256E+01 1.48951E+01 0.00000E+00
 -1      1681 1.00301E+02 1.51698E+01 0.00000E+00
 -1      1682 9.80800E+01 1.45684E+01 0.00000E+00
 -1      1683 9.87942E+01 1.46971E+01 0.00000E+00
 -1      1684 9.64286E+01 1.45376E+01 0.00000E+00
 -1      1685 9.72049E+01 1.45091E+01 0.00000E+00
 -1      1686 9.48620E+01 1.47958E+01 0.00000E+00
 -1      1687 9.55554E+01 1.46185E+01 0.00000E+00
 -1      1688 9.32755E+01 1.53496E+01 0.00000E+00
 -1      1689 9.39776E+01 1.49971E+01 0.00000E+00
 -1      1690 9.20396E+01 1.64372E+01 0.00000E+00
 -1      1691 9.26061E+01 1.59769E+01 0.00000E+00
 -1      1692 9.09919E+01 1.75886E+01 0.00000E+00
 -1      1693 9.14425E+01 1.70334E+01 0.00000E+00
 -1      1694 9.01005E+01 1.89639E+01 0.00000E+00
 -1      1695 9.04482E+01 1.82786E+01 0.00000E+00
 -1      1696 8.96841E+01 2.04954E+01 0.00000E+00
 -1      1697 8.98653E+01 1.98079E+01 0.00000E+00
 -1      1698 8.94740E+01 2.20060E+01 0.00000E+00
 -1      1699 8.95130E+01 2.13070E+01 0.00000E+00
 -1      1700 8.95826E+01 2.35810E+01 0.00000E+00
 -1      1701 8.94737E+01 2.28565E+01 0.00000E+00
 -1      1702 9.01089E+01 2.50229E+01 0.00000E+00
 -1      1703 8.98700E+01 2.43744E+01 0.00000E+00
 -1      1704 9.08325E+01 2.64195E+01 0.00000E+00
 -1      1705 9.04423E+01 2.57935E+01 0.00000E+00
 -1      1706 9.18448E+01 2.75496E+01 0.00000E+00
 -1      1707 9.13740E+01 2.70549E+01 0.00000E+00
 -1      1708 9.30291E+01 2.86212E+01 0.00000E+00
 -1      1709 9.24118E+01 2.81944E+01 0.00000E+00
 -1      1710 9.45074E+01 2.92041E+01 0.00000E+00
 -1      1711 9.38495E+01 2.89294E+01 0.00000E+00
 -1      1712 9.60698E+01 2.97118E+01 0.00000E+00
 -1      1713 9.53142E+01 2.95717E+01 0.00000E+00
 -1      1714 9.78136E+01 2.97859E+01 0.00000E+00
 -1      1715 9.70132E+01 2.98189E+01 0.00000E+00
 -1      1716 9.93678E+01 2.93550E+01 0.00000E+00
 -1      1717 9.86868E+01 2.95337E+01 0.00000E+00
 -1      1718 1.00863E+02 2.87488E+01 0.00000E+00
 -1      1719 1.00190E+02 2.90866E+01 0.00000E+00
 -1      1720 1.02073E+02 2.77978E+01 0.00000E+00
 -1      1721 1.01535E+02 2.82246E+01 0.00000E+00
 -1      1722 1.03213E+02 2.66884E+01 0.00000E+00
 -1      1723 1.02734E+02 2.72635E+01 0.00000E+00
 -1      1724 1.03935E+02 2.53497E+01 0.00000E+00
 -1      1725 1.03616E+02 2.59465E+01 0.00000E+00
 -1      1726 1.04442E+02 2.39418E+01 0.00000E+00
 -1      1727 1.04240E+02 2.46083E+01 0.00000E+00
 -1      1728 1.04665E+02 2.24779E+01 0.00000E+00
 -1      1729 1.04599E+02 2.31538E+01 0.00000E+00
 -1      1730 1.02576E+02 1.57563E+01 0.00000E+00
 -1      1731 1.03713E+02 1.71580E+01 0.00000E+00
 -1      1732 1.48437E+02 2.56875E+00 0.00000E+00
 -1      1733 1.47138E+02 3.30625E+00 0.00000E+00
 -1      1734 1.05125E+02 2.03677E+01 0.00000E+00
 -1      1735 1.04544E+02 1.87334E+01 0.00000E+00
 -1      1736 1.05271E+02 2.20470E+01 0.00000E+00
 -1      1737 1.01039E+02 1.47899E+01 0.00000E+00
 -1      1738 9.93760E+01 1.42341E+01 0.00000E+00
 -1      1739 9.76696E+01 1.39768E+01 0.00000E+00
 -1      1740 9.59213E+01 1.39984E+01 0.00000E+00
 -1      1741 9.41637E+01 1.42805E+01 0.00000E+00
 -1      1742 9.26100E+01 1.51092E+01 0.00000E+00
 -1      1743 9.13436E+01 1.63327E+01 0.00000E+00
 -1      1744 9.02028E+01 1.76190E+01 0.00000E+00
 -1      1745 8.94238E+01 1.91531E+01 0.00000E+00
 -1      1746 8.90174E+01 2.08088E+01 0.00000E+00
 -1      1747 8.88461E+01 2.24709E+01 0.00000E+00
 -1      1748 8.91332E+01 2.41148E+01 0.00000E+00
 -1      1749 8.97540E+01 2.56788E+01 0.00000E+00
 -1      1750 9.06289E+01 2.70848E+01 0.00000E+00
 -1      1751 9.17373E+01 2.83650E+01 0.00000E+00
 -1      1752 9.31246E+01 2.93180E+01 0.00000E+00
 -1      1753 9.47517E+01 2.99937E+01 0.00000E+00
 -1      1754 9.65019E+01 3.04684E+01 0.00000E+00
 -1      1755 9.83186E+01 3.03234E+01 0.00000E+00
 -1      1756 1.00014E+02 2.98028E+01 0.00000E+00
 -1      1757 1.01508E+02 2.90101E+01 0.00000E+00
 -1      1758 1.02842E+02 2.79517E+01 0.00000E+00
 -1      1759 1.03907E+02 2.66755E+01 0.00000E+00
 -1      1760 1.04616E+02 2.51921E+01 0.00000E+00
 -1      1761 1.05078E+02 2.36627E+01 0.00000E+00
 -1      1762 2.87400E+00 4.77875E+01 0.00000E+00
 -1      1763 3.89700E+00 4.04125E+01 0.00000E+00
 -1      1764 3.89700E+00 4.18875E+01 0.00000E+00
 -1      1765 3.89700E+00 4.33625E+01 0.00000E+00
 -1      1766 3.89700E+00 4.48375E+01 0.00000E+00
 -1      1767 5.19600E+00 4.26250E+01 0.00000E+00
 -1      1768 3.89700E+00 3.45500E+01 0.00000E+00
 -1      1769 3.89700E+00 3.60000E+01 0.00000E+00
 -1      1770 3.89700E+00 3.16000E+01 0.00000E+00
 -1      1771 3.89700E+00 3.30750E+01 0.00000E+00
 -1      1772 5.19600E+00 3.38000E+01 0.00000E+00
 -1      1773 3.89700E+00 2.86500E+01 0.00000E+00
 -1      1774 3.89700E+00 3.01250E+01 0.00000E+00
 -1      1775 5.19600E+00 3.08500E+01 0.00000E+00
 -1      1776 3.89700E+00 2.57000E+01 0.00000E+00
 -1      1777 3.89700E+00 2.71750E+01 0.00000E+00
 -1      1778 5.19600E+00 2.79000E+01 0.00000E+00
 -1      1779 3.89700E+00 2.27500E+01 0.00000E+00
 -1      1780 3.89700E+00 2.42250E+01 0.00000E+00
 -1      1781 5.19600E+00 2.49500E+01 0.00000E+00
 -1      1782 3.89700E+00 1.98000E+01 0.00000E+00
 -1      1783 3.89700E+00 2.12750E+01 0.00000E+00
 -1      1784 5.19600E+00 2.20000E+01 0.00000E+00
 -1      1785 3.89700E+00 1.69000E+01 0.00000E+00
 -1      1786 3.89700E+00 1.83500E+01 0.00000E+00
 -1      1787 5.19600E+00 1.90750E+01 0.00000E+00
 -1      1788 3.89700E+00 1.39500E+01 0.00000E+00
 -1      1789 3.89700E+00 1.54250E+01 0.00000E+00
 -1      1790 5.19600E+00 1.61500E+01 0.00000E+00
 -1      1791 3.89700E+00 1.10000E+01 0.00000E+00
 -1      1792 3.89700E+00 1.24750E+01 0.00000E+00
 -1      1793 5.19600E+00 1.32000E+01 0.00000E+00
 -1      1794 3.89700E+00 8.05000E+00 0.00000E+00
 -1      1795 3.89700E+00 9.52500E+00 0.00000E+00
 -1      1796 5.19600E+00 1.02500E+01 0.00000E+00
 -1      1797 3.89700E+00 5.10000E+00 0.00000E+00
 -1      1798 3.89700E+00 6.57500E+00 0.00000E+00
 -1      1799 5.19600E+00 7.30000E+00 0.00000E+00
 -1      1800 4.20450E+00 3.09687E+00 0.00000E+00
 -1      1801 4.06650E+00 4.19063E+00 0.00000E+00
 -1      1802 5.36550E+00 4.91563E+00 0.00000E+00
 -1      1803 5.70450E+00 3.09687E+00 0.00000E+00
 -1      1804 3.62400E+00 4.64885E+01 0.00000E+00
 -1      1805 8.70450E+00 3.09687E+00 0.00000E+00
 -1      1806 7.20450E+00 3.09687E+00 0.00000E+00
 -1      1807 7.03500E+00 4.00625E+00 0.00000E+00
 -1      1808 4.92300E+00 4.57510E+01 0.00000E+00
 -1      1809 8.40000E+00 4.61030E+01 0.00000E+00
 -1      1810 9.90000E+00 4.61030E+01 0.00000E+00
 -1      1811 1.14000E+01 4.61030E+01 0.00000E+00
 -1      1812 1.29000E+01 4.61030E+01 0.00000E+00
 -1      1813 1.06500E+01 4.48040E+01 0.00000E+00
 -1      1814 1.44000E+01 4.61030E+01 0.00000E+00
 -1      1815 1.59000E+01 4.61030E+01 0.00000E+00
 -1      1816 1.36500E+01 4.48040E+01 0.00000E+00
 -1      1817 1.74000E+01 4.61030E+01 0.00000E+00
 -1      1818 1.89000E+01 4.61030E+01 0.00000E+00
 -1      1819 1.66500E+01 4.48040E+01 0.00000E+00
 -1      1820 2.04000E+01 4.61030E+01 0.00000E+00
 -1      1821 2.19000E+01 4.61030E+01 0.00000E+00
 -1      1822 1.96500E+01 4.48040E+01 0.00000E+00
 -1      1823 2.34000E+01 4.61030E+01 0.00000E+00
 -1      1824 2.49000E+01 4.61030E+01 0.00000E+00
 -1      1825 2.26500E+01 4.48040E+01 0.00000E+00
 -1      1826 2.64000E+01 4.61030E+01 0.00000E+00
 -1      1827 2.79000E+01 4.61030E+01 0.00000E+00
 -1      1828 2.56500E+01 4.48040E+01 0.00000E+00
 -1      1829 2.94000E+01 4.61030E+01 0.00000E+00
 -1      1830 3.09000E+01 4.61030E+01 0.00000E+00
 -1      1831 2.86500E+01 4.48040E+01 0.00000E+00
 -1      1832 3.24000E+01 4.61030E+01 0.00000E+00
 -1      1833 3.39000E+01 4.61030E+01 0.00000E+00
 -1      1834 3.16500E+01 4.48040E+01 0.00000E+00
 -1      1835 3.54000E+01 4.61030E+01 0.00000E+00
 -1      1836 3.69000E+01 4.61030E+01 0.00000E+00
 -1      1837 3.46500E+01 4.48040E+01 0.00000E+00
 -1      1838 3.84000E+01 4.61030E+01 0.00000E+00
 -1      1839 3.99000E+01 4.61030E+01 0.00000E+00
 -1      1840 3.76500E+01 4.48040E+01 0.00000E+00
 -1      1841 4.14000E+01 4.61030E+01 0.00000E+00
 -1      1842 4.29000E+01 4.61030E+01 0.00000E+00
 -1      1843 4.06500E+01 4.48040E+01 0.00000E+00
 -1      1844 4.44000E+01 4.61030E+01 0.00000E+00
 -1      1845 4.59000E+01 4.61030E+01 0.00000E+00
 -1      1846 4.36500E+01 4.48040E+01 0.00000E+00
 -1      1847 4.74000E+01 4.61030E+01 0.00000E+00
 -1      1848 4.89000E+01 4.61030E+01 0.00000E+00
 -1      1849 4.66500E+01 4.48040E+01 0.00000E+00
 -1      1850 5.04000E+01 4.61030E+01 0.00000E+00
 -1      1851 5.19000E+01 4.61030E+01 0.00000E+00
 -1      1852 4.96500E+01 4.48040E+01 0.00000E+00
 -1      1853 5.34000E+01 4.61030E+01 0.00000E+00
 -1      1854 5.49000E+01 4.61030E+01 0.00000E+00
 -1      1855 5.26500E+01 4.48040E+01 0.00000E+00
 -1      1856 5.64000E+01 4.61030E+01 0.00000E+00
 -1      1857 5.79000E+01 4.61030E+01 0.00000E+00
 -1      1858 5.56500E+01 4.48040E+01 0.00000E+00
 -1      1859 5.94000E+01 4.61030E+01 0.00000E+00
 -1      1860 6.09000E+01 4.61030E+01 0.00000E+00
 -1      1861 5.86500E+01 4.48040E+01 0.00000E+00
 -1      1862 6.24000E+01 4.61030E+01 0.00000E+00
 -1      1863 6.39000E+01 4.61030E+01 0.00000E+00
 -1      1864 6.16500E+01 4.48040E+01 0.00000E+00
 -1      1865 6.54000E+01 4.61030E+01 0.00000E+00
 -1      1866 6.69000E+01 4.61030E+01 0.00000E+00
 -1      1867 6.46500E+01 4.48040E+01 0.00000E+00
 -1      1868 6.84000E+01 4.61030E+01 0.00000E+00
 -1      1869 6.99000E+01 4.61030E+01 0.00000E+00
 -1      1870 6.76500E+01 4.48040E+01 0.00000E+00
 -1      1871 7.14000E+01 4.61030E+01 0.00000E+00
 -1      1872 7.29000E+01 4.61030E+01 0.00000E+00
 -1      1873 7.06500E+01 4.48040E+01 0.00000E+00
 -1      1874 7.44000E+01 4.61030E+01 0.00000E+00
 -1      1875 7.59000E+01 4.61030E+01 0.00000E+00
 -1      1876 7.36500E+01 4.48040E+01 0.00000E+00
 -1      1877 7.74000E+01 4.61030E+01 0.00000E+00
 -1      1878 7.89000E+01 4.61030E+01 0.00000E+00
 -1      1879 7.66500E+01 4.48040E+01 0.00000E+00
 -1      1880 8.04000E+01 4.61030E+01 0.00000E+00
 -1      1881 8.19000E+01 4.61030E+01 0.00000E+00
 -1      1882 7.96500E+01 4.48040E+01 0.00000E+00
 -1      1883 8.34000E+01 4.61030E+01 0.00000E+00
 -1      1884 8.49000E+01 4.61030E+01 0.00000E+00
 -1      1885 8.26500E+01 4.48040E+01 0.00000E+00
 -1      1886 8.64000E+01 4.61030E+01 0.00000E+00
 -1      1887 8.79000E+01 4.61030E+01 0.00000E+00
 -1      1888 8.56500E+01 4.48040E+01 0.00000E+00
 -1      1889 8.94000E+01 4.61030E+01 0.00000E+00
 -1      1890 9.09000E+01 4.61030E+01 0.00000E+00
 -1      1891 8.86500E+01 4.48040E+01 0.00000E+00
 -1      1892 9.24000E+01 4.61030E+01 0.00000E+00
 -1      1893 9.39000E+01 4.61030E+01 0.00000E+00
 -1      1894 9.16500E+01 4.48040E+01 0.00000E+00
 -1      1895 9.54000E+01 4.61030E+01 0.00000E+00
 -1      1896 9.69000E+01 4.61030E+01 0.00000E+00
 -1      1897 9.46500E+01 4.48040E+01 0.00000E+00
 -1      1898 9.84000E+01 4.61030E+01 0.00000E+00
 -1      1899 9.99000E+01 4.61030E+01 0.00000E+00
 -1      1900 9.76500E+01 4.48040E+01 0.00000E+00
 -1      1901 1.01400E+02 4.61030E+01 0.00000E+00
 -1      1902 1.02900E+02 4.61030E+01 0.00000E+00
 -1      1903 1.00650E+02 4.48040E+01 0.00000E+00
 -1      1904 1.04400E+02 4.61030E+01 0.00000E+00
 -1      1905 1.05900E+02 4.61030E+01 0.00000E+00
 -1      1906 1.03650E+02 4.48040E+01 0.00000E+00
 -1      1907 1.07400E+02 4.61030E+01 0.00000E+00
 -1      1908 1.08900E+02 4.61030E+01 0.00000E+00
 -1      1909 1.06650E+02 4.48040E+01 0.00000E+00
 -1      1910 1.10400E+02 4.61030E+01 0.00000E+00
 -1      1911 1.11900E+02 4.61030E+01 0.00000E+00
 -1      1912 1.09650E+02 4.48040E+01 0.00000E+00
 -1      1913 1.13400E+02 4.61030E+01 0.00000E+00
 -1      1914 1.14900E+02 4.61030E+01 0.00000E+00
 -1      1915 1.12650E+02 4.48040E+01 0.00000E+00
 -1      1916 1.16400E+02 4.61030E+01 0.00000E+00
 -1      1917 1.17900E+02 4.61030E+01 0.00000E+00
 -1      1918 1.15650E+02 4.48040E+01 0.00000E+00
 -1      1919 1.19400E+02 4.61030E+01 0.00000E+00
 -1      1920 1.20900E+02 4.61030E+01 0.00000E+00
 -1      1921 1.18650E+02 4.48040E+01 0.00000E+00
 -1      1922 1.22400E+02 4.61030E+01 0.00000E+00
 -1      1923 1.23900E+02 4.61030E+01 0.00000E+00
 -1      1924 1.21650E+02 4.48040E+01 0.00000E+00
 -1      1925 1.25400E+02 4.61030E+01 0.00000E+00
 -1      1926 1.26900E+02 4.61030E+01 0.00000E+00
 -1      1927 1.24650E+02 4.48040E+01 0.00000E+00
 -1      1928 1.28400E+02 4.61030E+01 0.00000E+00
 -1      1929 1.29900E+02 4.61030E+01 0.00000E+00
 -1      1930 1.27650E+02 4.48040E+01 0.00000E+00
 -1      1931 1.31400E+02 4.61030E+01 0.00000E+00
 -1      1932 1.32900E+02 4.61030E+01 0.00000E+00
 -1      1933 1.30650E+02 4.48040E+01 0.00000E+00
 -1      1934 1.34400E+02 4.61030E+01 0.00000E+00
 -1      1935 1.35900E+02 4.61030E+01 0.00000E+00
 -1      1936 1.33650E+02 4.48040E+01 0.00000E+00
 -1      1937 1.37400E+02 4.61030E+01 0.00000E+00
 -1      1938 1.38900E+02 4.61030E+01 0.00000E+00
 -1      1939 1.36650E+02 4.48040E+01 0.00000E+00
 -1      1940 1.40400E+02 4.61030E+01 0.00000E+00
 -1      1941 1.41900E+02 4.61030E+01 0.00000E+00
 -1      1942 1.39650E+02 4.48040E+01 0.00000E+00
 -1      1943 1.43244E+02 4.61616E+01 0.00000E+00
 -1      1944 1.44744E+02 4.61616E+01 0.00000E+00
 -1      1945 1.45182E+02 4.49799E+01 0.00000E+00
 -1      1946 1.42494E+02 4.48626E+01 0.00000E+00
 -1      1947 1.17045E+01 3.09687E+00 0.00000E+00
 -1      1948 1.02045E+01 3.09687E+00 0.00000E+00
 -1      1949 1.00350E+01 4.00625E+00 0.00000E+00
 -1      1950 1.47045E+01 3.09687E+00 0.00000E+00
 -1      1951 1.32045E+01 3.09687E+00 0.00000E+00
 -1      1952 1.30350E+01 4.00625E+00 0.00000E+00
 -1      1953 1.77045E+01 3.09687E+00 0.00000E+00
 -1      1954 1.62045E+01 3.09687E+00 0.00000E+00
 -1      1955 1.60350E+01 4.00625E+00 0.00000E+00
 -1      1956 2.07045E+01 3.09687E+00 0.00000E+00
 -1      1957 1.92045E+01 3.09687E+00 0.00000E+00
 -1      1958 1.90350E+01 4.00625E+00 0.00000E+00
 -1      1959 2.37045E+01 3.09687E+00 0.00000E+00
 -1      1960 2.22045E+01 3.09687E+00 0.00000E+00
 -1      1961 2.20350E+01 4.00625E+00 0.00000E+00
 -1      1962 2.67045E+01 3.09687E+00 0.00000E+00
 -1      1963 2.52045E+01 3.09687E+00 0.00000E+00
 -1      1964 2.50350E+01 4.00625E+00 0.00000E+00
 -1      1965 2.97045E+01 3.09687E+00 0.00000E+00
 -1      1966 2.82045E+01 3.09687E+00 0.00000E+00
 -1      1967 2.80350E+01 4.00625E+00 0.00000E+00
 -1      1968 3.27045E+01 3.09687E+00 0.00000E+00
 -1      1969 3.12045E+01 3.09687E+00 0.00000E+00
 -1      1970 3.10350E+01 4.00625E+00 0.00000E+00
 -1      1971 3.57045E+01 3.09687E+00 0.00000E+00
 -1      1972 3.42045E+01 3.09687E+00 0.00000E+00
 -1      1973 3.40350E+01 4.00625E+00 0.00000E+00
 -1      1974 3.87045E+01 3.09687E+00 0.00000E+00
 -1      1975 3.72045E+01 3.09687E+00 0.00000E+00
 -1      1976 3.70350E+01 4.00625E+00 0.00000E+00
 -1      1977 4.17045E+01 3.09687E+00 0.00000E+00
 -1      1978 4.02045E+01 3.09687E+00 0.00000E+00
 -1      1979 4.00350E+01 4.00625E+00 0.00000E+00
 -1      1980 4.47045E+01 3.09687E+00 0.00000E+00
 -1      1981 4.32045E+01 3.09687E+00 0.00000E+00
 -1      1982 4.30350E+01 4.00625E+00 0.00000E+00
 -1      1983 4.77045E+01 3.09687E+00 0.00000E+00
 -1      1984 4.62045E+01 3.09687E+00 0.00000E+00
 -1      1985 4.60350E+01 4.00625E+00 0.00000E+00
 -1      1986 5.07045E+01 3.09687E+00 0.00000E+00
 -1      1987 4.92045E+01 3.09687E+00 0.00000E+00
 -1      1988 4.90350E+01 4.00625E+00 0.00000E+00
 -1      1989 5.37045E+01 3.09687E+00 0.00000E+00
 -1      1990 5.22045E+01 3.09687E+00 0.00000E+00
 -1      1991 5.20350E+01 4.00625E+00 0.00000E+00
 -1      1992 5.67045E+01 3.09687E+00 0.00000E+00
 -1      1993 5.52045E+01 3.09687E+00 0.00000E+00
 -1      1994 5.50350E+01 4.00625E+00 0.00000E+00
 -1      1995 5.97045E+01 3.09687E+00 0.00000E+00
 -1      1996 5.82045E+01 3.09687E+00 0.00000E+00
 -1      1997 5.80350E+01 4.00625E+00 0.00000E+00
 -1      1998 6.27045E+01 3.09687E+00 0.00000E+00
 -1      1999 6.12045E+01 3.09687E+00 0.00000E+00
 -1      2000 6.10350E+01 4.00625E+00 0.00000E+00
 -1      2001 6.57045E+01 3.09687E+00 0.00000E+00
 -1      2002 6.42045E+01 3.09687E+00 0.00000E+00
 -1      2003 6.40350E+01 4.00625E+00 0.00000E+00
 -1      2004 6.87045E+01 3.09687E+00 0.00000E+00
 -1      2005 6.72045E+01 3.09687E+00 0.00000E+00
 -1      2006 6.70350E+01 4.00625E+00 0.00000E+00
 -1      2007 7.17045E+01 3.09687E+00 0.00000E+00
 -1      2008 7.02045E+01 3.09687E+00 0.00000E+00
 -1      2009 7.00350E+01 4.00625E+00 0.00000E+00
 -1      2010 7.47045E+01 3.09687E+00 0.00000E+00
 -1      2011 7.32045E+01 3.09687E+00 0.00000E+00
 -1      2012 7.30350E+01 4.00625E+00 0.00000E+00
 -1      2013 7.77045E+01 3.09687E+00 0.00000E+00
 -1      2014 7.62045E+01 3.09687E+00 0.00000E+00
 -1      2015 7.60350E+01 4.00625E+00 0.00000E+00
 -1      2016 8.07045E+01 3.09687E+00 0.00000E+00
 -1      2017 7.92045E+01 3.09687E+00 0.00000E+00
 -1      2018 7.90350E+01 4.00625E+00 0.00000E+00
 -1      2019 8.37045E+01 3.09687E+00 0.00000E+00
 -1      2020 8.22045E+01 3.09687E+00 0.00000E+00
 -1      2021 8.20350E+01 4.00625E+00 0.00000E+00
 -1      2022 8.67045E+01 3.09687E+00 0.00000E+00
 -1      2023 8.52045E+01 3.09687E+00 0.00000E+00
 -1      2024 8.50350E+01 4.00625E+00 0.00000E+00
 -1      2025 8.97045E+01 3.09687E+00 0.00000E+00
 -1      2026 8.82045E+01 3.09687E+00 0.00000E+00
 -1      2027 8.80350E+01 4.00625E+00 0.00000E+00
 -1      2028 9.27045E+01 3.09687E+00 0.00000E+00
 -1      2029 9.12045E+01 3.09687E+00 0.00000E+00
 -1      2030 9.10350E+01 4.00625E+00 0.00000E+00
 -1      2031 9.57045E+01 3.09687E+00 0.00000E+00
 -1      2032 9.42045E+01 3.09687E+00 0.00000E+00
 -1      2033 9.40350E+01 4.00625E+00 0.00000E+00
 -1      2034 9.87045E+01 3.09687E+00 0.00000E+00
 -1      2035 9.72045E+01 3.09687E+00 0.00000E+00
 -1      2036 9.70350E+01 4.00625E+00 0.00000E+00
 -1      2037 1.01704E+02 3.09687E+00 0.00000E+00
 -1      2038 1.00204E+02 3.09687E+00 0.00000E+00
 -1      2039 1.00035E+02 4.00625E+00 0.00000E+00
 -1      2040 1.04704E+02 3.09687E+00 0.00000E+00
 -1      2041 1.03204E+02 3.09687E+00 0.00000E+00
 -1      2042 1.03035E+02 4.00625E+00 0.00000E+00
 -1      2043 1.07704E+02 3.09687E+00 0.00000E+00
 -1      2044 1.06204E+02 3.09687E+00 0.00000E+00
 -1      2045 1.06035E+02 4.00625E+00 0.00000E+00
 -1      2046 1.10704E+02 3.09687E+00 0.00000E+00
 -1      2047 1.09204E+02 3.09687E+00 0.00000E+00
 -1      2048 1.09035E+02 4.00625E+00 0.00000E+00
 -1      2049 1.13704E+02 3.09687E+00 0.00000E+00
 -1      2050 1.12204E+02 3.09687E+00 0.00000E+00
 -1      2051 1.12035E+02 4.00625E+00 0.00000E+00
 -1      2052 1.16704E+02 3.09687E+00 0.00000E+00
 -1      2053 1.15204E+02 3.09687E+00 0.00000E+00
 -1      2054 1.15035E+02 4.00625E+00 0.00000E+00
 -1      2055 1.19704E+02 3.09687E+00 0.00000E+00
 -1      2056 1.18204E+02 3.09687E+00 0.00000E+00
 -1      2057 1.18035E+02 4.00625E+00 0.00000E+00
 -1      2058 1.22704E+02 3.09687E+00 0.00000E+00
 -1      2059 1.21204E+02 3.09687E+00 0.00000E+00
 -1      2060 1.21035E+02 4.00625E+00 0.00000E+00
 -1      2061 1.25704E+02 3.09687E+00 0.00000E+00
 -1      2062 1.24204E+02 3.09687E+00 0.00000E+00
 -1      2063 1.24035E+02 4.00625E+00 0.00000E+00
 -1      2064 1.28704E+02 3.09687E+00 0.00000E+00
 -1      2065 1.27204E+02 3.09687E+00 0.00000E+00
 -1      2066 1.27035E+02 4.00625E+00 0.00000E+00
 -1      2067 1.31704E+02 3.09687E+00 0.00000E+00
 -1      2068 1.30204E+02 3.09687E+00 0.00000E+00
 -1      2069 1.30035E+02 4.00625E+00 0.00000E+00
 -1      2070 1.34704E+02 3.09687E+00 0.00000E+00
 -1      2071 1.33204E+02 3.09687E+00 0.00000E+00
 -1      2072 1.33035E+02 4.00625E+00 0.00000E+00
 -1      2073 1.37704E+02 3.09687E+00 0.00000E+00
 -1      2074 1.36204E+02 3.09687E+00 0.00000E+00
 -1      2075 1.36035E+02 4.00625E+00 0.00000E+00
 -1      2076 1.40704E+02 3.09687E+00 0.00000E+00
 -1      2077 1.39204E+02 3.09687E+00 0.00000E+00
 -1      2078 1.39035E+02 4.00625E+00 0.00000E+00
 -1      2079 1.43704E+02 3.09687E+00 0.00000E+00
 -1      2080 1.42204E+02 3.09687E+00 0.00000E+00
 -1      2081 1.42035E+02 4.00625E+00 0.00000E+00
 -1      2082 1.46171E+02 3.20156E+00 0.00000E+00
 -1      2083 1.44671E+02 3.20156E+00 0.00000E+00
 -1      2084 1.44502E+02 4.11094E+00 0.00000E+00
 -1      2085 1.46435E+02 4.32031E+00 0.00000E+00
 -1      2086 1.46103E+02 1.25375E+01 0.00000E+00
 -1      2087 1.46103E+02 1.10625E+01 0.00000E+00
 -1      2088 1.46103E+02 9.58750E+00 0.00000E+00
 -1      2089 1.46103E+02 8.11250E+00 0.00000E+00
 -1      2090 1.44804E+02 1.03250E+01 0.00000E+00
 -1      2091 1.46269E+02 6.95391E+00 0.00000E+00
 -1      2092 1.46269E+02 5.47891E+00 0.00000E+00
 -1      2093 1.45302E+02 5.37422E+00 0.00000E+00
 -1      2094 1.44970E+02 7.69141E+00 0.00000E+00
 -1      2095 1.46103E+02 1.54375E+01 0.00000E+00
 -1      2096 1.46103E+02 1.39875E+01 0.00000E+00
 -1      2097 1.44804E+02 1.32500E+01 0.00000E+00
 -1      2098 1.46103E+02 1.83875E+01 0.00000E+00
 -1      2099 1.46103E+02 1.69125E+01 0.00000E+00
 -1      2100 1.44804E+02 1.61750E+01 0.00000E+00
 -1      2101 1.46103E+02 2.13375E+01 0.00000E+00
 -1      2102 1.46103E+02 1.98625E+01 0.00000E+00
 -1      2103 1.44804E+02 1.91250E+01 0.00000E+00
 -1      2104 1.46103E+02 2.42875E+01 0.00000E+00
 -1      2105 1.46103E+02 2.28125E+01 0.00000E+00
 -1      2106 1.44804E+02 2.20750E+01 0.00000E+00
 -1      2107 1.46103E+02 2.72375E+01 0.00000E+00
 -1      2108 1.46103E+02 2.57625E+01 0.00000E+00
 -1      2109 1.44804E+02 2.50250E+01 0.00000E+00
 -1      2110 1.46103E+02 3.01875E+01 0.00000E+00
 -1      2111 1.46103E+02 2.87125E+01 0.00000E+00
 -1      2112 1.44804E+02 2.79750E+01 0.00000E+00
 -1      2113 1.46103E+02 3.30875E+01 0.00000E+00
 -1      2114 1.46103E+02 3.16375E+01 0.00000E+00
 -1      2115 1.44804E+02 3.09000E+01 0.00000E+00
 -1      2116 1.46103E+02 3.60375E+01 0.00000E+00
 -1      2117 1.46103E+02 3.45625E+01 0.00000E+00
 -1      2118 1.44804E+02 3.38250E+01 0.00000E+00
 -1      2119 1.46103E+02 3.89875E+01 0.00000E+00
 -1      2120 1.46103E+02 3.75125E+01 0.00000E+00
 -1      2121 1.44804E+02 3.67750E+01 0.00000E+00
 -1      2122 1.46103E+02 4.19375E+01 0.00000E+00
 -1      2123 1.46103E+02 4.04625E+01 0.00000E+00
 -1      2124 1.44804E+02 3.97250E+01 0.00000E+00
 -1      2125 1.04960E+02 1.80294E+01 0.00000E+00
 -1      2126 1.05358E+02 1.88119E+01 0.00000E+00
 -1      2127 1.05979E+02 2.16632E+01 0.00000E+00
 -1      2128 1.05943E+02 2.24909E+01 0.00000E+00
 -1      2129 1.05749E+02 1.97883E+01 0.00000E+00
 -1      2130 1.05932E+02 2.06401E+01 0.00000E+00
 -1      2131 1.04094E+02 1.64435E+01 0.00000E+00
 -1      2132 1.04527E+02 1.72364E+01 0.00000E+00
 -1      2133 1.05341E+02 1.73149E+01 0.00000E+00
 -1      2134 1.02784E+02 1.48031E+01 0.00000E+00
 -1      2135 1.03488E+02 1.54118E+01 0.00000E+00
 -1      2136 3.89700E+00 3.74688E+01 0.00000E+00
 -1      2137 3.89700E+00 3.89437E+01 0.00000E+00
 -1      2138 5.19600E+00 3.96813E+01 0.00000E+00
 -1      2139 5.19600E+00 3.67438E+01 0.00000E+00
 -1      2140 9.91202E+01 1.34639E+01 0.00000E+00
 -1      2141 9.99516E+01 1.36619E+01 0.00000E+00
 -1      2142 9.72787E+01 1.32588E+01 0.00000E+00
 -1      2143 9.81537E+01 1.33181E+01 0.00000E+00
 -1      2144 9.54133E+01 1.32684E+01 0.00000E+00
 -1      2145 9.62865E+01 1.31875E+01 0.00000E+00
 -1      2146 9.35591E+01 1.36676E+01 0.00000E+00
 -1      2147 9.44435E+01 1.34663E+01 0.00000E+00
 -1      2148 9.17462E+01 1.48583E+01 0.00000E+00
 -1      2149 9.24156E+01 1.42309E+01 0.00000E+00
 -1      2150 9.05521E+01 1.60507E+01 0.00000E+00
 -1      2151 9.11492E+01 1.54545E+01 0.00000E+00
 -1      2152 9.09547E+01 1.45762E+01 0.00000E+00
 -1      2153 8.94219E+01 1.75629E+01 0.00000E+00
 -1      2154 8.99656E+01 1.68729E+01 0.00000E+00
 -1      2155 8.86011E+01 1.93786E+01 0.00000E+00
 -1      2156 8.88364E+01 1.85346E+01 0.00000E+00
 -1      2157 8.82568E+01 2.10723E+01 0.00000E+00
 -1      2158 8.84278E+01 2.02607E+01 0.00000E+00
 -1      2159 8.80722E+01 2.28958E+01 0.00000E+00
 -1      2160 8.80725E+01 2.20453E+01 0.00000E+00
 -1      2161 8.85100E+01 2.47893E+01 0.00000E+00
 -1      2162 8.82226E+01 2.39958E+01 0.00000E+00
 -1      2163 8.91768E+01 2.63304E+01 0.00000E+00
 -1      2164 8.88434E+01 2.55598E+01 0.00000E+00
 -1      2165 8.79328E+01 2.54409E+01 0.00000E+00
 -1      2166 9.03425E+01 2.78772E+01 0.00000E+00
 -1      2167 8.98011E+01 2.72417E+01 0.00000E+00
 -1      2168 9.14764E+01 2.91668E+01 0.00000E+00
 -1      2169 9.09095E+01 2.85220E+01 0.00000E+00
 -1      2170 9.00817E+01 2.86789E+01 0.00000E+00
 -1      2171 9.32921E+01 3.01180E+01 0.00000E+00
 -1      2172 9.24718E+01 2.98098E+01 0.00000E+00
 -1      2173 9.49058E+01 3.08532E+01 0.00000E+00
 -1      2174 9.40989E+01 3.04856E+01 0.00000E+00
 -1      2175 9.34461E+01 3.09774E+01 0.00000E+00
 -1      2176 9.68864E+01 3.12908E+01 0.00000E+00
 -1      2177 9.59430E+01 3.11837E+01 0.00000E+00
 -1      2178 9.89698E+01 3.09407E+01 0.00000E+00
 -1      2179 9.80966E+01 3.11928E+01 0.00000E+00
 -1      2180 1.00614E+02 3.04038E+01 0.00000E+00
 -1      2181 9.97917E+01 3.06723E+01 0.00000E+00
 -1      2182 9.95698E+01 3.15417E+01 0.00000E+00
 -1      2183 1.02320E+02 2.93583E+01 0.00000E+00
 -1      2184 1.01648E+02 2.98825E+01 0.00000E+00
 -1      2185 1.03643E+02 2.82899E+01 0.00000E+00
 -1      2186 1.02982E+02 2.88241E+01 0.00000E+00
 -1      2187 1.03121E+02 2.96965E+01 0.00000E+00
 -1      2188 1.04788E+02 2.66741E+01 0.00000E+00
 -1      2189 1.04385E+02 2.74160E+01 0.00000E+00
 -1      2190 1.05368E+02 2.50684E+01 0.00000E+00
 -1      2191 1.05062E+02 2.58099E+01 0.00000E+00
 -1      2192 1.05916E+02 2.34198E+01 0.00000E+00
 -1      2193 1.05759E+02 2.42078E+01 0.00000E+00
 -1      2194 1.00929E+02 1.39002E+01 0.00000E+00
 -1      2195 1.01761E+02 1.42580E+01 0.00000E+00
 -1      2196 1.04302E+02 1.54903E+01 0.00000E+00
 -1      2197 6.42300E+00 4.57510E+01 0.00000E+00
 -1      2198 1.00673E+02 1.31300E+01 0.00000E+00
 -1      2199 7.17300E+00 4.44520E+01 0.00000E+00
 -1      2200 1.06165E+02 1.90843E+01 0.00000E+00
 -1      2201 1.06603E+02 2.10839E+01 0.00000E+00
 -1      2202 1.45665E+02 4.31193E+01 0.00000E+00
 -1      2203 1.06623E+02 2.30360E+01 0.00000E+00
 -1      2204 1.02674E+02 1.39134E+01 0.00000E+00
 -1      2205 1.06205E+02 2.48255E+01 0.00000E+00
 -1      2206 1.04525E+02 2.82884E+01 0.00000E+00
 -1      2207 1.01426E+02 3.07520E+01 0.00000E+00
 -1      2208 9.52902E+01 3.16756E+01 0.00000E+00
 -1      2209 9.16440E+01 2.99668E+01 0.00000E+00
 -1      2210 9.08162E+01 3.01237E+01 0.00000E+00
 -1      2211 9.18115E+01 3.07668E+01 0.00000E+00
 -1      2212 8.88905E+01 2.71228E+01 0.00000E+00
 -1      2213 8.74490E+01 2.35703E+01 0.00000E+00
 -1      2214 8.74828E+01 2.14973E+01 0.00000E+00
 -1      2215 8.78404E+01 1.96421E+01 0.00000E+00
 -1      2216 8.97712E+01 1.59946E+01 0.00000E+00
 -1      2217 9.26953E+01 1.34167E+01 0.00000E+00
 -1      2218 9.29751E+01 1.26024E+01 0.00000E+00
 -1      2219 9.18315E+01 1.31658E+01 0.00000E+00
 -1      2220 9.48087E+01 1.26554E+01 0.00000E+00
 -1      2221 9.87293E+01 1.27459E+01 0.00000E+00
 -1      2222 9.67707E+01 1.25287E+01 0.00000E+00
 -1      2223 8.85992E+01 1.77884E+01 0.00000E+00
 -1      2224 9.75376E+01 3.19081E+01 0.00000E+00
 -1      2225 1.05541E+02 2.65503E+01 0.00000E+00
 -1      2226 1.07850E+01 5.30525E+00 0.00000E+00
 -1      2227 9.28500E+00 5.30525E+00 0.00000E+00
 -1      2228 6.49500E+00 3.01125E+01 0.00000E+00
 -1      2229 6.49500E+00 3.15875E+01 0.00000E+00
 -1      2230 6.49500E+00 3.30625E+01 0.00000E+00
 -1      2231 6.49500E+00 3.45375E+01 0.00000E+00
 -1      2232 7.79400E+00 3.23250E+01 0.00000E+00
 -1      2233 6.49500E+00 2.42125E+01 0.00000E+00
 -1      2234 6.49500E+00 2.56875E+01 0.00000E+00
 -1      2235 6.49500E+00 2.12625E+01 0.00000E+00
 -1      2236 6.49500E+00 2.27375E+01 0.00000E+00
 -1      2237 7.79400E+00 2.34750E+01 0.00000E+00
 -1      2238 6.49500E+00 1.83625E+01 0.00000E+00
 -1      2239 6.49500E+00 1.98125E+01 0.00000E+00
 -1      2240 7.79400E+00 2.05500E+01 0.00000E+00
 -1      2241 6.49500E+00 1.54125E+01 0.00000E+00
 -1      2242 6.49500E+00 1.68875E+01 0.00000E+00
 -1      2243 7.79400E+00 1.76250E+01 0.00000E+00
 -1      2244 6.49500E+00 1.24625E+01 0.00000E+00
 -1      2245 6.49500E+00 1.39375E+01 0.00000E+00
 -1      2246 7.79400E+00 1.46750E+01 0.00000E+00
 -1      2247 6.49500E+00 9.51250E+00 0.00000E+00
 -1      2248 6.49500E+00 1.09875E+01 0.00000E+00
 -1      2249 7.79400E+00 1.17250E+01 0.00000E+00
 -1      2250 1.37850E+01 5.30525E+00 0.00000E+00
 -1      2251 1.22850E+01 5.30525E+00 0.00000E+00
 -1      2252 1.15350E+01 6.60425E+00 0.00000E+00
 -1      2253 9.90000E+00 4.35050E+01 0.00000E+00
 -1      2254 1.14000E+01 4.35050E+01 0.00000E+00
 -1      2255 1.00378E+02 1.22184E+01 0.00000E+00
 -1      2256 1.01355E+02 1.24567E+01 0.00000E+00
 -1      2257 1.29000E+01 4.35050E+01 0.00000E+00
 -1      2258 1.44000E+01 4.35050E+01 0.00000E+00
 -1      2259 1.21500E+01 4.22060E+01 0.00000E+00
 -1      2260 1.59000E+01 4.35050E+01 0.00000E+00
 -1      2261 1.74000E+01 4.35050E+01 0.00000E+00
 -1      2262 1.51500E+01 4.22060E+01 0.00000E+00
 -1      2263 1.89000E+01 4.35050E+01 0.00000E+00
 -1      2264 2.04000E+01 4.35050E+01 0.00000E+00
 -1      2265 1.81500E+01 4.22060E+01 0.00000E+00
 -1      2266 2.19000E+01 4.35050E+01 0.00000E+00
 -1      2267 2.34000E+01 4.35050E+01 0.00000E+00
 -1      2268 2.11500E+01 4.22060E+01 0.00000E+00
 -1      2269 2.49000E+01 4.35050E+01 0.00000E+00
 -1      2270 2.64000E+01 4.35050E+01 0.00000E+00
 -1      2271 2.41500E+01 4.22060E+01 0.00000E+00
 -1      2272 2.79000E+01 4.35050E+01 0.00000E+00
 -1      2273 2.94000E+01 4.35050E+01 0.00000E+00
 -1      2274 2.71500E+01 4.22060E+01 0.00000E+00
 -1      2275 3.09000E+01 4.35050E+01 0.00000E+00
 -1      2276 3.24000E+01 4.35050E+01 0.00000E+00
 -1      2277 3.01500E+01 4.22060E+01 0.00000E+00
 -1      2278 3.39000E+01 4.35050E+01 0.00000E+00
 -1      2279 3.54000E+01 4.35050E+01 0.00000E+00
 -1      2280 3.31500E+01 4.22060E+01 0.00000E+00
 -1      2281 3.69000E+01 4.35050E+01 0.00000E+00
 -1      2282 3.84000E+01 4.35050E+01 0.00000E+00
 -1      2283 3.61500E+01 4.22060E+01 0.00000E+00
 -1      2284 3.99000E+01 4.35050E+01 0.00000E+00
 -1      2285 4.14000E+01 4.35050E+01 0.00000E+00
 -1      2286 3.91500E+01 4.22060E+01 0.00000E+00
 -1      2287 4.29000E+01 4.35050E+01 0.00000E+00
 -1      2288 4.44000E+01 4.35050E+01 0.00000E+00
 -1      2289 4.21500E+01 4.22060E+01 0.00000E+00
 -1      2290 4.59000E+01 4.35050E+01 0.00000E+00
 -1      2291 4.74000E+01 4.35050E+01 0.00000E+00
 -1      2292 4.51500E+01 4.22060E+01 0.00000E+00
 -1      2293 4.89000E+01 4.35050E+01 0.00000E+00
 -1      2294 5.04000E+01 4.35050E+01 0.00000E+00
 -1      2295 4.81500E+01 4.22060E+01 0.00000E+00
 -1      2296 5.19000E+01 4.35050E+01 0.00000E+00
 -1      2297 5.34000E+01 4.35050E+01 0.00000E+00
 -1      2298 5.11500E+01 4.22060E+01 0.00000E+00
 -1      2299 5.49000E+01 4.35050E+01 0.00000E+00
 -1      2300 5.64000E+01 4.35050E+01 0.00000E+00
 -1      2301 5.41500E+01 4.22060E+01 0.00000E+00
 -1      2302 5.79000E+01 4.35050E+01 0.00000E+00
 -1      2303 5.94000E+01 4.35050E+01 0.00000E+00
 -1      2304 5.71500E+01 4.22060E+01 0.00000E+00
 -1      2305 6.09000E+01 4.35050E+01 0.00000E+00
 -1      2306 6.24000E+01 4.35050E+01 0.00000E+00
 -1      2307 6.01500E+01 4.22060E+01 0.00000E+00
 -1      2308 6.39000E+01 4.35050E+01 0.00000E+00
 -1      2309 6.54000E+01 4.35050E+01 0.00000E+00
 -1      2310 6.31500E+01 4.22060E+01 0.00000E+00
 -1      2311 6.69000E+01 4.35050E+01 0.00000E+00
 -1      2312 6.84000E+01 4.35050E+01 0.00000E+00
 -1      2313 6.61500E+01 4.22060E+01 0.00000E+00
 -1      2314 6.99000E+01 4.35050E+01 0.00000E+00
 -1      2315 7.14000E+01 4.35050E+01 0.00000E+00
 -1      2316 6.91500E+01 4.22060E+01 0.00000E+00
 -1      2317 7.29000E+01 4.35050E+01 0.00000E+00
 -1      2318 7.44000E+01 4.35050E+01 0.00000E+00
 -1      2319 7.21500E+01 4.22060E+01 0.00000E+00
 -1      2320 7.59000E+01 4.35050E+01 0.00000E+00
 -1      2321 7.74000E+01 4.35050E+01 0.00000E+00
 -1      2322 7.51500E+01 4.22060E+01 0.00000E+00
 -1      2323 7.89000E+01 4.35050E+01 0.00000E+00
 -1      2324 8.04000E+01 4.35050E+01 0.00000E+00
 -1      2325 7.81500E+01 4.22060E+01 0.00000E+00
 -1      2326 8.19000E+01 4.35050E+01 0.00000E+00
 -1      2327 8.34000E+01 4.35050E+01 0.00000E+00
 -1      2328 8.11500E+01 4.22060E+01 0.00000E+00
 -1      2329 8.49000E+01 4.35050E+01 0.00000E+00
 -1      2330 8.64000E+01 4.35050E+01 0.00000E+00
 -1      2331 8.41500E+01 4.22060E+01 0.00000E+00
 -1      2332 8.79000E+01 4.35050E+01 0.00000E+00
 -1      2333 8.94000E+01 4.35050E+01 0.00000E+00
 -1      2334 8.71500E+01 4.22060E+01 0.00000E+00
 -1      2335 9.09000E+01 4.35050E+01 0.00000E+00
 -1      2336 9.24000E+01 4.35050E+01 0.00000E+00
 -1      2337 9.01500E+01 4.22060E+01 0.00000E+00
 -1      2338 9.39000E+01 4.35050E+01 0.00000E+00
 -1      2339 9.54000E+01 4.35050E+01 0.00000E+00
 -1      2340 9.31500E+01 4.22060E+01 0.00000E+00
 -1      2341 9.69000E+01 4.35050E+01 0.00000E+00
 -1      2342 9.84000E+01 4.35050E+01 0.00000E+00
 -1      2343 9.61500E+01 4.22060E+01 0.00000E+00
 -1      2344 9.99000E+01 4.35050E+01 0.00000E+00
 -1      2345 1.01400E+02 4.35050E+01 0.00000E+00
 -1      2346 9.91500E+01 4.22060E+01 0.00000E+00
 -1      2347 1.02900E+02 4.35050E+01 0.00000E+00
 -1      2348 1.04400E+02 4.35050E+01 0.00000E+00
 -1      2349 1.02150E+02 4.22060E+01 0.00000E+00
 -1      2350 1.05900E+02 4.35050E+01 0.00000E+00
 -1      2351 1.07400E+02 4.35050E+01 0.00000E+00
 -1      2352 1.05150E+02 4.22060E+01 0.00000E+00
 -1      2353 1.08900E+02 4.35050E+01 0.00000E+00
 -1      2354 1.10400E+02 4.35050E+01 0.00000E+00
 -1      2355 1.08150E+02 4.22060E+01 0.00000E+00
 -1      2356 1.11900E+02 4.35050E+01 0.00000E+00
 -1      2357 1.13400E+02 4.35050E+01 0.00000E+00
 -1      2358 1.11150E+02 4.22060E+01 0.00000E+00
 -1      2359 1.14900E+02 4.35050E+01 0.00000E+00
 -1      2360 1.16400E+02 4.35050E+01 0.00000E+00
 -1      2361 1.14150E+02 4.22060E+01 0.00000E+00
 -1      2362 1.17900E+02 4.35050E+01 0.00000E+00
 -1      2363 1.19400E+02 4.35050E+01 0.00000E+00
 -1      2364 1.17150E+02 4.22060E+01 0.00000E+00
 -1      2365 1.20900E+02 4.35050E+01 0.00000E+00
 -1      2366 1.22400E+02 4.35050E+01 0.00000E+00
 -1      2367 1.20150E+02 4.22060E+01 0.00000E+00
 -1      2368 1.23900E+02 4.35050E+01 0.00000E+00
 -1      2369 1.25400E+02 4.35050E+01 0.00000E+00
 -1      2370 1.23150E+02 4.22060E+01 0.00000E+00
 -1      2371 1.26900E+02 4.35050E+01 0.00000E+00
 -1      2372 1.28400E+02 4.35050E+01 0.00000E+00
 -1      2373 1.26150E+02 4.22060E+01 0.00000E+00
 -1      2374 1.29900E+02 4.35050E+01 0.00000E+00
 -1      2375 1.31400E+02 4.35050E+01 0.00000E+00
 -1      2376 1.29150E+02 4.22060E+01 0.00000E+00
 -1      2377 1.32900E+02 4.35050E+01 0.00000E+00
 -1      2378 1.34400E+02 4.35050E+01 0.00000E+00
 -1      2379 1.32150E+02 4.22060E+01 0.00000E+00
 -1      2380 1.35900E+02 4.35050E+01 0.00000E+00
 -1      2381 1.37400E+02 4.35050E+01 0.00000E+00
 -1      2382 1.35150E+02 4.22060E+01 0.00000E+00
 -1      2383 1.38900E+02 4.35050E+01 0.00000E+00
 -1      2384 1.40400E+02 4.35050E+01 0.00000E+00
 -1      2385 1.38150E+02 4.22060E+01 0.00000E+00
 -1      2386 1.97850E+01 5.30525E+00 0.00000E+00
 -1      2387 1.82850E+01 5.30525E+00 0.00000E+00
 -1      2388 2.27850E+01 5.30525E+00 0.00000E+00
 -1      2389 2.12850E+01 5.30525E+00 0.00000E+00
 -1      2390 2.05350E+01 6.60425E+00 0.00000E+00
 -1      2391 2.57850E+01 5.30525E+00 0.00000E+00
 -1      2392 2.42850E+01 5.30525E+00 0.00000E+00
 -1      2393 2.35350E+01 6.60425E+00 0.00000E+00
 -1      2394 2.87850E+01 5.30525E+00 0.00000E+00
 -1      2395 2.72850E+01 5.30525E+00 0.00000E+00
 -1      2396 2.65350E+01 6.60425E+00 0.00000E+00
 -1      2397 3.17850E+01 5.30525E+00 0.00000E+00
 -1      2398 3.02850E+01 5.30525E+00 0.00000E+00
 -1      2399 2.95350E+01 6.60425E+00 0.00000E+00
 -1      2400 3.47850E+01 5.30525E+00 0.00000E+00
 -1      2401 3.32850E+01 5.30525E+00 0.00000E+00
 -1      2402 3.25350E+01 6.60425E+00 0.00000E+00
 -1      2403 3.77850E+01 5.30525E+00 0.00000E+00
 -1      2404 3.62850E+01 5.30525E+00 0.00000E+00
 -1      2405 3.55350E+01 6.60425E+00 0.00000E+00
 -1      2406 4.07850E+01 5.30525E+00 0.00000E+00
 -1      2407 3.92850E+01 5.30525E+00 0.00000E+00
 -1      2408 3.85350E+01 6.60425E+00 0.00000E+00
 -1      2409 4.37850E+01 5.30525E+00 0.00000E+00
 -1      2410 4.22850E+01 5.30525E+00 0.00000E+00
 -1      2411 4.15350E+01 6.60425E+00 0.00000E+00
 -1      2412 4.67850E+01 5.30525E+00 0.00000E+00
 -1      2413 4.52850E+01 5.30525E+00 0.00000E+00
 -1      2414 4.45350E+01 6.60425E+00 0.00000E+00
 -1      2415 4.97850E+01 5.30525E+00 0.00000E+00
 -1      2416 4.82850E+01 5.30525E+00 0.00000E+00
 -1      2417 4.75350E+01 6.60425E+00 0.00000E+00
 -1      2418 5.27850E+01 5.30525E+00 0.00000E+00
 -1      2419 5.12850E+01 5.30525E+00 0.00000E+00
 -1      2420 5.05350E+01 6.60425E+00 0.00000E+00
 -1      2421 5.57850E+01 5.30525E+00 0.00000E+00
 -1      2422 5.42850E+01 5.30525E+00 0.00000E+00
 -1      2423 5.35350E+01 6.60425E+00 0.00000E+00
 -1      2424 5.87850E+01 5.30525E+00 0.00000E+00
 -1      2425 5.72850E+01 5.30525E+00 0.00000E+00
 -1      2426 5.65350E+01 6.60425E+00 0.00000E+00
 -1      2427 6.17850E+01 5.30525E+00 0.00000E+00
 -1      2428 6.02850E+01 5.30525E+00 0.00000E+00
 -1      2429 5.95350E+01 6.60425E+00 0.00000E+00
 -1      2430 6.47850E+01 5.30525E+00 0.00000E+00
 -1      2431 6.32850E+01 5.30525E+00 0.00000E+00
 -1      2432 6.25350E+01 6.60425E+00 0.00000E+00
 -1      2433 6.77850E+01 5.30525E+00 0.00000E+00
 -1      2434 6.62850E+01 5.30525E+00 0.00000E+00
 -1      2435 6.55350E+01 6.60425E+00 0.00000E+00
 -1      2436 7.07850E+01 5.30525E+00 0.00000E+00
 -1      2437 6.92850E+01 5.30525E+00 0.00000E+00
 -1      2438 6.85350E+01 6.60425E+00 0.00000E+00
 -1      2439 7.37850E+01 5.30525E+00 0.00000E+00
 -1      2440 7.22850E+01 5.30525E+00 0.00000E+00
 -1      2441 7.15350E+01 6.60425E+00 0.00000E+00
 -1      2442 7.67850E+01 5.30525E+00 0.00000E+00
 -1      2443 7.52850E+01 5.30525E+00 0.00000E+00
 -1      2444 7.45350E+01 6.60425E+00 0.00000E+00
 -1      2445 7.97850E+01 5.30525E+00 0.00000E+00
 -1      2446 7.82850E+01 5.30525E+00 0.00000E+00
 -1      2447 7.75350E+01 6.60425E+00 0.00000E+00
 -1      2448 8.27850E+01 5.30525E+00 0.00000E+00
 -1      2449 8.12850E+01 5.30525E+00 0.00000E+00
 -1      2450 8.05350E+01 6.60425E+00 0.00000E+00
 -1      2451 8.57850E+01 5.30525E+00 0.00000E+00
 -1      2452 8.42850E+01 5.30525E+00 0.00000E+00
 -1      2453 8.35350E+01 6.60425E+00 0.00000E+00
 -1      2454 8.87850E+01 5.30525E+00 0.00000E+00
 -1      2455 8.72850E+01 5.30525E+00 0.00000E+00
 -1      2456 8.65350E+01 6.60425E+00 0.00000E+00
 -1      2457 9.17850E+01 5.30525E+00 0.00000E+00
 -1      2458 9.02850E+01 5.30525E+00 0.00000E+00
 -1      2459 8.95350E+01 6.60425E+00 0.00000E+00
 -1      2460 9.47850E+01 5.30525E+00 0.00000E+00
 -1      2461 9.32850E+01 5.30525E+00 0.00000E+00
 -1      2462 9.25350E+01 6.60425E+00 0.00000E+00
 -1      2463 9.77850E+01 5.30525E+00 0.00000E+00
 -1      2464 9.62850E+01 5.30525E+00 0.00000E+00
 -1      2465 9.55350E+01 6.60425E+00 0.00000E+00
 -1      2466 1.00785E+02 5.30525E+00 0.00000E+00
 -1      2467 9.92850E+01 5.30525E+00 0.00000E+00
 -1      2468 9.85350E+01 6.60425E+00 0.00000E+00
 -1      2469 1.03785E+02 5.30525E+00 0.00000E+00
 -1      2470 1.02285E+02 5.30525E+00 0.00000E+00
 -1      2471 1.01535E+02 6.60425E+00 0.00000E+00
 -1      2472 1.06785E+02 5.30525E+00 0.00000E+00
 -1      2473 1.05285E+02 5.30525E+00 0.00000E+00
 -1      2474 1.04535E+02 6.60425E+00 0.00000E+00
 -1      2475 1.09785E+02 5.30525E+00 0.00000E+00
 -1      2476 1.08285E+02 5.30525E+00 0.00000E+00
 -1      2477 1.07535E+02 6.60425E+00 0.00000E+00
 -1      2478 1.12785E+02 5.30525E+00 0.00000E+00
 -1      2479 1.11285E+02 5.30525E+00 0.00000E+00
 -1      2480 1.10535E+02 6.60425E+00 0.00000E+00
 -1      2481 1.15785E+02 5.30525E+00 0.00000E+00
 -1      2482 1.14285E+02 5.30525E+00 0.00000E+00
 -1      2483 1.13535E+02 6.60425E+00 0.00000E+00
 -1      2484 1.18785E+02 5.30525E+00 0.00000E+00
 -1      2485 1.17285E+02 5.30525E+00 0.00000E+00
 -1      2486 1.16535E+02 6.60425E+00 0.00000E+00
 -1      2487 1.21785E+02 5.30525E+00 0.00000E+00
 -1      2488 1.20285E+02 5.30525E+00 0.00000E+00
 -1      2489 1.19535E+02 6.60425E+00 0.00000E+00
 -1      2490 1.24785E+02 5.30525E+00 0.00000E+00
 -1      2491 1.23285E+02 5.30525E+00 0.00000E+00
 -1      2492 1.22535E+02 6.60425E+00 0.00000E+00
 -1      2493 1.27785E+02 5.30525E+00 0.00000E+00
 -1      2494 1.26285E+02 5.30525E+00 0.00000E+00
 -1      2495 1.25535E+02 6.60425E+00 0.00000E+00
 -1      2496 1.30785E+02 5.30525E+00 0.00000E+00
 -1      2497 1.29285E+02 5.30525E+00 0.00000E+00
 -1      2498 1.28535E+02 6.60425E+00 0.00000E+00
 -1      2499 1.33785E+02 5.30525E+00 0.00000E+00
 -1      2500 1.32285E+02 5.30525E+00 0.00000E+00
 -1      2501 1.31535E+02 6.60425E+00 0.00000E+00
 -1      2502 1.36785E+02 5.30525E+00 0.00000E+00
 -1      2503 1.35285E+02 5.30525E+00 0.00000E+00
 -1      2504 1.34535E+02 6.60425E+00 0.00000E+00
 -1      2505 1.39785E+02 5.30525E+00 0.00000E+00
 -1      2506 1.38285E+02 5.30525E+00 0.00000E+00
 -1      2507 1.37535E+02 6.60425E+00 0.00000E+00
 -1      2508 1.42785E+02 5.30525E+00 0.00000E+00
 -1      2509 1.41285E+02 5.30525E+00 0.00000E+00
 -1      2510 1.40535E+02 6.60425E+00 0.00000E+00
 -1      2511 1.44336E+02 5.26953E+00 0.00000E+00
 -1      2512 1.43505E+02 1.69125E+01 0.00000E+00
 -1      2513 1.43505E+02 1.54375E+01 0.00000E+00
 -1      2514 1.43505E+02 1.98625E+01 0.00000E+00
 -1      2515 1.43505E+02 1.83875E+01 0.00000E+00
 -1      2516 1.42206E+02 1.76500E+01 0.00000E+00
 -1      2517 1.43505E+02 1.10625E+01 0.00000E+00
 -1      2518 1.43505E+02 9.58750E+00 0.00000E+00
 -1      2519 1.43505E+02 1.39750E+01 0.00000E+00
 -1      2520 1.43505E+02 1.25250E+01 0.00000E+00
 -1      2521 1.42206E+02 1.17875E+01 0.00000E+00
 -1      2522 1.42206E+02 1.47125E+01 0.00000E+00
 -1      2523 1.43505E+02 2.28125E+01 0.00000E+00
 -1      2524 1.43505E+02 2.13375E+01 0.00000E+00
 -1      2525 1.42206E+02 2.06000E+01 0.00000E+00
 -1      2526 1.43505E+02 2.57625E+01 0.00000E+00
 -1      2527 1.43505E+02 2.42875E+01 0.00000E+00
 -1      2528 1.42206E+02 2.35500E+01 0.00000E+00
 -1      2529 1.43505E+02 2.87125E+01 0.00000E+00
 -1      2530 1.43505E+02 2.72375E+01 0.00000E+00
 -1      2531 1.42206E+02 2.65000E+01 0.00000E+00
 -1      2532 1.43505E+02 3.16125E+01 0.00000E+00
 -1      2533 1.43505E+02 3.01625E+01 0.00000E+00
 -1      2534 1.42206E+02 2.94250E+01 0.00000E+00
 -1      2535 1.43505E+02 3.45625E+01 0.00000E+00
 -1      2536 1.43505E+02 3.30875E+01 0.00000E+00
 -1      2537 1.42206E+02 3.23500E+01 0.00000E+00
 -1      2538 1.43505E+02 3.75125E+01 0.00000E+00
 -1      2539 1.43505E+02 3.60375E+01 0.00000E+00
 -1      2540 1.42206E+02 3.53000E+01 0.00000E+00
 -1      2541 1.43505E+02 4.04625E+01 0.00000E+00
 -1      2542 1.43505E+02 3.89875E+01 0.00000E+00
 -1      2543 1.42206E+02 3.82500E+01 0.00000E+00
 -1      2544 1.07436E+02 2.05330E+01 0.00000E+00
 -1      2545 1.07483E+02 2.15561E+01 0.00000E+00
 -1      2546 1.06766E+02 1.82774E+01 0.00000E+00
 -1      2547 1.07157E+02 1.92539E+01 0.00000E+00
 -1      2548 1.07368E+02 2.25928E+01 0.00000E+00
 -1      2549 1.07341E+02 2.35217E+01 0.00000E+00
 -1      2550 1.67850E+01 5.30525E+00 0.00000E+00
 -1      2551 1.52850E+01 5.30525E+00 0.00000E+00
 -1      2552 1.75350E+01 6.60425E+00 0.00000E+00
 -1      2553 1.44321E+02 4.30606E+01 0.00000E+00
 -1      2554 1.05877E+02 1.65073E+01 0.00000E+00
 -1      2555 1.06310E+02 1.73002E+01 0.00000E+00
 -1      2556 6.55950E+00 4.28890E+01 0.00000E+00
 -1      2557 8.53650E+00 4.32410E+01 0.00000E+00
 -1      2558 9.28650E+00 4.19420E+01 0.00000E+00
 -1      2559 6.55950E+00 4.14140E+01 0.00000E+00
 -1      2560 1.02565E+02 1.28840E+01 0.00000E+00
 -1      2561 1.03589E+02 1.34292E+01 0.00000E+00
 -1      2562 9.55484E+01 3.26579E+01 0.00000E+00
 -1      2563 9.45112E+01 3.23274E+01 0.00000E+00
 -1      2564 8.66745E+01 2.42365E+01 0.00000E+00
 -1      2565 8.65241E+01 2.31365E+01 0.00000E+00
 -1      2566 6.49500E+00 2.71625E+01 0.00000E+00
 -1      2567 6.49500E+00 2.86375E+01 0.00000E+00
 -1      2568 7.79400E+00 2.93750E+01 0.00000E+00
 -1      2569 7.79400E+00 2.64250E+01 0.00000E+00
 -1      2570 9.63271E+01 1.17631E+01 0.00000E+00
 -1      2571 9.73192E+01 1.18344E+01 0.00000E+00
 -1      2572 8.75720E+01 1.78317E+01 0.00000E+00
 -1      2573 8.81574E+01 1.68600E+01 0.00000E+00
 -1      2574 9.84447E+01 1.19267E+01 0.00000E+00
 -1      2575 9.94112E+01 1.20725E+01 0.00000E+00
 -1      2576 1.00093E+02 1.13992E+01 0.00000E+00
 -1      2577 9.41691E+01 1.19962E+01 0.00000E+00
 -1      2578 9.51390E+01 1.17983E+01 0.00000E+00
 -1      2579 8.99318E+01 1.41490E+01 0.00000E+00
 -1      2580 9.05289E+01 1.35528E+01 0.00000E+00
 -1      2581 9.82119E+01 3.27139E+01 0.00000E+00
 -1      2582 9.70017E+01 3.28119E+01 0.00000E+00
 -1      2583 8.87588E+01 1.57933E+01 0.00000E+00
 -1      2584 8.93453E+01 1.49711E+01 0.00000E+00
 -1      2585 8.89195E+01 1.39477E+01 0.00000E+00
 -1      2586 8.69945E+01 1.99340E+01 0.00000E+00
 -1      2587 8.71678E+01 1.90519E+01 0.00000E+00
 -1      2588 8.66260E+01 2.18801E+01 0.00000E+00
 -1      2589 8.68102E+01 2.09070E+01 0.00000E+00
 -1      2590 8.61376E+01 2.03168E+01 0.00000E+00
 -1      2591 8.73894E+01 2.61334E+01 0.00000E+00
 -1      2592 8.70559E+01 2.53629E+01 0.00000E+00
 -1      2593 8.84951E+01 2.80631E+01 0.00000E+00
 -1      2594 8.78708E+01 2.71517E+01 0.00000E+00
 -1      2595 8.97526E+01 2.95399E+01 0.00000E+00
 -1      2596 8.91857E+01 2.88951E+01 0.00000E+00
 -1      2597 9.34940E+01 3.19416E+01 0.00000E+00
 -1      2598 9.26872E+01 3.15740E+01 0.00000E+00
 -1      2599 1.06375E+02 2.63392E+01 0.00000E+00
 -1      2600 1.06101E+02 2.72034E+01 0.00000E+00
 -1      2601 1.00221E+02 3.21431E+01 0.00000E+00
 -1      2602 9.93990E+01 3.24115E+01 0.00000E+00
 -1      2603 1.02329E+02 3.12571E+01 0.00000E+00
 -1      2604 1.01295E+02 3.17784E+01 0.00000E+00
 -1      2605 1.03978E+02 3.00812E+01 0.00000E+00
 -1      2606 1.03317E+02 3.06154E+01 0.00000E+00
 -1      2607 1.05485E+02 2.83524E+01 0.00000E+00
 -1      2608 1.04743E+02 2.92262E+01 0.00000E+00
 -1      2609 1.07157E+02 2.46181E+01 0.00000E+00
 -1      2610 1.06766E+02 2.54787E+01 0.00000E+00
 -1      2611 1.07327E+02 2.61318E+01 0.00000E+00
 -1      2612 8.07525E+00 5.11044E+00 0.00000E+00
 -1      2613 6.57525E+00 5.11044E+00 0.00000E+00
 -1      2614 6.40575E+00 6.01981E+00 0.00000E+00
 -1      2615 8.82525E+00 6.40944E+00 0.00000E+00
 -1      2616 1.04666E+02 1.44439E+01 0.00000E+00
 -1      2617 1.05272E+02 1.54756E+01 0.00000E+00
 -1      2618 1.06241E+02 1.54609E+01 0.00000E+00
 -1      2619 9.80011E+01 1.11611E+01 0.00000E+00
 -1      2620 7.79400E+00 3.52687E+01 0.00000E+00
 -1      2621 6.49500E+00 3.60062E+01 0.00000E+00
 -1      2622 6.49500E+00 3.74750E+01 0.00000E+00
 -1      2623 1.45350E+01 6.60425E+00 0.00000E+00
 -1      2624 6.40575E+00 7.49481E+00 0.00000E+00
 -1      2625 1.04558E+02 1.34145E+01 0.00000E+00
 -1      2626 1.05527E+02 1.33998E+01 0.00000E+00
 -1      2627 1.04449E+02 1.23851E+01 0.00000E+00
 -1      2628 1.04939E+02 3.01452E+01 0.00000E+00
 -1      2629 1.03186E+02 3.16418E+01 0.00000E+00
 -1      2630 1.02270E+02 1.19724E+01 0.00000E+00
 -1      2631 1.01124E+02 3.26482E+01 0.00000E+00
 -1      2632 1.07302E+02 1.74698E+01 0.00000E+00
 -1      2633 9.37522E+01 3.29239E+01 0.00000E+00
 -1      2634 1.43586E+02 6.56853E+00 0.00000E+00
 -1      2635 1.43419E+02 7.72713E+00 0.00000E+00
 -1      2636 8.99201E+01 3.03399E+01 0.00000E+00
 -1      2637 1.08201E+02 2.20418E+01 0.00000E+00
 -1      2638 1.08037E+02 1.97261E+01 0.00000E+00
 -1      2639 8.81660E+01 2.89241E+01 0.00000E+00
 -1      2640 1.07902E+02 2.41749E+01 0.00000E+00
 -1      2641 7.70475E+00 8.23231E+00 0.00000E+00
 -1      2642 6.55950E+00 3.99453E+01 0.00000E+00
 -1      2643 8.58515E+01 2.25463E+01 0.00000E+00
 -1      2644 8.77316E+01 1.58365E+01 0.00000E+00
 -1      2645 1.06320E+02 2.81413E+01 0.00000E+00
 -1      2646 1.06539E+02 2.90791E+01 0.00000E+00
 -1      2647 1.07155E+02 2.79302E+01 0.00000E+00
 -1      2648 9.62227E+01 3.34637E+01 0.00000E+00
 -1      2649 9.88631E+01 3.33152E+01 0.00000E+00
 -1      2650 8.67261E+01 1.81235E+01 0.00000E+00
 -1      2651 9.18594E+01 3.17309E+01 0.00000E+00
 -1      2652 8.61311E+01 2.49291E+01 0.00000E+00
 -1      2653 9.08086E+01 1.27385E+01 0.00000E+00
 -1      2654 9.24415E+01 1.14944E+01 0.00000E+00
 -1      2655 9.33053E+01 1.17453E+01 0.00000E+00
 -1      2656 9.36355E+01 1.08882E+01 0.00000E+00
 -1      2657 9.56875E+01 1.11039E+01 0.00000E+00
 -1      2658 8.69940E+01 2.70737E+01 0.00000E+00
 -1      2659 1.42758E+02 4.35929E+01 0.00000E+00
 -1      2660 1.43241E+02 4.17323E+01 0.00000E+00
 -1      2661 1.41942E+02 4.09948E+01 0.00000E+00
 -1      2662 1.41414E+02 4.35342E+01 0.00000E+00
 -1      2663 1.42120E+02 8.46463E+00 0.00000E+00
 -1      2664 1.40664E+02 4.22352E+01 0.00000E+00
 -1      2665 9.09300E+00 1.98250E+01 0.00000E+00
 -1      2666 9.09300E+00 2.12750E+01 0.00000E+00
 -1      2667 9.09300E+00 2.27500E+01 0.00000E+00
 -1      2668 9.09300E+00 2.42250E+01 0.00000E+00
 -1      2669 1.03920E+01 2.20250E+01 0.00000E+00
 -1      2670 9.09300E+00 1.39375E+01 0.00000E+00
 -1      2671 9.09300E+00 1.54125E+01 0.00000E+00
 -1      2672 9.09300E+00 1.09875E+01 0.00000E+00
 -1      2673 9.09300E+00 1.24625E+01 0.00000E+00
 -1      2674 1.03920E+01 1.32000E+01 0.00000E+00
 -1      2675 1.22850E+01 7.90325E+00 0.00000E+00
 -1      2676 1.07850E+01 7.90325E+00 0.00000E+00
 -1      2677 7.85850E+00 3.92077E+01 0.00000E+00
 -1      2678 1.52850E+01 7.90325E+00 0.00000E+00
 -1      2679 1.37850E+01 7.90325E+00 0.00000E+00
 -1      2680 1.30350E+01 9.20225E+00 0.00000E+00
 -1      2681 1.01937E+02 3.32778E+01 0.00000E+00
 -1      2682 1.00863E+02 3.36425E+01 0.00000E+00
 -1      2683 1.44000E+01 4.09070E+01 0.00000E+00
 -1      2684 1.59000E+01 4.09070E+01 0.00000E+00
 -1      2685 1.74000E+01 4.09070E+01 0.00000E+00
 -1      2686 1.89000E+01 4.09070E+01 0.00000E+00
 -1      2687 1.66500E+01 3.96080E+01 0.00000E+00
 -1      2688 2.04000E+01 4.09070E+01 0.00000E+00
 -1      2689 2.19000E+01 4.09070E+01 0.00000E+00
 -1      2690 1.96500E+01 3.96080E+01 0.00000E+00
 -1      2691 2.34000E+01 4.09070E+01 0.00000E+00
 -1      2692 2.49000E+01 4.09070E+01 0.00000E+00
 -1      2693 2.26500E+01 3.96080E+01 0.00000E+00
 -1      2694 2.64000E+01 4.09070E+01 0.00000E+00
 -1      2695 2.79000E+01 4.09070E+01 0.00000E+00
 -1      2696 2.56500E+01 3.96080E+01 0.00000E+00
 -1      2697 2.94000E+01 4.09070E+01 0.00000E+00
 -1      2698 3.09000E+01 4.09070E+01 0.00000E+00
 -1      2699 2.86500E+01 3.96080E+01 0.00000E+00
 -1      2700 3.24000E+01 4.09070E+01 0.00000E+00
 -1      2701 3.39000E+01 4.09070E+01 0.00000E+00
 -1      2702 3.16500E+01 3.96080E+01 0.00000E+00
 -1      2703 3.54000E+01 4.09070E+01 0.00000E+00
 -1      2704 3.69000E+01 4.09070E+01 0.00000E+00
 -1      2705 3.46500E+01 3.96080E+01 0.00000E+00
 -1      2706 3.84000E+01 4.09070E+01 0.00000E+00
 -1      2707 3.99000E+01 4.09070E+01 0.00000E+00
 -1      2708 3.76500E+01 3.96080E+01 0.00000E+00
 -1      2709 4.14000E+01 4.09070E+01 0.00000E+00
 -1      2710 4.29000E+01 4.09070E+01 0.00000E+00
 -1      2711 4.06500E+01 3.96080E+01 0.00000E+00
 -1      2712 4.44000E+01 4.09070E+01 0.00000E+00
 -1      2713 4.59000E+01 4.09070E+01 0.00000E+00
 -1      2714 4.36500E+01 3.96080E+01 0.00000E+00
 -1      2715 4.74000E+01 4.09070E+01 0.00000E+00
 -1      2716 4.89000E+01 4.09070E+01 0.00000E+00
 -1      2717 4.66500E+01 3.96080E+01 0.00000E+00
 -1      2718 5.04000E+01 4.09070E+01 0.00000E+00
 -1      2719 5.19000E+01 4.09070E+01 0.00000E+00
 -1      2720 4.96500E+01 3.96080E+01 0.00000E+00
 -1      2721 5.34000E+01 4.09070E+01 0.00000E+00
 -1      2722 5.49000E+01 4.09070E+01 0.00000E+00
 -1      2723 5.26500E+01 3.96080E+01 0.00000E+00
 -1      2724 5.64000E+01 4.09070E+01 0.00000E+00
 -1      2725 5.79000E+01 4.09070E+01 0.00000E+00
 -1      2726 5.56500E+01 3.96080E+01 0.00000E+00
 -1      2727 5.94000E+01 4.09070E+01 0.00000E+00
 -1      2728 6.09000E+01 4.09070E+01 0.00000E+00
 -1      2729 5.86500E+01 3.96080E+01 0.00000E+00
 -1      2730 6.24000E+01 4.09070E+01 0.00000E+00
 -1      2731 6.39000E+01 4.09070E+01 0.00000E+00
 -1      2732 6.16500E+01 3.96080E+01 0.00000E+00
 -1      2733 6.54000E+01 4.09070E+01 0.00000E+00
 -1      2734 6.69000E+01 4.09070E+01 0.00000E+00
 -1      2735 6.46500E+01 3.96080E+01 0.00000E+00
 -1      2736 6.84000E+01 4.09070E+01 0.00000E+00
 -1      2737 6.99000E+01 4.09070E+01 0.00000E+00
 -1      2738 6.76500E+01 3.96080E+01 0.00000E+00
 -1      2739 7.14000E+01 4.09070E+01 0.00000E+00
 -1      2740 7.29000E+01 4.09070E+01 0.00000E+00
 -1      2741 7.06500E+01 3.96080E+01 0.00000E+00
 -1      2742 7.44000E+01 4.09070E+01 0.00000E+00
 -1      2743 7.59000E+01 4.09070E+01 0.00000E+00
 -1      2744 7.36500E+01 3.96080E+01 0.00000E+00
 -1      2745 7.74000E+01 4.09070E+01 0.00000E+00
 -1      2746 7.89000E+01 4.09070E+01 0.00000E+00
 -1      2747 7.66500E+01 3.96080E+01 0.00000E+00
 -1      2748 8.04000E+01 4.09070E+01 0.00000E+00
 -1      2749 8.19000E+01 4.09070E+01 0.00000E+00
 -1      2750 7.96500E+01 3.96080E+01 0.00000E+00
 -1      2751 8.34000E+01 4.09070E+01 0.00000E+00
 -1      2752 8.49000E+01 4.09070E+01 0.00000E+00
 -1      2753 8.26500E+01 3.96080E+01 0.00000E+00
 -1      2754 8.64000E+01 4.09070E+01 0.00000E+00
 -1      2755 8.79000E+01 4.09070E+01 0.00000E+00
 -1      2756 8.56500E+01 3.96080E+01 0.00000E+00
 -1      2757 8.94000E+01 4.09070E+01 0.00000E+00
 -1      2758 9.09000E+01 4.09070E+01 0.00000E+00
 -1      2759 8.86500E+01 3.96080E+01 0.00000E+00
 -1      2760 9.24000E+01 4.09070E+01 0.00000E+00
 -1      2761 9.39000E+01 4.09070E+01 0.00000E+00
 -1      2762 9.16500E+01 3.96080E+01 0.00000E+00
 -1      2763 9.54000E+01 4.09070E+01 0.00000E+00
 -1      2764 9.69000E+01 4.09070E+01 0.00000E+00
 -1      2765 9.46500E+01 3.96080E+01 0.00000E+00
 -1      2766 9.84000E+01 4.09070E+01 0.00000E+00
 -1      2767 9.99000E+01 4.09070E+01 0.00000E+00
 -1      2768 9.76500E+01 3.96080E+01 0.00000E+00
 -1      2769 1.01400E+02 4.09070E+01 0.00000E+00
 -1      2770 1.02900E+02 4.09070E+01 0.00000E+00
 -1      2771 1.00650E+02 3.96080E+01 0.00000E+00
 -1      2772 1.04400E+02 4.09070E+01 0.00000E+00
 -1      2773 1.05900E+02 4.09070E+01 0.00000E+00
 -1      2774 1.03650E+02 3.96080E+01 0.00000E+00
 -1      2775 1.07400E+02 4.09070E+01 0.00000E+00
 -1      2776 1.08900E+02 4.09070E+01 0.00000E+00
 -1      2777 1.06650E+02 3.96080E+01 0.00000E+00
 -1      2778 1.10400E+02 4.09070E+01 0.00000E+00
 -1      2779 1.11900E+02 4.09070E+01 0.00000E+00
 -1      2780 1.09650E+02 3.96080E+01 0.00000E+00
 -1      2781 1.13400E+02 4.09070E+01 0.00000E+00
 -1      2782 1.14900E+02 4.09070E+01 0.00000E+00
 -1      2783 1.12650E+02 3.96080E+01 0.00000E+00
 -1      2784 1.16400E+02 4.09070E+01 0.00000E+00
 -1      2785 1.17900E+02 4.09070E+01 0.00000E+00
 -1      2786 1.15650E+02 3.96080E+01 0.00000E+00
 -1      2787 1.19400E+02 4.09070E+01 0.00000E+00
 -1      2788 1.20900E+02 4.09070E+01 0.00000E+00
 -1      2789 1.18650E+02 3.96080E+01 0.00000E+00
 -1      2790 1.22400E+02 4.09070E+01 0.00000E+00
 -1      2791 1.23900E+02 4.09070E+01 0.00000E+00
 -1      2792 1.21650E+02 3.96080E+01 0.00000E+00
 -1      2793 1.25400E+02 4.09070E+01 0.00000E+00
 -1      2794 1.26900E+02 4.09070E+01 0.00000E+00
 -1      2795 1.24650E+02 3.96080E+01 0.00000E+00
 -1      2796 1.28400E+02 4.09070E+01 0.00000E+00
 -1      2797 1.29900E+02 4.09070E+01 0.00000E+00
 -1      2798 1.27650E+02 3.96080E+01 0.00000E+00
 -1      2799 1.31400E+02 4.09070E+01 0.00000E+00
 -1      2800 1.32900E+02 4.09070E+01 0.00000E+00
 -1      2801 1.30650E+02 3.96080E+01 0.00000E+00
 -1      2802 1.34400E+02 4.09070E+01 0.00000E+00
 -1      2803 1.35900E+02 4.09070E+01 0.00000E+00
 -1      2804 1.33650E+02 3.96080E+01 0.00000E+00
 -1      2805 1.37400E+02 4.09070E+01 0.00000E+00
 -1      2806 1.38900E+02 4.09070E+01 0.00000E+00
 -1      2807 1.36650E+02 3.96080E+01 0.00000E+00
 -1      2808 2.42850E+01 7.90325E+00 0.00000E+00
 -1      2809 2.27850E+01 7.90325E+00 0.00000E+00
 -1      2810 1.40706E+02 1.03250E+01 0.00000E+00
 -1      2811 1.40620E+02 8.46463E+00 0.00000E+00
 -1      2812 1.39120E+02 8.46463E+00 0.00000E+00
 -1      2813 2.12850E+01 7.90325E+00 0.00000E+00
 -1      2814 1.97850E+01 7.90325E+00 0.00000E+00
 -1      2815 2.20350E+01 9.20225E+00 0.00000E+00
 -1      2816 3.02850E+01 7.90325E+00 0.00000E+00
 -1      2817 2.87850E+01 7.90325E+00 0.00000E+00
 -1      2818 3.32850E+01 7.90325E+00 0.00000E+00
 -1      2819 3.17850E+01 7.90325E+00 0.00000E+00
 -1      2820 3.10350E+01 9.20225E+00 0.00000E+00
 -1      2821 3.62850E+01 7.90325E+00 0.00000E+00
 -1      2822 3.47850E+01 7.90325E+00 0.00000E+00
 -1      2823 3.40350E+01 9.20225E+00 0.00000E+00
 -1      2824 3.92850E+01 7.90325E+00 0.00000E+00
 -1      2825 3.77850E+01 7.90325E+00 0.00000E+00
 -1      2826 3.70350E+01 9.20225E+00 0.00000E+00
 -1      2827 4.22850E+01 7.90325E+00 0.00000E+00
 -1      2828 4.07850E+01 7.90325E+00 0.00000E+00
 -1      2829 4.00350E+01 9.20225E+00 0.00000E+00
 -1      2830 4.52850E+01 7.90325E+00 0.00000E+00
 -1      2831 4.37850E+01 7.90325E+00 0.00000E+00
 -1      2832 4.30350E+01 9.20225E+00 0.00000E+00
 -1      2833 4.82850E+01 7.90325E+00 0.00000E+00
 -1      2834 4.67850E+01 7.90325E+00 0.00000E+00
 -1      2835 4.60350E+01 9.20225E+00 0.00000E+00
 -1      2836 5.12850E+01 7.90325E+00 0.00000E+00
 -1      2837 4.97850E+01 7.90325E+00 0.00000E+00
 -1      2838 4.90350E+01 9.20225E+00 0.00000E+00
 -1      2839 5.42850E+01 7.90325E+00 0.00000E+00
 -1      2840 5.27850E+01 7.90325E+00 0.00000E+00
 -1      2841 5.20350E+01 9.20225E+00 0.00000E+00
 -1      2842 5.72850E+01 7.90325E+00 0.00000E+00
 -1      2843 5.57850E+01 7.90325E+00 0.00000E+00
 -1      2844 5.50350E+01 9.20225E+00 0.00000E+00
 -1      2845 6.02850E+01 7.90325E+00 0.00000E+00
 -1      2846 5.87850E+01 7.90325E+00 0.00000E+00
 -1      2847 5.80350E+01 9.20225E+00 0.00000E+00
 -1      2848 6.32850E+01 7.90325E+00 0.00000E+00
 -1      2849 6.17850E+01 7.90325E+00 0.00000E+00
 -1      2850 6.10350E+01 9.20225E+00 0.00000E+00
 -1      2851 6.62850E+01 7.90325E+00 0.00000E+00
 -1      2852 6.47850E+01 7.90325E+00 0.00000E+00
 -1      2853 6.40350E+01 9.20225E+00 0.00000E+00
 -1      2854 6.92850E+01 7.90325E+00 0.00000E+00
 -1      2855 6.77850E+01 7.90325E+00 0.00000E+00
 -1      2856 6.70350E+01 9.20225E+00 0.00000E+00
 -1      2857 7.22850E+01 7.90325E+00 0.00000E+00
 -1      2858 7.07850E+01 7.90325E+00 0.00000E+00
 -1      2859 7.00350E+01 9.20225E+00 0.00000E+00
 -1      2860 7.52850E+01 7.90325E+00 0.00000E+00
 -1      2861 7.37850E+01 7.90325E+00 0.00000E+00
 -1      2862 7.30350E+01 9.20225E+00 0.00000E+00
 -1      2863 7.82850E+01 7.90325E+00 0.00000E+00
 -1      2864 7.67850E+01 7.90325E+00 0.00000E+00
 -1      2865 7.60350E+01 9.20225E+00 0.00000E+00
 -1      2866 8.12850E+01 7.90325E+00 0.00000E+00
 -1      2867 7.97850E+01 7.90325E+00 0.00000E+00
 -1      2868 7.90350E+01 9.20225E+00 0.00000E+00
 -1      2869 8.42850E+01 7.90325E+00 0.00000E+00
 -1      2870 8.27850E+01 7.90325E+00 0.00000E+00
 -1      2871 8.20350E+01 9.20225E+00 0.00000E+00
 -1      2872 8.72850E+01 7.90325E+00 0.00000E+00
 -1      2873 8.57850E+01 7.90325E+00 0.00000E+00
 -1      2874 8.50350E+01 9.20225E+00 0.00000E+00
 -1      2875 9.02850E+01 7.90325E+00 0.00000E+00
 -1      2876 8.87850E+01 7.90325E+00 0.00000E+00
 -1      2877 8.80350E+01 9.20225E+00 0.00000E+00
 -1      2878 9.34033E+01 8.62077E+00 0.00000E+00
 -1      2879 9.19033E+01 8.62077E+00 0.00000E+00
 -1      2880 9.92850E+01 7.79695E+00 0.00000E+00
 -1      2881 9.77850E+01 7.79695E+00 0.00000E+00
 -1      2882 1.02285E+02 7.79695E+00 0.00000E+00
 -1      2883 1.00785E+02 7.79695E+00 0.00000E+00
 -1      2884 1.00035E+02 8.98964E+00 0.00000E+00
 -1      2885 1.05285E+02 7.79695E+00 0.00000E+00
 -1      2886 1.03785E+02 7.79695E+00 0.00000E+00
 -1      2887 1.03035E+02 8.98964E+00 0.00000E+00
 -1      2888 1.08285E+02 7.79695E+00 0.00000E+00
 -1      2889 1.06785E+02 7.79695E+00 0.00000E+00
 -1      2890 1.06035E+02 8.98964E+00 0.00000E+00
 -1      2891 1.11285E+02 7.79695E+00 0.00000E+00
 -1      2892 1.09785E+02 7.79695E+00 0.00000E+00
 -1      2893 1.09035E+02 8.98964E+00 0.00000E+00
 -1      2894 1.14285E+02 7.79695E+00 0.00000E+00
 -1      2895 1.12785E+02 7.79695E+00 0.00000E+00
 -1      2896 1.12035E+02 8.98964E+00 0.00000E+00
 -1      2897 1.17285E+02 7.79695E+00 0.00000E+00
 -1      2898 1.15785E+02 7.79695E+00 0.00000E+00
 -1      2899 1.15035E+02 8.98964E+00 0.00000E+00
 -1      2900 1.20285E+02 7.79695E+00 0.00000E+00
 -1      2901 1.18785E+02 7.79695E+00 0.00000E+00
 -1      2902 1.18035E+02 8.98964E+00 0.00000E+00
 -1      2903 1.23285E+02 7.79695E+00 0.00000E+00
 -1      2904 1.21785E+02 7.79695E+00 0.00000E+00
 -1      2905 1.21035E+02 8.98964E+00 0.00000E+00
 -1      2906 1.26285E+02 7.79695E+00 0.00000E+00
 -1      2907 1.24785E+02 7.79695E+00 0.00000E+00
 -1      2908 1.24035E+02 8.98964E+00 0.00000E+00
 -1      2909 1.29285E+02 7.79695E+00 0.00000E+00
 -1      2910 1.27785E+02 7.79695E+00 0.00000E+00
 -1      2911 1.27035E+02 8.98964E+00 0.00000E+00
 -1      2912 1.32285E+02 7.79695E+00 0.00000E+00
 -1      2913 1.30785E+02 7.79695E+00 0.00000E+00
 -1      2914 1.30035E+02 8.98964E+00 0.00000E+00
 -1      2915 1.35285E+02 7.79695E+00 0.00000E+00
 -1      2916 1.33785E+02 7.79695E+00 0.00000E+00
 -1      2917 1.33035E+02 8.98964E+00 0.00000E+00
 -1      2918 1.37953E+02 8.13079E+00 0.00000E+00
 -1      2919 1.36453E+02 8.13079E+00 0.00000E+00
 -1      2920 1.35703E+02 9.32348E+00 0.00000E+00
 -1      2921 1.38038E+02 9.99116E+00 0.00000E+00
 -1      2922 1.40907E+02 2.42875E+01 0.00000E+00
 -1      2923 1.40907E+02 2.28125E+01 0.00000E+00
 -1      2924 1.39914E+02 4.09362E+01 0.00000E+00
 -1      2925 1.40928E+02 4.09655E+01 0.00000E+00
 -1      2926 1.39164E+02 3.96372E+01 0.00000E+00
 -1      2927 1.40907E+02 1.83875E+01 0.00000E+00
 -1      2928 1.40907E+02 1.69125E+01 0.00000E+00
 -1      2929 1.40907E+02 2.72375E+01 0.00000E+00
 -1      2930 1.40907E+02 2.57625E+01 0.00000E+00
 -1      2931 1.39608E+02 2.50250E+01 0.00000E+00
 -1      2932 1.40907E+02 2.13375E+01 0.00000E+00
 -1      2933 1.40907E+02 1.98625E+01 0.00000E+00
 -1      2934 1.39608E+02 1.91250E+01 0.00000E+00
 -1      2935 1.39608E+02 2.20750E+01 0.00000E+00
 -1      2936 9.39270E+01 3.39970E+01 0.00000E+00
 -1      2937 9.29098E+01 3.36112E+01 0.00000E+00
 -1      2938 1.40907E+02 3.01375E+01 0.00000E+00
 -1      2939 1.40907E+02 2.86875E+01 0.00000E+00
 -1      2940 1.39608E+02 2.79500E+01 0.00000E+00
 -1      2941 1.40907E+02 3.30875E+01 0.00000E+00
 -1      2942 1.40907E+02 3.16125E+01 0.00000E+00
 -1      2943 1.39608E+02 3.08750E+01 0.00000E+00
 -1      2944 1.40907E+02 3.60375E+01 0.00000E+00
 -1      2945 1.40907E+02 3.45625E+01 0.00000E+00
 -1      2946 1.39608E+02 3.38250E+01 0.00000E+00
 -1      2947 8.76580E+01 3.00483E+01 0.00000E+00
 -1      2948 8.69674E+01 2.92162E+01 0.00000E+00
 -1      2949 9.77053E+01 1.00292E+01 0.00000E+00
 -1      2950 9.88308E+01 1.01215E+01 0.00000E+00
 -1      2951 9.32250E+00 4.05749E+01 0.00000E+00
 -1      2952 1.06860E+01 4.08389E+01 0.00000E+00
 -1      2953 1.21860E+01 4.08389E+01 0.00000E+00
 -1      2954 9.25800E+00 3.81046E+01 0.00000E+00
 -1      2955 8.91450E+00 8.42712E+00 0.00000E+00
 -1      2956 9.00393E+01 3.13836E+01 0.00000E+00
 -1      2957 8.89757E+01 3.07998E+01 0.00000E+00
 -1      2958 8.66109E+01 1.59076E+01 0.00000E+00
 -1      2959 8.72123E+01 1.48409E+01 0.00000E+00
 -1      2960 1.82850E+01 7.90325E+00 0.00000E+00
 -1      2961 1.67850E+01 7.90325E+00 0.00000E+00
 -1      2962 1.60350E+01 9.20225E+00 0.00000E+00
 -1      2963 1.90350E+01 9.20225E+00 0.00000E+00
 -1      2964 1.08817E+02 1.88856E+01 0.00000E+00
 -1      2965 1.09096E+02 2.01647E+01 0.00000E+00
 -1      2966 2.72850E+01 7.90325E+00 0.00000E+00
 -1      2967 2.57850E+01 7.90325E+00 0.00000E+00
 -1      2968 2.50350E+01 9.20225E+00 0.00000E+00
 -1      2969 2.80350E+01 9.20225E+00 0.00000E+00
 -1      2970 9.17906E+01 3.29980E+01 0.00000E+00
 -1      2971 9.09149E+01 3.21908E+01 0.00000E+00
 -1      2972 8.99705E+01 3.26507E+01 0.00000E+00
 -1      2973 1.06086E+02 3.04013E+01 0.00000E+00
 -1      2974 1.05320E+02 3.12563E+01 0.00000E+00
 -1      2975 8.48623E+01 2.30984E+01 0.00000E+00
 -1      2976 8.49642E+01 2.18420E+01 0.00000E+00
 -1      2977 9.09300E+00 1.68813E+01 0.00000E+00
 -1      2978 9.09300E+00 1.83563E+01 0.00000E+00
 -1      2979 1.03920E+01 1.90812E+01 0.00000E+00
 -1      2980 1.03920E+01 1.61437E+01 0.00000E+00
 -1      2981 1.00331E+02 1.01215E+01 0.00000E+00
 -1      2982 1.01297E+02 1.02674E+01 0.00000E+00
 -1      2983 9.50655E+01 1.01806E+01 0.00000E+00
 -1      2984 9.62537E+01 1.01454E+01 0.00000E+00
 -1      2985 9.97097E+01 3.41574E+01 0.00000E+00
 -1      2986 9.85226E+01 3.44598E+01 0.00000E+00
 -1      2987 9.09300E+00 3.15875E+01 0.00000E+00
 -1      2988 9.09300E+00 3.30625E+01 0.00000E+00
 -1      2989 8.78599E+01 1.38121E+01 0.00000E+00
 -1      2990 8.84464E+01 1.29899E+01 0.00000E+00
 -1      2991 8.99131E+01 1.21099E+01 0.00000E+00
 -1      2992 9.12157E+01 1.17230E+01 0.00000E+00
 -1      2993 8.52441E+01 2.06516E+01 0.00000E+00
 -1      2994 8.54284E+01 1.96785E+01 0.00000E+00
 -1      2995 1.41192E+02 3.96958E+01 0.00000E+00
 -1      2996 1.08840E+02 2.37688E+01 0.00000E+00
 -1      2997 1.08656E+02 2.48652E+01 0.00000E+00
 -1      2998 8.55492E+01 2.57539E+01 0.00000E+00
 -1      2999 8.51678E+01 2.46275E+01 0.00000E+00
 -1      3000 1.09070E+02 2.16135E+01 0.00000E+00
 -1      3001 1.08955E+02 2.26502E+01 0.00000E+00
 -1      3002 9.68590E+01 3.43935E+01 0.00000E+00
 -1      3003 9.54057E+01 3.42395E+01 0.00000E+00
 -1      3004 8.63080E+01 2.80211E+01 0.00000E+00
 -1      3005 8.58265E+01 2.70028E+01 0.00000E+00
 -1      3006 8.56304E+01 1.84377E+01 0.00000E+00
 -1      3007 8.60345E+01 1.72174E+01 0.00000E+00
 -1      3008 1.08079E+02 1.65125E+01 0.00000E+00
 -1      3009 1.08535E+02 1.74898E+01 0.00000E+00
 -1      3010 1.04147E+02 3.20402E+01 0.00000E+00
 -1      3011 1.03159E+02 3.26819E+01 0.00000E+00
 -1      3012 1.06868E+02 1.44492E+01 0.00000E+00
 -1      3013 1.07474E+02 1.54809E+01 0.00000E+00
 -1      3014 1.08706E+02 1.55008E+01 0.00000E+00
 -1      3015 1.08265E+02 2.60389E+01 0.00000E+00
 -1      3016 1.07874E+02 2.68995E+01 0.00000E+00
 -1      3017 9.09300E+00 3.45313E+01 0.00000E+00
 -1      3018 9.09300E+00 3.60000E+01 0.00000E+00
 -1      3019 1.03920E+01 3.37938E+01 0.00000E+00
 -1      3020 1.03920E+01 2.49750E+01 0.00000E+00
 -1      3021 9.09300E+00 2.57000E+01 0.00000E+00
 -1      3022 9.09300E+00 2.71750E+01 0.00000E+00
 -1      3023 1.00522E+02 3.47871E+01 0.00000E+00
 -1      3024 9.66450E+00 9.72612E+00 0.00000E+00
 -1      3025 1.09594E+02 1.79284E+01 0.00000E+00
 -1      3026 1.04008E+02 1.06947E+01 0.00000E+00
 -1      3027 1.04977E+02 1.06800E+01 0.00000E+00
 -1      3028 1.02898E+02 3.36762E+01 0.00000E+00
 -1      3029 1.06760E+02 1.34198E+01 0.00000E+00
 -1      3030 1.07993E+02 1.34398E+01 0.00000E+00
 -1      3031 1.06652E+02 1.23904E+01 0.00000E+00
 -1      3032 1.02508E+02 1.06947E+01 0.00000E+00
 -1      3033 1.05293E+02 3.22963E+01 0.00000E+00
 -1      3034 1.08093E+02 2.78373E+01 0.00000E+00
 -1      3035 1.39608E+02 1.61875E+01 0.00000E+00
 -1      3036 1.40907E+02 1.54500E+01 0.00000E+00
 -1      3037 1.40907E+02 1.39875E+01 0.00000E+00
 -1      3038 9.19654E+01 3.40711E+01 0.00000E+00
 -1      3039 8.47368E+01 1.87725E+01 0.00000E+00
 -1      3040 9.11533E+01 9.91977E+00 0.00000E+00
 -1      3041 9.70834E+01 9.10585E+00 0.00000E+00
 -1      3042 9.63334E+01 7.91315E+00 0.00000E+00
 -1      3043 9.48334E+01 7.91315E+00 0.00000E+00
 -1      3044 1.09850E+02 2.07730E+01 0.00000E+00
 -1      3045 8.57999E+01 2.91453E+01 0.00000E+00
 -1      3046 1.09203E+02 2.56328E+01 0.00000E+00
 -1      3047 9.45633E+01 3.49268E+01 0.00000E+00
 -1      3048 1.40706E+02 1.17875E+01 0.00000E+00
 -1      3049 9.77056E+01 3.52356E+01 0.00000E+00
 -1      3050 8.77771E+01 3.10920E+01 0.00000E+00
 -1      3051 1.41192E+02 3.82207E+01 0.00000E+00
 -1      3052 8.48632E+01 2.67012E+01 0.00000E+00
 -1      3053 1.09635E+01 1.04636E+01 0.00000E+00
 -1      3054 8.42549E+01 2.12037E+01 0.00000E+00
 -1      3055 8.67392E+01 1.38831E+01 0.00000E+00
 -1      3056 1.29360E+01 3.95399E+01 0.00000E+00
 -1      3057 9.09300E+00 2.86437E+01 0.00000E+00
 -1      3058 9.09300E+00 3.01187E+01 0.00000E+00
 -1      3059 1.03920E+01 3.08563E+01 0.00000E+00
 -1      3060 1.03920E+01 2.79188E+01 0.00000E+00
 -1      3061 9.15459E+01 1.08658E+01 0.00000E+00
 -1      3062 8.42805E+01 2.39232E+01 0.00000E+00
 -1      3063 8.33931E+01 2.32190E+01 0.00000E+00
 -1      3064 8.36986E+01 2.47480E+01 0.00000E+00
 -1      3065 8.55152E+01 1.62218E+01 0.00000E+00
 -1      3066 1.06920E+02 3.01902E+01 0.00000E+00
 -1      3067 1.09708E+02 2.33404E+01 0.00000E+00
 -1      3068 1.39529E+02 3.85602E+01 0.00000E+00
 -1      3069 1.40542E+02 3.71145E+01 0.00000E+00
 -1      3070 1.39243E+02 3.63770E+01 0.00000E+00
 -1      3071 1.38514E+02 3.85310E+01 0.00000E+00
 -1      3072 1.10704E+02 1.69775E+01 0.00000E+00
 -1      3073 1.10986E+02 1.83734E+01 0.00000E+00
 -1      3074 1.16910E+01 1.24625E+01 0.00000E+00
 -1      3075 1.16910E+01 1.39375E+01 0.00000E+00
 -1      3076 1.09156E+02 2.78127E+01 0.00000E+00
 -1      3077 1.08436E+02 2.88435E+01 0.00000E+00
 -1      3078 1.03921E+02 3.42243E+01 0.00000E+00
 -1      3079 1.02699E+02 3.48203E+01 0.00000E+00
 -1      3080 8.97703E+01 3.37464E+01 0.00000E+00
 -1      3081 8.88947E+01 3.29392E+01 0.00000E+00
 -1      3082 1.89000E+01 3.83090E+01 0.00000E+00
 -1      3083 2.04000E+01 3.83090E+01 0.00000E+00
 -1      3084 2.19000E+01 3.83090E+01 0.00000E+00
 -1      3085 2.34000E+01 3.83090E+01 0.00000E+00
 -1      3086 2.11500E+01 3.70100E+01 0.00000E+00
 -1      3087 2.49000E+01 3.83090E+01 0.00000E+00
 -1      3088 2.64000E+01 3.83090E+01 0.00000E+00
 -1      3089 2.41500E+01 3.70100E+01 0.00000E+00
 -1      3090 2.79000E+01 3.83090E+01 0.00000E+00
 -1      3091 2.94000E+01 3.83090E+01 0.00000E+00
 -1      3092 2.71500E+01 3.70100E+01 0.00000E+00
 -1      3093 3.09000E+01 3.83090E+01 0.00000E+00
 -1      3094 3.24000E+01 3.83090E+01 0.00000E+00
 -1      3095 3.01500E+01 3.70100E+01 0.00000E+00
 -1      3096 3.39000E+01 3.83090E+01 0.00000E+00
 -1      3097 3.54000E+01 3.83090E+01 0.00000E+00
 -1      3098 3.31500E+01 3.70100E+01 0.00000E+00
 -1      3099 3.69000E+01 3.83090E+01 0.00000E+00
 -1      3100 3.84000E+01 3.83090E+01 0.00000E+00
 -1      3101 3.61500E+01 3.70100E+01 0.00000E+00
 -1      3102 3.99000E+01 3.83090E+01 0.00000E+00
 -1      3103 4.14000E+01 3.83090E+01 0.00000E+00
 -1      3104 3.91500E+01 3.70100E+01 0.00000E+00
 -1      3105 4.29000E+01 3.83090E+01 0.00000E+00
 -1      3106 4.44000E+01 3.83090E+01 0.00000E+00
 -1      3107 4.21500E+01 3.70100E+01 0.00000E+00
 -1      3108 4.59000E+01 3.83090E+01 0.00000E+00
 -1      3109 4.74000E+01 3.83090E+01 0.00000E+00
 -1      3110 4.51500E+01 3.70100E+01 0.00000E+00
 -1      3111 4.89000E+01 3.83090E+01 0.00000E+00
 -1      3112 5.04000E+01 3.83090E+01 0.00000E+00
 -1      3113 4.81500E+01 3.70100E+01 0.00000E+00
 -1      3114 5.19000E+01 3.83090E+01 0.00000E+00
 -1      3115 5.34000E+01 3.83090E+01 0.00000E+00
 -1      3116 5.11500E+01 3.70100E+01 0.00000E+00
 -1      3117 5.49000E+01 3.83090E+01 0.00000E+00
 -1      3118 5.64000E+01 3.83090E+01 0.00000E+00
 -1      3119 5.41500E+01 3.70100E+01 0.00000E+00
 -1      3120 5.79000E+01 3.83090E+01 0.00000E+00
 -1      3121 5.94000E+01 3.83090E+01 0.00000E+00
 -1      3122 5.71500E+01 3.70100E+01 0.00000E+00
 -1      3123 6.09000E+01 3.83090E+01 0.00000E+00
 -1      3124 6.24000E+01 3.83090E+01 0.00000E+00
 -1      3125 6.01500E+01 3.70100E+01 0.00000E+00
 -1      3126 6.39000E+01 3.83090E+01 0.00000E+00
 -1      3127 6.54000E+01 3.83090E+01 0.00000E+00
 -1      3128 6.31500E+01 3.70100E+01 0.00000E+00
 -1      3129 6.69000E+01 3.83090E+01 0.00000E+00
 -1      3130 6.84000E+01 3.83090E+01 0.00000E+00
 -1      3131 6.61500E+01 3.70100E+01 0.00000E+00
 -1      3132 6.99000E+01 3.83090E+01 0.00000E+00
 -1      3133 7.14000E+01 3.83090E+01 0.00000E+00
 -1      3134 6.91500E+01 3.70100E+01 0.00000E+00
 -1      3135 7.29000E+01 3.83090E+01 0.00000E+00
 -1      3136 7.44000E+01 3.83090E+01 0.00000E+00
 -1      3137 7.21500E+01 3.70100E+01 0.00000E+00
 -1      3138 7.59000E+01 3.83090E+01 0.00000E+00
 -1      3139 7.74000E+01 3.83090E+01 0.00000E+00
 -1      3140 7.51500E+01 3.70100E+01 0.00000E+00
 -1      3141 7.89000E+01 3.83090E+01 0.00000E+00
 -1      3142 8.04000E+01 3.83090E+01 0.00000E+00
 -1      3143 7.81500E+01 3.70100E+01 0.00000E+00
 -1      3144 8.19000E+01 3.83090E+01 0.00000E+00
 -1      3145 8.34000E+01 3.83090E+01 0.00000E+00
 -1      3146 8.11500E+01 3.70100E+01 0.00000E+00
 -1      3147 8.49000E+01 3.83090E+01 0.00000E+00
 -1      3148 8.64000E+01 3.83090E+01 0.00000E+00
 -1      3149 8.41500E+01 3.70100E+01 0.00000E+00
 -1      3150 8.79000E+01 3.83090E+01 0.00000E+00
 -1      3151 8.94000E+01 3.83090E+01 0.00000E+00
 -1      3152 8.71500E+01 3.70100E+01 0.00000E+00
 -1      3153 9.39000E+01 3.84153E+01 0.00000E+00
 -1      3154 9.54000E+01 3.84153E+01 0.00000E+00
 -1      3155 9.99000E+01 3.84991E+01 0.00000E+00
 -1      3156 1.01400E+02 3.84991E+01 0.00000E+00
 -1      3157 1.02900E+02 3.84153E+01 0.00000E+00
 -1      3158 1.04400E+02 3.84153E+01 0.00000E+00
 -1      3159 1.05900E+02 3.84153E+01 0.00000E+00
 -1      3160 1.07400E+02 3.84153E+01 0.00000E+00
 -1      3161 1.05150E+02 3.72226E+01 0.00000E+00
 -1      3162 1.08900E+02 3.84153E+01 0.00000E+00
 -1      3163 1.10400E+02 3.84153E+01 0.00000E+00
 -1      3164 1.08150E+02 3.72226E+01 0.00000E+00
 -1      3165 1.11900E+02 3.84153E+01 0.00000E+00
 -1      3166 1.13400E+02 3.84153E+01 0.00000E+00
 -1      3167 1.11150E+02 3.72226E+01 0.00000E+00
 -1      3168 1.14900E+02 3.84153E+01 0.00000E+00
 -1      3169 1.16400E+02 3.84153E+01 0.00000E+00
 -1      3170 1.14150E+02 3.72226E+01 0.00000E+00
 -1      3171 1.17900E+02 3.84153E+01 0.00000E+00
 -1      3172 1.19400E+02 3.84153E+01 0.00000E+00
 -1      3173 1.17150E+02 3.72226E+01 0.00000E+00
 -1      3174 1.20900E+02 3.84153E+01 0.00000E+00
 -1      3175 1.22400E+02 3.84153E+01 0.00000E+00
 -1      3176 1.20150E+02 3.72226E+01 0.00000E+00
 -1      3177 1.23900E+02 3.84153E+01 0.00000E+00
 -1      3178 1.25400E+02 3.84153E+01 0.00000E+00
 -1      3179 1.23150E+02 3.72226E+01 0.00000E+00
 -1      3180 1.26900E+02 3.84153E+01 0.00000E+00
 -1      3181 1.28400E+02 3.84153E+01 0.00000E+00
 -1      3182 1.26150E+02 3.72226E+01 0.00000E+00
 -1      3183 1.29900E+02 3.84153E+01 0.00000E+00
 -1      3184 1.31400E+02 3.84153E+01 0.00000E+00
 -1      3185 1.29150E+02 3.72226E+01 0.00000E+00
 -1      3186 1.32900E+02 3.84153E+01 0.00000E+00
 -1      3187 1.34400E+02 3.84153E+01 0.00000E+00
 -1      3188 1.32150E+02 3.72226E+01 0.00000E+00
 -1      3189 1.35707E+02 3.84732E+01 0.00000E+00
 -1      3190 1.37207E+02 3.84732E+01 0.00000E+00
 -1      3191 1.37572E+02 3.73962E+01 0.00000E+00
 -1      3192 1.34957E+02 3.72805E+01 0.00000E+00
 -1      3193 8.37894E+01 1.92551E+01 0.00000E+00
 -1      3194 8.39914E+01 1.80142E+01 0.00000E+00
 -1      3195 2.27850E+01 1.05013E+01 0.00000E+00
 -1      3196 2.12850E+01 1.05013E+01 0.00000E+00
 -1      3197 3.47850E+01 1.05013E+01 0.00000E+00
 -1      3198 3.32850E+01 1.05013E+01 0.00000E+00
 -1      3199 3.17850E+01 1.05013E+01 0.00000E+00
 -1      3200 3.02850E+01 1.05013E+01 0.00000E+00
 -1      3201 3.25350E+01 1.18003E+01 0.00000E+00
 -1      3202 4.07850E+01 1.05013E+01 0.00000E+00
 -1      3203 3.92850E+01 1.05013E+01 0.00000E+00
 -1      3204 4.37850E+01 1.05013E+01 0.00000E+00
 -1      3205 4.22850E+01 1.05013E+01 0.00000E+00
 -1      3206 4.15350E+01 1.18003E+01 0.00000E+00
 -1      3207 4.67850E+01 1.05013E+01 0.00000E+00
 -1      3208 4.52850E+01 1.05013E+01 0.00000E+00
 -1      3209 4.45350E+01 1.18003E+01 0.00000E+00
 -1      3210 4.97850E+01 1.05013E+01 0.00000E+00
 -1      3211 4.82850E+01 1.05013E+01 0.00000E+00
 -1      3212 4.75350E+01 1.18003E+01 0.00000E+00
 -1      3213 5.27850E+01 1.05013E+01 0.00000E+00
 -1      3214 5.12850E+01 1.05013E+01 0.00000E+00
 -1      3215 5.05350E+01 1.18003E+01 0.00000E+00
 -1      3216 5.57850E+01 1.05013E+01 0.00000E+00
 -1      3217 5.42850E+01 1.05013E+01 0.00000E+00
 -1      3218 5.35350E+01 1.18003E+01 0.00000E+00
 -1      3219 5.87850E+01 1.05013E+01 0.00000E+00
 -1      3220 5.72850E+01 1.05013E+01 0.00000E+00
 -1      3221 5.65350E+01 1.18003E+01 0.00000E+00
 -1      3222 6.17850E+01 1.05013E+01 0.00000E+00
 -1      3223 6.02850E+01 1.05013E+01 0.00000E+00
 -1      3224 5.95350E+01 1.18003E+01 0.00000E+00
 -1      3225 6.47850E+01 1.05013E+01 0.00000E+00
 -1      3226 6.32850E+01 1.05013E+01 0.00000E+00
 -1      3227 6.25350E+01 1.18003E+01 0.00000E+00
 -1      3228 6.77850E+01 1.05013E+01 0.00000E+00
 -1      3229 6.62850E+01 1.05013E+01 0.00000E+00
 -1      3230 6.55350E+01 1.18003E+01 0.00000E+00
 -1      3231 7.07850E+01 1.05013E+01 0.00000E+00
 -1      3232 6.92850E+01 1.05013E+01 0.00000E+00
 -1      3233 6.85350E+01 1.18003E+01 0.00000E+00
 -1      3234 7.37850E+01 1.05013E+01 0.00000E+00
 -1      3235 7.22850E+01 1.05013E+01 0.00000E+00
 -1      3236 7.15350E+01 1.18003E+01 0.00000E+00
 -1      3237 7.67850E+01 1.05013E+01 0.00000E+00
 -1      3238 7.52850E+01 1.05013E+01 0.00000E+00
 -1      3239 7.45350E+01 1.18003E+01 0.00000E+00
 -1      3240 7.97850E+01 1.05013E+01 0.00000E+00
 -1      3241 7.82850E+01 1.05013E+01 0.00000E+00
 -1      3242 7.75350E+01 1.18003E+01 0.00000E+00
 -1      3243 8.27850E+01 1.05013E+01 0.00000E+00
 -1      3244 8.12850E+01 1.05013E+01 0.00000E+00
 -1      3245 8.05350E+01 1.18003E+01 0.00000E+00
 -1      3246 8.84609E+01 1.10283E+01 0.00000E+00
 -1      3247 8.69609E+01 1.10283E+01 0.00000E+00
 -1      3248 1.10960E+02 1.98222E+01 0.00000E+00
 -1      3249 1.10933E+02 2.12709E+01 0.00000E+00
 -1      3250 1.12070E+02 1.88713E+01 0.00000E+00
 -1      3251 9.42017E+01 9.92968E+00 0.00000E+00
 -1      3252 1.09210E+02 1.07000E+01 0.00000E+00
 -1      3253 1.07710E+02 1.07000E+01 0.00000E+00
 -1      3254 1.12785E+02 1.02886E+01 0.00000E+00
 -1      3255 1.11285E+02 1.02886E+01 0.00000E+00
 -1      3256 1.15785E+02 1.02886E+01 0.00000E+00
 -1      3257 1.14285E+02 1.02886E+01 0.00000E+00
 -1      3258 1.13535E+02 1.15876E+01 0.00000E+00
 -1      3259 1.18785E+02 1.02886E+01 0.00000E+00
 -1      3260 1.17285E+02 1.02886E+01 0.00000E+00
 -1      3261 1.16535E+02 1.15876E+01 0.00000E+00
 -1      3262 1.21785E+02 1.02886E+01 0.00000E+00
 -1      3263 1.20285E+02 1.02886E+01 0.00000E+00
 -1      3264 1.19535E+02 1.15876E+01 0.00000E+00
 -1      3265 1.24785E+02 1.02886E+01 0.00000E+00
 -1      3266 1.23285E+02 1.02886E+01 0.00000E+00
 -1      3267 1.22535E+02 1.15876E+01 0.00000E+00
 -1      3268 1.27785E+02 1.02886E+01 0.00000E+00
 -1      3269 1.26285E+02 1.02886E+01 0.00000E+00
 -1      3270 1.25535E+02 1.15876E+01 0.00000E+00
 -1      3271 1.30785E+02 1.02886E+01 0.00000E+00
 -1      3272 1.29285E+02 1.02886E+01 0.00000E+00
 -1      3273 1.28535E+02 1.15876E+01 0.00000E+00
 -1      3274 1.33785E+02 1.02886E+01 0.00000E+00
 -1      3275 1.32285E+02 1.02886E+01 0.00000E+00
 -1      3276 1.31535E+02 1.15876E+01 0.00000E+00
 -1      3277 1.16910E+01 2.12875E+01 0.00000E+00
 -1      3278 1.16910E+01 2.27625E+01 0.00000E+00
 -1      3279 1.38309E+02 2.57625E+01 0.00000E+00
 -1      3280 1.38309E+02 2.42875E+01 0.00000E+00
 -1      3281 1.38309E+02 3.45625E+01 0.00000E+00
 -1      3282 1.38309E+02 3.30875E+01 0.00000E+00
 -1      3283 1.38309E+02 2.86625E+01 0.00000E+00
 -1      3284 1.38309E+02 2.72125E+01 0.00000E+00
 -1      3285 1.37010E+02 2.64750E+01 0.00000E+00
 -1      3286 8.50854E+01 3.03191E+01 0.00000E+00
 -1      3287 8.44259E+01 2.91239E+01 0.00000E+00
 -1      3288 1.10212E+02 2.53168E+01 0.00000E+00
 -1      3289 1.09821E+02 2.64905E+01 0.00000E+00
 -1      3290 8.88535E+01 1.19744E+01 0.00000E+00
 -1      3291 8.31986E+01 2.15835E+01 0.00000E+00
 -1      3292 8.34785E+01 2.03930E+01 0.00000E+00
 -1      3293 1.05570E+01 3.73671E+01 0.00000E+00
 -1      3294 1.27710E+01 3.74352E+01 0.00000E+00
 -1      3295 1.49850E+01 3.75034E+01 0.00000E+00
 -1      3296 1.26060E+01 3.53306E+01 0.00000E+00
 -1      3297 1.38309E+02 3.16125E+01 0.00000E+00
 -1      3298 1.38309E+02 3.01375E+01 0.00000E+00
 -1      3299 1.37010E+02 2.94000E+01 0.00000E+00
 -1      3300 1.37010E+02 3.23500E+01 0.00000E+00
 -1      3301 1.06477E+02 1.06800E+01 0.00000E+00
 -1      3302 1.01163E+02 3.58312E+01 0.00000E+00
 -1      3303 1.00010E+02 3.63461E+01 0.00000E+00
 -1      3304 3.77850E+01 1.05013E+01 0.00000E+00
 -1      3305 3.62850E+01 1.05013E+01 0.00000E+00
 -1      3306 3.55350E+01 1.18003E+01 0.00000E+00
 -1      3307 3.85350E+01 1.18003E+01 0.00000E+00
 -1      3308 9.20727E+01 3.52032E+01 0.00000E+00
 -1      3309 9.09535E+01 3.45900E+01 0.00000E+00
 -1      3310 9.84932E+01 3.63769E+01 0.00000E+00
 -1      3311 9.68296E+01 3.63105E+01 0.00000E+00
 -1      3312 1.61925E+01 3.79062E+01 0.00000E+00
 -1      3313 1.76925E+01 3.79062E+01 0.00000E+00
 -1      3314 1.84425E+01 3.66072E+01 0.00000E+00
 -1      3315 1.60275E+01 3.58016E+01 0.00000E+00
 -1      3316 1.10785E+02 2.28856E+01 0.00000E+00
 -1      3317 1.10671E+02 2.40043E+01 0.00000E+00
 -1      3318 8.75769E+01 3.21877E+01 0.00000E+00
 -1      3319 8.62592E+01 3.14362E+01 0.00000E+00
 -1      3320 8.73767E+01 3.32834E+01 0.00000E+00
 -1      3321 8.37557E+01 2.76023E+01 0.00000E+00
 -1      3322 8.34784E+01 2.63534E+01 0.00000E+00
 -1      3323 8.55478E+01 1.38514E+01 0.00000E+00
 -1      3324 8.61954E+01 1.28226E+01 0.00000E+00
 -1      3325 8.42887E+01 1.64638E+01 0.00000E+00
 -1      3326 8.48651E+01 1.51540E+01 0.00000E+00
 -1      3327 1.39407E+02 1.25250E+01 0.00000E+00
 -1      3328 1.26488E+01 1.02017E+01 0.00000E+00
 -1      3329 1.20772E+01 1.14631E+01 0.00000E+00
 -1      3330 1.33763E+01 1.22006E+01 0.00000E+00
 -1      3331 1.41488E+01 1.02017E+01 0.00000E+00
 -1      3332 1.07983E+02 3.01657E+01 0.00000E+00
 -1      3333 1.07530E+02 3.14879E+01 0.00000E+00
 -1      3334 1.09046E+02 3.01411E+01 0.00000E+00
 -1      3335 1.06450E+02 3.27568E+01 0.00000E+00
 -1      3336 1.05276E+02 3.35407E+01 0.00000E+00
 -1      3337 1.09360E+02 1.44237E+01 0.00000E+00
 -1      3338 1.09966E+02 1.54554E+01 0.00000E+00
 -1      3339 9.53460E+01 3.61959E+01 0.00000E+00
 -1      3340 9.38673E+01 3.59534E+01 0.00000E+00
 -1      3341 8.57695E+01 1.09966E+01 0.00000E+00
 -1      3342 1.16910E+01 2.42375E+01 0.00000E+00
 -1      3343 1.16910E+01 2.57125E+01 0.00000E+00
 -1      3344 1.29900E+01 2.35000E+01 0.00000E+00
 -1      3345 1.29900E+01 1.46687E+01 0.00000E+00
 -1      3346 1.16910E+01 1.54063E+01 0.00000E+00
 -1      3347 1.16910E+01 1.68750E+01 0.00000E+00
 -1      3348 1.05078E+02 3.46848E+01 0.00000E+00
 -1      3349 1.02186E+02 3.63793E+01 0.00000E+00
 -1      3350 8.25911E+01 2.56492E+01 0.00000E+00
 -1      3351 1.26060E+01 3.23931E+01 0.00000E+00
 -1      3352 1.26060E+01 3.38619E+01 0.00000E+00
 -1      3353 1.48200E+01 3.39300E+01 0.00000E+00
 -1      3354 9.61336E+01 3.73372E+01 0.00000E+00
 -1      3355 9.68836E+01 3.85299E+01 0.00000E+00
 -1      3356 1.38309E+02 1.69188E+01 0.00000E+00
 -1      3357 1.38309E+02 1.54563E+01 0.00000E+00
 -1      3358 8.98554E+01 3.63661E+01 0.00000E+00
 -1      3359 9.06054E+01 3.76651E+01 0.00000E+00
 -1      3360 9.21054E+01 3.76651E+01 0.00000E+00
 -1      3361 9.83836E+01 3.85299E+01 0.00000E+00
 -1      3362 8.33413E+01 1.69464E+01 0.00000E+00
 -1      3363 2.42850E+01 1.05013E+01 0.00000E+00
 -1      3364 2.35350E+01 1.18003E+01 0.00000E+00
 -1      3365 2.57850E+01 1.05013E+01 0.00000E+00
 -1      3366 2.05350E+01 1.18003E+01 0.00000E+00
 -1      3367 1.97850E+01 1.05013E+01 0.00000E+00
 -1      3368 1.82850E+01 1.05013E+01 0.00000E+00
 -1      3369 8.98776E+01 3.48786E+01 0.00000E+00
 -1      3370 2.95350E+01 1.18003E+01 0.00000E+00
 -1      3371 2.87850E+01 1.05013E+01 0.00000E+00
 -1      3372 2.72850E+01 1.05013E+01 0.00000E+00
 -1      3373 8.42695E+01 1.09966E+01 0.00000E+00
 -1      3374 8.35195E+01 1.22956E+01 0.00000E+00
 -1      3375 1.11895E+02 2.19348E+01 0.00000E+00
 -1      3376 1.26060E+01 2.94556E+01 0.00000E+00
 -1      3377 1.26060E+01 3.09244E+01 0.00000E+00
 -1      3378 1.48200E+01 3.09925E+01 0.00000E+00
 -1      3379 1.09960E+02 1.19990E+01 0.00000E+00
 -1      3380 1.34953E+02 1.06225E+01 0.00000E+00
 -1      3381 1.34203E+02 1.19215E+01 0.00000E+00
 -1      3382 1.36120E+02 1.09563E+01 0.00000E+00
 -1      3383 1.16910E+01 1.98188E+01 0.00000E+00
 -1      3384 1.29900E+01 2.05562E+01 0.00000E+00
 -1      3385 1.16910E+01 1.83500E+01 0.00000E+00
 -1      3386 1.38309E+02 1.98687E+01 0.00000E+00
 -1      3387 1.38309E+02 1.83937E+01 0.00000E+00
 -1      3388 1.37010E+02 1.76625E+01 0.00000E+00
 -1      3389 1.11289E+02 2.48620E+01 0.00000E+00
 -1      3390 1.38309E+02 2.28156E+01 0.00000E+00
 -1      3391 1.38309E+02 2.13406E+01 0.00000E+00
 -1      3392 1.37010E+02 2.06094E+01 0.00000E+00
 -1      3393 1.37010E+02 2.35531E+01 0.00000E+00
 -1      3394 8.48852E+01 3.14148E+01 0.00000E+00
 -1      3395 1.10165E+02 2.74967E+01 0.00000E+00
 -1      3396 1.11358E+02 1.59004E+01 0.00000E+00
 -1      3397 8.30412E+01 2.87761E+01 0.00000E+00
 -1      3398 8.26167E+01 2.24083E+01 0.00000E+00
 -1      3399 8.18403E+01 2.15976E+01 0.00000E+00
 -1      3400 8.20349E+01 2.32331E+01 0.00000E+00
 -1      3401 9.28554E+01 3.64724E+01 0.00000E+00
 -1      3402 9.91336E+01 3.74209E+01 0.00000E+00
 -1      3403 1.08575E+02 3.27077E+01 0.00000E+00
 -1      3404 1.07512E+02 3.27322E+01 0.00000E+00
 -1      3405 1.07495E+02 3.39766E+01 0.00000E+00
 -1      3406 1.69669E+01 1.03515E+01 0.00000E+00
 -1      3407 1.54669E+01 1.03515E+01 0.00000E+00
 -1      3408 1.50806E+01 1.13509E+01 0.00000E+00
 -1      3409 1.77169E+01 1.16505E+01 0.00000E+00
 -1      3410 8.99276E+01 1.01483E+01 0.00000E+00
 -1      3411 8.27331E+01 1.96348E+01 0.00000E+00
 -1      3412 8.43214E+01 1.40935E+01 0.00000E+00
 -1      3413 1.38214E+02 1.37432E+01 0.00000E+00
 -1      3414 1.38013E+02 1.15432E+01 0.00000E+00
 -1      3415 1.37758E+02 3.65178E+01 0.00000E+00
 -1      3416 1.38123E+02 3.54408E+01 0.00000E+00
 -1      3417 1.36824E+02 3.47033E+01 0.00000E+00
 -1      3418 1.36451E+02 3.64600E+01 0.00000E+00
 -1      3419 1.09252E+02 1.33943E+01 0.00000E+00
 -1      3420 8.86722E+01 3.55225E+01 0.00000E+00
 -1      3421 1.12407E+02 2.45163E+01 0.00000E+00
 -1      3422 1.11948E+02 2.58288E+01 0.00000E+00
 -1      3423 1.11327E+02 1.29830E+01 0.00000E+00
 -1      3424 1.36915E+02 1.44744E+01 0.00000E+00
 -1      3425 2.34000E+01 3.57110E+01 0.00000E+00
 -1      3426 2.49000E+01 3.57110E+01 0.00000E+00
 -1      3427 2.64000E+01 3.57110E+01 0.00000E+00
 -1      3428 2.79000E+01 3.57110E+01 0.00000E+00
 -1      3429 2.56500E+01 3.44120E+01 0.00000E+00
 -1      3430 2.94000E+01 3.57110E+01 0.00000E+00
 -1      3431 3.09000E+01 3.57110E+01 0.00000E+00
 -1      3432 2.86500E+01 3.44120E+01 0.00000E+00
 -1      3433 3.24000E+01 3.57110E+01 0.00000E+00
 -1      3434 3.39000E+01 3.57110E+01 0.00000E+00
 -1      3435 3.16500E+01 3.44120E+01 0.00000E+00
 -1      3436 3.54000E+01 3.57110E+01 0.00000E+00
 -1      3437 3.69000E+01 3.57110E+01 0.00000E+00
 -1      3438 3.46500E+01 3.44120E+01 0.00000E+00
 -1      3439 3.84000E+01 3.57110E+01 0.00000E+00
 -1      3440 3.99000E+01 3.57110E+01 0.00000E+00
 -1      3441 3.76500E+01 3.44120E+01 0.00000E+00
 -1      3442 4.14000E+01 3.57110E+01 0.00000E+00
 -1      3443 4.29000E+01 3.57110E+01 0.00000E+00
 -1      3444 4.06500E+01 3.44120E+01 0.00000E+00
 -1      3445 4.44000E+01 3.57110E+01 0.00000E+00
 -1      3446 4.59000E+01 3.57110E+01 0.00000E+00
 -1      3447 4.36500E+01 3.44120E+01 0.00000E+00
 -1      3448 4.74000E+01 3.57110E+01 0.00000E+00
 -1      3449 4.89000E+01 3.57110E+01 0.00000E+00
 -1      3450 4.66500E+01 3.44120E+01 0.00000E+00
 -1      3451 5.04000E+01 3.57110E+01 0.00000E+00
 -1      3452 5.19000E+01 3.57110E+01 0.00000E+00
 -1      3453 4.96500E+01 3.44120E+01 0.00000E+00
 -1      3454 5.34000E+01 3.57110E+01 0.00000E+00
 -1      3455 5.49000E+01 3.57110E+01 0.00000E+00
 -1      3456 5.26500E+01 3.44120E+01 0.00000E+00
 -1      3457 5.64000E+01 3.57110E+01 0.00000E+00
 -1      3458 5.79000E+01 3.57110E+01 0.00000E+00
 -1      3459 5.56500E+01 3.44120E+01 0.00000E+00
 -1      3460 5.94000E+01 3.57110E+01 0.00000E+00
 -1      3461 6.09000E+01 3.57110E+01 0.00000E+00
 -1      3462 5.86500E+01 3.44120E+01 0.00000E+00
 -1      3463 6.24000E+01 3.57110E+01 0.00000E+00
 -1      3464 6.39000E+01 3.57110E+01 0.00000E+00
 -1      3465 6.16500E+01 3.44120E+01 0.00000E+00
 -1      3466 6.54000E+01 3.57110E+01 0.00000E+00
 -1      3467 6.69000E+01 3.57110E+01 0.00000E+00
 -1      3468 6.46500E+01 3.44120E+01 0.00000E+00
 -1      3469 6.84000E+01 3.57110E+01 0.00000E+00
 -1      3470 6.99000E+01 3.57110E+01 0.00000E+00
 -1      3471 6.76500E+01 3.44120E+01 0.00000E+00
 -1      3472 7.14000E+01 3.57110E+01 0.00000E+00
 -1      3473 7.29000E+01 3.57110E+01 0.00000E+00
 -1      3474 7.06500E+01 3.44120E+01 0.00000E+00
 -1      3475 7.44000E+01 3.57110E+01 0.00000E+00
 -1      3476 7.59000E+01 3.57110E+01 0.00000E+00
 -1      3477 7.36500E+01 3.44120E+01 0.00000E+00
 -1      3478 7.74000E+01 3.57110E+01 0.00000E+00
 -1      3479 7.89000E+01 3.57110E+01 0.00000E+00
 -1      3480 7.66500E+01 3.44120E+01 0.00000E+00
 -1      3481 8.04000E+01 3.57110E+01 0.00000E+00
 -1      3482 8.19000E+01 3.57110E+01 0.00000E+00
 -1      3483 7.96500E+01 3.44120E+01 0.00000E+00
 -1      3484 8.71722E+01 3.55225E+01 0.00000E+00
 -1      3485 1.02150E+02 3.73064E+01 0.00000E+00
 -1      3486 1.07604E+02 3.55873E+01 0.00000E+00
 -1      3487 1.09104E+02 3.55873E+01 0.00000E+00
 -1      3488 1.10604E+02 3.55873E+01 0.00000E+00
 -1      3489 1.12104E+02 3.55873E+01 0.00000E+00
 -1      3490 1.10058E+02 3.39521E+01 0.00000E+00
 -1      3491 1.13604E+02 3.55873E+01 0.00000E+00
 -1      3492 1.15104E+02 3.55873E+01 0.00000E+00
 -1      3493 1.13058E+02 3.39521E+01 0.00000E+00
 -1      3494 1.16604E+02 3.55873E+01 0.00000E+00
 -1      3495 1.18104E+02 3.55873E+01 0.00000E+00
 -1      3496 1.16058E+02 3.39521E+01 0.00000E+00
 -1      3497 1.19604E+02 3.55873E+01 0.00000E+00
 -1      3498 1.21104E+02 3.55873E+01 0.00000E+00
 -1      3499 1.19058E+02 3.39521E+01 0.00000E+00
 -1      3500 1.22604E+02 3.55873E+01 0.00000E+00
 -1      3501 1.24104E+02 3.55873E+01 0.00000E+00
 -1      3502 1.22058E+02 3.39521E+01 0.00000E+00
 -1      3503 1.25604E+02 3.55873E+01 0.00000E+00
 -1      3504 1.27104E+02 3.55873E+01 0.00000E+00
 -1      3505 1.25058E+02 3.39521E+01 0.00000E+00
 -1      3506 1.28604E+02 3.55873E+01 0.00000E+00
 -1      3507 1.30104E+02 3.55873E+01 0.00000E+00
 -1      3508 1.28058E+02 3.39521E+01 0.00000E+00
 -1      3509 1.31604E+02 3.55873E+01 0.00000E+00
 -1      3510 1.33104E+02 3.55873E+01 0.00000E+00
 -1      3511 1.31058E+02 3.39521E+01 0.00000E+00
 -1      3512 1.12990E+02 2.12207E+01 0.00000E+00
 -1      3513 1.12842E+02 2.28354E+01 0.00000E+00
 -1      3514 4.52850E+01 1.30992E+01 0.00000E+00
 -1      3515 4.37850E+01 1.30992E+01 0.00000E+00
 -1      3516 4.22850E+01 1.30992E+01 0.00000E+00
 -1      3517 4.07850E+01 1.30992E+01 0.00000E+00
 -1      3518 4.30350E+01 1.43982E+01 0.00000E+00
 -1      3519 5.12850E+01 1.30992E+01 0.00000E+00
 -1      3520 4.97850E+01 1.30992E+01 0.00000E+00
 -1      3521 5.42850E+01 1.30992E+01 0.00000E+00
 -1      3522 5.27850E+01 1.30992E+01 0.00000E+00
 -1      3523 5.20350E+01 1.43982E+01 0.00000E+00
 -1      3524 5.72850E+01 1.30992E+01 0.00000E+00
 -1      3525 5.57850E+01 1.30992E+01 0.00000E+00
 -1      3526 5.50350E+01 1.43982E+01 0.00000E+00
 -1      3527 6.02850E+01 1.30992E+01 0.00000E+00
 -1      3528 5.87850E+01 1.30992E+01 0.00000E+00
 -1      3529 5.80350E+01 1.43982E+01 0.00000E+00
 -1      3530 6.32850E+01 1.30992E+01 0.00000E+00
 -1      3531 6.17850E+01 1.30992E+01 0.00000E+00
 -1      3532 6.10350E+01 1.43982E+01 0.00000E+00
 -1      3533 6.62850E+01 1.30992E+01 0.00000E+00
 -1      3534 6.47850E+01 1.30992E+01 0.00000E+00
 -1      3535 6.40350E+01 1.43982E+01 0.00000E+00
 -1      3536 6.92850E+01 1.30992E+01 0.00000E+00
 -1      3537 6.77850E+01 1.30992E+01 0.00000E+00
 -1      3538 6.70350E+01 1.43982E+01 0.00000E+00
 -1      3539 7.22850E+01 1.30992E+01 0.00000E+00
 -1      3540 7.07850E+01 1.30992E+01 0.00000E+00
 -1      3541 7.00350E+01 1.43982E+01 0.00000E+00
 -1      3542 7.52850E+01 1.30992E+01 0.00000E+00
 -1      3543 7.37850E+01 1.30992E+01 0.00000E+00
 -1      3544 7.30350E+01 1.43982E+01 0.00000E+00
 -1      3545 7.82850E+01 1.30992E+01 0.00000E+00
 -1      3546 7.67850E+01 1.30992E+01 0.00000E+00
 -1      3547 7.60350E+01 1.43982E+01 0.00000E+00
 -1      3548 8.12850E+01 1.30992E+01 0.00000E+00
 -1      3549 7.97850E+01 1.30992E+01 0.00000E+00
 -1      3550 7.90350E+01 1.43982E+01 0.00000E+00
 -1      3551 1.17285E+02 1.28866E+01 0.00000E+00
 -1      3552 1.15785E+02 1.28866E+01 0.00000E+00
 -1      3553 3.32850E+01 1.30992E+01 0.00000E+00
 -1      3554 3.17850E+01 1.30992E+01 0.00000E+00
 -1      3555 1.14306E+02 1.29348E+01 0.00000E+00
 -1      3556 1.12806E+02 1.29348E+01 0.00000E+00
 -1      3557 1.12098E+02 1.43301E+01 0.00000E+00
 -1      3558 1.15056E+02 1.42338E+01 0.00000E+00
 -1      3559 1.23285E+02 1.28866E+01 0.00000E+00
 -1      3560 1.21785E+02 1.28866E+01 0.00000E+00
 -1      3561 1.26285E+02 1.28866E+01 0.00000E+00
 -1      3562 1.24785E+02 1.28866E+01 0.00000E+00
 -1      3563 1.24035E+02 1.41856E+01 0.00000E+00
 -1      3564 1.29285E+02 1.28866E+01 0.00000E+00
 -1      3565 1.27785E+02 1.28866E+01 0.00000E+00
 -1      3566 1.27035E+02 1.41856E+01 0.00000E+00
 -1      3567 1.32285E+02 1.28866E+01 0.00000E+00
 -1      3568 1.30785E+02 1.28866E+01 0.00000E+00
 -1      3569 1.30035E+02 1.41856E+01 0.00000E+00
 -1      3570 1.36845E+02 1.12093E+01 0.00000E+00
 -1      3571 8.46498E+01 3.28373E+01 0.00000E+00
 -1      3572 8.34760E+01 3.17202E+01 0.00000E+00
 -1      3573 1.35711E+02 2.72000E+01 0.00000E+00
 -1      3574 1.35711E+02 2.57500E+01 0.00000E+00
 -1      3575 1.20285E+02 1.28866E+01 0.00000E+00
 -1      3576 1.18785E+02 1.28866E+01 0.00000E+00
 -1      3577 1.18035E+02 1.41856E+01 0.00000E+00
 -1      3578 4.82850E+01 1.30992E+01 0.00000E+00
 -1      3579 4.67850E+01 1.30992E+01 0.00000E+00
 -1      3580 4.60350E+01 1.43982E+01 0.00000E+00
 -1      3581 4.90350E+01 1.43982E+01 0.00000E+00
 -1      3582 1.46944E+01 1.23503E+01 0.00000E+00
 -1      3583 1.43081E+01 1.33498E+01 0.00000E+00
 -1      3584 1.60125E+01 1.25001E+01 0.00000E+00
 -1      3585 8.21036E+01 1.75128E+01 0.00000E+00
 -1      3586 8.24009E+01 1.59624E+01 0.00000E+00
 -1      3587 8.13824E+01 2.63012E+01 0.00000E+00
 -1      3588 8.16025E+01 2.46958E+01 0.00000E+00
 -1      3589 2.04000E+01 3.57110E+01 0.00000E+00
 -1      3590 2.19000E+01 3.57110E+01 0.00000E+00
 -1      3591 2.26500E+01 3.44120E+01 0.00000E+00
 -1      3592 8.28368E+01 1.35981E+01 0.00000E+00
 -1      3593 1.60275E+01 3.28641E+01 0.00000E+00
 -1      3594 1.60275E+01 3.43328E+01 0.00000E+00
 -1      3595 1.72350E+01 3.47356E+01 0.00000E+00
 -1      3596 1.12837E+02 1.58523E+01 0.00000E+00
 -1      3597 1.13359E+02 1.81705E+01 0.00000E+00
 -1      3598 1.13333E+02 1.96193E+01 0.00000E+00
 -1      3599 8.58545E+01 3.47710E+01 0.00000E+00
 -1      3600 1.11338E+02 2.72588E+01 0.00000E+00
 -1      3601 1.10673E+02 2.85810E+01 0.00000E+00
 -1      3602 1.21485E+01 2.68497E+01 0.00000E+00
 -1      3603 1.21485E+01 2.83184E+01 0.00000E+00
 -1      3604 1.43625E+01 2.83866E+01 0.00000E+00
 -1      3605 1.34475E+01 2.61122E+01 0.00000E+00
 -1      3606 8.14818E+01 1.97888E+01 0.00000E+00
 -1      3607 8.17927E+01 1.86508E+01 0.00000E+00
 -1      3608 8.08523E+01 1.76667E+01 0.00000E+00
 -1      3609 8.22081E+01 3.00515E+01 0.00000E+00
 -1      3610 8.15379E+01 2.85299E+01 0.00000E+00
 -1      3611 1.10220E+02 2.99032E+01 0.00000E+00
 -1      3612 1.09766E+02 3.12254E+01 0.00000E+00
 -1      3613 1.11393E+02 2.96653E+01 0.00000E+00
 -1      3614 8.44453E+01 3.50764E+01 0.00000E+00
 -1      3615 1.43081E+01 1.48185E+01 0.00000E+00
 -1      3616 1.13502E+02 2.38023E+01 0.00000E+00
 -1      3617 8.20868E+01 1.48971E+01 0.00000E+00
 -1      3618 1.06541E+02 3.56119E+01 0.00000E+00
 -1      3619 1.21035E+02 1.41856E+01 0.00000E+00
 -1      3620 8.21953E+01 3.37774E+01 0.00000E+00
 -1      3621 8.29453E+01 3.50764E+01 0.00000E+00
 -1      3622 3.47850E+01 1.30992E+01 0.00000E+00
 -1      3623 3.40350E+01 1.43982E+01 0.00000E+00
 -1      3624 3.62850E+01 1.30992E+01 0.00000E+00
 -1      3625 2.65350E+01 1.18003E+01 0.00000E+00
 -1      3626 1.35665E+02 1.54030E+01 0.00000E+00
 -1      3627 1.35570E+02 1.36899E+01 0.00000E+00
 -1      3628 8.08491E+01 1.54635E+01 0.00000E+00
 -1      3629 1.14280E+02 2.05200E+01 0.00000E+00
 -1      3630 2.12850E+01 1.30992E+01 0.00000E+00
 -1      3631 1.97850E+01 1.30992E+01 0.00000E+00
 -1      3632 3.02850E+01 1.30992E+01 0.00000E+00
 -1      3633 2.87850E+01 1.30992E+01 0.00000E+00
 -1      3634 3.10350E+01 1.43982E+01 0.00000E+00
 -1      3635 4.00350E+01 1.43982E+01 0.00000E+00
 -1      3636 3.92850E+01 1.30992E+01 0.00000E+00
 -1      3637 3.77850E+01 1.30992E+01 0.00000E+00
 -1      3638 1.35665E+02 1.68780E+01 0.00000E+00
 -1      3639 1.34321E+02 1.60935E+01 0.00000E+00
 -1      3640 1.35665E+02 1.83530E+01 0.00000E+00
 -1      3641 2.27850E+01 1.30992E+01 0.00000E+00
 -1      3642 2.20350E+01 1.43982E+01 0.00000E+00
 -1      3643 2.42850E+01 1.30992E+01 0.00000E+00
 -1      3644 1.05186E+02 3.62955E+01 0.00000E+00
 -1      3645 1.03686E+02 3.62955E+01 0.00000E+00
 -1      3646 8.08999E+01 2.06136E+01 0.00000E+00
 -1      3647 7.99595E+01 1.96295E+01 0.00000E+00
 -1      3648 8.03181E+01 2.14384E+01 0.00000E+00
 -1      3649 1.42890E+01 2.27625E+01 0.00000E+00
 -1      3650 1.42890E+01 2.42375E+01 0.00000E+00
 -1      3651 1.36095E+02 1.25083E+01 0.00000E+00
 -1      3652 1.33678E+02 1.31031E+01 0.00000E+00
 -1      3653 1.32928E+02 1.44021E+01 0.00000E+00
 -1      3654 1.35711E+02 2.86750E+01 0.00000E+00
 -1      3655 1.34412E+02 2.79500E+01 0.00000E+00
 -1      3656 1.35711E+02 3.01500E+01 0.00000E+00
 -1      3657 1.29900E+01 1.76125E+01 0.00000E+00
 -1      3658 1.42890E+01 1.98250E+01 0.00000E+00
 -1      3659 1.42890E+01 2.12938E+01 0.00000E+00
 -1      3660 1.55880E+01 2.20313E+01 0.00000E+00
 -1      3661 1.35711E+02 2.42781E+01 0.00000E+00
 -1      3662 1.35711E+02 2.28062E+01 0.00000E+00
 -1      3663 1.34412E+02 2.50031E+01 0.00000E+00
 -1      3664 8.08262E+01 2.38851E+01 0.00000E+00
 -1      3665 8.05493E+01 2.75765E+01 0.00000E+00
 -1      3666 7.95608E+01 2.66232E+01 0.00000E+00
 -1      3667 7.97163E+01 2.88519E+01 0.00000E+00
 -1      3668 1.12456E+02 2.69131E+01 0.00000E+00
 -1      3669 1.10075E+02 3.27077E+01 0.00000E+00
 -1      3670 1.14578E+02 1.54170E+01 0.00000E+00
 -1      3671 1.13838E+02 1.69873E+01 0.00000E+00
 -1      3672 1.15100E+02 1.77353E+01 0.00000E+00
 -1      3673 1.16057E+02 1.53689E+01 0.00000E+00
 -1      3674 1.60275E+01 3.13953E+01 0.00000E+00
 -1      3675 1.72350E+01 3.17981E+01 0.00000E+00
 -1      3676 1.60275E+01 2.99266E+01 0.00000E+00
 -1      3677 1.82138E+01 3.50219E+01 0.00000E+00
 -1      3678 1.94212E+01 3.54247E+01 0.00000E+00
 -1      3679 2.01712E+01 3.41257E+01 0.00000E+00
 -1      3680 1.82138E+01 3.35532E+01 0.00000E+00
 -1      3681 1.11249E+02 3.24698E+01 0.00000E+00
 -1      3682 8.19727E+01 3.14740E+01 0.00000E+00
 -1      3683 1.27785E+02 1.54846E+01 0.00000E+00
 -1      3684 1.26285E+02 1.54846E+01 0.00000E+00
 -1      3685 2.49000E+01 3.31130E+01 0.00000E+00
 -1      3686 2.64000E+01 3.31130E+01 0.00000E+00
 -1      3687 7.95463E+01 1.79214E+01 0.00000E+00
 -1      3688 7.98572E+01 1.67834E+01 0.00000E+00
 -1      3689 8.02887E+01 3.32603E+01 0.00000E+00
 -1      3690 8.13340E+01 3.26257E+01 0.00000E+00
 -1      3691 8.00661E+01 3.09569E+01 0.00000E+00
 -1      3692 7.87887E+01 3.32603E+01 0.00000E+00
 -1      3693 2.79000E+01 3.31130E+01 0.00000E+00
 -1      3694 2.94000E+01 3.31130E+01 0.00000E+00
 -1      3695 2.71500E+01 3.18140E+01 0.00000E+00
 -1      3696 3.09000E+01 3.31130E+01 0.00000E+00
 -1      3697 3.24000E+01 3.31130E+01 0.00000E+00
 -1      3698 3.01500E+01 3.18140E+01 0.00000E+00
 -1      3699 3.39000E+01 3.31130E+01 0.00000E+00
 -1      3700 3.54000E+01 3.31130E+01 0.00000E+00
 -1      3701 3.31500E+01 3.18140E+01 0.00000E+00
 -1      3702 3.69000E+01 3.31130E+01 0.00000E+00
 -1      3703 3.84000E+01 3.31130E+01 0.00000E+00
 -1      3704 3.61500E+01 3.18140E+01 0.00000E+00
 -1      3705 3.99000E+01 3.31130E+01 0.00000E+00
 -1      3706 4.14000E+01 3.31130E+01 0.00000E+00
 -1      3707 3.91500E+01 3.18140E+01 0.00000E+00
 -1      3708 4.29000E+01 3.31130E+01 0.00000E+00
 -1      3709 4.44000E+01 3.31130E+01 0.00000E+00
 -1      3710 4.21500E+01 3.18140E+01 0.00000E+00
 -1      3711 4.59000E+01 3.31130E+01 0.00000E+00
 -1      3712 4.74000E+01 3.31130E+01 0.00000E+00
 -1      3713 4.51500E+01 3.18140E+01 0.00000E+00
 -1      3714 4.89000E+01 3.31130E+01 0.00000E+00
 -1      3715 5.04000E+01 3.31130E+01 0.00000E+00
 -1      3716 4.81500E+01 3.18140E+01 0.00000E+00
 -1      3717 5.19000E+01 3.31130E+01 0.00000E+00
 -1      3718 5.34000E+01 3.31130E+01 0.00000E+00
 -1      3719 5.11500E+01 3.18140E+01 0.00000E+00
 -1      3720 5.49000E+01 3.31130E+01 0.00000E+00
 -1      3721 5.64000E+01 3.31130E+01 0.00000E+00
 -1      3722 5.41500E+01 3.18140E+01 0.00000E+00
 -1      3723 5.79000E+01 3.31130E+01 0.00000E+00
 -1      3724 5.94000E+01 3.31130E+01 0.00000E+00
 -1      3725 5.71500E+01 3.18140E+01 0.00000E+00
 -1      3726 6.09000E+01 3.31130E+01 0.00000E+00
 -1      3727 6.24000E+01 3.31130E+01 0.00000E+00
 -1      3728 6.01500E+01 3.18140E+01 0.00000E+00
 -1      3729 6.39000E+01 3.31130E+01 0.00000E+00
 -1      3730 6.54000E+01 3.31130E+01 0.00000E+00
 -1      3731 6.31500E+01 3.18140E+01 0.00000E+00
 -1      3732 6.69000E+01 3.31130E+01 0.00000E+00
 -1      3733 6.84000E+01 3.31130E+01 0.00000E+00
 -1      3734 6.61500E+01 3.18140E+01 0.00000E+00
 -1      3735 6.99000E+01 3.31130E+01 0.00000E+00
 -1      3736 7.14000E+01 3.31130E+01 0.00000E+00
 -1      3737 6.91500E+01 3.18140E+01 0.00000E+00
 -1      3738 7.29000E+01 3.31130E+01 0.00000E+00
 -1      3739 7.44000E+01 3.31130E+01 0.00000E+00
 -1      3740 7.21500E+01 3.18140E+01 0.00000E+00
 -1      3741 7.58444E+01 3.31867E+01 0.00000E+00
 -1      3742 7.73444E+01 3.31867E+01 0.00000E+00
 -1      3743 7.79831E+01 3.20350E+01 0.00000E+00
 -1      3744 7.50944E+01 3.18877E+01 0.00000E+00
 -1      3745 1.21785E+02 1.54846E+01 0.00000E+00
 -1      3746 1.20285E+02 1.54846E+01 0.00000E+00
 -1      3747 7.95431E+01 1.57182E+01 0.00000E+00
 -1      3748 1.12749E+02 3.24698E+01 0.00000E+00
 -1      3749 1.14249E+02 3.24698E+01 0.00000E+00
 -1      3750 1.12440E+02 3.09875E+01 0.00000E+00
 -1      3751 1.15749E+02 3.24698E+01 0.00000E+00
 -1      3752 1.17249E+02 3.24698E+01 0.00000E+00
 -1      3753 1.15440E+02 3.09875E+01 0.00000E+00
 -1      3754 1.18749E+02 3.24698E+01 0.00000E+00
 -1      3755 1.20249E+02 3.24698E+01 0.00000E+00
 -1      3756 1.18440E+02 3.09875E+01 0.00000E+00
 -1      3757 1.21749E+02 3.24698E+01 0.00000E+00
 -1      3758 1.23249E+02 3.24698E+01 0.00000E+00
 -1      3759 1.21440E+02 3.09875E+01 0.00000E+00
 -1      3760 1.24749E+02 3.24698E+01 0.00000E+00
 -1      3761 1.26249E+02 3.24698E+01 0.00000E+00
 -1      3762 1.24440E+02 3.09875E+01 0.00000E+00
 -1      3763 1.27749E+02 3.24698E+01 0.00000E+00
 -1      3764 1.29249E+02 3.24698E+01 0.00000E+00
 -1      3765 1.27440E+02 3.09875E+01 0.00000E+00
 -1      3766 1.34361E+02 3.59538E+01 0.00000E+00
 -1      3767 1.35668E+02 3.60117E+01 0.00000E+00
 -1      3768 1.14874E+02 2.32609E+01 0.00000E+00
 -1      3769 1.14438E+02 2.49418E+01 0.00000E+00
 -1      3770 5.57850E+01 1.56973E+01 0.00000E+00
 -1      3771 5.42850E+01 1.56973E+01 0.00000E+00
 -1      3772 5.27850E+01 1.56973E+01 0.00000E+00
 -1      3773 5.12850E+01 1.56973E+01 0.00000E+00
 -1      3774 5.35350E+01 1.69963E+01 0.00000E+00
 -1      3775 6.17850E+01 1.56973E+01 0.00000E+00
 -1      3776 6.02850E+01 1.56973E+01 0.00000E+00
 -1      3777 6.47850E+01 1.56973E+01 0.00000E+00
 -1      3778 6.32850E+01 1.56973E+01 0.00000E+00
 -1      3779 6.25350E+01 1.69963E+01 0.00000E+00
 -1      3780 6.77850E+01 1.56973E+01 0.00000E+00
 -1      3781 6.62850E+01 1.56973E+01 0.00000E+00
 -1      3782 6.55350E+01 1.69963E+01 0.00000E+00
 -1      3783 7.07850E+01 1.56973E+01 0.00000E+00
 -1      3784 6.92850E+01 1.56973E+01 0.00000E+00
 -1      3785 6.85350E+01 1.69963E+01 0.00000E+00
 -1      3786 7.37850E+01 1.56973E+01 0.00000E+00
 -1      3787 7.22850E+01 1.56973E+01 0.00000E+00
 -1      3788 7.15350E+01 1.69963E+01 0.00000E+00
 -1      3789 7.80431E+01 1.57182E+01 0.00000E+00
 -1      3790 1.32928E+02 1.58771E+01 0.00000E+00
 -1      3791 1.31535E+02 1.56606E+01 0.00000E+00
 -1      3792 1.32928E+02 1.73521E+01 0.00000E+00
 -1      3793 1.34846E+02 1.34369E+01 0.00000E+00
 -1      3794 1.90350E+01 1.43983E+01 0.00000E+00
 -1      3795 1.82850E+01 1.30993E+01 0.00000E+00
 -1      3796 1.30410E+02 1.55726E+01 0.00000E+00
 -1      3797 1.28910E+02 1.55726E+01 0.00000E+00
 -1      3798 1.28160E+02 1.68716E+01 0.00000E+00
 -1      3799 1.30410E+02 1.70476E+01 0.00000E+00
 -1      3800 1.24785E+02 1.54846E+01 0.00000E+00
 -1      3801 1.23285E+02 1.54846E+01 0.00000E+00
 -1      3802 1.22535E+02 1.67836E+01 0.00000E+00
 -1      3803 1.25535E+02 1.67836E+01 0.00000E+00
 -1      3804 7.94534E+01 2.43638E+01 0.00000E+00
 -1      3805 7.98857E+01 2.29011E+01 0.00000E+00
 -1      3806 7.89453E+01 2.19170E+01 0.00000E+00
 -1      3807 1.18921E+02 1.54267E+01 0.00000E+00
 -1      3808 1.17421E+02 1.54267E+01 0.00000E+00
 -1      3809 1.16943E+02 1.66100E+01 0.00000E+00
 -1      3810 1.19671E+02 1.67257E+01 0.00000E+00
 -1      3811 4.37850E+01 1.56973E+01 0.00000E+00
 -1      3812 4.22850E+01 1.56973E+01 0.00000E+00
 -1      3813 1.35711E+02 2.13344E+01 0.00000E+00
 -1      3814 1.35711E+02 1.98625E+01 0.00000E+00
 -1      3815 1.34412E+02 2.20594E+01 0.00000E+00
 -1      3816 1.42890E+01 1.68750E+01 0.00000E+00
 -1      3817 1.42890E+01 1.83500E+01 0.00000E+00
 -1      3818 1.55880E+01 1.90875E+01 0.00000E+00
 -1      3819 1.13704E+02 2.66003E+01 0.00000E+00
 -1      3820 1.13094E+02 2.80303E+01 0.00000E+00
 -1      3821 1.35711E+02 3.30875E+01 0.00000E+00
 -1      3822 1.35711E+02 3.16125E+01 0.00000E+00
 -1      3823 2.19000E+01 3.31130E+01 0.00000E+00
 -1      3824 2.34000E+01 3.31130E+01 0.00000E+00
 -1      3825 2.41500E+01 3.18140E+01 0.00000E+00
 -1      3826 1.69669E+01 1.29495E+01 0.00000E+00
 -1      3827 2.72850E+01 1.30992E+01 0.00000E+00
 -1      3828 2.57850E+01 1.30992E+01 0.00000E+00
 -1      3829 2.50350E+01 1.43982E+01 0.00000E+00
 -1      3830 5.87850E+01 1.56973E+01 0.00000E+00
 -1      3831 5.72850E+01 1.56973E+01 0.00000E+00
 -1      3832 5.95350E+01 1.69963E+01 0.00000E+00
 -1      3833 1.12893E+02 2.96653E+01 0.00000E+00
 -1      3834 1.60455E+01 2.46372E+01 0.00000E+00
 -1      3835 1.47465E+01 2.53747E+01 0.00000E+00
 -1      3836 1.52040E+01 2.65119E+01 0.00000E+00
 -1      3837 1.35855E+02 3.51333E+01 0.00000E+00
 -1      3838 1.36041E+02 3.42550E+01 0.00000E+00
 -1      3839 1.15699E+02 1.99863E+01 0.00000E+00
 -1      3840 1.15357E+02 2.15877E+01 0.00000E+00
 -1      3841 1.33815E+02 3.43185E+01 0.00000E+00
 -1      3842 1.34742E+02 3.35175E+01 0.00000E+00
 -1      3843 1.33485E+02 3.31510E+01 0.00000E+00
 -1      3844 1.34412E+02 3.08875E+01 0.00000E+00
 -1      3845 1.32172E+02 3.25687E+01 0.00000E+00
 -1      3846 1.33099E+02 3.17677E+01 0.00000E+00
 -1      3847 4.15350E+01 1.69963E+01 0.00000E+00
 -1      3848 4.07850E+01 1.56973E+01 0.00000E+00
 -1      3849 3.92850E+01 1.56973E+01 0.00000E+00
 -1      3850 7.85303E+01 3.10193E+01 0.00000E+00
 -1      3851 7.91690E+01 2.98676E+01 0.00000E+00
 -1      3852 7.81805E+01 2.89142E+01 0.00000E+00
 -1      3853 7.70860E+01 3.09456E+01 0.00000E+00
 -1      3854 5.65350E+01 1.69963E+01 0.00000E+00
 -1      3855 1.16293E+02 2.27272E+01 0.00000E+00
 -1      3856 1.65807E+01 1.39489E+01 0.00000E+00
 -1      3857 1.16560E+02 1.77065E+01 0.00000E+00
 -1      3858 1.16082E+02 1.88897E+01 0.00000E+00
 -1      3859 1.17159E+02 1.99575E+01 0.00000E+00
 -1      3860 1.17924E+02 1.77644E+01 0.00000E+00
 -1      3861 3.17850E+01 1.56973E+01 0.00000E+00
 -1      3862 3.02850E+01 1.56973E+01 0.00000E+00
 -1      3863 1.30672E+02 3.25687E+01 0.00000E+00
 -1      3864 1.15076E+02 2.60590E+01 0.00000E+00
 -1      3865 2.80350E+01 1.43982E+01 0.00000E+00
 -1      3866 1.14141E+02 2.93525E+01 0.00000E+00
 -1      3867 1.34366E+02 1.90780E+01 0.00000E+00
 -1      3868 5.05350E+01 1.69963E+01 0.00000E+00
 -1      3869 4.97850E+01 1.56973E+01 0.00000E+00
 -1      3870 4.82850E+01 1.56973E+01 0.00000E+00
 -1      3871 7.67850E+01 1.56973E+01 0.00000E+00
 -1      3872 7.52850E+01 1.56973E+01 0.00000E+00
 -1      3873 3.70350E+01 1.43982E+01 0.00000E+00
 -1      3874 1.33099E+02 3.03052E+01 0.00000E+00
 -1      3875 4.67850E+01 1.56973E+01 0.00000E+00
 -1      3876 4.52850E+01 1.56973E+01 0.00000E+00
 -1      3877 4.75350E+01 1.69963E+01 0.00000E+00
 -1      3878 1.97850E+01 1.56973E+01 0.00000E+00
 -1      3879 1.82851E+01 1.56973E+01 0.00000E+00
 -1      3880 2.09212E+01 3.28267E+01 0.00000E+00
 -1      3881 2.16712E+01 3.15277E+01 0.00000E+00
 -1      3882 1.99425E+01 3.25404E+01 0.00000E+00
 -1      3883 1.33099E+02 2.88302E+01 0.00000E+00
 -1      3884 1.33099E+02 2.73552E+01 0.00000E+00
 -1      3885 1.31786E+02 2.97103E+01 0.00000E+00
 -1      3886 1.68870E+01 2.12969E+01 0.00000E+00
 -1      3887 1.68870E+01 2.27656E+01 0.00000E+00
 -1      3888 1.33099E+02 2.58833E+01 0.00000E+00
 -1      3889 1.33099E+02 2.44114E+01 0.00000E+00
 -1      3890 1.31786E+02 2.67634E+01 0.00000E+00
 -1      3891 1.56071E+01 1.55560E+01 0.00000E+00
 -1      3892 7.45350E+01 1.69963E+01 0.00000E+00
 -1      3893 7.77873E+01 2.69145E+01 0.00000E+00
 -1      3894 7.86204E+01 2.56391E+01 0.00000E+00
 -1      3895 7.76799E+01 2.46551E+01 0.00000E+00
 -1      3896 4.45350E+01 1.69963E+01 0.00000E+00
 -1      3897 1.80994E+01 3.20261E+01 0.00000E+00
 -1      3898 1.90781E+01 3.23124E+01 0.00000E+00
 -1      3899 1.98281E+01 3.10134E+01 0.00000E+00
 -1      3900 1.80994E+01 3.05574E+01 0.00000E+00
 -1      3901 7.89644E+01 1.87462E+01 0.00000E+00
 -1      3902 2.27850E+01 1.56973E+01 0.00000E+00
 -1      3903 2.12850E+01 1.56973E+01 0.00000E+00
 -1      3904 2.05351E+01 1.69963E+01 0.00000E+00
 -1      3905 3.32850E+01 1.56973E+01 0.00000E+00
 -1      3906 3.25350E+01 1.69963E+01 0.00000E+00
 -1      3907 3.47850E+01 1.56973E+01 0.00000E+00
 -1      3908 1.53870E+01 2.76506E+01 0.00000E+00
 -1      3909 1.58445E+01 2.87878E+01 0.00000E+00
 -1      3910 1.70520E+01 2.91906E+01 0.00000E+00
 -1      3911 1.66860E+01 2.69131E+01 0.00000E+00
 -1      3912 1.73445E+01 2.39028E+01 0.00000E+00
 -1      3913 1.78020E+01 2.50400E+01 0.00000E+00
 -1      3914 1.86435E+01 2.31684E+01 0.00000E+00
 -1      3915 1.65615E+01 1.60054E+01 0.00000E+00
 -1      3916 1.30363E+02 3.10864E+01 0.00000E+00
 -1      3917 7.72931E+01 1.70172E+01 0.00000E+00
 -1      3918 2.94000E+01 3.05150E+01 0.00000E+00
 -1      3919 3.09000E+01 3.05150E+01 0.00000E+00
 -1      3920 3.24000E+01 3.05150E+01 0.00000E+00
 -1      3921 3.39000E+01 3.05150E+01 0.00000E+00
 -1      3922 3.16500E+01 2.92160E+01 0.00000E+00
 -1      3923 3.54000E+01 3.05150E+01 0.00000E+00
 -1      3924 3.69000E+01 3.05150E+01 0.00000E+00
 -1      3925 3.46500E+01 2.92160E+01 0.00000E+00
 -1      3926 3.84000E+01 3.05150E+01 0.00000E+00
 -1      3927 3.99000E+01 3.05150E+01 0.00000E+00
 -1      3928 3.76500E+01 2.92160E+01 0.00000E+00
 -1      3929 4.14000E+01 3.05150E+01 0.00000E+00
 -1      3930 4.29000E+01 3.05150E+01 0.00000E+00
 -1      3931 4.06500E+01 2.92160E+01 0.00000E+00
 -1      3932 4.44000E+01 3.05150E+01 0.00000E+00
 -1      3933 4.59000E+01 3.05150E+01 0.00000E+00
 -1      3934 4.36500E+01 2.92160E+01 0.00000E+00
 -1      3935 4.74000E+01 3.05150E+01 0.00000E+00
 -1      3936 4.89000E+01 3.05150E+01 0.00000E+00
 -1      3937 4.66500E+01 2.92160E+01 0.00000E+00
 -1      3938 5.04000E+01 3.05150E+01 0.00000E+00
 -1      3939 5.19000E+01 3.05150E+01 0.00000E+00
 -1      3940 4.96500E+01 2.92160E+01 0.00000E+00
 -1      3941 5.34000E+01 3.05150E+01 0.00000E+00
 -1      3942 5.49000E+01 3.05150E+01 0.00000E+00
 -1      3943 5.26500E+01 2.92160E+01 0.00000E+00
 -1      3944 5.64000E+01 3.05150E+01 0.00000E+00
 -1      3945 5.79000E+01 3.05150E+01 0.00000E+00
 -1      3946 5.56500E+01 2.92160E+01 0.00000E+00
 -1      3947 5.94000E+01 3.05150E+01 0.00000E+00
 -1      3948 6.09000E+01 3.05150E+01 0.00000E+00
 -1      3949 5.86500E+01 2.92160E+01 0.00000E+00
 -1      3950 6.24000E+01 3.05150E+01 0.00000E+00
 -1      3951 6.39000E+01 3.05150E+01 0.00000E+00
 -1      3952 6.16500E+01 2.92160E+01 0.00000E+00
 -1      3953 6.54000E+01 3.05150E+01 0.00000E+00
 -1      3954 6.69000E+01 3.05150E+01 0.00000E+00
 -1      3955 6.46500E+01 2.92160E+01 0.00000E+00
 -1      3956 6.84000E+01 3.05150E+01 0.00000E+00
 -1      3957 6.99000E+01 3.05150E+01 0.00000E+00
 -1      3958 6.76500E+01 2.92160E+01 0.00000E+00
 -1      3959 7.14000E+01 3.05150E+01 0.00000E+00
 -1      3960 7.29000E+01 3.05150E+01 0.00000E+00
 -1      3961 7.06500E+01 2.92160E+01 0.00000E+00
 -1      3962 5.72850E+01 1.82952E+01 0.00000E+00
 -1      3963 5.57850E+01 1.82952E+01 0.00000E+00
 -1      3964 1.17761E+02 2.22444E+01 0.00000E+00
 -1      3965 1.17279E+02 2.39177E+01 0.00000E+00
 -1      3966 7.77063E+01 1.87253E+01 0.00000E+00
 -1      3967 7.64482E+01 1.87044E+01 0.00000E+00
 -1      3968 7.81195E+01 2.04334E+01 0.00000E+00
 -1      3969 1.15641E+02 2.93525E+01 0.00000E+00
 -1      3970 1.17690E+02 2.96885E+01 0.00000E+00
 -1      3971 1.19190E+02 2.96885E+01 0.00000E+00
 -1      3972 1.20690E+02 2.96885E+01 0.00000E+00
 -1      3973 1.22190E+02 2.96885E+01 0.00000E+00
 -1      3974 1.19940E+02 2.83895E+01 0.00000E+00
 -1      3975 1.23690E+02 2.96885E+01 0.00000E+00
 -1      3976 1.25190E+02 2.96885E+01 0.00000E+00
 -1      3977 1.22940E+02 2.83895E+01 0.00000E+00
 -1      3978 1.26690E+02 2.96885E+01 0.00000E+00
 -1      3979 1.28190E+02 2.96885E+01 0.00000E+00
 -1      3980 1.25940E+02 2.83895E+01 0.00000E+00
 -1      3981 6.62850E+01 1.82952E+01 0.00000E+00
 -1      3982 6.47850E+01 1.82952E+01 0.00000E+00
 -1      3983 6.32850E+01 1.82952E+01 0.00000E+00
 -1      3984 6.17850E+01 1.82952E+01 0.00000E+00
 -1      3985 6.40350E+01 1.95942E+01 0.00000E+00
 -1      3986 7.22850E+01 1.82952E+01 0.00000E+00
 -1      3987 7.07850E+01 1.82952E+01 0.00000E+00
 -1      3988 3.77850E+01 1.56973E+01 0.00000E+00
 -1      3989 3.62850E+01 1.56973E+01 0.00000E+00
 -1      3990 3.55350E+01 1.69963E+01 0.00000E+00
 -1      3991 3.85350E+01 1.69963E+01 0.00000E+00
 -1      3992 1.32973E+02 1.88616E+01 0.00000E+00
 -1      3993 1.31581E+02 1.86452E+01 0.00000E+00
 -1      3994 1.33019E+02 2.03711E+01 0.00000E+00
 -1      3995 2.95350E+01 1.69963E+01 0.00000E+00
 -1      3996 2.87850E+01 1.56973E+01 0.00000E+00
 -1      3997 2.72850E+01 1.56973E+01 0.00000E+00
 -1      3998 1.73115E+01 1.73044E+01 0.00000E+00
 -1      3999 1.30363E+02 2.96114E+01 0.00000E+00
 -1      4000 1.33059E+02 2.31272E+01 0.00000E+00
 -1      4001 1.33059E+02 2.16553E+01 0.00000E+00
 -1      4002 1.31666E+02 2.14389E+01 0.00000E+00
 -1      4003 1.31746E+02 2.40073E+01 0.00000E+00
 -1      4004 1.29613E+02 2.83124E+01 0.00000E+00
 -1      4005 7.51166E+01 1.84998E+01 0.00000E+00
 -1      4006 7.36166E+01 1.84998E+01 0.00000E+00
 -1      4007 7.28666E+01 1.97988E+01 0.00000E+00
 -1      4008 7.55298E+01 2.02079E+01 0.00000E+00
 -1      4009 1.16458E+02 2.56787E+01 0.00000E+00
 -1      4010 1.15723E+02 2.73372E+01 0.00000E+00
 -1      4011 6.92850E+01 1.82952E+01 0.00000E+00
 -1      4012 6.77850E+01 1.82952E+01 0.00000E+00
 -1      4013 6.70350E+01 1.95942E+01 0.00000E+00
 -1      4014 2.34000E+01 3.05150E+01 0.00000E+00
 -1      4015 2.49000E+01 3.05150E+01 0.00000E+00
 -1      4016 5.42850E+01 1.82952E+01 0.00000E+00
 -1      4017 5.27850E+01 1.82952E+01 0.00000E+00
 -1      4018 5.50350E+01 1.95942E+01 0.00000E+00
 -1      4019 6.02850E+01 1.82952E+01 0.00000E+00
 -1      4020 5.87850E+01 1.82952E+01 0.00000E+00
 -1      4021 5.80350E+01 1.95942E+01 0.00000E+00
 -1      4022 4.52850E+01 1.82952E+01 0.00000E+00
 -1      4023 4.37850E+01 1.82952E+01 0.00000E+00
 -1      4024 2.57850E+01 1.56973E+01 0.00000E+00
 -1      4025 2.42850E+01 1.56973E+01 0.00000E+00
 -1      4026 2.35350E+01 1.69963E+01 0.00000E+00
 -1      4027 2.65350E+01 1.69963E+01 0.00000E+00
 -1      4028 2.64000E+01 3.05150E+01 0.00000E+00
 -1      4029 2.79000E+01 3.05150E+01 0.00000E+00
 -1      4030 2.56500E+01 2.92160E+01 0.00000E+00
 -1      4031 7.76872E+01 2.18961E+01 0.00000E+00
 -1      4032 4.30350E+01 1.95942E+01 0.00000E+00
 -1      4033 4.22850E+01 1.82952E+01 0.00000E+00
 -1      4034 4.07850E+01 1.82952E+01 0.00000E+00
 -1      4035 7.42708E+01 3.06935E+01 0.00000E+00
 -1      4036 7.57151E+01 3.07671E+01 0.00000E+00
 -1      4037 7.62624E+01 2.97514E+01 0.00000E+00
 -1      4038 7.35208E+01 2.93945E+01 0.00000E+00
 -1      4039 1.17925E+02 2.51958E+01 0.00000E+00
 -1      4040 1.23285E+02 1.80826E+01 0.00000E+00
 -1      4041 1.21785E+02 1.80826E+01 0.00000E+00
 -1      4042 1.92840E+01 2.54444E+01 0.00000E+00
 -1      4043 1.79850E+01 2.61787E+01 0.00000E+00
 -1      4044 1.81680E+01 2.73175E+01 0.00000E+00
 -1      4045 7.68542E+01 2.31715E+01 0.00000E+00
 -1      4046 7.60284E+01 2.16879E+01 0.00000E+00
 -1      4047 7.60211E+01 2.44468E+01 0.00000E+00
 -1      4048 1.29613E+02 2.68405E+01 0.00000E+00
 -1      4049 1.29613E+02 2.53687E+01 0.00000E+00
 -1      4050 1.27440E+02 2.69176E+01 0.00000E+00
 -1      4051 5.12850E+01 1.82952E+01 0.00000E+00
 -1      4052 4.97850E+01 1.82952E+01 0.00000E+00
 -1      4053 5.20350E+01 1.95942E+01 0.00000E+00
 -1      4054 2.86500E+01 2.92160E+01 0.00000E+00
 -1      4055 6.10350E+01 1.95942E+01 0.00000E+00
 -1      4056 3.02850E+01 1.82952E+01 0.00000E+00
 -1      4057 2.87850E+01 1.82952E+01 0.00000E+00
 -1      4058 4.82850E+01 1.82952E+01 0.00000E+00
 -1      4059 4.67850E+01 1.82952E+01 0.00000E+00
 -1      4060 4.90350E+01 1.95942E+01 0.00000E+00
 -1      4061 3.32850E+01 1.82952E+01 0.00000E+00
 -1      4062 3.17850E+01 1.82952E+01 0.00000E+00
 -1      4063 3.10350E+01 1.95942E+01 0.00000E+00
 -1      4064 1.68870E+01 1.83500E+01 0.00000E+00
 -1      4065 1.68870E+01 1.98250E+01 0.00000E+00
 -1      4066 2.14425E+01 2.99424E+01 0.00000E+00
 -1      4067 2.24212E+01 3.02287E+01 0.00000E+00
 -1      4068 2.31712E+01 2.89297E+01 0.00000E+00
 -1      4069 1.28621E+02 1.82107E+01 0.00000E+00
 -1      4070 1.27496E+02 1.81227E+01 0.00000E+00
 -1      4071 1.81860E+01 2.05594E+01 0.00000E+00
 -1      4072 1.20537E+02 1.79525E+01 0.00000E+00
 -1      4073 1.19173E+02 1.78946E+01 0.00000E+00
 -1      4074 1.18790E+02 1.89911E+01 0.00000E+00
 -1      4075 1.21287E+02 1.92515E+01 0.00000E+00
 -1      4076 7.00350E+01 1.95942E+01 0.00000E+00
 -1      4077 1.30663E+02 1.84719E+01 0.00000E+00
 -1      4078 1.29538E+02 1.83839E+01 0.00000E+00
 -1      4079 1.28875E+02 1.96350E+01 0.00000E+00
 -1      4080 1.30709E+02 1.99814E+01 0.00000E+00
 -1      4081 1.86105E+01 1.80419E+01 0.00000E+00
 -1      4082 4.60350E+01 1.95942E+01 0.00000E+00
 -1      4083 2.01105E+01 1.80419E+01 0.00000E+00
 -1      4084 1.96860E+01 1.90875E+01 0.00000E+00
 -1      4085 2.16105E+01 1.80419E+01 0.00000E+00
 -1      4086 1.96199E+01 2.21150E+01 0.00000E+00
 -1      4087 2.00774E+01 2.32522E+01 0.00000E+00
 -1      4088 1.18467E+02 2.00695E+01 0.00000E+00
 -1      4089 1.18084E+02 2.11660E+01 0.00000E+00
 -1      4090 1.19069E+02 2.23564E+01 0.00000E+00
 -1      4091 1.19715E+02 2.01997E+01 0.00000E+00
 -1      4092 7.67512E+01 2.88408E+01 0.00000E+00
 -1      4093 7.72985E+01 2.78251E+01 0.00000E+00
 -1      4094 7.63581E+01 2.68411E+01 0.00000E+00
 -1      4095 7.53804E+01 2.86623E+01 0.00000E+00
 -1      4096 1.16391E+02 2.80535E+01 0.00000E+00
 -1      4097 1.26141E+02 1.81027E+01 0.00000E+00
 -1      4098 1.24641E+02 1.81027E+01 0.00000E+00
 -1      4099 1.23891E+02 1.94017E+01 0.00000E+00
 -1      4100 1.26602E+02 1.94417E+01 0.00000E+00
 -1      4101 1.80422E+01 2.83681E+01 0.00000E+00
 -1      4102 1.82252E+01 2.95068E+01 0.00000E+00
 -1      4103 1.90896E+01 2.97348E+01 0.00000E+00
 -1      4104 1.93412E+01 2.76337E+01 0.00000E+00
 -1      4105 1.96860E+01 2.05594E+01 0.00000E+00
 -1      4106 2.11199E+01 2.06431E+01 0.00000E+00
 -1      4107 5.87850E+01 2.08932E+01 0.00000E+00
 -1      4108 5.72850E+01 2.08932E+01 0.00000E+00
 -1      4109 3.39000E+01 2.79170E+01 0.00000E+00
 -1      4110 3.54000E+01 2.79170E+01 0.00000E+00
 -1      4111 3.69000E+01 2.79170E+01 0.00000E+00
 -1      4112 3.84000E+01 2.79170E+01 0.00000E+00
 -1      4113 3.61500E+01 2.66180E+01 0.00000E+00
 -1      4114 3.99000E+01 2.79170E+01 0.00000E+00
 -1      4115 4.14000E+01 2.79170E+01 0.00000E+00
 -1      4116 3.91500E+01 2.66180E+01 0.00000E+00
 -1      4117 4.29000E+01 2.79170E+01 0.00000E+00
 -1      4118 4.44000E+01 2.79170E+01 0.00000E+00
 -1      4119 4.21500E+01 2.66180E+01 0.00000E+00
 -1      4120 4.59000E+01 2.79170E+01 0.00000E+00
 -1      4121 4.74000E+01 2.79170E+01 0.00000E+00
 -1      4122 4.51500E+01 2.66180E+01 0.00000E+00
 -1      4123 4.89000E+01 2.79170E+01 0.00000E+00
 -1      4124 5.04000E+01 2.79170E+01 0.00000E+00
 -1      4125 4.81500E+01 2.66180E+01 0.00000E+00
 -1      4126 5.19000E+01 2.79170E+01 0.00000E+00
 -1      4127 5.34000E+01 2.79170E+01 0.00000E+00
 -1      4128 5.11500E+01 2.66180E+01 0.00000E+00
 -1      4129 5.49000E+01 2.79170E+01 0.00000E+00
 -1      4130 5.64000E+01 2.79170E+01 0.00000E+00
 -1      4131 5.41500E+01 2.66180E+01 0.00000E+00
 -1      4132 5.79000E+01 2.79170E+01 0.00000E+00
 -1      4133 5.94000E+01 2.79170E+01 0.00000E+00
 -1      4134 5.71500E+01 2.66180E+01 0.00000E+00
 -1      4135 6.09000E+01 2.79170E+01 0.00000E+00
 -1      4136 6.24000E+01 2.79170E+01 0.00000E+00
 -1      4137 6.01500E+01 2.66180E+01 0.00000E+00
 -1      4138 6.39000E+01 2.79170E+01 0.00000E+00
 -1      4139 6.54000E+01 2.79170E+01 0.00000E+00
 -1      4140 6.31500E+01 2.66180E+01 0.00000E+00
 -1      4141 6.69000E+01 2.79170E+01 0.00000E+00
 -1      4142 6.84000E+01 2.79170E+01 0.00000E+00
 -1      4143 6.61500E+01 2.66180E+01 0.00000E+00
 -1      4144 6.99000E+01 2.79170E+01 0.00000E+00
 -1      4145 7.14000E+01 2.79170E+01 0.00000E+00
 -1      4146 6.91500E+01 2.66180E+01 0.00000E+00
 -1      4147 1.22190E+02 2.70905E+01 0.00000E+00
 -1      4148 1.23690E+02 2.70905E+01 0.00000E+00
 -1      4149 1.24815E+02 2.70041E+01 0.00000E+00
 -1      4150 1.26315E+02 2.70041E+01 0.00000E+00
 -1      4151 1.26315E+02 2.55322E+01 0.00000E+00
 -1      4152 1.24065E+02 2.57051E+01 0.00000E+00
 -1      4153 7.07850E+01 2.08932E+01 0.00000E+00
 -1      4154 6.92850E+01 2.08932E+01 0.00000E+00
 -1      4155 2.24508E+01 1.99205E+01 0.00000E+00
 -1      4156 2.23846E+01 2.14761E+01 0.00000E+00
 -1      4157 4.67850E+01 2.08932E+01 0.00000E+00
 -1      4158 4.52850E+01 2.08932E+01 0.00000E+00
 -1      4159 6.17850E+01 2.08932E+01 0.00000E+00
 -1      4160 6.02850E+01 2.08932E+01 0.00000E+00
 -1      4161 5.95350E+01 2.21922E+01 0.00000E+00
 -1      4162 6.77850E+01 2.08932E+01 0.00000E+00
 -1      4163 6.62850E+01 2.08932E+01 0.00000E+00
 -1      4164 6.85350E+01 2.21922E+01 0.00000E+00
 -1      4165 2.79000E+01 2.79170E+01 0.00000E+00
 -1      4166 2.94000E+01 2.79170E+01 0.00000E+00
 -1      4167 2.80350E+01 1.95943E+01 0.00000E+00
 -1      4168 2.72850E+01 1.82953E+01 0.00000E+00
 -1      4169 2.57850E+01 1.82953E+01 0.00000E+00
 -1      4170 2.49000E+01 2.79170E+01 0.00000E+00
 -1      4171 2.64000E+01 2.79170E+01 0.00000E+00
 -1      4172 2.71500E+01 2.66180E+01 0.00000E+00
 -1      4173 5.57850E+01 2.08932E+01 0.00000E+00
 -1      4174 5.42850E+01 2.08932E+01 0.00000E+00
 -1      4175 5.65350E+01 2.21922E+01 0.00000E+00
 -1      4176 6.47850E+01 2.08932E+01 0.00000E+00
 -1      4177 6.32850E+01 2.08932E+01 0.00000E+00
 -1      4178 6.55350E+01 2.21922E+01 0.00000E+00
 -1      4179 3.09000E+01 2.79170E+01 0.00000E+00
 -1      4180 3.24000E+01 2.79170E+01 0.00000E+00
 -1      4181 3.01500E+01 2.66180E+01 0.00000E+00
 -1      4182 1.99539E+01 2.99629E+01 0.00000E+00
 -1      4183 2.15183E+01 2.36085E+01 0.00000E+00
 -1      4184 2.05419E+01 2.46619E+01 0.00000E+00
 -1      4185 7.21500E+01 2.66180E+01 0.00000E+00
 -1      4186 7.29000E+01 2.79170E+01 0.00000E+00
 -1      4187 2.07039E+01 2.86639E+01 0.00000E+00
 -1      4188 7.42708E+01 2.80955E+01 0.00000E+00
 -1      4189 6.25350E+01 2.21922E+01 0.00000E+00
 -1      4190 1.17772E+02 2.76732E+01 0.00000E+00
 -1      4191 7.52484E+01 2.62742E+01 0.00000E+00
 -1      4192 7.44226E+01 2.47906E+01 0.00000E+00
 -1      4193 1.19190E+02 2.70905E+01 0.00000E+00
 -1      4194 1.20690E+02 2.70905E+01 0.00000E+00
 -1      4195 1.24549E+02 2.07105E+01 0.00000E+00
 -1      4196 1.23194E+02 2.06905E+01 0.00000E+00
 -1      4197 7.33652E+01 2.12787E+01 0.00000E+00
 -1      4198 7.26152E+01 2.25777E+01 0.00000E+00
 -1      4199 5.27850E+01 2.08932E+01 0.00000E+00
 -1      4200 5.12850E+01 2.08932E+01 0.00000E+00
 -1      4201 5.35350E+01 2.21922E+01 0.00000E+00
 -1      4202 4.97850E+01 2.08932E+01 0.00000E+00
 -1      4203 4.82850E+01 2.08932E+01 0.00000E+00
 -1      4204 5.05350E+01 2.21922E+01 0.00000E+00
 -1      4205 2.41801E+01 2.21632E+01 0.00000E+00
 -1      4206 2.28492E+01 2.28859E+01 0.00000E+00
 -1      4207 2.33137E+01 2.42956E+01 0.00000E+00
 -1      4208 3.62850E+01 1.82952E+01 0.00000E+00
 -1      4209 3.47850E+01 1.82952E+01 0.00000E+00
 -1      4210 3.40350E+01 1.95942E+01 0.00000E+00
 -1      4211 1.19343E+02 2.46132E+01 0.00000E+00
 -1      4212 1.18522E+02 2.63742E+01 0.00000E+00
 -1      4213 4.45350E+01 2.21922E+01 0.00000E+00
 -1      4214 4.37850E+01 2.08932E+01 0.00000E+00
 -1      4215 4.22850E+01 2.08932E+01 0.00000E+00
 -1      4216 3.92850E+01 1.82952E+01 0.00000E+00
 -1      4217 3.77850E+01 1.82952E+01 0.00000E+00
 -1      4218 3.70350E+01 1.95942E+01 0.00000E+00
 -1      4219 4.00350E+01 1.95942E+01 0.00000E+00
 -1      4220 3.31500E+01 2.66180E+01 0.00000E+00
 -1      4221 1.22079E+02 2.05102E+01 0.00000E+00
 -1      4222 1.20830E+02 2.03800E+01 0.00000E+00
 -1      4223 1.20507E+02 2.14584E+01 0.00000E+00
 -1      4224 1.22737E+02 2.18190E+01 0.00000E+00
 -1      4225 3.17850E+01 2.08932E+01 0.00000E+00
 -1      4226 3.02850E+01 2.08932E+01 0.00000E+00
 -1      4227 1.30749E+02 2.12657E+01 0.00000E+00
 -1      4228 1.29832E+02 2.10924E+01 0.00000E+00
 -1      4229 1.30789E+02 2.25499E+01 0.00000E+00
 -1      4230 4.75350E+01 2.21922E+01 0.00000E+00
 -1      4231 2.07249E+01 2.58007E+01 0.00000E+00
 -1      4232 1.28915E+02 2.09192E+01 0.00000E+00
 -1      4233 1.27997E+02 2.07460E+01 0.00000E+00
 -1      4234 1.28955E+02 2.22034E+01 0.00000E+00
 -1      4235 2.30264E+01 1.80077E+01 0.00000E+00
 -1      4236 2.26018E+01 1.90534E+01 0.00000E+00
 -1      4237 2.45264E+01 1.80077E+01 0.00000E+00
 -1      4238 1.20184E+02 2.25368E+01 0.00000E+00
 -1      4239 1.19861E+02 2.36152E+01 0.00000E+00
 -1      4240 1.21299E+02 2.27171E+01 0.00000E+00
 -1      4241 1.26642E+02 2.07259E+01 0.00000E+00
 -1      4242 2.87850E+01 2.08933E+01 0.00000E+00
 -1      4243 2.72850E+01 2.08933E+01 0.00000E+00
 -1      4244 2.95350E+01 2.21923E+01 0.00000E+00
 -1      4245 1.21440E+02 2.57915E+01 0.00000E+00
 -1      4246 1.20458E+02 2.47935E+01 0.00000E+00
 -1      4247 2.38666E+01 1.98863E+01 0.00000E+00
 -1      4248 2.08298E+01 2.76133E+01 0.00000E+00
 -1      4249 3.84000E+01 2.53190E+01 0.00000E+00
 -1      4250 3.99000E+01 2.53190E+01 0.00000E+00
 -1      4251 4.18425E+01 2.44051E+01 0.00000E+00
 -1      4252 4.33425E+01 2.44051E+01 0.00000E+00
 -1      4253 4.48425E+01 2.44051E+01 0.00000E+00
 -1      4254 4.63425E+01 2.44051E+01 0.00000E+00
 -1      4255 4.78425E+01 2.44051E+01 0.00000E+00
 -1      4256 4.93425E+01 2.44051E+01 0.00000E+00
 -1      4257 5.08425E+01 2.44051E+01 0.00000E+00
 -1      4258 5.23425E+01 2.44051E+01 0.00000E+00
 -1      4259 5.38425E+01 2.44051E+01 0.00000E+00
 -1      4260 5.53425E+01 2.44051E+01 0.00000E+00
 -1      4261 5.68425E+01 2.44051E+01 0.00000E+00
 -1      4262 5.83425E+01 2.44051E+01 0.00000E+00
 -1      4263 5.98425E+01 2.44051E+01 0.00000E+00
 -1      4264 6.13425E+01 2.44051E+01 0.00000E+00
 -1      4265 6.28425E+01 2.44051E+01 0.00000E+00
 -1      4266 6.43425E+01 2.44051E+01 0.00000E+00
 -1      4267 6.58425E+01 2.44051E+01 0.00000E+00
 -1      4268 6.73425E+01 2.44051E+01 0.00000E+00
 -1      4269 6.88425E+01 2.44051E+01 0.00000E+00
 -1      4270 7.03425E+01 2.44051E+01 0.00000E+00
 -1      4271 1.21958E+02 2.47935E+01 0.00000E+00
 -1      4272 1.25945E+02 2.20148E+01 0.00000E+00
 -1      4273 7.47596E+01 2.71848E+01 0.00000E+00
 -1      4274 1.26614E+02 2.38244E+01 0.00000E+00
 -1      4275 1.24521E+02 2.38090E+01 0.00000E+00
 -1      4276 2.20877E+01 2.68308E+01 0.00000E+00
 -1      4277 1.29573E+02 2.40844E+01 0.00000E+00
 -1      4278 2.30465E+01 2.75398E+01 0.00000E+00
 -1      4279 2.40253E+01 2.78261E+01 0.00000E+00
 -1      4280 2.64000E+01 2.53190E+01 0.00000E+00
 -1      4281 2.79000E+01 2.53190E+01 0.00000E+00
 -1      4282 7.46968E+01 2.14833E+01 0.00000E+00
 -1      4283 3.24000E+01 2.53190E+01 0.00000E+00
 -1      4284 3.39000E+01 2.53190E+01 0.00000E+00
 -1      4285 3.28425E+01 2.18071E+01 0.00000E+00
 -1      4286 3.20925E+01 2.31061E+01 0.00000E+00
 -1      4287 3.54000E+01 2.53190E+01 0.00000E+00
 -1      4288 3.69000E+01 2.53190E+01 0.00000E+00
 -1      4289 3.46500E+01 2.40200E+01 0.00000E+00
 -1      4290 2.52764E+01 1.93067E+01 0.00000E+00
 -1      4291 2.47753E+01 2.65271E+01 0.00000E+00
 -1      4292 2.51253E+01 2.01739E+01 0.00000E+00
 -1      4293 2.55898E+01 2.15836E+01 0.00000E+00
 -1      4294 3.76500E+01 2.40200E+01 0.00000E+00
 -1      4295 7.14754E+01 2.31199E+01 0.00000E+00
 -1      4296 7.17829E+01 2.53328E+01 0.00000E+00
 -1      4297 1.22414E+02 2.28974E+01 0.00000E+00
 -1      4298 1.23396E+02 2.38955E+01 0.00000E+00
 -1      4299 4.10925E+01 2.31061E+01 0.00000E+00
 -1      4300 2.29417E+01 2.57272E+01 0.00000E+00
 -1      4301 2.42726E+01 2.50046E+01 0.00000E+00
 -1      4302 4.03425E+01 2.18071E+01 0.00000E+00
 -1      4303 3.88425E+01 2.18071E+01 0.00000E+00
 -1      4304 3.43425E+01 2.18071E+01 0.00000E+00
 -1      4305 3.07463E+01 2.55116E+01 0.00000E+00
 -1      4306 3.14963E+01 2.42126E+01 0.00000E+00
 -1      4307 3.04387E+01 2.32987E+01 0.00000E+00
 -1      4308 2.92463E+01 2.55116E+01 0.00000E+00
 -1      4309 2.51473E+01 2.50955E+01 0.00000E+00
 -1      4310 2.58973E+01 2.37965E+01 0.00000E+00
 -1      4311 2.89388E+01 2.32987E+01 0.00000E+00
 -1      4312 7.32828E+01 2.53328E+01 0.00000E+00
 -1      4313 2.84963E+01 2.42126E+01 0.00000E+00
 -1      4314 1.27739E+02 2.37380E+01 0.00000E+00
 -1      4315 3.58425E+01 2.18071E+01 0.00000E+00
 -1      4316 1.28656E+02 2.39112E+01 0.00000E+00
 -1      4317 3.73425E+01 2.18071E+01 0.00000E+00
 -1      4318 7.40555E+01 2.35054E+01 0.00000E+00
 -1      4319 2.75925E+01 2.31061E+01 0.00000E+00
 -1      4320 2.63398E+01 2.28826E+01 0.00000E+00
 -3
    3C                          2078                                     1
 -1       165    8    0    1
 -2         6         7        23      1122      1286      1139
 -1       166    8    0    1
 -2         7         8       165      1123      1287      1288
 -1       167    8    0    1
 -2         8         9       166      1124      1289      1290
 -1       168    8    0    1
 -2         8       166       165      1290      1291      1287
 -1       169    8    0    1
 -2         9        10       167      1125      1292      1293
 -1       170    8    0    1
 -2         9       167       166      1293      1294      1289
 -1       171    8    0    1
 -2        10        11       168      1126      1295      1296
 -1       172    8    0    1
 -2        10       168       167      1296      1297      1292
 -1       173    8    0    1
 -2        11        12       169      1127      1298      1299
 -1       174    8    0    1
 -2        11       169       168      1299      1300      1295
 -1       175    8    0    1
 -2        12        13       170      1128      1301      1302
 -1       176    8    0    1
 -2        12       170       169      1302      1303      1298
 -1       177    8    0    1
 -2        13        14       171      1129      1304      1305
 -1       178    8    0    1
 -2        13       171       170      1305      1306      1301
 -1       179    8    0    1
 -2        14        15       172      1130      1307      1308
 -1       180    8    0    1
 -2        14       172       171      1308      1309      1304
 -1       181    8    0    1
 -2        15        16       173      1131      1310      1311
 -1       182    8    0    1
 -2        15       173       172      1311      1312      1307
 -1       183    8    0    1
 -2        16        17       174      1132      1313      1314
 -1       184    8    0    1
 -2        16       174       173      1314      1315      1310
 -1       185    8    0    1
 -2        17        18       175      1133      1316      1317
 -1       186    8    0    1
 -2        17       175       174      1317      1318      1313
 -1       187    8    0    1
 -2        18        19       176      1134      1319      1320
 -1       188    8    0    1
 -2        18       176       175      1320      1321      1316
 -1       189    8    0    1
 -2        19        20       177      1135      1322      1323
 -1       190    8    0    1
 -2        19       177       176      1323      1324      1319
 -1       191    8    0    1
 -2        20        21       178      1136      1325      1326
 -1       192    8    0    1
 -2        20       178       177      1326      1327      1322
 -1       193    8    0    1
 -2        21        22       179      1137      1328      1329
 -1       194    8    0    1
 -2        21       179       178      1329      1330      1325
 -1       195    8    0    1
 -2        22         5       180      1138      1331      1332
 -1       196    8    0    1
 -2       179        22       180      1328      1332      1333
 -1       197    8    0    1
 -2         5        72       180      1189      1334      1331
 -1       198    8    0    1
 -2        24        23       181      1140      1335      1336
 -1       199    8    0    1
 -2        25        24       182      1141      1337      1338
 -1       200    8    0    1
 -2        24       181       182      1336      1339      1337
 -1       201    8    0    1
 -2        26        25       183      1142      1340      1341
 -1       202    8    0    1
 -2        25       182       183      1338      1342      1340
 -1       203    8    0    1
 -2        27        26       184      1143      1343      1344
 -1       204    8    0    1
 -2        26       183       184      1341      1345      1343
 -1       205    8    0    1
 -2        28        27       185      1144      1346      1347
 -1       206    8    0    1
 -2        27       184       185      1344      1348      1346
 -1       207    8    0    1
 -2        29        28       186      1145      1349      1350
 -1       208    8    0    1
 -2        28       185       186      1347      1351      1349
 -1       209    8    0    1
 -2        30        29       187      1146      1352      1353
 -1       210    8    0    1
 -2        29       186       187      1350      1354      1352
 -1       211    8    0    1
 -2        31        30       188      1147      1355      1356
 -1       212    8    0    1
 -2        30       187       188      1353      1357      1355
 -1       213    8    0    1
 -2        32        31       189      1148      1358      1359
 -1       214    8    0    1
 -2        31       188       189      1356      1360      1358
 -1       215    8    0    1
 -2        33        32       190      1149      1361      1362
 -1       216    8    0    1
 -2        32       189       190      1359      1363      1361
 -1       217    8    0    1
 -2        34        33       191      1150      1364      1365
 -1       218    8    0    1
 -2        33       190       191      1362      1366      1364
 -1       219    8    0    1
 -2        35        34       192      1151      1367      1368
 -1       220    8    0    1
 -2        34       191       192      1365      1369      1367
 -1       221    8    0    1
 -2        36        35       193      1152      1370      1371
 -1       222    8    0    1
 -2        35       192       193      1368      1372      1370
 -1       223    8    0    1
 -2        37        36       194      1153      1373      1374
 -1       224    8    0    1
 -2        36       193       194      1371      1375      1373
 -1       225    8    0    1
 -2        38        37       195      1154      1376      1377
 -1       226    8    0    1
 -2        37       194       195      1374      1378      1376
 -1       227    8    0    1
 -2        39        38       196      1155      1379      1380
 -1       228    8    0    1
 -2        38       195       196      1377      1381      1379
 -1       229    8    0    1
 -2        40        39       197      1156      1382      1383
 -1       230    8    0    1
 -2        39       196       197      1380      1384      1382
 -1       231    8    0    1
 -2        41        40       198      1157      1385      1386
 -1       232    8    0    1
 -2        40       197       198      1383      1387      1385
 -1       233    8    0    1
 -2        42        41       199      1158      1388      1389
 -1       234    8    0    1
 -2        41       198       199      1386      1390      1388
 -1       235    8    0    1
 -2        43        42       200      1159      1391      1392
 -1       236    8    0    1
 -2        42       199       200      1389      1393      1391
 -1       237    8    0    1
 -2        44        43       201      1160      1394      1395
 -1       238    8    0    1
 -2        43       200       201      1392      1396      1394
 -1       239    8    0    1
 -2        45        44       202      1161      1397      1398
 -1       240    8    0    1
 -2        44       201       202      1395      1399      1397
 -1       241    8    0    1
 -2        46        45       203      1162      1400      1401
 -1       242    8    0    1
 -2        45       202       203      1398      1402      1400
 -1       243    8    0    1
 -2        47        46       204      1163      1403      1404
 -1       244    8    0    1
 -2        46       203       204      1401      1405      1403
 -1       245    8    0    1
 -2        48        47       205      1164      1406      1407
 -1       246    8    0    1
 -2        47       204       205      1404      1408      1406
 -1       247    8    0    1
 -2        49        48       206      1165      1409      1410
 -1       248    8    0    1
 -2        48       205       206      1407      1411      1409
 -1       249    8    0    1
 -2        50        49       207      1166      1412      1413
 -1       250    8    0    1
 -2        49       206       207      1410      1414      1412
 -1       251    8    0    1
 -2        51        50       208      1167      1415      1416
 -1       252    8    0    1
 -2        50       207       208      1413      1417      1415
 -1       253    8    0    1
 -2        52        51       209      1168      1418      1419
 -1       254    8    0    1
 -2        51       208       209      1416      1420      1418
 -1       255    8    0    1
 -2        53        52       210      1169      1421      1422
 -1       256    8    0    1
 -2        52       209       210      1419      1423      1421
 -1       257    8    0    1
 -2        54        53       211      1170      1424      1425
 -1       258    8    0    1
 -2        53       210       211      1422      1426      1424
 -1       259    8    0    1
 -2        55        54       212      1171      1427      1428
 -1       260    8    0    1
 -2        54       211       212      1425      1429      1427
 -1       261    8    0    1
 -2        56        55       213      1172      1430      1431
 -1       262    8    0    1
 -2        55       212       213      1428      1432      1430
 -1       263    8    0    1
 -2        57        56       214      1173      1433      1434
 -1       264    8    0    1
 -2        56       213       214      1431      1435      1433
 -1       265    8    0    1
 -2        58        57       215      1174      1436      1437
 -1       266    8    0    1
 -2        57       214       215      1434      1438      1436
 -1       267    8    0    1
 -2        59        58       216      1175      1439      1440
 -1       268    8    0    1
 -2        58       215       216      1437      1441      1439
 -1       269    8    0    1
 -2        60        59       217      1176      1442      1443
 -1       270    8    0    1
 -2        59       216       217      1440      1444      1442
 -1       271    8    0    1
 -2        61        60       218      1177      1445      1446
 -1       272    8    0    1
 -2        60       217       218      1443      1447      1445
 -1       273    8    0    1
 -2        62        61       219      1178      1448      1449
 -1       274    8    0    1
 -2        61       218       219      1446      1450      1448
 -1       275    8    0    1
 -2        63        62       220      1179      1451      1452
 -1       276    8    0    1
 -2        62       219       220      1449      1453      1451
 -1       277    8    0    1
 -2        64        63       221      1180      1454      1455
 -1       278    8    0    1
 -2        63       220       221      1452      1456      1454
 -1       279    8    0    1
 -2        65        64       222      1181      1457      1458
 -1       280    8    0    1
 -2        64       221       222      1455      1459      1457
 -1       281    8    0    1
 -2        66        65       223      1182      1460      1461
 -1       282    8    0    1
 -2        65       222       223      1458      1462      1460
 -1       283    8    0    1
 -2        67        66       224      1183      1463      1464
 -1       284    8    0    1
 -2        66       223       224      1461      1465      1463
 -1       285    8    0    1
 -2        68        67       225      1184      1466      1467
 -1       286    8    0    1
 -2        67       224       225      1464      1468      1466
 -1       287    8    0    1
 -2        69        68       226      1185      1469      1470
 -1       288    8    0    1
 -2        68       225       226      1467      1471      1469
 -1       289    8    0    1
 -2        70        69       227      1186      1472      1473
 -1       290    8    0    1
 -2        69       226       227      1470      1474      1472
 -1       291    8    0    1
 -2        71        70       228      1187      1475      1476
 -1       292    8    0    1
 -2        70       227       228      1473      1477      1475
 -1       293    8    0    1
 -2         4        71       136      1188      1478      1255
 -1       294    8    0    1
 -2       136        71       228      1478      1476      1479
 -1       295    8    0    1
 -2        72        73       229      1190      1480      1481
 -1       296    8    0    1
 -2        72       229       180      1481      1482      1334
 -1       297    8    0    1
 -2        73        74       230      1191      1483      1484
 -1       298    8    0    1
 -2        73       230       229      1484      1485      1480
 -1       299    8    0    1
 -2        74        75       231      1192      1486      1487
 -1       300    8    0    1
 -2        74       231       230      1487      1488      1483
 -1       301    8    0    1
 -2        75        76       232      1193      1489      1490
 -1       302    8    0    1
 -2        75       232       231      1490      1491      1486
 -1       303    8    0    1
 -2        76        77       233      1194      1492      1493
 -1       304    8    0    1
 -2        76       233       232      1493      1494      1489
 -1       305    8    0    1
 -2        77        78       234      1195      1495      1496
 -1       306    8    0    1
 -2        77       234       233      1496      1497      1492
 -1       307    8    0    1
 -2        78        79       235      1196      1498      1499
 -1       308    8    0    1
 -2        78       235       234      1499      1500      1495
 -1       309    8    0    1
 -2        79        80       236      1197      1501      1502
 -1       310    8    0    1
 -2        79       236       235      1502      1503      1498
 -1       311    8    0    1
 -2        80        81       237      1198      1504      1505
 -1       312    8    0    1
 -2        80       237       236      1505      1506      1501
 -1       313    8    0    1
 -2        81        82       238      1199      1507      1508
 -1       314    8    0    1
 -2        81       238       237      1508      1509      1504
 -1       315    8    0    1
 -2        82        83       239      1200      1510      1511
 -1       316    8    0    1
 -2        82       239       238      1511      1512      1507
 -1       317    8    0    1
 -2        83        84       240      1201      1513      1514
 -1       318    8    0    1
 -2        83       240       239      1514      1515      1510
 -1       319    8    0    1
 -2        84        85       241      1202      1516      1517
 -1       320    8    0    1
 -2        84       241       240      1517      1518      1513
 -1       321    8    0    1
 -2        85        86       242      1203      1519      1520
 -1       322    8    0    1
 -2        85       242       241      1520      1521      1516
 -1       323    8    0    1
 -2        86        87       243      1204      1522      1523
 -1       324    8    0    1
 -2        86       243       242      1523      1524      1519
 -1       325    8    0    1
 -2        87        88       244      1205      1525      1526
 -1       326    8    0    1
 -2        87       244       243      1526      1527      1522
 -1       327    8    0    1
 -2        88        89       245      1206      1528      1529
 -1       328    8    0    1
 -2        88       245       244      1529      1530      1525
 -1       329    8    0    1
 -2        89        90       246      1207      1531      1532
 -1       330    8    0    1
 -2        89       246       245      1532      1533      1528
 -1       331    8    0    1
 -2        90        91       247      1208      1534      1535
 -1       332    8    0    1
 -2        90       247       246      1535      1536      1531
 -1       333    8    0    1
 -2        91        92       248      1209      1537      1538
 -1       334    8    0    1
 -2        91       248       247      1538      1539      1534
 -1       335    8    0    1
 -2        92        93       249      1210      1540      1541
 -1       336    8    0    1
 -2        92       249       248      1541      1542      1537
 -1       337    8    0    1
 -2        93        94       250      1211      1543      1544
 -1       338    8    0    1
 -2        93       250       249      1544      1545      1540
 -1       339    8    0    1
 -2        94        95       251      1212      1546      1547
 -1       340    8    0    1
 -2        94       251       250      1547      1548      1543
 -1       341    8    0    1
 -2        95        96       252      1213      1549      1550
 -1       342    8    0    1
 -2        95       252       251      1550      1551      1546
 -1       343    8    0    1
 -2        96        97       253      1214      1552      1553
 -1       344    8    0    1
 -2        96       253       252      1553      1554      1549
 -1       345    8    0    1
 -2        97        98       254      1215      1555      1556
 -1       346    8    0    1
 -2        97       254       253      1556      1557      1552
 -1       347    8    0    1
 -2        98        99       255      1216      1558      1559
 -1       348    8    0    1
 -2        98       255       254      1559      1560      1555
 -1       349    8    0    1
 -2        99       100       256      1217      1561      1562
 -1       350    8    0    1
 -2        99       256       255      1562      1563      1558
 -1       351    8    0    1
 -2       100       101       257      1218      1564      1565
 -1       352    8    0    1
 -2       100       257       256      1565      1566      1561
 -1       353    8    0    1
 -2       101       102       258      1219      1567      1568
 -1       354    8    0    1
 -2       101       258       257      1568      1569      1564
 -1       355    8    0    1
 -2       102       103       259      1220      1570      1571
 -1       356    8    0    1
 -2       102       259       258      1571      1572      1567
 -1       357    8    0    1
 -2       103       104       260      1221      1573      1574
 -1       358    8    0    1
 -2       103       260       259      1574      1575      1570
 -1       359    8    0    1
 -2       104       105       261      1222      1576      1577
 -1       360    8    0    1
 -2       104       261       260      1577      1578      1573
 -1       361    8    0    1
 -2       105       106       262      1223      1579      1580
 -1       362    8    0    1
 -2       105       262       261      1580      1581      1576
 -1       363    8    0    1
 -2       106       107       263      1224      1582      1583
 -1       364    8    0    1
 -2       106       263       262      1583      1584      1579
 -1       365    8    0    1
 -2       107       108       264      1225      1585      1586
 -1       366    8    0    1
 -2       107       264       263      1586      1587      1582
 -1       367    8    0    1
 -2       108       109       265      1226      1588      1589
 -1       368    8    0    1
 -2       108       265       264      1589      1590      1585
 -1       369    8    0    1
 -2       109       110       266      1227      1591      1592
 -1       370    8    0    1
 -2       109       266       265      1592      1593      1588
 -1       371    8    0    1
 -2       110       111       267      1228      1594      1595
 -1       372    8    0    1
 -2       110       267       266      1595      1596      1591
 -1       373    8    0    1
 -2       111       112       268      1229      1597      1598
 -1       374    8    0    1
 -2       111       268       267      1598      1599      1594
 -1       375    8    0    1
 -2       112       113       269      1230      1600      1601
 -1       376    8    0    1
 -2       112       269       268      1601      1602      1597
 -1       377    8    0    1
 -2       113       114       270      1231      1603      1604
 -1       378    8    0    1
 -2       113       270       269      1604      1605      1600
 -1       379    8    0    1
 -2       114       115       271      1232      1606      1607
 -1       380    8    0    1
 -2       114       271       270      1607      1608      1603
 -1       381    8    0    1
 -2       115       116       272      1233      1609      1610
 -1       382    8    0    1
 -2       115       272       271      1610      1611      1606
 -1       383    8    0    1
 -2       116       117       273      1234      1612      1613
 -1       384    8    0    1
 -2       116       273       272      1613      1614      1609
 -1       385    8    0    1
 -2       117       118       274      1235      1615      1616
 -1       386    8    0    1
 -2       117       274       273      1616      1617      1612
 -1       387    8    0    1
 -2       118       119       275      1236      1618      1619
 -1       388    8    0    1
 -2       118       275       274      1619      1620      1615
 -1       389    8    0    1
 -2       119       120       276      1237      1621      1622
 -1       390    8    0    1
 -2       119       276       275      1622      1623      1618
 -1       391    8    0    1
 -2       120         3       121      1238      1239      1624
 -1       392    8    0    1
 -2       121       122       277      1240      1625      1626
 -1       393    8    0    1
 -2       122       123       278      1241      1627      1628
 -1       394    8    0    1
 -2       122       278       277      1628      1629      1625
 -1       395    8    0    1
 -2       123       124       279      1242      1630      1631
 -1       396    8    0    1
 -2       123       279       278      1631      1632      1627
 -1       397    8    0    1
 -2       124       125       280      1243      1633      1634
 -1       398    8    0    1
 -2       124       280       279      1634      1635      1630
 -1       399    8    0    1
 -2       125       126       281      1244      1636      1637
 -1       400    8    0    1
 -2       125       281       280      1637      1638      1633
 -1       401    8    0    1
 -2       126       127       282      1245      1639      1640
 -1       402    8    0    1
 -2       126       282       281      1640      1641      1636
 -1       403    8    0    1
 -2       127       128       283      1246      1642      1643
 -1       404    8    0    1
 -2       127       283       282      1643      1644      1639
 -1       405    8    0    1
 -2       128       129       284      1247      1645      1646
 -1       406    8    0    1
 -2       128       284       283      1646      1647      1642
 -1       407    8    0    1
 -2       129       130       285      1248      1648      1649
 -1       408    8    0    1
 -2       129       285       284      1649      1650      1645
 -1       409    8    0    1
 -2       130       131       286      1249      1651      1652
 -1       410    8    0    1
 -2       130       286       285      1652      1653      1648
 -1       411    8    0    1
 -2       131       132       287      1250      1654      1655
 -1       412    8    0    1
 -2       131       287       286      1655      1656      1651
 -1       413    8    0    1
 -2       132       133       288      1251      1657      1658
 -1       414    8    0    1
 -2       132       288       287      1658      1659      1654
 -1       415    8    0    1
 -2       133       134       289      1252      1660      1661
 -1       416    8    0    1
 -2       133       289       288      1661      1662      1657
 -1       417    8    0    1
 -2       134       135       290      1253      1663      1664
 -1       418    8    0    1
 -2       134       290       289      1664      1665      1660
 -1       419    8    0    1
 -2       135       136       291      1254      1666      1667
 -1       420    8    0    1
 -2       290       135       291      1663      1667      1668
 -1       421    8    0    1
 -2       136       228       291      1479      1669      1666
 -1       422    8    0    1
 -2         2       137       292      1256      1670      1671
 -1       423    8    0    1
 -2       137       138       293      1257      1672      1673
 -1       424    8    0    1
 -2       138       139       294      1258      1674      1675
 -1       425    8    0    1
 -2       139       140       295      1259      1676      1677
 -1       426    8    0    1
 -2       140       141       296      1260      1678      1679
 -1       427    8    0    1
 -2       141       142       297      1261      1680      1681
 -1       428    8    0    1
 -2       142       143       298      1262      1682      1683
 -1       429    8    0    1
 -2       143       144       299      1263      1684      1685
 -1       430    8    0    1
 -2       144       145       300      1264      1686      1687
 -1       431    8    0    1
 -2       145       146       301      1265      1688      1689
 -1       432    8    0    1
 -2       146       147       302      1266      1690      1691
 -1       433    8    0    1
 -2       147       148       303      1267      1692      1693
 -1       434    8    0    1
 -2       148       149       304      1268      1694      1695
 -1       435    8    0    1
 -2       149       150       305      1269      1696      1697
 -1       436    8    0    1
 -2       150       151       306      1270      1698      1699
 -1       437    8    0    1
 -2       151       152       307      1271      1700      1701
 -1       438    8    0    1
 -2       152       153       308      1272      1702      1703
 -1       439    8    0    1
 -2       153       154       309      1273      1704      1705
 -1       440    8    0    1
 -2       154       155       310      1274      1706      1707
 -1       441    8    0    1
 -2       155       156       311      1275      1708      1709
 -1       442    8    0    1
 -2       156       157       312      1276      1710      1711
 -1       443    8    0    1
 -2       157       158       313      1277      1712      1713
 -1       444    8    0    1
 -2       158         1       314      1278      1714      1715
 -1       445    8    0    1
 -2         1       159       315      1279      1716      1717
 -1       446    8    0    1
 -2       159       160       316      1280      1718      1719
 -1       447    8    0    1
 -2       160       161       317      1281      1720      1721
 -1       448    8    0    1
 -2       161       162       318      1282      1722      1723
 -1       449    8    0    1
 -2       162       163       319      1283      1724      1725
 -1       450    8    0    1
 -2       163       164       320      1284      1726      1727
 -1       451    8    0    1
 -2       164         2       321      1285      1728      1729
 -1       452    8    0    1
 -2       295       140       296      1676      1679      1730
 -1       453    8    0    1
 -2       294       139       295      1674      1677      1731
 -1       454    8    0    1
 -2       120       121       276      1624      1732      1621
 -1       455    8    0    1
 -2       121       277       276      1626      1733      1732
 -1       456    8    0    1
 -2       292       137       293      1670      1673      1734
 -1       457    8    0    1
 -2       293       138       294      1672      1675      1735
 -1       458    8    0    1
 -2         2       292       321      1671      1736      1728
 -1       459    8    0    1
 -2       141       297       296      1681      1737      1678
 -1       460    8    0    1
 -2       142       298       297      1683      1738      1680
 -1       461    8    0    1
 -2       143       299       298      1685      1739      1682
 -1       462    8    0    1
 -2       144       300       299      1687      1740      1684
 -1       463    8    0    1
 -2       145       301       300      1689      1741      1686
 -1       464    8    0    1
 -2       146       302       301      1691      1742      1688
 -1       465    8    0    1
 -2       147       303       302      1693      1743      1690
 -1       466    8    0    1
 -2       148       304       303      1695      1744      1692
 -1       467    8    0    1
 -2       149       305       304      1697      1745      1694
 -1       468    8    0    1
 -2       150       306       305      1699      1746      1696
 -1       469    8    0    1
 -2       151       307       306      1701      1747      1698
 -1       470    8    0    1
 -2       152       308       307      1703      1748      1700
 -1       471    8    0    1
 -2       153       309       308      1705      1749      1702
 -1       472    8    0    1
 -2       154       310       309      1707      1750      1704
 -1       473    8    0    1
 -2       155       311       310      1709      1751      1706
 -1       474    8    0    1
 -2       156       312       311      1711      1752      1708
 -1       475    8    0    1
 -2       157       313       312      1713      1753      1710
 -1       476    8    0    1
 -2       158       314       313      1715      1754      1712
 -1       477    8    0    1
 -2         1       315       314      1717      1755      1714
 -1       478    8    0    1
 -2       159       316       315      1719      1756      1716
 -1       479    8    0    1
 -2       160       317       316      1721      1757      1718
 -1       480    8    0    1
 -2       161       318       317      1723      1758      1720
 -1       481    8    0    1
 -2       162       319       318      1725      1759      1722
 -1       482    8    0    1
 -2       163       320       319      1727      1760      1724
 -1       483    8    0    1
 -2       164       321       320      1729      1761      1726
 -1       484    8    0    1
 -2        23         7       165      1286      1288      1762
 -1       485    8    0    1
 -2       166       167       322      1294      1763      1764
 -1       486    8    0    1
 -2       165       166       323      1291      1765      1766
 -1       487    8    0    1
 -2       166       322       323      1764      1767      1765
 -1       488    8    0    1
 -2       168       169       324      1300      1768      1769
 -1       489    8    0    1
 -2       169       170       325      1303      1770      1771
 -1       490    8    0    1
 -2       169       325       324      1771      1772      1768
 -1       491    8    0    1
 -2       170       171       326      1306      1773      1774
 -1       492    8    0    1
 -2       170       326       325      1774      1775      1770
 -1       493    8    0    1
 -2       171       172       327      1309      1776      1777
 -1       494    8    0    1
 -2       171       327       326      1777      1778      1773
 -1       495    8    0    1
 -2       172       173       328      1312      1779      1780
 -1       496    8    0    1
 -2       172       328       327      1780      1781      1776
 -1       497    8    0    1
 -2       173       174       329      1315      1782      1783
 -1       498    8    0    1
 -2       173       329       328      1783      1784      1779
 -1       499    8    0    1
 -2       174       175       330      1318      1785      1786
 -1       500    8    0    1
 -2       174       330       329      1786      1787      1782
 -1       501    8    0    1
 -2       175       176       331      1321      1788      1789
 -1       502    8    0    1
 -2       175       331       330      1789      1790      1785
 -1       503    8    0    1
 -2       176       177       332      1324      1791      1792
 -1       504    8    0    1
 -2       176       332       331      1792      1793      1788
 -1       505    8    0    1
 -2       177       178       333      1327      1794      1795
 -1       506    8    0    1
 -2       177       333       332      1795      1796      1791
 -1       507    8    0    1
 -2       178       179       334      1330      1797      1798
 -1       508    8    0    1
 -2       178       334       333      1798      1799      1794
 -1       509    8    0    1
 -2       179       180       335      1333      1800      1801
 -1       510    8    0    1
 -2       334       179       335      1797      1801      1802
 -1       511    8    0    1
 -2       180       229       335      1482      1803      1800
 -1       512    8    0    1
 -2       181        23       165      1335      1762      1804
 -1       513    8    0    1
 -2       229       230       336      1485      1805      1806
 -1       514    8    0    1
 -2       229       336       335      1806      1807      1803
 -1       515    8    0    1
 -2       181       165       323      1804      1766      1808
 -1       516    8    0    1
 -2       183       182       337      1342      1809      1810
 -1       517    8    0    1
 -2       184       183       338      1345      1811      1812
 -1       518    8    0    1
 -2       183       337       338      1810      1813      1811
 -1       519    8    0    1
 -2       185       184       339      1348      1814      1815
 -1       520    8    0    1
 -2       184       338       339      1812      1816      1814
 -1       521    8    0    1
 -2       186       185       340      1351      1817      1818
 -1       522    8    0    1
 -2       185       339       340      1815      1819      1817
 -1       523    8    0    1
 -2       187       186       341      1354      1820      1821
 -1       524    8    0    1
 -2       186       340       341      1818      1822      1820
 -1       525    8    0    1
 -2       188       187       342      1357      1823      1824
 -1       526    8    0    1
 -2       187       341       342      1821      1825      1823
 -1       527    8    0    1
 -2       189       188       343      1360      1826      1827
 -1       528    8    0    1
 -2       188       342       343      1824      1828      1826
 -1       529    8    0    1
 -2       190       189       344      1363      1829      1830
 -1       530    8    0    1
 -2       189       343       344      1827      1831      1829
 -1       531    8    0    1
 -2       191       190       345      1366      1832      1833
 -1       532    8    0    1
 -2       190       344       345      1830      1834      1832
 -1       533    8    0    1
 -2       192       191       346      1369      1835      1836
 -1       534    8    0    1
 -2       191       345       346      1833      1837      1835
 -1       535    8    0    1
 -2       193       192       347      1372      1838      1839
 -1       536    8    0    1
 -2       192       346       347      1836      1840      1838
 -1       537    8    0    1
 -2       194       193       348      1375      1841      1842
 -1       538    8    0    1
 -2       193       347       348      1839      1843      1841
 -1       539    8    0    1
 -2       195       194       349      1378      1844      1845
 -1       540    8    0    1
 -2       194       348       349      1842      1846      1844
 -1       541    8    0    1
 -2       196       195       350      1381      1847      1848
 -1       542    8    0    1
 -2       195       349       350      1845      1849      1847
 -1       543    8    0    1
 -2       197       196       351      1384      1850      1851
 -1       544    8    0    1
 -2       196       350       351      1848      1852      1850
 -1       545    8    0    1
 -2       198       197       352      1387      1853      1854
 -1       546    8    0    1
 -2       197       351       352      1851      1855      1853
 -1       547    8    0    1
 -2       199       198       353      1390      1856      1857
 -1       548    8    0    1
 -2       198       352       353      1854      1858      1856
 -1       549    8    0    1
 -2       200       199       354      1393      1859      1860
 -1       550    8    0    1
 -2       199       353       354      1857      1861      1859
 -1       551    8    0    1
 -2       201       200       355      1396      1862      1863
 -1       552    8    0    1
 -2       200       354       355      1860      1864      1862
 -1       553    8    0    1
 -2       202       201       356      1399      1865      1866
 -1       554    8    0    1
 -2       201       355       356      1863      1867      1865
 -1       555    8    0    1
 -2       203       202       357      1402      1868      1869
 -1       556    8    0    1
 -2       202       356       357      1866      1870      1868
 -1       557    8    0    1
 -2       204       203       358      1405      1871      1872
 -1       558    8    0    1
 -2       203       357       358      1869      1873      1871
 -1       559    8    0    1
 -2       205       204       359      1408      1874      1875
 -1       560    8    0    1
 -2       204       358       359      1872      1876      1874
 -1       561    8    0    1
 -2       206       205       360      1411      1877      1878
 -1       562    8    0    1
 -2       205       359       360      1875      1879      1877
 -1       563    8    0    1
 -2       207       206       361      1414      1880      1881
 -1       564    8    0    1
 -2       206       360       361      1878      1882      1880
 -1       565    8    0    1
 -2       208       207       362      1417      1883      1884
 -1       566    8    0    1
 -2       207       361       362      1881      1885      1883
 -1       567    8    0    1
 -2       209       208       363      1420      1886      1887
 -1       568    8    0    1
 -2       208       362       363      1884      1888      1886
 -1       569    8    0    1
 -2       210       209       364      1423      1889      1890
 -1       570    8    0    1
 -2       209       363       364      1887      1891      1889
 -1       571    8    0    1
 -2       211       210       365      1426      1892      1893
 -1       572    8    0    1
 -2       210       364       365      1890      1894      1892
 -1       573    8    0    1
 -2       212       211       366      1429      1895      1896
 -1       574    8    0    1
 -2       211       365       366      1893      1897      1895
 -1       575    8    0    1
 -2       213       212       367      1432      1898      1899
 -1       576    8    0    1
 -2       212       366       367      1896      1900      1898
 -1       577    8    0    1
 -2       214       213       368      1435      1901      1902
 -1       578    8    0    1
 -2       213       367       368      1899      1903      1901
 -1       579    8    0    1
 -2       215       214       369      1438      1904      1905
 -1       580    8    0    1
 -2       214       368       369      1902      1906      1904
 -1       581    8    0    1
 -2       216       215       370      1441      1907      1908
 -1       582    8    0    1
 -2       215       369       370      1905      1909      1907
 -1       583    8    0    1
 -2       217       216       371      1444      1910      1911
 -1       584    8    0    1
 -2       216       370       371      1908      1912      1910
 -1       585    8    0    1
 -2       218       217       372      1447      1913      1914
 -1       586    8    0    1
 -2       217       371       372      1911      1915      1913
 -1       587    8    0    1
 -2       219       218       373      1450      1916      1917
 -1       588    8    0    1
 -2       218       372       373      1914      1918      1916
 -1       589    8    0    1
 -2       220       219       374      1453      1919      1920
 -1       590    8    0    1
 -2       219       373       374      1917      1921      1919
 -1       591    8    0    1
 -2       221       220       375      1456      1922      1923
 -1       592    8    0    1
 -2       220       374       375      1920      1924      1922
 -1       593    8    0    1
 -2       222       221       376      1459      1925      1926
 -1       594    8    0    1
 -2       221       375       376      1923      1927      1925
 -1       595    8    0    1
 -2       223       222       377      1462      1928      1929
 -1       596    8    0    1
 -2       222       376       377      1926      1930      1928
 -1       597    8    0    1
 -2       224       223       378      1465      1931      1932
 -1       598    8    0    1
 -2       223       377       378      1929      1933      1931
 -1       599    8    0    1
 -2       225       224       379      1468      1934      1935
 -1       600    8    0    1
 -2       224       378       379      1932      1936      1934
 -1       601    8    0    1
 -2       226       225       380      1471      1937      1938
 -1       602    8    0    1
 -2       225       379       380      1935      1939      1937
 -1       603    8    0    1
 -2       227       226       381      1474      1940      1941
 -1       604    8    0    1
 -2       226       380       381      1938      1942      1940
 -1       605    8    0    1
 -2       228       227       382      1477      1943      1944
 -1       606    8    0    1
 -2       291       228       382      1669      1944      1945
 -1       607    8    0    1
 -2       227       381       382      1941      1946      1943
 -1       608    8    0    1
 -2       230       231       383      1488      1947      1948
 -1       609    8    0    1
 -2       230       383       336      1948      1949      1805
 -1       610    8    0    1
 -2       231       232       384      1491      1950      1951
 -1       611    8    0    1
 -2       231       384       383      1951      1952      1947
 -1       612    8    0    1
 -2       232       233       385      1494      1953      1954
 -1       613    8    0    1
 -2       232       385       384      1954      1955      1950
 -1       614    8    0    1
 -2       233       234       386      1497      1956      1957
 -1       615    8    0    1
 -2       233       386       385      1957      1958      1953
 -1       616    8    0    1
 -2       234       235       387      1500      1959      1960
 -1       617    8    0    1
 -2       234       387       386      1960      1961      1956
 -1       618    8    0    1
 -2       235       236       388      1503      1962      1963
 -1       619    8    0    1
 -2       235       388       387      1963      1964      1959
 -1       620    8    0    1
 -2       236       237       389      1506      1965      1966
 -1       621    8    0    1
 -2       236       389       388      1966      1967      1962
 -1       622    8    0    1
 -2       237       238       390      1509      1968      1969
 -1       623    8    0    1
 -2       237       390       389      1969      1970      1965
 -1       624    8    0    1
 -2       238       239       391      1512      1971      1972
 -1       625    8    0    1
 -2       238       391       390      1972      1973      1968
 -1       626    8    0    1
 -2       239       240       392      1515      1974      1975
 -1       627    8    0    1
 -2       239       392       391      1975      1976      1971
 -1       628    8    0    1
 -2       240       241       393      1518      1977      1978
 -1       629    8    0    1
 -2       240       393       392      1978      1979      1974
 -1       630    8    0    1
 -2       241       242       394      1521      1980      1981
 -1       631    8    0    1
 -2       241       394       393      1981      1982      1977
 -1       632    8    0    1
 -2       242       243       395      1524      1983      1984
 -1       633    8    0    1
 -2       242       395       394      1984      1985      1980
 -1       634    8    0    1
 -2       243       244       396      1527      1986      1987
 -1       635    8    0    1
 -2       243       396       395      1987      1988      1983
 -1       636    8    0    1
 -2       244       245       397      1530      1989      1990
 -1       637    8    0    1
 -2       244       397       396      1990      1991      1986
 -1       638    8    0    1
 -2       245       246       398      1533      1992      1993
 -1       639    8    0    1
 -2       245       398       397      1993      1994      1989
 -1       640    8    0    1
 -2       246       247       399      1536      1995      1996
 -1       641    8    0    1
 -2       246       399       398      1996      1997      1992
 -1       642    8    0    1
 -2       247       248       400      1539      1998      1999
 -1       643    8    0    1
 -2       247       400       399      1999      2000      1995
 -1       644    8    0    1
 -2       248       249       401      1542      2001      2002
 -1       645    8    0    1
 -2       248       401       400      2002      2003      1998
 -1       646    8    0    1
 -2       249       250       402      1545      2004      2005
 -1       647    8    0    1
 -2       249       402       401      2005      2006      2001
 -1       648    8    0    1
 -2       250       251       403      1548      2007      2008
 -1       649    8    0    1
 -2       250       403       402      2008      2009      2004
 -1       650    8    0    1
 -2       251       252       404      1551      2010      2011
 -1       651    8    0    1
 -2       251       404       403      2011      2012      2007
 -1       652    8    0    1
 -2       252       253       405      1554      2013      2014
 -1       653    8    0    1
 -2       252       405       404      2014      2015      2010
 -1       654    8    0    1
 -2       253       254       406      1557      2016      2017
 -1       655    8    0    1
 -2       253       406       405      2017      2018      2013
 -1       656    8    0    1
 -2       254       255       407      1560      2019      2020
 -1       657    8    0    1
 -2       254       407       406      2020      2021      2016
 -1       658    8    0    1
 -2       255       256       408      1563      2022      2023
 -1       659    8    0    1
 -2       255       408       407      2023      2024      2019
 -1       660    8    0    1
 -2       256       257       409      1566      2025      2026
 -1       661    8    0    1
 -2       256       409       408      2026      2027      2022
 -1       662    8    0    1
 -2       257       258       410      1569      2028      2029
 -1       663    8    0    1
 -2       257       410       409      2029      2030      2025
 -1       664    8    0    1
 -2       258       259       411      1572      2031      2032
 -1       665    8    0    1
 -2       258       411       410      2032      2033      2028
 -1       666    8    0    1
 -2       259       260       412      1575      2034      2035
 -1       667    8    0    1
 -2       259       412       411      2035      2036      2031
 -1       668    8    0    1
 -2       260       261       413      1578      2037      2038
 -1       669    8    0    1
 -2       260       413       412      2038      2039      2034
 -1       670    8    0    1
 -2       261       262       414      1581      2040      2041
 -1       671    8    0    1
 -2       261       414       413      2041      2042      2037
 -1       672    8    0    1
 -2       262       263       415      1584      2043      2044
 -1       673    8    0    1
 -2       262       415       414      2044      2045      2040
 -1       674    8    0    1
 -2       263       264       416      1587      2046      2047
 -1       675    8    0    1
 -2       263       416       415      2047      2048      2043
 -1       676    8    0    1
 -2       264       265       417      1590      2049      2050
 -1       677    8    0    1
 -2       264       417       416      2050      2051      2046
 -1       678    8    0    1
 -2       265       266       418      1593      2052      2053
 -1       679    8    0    1
 -2       265       418       417      2053      2054      2049
 -1       680    8    0    1
 -2       266       267       419      1596      2055      2056
 -1       681    8    0    1
 -2       266       419       418      2056      2057      2052
 -1       682    8    0    1
 -2       267       268       420      1599      2058      2059
 -1       683    8    0    1
 -2       267       420       419      2059      2060      2055
 -1       684    8    0    1
 -2       268       269       421      1602      2061      2062
 -1       685    8    0    1
 -2       268       421       420      2062      2063      2058
 -1       686    8    0    1
 -2       269       270       422      1605      2064      2065
 -1       687    8    0    1
 -2       269       422       421      2065      2066      2061
 -1       688    8    0    1
 -2       270       271       423      1608      2067      2068
 -1       689    8    0    1
 -2       270       423       422      2068      2069      2064
 -1       690    8    0    1
 -2       271       272       424      1611      2070      2071
 -1       691    8    0    1
 -2       271       424       423      2071      2072      2067
 -1       692    8    0    1
 -2       272       273       425      1614      2073      2074
 -1       693    8    0    1
 -2       272       425       424      2074      2075      2070
 -1       694    8    0    1
 -2       273       274       426      1617      2076      2077
 -1       695    8    0    1
 -2       273       426       425      2077      2078      2073
 -1       696    8    0    1
 -2       274       275       427      1620      2079      2080
 -1       697    8    0    1
 -2       274       427       426      2080      2081      2076
 -1       698    8    0    1
 -2       275       276       428      1623      2082      2083
 -1       699    8    0    1
 -2       427       275       428      2079      2083      2084
 -1       700    8    0    1
 -2       276       277       428      1733      2085      2082
 -1       701    8    0    1
 -2       279       280       429      1635      2086      2087
 -1       702    8    0    1
 -2       278       279       430      1632      2088      2089
 -1       703    8    0    1
 -2       279       429       430      2087      2090      2088
 -1       704    8    0    1
 -2       277       278       431      1629      2091      2092
 -1       705    8    0    1
 -2       428       277       431      2085      2092      2093
 -1       706    8    0    1
 -2       278       430       431      2089      2094      2091
 -1       707    8    0    1
 -2       280       281       432      1638      2095      2096
 -1       708    8    0    1
 -2       280       432       429      2096      2097      2086
 -1       709    8    0    1
 -2       281       282       433      1641      2098      2099
 -1       710    8    0    1
 -2       281       433       432      2099      2100      2095
 -1       711    8    0    1
 -2       282       283       434      1644      2101      2102
 -1       712    8    0    1
 -2       282       434       433      2102      2103      2098
 -1       713    8    0    1
 -2       283       284       435      1647      2104      2105
 -1       714    8    0    1
 -2       283       435       434      2105      2106      2101
 -1       715    8    0    1
 -2       284       285       436      1650      2107      2108
 -1       716    8    0    1
 -2       284       436       435      2108      2109      2104
 -1       717    8    0    1
 -2       285       286       437      1653      2110      2111
 -1       718    8    0    1
 -2       285       437       436      2111      2112      2107
 -1       719    8    0    1
 -2       286       287       438      1656      2113      2114
 -1       720    8    0    1
 -2       286       438       437      2114      2115      2110
 -1       721    8    0    1
 -2       287       288       439      1659      2116      2117
 -1       722    8    0    1
 -2       287       439       438      2117      2118      2113
 -1       723    8    0    1
 -2       288       289       440      1662      2119      2120
 -1       724    8    0    1
 -2       288       440       439      2120      2121      2116
 -1       725    8    0    1
 -2       289       290       441      1665      2122      2123
 -1       726    8    0    1
 -2       289       441       440      2123      2124      2119
 -1       727    8    0    1
 -2       293       294       442      1735      2125      2126
 -1       728    8    0    1
 -2       321       292       443      1736      2127      2128
 -1       729    8    0    1
 -2       292       293       444      1734      2129      2130
 -1       730    8    0    1
 -2       294       295       445      1731      2131      2132
 -1       731    8    0    1
 -2       294       445       442      2132      2133      2125
 -1       732    8    0    1
 -2       295       296       446      1730      2134      2135
 -1       733    8    0    1
 -2       167       168       447      1297      2136      2137
 -1       734    8    0    1
 -2       322       167       447      1763      2137      2138
 -1       735    8    0    1
 -2       168       324       447      1769      2139      2136
 -1       736    8    0    1
 -2       297       298       448      1738      2140      2141
 -1       737    8    0    1
 -2       298       299       449      1739      2142      2143
 -1       738    8    0    1
 -2       299       300       450      1740      2144      2145
 -1       739    8    0    1
 -2       300       301       451      1741      2146      2147
 -1       740    8    0    1
 -2       301       302       452      1742      2148      2149
 -1       741    8    0    1
 -2       302       303       453      1743      2150      2151
 -1       742    8    0    1
 -2       302       453       452      2151      2152      2148
 -1       743    8    0    1
 -2       303       304       454      1744      2153      2154
 -1       744    8    0    1
 -2       304       305       455      1745      2155      2156
 -1       745    8    0    1
 -2       305       306       456      1746      2157      2158
 -1       746    8    0    1
 -2       306       307       457      1747      2159      2160
 -1       747    8    0    1
 -2       307       308       458      1748      2161      2162
 -1       748    8    0    1
 -2       308       309       459      1749      2163      2164
 -1       749    8    0    1
 -2       308       459       458      2164      2165      2161
 -1       750    8    0    1
 -2       309       310       460      1750      2166      2167
 -1       751    8    0    1
 -2       310       311       461      1751      2168      2169
 -1       752    8    0    1
 -2       310       461       460      2169      2170      2166
 -1       753    8    0    1
 -2       311       312       462      1752      2171      2172
 -1       754    8    0    1
 -2       312       313       463      1753      2173      2174
 -1       755    8    0    1
 -2       312       463       462      2174      2175      2171
 -1       756    8    0    1
 -2       313       314       464      1754      2176      2177
 -1       757    8    0    1
 -2       314       315       465      1755      2178      2179
 -1       758    8    0    1
 -2       315       316       466      1756      2180      2181
 -1       759    8    0    1
 -2       315       466       465      2181      2182      2178
 -1       760    8    0    1
 -2       316       317       467      1757      2183      2184
 -1       761    8    0    1
 -2       317       318       468      1758      2185      2186
 -1       762    8    0    1
 -2       317       468       467      2186      2187      2183
 -1       763    8    0    1
 -2       318       319       469      1759      2188      2189
 -1       764    8    0    1
 -2       319       320       470      1760      2190      2191
 -1       765    8    0    1
 -2       320       321       471      1761      2192      2193
 -1       766    8    0    1
 -2       296       297       472      1737      2194      2195
 -1       767    8    0    1
 -2       445       295       446      2131      2135      2196
 -1       768    8    0    1
 -2       181       323       182      1808      2197      1339
 -1       769    8    0    1
 -2       297       448       472      2141      2198      2194
 -1       770    8    0    1
 -2       337       182       323      1809      2197      2199
 -1       771    8    0    1
 -2       444       293       442      2129      2126      2200
 -1       772    8    0    1
 -2       443       292       444      2127      2130      2201
 -1       773    8    0    1
 -2       441       290       291      2122      1668      2202
 -1       774    8    0    1
 -2       321       443       471      2128      2203      2192
 -1       775    8    0    1
 -2       446       296       472      2134      2195      2204
 -1       776    8    0    1
 -2       470       320       471      2190      2193      2205
 -1       777    8    0    1
 -2       468       318       469      2185      2189      2206
 -1       778    8    0    1
 -2       466       316       467      2180      2184      2207
 -1       779    8    0    1
 -2       463       313       464      2173      2177      2208
 -1       780    8    0    1
 -2       461       311       473      2168      2209      2210
 -1       781    8    0    1
 -2       311       462       473      2172      2211      2209
 -1       782    8    0    1
 -2       459       309       460      2163      2167      2212
 -1       783    8    0    1
 -2       457       307       458      2159      2162      2213
 -1       784    8    0    1
 -2       456       306       457      2157      2160      2214
 -1       785    8    0    1
 -2       455       305       456      2155      2158      2215
 -1       786    8    0    1
 -2       453       303       454      2150      2154      2216
 -1       787    8    0    1
 -2       451       301       474      2146      2217      2218
 -1       788    8    0    1
 -2       301       452       474      2149      2219      2217
 -1       789    8    0    1
 -2       450       300       451      2144      2147      2220
 -1       790    8    0    1
 -2       448       298       449      2140      2143      2221
 -1       791    8    0    1
 -2       449       299       450      2142      2145      2222
 -1       792    8    0    1
 -2       454       304       455      2153      2156      2223
 -1       793    8    0    1
 -2       464       314       465      2176      2179      2224
 -1       794    8    0    1
 -2       469       319       470      2188      2191      2225
 -1       795    8    0    1
 -2       336       383       475      1949      2226      2227
 -1       796    8    0    1
 -2       325       326       476      1775      2228      2229
 -1       797    8    0    1
 -2       324       325       477      1772      2230      2231
 -1       798    8    0    1
 -2       325       476       477      2229      2232      2230
 -1       799    8    0    1
 -2       327       328       478      1781      2233      2234
 -1       800    8    0    1
 -2       328       329       479      1784      2235      2236
 -1       801    8    0    1
 -2       328       479       478      2236      2237      2233
 -1       802    8    0    1
 -2       329       330       480      1787      2238      2239
 -1       803    8    0    1
 -2       329       480       479      2239      2240      2235
 -1       804    8    0    1
 -2       330       331       481      1790      2241      2242
 -1       805    8    0    1
 -2       330       481       480      2242      2243      2238
 -1       806    8    0    1
 -2       331       332       482      1793      2244      2245
 -1       807    8    0    1
 -2       331       482       481      2245      2246      2241
 -1       808    8    0    1
 -2       332       333       483      1796      2247      2248
 -1       809    8    0    1
 -2       332       483       482      2248      2249      2244
 -1       810    8    0    1
 -2       383       384       484      1952      2250      2251
 -1       811    8    0    1
 -2       383       484       475      2251      2252      2226
 -1       812    8    0    1
 -2       338       337       485      1813      2253      2254
 -1       813    8    0    1
 -2       472       448       486      2198      2255      2256
 -1       814    8    0    1
 -2       339       338       487      1816      2257      2258
 -1       815    8    0    1
 -2       338       485       487      2254      2259      2257
 -1       816    8    0    1
 -2       340       339       488      1819      2260      2261
 -1       817    8    0    1
 -2       339       487       488      2258      2262      2260
 -1       818    8    0    1
 -2       341       340       489      1822      2263      2264
 -1       819    8    0    1
 -2       340       488       489      2261      2265      2263
 -1       820    8    0    1
 -2       342       341       490      1825      2266      2267
 -1       821    8    0    1
 -2       341       489       490      2264      2268      2266
 -1       822    8    0    1
 -2       343       342       491      1828      2269      2270
 -1       823    8    0    1
 -2       342       490       491      2267      2271      2269
 -1       824    8    0    1
 -2       344       343       492      1831      2272      2273
 -1       825    8    0    1
 -2       343       491       492      2270      2274      2272
 -1       826    8    0    1
 -2       345       344       493      1834      2275      2276
 -1       827    8    0    1
 -2       344       492       493      2273      2277      2275
 -1       828    8    0    1
 -2       346       345       494      1837      2278      2279
 -1       829    8    0    1
 -2       345       493       494      2276      2280      2278
 -1       830    8    0    1
 -2       347       346       495      1840      2281      2282
 -1       831    8    0    1
 -2       346       494       495      2279      2283      2281
 -1       832    8    0    1
 -2       348       347       496      1843      2284      2285
 -1       833    8    0    1
 -2       347       495       496      2282      2286      2284
 -1       834    8    0    1
 -2       349       348       497      1846      2287      2288
 -1       835    8    0    1
 -2       348       496       497      2285      2289      2287
 -1       836    8    0    1
 -2       350       349       498      1849      2290      2291
 -1       837    8    0    1
 -2       349       497       498      2288      2292      2290
 -1       838    8    0    1
 -2       351       350       499      1852      2293      2294
 -1       839    8    0    1
 -2       350       498       499      2291      2295      2293
 -1       840    8    0    1
 -2       352       351       500      1855      2296      2297
 -1       841    8    0    1
 -2       351       499       500      2294      2298      2296
 -1       842    8    0    1
 -2       353       352       501      1858      2299      2300
 -1       843    8    0    1
 -2       352       500       501      2297      2301      2299
 -1       844    8    0    1
 -2       354       353       502      1861      2302      2303
 -1       845    8    0    1
 -2       353       501       502      2300      2304      2302
 -1       846    8    0    1
 -2       355       354       503      1864      2305      2306
 -1       847    8    0    1
 -2       354       502       503      2303      2307      2305
 -1       848    8    0    1
 -2       356       355       504      1867      2308      2309
 -1       849    8    0    1
 -2       355       503       504      2306      2310      2308
 -1       850    8    0    1
 -2       357       356       505      1870      2311      2312
 -1       851    8    0    1
 -2       356       504       505      2309      2313      2311
 -1       852    8    0    1
 -2       358       357       506      1873      2314      2315
 -1       853    8    0    1
 -2       357       505       506      2312      2316      2314
 -1       854    8    0    1
 -2       359       358       507      1876      2317      2318
 -1       855    8    0    1
 -2       358       506       507      2315      2319      2317
 -1       856    8    0    1
 -2       360       359       508      1879      2320      2321
 -1       857    8    0    1
 -2       359       507       508      2318      2322      2320
 -1       858    8    0    1
 -2       361       360       509      1882      2323      2324
 -1       859    8    0    1
 -2       360       508       509      2321      2325      2323
 -1       860    8    0    1
 -2       362       361       510      1885      2326      2327
 -1       861    8    0    1
 -2       361       509       510      2324      2328      2326
 -1       862    8    0    1
 -2       363       362       511      1888      2329      2330
 -1       863    8    0    1
 -2       362       510       511      2327      2331      2329
 -1       864    8    0    1
 -2       364       363       512      1891      2332      2333
 -1       865    8    0    1
 -2       363       511       512      2330      2334      2332
 -1       866    8    0    1
 -2       365       364       513      1894      2335      2336
 -1       867    8    0    1
 -2       364       512       513      2333      2337      2335
 -1       868    8    0    1
 -2       366       365       514      1897      2338      2339
 -1       869    8    0    1
 -2       365       513       514      2336      2340      2338
 -1       870    8    0    1
 -2       367       366       515      1900      2341      2342
 -1       871    8    0    1
 -2       366       514       515      2339      2343      2341
 -1       872    8    0    1
 -2       368       367       516      1903      2344      2345
 -1       873    8    0    1
 -2       367       515       516      2342      2346      2344
 -1       874    8    0    1
 -2       369       368       517      1906      2347      2348
 -1       875    8    0    1
 -2       368       516       517      2345      2349      2347
 -1       876    8    0    1
 -2       370       369       518      1909      2350      2351
 -1       877    8    0    1
 -2       369       517       518      2348      2352      2350
 -1       878    8    0    1
 -2       371       370       519      1912      2353      2354
 -1       879    8    0    1
 -2       370       518       519      2351      2355      2353
 -1       880    8    0    1
 -2       372       371       520      1915      2356      2357
 -1       881    8    0    1
 -2       371       519       520      2354      2358      2356
 -1       882    8    0    1
 -2       373       372       521      1918      2359      2360
 -1       883    8    0    1
 -2       372       520       521      2357      2361      2359
 -1       884    8    0    1
 -2       374       373       522      1921      2362      2363
 -1       885    8    0    1
 -2       373       521       522      2360      2364      2362
 -1       886    8    0    1
 -2       375       374       523      1924      2365      2366
 -1       887    8    0    1
 -2       374       522       523      2363      2367      2365
 -1       888    8    0    1
 -2       376       375       524      1927      2368      2369
 -1       889    8    0    1
 -2       375       523       524      2366      2370      2368
 -1       890    8    0    1
 -2       377       376       525      1930      2371      2372
 -1       891    8    0    1
 -2       376       524       525      2369      2373      2371
 -1       892    8    0    1
 -2       378       377       526      1933      2374      2375
 -1       893    8    0    1
 -2       377       525       526      2372      2376      2374
 -1       894    8    0    1
 -2       379       378       527      1936      2377      2378
 -1       895    8    0    1
 -2       378       526       527      2375      2379      2377
 -1       896    8    0    1
 -2       380       379       528      1939      2380      2381
 -1       897    8    0    1
 -2       379       527       528      2378      2382      2380
 -1       898    8    0    1
 -2       381       380       529      1942      2383      2384
 -1       899    8    0    1
 -2       380       528       529      2381      2385      2383
 -1       900    8    0    1
 -2       385       386       530      1958      2386      2387
 -1       901    8    0    1
 -2       386       387       531      1961      2388      2389
 -1       902    8    0    1
 -2       386       531       530      2389      2390      2386
 -1       903    8    0    1
 -2       387       388       532      1964      2391      2392
 -1       904    8    0    1
 -2       387       532       531      2392      2393      2388
 -1       905    8    0    1
 -2       388       389       533      1967      2394      2395
 -1       906    8    0    1
 -2       388       533       532      2395      2396      2391
 -1       907    8    0    1
 -2       389       390       534      1970      2397      2398
 -1       908    8    0    1
 -2       389       534       533      2398      2399      2394
 -1       909    8    0    1
 -2       390       391       535      1973      2400      2401
 -1       910    8    0    1
 -2       390       535       534      2401      2402      2397
 -1       911    8    0    1
 -2       391       392       536      1976      2403      2404
 -1       912    8    0    1
 -2       391       536       535      2404      2405      2400
 -1       913    8    0    1
 -2       392       393       537      1979      2406      2407
 -1       914    8    0    1
 -2       392       537       536      2407      2408      2403
 -1       915    8    0    1
 -2       393       394       538      1982      2409      2410
 -1       916    8    0    1
 -2       393       538       537      2410      2411      2406
 -1       917    8    0    1
 -2       394       395       539      1985      2412      2413
 -1       918    8    0    1
 -2       394       539       538      2413      2414      2409
 -1       919    8    0    1
 -2       395       396       540      1988      2415      2416
 -1       920    8    0    1
 -2       395       540       539      2416      2417      2412
 -1       921    8    0    1
 -2       396       397       541      1991      2418      2419
 -1       922    8    0    1
 -2       396       541       540      2419      2420      2415
 -1       923    8    0    1
 -2       397       398       542      1994      2421      2422
 -1       924    8    0    1
 -2       397       542       541      2422      2423      2418
 -1       925    8    0    1
 -2       398       399       543      1997      2424      2425
 -1       926    8    0    1
 -2       398       543       542      2425      2426      2421
 -1       927    8    0    1
 -2       399       400       544      2000      2427      2428
 -1       928    8    0    1
 -2       399       544       543      2428      2429      2424
 -1       929    8    0    1
 -2       400       401       545      2003      2430      2431
 -1       930    8    0    1
 -2       400       545       544      2431      2432      2427
 -1       931    8    0    1
 -2       401       402       546      2006      2433      2434
 -1       932    8    0    1
 -2       401       546       545      2434      2435      2430
 -1       933    8    0    1
 -2       402       403       547      2009      2436      2437
 -1       934    8    0    1
 -2       402       547       546      2437      2438      2433
 -1       935    8    0    1
 -2       403       404       548      2012      2439      2440
 -1       936    8    0    1
 -2       403       548       547      2440      2441      2436
 -1       937    8    0    1
 -2       404       405       549      2015      2442      2443
 -1       938    8    0    1
 -2       404       549       548      2443      2444      2439
 -1       939    8    0    1
 -2       405       406       550      2018      2445      2446
 -1       940    8    0    1
 -2       405       550       549      2446      2447      2442
 -1       941    8    0    1
 -2       406       407       551      2021      2448      2449
 -1       942    8    0    1
 -2       406       551       550      2449      2450      2445
 -1       943    8    0    1
 -2       407       408       552      2024      2451      2452
 -1       944    8    0    1
 -2       407       552       551      2452      2453      2448
 -1       945    8    0    1
 -2       408       409       553      2027      2454      2455
 -1       946    8    0    1
 -2       408       553       552      2455      2456      2451
 -1       947    8    0    1
 -2       409       410       554      2030      2457      2458
 -1       948    8    0    1
 -2       409       554       553      2458      2459      2454
 -1       949    8    0    1
 -2       410       411       555      2033      2460      2461
 -1       950    8    0    1
 -2       410       555       554      2461      2462      2457
 -1       951    8    0    1
 -2       411       412       556      2036      2463      2464
 -1       952    8    0    1
 -2       411       556       555      2464      2465      2460
 -1       953    8    0    1
 -2       412       413       557      2039      2466      2467
 -1       954    8    0    1
 -2       412       557       556      2467      2468      2463
 -1       955    8    0    1
 -2       413       414       558      2042      2469      2470
 -1       956    8    0    1
 -2       413       558       557      2470      2471      2466
 -1       957    8    0    1
 -2       414       415       559      2045      2472      2473
 -1       958    8    0    1
 -2       414       559       558      2473      2474      2469
 -1       959    8    0    1
 -2       415       416       560      2048      2475      2476
 -1       960    8    0    1
 -2       415       560       559      2476      2477      2472
 -1       961    8    0    1
 -2       416       417       561      2051      2478      2479
 -1       962    8    0    1
 -2       416       561       560      2479      2480      2475
 -1       963    8    0    1
 -2       417       418       562      2054      2481      2482
 -1       964    8    0    1
 -2       417       562       561      2482      2483      2478
 -1       965    8    0    1
 -2       418       419       563      2057      2484      2485
 -1       966    8    0    1
 -2       418       563       562      2485      2486      2481
 -1       967    8    0    1
 -2       419       420       564      2060      2487      2488
 -1       968    8    0    1
 -2       419       564       563      2488      2489      2484
 -1       969    8    0    1
 -2       420       421       565      2063      2490      2491
 -1       970    8    0    1
 -2       420       565       564      2491      2492      2487
 -1       971    8    0    1
 -2       421       422       566      2066      2493      2494
 -1       972    8    0    1
 -2       421       566       565      2494      2495      2490
 -1       973    8    0    1
 -2       422       423       567      2069      2496      2497
 -1       974    8    0    1
 -2       422       567       566      2497      2498      2493
 -1       975    8    0    1
 -2       423       424       568      2072      2499      2500
 -1       976    8    0    1
 -2       423       568       567      2500      2501      2496
 -1       977    8    0    1
 -2       424       425       569      2075      2502      2503
 -1       978    8    0    1
 -2       424       569       568      2503      2504      2499
 -1       979    8    0    1
 -2       425       426       570      2078      2505      2506
 -1       980    8    0    1
 -2       425       570       569      2506      2507      2502
 -1       981    8    0    1
 -2       426       427       571      2081      2508      2509
 -1       982    8    0    1
 -2       426       571       570      2509      2510      2505
 -1       983    8    0    1
 -2       427       428       431      2084      2093      2511
 -1       984    8    0    1
 -2       432       433       572      2100      2512      2513
 -1       985    8    0    1
 -2       433       434       573      2103      2514      2515
 -1       986    8    0    1
 -2       433       573       572      2515      2516      2512
 -1       987    8    0    1
 -2       430       429       574      2090      2517      2518
 -1       988    8    0    1
 -2       429       432       575      2097      2519      2520
 -1       989    8    0    1
 -2       574       429       575      2517      2520      2521
 -1       990    8    0    1
 -2       432       572       575      2513      2522      2519
 -1       991    8    0    1
 -2       434       435       576      2106      2523      2524
 -1       992    8    0    1
 -2       434       576       573      2524      2525      2514
 -1       993    8    0    1
 -2       435       436       577      2109      2526      2527
 -1       994    8    0    1
 -2       435       577       576      2527      2528      2523
 -1       995    8    0    1
 -2       436       437       578      2112      2529      2530
 -1       996    8    0    1
 -2       436       578       577      2530      2531      2526
 -1       997    8    0    1
 -2       437       438       579      2115      2532      2533
 -1       998    8    0    1
 -2       437       579       578      2533      2534      2529
 -1       999    8    0    1
 -2       438       439       580      2118      2535      2536
 -1      1000    8    0    1
 -2       438       580       579      2536      2537      2532
 -1      1001    8    0    1
 -2       439       440       581      2121      2538      2539
 -1      1002    8    0    1
 -2       439       581       580      2539      2540      2535
 -1      1003    8    0    1
 -2       440       441       582      2124      2541      2542
 -1      1004    8    0    1
 -2       440       582       581      2542      2543      2538
 -1      1005    8    0    1
 -2       443       444       583      2201      2544      2545
 -1      1006    8    0    1
 -2       444       442       584      2200      2546      2547
 -1      1007    8    0    1
 -2       471       443       585      2203      2548      2549
 -1      1008    8    0    1
 -2       384       385       586      1955      2550      2551
 -1      1009    8    0    1
 -2       385       530       586      2387      2552      2550
 -1      1010    8    0    1
 -2       441       291       382      2202      1945      2553
 -1      1011    8    0    1
 -2       442       445       587      2133      2554      2555
 -1      1012    8    0    1
 -2       337       323       588      2199      2556      2557
 -1      1013    8    0    1
 -2       485       337       588      2253      2557      2558
 -1      1014    8    0    1
 -2       323       322       588      1767      2559      2556
 -1      1015    8    0    1
 -2       446       472       589      2204      2560      2561
 -1      1016    8    0    1
 -2       463       464       590      2208      2562      2563
 -1      1017    8    0    1
 -2       457       458       591      2213      2564      2565
 -1      1018    8    0    1
 -2       326       327       592      1778      2566      2567
 -1      1019    8    0    1
 -2       476       326       592      2228      2567      2568
 -1      1020    8    0    1
 -2       327       478       592      2234      2569      2566
 -1      1021    8    0    1
 -2       449       450       593      2222      2570      2571
 -1      1022    8    0    1
 -2       454       455       594      2223      2572      2573
 -1      1023    8    0    1
 -2       448       449       595      2221      2574      2575
 -1      1024    8    0    1
 -2       448       595       486      2575      2576      2255
 -1      1025    8    0    1
 -2       450       451       596      2220      2577      2578
 -1      1026    8    0    1
 -2       452       453       597      2152      2579      2580
 -1      1027    8    0    1
 -2       464       465       598      2224      2581      2582
 -1      1028    8    0    1
 -2       453       454       599      2216      2583      2584
 -1      1029    8    0    1
 -2       453       599       597      2584      2585      2579
 -1      1030    8    0    1
 -2       455       456       600      2215      2586      2587
 -1      1031    8    0    1
 -2       456       457       601      2214      2588      2589
 -1      1032    8    0    1
 -2       456       601       600      2589      2590      2586
 -1      1033    8    0    1
 -2       458       459       602      2165      2591      2592
 -1      1034    8    0    1
 -2       459       460       603      2212      2593      2594
 -1      1035    8    0    1
 -2       460       461       604      2170      2595      2596
 -1      1036    8    0    1
 -2       462       463       605      2175      2597      2598
 -1      1037    8    0    1
 -2       469       470       606      2225      2599      2600
 -1      1038    8    0    1
 -2       465       466       607      2182      2601      2602
 -1      1039    8    0    1
 -2       466       467       608      2207      2603      2604
 -1      1040    8    0    1
 -2       467       468       609      2187      2605      2606
 -1      1041    8    0    1
 -2       468       469       610      2206      2607      2608
 -1      1042    8    0    1
 -2       470       471       611      2205      2609      2610
 -1      1043    8    0    1
 -2       470       611       606      2610      2611      2599
 -1      1044    8    0    1
 -2       335       336       612      1807      2612      2613
 -1      1045    8    0    1
 -2       334       335       612      1802      2613      2614
 -1      1046    8    0    1
 -2       336       475       612      2227      2615      2612
 -1      1047    8    0    1
 -2       445       446       613      2196      2616      2617
 -1      1048    8    0    1
 -2       445       613       587      2617      2618      2554
 -1      1049    8    0    1
 -2       449       593       595      2571      2619      2574
 -1      1050    8    0    1
 -2       324       477       614      2231      2620      2621
 -1      1051    8    0    1
 -2       324       614       447      2621      2622      2139
 -1      1052    8    0    1
 -2       484       384       586      2250      2551      2623
 -1      1053    8    0    1
 -2       333       334       612      1799      2614      2624
 -1      1054    8    0    1
 -2       613       446       615      2616      2625      2626
 -1      1055    8    0    1
 -2       446       589       615      2561      2627      2625
 -1      1056    8    0    1
 -2       609       468       610      2605      2608      2628
 -1      1057    8    0    1
 -2       608       467       609      2603      2606      2629
 -1      1058    8    0    1
 -2       589       472       486      2560      2256      2630
 -1      1059    8    0    1
 -2       607       466       608      2601      2604      2631
 -1      1060    8    0    1
 -2       442       587       584      2555      2632      2546
 -1      1061    8    0    1
 -2       605       463       590      2597      2563      2633
 -1      1062    8    0    1
 -2       427       431       571      2511      2634      2508
 -1      1063    8    0    1
 -2       431       430       571      2094      2635      2634
 -1      1064    8    0    1
 -2       604       461       473      2595      2210      2636
 -1      1065    8    0    1
 -2       443       583       585      2545      2637      2548
 -1      1066    8    0    1
 -2       583       444       584      2544      2547      2638
 -1      1067    8    0    1
 -2       603       460       604      2593      2596      2639
 -1      1068    8    0    1
 -2       471       585       611      2549      2640      2609
 -1      1069    8    0    1
 -2       333       612       483      2624      2641      2247
 -1      1070    8    0    1
 -2       588       322       447      2559      2138      2642
 -1      1071    8    0    1
 -2       601       457       591      2588      2565      2643
 -1      1072    8    0    1
 -2       599       454       594      2583      2573      2644
 -1      1073    8    0    1
 -2       610       469       616      2607      2645      2646
 -1      1074    8    0    1
 -2       469       606       616      2600      2647      2645
 -1      1075    8    0    1
 -2       590       464       598      2562      2582      2648
 -1      1076    8    0    1
 -2       598       465       607      2581      2602      2649
 -1      1077    8    0    1
 -2       455       600       594      2587      2650      2572
 -1      1078    8    0    1
 -2       473       462       605      2211      2598      2651
 -1      1079    8    0    1
 -2       591       458       602      2564      2592      2652
 -1      1080    8    0    1
 -2       474       452       597      2219      2580      2653
 -1      1081    8    0    1
 -2       451       474       617      2218      2654      2655
 -1      1082    8    0    1
 -2       451       617       596      2655      2656      2577
 -1      1083    8    0    1
 -2       450       596       593      2578      2657      2570
 -1      1084    8    0    1
 -2       602       459       603      2591      2594      2658
 -1      1085    8    0    1
 -2       441       382       618      2553      2659      2660
 -1      1086    8    0    1
 -2       582       441       618      2541      2660      2661
 -1      1087    8    0    1
 -2       382       381       618      1946      2662      2659
 -1      1088    8    0    1
 -2       571       430       574      2635      2518      2663
 -1      1089    8    0    1
 -2       618       381       529      2662      2384      2664
 -1      1090    8    0    1
 -2       479       480       619      2240      2665      2666
 -1      1091    8    0    1
 -2       478       479       620      2237      2667      2668
 -1      1092    8    0    1
 -2       479       619       620      2666      2669      2667
 -1      1093    8    0    1
 -2       481       482       621      2246      2670      2671
 -1      1094    8    0    1
 -2       482       483       622      2249      2672      2673
 -1      1095    8    0    1
 -2       482       622       621      2673      2674      2670
 -1      1096    8    0    1
 -2       475       484       623      2252      2675      2676
 -1      1097    8    0    1
 -2       588       447       614      2642      2622      2677
 -1      1098    8    0    1
 -2       484       586       624      2623      2678      2679
 -1      1099    8    0    1
 -2       484       624       623      2679      2680      2675
 -1      1100    8    0    1
 -2       607       608       625      2631      2681      2682
 -1      1101    8    0    1
 -2       488       487       626      2262      2683      2684
 -1      1102    8    0    1
 -2       489       488       627      2265      2685      2686
 -1      1103    8    0    1
 -2       488       626       627      2684      2687      2685
 -1      1104    8    0    1
 -2       490       489       628      2268      2688      2689
 -1      1105    8    0    1
 -2       489       627       628      2686      2690      2688
 -1      1106    8    0    1
 -2       491       490       629      2271      2691      2692
 -1      1107    8    0    1
 -2       490       628       629      2689      2693      2691
 -1      1108    8    0    1
 -2       492       491       630      2274      2694      2695
 -1      1109    8    0    1
 -2       491       629       630      2692      2696      2694
 -1      1110    8    0    1
 -2       493       492       631      2277      2697      2698
 -1      1111    8    0    1
 -2       492       630       631      2695      2699      2697
 -1      1112    8    0    1
 -2       494       493       632      2280      2700      2701
 -1      1113    8    0    1
 -2       493       631       632      2698      2702      2700
 -1      1114    8    0    1
 -2       495       494       633      2283      2703      2704
 -1      1115    8    0    1
 -2       494       632       633      2701      2705      2703
 -1      1116    8    0    1
 -2       496       495       634      2286      2706      2707
 -1      1117    8    0    1
 -2       495       633       634      2704      2708      2706
 -1      1118    8    0    1
 -2       497       496       635      2289      2709      2710
 -1      1119    8    0    1
 -2       496       634       635      2707      2711      2709
 -1      1120    8    0    1
 -2       498       497       636      2292      2712      2713
 -1      1121    8    0    1
 -2       497       635       636      2710      2714      2712
 -1      1122    8    0    1
 -2       499       498       637      2295      2715      2716
 -1      1123    8    0    1
 -2       498       636       637      2713      2717      2715
 -1      1124    8    0    1
 -2       500       499       638      2298      2718      2719
 -1      1125    8    0    1
 -2       499       637       638      2716      2720      2718
 -1      1126    8    0    1
 -2       501       500       639      2301      2721      2722
 -1      1127    8    0    1
 -2       500       638       639      2719      2723      2721
 -1      1128    8    0    1
 -2       502       501       640      2304      2724      2725
 -1      1129    8    0    1
 -2       501       639       640      2722      2726      2724
 -1      1130    8    0    1
 -2       503       502       641      2307      2727      2728
 -1      1131    8    0    1
 -2       502       640       641      2725      2729      2727
 -1      1132    8    0    1
 -2       504       503       642      2310      2730      2731
 -1      1133    8    0    1
 -2       503       641       642      2728      2732      2730
 -1      1134    8    0    1
 -2       505       504       643      2313      2733      2734
 -1      1135    8    0    1
 -2       504       642       643      2731      2735      2733
 -1      1136    8    0    1
 -2       506       505       644      2316      2736      2737
 -1      1137    8    0    1
 -2       505       643       644      2734      2738      2736
 -1      1138    8    0    1
 -2       507       506       645      2319      2739      2740
 -1      1139    8    0    1
 -2       506       644       645      2737      2741      2739
 -1      1140    8    0    1
 -2       508       507       646      2322      2742      2743
 -1      1141    8    0    1
 -2       507       645       646      2740      2744      2742
 -1      1142    8    0    1
 -2       509       508       647      2325      2745      2746
 -1      1143    8    0    1
 -2       508       646       647      2743      2747      2745
 -1      1144    8    0    1
 -2       510       509       648      2328      2748      2749
 -1      1145    8    0    1
 -2       509       647       648      2746      2750      2748
 -1      1146    8    0    1
 -2       511       510       649      2331      2751      2752
 -1      1147    8    0    1
 -2       510       648       649      2749      2753      2751
 -1      1148    8    0    1
 -2       512       511       650      2334      2754      2755
 -1      1149    8    0    1
 -2       511       649       650      2752      2756      2754
 -1      1150    8    0    1
 -2       513       512       651      2337      2757      2758
 -1      1151    8    0    1
 -2       512       650       651      2755      2759      2757
 -1      1152    8    0    1
 -2       514       513       652      2340      2760      2761
 -1      1153    8    0    1
 -2       513       651       652      2758      2762      2760
 -1      1154    8    0    1
 -2       515       514       653      2343      2763      2764
 -1      1155    8    0    1
 -2       514       652       653      2761      2765      2763
 -1      1156    8    0    1
 -2       516       515       654      2346      2766      2767
 -1      1157    8    0    1
 -2       515       653       654      2764      2768      2766
 -1      1158    8    0    1
 -2       517       516       655      2349      2769      2770
 -1      1159    8    0    1
 -2       516       654       655      2767      2771      2769
 -1      1160    8    0    1
 -2       518       517       656      2352      2772      2773
 -1      1161    8    0    1
 -2       517       655       656      2770      2774      2772
 -1      1162    8    0    1
 -2       519       518       657      2355      2775      2776
 -1      1163    8    0    1
 -2       518       656       657      2773      2777      2775
 -1      1164    8    0    1
 -2       520       519       658      2358      2778      2779
 -1      1165    8    0    1
 -2       519       657       658      2776      2780      2778
 -1      1166    8    0    1
 -2       521       520       659      2361      2781      2782
 -1      1167    8    0    1
 -2       520       658       659      2779      2783      2781
 -1      1168    8    0    1
 -2       522       521       660      2364      2784      2785
 -1      1169    8    0    1
 -2       521       659       660      2782      2786      2784
 -1      1170    8    0    1
 -2       523       522       661      2367      2787      2788
 -1      1171    8    0    1
 -2       522       660       661      2785      2789      2787
 -1      1172    8    0    1
 -2       524       523       662      2370      2790      2791
 -1      1173    8    0    1
 -2       523       661       662      2788      2792      2790
 -1      1174    8    0    1
 -2       525       524       663      2373      2793      2794
 -1      1175    8    0    1
 -2       524       662       663      2791      2795      2793
 -1      1176    8    0    1
 -2       526       525       664      2376      2796      2797
 -1      1177    8    0    1
 -2       525       663       664      2794      2798      2796
 -1      1178    8    0    1
 -2       527       526       665      2379      2799      2800
 -1      1179    8    0    1
 -2       526       664       665      2797      2801      2799
 -1      1180    8    0    1
 -2       528       527       666      2382      2802      2803
 -1      1181    8    0    1
 -2       527       665       666      2800      2804      2802
 -1      1182    8    0    1
 -2       529       528       667      2385      2805      2806
 -1      1183    8    0    1
 -2       528       666       667      2803      2807      2805
 -1      1184    8    0    1
 -2       531       532       668      2393      2808      2809
 -1      1185    8    0    1
 -2       571       574       669      2663      2810      2811
 -1      1186    8    0    1
 -2       571       669       570      2811      2812      2510
 -1      1187    8    0    1
 -2       530       531       670      2390      2813      2814
 -1      1188    8    0    1
 -2       531       668       670      2809      2815      2813
 -1      1189    8    0    1
 -2       533       534       671      2399      2816      2817
 -1      1190    8    0    1
 -2       534       535       672      2402      2818      2819
 -1      1191    8    0    1
 -2       534       672       671      2819      2820      2816
 -1      1192    8    0    1
 -2       535       536       673      2405      2821      2822
 -1      1193    8    0    1
 -2       535       673       672      2822      2823      2818
 -1      1194    8    0    1
 -2       536       537       674      2408      2824      2825
 -1      1195    8    0    1
 -2       536       674       673      2825      2826      2821
 -1      1196    8    0    1
 -2       537       538       675      2411      2827      2828
 -1      1197    8    0    1
 -2       537       675       674      2828      2829      2824
 -1      1198    8    0    1
 -2       538       539       676      2414      2830      2831
 -1      1199    8    0    1
 -2       538       676       675      2831      2832      2827
 -1      1200    8    0    1
 -2       539       540       677      2417      2833      2834
 -1      1201    8    0    1
 -2       539       677       676      2834      2835      2830
 -1      1202    8    0    1
 -2       540       541       678      2420      2836      2837
 -1      1203    8    0    1
 -2       540       678       677      2837      2838      2833
 -1      1204    8    0    1
 -2       541       542       679      2423      2839      2840
 -1      1205    8    0    1
 -2       541       679       678      2840      2841      2836
 -1      1206    8    0    1
 -2       542       543       680      2426      2842      2843
 -1      1207    8    0    1
 -2       542       680       679      2843      2844      2839
 -1      1208    8    0    1
 -2       543       544       681      2429      2845      2846
 -1      1209    8    0    1
 -2       543       681       680      2846      2847      2842
 -1      1210    8    0    1
 -2       544       545       682      2432      2848      2849
 -1      1211    8    0    1
 -2       544       682       681      2849      2850      2845
 -1      1212    8    0    1
 -2       545       546       683      2435      2851      2852
 -1      1213    8    0    1
 -2       545       683       682      2852      2853      2848
 -1      1214    8    0    1
 -2       546       547       684      2438      2854      2855
 -1      1215    8    0    1
 -2       546       684       683      2855      2856      2851
 -1      1216    8    0    1
 -2       547       548       685      2441      2857      2858
 -1      1217    8    0    1
 -2       547       685       684      2858      2859      2854
 -1      1218    8    0    1
 -2       548       549       686      2444      2860      2861
 -1      1219    8    0    1
 -2       548       686       685      2861      2862      2857
 -1      1220    8    0    1
 -2       549       550       687      2447      2863      2864
 -1      1221    8    0    1
 -2       549       687       686      2864      2865      2860
 -1      1222    8    0    1
 -2       550       551       688      2450      2866      2867
 -1      1223    8    0    1
 -2       550       688       687      2867      2868      2863
 -1      1224    8    0    1
 -2       551       552       689      2453      2869      2870
 -1      1225    8    0    1
 -2       551       689       688      2870      2871      2866
 -1      1226    8    0    1
 -2       552       553       690      2456      2872      2873
 -1      1227    8    0    1
 -2       552       690       689      2873      2874      2869
 -1      1228    8    0    1
 -2       553       554       691      2459      2875      2876
 -1      1229    8    0    1
 -2       553       691       690      2876      2877      2872
 -1      1230    8    0    1
 -2       554       555       617      2462      2878      2879
 -1      1231    8    0    1
 -2       556       557       692      2468      2880      2881
 -1      1232    8    0    1
 -2       557       558       693      2471      2882      2883
 -1      1233    8    0    1
 -2       557       693       692      2883      2884      2880
 -1      1234    8    0    1
 -2       558       559       694      2474      2885      2886
 -1      1235    8    0    1
 -2       558       694       693      2886      2887      2882
 -1      1236    8    0    1
 -2       559       560       695      2477      2888      2889
 -1      1237    8    0    1
 -2       559       695       694      2889      2890      2885
 -1      1238    8    0    1
 -2       560       561       696      2480      2891      2892
 -1      1239    8    0    1
 -2       560       696       695      2892      2893      2888
 -1      1240    8    0    1
 -2       561       562       697      2483      2894      2895
 -1      1241    8    0    1
 -2       561       697       696      2895      2896      2891
 -1      1242    8    0    1
 -2       562       563       698      2486      2897      2898
 -1      1243    8    0    1
 -2       562       698       697      2898      2899      2894
 -1      1244    8    0    1
 -2       563       564       699      2489      2900      2901
 -1      1245    8    0    1
 -2       563       699       698      2901      2902      2897
 -1      1246    8    0    1
 -2       564       565       700      2492      2903      2904
 -1      1247    8    0    1
 -2       564       700       699      2904      2905      2900
 -1      1248    8    0    1
 -2       565       566       701      2495      2906      2907
 -1      1249    8    0    1
 -2       565       701       700      2907      2908      2903
 -1      1250    8    0    1
 -2       566       567       702      2498      2909      2910
 -1      1251    8    0    1
 -2       566       702       701      2910      2911      2906
 -1      1252    8    0    1
 -2       567       568       703      2501      2912      2913
 -1      1253    8    0    1
 -2       567       703       702      2913      2914      2909
 -1      1254    8    0    1
 -2       568       569       704      2504      2915      2916
 -1      1255    8    0    1
 -2       568       704       703      2916      2917      2912
 -1      1256    8    0    1
 -2       569       570       705      2507      2918      2919
 -1      1257    8    0    1
 -2       704       569       705      2915      2919      2920
 -1      1258    8    0    1
 -2       570       669       705      2812      2921      2918
 -1      1259    8    0    1
 -2       576       577       706      2528      2922      2923
 -1      1260    8    0    1
 -2       618       529       707      2664      2924      2925
 -1      1261    8    0    1
 -2       529       667       707      2806      2926      2924
 -1      1262    8    0    1
 -2       572       573       708      2516      2927      2928
 -1      1263    8    0    1
 -2       577       578       709      2531      2929      2930
 -1      1264    8    0    1
 -2       577       709       706      2930      2931      2922
 -1      1265    8    0    1
 -2       573       576       710      2525      2932      2933
 -1      1266    8    0    1
 -2       708       573       710      2927      2933      2934
 -1      1267    8    0    1
 -2       576       706       710      2923      2935      2932
 -1      1268    8    0    1
 -2       605       590       711      2633      2936      2937
 -1      1269    8    0    1
 -2       578       579       712      2534      2938      2939
 -1      1270    8    0    1
 -2       578       712       709      2939      2940      2929
 -1      1271    8    0    1
 -2       579       580       713      2537      2941      2942
 -1      1272    8    0    1
 -2       579       713       712      2942      2943      2938
 -1      1273    8    0    1
 -2       580       581       714      2540      2944      2945
 -1      1274    8    0    1
 -2       580       714       713      2945      2946      2941
 -1      1275    8    0    1
 -2       603       604       715      2639      2947      2948
 -1      1276    8    0    1
 -2       595       593       692      2619      2949      2950
 -1      1277    8    0    1
 -2       485       588       716      2558      2951      2952
 -1      1278    8    0    1
 -2       487       485       716      2259      2952      2953
 -1      1279    8    0    1
 -2       588       614       716      2677      2954      2951
 -1      1280    8    0    1
 -2       483       612       475      2641      2615      2955
 -1      1281    8    0    1
 -2       604       473       717      2636      2956      2957
 -1      1282    8    0    1
 -2       599       594       718      2644      2958      2959
 -1      1283    8    0    1
 -2       586       530       719      2552      2960      2961
 -1      1284    8    0    1
 -2       624       586       719      2678      2961      2962
 -1      1285    8    0    1
 -2       530       670       719      2814      2963      2960
 -1      1286    8    0    1
 -2       583       584       720      2638      2964      2965
 -1      1287    8    0    1
 -2       532       533       721      2396      2966      2967
 -1      1288    8    0    1
 -2       668       532       721      2808      2967      2968
 -1      1289    8    0    1
 -2       533       671       721      2817      2969      2966
 -1      1290    8    0    1
 -2       473       605       722      2651      2970      2971
 -1      1291    8    0    1
 -2       473       722       717      2971      2972      2956
 -1      1292    8    0    1
 -2       609       610       723      2628      2973      2974
 -1      1293    8    0    1
 -2       601       591       724      2643      2975      2976
 -1      1294    8    0    1
 -2       480       481       725      2243      2977      2978
 -1      1295    8    0    1
 -2       619       480       725      2665      2978      2979
 -1      1296    8    0    1
 -2       481       621       725      2671      2980      2977
 -1      1297    8    0    1
 -2       486       595       693      2576      2981      2982
 -1      1298    8    0    1
 -2       593       596       726      2657      2983      2984
 -1      1299    8    0    1
 -2       598       607       727      2649      2985      2986
 -1      1300    8    0    1
 -2       477       476       728      2232      2987      2988
 -1      1301    8    0    1
 -2       597       599       729      2585      2989      2990
 -1      1302    8    0    1
 -2       474       597       730      2653      2991      2992
 -1      1303    8    0    1
 -2       600       601       731      2590      2993      2994
 -1      1304    8    0    1
 -2       582       618       707      2661      2925      2995
 -1      1305    8    0    1
 -2       611       585       732      2640      2996      2997
 -1      1306    8    0    1
 -2       591       602       733      2652      2998      2999
 -1      1307    8    0    1
 -2       585       583       734      2637      3000      3001
 -1      1308    8    0    1
 -2       590       598       735      2648      3002      3003
 -1      1309    8    0    1
 -2       602       603       736      2658      3004      3005
 -1      1310    8    0    1
 -2       594       600       737      2650      3006      3007
 -1      1311    8    0    1
 -2       584       587       738      2632      3008      3009
 -1      1312    8    0    1
 -2       608       609       739      2629      3010      3011
 -1      1313    8    0    1
 -2       587       613       740      2618      3012      3013
 -1      1314    8    0    1
 -2       587       740       738      3013      3014      3008
 -1      1315    8    0    1
 -2       606       611       741      2611      3015      3016
 -1      1316    8    0    1
 -2       614       477       742      2620      3017      3018
 -1      1317    8    0    1
 -2       477       728       742      2988      3019      3017
 -1      1318    8    0    1
 -2       478       620       743      2668      3020      3021
 -1      1319    8    0    1
 -2       478       743       592      3021      3022      2569
 -1      1320    8    0    1
 -2       607       625       727      2682      3023      2985
 -1      1321    8    0    1
 -2       483       475       623      2955      2676      3024
 -1      1322    8    0    1
 -2       720       584       738      2964      3009      3025
 -1      1323    8    0    1
 -2       615       589       694      2627      3026      3027
 -1      1324    8    0    1
 -2       625       608       739      2681      3011      3028
 -1      1325    8    0    1
 -2       740       613       744      3012      3029      3030
 -1      1326    8    0    1
 -2       613       615       744      2626      3031      3029
 -1      1327    8    0    1
 -2       486       693       589      2982      3032      2630
 -1      1328    8    0    1
 -2       739       609       723      3010      2974      3033
 -1      1329    8    0    1
 -2       589       693       694      3032      2887      3026
 -1      1330    8    0    1
 -2       606       741       616      3016      3034      2647
 -1      1331    8    0    1
 -2       572       708       745      2928      3035      3036
 -1      1332    8    0    1
 -2       572       745       575      3036      3037      2522
 -1      1333    8    0    1
 -2       722       605       711      2970      2937      3038
 -1      1334    8    0    1
 -2       737       600       731      3006      2994      3039
 -1      1335    8    0    1
 -2       554       617       691      2879      3040      2875
 -1      1336    8    0    1
 -2       556       692       726      2881      3041      3042
 -1      1337    8    0    1
 -2       555       556       726      2465      3042      3043
 -1      1338    8    0    1
 -2       583       720       734      2965      3044      3000
 -1      1339    8    0    1
 -2       736       603       715      3004      2948      3045
 -1      1340    8    0    1
 -2       611       732       741      2997      3046      3015
 -1      1341    8    0    1
 -2       711       590       735      2936      3003      3047
 -1      1342    8    0    1
 -2       574       575       669      2521      3048      2810
 -1      1343    8    0    1
 -2       735       598       727      3002      2986      3049
 -1      1344    8    0    1
 -2       715       604       717      2947      2957      3050
 -1      1345    8    0    1
 -2       581       582       707      2543      2995      3051
 -1      1346    8    0    1
 -2       733       602       736      2998      3005      3052
 -1      1347    8    0    1
 -2       622       483       623      2672      3024      3053
 -1      1348    8    0    1
 -2       731       601       724      2993      2976      3054
 -1      1349    8    0    1
 -2       595       692       693      2950      2884      2981
 -1      1350    8    0    1
 -2       729       599       718      2989      2959      3055
 -1      1351    8    0    1
 -2       487       716       626      2953      3056      2683
 -1      1352    8    0    1
 -2       692       593       726      2949      2984      3041
 -1      1353    8    0    1
 -2       476       592       746      2568      3057      3058
 -1      1354    8    0    1
 -2       728       476       746      2987      3058      3059
 -1      1355    8    0    1
 -2       592       743       746      3022      3060      3057
 -1      1356    8    0    1
 -2       617       474       730      2654      2992      3061
 -1      1357    8    0    1
 -2       724       591       747      2975      3062      3063
 -1      1358    8    0    1
 -2       591       733       747      2999      3064      3062
 -1      1359    8    0    1
 -2       718       594       737      2958      3007      3065
 -1      1360    8    0    1
 -2       723       610       616      2973      2646      3066
 -1      1361    8    0    1
 -2       732       585       734      2996      3001      3067
 -1      1362    8    0    1
 -2       581       707       748      3051      3068      3069
 -1      1363    8    0    1
 -2       714       581       748      2944      3069      3070
 -1      1364    8    0    1
 -2       707       667       748      2926      3071      3068
 -1      1365    8    0    1
 -2       720       738       749      3025      3072      3073
 -1      1366    8    0    1
 -2       621       622       750      2674      3074      3075
 -1      1367    8    0    1
 -2       616       741       751      3034      3076      3077
 -1      1368    8    0    1
 -2       625       739       752      3028      3078      3079
 -1      1369    8    0    1
 -2       717       722       753      2972      3080      3081
 -1      1370    8    0    1
 -2       628       627       754      2690      3082      3083
 -1      1371    8    0    1
 -2       629       628       755      2693      3084      3085
 -1      1372    8    0    1
 -2       628       754       755      3083      3086      3084
 -1      1373    8    0    1
 -2       630       629       756      2696      3087      3088
 -1      1374    8    0    1
 -2       629       755       756      3085      3089      3087
 -1      1375    8    0    1
 -2       631       630       757      2699      3090      3091
 -1      1376    8    0    1
 -2       630       756       757      3088      3092      3090
 -1      1377    8    0    1
 -2       632       631       758      2702      3093      3094
 -1      1378    8    0    1
 -2       631       757       758      3091      3095      3093
 -1      1379    8    0    1
 -2       633       632       759      2705      3096      3097
 -1      1380    8    0    1
 -2       632       758       759      3094      3098      3096
 -1      1381    8    0    1
 -2       634       633       760      2708      3099      3100
 -1      1382    8    0    1
 -2       633       759       760      3097      3101      3099
 -1      1383    8    0    1
 -2       635       634       761      2711      3102      3103
 -1      1384    8    0    1
 -2       634       760       761      3100      3104      3102
 -1      1385    8    0    1
 -2       636       635       762      2714      3105      3106
 -1      1386    8    0    1
 -2       635       761       762      3103      3107      3105
 -1      1387    8    0    1
 -2       637       636       763      2717      3108      3109
 -1      1388    8    0    1
 -2       636       762       763      3106      3110      3108
 -1      1389    8    0    1
 -2       638       637       764      2720      3111      3112
 -1      1390    8    0    1
 -2       637       763       764      3109      3113      3111
 -1      1391    8    0    1
 -2       639       638       765      2723      3114      3115
 -1      1392    8    0    1
 -2       638       764       765      3112      3116      3114
 -1      1393    8    0    1
 -2       640       639       766      2726      3117      3118
 -1      1394    8    0    1
 -2       639       765       766      3115      3119      3117
 -1      1395    8    0    1
 -2       641       640       767      2729      3120      3121
 -1      1396    8    0    1
 -2       640       766       767      3118      3122      3120
 -1      1397    8    0    1
 -2       642       641       768      2732      3123      3124
 -1      1398    8    0    1
 -2       641       767       768      3121      3125      3123
 -1      1399    8    0    1
 -2       643       642       769      2735      3126      3127
 -1      1400    8    0    1
 -2       642       768       769      3124      3128      3126
 -1      1401    8    0    1
 -2       644       643       770      2738      3129      3130
 -1      1402    8    0    1
 -2       643       769       770      3127      3131      3129
 -1      1403    8    0    1
 -2       645       644       771      2741      3132      3133
 -1      1404    8    0    1
 -2       644       770       771      3130      3134      3132
 -1      1405    8    0    1
 -2       646       645       772      2744      3135      3136
 -1      1406    8    0    1
 -2       645       771       772      3133      3137      3135
 -1      1407    8    0    1
 -2       647       646       773      2747      3138      3139
 -1      1408    8    0    1
 -2       646       772       773      3136      3140      3138
 -1      1409    8    0    1
 -2       648       647       774      2750      3141      3142
 -1      1410    8    0    1
 -2       647       773       774      3139      3143      3141
 -1      1411    8    0    1
 -2       649       648       775      2753      3144      3145
 -1      1412    8    0    1
 -2       648       774       775      3142      3146      3144
 -1      1413    8    0    1
 -2       650       649       776      2756      3147      3148
 -1      1414    8    0    1
 -2       649       775       776      3145      3149      3147
 -1      1415    8    0    1
 -2       651       650       777      2759      3150      3151
 -1      1416    8    0    1
 -2       650       776       777      3148      3152      3150
 -1      1417    8    0    1
 -2       653       652       778      2765      3153      3154
 -1      1418    8    0    1
 -2       655       654       779      2771      3155      3156
 -1      1419    8    0    1
 -2       656       655       780      2774      3157      3158
 -1      1420    8    0    1
 -2       657       656       781      2777      3159      3160
 -1      1421    8    0    1
 -2       656       780       781      3158      3161      3159
 -1      1422    8    0    1
 -2       658       657       782      2780      3162      3163
 -1      1423    8    0    1
 -2       657       781       782      3160      3164      3162
 -1      1424    8    0    1
 -2       659       658       783      2783      3165      3166
 -1      1425    8    0    1
 -2       658       782       783      3163      3167      3165
 -1      1426    8    0    1
 -2       660       659       784      2786      3168      3169
 -1      1427    8    0    1
 -2       659       783       784      3166      3170      3168
 -1      1428    8    0    1
 -2       661       660       785      2789      3171      3172
 -1      1429    8    0    1
 -2       660       784       785      3169      3173      3171
 -1      1430    8    0    1
 -2       662       661       786      2792      3174      3175
 -1      1431    8    0    1
 -2       661       785       786      3172      3176      3174
 -1      1432    8    0    1
 -2       663       662       787      2795      3177      3178
 -1      1433    8    0    1
 -2       662       786       787      3175      3179      3177
 -1      1434    8    0    1
 -2       664       663       788      2798      3180      3181
 -1      1435    8    0    1
 -2       663       787       788      3178      3182      3180
 -1      1436    8    0    1
 -2       665       664       789      2801      3183      3184
 -1      1437    8    0    1
 -2       664       788       789      3181      3185      3183
 -1      1438    8    0    1
 -2       666       665       790      2804      3186      3187
 -1      1439    8    0    1
 -2       665       789       790      3184      3188      3186
 -1      1440    8    0    1
 -2       667       666       791      2807      3189      3190
 -1      1441    8    0    1
 -2       748       667       791      3071      3190      3191
 -1      1442    8    0    1
 -2       666       790       791      3187      3192      3189
 -1      1443    8    0    1
 -2       737       731       792      3039      3193      3194
 -1      1444    8    0    1
 -2       670       668       793      2815      3195      3196
 -1      1445    8    0    1
 -2       672       673       794      2823      3197      3198
 -1      1446    8    0    1
 -2       671       672       795      2820      3199      3200
 -1      1447    8    0    1
 -2       672       794       795      3198      3201      3199
 -1      1448    8    0    1
 -2       674       675       796      2829      3202      3203
 -1      1449    8    0    1
 -2       675       676       797      2832      3204      3205
 -1      1450    8    0    1
 -2       675       797       796      3205      3206      3202
 -1      1451    8    0    1
 -2       676       677       798      2835      3207      3208
 -1      1452    8    0    1
 -2       676       798       797      3208      3209      3204
 -1      1453    8    0    1
 -2       677       678       799      2838      3210      3211
 -1      1454    8    0    1
 -2       677       799       798      3211      3212      3207
 -1      1455    8    0    1
 -2       678       679       800      2841      3213      3214
 -1      1456    8    0    1
 -2       678       800       799      3214      3215      3210
 -1      1457    8    0    1
 -2       679       680       801      2844      3216      3217
 -1      1458    8    0    1
 -2       679       801       800      3217      3218      3213
 -1      1459    8    0    1
 -2       680       681       802      2847      3219      3220
 -1      1460    8    0    1
 -2       680       802       801      3220      3221      3216
 -1      1461    8    0    1
 -2       681       682       803      2850      3222      3223
 -1      1462    8    0    1
 -2       681       803       802      3223      3224      3219
 -1      1463    8    0    1
 -2       682       683       804      2853      3225      3226
 -1      1464    8    0    1
 -2       682       804       803      3226      3227      3222
 -1      1465    8    0    1
 -2       683       684       805      2856      3228      3229
 -1      1466    8    0    1
 -2       683       805       804      3229      3230      3225
 -1      1467    8    0    1
 -2       684       685       806      2859      3231      3232
 -1      1468    8    0    1
 -2       684       806       805      3232      3233      3228
 -1      1469    8    0    1
 -2       685       686       807      2862      3234      3235
 -1      1470    8    0    1
 -2       685       807       806      3235      3236      3231
 -1      1471    8    0    1
 -2       686       687       808      2865      3237      3238
 -1      1472    8    0    1
 -2       686       808       807      3238      3239      3234
 -1      1473    8    0    1
 -2       687       688       809      2868      3240      3241
 -1      1474    8    0    1
 -2       687       809       808      3241      3242      3237
 -1      1475    8    0    1
 -2       688       689       810      2871      3243      3244
 -1      1476    8    0    1
 -2       688       810       809      3244      3245      3240
 -1      1477    8    0    1
 -2       690       691       729      2877      3246      3247
 -1      1478    8    0    1
 -2       734       720       811      3044      3248      3249
 -1      1479    8    0    1
 -2       720       749       811      3073      3250      3248
 -1      1480    8    0    1
 -2       617       555       726      2878      3043      3251
 -1      1481    8    0    1
 -2       695       696       744      2893      3252      3253
 -1      1482    8    0    1
 -2       696       697       812      2896      3254      3255
 -1      1483    8    0    1
 -2       697       698       813      2899      3256      3257
 -1      1484    8    0    1
 -2       697       813       812      3257      3258      3254
 -1      1485    8    0    1
 -2       698       699       814      2902      3259      3260
 -1      1486    8    0    1
 -2       698       814       813      3260      3261      3256
 -1      1487    8    0    1
 -2       699       700       815      2905      3262      3263
 -1      1488    8    0    1
 -2       699       815       814      3263      3264      3259
 -1      1489    8    0    1
 -2       700       701       816      2908      3265      3266
 -1      1490    8    0    1
 -2       700       816       815      3266      3267      3262
 -1      1491    8    0    1
 -2       701       702       817      2911      3268      3269
 -1      1492    8    0    1
 -2       701       817       816      3269      3270      3265
 -1      1493    8    0    1
 -2       702       703       818      2914      3271      3272
 -1      1494    8    0    1
 -2       702       818       817      3272      3273      3268
 -1      1495    8    0    1
 -2       703       704       819      2917      3274      3275
 -1      1496    8    0    1
 -2       703       819       818      3275      3276      3271
 -1      1497    8    0    1
 -2       620       619       820      2669      3277      3278
 -1      1498    8    0    1
 -2       706       709       821      2931      3279      3280
 -1      1499    8    0    1
 -2       713       714       822      2946      3281      3282
 -1      1500    8    0    1
 -2       709       712       823      2940      3283      3284
 -1      1501    8    0    1
 -2       709       823       821      3284      3285      3279
 -1      1502    8    0    1
 -2       736       715       824      3045      3286      3287
 -1      1503    8    0    1
 -2       741       732       825      3046      3288      3289
 -1      1504    8    0    1
 -2       730       597       729      2991      2990      3290
 -1      1505    8    0    1
 -2       731       724       826      3054      3291      3292
 -1      1506    8    0    1
 -2       716       614       742      2954      3018      3293
 -1      1507    8    0    1
 -2       626       716       827      3056      3294      3295
 -1      1508    8    0    1
 -2       716       742       827      3293      3296      3294
 -1      1509    8    0    1
 -2       712       713       828      2943      3297      3298
 -1      1510    8    0    1
 -2       823       712       828      3283      3298      3299
 -1      1511    8    0    1
 -2       713       822       828      3282      3300      3297
 -1      1512    8    0    1
 -2       694       695       615      2890      3301      3027
 -1      1513    8    0    1
 -2       727       625       779      3023      3302      3303
 -1      1514    8    0    1
 -2       673       674       829      2826      3304      3305
 -1      1515    8    0    1
 -2       794       673       829      3197      3305      3306
 -1      1516    8    0    1
 -2       674       796       829      3203      3307      3304
 -1      1517    8    0    1
 -2       722       711       830      3038      3308      3309
 -1      1518    8    0    1
 -2       735       727       831      3049      3310      3311
 -1      1519    8    0    1
 -2       627       626       832      2687      3312      3313
 -1      1520    8    0    1
 -2       754       627       832      3082      3313      3314
 -1      1521    8    0    1
 -2       626       827       832      3295      3315      3312
 -1      1522    8    0    1
 -2       726       596       617      2983      2656      3251
 -1      1523    8    0    1
 -2       732       734       833      3067      3316      3317
 -1      1524    8    0    1
 -2       715       717       834      3050      3318      3319
 -1      1525    8    0    1
 -2       717       753       834      3081      3320      3318
 -1      1526    8    0    1
 -2       733       736       835      3052      3321      3322
 -1      1527    8    0    1
 -2       729       718       836      3055      3323      3324
 -1      1528    8    0    1
 -2       718       737       837      3065      3325      3326
 -1      1529    8    0    1
 -2       669       575       745      3048      3037      3327
 -1      1530    8    0    1
 -2       622       623       838      3053      3328      3329
 -1      1531    8    0    1
 -2       750       622       838      3074      3329      3330
 -1      1532    8    0    1
 -2       623       624       838      2680      3331      3328
 -1      1533    8    0    1
 -2       723       616       839      3066      3332      3333
 -1      1534    8    0    1
 -2       616       751       839      3077      3334      3332
 -1      1535    8    0    1
 -2       739       723       840      3033      3335      3336
 -1      1536    8    0    1
 -2       738       740       841      3014      3337      3338
 -1      1537    8    0    1
 -2       711       735       778      3047      3339      3340
 -1      1538    8    0    1
 -2       690       729       836      3247      3324      3341
 -1      1539    8    0    1
 -2       615       695       744      3301      3253      3031
 -1      1540    8    0    1
 -2       743       620       842      3020      3342      3343
 -1      1541    8    0    1
 -2       620       820       842      3278      3344      3342
 -1      1542    8    0    1
 -2       621       750       843      3075      3345      3346
 -1      1543    8    0    1
 -2       621       843       725      3346      3347      2980
 -1      1544    8    0    1
 -2       739       840       752      3336      3348      3078
 -1      1545    8    0    1
 -2       625       752       779      3079      3349      3302
 -1      1546    8    0    1
 -2       733       835       747      3322      3350      3064
 -1      1547    8    0    1
 -2       742       728       844      3019      3351      3352
 -1      1548    8    0    1
 -2       742       844       827      3352      3353      3296
 -1      1549    8    0    1
 -2       653       778       831      3154      3354      3355
 -1      1550    8    0    1
 -2       745       708       845      3035      3356      3357
 -1      1551    8    0    1
 -2       651       777       830      3151      3358      3359
 -1      1552    8    0    1
 -2       652       651       830      2762      3359      3360
 -1      1553    8    0    1
 -2       654       653       831      2768      3355      3361
 -1      1554    8    0    1
 -2       737       792       837      3194      3362      3325
 -1      1555    8    0    1
 -2       793       668       846      3195      3363      3364
 -1      1556    8    0    1
 -2       668       721       846      2968      3365      3363
 -1      1557    8    0    1
 -2       670       793       847      3196      3366      3367
 -1      1558    8    0    1
 -2       670       847       719      3367      3368      2963
 -1      1559    8    0    1
 -2       722       830       753      3309      3369      3080
 -1      1560    8    0    1
 -2       671       795       848      3200      3370      3371
 -1      1561    8    0    1
 -2       671       848       721      3371      3372      2969
 -1      1562    8    0    1
 -2       810       689       836      3243      3373      3374
 -1      1563    8    0    1
 -2       689       690       836      2874      3341      3373
 -1      1564    8    0    1
 -2       734       811       833      3249      3375      3316
 -1      1565    8    0    1
 -2       728       746       849      3059      3376      3377
 -1      1566    8    0    1
 -2       728       849       844      3377      3378      3351
 -1      1567    8    0    1
 -2       744       696       812      3252      3255      3379
 -1      1568    8    0    1
 -2       819       704       850      3274      3380      3381
 -1      1569    8    0    1
 -2       704       705       850      2920      3382      3380
 -1      1570    8    0    1
 -2       820       619       851      3277      3383      3384
 -1      1571    8    0    1
 -2       619       725       851      2979      3385      3383
 -1      1572    8    0    1
 -2       708       710       852      2934      3386      3387
 -1      1573    8    0    1
 -2       708       852       845      3387      3388      3356
 -1      1574    8    0    1
 -2       732       833       825      3317      3389      3288
 -1      1575    8    0    1
 -2       710       706       853      2935      3390      3391
 -1      1576    8    0    1
 -2       852       710       853      3386      3391      3392
 -1      1577    8    0    1
 -2       706       821       853      3280      3393      3390
 -1      1578    8    0    1
 -2       824       715       834      3286      3319      3394
 -1      1579    8    0    1
 -2       741       825       751      3289      3395      3076
 -1      1580    8    0    1
 -2       749       738       841      3072      3338      3396
 -1      1581    8    0    1
 -2       736       824       835      3287      3397      3321
 -1      1582    8    0    1
 -2       826       724       854      3291      3398      3399
 -1      1583    8    0    1
 -2       724       747       854      3063      3400      3398
 -1      1584    8    0    1
 -2       830       711       778      3308      3340      3401
 -1      1585    8    0    1
 -2       779       654       831      3155      3361      3402
 -1      1586    8    0    1
 -2       723       839       855      3333      3403      3404
 -1      1587    8    0    1
 -2       723       855       840      3404      3405      3335
 -1      1588    8    0    1
 -2       624       719       856      2962      3406      3407
 -1      1589    8    0    1
 -2       838       624       856      3331      3407      3408
 -1      1590    8    0    1
 -2       719       847       856      3368      3409      3406
 -1      1591    8    0    1
 -2       831       727       779      3310      3303      3402
 -1      1592    8    0    1
 -2       735       831       778      3311      3354      3339
 -1      1593    8    0    1
 -2       617       730       691      3061      3410      3040
 -1      1594    8    0    1
 -2       731       826       792      3292      3411      3193
 -1      1595    8    0    1
 -2       718       837       836      3326      3412      3323
 -1      1596    8    0    1
 -2       669       745       857      3327      3413      3414
 -1      1597    8    0    1
 -2       714       748       858      3070      3415      3416
 -1      1598    8    0    1
 -2       822       714       858      3281      3416      3417
 -1      1599    8    0    1
 -2       748       791       858      3191      3418      3415
 -1      1600    8    0    1
 -2       841       740       744      3337      3030      3419
 -1      1601    8    0    1
 -2       652       830       778      3360      3401      3153
 -1      1602    8    0    1
 -2       691       730       729      3410      3290      3246
 -1      1603    8    0    1
 -2       830       777       753      3358      3420      3369
 -1      1604    8    0    1
 -2       825       833       859      3389      3421      3422
 -1      1605    8    0    1
 -2       744       812       841      3379      3423      3419
 -1      1606    8    0    1
 -2       745       845       857      3357      3424      3413
 -1      1607    8    0    1
 -2       756       755       860      3089      3425      3426
 -1      1608    8    0    1
 -2       757       756       861      3092      3427      3428
 -1      1609    8    0    1
 -2       756       860       861      3426      3429      3427
 -1      1610    8    0    1
 -2       758       757       862      3095      3430      3431
 -1      1611    8    0    1
 -2       757       861       862      3428      3432      3430
 -1      1612    8    0    1
 -2       759       758       863      3098      3433      3434
 -1      1613    8    0    1
 -2       758       862       863      3431      3435      3433
 -1      1614    8    0    1
 -2       760       759       864      3101      3436      3437
 -1      1615    8    0    1
 -2       759       863       864      3434      3438      3436
 -1      1616    8    0    1
 -2       761       760       865      3104      3439      3440
 -1      1617    8    0    1
 -2       760       864       865      3437      3441      3439
 -1      1618    8    0    1
 -2       762       761       866      3107      3442      3443
 -1      1619    8    0    1
 -2       761       865       866      3440      3444      3442
 -1      1620    8    0    1
 -2       763       762       867      3110      3445      3446
 -1      1621    8    0    1
 -2       762       866       867      3443      3447      3445
 -1      1622    8    0    1
 -2       764       763       868      3113      3448      3449
 -1      1623    8    0    1
 -2       763       867       868      3446      3450      3448
 -1      1624    8    0    1
 -2       765       764       869      3116      3451      3452
 -1      1625    8    0    1
 -2       764       868       869      3449      3453      3451
 -1      1626    8    0    1
 -2       766       765       870      3119      3454      3455
 -1      1627    8    0    1
 -2       765       869       870      3452      3456      3454
 -1      1628    8    0    1
 -2       767       766       871      3122      3457      3458
 -1      1629    8    0    1
 -2       766       870       871      3455      3459      3457
 -1      1630    8    0    1
 -2       768       767       872      3125      3460      3461
 -1      1631    8    0    1
 -2       767       871       872      3458      3462      3460
 -1      1632    8    0    1
 -2       769       768       873      3128      3463      3464
 -1      1633    8    0    1
 -2       768       872       873      3461      3465      3463
 -1      1634    8    0    1
 -2       770       769       874      3131      3466      3467
 -1      1635    8    0    1
 -2       769       873       874      3464      3468      3466
 -1      1636    8    0    1
 -2       771       770       875      3134      3469      3470
 -1      1637    8    0    1
 -2       770       874       875      3467      3471      3469
 -1      1638    8    0    1
 -2       772       771       876      3137      3472      3473
 -1      1639    8    0    1
 -2       771       875       876      3470      3474      3472
 -1      1640    8    0    1
 -2       773       772       877      3140      3475      3476
 -1      1641    8    0    1
 -2       772       876       877      3473      3477      3475
 -1      1642    8    0    1
 -2       774       773       878      3143      3478      3479
 -1      1643    8    0    1
 -2       773       877       878      3476      3480      3478
 -1      1644    8    0    1
 -2       775       774       879      3146      3481      3482
 -1      1645    8    0    1
 -2       774       878       879      3479      3483      3481
 -1      1646    8    0    1
 -2       777       776       753      3152      3484      3420
 -1      1647    8    0    1
 -2       655       779       780      3156      3485      3157
 -1      1648    8    0    1
 -2       782       781       855      3164      3486      3487
 -1      1649    8    0    1
 -2       783       782       880      3167      3488      3489
 -1      1650    8    0    1
 -2       782       855       880      3487      3490      3488
 -1      1651    8    0    1
 -2       784       783       881      3170      3491      3492
 -1      1652    8    0    1
 -2       783       880       881      3489      3493      3491
 -1      1653    8    0    1
 -2       785       784       882      3173      3494      3495
 -1      1654    8    0    1
 -2       784       881       882      3492      3496      3494
 -1      1655    8    0    1
 -2       786       785       883      3176      3497      3498
 -1      1656    8    0    1
 -2       785       882       883      3495      3499      3497
 -1      1657    8    0    1
 -2       787       786       884      3179      3500      3501
 -1      1658    8    0    1
 -2       786       883       884      3498      3502      3500
 -1      1659    8    0    1
 -2       788       787       885      3182      3503      3504
 -1      1660    8    0    1
 -2       787       884       885      3501      3505      3503
 -1      1661    8    0    1
 -2       789       788       886      3185      3506      3507
 -1      1662    8    0    1
 -2       788       885       886      3504      3508      3506
 -1      1663    8    0    1
 -2       790       789       887      3188      3509      3510
 -1      1664    8    0    1
 -2       789       886       887      3507      3511      3509
 -1      1665    8    0    1
 -2       833       811       888      3375      3512      3513
 -1      1666    8    0    1
 -2       797       798       889      3209      3514      3515
 -1      1667    8    0    1
 -2       796       797       890      3206      3516      3517
 -1      1668    8    0    1
 -2       797       889       890      3515      3518      3516
 -1      1669    8    0    1
 -2       799       800       891      3215      3519      3520
 -1      1670    8    0    1
 -2       800       801       892      3218      3521      3522
 -1      1671    8    0    1
 -2       800       892       891      3522      3523      3519
 -1      1672    8    0    1
 -2       801       802       893      3221      3524      3525
 -1      1673    8    0    1
 -2       801       893       892      3525      3526      3521
 -1      1674    8    0    1
 -2       802       803       894      3224      3527      3528
 -1      1675    8    0    1
 -2       802       894       893      3528      3529      3524
 -1      1676    8    0    1
 -2       803       804       895      3227      3530      3531
 -1      1677    8    0    1
 -2       803       895       894      3531      3532      3527
 -1      1678    8    0    1
 -2       804       805       896      3230      3533      3534
 -1      1679    8    0    1
 -2       804       896       895      3534      3535      3530
 -1      1680    8    0    1
 -2       805       806       897      3233      3536      3537
 -1      1681    8    0    1
 -2       805       897       896      3537      3538      3533
 -1      1682    8    0    1
 -2       806       807       898      3236      3539      3540
 -1      1683    8    0    1
 -2       806       898       897      3540      3541      3536
 -1      1684    8    0    1
 -2       807       808       899      3239      3542      3543
 -1      1685    8    0    1
 -2       807       899       898      3543      3544      3539
 -1      1686    8    0    1
 -2       808       809       900      3242      3545      3546
 -1      1687    8    0    1
 -2       808       900       899      3546      3547      3542
 -1      1688    8    0    1
 -2       809       810       901      3245      3548      3549
 -1      1689    8    0    1
 -2       809       901       900      3549      3550      3545
 -1      1690    8    0    1
 -2       813       814       902      3261      3551      3552
 -1      1691    8    0    1
 -2       795       794       903      3201      3553      3554
 -1      1692    8    0    1
 -2       812       813       904      3258      3555      3556
 -1      1693    8    0    1
 -2       841       812       904      3423      3556      3557
 -1      1694    8    0    1
 -2       813       902       904      3552      3558      3555
 -1      1695    8    0    1
 -2       815       816       905      3267      3559      3560
 -1      1696    8    0    1
 -2       816       817       906      3270      3561      3562
 -1      1697    8    0    1
 -2       816       906       905      3562      3563      3559
 -1      1698    8    0    1
 -2       817       818       907      3273      3564      3565
 -1      1699    8    0    1
 -2       817       907       906      3565      3566      3561
 -1      1700    8    0    1
 -2       818       819       908      3276      3567      3568
 -1      1701    8    0    1
 -2       818       908       907      3568      3569      3564
 -1      1702    8    0    1
 -2       705       669       857      2921      3414      3570
 -1      1703    8    0    1
 -2       824       834       909      3394      3571      3572
 -1      1704    8    0    1
 -2       821       823       910      3285      3573      3574
 -1      1705    8    0    1
 -2       814       815       911      3264      3575      3576
 -1      1706    8    0    1
 -2       814       911       902      3576      3577      3551
 -1      1707    8    0    1
 -2       798       799       912      3212      3578      3579
 -1      1708    8    0    1
 -2       889       798       912      3514      3579      3580
 -1      1709    8    0    1
 -2       799       891       912      3520      3581      3578
 -1      1710    8    0    1
 -2       750       838       913      3330      3582      3583
 -1      1711    8    0    1
 -2       838       856       913      3408      3584      3582
 -1      1712    8    0    1
 -2       837       792       914      3362      3585      3586
 -1      1713    8    0    1
 -2       747       835       915      3350      3587      3588
 -1      1714    8    0    1
 -2       755       754       916      3086      3589      3590
 -1      1715    8    0    1
 -2       755       916       860      3590      3591      3425
 -1      1716    8    0    1
 -2       810       836       837      3374      3412      3592
 -1      1717    8    0    1
 -2       827       844       917      3353      3593      3594
 -1      1718    8    0    1
 -2       827       917       832      3594      3595      3315
 -1      1719    8    0    1
 -2       749       841       904      3396      3557      3596
 -1      1720    8    0    1
 -2       811       749       918      3250      3597      3598
 -1      1721    8    0    1
 -2       834       753       776      3320      3484      3599
 -1      1722    8    0    1
 -2       751       825       919      3395      3600      3601
 -1      1723    8    0    1
 -2       746       743       920      3060      3602      3603
 -1      1724    8    0    1
 -2       849       746       920      3376      3603      3604
 -1      1725    8    0    1
 -2       743       842       920      3343      3605      3602
 -1      1726    8    0    1
 -2       792       826       921      3411      3606      3607
 -1      1727    8    0    1
 -2       792       921       914      3607      3608      3585
 -1      1728    8    0    1
 -2       835       824       922      3397      3609      3610
 -1      1729    8    0    1
 -2       839       751       923      3334      3611      3612
 -1      1730    8    0    1
 -2       751       919       923      3601      3613      3611
 -1      1731    8    0    1
 -2       834       776       909      3599      3614      3571
 -1      1732    8    0    1
 -2       843       750       913      3345      3583      3615
 -1      1733    8    0    1
 -2       859       833       888      3421      3513      3616
 -1      1734    8    0    1
 -2       810       837       901      3592      3617      3548
 -1      1735    8    0    1
 -2       840       855       781      3405      3486      3618
 -1      1736    8    0    1
 -2       911       815       905      3575      3560      3619
 -1      1737    8    0    1
 -2       775       879       909      3482      3620      3621
 -1      1738    8    0    1
 -2       776       775       909      3149      3621      3614
 -1      1739    8    0    1
 -2       903       794       924      3553      3622      3623
 -1      1740    8    0    1
 -2       794       829       924      3306      3624      3622
 -1      1741    8    0    1
 -2       846       721       848      3365      3372      3625
 -1      1742    8    0    1
 -2       857       845       925      3424      3626      3627
 -1      1743    8    0    1
 -2       901       837       914      3617      3586      3628
 -1      1744    8    0    1
 -2       888       811       918      3512      3598      3629
 -1      1745    8    0    1
 -2       847       793       926      3366      3630      3631
 -1      1746    8    0    1
 -2       848       795       927      3370      3632      3633
 -1      1747    8    0    1
 -2       795       903       927      3554      3634      3632
 -1      1748    8    0    1
 -2       796       890       928      3517      3635      3636
 -1      1749    8    0    1
 -2       796       928       829      3636      3637      3307
 -1      1750    8    0    1
 -2       925       845       929      3626      3638      3639
 -1      1751    8    0    1
 -2       845       852       929      3388      3640      3638
 -1      1752    8    0    1
 -2       926       793       930      3630      3641      3642
 -1      1753    8    0    1
 -2       793       846       930      3364      3643      3641
 -1      1754    8    0    1
 -2       840       781       752      3618      3644      3348
 -1      1755    8    0    1
 -2       780       779       752      3485      3349      3645
 -1      1756    8    0    1
 -2       921       826       931      3606      3646      3647
 -1      1757    8    0    1
 -2       826       854       931      3399      3648      3646
 -1      1758    8    0    1
 -2       842       820       932      3344      3649      3650
 -1      1759    8    0    1
 -2       705       857       850      3570      3651      3382
 -1      1760    8    0    1
 -2       908       819       925      3567      3652      3653
 -1      1761    8    0    1
 -2       910       823       933      3573      3654      3655
 -1      1762    8    0    1
 -2       823       828       933      3299      3656      3654
 -1      1763    8    0    1
 -2       725       843       851      3347      3657      3385
 -1      1764    8    0    1
 -2       820       851       934      3384      3658      3659
 -1      1765    8    0    1
 -2       820       934       932      3659      3660      3649
 -1      1766    8    0    1
 -2       853       821       935      3393      3661      3662
 -1      1767    8    0    1
 -2       821       910       935      3574      3663      3661
 -1      1768    8    0    1
 -2       854       747       915      3400      3588      3664
 -1      1769    8    0    1
 -2       915       835       936      3587      3665      3666
 -1      1770    8    0    1
 -2       835       922       936      3610      3667      3665
 -1      1771    8    0    1
 -2       752       781       780      3644      3161      3645
 -1      1772    8    0    1
 -2       825       859       919      3422      3668      3600
 -1      1773    8    0    1
 -2       855       839       880      3403      3669      3490
 -1      1774    8    0    1
 -2       749       904       937      3596      3670      3671
 -1      1775    8    0    1
 -2       918       749       937      3597      3671      3672
 -1      1776    8    0    1
 -2       904       902       937      3558      3673      3670
 -1      1777    8    0    1
 -2       917       844       938      3593      3674      3675
 -1      1778    8    0    1
 -2       844       849       938      3378      3676      3674
 -1      1779    8    0    1
 -2       754       832       939      3314      3677      3678
 -1      1780    8    0    1
 -2       916       754       939      3589      3678      3679
 -1      1781    8    0    1
 -2       832       917       939      3595      3680      3677
 -1      1782    8    0    1
 -2       880       839       923      3669      3612      3681
 -1      1783    8    0    1
 -2       922       824       909      3609      3572      3682
 -1      1784    8    0    1
 -2       906       907       940      3566      3683      3684
 -1      1785    8    0    1
 -2       861       860       941      3429      3685      3686
 -1      1786    8    0    1
 -2       914       921       942      3608      3687      3688
 -1      1787    8    0    1
 -2       909       879       943      3620      3689      3690
 -1      1788    8    0    1
 -2       922       909       943      3682      3690      3691
 -1      1789    8    0    1
 -2       879       878       943      3483      3692      3689
 -1      1790    8    0    1
 -2       862       861       944      3432      3693      3694
 -1      1791    8    0    1
 -2       861       941       944      3686      3695      3693
 -1      1792    8    0    1
 -2       863       862       945      3435      3696      3697
 -1      1793    8    0    1
 -2       862       944       945      3694      3698      3696
 -1      1794    8    0    1
 -2       864       863       946      3438      3699      3700
 -1      1795    8    0    1
 -2       863       945       946      3697      3701      3699
 -1      1796    8    0    1
 -2       865       864       947      3441      3702      3703
 -1      1797    8    0    1
 -2       864       946       947      3700      3704      3702
 -1      1798    8    0    1
 -2       866       865       948      3444      3705      3706
 -1      1799    8    0    1
 -2       865       947       948      3703      3707      3705
 -1      1800    8    0    1
 -2       867       866       949      3447      3708      3709
 -1      1801    8    0    1
 -2       866       948       949      3706      3710      3708
 -1      1802    8    0    1
 -2       868       867       950      3450      3711      3712
 -1      1803    8    0    1
 -2       867       949       950      3709      3713      3711
 -1      1804    8    0    1
 -2       869       868       951      3453      3714      3715
 -1      1805    8    0    1
 -2       868       950       951      3712      3716      3714
 -1      1806    8    0    1
 -2       870       869       952      3456      3717      3718
 -1      1807    8    0    1
 -2       869       951       952      3715      3719      3717
 -1      1808    8    0    1
 -2       871       870       953      3459      3720      3721
 -1      1809    8    0    1
 -2       870       952       953      3718      3722      3720
 -1      1810    8    0    1
 -2       872       871       954      3462      3723      3724
 -1      1811    8    0    1
 -2       871       953       954      3721      3725      3723
 -1      1812    8    0    1
 -2       873       872       955      3465      3726      3727
 -1      1813    8    0    1
 -2       872       954       955      3724      3728      3726
 -1      1814    8    0    1
 -2       874       873       956      3468      3729      3730
 -1      1815    8    0    1
 -2       873       955       956      3727      3731      3729
 -1      1816    8    0    1
 -2       875       874       957      3471      3732      3733
 -1      1817    8    0    1
 -2       874       956       957      3730      3734      3732
 -1      1818    8    0    1
 -2       876       875       958      3474      3735      3736
 -1      1819    8    0    1
 -2       875       957       958      3733      3737      3735
 -1      1820    8    0    1
 -2       877       876       959      3477      3738      3739
 -1      1821    8    0    1
 -2       876       958       959      3736      3740      3738
 -1      1822    8    0    1
 -2       878       877       960      3480      3741      3742
 -1      1823    8    0    1
 -2       943       878       960      3692      3742      3743
 -1      1824    8    0    1
 -2       877       959       960      3739      3744      3741
 -1      1825    8    0    1
 -2       911       905       961      3619      3745      3746
 -1      1826    8    0    1
 -2       901       914       942      3628      3688      3747
 -1      1827    8    0    1
 -2       881       880       962      3493      3748      3749
 -1      1828    8    0    1
 -2       880       923       962      3681      3750      3748
 -1      1829    8    0    1
 -2       882       881       963      3496      3751      3752
 -1      1830    8    0    1
 -2       881       962       963      3749      3753      3751
 -1      1831    8    0    1
 -2       883       882       964      3499      3754      3755
 -1      1832    8    0    1
 -2       882       963       964      3752      3756      3754
 -1      1833    8    0    1
 -2       884       883       965      3502      3757      3758
 -1      1834    8    0    1
 -2       883       964       965      3755      3759      3757
 -1      1835    8    0    1
 -2       885       884       966      3505      3760      3761
 -1      1836    8    0    1
 -2       884       965       966      3758      3762      3760
 -1      1837    8    0    1
 -2       886       885       967      3508      3763      3764
 -1      1838    8    0    1
 -2       885       966       967      3761      3765      3763
 -1      1839    8    0    1
 -2       791       790       968      3192      3766      3767
 -1      1840    8    0    1
 -2       859       888       969      3616      3768      3769
 -1      1841    8    0    1
 -2       892       893       970      3526      3770      3771
 -1      1842    8    0    1
 -2       891       892       971      3523      3772      3773
 -1      1843    8    0    1
 -2       892       970       971      3771      3774      3772
 -1      1844    8    0    1
 -2       894       895       972      3532      3775      3776
 -1      1845    8    0    1
 -2       895       896       973      3535      3777      3778
 -1      1846    8    0    1
 -2       895       973       972      3778      3779      3775
 -1      1847    8    0    1
 -2       896       897       974      3538      3780      3781
 -1      1848    8    0    1
 -2       896       974       973      3781      3782      3777
 -1      1849    8    0    1
 -2       897       898       975      3541      3783      3784
 -1      1850    8    0    1
 -2       897       975       974      3784      3785      3780
 -1      1851    8    0    1
 -2       898       899       976      3544      3786      3787
 -1      1852    8    0    1
 -2       898       976       975      3787      3788      3783
 -1      1853    8    0    1
 -2       900       901       942      3550      3747      3789
 -1      1854    8    0    1
 -2       908       925       977      3653      3790      3791
 -1      1855    8    0    1
 -2       925       929       977      3639      3792      3790
 -1      1856    8    0    1
 -2       850       857       925      3651      3627      3793
 -1      1857    8    0    1
 -2       847       926       978      3631      3794      3795
 -1      1858    8    0    1
 -2       819       850       925      3381      3793      3652
 -1      1859    8    0    1
 -2       907       908       979      3569      3796      3797
 -1      1860    8    0    1
 -2       940       907       979      3683      3797      3798
 -1      1861    8    0    1
 -2       908       977       979      3791      3799      3796
 -1      1862    8    0    1
 -2       905       906       980      3563      3800      3801
 -1      1863    8    0    1
 -2       961       905       980      3745      3801      3802
 -1      1864    8    0    1
 -2       906       940       980      3684      3803      3800
 -1      1865    8    0    1
 -2       854       915       981      3664      3804      3805
 -1      1866    8    0    1
 -2       854       981       931      3805      3806      3648
 -1      1867    8    0    1
 -2       902       911       982      3577      3807      3808
 -1      1868    8    0    1
 -2       937       902       982      3673      3808      3809
 -1      1869    8    0    1
 -2       911       961       982      3746      3810      3807
 -1      1870    8    0    1
 -2       890       889       983      3518      3811      3812
 -1      1871    8    0    1
 -2       852       853       984      3392      3813      3814
 -1      1872    8    0    1
 -2       853       935       984      3662      3815      3813
 -1      1873    8    0    1
 -2       851       843       985      3657      3816      3817
 -1      1874    8    0    1
 -2       851       985       934      3817      3818      3658
 -1      1875    8    0    1
 -2       919       859       986      3668      3819      3820
 -1      1876    8    0    1
 -2       828       822       987      3300      3821      3822
 -1      1877    8    0    1
 -2       860       916       988      3591      3823      3824
 -1      1878    8    0    1
 -2       860       988       941      3824      3825      3685
 -1      1879    8    0    1
 -2       856       847       978      3409      3795      3826
 -1      1880    8    0    1
 -2       846       848       989      3625      3827      3828
 -1      1881    8    0    1
 -2       846       989       930      3828      3829      3643
 -1      1882    8    0    1
 -2       893       894       990      3529      3830      3831
 -1      1883    8    0    1
 -2       894       972       990      3776      3832      3830
 -1      1884    8    0    1
 -2       923       919       962      3613      3833      3750
 -1      1885    8    0    1
 -2       842       932       991      3650      3834      3835
 -1      1886    8    0    1
 -2       842       991       920      3835      3836      3605
 -1      1887    8    0    1
 -2       822       858       968      3417      3837      3838
 -1      1888    8    0    1
 -2       888       918       992      3629      3839      3840
 -1      1889    8    0    1
 -2       790       887       968      3510      3841      3766
 -1      1890    8    0    1
 -2       987       822       968      3821      3838      3842
 -1      1891    8    0    1
 -2       987       968       887      3842      3841      3843
 -1      1892    8    0    1
 -2       828       987       933      3822      3844      3656
 -1      1893    8    0    1
 -2       987       887       993      3843      3845      3846
 -1      1894    8    0    1
 -2       890       983       994      3812      3847      3848
 -1      1895    8    0    1
 -2       890       994       928      3848      3849      3635
 -1      1896    8    0    1
 -2       791       968       858      3767      3837      3418
 -1      1897    8    0    1
 -2       922       943       995      3691      3850      3851
 -1      1898    8    0    1
 -2       936       922       995      3667      3851      3852
 -1      1899    8    0    1
 -2       943       960       995      3743      3853      3850
 -1      1900    8    0    1
 -2       970       893       990      3770      3831      3854
 -1      1901    8    0    1
 -2       969       888       992      3768      3840      3855
 -1      1902    8    0    1
 -2       913       856       978      3584      3826      3856
 -1      1903    8    0    1
 -2       918       937       996      3672      3857      3858
 -1      1904    8    0    1
 -2       992       918       996      3839      3858      3859
 -1      1905    8    0    1
 -2       937       982       996      3809      3860      3857
 -1      1906    8    0    1
 -2       927       903       997      3634      3861      3862
 -1      1907    8    0    1
 -2       887       886       993      3511      3863      3845
 -1      1908    8    0    1
 -2       859       969       986      3769      3864      3819
 -1      1909    8    0    1
 -2       848       927       989      3633      3865      3827
 -1      1910    8    0    1
 -2       962       919       986      3833      3820      3866
 -1      1911    8    0    1
 -2       929       852       984      3640      3814      3867
 -1      1912    8    0    1
 -2       891       971       998      3773      3868      3869
 -1      1913    8    0    1
 -2       891       998       912      3869      3870      3581
 -1      1914    8    0    1
 -2       899       900       999      3547      3871      3872
 -1      1915    8    0    1
 -2       924       829       928      3624      3637      3873
 -1      1916    8    0    1
 -2       987       993       933      3846      3874      3844
 -1      1917    8    0    1
 -2       889       912      1000      3580      3875      3876
 -1      1918    8    0    1
 -2       912       998      1000      3870      3877      3875
 -1      1919    8    0    1
 -2       978       926      1001      3794      3878      3879
 -1      1920    8    0    1
 -2       988       916      1002      3823      3880      3881
 -1      1921    8    0    1
 -2       916       939      1002      3679      3882      3880
 -1      1922    8    0    1
 -2       910       933      1003      3655      3883      3884
 -1      1923    8    0    1
 -2       933       993      1003      3874      3885      3883
 -1      1924    8    0    1
 -2       932       934      1004      3660      3886      3887
 -1      1925    8    0    1
 -2       935       910      1005      3663      3888      3889
 -1      1926    8    0    1
 -2       910      1003      1005      3884      3890      3888
 -1      1927    8    0    1
 -2       843       913       985      3615      3891      3816
 -1      1928    8    0    1
 -2       899       999       976      3872      3892      3786
 -1      1929    8    0    1
 -2       915       936      1006      3666      3893      3894
 -1      1930    8    0    1
 -2       915      1006       981      3894      3895      3804
 -1      1931    8    0    1
 -2       983       889      1000      3811      3876      3896
 -1      1932    8    0    1
 -2       939       917      1007      3680      3897      3898
 -1      1933    8    0    1
 -2      1002       939      1007      3882      3898      3899
 -1      1934    8    0    1
 -2       917       938      1007      3675      3900      3897
 -1      1935    8    0    1
 -2       921       931       942      3647      3901      3687
 -1      1936    8    0    1
 -2       926       930      1008      3642      3902      3903
 -1      1937    8    0    1
 -2       926      1008      1001      3903      3904      3878
 -1      1938    8    0    1
 -2       997       903      1009      3861      3905      3906
 -1      1939    8    0    1
 -2       903       924      1009      3623      3907      3905
 -1      1940    8    0    1
 -2       849       920      1010      3604      3908      3909
 -1      1941    8    0    1
 -2       938       849      1010      3676      3909      3910
 -1      1942    8    0    1
 -2       920       991      1010      3836      3911      3908
 -1      1943    8    0    1
 -2       991       932      1011      3834      3912      3913
 -1      1944    8    0    1
 -2       932      1004      1011      3887      3914      3912
 -1      1945    8    0    1
 -2       985       913       978      3891      3856      3915
 -1      1946    8    0    1
 -2       886       967       993      3764      3916      3863
 -1      1947    8    0    1
 -2       999       900       942      3871      3789      3917
 -1      1948    8    0    1
 -2       945       944      1012      3698      3918      3919
 -1      1949    8    0    1
 -2       946       945      1013      3701      3920      3921
 -1      1950    8    0    1
 -2       945      1012      1013      3919      3922      3920
 -1      1951    8    0    1
 -2       947       946      1014      3704      3923      3924
 -1      1952    8    0    1
 -2       946      1013      1014      3921      3925      3923
 -1      1953    8    0    1
 -2       948       947      1015      3707      3926      3927
 -1      1954    8    0    1
 -2       947      1014      1015      3924      3928      3926
 -1      1955    8    0    1
 -2       949       948      1016      3710      3929      3930
 -1      1956    8    0    1
 -2       948      1015      1016      3927      3931      3929
 -1      1957    8    0    1
 -2       950       949      1017      3713      3932      3933
 -1      1958    8    0    1
 -2       949      1016      1017      3930      3934      3932
 -1      1959    8    0    1
 -2       951       950      1018      3716      3935      3936
 -1      1960    8    0    1
 -2       950      1017      1018      3933      3937      3935
 -1      1961    8    0    1
 -2       952       951      1019      3719      3938      3939
 -1      1962    8    0    1
 -2       951      1018      1019      3936      3940      3938
 -1      1963    8    0    1
 -2       953       952      1020      3722      3941      3942
 -1      1964    8    0    1
 -2       952      1019      1020      3939      3943      3941
 -1      1965    8    0    1
 -2       954       953      1021      3725      3944      3945
 -1      1966    8    0    1
 -2       953      1020      1021      3942      3946      3944
 -1      1967    8    0    1
 -2       955       954      1022      3728      3947      3948
 -1      1968    8    0    1
 -2       954      1021      1022      3945      3949      3947
 -1      1969    8    0    1
 -2       956       955      1023      3731      3950      3951
 -1      1970    8    0    1
 -2       955      1022      1023      3948      3952      3950
 -1      1971    8    0    1
 -2       957       956      1024      3734      3953      3954
 -1      1972    8    0    1
 -2       956      1023      1024      3951      3955      3953
 -1      1973    8    0    1
 -2       958       957      1025      3737      3956      3957
 -1      1974    8    0    1
 -2       957      1024      1025      3954      3958      3956
 -1      1975    8    0    1
 -2       959       958      1026      3740      3959      3960
 -1      1976    8    0    1
 -2       958      1025      1026      3957      3961      3959
 -1      1977    8    0    1
 -2       970       990      1027      3854      3962      3963
 -1      1978    8    0    1
 -2       969       992      1028      3855      3964      3965
 -1      1979    8    0    1
 -2       999       942      1029      3917      3966      3967
 -1      1980    8    0    1
 -2       942       931      1029      3901      3968      3966
 -1      1981    8    0    1
 -2       963       962       986      3753      3866      3969
 -1      1982    8    0    1
 -2       964       963      1030      3756      3970      3971
 -1      1983    8    0    1
 -2       965       964      1031      3759      3972      3973
 -1      1984    8    0    1
 -2       964      1030      1031      3971      3974      3972
 -1      1985    8    0    1
 -2       966       965      1032      3762      3975      3976
 -1      1986    8    0    1
 -2       965      1031      1032      3973      3977      3975
 -1      1987    8    0    1
 -2       967       966      1033      3765      3978      3979
 -1      1988    8    0    1
 -2       966      1032      1033      3976      3980      3978
 -1      1989    8    0    1
 -2       973       974      1034      3782      3981      3982
 -1      1990    8    0    1
 -2       972       973      1035      3779      3983      3984
 -1      1991    8    0    1
 -2       973      1034      1035      3982      3985      3983
 -1      1992    8    0    1
 -2       975       976      1036      3788      3986      3987
 -1      1993    8    0    1
 -2       924       928      1037      3873      3988      3989
 -1      1994    8    0    1
 -2      1009       924      1037      3907      3989      3990
 -1      1995    8    0    1
 -2       928       994      1037      3849      3991      3988
 -1      1996    8    0    1
 -2       977       929      1038      3792      3992      3993
 -1      1997    8    0    1
 -2       929       984      1038      3867      3994      3992
 -1      1998    8    0    1
 -2       927       997      1039      3862      3995      3996
 -1      1999    8    0    1
 -2       927      1039       989      3996      3997      3865
 -1      2000    8    0    1
 -2       985       978      1001      3915      3879      3998
 -1      2001    8    0    1
 -2      1003       993       967      3885      3916      3999
 -1      2002    8    0    1
 -2       984       935      1040      3815      4000      4001
 -1      2003    8    0    1
 -2      1038       984      1040      3994      4001      4002
 -1      2004    8    0    1
 -2       935      1005      1040      3889      4003      4000
 -1      2005    8    0    1
 -2      1003       967      1033      3999      3979      4004
 -1      2006    8    0    1
 -2       976       999      1041      3892      4005      4006
 -1      2007    8    0    1
 -2      1036       976      1041      3986      4006      4007
 -1      2008    8    0    1
 -2       999      1029      1041      3967      4008      4005
 -1      2009    8    0    1
 -2       986       969      1042      3864      4009      4010
 -1      2010    8    0    1
 -2       974       975      1043      3785      4011      4012
 -1      2011    8    0    1
 -2       974      1043      1034      4012      4013      3981
 -1      2012    8    0    1
 -2       941       988      1044      3825      4014      4015
 -1      2013    8    0    1
 -2       971       970      1045      3774      4016      4017
 -1      2014    8    0    1
 -2       970      1027      1045      3963      4018      4016
 -1      2015    8    0    1
 -2       990       972      1046      3832      4019      4020
 -1      2016    8    0    1
 -2       990      1046      1027      4020      4021      3962
 -1      2017    8    0    1
 -2       983      1000      1047      3896      4022      4023
 -1      2018    8    0    1
 -2       930       989      1048      3829      4024      4025
 -1      2019    8    0    1
 -2      1008       930      1048      3902      4025      4026
 -1      2020    8    0    1
 -2       989      1039      1048      3997      4027      4024
 -1      2021    8    0    1
 -2       944       941      1049      3695      4028      4029
 -1      2022    8    0    1
 -2       941      1044      1049      4015      4030      4028
 -1      2023    8    0    1
 -2       931       981      1029      3806      4031      3968
 -1      2024    8    0    1
 -2       983      1047      1050      4023      4032      4033
 -1      2025    8    0    1
 -2       983      1050       994      4033      4034      3847
 -1      2026    8    0    1
 -2       960       959      1051      3744      4035      4036
 -1      2027    8    0    1
 -2       995       960      1051      3853      4036      4037
 -1      2028    8    0    1
 -2       959      1026      1051      3960      4038      4035
 -1      2029    8    0    1
 -2       969      1028      1042      3965      4039      4009
 -1      2030    8    0    1
 -2       961       980      1052      3802      4040      4041
 -1      2031    8    0    1
 -2       991      1011      1053      3913      4042      4043
 -1      2032    8    0    1
 -2       991      1053      1010      4043      4044      3911
 -1      2033    8    0    1
 -2      1029       981      1054      4031      4045      4046
 -1      2034    8    0    1
 -2       981      1006      1054      3895      4047      4045
 -1      2035    8    0    1
 -2      1005      1003      1055      3890      4048      4049
 -1      2036    8    0    1
 -2      1003      1033      1055      4004      4050      4048
 -1      2037    8    0    1
 -2       998       971      1056      3868      4051      4052
 -1      2038    8    0    1
 -2       971      1045      1056      4017      4053      4051
 -1      2039    8    0    1
 -2      1012       944      1049      3918      4029      4054
 -1      2040    8    0    1
 -2       972      1035      1046      3984      4055      4019
 -1      2041    8    0    1
 -2      1039       997      1057      3995      4056      4057
 -1      2042    8    0    1
 -2      1000       998      1058      3877      4058      4059
 -1      2043    8    0    1
 -2       998      1056      1058      4052      4060      4058
 -1      2044    8    0    1
 -2       997      1009      1059      3906      4061      4062
 -1      2045    8    0    1
 -2       997      1059      1057      4062      4063      4056
 -1      2046    8    0    1
 -2       934       985      1060      3818      4064      4065
 -1      2047    8    0    1
 -2       988      1002      1061      3881      4066      4067
 -1      2048    8    0    1
 -2       988      1061      1044      4067      4068      4014
 -1      2049    8    0    1
 -2       940       979      1062      3798      4069      4070
 -1      2050    8    0    1
 -2      1004       934      1060      3886      4065      4071
 -1      2051    8    0    1
 -2       982       961      1063      3810      4072      4073
 -1      2052    8    0    1
 -2       996       982      1063      3860      4073      4074
 -1      2053    8    0    1
 -2       961      1052      1063      4041      4075      4072
 -1      2054    8    0    1
 -2      1043       975      1036      4011      3987      4076
 -1      2055    8    0    1
 -2       979       977      1064      3799      4077      4078
 -1      2056    8    0    1
 -2      1062       979      1064      4069      4078      4079
 -1      2057    8    0    1
 -2       977      1038      1064      3993      4080      4077
 -1      2058    8    0    1
 -2       985      1001      1060      3998      4081      4064
 -1      2059    8    0    1
 -2      1047      1000      1058      4022      4059      4082
 -1      2060    8    0    1
 -2      1060      1001      1065      4081      4083      4084
 -1      2061    8    0    1
 -2      1001      1008      1065      3904      4085      4083
 -1      2062    8    0    1
 -2      1011      1004      1066      3914      4086      4087
 -1      2063    8    0    1
 -2       992       996      1067      3859      4088      4089
 -1      2064    8    0    1
 -2      1028       992      1067      3964      4089      4090
 -1      2065    8    0    1
 -2       996      1063      1067      4074      4091      4088
 -1      2066    8    0    1
 -2       936       995      1068      3852      4092      4093
 -1      2067    8    0    1
 -2      1006       936      1068      3893      4093      4094
 -1      2068    8    0    1
 -2       995      1051      1068      4037      4095      4092
 -1      2069    8    0    1
 -2       963       986      1030      3969      4096      3970
 -1      2070    8    0    1
 -2       980       940      1069      3803      4097      4098
 -1      2071    8    0    1
 -2      1052       980      1069      4040      4098      4099
 -1      2072    8    0    1
 -2       940      1062      1069      4070      4100      4097
 -1      2073    8    0    1
 -2       938      1010      1070      3910      4101      4102
 -1      2074    8    0    1
 -2      1007       938      1070      3900      4102      4103
 -1      2075    8    0    1
 -2      1010      1053      1070      4044      4104      4101
 -1      2076    8    0    1
 -2      1004      1060      1065      4071      4084      4105
 -1      2077    8    0    1
 -2      1066      1004      1065      4086      4105      4106
 -1      2078    8    0    1
 -2      1027      1046      1071      4021      4107      4108
 -1      2079    8    0    1
 -2      1014      1013      1072      3925      4109      4110
 -1      2080    8    0    1
 -2      1015      1014      1073      3928      4111      4112
 -1      2081    8    0    1
 -2      1014      1072      1073      4110      4113      4111
 -1      2082    8    0    1
 -2      1016      1015      1074      3931      4114      4115
 -1      2083    8    0    1
 -2      1015      1073      1074      4112      4116      4114
 -1      2084    8    0    1
 -2      1017      1016      1075      3934      4117      4118
 -1      2085    8    0    1
 -2      1016      1074      1075      4115      4119      4117
 -1      2086    8    0    1
 -2      1018      1017      1076      3937      4120      4121
 -1      2087    8    0    1
 -2      1017      1075      1076      4118      4122      4120
 -1      2088    8    0    1
 -2      1019      1018      1077      3940      4123      4124
 -1      2089    8    0    1
 -2      1018      1076      1077      4121      4125      4123
 -1      2090    8    0    1
 -2      1020      1019      1078      3943      4126      4127
 -1      2091    8    0    1
 -2      1019      1077      1078      4124      4128      4126
 -1      2092    8    0    1
 -2      1021      1020      1079      3946      4129      4130
 -1      2093    8    0    1
 -2      1020      1078      1079      4127      4131      4129
 -1      2094    8    0    1
 -2      1022      1021      1080      3949      4132      4133
 -1      2095    8    0    1
 -2      1021      1079      1080      4130      4134      4132
 -1      2096    8    0    1
 -2      1023      1022      1081      3952      4135      4136
 -1      2097    8    0    1
 -2      1022      1080      1081      4133      4137      4135
 -1      2098    8    0    1
 -2      1024      1023      1082      3955      4138      4139
 -1      2099    8    0    1
 -2      1023      1081      1082      4136      4140      4138
 -1      2100    8    0    1
 -2      1025      1024      1083      3958      4141      4142
 -1      2101    8    0    1
 -2      1024      1082      1083      4139      4143      4141
 -1      2102    8    0    1
 -2      1026      1025      1084      3961      4144      4145
 -1      2103    8    0    1
 -2      1025      1083      1084      4142      4146      4144
 -1      2104    8    0    1
 -2      1032      1031      1085      3977      4147      4148
 -1      2105    8    0    1
 -2      1033      1032      1086      3980      4149      4150
 -1      2106    8    0    1
 -2      1055      1033      1086      4050      4150      4151
 -1      2107    8    0    1
 -2      1032      1085      1086      4148      4152      4149
 -1      2108    8    0    1
 -2      1043      1036      1087      4076      4153      4154
 -1      2109    8    0    1
 -2      1066      1065      1088      4106      4155      4156
 -1      2110    8    0    1
 -2      1047      1058      1089      4082      4157      4158
 -1      2111    8    0    1
 -2      1046      1035      1090      4055      4159      4160
 -1      2112    8    0    1
 -2      1046      1090      1071      4160      4161      4107
 -1      2113    8    0    1
 -2      1034      1043      1091      4013      4162      4163
 -1      2114    8    0    1
 -2      1043      1087      1091      4154      4164      4162
 -1      2115    8    0    1
 -2      1012      1049      1092      4054      4165      4166
 -1      2116    8    0    1
 -2      1039      1057      1093      4057      4167      4168
 -1      2117    8    0    1
 -2      1039      1093      1048      4168      4169      4027
 -1      2118    8    0    1
 -2      1049      1044      1094      4030      4170      4171
 -1      2119    8    0    1
 -2      1049      1094      1092      4171      4172      4165
 -1      2120    8    0    1
 -2      1045      1027      1095      4018      4173      4174
 -1      2121    8    0    1
 -2      1027      1071      1095      4108      4175      4173
 -1      2122    8    0    1
 -2      1035      1034      1096      3985      4176      4177
 -1      2123    8    0    1
 -2      1034      1091      1096      4163      4178      4176
 -1      2124    8    0    1
 -2      1013      1012      1097      3922      4179      4180
 -1      2125    8    0    1
 -2      1012      1092      1097      4166      4181      4179
 -1      2126    8    0    1
 -2      1002      1007      1070      3899      4103      4182
 -1      2127    8    0    1
 -2      1011      1066      1098      4087      4183      4184
 -1      2128    8    0    1
 -2      1026      1084      1099      4145      4185      4186
 -1      2129    8    0    1
 -2      1002      1070      1061      4182      4187      4066
 -1      2130    8    0    1
 -2      1051      1026      1099      4038      4186      4188
 -1      2131    8    0    1
 -2      1035      1096      1090      4177      4189      4159
 -1      2132    8    0    1
 -2       986      1042      1030      4010      4190      4096
 -1      2133    8    0    1
 -2      1054      1006      1099      4047      4191      4192
 -1      2134    8    0    1
 -2      1031      1030      1100      3974      4193      4194
 -1      2135    8    0    1
 -2      1052      1069      1101      4099      4195      4196
 -1      2136    8    0    1
 -2      1087      1036      1054      4153      4197      4198
 -1      2137    8    0    1
 -2      1056      1045      1102      4053      4199      4200
 -1      2138    8    0    1
 -2      1045      1095      1102      4174      4201      4199
 -1      2139    8    0    1
 -2      1058      1056      1103      4060      4202      4203
 -1      2140    8    0    1
 -2      1056      1102      1103      4200      4204      4202
 -1      2141    8    0    1
 -2      1066      1088      1104      4156      4205      4206
 -1      2142    8    0    1
 -2      1066      1104      1098      4206      4207      4183
 -1      2143    8    0    1
 -2      1009      1037      1105      3990      4208      4209
 -1      2144    8    0    1
 -2      1009      1105      1059      4209      4210      4061
 -1      2145    8    0    1
 -2      1042      1028      1100      4039      4211      4212
 -1      2146    8    0    1
 -2      1047      1089      1106      4158      4213      4214
 -1      2147    8    0    1
 -2      1047      1106      1050      4214      4215      4032
 -1      2148    8    0    1
 -2      1037       994      1107      3991      4216      4217
 -1      2149    8    0    1
 -2      1105      1037      1107      4208      4217      4218
 -1      2150    8    0    1
 -2       994      1050      1107      4034      4219      4216
 -1      2151    8    0    1
 -2      1042      1100      1030      4212      4193      4190
 -1      2152    8    0    1
 -2      1072      1013      1097      4109      4180      4220
 -1      2153    8    0    1
 -2      1063      1052      1108      4075      4221      4222
 -1      2154    8    0    1
 -2      1067      1063      1108      4091      4222      4223
 -1      2155    8    0    1
 -2      1052      1101      1108      4196      4224      4221
 -1      2156    8    0    1
 -2      1057      1059      1109      4063      4225      4226
 -1      2157    8    0    1
 -2      1064      1038      1110      4080      4227      4228
 -1      2158    8    0    1
 -2      1038      1040      1110      4002      4229      4227
 -1      2159    8    0    1
 -2      1058      1103      1089      4203      4230      4157
 -1      2160    8    0    1
 -2      1011      1098      1053      4184      4231      4042
 -1      2161    8    0    1
 -2      1062      1064      1111      4079      4232      4233
 -1      2162    8    0    1
 -2      1064      1110      1111      4228      4234      4232
 -1      2163    8    0    1
 -2      1065      1008      1112      4085      4235      4236
 -1      2164    8    0    1
 -2      1008      1048      1112      4026      4237      4235
 -1      2165    8    0    1
 -2      1028      1067      1113      4090      4238      4239
 -1      2166    8    0    1
 -2      1067      1108      1113      4223      4240      4238
 -1      2167    8    0    1
 -2      1062      1111      1069      4233      4241      4100
 -1      2168    8    0    1
 -2      1093      1057      1114      4167      4242      4243
 -1      2169    8    0    1
 -2      1057      1109      1114      4226      4244      4242
 -1      2170    8    0    1
 -2      1031      1100      1085      4194      4245      4147
 -1      2171    8    0    1
 -2      1100      1028      1113      4211      4239      4246
 -1      2172    8    0    1
 -2      1065      1112      1088      4236      4247      4155
 -1      2173    8    0    1
 -2      1061      1070      1053      4187      4104      4248
 -1      2174    8    0    1
 -2      1074      1073      1115      4116      4249      4250
 -1      2175    8    0    1
 -2      1075      1074      1106      4119      4251      4252
 -1      2176    8    0    1
 -2      1076      1075      1089      4122      4253      4254
 -1      2177    8    0    1
 -2      1077      1076      1103      4125      4255      4256
 -1      2178    8    0    1
 -2      1078      1077      1102      4128      4257      4258
 -1      2179    8    0    1
 -2      1079      1078      1095      4131      4259      4260
 -1      2180    8    0    1
 -2      1080      1079      1071      4134      4261      4262
 -1      2181    8    0    1
 -2      1081      1080      1090      4137      4263      4264
 -1      2182    8    0    1
 -2      1082      1081      1096      4140      4265      4266
 -1      2183    8    0    1
 -2      1083      1082      1091      4143      4267      4268
 -1      2184    8    0    1
 -2      1084      1083      1087      4146      4269      4270
 -1      2185    8    0    1
 -2      1100      1113      1085      4246      4271      4245
 -1      2186    8    0    1
 -2      1101      1069      1111      4195      4241      4272
 -1      2187    8    0    1
 -2      1096      1081      1090      4265      4264      4189
 -1      2188    8    0    1
 -2      1099      1006      1068      4191      4094      4273
 -1      2189    8    0    1
 -2      1103      1076      1089      4255      4254      4230
 -1      2190    8    0    1
 -2      1101      1111      1086      4272      4274      4275
 -1      2191    8    0    1
 -2      1061      1053      1098      4248      4231      4276
 -1      2192    8    0    1
 -2      1051      1099      1068      4188      4273      4095
 -1      2193    8    0    1
 -2      1089      1075      1106      4253      4252      4213
 -1      2194    8    0    1
 -2      1005      1055      1040      4049      4277      4003
 -1      2195    8    0    1
 -2      1091      1082      1096      4267      4266      4178
 -1      2196    8    0    1
 -2      1071      1090      1080      4161      4263      4262
 -1      2197    8    0    1
 -2      1044      1061      1116      4068      4278      4279
 -1      2198    8    0    1
 -2      1091      1087      1083      4164      4269      4268
 -1      2199    8    0    1
 -2      1092      1094      1117      4172      4280      4281
 -1      2200    8    0    1
 -2      1041      1029      1054      4008      4046      4282
 -1      2201    8    0    1
 -2      1072      1097      1118      4220      4283      4284
 -1      2202    8    0    1
 -2      1109      1059      1118      4225      4285      4286
 -1      2203    8    0    1
 -2      1071      1079      1095      4261      4260      4175
 -1      2204    8    0    1
 -2      1073      1072      1119      4113      4287      4288
 -1      2205    8    0    1
 -2      1072      1118      1119      4284      4289      4287
 -1      2206    8    0    1
 -2      1048      1093      1112      4169      4290      4237
 -1      2207    8    0    1
 -2      1094      1044      1116      4170      4279      4291
 -1      2208    8    0    1
 -2      1088      1112      1093      4247      4290      4292
 -1      2209    8    0    1
 -2      1095      1078      1102      4259      4258      4201
 -1      2210    8    0    1
 -2      1077      1103      1102      4256      4204      4257
 -1      2211    8    0    1
 -2      1088      1093      1104      4292      4293      4205
 -1      2212    8    0    1
 -2      1115      1073      1119      4249      4288      4294
 -1      2213    8    0    1
 -2      1054      1036      1041      4197      4007      4282
 -1      2214    8    0    1
 -2      1084      1087      1120      4270      4295      4296
 -1      2215    8    0    1
 -2      1085      1113      1101      4271      4297      4298
 -1      2216    8    0    1
 -2      1074      1115      1106      4250      4299      4251
 -1      2217    8    0    1
 -2      1061      1098      1116      4276      4300      4278
 -1      2218    8    0    1
 -2      1098      1104      1116      4207      4301      4300
 -1      2219    8    0    1
 -2      1050      1106      1115      4215      4299      4302
 -1      2220    8    0    1
 -2      1107      1050      1115      4219      4302      4303
 -1      2221    8    0    1
 -2      1108      1101      1113      4224      4297      4240
 -1      2222    8    0    1
 -2      1118      1059      1105      4285      4210      4304
 -1      2223    8    0    1
 -2      1118      1097      1121      4283      4305      4306
 -1      2224    8    0    1
 -2      1109      1118      1121      4286      4306      4307
 -1      2225    8    0    1
 -2      1097      1092      1121      4181      4308      4305
 -1      2226    8    0    1
 -2      1116      1104      1094      4301      4309      4291
 -1      2227    8    0    1
 -2      1094      1104      1117      4309      4310      4280
 -1      2228    8    0    1
 -2      1114      1109      1121      4244      4307      4311
 -1      2229    8    0    1
 -2      1086      1085      1101      4152      4298      4275
 -1      2230    8    0    1
 -2      1099      1084      1120      4185      4296      4312
 -1      2231    8    0    1
 -2      1121      1092      1117      4308      4281      4313
 -1      2232    8    0    1
 -2      1086      1111      1055      4274      4314      4151
 -1      2233    8    0    1
 -2      1119      1118      1105      4289      4304      4315
 -1      2234    8    0    1
 -2      1055      1111      1110      4314      4234      4316
 -1      2235    8    0    1
 -2      1107      1115      1119      4303      4294      4317
 -1      2236    8    0    1
 -2      1119      1105      1107      4315      4218      4317
 -1      2237    8    0    1
 -2      1054      1099      1120      4192      4312      4318
 -1      2238    8    0    1
 -2      1121      1117      1114      4313      4319      4311
 -1      2239    8    0    1
 -2      1104      1093      1114      4293      4243      4320
 -1      2240    8    0    1
 -2      1087      1054      1120      4198      4318      4295
 -1      2241    8    0    1
 -2      1040      1055      1110      4277      4316      4229
 -1      2242    8    0    1
 -2      1117      1104      1114      4310      4320      4319
 -3
    1PSTEP                         1           1           1          
  100CL  101 1.000000000        4320                     0    1           1
 -4  DISP        4    1
 -5  D1          1    2    1    0
 -5  D2          1    2    2    0
 -5  D3          1    2    3    0
 -5  ALL         1    2    0    0    1ALL
 -1         1 9.98344E-03-5.79735E-04-1.50989E-14
 -1         2 1.18919E-02 2.77979E-04-1.66091E-14
 -1         3 1.54948E-02 1.37438E-03-3.13888E-14
 -1         4 1.48102E-02 8.01622E-05-3.47405E-14
 -1         5 0.00000E+00 0.00000E+00 0.00000E+00
 -1         6 0.00000E+00 0.00000E+00 0.00000E+00
 -1         7 0.00000E+00 0.00000E+00 0.00000E+00
 -1         8 0.00000E+00 0.00000E+00 0.00000E+00
 -1         9 0.00000E+00 0.00000E+00 0.00000E+00
 -1        10 0.00000E+00 0.00000E+00 0.00000E+00
 -1        11 0.00000E+00 0.00000E+00 0.00000E+00
 -1        12 0.00000E+00 0.00000E+00 0.00000E+00
 -1        13 0.00000E+00 0.00000E+00 0.00000E+00
 -1        14 0.00000E+00 0.00000E+00 0.00000E+00
 -1        15 0.00000E+00 0.00000E+00 0.00000E+00
 -1        16 0.00000E+00 0.00000E+00 0.00000E+00
 -1        17 0.00000E+00 0.00000E+00 0.00000E+00
 -1        18 0.00000E+00 0.00000E+00 0.00000E+00
 -1        19 0.00000E+00 0.00000E+00 0.00000E+00
 -1        20 0.00000E+00 0.00000E+00 0.00000E+00
 -1        21 0.00000E+00 0.00000E+00 0.00000E+00
 -1        22 0.00000E+00 0.00000E+00 0.00000E+00
 -1        23 4.11173E-04-2.60689E-04-9.89334E-19
 -1        24 7.02936E-04-4.00884E-04-3.87738E-17
 -1        25 9.72753E-04-4.98143E-04-1.11903E-16
 -1        26 1.23697E-03-5.66680E-04-2.18348E-16
 -1        27 1.50019E-03-6.15615E-04-3.59352E-16
 -1        28 1.76452E-03-6.50296E-04-5.36097E-16
 -1        29 2.03093E-03-6.74395E-04-7.48333E-16
 -1        30 2.29981E-03-6.90565E-04-9.95426E-16
 -1        31 2.57124E-03-7.00772E-04-1.27745E-15
 -1        32 2.84514E-03-7.06481E-04-1.59314E-15
 -1        33 3.12137E-03-7.08783E-04-1.93851E-15
 -1        34 3.39978E-03-7.08477E-04-2.30777E-15
 -1        35 3.68025E-03-7.06145E-04-2.70513E-15
 -1        36 3.96276E-03-7.02213E-04-3.12724E-15
 -1        37 4.24738E-03-6.97013E-04-3.57147E-15
 -1        38 4.53431E-03-6.90836E-04-4.04341E-15
 -1        39 4.82389E-03-6.84004E-04-4.53996E-15
 -1        40 5.11662E-03-6.76935E-04-5.06767E-15
 -1        41 5.41312E-03-6.70224E-04-5.62371E-15
 -1        42 5.71416E-03-6.64734E-04-6.20103E-15
 -1        43 6.02052E-03-6.61685E-04-6.79876E-15
 -1        44 6.33292E-03-6.62733E-04-7.42491E-15
 -1        45 6.65179E-03-6.69998E-04-8.08780E-15
 -1        46 6.97693E-03-6.85982E-04-8.79366E-15
 -1        47 7.30716E-03-7.13278E-04-9.53259E-15
 -1        48 7.63983E-03-7.53960E-04-1.03044E-14
 -1        49 7.97058E-03-8.08557E-04-1.11023E-14
 -1        50 8.29355E-03-8.74682E-04-1.19339E-14
 -1        51 8.60245E-03-9.45766E-04-1.27964E-14
 -1        52 8.89265E-03-1.01073E-03-1.36784E-14
 -1        53 9.16371E-03-1.05567E-03-1.45723E-14
 -1        54 9.42092E-03-1.06769E-03-1.54814E-14
 -1        55 9.67439E-03-1.03970E-03-1.64083E-14
 -1        56 9.93563E-03-9.73384E-04-1.73555E-14
 -1        57 1.02132E-02-8.78489E-04-1.83226E-14
 -1        58 1.05103E-02-7.68834E-04-1.93157E-14
 -1        59 1.08246E-02-6.57614E-04-2.03303E-14
 -1        60 1.11505E-02-5.54271E-04-2.13606E-14
 -1        61 1.14815E-02-4.63664E-04-2.24085E-14
 -1        62 1.18124E-02-3.86859E-04-2.34749E-14
 -1        63 1.21392E-02-3.22503E-04-2.45684E-14
 -1        64 1.24599E-02-2.68082E-04-2.56794E-14
 -1        65 1.27736E-02-2.20781E-04-2.68018E-14
 -1        66 1.30803E-02-1.77953E-04-2.79377E-14
 -1        67 1.33807E-02-1.37318E-04-2.90782E-14
 -1        68 1.36756E-02-9.69983E-05-3.02249E-14
 -1        69 1.39660E-02-5.55091E-05-3.13650E-14
 -1        70 1.42533E-02-1.17942E-05-3.24940E-14
 -1        71 1.45390E-02 3.45225E-05-3.36361E-14
 -1        72 4.13622E-04 2.61394E-04 2.80368E-17
 -1        73 7.02762E-04 4.03593E-04 4.18502E-17
 -1        74 9.73290E-04 4.99922E-04 3.94074E-17
 -1        75 1.23779E-03 5.68399E-04 1.68085E-17
 -1        76 1.50113E-03 6.17379E-04-2.95106E-17
 -1        77 1.76553E-03 6.52149E-04-1.00749E-16
 -1        78 2.03197E-03 6.76356E-04-1.96346E-16
 -1        79 2.30085E-03 6.92642E-04-3.15150E-16
 -1        80 2.57228E-03 7.02963E-04-4.60874E-16
 -1        81 2.84616E-03 7.08777E-04-6.34892E-16
 -1        82 3.12236E-03 7.11163E-04-8.39139E-16
 -1        83 3.40072E-03 7.10906E-04-1.07304E-15
 -1        84 3.68114E-03 7.08566E-04-1.33442E-15
 -1        85 3.96359E-03 7.04538E-04-1.62266E-15
 -1        86 4.24818E-03 6.99106E-04-1.94987E-15
 -1        87 4.53514E-03 6.92502E-04-2.31923E-15
 -1        88 4.82492E-03 6.84964E-04-2.72319E-15
 -1        89 5.11817E-03 6.76817E-04-3.16633E-15
 -1        90 5.41580E-03 6.68558E-04-3.64963E-15
 -1        91 5.71903E-03 6.60989E-04-4.17061E-15
 -1        92 6.02936E-03 6.55375E-04-4.72601E-15
 -1        93 6.34860E-03 6.53662E-04-5.31403E-15
 -1        94 6.67869E-03 6.58729E-04-5.94278E-15
 -1        95 7.02141E-03 6.74650E-04-6.59630E-15
 -1        96 7.37778E-03 7.06825E-04-7.27850E-15
 -1        97 7.74695E-03 7.61693E-04-7.99101E-15
 -1        98 8.12479E-03 8.45503E-04-8.73767E-15
 -1        99 8.50238E-03 9.61477E-04-9.52802E-15
 -1       100 8.86606E-03 1.10514E-03-1.03545E-14
 -1       101 9.20078E-03 1.25942E-03-1.12124E-14
 -1       102 9.49792E-03 1.39421E-03-1.20947E-14
 -1       103 9.76378E-03 1.47547E-03-1.29966E-14
 -1       104 1.00206E-02 1.48226E-03-1.39230E-14
 -1       105 1.02957E-02 1.41963E-03-1.48708E-14
 -1       106 1.06064E-02 1.31536E-03-1.58436E-14
 -1       107 1.09529E-02 1.20372E-03-1.68409E-14
 -1       108 1.13229E-02 1.11050E-03-1.78656E-14
 -1       109 1.17012E-02 1.04775E-03-1.89252E-14
 -1       110 1.20756E-02 1.01649E-03-2.00025E-14
 -1       111 1.24389E-02 1.01187E-03-2.10797E-14
 -1       112 1.27884E-02 1.02724E-03-2.21523E-14
 -1       113 1.31241E-02 1.05629E-03-2.32000E-14
 -1       114 1.34471E-02 1.09389E-03-2.42258E-14
 -1       115 1.37594E-02 1.13617E-03-2.52506E-14
 -1       116 1.40629E-02 1.18027E-03-2.62753E-14
 -1       117 1.43594E-02 1.22412E-03-2.73177E-14
 -1       118 1.46505E-02 1.26621E-03-2.83733E-14
 -1       119 1.49380E-02 1.30553E-03-2.94166E-14
 -1       120 1.52236E-02 1.34178E-03-3.04385E-14
 -1       121 1.54614E-02 1.28981E-03-3.16069E-14
 -1       122 1.54300E-02 1.20548E-03-3.18623E-14
 -1       123 1.54012E-02 1.12303E-03-3.21116E-14
 -1       124 1.53742E-02 1.04379E-03-3.23537E-14
 -1       125 1.53472E-02 9.68369E-04-3.25818E-14
 -1       126 1.53192E-02 8.97818E-04-3.28298E-14
 -1       127 1.52874E-02 8.28984E-04-3.30676E-14
 -1       128 1.52514E-02 7.61962E-04-3.32752E-14
 -1       129 1.52106E-02 6.95375E-04-3.34593E-14
 -1       130 1.51651E-02 6.27827E-04-3.36284E-14
 -1       131 1.51157E-02 5.58086E-04-3.37832E-14
 -1       132 1.50643E-02 4.86506E-04-3.39633E-14
 -1       133 1.50109E-02 4.10157E-04-3.41416E-14
 -1       134 1.49577E-02 3.30301E-04-3.42917E-14
 -1       135 1.49061E-02 2.47548E-04-3.44400E-14
 -1       136 1.48569E-02 1.63291E-04-3.45936E-14
 -1       137 1.18604E-02 4.47088E-04-1.64965E-14
 -1       138 1.17313E-02 6.13843E-04-1.62908E-14
 -1       139 1.15081E-02 7.68812E-04-1.60007E-14
 -1       140 1.11933E-02 9.05608E-04-1.56354E-14
 -1       141 1.07915E-02 1.01699E-03-1.51836E-14
 -1       142 1.03645E-02 1.08462E-03-1.47326E-14
 -1       143 9.90735E-03 1.11171E-03-1.42766E-14
 -1       144 9.40718E-03 1.09253E-03-1.38041E-14
 -1       145 8.96006E-03 1.03206E-03-1.34001E-14
 -1       146 8.51105E-03 9.24036E-04-1.30065E-14
 -1       147 8.14772E-03 7.94314E-04-1.27069E-14
 -1       148 7.86092E-03 6.46232E-04-1.24875E-14
 -1       149 7.63988E-03 4.74388E-04-1.23399E-14
 -1       150 7.52366E-03 3.07790E-04-1.22903E-14
 -1       151 7.49570E-03 1.44112E-04-1.23348E-14
 -1       152 7.55887E-03-2.12711E-05-1.24748E-14
 -1       153 7.70224E-03-1.69032E-04-1.26808E-14
 -1       154 7.93932E-03-3.10079E-04-1.29726E-14
 -1       155 8.22769E-03-4.20943E-04-1.33021E-14
 -1       156 8.60643E-03-5.16133E-04-1.37138E-14
 -1       157 9.01546E-03-5.74314E-04-1.41340E-14
 -1       158 9.48485E-03-5.98888E-04-1.46062E-14
 -1       159 1.04130E-02-5.26341E-04-1.55087E-14
 -1       160 1.08375E-02-4.34297E-04-1.59047E-14
 -1       161 1.11801E-02-3.24317E-04-1.62049E-14
 -1       162 1.14882E-02-1.81754E-04-1.64461E-14
 -1       163 1.16977E-02-3.77640E-05-1.65794E-14
 -1       164 1.18366E-02 1.19797E-04-1.66355E-14
 -1       165 2.40301E-04-1.25545E-04-1.13875E-17
 -1       166 2.25221E-04-9.46660E-05-1.41150E-17
 -1       167 2.19514E-04-7.28269E-05-1.50264E-17
 -1       168 2.16736E-04-5.51538E-05-1.52025E-17
 -1       169 2.15280E-04-4.00063E-05-1.46842E-17
 -1       170 2.14469E-04-2.59411E-05-1.37287E-17
 -1       171 2.14064E-04-1.26564E-05-1.26174E-17
 -1       172 2.13946E-04 2.73721E-07-1.16924E-17
 -1       173 2.14083E-04 1.32158E-05-1.05540E-17
 -1       174 2.14510E-04 2.65392E-05-9.12763E-18
 -1       175 2.15331E-04 4.04308E-05-7.48099E-18
 -1       176 2.16848E-04 5.59606E-05-5.17368E-18
 -1       177 2.19663E-04 7.38675E-05-2.17179E-18
 -1       178 2.25389E-04 9.60640E-05 2.25650E-18
 -1       179 2.39230E-04 1.27622E-04 8.73460E-18
 -1       180 2.97552E-04 1.85497E-04 1.63613E-17
 -1       181 4.68374E-04-2.63539E-04-2.97071E-17
 -1       182 7.66334E-04-3.82053E-04-8.87691E-17
 -1       183 1.04999E-03-4.64775E-04-1.80069E-16
 -1       184 1.32718E-03-5.23294E-04-3.03946E-16
 -1       185 1.60157E-03-5.64591E-04-4.60996E-16
 -1       186 1.87526E-03-5.93317E-04-6.52561E-16
 -1       187 2.14939E-03-6.12733E-04-8.78082E-16
 -1       188 2.42460E-03-6.25210E-04-1.13727E-15
 -1       189 2.70118E-03-6.32497E-04-1.42924E-15
 -1       190 2.97928E-03-6.35885E-04-1.75198E-15
 -1       191 3.25893E-03-6.36314E-04-2.10209E-15
 -1       192 3.54016E-03-6.34463E-04-2.47713E-15
 -1       193 3.82300E-03-6.30813E-04-2.88008E-15
 -1       194 4.10752E-03-6.25715E-04-3.30685E-15
 -1       195 4.39389E-03-6.19445E-04-3.76053E-15
 -1       196 4.68233E-03-6.12271E-04-4.24081E-15
 -1       197 4.97317E-03-6.04520E-04-4.74801E-15
 -1       198 5.26686E-03-5.96656E-04-5.28401E-15
 -1       199 5.56389E-03-5.89374E-04-5.84816E-15
 -1       200 5.86481E-03-5.83691E-04-6.43475E-15
 -1       201 6.17014E-03-5.81055E-04-7.04695E-15
 -1       202 6.48028E-03-5.83413E-04-7.68900E-15
 -1       203 6.79531E-03-5.93221E-04-8.37083E-15
 -1       204 7.11483E-03-6.13286E-04-9.09013E-15
 -1       205 7.43766E-03-6.46351E-04-9.84026E-15
 -1       206 7.76168E-03-6.94249E-04-1.06198E-14
 -1       207 8.08379E-03-7.56597E-04-1.14310E-14
 -1       208 8.40020E-03-8.29204E-04-1.22732E-14
 -1       209 8.70737E-03-9.02898E-04-1.31387E-14
 -1       210 9.00341E-03-9.63923E-04-1.40248E-14
 -1       211 9.28949E-03-9.96938E-04-1.49248E-14
 -1       212 9.57016E-03-9.90193E-04-1.58396E-14
 -1       213 9.85205E-03-9.40462E-04-1.67757E-14
 -1       214 1.01413E-02-8.54535E-04-1.77304E-14
 -1       215 1.04413E-02-7.46164E-04-1.87091E-14
 -1       216 1.07518E-02-6.30622E-04-1.97141E-14
 -1       217 1.10702E-02-5.20140E-04-2.07342E-14
 -1       218 1.13927E-02-4.21942E-04-2.17723E-14
 -1       219 1.17157E-02-3.38568E-04-2.28298E-14
 -1       220 1.20362E-02-2.69315E-04-2.39107E-14
 -1       221 1.23526E-02-2.11758E-04-2.50127E-14
 -1       222 1.26640E-02-1.62878E-04-2.61242E-14
 -1       223 1.29700E-02-1.19726E-04-2.72436E-14
 -1       224 1.32711E-02-7.97189E-05-2.83751E-14
 -1       225 1.35676E-02-4.07177E-05-2.95129E-14
 -1       226 1.38602E-02-1.00691E-06-3.06573E-14
 -1       227 1.41499E-02 4.07274E-05-3.17967E-14
 -1       228 1.44373E-02 8.52986E-05-3.29356E-14
 -1       229 6.04226E-04 3.30996E-04 2.26022E-17
 -1       230 8.93121E-04 4.32507E-04 1.31493E-17
 -1       231 1.17180E-03 5.04057E-04-1.59683E-17
 -1       232 1.44592E-03 5.54831E-04-6.71867E-17
 -1       233 1.71850E-03 5.90617E-04-1.42664E-16
 -1       234 1.99118E-03 6.15357E-04-2.43556E-16
 -1       235 2.26481E-03 6.31871E-04-3.68852E-16
 -1       236 2.53985E-03 6.42232E-04-5.20532E-16
 -1       237 2.81648E-03 6.47972E-04-6.98883E-16
 -1       238 3.09476E-03 6.50213E-04-9.06410E-16
 -1       239 3.37471E-03 6.49765E-04-1.14306E-15
 -1       240 3.65632E-03 6.47197E-04-1.40749E-15
 -1       241 3.93966E-03 6.42898E-04-1.70145E-15
 -1       242 4.22485E-03 6.37138E-04-2.03141E-15
 -1       243 4.51213E-03 6.30117E-04-2.40042E-15
 -1       244 4.80186E-03 6.22035E-04-2.80615E-15
 -1       245 5.09457E-03 6.13157E-04-3.24963E-15
 -1       246 5.39098E-03 6.03911E-04-3.73076E-15
 -1       247 5.69199E-03 5.95007E-04-4.24838E-15
 -1       248 5.99871E-03 5.87602E-04-4.80461E-15
 -1       249 6.31242E-03 5.83525E-04-5.39391E-15
 -1       250 6.63446E-03 5.85544E-04-6.01991E-15
 -1       251 6.96603E-03 5.97672E-04-6.67044E-15
 -1       252 7.30780E-03 6.25381E-04-7.34946E-15
 -1       253 7.65937E-03 6.75456E-04-8.06381E-15
 -1       254 8.01847E-03 7.54962E-04-8.81147E-15
 -1       255 8.38017E-03 8.68538E-04-9.59519E-15
 -1       256 8.73682E-03 1.01353E-03-1.04152E-14
 -1       257 9.07957E-03 1.17416E-03-1.12668E-14
 -1       258 9.40245E-03 1.31940E-03-1.21469E-14
 -1       259 9.70747E-03 1.41141E-03-1.30463E-14
 -1       260 1.00061E-02 1.42453E-03-1.39690E-14
 -1       261 1.03137E-02 1.36173E-03-1.49155E-14
 -1       262 1.06401E-02 1.25259E-03-1.58870E-14
 -1       263 1.09857E-02 1.13478E-03-1.68825E-14
 -1       264 1.13434E-02 1.03660E-03-1.79031E-14
 -1       265 1.17045E-02 9.70993E-04-1.89481E-14
 -1       266 1.20615E-02 9.38813E-04-2.00121E-14
 -1       267 1.24102E-02 9.34640E-04-2.10841E-14
 -1       268 1.27487E-02 9.51237E-04-2.21562E-14
 -1       269 1.30766E-02 9.81880E-04-2.32112E-14
 -1       270 1.33948E-02 1.02117E-03-2.42521E-14
 -1       271 1.37045E-02 1.06508E-03-2.52889E-14
 -1       272 1.40071E-02 1.11067E-03-2.63212E-14
 -1       273 1.43039E-02 1.15586E-03-2.73636E-14
 -1       274 1.45962E-02 1.19909E-03-2.84205E-14
 -1       275 1.48852E-02 1.23932E-03-2.94670E-14
 -1       276 1.51721E-02 1.27610E-03-3.04971E-14
 -1       277 1.51980E-02 1.21876E-03-3.08448E-14
 -1       278 1.51684E-02 1.13640E-03-3.10774E-14
 -1       279 1.51415E-02 1.05630E-03-3.13086E-14
 -1       280 1.51156E-02 9.78905E-04-3.15405E-14
 -1       281 1.50895E-02 9.05523E-04-3.17650E-14
 -1       282 1.50602E-02 8.33265E-04-3.19843E-14
 -1       283 1.50268E-02 7.62720E-04-3.21914E-14
 -1       284 1.49885E-02 6.92968E-04-3.23806E-14
 -1       285 1.49451E-02 6.22999E-04-3.25560E-14
 -1       286 1.48970E-02 5.51859E-04-3.27198E-14
 -1       287 1.48461E-02 4.80026E-04-3.28806E-14
 -1       288 1.47923E-02 4.04518E-04-3.30450E-14
 -1       289 1.47379E-02 3.26367E-04-3.32055E-14
 -1       290 1.46847E-02 2.45751E-04-3.33608E-14
 -1       291 1.45602E-02 1.65863E-04-3.31485E-14
 -1       292 1.19122E-02 3.33531E-04-1.69819E-14
 -1       293 1.17954E-02 4.32154E-04-1.67869E-14
 -1       294 1.15593E-02 5.65075E-04-1.64621E-14
 -1       295 1.12152E-02 7.11707E-04-1.61166E-14
 -1       296 1.08247E-02 8.98979E-04-1.56128E-14
 -1       297 1.04416E-02 1.06563E-03-1.50545E-14
 -1       298 1.00690E-02 1.16508E-03-1.45164E-14
 -1       299 9.68170E-03 1.18362E-03-1.39706E-14
 -1       300 9.29890E-03 1.11148E-03-1.34470E-14
 -1       301 8.92003E-03 9.55812E-04-1.29323E-14
 -1       302 8.48645E-03 7.69435E-04-1.25911E-14
 -1       303 8.11989E-03 5.86464E-04-1.22973E-14
 -1       304 7.80498E-03 4.11736E-04-1.20481E-14
 -1       305 7.57416E-03 2.96306E-04-1.19900E-14
 -1       306 7.47249E-03 1.98402E-04-1.19713E-14
 -1       307 7.49683E-03 1.13873E-04-1.20570E-14
 -1       308 7.64452E-03 1.01712E-05-1.22973E-14
 -1       309 7.89537E-03-1.08360E-04-1.25654E-14
 -1       310 8.20784E-03-2.59534E-04-1.29394E-14
 -1       311 8.58209E-03-4.08905E-04-1.33373E-14
 -1       312 8.93833E-03-5.57344E-04-1.38491E-14
 -1       313 9.32237E-03-6.57947E-04-1.43710E-14
 -1       314 9.70387E-03-6.78842E-04-1.49591E-14
 -1       315 1.00865E-02-5.99345E-04-1.54762E-14
 -1       316 1.04580E-02-4.62582E-04-1.59691E-14
 -1       317 1.08513E-02-2.96142E-04-1.63433E-14
 -1       318 1.12042E-02-1.12394E-04-1.67108E-14
 -1       319 1.15318E-02 2.93072E-05-1.68908E-14
 -1       320 1.17634E-02 1.49263E-04-1.70119E-14
 -1       321 1.18958E-02 2.45783E-04-1.70367E-14
 -1       322 4.55335E-04-1.64839E-04-5.10558E-17
 -1       323 4.74091E-04-2.13002E-04-4.76846E-17
 -1       324 4.40542E-04-9.40541E-05-5.12252E-17
 -1       325 4.37639E-04-6.49388E-05-4.94159E-17
 -1       326 4.36055E-04-3.79210E-05-4.69121E-17
 -1       327 4.35362E-04-1.20210E-05-4.39237E-17
 -1       328 4.35391E-04 1.35429E-05-4.08033E-17
 -1       329 4.36149E-04 3.94993E-05-3.69137E-17
 -1       330 4.37779E-04 6.61671E-05-3.25362E-17
 -1       331 4.40780E-04 9.54528E-05-2.69695E-17
 -1       332 4.46092E-04 1.28371E-04-1.99798E-17
 -1       333 4.55834E-04 1.67347E-04-1.07133E-17
 -1       334 4.75721E-04 2.17069E-04 1.55854E-18
 -1       335 5.31765E-04 2.69968E-04 1.05845E-17
 -1       336 8.24093E-04 3.73407E-04-3.84214E-18
 -1       337 8.62913E-04-3.57286E-04-1.41688E-16
 -1       338 1.14915E-03-4.25821E-04-2.49624E-16
 -1       339 1.43182E-03-4.74689E-04-3.89334E-16
 -1       340 1.71243E-03-5.08945E-04-5.61427E-16
 -1       341 1.99213E-03-5.32367E-04-7.66206E-16
 -1       342 2.27170E-03-5.47728E-04-1.00361E-15
 -1       343 2.55164E-03-5.57080E-04-1.27307E-15
 -1       344 2.83225E-03-5.61944E-04-1.57346E-15
 -1       345 3.11372E-03-5.63429E-04-1.90314E-15
 -1       346 3.39615E-03-5.62337E-04-2.25858E-15
 -1       347 3.67964E-03-5.59232E-04-2.64026E-15
 -1       348 3.96427E-03-5.54508E-04-3.04886E-15
 -1       349 4.25015E-03-5.48453E-04-3.48290E-15
 -1       350 4.53746E-03-5.41308E-04-3.94619E-15
 -1       351 4.82641E-03-5.33336E-04-4.43460E-15
 -1       352 5.11730E-03-5.24889E-04-4.95064E-15
 -1       353 5.41046E-03-5.16498E-04-5.49700E-15
 -1       354 5.70631E-03-5.08970E-04-6.06947E-15
 -1       355 6.00530E-03-5.03486E-04-6.66899E-15
 -1       356 6.30791E-03-5.01709E-04-7.29562E-15
 -1       357 6.61457E-03-5.05843E-04-7.95527E-15
 -1       358 6.92558E-03-5.18606E-04-8.65370E-15
 -1       359 7.24099E-03-5.43019E-04-9.38395E-15
 -1       360 7.56036E-03-5.81860E-04-1.01431E-14
 -1       361 7.88249E-03-6.36639E-04-1.09333E-14
 -1       362 8.20514E-03-7.06020E-04-1.17567E-14
 -1       363 8.52503E-03-7.83940E-04-1.26059E-14
 -1       364 8.83869E-03-8.58417E-04-1.34760E-14
 -1       365 9.14416E-03-9.12700E-04-1.43666E-14
 -1       366 9.44280E-03-9.30073E-04-1.52712E-14
 -1       367 9.73947E-03-9.00825E-04-1.61980E-14
 -1       368 1.00401E-02-8.27290E-04-1.71431E-14
 -1       369 1.03485E-02-7.22588E-04-1.81084E-14
 -1       370 1.06646E-02-6.04246E-04-1.90971E-14
 -1       371 1.09856E-02-4.87581E-04-2.01097E-14
 -1       372 1.13079E-02-3.82316E-04-2.11409E-14
 -1       373 1.16286E-02-2.92515E-04-2.21881E-14
 -1       374 1.19459E-02-2.18178E-04-2.32556E-14
 -1       375 1.22587E-02-1.57065E-04-2.43458E-14
 -1       376 1.25669E-02-1.06065E-04-2.54539E-14
 -1       377 1.28706E-02-6.20213E-05-2.65657E-14
 -1       378 1.31702E-02-2.21192E-05-2.76822E-14
 -1       379 1.34662E-02 1.59871E-05-2.88098E-14
 -1       380 1.37590E-02 5.41884E-05-2.99469E-14
 -1       381 1.40492E-02 9.39744E-05-3.10856E-14
 -1       382 1.43053E-02 1.28571E-04-3.21170E-14
 -1       383 1.10942E-03 4.47543E-04-3.70120E-17
 -1       384 1.39001E-03 5.00307E-04-9.20217E-17
 -1       385 1.66817E-03 5.37475E-04-1.70863E-16
 -1       386 1.94543E-03 5.63127E-04-2.75021E-16
 -1       387 2.22277E-03 5.80221E-04-4.03635E-16
 -1       388 2.50073E-03 5.90931E-04-5.58493E-16
 -1       389 2.77966E-03 5.96864E-04-7.39670E-16
 -1       390 3.05971E-03 5.99194E-04-9.49690E-16
 -1       391 3.34099E-03 5.98763E-04-1.18786E-15
 -1       392 3.62356E-03 5.96160E-04-1.45384E-15
 -1       393 3.90751E-03 5.91783E-04-1.74980E-15
 -1       394 4.19297E-03 5.85897E-04-2.08001E-15
 -1       395 4.48015E-03 5.78691E-04-2.44904E-15
 -1       396 4.76932E-03 5.70338E-04-2.85469E-15
 -1       397 5.06090E-03 5.61065E-04-3.29719E-15
 -1       398 5.35542E-03 5.51244E-04-3.77629E-15
 -1       399 5.65355E-03 5.41508E-04-4.29178E-15
 -1       400 5.95611E-03 5.32911E-04-4.84517E-15
 -1       401 6.26404E-03 5.27141E-04-5.43330E-15
 -1       402 6.57838E-03 5.26793E-04-6.05557E-15
 -1       403 6.90018E-03 5.35673E-04-6.70487E-15
 -1       404 7.23038E-03 5.59067E-04-7.38246E-15
 -1       405 7.56954E-03 6.03729E-04-8.09388E-15
 -1       406 7.91741E-03 6.77134E-04-8.83921E-15
 -1       407 8.27215E-03 7.85235E-04-9.61805E-15
 -1       408 8.62948E-03 9.27905E-04-1.04309E-14
 -1       409 8.98230E-03 1.09239E-03-1.12785E-14
 -1       410 9.32311E-03 1.24851E-03-1.21543E-14
 -1       411 9.64983E-03 1.35441E-03-1.30538E-14
 -1       412 9.96989E-03 1.37722E-03-1.39719E-14
 -1       413 1.02961E-02 1.31605E-03-1.49158E-14
 -1       414 1.06361E-02 1.20280E-03-1.58825E-14
 -1       415 1.09883E-02 1.07959E-03-1.68745E-14
 -1       416 1.13452E-02 9.77296E-04-1.78913E-14
 -1       417 1.16995E-02 9.09310E-04-1.89283E-14
 -1       418 1.20470E-02 8.76100E-04-1.99834E-14
 -1       419 1.23856E-02 8.71764E-04-2.10509E-14
 -1       420 1.27151E-02 8.88726E-04-2.21218E-14
 -1       421 1.30358E-02 9.20045E-04-2.31812E-14
 -1       422 1.33487E-02 9.60185E-04-2.42337E-14
 -1       423 1.36549E-02 1.00502E-03-2.52779E-14
 -1       424 1.39555E-02 1.05159E-03-2.63145E-14
 -1       425 1.42513E-02 1.09773E-03-2.73617E-14
 -1       426 1.45434E-02 1.14191E-03-2.84223E-14
 -1       427 1.48326E-02 1.18301E-03-2.94746E-14
 -1       428 1.50156E-02 1.20164E-03-3.01615E-14
 -1       429 1.48828E-02 9.85876E-04-3.04927E-14
 -1       430 1.49079E-02 1.06471E-03-3.02713E-14
 -1       431 1.49607E-02 1.13255E-03-3.02158E-14
 -1       432 1.48583E-02 9.10848E-04-3.07091E-14
 -1       433 1.48315E-02 8.36777E-04-3.09189E-14
 -1       434 1.48009E-02 7.64453E-04-3.11147E-14
 -1       435 1.47654E-02 6.93140E-04-3.12986E-14
 -1       436 1.47244E-02 6.22001E-04-3.14780E-14
 -1       437 1.46781E-02 5.50205E-04-3.16485E-14
 -1       438 1.46282E-02 4.78280E-04-3.18063E-14
 -1       439 1.45743E-02 4.03210E-04-3.19628E-14
 -1       440 1.45190E-02 3.25904E-04-3.21219E-14
 -1       441 1.44641E-02 2.46289E-04-3.22819E-14
 -1       442 1.16699E-02 4.45930E-04-1.70002E-14
 -1       443 1.19362E-02 2.98763E-04-1.74740E-14
 -1       444 1.18815E-02 3.54282E-04-1.73467E-14
 -1       445 1.13938E-02 5.66286E-04-1.66474E-14
 -1       446 1.09709E-02 7.66912E-04-1.61618E-14
 -1       447 4.45624E-04-1.26525E-04-5.19367E-17
 -1       448 1.02035E-02 1.14769E-03-1.48221E-14
 -1       449 9.86979E-03 1.22154E-03-1.42052E-14
 -1       450 9.54196E-03 1.19340E-03-1.35907E-14
 -1       451 9.20457E-03 1.06257E-03-1.30230E-14
 -1       452 8.72898E-03 8.02065E-04-1.23991E-14
 -1       453 8.39709E-03 6.22851E-04-1.21086E-14
 -1       454 8.01317E-03 4.35479E-04-1.18532E-14
 -1       455 7.66929E-03 2.79641E-04-1.16198E-14
 -1       456 7.50169E-03 2.10832E-04-1.16094E-14
 -1       457 7.44808E-03 1.56832E-04-1.16062E-14
 -1       458 7.56145E-03 9.60465E-05-1.17976E-14
 -1       459 7.75232E-03 2.14328E-05-1.20573E-14
 -1       460 8.10137E-03-1.30008E-04-1.24952E-14
 -1       461 8.41337E-03-2.78297E-04-1.28824E-14
 -1       462 8.84961E-03-4.95774E-04-1.35225E-14
 -1       463 9.15847E-03-6.27081E-04-1.40371E-14
 -1       464 9.50630E-03-7.09637E-04-1.46972E-14
 -1       465 9.88625E-03-6.65662E-04-1.54336E-14
 -1       466 1.01760E-02-5.53712E-04-1.59217E-14
 -1       467 1.05995E-02-3.35027E-04-1.65256E-14
 -1       468 1.09268E-02-1.60079E-04-1.68946E-14
 -1       469 1.13547E-02 4.90729E-05-1.72856E-14
 -1       470 1.16416E-02 1.58297E-04-1.73748E-14
 -1       471 1.18512E-02 2.48222E-04-1.75469E-14
 -1       472 1.05531E-02 9.91442E-04-1.54586E-14
 -1       473 8.63852E-03-3.85632E-04-1.30631E-14
 -1       474 8.97998E-03 9.32806E-04-1.24857E-14
 -1       475 9.30972E-04 3.45887E-04-4.54010E-17
 -1       476 6.66114E-04-7.51236E-05-1.03423E-16
 -1       477 6.70003E-04-1.15887E-04-1.07431E-16
 -1       478 6.63495E-04 1.10660E-06-9.22859E-17
 -1       479 6.64200E-04 3.87617E-05-8.53945E-17
 -1       480 6.66298E-04 7.68134E-05-7.75509E-17
 -1       481 6.70317E-04 1.17725E-04-6.82200E-17
 -1       482 6.77223E-04 1.62344E-04-5.66699E-17
 -1       483 6.89001E-04 2.12702E-04-4.23076E-17
 -1       484 1.21677E-03 4.06141E-04-9.85336E-17
 -1       485 9.76076E-04-3.28496E-04-1.97701E-16
 -1       486 1.03453E-02 1.10425E-03-1.51836E-14
 -1       487 1.26199E-03-3.83116E-04-3.21178E-16
 -1       488 1.54693E-03-4.22444E-04-4.75301E-16
 -1       489 1.83104E-03-4.49937E-04-6.60330E-16
 -1       490 2.11458E-03-4.68423E-04-8.77038E-16
 -1       491 2.39791E-03-4.80134E-04-1.12528E-15
 -1       492 2.68128E-03-4.86769E-04-1.40344E-15
 -1       493 2.96489E-03-4.89596E-04-1.71101E-15
 -1       494 3.24889E-03-4.89539E-04-2.04657E-15
 -1       495 3.53336E-03-4.87255E-04-2.40805E-15
 -1       496 3.81839E-03-4.83199E-04-2.79661E-15
 -1       497 4.10408E-03-4.77688E-04-3.21182E-15
 -1       498 4.39052E-03-4.70957E-04-3.65592E-15
 -1       499 4.67784E-03-4.63222E-04-4.12756E-15
 -1       500 4.96623E-03-4.54745E-04-4.62459E-15
 -1       501 5.25590E-03-4.45906E-04-5.15245E-15
 -1       502 5.54715E-03-4.37293E-04-5.70870E-15
 -1       503 5.84039E-03-4.29792E-04-6.29309E-15
 -1       504 6.13610E-03-4.24697E-04-6.90693E-15
 -1       505 6.43494E-03-4.23803E-04-7.54939E-15
 -1       506 6.73774E-03-4.29470E-04-8.22588E-15
 -1       507 7.04545E-03-4.44601E-04-8.93536E-15
 -1       508 7.35903E-03-4.72442E-04-9.67446E-15
 -1       509 7.67909E-03-5.16019E-04-1.04441E-14
 -1       510 8.00523E-03-5.76987E-04-1.12466E-14
 -1       511 8.33518E-03-6.53635E-04-1.20761E-14
 -1       512 8.66448E-03-7.38050E-04-1.29315E-14
 -1       513 8.98776E-03-8.14319E-04-1.38078E-14
 -1       514 9.30233E-03-8.60614E-04-1.47036E-14
 -1       515 9.61103E-03-8.57733E-04-1.56192E-14
 -1       516 9.92115E-03-7.99998E-04-1.65539E-14
 -1       517 1.02389E-02-6.99120E-04-1.75094E-14
 -1       518 1.05648E-02-5.76653E-04-1.84847E-14
 -1       519 1.08948E-02-4.52883E-04-1.94862E-14
 -1       520 1.12236E-02-3.40676E-04-2.05079E-14
 -1       521 1.15473E-02-2.45280E-04-2.15460E-14
 -1       522 1.18646E-02-1.66834E-04-2.26025E-14
 -1       523 1.21754E-02-1.02901E-04-2.36810E-14
 -1       524 1.24806E-02-5.01536E-05-2.47806E-14
 -1       525 1.27812E-02-5.26103E-06-2.58888E-14
 -1       526 1.30780E-02 3.47181E-05-2.69984E-14
 -1       527 1.33718E-02 7.22261E-05-2.81164E-14
 -1       528 1.36631E-02 1.09229E-04-2.92438E-14
 -1       529 1.39524E-02 1.47292E-04-3.03730E-14
 -1       530 1.78349E-03 4.79809E-04-2.73846E-16
 -1       531 2.06546E-03 5.00417E-04-3.98326E-16
 -1       532 2.34724E-03 5.13719E-04-5.48291E-16
 -1       533 2.62919E-03 5.21555E-04-7.24247E-16
 -1       534 2.91156E-03 5.25290E-04-9.26956E-16
 -1       535 3.19453E-03 5.25914E-04-1.15920E-15
 -1       536 3.47819E-03 5.24129E-04-1.41830E-15
 -1       537 3.76265E-03 5.20409E-04-1.70669E-15
 -1       538 4.04801E-03 5.15067E-04-2.02655E-15
 -1       539 4.33438E-03 5.08308E-04-2.38318E-15
 -1       540 4.62192E-03 5.00287E-04-2.77681E-15
 -1       541 4.91086E-03 4.91170E-04-3.20563E-15
 -1       542 5.20144E-03 4.81214E-04-3.67001E-15
 -1       543 5.49401E-03 4.70859E-04-4.17022E-15
 -1       544 5.78900E-03 4.60859E-04-4.70803E-15
 -1       545 6.08692E-03 4.52445E-04-5.28206E-15
 -1       546 6.38845E-03 4.47550E-04-5.88843E-15
 -1       547 6.69448E-03 4.49071E-04-6.52662E-15
 -1       548 7.00627E-03 4.61171E-04-7.19202E-15
 -1       549 7.32560E-03 4.89524E-04-7.88929E-15
 -1       550 7.65483E-03 5.41334E-04-8.61909E-15
 -1       551 7.99656E-03 6.24650E-04-9.38056E-15
 -1       552 8.35217E-03 7.46003E-04-1.01738E-14
 -1       553 8.71895E-03 9.04784E-04-1.10017E-14
 -1       554 9.08747E-03 1.08349E-03-1.18628E-14
 -1       555 9.44546E-03 1.23845E-03-1.27533E-14
 -1       556 9.79161E-03 1.31510E-03-1.36636E-14
 -1       557 1.01370E-02 1.28471E-03-1.45926E-14
 -1       558 1.04947E-02 1.17329E-03-1.55460E-14
 -1       559 1.08628E-02 1.03650E-03-1.65205E-14
 -1       560 1.12296E-02 9.18092E-04-1.75213E-14
 -1       561 1.15855E-02 8.36699E-04-1.85462E-14
 -1       562 1.19274E-02 7.93477E-04-1.95865E-14
 -1       563 1.22566E-02 7.81967E-04-2.06455E-14
 -1       564 1.25756E-02 7.94047E-04-2.17125E-14
 -1       565 1.28869E-02 8.22349E-04-2.27791E-14
 -1       566 1.31922E-02 8.60970E-04-2.38399E-14
 -1       567 1.34928E-02 9.05471E-04-2.48971E-14
 -1       568 1.37896E-02 9.52615E-04-2.59471E-14
 -1       569 1.40833E-02 1.00007E-03-2.70005E-14
 -1       570 1.43743E-02 1.04612E-03-2.80641E-14
 -1       571 1.46632E-02 1.08951E-03-2.91274E-14
 -1       572 1.46017E-02 8.38696E-04-2.98561E-14
 -1       573 1.45742E-02 7.65601E-04-3.00438E-14
 -1       574 1.46486E-02 9.90122E-04-2.94495E-14
 -1       575 1.46257E-02 9.13196E-04-2.96548E-14
 -1       576 1.45419E-02 6.93835E-04-3.02262E-14
 -1       577 1.45037E-02 6.22569E-04-3.04044E-14
 -1       578 1.44596E-02 5.50954E-04-3.05736E-14
 -1       579 1.44109E-02 4.79466E-04-3.07285E-14
 -1       580 1.43572E-02 4.05040E-04-3.08833E-14
 -1       581 1.43011E-02 3.28489E-04-3.10400E-14
 -1       582 1.42443E-02 2.49624E-04-3.12008E-14
 -1       583 1.19641E-02 3.27712E-04-1.79793E-14
 -1       584 1.18121E-02 3.87271E-04-1.76725E-14
 -1       585 1.19391E-02 2.93387E-04-1.80030E-14
 -1       586 1.50081E-03 4.49449E-04-1.73913E-16
 -1       587 1.15637E-02 4.81497E-04-1.72778E-14
 -1       588 7.12485E-04-2.51808E-04-1.12367E-16
 -1       589 1.07441E-02 8.97157E-04-1.59927E-14
 -1       590 9.30322E-03-6.90004E-04-1.42994E-14
 -1       591 7.44712E-03 1.28189E-04-1.12634E-14
 -1       592 6.64093E-04-3.65123E-05-9.83710E-17
 -1       593 9.73696E-03 1.24273E-03-1.38559E-14
 -1       594 7.83249E-03 3.18475E-04-1.12937E-14
 -1       595 1.00572E-02 1.21131E-03-1.45631E-14
 -1       596 9.39966E-03 1.15370E-03-1.31358E-14
 -1       597 8.53848E-03 6.69750E-04-1.17694E-14
 -1       598 9.68949E-03-7.20266E-04-1.52006E-14
 -1       599 8.20816E-03 4.90025E-04-1.15197E-14
 -1       600 7.54252E-03 2.12138E-04-1.11965E-14
 -1       601 7.43081E-03 1.68910E-04-1.11937E-14
 -1       602 7.63105E-03 6.78979E-05-1.15761E-14
 -1       603 7.91076E-03-3.78872E-05-1.19389E-14
 -1       604 8.24186E-03-1.86199E-04-1.24020E-14
 -1       605 8.99812E-03-5.71783E-04-1.36558E-14
 -1       606 1.15465E-02 1.54573E-04-1.78164E-14
 -1       607 1.00242E-02-6.19304E-04-1.59067E-14
 -1       608 1.03650E-02-4.46078E-04-1.65506E-14
 -1       609 1.07510E-02-2.27247E-04-1.71188E-14
 -1       610 1.11391E-02-2.29194E-05-1.75287E-14
 -1       611 1.17797E-02 2.38970E-04-1.79916E-14
 -1       612 7.03579E-04 2.90862E-04-1.50941E-17
 -1       613 1.12156E-02 6.43026E-04-1.67826E-14
 -1       614 6.76680E-04-1.60042E-04-1.09677E-16
 -1       615 1.10107E-02 7.77169E-04-1.66140E-14
 -1       616 1.13679E-02 8.18037E-05-1.80622E-14
 -1       617 9.17923E-03 1.05259E-03-1.25939E-14
 -1       618 1.41460E-02 1.72641E-04-3.11428E-14
 -1       619 9.00179E-04 7.40568E-05-1.44246E-16
 -1       620 8.98122E-04 2.51519E-05-1.55905E-16
 -1       621 9.12061E-04 1.78129E-04-1.14482E-16
 -1       622 9.24268E-04 2.36678E-04-9.46813E-17
 -1       623 1.04877E-03 3.13706E-04-9.64703E-17
 -1       624 1.33450E-03 3.61056E-04-1.69166E-16
 -1       625 1.01905E-02-5.52061E-04-1.64893E-14
 -1       626 1.38325E-03-3.36504E-04-3.94375E-16
 -1       627 1.66948E-03-3.66973E-04-5.60909E-16
 -1       628 1.95571E-03-3.88118E-04-7.58037E-16
 -1       629 2.24178E-03-4.02045E-04-9.84862E-16
 -1       630 2.52769E-03-4.10480E-04-1.24230E-15
 -1       631 2.81347E-03-4.14770E-04-1.52803E-15
 -1       632 3.09918E-03-4.15926E-04-1.84184E-15
 -1       633 3.38490E-03-4.14680E-04-2.18318E-15
 -1       634 3.67064E-03-4.11547E-04-2.55111E-15
 -1       635 3.95647E-03-4.06878E-04-2.94702E-15
 -1       636 4.24243E-03-4.00917E-04-3.37180E-15
 -1       637 4.52856E-03-3.93852E-04-3.82538E-15
 -1       638 4.81495E-03-3.85873E-04-4.30486E-15
 -1       639 5.10171E-03-3.77231E-04-4.81438E-15
 -1       640 5.38901E-03-3.68312E-04-5.35308E-15
 -1       641 5.67713E-03-3.59712E-04-5.92080E-15
 -1       642 5.96651E-03-3.52327E-04-6.52067E-15
 -1       643 6.25783E-03-3.47455E-04-7.15011E-15
 -1       644 6.55211E-03-3.46896E-04-7.80657E-15
 -1       645 6.85078E-03-3.53055E-04-8.49515E-15
 -1       646 7.15577E-03-3.69014E-04-9.21297E-15
 -1       647 7.46929E-03-3.98487E-04-9.95982E-15
 -1       648 7.79321E-03-4.45423E-04-1.07411E-14
 -1       649 8.12792E-03-5.12735E-04-1.15530E-14
 -1       650 8.47026E-03-5.99378E-04-1.23911E-14
 -1       651 8.81324E-03-6.95116E-04-1.32513E-14
 -1       652 9.14731E-03-7.75774E-04-1.41342E-14
 -1       653 9.47135E-03-8.10644E-04-1.50390E-14
 -1       654 9.79143E-03-7.77149E-04-1.59644E-14
 -1       655 1.01188E-02-6.80840E-04-1.69105E-14
 -1       656 1.04572E-02-5.50013E-04-1.78757E-14
 -1       657 1.08008E-02-4.14893E-04-1.88656E-14
 -1       658 1.11410E-02-2.93987E-04-1.98761E-14
 -1       659 1.14718E-02-1.93501E-04-2.09054E-14
 -1       660 1.17917E-02-1.12541E-04-2.19505E-14
 -1       661 1.21017E-02-4.74848E-05-2.30214E-14
 -1       662 1.24041E-02 5.71747E-06-2.41113E-14
 -1       663 1.27008E-02 5.06972E-05-2.52126E-14
 -1       664 1.29937E-02 9.04595E-05-2.63177E-14
 -1       665 1.32840E-02 1.27411E-04-2.74279E-14
 -1       666 1.35725E-02 1.63458E-04-2.85439E-14
 -1       667 1.38598E-02 2.00108E-04-2.96636E-14
 -1       668 2.19058E-03 4.35065E-04-5.30639E-16
 -1       669 1.43632E-02 9.46580E-04-2.83681E-14
 -1       670 1.90555E-03 4.19157E-04-3.85586E-16
 -1       671 2.76021E-03 4.50278E-04-8.97868E-16
 -1       672 3.04508E-03 4.52182E-04-1.12288E-15
 -1       673 3.33011E-03 4.51457E-04-1.37589E-15
 -1       674 3.61539E-03 4.48662E-04-1.65666E-15
 -1       675 3.90095E-03 4.44167E-04-1.96878E-15
 -1       676 4.18686E-03 4.38215E-04-2.31408E-15
 -1       677 4.47317E-03 4.30968E-04-2.69628E-15
 -1       678 4.75993E-03 4.22568E-04-3.11239E-15
 -1       679 5.04721E-03 4.13197E-04-3.56385E-15
 -1       680 5.33508E-03 4.03158E-04-4.05005E-15
 -1       681 5.62365E-03 3.92965E-04-4.57034E-15
 -1       682 5.91306E-03 3.83468E-04-5.12956E-15
 -1       683 6.20360E-03 3.75997E-04-5.72316E-15
 -1       684 6.49578E-03 3.72555E-04-6.34719E-15
 -1       685 6.79062E-03 3.76042E-04-7.00134E-15
 -1       686 7.09000E-03 3.90529E-04-7.68407E-15
 -1       687 7.39717E-03 4.21622E-04-8.39963E-15
 -1       688 7.71723E-03 4.76920E-04-9.14517E-15
 -1       689 8.05637E-03 5.66264E-04-9.92175E-15
 -1       690 8.42067E-03 7.00073E-04-1.07294E-14
 -1       691 8.80717E-03 8.81028E-04-1.15717E-14
 -1       692 9.96038E-03 1.26555E-03-1.42610E-14
 -1       693 1.03406E-02 1.16097E-03-1.52007E-14
 -1       694 1.07317E-02 1.00307E-03-1.61581E-14
 -1       695 1.11175E-02 8.62364E-04-1.71420E-14
 -1       696 1.14827E-02 7.67497E-04-1.81513E-14
 -1       697 1.18239E-02 7.16857E-04-1.91824E-14
 -1       698 1.21459E-02 7.00789E-04-2.02308E-14
 -1       699 1.24548E-02 7.09490E-04-2.12935E-14
 -1       700 1.27555E-02 7.35152E-04-2.23608E-14
 -1       701 1.30513E-02 7.71878E-04-2.34266E-14
 -1       702 1.33441E-02 8.15276E-04-2.44913E-14
 -1       703 1.36349E-02 8.62110E-04-2.55517E-14
 -1       704 1.39243E-02 9.09999E-04-2.66148E-14
 -1       705 1.41448E-02 9.28742E-04-2.74895E-14
 -1       706 1.42836E-02 6.23180E-04-2.93437E-14
 -1       707 1.40522E-02 2.24266E-04-3.04294E-14
 -1       708 1.43469E-02 7.65379E-04-2.89841E-14
 -1       709 1.42420E-02 5.52503E-04-2.95108E-14
 -1       710 1.43183E-02 6.93812E-04-2.91656E-14
 -1       711 9.10897E-03-6.52015E-04-1.38713E-14
 -1       712 1.41949E-02 4.82092E-04-2.96649E-14
 -1       713 1.41417E-02 4.08784E-04-2.98203E-14
 -1       714 1.40847E-02 3.33275E-04-2.99748E-14
 -1       715 8.01533E-03-1.27349E-04-1.17719E-14
 -1       716 9.61590E-04-2.66613E-04-2.02302E-16
 -1       717 8.45447E-03-3.17535E-04-1.25754E-14
 -1       718 7.94862E-03 3.76597E-04-1.09137E-14
 -1       719 1.62019E-03 3.95287E-04-2.65043E-16
 -1       720 1.19720E-02 3.63500E-04-1.84223E-14
 -1       721 2.47541E-03 4.44942E-04-7.00835E-16
 -1       722 8.77966E-03-4.95620E-04-1.31550E-14
 -1       723 1.10016E-02-1.06854E-04-1.78979E-14
 -1       724 7.35605E-03 1.39511E-04-1.07270E-14
 -1       725 9.04554E-04 1.24537E-04-1.30507E-16
 -1       726 9.59735E-03 1.24099E-03-1.33787E-14
 -1       727 9.87330E-03-6.92585E-04-1.58148E-14
 -1       728 9.04194E-04-1.22114E-04-1.82112E-16
 -1       729 8.28705E-03 5.47264E-04-1.11621E-14
 -1       730 8.81206E-03 8.44756E-04-1.19002E-14
 -1       731 7.42821E-03 1.76105E-04-1.07573E-14
 -1       732 1.19256E-02 2.84549E-04-1.85799E-14
 -1       733 7.47809E-03 9.15282E-05-1.10348E-14
 -1       734 1.20141E-02 3.20090E-04-1.85450E-14
 -1       735 9.47674E-03-7.41702E-04-1.47822E-14
 -1       736 7.69152E-03 9.69797E-06-1.13018E-14
 -1       737 7.61145E-03 2.39550E-04-1.07395E-14
 -1       738 1.17715E-02 4.42466E-04-1.80990E-14
 -1       739 1.05758E-02-3.39182E-04-1.72139E-14
 -1       740 1.14994E-02 5.52412E-04-1.75954E-14
 -1       741 1.17020E-02 2.12084E-04-1.84368E-14
 -1       742 9.11513E-04-1.75518E-04-1.87584E-16
 -1       743 8.98064E-04-2.31271E-05-1.66066E-16
 -1       744 1.13274E-02 6.68838E-04-1.74249E-14
 -1       745 1.43704E-02 8.38171E-04-2.88022E-14
 -1       746 8.99987E-04-7.17427E-05-1.74912E-16
 -1       747 7.32830E-03 1.09393E-04-1.05009E-14
 -1       748 1.39728E-02 2.67390E-04-2.98185E-14
 -1       749 1.20287E-02 4.18813E-04-1.90843E-14
 -1       750 1.16174E-03 2.43370E-04-1.69539E-16
 -1       751 1.15765E-02 1.47542E-04-1.87713E-14
 -1       752 1.04109E-02-4.64936E-04-1.72053E-14
 -1       753 8.52126E-03-4.13363E-04-1.25709E-14
 -1       754 1.79753E-03-3.08331E-04-6.46452E-16
 -1       755 2.08522E-03-3.23725E-04-8.53338E-16
 -1       756 2.37300E-03-3.33579E-04-1.08971E-15
 -1       757 2.66064E-03-3.39174E-04-1.35523E-15
 -1       758 2.94801E-03-3.41525E-04-1.64802E-15
 -1       759 3.23506E-03-3.41398E-04-1.96822E-15
 -1       760 3.52175E-03-3.39340E-04-2.31577E-15
 -1       761 3.80804E-03-3.35731E-04-2.69125E-15
 -1       762 4.09393E-03-3.30825E-04-3.09520E-15
 -1       763 4.37938E-03-3.24794E-04-3.52959E-15
 -1       764 4.66439E-03-3.17778E-04-3.99238E-15
 -1       765 4.94895E-03-3.09930E-04-4.48060E-15
 -1       766 5.23311E-03-3.01468E-04-5.00305E-15
 -1       767 5.51699E-03-2.92735E-04-5.55390E-15
 -1       768 5.80087E-03-2.84262E-04-6.13741E-15
 -1       769 6.08524E-03-2.76850E-04-6.75217E-15
 -1       770 6.37100E-03-2.71662E-04-7.39460E-15
 -1       771 6.65959E-03-2.70357E-04-8.06362E-15
 -1       772 6.95318E-03-2.75283E-04-8.76108E-15
 -1       773 7.25485E-03-2.89773E-04-9.48739E-15
 -1       774 7.56851E-03-3.18529E-04-1.02472E-14
 -1       775 7.89749E-03-3.67638E-04-1.10380E-14
 -1       776 8.24425E-03-4.43337E-04-1.18558E-14
 -1       777 8.60365E-03-5.46377E-04-1.26996E-14
 -1       778 9.31444E-03-7.53524E-04-1.44667E-14
 -1       779 9.98680E-03-6.83659E-04-1.63242E-14
 -1       780 1.03419E-02-5.38036E-04-1.72763E-14
 -1       781 1.07025E-02-3.84502E-04-1.82552E-14
 -1       782 1.10573E-02-2.50376E-04-1.92539E-14
 -1       783 1.13976E-02-1.43616E-04-2.02725E-14
 -1       784 1.17214E-02-6.10121E-05-2.13128E-14
 -1       785 1.20310E-02 3.63141E-06-2.23736E-14
 -1       786 1.23303E-02 5.58934E-05-2.34540E-14
 -1       787 1.26228E-02 1.00006E-04-2.45485E-14
 -1       788 1.29111E-02 1.39067E-04-2.56503E-14
 -1       789 1.31971E-02 1.75367E-04-2.67541E-14
 -1       790 1.34819E-02 2.10643E-04-2.78626E-14
 -1       791 1.37273E-02 2.38513E-04-2.88385E-14
 -1       792 7.42605E-03 1.93206E-04-1.02916E-14
 -1       793 2.03291E-03 3.55854E-04-5.06221E-16
 -1       794 3.18018E-03 3.78025E-04-1.32715E-15
 -1       795 2.89365E-03 3.77570E-04-1.08099E-15
 -1       796 3.75260E-03 3.72910E-04-1.90511E-15
 -1       797 4.03847E-03 3.68047E-04-2.24174E-15
 -1       798 4.32407E-03 3.61927E-04-2.61225E-15
 -1       799 4.60934E-03 3.54689E-04-3.01698E-15
 -1       800 4.89419E-03 3.46480E-04-3.45594E-15
 -1       801 5.17852E-03 3.37512E-04-3.92761E-15
 -1       802 5.46216E-03 3.28134E-04-4.43491E-15
 -1       803 5.74496E-03 3.18911E-04-4.97850E-15
 -1       804 6.02680E-03 3.10716E-04-5.55784E-15
 -1       805 6.30770E-03 3.04833E-04-6.16981E-15
 -1       806 6.58802E-03 3.03075E-04-6.80949E-15
 -1       807 6.86882E-03 3.07943E-04-7.47864E-15
 -1       808 7.15246E-03 3.22893E-04-8.18042E-15
 -1       809 7.44353E-03 3.53009E-04-8.91383E-15
 -1       810 7.74985E-03 4.06355E-04-9.67392E-15
 -1       811 1.21087E-02 3.61544E-04-1.92038E-14
 -1       812 1.17542E-02 6.26033E-04-1.87886E-14
 -1       813 1.20638E-02 6.11268E-04-1.98294E-14
 -1       814 1.23575E-02 6.20784E-04-2.08847E-14
 -1       815 1.26432E-02 6.46028E-04-2.19527E-14
 -1       816 1.29255E-02 6.81586E-04-2.30215E-14
 -1       817 1.32070E-02 7.23685E-04-2.40885E-14
 -1       818 1.34889E-02 7.69526E-04-2.51553E-14
 -1       819 1.37714E-02 8.16980E-04-2.62295E-14
 -1       820 1.13880E-03 5.89579E-05-2.33144E-16
 -1       821 1.40260E-02 5.53709E-04-2.84640E-14
 -1       822 1.38705E-02 3.39319E-04-2.89281E-14
 -1       823 1.39809E-02 4.84987E-04-2.86200E-14
 -1       824 7.72289E-03-7.84801E-05-1.10292E-14
 -1       825 1.18872E-02 2.58351E-04-1.90856E-14
 -1       826 7.30552E-03 1.50182E-04-1.02437E-14
 -1       827 1.32836E-03-2.29488E-04-3.70184E-16
 -1       828 1.39283E-02 4.13358E-04-2.87755E-14
 -1       829 3.46650E-03 3.76329E-04-1.60138E-15
 -1       830 8.87444E-03-5.95384E-04-1.33323E-14
 -1       831 9.64490E-03-7.66222E-04-1.53826E-14
 -1       832 1.56224E-03-2.70238E-04-4.98147E-16
 -1       833 1.20675E-02 3.16042E-04-1.92609E-14
 -1       834 8.11701E-03-2.34274E-04-1.17648E-14
 -1       835 7.43016E-03 3.67681E-05-1.05365E-14
 -1       836 8.00935E-03 4.45878E-04-1.05100E-14
 -1       837 7.67508E-03 2.92978E-04-1.02859E-14
 -1       838 1.24628E-03 3.00456E-04-1.71236E-16
 -1       839 1.12598E-02-8.20229E-06-1.86049E-14
 -1       840 1.08212E-02-2.43616E-04-1.80195E-14
 -1       841 1.17482E-02 5.20177E-04-1.84385E-14
 -1       842 1.13746E-03 1.18448E-06-2.48685E-16
 -1       843 1.15015E-03 1.78872E-04-1.94120E-16
 -1       844 1.31829E-03-1.61817E-04-3.60094E-16
 -1       845 1.41182E-02 7.63224E-04-2.79418E-14
 -1       846 2.31999E-03 3.67491E-04-6.71890E-16
 -1       847 1.74584E-03 3.37971E-04-3.65291E-16
 -1       848 2.60692E-03 3.74346E-04-8.63005E-16
 -1       849 1.31213E-03-9.66987E-05-3.46511E-16
 -1       850 1.39887E-02 8.36661E-04-2.71089E-14
 -1       851 1.14284E-03 1.17636E-04-2.15102E-16
 -1       852 1.40944E-02 6.92106E-04-2.81183E-14
 -1       853 1.40641E-02 6.22713E-04-2.82934E-14
 -1       854 7.22837E-03 1.21932E-04-1.00233E-14
 -1       855 1.10862E-02-1.38825E-04-1.87232E-14
 -1       856 1.49569E-03 3.23428E-04-2.58176E-16
 -1       857 1.41222E-02 8.46204E-04-2.76626E-14
 -1       858 1.37995E-02 2.89431E-04-2.88813E-14
 -1       859 1.20691E-02 2.92210E-04-1.98135E-14
 -1       860 2.21870E-03-2.56925E-04-9.46912E-16
 -1       861 2.50764E-03-2.63309E-04-1.19190E-15
 -1       862 2.79638E-03-2.66577E-04-1.46467E-15
 -1       863 3.08469E-03-2.67451E-04-1.76461E-15
 -1       864 3.37240E-03-2.66469E-04-2.09119E-15
 -1       865 3.65940E-03-2.64012E-04-2.44524E-15
 -1       866 3.94559E-03-2.60332E-04-2.82941E-15
 -1       867 4.23087E-03-2.55594E-04-3.24285E-15
 -1       868 4.51514E-03-2.49903E-04-3.68607E-15
 -1       869 4.79830E-03-2.43342E-04-4.15608E-15
 -1       870 5.08027E-03-2.36009E-04-4.65810E-15
 -1       871 5.36099E-03-2.28052E-04-5.19243E-15
 -1       872 5.64052E-03-2.19714E-04-5.75885E-15
 -1       873 5.91908E-03-2.11377E-04-6.35689E-15
 -1       874 6.19718E-03-2.03624E-04-6.98447E-15
 -1       875 6.47583E-03-1.97339E-04-7.63769E-15
 -1       876 6.75674E-03-1.93877E-04-8.31784E-15
 -1       877 7.04275E-03-1.95409E-04-9.02461E-15
 -1       878 7.33810E-03-2.05571E-04-9.76199E-15
 -1       879 7.64898E-03-2.30486E-04-1.05314E-14
 -1       880 1.14310E-02-3.31402E-05-1.97342E-14
 -1       881 1.17497E-02 4.09311E-05-2.07681E-14
 -1       882 1.20494E-02 9.60649E-05-2.18231E-14
 -1       883 1.23374E-02 1.40674E-04-2.28975E-14
 -1       884 1.26190E-02 1.79488E-04-2.39869E-14
 -1       885 1.28976E-02 2.15264E-04-2.50863E-14
 -1       886 1.31753E-02 2.49684E-04-2.61895E-14
 -1       887 1.34534E-02 2.83900E-04-2.72906E-14
 -1       888 1.22147E-02 3.52292E-04-1.99411E-14
 -1       889 4.17528E-03 2.92682E-04-2.52522E-15
 -1       890 3.88986E-03 2.97445E-04-2.16505E-15
 -1       891 4.74318E-03 2.80264E-04-3.34588E-15
 -1       892 5.02520E-03 2.72905E-04-3.80600E-15
 -1       893 5.30554E-03 2.65082E-04-4.29985E-15
 -1       894 5.58382E-03 2.57176E-04-4.82904E-15
 -1       895 5.85958E-03 2.49760E-04-5.39476E-15
 -1       896 6.13240E-03 2.43643E-04-5.99334E-15
 -1       897 6.40190E-03 2.39905E-04-6.61926E-15
 -1       898 6.66801E-03 2.39927E-04-7.27432E-15
 -1       899 6.93130E-03 2.45464E-04-7.96411E-15
 -1       900 7.19360E-03 2.58809E-04-8.68364E-15
 -1       901 7.45953E-03 2.84142E-04-9.43245E-15
 -1       902 1.22818E-02 5.35046E-04-2.04785E-14
 -1       903 3.02930E-03 3.03866E-04-1.27309E-15
 -1       904 1.20202E-02 5.17651E-04-1.94500E-14
 -1       905 1.28119E-02 5.97210E-04-2.26138E-14
 -1       906 1.30796E-02 6.37869E-04-2.36852E-14
 -1       907 1.33505E-02 6.82078E-04-2.47596E-14
 -1       908 1.36245E-02 7.28184E-04-2.58345E-14
 -1       909 7.82406E-03-2.02796E-04-1.10292E-14
 -1       910 1.37691E-02 4.86718E-04-2.75861E-14
 -1       911 1.25467E-02 5.62054E-04-2.15418E-14
 -1       912 4.45979E-03 2.86911E-04-2.91921E-15
 -1       913 1.41068E-03 2.65414E-04-2.55753E-16
 -1       914 7.39982E-03 2.27168E-04-9.70556E-15
 -1       915 7.22069E-03 7.03027E-05-9.93883E-15
 -1       916 1.92996E-03-2.46514E-04-7.30674E-16
 -1       917 1.55039E-03-1.96668E-04-4.85306E-16
 -1       918 1.22434E-02 4.08075E-04-2.00270E-14
 -1       919 1.18166E-02 2.05476E-04-1.95433E-14
 -1       920 1.22364E-03-4.54567E-05-2.95858E-16
 -1       921 7.25547E-03 1.71720E-04-9.66350E-15
 -1       922 7.41364E-03-4.70491E-05-1.02189E-14
 -1       923 1.15480E-02 8.48277E-05-1.93719E-14
 -1       924 3.31676E-03 3.03296E-04-1.54073E-15
 -1       925 1.38794E-02 7.60818E-04-2.68690E-14
 -1       926 1.87628E-03 2.77489E-04-4.75694E-16
 -1       927 2.74135E-03 3.02312E-04-1.03374E-15
 -1       928 3.60364E-03 3.01053E-04-1.83664E-15
 -1       929 1.38622E-02 6.89952E-04-2.70387E-14
 -1       930 2.16458E-03 2.90083E-04-6.36589E-16
 -1       931 7.13756E-03 1.39484E-04-9.45060E-15
 -1       932 1.38167E-03 3.40254E-05-3.45132E-16
 -1       933 1.37176E-02 4.17298E-04-2.77427E-14
 -1       934 1.38477E-03 9.95875E-05-3.22804E-16
 -1       935 1.38119E-02 5.54237E-04-2.74208E-14
 -1       936 7.17544E-03 3.75942E-06-9.63294E-15
 -1       937 1.22627E-02 4.66178E-04-2.02514E-14
 -1       938 1.54265E-03-1.25306E-04-4.69063E-16
 -1       939 1.73979E-03-2.22163E-04-6.01468E-16
 -1       940 1.32164E-02 6.00538E-04-2.43592E-14
 -1       941 2.35558E-03-1.87922E-04-1.03810E-15
 -1       942 7.17688E-03 1.98853E-04-9.07243E-15
 -1       943 7.38791E-03-1.27137E-04-9.98994E-15
 -1       944 2.64525E-03-1.91533E-04-1.29035E-15
 -1       945 2.93459E-03-1.93058E-04-1.57038E-15
 -1       946 3.22328E-03-1.92963E-04-1.87715E-15
 -1       947 3.51110E-03-1.91589E-04-2.21109E-15
 -1       948 3.79787E-03-1.89168E-04-2.57377E-15
 -1       949 4.08340E-03-1.85843E-04-2.96622E-15
 -1       950 4.36754E-03-1.81697E-04-3.38893E-15
 -1       951 4.65008E-03-1.76767E-04-3.84047E-15
 -1       952 4.93085E-03-1.71073E-04-4.32175E-15
 -1       953 5.20962E-03-1.64637E-04-4.83688E-15
 -1       954 5.48624E-03-1.57501E-04-5.38440E-15
 -1       955 5.76060E-03-1.49751E-04-5.96455E-15
 -1       956 6.03279E-03-1.41541E-04-6.57606E-15
 -1       957 6.30314E-03-1.33136E-04-7.21567E-15
 -1       958 6.57250E-03-1.25005E-04-7.87966E-15
 -1       959 6.84248E-03-1.18025E-04-8.56908E-15
 -1       960 7.10998E-03-1.18649E-04-9.26478E-15
 -1       961 1.27062E-02 5.19974E-04-2.22001E-14
 -1       962 1.18420E-02 1.42136E-04-2.04033E-14
 -1       963 1.21191E-02 1.83409E-04-2.14531E-14
 -1       964 1.23882E-02 2.18608E-04-2.25235E-14
 -1       965 1.26548E-02 2.51557E-04-2.36096E-14
 -1       966 1.29218E-02 2.84106E-04-2.47076E-14
 -1       967 1.31906E-02 3.17081E-04-2.58101E-14
 -1       968 1.36716E-02 2.94185E-04-2.82562E-14
 -1       969 1.22878E-02 3.32049E-04-2.07128E-14
 -1       970 5.15396E-03 2.02542E-04-4.16436E-15
 -1       971 4.87536E-03 2.08359E-04-3.68198E-15
 -1       972 5.70204E-03 1.90990E-04-5.23320E-15
 -1       973 5.97016E-03 1.86200E-04-5.81834E-15
 -1       974 6.23322E-03 1.82936E-04-6.43175E-15
 -1       975 6.49025E-03 1.81992E-04-7.07307E-15
 -1       976 6.74027E-03 1.84223E-04-7.74675E-15
 -1       977 1.36135E-02 6.58604E-04-2.60009E-14
 -1       978 1.58870E-03 2.58950E-04-3.39470E-16
 -1       979 1.34138E-02 6.29311E-04-2.51795E-14
 -1       980 1.29579E-02 5.58737E-04-2.32774E-14
 -1       981 7.06781E-03 9.16390E-05-9.37372E-15
 -1       982 1.24824E-02 4.90705E-04-2.12215E-14
 -1       983 4.02726E-03 2.22818E-04-2.43481E-15
 -1       984 1.38453E-02 6.21343E-04-2.72477E-14
 -1       985 1.39123E-03 1.66938E-04-2.96733E-16
 -1       986 1.20532E-02 2.50393E-04-2.03735E-14
 -1       987 1.36596E-02 3.45798E-04-2.78933E-14
 -1       988 2.06605E-03-1.81633E-04-8.13616E-16
 -1       989 2.45304E-03 2.98000E-04-8.22401E-16
 -1       990 5.42972E-03 1.96619E-04-4.68094E-15
 -1       991 1.46799E-03-1.69301E-05-4.02679E-16
 -1       992 1.24011E-02 3.93768E-04-2.08833E-14
 -1       993 1.34436E-02 3.44260E-04-2.68658E-14
 -1       994 3.74154E-03 2.26137E-04-2.08327E-15
 -1       995 7.14806E-03-5.57306E-05-9.44940E-15
 -1       996 1.24491E-02 4.38627E-04-2.10501E-14
 -1       997 2.87835E-03 2.29209E-04-1.21495E-15
 -1       998 4.59446E-03 2.13795E-04-3.23391E-15
 -1       999 6.98229E-03 1.90499E-04-8.45285E-15
 -1      1000 4.31165E-03 2.18661E-04-2.81908E-15
 -1      1001 1.72221E-03 2.01659E-04-4.39359E-16
 -1      1002 1.87603E-03-1.60708E-04-6.77254E-16
 -1      1003 1.35033E-02 4.14287E-04-2.67120E-14
 -1      1004 1.62992E-03 7.28949E-05-4.54108E-16
 -1      1005 1.35538E-02 4.81105E-04-2.65532E-14
 -1      1006 6.98376E-03 3.75273E-05-9.08058E-15
 -1      1007 1.70892E-03-1.43139E-04-5.68268E-16
 -1      1008 2.01065E-03 2.13915E-04-5.95810E-16
 -1      1009 3.16691E-03 2.29593E-04-1.47564E-15
 -1      1010 1.50429E-03-7.02174E-05-4.35802E-16
 -1      1011 1.71584E-03 1.81425E-05-5.22951E-16
 -1      1012 2.78548E-03-1.18593E-04-1.38564E-15
 -1      1013 3.07498E-03-1.18997E-04-1.67228E-15
 -1      1014 3.36361E-03-1.18467E-04-1.98593E-15
 -1      1015 3.65109E-03-1.17177E-04-2.32755E-15
 -1      1016 3.93720E-03-1.15235E-04-2.69942E-15
 -1      1017 4.22168E-03-1.12693E-04-3.10121E-15
 -1      1018 4.50431E-03-1.09560E-04-3.53313E-15
 -1      1019 4.78479E-03-1.05812E-04-3.99470E-15
 -1      1020 5.06281E-03-1.01396E-04-4.48852E-15
 -1      1021 5.33804E-03-9.62417E-05-5.01631E-15
 -1      1022 5.61012E-03-9.02590E-05-5.57751E-15
 -1      1023 5.87873E-03-8.33433E-05-6.16989E-15
 -1      1024 6.14360E-03-7.53791E-05-6.79418E-15
 -1      1025 6.40463E-03-6.62632E-05-7.44416E-15
 -1      1026 6.66199E-03-5.59688E-05-8.11732E-15
 -1      1027 5.28196E-03 1.35790E-04-4.53041E-15
 -1      1028 1.25144E-02 3.73568E-04-2.17009E-14
 -1      1029 6.97094E-03 1.30046E-04-8.82559E-15
 -1      1030 1.23541E-02 2.70720E-04-2.18516E-14
 -1      1031 1.26036E-02 2.99325E-04-2.29281E-14
 -1      1032 1.28577E-02 3.29550E-04-2.40209E-14
 -1      1033 1.31167E-02 3.61485E-04-2.51220E-14
 -1      1034 6.08040E-03 1.28411E-04-6.24437E-15
 -1      1035 5.81964E-03 1.29827E-04-5.64341E-15
 -1      1036 6.57909E-03 1.31485E-04-7.53471E-15
 -1      1037 3.45470E-03 2.28467E-04-1.76457E-15
 -1      1038 1.36012E-02 5.92106E-04-2.62065E-14
 -1      1039 2.58924E-03 2.26881E-04-9.82060E-16
 -1      1040 1.35819E-02 5.36708E-04-2.63794E-14
 -1      1041 6.78170E-03 1.29350E-04-8.16840E-15
 -1      1042 1.22996E-02 2.92180E-04-2.13042E-14
 -1      1043 6.33411E-03 1.28790E-04-6.87647E-15
 -1      1044 2.20538E-03-1.13908E-04-8.94236E-16
 -1      1045 5.00695E-03 1.39421E-04-4.02625E-15
 -1      1046 5.55314E-03 1.32456E-04-5.07149E-15
 -1      1047 4.16504E-03 1.49497E-04-2.71531E-15
 -1      1048 2.29986E-03 2.22029E-04-7.76136E-16
 -1      1049 2.49546E-03-1.17005E-04-1.12628E-15
 -1      1050 3.88026E-03 1.52044E-04-2.34097E-15
 -1      1051 6.90250E-03-5.47608E-05-8.77045E-15
 -1      1052 1.28357E-02 4.86905E-04-2.28637E-14
 -1      1053 1.75125E-03-3.87743E-05-5.64039E-16
 -1      1054 6.83721E-03 8.22864E-05-8.54837E-15
 -1      1055 1.31743E-02 4.25816E-04-2.49646E-14
 -1      1056 4.72878E-03 1.43048E-04-3.55653E-15
 -1      1057 2.72819E-03 1.54461E-04-1.15204E-15
 -1      1058 4.44800E-03 1.46458E-04-3.12054E-15
 -1      1059 3.01765E-03 1.55420E-04-1.40621E-15
 -1      1060 1.63504E-03 1.45146E-04-4.23835E-16
 -1      1061 2.01553E-03-9.56289E-05-7.51881E-16
 -1      1062 1.32869E-02 5.56252E-04-2.48343E-14
 -1      1063 1.26388E-02 4.61838E-04-2.19534E-14
 -1      1064 1.34432E-02 5.74147E-04-2.55189E-14
 -1      1065 1.92305E-03 1.55479E-04-5.78866E-16
 -1      1066 1.90490E-03 7.36893E-05-6.10399E-16
 -1      1067 1.25862E-02 4.16535E-04-2.18244E-14
 -1      1068 6.94383E-03-6.47008E-06-8.92473E-15
 -1      1069 1.30577E-02 5.20650E-04-2.38465E-14
 -1      1070 1.72922E-03-9.10733E-05-5.67143E-16
 -1      1071 5.41118E-03 7.26363E-05-4.90764E-15
 -1      1072 3.21734E-03-4.47834E-05-1.76986E-15
 -1      1073 3.50554E-03-4.43441E-05-2.09042E-15
 -1      1074 3.79237E-03-4.35984E-05-2.44158E-15
 -1      1075 4.07753E-03-4.25647E-05-2.82254E-15
 -1      1076 4.36076E-03-4.12093E-05-3.23372E-15
 -1      1077 4.64173E-03-3.94895E-05-3.67642E-15
 -1      1078 4.92006E-03-3.73201E-05-4.14844E-15
 -1      1079 5.19531E-03-3.45774E-05-4.65474E-15
 -1      1080 5.46697E-03-3.10910E-05-5.19606E-15
 -1      1081 5.73447E-03-2.66345E-05-5.77017E-15
 -1      1082 5.99712E-03-2.09172E-05-6.37567E-15
 -1      1083 6.25417E-03-1.35841E-05-7.00906E-15
 -1      1084 6.50463E-03-4.23308E-06-7.66736E-15
 -1      1085 1.27930E-02 3.69875E-04-2.33340E-14
 -1      1086 1.29816E-02 3.97172E-04-2.41472E-14
 -1      1087 6.44150E-03 8.04685E-05-7.32697E-15
 -1      1088 2.16369E-03 1.16177E-04-7.54036E-16
 -1      1089 4.30358E-03 7.78241E-05-3.00339E-15
 -1      1090 5.67845E-03 7.24043E-05-5.46777E-15
 -1      1091 6.19516E-03 7.57985E-05-6.67868E-15
 -1      1092 2.63799E-03-4.45497E-05-1.21146E-15
 -1      1093 2.43830E-03 1.51948E-04-9.25062E-16
 -1      1094 2.34766E-03-4.36950E-05-9.72587E-16
 -1      1095 5.13935E-03 7.35720E-05-4.37861E-15
 -1      1096 5.94020E-03 7.32898E-05-6.05894E-15
 -1      1097 2.92804E-03-4.48753E-05-1.47735E-15
 -1      1098 1.99282E-03 4.86563E-07-6.99453E-16
 -1      1099 6.74776E-03 7.69734E-06-8.35051E-15
 -1      1100 1.25540E-02 3.40976E-04-2.22474E-14
 -1      1101 1.29256E-02 4.53243E-04-2.34719E-14
 -1      1102 4.86374E-03 7.48933E-05-3.88785E-15
 -1      1103 4.58498E-03 7.63664E-05-3.43052E-15
 -1      1104 2.25037E-03 4.00965E-05-8.57109E-16
 -1      1105 3.30632E-03 1.55175E-04-1.68751E-15
 -1      1106 4.01997E-03 7.91453E-05-2.60874E-15
 -1      1107 3.59394E-03 1.53987E-04-1.99863E-15
 -1      1108 1.27525E-02 4.34471E-04-2.26419E-14
 -1      1109 2.86959E-03 8.11056E-05-1.33299E-15
 -1      1110 1.34260E-02 5.20316E-04-2.56904E-14
 -1      1111 1.32724E-02 5.04000E-04-2.49975E-14
 -1      1112 2.19630E-03 1.64065E-04-7.46297E-16
 -1      1113 1.26755E-02 3.88650E-04-2.25171E-14
 -1      1114 2.57952E-03 8.01634E-05-1.08478E-15
 -1      1115 3.64896E-03 2.90705E-05-2.19374E-15
 -1      1116 2.17837E-03-3.79558E-05-8.43492E-16
 -1      1117 2.49261E-03 2.85260E-05-1.04783E-15
 -1      1118 3.07262E-03 2.92005E-05-1.56532E-15
 -1      1119 3.36143E-03 2.92041E-05-1.86380E-15
 -1      1120 6.66898E-03 5.42658E-05-8.06443E-15
 -1      1121 2.75303E-03 1.80394E-05-1.27386E-15
 -1      1122 0.00000E+00 0.00000E+00 0.00000E+00
 -1      1123 0.00000E+00 0.00000E+00 0.00000E+00
 -1      1124 0.00000E+00 0.00000E+00 0.00000E+00
 -1      1125 0.00000E+00 0.00000E+00 0.00000E+00
 -1      1126 0.00000E+00 0.00000E+00 0.00000E+00
 -1      1127 0.00000E+00 0.00000E+00 0.00000E+00
 -1      1128 0.00000E+00 0.00000E+00 0.00000E+00
 -1      1129 0.00000E+00 0.00000E+00 0.00000E+00
 -1      1130 0.00000E+00 0.00000E+00 0.00000E+00
 -1      1131 0.00000E+00 0.00000E+00 0.00000E+00
 -1      1132 0.00000E+00 0.00000E+00 0.00000E+00
 -1      1133 0.00000E+00 0.00000E+00 0.00000E+00
 -1      1134 0.00000E+00 0.00000E+00 0.00000E+00
 -1      1135 0.00000E+00 0.00000E+00 0.00000E+00
 -1      1136 0.00000E+00 0.00000E+00 0.00000E+00
 -1      1137 0.00000E+00 0.00000E+00 0.00000E+00
 -1      1138 0.00000E+00 0.00000E+00 0.00000E+00
 -1      1139 2.11564E-04-1.48306E-04-1.08420E-18
 -1      1140 5.51310E-04-3.37457E-04-2.49502E-17
 -1      1141 8.32886E-04-4.58866E-04-7.94720E-17
 -1      1142 1.10219E-03-5.40385E-04-1.69298E-16
 -1      1143 1.36731E-03-5.97372E-04-2.93656E-16
 -1      1144 1.63181E-03-6.37690E-04-4.52695E-16
 -1      1145 1.89754E-03-6.65950E-04-6.47973E-16
 -1      1146 2.16537E-03-6.85232E-04-8.77242E-16
 -1      1147 2.43562E-03-6.97772E-04-1.14124E-15
 -1      1148 2.70834E-03-7.05236E-04-1.43909E-15
 -1      1149 2.98344E-03-7.08866E-04-1.77046E-15
 -1      1150 3.26079E-03-7.09580E-04-2.12762E-15
 -1      1151 3.54025E-03-7.08043E-04-2.50972E-15
 -1      1152 3.82176E-03-7.04737E-04-2.91992E-15
 -1      1153 4.10536E-03-7.00019E-04-3.35287E-15
 -1      1154 4.39117E-03-6.94177E-04-3.81036E-15
 -1      1155 4.67947E-03-6.87493E-04-4.29528E-15
 -1      1156 4.97067E-03-6.80309E-04-4.80777E-15
 -1      1157 5.26534E-03-6.73104E-04-5.34925E-15
 -1      1158 5.56416E-03-6.66578E-04-5.91691E-15
 -1      1159 5.86788E-03-6.61752E-04-6.50588E-15
 -1      1160 6.17726E-03-6.60059E-04-7.11726E-15
 -1      1161 6.49283E-03-6.63419E-04-7.76100E-15
 -1      1162 6.81471E-03-6.74231E-04-8.44561E-15
 -1      1163 7.14220E-03-6.95224E-04-9.16864E-15
 -1      1164 7.47342E-03-7.29023E-04-9.92462E-15
 -1      1165 7.80493E-03-7.77306E-04-1.07076E-14
 -1      1166 8.13169E-03-8.39511E-04-1.15216E-14
 -1      1167 8.44766E-03-9.11308E-04-1.23693E-14
 -1      1168 8.74736E-03-9.83549E-04-1.32413E-14
 -1      1169 9.02814E-03-1.04283E-03-1.41264E-14
 -1      1170 9.29233E-03-1.07444E-03-1.50282E-14
 -1      1171 9.54764E-03-1.06730E-03-1.59459E-14
 -1      1172 9.80498E-03-1.01837E-03-1.68847E-14
 -1      1173 1.00745E-02-9.34034E-04-1.78412E-14
 -1      1174 1.03620E-02-8.27340E-04-1.88206E-14
 -1      1175 1.06678E-02-7.13002E-04-1.98250E-14
 -1      1176 1.09879E-02-6.03038E-04-2.08492E-14
 -1      1177 1.13162E-02-5.04724E-04-2.18894E-14
 -1      1178 1.16469E-02-4.20768E-04-2.29437E-14
 -1      1179 1.19755E-02-3.50639E-04-2.40204E-14
 -1      1180 1.22991E-02-2.92055E-04-2.51255E-14
 -1      1181 1.26162E-02-2.42105E-04-2.62452E-14
 -1      1182 1.29264E-02-1.97914E-04-2.73754E-14
 -1      1183 1.32300E-02-1.56949E-04-2.85147E-14
 -1      1184 1.35277E-02-1.17102E-04-2.96514E-14
 -1      1185 1.38204E-02-7.66692E-05-3.07968E-14
 -1      1186 1.41094E-02-3.43405E-05-3.19296E-14
 -1      1187 1.43958E-02 1.06853E-05-3.30631E-14
 -1      1188 1.46742E-02 5.69093E-05-3.41921E-14
 -1      1189 2.28318E-04 1.60681E-04 1.39320E-17
 -1      1190 5.53484E-04 3.42090E-04 3.34747E-17
 -1      1191 8.33817E-04 4.61039E-04 3.85705E-17
 -1      1192 1.10309E-03 5.42081E-04 2.56007E-17
 -1      1193 1.36821E-03 5.99061E-04-9.32414E-18
 -1      1194 1.63275E-03 6.39464E-04-6.87249E-17
 -1      1195 1.89852E-03 6.67828E-04-1.53157E-16
 -1      1196 2.16638E-03 6.87226E-04-2.59490E-16
 -1      1197 2.43664E-03 6.99886E-04-3.91085E-16
 -1      1198 2.70936E-03 7.07466E-04-5.50571E-16
 -1      1199 2.98444E-03 7.11199E-04-7.39751E-16
 -1      1200 3.26174E-03 7.11989E-04-9.59383E-16
 -1      1201 3.54116E-03 7.10486E-04-1.20829E-15
 -1      1202 3.82262E-03 7.07144E-04-1.48452E-15
 -1      1203 4.10618E-03 7.02281E-04-1.79061E-15
 -1      1204 4.39201E-03 6.96132E-04-2.14022E-15
 -1      1205 4.68045E-03 6.88903E-04-2.52692E-15
 -1      1206 4.97204E-03 6.80842E-04-2.95043E-15
 -1      1207 5.26759E-03 6.72317E-04-3.41354E-15
 -1      1208 5.56813E-03 6.63923E-04-3.91664E-15
 -1      1209 5.87503E-03 6.56629E-04-4.45569E-15
 -1      1210 6.18991E-03 6.51965E-04-5.02372E-15
 -1      1211 6.51462E-03 6.52278E-04-5.63032E-15
 -1      1212 6.85097E-03 6.61030E-04-6.27211E-15
 -1      1213 7.20032E-03 6.83070E-04-6.94282E-15
 -1      1214 7.56277E-03 7.24688E-04-7.64121E-15
 -1      1215 7.93592E-03 7.92999E-04-8.36787E-15
 -1      1216 8.31349E-03 8.93944E-04-9.13618E-15
 -1      1217 8.68442E-03 1.02820E-03-9.94532E-15
 -1      1218 9.03426E-03 1.18546E-03-1.07880E-14
 -1      1219 9.35063E-03 1.34050E-03-1.16563E-14
 -1      1220 9.63175E-03 1.45725E-03-1.25510E-14
 -1      1221 9.89198E-03 1.50375E-03-1.34646E-14
 -1      1222 1.01571E-02 1.47055E-03-1.44027E-14
 -1      1223 1.04499E-02 1.37695E-03-1.53604E-14
 -1      1224 1.07790E-02 1.25881E-03-1.63423E-14
 -1      1225 1.11378E-02 1.14952E-03-1.73493E-14
 -1      1226 1.15120E-02 1.06866E-03-1.83971E-14
 -1      1227 1.18881E-02 1.02174E-03-1.94666E-14
 -1      1228 1.22567E-02 1.00543E-03-2.05443E-14
 -1      1229 1.26128E-02 1.01292E-03-2.16153E-14
 -1      1230 1.29553E-02 1.03715E-03-2.26723E-14
 -1      1231 1.32846E-02 1.07216E-03-2.37105E-14
 -1      1232 1.36023E-02 1.11341E-03-2.47351E-14
 -1      1233 1.39104E-02 1.15759E-03-2.57560E-14
 -1      1234 1.42105E-02 1.20229E-03-2.67943E-14
 -1      1235 1.45045E-02 1.24576E-03-2.78460E-14
 -1      1236 1.47939E-02 1.28673E-03-2.88941E-14
 -1      1237 1.50804E-02 1.32449E-03-2.99253E-14
 -1      1238 1.53587E-02 1.35858E-03-3.09167E-14
 -1      1239 1.54776E-02 1.33252E-03-3.14922E-14
 -1      1240 1.54449E-02 1.24796E-03-3.17338E-14
 -1      1241 1.54149E-02 1.16451E-03-3.19897E-14
 -1      1242 1.53874E-02 1.08365E-03-3.22356E-14
 -1      1243 1.53610E-02 1.00632E-03-3.24667E-14
 -1      1244 1.53340E-02 9.33323E-04-3.26990E-14
 -1      1245 1.53046E-02 8.63560E-04-3.29516E-14
 -1      1246 1.52710E-02 7.95550E-04-3.31751E-14
 -1      1247 1.52326E-02 7.28652E-04-3.33697E-14
 -1      1248 1.51893E-02 6.61494E-04-3.35454E-14
 -1      1249 1.51416E-02 5.92774E-04-3.37014E-14
 -1      1250 1.50907E-02 5.22051E-04-3.38698E-14
 -1      1251 1.50378E-02 4.48083E-04-3.40564E-14
 -1      1252 1.49840E-02 3.69988E-04-3.42173E-14
 -1      1253 1.49313E-02 2.88693E-04-3.43623E-14
 -1      1254 1.48809E-02 2.05141E-04-3.45140E-14
 -1      1255 1.48331E-02 1.21342E-04-3.46747E-14
 -1      1256 1.19273E-02 3.50193E-04-1.65625E-14
 -1      1257 1.18322E-02 4.97400E-04-1.64038E-14
 -1      1258 1.16308E-02 6.50312E-04-1.61538E-14
 -1      1259 1.13350E-02 8.05058E-04-1.58296E-14
 -1      1260 1.09595E-02 9.53347E-04-1.54227E-14
 -1      1261 1.05433E-02 1.07121E-03-1.49669E-14
 -1      1262 1.01162E-02 1.13972E-03-1.45114E-14
 -1      1263 9.66203E-03 1.15016E-03-1.40409E-14
 -1      1264 9.21097E-03 1.09739E-03-1.36005E-14
 -1      1265 8.77139E-03 9.88194E-04-1.32025E-14
 -1      1266 8.35876E-03 8.41582E-04-1.28573E-14
 -1      1267 8.01375E-03 6.83386E-04-1.25963E-14
 -1      1268 7.73153E-03 5.19449E-04-1.24088E-14
 -1      1269 7.54031E-03 3.62168E-04-1.23071E-14
 -1      1270 7.45776E-03 2.19150E-04-1.23022E-14
 -1      1271 7.47908E-03 7.89025E-05-1.23967E-14
 -1      1272 7.60079E-03-5.99541E-05-1.25708E-14
 -1      1273 7.81551E-03-2.00181E-04-1.28199E-14
 -1      1274 8.10367E-03-3.36358E-04-1.31372E-14
 -1      1275 8.45079E-03-4.61450E-04-1.35128E-14
 -1      1276 8.84512E-03-5.64340E-04-1.39309E-14
 -1      1277 9.26885E-03-6.25162E-04-1.43771E-14
 -1      1278 9.72935E-03-6.33669E-04-1.48634E-14
 -1      1279 1.01718E-02-5.86274E-04-1.53165E-14
 -1      1280 1.05895E-02-4.90666E-04-1.57229E-14
 -1      1281 1.09771E-02-3.63634E-04-1.60723E-14
 -1      1282 1.13223E-02-2.18536E-04-1.63504E-14
 -1      1283 1.16054E-02-6.90933E-05-1.65381E-14
 -1      1284 1.18034E-02 7.27809E-05-1.66269E-14
 -1      1285 1.19142E-02 2.10896E-04-1.66350E-14
 -1      1286 1.66609E-04-1.10340E-04-5.43456E-18
 -1      1287 1.12496E-04-5.70064E-05-9.26993E-18
 -1      1288 1.17566E-04-6.76049E-05-8.13152E-18
 -1      1289 1.08404E-04-4.35340E-05-1.07878E-17
 -1      1290 1.10254E-04-4.96452E-05-1.04490E-17
 -1      1291 2.26251E-04-1.07680E-04-2.47740E-17
 -1      1292 1.06842E-04-3.36494E-05-1.12893E-17
 -1      1293 1.07680E-04-3.83740E-05-1.11944E-17
 -1      1294 2.19082E-04-8.25264E-05-2.71186E-17
 -1      1295 1.06079E-04-2.53914E-05-1.14519E-17
 -1      1296 1.06500E-04-2.94243E-05-1.14654E-17
 -1      1297 2.15873E-04-6.33410E-05-2.79453E-17
 -1      1298 1.05695E-04-1.81217E-05-1.10724E-17
 -1      1299 1.05917E-04-2.16936E-05-1.11944E-17
 -1      1300 2.14255E-04-4.72500E-05-2.77556E-17
 -1      1301 1.05484E-04-1.12589E-05-1.04761E-17
 -1      1302 1.05602E-04-1.46487E-05-1.06929E-17
 -1      1303 2.13372E-04-3.27977E-05-2.67120E-17
 -1      1304 1.05390E-04-4.69754E-06-9.75782E-18
 -1      1305 1.05440E-04-7.95546E-06-9.93400E-18
 -1      1306 2.12893E-04-1.92167E-05-2.52619E-17
 -1      1307 1.05379E-04 1.74572E-06-9.14796E-18
 -1      1308 1.05378E-04-1.47217E-06-9.39190E-18
 -1      1309 2.12688E-04-6.16850E-06-2.37440E-17
 -1      1310 1.05448E-04 8.23830E-06-8.38901E-18
 -1      1311 1.05394E-04 4.97414E-06-8.66006E-18
 -1      1312 2.12695E-04 6.71844E-06-2.21448E-17
 -1      1313 1.05618E-04 1.49559E-05-7.30481E-18
 -1      1314 1.05495E-04 1.15518E-05-7.60297E-18
 -1      1315 2.12917E-04 1.97917E-05-2.00713E-17
 -1      1316 1.05939E-04 2.19841E-05-6.05798E-18
 -1      1317 1.05711E-04 1.83893E-05-6.45100E-18
 -1      1318 2.13410E-04 3.33106E-05-1.75099E-17
 -1      1319 1.06546E-04 2.98583E-05-4.51299E-18
 -1      1320 1.06116E-04 2.57788E-05-5.02799E-18
 -1      1321 2.14324E-04 4.78531E-05-1.43928E-17
 -1      1322 1.07716E-04 3.89602E-05-2.49366E-18
 -1      1323 1.06875E-04 3.41662E-05-3.25261E-18
 -1      1324 2.15992E-04 6.42762E-05-1.06794E-17
 -1      1325 1.10232E-04 5.03830E-05 4.74338E-19
 -1      1326 1.08406E-04 4.42025E-05-7.99599E-19
 -1      1327 2.19174E-04 8.37756E-05-5.58364E-18
 -1      1328 1.16882E-04 6.76401E-05 4.30970E-18
 -1      1329 1.12143E-04 5.78049E-05 2.49366E-18
 -1      1330 2.26237E-04 1.09499E-04 1.13841E-18
 -1      1331 1.57495E-04 1.09852E-04 9.82558E-18
 -1      1332 1.35589E-04 8.61017E-05 6.80337E-18
 -1      1333 2.55907E-04 1.52118E-04 8.80914E-18
 -1      1334 3.34897E-04 2.20722E-04 1.86212E-17
 -1      1335 4.21296E-04-2.61720E-04-2.43945E-17
 -1      1336 5.74289E-04-3.36755E-04-4.35307E-17
 -1      1337 7.21368E-04-3.97317E-04-7.20994E-17
 -1      1338 8.64424E-04-4.46553E-04-1.09247E-16
 -1      1339 6.11723E-04-3.30858E-04-6.41577E-17
 -1      1340 1.00433E-03-4.87544E-04-1.54309E-16
 -1      1341 1.14206E-03-5.21430E-04-2.07842E-16
 -1      1342 9.04764E-04-4.31437E-04-1.39090E-16
 -1      1343 1.27843E-03-5.50074E-04-2.70143E-16
 -1      1344 1.41395E-03-5.73952E-04-3.41022E-16
 -1      1345 1.18700E-03-5.00652E-04-2.46819E-16
 -1      1346 1.54906E-03-5.94121E-04-4.20074E-16
 -1      1347 1.68402E-03-6.10913E-04-5.07895E-16
 -1      1348 1.46372E-03-5.49106E-04-3.87928E-16
 -1      1349 1.81908E-03-6.24950E-04-6.04294E-16
 -1      1350 1.95434E-03-6.36520E-04-7.09692E-16
 -1      1351 1.73821E-03-5.82938E-04-5.62186E-16
 -1      1352 2.08993E-03-6.46019E-04-8.23519E-16
 -1      1353 2.22590E-03-6.53691E-04-9.45668E-16
 -1      1354 2.01234E-03-6.06089E-04-7.70651E-16
 -1      1355 2.36232E-03-6.59802E-04-1.07604E-15
 -1      1356 2.49918E-03-6.64552E-04-1.21512E-15
 -1      1357 2.28712E-03-6.21325E-04-1.01278E-15
 -1      1358 2.63653E-03-6.68125E-04-1.36305E-15
 -1      1359 2.77435E-03-6.70680E-04-1.51826E-15
 -1      1360 2.56307E-03-6.30659E-04-1.28784E-15
 -1      1361 2.91265E-03-6.72344E-04-1.68081E-15
 -1      1362 3.05143E-03-6.73240E-04-1.85179E-15
 -1      1363 2.84045E-03-6.35577E-04-1.59492E-15
 -1      1364 3.19068E-03-6.73453E-04-2.02824E-15
 -1      1365 3.33039E-03-6.73080E-04-2.21080E-15
 -1      1366 3.11934E-03-6.37165E-04-1.93048E-15
 -1      1367 3.47057E-03-6.72175E-04-2.40067E-15
 -1      1368 3.61120E-03-6.70813E-04-2.59714E-15
 -1      1369 3.39979E-03-6.36209E-04-2.29295E-15
 -1      1370 3.75230E-03-6.69024E-04-2.80037E-15
 -1      1371 3.89387E-03-6.66872E-04-3.00969E-15
 -1      1372 3.68184E-03-6.33267E-04-2.68267E-15
 -1      1373 4.03593E-03-6.64373E-04-3.22457E-15
 -1      1374 4.17848E-03-6.61581E-04-3.44569E-15
 -1      1375 3.96555E-03-6.28734E-04-3.09782E-15
 -1      1376 4.32157E-03-6.58506E-04-3.67352E-15
 -1      1377 4.46521E-03-6.55204E-04-3.90817E-15
 -1      1378 4.25102E-03-6.22900E-04-3.53722E-15
 -1      1379 4.60946E-03-6.51686E-04-4.14885E-15
 -1      1380 4.75434E-03-6.48017E-04-4.39752E-15
 -1      1381 4.53847E-03-6.16014E-04-4.00407E-15
 -1      1382 4.89993E-03-6.44216E-04-4.65353E-15
 -1      1383 5.04627E-03-6.40368E-04-4.91462E-15
 -1      1384 4.82817E-03-6.08350E-04-4.49852E-15
 -1      1385 5.19345E-03-6.36516E-04-5.18437E-15
 -1      1386 5.34152E-03-6.32769E-04-5.46105E-15
 -1      1387 5.12050E-03-6.00274E-04-5.02108E-15
 -1      1388 5.49058E-03-6.29208E-04-5.74280E-15
 -1      1389 5.64069E-03-6.25980E-04-6.03117E-15
 -1      1390 5.41592E-03-5.92339E-04-5.57056E-15
 -1      1391 5.79194E-03-6.23217E-04-6.32526E-15
 -1      1392 5.94439E-03-6.21113E-04-6.62568E-15
 -1      1393 5.71494E-03-5.85375E-04-6.14577E-15
 -1      1394 6.09813E-03-6.19871E-04-6.93181E-15
 -1      1395 6.25319E-03-6.19731E-04-7.24448E-15
 -1      1396 6.01810E-03-5.80601E-04-6.74471E-15
 -1      1397 6.40962E-03-6.20988E-04-7.56822E-15
 -1      1398 6.56741E-03-6.23920E-04-7.89970E-15
 -1      1399 6.32581E-03-5.79722E-04-7.37459E-15
 -1      1400 6.72654E-03-6.28912E-04-8.24145E-15
 -1      1401 6.88692E-03-6.36262E-04-8.59223E-15
 -1      1402 6.63830E-03-5.84991E-04-8.03758E-15
 -1      1403 7.04844E-03-6.46417E-04-8.95077E-15
 -1      1404 7.21089E-03-6.59640E-04-9.32036E-15
 -1      1405 6.95539E-03-5.99165E-04-8.73700E-15
 -1      1406 7.37400E-03-6.76364E-04-9.69740E-15
 -1      1407 7.53743E-03-6.96717E-04-1.00802E-14
 -1      1408 7.27629E-03-6.25244E-04-9.47033E-15
 -1      1409 7.70077E-03-7.20967E-04-1.04712E-14
 -1      1410 7.86350E-03-7.48961E-04-1.08694E-14
 -1      1411 7.59940E-03-6.65850E-04-1.02356E-14
 -1      1412 8.02510E-03-7.80568E-04-1.12754E-14
 -1      1413 8.18496E-03-8.15190E-04-1.16906E-14
 -1      1414 7.92217E-03-7.22111E-04-1.10307E-14
 -1      1415 8.34253E-03-8.52044E-04-1.21116E-14
 -1      1416 8.49727E-03-8.89962E-04-1.25408E-14
 -1      1417 8.24126E-03-7.92068E-04-1.18567E-14
 -1      1418 8.64877E-03-9.27401E-04-1.29754E-14
 -1      1419 8.79677E-03-9.62680E-04-1.34123E-14
 -1      1420 8.55308E-03-8.69033E-04-1.27091E-14
 -1      1421 8.94124E-03-9.93708E-04-1.38555E-14
 -1      1422 9.08239E-03-1.01865E-03-1.43020E-14
 -1      1423 8.85487E-03-9.40946E-04-1.35837E-14
 -1      1424 9.22070E-03-1.03549E-03-1.47518E-14
 -1      1425 9.35692E-03-1.04283E-03-1.52066E-14
 -1      1426 9.14617E-03-9.92051E-04-1.44763E-14
 -1      1427 9.49193E-03-1.03954E-03-1.56659E-14
 -1      1428 9.62681E-03-1.02523E-03-1.61289E-14
 -1      1429 9.42976E-03-1.00740E-03-1.53845E-14
 -1      1430 9.76257E-03-1.00019E-03-1.65980E-14
 -1      1431 9.90021E-03-9.65198E-04-1.70717E-14
 -1      1432 9.71123E-03-9.78639E-04-1.63121E-14
 -1      1433 1.00405E-02-9.21820E-04-1.75493E-14
 -1      1434 1.01839E-02-8.71688E-04-1.80320E-14
 -1      1435 9.99702E-03-9.07759E-04-1.72579E-14
 -1      1436 1.03309E-02-8.16940E-04-1.85223E-14
 -1      1437 1.04813E-02-7.59414E-04-1.90168E-14
 -1      1438 1.02919E-02-8.06188E-04-1.82233E-14
 -1      1439 1.06350E-02-7.01049E-04-1.95194E-14
 -1      1440 1.07917E-02-6.43357E-04-2.00269E-14
 -1      1441 1.05972E-02-6.89848E-04-1.92141E-14
 -1      1442 1.09507E-02-5.87601E-04-2.05376E-14
 -1      1443 1.11115E-02-5.34723E-04-2.10552E-14
 -1      1444 1.09117E-02-5.73498E-04-2.02284E-14
 -1      1445 1.12736E-02-4.85237E-04-2.15740E-14
 -1      1446 1.14364E-02-4.39547E-04-2.20955E-14
 -1      1447 1.12319E-02-4.67222E-04-2.12570E-14
 -1      1448 1.15993E-02-3.97602E-04-2.26250E-14
 -1      1449 1.17619E-02-3.59417E-04-2.31586E-14
 -1      1450 1.15543E-02-3.75750E-04-2.23055E-14
 -1      1451 1.19238E-02-3.24629E-04-2.36971E-14
 -1      1452 1.20848E-02-2.93028E-04-2.42425E-14
 -1      1453 1.18757E-02-2.99627E-04-2.33723E-14
 -1      1454 1.22446E-02-2.64144E-04-2.47928E-14
 -1      1455 1.24031E-02-2.37672E-04-2.53486E-14
 -1      1456 1.21940E-02-2.36903E-04-2.44627E-14
 -1      1457 1.25601E-02-2.13155E-04-2.59065E-14
 -1      1458 1.27157E-02-1.90269E-04-2.64668E-14
 -1      1459 1.25077E-02-1.84563E-04-2.55704E-14
 -1      1460 1.28698E-02-1.68628E-04-2.70313E-14
 -1      1461 1.30224E-02-1.47928E-04-2.75963E-14
 -1      1462 1.28163E-02-1.39439E-04-2.66881E-14
 -1      1463 1.31737E-02-1.27862E-04-2.81619E-14
 -1      1464 1.33236E-02-1.08167E-04-2.87299E-14
 -1      1465 1.31199E-02-9.86713E-05-2.78142E-14
 -1      1466 1.34723E-02-8.86056E-05-2.93003E-14
 -1      1467 1.36198E-02-6.89556E-05-2.98673E-14
 -1      1468 1.34187E-02-5.98569E-05-2.89459E-14
 -1      1469 1.37663E-02-4.90363E-05-3.04385E-14
 -1      1470 1.39119E-02-2.86690E-05-3.10119E-14
 -1      1471 1.37134E-02-2.10520E-05-3.00872E-14
 -1      1472 1.40567E-02-7.72819E-06-3.15805E-14
 -1      1473 1.42008E-02 1.39158E-05-3.21454E-14
 -1      1474 1.40047E-02 1.92782E-05-3.12254E-14
 -1      1475 1.43444E-02 3.63011E-05-3.27149E-14
 -1      1476 1.44877E-02 5.94609E-05-3.32890E-14
 -1      1477 1.42933E-02 6.22463E-05-3.23655E-14
 -1      1478 1.46974E-02 9.83252E-05-3.41176E-14
 -1      1479 1.46469E-02 1.23344E-04-3.37624E-14
 -1      1480 6.42680E-04 3.71952E-04 2.78369E-17
 -1      1481 4.92661E-04 3.03659E-04 2.51264E-17
 -1      1482 4.44629E-04 2.65886E-04 1.77809E-17
 -1      1483 9.28035E-04 4.71805E-04 2.07625E-17
 -1      1484 7.87290E-04 4.26380E-04 2.66443E-17
 -1      1485 7.44295E-04 3.90638E-04 1.58971E-17
 -1      1486 1.20267E-03 5.41023E-04-6.13929E-18
 -1      1487 1.06614E-03 5.09458E-04 9.86624E-18
 -1      1488 1.03013E-03 4.75930E-04-4.10642E-18
 -1      1489 1.47295E-03 5.89901E-04-5.53621E-17
 -1      1490 1.33804E-03 5.67619E-04-2.77691E-17
 -1      1491 1.30783E-03 5.35504E-04-4.49131E-17
 -1      1492 1.74220E-03 6.24330E-04-1.29820E-16
 -1      1493 1.60753E-03 6.08683E-04-8.94196E-17
 -1      1494 1.58183E-03 5.77411E-04-1.08773E-16
 -1      1495 2.01213E-03 6.48136E-04-2.27669E-16
 -1      1496 1.87700E-03 6.37391E-04-1.75627E-16
 -1      1497 1.85477E-03 6.06591E-04-1.97352E-16
 -1      1498 2.28356E-03 6.64018E-04-3.49316E-16
 -1      1499 2.14762E-03 6.56940E-04-2.85552E-16
 -1      1500 2.12808E-03 6.26382E-04-3.10014E-16
 -1      1501 2.55685E-03 6.73957E-04-4.98069E-16
 -1      1502 2.41996E-03 6.69633E-04-4.20237E-16
 -1      1503 2.40250E-03 6.39177E-04-4.47911E-16
 -1      1504 2.83212E-03 6.79424E-04-6.74902E-16
 -1      1505 2.69424E-03 6.77176E-04-5.83111E-16
 -1      1506 2.67837E-03 6.46734E-04-6.13062E-16
 -1      1507 3.10935E-03 6.81499E-04-8.80440E-16
 -1      1508 2.97049E-03 6.80831E-04-7.73931E-16
 -1      1509 2.95585E-03 6.50350E-04-8.06402E-16
 -1      1510 3.38850E-03 6.80964E-04-1.11606E-15
 -1      1511 3.24869E-03 6.81518E-04-9.94362E-16
 -1      1512 3.23498E-03 6.50965E-04-1.02838E-15
 -1      1513 3.66953E-03 6.78366E-04-1.37989E-15
 -1      1514 3.52878E-03 6.79893E-04-1.24447E-15
 -1      1515 3.51577E-03 6.49243E-04-1.27949E-15
 -1      1516 3.95248E-03 6.74082E-04-1.67406E-15
 -1      1517 3.81077E-03 6.76411E-04-1.52317E-15
 -1      1518 3.79827E-03 6.45645E-04-1.56013E-15
 -1      1519 4.23747E-03 6.68373E-04-2.00175E-15
 -1      1520 4.09472E-03 6.71385E-04-1.83267E-15
 -1      1521 4.08257E-03 6.40477E-04-1.87183E-15
 -1      1522 4.52476E-03 6.61436E-04-2.37045E-15
 -1      1523 4.38081E-03 6.65035E-04-2.18108E-15
 -1      1524 4.36886E-03 6.33951E-04-2.22131E-15
 -1      1525 4.81475E-03 6.53468E-04-2.77614E-15
 -1      1526 4.66939E-03 6.57551E-04-2.56871E-15
 -1      1527 4.65743E-03 6.26241E-04-2.60860E-15
 -1      1528 5.10804E-03 6.44736E-04-3.21997E-15
 -1      1529 4.96094E-03 6.49154E-04-2.99332E-15
 -1      1530 4.94875E-03 6.17547E-04-3.03413E-15
 -1      1531 5.40545E-03 6.35670E-04-3.70098E-15
 -1      1532 5.25618E-03 6.40180E-04-3.45610E-15
 -1      1533 5.24342E-03 6.08174E-04-3.49681E-15
 -1      1534 5.70804E-03 6.26984E-04-4.22359E-15
 -1      1535 5.55603E-03 6.31184E-04-3.95705E-15
 -1      1536 5.54227E-03 5.98641E-04-3.99726E-15
 -1      1537 6.01709E-03 6.19845E-04-4.77469E-15
 -1      1538 5.86167E-03 6.23083E-04-4.49513E-15
 -1      1539 5.84629E-03 5.89821E-04-4.53343E-15
 -1      1540 6.33408E-03 6.16098E-04-5.36477E-15
 -1      1541 6.17449E-03 6.17353E-04-5.06515E-15
 -1      1542 6.15665E-03 5.83137E-04-5.10448E-15
 -1      1543 6.66052E-03 6.18549E-04-5.98522E-15
 -1      1544 6.49602E-03 6.16286E-04-5.67107E-15
 -1      1545 6.47463E-03 5.80823E-04-5.70964E-15
 -1      1546 6.99773E-03 6.31288E-04-6.64162E-15
 -1      1547 6.82770E-03 6.23298E-04-6.31069E-15
 -1      1548 6.80143E-03 5.86244E-04-6.34787E-15
 -1      1549 7.34628E-03 6.59933E-04-7.32599E-15
 -1      1550 7.17056E-03 6.43236E-04-6.98017E-15
 -1      1551 7.13793E-03 6.04224E-04-7.01563E-15
 -1      1552 7.70528E-03 7.11496E-04-8.03804E-15
 -1      1553 7.52458E-03 6.82481E-04-7.67709E-15
 -1      1554 7.48423E-03 6.41192E-04-7.71320E-15
 -1      1555 8.07140E-03 7.93300E-04-8.78425E-15
 -1      1556 7.88776E-03 7.48422E-04-8.40770E-15
 -1      1557 7.83901E-03 7.04737E-04-8.44320E-15
 -1      1558 8.43803E-03 9.10098E-04-9.57231E-15
 -1      1559 8.25522E-03 8.47567E-04-9.17249E-15
 -1      1560 8.19886E-03 8.01837E-04-9.20898E-15
 -1      1561 8.79545E-03 1.05886E-03-1.03944E-14
 -1      1562 8.61865E-03 9.81481E-04-9.97844E-15
 -1      1563 8.55780E-03 9.34871E-04-1.00102E-14
 -1      1564 9.13315E-03 1.22271E-03-1.12469E-14
 -1      1565 8.96742E-03 1.14079E-03-1.08175E-14
 -1      1566 8.90774E-03 1.09545E-03-1.08460E-14
 -1      1567 9.44495E-03 1.36921E-03-1.21270E-14
 -1      1568 9.29237E-03 1.30048E-03-1.16831E-14
 -1      1569 9.24103E-03 1.25904E-03-1.17097E-14
 -1      1570 9.73474E-03 1.45975E-03-1.30290E-14
 -1      1571 9.59183E-03 1.42322E-03-1.25762E-14
 -1      1572 9.55515E-03 1.38733E-03-1.26007E-14
 -1      1573 1.00175E-02 1.46907E-03-1.39552E-14
 -1      1574 9.87566E-03 1.47459E-03-1.34896E-14
 -1      1575 9.85671E-03 1.44357E-03-1.35136E-14
 -1      1576 1.03120E-02 1.40148E-03-1.49017E-14
 -1      1577 1.01621E-02 1.44308E-03-1.44246E-14
 -1      1578 1.01596E-02 1.41411E-03-1.44470E-14
 -1      1579 1.06307E-02 1.28797E-03-1.58699E-14
 -1      1580 1.04680E-02 1.34791E-03-1.53830E-14
 -1      1581 1.04770E-02 1.31795E-03-1.54037E-14
 -1      1582 1.09742E-02 1.16719E-03-1.68649E-14
 -1      1583 1.07997E-02 1.22645E-03-1.63649E-14
 -1      1584 1.08135E-02 1.19387E-03-1.63853E-14
 -1      1585 1.13347E-02 1.06778E-03-1.78877E-14
 -1      1586 1.11531E-02 1.11385E-03-1.73727E-14
 -1      1587 1.11653E-02 1.07857E-03-1.73922E-14
 -1      1588 1.17013E-02 1.00227E-03-1.89429E-14
 -1      1589 1.15179E-02 1.03069E-03-1.84119E-14
 -1      1590 1.15243E-02 9.93493E-04-1.84283E-14
 -1      1591 1.20650E-02 9.70870E-04-2.00094E-14
 -1      1592 1.18840E-02 9.82670E-04-1.94746E-14
 -1      1593 1.18827E-02 9.44483E-04-1.94816E-14
 -1      1594 1.24201E-02 9.67627E-04-2.10844E-14
 -1      1595 1.22439E-02 9.66226E-04-2.05476E-14
 -1      1596 1.22351E-02 9.27824E-04-2.05505E-14
 -1      1597 1.27639E-02 9.84992E-04-2.21473E-14
 -1      1598 1.25935E-02 9.74192E-04-2.16173E-14
 -1      1599 1.25783E-02 9.36098E-04-2.16198E-14
 -1      1600 1.30959E-02 1.01613E-03-2.31985E-14
 -1      1601 1.29314E-02 9.99207E-04-2.26760E-14
 -1      1602 1.29114E-02 9.61721E-04-2.26800E-14
 -1      1603 1.34171E-02 1.05567E-03-2.42377E-14
 -1      1604 1.32578E-02 1.03512E-03-2.37182E-14
 -1      1605 1.32345E-02 9.98382E-04-2.37277E-14
 -1      1606 1.37287E-02 1.09961E-03-2.52629E-14
 -1      1607 1.35740E-02 1.07728E-03-2.47525E-14
 -1      1608 1.35485E-02 1.04132E-03-2.47664E-14
 -1      1609 1.40324E-02 1.14511E-03-2.62997E-14
 -1      1610 1.38815E-02 1.12231E-03-2.57819E-14
 -1      1611 1.38548E-02 1.08709E-03-2.58031E-14
 -1      1612 1.43297E-02 1.19009E-03-2.73457E-14
 -1      1613 1.41817E-02 1.16776E-03-2.68195E-14
 -1      1614 1.41547E-02 1.13323E-03-2.68441E-14
 -1      1615 1.46220E-02 1.23305E-03-2.83960E-14
 -1      1616 1.44763E-02 1.21189E-03-2.78702E-14
 -1      1617 1.44495E-02 1.17797E-03-2.78948E-14
 -1      1618 1.49107E-02 1.27294E-03-2.94351E-14
 -1      1619 1.47667E-02 1.25342E-03-2.89177E-14
 -1      1620 1.47403E-02 1.22002E-03-2.89437E-14
 -1      1621 1.51973E-02 1.30939E-03-3.04625E-14
 -1      1622 1.50542E-02 1.29157E-03-2.99518E-14
 -1      1623 1.50283E-02 1.25859E-03-2.99792E-14
 -1      1624 1.53418E-02 1.31645E-03-3.10187E-14
 -1      1625 1.53135E-02 1.21305E-03-3.13503E-14
 -1      1626 1.53291E-02 1.25479E-03-3.12304E-14
 -1      1627 1.52845E-02 1.13093E-03-3.15929E-14
 -1      1628 1.52986E-02 1.17172E-03-3.14740E-14
 -1      1629 1.51824E-02 1.17785E-03-3.09595E-14
 -1      1630 1.52579E-02 1.05135E-03-3.18282E-14
 -1      1631 1.52710E-02 1.09078E-03-3.17091E-14
 -1      1632 1.51544E-02 1.09663E-03-3.11904E-14
 -1      1633 1.52319E-02 9.74806E-04-3.20579E-14
 -1      1634 1.52449E-02 1.01268E-03-3.19467E-14
 -1      1635 1.51286E-02 1.01790E-03-3.14212E-14
 -1      1636 1.52051E-02 9.02518E-04-3.22883E-14
 -1      1637 1.52188E-02 9.38313E-04-3.21712E-14
 -1      1638 1.51031E-02 9.42514E-04-3.16474E-14
 -1      1639 1.51749E-02 8.31518E-04-3.25184E-14
 -1      1640 1.51905E-02 8.66742E-04-3.24041E-14
 -1      1641 1.50759E-02 8.69631E-04-3.18682E-14
 -1      1642 1.51404E-02 7.62226E-04-3.27280E-14
 -1      1643 1.51582E-02 7.96719E-04-3.26279E-14
 -1      1644 1.50450E-02 7.98142E-04-3.20819E-14
 -1      1645 1.51008E-02 6.93569E-04-3.29158E-14
 -1      1646 1.51212E-02 7.27887E-04-3.28248E-14
 -1      1647 1.50093E-02 7.27883E-04-3.22816E-14
 -1      1648 1.50561E-02 6.24411E-04-3.30881E-14
 -1      1649 1.50791E-02 6.59119E-04-3.30049E-14
 -1      1650 1.49684E-02 6.57907E-04-3.24645E-14
 -1      1651 1.50071E-02 5.53710E-04-3.32493E-14
 -1      1652 1.50321E-02 5.89309E-04-3.31696E-14
 -1      1653 1.49224E-02 5.87248E-04-3.26337E-14
 -1      1654 1.49556E-02 4.81914E-04-3.34162E-14
 -1      1655 1.49817E-02 5.18132E-04-3.33322E-14
 -1      1656 1.48725E-02 5.15676E-04-3.27956E-14
 -1      1657 1.49016E-02 4.06071E-04-3.35922E-14
 -1      1658 1.49287E-02 4.44361E-04-3.35044E-14
 -1      1659 1.48197E-02 4.41976E-04-3.29605E-14
 -1      1660 1.48474E-02 3.27312E-04-3.37482E-14
 -1      1661 1.48744E-02 3.67045E-04-3.36745E-14
 -1      1662 1.47651E-02 3.65148E-04-3.31265E-14
 -1      1663 1.47949E-02 2.45973E-04-3.39018E-14
 -1      1664 1.48209E-02 2.86924E-04-3.38253E-14
 -1      1665 1.47108E-02 2.85789E-04-3.32854E-14
 -1      1666 1.47080E-02 1.63964E-04-3.38715E-14
 -1      1667 1.47328E-02 2.05642E-04-3.37940E-14
 -1      1668 1.46219E-02 2.05419E-04-3.32569E-14
 -1      1669 1.44981E-02 1.25242E-04-3.30441E-14
 -1      1670 1.19269E-02 3.53395E-04-1.67375E-14
 -1      1671 1.19503E-02 3.09702E-04-1.67954E-14
 -1      1672 1.17791E-02 4.63520E-04-1.65366E-14
 -1      1673 1.18636E-02 4.10037E-04-1.66416E-14
 -1      1674 1.15183E-02 6.07663E-04-1.62295E-14
 -1      1675 1.16522E-02 5.38949E-04-1.63766E-14
 -1      1676 1.11577E-02 7.66113E-04-1.58782E-14
 -1      1677 1.13271E-02 6.83872E-04-1.60614E-14
 -1      1678 1.07538E-02 9.54113E-04-1.54037E-14
 -1      1679 1.09423E-02 8.68023E-04-1.56294E-14
 -1      1680 1.03664E-02 1.10694E-03-1.48999E-14
 -1      1681 1.05446E-02 1.04479E-03-1.51238E-14
 -1      1682 9.98455E-03 1.18953E-03-1.44022E-14
 -1      1683 1.01616E-02 1.16032E-03-1.46314E-14
 -1      1684 9.58121E-03 1.18684E-03-1.38897E-14
 -1      1685 9.77084E-03 1.20005E-03-1.41285E-14
 -1      1686 9.19430E-03 1.09770E-03-1.34267E-14
 -1      1687 9.36984E-03 1.14902E-03-1.36268E-14
 -1      1688 8.79385E-03 9.27530E-04-1.29793E-14
 -1      1689 8.98730E-03 1.01512E-03-1.31718E-14
 -1      1690 8.36830E-03 7.41898E-04-1.26583E-14
 -1      1691 8.54841E-03 8.30375E-04-1.28068E-14
 -1      1692 8.01019E-03 5.62344E-04-1.24029E-14
 -1      1693 8.16947E-03 6.42728E-04-1.25101E-14
 -1      1694 7.70722E-03 3.94622E-04-1.22022E-14
 -1      1695 7.84187E-03 4.64308E-04-1.22749E-14
 -1      1696 7.50739E-03 2.80700E-04-1.21447E-14
 -1      1697 7.58204E-03 3.32030E-04-1.21685E-14
 -1      1698 7.43613E-03 1.83321E-04-1.21553E-14
 -1      1699 7.45346E-03 2.24732E-04-1.21320E-14
 -1      1700 7.49268E-03 9.10591E-05-1.22685E-14
 -1      1701 7.44991E-03 1.34160E-04-1.21999E-14
 -1      1702 7.66325E-03-2.08452E-05-1.24891E-14
 -1      1703 7.57223E-03 3.03059E-05-1.23888E-14
 -1      1704 7.93950E-03-1.51733E-04-1.27721E-14
 -1      1705 7.80021E-03-8.54368E-05-1.26262E-14
 -1      1706 8.26105E-03-3.05161E-04-1.31263E-14
 -1      1707 8.10850E-03-2.35662E-04-1.29611E-14
 -1      1708 8.64800E-03-4.59261E-04-1.35328E-14
 -1      1709 8.47102E-03-3.82946E-04-1.33275E-14
 -1      1710 9.01121E-03-5.95952E-04-1.40004E-14
 -1      1711 8.83982E-03-5.40488E-04-1.37924E-14
 -1      1712 9.40466E-03-6.79507E-04-1.44958E-14
 -1      1713 9.22810E-03-6.50252E-04-1.42606E-14
 -1      1714 9.80258E-03-6.77884E-04-1.50383E-14
 -1      1715 9.62128E-03-6.91394E-04-1.47904E-14
 -1      1716 1.01874E-02-5.88032E-04-1.54999E-14
 -1      1717 1.00189E-02-6.35050E-04-1.52963E-14
 -1      1718 1.05760E-02-4.38553E-04-1.59442E-14
 -1      1719 1.03922E-02-5.14835E-04-1.57464E-14
 -1      1720 1.09623E-02-2.73660E-04-1.62834E-14
 -1      1721 1.07947E-02-3.51107E-04-1.61335E-14
 -1      1722 1.13201E-02-9.14272E-05-1.65941E-14
 -1      1723 1.11517E-02-1.72274E-04-1.64693E-14
 -1      1724 1.16242E-02 4.53208E-05-1.67513E-14
 -1      1725 1.14993E-02-1.67256E-05-1.66830E-14
 -1      1726 1.18359E-02 1.62724E-04-1.68317E-14
 -1      1727 1.17489E-02 1.11251E-04-1.68058E-14
 -1      1728 1.19415E-02 2.59526E-04-1.68250E-14
 -1      1729 1.19070E-02 2.17238E-04-1.68400E-14
 -1      1730 1.09884E-02 7.78711E-04-1.58687E-14
 -1      1731 1.13800E-02 5.94827E-04-1.62905E-14
 -1      1732 1.53163E-02 1.28366E-03-3.10534E-14
 -1      1733 1.51843E-02 1.24782E-03-3.06664E-14
 -1      1734 1.18983E-02 3.56341E-04-1.68819E-14
 -1      1735 1.16999E-02 4.54376E-04-1.66226E-14
 -1      1736 1.19556E-02 2.90556E-04-1.70088E-14
 -1      1737 1.05937E-02 9.86212E-04-1.53381E-14
 -1      1738 1.02245E-02 1.14676E-03-1.47899E-14
 -1      1739 9.86640E-03 1.22125E-03-1.42470E-14
 -1      1740 9.50642E-03 1.19122E-03-1.37106E-14
 -1      1741 9.14308E-03 1.05709E-03-1.31932E-14
 -1      1742 8.74814E-03 8.53672E-04-1.27694E-14
 -1      1743 8.32841E-03 6.44173E-04-1.24524E-14
 -1      1744 7.96096E-03 4.52239E-04-1.21805E-14
 -1      1745 7.65981E-03 3.15062E-04-1.20249E-14
 -1      1746 7.47576E-03 2.26183E-04-1.19823E-14
 -1      1747 7.43372E-03 1.61931E-04-1.20154E-14
 -1      1748 7.53212E-03 9.49339E-05-1.21782E-14
 -1      1749 7.75471E-03-5.54733E-06-1.24330E-14
 -1      1750 8.06382E-03-1.42533E-04-1.27553E-14
 -1      1751 8.43083E-03-3.09814E-04-1.31421E-14
 -1      1752 8.79816E-03-4.87492E-04-1.35997E-14
 -1      1753 9.16721E-03-6.36208E-04-1.41180E-14
 -1      1754 9.52378E-03-7.12564E-04-1.46712E-14
 -1      1755 9.87150E-03-6.79691E-04-1.52242E-14
 -1      1756 1.02365E-02-5.52323E-04-1.57288E-14
 -1      1757 1.06122E-02-3.72114E-04-1.61643E-14
 -1      1758 1.10008E-02-1.73326E-04-1.65394E-14
 -1      1759 1.13641E-02 2.43456E-06-1.68166E-14
 -1      1760 1.16703E-02 1.30688E-04-1.69638E-14
 -1      1761 1.18726E-02 2.22538E-04-1.70295E-14
 -1      1762 2.85082E-04-1.76239E-04-1.96647E-17
 -1      1763 3.32167E-04-1.16840E-04-4.19315E-17
 -1      1764 3.36267E-04-1.33082E-04-4.09557E-17
 -1      1765 3.42107E-04-1.52062E-04-3.95327E-17
 -1      1766 3.51619E-04-1.74051E-04-3.69577E-17
 -1      1767 4.58221E-04-1.88121E-04-5.98073E-17
 -1      1768 3.24654E-04-6.54306E-05-4.18502E-17
 -1      1769 3.25765E-04-7.67349E-05-4.24059E-17
 -1      1770 3.23201E-04-4.39241E-05-4.00748E-17
 -1      1771 3.23836E-04-5.44214E-05-4.11048E-17
 -1      1772 4.36648E-04-7.93218E-05-6.10541E-17
 -1      1773 3.22444E-04-2.37901E-05-3.80419E-17
 -1      1774 3.22764E-04-3.37117E-05-3.91804E-17
 -1      1775 4.34698E-04-5.13401E-05-5.85876E-17
 -1      1776 3.22161E-04-4.33960E-06-3.57245E-17
 -1      1777 3.22255E-04-1.39998E-05-3.69035E-17
 -1      1778 4.33708E-04-2.49338E-05-5.55654E-17
 -1      1779 3.22279E-04 1.49936E-05-3.32579E-17
 -1      1780 3.22169E-04 5.32371E-06-3.46538E-17
 -1      1781 4.33420E-04 7.59203E-07-5.22721E-17
 -1      1782 3.22825E-04 3.47576E-05-2.98156E-17
 -1      1783 3.22485E-04 2.48042E-05-3.16180E-17
 -1      1784 4.33764E-04 2.64803E-05-4.81792E-17
 -1      1785 3.23920E-04 5.52091E-05-2.59531E-17
 -1      1786 3.23276E-04 4.48397E-05-2.80808E-17
 -1      1787 4.34810E-04 5.27472E-05-4.32868E-17
 -1      1788 3.25929E-04 7.78724E-05-2.11284E-17
 -1      1789 3.24757E-04 6.62860E-05-2.36627E-17
 -1      1790 4.36814E-04 8.06381E-05-3.76625E-17
 -1      1791 3.29554E-04 1.03717E-04-1.51382E-17
 -1      1792 3.27439E-04 9.03643E-05-1.84179E-17
 -1      1793 4.40392E-04 1.11616E-04-3.04661E-17
 -1      1794 3.36512E-04 1.35170E-04-7.08797E-18
 -1      1795 3.32369E-04 1.18676E-04-1.15061E-17
 -1      1796 4.46771E-04 1.47387E-04-2.15756E-17
 -1      1797 3.52155E-04 1.77641E-04 3.59142E-18
 -1      1798 3.42702E-04 1.54809E-04-2.18196E-18
 -1      1799 4.59199E-04 1.91497E-04-9.79848E-18
 -1      1800 4.07481E-04 2.33692E-04 1.26445E-17
 -1      1801 3.77910E-04 2.02687E-04 7.37257E-18
 -1      1802 4.95641E-04 2.44010E-04 1.74828E-18
 -1      1803 5.58243E-04 3.02484E-04 1.24412E-17
 -1      1804 3.39847E-04-1.90930E-04-2.97071E-17
 -1      1805 8.53088E-04 4.06991E-04-5.55654E-19
 -1      1806 7.06773E-04 3.59313E-04 8.11796E-18
 -1      1807 6.73066E-04 3.28767E-04 1.24683E-18
 -1      1808 4.58738E-04-2.36732E-04-4.88027E-17
 -1      1809 8.06819E-04-3.74012E-04-1.23829E-16
 -1      1810 9.52005E-04-4.15112E-04-1.69664E-16
 -1      1811 1.09477E-03-4.49690E-04-2.23603E-16
 -1      1812 1.23636E-03-4.78455E-04-2.85945E-16
 -1      1813 1.00350E-03-3.97693E-04-2.01011E-16
 -1      1814 1.37669E-03-5.02778E-04-3.56174E-16
 -1      1815 1.51630E-03-5.22950E-04-4.34521E-16
 -1      1816 1.28908E-03-4.55396E-04-3.25071E-16
 -1      1817 1.65539E-03-5.39889E-04-5.21230E-16
 -1      1818 1.79417E-03-5.53826E-04-6.16057E-16
 -1      1819 1.57138E-03-4.95943E-04-4.81061E-16
 -1      1820 1.93283E-03-5.65362E-04-7.19382E-16
 -1      1821 2.07144E-03-5.74699E-04-8.31014E-16
 -1      1822 1.85191E-03-5.23910E-04-6.69576E-16
 -1      1823 2.21016E-03-5.82244E-04-9.50683E-16
 -1      1824 2.34898E-03-5.88163E-04-1.07832E-15
 -1      1825 2.13177E-03-5.42587E-04-8.90089E-16
 -1      1826 2.48804E-03-5.92741E-04-1.21441E-15
 -1      1827 2.62730E-03-5.96113E-04-1.35888E-15
 -1      1828 2.41166E-03-5.54376E-04-1.14328E-15
 -1      1829 2.76684E-03-5.98477E-04-1.51105E-15
 -1      1830 2.90665E-03-5.99940E-04-1.66978E-15
 -1      1831 2.69202E-03-5.61037E-04-1.42827E-15
 -1      1832 3.04677E-03-6.00639E-04-1.83573E-15
 -1      1833 3.18719E-03-6.00657E-04-2.00836E-15
 -1      1834 2.97312E-03-5.63864E-04-1.74292E-15
 -1      1835 3.32794E-03-6.00085E-04-2.18770E-15
 -1      1836 3.46900E-03-5.98988E-04-2.37386E-15
 -1      1837 3.25511E-03-5.63790E-04-2.08464E-15
 -1      1838 3.61040E-03-5.97423E-04-2.56685E-15
 -1      1839 3.75215E-03-5.95440E-04-2.76644E-15
 -1      1840 3.53810E-03-5.61479E-04-2.45306E-15
 -1      1841 3.89426E-03-5.93076E-04-2.97214E-15
 -1      1842 4.03674E-03-5.90371E-04-3.18441E-15
 -1      1843 3.82218E-03-5.57389E-04-2.84844E-15
 -1      1844 4.17961E-03-5.87348E-04-3.40358E-15
 -1      1845 4.32289E-03-5.84047E-04-3.62876E-15
 -1      1846 4.10747E-03-5.51844E-04-3.27033E-15
 -1      1847 4.46662E-03-5.80484E-04-3.86063E-15
 -1      1848 4.61083E-03-5.76703E-04-4.09945E-15
 -1      1849 4.39411E-03-5.45085E-04-3.71898E-15
 -1      1850 4.75553E-03-5.72730E-04-4.34579E-15
 -1      1851 4.90080E-03-5.68617E-04-4.59891E-15
 -1      1852 4.68227E-03-5.37342E-04-4.19474E-15
 -1      1853 5.04665E-03-5.64409E-04-4.85861E-15
 -1      1854 5.19317E-03-5.60179E-04-5.12525E-15
 -1      1855 4.97223E-03-5.28898E-04-4.69762E-15
 -1      1856 5.34036E-03-5.56005E-04-5.39904E-15
 -1      1857 5.48834E-03-5.51987E-04-5.67916E-15
 -1      1858 5.26429E-03-5.20171E-04-5.22852E-15
 -1      1859 5.63710E-03-5.48255E-04-5.96622E-15
 -1      1860 5.78676E-03-5.44945E-04-6.25945E-15
 -1      1861 5.55881E-03-5.11805E-04-5.78818E-15
 -1      1862 5.93733E-03-5.42257E-04-6.55956E-15
 -1      1863 6.08890E-03-5.40375E-04-6.86613E-15
 -1      1864 5.85624E-03-5.04775E-04-6.37397E-15
 -1      1865 6.24149E-03-5.39583E-04-7.18125E-15
 -1      1866 6.39515E-03-5.40116E-04-7.50425E-15
 -1      1867 6.15700E-03-5.00500E-04-6.98924E-15
 -1      1868 6.54991E-03-5.42351E-04-7.83495E-15
 -1      1869 6.70575E-03-5.46574E-04-8.17516E-15
 -1      1870 6.46154E-03-5.00937E-04-7.63375E-15
 -1      1871 6.86271E-03-5.53235E-04-8.52385E-15
 -1      1872 7.02062E-03-5.62650E-04-8.88012E-15
 -1      1873 6.77023E-03-5.08623E-04-8.31202E-15
 -1      1874 7.17960E-03-5.75284E-04-9.24553E-15
 -1      1875 7.33925E-03-5.91427E-04-9.61990E-15
 -1      1876 7.08327E-03-5.26579E-04-9.02371E-15
 -1      1877 7.49975E-03-6.11434E-04-1.00016E-14
 -1      1878 7.66043E-03-6.35461E-04-1.03896E-14
 -1      1879 7.40051E-03-5.57956E-04-9.76851E-15
 -1      1880 7.82155E-03-6.63551E-04-1.07876E-14
 -1      1881 7.98217E-03-6.95539E-04-1.11918E-14
 -1      1882 7.72124E-03-6.05256E-04-1.05445E-14
 -1      1883 8.14253E-03-7.30908E-04-1.16024E-14
 -1      1884 8.30159E-03-7.68945E-04-1.20208E-14
 -1      1885 8.04384E-03-6.68972E-04-1.13502E-14
 -1      1886 8.45950E-03-8.08374E-04-1.24457E-14
 -1      1887 8.61542E-03-8.47771E-04-1.28759E-14
 -1      1888 8.36557E-03-7.45685E-04-1.21835E-14
 -1      1889 8.76931E-03-8.85139E-04-1.33137E-14
 -1      1890 8.92099E-03-9.18460E-04-1.37544E-14
 -1      1891 8.68286E-03-8.26222E-04-1.30432E-14
 -1      1892 9.07019E-03-9.45446E-04-1.41994E-14
 -1      1893 9.21778E-03-9.64092E-04-1.46488E-14
 -1      1894 8.99260E-03-8.95323E-04-1.39233E-14
 -1      1895 9.36332E-03-9.72605E-04-1.51035E-14
 -1      1896 9.50859E-03-9.69820E-04-1.55621E-14
 -1      1897 9.29421E-03-9.34732E-04-1.48219E-14
 -1      1898 9.65309E-03-9.55240E-04-1.60244E-14
 -1      1899 9.79889E-03-9.29145E-04-1.64927E-14
 -1      1900 9.59095E-03-9.29778E-04-1.57379E-14
 -1      1901 9.94550E-03-8.92579E-04-1.69654E-14
 -1      1902 1.00944E-02-8.47116E-04-1.74427E-14
 -1      1903 9.88882E-03-8.76319E-04-1.66732E-14
 -1      1904 1.02452E-02-7.94843E-04-1.79263E-14
 -1      1905 1.03984E-02-7.37858E-04-1.84148E-14
 -1      1906 1.01931E-02-7.83005E-04-1.76287E-14
 -1      1907 1.05538E-02-6.78423E-04-1.89104E-14
 -1      1908 1.07109E-02-6.18379E-04-1.94119E-14
 -1      1909 1.05057E-02-6.66759E-04-1.86078E-14
 -1      1910 1.08697E-02-5.59478E-04-1.99168E-14
 -1      1911 1.10293E-02-5.02870E-04-2.04280E-14
 -1      1912 1.08248E-02-5.45343E-04-1.96080E-14
 -1      1913 1.11898E-02-4.49531E-04-2.09428E-14
 -1      1914 1.13503E-02-3.99941E-04-2.14610E-14
 -1      1915 1.11468E-02-4.31876E-04-2.06275E-14
 -1      1916 1.15110E-02-3.54374E-04-2.19871E-14
 -1      1917 1.16710E-02-3.12842E-04-2.25159E-14
 -1      1918 1.14685E-02-3.33201E-04-2.16679E-14
 -1      1919 1.18305E-02-2.75148E-04-2.30497E-14
 -1      1920 1.19890E-02-2.41057E-04-2.35880E-14
 -1      1921 1.17874E-02-2.50999E-04-2.27264E-14
 -1      1922 1.21467E-02-2.10136E-04-2.41325E-14
 -1      1923 1.23032E-02-1.82060E-04-2.46822E-14
 -1      1924 1.21022E-02-1.83752E-04-2.38032E-14
 -1      1925 1.24587E-02-1.56333E-04-2.52342E-14
 -1      1926 1.26129E-02-1.32625E-04-2.57908E-14
 -1      1927 1.24126E-02-1.28464E-04-2.49000E-14
 -1      1928 1.27660E-02-1.10474E-04-2.63476E-14
 -1      1929 1.29179E-02-8.95820E-05-2.69072E-14
 -1      1930 1.27184E-02-8.17904E-05-2.60096E-14
 -1      1931 1.30687E-02-6.95604E-05-2.74709E-14
 -1      1932 1.32185E-02-5.01582E-05-2.80321E-14
 -1      1933 1.30200E-02-4.06264E-05-2.71253E-14
 -1      1934 1.33673E-02-3.10636E-05-2.85960E-14
 -1      1935 1.35151E-02-1.20684E-05-2.91640E-14
 -1      1936 1.33178E-02-2.33542E-06-2.82506E-14
 -1      1937 1.36621E-02 7.06770E-06-2.97329E-14
 -1      1938 1.38082E-02 2.65191E-05-3.03016E-14
 -1      1939 1.36122E-02 3.52233E-05-2.93796E-14
 -1      1940 1.39537E-02 4.64581E-05-3.08713E-14
 -1      1941 1.40985E-02 6.70329E-05-3.14421E-14
 -1      1942 1.39038E-02 7.37490E-05-3.05171E-14
 -1      1943 1.42268E-02 8.44080E-05-3.19565E-14
 -1      1944 1.43706E-02 1.06467E-04-3.25274E-14
 -1      1945 1.44325E-02 1.46490E-04-3.26313E-14
 -1      1946 1.41770E-02 1.10698E-04-3.16007E-14
 -1      1947 1.13796E-03 4.79759E-04-3.28649E-17
 -1      1948 9.96279E-04 4.46618E-04-1.39727E-17
 -1      1949 9.63980E-04 4.17191E-04-2.31206E-17
 -1      1950 1.41688E-03 5.30929E-04-8.65193E-17
 -1      1951 1.27782E-03 5.07652E-04-5.69342E-17
 -1      1952 1.24830E-03 4.79550E-04-6.78168E-17
 -1      1953 1.69308E-03 5.66765E-04-1.64717E-16
 -1      1954 1.55514E-03 5.50521E-04-1.22447E-16
 -1      1955 1.52842E-03 5.23392E-04-1.35241E-16
 -1      1956 1.96848E-03 5.91403E-04-2.66822E-16
 -1      1957 1.83078E-03 5.80316E-04-2.12666E-16
 -1      1958 1.80652E-03 5.53835E-04-2.26978E-16
 -1      1959 2.24419E-03 6.07749E-04-3.93647E-16
 -1      1960 2.10625E-03 6.00490E-04-3.27131E-16
 -1      1961 2.08403E-03 5.74427E-04-3.43245E-16
 -1      1962 2.52081E-03 6.17916E-04-5.46844E-16
 -1      1963 2.38237E-03 6.13514E-04-4.67210E-16
 -1      1964 2.36181E-03 5.87711E-04-4.84896E-16
 -1      1965 2.79864E-03 6.23458E-04-7.27364E-16
 -1      1966 2.65956E-03 6.21198E-04-6.33242E-16
 -1      1967 2.64032E-03 5.95549E-04-6.52825E-16
 -1      1968 3.07783E-03 6.25511E-04-9.35856E-16
 -1      1969 2.93806E-03 6.24872E-04-8.28154E-16
 -1      1970 2.91986E-03 5.99308E-04-8.48334E-16
 -1      1971 3.35846E-03 6.24887E-04-1.17312E-15
 -1      1972 3.21797E-03 6.25499E-04-1.05085E-15
 -1      1973 3.20055E-03 5.99971E-04-1.07241E-15
 -1      1974 3.64058E-03 6.22151E-04-1.43924E-15
 -1      1975 3.49933E-03 6.23758E-04-1.30274E-15
 -1      1976 3.48251E-03 5.98235E-04-1.32477E-15
 -1      1977 3.92428E-03 6.17683E-04-1.73701E-15
 -1      1978 3.78223E-03 6.20115E-04-1.58401E-15
 -1      1979 3.76580E-03 5.94573E-04-1.60715E-15
 -1      1980 4.20969E-03 6.11735E-04-2.06718E-15
 -1      1981 4.06676E-03 6.14879E-04-1.89742E-15
 -1      1982 4.05054E-03 5.89296E-04-1.92100E-15
 -1      1983 4.49703E-03 6.04483E-04-2.43520E-15
 -1      1984 4.35310E-03 6.08256E-04-2.24686E-15
 -1      1985 4.33691E-03 5.82608E-04-2.27096E-15
 -1      1986 4.78666E-03 5.96095E-04-2.84156E-15
 -1      1987 4.64153E-03 6.00411E-04-2.63343E-15
 -1      1988 4.62514E-03 5.74666E-04-2.65785E-15
 -1      1989 5.07903E-03 5.86790E-04-3.28580E-15
 -1      1990 4.93246E-03 5.91527E-04-3.05900E-15
 -1      1991 4.91560E-03 5.65638E-04-3.08248E-15
 -1      1992 5.37477E-03 5.76938E-04-3.76426E-15
 -1      1993 5.22642E-03 5.81887E-04-3.52012E-15
 -1      1994 5.20875E-03 5.55787E-04-3.54324E-15
 -1      1995 5.67466E-03 5.67176E-04-4.28366E-15
 -1      1996 5.52413E-03 5.71977E-04-4.01918E-15
 -1      1997 5.50518E-03 5.45567E-04-4.04070E-15
 -1      1998 5.97965E-03 5.58573E-04-4.83484E-15
 -1      1999 5.82643E-03 5.62626E-04-4.55522E-15
 -1      2000 5.80564E-03 5.35765E-04-4.57528E-15
 -1      2001 6.29079E-03 5.52853E-04-5.42429E-15
 -1      2002 6.13435E-03 5.55201E-04-5.12525E-15
 -1      2003 6.11098E-03 5.27687E-04-5.14542E-15
 -1      2004 6.60920E-03 5.52690E-04-6.04295E-15
 -1      2005 6.44898E-03 5.51862E-04-5.73023E-15
 -1      2006 6.42215E-03 5.23411E-04-5.74883E-15
 -1      2007 6.93590E-03 5.62043E-04-6.69563E-15
 -1      2008 6.77142E-03 5.55886E-04-6.36577E-15
 -1      2009 6.74015E-03 5.26104E-04-6.38434E-15
 -1      2010 7.27155E-03 5.86454E-04-7.37787E-15
 -1      2011 7.10256E-03 5.71998E-04-7.03215E-15
 -1      2012 7.06594E-03 5.40364E-04-7.04887E-15
 -1      2013 7.61613E-03 6.33043E-04-8.08982E-15
 -1      2014 7.44280E-03 6.06566E-04-7.73013E-15
 -1      2015 7.40024E-03 5.72450E-04-7.74511E-15
 -1      2016 7.96839E-03 7.09651E-04-8.83633E-15
 -1      2017 7.79156E-03 6.67252E-04-8.45865E-15
 -1      2018 7.74330E-03 6.30043E-04-8.47398E-15
 -1      2019 8.32525E-03 8.22304E-04-9.61743E-15
 -1      2020 8.14678E-03 7.61445E-04-9.22275E-15
 -1      2021 8.09438E-03 7.20908E-04-9.23536E-15
 -1      2022 8.68125E-03 9.70153E-04-1.04328E-14
 -1      2023 8.50414E-03 8.92511E-04-1.00204E-14
 -1      2024 8.45085E-03 8.49437E-04-1.00303E-14
 -1      2025 9.02887E-03 1.13857E-03-1.12809E-14
 -1      2026 8.85687E-03 1.05349E-03-1.08536E-14
 -1      2027 8.80717E-03 1.01038E-03-1.08597E-14
 -1      2028 9.36146E-03 1.29529E-03-1.21563E-14
 -1      2029 9.19728E-03 1.22089E-03-1.17146E-14
 -1      2030 9.15526E-03 1.18162E-03-1.17197E-14
 -1      2031 9.67859E-03 1.39803E-03-1.30553E-14
 -1      2032 9.52120E-03 1.35552E-03-1.26023E-14
 -1      2033 9.48878E-03 1.32320E-03-1.26062E-14
 -1      2034 9.98931E-03 1.41566E-03-1.39803E-14
 -1      2035 9.83327E-03 1.41776E-03-1.35166E-14
 -1      2036 9.80993E-03 1.39214E-03-1.35167E-14
 -1      2037 1.03073E-02 1.34953E-03-1.49229E-14
 -1      2038 1.01462E-02 1.39126E-03-1.44482E-14
 -1      2039 1.01308E-02 1.36860E-03-1.44490E-14
 -1      2040 1.06409E-02 1.23230E-03-1.58894E-14
 -1      2041 1.04719E-02 1.29465E-03-1.54038E-14
 -1      2042 1.04635E-02 1.27102E-03-1.54030E-14
 -1      2043 1.09890E-02 1.10617E-03-1.68829E-14
 -1      2044 1.08136E-02 1.16829E-03-1.63840E-14
 -1      2045 1.08108E-02 1.14198E-03-1.63805E-14
 -1      2046 1.13448E-02 1.00225E-03-1.79001E-14
 -1      2047 1.11667E-02 1.05054E-03-1.73871E-14
 -1      2048 1.11666E-02 1.02181E-03-1.73831E-14
 -1      2049 1.17008E-02 9.33877E-04-1.89433E-14
 -1      2050 1.15234E-02 9.63605E-04-1.84204E-14
 -1      2051 1.15227E-02 9.33377E-04-1.84113E-14
 -1      2052 1.20518E-02 9.01163E-04-2.00006E-14
 -1      2053 1.18773E-02 9.13468E-04-1.94696E-14
 -1      2054 1.18734E-02 8.82510E-04-1.94574E-14
 -1      2055 1.23947E-02 8.97754E-04-2.10685E-14
 -1      2056 1.22245E-02 8.96295E-04-2.05331E-14
 -1      2057 1.22160E-02 8.65080E-04-2.05185E-14
 -1      2058 1.27284E-02 9.15702E-04-2.21335E-14
 -1      2059 1.25628E-02 9.04499E-04-2.16029E-14
 -1      2060 1.25497E-02 8.73312E-04-2.15839E-14
 -1      2061 1.30529E-02 9.47855E-04-2.31906E-14
 -1      2062 1.28918E-02 9.30341E-04-2.26641E-14
 -1      2063 1.28745E-02 8.99364E-04-2.26490E-14
 -1      2064 1.33688E-02 9.88597E-04-2.42398E-14
 -1      2065 1.32118E-02 9.67395E-04-2.37158E-14
 -1      2066 1.31913E-02 9.36748E-04-2.37033E-14
 -1      2067 1.36772E-02 1.03381E-03-2.52763E-14
 -1      2068 1.35238E-02 1.01081E-03-2.47593E-14
 -1      2069 1.35009E-02 9.80568E-04-2.47510E-14
 -1      2070 1.39792E-02 1.08054E-03-2.63205E-14
 -1      2071 1.38289E-02 1.05710E-03-2.57983E-14
 -1      2072 1.38044E-02 1.02730E-03-2.57925E-14
 -1      2073 1.42760E-02 1.12668E-03-2.73669E-14
 -1      2074 1.41282E-02 1.10377E-03-2.68406E-14
 -1      2075 1.41027E-02 1.07443E-03-2.68387E-14
 -1      2076 1.45686E-02 1.17072E-03-2.84219E-14
 -1      2077 1.44227E-02 1.14903E-03-2.78948E-14
 -1      2078 1.43968E-02 1.12016E-03-2.78936E-14
 -1      2079 1.48581E-02 1.21155E-03-2.94646E-14
 -1      2080 1.47137E-02 1.19157E-03-2.89463E-14
 -1      2081 1.46876E-02 1.16317E-03-2.89480E-14
 -1      2082 1.50932E-02 1.23936E-03-3.03271E-14
 -1      2083 1.49497E-02 1.22094E-03-2.98089E-14
 -1      2084 1.49237E-02 1.19292E-03-2.98154E-14
 -1      2085 1.51064E-02 1.21084E-03-3.05020E-14
 -1      2086 1.49995E-02 9.83313E-04-3.10139E-14
 -1      2087 1.50120E-02 1.02204E-03-3.08992E-14
 -1      2088 1.50246E-02 1.06143E-03-3.07862E-14
 -1      2089 1.50377E-02 1.10141E-03-3.06761E-14
 -1      2090 1.48951E-02 1.02538E-03-3.03785E-14
 -1      2091 1.50642E-02 1.13528E-03-3.06456E-14
 -1      2092 1.50786E-02 1.17627E-03-3.05308E-14
 -1      2093 1.49874E-02 1.16739E-03-3.01865E-14
 -1      2094 1.49337E-02 1.09888E-03-3.02416E-14
 -1      2095 1.49745E-02 9.08968E-04-3.12301E-14
 -1      2096 1.49871E-02 9.45851E-04-3.11226E-14
 -1      2097 1.48708E-02 9.48460E-04-3.05968E-14
 -1      2098 1.49467E-02 8.35546E-04-3.14412E-14
 -1      2099 1.49610E-02 8.72023E-04-3.13362E-14
 -1      2100 1.48457E-02 8.73896E-04-3.08068E-14
 -1      2101 1.49149E-02 7.63775E-04-3.16476E-14
 -1      2102 1.49313E-02 7.99521E-04-3.15458E-14
 -1      2103 1.48174E-02 8.00683E-04-3.10098E-14
 -1      2104 1.48780E-02 6.92878E-04-3.18371E-14
 -1      2105 1.48971E-02 7.28296E-04-3.17448E-14
 -1      2106 1.47847E-02 7.28833E-04-3.12052E-14
 -1      2107 1.48357E-02 6.21986E-04-3.20148E-14
 -1      2108 1.48575E-02 6.57512E-04-3.19265E-14
 -1      2109 1.47465E-02 6.57567E-04-3.13888E-14
 -1      2110 1.47883E-02 5.50251E-04-3.21812E-14
 -1      2111 1.48126E-02 5.86295E-04-3.20992E-14
 -1      2112 1.47027E-02 5.86057E-04-3.15623E-14
 -1      2113 1.47376E-02 4.78212E-04-3.23411E-14
 -1      2114 1.47634E-02 5.14470E-04-3.22607E-14
 -1      2115 1.46543E-02 5.14154E-04-3.17248E-14
 -1      2116 1.46834E-02 4.02876E-04-3.25033E-14
 -1      2117 1.47108E-02 4.40830E-04-3.24216E-14
 -1      2118 1.46020E-02 4.40640E-04-3.18829E-14
 -1      2119 1.46283E-02 3.25210E-04-3.26653E-14
 -1      2120 1.46559E-02 3.64334E-04-3.25842E-14
 -1      2121 1.45469E-02 3.64443E-04-3.20427E-14
 -1      2122 1.45740E-02 2.45214E-04-3.28242E-14
 -1      2123 1.46009E-02 2.85478E-04-3.27449E-14
 -1      2124 1.44913E-02 2.85983E-04-3.22036E-14
 -1      2125 1.16152E-02 4.50688E-04-1.67322E-14
 -1      2126 1.17465E-02 3.99251E-04-1.68958E-14
 -1      2127 1.19627E-02 3.02560E-04-1.72288E-14
 -1      2128 1.19539E-02 2.86308E-04-1.72580E-14
 -1      2129 1.18638E-02 3.52091E-04-1.70664E-14
 -1      2130 1.19303E-02 3.27933E-04-1.71656E-14
 -1      2131 1.12831E-02 5.91827E-04-1.63850E-14
 -1      2132 1.14599E-02 5.16261E-04-1.65581E-14
 -1      2133 1.15365E-02 4.62976E-04-1.68286E-14
 -1      2134 1.08548E-02 8.07216E-04-1.58908E-14
 -1      2135 1.10452E-02 7.01939E-04-1.61428E-14
 -1      2136 3.27163E-04-8.90438E-05-4.26498E-17
 -1      2137 3.29247E-04-1.02190E-04-4.25414E-17
 -1      2138 4.46309E-04-1.45157E-04-6.23281E-17
 -1      2139 4.40058E-04-1.09991E-04-6.24229E-17
 -1      2140 1.01137E-02 1.18924E-03-1.46726E-14
 -1      2141 1.02686E-02 1.12568E-03-1.49412E-14
 -1      2142 9.78596E-03 1.24584E-03-1.40911E-14
 -1      2143 9.93755E-03 1.23243E-03-1.43656E-14
 -1      2144 9.46230E-03 1.18645E-03-1.35221E-14
 -1      2145 9.61294E-03 1.23040E-03-1.37851E-14
 -1      2146 9.11793E-03 1.01979E-03-1.29848E-14
 -1      2147 9.28267E-03 1.11225E-03-1.32378E-14
 -1      2148 8.66857E-03 7.61027E-04-1.25041E-14
 -1      2149 8.86551E-03 8.72791E-04-1.26728E-14
 -1      2150 8.29844E-03 5.60867E-04-1.22148E-14
 -1      2151 8.48350E-03 6.61510E-04-1.23589E-14
 -1      2152 8.59807E-03 6.90746E-04-1.22631E-14
 -1      2153 7.91562E-03 3.76732E-04-1.19598E-14
 -1      2154 8.08611E-03 4.58758E-04-1.20832E-14
 -1      2155 7.60159E-03 2.52827E-04-1.18115E-14
 -1      2156 7.72676E-03 2.93852E-04-1.18398E-14
 -1      2157 7.45000E-03 1.95684E-04-1.17935E-14
 -1      2158 7.50757E-03 2.18612E-04-1.18034E-14
 -1      2159 7.43658E-03 1.56399E-04-1.18335E-14
 -1      2160 7.42293E-03 1.70858E-04-1.17897E-14
 -1      2161 7.58472E-03 1.00039E-04-1.20483E-14
 -1      2162 7.50048E-03 1.27966E-04-1.19307E-14
 -1      2163 7.82646E-03 1.16315E-05-1.23130E-14
 -1      2164 7.69210E-03 5.97617E-05-1.21793E-14
 -1      2165 7.63489E-03 9.46966E-05-1.19284E-14
 -1      2166 8.18477E-03-1.48936E-04-1.27209E-14
 -1      2167 8.02077E-03-7.20343E-05-1.25351E-14
 -1      2168 8.53743E-03-3.20763E-04-1.31127E-14
 -1      2169 8.35880E-03-2.32078E-04-1.29151E-14
 -1      2170 8.28175E-03-1.71979E-04-1.26911E-14
 -1      2171 8.93599E-03-5.33736E-04-1.36938E-14
 -1      2172 8.77143E-03-4.44288E-04-1.34364E-14
 -1      2173 9.26186E-03-6.72110E-04-1.42111E-14
 -1      2174 9.10442E-03-6.09492E-04-1.39516E-14
 -1      2175 9.04064E-03-5.76153E-04-1.37848E-14
 -1      2176 9.59506E-03-7.33423E-04-1.48364E-14
 -1      2177 9.44530E-03-7.19587E-04-1.45425E-14
 -1      2178 9.94426E-03-6.63926E-04-1.54626E-14
 -1      2179 9.79297E-03-7.10202E-04-1.52039E-14
 -1      2180 1.02586E-02-5.17262E-04-1.59513E-14
 -1      2181 1.01000E-02-6.00888E-04-1.57056E-14
 -1      2182 1.00030E-02-6.37460E-04-1.56838E-14
 -1      2183 1.06655E-02-2.94493E-04-1.64427E-14
 -1      2184 1.04861E-02-3.94022E-04-1.62533E-14
 -1      2185 1.10248E-02-9.63592E-05-1.68152E-14
 -1      2186 1.08459E-02-1.96443E-04-1.66282E-14
 -1      2187 1.07284E-02-2.29103E-04-1.67182E-14
 -1      2188 1.14297E-02 8.87879E-05-1.71021E-14
 -1      2189 1.12600E-02 1.86990E-05-1.70094E-14
 -1      2190 1.17181E-02 1.91631E-04-1.72033E-14
 -1      2191 1.15912E-02 1.45620E-04-1.71452E-14
 -1      2192 1.19067E-02 2.62818E-04-1.72947E-14
 -1      2193 1.18330E-02 2.38796E-04-1.72848E-14
 -1      2194 1.04540E-02 1.03550E-03-1.52599E-14
 -1      2195 1.06284E-02 9.35495E-04-1.55398E-14
 -1      2196 1.11604E-02 6.32156E-04-1.64088E-14
 -1      2197 6.07589E-04-2.98109E-04-7.66802E-17
 -1      2198 1.03450E-02 1.08706E-03-1.51408E-14
 -1      2199 6.63344E-04-2.92391E-04-9.77408E-17
 -1      2200 1.18087E-02 3.63695E-04-1.71760E-14
 -1      2201 1.19562E-02 3.14121E-04-1.74127E-14
 -1      2202 1.45111E-02 2.05869E-04-3.27179E-14
 -1      2203 1.19378E-02 2.85050E-04-1.75128E-14
 -1      2204 1.07285E-02 8.68894E-04-1.58119E-14
 -1      2205 1.17777E-02 2.37306E-04-1.74668E-14
 -1      2206 1.11267E-02-1.82202E-05-1.70993E-14
 -1      2207 1.03491E-02-4.53156E-04-1.62286E-14
 -1      2208 9.35687E-03-7.04771E-04-1.43728E-14
 -1      2209 8.66972E-03-3.76956E-04-1.32061E-14
 -1      2210 8.56777E-03-3.14510E-04-1.29769E-14
 -1      2211 8.77772E-03-4.33587E-04-1.32977E-14
 -1      2212 7.92307E-03-1.08923E-05-1.22777E-14
 -1      2213 7.45867E-03 1.45299E-04-1.17027E-14
 -1      2214 7.42767E-03 1.74813E-04-1.16097E-14
 -1      2215 7.55134E-03 2.16342E-04-1.16197E-14
 -1      2216 8.22003E-03 4.89862E-04-1.19903E-14
 -1      2217 9.00807E-03 9.41677E-04-1.27166E-14
 -1      2218 9.12201E-03 1.00591E-03-1.27588E-14
 -1      2219 8.89987E-03 8.62724E-04-1.24499E-14
 -1      2220 9.39860E-03 1.16058E-03-1.33107E-14
 -1      2221 1.00165E-02 1.22323E-03-1.45148E-14
 -1      2222 9.70683E-03 1.25178E-03-1.39004E-14
 -1      2223 7.82325E-03 3.12120E-04-1.17425E-14
 -1      2224 9.68973E-03-7.32497E-04-1.50714E-14
 -1      2225 1.15046E-02 1.44111E-04-1.73406E-14
 -1      2226 1.01617E-03 3.99600E-04-4.80031E-17
 -1      2227 8.71766E-04 3.63310E-04-2.86500E-17
 -1      2228 5.48031E-04-5.53125E-05-8.26975E-17
 -1      2229 5.49043E-04-7.20338E-05-8.45136E-17
 -1      2230 5.50432E-04-8.93601E-05-8.61670E-17
 -1      2231 5.52267E-04-1.07340E-04-8.75358E-17
 -1      2232 6.65539E-04-9.54869E-05-1.15996E-16
 -1      2233 5.46681E-04 8.86037E-06-7.34140E-17
 -1      2234 5.46662E-04-6.98055E-06-7.59890E-17
 -1      2235 5.47418E-04 4.08787E-05-6.74645E-17
 -1      2236 5.46929E-04 2.48002E-05-7.05951E-17
 -1      2237 6.61671E-04 1.99298E-05-9.82558E-17
 -1      2238 5.49204E-04 7.35097E-05-6.06340E-17
 -1      2239 5.48164E-04 5.70126E-05-6.42119E-17
 -1      2240 6.62970E-04 5.77832E-05-9.03954E-17
 -1      2241 5.52531E-04 1.08991E-04-5.25296E-17
 -1      2242 5.50643E-04 9.09123E-05-5.68257E-17
 -1      2243 6.65777E-04 9.72532E-05-8.10848E-17
 -1      2244 5.58321E-04 1.48332E-04-4.24330E-17
 -1      2245 5.55050E-04 1.28105E-04-4.78133E-17
 -1      2246 6.70783E-04 1.40026E-04-7.01208E-17
 -1      2247 5.68533E-04 1.93927E-04-2.97613E-17
 -1      2248 5.62755E-04 1.70212E-04-3.64699E-17
 -1      2249 6.79316E-04 1.87569E-04-5.63785E-17
 -1      2250 1.30151E-03 4.56267E-04-1.02687E-16
 -1      2251 1.15925E-03 4.30478E-04-7.25602E-17
 -1      2252 1.07144E-03 3.81080E-04-7.51352E-17
 -1      2253 9.14891E-04-3.46240E-04-1.78744E-16
 -1      2254 1.05893E-03-3.79429E-04-2.32941E-16
 -1      2255 1.02474E-02 1.14222E-03-1.50035E-14
 -1      2256 1.04051E-02 1.05683E-03-1.53228E-14
 -1      2257 1.20217E-03-4.07687E-04-2.94781E-16
 -1      2258 1.34494E-03-4.31408E-04-3.64563E-16
 -1      2259 1.11671E-03-3.60132E-04-2.65372E-16
 -1      2260 1.48706E-03-4.51429E-04-4.41989E-16
 -1      2261 1.62881E-03-4.68024E-04-5.27573E-16
 -1      2262 1.40303E-03-4.06661E-04-4.04245E-16
 -1      2263 1.77021E-03-4.81861E-04-6.20828E-16
 -1      2264 1.91137E-03-4.93155E-04-7.22174E-16
 -1      2265 1.68811E-03-4.39411E-04-5.73611E-16
 -1      2266 2.05239E-03-5.02391E-04-8.31529E-16
 -1      2267 2.19331E-03-5.09740E-04-9.48690E-16
 -1      2268 1.97229E-03-4.61769E-04-7.74188E-16
 -1      2269 2.33424E-03-5.15551E-04-1.07362E-15
 -1      2270 2.47517E-03-5.19962E-04-1.20680E-15
 -1      2271 2.25596E-03-4.76329E-04-1.00611E-15
 -1      2272 2.61618E-03-5.23222E-04-1.34772E-15
 -1      2273 2.75728E-03-5.25440E-04-1.49606E-15
 -1      2274 2.53947E-03-4.85060E-04-1.26930E-15
 -1      2275 2.89852E-03-5.26793E-04-1.65146E-15
 -1      2276 3.03988E-03-5.27365E-04-1.81383E-15
 -1      2277 2.82307E-03-4.89436E-04-1.56206E-15
 -1      2278 3.18142E-03-5.27276E-04-1.98291E-15
 -1      2279 3.32312E-03-5.26591E-04-2.15863E-15
 -1      2280 3.10695E-03-4.90539E-04-1.88303E-15
 -1      2281 3.46502E-03-5.25390E-04-2.34090E-15
 -1      2282 3.60711E-03-5.23721E-04-2.53028E-15
 -1      2283 3.39124E-03-4.89143E-04-2.23108E-15
 -1      2284 3.74942E-03-5.21634E-04-2.72673E-15
 -1      2285 3.89195E-03-5.19167E-04-2.92919E-15
 -1      2286 3.67604E-03-4.85789E-04-2.60602E-15
 -1      2287 4.03472E-03-5.16352E-04-3.13867E-15
 -1      2288 4.17774E-03-5.13219E-04-3.35533E-15
 -1      2289 3.96144E-03-4.80845E-04-3.00897E-15
 -1      2290 4.32104E-03-5.09792E-04-3.57859E-15
 -1      2291 4.46463E-03-5.06102E-04-3.80825E-15
 -1      2292 4.24754E-03-4.74570E-04-3.43863E-15
 -1      2293 4.60853E-03-5.02171E-04-4.04435E-15
 -1      2294 4.75278E-03-4.98037E-04-4.28805E-15
 -1      2295 4.53445E-03-4.67170E-04-3.89615E-15
 -1      2296 4.89739E-03-4.93735E-04-4.53907E-15
 -1      2297 5.04243E-03-4.89317E-04-4.79606E-15
 -1      2298 4.82233E-03-4.58862E-04-4.38081E-15
 -1      2299 5.18788E-03-4.84842E-04-5.06047E-15
 -1      2300 5.33385E-03-4.80383E-04-5.33255E-15
 -1      2301 5.11137E-03-4.49946E-04-4.89389E-15
 -1      2302 5.48031E-03-4.76041E-04-5.61136E-15
 -1      2303 5.62738E-03-4.71920E-04-5.89699E-15
 -1      2304 5.40183E-03-4.40883E-04-5.43599E-15
 -1      2305 5.77506E-03-4.68178E-04-6.19035E-15
 -1      2306 5.92345E-03-4.64965E-04-6.49021E-15
 -1      2307 5.69403E-03-4.32390E-04-6.00702E-15
 -1      2308 6.07257E-03-4.62506E-04-6.79610E-15
 -1      2309 6.22253E-03-4.61012E-04-7.11096E-15
 -1      2310 5.98843E-03-4.25547E-04-6.60583E-15
 -1      2311 6.37338E-03-4.60784E-04-7.43433E-15
 -1      2312 6.52518E-03-4.62108E-04-7.76420E-15
 -1      2313 6.28559E-03-4.21897E-04-7.23491E-15
 -1      2314 6.67806E-03-4.65355E-04-8.10249E-15
 -1      2315 6.83201E-03-4.70888E-04-8.44905E-15
 -1      2316 6.58625E-03-4.23551E-04-7.89482E-15
 -1      2317 6.98722E-03-4.79120E-04-8.80357E-15
 -1      2318 7.14357E-03-4.90476E-04-9.16639E-15
 -1      2319 6.89133E-03-4.33217E-04-8.58586E-15
 -1      2320 7.30135E-03-5.05333E-04-9.53824E-15
 -1      2321 7.46022E-03-5.24113E-04-9.91733E-15
 -1      2322 7.20187E-03-4.54124E-04-9.30972E-15
 -1      2323 7.62057E-03-5.47025E-04-1.03034E-14
 -1      2324 7.78176E-03-5.74338E-04-1.06990E-14
 -1      2325 7.51880E-03-4.89673E-04-1.00649E-14
 -1      2326 7.94419E-03-6.05908E-04-1.10998E-14
 -1      2327 8.10688E-03-6.41540E-04-1.15074E-14
 -1      2328 7.84240E-03-5.42616E-04-1.08500E-14
 -1      2329 8.27007E-03-6.80504E-04-1.19237E-14
 -1      2330 8.43261E-03-7.21759E-04-1.23456E-14
 -1      2331 8.17146E-03-6.13453E-04-1.16644E-14
 -1      2332 8.59444E-03-7.63821E-04-1.27742E-14
 -1      2333 8.75463E-03-8.04526E-04-1.32096E-14
 -1      2334 8.50238E-03-6.97784E-04-1.25077E-14
 -1      2335 8.91279E-03-8.41753E-04-1.36488E-14
 -1      2336 9.06891E-03-8.72472E-04-1.40916E-14
 -1      2337 8.82959E-03-7.83526E-04-1.33731E-14
 -1      2338 9.22243E-03-8.94523E-04-1.45379E-14
 -1      2339 9.37475E-03-9.05325E-04-1.49928E-14
 -1      2340 9.14804E-03-8.50242E-04-1.42575E-14
 -1      2341 9.52531E-03-9.03549E-04-1.54511E-14
 -1      2342 9.67648E-03-8.88415E-04-1.59128E-14
 -1      2343 9.45754E-03-8.75202E-04-1.51618E-14
 -1      2344 9.82774E-03-8.60242E-04-1.63816E-14
 -1      2345 9.98124E-03-8.20636E-04-1.68544E-14
 -1      2346 9.76427E-03-8.44110E-04-1.60887E-14
 -1      2347 1.01364E-02-7.71340E-04-1.73324E-14
 -1      2348 1.02941E-02-7.15283E-04-1.78156E-14
 -1      2349 1.00766E-02-7.60459E-04-1.70347E-14
 -1      2350 1.04537E-02-6.54717E-04-1.83039E-14
 -1      2351 1.06150E-02-5.92449E-04-1.87990E-14
 -1      2352 1.03986E-02-6.43107E-04-1.80019E-14
 -1      2353 1.07775E-02-5.30399E-04-1.92987E-14
 -1      2354 1.09401E-02-4.70301E-04-1.98031E-14
 -1      2355 1.07278E-02-5.15116E-04-1.89892E-14
 -1      2356 1.11031E-02-4.13342E-04-2.03131E-14
 -1      2357 1.12652E-02-3.60209E-04-2.08280E-14
 -1      2358 1.10584E-02-3.94018E-04-1.99992E-14
 -1      2359 1.14268E-02-3.11384E-04-2.13472E-14
 -1      2360 1.15869E-02-2.66836E-04-2.18718E-14
 -1      2361 1.13854E-02-2.88769E-04-2.10274E-14
 -1      2362 1.17461E-02-2.26548E-04-2.24027E-14
 -1      2363 1.19037E-02-1.90158E-04-2.29369E-14
 -1      2364 1.17063E-02-2.01572E-04-2.20766E-14
 -1      2365 1.20602E-02-1.57361E-04-2.34776E-14
 -1      2366 1.22153E-02-1.27707E-04-2.40204E-14
 -1      2367 1.20204E-02-1.30779E-04-2.31483E-14
 -1      2368 1.23692E-02-1.00774E-04-2.45658E-14
 -1      2369 1.25219E-02-7.61356E-05-2.51171E-14
 -1      2370 1.23282E-02-7.31530E-05-2.42350E-14
 -1      2371 1.26735E-02-5.33596E-05-2.56715E-14
 -1      2372 1.28240E-02-3.20888E-05-2.62272E-14
 -1      2373 1.26310E-02-2.51461E-05-2.53352E-14
 -1      2374 1.29736E-02-1.19335E-05-2.67840E-14
 -1      2375 1.31224E-02 7.39201E-06-2.73439E-14
 -1      2376 1.29295E-02 1.64977E-05-2.64436E-14
 -1      2377 1.32703E-02 2.62125E-05-2.79051E-14
 -1      2378 1.34175E-02 4.47552E-05-2.84661E-14
 -1      2379 1.32247E-02 5.45281E-05-2.75583E-14
 -1      2380 1.35639E-02 6.32775E-05-2.90282E-14
 -1      2381 1.37098E-02 8.19642E-05-2.95931E-14
 -1      2382 1.35172E-02 9.11713E-05-2.86795E-14
 -1      2383 1.38551E-02 1.01010E-04-3.01625E-14
 -1      2384 1.39998E-02 1.20570E-04-3.07297E-14
 -1      2385 1.38076E-02 1.28196E-04-2.98073E-14
 -1      2386 1.86447E-03 5.23751E-04-2.82272E-16
 -1      2387 1.72429E-03 5.11330E-04-2.28279E-16
 -1      2388 2.14450E-03 5.42186E-04-4.09097E-16
 -1      2389 2.00453E-03 5.33977E-04-3.42594E-16
 -1      2390 1.92403E-03 4.92972E-04-3.39870E-16
 -1      2391 2.42457E-03 5.53826E-04-5.61522E-16
 -1      2392 2.28451E-03 5.48753E-04-4.81914E-16
 -1      2393 2.20613E-03 5.09321E-04-4.77279E-16
 -1      2394 2.70510E-03 5.60401E-04-7.40185E-16
 -1      2395 2.56477E-03 5.57669E-04-6.47729E-16
 -1      2396 2.48814E-03 5.19399E-04-6.40181E-16
 -1      2397 2.98635E-03 5.63176E-04-9.46956E-16
 -1      2398 2.84563E-03 5.62205E-04-8.39769E-16
 -1      2399 2.77040E-03 5.24795E-04-8.29537E-16
 -1      2400 3.26848E-03 5.63060E-04-1.18174E-15
 -1      2401 3.12731E-03 5.63436E-04-1.06104E-15
 -1      2402 3.05314E-03 5.26669E-04-1.04723E-15
 -1      2403 3.55161E-03 5.60684E-04-1.44478E-15
 -1      2404 3.40992E-03 5.62123E-04-1.30953E-15
 -1      2405 3.33651E-03 5.25850E-04-1.29297E-15
 -1      2406 3.83582E-03 5.56473E-04-1.73860E-15
 -1      2407 3.69357E-03 5.58786E-04-1.58739E-15
 -1      2408 3.62061E-03 5.22907E-04-1.56681E-15
 -1      2409 4.12126E-03 5.50699E-04-2.06485E-15
 -1      2410 3.97838E-03 5.53765E-04-1.89750E-15
 -1      2411 3.90557E-03 5.18218E-04-1.87186E-15
 -1      2412 4.40808E-03 5.43542E-04-2.42733E-15
 -1      2413 4.26448E-03 5.47280E-04-2.24178E-15
 -1      2414 4.19147E-03 5.12020E-04-2.21111E-15
 -1      2415 4.69651E-03 5.35144E-04-2.82650E-15
 -1      2416 4.55207E-03 5.39483E-04-2.62220E-15
 -1      2417 4.47849E-03 5.04472E-04-2.58626E-15
 -1      2418 4.98685E-03 5.25676E-04-3.26316E-15
 -1      2419 4.84140E-03 5.30524E-04-3.04005E-15
 -1      2420 4.76678E-03 4.95709E-04-2.99795E-15
 -1      2421 5.27950E-03 5.15421E-04-3.73398E-15
 -1      2422 5.13284E-03 5.20617E-04-3.49464E-15
 -1      2423 5.05660E-03 4.85910E-04-3.44436E-15
 -1      2424 5.57493E-03 5.04880E-04-4.24231E-15
 -1      2425 5.42680E-03 5.10139E-04-3.98234E-15
 -1      2426 5.34825E-03 4.75387E-04-3.92668E-15
 -1      2427 5.87376E-03 4.94916E-04-4.78742E-15
 -1      2428 5.72385E-03 4.99752E-04-4.51134E-15
 -1      2429 5.64208E-03 4.64688E-04-4.44507E-15
 -1      2430 6.17667E-03 4.86953E-04-5.36788E-15
 -1      2431 6.02462E-03 4.90572E-04-5.07282E-15
 -1      2432 5.93855E-03 4.54754E-04-5.00096E-15
 -1      2433 6.48448E-03 4.83233E-04-5.97990E-15
 -1      2434 6.32987E-03 4.84393E-04-5.67058E-15
 -1      2435 6.23824E-03 4.47110E-04-5.59114E-15
 -1      2436 6.79816E-03 4.87133E-04-6.62427E-15
 -1      2437 6.64050E-03 4.83982E-04-6.29805E-15
 -1      2438 6.54188E-03 4.44123E-04-6.21325E-15
 -1      2439 7.11881E-03 5.03502E-04-7.29756E-15
 -1      2440 6.95754E-03 4.93408E-04-6.95577E-15
 -1      2441 6.85052E-03 4.49308E-04-6.86444E-15
 -1      2442 7.44776E-03 5.38864E-04-8.00199E-15
 -1      2443 7.28224E-03 5.18340E-04-7.64548E-15
 -1      2444 7.16569E-03 4.67655E-04-7.54565E-15
 -1      2445 7.78635E-03 6.01155E-04-8.73921E-15
 -1      2446 7.61596E-03 5.66087E-04-8.36673E-15
 -1      2447 7.48957E-03 5.05850E-04-8.25975E-15
 -1      2448 8.13544E-03 6.98292E-04-9.50979E-15
 -1      2449 7.95992E-03 6.44861E-04-9.12081E-15
 -1      2450 7.82498E-03 5.72088E-04-9.00635E-15
 -1      2451 8.49392E-03 8.34539E-04-1.03118E-14
 -1      2452 8.31421E-03 7.61469E-04-9.90653E-15
 -1      2453 8.17455E-03 6.74830E-04-9.78369E-15
 -1      2454 8.85639E-03 1.00346E-03-1.11489E-14
 -1      2455 8.67571E-03 9.16030E-04-1.07261E-14
 -1      2456 8.53824E-03 8.19022E-04-1.05936E-14
 -1      2457 9.21258E-03 1.17900E-03-1.20147E-14
 -1      2458 9.03611E-03 1.09317E-03-1.15778E-14
 -1      2459 8.90939E-03 9.97362E-04-1.14371E-14
 -1      2460 9.55374E-03 1.31473E-03-1.29063E-14
 -1      2461 9.38453E-03 1.25543E-03-1.24570E-14
 -1      2462 9.27405E-03 1.17848E-03-1.23092E-14
 -1      2463 9.88327E-03 1.36361E-03-1.38241E-14
 -1      2464 9.71806E-03 1.35210E-03-1.33616E-14
 -1      2465 9.62208E-03 1.30597E-03-1.32083E-14
 -1      2466 1.02162E-02 1.31245E-03-1.47606E-14
 -1      2467 1.00473E-02 1.34909E-03-1.42902E-14
 -1      2468 9.96067E-03 1.32916E-03-1.41298E-14
 -1      2469 1.05641E-02 1.19367E-03-1.57194E-14
 -1      2470 1.03879E-02 1.25806E-03-1.52384E-14
 -1      2471 1.03081E-02 1.24699E-03-1.50734E-14
 -1      2472 1.09241E-02 1.05794E-03-1.67040E-14
 -1      2473 1.07435E-02 1.12488E-03-1.62080E-14
 -1      2474 1.06723E-02 1.10878E-03-1.60371E-14
 -1      2475 1.12853E-02 9.43829E-04-1.77103E-14
 -1      2476 1.11057E-02 9.96839E-04-1.72035E-14
 -1      2477 1.10433E-02 9.71278E-04-1.70241E-14
 -1      2478 1.16396E-02 8.67154E-04-1.87401E-14
 -1      2479 1.14640E-02 9.00613E-04-1.82214E-14
 -1      2480 1.14072E-02 8.67115E-04-1.80349E-14
 -1      2481 1.19834E-02 8.28460E-04-1.97874E-14
 -1      2482 1.18131E-02 8.43454E-04-1.92630E-14
 -1      2483 1.17571E-02 8.04228E-04-1.90671E-14
 -1      2484 1.23168E-02 8.21017E-04-2.08484E-14
 -1      2485 1.21515E-02 8.21362E-04-2.03173E-14
 -1      2486 1.20926E-02 7.78163E-04-2.01160E-14
 -1      2487 1.26410E-02 8.36494E-04-2.19147E-14
 -1      2488 1.24800E-02 8.26371E-04-2.13807E-14
 -1      2489 1.24163E-02 7.80369E-04-2.11785E-14
 -1      2490 1.29572E-02 8.67412E-04-2.29777E-14
 -1      2491 1.28000E-02 8.50406E-04-2.24479E-14
 -1      2492 1.27311E-02 8.02495E-04-2.22452E-14
 -1      2493 1.32668E-02 9.07855E-04-2.40351E-14
 -1      2494 1.31128E-02 8.86730E-04-2.35061E-14
 -1      2495 1.30392E-02 8.37659E-04-2.33080E-14
 -1      2496 1.35708E-02 9.53452E-04-2.50830E-14
 -1      2497 1.34194E-02 9.30218E-04-2.45615E-14
 -1      2498 1.33420E-02 8.80617E-04-2.43666E-14
 -1      2499 1.38701E-02 1.00107E-03-2.61345E-14
 -1      2500 1.37209E-02 9.77159E-04-2.56072E-14
 -1      2501 1.36407E-02 9.27541E-04-2.54205E-14
 -1      2502 1.41654E-02 1.04846E-03-2.71855E-14
 -1      2503 1.40181E-02 1.02491E-03-2.66593E-14
 -1      2504 1.39359E-02 9.75693E-04-2.64754E-14
 -1      2505 1.44574E-02 1.09401E-03-2.82426E-14
 -1      2506 1.43117E-02 1.07156E-03-2.77114E-14
 -1      2507 1.42284E-02 1.02308E-03-2.75320E-14
 -1      2508 1.47469E-02 1.13654E-03-2.92970E-14
 -1      2509 1.46024E-02 1.11573E-03-2.87726E-14
 -1      2510 1.45184E-02 1.06827E-03-2.85929E-14
 -1      2511 1.48959E-02 1.15809E-03-2.98390E-14
 -1      2512 1.47172E-02 8.38169E-04-3.03772E-14
 -1      2513 1.47302E-02 8.75264E-04-3.02796E-14
 -1      2514 1.46884E-02 7.65295E-04-3.05755E-14
 -1      2515 1.47033E-02 8.01561E-04-3.04781E-14
 -1      2516 1.45890E-02 8.02033E-04-2.99474E-14
 -1      2517 1.47658E-02 9.88582E-04-2.99669E-14
 -1      2518 1.47778E-02 1.02802E-03-2.98598E-14
 -1      2519 1.47424E-02 9.12553E-04-3.01761E-14
 -1      2520 1.47541E-02 9.50104E-04-3.00704E-14
 -1      2521 1.46371E-02 9.51490E-04-2.95483E-14
 -1      2522 1.46142E-02 8.75785E-04-2.97500E-14
 -1      2523 1.46545E-02 6.93551E-04-3.07625E-14
 -1      2524 1.46721E-02 7.29353E-04-3.06701E-14
 -1      2525 1.45595E-02 7.29658E-04-3.01377E-14
 -1      2526 1.46149E-02 6.22133E-04-3.09410E-14
 -1      2527 1.46354E-02 6.57876E-04-3.08529E-14
 -1      2528 1.45244E-02 6.58197E-04-3.03202E-14
 -1      2529 1.45695E-02 5.50230E-04-3.11076E-14
 -1      2530 1.45929E-02 5.86312E-04-3.10242E-14
 -1      2531 1.44832E-02 5.86804E-04-3.04915E-14
 -1      2532 1.45200E-02 4.78374E-04-3.12676E-14
 -1      2533 1.45453E-02 5.14502E-04-3.11898E-14
 -1      2534 1.44365E-02 5.15282E-04-3.06538E-14
 -1      2535 1.44660E-02 4.03533E-04-3.14261E-14
 -1      2536 1.44934E-02 4.41211E-04-3.13473E-14
 -1      2537 1.43850E-02 4.42354E-04-3.08122E-14
 -1      2538 1.44100E-02 3.26570E-04-3.15860E-14
 -1      2539 1.44381E-02 3.65333E-04-3.15057E-14
 -1      2540 1.43296E-02 3.66876E-04-3.09713E-14
 -1      2541 1.43539E-02 2.47334E-04-3.17461E-14
 -1      2542 1.43818E-02 2.87231E-04-3.16639E-14
 -1      2543 1.42727E-02 2.89158E-04-3.11301E-14
 -1      2544 1.19519E-02 3.19955E-04-1.76661E-14
 -1      2545 1.19797E-02 3.11002E-04-1.77305E-14
 -1      2546 1.17536E-02 3.76287E-04-1.73393E-14
 -1      2547 1.18655E-02 3.45571E-04-1.75136E-14
 -1      2548 1.19673E-02 2.98872E-04-1.77414E-14
 -1      2549 1.19243E-02 2.90025E-04-1.77784E-14
 -1      2550 1.58382E-03 4.96176E-04-1.80343E-16
 -1      2551 1.44294E-03 4.78080E-04-1.38317E-16
 -1      2552 1.64134E-03 4.68210E-04-2.27411E-16
 -1      2553 1.43839E-02 1.87462E-04-3.21994E-14
 -1      2554 1.14721E-02 4.80439E-04-1.69697E-14
 -1      2555 1.16126E-02 4.26021E-04-1.71472E-14
 -1      2556 5.88344E-04-2.37992E-04-8.69259E-17
 -1      2557 7.81072E-04-3.04769E-04-1.36786E-16
 -1      2558 8.40592E-04-2.93511E-04-1.61926E-16
 -1      2559 5.78879E-04-2.10210E-04-8.88910E-17
 -1      2560 1.06157E-02 9.37207E-04-1.57292E-14
 -1      2561 1.08155E-02 8.18851E-04-1.60818E-14
 -1      2562 9.41202E-03-7.28882E-04-1.45057E-14
 -1      2563 9.26565E-03-6.81678E-04-1.41749E-14
 -1      2564 7.47842E-03 1.37753E-04-1.15320E-14
 -1      2565 7.41966E-03 1.50250E-04-1.14368E-14
 -1      2566 5.46871E-04-2.29043E-05-7.83743E-17
 -1      2567 5.47318E-04-3.89495E-05-8.06511E-17
 -1      2568 6.62826E-04-5.58088E-05-1.11144E-16
 -1      2569 6.61621E-04-1.77007E-05-1.05222E-16
 -1      2570 9.65553E-03 1.25198E-03-1.37277E-14
 -1      2571 9.79292E-03 1.26639E-03-1.40347E-14
 -1      2572 7.74637E-03 2.64091E-04-1.14652E-14
 -1      2573 7.92513E-03 3.31472E-04-1.15799E-14
 -1      2574 9.95642E-03 1.24874E-03-1.43846E-14
 -1      2575 1.00977E-02 1.20496E-03-1.46927E-14
 -1      2576 1.01791E-02 1.18226E-03-1.48726E-14
 -1      2577 9.33810E-03 1.12933E-03-1.30853E-14
 -1      2578 9.48421E-03 1.20047E-03-1.33678E-14
 -1      2579 8.50998E-03 6.20250E-04-1.19500E-14
 -1      2580 8.66603E-03 7.14531E-04-1.20912E-14
 -1      2581 9.76707E-03-7.23983E-04-1.53231E-14
 -1      2582 9.60788E-03-7.47457E-04-1.49560E-14
 -1      2583 8.13616E-03 4.24723E-04-1.16963E-14
 -1      2584 8.32521E-03 5.19410E-04-1.18230E-14
 -1      2585 8.39380E-03 5.56255E-04-1.16530E-14
 -1      2586 7.49954E-03 1.91299E-04-1.14064E-14
 -1      2587 7.58603E-03 2.12109E-04-1.14115E-14
 -1      2588 7.40789E-03 1.64337E-04-1.14011E-14
 -1      2589 7.43723E-03 1.73306E-04-1.14041E-14
 -1      2590 7.45129E-03 1.74309E-04-1.11965E-14
 -1      2591 7.68339E-03 8.24815E-05-1.18183E-14
 -1      2592 7.58305E-03 1.10017E-04-1.16898E-14
 -1      2593 8.01722E-03-4.18656E-05-1.22205E-14
 -1      2594 7.83876E-03 2.81658E-05-1.20019E-14
 -1      2595 8.35494E-03-2.02020E-04-1.26467E-14
 -1      2596 8.20136E-03-1.25195E-04-1.24551E-14
 -1      2597 9.10576E-03-6.12807E-04-1.38531E-14
 -1      2598 8.96905E-03-5.39124E-04-1.35966E-14
 -1      2599 1.15942E-02 1.92963E-04-1.76037E-14
 -1      2600 1.14503E-02 1.42782E-04-1.75590E-14
 -1      2601 1.00640E-02-6.04820E-04-1.59208E-14
 -1      2602 9.93880E-03-6.66614E-04-1.56777E-14
 -1      2603 1.04339E-02-3.88654E-04-1.65449E-14
 -1      2604 1.02414E-02-5.07381E-04-1.62417E-14
 -1      2605 1.07984E-02-1.71831E-04-1.70162E-14
 -1      2606 1.06415E-02-2.64740E-04-1.68297E-14
 -1      2607 1.12250E-02 4.74359E-05-1.74180E-14
 -1      2608 1.10109E-02-5.75896E-05-1.72203E-14
 -1      2609 1.18350E-02 2.66869E-04-1.77729E-14
 -1      2610 1.17255E-02 2.36787E-04-1.76900E-14
 -1      2611 1.16808E-02 2.28384E-04-1.79090E-14
 -1      2612 7.57562E-04 3.34160E-04-1.50569E-17
 -1      2613 6.11212E-04 2.84852E-04-4.64852E-18
 -1      2614 5.84540E-04 2.58098E-04-9.73071E-18
 -1      2615 8.13445E-04 3.22814E-04-3.36374E-17
 -1      2616 1.10719E-02 6.74550E-04-1.64789E-14
 -1      2617 1.12753E-02 5.69119E-04-1.67245E-14
 -1      2618 1.13847E-02 5.28258E-04-1.70416E-14
 -1      2619 9.88832E-03 1.26648E-03-1.42097E-14
 -1      2620 6.70400E-04-1.37949E-04-1.19222E-16
 -1      2621 5.54716E-04-1.26239E-04-8.83083E-17
 -1      2622 5.57823E-04-1.46227E-04-8.87962E-17
 -1      2623 1.35738E-03 4.32180E-04-1.39876E-16
 -1      2624 5.72111E-04 2.27916E-04-1.86212E-17
 -1      2625 1.09526E-02 7.48802E-04-1.63934E-14
 -1      2626 1.10872E-02 6.91542E-04-1.67098E-14
 -1      2627 1.08567E-02 8.23646E-04-1.63097E-14
 -1      2628 1.09226E-02-1.02275E-04-1.73322E-14
 -1      2629 1.05267E-02-3.33293E-04-1.68415E-14
 -1      2630 1.05163E-02 1.00733E-03-1.55899E-14
 -1      2631 1.01669E-02-5.50059E-04-1.62340E-14
 -1      2632 1.17047E-02 4.00423E-04-1.74825E-14
 -1      2633 9.17656E-03-6.53752E-04-1.39832E-14
 -1      2634 1.48117E-02 1.11189E-03-2.96688E-14
 -1      2635 1.47854E-02 1.07760E-03-2.96930E-14
 -1      2636 8.46317E-03-2.64713E-04-1.27370E-14
 -1      2637 1.19914E-02 3.10961E-04-1.79953E-14
 -1      2638 1.19286E-02 3.35095E-04-1.78311E-14
 -1      2639 8.08475E-03-8.02169E-05-1.21755E-14
 -1      2640 1.18954E-02 2.85713E-04-1.80013E-14
 -1      2641 6.89405E-04 2.51231E-04-3.49926E-17
 -1      2642 5.71811E-04-1.85242E-04-8.99752E-17
 -1      2643 7.39466E-03 1.52105E-04-1.12302E-14
 -1      2644 8.02013E-03 3.68360E-04-1.14146E-14
 -1      2645 1.13417E-02 1.04466E-04-1.76802E-14
 -1      2646 1.12459E-02 5.95172E-05-1.78022E-14
 -1      2647 1.14510E-02 1.47705E-04-1.79443E-14
 -1      2648 9.50479E-03-7.47266E-04-1.47529E-14
 -1      2649 9.84047E-03-7.04344E-04-1.55579E-14
 -1      2650 7.66069E-03 2.31908E-04-1.12493E-14
 -1      2651 8.85649E-03-4.83536E-04-1.33644E-14
 -1      2652 7.50640E-03 1.22878E-04-1.14220E-14
 -1      2653 8.78411E-03 7.90847E-04-1.21318E-14
 -1      2654 9.11357E-03 1.00183E-03-1.25452E-14
 -1      2655 9.22525E-03 1.06841E-03-1.28135E-14
 -1      2656 9.30754E-03 1.12095E-03-1.28683E-14
 -1      2657 9.57850E-03 1.23624E-03-1.34987E-14
 -1      2658 7.75906E-03 4.89675E-05-1.17610E-14
 -1      2659 1.42248E-02 1.50233E-04-3.16314E-14
 -1      2660 1.43050E-02 2.08789E-04-3.17126E-14
 -1      2661 1.41948E-02 2.11164E-04-3.11755E-14
 -1      2662 1.40969E-02 1.33327E-04-3.11164E-14
 -1      2663 1.46550E-02 1.03948E-03-2.92850E-14
 -1      2664 1.40489E-02 1.59727E-04-3.07584E-14
 -1      2665 7.80546E-04 7.73067E-05-1.16633E-16
 -1      2666 7.79309E-04 5.54504E-05-1.22027E-16
 -1      2667 7.78477E-04 3.35452E-05-1.27001E-16
 -1      2668 7.78062E-04 1.18908E-05-1.31649E-16
 -1      2669 8.96936E-04 4.96393E-05-1.59161E-16
 -1      2670 7.91703E-04 1.73090E-04-9.00023E-17
 -1      2671 7.87757E-04 1.47678E-04-9.77002E-17
 -1      2672 8.03414E-04 2.28280E-04-7.23027E-17
 -1      2673 7.96873E-04 1.99894E-04-8.17759E-17
 -1      2674 9.14993E-04 2.07722E-04-1.12242E-16
 -1      2675 1.12957E-03 3.61669E-04-1.04775E-16
 -1      2676 9.85998E-04 3.32719E-04-7.58264E-17
 -1      2677 6.88573E-04-2.04017E-04-1.22203E-16
 -1      2678 1.41577E-03 4.07234E-04-1.79286E-16
 -1      2679 1.27274E-03 3.86387E-04-1.39103E-16
 -1      2680 1.18954E-03 3.41159E-04-1.36623E-16
 -1      2681 1.02461E-02-5.08342E-04-1.65271E-14
 -1      2682 1.00892E-02-5.98687E-04-1.62050E-14
 -1      2683 1.31999E-03-3.62312E-04-3.67517E-16
 -1      2684 1.46320E-03-3.81090E-04-4.43940E-16
 -1      2685 1.60624E-03-3.96916E-04-5.28020E-16
 -1      2686 1.74917E-03-4.10040E-04-6.19608E-16
 -1      2687 1.52494E-03-3.54666E-04-4.83812E-16
 -1      2688 1.89196E-03-4.20910E-04-7.18962E-16
 -1      2689 2.03462E-03-4.29709E-04-8.25932E-16
 -1      2690 1.81165E-03-3.80005E-04-6.65416E-16
 -1      2691 2.17719E-03-4.36803E-04-9.40911E-16
 -1      2692 2.31969E-03-4.42336E-04-1.06309E-15
 -1      2693 2.09815E-03-3.97092E-04-8.77228E-16
 -1      2694 2.46214E-03-4.46587E-04-1.19293E-15
 -1      2695 2.60456E-03-4.49671E-04-1.33051E-15
 -1      2696 2.38437E-03-4.07874E-04-1.11917E-15
 -1      2697 2.74699E-03-4.51792E-04-1.47512E-15
 -1      2698 2.88941E-03-4.53039E-04-1.62676E-15
 -1      2699 2.67038E-03-4.13900E-04-1.39039E-15
 -1      2700 3.03187E-03-4.53557E-04-1.78556E-15
 -1      2701 3.17435E-03-4.53413E-04-1.95086E-15
 -1      2702 2.95626E-03-4.16346E-04-1.68997E-15
 -1      2703 3.31690E-03-4.52706E-04-2.12319E-15
 -1      2704 3.45949E-03-4.51485E-04-2.30202E-15
 -1      2705 3.24206E-03-4.16075E-04-2.01748E-15
 -1      2706 3.60216E-03-4.49818E-04-2.48809E-15
 -1      2707 3.74491E-03-4.47736E-04-2.68115E-15
 -1      2708 3.52786E-03-4.13701E-04-2.37237E-15
 -1      2709 3.88774E-03-4.45286E-04-2.88073E-15
 -1      2710 4.03067E-03-4.42491E-04-3.08750E-15
 -1      2711 3.81371E-03-4.09642E-04-2.75424E-15
 -1      2712 4.17371E-03-4.39382E-04-3.30084E-15
 -1      2713 4.31686E-03-4.35978E-04-3.52173E-15
 -1      2714 4.09964E-03-4.04181E-04-3.16492E-15
 -1      2715 4.46014E-03-4.32306E-04-3.74894E-15
 -1      2716 4.60357E-03-4.28387E-04-3.98293E-15
 -1      2717 4.38572E-03-3.97518E-04-3.60337E-15
 -1      2718 4.74715E-03-4.24251E-04-4.22535E-15
 -1      2719 4.89092E-03-4.19928E-04-4.47377E-15
 -1      2720 4.67199E-03-3.89825E-04-4.07091E-15
 -1      2721 5.03488E-03-4.15465E-04-4.72880E-15
 -1      2722 5.17908E-03-4.10904E-04-4.99172E-15
 -1      2723 4.95857E-03-3.81305E-04-4.56494E-15
 -1      2724 5.32352E-03-4.06322E-04-5.26207E-15
 -1      2725 5.46828E-03-4.01788E-04-5.53893E-15
 -1      2726 5.24557E-03-3.72255E-04-5.08930E-15
 -1      2727 5.61336E-03-3.97415E-04-5.82427E-15
 -1      2728 5.75886E-03-3.93312E-04-6.11684E-15
 -1      2729 5.53322E-03-3.63147E-04-5.64304E-15
 -1      2730 5.90480E-03-3.89643E-04-6.41598E-15
 -1      2731 6.05129E-03-3.86572E-04-6.72262E-15
 -1      2732 5.82187E-03-3.54709E-04-6.22694E-15
 -1      2733 6.19841E-03-3.84320E-04-7.03609E-15
 -1      2734 6.34628E-03-3.83132E-04-7.35952E-15
 -1      2735 6.11207E-03-3.48026E-04-6.84031E-15
 -1      2736 6.49503E-03-3.83283E-04-7.68870E-15
 -1      2737 6.64479E-03-3.85123E-04-8.02503E-15
 -1      2738 6.40466E-03-3.44644E-04-7.48297E-15
 -1      2739 6.79580E-03-3.88971E-04-8.37188E-15
 -1      2740 6.94815E-03-3.95305E-04-8.72321E-15
 -1      2741 6.70090E-03-3.46682E-04-8.15685E-15
 -1      2742 7.10219E-03-4.04452E-04-9.08357E-15
 -1      2743 7.25793E-03-4.17026E-04-9.45178E-15
 -1      2744 7.00256E-03-3.56935E-04-8.86048E-15
 -1      2745 7.41585E-03-4.33303E-04-9.82882E-15
 -1      2746 7.57571E-03-4.53957E-04-1.02125E-14
 -1      2747 7.31185E-03-3.78932E-04-9.59415E-15
 -1      2748 7.73808E-03-4.79099E-04-1.06032E-14
 -1      2749 7.90233E-03-5.09276E-04-1.10018E-14
 -1      2750 7.63106E-03-4.16788E-04-1.03582E-14
 -1      2751 8.06894E-03-5.44297E-04-1.14076E-14
 -1      2752 8.23666E-03-5.84002E-04-1.18208E-14
 -1      2753 7.96162E-03-4.74483E-04-1.11531E-14
 -1      2754 8.40561E-03-6.27575E-04-1.22412E-14
 -1      2755 8.57418E-03-6.73445E-04-1.26678E-14
 -1      2756 8.30229E-03-5.53983E-04-1.19766E-14
 -1      2757 8.74196E-03-7.20032E-04-1.30993E-14
 -1      2758 8.90753E-03-7.63612E-04-1.35354E-14
 -1      2759 8.64724E-03-6.50231E-04-1.28261E-14
 -1      2760 9.07016E-03-8.01776E-04-1.39769E-14
 -1      2761 9.23028E-03-8.29859E-04-1.44227E-14
 -1      2762 8.98682E-03-7.46455E-04-1.36964E-14
 -1      2763 9.38699E-03-8.45533E-04-1.48751E-14
 -1      2764 9.54306E-03-8.45529E-04-1.53327E-14
 -1      2765 9.31345E-03-8.11277E-04-1.45880E-14
 -1      2766 9.69792E-03-8.29214E-04-1.57963E-14
 -1      2767 9.85497E-03-7.97352E-04-1.62645E-14
 -1      2768 9.63033E-03-8.13987E-04-1.55031E-14
 -1      2769 1.00136E-02-7.51335E-04-1.67373E-14
 -1      2770 1.01758E-02-6.95454E-04-1.72164E-14
 -1      2771 9.94962E-03-7.44710E-04-1.64402E-14
 -1      2772 1.03407E-02-6.32006E-04-1.76995E-14
 -1      2773 1.05078E-02-5.65808E-04-1.81873E-14
 -1      2774 1.02814E-02-6.23256E-04-1.73971E-14
 -1      2775 1.06765E-02-4.99009E-04-1.86822E-14
 -1      2776 1.08451E-02-4.34327E-04-1.91820E-14
 -1      2777 1.06242E-02-4.83307E-04-1.83748E-14
 -1      2778 1.10135E-02-3.73109E-04-1.96864E-14
 -1      2779 1.11801E-02-3.16346E-04-2.01956E-14
 -1      2780 1.09685E-02-3.51187E-04-1.93743E-14
 -1      2781 1.13452E-02-2.64578E-04-2.07114E-14
 -1      2782 1.15077E-02-2.17587E-04-2.12294E-14
 -1      2783 1.13059E-02-2.38828E-04-2.03939E-14
 -1      2784 1.16683E-02-1.75452E-04-2.17530E-14
 -1      2785 1.18265E-02-1.37513E-04-2.22847E-14
 -1      2786 1.16322E-02-1.47973E-04-2.14325E-14
 -1      2787 1.19828E-02-1.03584E-04-2.28183E-14
 -1      2788 1.21371E-02-7.29712E-05-2.33592E-14
 -1      2789 1.19474E-02-7.55371E-05-2.24911E-14
 -1      2790 1.22897E-02-4.53623E-05-2.39031E-14
 -1      2791 1.24409E-02-2.01743E-05-2.44476E-14
 -1      2792 1.22536E-02-1.72247E-05-2.35694E-14
 -1      2793 1.25908E-02 2.94579E-06-2.49992E-14
 -1      2794 1.27396E-02 2.44443E-05-2.55508E-14
 -1      2795 1.25529E-02 3.10149E-05-2.46641E-14
 -1      2796 1.28875E-02 4.46614E-05-2.61040E-14
 -1      2797 1.30345E-02 6.39272E-05-2.66607E-14
 -1      2798 1.28475E-02 7.25903E-05-2.57675E-14
 -1      2799 1.31809E-02 8.25422E-05-2.72165E-14
 -1      2800 1.33267E-02 1.00750E-04-2.77745E-14
 -1      2801 1.31389E-02 1.10242E-04-2.68760E-14
 -1      2802 1.34720E-02 1.18801E-04-2.83337E-14
 -1      2803 1.36169E-02 1.36883E-04-2.88932E-14
 -1      2804 1.34283E-02 1.46132E-04-2.79874E-14
 -1      2805 1.37613E-02 1.55195E-04-2.94535E-14
 -1      2806 1.39053E-02 1.73887E-04-3.00174E-14
 -1      2807 1.37161E-02 1.81968E-04-2.91040E-14
 -1      2808 2.26889E-03 4.75814E-04-5.47346E-16
 -1      2809 2.12705E-03 4.69484E-04-4.70327E-16
 -1      2810 1.45058E-02 9.68781E-04-2.89092E-14
 -1      2811 1.45116E-02 1.01794E-03-2.87502E-14
 -1      2812 1.43678E-02 9.95617E-04-2.82158E-14
 -1      2813 1.98512E-03 4.61459E-04-4.00043E-16
 -1      2814 1.84307E-03 4.51580E-04-3.35805E-16
 -1      2815 2.04750E-03 4.29361E-04-4.62101E-16
 -1      2816 2.83624E-03 4.88739E-04-9.21369E-16
 -1      2817 2.69436E-03 4.87056E-04-8.17773E-16
 -1      2818 3.12024E-03 4.89807E-04-1.14946E-15
 -1      2819 2.97820E-03 4.89632E-04-1.03160E-15
 -1      2820 2.90260E-03 4.52340E-04-1.01494E-15
 -1      2821 3.40463E-03 4.88376E-04-1.40616E-15
 -1      2822 3.26238E-03 4.89370E-04-1.27463E-15
 -1      2823 3.18764E-03 4.52684E-04-1.25410E-15
 -1      2824 3.68953E-03 4.84957E-04-1.69122E-15
 -1      2825 3.54702E-03 4.86892E-04-1.54460E-15
 -1      2826 3.47287E-03 4.50725E-04-1.52120E-15
 -1      2827 3.97500E-03 4.79880E-04-2.00895E-15
 -1      2828 3.83219E-03 4.82610E-04-1.84604E-15
 -1      2829 3.75835E-03 4.46914E-04-1.81834E-15
 -1      2830 4.26116E-03 4.73356E-04-2.36029E-15
 -1      2831 4.11799E-03 4.76788E-04-2.17961E-15
 -1      2832 4.04414E-03 4.41542E-04-2.14791E-15
 -1      2833 4.54809E-03 4.65525E-04-2.74754E-15
 -1      2834 4.40451E-03 4.69595E-04-2.54949E-15
 -1      2835 4.33029E-03 4.34791E-04-2.51146E-15
 -1      2836 4.83594E-03 4.56522E-04-3.17030E-15
 -1      2837 4.69188E-03 4.61160E-04-2.95442E-15
 -1      2838 4.61688E-03 4.26793E-04-2.91111E-15
 -1      2839 5.12485E-03 4.46541E-04-3.62801E-15
 -1      2840 4.98023E-03 4.51637E-04-3.39458E-15
 -1      2841 4.90394E-03 4.17685E-04-3.34425E-15
 -1      2842 5.41501E-03 4.35923E-04-4.11948E-15
 -1      2843 5.26974E-03 4.41284E-04-3.86983E-15
 -1      2844 5.19155E-03 4.07679E-04-3.81273E-15
 -1      2845 5.70668E-03 4.25266E-04-4.65100E-15
 -1      2846 5.56061E-03 4.30553E-04-4.38079E-15
 -1      2847 5.47978E-03 3.97148E-04-4.31629E-15
 -1      2848 6.00016E-03 4.15572E-04-5.21618E-15
 -1      2849 5.85314E-03 4.20224E-04-4.92885E-15
 -1      2850 5.76874E-03 3.86732E-04-4.85691E-15
 -1      2851 6.29591E-03 4.08434E-04-5.81546E-15
 -1      2852 6.14768E-03 4.11566E-04-5.51145E-15
 -1      2853 6.05862E-03 3.77475E-04-5.43219E-15
 -1      2854 6.59466E-03 4.06280E-04-6.44481E-15
 -1      2855 6.44481E-03 4.06554E-04-6.12608E-15
 -1      2856 6.34978E-03 3.70993E-04-6.04020E-15
 -1      2857 6.89759E-03 4.12654E-04-7.10646E-15
 -1      2858 6.74547E-03 4.08127E-04-6.77290E-15
 -1      2859 6.64295E-03 3.69691E-04-6.67930E-15
 -1      2860 7.20676E-03 4.32539E-04-7.79654E-15
 -1      2861 7.05124E-03 4.20499E-04-7.44713E-15
 -1      2862 6.93957E-03 3.77018E-04-7.34891E-15
 -1      2863 7.52540E-03 4.72651E-04-8.51932E-15
 -1      2864 7.36471E-03 4.49471E-04-8.15331E-15
 -1      2865 7.24227E-03 3.97800E-04-8.04753E-15
 -1      2866 7.85802E-03 5.41517E-04-9.27291E-15
 -1      2867 7.68985E-03 5.02702E-04-8.89138E-15
 -1      2868 7.55554E-03 4.38720E-04-8.77851E-15
 -1      2869 8.20933E-03 6.48558E-04-1.00573E-14
 -1      2870 8.03151E-03 5.89362E-04-9.66180E-15
 -1      2871 7.88578E-03 5.08884E-04-9.53971E-15
 -1      2872 8.58095E-03 8.00488E-04-1.08751E-14
 -1      2873 8.39367E-03 7.18622E-04-1.04618E-14
 -1      2874 8.24023E-03 6.19570E-04-1.03319E-14
 -1      2875 8.96525E-03 9.90566E-04-1.17248E-14
 -1      2876 8.77375E-03 8.92504E-04-1.12959E-14
 -1      2877 8.62191E-03 7.81358E-04-1.11559E-14
 -1      2878 9.34161E-03 1.16724E-03-1.26781E-14
 -1      2879 9.15108E-03 1.07271E-03-1.22353E-14
 -1      2880 1.00450E-02 1.29249E-03-1.44316E-14
 -1      2881 9.86894E-03 1.31325E-03-1.39636E-14
 -1      2882 1.04073E-02 1.17483E-03-1.53757E-14
 -1      2883 1.02224E-02 1.24206E-03-1.49011E-14
 -1      2884 1.01385E-02 1.24216E-03-1.47301E-14
 -1      2885 1.07880E-02 1.01954E-03-1.63475E-14
 -1      2886 1.05972E-02 1.09665E-03-1.58604E-14
 -1      2887 1.05223E-02 1.08911E-03-1.56810E-14
 -1      2888 1.11671E-02 8.86065E-04-1.73373E-14
 -1      2889 1.09797E-02 9.47995E-04-1.68389E-14
 -1      2890 1.09170E-02 9.24966E-04-1.66541E-14
 -1      2891 1.15298E-02 7.96123E-04-1.83537E-14
 -1      2892 1.13515E-02 8.35735E-04-1.78441E-14
 -1      2893 1.12985E-02 8.02407E-04-1.76512E-14
 -1      2894 1.18723E-02 7.48693E-04-1.93893E-14
 -1      2895 1.17036E-02 7.67728E-04-1.88683E-14
 -1      2896 1.16545E-02 7.29714E-04-1.86716E-14
 -1      2897 1.21982E-02 7.35334E-04-2.04408E-14
 -1      2898 1.20371E-02 7.38523E-04-1.99131E-14
 -1      2899 1.19865E-02 6.98257E-04-1.97103E-14
 -1      2900 1.25124E-02 7.46552E-04-2.15025E-14
 -1      2901 1.23565E-02 7.38458E-04-2.09702E-14
 -1      2902 1.23016E-02 6.96844E-04-2.07630E-14
 -1      2903 1.28185E-02 7.74526E-04-2.25694E-14
 -1      2904 1.26662E-02 7.58874E-04-2.20363E-14
 -1      2905 1.26058E-02 7.16079E-04-2.18275E-14
 -1      2906 1.31193E-02 8.13198E-04-2.36342E-14
 -1      2907 1.29694E-02 7.92832E-04-2.31022E-14
 -1      2908 1.29036E-02 7.49009E-04-2.28954E-14
 -1      2909 1.34163E-02 8.58060E-04-2.46925E-14
 -1      2910 1.32681E-02 8.35073E-04-2.41644E-14
 -1      2911 1.31976E-02 7.90488E-04-2.39599E-14
 -1      2912 1.37104E-02 9.05834E-04-2.57524E-14
 -1      2913 1.35636E-02 8.81738E-04-2.52219E-14
 -1      2914 1.34892E-02 8.36734E-04-2.50215E-14
 -1      2915 1.40023E-02 9.54158E-04-2.68125E-14
 -1      2916 1.38566E-02 9.30037E-04-2.62800E-14
 -1      2917 1.37793E-02 8.84985E-04-2.60835E-14
 -1      2918 1.42580E-02 9.86932E-04-2.77774E-14
 -1      2919 1.41133E-02 9.63467E-04-2.72481E-14
 -1      2920 1.40344E-02 9.18841E-04-2.70521E-14
 -1      2921 1.42540E-02 9.37523E-04-2.79274E-14
 -1      2922 1.43944E-02 6.22916E-04-2.98752E-14
 -1      2923 1.44134E-02 6.58425E-04-2.97883E-14
 -1      2924 1.40020E-02 1.86010E-04-3.04054E-14
 -1      2925 1.40984E-02 1.98428E-04-3.07903E-14
 -1      2926 1.39559E-02 2.12143E-04-3.00505E-14
 -1      2927 1.44612E-02 7.65681E-04-2.95131E-14
 -1      2928 1.44745E-02 8.02097E-04-2.94175E-14
 -1      2929 1.43514E-02 5.51671E-04-3.00420E-14
 -1      2930 1.43737E-02 5.87395E-04-2.99616E-14
 -1      2931 1.42645E-02 5.87893E-04-2.94326E-14
 -1      2932 1.44309E-02 6.93951E-04-2.96983E-14
 -1      2933 1.44468E-02 7.29692E-04-2.96049E-14
 -1      2934 1.43339E-02 7.29339E-04-2.90773E-14
 -1      2935 1.43025E-02 6.58395E-04-2.92593E-14
 -1      2936 9.22043E-03-6.87619E-04-1.40915E-14
 -1      2937 9.08309E-03-6.24810E-04-1.37709E-14
 -1      2938 1.43033E-02 4.80630E-04-3.02008E-14
 -1      2939 1.43281E-02 5.16337E-04-3.01220E-14
 -1      2940 1.42200E-02 5.17475E-04-2.95960E-14
 -1      2941 1.42497E-02 4.06688E-04-3.03579E-14
 -1      2942 1.42770E-02 4.43917E-04-3.02784E-14
 -1      2943 1.41695E-02 4.45721E-04-2.97515E-14
 -1      2944 1.41929E-02 3.30600E-04-3.05163E-14
 -1      2945 1.42215E-02 3.68941E-04-3.04370E-14
 -1      2946 1.41139E-02 3.71373E-04-2.99081E-14
 -1      2947 8.14165E-03-1.28792E-04-1.20934E-14
 -1      2948 7.98030E-03-5.74490E-05-1.18621E-14
 -1      2949 9.85221E-03 1.28341E-03-1.40610E-14
 -1      2950 9.99143E-03 1.26255E-03-1.44130E-14
 -1      2951 8.33518E-04-2.63850E-04-1.64243E-16
 -1      2952 9.65059E-04-2.98698E-04-2.10173E-16
 -1      2953 1.10809E-03-3.26365E-04-2.68164E-16
 -1      2954 8.14091E-04-2.12240E-04-1.62779E-16
 -1      2955 8.02944E-04 2.78182E-04-5.12963E-17
 -1      2956 8.57300E-03-3.35872E-04-1.28247E-14
 -1      2957 8.37726E-03-2.34868E-04-1.24962E-14
 -1      2958 7.89885E-03 3.19817E-04-1.11119E-14
 -1      2959 8.08295E-03 4.01374E-04-1.12230E-14
 -1      2960 1.70086E-03 4.39436E-04-2.77461E-16
 -1      2961 1.55842E-03 4.24830E-04-2.25460E-16
 -1      2962 1.47596E-03 3.81499E-04-2.21272E-16
 -1      2963 1.76197E-03 4.09993E-04-3.29679E-16
 -1      2964 1.19121E-02 3.51844E-04-1.80513E-14
 -1      2965 1.19888E-02 3.33977E-04-1.82058E-14
 -1      2966 2.55252E-03 4.84426E-04-7.21035E-16
 -1      2967 2.41071E-03 4.80753E-04-6.30992E-16
 -1      2968 2.33267E-03 4.41800E-04-6.19933E-16
 -1      2969 2.61765E-03 4.49028E-04-8.04044E-16
 -1      2970 8.91203E-03-5.36053E-04-1.34125E-14
 -1      2971 8.75076E-03-4.38040E-04-1.31158E-14
 -1      2972 8.64340E-03-4.03339E-04-1.28709E-14
 -1      2973 1.10440E-02-4.40817E-05-1.77235E-14
 -1      2974 1.08576E-02-1.46805E-04-1.75157E-14
 -1      2975 7.37537E-03 1.42673E-04-1.09978E-14
 -1      2976 7.37057E-03 1.50859E-04-1.09625E-14
 -1      2977 7.84662E-04 1.23426E-04-1.04436E-16
 -1      2978 7.82317E-04 9.99928E-05-1.10656E-16
 -1      2979 8.99995E-04 9.93822E-05-1.45893E-16
 -1      2980 9.05636E-04 1.51500E-04-1.30457E-16
 -1      2981 1.01863E-02 1.20351E-03-1.48817E-14
 -1      2982 1.03157E-02 1.14430E-03-1.51946E-14
 -1      2983 9.51818E-03 1.22283E-03-1.32628E-14
 -1      2984 9.66804E-03 1.26870E-03-1.36226E-14
 -1      2985 9.92632E-03-6.76881E-04-1.58666E-14
 -1      2986 9.77782E-03-7.30389E-04-1.55121E-14
 -1      2987 7.82056E-04-9.79394E-05-1.50189E-16
 -1      2988 7.84322E-04-1.21293E-04-1.52859E-16
 -1      2989 8.26972E-03 4.96499E-04-1.13502E-14
 -1      2990 8.42807E-03 5.87248E-04-1.14728E-14
 -1      2991 8.70539E-03 7.49738E-04-1.18430E-14
 -1      2992 8.92228E-03 8.83837E-04-1.21984E-14
 -1      2993 7.40726E-03 1.63634E-04-1.09766E-14
 -1      2994 7.46426E-03 1.75496E-04-1.09780E-14
 -1      2995 1.41482E-02 2.36666E-04-3.08217E-14
 -1      2996 1.19531E-02 2.99757E-04-1.82949E-14
 -1      2997 1.18730E-02 2.83003E-04-1.82898E-14
 -1      2998 7.53925E-03 1.04080E-04-1.13081E-14
 -1      2999 7.44465E-03 1.24747E-04-1.11520E-14
 -1      3000 1.20152E-02 3.18625E-04-1.82674E-14
 -1      3001 1.20002E-02 3.12281E-04-1.82792E-14
 -1      3002 9.57910E-03-7.57966E-04-1.49979E-14
 -1      3003 9.40696E-03-7.41148E-04-1.45481E-14
 -1      3004 7.79901E-03 1.67908E-05-1.16244E-14
 -1      3005 7.66087E-03 6.36579E-05-1.14443E-14
 -1      3006 7.56620E-03 2.03644E-04-1.09723E-14
 -1      3007 7.71033E-03 2.47432E-04-1.10218E-14
 -1      3008 1.16723E-02 4.30124E-04-1.76967E-14
 -1      3009 1.17951E-02 3.90353E-04-1.78922E-14
 -1      3010 1.06300E-02-2.76414E-04-1.71731E-14
 -1      3011 1.04469E-02-3.89258E-04-1.68872E-14
 -1      3012 1.13515E-02 5.66225E-04-1.71974E-14
 -1      3013 1.15187E-02 4.89819E-04-1.74465E-14
 -1      3014 1.16423E-02 4.70812E-04-1.78564E-14
 -1      3015 1.17496E-02 2.49040E-04-1.82200E-14
 -1      3016 1.16308E-02 2.13520E-04-1.81329E-14
 -1      3017 7.87341E-04-1.45457E-04-1.54892E-16
 -1      3018 7.91170E-04-1.70646E-04-1.56356E-16
 -1      3019 9.05189E-04-1.49009E-04-1.95062E-16
 -1      3020 8.95922E-04 1.00554E-06-1.70477E-16
 -1      3021 7.78036E-04-9.71256E-06-1.35878E-16
 -1      3022 7.78390E-04-3.13492E-05-1.39943E-16
 -1      3023 1.00131E-02-6.44876E-04-1.61561E-14
 -1      3024 8.64786E-04 2.66471E-04-7.27229E-17
 -1      3025 1.18958E-02 3.79895E-04-1.82673E-14
 -1      3026 1.07034E-02 9.47612E-04-1.60840E-14
 -1      3027 1.08387E-02 8.89358E-04-1.63971E-14
 -1      3028 1.03586E-02-4.53415E-04-1.68560E-14
 -1      3029 1.12493E-02 6.32395E-04-1.71136E-14
 -1      3030 1.14032E-02 5.91822E-04-1.75202E-14
 -1      3031 1.11599E-02 7.02713E-04-1.70273E-14
 -1      3032 1.04952E-02 1.04637E-03-1.56009E-14
 -1      3033 1.07694E-02-2.11739E-04-1.75612E-14
 -1      3034 1.15461E-02 1.77198E-04-1.82533E-14
 -1      3035 1.43595E-02 8.01388E-04-2.88960E-14
 -1      3036 1.44866E-02 8.38660E-04-2.93253E-14
 -1      3037 1.44979E-02 8.75800E-04-2.92290E-14
 -1      3038 8.96857E-03-5.86962E-04-1.35181E-14
 -1      3039 7.49324E-03 1.87688E-04-1.07527E-14
 -1      3040 9.00705E-03 9.67359E-04-1.20861E-14
 -1      3041 9.78070E-03 1.29207E-03-1.38204E-14
 -1      3042 9.70282E-03 1.30052E-03-1.35264E-14
 -1      3043 9.52607E-03 1.25682E-03-1.30704E-14
 -1      3044 1.20311E-02 3.32890E-04-1.84890E-14
 -1      3045 7.85097E-03-3.28244E-05-1.15426E-14
 -1      3046 1.18394E-02 2.70265E-04-1.85140E-14
 -1      3047 9.30659E-03-7.26373E-04-1.43307E-14
 -1      3048 1.44952E-02 9.29946E-04-2.90060E-14
 -1      3049 9.67269E-03-7.54733E-04-1.53018E-14
 -1      3050 8.24429E-03-1.99059E-04-1.21776E-14
 -1      3051 1.41770E-02 2.76484E-04-3.07423E-14
 -1      3052 7.56781E-03 7.37539E-05-1.11732E-14
 -1      3053 9.82927E-04 2.75632E-04-1.03081E-16
 -1      3054 7.35873E-03 1.51624E-04-1.07450E-14
 -1      3055 8.12429E-03 4.37851E-04-1.10446E-14
 -1      3056 1.16985E-03-3.06594E-04-3.00202E-16
 -1      3057 7.79161E-04-5.31251E-05-1.43643E-16
 -1      3058 7.80349E-04-7.53102E-05-1.47072E-16
 -1      3059 8.99718E-04-9.70323E-05-1.88651E-16
 -1      3060 8.96804E-04-4.74860E-05-1.80222E-16
 -1      3061 9.01695E-03 9.54671E-04-1.22500E-14
 -1      3062 7.37614E-03 1.29505E-04-1.08850E-14
 -1      3063 7.32234E-03 1.29099E-04-1.06194E-14
 -1      3064 7.38298E-03 1.13467E-04-1.07720E-14
 -1      3065 7.76677E-03 2.78473E-04-1.08326E-14
 -1      3066 1.11700E-02 9.83200E-06-1.79866E-14
 -1      3067 1.20016E-02 3.10253E-04-1.85667E-14
 -1      3068 1.40122E-02 2.45966E-04-3.01317E-14
 -1      3069 1.41372E-02 2.97534E-04-3.04350E-14
 -1      3070 1.40291E-02 3.00581E-04-2.99053E-14
 -1      3071 1.39163E-02 2.34085E-04-2.97454E-14
 -1      3072 1.19140E-02 4.09847E-04-1.85991E-14
 -1      3073 1.20069E-02 3.77488E-04-1.87593E-14
 -1      3074 1.04040E-03 2.43086E-04-1.36284E-16
 -1      3075 1.03388E-03 2.11374E-04-1.48102E-16
 -1      3076 1.16407E-02 2.00490E-04-1.86109E-14
 -1      3077 1.14726E-02 1.39324E-04-1.84206E-14
 -1      3078 1.04679E-02-4.05134E-04-1.72134E-14
 -1      3079 1.02849E-02-5.12972E-04-1.68509E-14
 -1      3080 8.66689E-03-4.49826E-04-1.28692E-14
 -1      3081 8.51287E-03-3.59121E-04-1.25808E-14
 -1      3082 1.73181E-03-3.39367E-04-6.13252E-16
 -1      3083 1.87549E-03-3.49268E-04-7.10518E-16
 -1      3084 2.01916E-03-3.57389E-04-8.15320E-16
 -1      3085 2.16282E-03-3.63888E-04-9.27576E-16
 -1      3086 1.94043E-03-3.17859E-04-7.55445E-16
 -1      3087 2.30642E-03-3.69030E-04-1.04715E-15
 -1      3088 2.44998E-03-3.72934E-04-1.17380E-15
 -1      3089 2.22847E-03-3.30167E-04-9.77110E-16
 -1      3090 2.59348E-03-3.75812E-04-1.30866E-15
 -1      3091 2.73692E-03-3.77754E-04-1.44984E-15
 -1      3092 2.51641E-03-3.37599E-04-1.22848E-15
 -1      3093 2.88030E-03-3.78921E-04-1.59695E-15
 -1      3094 3.02362E-03-3.79378E-04-1.75194E-15
 -1      3095 2.80410E-03-3.41321E-04-1.50737E-15
 -1      3096 3.16688E-03-3.79243E-04-1.91455E-15
 -1      3097 3.31009E-03-3.78562E-04-2.08323E-15
 -1      3098 3.09144E-03-3.42222E-04-1.81357E-15
 -1      3099 3.45325E-03-3.77416E-04-2.25866E-15
 -1      3100 3.59636E-03-3.75837E-04-2.44122E-15
 -1      3101 3.37841E-03-3.40955E-04-2.14809E-15
 -1      3102 3.73943E-03-3.73880E-04-2.63064E-15
 -1      3103 3.88245E-03-3.71565E-04-2.82722E-15
 -1      3104 3.66498E-03-3.37973E-04-2.50949E-15
 -1      3105 4.02542E-03-3.68930E-04-3.03083E-15
 -1      3106 4.16836E-03-3.65987E-04-3.24189E-15
 -1      3107 3.95113E-03-3.33583E-04-2.89967E-15
 -1      3108 4.31126E-03-3.62767E-04-3.46066E-15
 -1      3109 4.45412E-03-3.59276E-04-3.68558E-15
 -1      3110 4.23684E-03-3.27985E-04-3.31877E-15
 -1      3111 4.59694E-03-3.55545E-04-3.91654E-15
 -1      3112 4.73975E-03-3.51582E-04-4.15671E-15
 -1      3113 4.52209E-03-3.21322E-04-3.76671E-15
 -1      3114 4.88253E-03-3.47427E-04-4.40408E-15
 -1      3115 5.02532E-03-3.43096E-04-4.65734E-15
 -1      3116 4.80687E-03-3.13725E-04-4.24236E-15
 -1      3117 5.16809E-03-3.38643E-04-4.91794E-15
 -1      3118 5.31092E-03-3.34103E-04-5.18658E-15
 -1      3119 5.09120E-03-3.05363E-04-4.74876E-15
 -1      3120 5.45378E-03-3.29554E-04-5.46315E-15
 -1      3121 5.59676E-03-3.25057E-04-5.74733E-15
 -1      3122 5.37515E-03-2.96500E-04-5.28435E-15
 -1      3123 5.73986E-03-3.20725E-04-6.03863E-15
 -1      3124 5.88320E-03-3.16660E-04-6.33749E-15
 -1      3125 5.65891E-03-2.87553E-04-5.85129E-15
 -1      3126 6.02681E-03-3.13012E-04-6.64423E-15
 -1      3127 6.17086E-03-3.09951E-04-6.95796E-15
 -1      3128 5.94286E-03-2.79169E-04-6.44893E-15
 -1      3129 6.31544E-03-3.07663E-04-7.27956E-15
 -1      3130 6.46076E-03-3.06419E-04-7.60794E-15
 -1      3131 6.22769E-03-2.72308E-04-7.07655E-15
 -1      3132 6.60700E-03-3.06436E-04-7.94406E-15
 -1      3133 6.75444E-03-3.08132E-04-8.28790E-15
 -1      3134 6.51457E-03-2.68358E-04-7.73295E-15
 -1      3135 6.90339E-03-3.11744E-04-8.63795E-15
 -1      3136 7.05415E-03-3.17901E-04-8.99506E-15
 -1      3137 6.80535E-03-2.69295E-04-8.41705E-15
 -1      3138 7.20720E-03-3.26837E-04-9.36068E-15
 -1      3139 7.36280E-03-3.39473E-04-9.73455E-15
 -1      3140 7.10280E-03-2.77938E-04-9.13058E-15
 -1      3141 7.52163E-03-3.56023E-04-1.01154E-14
 -1      3142 7.68359E-03-3.77619E-04-1.05037E-14
 -1      3143 7.41066E-03-2.98354E-04-9.87342E-15
 -1      3144 7.84949E-03-4.04330E-04-1.08997E-14
 -1      3145 8.01863E-03-4.37398E-04-1.13034E-14
 -1      3146 7.73311E-03-3.36297E-04-1.06486E-14
 -1      3147 8.19200E-03-4.76886E-04-1.17127E-14
 -1      3148 8.36712E-03-5.22551E-04-1.21297E-14
 -1      3149 8.07325E-03-3.98444E-04-1.14523E-14
 -1      3150 8.54478E-03-5.73391E-04-1.25531E-14
 -1      3151 8.72143E-03-6.27417E-04-1.29822E-14
 -1      3152 8.43084E-03-4.90950E-04-1.22813E-14
 -1      3153 9.23587E-03-7.74721E-04-1.43069E-14
 -1      3154 9.39944E-03-7.97666E-04-1.47579E-14
 -1      3155 9.88070E-03-7.45529E-04-1.61498E-14
 -1      3156 1.00467E-02-6.90572E-04-1.66242E-14
 -1      3157 1.02182E-02-6.19949E-04-1.70979E-14
 -1      3158 1.03921E-02-5.46687E-04-1.75816E-14
 -1      3159 1.05686E-02-4.71621E-04-1.80720E-14
 -1      3160 1.07451E-02-3.99529E-04-1.85666E-14
 -1      3161 1.05133E-02-4.62082E-04-1.77679E-14
 -1      3162 1.09214E-02-3.31949E-04-1.90679E-14
 -1      3163 1.10945E-02-2.70427E-04-1.95707E-14
 -1      3164 1.08752E-02-3.12299E-04-1.87589E-14
 -1      3165 1.12651E-02-2.15277E-04-2.00784E-14
 -1      3166 1.14316E-02-1.66119E-04-2.05944E-14
 -1      3167 1.12262E-02-1.90070E-04-1.97664E-14
 -1      3168 1.15949E-02-1.22791E-04-2.11148E-14
 -1      3169 1.17545E-02-8.42001E-05-2.16390E-14
 -1      3170 1.15600E-02-9.58468E-05-2.07956E-14
 -1      3171 1.19112E-02-5.01007E-05-2.21683E-14
 -1      3172 1.20650E-02-1.94600E-05-2.27035E-14
 -1      3173 1.18773E-02-2.34150E-05-2.18453E-14
 -1      3174 1.22165E-02 7.98132E-06-2.32449E-14
 -1      3175 1.23661E-02 3.30207E-05-2.37869E-14
 -1      3176 1.21818E-02 3.38390E-05-2.29172E-14
 -1      3177 1.25141E-02 5.59164E-05-2.43341E-14
 -1      3178 1.26609E-02 7.72344E-05-2.48841E-14
 -1      3179 1.24774E-02 8.09905E-05-2.40046E-14
 -1      3180 1.28066E-02 9.72208E-05-2.54339E-14
 -1      3181 1.29516E-02 1.16270E-04-2.59868E-14
 -1      3182 1.27675E-02 1.21716E-04-2.51018E-14
 -1      3183 1.30960E-02 1.34607E-04-2.65374E-14
 -1      3184 1.32399E-02 1.52508E-04-2.70916E-14
 -1      3185 1.30545E-02 1.58683E-04-2.62025E-14
 -1      3186 1.33834E-02 1.70169E-04-2.76492E-14
 -1      3187 1.35267E-02 1.87785E-04-2.82040E-14
 -1      3188 1.33397E-02 1.93875E-04-2.73085E-14
 -1      3189 1.36501E-02 2.01667E-04-2.86945E-14
 -1      3190 1.37931E-02 2.19653E-04-2.92525E-14
 -1      3191 1.38501E-02 2.53031E-04-2.93348E-14
 -1      3192 1.36047E-02 2.25004E-04-2.83532E-14
 -1      3193 7.41374E-03 1.72130E-04-1.05273E-14
 -1      3194 7.50300E-03 1.97696E-04-1.05195E-14
 -1      3195 2.11113E-03 3.96645E-04-5.26448E-16
 -1      3196 1.96789E-03 3.89143E-04-4.52302E-16
 -1      3197 3.25536E-03 4.15334E-04-1.36081E-15
 -1      3198 3.11243E-03 4.15776E-04-1.23213E-15
 -1      3199 2.96948E-03 4.15617E-04-1.11051E-15
 -1      3200 2.82652E-03 4.14803E-04-9.96517E-16
 -1      3201 3.03684E-03 3.78661E-04-1.20887E-15
 -1      3202 3.82707E-03 4.08847E-04-1.94807E-15
 -1      3203 3.68414E-03 4.11095E-04-1.78919E-15
 -1      3204 4.11297E-03 4.03290E-04-2.28891E-15
 -1      3205 3.97001E-03 4.06241E-04-2.11403E-15
 -1      3206 3.89571E-03 3.70839E-04-2.07984E-15
 -1      3207 4.39890E-03 3.96436E-04-2.66523E-15
 -1      3208 4.25592E-03 4.00018E-04-2.47274E-15
 -1      3209 4.18149E-03 3.65208E-04-2.43283E-15
 -1      3210 4.68487E-03 3.88410E-04-3.07538E-15
 -1      3211 4.54187E-03 3.92564E-04-2.86598E-15
 -1      3212 4.46697E-03 3.58377E-04-2.82050E-15
 -1      3213 4.97085E-03 3.79359E-04-3.52015E-15
 -1      3214 4.82784E-03 3.84005E-04-3.29328E-15
 -1      3215 4.75207E-03 3.50468E-04-3.24168E-15
 -1      3216 5.25680E-03 3.69515E-04-3.99820E-15
 -1      3217 5.11381E-03 3.74521E-04-3.75532E-15
 -1      3218 5.03668E-03 3.41640E-04-3.69686E-15
 -1      3219 5.54269E-03 3.59280E-04-4.51513E-15
 -1      3220 5.39973E-03 3.64420E-04-4.25209E-15
 -1      3221 5.32065E-03 3.32146E-04-4.18796E-15
 -1      3222 5.82848E-03 3.49323E-04-5.06576E-15
 -1      3223 5.68557E-03 3.54223E-04-4.78591E-15
 -1      3224 5.60382E-03 3.22413E-04-4.71478E-15
 -1      3225 6.11424E-03 3.40702E-04-5.65079E-15
 -1      3226 5.97132E-03 3.44775E-04-5.35384E-15
 -1      3227 5.88602E-03 3.13123E-04-5.27608E-15
 -1      3228 6.40022E-03 3.35006E-04-6.26666E-15
 -1      3229 6.25713E-03 3.37378E-04-5.95487E-15
 -1      3230 6.16716E-03 3.05316E-04-5.87021E-15
 -1      3231 6.68715E-03 3.34531E-04-6.91503E-15
 -1      3232 6.54345E-03 3.33945E-04-6.58649E-15
 -1      3233 6.44740E-03 3.00489E-04-6.49541E-15
 -1      3234 6.97663E-03 3.42503E-04-7.59131E-15
 -1      3235 6.83137E-03 3.37191E-04-7.24960E-15
 -1      3236 6.72741E-03 3.00729E-04-7.14995E-15
 -1      3237 7.27186E-03 3.63439E-04-8.29958E-15
 -1      3238 7.12321E-03 3.50909E-04-7.94102E-15
 -1      3239 7.00890E-03 3.08888E-04-7.83530E-15
 -1      3240 7.57846E-03 4.03863E-04-9.03748E-15
 -1      3241 7.42327E-03 3.80456E-04-8.66492E-15
 -1      3242 7.29549E-03 3.28993E-04-8.55177E-15
 -1      3243 7.90523E-03 4.73679E-04-9.80748E-15
 -1      3244 7.73880E-03 4.33819E-04-9.41890E-15
 -1      3245 7.59394E-03 3.67356E-04-9.29939E-15
 -1      3246 8.57704E-03 7.08170E-04-1.13742E-14
 -1      3247 8.37928E-03 6.15916E-04-1.09566E-14
 -1      3248 1.20578E-02 3.51964E-04-1.88194E-14
 -1      3249 1.20805E-02 3.37349E-04-1.88820E-14
 -1      3250 1.20898E-02 3.78160E-04-1.91545E-14
 -1      3251 9.41110E-03 1.18071E-03-1.29888E-14
 -1      3252 1.13891E-02 7.08535E-04-1.77957E-14
 -1      3253 1.12033E-02 7.57774E-04-1.72934E-14
 -1      3254 1.17839E-02 6.63735E-04-1.89928E-14
 -1      3255 1.16163E-02 6.84459E-04-1.84781E-14
 -1      3256 1.21019E-02 6.49283E-04-2.00344E-14
 -1      3257 1.19455E-02 6.53116E-04-1.95105E-14
 -1      3258 1.19117E-02 6.06190E-04-1.93133E-14
 -1      3259 1.24041E-02 6.59420E-04-2.10913E-14
 -1      3260 1.22544E-02 6.52024E-04-2.05631E-14
 -1      3261 1.22132E-02 6.06991E-04-2.03607E-14
 -1      3262 1.26976E-02 6.85888E-04-2.21557E-14
 -1      3263 1.25515E-02 6.71065E-04-2.16208E-14
 -1      3264 1.25021E-02 6.26841E-04-2.14182E-14
 -1      3265 1.29868E-02 7.23004E-04-2.32240E-14
 -1      3266 1.28425E-02 7.03409E-04-2.26905E-14
 -1      3267 1.27854E-02 6.59060E-04-2.24853E-14
 -1      3268 1.32741E-02 7.66649E-04-2.42903E-14
 -1      3269 1.31306E-02 7.44211E-04-2.37596E-14
 -1      3270 1.30668E-02 6.99288E-04-2.35558E-14
 -1      3271 1.35606E-02 8.13777E-04-2.53585E-14
 -1      3272 1.34174E-02 7.89919E-04-2.48240E-14
 -1      3273 1.33481E-02 7.44357E-04-2.46255E-14
 -1      3274 1.38468E-02 8.62130E-04-2.64248E-14
 -1      3275 1.37037E-02 8.37903E-04-2.58905E-14
 -1      3276 1.36301E-02 7.91870E-04-2.56960E-14
 -1      3277 1.01705E-03 6.81253E-05-1.94479E-16
 -1      3278 1.01589E-03 4.11682E-05-2.01865E-16
 -1      3279 1.41346E-02 5.53208E-04-2.89878E-14
 -1      3280 1.41555E-02 5.88227E-04-2.89045E-14
 -1      3281 1.39776E-02 3.36347E-04-2.94582E-14
 -1      3282 1.40069E-02 3.74079E-04-2.93807E-14
 -1      3283 1.40884E-02 4.83636E-04-2.91477E-14
 -1      3284 1.41123E-02 5.18604E-04-2.90684E-14
 -1      3285 1.40052E-02 5.19563E-04-2.85446E-14
 -1      3286 7.86903E-03-8.14090E-05-1.14058E-14
 -1      3287 7.71374E-03-1.72018E-05-1.11723E-14
 -1      3288 1.19193E-02 2.85195E-04-1.88375E-14
 -1      3289 1.18073E-02 2.54909E-04-1.87680E-14
 -1      3290 8.56610E-03 6.80119E-04-1.15339E-14
 -1      3291 7.31090E-03 1.43079E-04-1.04889E-14
 -1      3292 7.34984E-03 1.54622E-04-1.05023E-14
 -1      3293 9.32259E-04-2.20331E-04-2.05429E-16
 -1      3294 1.14146E-03-2.54490E-04-2.91041E-16
 -1      3295 1.35259E-03-2.83099E-04-3.92508E-16
 -1      3296 1.11671E-03-2.05503E-04-2.80632E-16
 -1      3297 1.40352E-02 4.11151E-04-2.93020E-14
 -1      3298 1.40625E-02 4.47669E-04-2.92244E-14
 -1      3299 1.39561E-02 4.49597E-04-2.87013E-14
 -1      3300 1.39005E-02 3.76904E-04-2.88561E-14
 -1      3301 1.10399E-02 8.10582E-04-1.68838E-14
 -1      3302 1.00657E-02-6.34442E-04-1.64140E-14
 -1      3303 9.92185E-03-7.01561E-04-1.60751E-14
 -1      3304 3.54121E-03 4.12946E-04-1.63842E-15
 -1      3305 3.39829E-03 4.14379E-04-1.49621E-15
 -1      3306 3.32337E-03 3.77846E-04-1.46938E-15
 -1      3307 3.60966E-03 3.75125E-04-1.75908E-15
 -1      3308 9.00550E-03-6.32062E-04-1.36067E-14
 -1      3309 8.85074E-03-5.51365E-04-1.32503E-14
 -1      3310 9.74892E-03-7.51211E-04-1.56028E-14
 -1      3311 9.56615E-03-7.74216E-04-1.50887E-14
 -1      3312 1.47023E-03-3.05757E-04-4.55609E-16
 -1      3313 1.61381E-03-3.19250E-04-5.39377E-16
 -1      3314 1.67858E-03-2.90746E-04-5.78923E-16
 -1      3315 1.44351E-03-2.51168E-04-4.40728E-16
 -1      3316 1.20584E-02 3.20926E-04-1.89109E-14
 -1      3317 1.20145E-02 3.09747E-04-1.89265E-14
 -1      3318 8.29670E-03-2.56264E-04-1.21756E-14
 -1      3319 8.08085E-03-1.66622E-04-1.17766E-14
 -1      3320 8.33030E-03-3.11487E-04-1.21726E-14
 -1      3321 7.54997E-03 4.32299E-05-1.09237E-14
 -1      3322 7.45036E-03 7.84248E-05-1.07906E-14
 -1      3323 7.98987E-03 3.93181E-04-1.07209E-14
 -1      3324 8.15299E-03 4.76037E-04-1.08421E-14
 -1      3325 7.64195E-03 2.47249E-04-1.05198E-14
 -1      3326 7.80621E-03 3.10111E-04-1.06056E-14
 -1      3327 1.43672E-02 8.91439E-04-2.85872E-14
 -1      3328 1.14497E-03 3.10283E-04-1.38168E-16
 -1      3329 1.08242E-03 2.71409E-04-1.36867E-16
 -1      3330 1.20156E-03 2.72715E-04-1.77809E-16
 -1      3331 1.28814E-03 3.32106E-04-1.77497E-16
 -1      3332 1.12957E-02 5.59227E-05-1.83387E-14
 -1      3333 1.11231E-02-3.92827E-05-1.82591E-14
 -1      3334 1.14147E-02 8.96440E-05-1.86946E-14
 -1      3335 1.08889E-02-1.67464E-04-1.79654E-14
 -1      3336 1.06833E-02-2.82464E-04-1.76196E-14
 -1      3337 1.16250E-02 5.13732E-04-1.80241E-14
 -1      3338 1.17576E-02 4.63062E-04-1.82767E-14
 -1      3339 9.39978E-03-7.64277E-04-1.46323E-14
 -1      3340 9.23038E-03-7.22658E-04-1.41757E-14
 -1      3341 8.22925E-03 5.59578E-04-1.06291E-14
 -1      3342 1.01531E-03 1.44166E-05-2.08614E-16
 -1      3343 1.01526E-03-1.22467E-05-2.14821E-16
 -1      3344 1.13604E-03 3.01066E-05-2.50017E-16
 -1      3345 1.15337E-03 2.11562E-04-1.89627E-16
 -1      3346 1.02861E-03 1.81000E-04-1.58876E-16
 -1      3347 1.02450E-03 1.51693E-04-1.68715E-16
 -1      3348 1.05988E-02-3.53328E-04-1.76134E-14
 -1      3349 1.01772E-02-5.93991E-04-1.67663E-14
 -1      3350 7.35956E-03 8.67926E-05-1.05266E-14
 -1      3351 1.10790E-03-1.43933E-04-2.73612E-16
 -1      3352 1.11175E-03-1.74276E-04-2.77583E-16
 -1      3353 1.32107E-03-1.96055E-04-3.74673E-16
 -1      3354 9.48330E-03-7.85497E-04-1.49281E-14
 -1      3355 9.55656E-03-8.02858E-04-1.52152E-14
 -1      3356 1.42332E-02 7.64280E-04-2.84626E-14
 -1      3357 1.42442E-02 8.00400E-04-2.83724E-14
 -1      3358 8.74935E-03-5.71401E-04-1.30210E-14
 -1      3359 8.85735E-03-6.50129E-04-1.32999E-14
 -1      3360 9.03297E-03-7.04606E-04-1.37373E-14
 -1      3361 9.71730E-03-7.85048E-04-1.56785E-14
 -1      3362 7.53304E-03 2.22268E-04-1.02958E-14
 -1      3363 2.25431E-03 4.02642E-04-6.07207E-16
 -1      3364 2.17583E-03 3.63396E-04-5.93452E-16
 -1      3365 2.39743E-03 4.07266E-04-6.94730E-16
 -1      3366 1.88844E-03 3.49006E-04-4.40416E-16
 -1      3367 1.82459E-03 3.79830E-04-3.83835E-16
 -1      3368 1.68122E-03 3.68540E-04-3.21629E-16
 -1      3369 8.71775E-03-5.08733E-04-1.29554E-14
 -1      3370 2.75008E-03 3.77059E-04-9.76582E-16
 -1      3371 2.68353E-03 4.13207E-04-8.89371E-16
 -1      3372 2.54050E-03 4.10754E-04-7.88730E-16
 -1      3373 8.04865E-03 4.97361E-04-1.02262E-14
 -1      3374 7.88186E-03 4.10704E-04-1.00979E-14
 -1      3375 1.21207E-02 3.38266E-04-1.92427E-14
 -1      3376 1.10266E-03-8.53458E-05-2.63244E-16
 -1      3377 1.10487E-03-1.14339E-04-2.68787E-16
 -1      3378 1.31309E-03-1.29489E-04-3.63154E-16
 -1      3379 1.15414E-02 6.25533E-04-1.81110E-14
 -1      3380 1.39566E-02 8.72036E-04-2.68601E-14
 -1      3381 1.38803E-02 8.26061E-04-2.66677E-14
 -1      3382 1.40660E-02 8.81798E-04-2.72998E-14
 -1      3383 1.01882E-03 9.53629E-05-1.86578E-16
 -1      3384 1.13866E-03 8.84220E-05-2.32819E-16
 -1      3385 1.02125E-03 1.23112E-04-1.77918E-16
 -1      3386 1.42071E-02 6.93002E-04-2.86451E-14
 -1      3387 1.42209E-02 7.28440E-04-2.85546E-14
 -1      3388 1.41076E-02 7.27100E-04-2.80320E-14
 -1      3389 1.20036E-02 2.99890E-04-1.91823E-14
 -1      3390 1.41746E-02 6.23032E-04-2.88192E-14
 -1      3391 1.41918E-02 6.57988E-04-2.87305E-14
 -1      3392 1.40810E-02 6.57105E-04-2.82072E-14
 -1      3393 1.40469E-02 5.88179E-04-2.83788E-14
 -1      3394 7.91953E-03-1.35930E-04-1.14023E-14
 -1      3395 1.17492E-02 2.25665E-04-1.89350E-14
 -1      3396 1.19052E-02 4.47417E-04-1.87710E-14
 -1      3397 7.56485E-03-6.65408E-07-1.07898E-14
 -1      3398 7.28109E-03 1.31502E-04-1.03786E-14
 -1      3399 7.24892E-03 1.34048E-04-1.01390E-14
 -1      3400 7.26017E-03 1.19257E-04-1.02679E-14
 -1      3401 9.11255E-03-6.99182E-04-1.39013E-14
 -1      3402 9.80978E-03-7.48834E-04-1.58563E-14
 -1      3403 1.11595E-02-6.38318E-05-1.86701E-14
 -1      3404 1.10259E-02-1.11182E-04-1.83174E-14
 -1      3405 1.09450E-02-1.81968E-04-1.83742E-14
 -1      3406 1.55629E-03 3.60682E-04-2.69736E-16
 -1      3407 1.41292E-03 3.44729E-04-2.18846E-16
 -1      3408 1.36919E-03 3.14574E-04-2.19307E-16
 -1      3409 1.61942E-03 3.32990E-04-3.16790E-16
 -1      3410 8.82994E-03 8.61444E-04-1.17437E-14
 -1      3411 7.34282E-03 1.61183E-04-1.02725E-14
 -1      3412 7.83846E-03 3.47427E-04-1.04064E-14
 -1      3413 1.42470E-02 8.42085E-04-2.82314E-14
 -1      3414 1.42420E-02 8.95894E-04-2.80178E-14
 -1      3415 1.38859E-02 2.78610E-04-2.93562E-14
 -1      3416 1.39424E-02 3.11305E-04-2.94352E-14
 -1      3417 1.38355E-02 3.14793E-04-2.89108E-14
 -1      3418 1.37637E-02 2.64452E-04-2.88660E-14
 -1      3419 1.15441E-02 5.68316E-04-1.79392E-14
 -1      3420 8.58263E-03-4.81502E-04-1.26431E-14
 -1      3421 1.20820E-02 3.11065E-04-1.95467E-14
 -1      3422 1.19904E-02 2.86147E-04-1.94565E-14
 -1      3423 1.17442E-02 5.61138E-04-1.86220E-14
 -1      3424 1.41211E-02 8.03823E-04-2.78036E-14
 -1      3425 2.15075E-03-2.91454E-04-9.09754E-16
 -1      3426 2.29508E-03-2.95922E-04-1.02631E-15
 -1      3427 2.43939E-03-2.99365E-04-1.15035E-15
 -1      3428 2.58365E-03-3.01873E-04-1.28192E-15
 -1      3429 2.36254E-03-2.61207E-04-1.07501E-15
 -1      3430 2.72783E-03-3.03601E-04-1.41911E-15
 -1      3431 2.87191E-03-3.04615E-04-1.56343E-15
 -1      3432 2.65160E-03-2.65825E-04-1.33327E-15
 -1      3433 3.01589E-03-3.05036E-04-1.71567E-15
 -1      3434 3.15974E-03-3.04906E-04-1.87438E-15
 -1      3435 2.94030E-03-2.67715E-04-1.61993E-15
 -1      3436 3.30345E-03-3.04317E-04-2.03985E-15
 -1      3437 3.44703E-03-3.03294E-04-2.21175E-15
 -1      3438 3.22845E-03-2.67507E-04-1.93390E-15
 -1      3439 3.59045E-03-3.01905E-04-2.39035E-15
 -1      3440 3.73372E-03-3.00161E-04-2.57685E-15
 -1      3441 3.51591E-03-2.65658E-04-2.27466E-15
 -1      3442 3.87683E-03-2.98111E-04-2.77022E-15
 -1      3443 4.01977E-03-2.95757E-04-2.97066E-15
 -1      3444 3.80258E-03-2.62475E-04-2.64328E-15
 -1      3445 4.16252E-03-2.93137E-04-3.17948E-15
 -1      3446 4.30510E-03-2.90245E-04-3.39557E-15
 -1      3447 4.08837E-03-2.58160E-04-3.04253E-15
 -1      3448 4.44748E-03-2.87114E-04-3.61739E-15
 -1      3449 4.58967E-03-2.83737E-04-3.84599E-15
 -1      3450 4.37318E-03-2.52837E-04-3.47049E-15
 -1      3451 4.73164E-03-2.80148E-04-4.08311E-15
 -1      3452 4.87342E-03-2.76341E-04-4.32874E-15
 -1      3453 4.65690E-03-2.46588E-04-3.92698E-15
 -1      3454 5.01496E-03-2.72358E-04-4.58077E-15
 -1      3455 5.15631E-03-2.68199E-04-4.83963E-15
 -1      3456 4.93944E-03-2.39492E-04-4.41356E-15
 -1      3457 5.29744E-03-2.63921E-04-5.10770E-15
 -1      3458 5.43840E-03-2.59539E-04-5.38362E-15
 -1      3459 5.22072E-03-2.31657E-04-4.93243E-15
 -1      3460 5.57917E-03-2.55127E-04-5.66618E-15
 -1      3461 5.71984E-03-2.50725E-04-5.95719E-15
 -1      3462 5.50073E-03-2.23264E-04-5.48225E-15
 -1      3463 5.86040E-03-2.46431E-04-6.25509E-15
 -1      3464 6.00100E-03-2.42325E-04-6.56129E-15
 -1      3465 5.77959E-03-2.14602E-04-6.06299E-15
 -1      3466 6.14167E-03-2.38525E-04-6.87512E-15
 -1      3467 6.28263E-03-2.35183E-04-7.19619E-15
 -1      3468 6.05767E-03-2.06130E-04-6.67442E-15
 -1      3469 6.42398E-03-2.32433E-04-7.52347E-15
 -1      3470 6.56603E-03-2.30545E-04-7.85813E-15
 -1      3471 6.33571E-03-1.98540E-04-7.31548E-15
 -1      3472 6.70899E-03-2.29660E-04-8.19864E-15
 -1      3473 6.85331E-03-2.30253E-04-8.54647E-15
 -1      3474 6.61509E-03-1.92885E-04-7.98173E-15
 -1      3475 6.99935E-03-2.32468E-04-8.90236E-15
 -1      3476 7.14772E-03-2.37112E-04-9.26487E-15
 -1      3477 6.89814E-03-1.90824E-04-8.67577E-15
 -1      3478 7.29897E-03-2.44303E-04-9.63563E-15
 -1      3479 7.45384E-03-2.55485E-04-1.00142E-14
 -1      3480 7.18856E-03-1.95096E-04-9.39889E-15
 -1      3481 7.61323E-03-2.70851E-04-1.04000E-14
 -1      3482 7.77758E-03-2.92523E-04-1.07931E-14
 -1      3483 7.49190E-03-2.10508E-04-1.01536E-14
 -1      3484 8.39515E-03-4.21208E-04-1.22201E-14
 -1      3485 1.01538E-02-6.23828E-04-1.68021E-14
 -1      3486 1.08770E-02-2.59682E-04-1.84944E-14
 -1      3487 1.10588E-02-1.91795E-04-1.89951E-14
 -1      3488 1.12360E-02-1.34572E-04-1.95007E-14
 -1      3489 1.14063E-02-8.48015E-05-2.00094E-14
 -1      3490 1.12568E-02-7.43151E-05-1.92316E-14
 -1      3491 1.15713E-02-4.30280E-05-2.05244E-14
 -1      3492 1.17309E-02-6.42163E-06-2.10465E-14
 -1      3493 1.15915E-02 1.29754E-05-2.02548E-14
 -1      3494 1.18862E-02 2.49384E-05-2.15727E-14
 -1      3495 1.20378E-02 5.31422E-05-2.21040E-14
 -1      3496 1.19015E-02 7.48374E-05-2.12969E-14
 -1      3497 1.21863E-02 7.81100E-05-2.26388E-14
 -1      3498 1.23327E-02 1.01139E-04-2.31804E-14
 -1      3499 1.21953E-02 1.22709E-04-2.23613E-14
 -1      3500 1.24771E-02 1.22237E-04-2.37269E-14
 -1      3501 1.26203E-02 1.42158E-04-2.42739E-14
 -1      3502 1.24797E-02 1.63051E-04-2.34438E-14
 -1      3503 1.27625E-02 1.60979E-04-2.48199E-14
 -1      3504 1.29041E-02 1.79139E-04-2.53695E-14
 -1      3505 1.27594E-02 1.99408E-04-2.45376E-14
 -1      3506 1.30452E-02 1.96752E-04-2.59198E-14
 -1      3507 1.31861E-02 2.14078E-04-2.64700E-14
 -1      3508 1.30372E-02 2.33826E-04-2.56363E-14
 -1      3509 1.33269E-02 2.31252E-04-2.70243E-14
 -1      3510 1.34677E-02 2.48417E-04-2.75788E-14
 -1      3511 1.33149E-02 2.67618E-04-2.67391E-14
 -1      3512 1.21783E-02 3.53934E-04-1.95821E-14
 -1      3513 1.21559E-02 3.36104E-04-1.96113E-14
 -1      3514 4.24975E-03 3.27384E-04-2.57966E-15
 -1      3515 4.10708E-03 3.30320E-04-2.39263E-15
 -1      3516 3.96426E-03 3.32961E-04-2.21433E-15
 -1      3517 3.82130E-03 3.35306E-04-2.04441E-15
 -1      3518 4.03274E-03 2.95294E-04-2.35143E-15
 -1      3519 4.81859E-03 3.13089E-04-3.41066E-15
 -1      3520 4.67669E-03 3.17021E-04-3.19016E-15
 -1      3521 5.10158E-03 3.04668E-04-3.87719E-15
 -1      3522 4.96021E-03 3.08972E-04-3.64006E-15
 -1      3523 4.88446E-03 2.76353E-04-3.58181E-15
 -1      3524 5.38330E-03 2.95730E-04-4.37921E-15
 -1      3525 5.24260E-03 3.00252E-04-4.12349E-15
 -1      3526 5.16563E-03 2.68523E-04-4.05989E-15
 -1      3527 5.66346E-03 2.86718E-04-4.91625E-15
 -1      3528 5.52358E-03 2.91212E-04-4.64314E-15
 -1      3529 5.44488E-03 2.60343E-04-4.57157E-15
 -1      3530 5.94173E-03 2.78315E-04-5.48734E-15
 -1      3531 5.80282E-03 2.82406E-04-5.19716E-15
 -1      3532 5.72177E-03 2.52265E-04-5.11893E-15
 -1      3533 6.21788E-03 2.71508E-04-6.08957E-15
 -1      3534 6.08005E-03 2.74659E-04-5.78457E-15
 -1      3535 5.99584E-03 2.44954E-04-5.70017E-15
 -1      3536 6.49187E-03 2.67659E-04-6.72388E-15
 -1      3537 6.35508E-03 2.69134E-04-6.40339E-15
 -1      3538 6.26663E-03 2.39316E-04-6.31182E-15
 -1      3539 6.76422E-03 2.68580E-04-7.38759E-15
 -1      3540 6.62811E-03 2.67401E-04-7.05218E-15
 -1      3541 6.53389E-03 2.36523E-04-6.95405E-15
 -1      3542 7.03650E-03 2.76648E-04-8.08140E-15
 -1      3543 6.90009E-03 2.71514E-04-7.73020E-15
 -1      3544 6.79781E-03 2.38029E-04-7.62549E-15
 -1      3545 7.31238E-03 2.95307E-04-8.80720E-15
 -1      3546 7.17343E-03 2.84234E-04-8.44108E-15
 -1      3547 7.05951E-03 2.45603E-04-8.32963E-15
 -1      3548 7.59904E-03 3.30512E-04-9.56086E-15
 -1      3549 7.45334E-03 3.09933E-04-9.17948E-15
 -1      3550 7.32226E-03 2.61916E-04-9.06310E-15
 -1      3551 1.23191E-02 5.71359E-04-2.06870E-14
 -1      3552 1.21787E-02 5.62522E-04-2.01586E-14
 -1      3553 3.10468E-03 3.41501E-04-1.30959E-15
 -1      3554 2.96103E-03 3.41359E-04-1.18423E-15
 -1      3555 1.20396E-02 5.55745E-04-1.96451E-14
 -1      3556 1.18923E-02 5.56681E-04-1.91268E-14
 -1      3557 1.18884E-02 5.03469E-04-1.89489E-14
 -1      3558 1.21547E-02 5.16739E-04-1.99679E-14
 -1      3559 1.28686E-02 6.35379E-04-2.28177E-14
 -1      3560 1.27317E-02 6.16252E-04-2.22820E-14
 -1      3561 1.31431E-02 6.77680E-04-2.38885E-14
 -1      3562 1.30056E-02 6.55941E-04-2.33520E-14
 -1      3563 1.29469E-02 6.14194E-04-2.31499E-14
 -1      3564 1.34194E-02 7.23479E-04-2.49628E-14
 -1      3565 1.32810E-02 7.00250E-04-2.44252E-14
 -1      3566 1.32157E-02 6.57637E-04-2.42240E-14
 -1      3567 1.36976E-02 7.70917E-04-2.60371E-14
 -1      3568 1.35582E-02 7.47074E-04-2.55011E-14
 -1      3569 1.34878E-02 7.03573E-04-2.53036E-14
 -1      3570 1.41333E-02 8.86538E-04-2.75777E-14
 -1      3571 7.97417E-03-2.05190E-04-1.14026E-14
 -1      3572 7.78137E-03-1.29510E-04-1.10379E-14
 -1      3573 1.38756E-02 4.86089E-04-2.81048E-14
 -1      3574 1.38985E-02 5.20025E-04-2.80241E-14
 -1      3575 1.25948E-02 5.98910E-04-2.17464E-14
 -1      3576 1.24573E-02 5.83860E-04-2.12169E-14
 -1      3577 1.24172E-02 5.41945E-04-2.10124E-14
 -1      3578 4.53458E-03 3.20718E-04-2.97805E-15
 -1      3579 4.39225E-03 3.24184E-04-2.77470E-15
 -1      3580 4.31776E-03 2.89898E-04-2.72841E-15
 -1      3581 4.60174E-03 2.83540E-04-3.13825E-15
 -1      3582 1.32627E-03 2.85185E-04-2.18860E-16
 -1      3583 1.28414E-03 2.56555E-04-2.17437E-16
 -1      3584 1.45132E-03 2.95364E-04-2.64816E-16
 -1      3585 7.40844E-03 1.97772E-04-1.00032E-14
 -1      3586 7.52584E-03 2.42397E-04-1.00010E-14
 -1      3587 7.30893E-03 6.50037E-05-1.02448E-14
 -1      3588 7.26672E-03 9.64324E-05-1.02262E-14
 -1      3589 1.86223E-03-2.78755E-04-6.97887E-16
 -1      3590 2.00645E-03-2.85773E-04-8.00195E-16
 -1      3591 2.07340E-03-2.53030E-04-8.44458E-16
 -1      3592 7.72236E-03 3.36683E-04-9.98936E-15
 -1      3593 1.43245E-03-1.79987E-04-4.29778E-16
 -1      3594 1.43741E-03-2.15233E-04-4.35646E-16
 -1      3595 1.55436E-03-2.34042E-04-5.01850E-16
 -1      3596 1.20259E-02 4.55652E-04-1.92751E-14
 -1      3597 1.21505E-02 4.02566E-04-1.95645E-14
 -1      3598 1.21835E-02 3.78260E-04-1.96222E-14
 -1      3599 8.20451E-03-3.36651E-04-1.18193E-14
 -1      3600 1.18575E-02 2.45749E-04-1.93208E-14
 -1      3601 1.17031E-02 1.93988E-04-1.91627E-14
 -1      3602 1.05793E-03-3.38602E-05-2.35733E-16
 -1      3603 1.05890E-03-6.14155E-05-2.41655E-16
 -1      3604 1.26589E-03-7.07548E-05-3.30275E-16
 -1      3605 1.17854E-03-2.16432E-05-2.81120E-16
 -1      3606 7.26869E-03 1.54186E-04-9.95746E-15
 -1      3607 7.33066E-03 1.72364E-04-9.98075E-15
 -1      3608 7.31381E-03 1.88321E-04-9.69052E-15
 -1      3609 7.56244E-03-4.80133E-05-1.06302E-14
 -1      3610 7.42241E-03 5.61895E-06-1.03871E-14
 -1      3611 1.15555E-02 1.30680E-04-1.90776E-14
 -1      3612 1.14040E-02 5.52906E-05-1.89939E-14
 -1      3613 1.16870E-02 1.61462E-04-1.94640E-14
 -1      3614 8.04671E-03-3.14283E-04-1.14474E-14
 -1      3615 1.27762E-03 2.22023E-04-2.32209E-16
 -1      3616 1.21677E-02 3.27964E-04-1.98876E-14
 -1      3617 7.56640E-03 2.74620E-04-9.86287E-15
 -1      3618 1.07431E-02-3.14189E-04-1.81438E-14
 -1      3619 1.26812E-02 5.74942E-04-2.20793E-14
 -1      3620 7.73957E-03-2.09616E-04-1.07884E-14
 -1      3621 7.87355E-03-2.81391E-04-1.10438E-14
 -1      3622 3.24822E-03 3.41123E-04-1.44156E-15
 -1      3623 3.17294E-03 3.04218E-04-1.41250E-15
 -1      3624 3.39166E-03 3.40261E-04-1.58066E-15
 -1      3625 2.46307E-03 3.72306E-04-7.71857E-16
 -1      3626 1.39996E-02 7.61653E-04-2.74040E-14
 -1      3627 1.40004E-02 8.02683E-04-2.72690E-14
 -1      3628 7.42531E-03 2.44624E-04-9.57533E-15
 -1      3629 1.22490E-02 3.75425E-04-1.99937E-14
 -1      3630 1.95347E-03 3.17494E-04-4.99302E-16
 -1      3631 1.80947E-03 3.09230E-04-4.26959E-16
 -1      3632 2.81729E-03 3.40598E-04-1.06623E-15
 -1      3633 2.67346E-03 3.39164E-04-9.55562E-16
 -1      3634 2.88510E-03 3.03905E-04-1.15866E-15
 -1      3635 3.74686E-03 2.99603E-04-2.00676E-15
 -1      3636 3.67821E-03 3.37317E-04-1.88182E-15
 -1      3637 3.53499E-03 3.38985E-04-1.72720E-15
 -1      3638 1.39902E-02 7.25941E-04-2.74928E-14
 -1      3639 1.38721E-02 7.24380E-04-2.69559E-14
 -1      3640 1.39792E-02 6.90855E-04-2.75807E-14
 -1      3641 2.09750E-03 3.24240E-04-5.77893E-16
 -1      3642 2.01949E-03 2.85324E-04-5.60654E-16
 -1      3643 2.24156E-03 3.29598E-04-6.62366E-16
 -1      3644 1.05469E-02-4.21400E-04-1.77333E-14
 -1      3645 1.03617E-02-5.06522E-04-1.72440E-14
 -1      3646 7.21445E-03 1.40570E-04-9.85036E-15
 -1      3647 7.18333E-03 1.50131E-04-9.56327E-15
 -1      3648 7.16961E-03 1.28308E-04-9.74344E-15
 -1      3649 1.25807E-03 4.77497E-05-2.94700E-16
 -1      3650 1.25733E-03 1.67398E-05-3.03861E-16
 -1      3651 1.40556E-02 8.40932E-04-2.73848E-14
 -1      3652 1.38266E-02 7.87617E-04-2.65487E-14
 -1      3653 1.37524E-02 7.43601E-04-2.63540E-14
 -1      3654 1.38503E-02 4.51162E-04-2.81816E-14
 -1      3655 1.37453E-02 4.52526E-04-2.76639E-14
 -1      3656 1.38233E-02 4.15633E-04-2.82587E-14
 -1      3657 1.14417E-03 1.48496E-04-2.12761E-16
 -1      3658 1.26167E-03 1.10269E-04-2.74276E-16
 -1      3659 1.25950E-03 7.88399E-05-2.85091E-16
 -1      3660 1.38125E-03 6.69211E-05-3.42825E-16
 -1      3661 1.39197E-02 5.54109E-04-2.79411E-14
 -1      3662 1.39387E-02 5.88087E-04-2.78557E-14
 -1      3663 1.37927E-02 5.20651E-04-2.75042E-14
 -1      3664 7.20517E-03 1.01416E-04-9.98910E-15
 -1      3665 7.30026E-03 2.88233E-05-1.00893E-14
 -1      3666 7.19204E-03 4.41810E-05-9.79565E-15
 -1      3667 7.28517E-03-1.14872E-05-9.93551E-15
 -1      3668 1.19611E-02 2.63529E-04-1.96871E-14
 -1      3669 1.13347E-02-9.88171E-06-1.91748E-14
 -1      3670 1.21531E-02 4.79643E-04-1.98563E-14
 -1      3671 1.21480E-02 4.32604E-04-1.96732E-14
 -1      3672 1.22614E-02 4.29589E-04-2.01474E-14
 -1      3673 1.22760E-02 4.93159E-04-2.03705E-14
 -1      3674 1.42850E-03-1.45382E-04-4.22785E-16
 -1      3675 1.54461E-03-1.61335E-04-4.87362E-16
 -1      3676 1.42549E-03-1.11283E-04-4.14978E-16
 -1      3677 1.64929E-03-2.47902E-04-5.58744E-16
 -1      3678 1.76693E-03-2.65775E-04-6.33662E-16
 -1      3679 1.83370E-03-2.35272E-04-6.73899E-16
 -1      3680 1.64364E-03-2.10295E-04-5.51249E-16
 -1      3681 1.14815E-02 3.51282E-05-1.95602E-14
 -1      3682 7.61236E-03-1.06433E-04-1.06310E-14
 -1      3683 1.32843E-02 6.38912E-04-2.45624E-14
 -1      3684 1.31515E-02 6.16689E-04-2.40213E-14
 -1      3685 2.28602E-03-2.23263E-04-1.00232E-15
 -1      3686 2.43081E-03-2.26031E-04-1.12318E-15
 -1      3687 7.21078E-03 1.78063E-04-9.37303E-15
 -1      3688 7.28071E-03 2.03162E-04-9.39343E-15
 -1      3689 7.51665E-03-1.69067E-04-1.02698E-14
 -1      3690 7.59962E-03-1.50200E-04-1.05133E-14
 -1      3691 7.40264E-03-7.96142E-05-1.01155E-14
 -1      3692 7.36510E-03-1.61231E-04-9.88769E-15
 -1      3693 2.57557E-03-2.28082E-04-1.25093E-15
 -1      3694 2.72026E-03-2.29472E-04-1.38499E-15
 -1      3695 2.49982E-03-1.90451E-04-1.17040E-15
 -1      3696 2.86483E-03-2.30313E-04-1.52630E-15
 -1      3697 3.00926E-03-2.30644E-04-1.67563E-15
 -1      3698 2.78954E-03-1.92880E-04-1.43597E-15
 -1      3699 3.15352E-03-2.30552E-04-1.83035E-15
 -1      3700 3.29759E-03-2.30060E-04-1.99226E-15
 -1      3701 3.07873E-03-1.93474E-04-1.72934E-15
 -1      3702 3.44145E-03-2.29235E-04-2.16099E-15
 -1      3703 3.58508E-03-2.28086E-04-2.33631E-15
 -1      3704 3.36712E-03-1.92636E-04-2.04947E-15
 -1      3705 3.72846E-03-2.26663E-04-2.51982E-15
 -1      3706 3.87159E-03-2.24964E-04-2.70990E-15
 -1      3707 3.65451E-03-1.90649E-04-2.39816E-15
 -1      3708 4.01443E-03-2.23029E-04-2.90768E-15
 -1      3709 4.15698E-03-2.20847E-04-3.11400E-15
 -1      3710 3.94073E-03-1.87696E-04-2.77618E-15
 -1      3711 4.29922E-03-2.18450E-04-3.32620E-15
 -1      3712 4.44112E-03-2.15822E-04-3.54487E-15
 -1      3713 4.22561E-03-1.83883E-04-3.18337E-15
 -1      3714 4.58267E-03-2.12992E-04-3.77232E-15
 -1      3715 4.72386E-03-2.09940E-04-4.00710E-15
 -1      3716 4.50897E-03-1.79261E-04-3.62042E-15
 -1      3717 4.86465E-03-2.06700E-04-4.25044E-15
 -1      3718 5.00505E-03-2.03249E-04-4.50096E-15
 -1      3719 4.79061E-03-1.73853E-04-4.08838E-15
 -1      3720 5.14501E-03-1.99628E-04-4.75825E-15
 -1      3721 5.28456E-03-1.95816E-04-5.02517E-15
 -1      3722 5.07033E-03-1.67667E-04-4.58703E-15
 -1      3723 5.42364E-03-1.91865E-04-5.29924E-15
 -1      3724 5.56231E-03-1.87760E-04-5.58126E-15
 -1      3725 5.34792E-03-1.60723E-04-5.11761E-15
 -1      3726 5.70053E-03-1.83566E-04-5.87155E-15
 -1      3727 5.83838E-03-1.79284E-04-6.16885E-15
 -1      3728 5.62325E-03-1.53070E-04-5.68049E-15
 -1      3729 5.97583E-03-1.74989E-04-6.47453E-15
 -1      3730 6.11305E-03-1.70714E-04-6.78781E-15
 -1      3731 5.89629E-03-1.44803E-04-6.27532E-15
 -1      3732 6.25002E-03-1.66539E-04-7.10707E-15
 -1      3733 6.38703E-03-1.62561E-04-7.43313E-15
 -1      3734 6.16722E-03-1.36093E-04-6.90007E-15
 -1      3735 6.52410E-03-1.58859E-04-7.76575E-15
 -1      3736 6.66168E-03-1.55652E-04-8.10497E-15
 -1      3737 6.43663E-03-1.27240E-04-7.55052E-15
 -1      3738 6.79988E-03-1.53012E-04-8.45083E-15
 -1      3739 6.93941E-03-1.51417E-04-8.80420E-15
 -1      3740 6.70575E-03-1.18791E-04-8.22743E-15
 -1      3741 7.07721E-03-1.53259E-04-9.15453E-15
 -1      3742 7.22112E-03-1.54901E-04-9.52281E-15
 -1      3743 7.24600E-03-1.16260E-04-9.63487E-15
 -1      3744 6.97371E-03-1.14134E-04-8.92229E-15
 -1      3745 1.27609E-02 5.54464E-04-2.24098E-14
 -1      3746 1.26332E-02 5.35631E-04-2.18732E-14
 -1      3747 7.30454E-03 2.28635E-04-9.25892E-15
 -1      3748 1.16403E-02 6.90143E-05-2.00736E-14
 -1      3749 1.17929E-02 9.84688E-05-2.05913E-14
 -1      3750 1.16980E-02 1.25826E-04-1.98914E-14
 -1      3751 1.19401E-02 1.22956E-04-2.11154E-14
 -1      3752 1.20839E-02 1.45009E-04-2.16444E-14
 -1      3753 1.19838E-02 1.70212E-04-2.09323E-14
 -1      3754 1.22246E-02 1.64812E-04-2.21769E-14
 -1      3755 1.23637E-02 1.83493E-04-2.27135E-14
 -1      3756 1.22564E-02 2.05533E-04-2.19911E-14
 -1      3757 1.25012E-02 2.01206E-04-2.32576E-14
 -1      3758 1.26381E-02 2.18388E-04-2.38061E-14
 -1      3759 1.25235E-02 2.37853E-04-2.30701E-14
 -1      3760 1.27745E-02 2.35209E-04-2.43500E-14
 -1      3761 1.29109E-02 2.51819E-04-2.48964E-14
 -1      3762 1.27897E-02 2.69605E-04-2.41616E-14
 -1      3763 1.30474E-02 2.68396E-04-2.54461E-14
 -1      3764 1.31841E-02 2.84955E-04-2.59964E-14
 -1      3765 1.30572E-02 3.01708E-04-2.52564E-14
 -1      3766 1.35776E-02 2.53297E-04-2.80625E-14
 -1      3767 1.36995E-02 2.67020E-04-2.85501E-14
 -1      3768 1.22631E-02 3.44339E-04-2.03353E-14
 -1      3769 1.21888E-02 3.16885E-04-2.02698E-14
 -1      3770 5.22905E-03 2.33303E-04-4.24346E-15
 -1      3771 5.08973E-03 2.36884E-04-3.99488E-15
 -1      3772 4.94986E-03 2.40353E-04-3.75501E-15
 -1      3773 4.80944E-03 2.43725E-04-3.52307E-15
 -1      3774 5.01488E-03 2.05149E-04-3.92962E-15
 -1      3775 5.77918E-03 2.19157E-04-5.32435E-15
 -1      3776 5.64284E-03 2.22572E-04-5.04165E-15
 -1      3777 6.04889E-03 2.13153E-04-5.91430E-15
 -1      3778 5.91452E-03 2.16022E-04-5.61573E-15
 -1      3779 5.83595E-03 1.87430E-04-5.53153E-15
 -1      3780 6.31413E-03 2.08890E-04-6.53428E-15
 -1      3781 6.18207E-03 2.10784E-04-6.22043E-15
 -1      3782 6.10122E-03 1.82942E-04-6.12990E-15
 -1      3783 6.57430E-03 2.07323E-04-7.18466E-15
 -1      3784 6.44482E-03 2.07743E-04-6.85506E-15
 -1      3785 6.36077E-03 1.80247E-04-6.75797E-15
 -1      3786 6.82909E-03 2.09575E-04-7.86537E-15
 -1      3787 6.70227E-03 2.07944E-04-7.52164E-15
 -1      3788 6.61356E-03 1.80082E-04-7.41674E-15
 -1      3789 7.18121E-03 2.21091E-04-8.88696E-15
 -1      3790 1.37462E-02 7.08199E-04-2.64362E-14
 -1      3791 1.36206E-02 6.91896E-04-2.59235E-14
 -1      3792 1.37384E-02 6.73640E-04-2.65233E-14
 -1      3793 1.39341E-02 7.97707E-04-2.69890E-14
 -1      3794 1.73116E-03 2.70016E-04-4.11956E-16
 -1      3795 1.66560E-03 2.99187E-04-3.60714E-16
 -1      3796 1.35192E-02 6.76689E-04-2.55112E-14
 -1      3797 1.33846E-02 6.53812E-04-2.49701E-14
 -1      3798 1.33161E-02 6.13465E-04-2.47689E-14
 -1      3799 1.35144E-02 6.42905E-04-2.55911E-14
 -1      3800 1.30201E-02 5.95161E-04-2.34837E-14
 -1      3801 1.28898E-02 5.74310E-04-2.29469E-14
 -1      3802 1.28338E-02 5.36324E-04-2.27411E-14
 -1      3803 1.30882E-02 5.77452E-04-2.38196E-14
 -1      3804 7.13017E-03 8.52805E-05-9.66387E-15
 -1      3805 7.14053E-03 1.07965E-04-9.70340E-15
 -1      3806 7.08545E-03 1.15069E-04-9.42140E-15
 -1      3807 1.25173E-02 5.20986E-04-2.13853E-14
 -1      3808 1.23912E-02 5.04841E-04-2.08535E-14
 -1      3809 1.23772E-02 4.72418E-04-2.07400E-14
 -1      3810 1.25975E-02 5.01201E-04-2.17125E-14
 -1      3811 4.10119E-03 2.57901E-04-2.49109E-15
 -1      3812 3.95854E-03 2.60101E-04-2.30898E-15
 -1      3813 1.39556E-02 6.22020E-04-2.77697E-14
 -1      3814 1.39703E-02 6.56181E-04-2.76853E-14
 -1      3815 1.38308E-02 5.87563E-04-2.73347E-14
 -1      3816 1.26857E-03 1.74995E-04-2.50220E-16
 -1      3817 1.26468E-03 1.42322E-04-2.62512E-16
 -1      3818 1.38595E-03 1.33520E-04-3.18417E-16
 -1      3819 1.20682E-02 2.79600E-04-2.01005E-14
 -1      3820 1.19427E-02 2.38656E-04-1.99627E-14
 -1      3821 1.37651E-02 3.42904E-04-2.84119E-14
 -1      3822 1.37949E-02 3.79797E-04-2.83352E-14
 -1      3823 1.99662E-03-2.15092E-04-7.81764E-16
 -1      3824 2.14127E-03-2.19646E-04-8.88571E-16
 -1      3825 2.20995E-03-1.85648E-04-9.32089E-16
 -1      3826 1.54012E-03 2.92644E-04-3.05637E-16
 -1      3827 2.52955E-03 3.36920E-04-8.51261E-16
 -1      3828 2.38558E-03 3.33791E-04-7.53344E-16
 -1      3829 2.30818E-03 2.95312E-04-7.33856E-16
 -1      3830 5.50569E-03 2.26085E-04-4.76737E-15
 -1      3831 5.36771E-03 2.29707E-04-4.50092E-15
 -1      3832 5.56593E-03 1.93002E-04-4.96390E-15
 -1      3833 1.18256E-02 1.83346E-04-1.99791E-14
 -1      3834 1.42303E-03 9.02215E-06-3.82195E-16
 -1      3835 1.30027E-03-7.25980E-06-3.30004E-16
 -1      3836 1.34374E-03-3.22764E-05-3.56838E-16
 -1      3837 1.37357E-02 2.92182E-04-2.85738E-14
 -1      3838 1.37716E-02 3.17070E-04-2.85968E-14
 -1      3839 1.23356E-02 3.96500E-04-2.04635E-14
 -1      3840 1.23148E-02 3.71108E-04-2.04200E-14
 -1      3841 1.35627E-02 2.89550E-04-2.77755E-14
 -1      3842 1.36662E-02 3.20694E-04-2.80756E-14
 -1      3843 1.35576E-02 3.15502E-04-2.75921E-14
 -1      3844 1.36900E-02 3.82309E-04-2.78163E-14
 -1      3845 1.34494E-02 3.15154E-04-2.70793E-14
 -1      3846 1.35518E-02 3.45563E-04-2.73794E-14
 -1      3847 3.88452E-03 2.24696E-04-2.26564E-15
 -1      3848 3.81563E-03 2.62038E-04-2.13516E-15
 -1      3849 3.67246E-03 2.63716E-04-1.96886E-15
 -1      3850 7.26227E-03-8.25298E-05-9.72886E-15
 -1      3851 7.27737E-03-4.39261E-05-9.84040E-15
 -1      3852 7.15888E-03-2.01870E-05-9.55154E-15
 -1      3853 7.12818E-03-8.23698E-05-9.36715E-15
 -1      3854 5.29200E-03 1.99060E-04-4.42977E-15
 -1      3855 1.23620E-02 3.63556E-04-2.08045E-14
 -1      3856 1.49807E-03 2.63875E-04-3.03522E-16
 -1      3857 1.23680E-02 4.45534E-04-2.06586E-14
 -1      3858 1.23513E-02 4.18379E-04-2.05474E-14
 -1      3859 1.24344E-02 4.12855E-04-2.09765E-14
 -1      3860 1.24721E-02 4.59854E-04-2.11431E-14
 -1      3861 2.95350E-03 2.67001E-04-1.25341E-15
 -1      3862 2.80920E-03 2.66351E-04-1.13160E-15
 -1      3863 1.33118E-02 2.98320E-04-2.65270E-14
 -1      3864 1.21888E-02 2.99895E-04-2.05489E-14
 -1      3865 2.59680E-03 3.01182E-04-9.32929E-16
 -1      3866 1.19541E-02 2.07743E-04-2.03944E-14
 -1      3867 1.38557E-02 6.55018E-04-2.71466E-14
 -1      3868 4.73514E-03 2.10945E-04-3.46397E-15
 -1      3869 4.66857E-03 2.46928E-04-3.29977E-15
 -1      3870 4.52727E-03 2.49978E-04-3.08541E-15
 -1      3871 7.07876E-03 2.16788E-04-8.57788E-15
 -1      3872 6.95429E-03 2.12509E-04-8.21657E-15
 -1      3873 3.46022E-03 3.02660E-04-1.69453E-15
 -1      3874 1.35821E-02 3.81177E-04-2.73035E-14
 -1      3875 4.38559E-03 2.52824E-04-2.87952E-15
 -1      3876 4.24355E-03 2.55479E-04-2.68138E-15
 -1      3877 4.45327E-03 2.16231E-04-3.03254E-15
 -1      3878 1.79773E-03 2.39970E-04-4.66058E-16
 -1      3879 1.65370E-03 2.31676E-04-3.96059E-16
 -1      3880 1.90141E-03-2.03930E-04-7.13432E-16
 -1      3881 1.96995E-03-1.71754E-04-7.53236E-16
 -1      3882 1.80633E-03-1.92548E-04-6.48787E-16
 -1      3883 1.36109E-02 4.16211E-04-2.72253E-14
 -1      3884 1.36377E-02 4.50541E-04-2.71492E-14
 -1      3885 1.34755E-02 3.80258E-04-2.67888E-14
 -1      3886 1.50551E-03 8.75009E-05-3.94053E-16
 -1      3887 1.50388E-03 5.30045E-05-4.06386E-16
 -1      3888 1.36621E-02 4.84111E-04-2.70693E-14
 -1      3889 1.36841E-02 5.17285E-04-2.69851E-14
 -1      3890 1.35310E-02 4.48255E-04-2.66316E-14
 -1      3891 1.39822E-03 2.16302E-04-2.85023E-16
 -1      3892 6.85852E-03 1.83260E-04-8.10638E-15
 -1      3893 7.06947E-03 2.63030E-05-9.36614E-15
 -1      3894 7.09913E-03 5.77264E-05-9.51452E-15
 -1      3895 7.01713E-03 6.81138E-05-9.23624E-15
 -1      3896 4.16963E-03 2.20855E-04-2.63303E-15
 -1      3897 1.62791E-03-1.71218E-04-5.36002E-16
 -1      3898 1.72259E-03-1.82964E-04-5.94549E-16
 -1      3899 1.79120E-03-1.52461E-04-6.30843E-16
 -1      3900 1.62431E-03-1.34703E-04-5.26976E-16
 -1      3901 7.14340E-03 1.61498E-04-9.26974E-15
 -1      3902 2.08651E-03 2.52495E-04-6.24446E-16
 -1      3903 1.94202E-03 2.46867E-04-5.42006E-16
 -1      3904 1.86520E-03 2.09040E-04-5.22328E-16
 -1      3905 3.09765E-03 2.67156E-04-1.38237E-15
 -1      3906 3.02242E-03 2.29962E-04-1.35060E-15
 -1      3907 3.24164E-03 2.66847E-04-1.51788E-15
 -1      3908 1.36181E-03-5.77005E-05-3.71732E-16
 -1      3909 1.40637E-03-8.45346E-05-3.99515E-16
 -1      3910 1.52175E-03-9.78579E-05-4.62033E-16
 -1      3911 1.48442E-03-4.35137E-05-4.28585E-16
 -1      3912 1.54674E-03 2.68408E-05-4.37760E-16
 -1      3913 1.59015E-03-9.12715E-08-4.70286E-16
 -1      3914 1.67129E-03 4.60026E-05-4.96863E-16
 -1      3915 1.48756E-03 2.12647E-04-3.26535E-16
 -1      3916 1.33177E-02 3.31332E-04-2.63361E-14
 -1      3917 7.07525E-03 1.89014E-04-8.76783E-15
 -1      3918 2.71456E-03-1.55491E-04-1.34795E-15
 -1      3919 2.85944E-03-1.56076E-04-1.48566E-15
 -1      3920 3.00417E-03-1.56319E-04-1.63034E-15
 -1      3921 3.14870E-03-1.56235E-04-1.78223E-15
 -1      3922 2.92991E-03-1.19125E-04-1.53466E-15
 -1      3923 3.29300E-03-1.55884E-04-1.94079E-15
 -1      3924 3.43703E-03-1.55269E-04-2.10618E-15
 -1      3925 3.21913E-03-1.18993E-04-1.83420E-15
 -1      3926 3.58078E-03-1.54439E-04-2.27898E-15
 -1      3927 3.72422E-03-1.53386E-04-2.45931E-15
 -1      3928 3.50731E-03-1.18024E-04-2.16224E-15
 -1      3929 3.86732E-03-1.52149E-04-2.64656E-15
 -1      3930 4.01005E-03-1.50711E-04-2.84129E-15
 -1      3931 3.79420E-03-1.16357E-04-2.51936E-15
 -1      3932 4.15239E-03-1.49107E-04-3.04376E-15
 -1      3933 4.29432E-03-1.47310E-04-3.25337E-15
 -1      3934 4.07955E-03-1.14068E-04-2.90607E-15
 -1      3935 4.43580E-03-1.45352E-04-3.47022E-15
 -1      3936 4.57682E-03-1.43201E-04-3.69489E-15
 -1      3937 4.36314E-03-1.11184E-04-3.32280E-15
 -1      3938 4.71731E-03-1.40888E-04-3.92767E-15
 -1      3939 4.85728E-03-1.38373E-04-4.16869E-15
 -1      3940 4.64470E-03-1.07692E-04-3.76988E-15
 -1      3941 4.99665E-03-1.35691E-04-4.41750E-15
 -1      3942 5.13543E-03-1.32797E-04-4.67295E-15
 -1      3943 4.92392E-03-1.03548E-04-4.24835E-15
 -1      3944 5.27356E-03-1.29729E-04-4.93750E-15
 -1      3945 5.41102E-03-1.26439E-04-5.21053E-15
 -1      3946 5.20047E-03-9.86822E-05-4.75927E-15
 -1      3947 5.54776E-03-1.22970E-04-5.49120E-15
 -1      3948 5.68380E-03-1.19269E-04-5.77969E-15
 -1      3949 5.47399E-03-9.30035E-05-5.30340E-15
 -1      3950 5.81907E-03-1.15388E-04-6.07652E-15
 -1      3951 5.95362E-03-1.11270E-04-6.38138E-15
 -1      3952 5.74412E-03-8.63980E-05-5.87959E-15
 -1      3953 6.08739E-03-1.06974E-04-6.69275E-15
 -1      3954 6.22051E-03-1.02451E-04-7.01091E-15
 -1      3955 6.01055E-03-7.87276E-05-6.48642E-15
 -1      3956 6.35289E-03-9.77587E-05-7.33544E-15
 -1      3957 6.48481E-03-9.28859E-05-7.66684E-15
 -1      3958 6.27308E-03-6.98284E-05-7.12161E-15
 -1      3959 6.61617E-03-8.78843E-05-8.00476E-15
 -1      3960 6.74747E-03-8.28299E-05-8.34905E-15
 -1      3961 6.53170E-03-5.95431E-05-7.78232E-15
 -1      3962 5.35478E-03 1.65831E-04-4.61809E-15
 -1      3963 5.21768E-03 1.68319E-04-4.35760E-15
 -1      3964 1.24672E-02 3.83486E-04-2.12995E-14
 -1      3965 1.24071E-02 3.53681E-04-2.12142E-14
 -1      3966 7.05652E-03 1.57615E-04-8.95715E-15
 -1      3967 6.96584E-03 1.55006E-04-8.64878E-15
 -1      3968 7.04819E-03 1.31856E-04-9.14392E-15
 -1      3969 1.20835E-02 2.23485E-04-2.09177E-14
 -1      3970 1.22438E-02 2.33858E-04-2.16583E-14
 -1      3971 1.23729E-02 2.48483E-04-2.21916E-14
 -1      3972 1.25016E-02 2.63214E-04-2.27315E-14
 -1      3973 1.26309E-02 2.78094E-04-2.32759E-14
 -1      3974 1.24816E-02 2.87441E-04-2.23944E-14
 -1      3975 1.27607E-02 2.93275E-04-2.38205E-14
 -1      3976 1.28913E-02 3.08724E-04-2.43670E-14
 -1      3977 1.27325E-02 3.15854E-04-2.34787E-14
 -1      3978 1.30227E-02 3.24529E-04-2.49136E-14
 -1      3979 1.31550E-02 3.40659E-04-2.54627E-14
 -1      3980 1.29885E-02 3.46370E-04-2.45722E-14
 -1      3981 6.15357E-03 1.54328E-04-6.34800E-15
 -1      3982 6.02387E-03 1.55559E-04-6.04010E-15
 -1      3983 5.89264E-03 1.57094E-04-5.73878E-15
 -1      3984 5.75996E-03 1.59017E-04-5.44676E-15
 -1      3985 5.94962E-03 1.28142E-04-5.94941E-15
 -1      3986 6.65299E-03 1.54962E-04-7.65233E-15
 -1      3987 6.53139E-03 1.53933E-04-7.31443E-15
 -1      3988 3.52906E-03 2.65090E-04-1.81088E-15
 -1      3989 3.38545E-03 2.66153E-04-1.66096E-15
 -1      3990 3.31073E-03 2.29464E-04-1.62614E-15
 -1      3991 3.59816E-03 2.27624E-04-1.93035E-15
 -1      3992 1.37324E-02 6.39760E-04-2.66248E-14
 -1      3993 1.36098E-02 6.24361E-04-2.61054E-14
 -1      3994 1.37239E-02 6.06340E-04-2.67262E-14
 -1      3995 2.73341E-03 2.28754E-04-1.10351E-15
 -1      3996 2.66477E-03 2.65105E-04-1.01712E-15
 -1      3997 2.52025E-03 2.63210E-04-9.09063E-16
 -1      3998 1.55486E-03 1.85482E-04-3.72586E-16
 -1      3999 1.33499E-02 3.66509E-04-2.62577E-14
 -1      4000 1.36976E-02 5.45392E-04-2.68982E-14
 -1      4001 1.37147E-02 5.78215E-04-2.68155E-14
 -1      4002 1.35939E-02 5.63985E-04-2.62927E-14
 -1      4003 1.35703E-02 5.08972E-04-2.64655E-14
 -1      4004 1.33103E-02 3.88123E-04-2.59138E-14
 -1      4005 6.87066E-03 1.55481E-04-8.31850E-15
 -1      4006 6.75491E-03 1.53071E-04-7.96748E-15
 -1      4007 6.67789E-03 1.28295E-04-7.85858E-15
 -1      4008 6.87255E-03 1.27175E-04-8.50305E-15
 -1      4009 1.23014E-02 3.16726E-04-2.10153E-14
 -1      4010 1.21832E-02 2.77119E-04-2.08430E-14
 -1      4011 6.40756E-03 1.53451E-04-6.98371E-15
 -1      4012 6.28149E-03 1.53676E-04-6.66166E-15
 -1      4013 6.20644E-03 1.27299E-04-6.56654E-15
 -1      4014 2.13444E-03-1.48512E-04-8.63459E-16
 -1      4015 2.27942E-03-1.51068E-04-9.74101E-16
 -1      4016 5.07975E-03 1.70785E-04-4.10585E-15
 -1      4017 4.94102E-03 1.73256E-04-3.86354E-15
 -1      4018 5.14461E-03 1.37291E-04-4.28481E-15
 -1      4019 5.62603E-03 1.61116E-04-5.16254E-15
 -1      4020 5.49092E-03 1.63441E-04-4.88619E-15
 -1      4021 5.41760E-03 1.33633E-04-4.80747E-15
 -1      4022 4.23812E-03 1.84205E-04-2.77767E-15
 -1      4023 4.09604E-03 1.86005E-04-2.58426E-15
 -1      4024 2.37568E-03 2.60539E-04-8.07432E-16
 -1      4025 2.23107E-03 2.57018E-04-7.12727E-16
 -1      4026 2.15437E-03 2.19037E-04-6.90433E-16
 -1      4027 2.44395E-03 2.25334E-04-8.83882E-16
 -1      4028 2.42449E-03-1.53044E-04-1.09172E-15
 -1      4029 2.56955E-03-1.54490E-04-1.21631E-15
 -1      4030 2.34963E-03-1.15950E-04-1.01559E-15
 -1      4031 7.00533E-03 1.09868E-04-9.10867E-15
 -1      4032 4.02278E-03 1.50877E-04-2.53466E-15
 -1      4033 3.95356E-03 1.87622E-04-2.39876E-15
 -1      4034 3.81071E-03 1.89068E-04-2.22135E-15
 -1      4035 6.87127E-03-8.29422E-05-8.67824E-15
 -1      4036 7.00077E-03-8.06719E-05-9.02666E-15
 -1      4037 7.02146E-03-5.07378E-05-9.11559E-15
 -1      4038 6.77935E-03-5.26285E-05-8.44828E-15
 -1      4039 1.24216E-02 3.36860E-04-2.15082E-14
 -1      4040 1.29001E-02 5.19998E-04-2.30755E-14
 -1      4041 1.27777E-02 5.00455E-04-2.25354E-14
 -1      4042 1.73204E-03-1.02131E-05-5.52672E-16
 -1      4043 1.60785E-03-2.76027E-05-4.88907E-16
 -1      4044 1.62607E-03-5.54560E-05-5.07501E-16
 -1      4045 6.94845E-03 8.70118E-05-8.96559E-15
 -1      4046 6.89395E-03 1.05407E-04-8.69532E-15
 -1      4047 6.89858E-03 6.20749E-05-8.82383E-15
 -1      4048 1.33387E-02 4.20997E-04-2.58359E-14
 -1      4049 1.33641E-02 4.53115E-04-2.57566E-14
 -1      4050 1.31490E-02 3.94756E-04-2.50419E-14
 -1      4051 4.80160E-03 1.75643E-04-3.63040E-15
 -1      4052 4.66154E-03 1.77969E-04-3.40471E-15
 -1      4053 4.86806E-03 1.41060E-04-3.79800E-15
 -1      4054 2.63994E-03-1.18208E-04-1.26174E-15
 -1      4055 5.68626E-03 1.30432E-04-5.36257E-15
 -1      4056 2.80270E-03 1.92155E-04-1.19283E-15
 -1      4057 2.65789E-03 1.91196E-04-1.07425E-15
 -1      4058 4.52092E-03 1.80170E-04-3.18715E-15
 -1      4059 4.37975E-03 1.82265E-04-2.97856E-15
 -1      4060 4.58859E-03 1.44689E-04-3.34501E-15
 -1      4061 3.09188E-03 1.92815E-04-1.45055E-15
 -1      4062 2.94738E-03 1.92687E-04-1.31813E-15
 -1      4063 2.87257E-03 1.55373E-04-1.28500E-15
 -1      4064 1.51133E-03 1.57684E-04-3.65471E-16
 -1      4065 1.50798E-03 1.22356E-04-3.80514E-16
 -1      4066 1.94433E-03-1.29003E-04-7.24139E-16
 -1      4067 2.03932E-03-1.38789E-04-7.92430E-16
 -1      4068 2.10946E-03-1.05055E-04-8.30241E-16
 -1      4069 1.33522E-02 5.91119E-04-2.50076E-14
 -1      4070 1.32551E-02 5.76925E-04-2.45970E-14
 -1      4071 1.63070E-03 1.09246E-04-4.48047E-16
 -1      4072 1.26773E-02 4.87396E-04-2.20817E-14
 -1      4073 1.25695E-02 4.71842E-04-2.15918E-14
 -1      4074 1.25483E-02 4.47135E-04-2.15099E-14
 -1      4075 1.27403E-02 4.72188E-04-2.24142E-14
 -1      4076 6.45516E-03 1.28444E-04-7.21213E-15
 -1      4077 1.35297E-02 6.14913E-04-2.57634E-14
 -1      4078 1.34314E-02 6.00536E-04-2.53478E-14
 -1      4079 1.33664E-02 5.64357E-04-2.51760E-14
 -1      4080 1.35233E-02 5.82515E-04-2.58605E-14
 -1      4081 1.67706E-03 1.73668E-04-4.40430E-16
 -1      4082 4.30670E-03 1.48004E-04-2.92401E-15
 -1      4083 1.82115E-03 1.79877E-04-5.14739E-16
 -1      4084 1.77759E-03 1.51216E-04-5.06119E-16
 -1      4085 1.96561E-03 1.85045E-04-5.95308E-16
 -1      4086 1.76594E-03 7.38263E-05-5.37859E-16
 -1      4087 1.80885E-03 4.55130E-05-5.75305E-16
 -1      4088 1.25276E-02 4.25030E-04-2.14446E-14
 -1      4089 1.24983E-02 4.03443E-04-2.13602E-14
 -1      4090 1.25585E-02 3.94660E-04-2.17692E-14
 -1      4091 1.26194E-02 4.36991E-04-2.18956E-14
 -1      4092 7.03822E-03-2.49432E-05-9.19665E-15
 -1      4093 7.05523E-03 2.95848E-06-9.28636E-15
 -1      4094 6.95876E-03 1.91094E-05-9.01340E-15
 -1      4095 6.92009E-03-2.69874E-05-8.85799E-15
 -1      4096 1.22052E-02 2.65181E-04-2.11147E-14
 -1      4097 1.31392E-02 5.58328E-04-2.41035E-14
 -1      4098 1.30126E-02 5.37648E-04-2.35625E-14
 -1      4099 1.29485E-02 5.02119E-04-2.33573E-14
 -1      4100 1.31735E-02 5.37217E-04-2.43406E-14
 -1      4101 1.61514E-03-8.08054E-05-5.08803E-16
 -1      4102 1.63433E-03-1.09216E-04-5.27112E-16
 -1      4103 1.71758E-03-1.17506E-04-5.77527E-16
 -1      4104 1.73877E-03-6.51764E-05-5.75359E-16
 -1      4105 1.77456E-03 1.13512E-04-5.23710E-16
 -1      4106 1.91239E-03 1.14765E-04-6.03508E-16
 -1      4107 5.48083E-03 1.02419E-04-4.99953E-15
 -1      4108 5.34582E-03 1.03497E-04-4.72854E-15
 -1      4109 3.14560E-03-8.20046E-05-1.73071E-15
 -1      4110 3.29002E-03-8.17800E-05-1.88581E-15
 -1      4111 3.43416E-03-8.14275E-05-2.04827E-15
 -1      4112 3.57796E-03-8.09319E-05-2.21794E-15
 -1      4113 3.36133E-03-4.46577E-05-1.93668E-15
 -1      4114 3.72141E-03-8.03273E-05-2.39414E-15
 -1      4115 3.86447E-03-7.95913E-05-2.57872E-15
 -1      4116 3.64896E-03-4.40480E-05-2.27207E-15
 -1      4117 4.00711E-03-7.87562E-05-2.77095E-15
 -1      4118 4.14929E-03-7.77948E-05-2.97024E-15
 -1      4119 3.93504E-03-4.31400E-05-2.63788E-15
 -1      4120 4.29099E-03-7.67290E-05-3.17748E-15
 -1      4121 4.43216E-03-7.55303E-05-3.39182E-15
 -1      4122 4.21929E-03-4.19323E-05-3.03352E-15
 -1      4123 4.57276E-03-7.42187E-05-3.61408E-15
 -1      4124 4.71275E-03-7.27575E-05-3.84455E-15
 -1      4125 4.50141E-03-4.03859E-05-3.46090E-15
 -1      4126 4.85209E-03-7.11665E-05-4.08256E-15
 -1      4127 4.99072E-03-6.94003E-05-4.32906E-15
 -1      4128 4.78105E-03-3.84312E-05-3.91874E-15
 -1      4129 5.12859E-03-6.74794E-05-4.58294E-15
 -1      4130 5.26566E-03-6.53480E-05-4.84556E-15
 -1      4131 5.05778E-03-3.59612E-05-4.40847E-15
 -1      4132 5.40183E-03-6.30280E-05-5.11697E-15
 -1      4133 5.53710E-03-6.04509E-05-5.39645E-15
 -1      4134 5.33114E-03-3.28236E-05-4.93224E-15
 -1      4135 5.67134E-03-5.76405E-05-5.68335E-15
 -1      4136 5.80456E-03-5.45131E-05-5.97881E-15
 -1      4137 5.60055E-03-2.88108E-05-5.48960E-15
 -1      4138 5.93661E-03-5.10944E-05-6.28223E-15
 -1      4139 6.06753E-03-4.72826E-05-6.59152E-15
 -1      4140 5.86537E-03-2.36476E-05-6.07774E-15
 -1      4141 6.19712E-03-4.31087E-05-6.90844E-15
 -1      4142 6.32549E-03-3.84415E-05-7.23178E-15
 -1      4143 6.12485E-03-1.69784E-05-6.69591E-15
 -1      4144 6.45234E-03-3.33358E-05-7.56155E-15
 -1      4145 6.57797E-03-2.76242E-05-7.89783E-15
 -1      4146 6.37806E-03-8.35444E-06-7.34088E-15
 -1      4147 1.27044E-02 3.36900E-04-2.31392E-14
 -1      4148 1.28283E-02 3.51537E-04-2.36841E-14
 -1      4149 1.29242E-02 3.64883E-04-2.40867E-14
 -1      4150 1.30511E-02 3.80634E-04-2.46344E-14
 -1      4151 1.30796E-02 4.11642E-04-2.45560E-14
 -1      4152 1.28895E-02 3.83980E-04-2.37448E-14
 -1      4153 6.50476E-03 1.05122E-04-7.44070E-15
 -1      4154 6.38404E-03 1.03175E-04-7.10877E-15
 -1      4155 2.04214E-03 1.36816E-04-6.71406E-16
 -1      4156 2.03309E-03 9.49577E-05-6.89376E-16
 -1      4157 4.37546E-03 1.12280E-04-3.07215E-15
 -1      4158 4.23410E-03 1.13433E-04-2.86876E-15
 -1      4159 5.74714E-03 1.00865E-04-5.56339E-15
 -1      4160 5.61463E-03 1.01561E-04-5.27750E-15
 -1      4161 5.54471E-03 7.21682E-05-5.19230E-15
 -1      4162 6.26076E-03 1.01678E-04-6.78660E-15
 -1      4163 6.13518E-03 1.00886E-04-6.47061E-15
 -1      4164 6.31716E-03 7.74008E-05-7.00798E-15
 -1      4165 2.56579E-03-8.11209E-05-1.17834E-15
 -1      4166 2.71096E-03-8.16422E-05-1.30679E-15
 -1      4167 2.58269E-03 1.53745E-04-1.04375E-15
 -1      4168 2.51297E-03 1.89718E-04-9.62595E-16
 -1      4169 2.36802E-03 1.87675E-04-8.57536E-16
 -1      4170 2.27535E-03-7.92824E-05-9.42782E-16
 -1      4171 2.42056E-03-8.03387E-05-1.05711E-15
 -1      4172 2.49214E-03-4.42948E-05-1.09794E-15
 -1      4173 5.20973E-03 1.04649E-04-4.46703E-15
 -1      4174 5.07266E-03 1.05920E-04-4.21259E-15
 -1      4175 5.27531E-03 7.28576E-05-4.65022E-15
 -1      4176 6.00759E-03 1.00443E-04-6.16118E-15
 -1      4177 5.87816E-03 1.00524E-04-5.85868E-15
 -1      4178 6.06699E-03 7.39405E-05-6.37344E-15
 -1      4179 2.85603E-03-8.19551E-05-1.44118E-15
 -1      4180 3.00092E-03-8.20598E-05-1.58226E-15
 -1      4181 2.78257E-03-4.48573E-05-1.35020E-15
 -1      4182 1.80103E-03-1.25774E-04-6.30599E-16
 -1      4183 1.94739E-03 3.74826E-05-6.63057E-16
 -1      4184 1.85293E-03 9.63949E-06-6.16572E-16
 -1      4185 6.62404E-03 2.88110E-06-8.01327E-15
 -1      4186 6.70202E-03-2.13929E-05-8.24137E-15
 -1      4187 1.87102E-03-9.39039E-05-6.65781E-16
 -1      4188 6.81751E-03-1.90709E-05-8.56914E-15
 -1      4189 5.80899E-03 7.23736E-05-5.76804E-15
 -1      4190 1.23304E-02 2.85190E-04-2.15831E-14
 -1      4191 6.86357E-03 2.44502E-05-8.72024E-15
 -1      4192 6.78372E-03 4.78047E-05-8.45796E-15
 -1      4193 1.24624E-02 3.09723E-04-2.20564E-14
 -1      4194 1.25825E-02 3.22837E-04-2.25957E-14
 -1      4195 1.29958E-02 4.85527E-04-2.36611E-14
 -1      4196 1.28865E-02 4.69045E-04-2.31712E-14
 -1      4197 6.70240E-03 1.03997E-04-8.04734E-15
 -1      4198 6.64016E-03 7.95019E-05-7.93477E-15
 -1      4199 4.93471E-03 1.07199E-04-3.96731E-15
 -1      4200 4.79594E-03 1.08522E-04-3.73208E-15
 -1      4201 5.00168E-03 7.40741E-05-4.14020E-15
 -1      4202 4.65643E-03 1.09805E-04-3.50387E-15
 -1      4203 4.51625E-03 1.11079E-04-3.28357E-15
 -1      4204 4.72453E-03 7.55427E-05-3.66482E-15
 -1      4205 2.20575E-03 7.85374E-05-8.13612E-16
 -1      4206 2.07636E-03 5.77311E-05-7.36783E-16
 -1      4207 2.12046E-03 2.00333E-05-7.85220E-16
 -1      4208 3.38022E-03 1.92104E-04-1.73639E-15
 -1      4209 3.23617E-03 1.92619E-04-1.59000E-15
 -1      4210 3.16180E-03 1.55628E-04-1.55284E-15
 -1      4211 1.25407E-02 3.59069E-04-2.19820E-14
 -1      4212 1.24325E-02 3.19184E-04-2.17813E-14
 -1      4213 4.16191E-03 7.85040E-05-2.81230E-15
 -1      4214 4.09222E-03 1.14490E-04-2.67257E-15
 -1      4215 3.94987E-03 1.15469E-04-2.48406E-15
 -1      4216 3.66752E-03 1.90304E-04-2.05157E-15
 -1      4217 3.52402E-03 1.91332E-04-1.88981E-15
 -1      4218 3.45008E-03 1.54831E-04-1.84892E-15
 -1      4219 3.73715E-03 1.53193E-04-2.17563E-15
 -1      4220 3.07243E-03-4.49476E-05-1.62979E-15
 -1      4221 1.27993E-02 4.59058E-04-2.27606E-14
 -1      4222 1.27032E-02 4.46575E-04-2.23044E-14
 -1      4223 1.26730E-02 4.24445E-04-2.22397E-14
 -1      4224 1.28418E-02 4.43088E-04-2.30621E-14
 -1      4225 2.94303E-03 1.18439E-04-1.37878E-15
 -1      4226 2.79813E-03 1.18089E-04-1.24976E-15
 -1      4227 1.35154E-02 5.55365E-04-2.59473E-14
 -1      4228 1.34373E-02 5.46681E-04-2.56035E-14
 -1      4229 1.35051E-02 5.28242E-04-2.60354E-14
 -1      4230 4.44445E-03 7.70659E-05-3.22294E-15
 -1      4231 1.87062E-03-1.97567E-05-6.39083E-16
 -1      4232 1.33599E-02 5.38026E-04-2.52605E-14
 -1      4233 1.32830E-02 5.29316E-04-2.49183E-14
 -1      4234 1.33506E-02 5.11803E-04-2.53451E-14
 -1      4235 2.10229E-03 1.89979E-04-6.76840E-16
 -1      4236 2.05863E-03 1.60527E-04-6.67584E-16
 -1      4237 2.24714E-03 1.93418E-04-7.69472E-16
 -1      4238 1.26383E-02 4.02731E-04-2.21771E-14
 -1      4239 1.25987E-02 3.81364E-04-2.21167E-14
 -1      4240 1.27203E-02 4.11333E-04-2.25879E-14
 -1      4241 1.31687E-02 5.11875E-04-2.44215E-14
 -1      4242 2.65308E-03 1.17449E-04-1.12757E-15
 -1      4243 2.50793E-03 1.16500E-04-1.01221E-15
 -1      4244 2.72408E-03 8.08892E-05-1.21385E-15
 -1      4245 1.26758E-02 3.56304E-04-2.27973E-14
 -1      4246 1.26212E-02 3.66069E-04-2.23908E-14
 -1      4247 2.17899E-03 1.40430E-04-7.58684E-16
 -1      4248 1.88188E-03-6.68098E-05-6.63559E-16
 -1      4249 3.57687E-03-7.54314E-06-2.15244E-15
 -1      4250 3.72031E-03-7.39584E-06-2.32597E-15
 -1      4251 3.90549E-03 1.81858E-05-2.53619E-15
 -1      4252 4.04793E-03 1.81743E-05-2.72652E-15
 -1      4253 4.18987E-03 1.81455E-05-2.92408E-15
 -1      4254 4.33126E-03 1.81646E-05-3.12986E-15
 -1      4255 4.47207E-03 1.81845E-05-3.34280E-15
 -1      4256 4.61225E-03 1.82792E-05-3.56381E-15
 -1      4257 4.75173E-03 1.83957E-05-3.79289E-15
 -1      4258 4.89046E-03 1.86261E-05-4.03005E-15
 -1      4259 5.02837E-03 1.89084E-05-4.27611E-15
 -1      4260 5.16541E-03 1.93598E-05-4.53024E-15
 -1      4261 5.30145E-03 1.99056E-05-4.79220E-15
 -1      4262 5.43646E-03 2.06967E-05-5.06404E-15
 -1      4263 5.57028E-03 2.16395E-05-5.34304E-15
 -1      4264 5.70288E-03 2.29306E-05-5.62973E-15
 -1      4265 5.83405E-03 2.44471E-05-5.92544E-15
 -1      4266 5.96377E-03 2.64476E-05-6.22688E-15
 -1      4267 6.09175E-03 2.87630E-05-6.53695E-15
 -1      4268 6.21798E-03 3.17411E-05-6.85338E-15
 -1      4269 6.34209E-03 3.51174E-05-7.17572E-15
 -1      4270 6.46406E-03 3.94127E-05-7.50577E-15
 -1      4271 1.27379E-02 3.80391E-04-2.29334E-14
 -1      4272 1.30992E-02 4.77641E-04-2.42380E-14
 -1      4273 6.84056E-03 3.28626E-06-8.64539E-15
 -1      4274 1.31322E-02 4.49858E-04-2.45748E-14
 -1      4275 1.29597E-02 4.26028E-04-2.38100E-14
 -1      4276 2.00250E-03-4.75644E-05-7.34777E-16
 -1      4277 1.33800E-02 4.80169E-04-2.56735E-14
 -1      4278 2.09570E-03-6.73676E-05-8.06389E-16
 -1      4279 2.19063E-03-7.60393E-05-8.77743E-16
 -1      4280 2.41909E-03-7.82234E-06-1.01953E-15
 -1      4281 2.56437E-03-7.87227E-06-1.13723E-15
 -1      4282 6.80010E-03 1.04152E-04-8.36797E-15
 -1      4283 2.99969E-03-7.87675E-06-1.53074E-15
 -1      4284 3.14442E-03-7.81918E-06-1.67547E-15
 -1      4285 3.04405E-03 9.24374E-05-1.49558E-15
 -1      4286 2.97060E-03 5.52912E-05-1.45546E-15
 -1      4287 3.28889E-03-7.75436E-06-1.82757E-15
 -1      4288 3.43305E-03-7.65495E-06-1.98637E-15
 -1      4289 3.21685E-03 2.92664E-05-1.72079E-15
 -1      4290 2.31648E-03 1.58676E-04-8.41449E-16
 -1      4291 2.26215E-03-4.09370E-05-9.15798E-16
 -1      4292 2.30014E-03 1.34392E-04-8.46111E-16
 -1      4293 2.34288E-03 9.57920E-05-9.01108E-16
 -1      4294 3.50515E-03 2.91812E-05-2.03499E-15
 -1      4295 6.55158E-03 6.65234E-05-7.70128E-15
 -1      4296 6.58331E-03 2.65953E-05-7.87277E-15
 -1      4297 1.28044E-02 4.20099E-04-2.29988E-14
 -1      4298 1.28676E-02 4.12226E-04-2.34072E-14
 -1      4299 3.83456E-03 5.44221E-05-2.40647E-15
 -1      4300 2.08446E-03-1.85263E-05-7.78132E-16
 -1      4301 2.21309E-03 8.96107E-07-8.59664E-16
 -1      4302 3.76398E-03 9.09516E-05-2.27910E-15
 -1      4303 3.62067E-03 9.14965E-05-2.10667E-15
 -1      4304 3.18864E-03 9.24031E-05-1.63734E-15
 -1      4305 2.83989E-03-1.33820E-05-1.38249E-15
 -1      4306 2.91248E-03 2.36710E-05-1.42479E-15
 -1      4307 2.81065E-03 4.96136E-05-1.31232E-15
 -1      4308 2.69475E-03-1.33614E-05-1.25210E-15
 -1      4309 2.29776E-03-1.58796E-06-9.23374E-16
 -1      4310 2.37069E-03 3.45146E-05-9.58069E-16
 -1      4311 2.66550E-03 4.93379E-05-1.18614E-15
 -1      4312 6.70115E-03 3.28558E-05-8.21703E-15
 -1      4313 2.62223E-03 2.33873E-05-1.16638E-15
 -1      4314 1.32281E-02 4.65005E-04-2.49818E-14
 -1      4315 3.33296E-03 9.22367E-05-1.78690E-15
 -1      4316 1.33037E-02 4.72568E-04-2.53271E-14
 -1      4317 3.47698E-03 9.19144E-05-1.94304E-15
 -1      4318 6.74943E-03 6.86898E-05-8.31336E-15
 -1      4319 2.53527E-03 5.43828E-05-1.07509E-15
 -1      4320 2.41413E-03 6.01357E-05-9.76405E-16
 -3
    1PSTEP                         2           1           1          
  100CL  101 1.000000000        4320                     0    1           1
 -4  STRESS      6    1
 -5  SXX         1    4    1    1
 -5  SYY         1    4    2    2
 -5  SZZ         1    4    3    3
 -5  SXY         1    4    1    2
 -5  SYZ         1    4    2    3
 -5  SZX         1    4    3    1
 -1         1 6.20180E+01 2.26700E+00 3.32666E+00-8.91870E+00 1.59972E-13-5.19973E-13
 -1         2-6.86857E-01-2.44984E+01-3.36147E+00-1.06920E-01 5.41268E-14 5.43975E-14
 -1         3 1.99929E+01-7.47365E-03 2.27112E-02-7.49351E-03-3.45611E-13-4.33763E-13
 -1         4 1.99940E+01-6.02201E-03 2.02685E-02 6.16704E-03 6.66754E-14 6.91810E-14
 -1         5 3.27525E+01 6.13963E+00 2.74161E+00 6.22271E+00-1.56264E-14 8.34624E-13
 -1         6 3.57364E+01 1.22582E+01 5.12400E+00-8.64439E+00-4.66849E-14 4.34264E-13
 -1         7 2.08075E+01 6.09657E+00-1.28990E-01-4.72614E+00-7.95197E-15-3.47118E-14
 -1         8 1.96649E+01 5.93294E+00 5.08432E-02-3.27688E+00-4.16334E-15-1.52953E-13
 -1         9 1.91349E+01 5.77115E+00 4.91944E-02-2.52909E+00-5.04978E-15-1.89478E-13
 -1        10 1.88958E+01 5.69233E+00 5.10280E-02-1.95360E+00 1.67834E-15-1.99392E-13
 -1        11 1.87776E+01 5.65239E+00 5.03922E-02-1.45835E+00-4.37584E-16-1.96538E-13
 -1        12 1.87168E+01 5.63157E+00 4.89897E-02-1.01683E+00 3.68195E-15-1.83359E-13
 -1        13 1.86850E+01 5.62063E+00 4.75906E-02-5.96345E-01 1.81495E-15-1.55237E-13
 -1        14 1.86717E+01 5.61604E+00 4.68557E-02-1.91509E-01 6.33925E-15-1.37164E-13
 -1        15 1.86722E+01 5.61619E+00 4.68908E-02 2.08566E-01 7.35187E-15-1.19117E-13
 -1        16 1.86864E+01 5.62110E+00 4.77078E-02 6.14192E-01 6.30312E-15-9.44813E-14
 -1        17 1.87195E+01 5.63230E+00 4.92163E-02 1.03658E+00 9.57914E-15-6.86762E-14
 -1        18 1.87819E+01 5.65360E+00 5.09487E-02 1.48119E+00 7.09675E-15-2.79718E-14
 -1        19 1.89019E+01 5.69402E+00 5.16181E-02 1.98270E+00 9.80726E-15 2.18831E-14
 -1        20 1.91395E+01 5.77360E+00 4.87949E-02 2.56637E+00 1.05454E-14 1.04154E-13
 -1        21 1.96603E+01 5.94750E+00 4.58030E-02 3.31087E+00 1.49047E-14 2.42069E-13
 -1        22 2.11906E+01 6.37835E+00 1.39411E-01 4.52373E+00-1.65146E-15 4.55086E-13
 -1        23 2.30137E+01-1.37839E+00-9.37945E-01-7.11536E-01-2.96464E-14 2.65024E-13
 -1        24 1.93491E+01-9.94726E-02-3.09806E-01 6.30773E-02-4.99600E-16 1.47850E-13
 -1        25 1.86589E+01-5.63272E-02-6.87596E-02 6.06380E-02-3.59847E-15 4.14373E-14
 -1        26 1.84546E+01-2.21233E-02-6.44929E-03 3.28003E-02 1.93823E-15-6.43964E-14
 -1        27 1.84639E+01-1.18643E-02 1.53855E-03 2.24114E-02-6.13149E-15-1.57300E-13
 -1        28 1.85768E+01-6.35686E-03 1.71214E-03 1.60926E-02 3.09681E-15-1.97203E-13
 -1        29 1.87365E+01-3.26152E-03 1.62606E-03 1.18995E-02-3.93563E-15-2.13185E-13
 -1        30 1.89127E+01-1.49905E-03 1.72405E-03 8.90119E-03 2.41588E-14-1.96870E-13
 -1        31 1.90887E+01-5.29080E-04 1.75867E-03 6.65140E-03-9.12264E-15-2.30284E-13
 -1        32 1.92566E+01-6.79492E-05 1.61898E-03 4.92632E-03-3.12017E-14-3.42230E-13
 -1        33 1.94139E+01 4.69943E-05 1.29960E-03 3.60883E-03 6.36406E-14-3.50128E-13
 -1        34 1.95618E+01-8.49378E-05 8.24924E-04 2.63669E-03-4.61232E-15-2.59918E-13
 -1        35 1.97046E+01-3.98743E-04 2.17887E-04 1.97976E-03-1.91726E-14-4.12472E-13
 -1        36 1.98487E+01-8.47300E-04-5.05039E-04 1.63098E-03 4.23408E-14-3.05189E-13
 -1        37 2.00022E+01-1.38972E-03-1.32922E-03 1.60293E-03-6.33840E-14-3.78476E-13
 -1        38 2.01746E+01-1.98059E-03-2.23251E-03 1.92559E-03 1.81909E-15-5.18235E-13
 -1        39 2.03761E+01-2.55809E-03-3.17097E-03 2.64255E-03-8.40427E-15-6.15987E-13
 -1        40 2.06172E+01-3.02975E-03-4.05735E-03 3.80179E-03-1.88849E-14-7.09024E-13
 -1        41 2.09072E+01-3.25610E-03-4.72964E-03 5.43556E-03 4.98628E-14-7.10047E-13
 -1        42 2.12519E+01-3.03463E-03-4.90871E-03 7.52063E-03 3.06952E-14-5.25998E-13
 -1        43 2.16507E+01-2.09204E-03-4.15062E-03 9.90658E-03-2.23564E-14-2.15130E-13
 -1        44 2.20913E+01-1.02054E-04-1.81836E-03 1.21995E-02 1.57028E-15-2.50659E-13
 -1        45 2.25434E+01 3.23904E-03 2.86479E-03 1.36001E-02-8.82373E-15-1.60570E-13
 -1        46 2.29515E+01 8.03641E-03 1.05634E-02 1.27380E-02-3.14207E-14-2.94926E-13
 -1        47 2.32297E+01 1.38843E-02 2.12176E-02 7.64684E-03 4.25897E-14-1.87287E-13
 -1        48 2.32649E+01 1.94752E-02 3.30412E-02-3.82136E-03 1.00408E-14-1.77375E-15
 -1        49 2.29382E+01 2.23658E-02 4.14562E-02-2.27051E-02 5.09575E-17-1.90356E-13
 -1        50 2.21717E+01 1.94538E-02 3.94074E-02-4.66527E-02-1.48255E-14-2.29964E-13
 -1        51 2.09993E+01 8.63027E-03 2.06217E-02-6.78733E-02-1.27645E-14-1.49089E-13
 -1        52 1.96253E+01-8.83455E-03-1.43238E-02-7.42886E-02-2.93672E-15-5.49769E-14
 -1        53 1.84135E+01-2.70469E-02-5.33250E-02-5.62197E-02 5.91346E-14-2.51309E-13
 -1        54 1.77629E+01-3.76359E-02-7.69165E-02-1.53527E-02 5.95619E-14-2.33974E-13
 -1        55 1.79125E+01-3.50638E-02-7.12158E-02 3.23487E-02-6.33979E-14-3.69987E-13
 -1        56 1.88044E+01-2.06795E-02-3.95882E-02 6.60143E-02 1.47842E-15-2.24855E-13
 -1        57 2.01167E+01-1.74549E-03 1.53867E-04 7.43845E-02-1.22135E-14-1.44051E-14
 -1        58 2.14411E+01 1.37553E-02 2.99687E-02 6.09140E-02-3.97162E-14-2.08417E-13
 -1        59 2.24638E+01 2.16005E-02 4.21347E-02 3.73342E-02 1.76207E-14-3.91605E-13
 -1        60 2.30471E+01 2.20505E-02 3.94847E-02 1.45772E-02-8.64855E-14-7.25288E-14
 -1        61 2.32064E+01 1.78355E-02 2.91595E-02-1.74777E-03 1.00560E-13-3.28531E-14
 -1        62 2.30413E+01 1.19251E-02 1.74617E-02-1.08418E-02-6.06241E-14-3.01638E-14
 -1        63 2.26723E+01 6.32729E-03 7.82928E-03-1.43625E-02-8.62135E-14-6.97679E-13
 -1        64 2.22038E+01 1.95189E-03 1.25350E-03-1.44851E-02 3.17694E-14-7.65163E-13
 -1        65 2.17114E+01-1.06193E-03-2.62558E-03-1.29633E-02-5.05401E-14-2.97993E-13
 -1        66 2.12430E+01-2.96775E-03-4.66788E-03-1.09012E-02 8.63959E-14-3.23512E-13
 -1        67 2.08265E+01-4.14694E-03-5.80782E-03-8.82123E-03 4.45778E-15 2.79780E-13
 -1        68 2.04779E+01-4.95165E-03-6.90238E-03-6.75449E-03 3.71140E-14 3.90979E-13
 -1        69 2.02097E+01-5.53781E-03-8.46100E-03-4.20434E-03 6.36336E-14 6.03132E-13
 -1        70 2.00373E+01-5.00376E-03-9.04696E-03 5.55425E-04-5.40546E-14 6.57794E-13
 -1        71 1.99795E+01 1.02154E-03-5.54142E-04 6.92914E-03-7.47482E-14 2.99377E-13
 -1        72 2.10268E+01-4.04696E-01-9.80093E-01-3.11174E-01 2.91434E-16 8.28670E-13
 -1        73 1.93136E+01-6.58802E-02-2.91110E-01-5.37205E-02 8.12024E-15 7.32900E-13
 -1        74 1.86680E+01-2.05204E-02-6.42703E-02-2.02433E-02-3.17790E-15 6.74395E-13
 -1        75 1.84631E+01-9.90946E-03-9.30857E-03-1.53115E-02 8.09324E-15 6.35794E-13
 -1        76 1.84724E+01-5.22147E-03 6.67474E-04-1.21937E-02 8.48735E-15 5.29106E-13
 -1        77 1.85843E+01-2.70853E-03 1.69726E-03-9.85656E-03-3.96848E-15 5.14052E-13
 -1        78 1.87427E+01-1.29256E-03 1.77461E-03-8.03324E-03-1.28271E-14 6.20947E-13
 -1        79 1.89173E+01-5.03652E-04 1.87976E-03-6.49985E-03 2.69228E-14 6.44718E-13
 -1        80 1.90917E+01-1.06083E-04 1.89460E-03-5.14877E-03-2.30690E-15 5.57119E-13
 -1        81 1.92580E+01 2.82674E-05 1.72944E-03-3.93763E-03 1.14907E-14 4.29044E-13
 -1        82 1.94136E+01-2.70606E-05 1.37949E-03-2.84930E-03 1.80529E-14 2.25848E-13
 -1        83 1.95600E+01-2.29569E-04 8.63034E-04-1.87631E-03-3.50970E-15 1.74873E-13
 -1        84 1.97017E+01-5.55712E-04 1.91443E-04-1.01665E-03-2.99938E-14 2.53063E-13
 -1        85 1.98459E+01-9.93894E-04-6.38592E-04-2.75037E-04-1.14392E-14 4.02093E-13
 -1        86 2.00020E+01-1.53911E-03-1.64495E-03 3.32428E-04 4.23379E-14 7.98397E-14
 -1        87 2.01818E+01-2.18708E-03-2.85711E-03 7.70284E-04-4.12671E-14 2.62793E-14
 -1        88 2.03996E+01-2.92553E-03-4.30965E-03 9.71148E-04-8.15773E-15 1.91112E-13
 -1        89 2.06723E+01-3.71980E-03-6.02799E-03 8.16699E-04 3.82012E-14 1.14529E-14
 -1        90 2.10194E+01-4.48851E-03-7.99675E-03 1.10462E-04-1.59269E-16-1.66603E-13
 -1        91 2.14624E+01-5.06404E-03-1.00930E-02-1.45668E-03-3.53010E-14 9.01675E-14
 -1        92 2.20224E+01-5.13468E-03-1.19542E-02-4.33762E-03-7.94059E-15 3.76229E-13
 -1        93 2.27158E+01-4.17531E-03-1.27394E-02-9.11959E-03 4.41528E-14 2.46708E-13
 -1        94 2.35445E+01-1.40811E-03-1.07701E-02-1.63767E-02 1.17118E-14-1.61053E-13
 -1        95 2.44791E+01 4.08826E-03-3.17448E-03-2.61779E-02-4.65917E-14-1.69361E-14
 -1        96 2.54318E+01 1.28700E-02 1.39034E-02-3.69336E-02 3.92661E-14 3.31912E-13
 -1        97 2.62235E+01 2.39082E-02 4.32619E-02-4.34097E-02-3.16533E-14 3.91064E-13
 -1        98 2.65632E+01 3.28040E-02 8.11271E-02-3.48605E-02 7.77132E-14 1.33147E-13
 -1        99 2.60885E+01 3.11650E-02 1.09109E-01 2.73542E-03-6.81074E-14-2.28796E-13
 -1       100 2.45358E+01 1.14240E-02 9.32947E-02 7.38493E-02-2.62535E-14 4.28824E-14
 -1       101 2.20529E+01-2.19900E-02 8.22964E-03 1.51790E-01 1.01053E-14-2.17749E-13
 -1       102 1.94444E+01-4.94260E-02-1.18825E-01 1.76663E-01-2.19096E-14-2.62498E-13
 -1       103 1.79354E+01-5.03600E-02-2.02562E-01 1.04973E-01 2.84842E-14 2.00411E-13
 -1       104 1.83692E+01-2.66888E-02-1.73545E-01-3.02828E-02 8.96418E-15 2.51549E-13
 -1       105 2.04946E+01 3.67627E-03-5.63979E-02-1.36259E-01-4.19014E-14 4.68084E-13
 -1       106 2.31851E+01 2.44472E-02 5.83903E-02-1.58152E-01-9.61043E-14 7.25552E-13
 -1       107 2.53198E+01 3.04257E-02 1.09156E-01-1.14940E-01-1.36696E-15 3.05186E-13
 -1       108 2.63856E+01 2.54911E-02 1.00079E-01-5.47526E-02 5.49814E-14-5.10432E-13
 -1       109 2.64528E+01 1.60967E-02 6.42561E-02-8.56445E-03-6.59198E-14-4.33117E-13
 -1       110 2.58577E+01 7.19571E-03 2.89304E-02 1.66165E-02 7.73513E-15-2.93269E-13
 -1       111 2.49431E+01 8.53755E-04 5.07061E-03 2.58602E-02 5.15296E-14 8.11243E-14
 -1       112 2.39511E+01-2.81670E-03-7.35080E-03 2.62748E-02-1.24188E-13 1.62644E-13
 -1       113 2.30177E+01-4.51119E-03-1.20420E-02 2.29707E-02 2.58418E-14 2.34742E-13
 -1       114 2.22030E+01-5.02708E-03-1.26042E-02 1.87879E-02-7.39229E-14 3.78413E-14
 -1       115 2.15231E+01-4.98387E-03-1.15036E-02 1.50156E-02 3.09650E-14-1.41476E-13
 -1       116 2.09737E+01-4.79903E-03-1.02371E-02 1.20636E-02 1.32919E-13-7.83427E-13
 -1       117 2.05448E+01-4.72929E-03-9.81009E-03 9.89545E-03-1.91053E-14-1.47981E-12
 -1       118 2.02307E+01-4.75753E-03-1.06267E-02 7.92877E-03-6.49139E-14-1.29397E-12
 -1       119 2.00368E+01-3.98240E-03-1.06806E-02 4.00621E-03 4.30030E-14-1.29240E-12
 -1       120 1.99781E+01 4.10307E-03 6.15118E-04-5.52874E-03 2.01569E-13-1.27850E-12
 -1       121 1.99999E+01-1.69126E-02-3.26497E-04-8.69702E-03-1.60640E-12-2.80005E-13
 -1       122 1.99949E+01 4.70838E-02-1.02371E-02 1.55584E-03-1.43508E-12-4.95314E-14
 -1       123 1.99965E+01 2.35540E-01-7.11372E-03 7.50974E-03-8.11783E-13 5.87353E-14
 -1       124 1.99991E+01 4.93172E-01-1.88676E-03 9.71383E-03-3.54966E-13 2.41150E-13
 -1       125 2.00018E+01 7.65700E-01 2.71651E-03 9.32727E-03-3.87988E-13-1.66687E-13
 -1       126 2.00041E+01 1.00256E+00 6.09505E-03 7.45489E-03-1.52243E-12 1.32311E-14
 -1       127 2.00054E+01 1.17514E+00 8.12486E-03 4.46953E-03-6.51417E-13 2.63446E-13
 -1       128 2.00060E+01 1.25606E+00 8.85304E-03 1.02639E-03-2.94727E-13 3.76967E-14
 -1       129 2.00057E+01 1.23666E+00 8.35114E-03-2.38019E-03 2.00642E-13 4.62087E-16
 -1       130 2.00046E+01 1.12232E+00 6.78466E-03-5.33002E-03 6.02183E-13-6.13720E-14
 -1       131 2.00029E+01 9.30747E-01 4.32566E-03-7.55605E-03-2.44020E-13-2.09971E-13
 -1       132 2.00008E+01 6.93486E-01 1.21720E-03-8.56819E-03-9.42213E-13 3.11611E-13
 -1       133 1.99986E+01 4.37114E-01-2.58742E-03-8.32396E-03 1.46075E-13 1.53228E-13
 -1       134 1.99959E+01 2.04191E-01-7.11833E-03-6.77952E-03 2.80765E-13-8.25853E-14
 -1       135 1.99962E+01 4.23661E-02-7.95677E-03-1.65317E-03-1.37049E-14-1.47596E-13
 -1       136 1.99962E+01-1.24348E-02 1.33464E-05 1.31830E-02-4.77954E-13-1.45723E-13
 -1       137-1.44001E+00-2.03898E+01-3.15736E+00-3.87091E+00 1.12041E-12 2.73497E-13
 -1       138-1.73863E+00-9.37209E+00-2.42950E+00-3.37508E+00 1.07098E-12 6.41653E-13
 -1       139 2.81362E+00 2.87488E+00-1.19921E+00 3.15220E+00 1.57868E-12 1.08341E-12
 -1       140 1.58057E+01 9.93452E+00 3.00692E-01 1.24403E+01 7.08766E-13 6.93723E-13
 -1       141 3.60482E+01 9.80188E+00 1.87681E+00 1.81702E+01-1.24983E-13-3.62488E-14
 -1       142 5.54582E+01 5.02524E+00 3.08806E+00 1.54235E+01-6.99857E-14-3.39728E-14
 -1       143 6.68497E+01 1.13249E+00 3.73682E+00 4.74443E+00-3.84415E-15-1.12188E-13
 -1       144 6.41420E+01 2.11632E+00 3.58512E+00-9.17341E+00 3.32420E-14-1.55154E-14
 -1       145 4.91733E+01 6.88523E+00 2.69889E+00-1.72485E+01 4.08840E-14-2.85327E-14
 -1       146 2.79517E+01 1.05722E+01 1.28784E+00-1.67400E+01 3.34732E-13-5.23137E-13
 -1       147 1.02573E+01 8.67910E+00-2.32939E-01-9.50109E+00 7.43627E-13-8.95839E-13
 -1       148 8.04818E-01-2.49055E-01-1.58791E+00-8.93260E-01 1.13054E-12-5.98854E-13
 -1       149-1.96940E+00-1.28977E+01-2.66333E+00 4.19111E+00 1.35697E-12-5.44439E-13
 -1       150-1.10602E+00-2.22526E+01-3.24042E+00 3.11681E+00 9.14629E-13-2.59334E-13
 -1       151-7.99850E-01-2.40267E+01-3.31868E+00-9.98216E-01-4.47462E-13-9.16107E-14
 -1       152-1.48273E+00-1.76298E+01-2.90616E+00-3.85313E+00-7.18259E-13-7.07559E-14
 -1       153-1.20319E+00-6.29944E+00-2.06405E+00-2.23816E+00-9.58511E-13-4.53332E-13
 -1       154 4.31569E+00 5.02666E+00-8.51034E-01 4.85087E+00-1.09196E-12-7.85205E-13
 -1       155 1.65366E+01 1.05682E+01 4.68653E-01 1.30619E+01-8.74356E-13-1.05277E-12
 -1       156 3.52163E+01 9.95069E+00 1.82236E+00 1.81993E+01-3.36842E-13-5.34628E-13
 -1       157 5.36451E+01 5.09395E+00 2.89686E+00 1.51527E+01-2.04503E-13-2.69396E-13
 -1       158 6.45476E+01 1.41877E+00 3.45770E+00 4.36827E+00 6.00214E-15-3.63140E-13
 -1       159 4.81212E+01 6.89011E+00 2.59119E+00-1.71463E+01 2.72143E-13-6.07236E-13
 -1       160 2.84821E+01 1.08304E+01 1.40368E+00-1.71738E+01 3.62321E-13-7.16538E-13
 -1       161 1.20948E+01 9.64605E+00 7.21031E-02-1.07717E+01 2.79943E-13-4.25104E-13
 -1       162 1.56252E+00 1.45566E+00-1.29100E+00-1.93049E+00-2.00617E-13 1.96176E-13
 -1       163-1.58916E+00-9.93972E+00-2.35775E+00 3.37056E+00-9.57789E-13 3.51552E-13
 -1       164-1.23449E+00-2.02797E+01-3.08241E+00 3.57180E+00-3.67623E-13 1.68553E-13
 -1       165 2.10034E+01 3.69324E+00-5.73433E-02-3.61170E+00-7.56097E-14-7.03222E-14
 -1       166 1.99858E+01 4.20708E+00-4.57207E-02-2.81131E+00-6.12817E-14-1.36086E-13
 -1       167 1.95083E+01 4.47663E+00-3.15844E-02-2.19609E+00-2.74676E-14-1.50737E-13
 -1       168 1.92699E+01 4.61553E+00-2.37447E-02-1.67718E+00-9.43256E-17-1.57688E-13
 -1       169 1.91431E+01 4.69766E+00-1.94646E-02-1.22053E+00 1.44355E-14-1.46384E-13
 -1       170 1.90715E+01 4.74925E+00-1.74032E-02-7.92976E-01 2.68506E-14-1.29703E-13
 -1       171 1.90356E+01 4.77750E+00-1.64158E-02-3.87311E-01 4.31336E-14-1.13974E-13
 -1       172 1.90251E+01 4.78618E+00-1.61278E-02 8.30924E-03 6.18368E-14-9.24599E-14
 -1       173 1.90372E+01 4.77626E+00-1.64594E-02 4.04243E-01 7.75807E-14-7.38697E-14
 -1       174 1.90751E+01 4.74635E+00-1.75120E-02 8.10939E-01 9.20484E-14-6.40928E-14
 -1       175 1.91475E+01 4.69340E+00-1.96778E-02 1.23286E+00 9.54856E-14-3.38609E-14
 -1       176 1.92800E+01 4.60563E+00-2.39946E-02 1.69994E+00 1.18556E-13 1.41328E-14
 -1       177 1.95230E+01 4.45925E+00-3.28369E-02 2.22852E+00 1.23427E-13 6.73107E-14
 -1       178 2.00081E+01 4.18311E+00-4.72012E-02 2.84870E+00 1.18594E-13 1.63751E-13
 -1       179 2.11250E+01 3.46293E+00-5.97867E-02 3.53816E+00 9.89486E-14 3.06505E-13
 -1       180 2.24058E+01 1.14348E+00-3.36388E-01 3.01585E+00 5.10581E-14 4.74357E-13
 -1       181 2.19584E+01 8.58285E-01 6.63688E-04-1.96026E+00-7.39964E-14 2.89109E-14
 -1       182 2.04332E+01 1.90312E-01-9.97411E-03-7.65422E-01-6.09027E-14-1.18560E-14
 -1       183 1.96571E+01 1.01567E-01 1.35755E-02-2.86847E-01-5.10911E-14-3.40682E-14
 -1       184 1.93168E+01 4.73836E-02 1.00191E-02-6.92324E-02-5.85851E-14-6.12201E-14
 -1       185 1.91872E+01 2.28729E-02 5.17017E-03 3.88700E-02-1.91660E-14-6.03994E-14
 -1       186 1.91751E+01 1.00215E-02 2.48681E-03 9.26646E-02-8.39145E-15-7.08281E-14
 -1       187 1.92268E+01 2.93877E-03 1.20470E-03 1.16914E-01 6.68107E-15-3.46416E-14
 -1       188 1.93120E+01-8.34000E-04 5.97516E-04 1.24759E-01-1.93969E-14-5.29587E-14
 -1       189 1.94130E+01-2.51609E-03 3.00411E-04 1.24008E-01-5.75612E-14-8.82050E-15
 -1       190 1.95205E+01-2.77288E-03 1.63173E-04 1.19727E-01-1.94911E-14-1.12871E-14
 -1       191 1.96303E+01-2.00317E-03 1.22899E-04 1.15421E-01 1.81065E-15-1.21647E-13
 -1       192 1.97420E+01-4.60302E-04 1.48019E-04 1.13639E-01-5.97882E-14-1.47252E-13
 -1       193 1.98577E+01 1.68569E-03 2.18500E-04 1.16306E-01 3.27905E-15-1.37919E-13
 -1       194 1.99815E+01 4.30451E-03 3.18411E-04 1.24897E-01-2.50344E-14-2.16221E-13
 -1       195 2.01190E+01 7.26459E-03 4.31921E-04 1.40503E-01-1.27558E-13-1.68040E-13
 -1       196 2.02764E+01 1.03853E-02 5.40018E-04 1.63767E-01-5.21330E-14-2.92126E-13
 -1       197 2.04603E+01 1.33744E-02 6.17324E-04 1.94685E-01-6.50064E-14-2.85268E-13
 -1       198 2.06769E+01 1.57458E-02 6.29300E-04 2.32225E-01 3.01793E-15-2.51906E-13
 -1       199 2.09301E+01 1.67144E-02 5.31145E-04 2.73718E-01 2.08423E-14-3.14575E-13
 -1       200 2.12203E+01 1.50830E-02 2.71066E-04 3.13995E-01 6.67955E-14-4.01677E-13
 -1       201 2.15416E+01 9.16812E-03-1.97726E-04 3.44322E-01 2.75279E-16-3.38362E-13
 -1       202 2.18787E+01-3.11620E-03-8.91273E-04 3.51382E-01 3.28658E-14-3.45989E-13
 -1       203 2.22032E+01-2.37797E-02-1.75447E-03 3.16992E-01-1.26263E-14-2.47914E-13
 -1       204 2.24715E+01-5.35218E-02-2.61359E-03 2.19910E-01 5.70197E-14-1.49231E-13
 -1       205 2.26249E+01-8.94456E-02-3.17009E-03 4.18613E-02 8.30028E-14-1.41807E-13
 -1       206 2.25973E+01-1.21990E-01-3.05443E-03-2.20136E-01-8.19700E-14-1.37905E-13
 -1       207 2.23331E+01-1.33169E-01-2.07818E-03-5.35700E-01-5.57566E-14-1.92924E-13
 -1       208 2.18185E+01-1.00981E-01-3.97316E-04-8.25854E-01 6.53108E-14-1.42290E-13
 -1       209 2.11178E+01-1.40858E-02 1.43065E-03-9.70510E-01-7.85496E-14-5.90621E-14
 -1       210 2.03906E+01 1.08767E-01 2.65741E-03-8.57236E-01-1.25234E-13-1.90848E-13
 -1       211 1.98591E+01 2.14985E-01 3.11540E-03-4.60966E-01-6.16109E-14-2.25158E-13
 -1       212 1.97142E+01 2.45713E-01 3.13185E-03 1.05506E-01 5.72719E-15-4.00166E-13
 -1       213 2.00112E+01 1.81681E-01 2.96155E-03 6.30534E-01 8.83365E-15-2.47980E-13
 -1       214 2.06347E+01 6.13285E-02 2.26888E-03 9.26870E-01 1.27138E-13-3.04421E-13
 -1       215 2.13680E+01-5.31169E-02 7.86138E-04 9.33511E-01-3.61822E-14-3.95314E-13
 -1       216 2.20034E+01-1.20063E-01-1.10857E-03 7.17664E-01-8.26210E-14-2.73255E-13
 -1       217 2.24158E+01-1.34024E-01-2.60026E-03 4.03165E-01 1.19607E-13-3.59784E-13
 -1       218 2.25731E+01-1.12634E-01-3.27015E-03 9.79357E-02 4.68996E-14-3.16994E-14
 -1       219 2.25087E+01-7.73543E-02-3.08558E-03-1.37878E-01-8.11196E-14-1.54965E-13
 -1       220 2.22846E+01-4.30330E-02-2.35271E-03-2.88141E-01-3.43351E-13-3.47885E-13
 -1       221 2.19662E+01-1.63734E-02-1.42705E-03-3.62900E-01-7.27173E-14-3.57632E-13
 -1       222 2.16078E+01 1.51866E-03-5.56467E-04-3.81908E-01 3.55378E-13-4.60741E-13
 -1       223 2.12490E+01 1.22575E-02 1.42334E-04-3.64579E-01 1.36795E-13 1.11561E-13
 -1       224 2.09159E+01 1.83071E-02 6.40772E-04-3.25581E-01 1.73838E-13 2.59697E-13
 -1       225 2.06246E+01 2.21098E-02 9.33909E-04-2.73781E-01 1.92470E-13 1.15157E-13
 -1       226 2.03847E+01 2.57471E-02 9.89966E-04-2.12741E-01 7.07193E-14-5.21759E-14
 -1       227 2.02024E+01 3.06278E-02 9.45181E-04-1.42482E-01 1.35397E-14-1.32850E-13
 -1       228 2.00758E+01 3.52291E-02 7.28302E-04-6.42389E-02-1.22505E-13 4.21741E-14
 -1       229 2.09491E+01 2.77046E-01-5.13359E-02 1.16613E+00 6.19782E-14 4.16394E-13
 -1       230 1.98533E+01 1.26846E-01 8.31233E-03 4.44435E-01 3.15832E-14 3.53139E-13
 -1       231 1.93460E+01 5.80923E-02 1.27464E-02 1.51297E-01 5.78062E-14 2.77144E-13
 -1       232 1.91357E+01 2.78158E-02 7.64844E-03 1.17508E-02 4.46080E-14 2.50050E-13
 -1       233 1.90861E+01 1.32786E-02 3.85310E-03-5.79605E-02-2.46814E-14 2.54351E-13
 -1       234 1.91233E+01 5.51094E-03 1.94971E-03-9.14532E-02-4.79502E-14 2.64578E-13
 -1       235 1.92060E+01 1.22749E-03 1.06502E-03-1.04999E-01 8.21608E-15 2.64369E-13
 -1       236 1.93105E+01-9.96974E-04 6.28146E-04-1.07601E-01 6.63721E-14 2.16375E-13
 -1       237 1.94238E+01-1.87656E-03 3.94621E-04-1.04837E-01 6.99419E-14 1.09582E-13
 -1       238 1.95395E+01-1.80941E-03 2.71371E-04-1.00459E-01 6.38221E-14 1.74530E-13
 -1       239 1.96558E+01-1.02710E-03 2.19437E-04-9.71751E-02 2.49483E-14 1.38825E-13
 -1       240 1.97742E+01 3.41021E-04 2.18426E-04-9.70886E-02-3.38346E-14 4.99080E-14
 -1       241 1.98989E+01 2.23540E-03 2.55091E-04-1.01975E-01 2.25428E-14-3.73488E-14
 -1       242 2.00364E+01 4.64599E-03 3.18943E-04-1.13469E-01 1.20657E-13-1.38410E-14
 -1       243 2.01951E+01 7.59450E-03 3.99346E-04-1.33186E-01-7.50490E-15 3.85757E-14
 -1       244 2.03853E+01 1.11113E-02 4.82296E-04-1.62776E-01-2.41272E-14-7.68677E-14
 -1       245 2.06192E+01 1.51961E-02 5.46240E-04-2.03873E-01 6.68635E-14-9.84851E-14
 -1       246 2.09102E+01 1.97452E-02 5.56880E-04-2.57868E-01 2.29641E-14 4.49390E-14
 -1       247 2.12723E+01 2.44149E-02 4.62510E-04-3.25368E-01-1.48092E-13 8.89864E-14
 -1       248 2.17183E+01 2.83773E-02 1.95786E-04-4.05085E-01-1.02945E-13 7.50758E-14
 -1       249 2.22562E+01 2.99155E-02-3.04237E-04-4.91820E-01 1.26484E-13 1.35173E-13
 -1       250 2.28831E+01 2.58441E-02-1.02515E-03-5.73085E-01 1.50240E-13-8.04109E-15
 -1       251 2.35756E+01 1.09298E-02-1.74755E-03-6.24273E-01-8.11427E-14-1.86585E-13
 -1       252 2.42767E+01-2.19349E-02-1.87575E-03-6.03540E-01-1.01994E-13-1.61911E-13
 -1       253 2.48812E+01-7.89535E-02-4.76594E-04-4.51220E-01-6.32779E-14-5.23357E-14
 -1       254 2.52307E+01-1.56782E-01 3.14520E-03-1.05053E-01 1.01439E-13 7.77048E-14
 -1       255 2.51368E+01-2.27005E-01 7.97048E-03 4.51833E-01 9.21320E-14 2.35868E-13
 -1       256 2.44599E+01-2.25646E-01 9.17851E-03 1.10646E+00-9.18462E-14 4.65791E-14
 -1       257 2.32540E+01-8.27263E-02 3.30978E-04 1.55335E+00 1.69022E-13 2.94608E-14
 -1       258 2.19049E+01 1.81846E-01-1.72891E-02 1.40339E+00-7.11289E-14-1.38849E-13
 -1       259 2.10521E+01 4.06596E-01-2.96783E-02 5.35313E-01-2.78270E-13-3.89016E-14
 -1       260 2.11918E+01 3.97779E-01-2.43897E-02-6.43750E-01-2.80921E-14 2.93720E-13
 -1       261 2.22410E+01 1.66729E-01-5.58440E-03-1.44728E+00-7.50246E-14 3.30109E-13
 -1       262 2.36131E+01-9.10080E-02 9.54191E-03-1.52068E+00-1.48756E-13 3.59705E-13
 -1       263 2.46989E+01-2.22611E-01 1.16032E-02-1.03513E+00 3.29722E-13 1.57705E-13
 -1       264 2.52058E+01-2.20211E-01 5.95820E-03-3.81002E-01 2.95050E-13 6.30464E-16
 -1       265 2.51504E+01-1.52175E-01-7.82367E-05 1.58175E-01-1.78023E-13-7.82733E-14
 -1       266 2.46984E+01-7.76371E-02-3.07797E-03 4.86250E-01-1.07497E-13-7.48425E-14
 -1       267 2.40351E+01-2.29502E-02-3.32402E-03 6.26790E-01-1.64183E-13 3.99750E-13
 -1       268 2.33046E+01 8.87085E-03-2.28997E-03 6.42481E-01 6.82496E-14 4.68662E-13
 -1       269 2.25978E+01 2.36967E-02-1.04695E-03 5.90727E-01 1.66866E-13-5.31866E-15
 -1       270 2.19627E+01 2.83333E-02-6.52187E-05 5.10654E-01-1.19814E-14-3.87805E-13
 -1       271 2.14187E+01 2.79732E-02 5.63707E-04 4.24269E-01 2.71886E-13-5.16761E-13
 -1       272 2.09692E+01 2.59627E-02 8.64366E-04 3.41268E-01 3.38334E-13-7.09865E-13
 -1       273 2.06112E+01 2.43693E-02 8.19396E-04 2.63690E-01 1.47073E-13-5.43178E-13
 -1       274 2.03404E+01 2.47497E-02 4.06220E-04 1.88596E-01-8.86122E-14-3.07307E-13
 -1       275 2.01539E+01 2.81641E-02 3.99929E-04 1.10546E-01 1.08139E-13-6.72489E-13
 -1       276 2.00441E+01 2.58312E-02 1.47181E-03 3.17322E-02-2.21561E-13-8.31235E-13
 -1       277 2.00387E+01 8.97210E-02 8.66258E-04 7.68477E-02-1.00304E-13 1.61109E-13
 -1       278 2.00288E+01 2.21605E-01 2.62254E-04 1.53951E-01-2.67827E-13 2.00873E-13
 -1       279 2.00120E+01 3.96426E-01 7.59765E-05 2.01950E-01-3.62903E-13 1.25678E-13
 -1       280 1.99963E+01 5.89121E-01-1.61418E-04 2.11328E-01-5.38079E-13-1.27741E-14
 -1       281 1.99835E+01 7.68152E-01-5.54422E-04 1.86260E-01-4.05340E-13-5.67214E-13
 -1       282 1.99742E+01 9.13614E-01-8.90813E-04 1.33174E-01-2.85954E-13 2.41530E-13
 -1       283 1.99693E+01 1.00193E+00-1.10848E-03 6.22393E-02-5.52836E-14 3.22922E-13
 -1       284 1.99688E+01 1.02225E+00-1.15748E-03-1.54202E-02 1.57190E-13 2.72113E-13
 -1       285 1.99725E+01 9.73384E-01-1.03767E-03-8.89959E-02 2.15225E-13-1.27801E-14
 -1       286 1.99797E+01 8.63335E-01-7.71171E-04-1.48983E-01 1.49643E-14-3.62316E-13
 -1       287 1.99892E+01 7.10782E-01-3.97476E-04-1.87352E-01 1.96056E-13-3.81850E-13
 -1       288 2.00008E+01 5.31181E-01-4.24046E-05-2.00001E-01 1.05842E-13 5.84874E-13
 -1       289 2.00133E+01 3.51027E-01 1.97957E-04-1.82844E-01 4.29739E-14-5.36303E-14
 -1       290 2.00268E+01 1.95247E-01 7.50502E-04-1.34957E-01-8.75715E-14-2.58685E-13
 -1       291 2.00542E+01 1.08384E-01 8.69312E-04-1.11598E-01-1.06267E-13-3.67259E-13
 -1       292-8.64448E-01-1.03642E+01-9.12667E-01 9.44930E-01 1.90584E-13 5.05679E-13
 -1       293 2.49969E+00-8.61509E+00-7.96246E-01 3.26191E+00 5.96551E-13 3.03021E-13
 -1       294 8.87003E+00-5.27785E+00-5.67439E-01 5.23750E+00 5.15310E-13 5.25288E-13
 -1       295 1.97528E+01-2.31699E+00-1.09244E-01 6.81214E+00 4.23217E-13-1.28814E-13
 -1       296 2.99681E+01 1.18284E+00 2.27155E-01 6.21737E+00 4.31988E-13-2.58404E-14
 -1       297 3.91015E+01 4.70626E+00 6.75494E-01 5.45758E+00 1.65840E-14 1.14742E-13
 -1       298 4.60196E+01 6.28184E+00 1.05896E+00 3.15936E+00 9.46049E-14-9.45910E-14
 -1       299 4.78711E+01 6.68158E+00 1.15698E+00-6.81104E-01-5.30687E-14-1.65260E-13
 -1       300 4.34302E+01 5.91901E+00 8.51979E-01-3.72676E+00 8.51125E-14-2.96152E-14
 -1       301 3.55448E+01 3.02062E+00 3.88756E-01-4.63011E+00 1.98102E-13-1.27676E-14
 -1       302 2.56128E+01 1.06477E+00 1.47040E-01-7.47528E+00 3.16080E-13-4.06619E-14
 -1       303 1.53148E+01-2.48673E+00-2.90848E-01-6.54080E+00 3.23658E-13-2.27818E-13
 -1       304 7.40915E+00-6.37406E+00-5.56036E-01-5.08029E+00 3.84887E-13-1.19771E-13
 -1       305 1.06533E+00-9.56325E+00-8.95750E-01-2.39845E+00 2.58321E-13-3.42379E-13
 -1       306-1.12597E+00-1.04133E+01-8.95720E-01-3.83219E-01 2.58266E-14-6.44512E-13
 -1       307-1.55494E-01-9.38260E+00-7.76423E-01 2.07075E+00-2.22641E-13-2.71699E-13
 -1       308 3.57286E+00-7.83964E+00-7.36836E-01 3.84548E+00-3.94101E-13-2.71672E-13
 -1       309 1.06808E+01-4.36930E+00-4.18081E-01 6.02413E+00-3.36203E-13-4.31211E-13
 -1       310 1.92478E+01-4.37893E-01-6.58128E-02 7.37202E+00-3.88245E-13-3.04728E-13
 -1       311 2.95906E+01 1.63196E+00 2.45838E-01 6.42118E+00-4.00568E-13 6.63358E-14
 -1       312 3.83692E+01 5.05355E+00 6.98356E-01 6.31041E+00-2.46207E-13-1.45856E-13
 -1       313 4.26354E+01 6.63400E+00 6.99509E-01 2.47225E+00-7.75491E-14-1.93998E-13
 -1       314 4.32618E+01 7.37705E+00 6.73856E-01-5.23472E-01-5.40956E-14-1.24612E-13
 -1       315 4.22934E+01 6.00196E+00 7.68368E-01-4.09355E+00 1.20237E-13 1.17129E-14
 -1       316 3.52333E+01 4.03238E+00 5.00708E-01-6.04480E+00 2.57995E-13-1.92735E-13
 -1       317 2.59718E+01 1.80521E+00 2.09562E-01-7.72037E+00-5.40401E-14-3.29653E-13
 -1       318 1.69794E+01-2.25675E+00-1.59950E-01-6.96745E+00-1.57624E-13-2.60153E-13
 -1       319 7.83186E+00-5.45551E+00-5.47526E-01-5.23981E+00-1.77358E-13-2.25223E-13
 -1       320 2.07763E+00-8.81902E+00-8.39441E-01-3.18048E+00-9.83935E-14 3.18127E-13
 -1       321-8.75474E-01-1.07751E+01-9.75900E-01-1.18229E+00-5.52336E-15 2.20171E-13
 -1       322 2.01428E+01 3.01540E+00-1.78275E-02-2.11229E+00-5.02727E-14-1.06928E-13
 -1       323 2.07482E+01 2.20819E+00-1.77929E-02-2.36511E+00-8.05532E-14-7.97834E-14
 -1       324 1.95891E+01 3.69233E+00-1.50517E-02-1.31825E+00 7.00877E-15-1.11737E-13
 -1       325 1.94679E+01 3.85000E+00-1.35926E-02-9.24206E-01 1.47757E-14-1.14013E-13
 -1       326 1.94006E+01 3.94124E+00-1.27190E-02-5.44170E-01 4.33067E-14-9.26308E-14
 -1       327 1.93709E+01 3.98289E+00-1.23112E-02-1.73275E-01 6.86219E-14-7.68240E-14
 -1       328 1.93721E+01 3.98131E+00-1.23226E-02 1.94540E-01 8.34363E-14-3.74457E-14
 -1       329 1.94046E+01 3.93610E+00-1.27665E-02 5.65715E-01 1.05951E-13-3.66794E-14
 -1       330 1.94738E+01 3.84231E+00-1.37738E-02 9.39952E-01 1.21719E-13-2.99825E-14
 -1       331 1.95981E+01 3.67945E+00-1.56580E-02 1.33435E+00 1.30305E-13 1.22866E-14
 -1       332 1.98101E+01 3.41021E+00-1.88310E-02 1.74004E+00 1.44330E-13 5.93839E-14
 -1       333 2.01763E+01 2.95510E+00-2.29321E-02 2.12888E+00 1.44926E-13 1.14867E-13
 -1       334 2.07410E+01 2.12927E+00-3.04604E-02 2.32392E+00 1.18565E-13 1.96917E-13
 -1       335 2.10843E+01 1.18768E+00-2.49205E-02 1.92359E+00 9.08960E-14 2.76511E-13
 -1       336 2.03803E+01 4.89327E-01 8.33833E-03 9.29041E-01 7.08383E-14 2.01159E-13
 -1       337 2.04487E+01 6.75801E-01 1.23609E-02-1.02674E+00-4.76277E-14-5.98923E-14
 -1       338 2.00290E+01 3.35049E-01 6.78756E-03-4.59262E-01-4.57342E-14-6.15473E-14
 -1       339 1.97746E+01 1.77665E-01 4.07032E-03-1.48875E-01-5.14499E-14-3.76030E-14
 -1       340 1.96407E+01 9.24078E-02 1.94534E-03 2.40282E-02-6.04708E-15-5.22742E-14
 -1       341 1.95883E+01 4.43909E-02 8.47562E-04 1.18203E-01 1.86860E-14-2.18284E-14
 -1       342 1.95881E+01 1.71058E-02 3.36233E-04 1.66030E-01 1.04295E-14-3.03305E-14
 -1       343 1.96202E+01 2.40315E-03 1.02112E-04 1.87028E-01-9.75953E-15-4.10979E-14
 -1       344 1.96717E+01-4.04960E-03 2.33110E-06 1.93660E-01-6.58585E-14-1.67558E-14
 -1       345 1.97351E+01-4.77332E-03-1.96807E-05 1.94375E-01-5.28868E-14-6.99214E-14
 -1       346 1.98067E+01-1.33807E-03 1.05744E-05 1.95151E-01-3.53261E-14-8.21190E-14
 -1       347 1.98853E+01 5.22272E-03 7.85197E-05 2.00370E-01-3.63058E-14-1.05308E-13
 -1       348 1.99718E+01 1.41674E-02 1.73708E-04 2.13307E-01-1.01398E-14-9.26316E-14
 -1       349 2.00686E+01 2.48591E-02 2.86694E-04 2.36381E-01-2.45185E-14-1.02781E-13
 -1       350 2.01791E+01 3.65826E-02 4.06521E-04 2.71189E-01-8.78922E-14-8.48815E-14
 -1       351 2.03071E+01 4.83290E-02 5.17970E-04 3.18338E-01-4.17981E-14-3.81083E-14
 -1       352 2.04569E+01 5.85268E-02 5.98390E-04 3.77025E-01-6.19828E-14-3.74304E-14
 -1       353 2.06319E+01 6.47069E-02 6.14384E-04 4.44318E-01-2.60213E-14-4.31021E-14
 -1       354 2.08347E+01 6.31281E-02 5.19431E-04 5.14108E-01-2.48609E-14-2.06519E-13
 -1       355 2.10659E+01 4.84708E-02 2.54965E-04 5.75741E-01 3.35447E-14-2.84395E-13
 -1       356 2.13226E+01 1.38808E-02-2.40522E-04 6.12536E-01 5.35397E-14-2.84986E-13
 -1       357 2.15977E+01-4.80440E-02-1.00729E-03 6.00749E-01 1.50115E-13-1.19623E-13
 -1       358 2.18773E+01-1.42330E-01-2.01975E-03 5.10263E-01 3.64341E-14-9.35840E-15
 -1       359 2.21381E+01-2.65548E-01-3.10785E-03 3.09315E-01 4.75041E-14-8.74241E-14
 -1       360 2.23447E+01-3.96348E-01-3.93492E-03-2.34540E-02 8.34944E-15-2.73772E-13
 -1       361 2.24485E+01-4.85750E-01-3.94047E-03-4.77105E-01-1.95950E-14-1.50996E-13
 -1       362 2.23930E+01-4.58052E-01-2.84694E-03-9.78649E-01-5.27334E-14-4.67836E-14
 -1       363 2.21423E+01-2.43352E-01-6.69527E-04-1.37352E+00-2.31744E-14-2.06430E-13
 -1       364 2.17278E+01 1.56949E-01 2.12725E-03-1.45666E+00-1.13175E-13-1.94035E-13
 -1       365 2.12876E+01 6.07550E-01 3.95501E-03-1.08035E+00-1.79947E-13-1.94633E-13
 -1       366 2.10250E+01 8.84720E-01 4.80023E-03-2.95790E-01-3.76370E-14-1.30885E-13
 -1       367 2.10855E+01 8.16912E-01 4.57501E-03 6.08722E-01 6.03415E-14-3.54212E-14
 -1       368 2.14321E+01 4.47419E-01 3.37103E-03 1.26410E+00 1.91912E-14-1.26086E-13
 -1       369 2.18798E+01-1.04907E-02 1.21520E-03 1.46070E+00 1.30611E-13 2.12211E-14
 -1       370 2.22366E+01-3.50344E-01-1.52846E-03 1.23525E+00 5.75454E-14 7.99779E-14
 -1       371 2.24059E+01-4.90992E-01-3.43001E-03 7.74434E-01 3.39284E-14 2.71657E-13
 -1       372 2.23871E+01-4.66587E-01-4.18723E-03 2.72583E-01 1.72922E-13 1.24859E-13
 -1       373 2.22280E+01-3.54936E-01-3.79796E-03-1.46250E-01-4.31187E-16-1.10172E-13
 -1       374 2.19837E+01-2.22975E-01-2.79158E-03-4.34837E-01-1.25022E-13 4.41605E-14
 -1       375 2.16986E+01-1.08591E-01-1.67043E-03-5.96681E-01-2.39384E-13 1.99872E-13
 -1       376 2.14039E+01-2.49027E-02-7.07131E-04-6.58122E-01 4.43543E-14 1.25101E-13
 -1       377 2.11198E+01 2.93816E-02 8.67519E-06-6.49833E-01 4.31463E-13-9.78360E-14
 -1       378 2.08587E+01 6.16138E-02 4.95585E-04-5.97685E-01 3.36662E-13-8.93519E-14
 -1       379 2.06280E+01 8.04026E-02 8.05690E-04-5.19712E-01 1.27863E-13 1.31651E-14
 -1       380 2.04308E+01 9.34123E-02 9.91901E-04-4.26308E-01-2.31159E-13 1.87447E-13
 -1       381 2.02687E+01 1.06206E-01 1.27965E-03-3.22017E-01-1.05478E-13-1.40964E-13
 -1       382 2.01517E+01 1.10506E-01 1.09270E-03-2.17097E-01-1.96457E-13-3.32073E-13
 -1       383 1.98784E+01 2.28652E-01 1.08033E-02 4.00182E-01 8.91253E-14 1.66555E-13
 -1       384 1.95900E+01 1.15782E-01 6.18660E-03 1.20922E-01 4.98206E-14 1.62564E-13
 -1       385 1.94564E+01 5.84933E-02 2.82723E-03-2.90355E-02-2.28891E-14 1.35721E-13
 -1       386 1.94188E+01 2.72514E-02 1.21376E-03-1.07862E-01-2.67123E-14 1.45286E-13
 -1       387 1.94389E+01 9.72426E-03 5.07981E-04-1.46252E-01 6.18642E-15 7.30278E-14
 -1       388 1.94922E+01 3.05408E-04 1.90258E-04-1.61618E-01 1.08257E-13 7.51795E-14
 -1       389 1.95641E+01-3.86195E-03 4.74759E-05-1.64784E-01 1.11675E-13 9.58007E-14
 -1       390 1.96462E+01-4.37438E-03 3.24363E-06-1.62992E-01 2.23603E-14 1.14655E-13
 -1       391 1.97347E+01-2.16608E-03 2.66643E-05-1.61405E-01 6.93455E-14 1.26251E-13
 -1       392 1.98292E+01 2.22500E-03 1.02444E-04-1.63958E-01 4.83323E-14 4.49190E-14
 -1       393 1.99317E+01 8.52179E-03 2.22035E-04-1.73873E-01 9.42264E-14-9.17306E-14
 -1       394 2.00462E+01 1.66240E-02 3.80436E-04-1.94002E-01 5.13022E-14-5.30451E-14
 -1       395 2.01784E+01 2.65364E-02 5.73876E-04-2.27033E-01 1.91324E-14-2.19908E-14
 -1       396 2.03356E+01 3.82817E-02 7.96802E-04-2.75582E-01 6.58127E-15-9.87469E-14
 -1       397 2.05260E+01 5.17616E-02 1.03720E-03-3.42105E-01 5.83848E-14-4.29137E-15
 -1       398 2.07589E+01 6.65120E-02 1.26914E-03-4.28544E-01-1.60446E-14 2.22605E-14
 -1       399 2.10438E+01 8.12685E-02 1.44158E-03-5.35508E-01-7.55876E-14-2.57937E-14
 -1       400 2.13893E+01 9.32223E-02 1.46422E-03-6.60691E-01-5.65288E-14-1.63707E-13
 -1       401 2.18015E+01 9.68457E-02 1.19713E-03-7.96077E-01 4.32323E-14-1.69993E-13
 -1       402 2.22814E+01 8.23052E-02 4.58429E-04-9.23466E-01 2.36211E-13-8.50587E-14
 -1       403 2.28212E+01 3.40459E-02-9.15476E-04-1.00824E+00 4.75687E-14-1.87892E-13
 -1       404 2.33993E+01-6.83399E-02-2.92721E-03-9.92828E-01-1.82093E-13-3.50474E-13
 -1       405 2.39732E+01-2.41856E-01-5.19556E-03-7.95479E-01-1.06063E-13-2.10111E-13
 -1       406 2.44700E+01-4.76607E-01-6.95981E-03-3.27675E-01-6.34783E-14-1.28087E-13
 -1       407 2.47768E+01-6.93001E-01-6.96488E-03 4.48072E-01 9.51544E-14 2.93498E-13
 -1       408 2.47461E+01-7.08415E-01-5.19161E-03 1.40662E+00-1.06447E-14 2.54359E-13
 -1       409 2.42670E+01-3.08178E-01-6.65120E-03 2.14702E+00 1.75257E-13 3.90927E-13
 -1       410 2.34606E+01 4.91788E-01-1.20930E-02 2.07552E+00 1.14258E-13 4.27316E-13
 -1       411 2.27881E+01 1.22729E+00-1.52290E-02 9.22062E-01-2.38828E-13 1.80617E-14
 -1       412 2.27848E+01 1.25965E+00-1.32715E-02-8.01207E-01-1.52139E-13-1.25829E-13
 -1       413 2.34501E+01 5.68122E-01-5.25188E-03-2.03007E+00-1.26507E-13 2.85878E-13
 -1       414 2.42677E+01-2.53166E-01-6.80238E-04-2.16686E+00-9.54651E-14 2.84815E-13
 -1       415 2.47515E+01-6.94730E-01-3.97473E-03-1.45658E+00 2.89367E-13 2.20616E-13
 -1       416 2.47766E+01-7.07156E-01-7.69940E-03-4.90912E-01 2.25008E-13 3.86761E-13
 -1       417 2.44542E+01-5.00250E-01-8.75700E-03 3.08923E-01-4.60170E-14 4.67997E-13
 -1       418 2.39373E+01-2.62470E-01-6.81055E-03 8.01181E-01-1.51650E-13 3.56479E-13
 -1       419 2.33433E+01-8.29103E-02-3.81852E-03 1.01746E+00-3.58689E-13 1.60728E-13
 -1       420 2.27450E+01 2.47706E-02-1.27952E-03 1.04610E+00 8.98566E-14 2.09526E-13
 -1       421 2.21845E+01 7.71037E-02 3.97653E-04 9.69617E-01 2.57728E-13 4.96548E-15
 -1       422 2.16837E+01 9.51838E-02 1.30713E-03 8.46008E-01 2.06300E-13 1.23281E-13
 -1       423 2.12517E+01 9.57065E-02 1.69951E-03 7.09319E-01 4.86765E-13-3.69171E-13
 -1       424 2.08896E+01 8.98602E-02 1.80703E-03 5.75738E-01 2.04130E-13-5.22220E-13
 -1       425 2.05952E+01 8.40402E-02 1.67915E-03 4.49969E-01-3.38207E-14-2.59343E-13
 -1       426 2.03638E+01 8.28478E-02 1.44114E-03 3.30104E-01-1.57312E-13 2.09964E-14
 -1       427 2.01894E+01 8.63211E-02 1.19599E-03 2.11696E-01 1.34663E-13 2.34104E-13
 -1       428 2.01047E+01 9.31607E-02 8.32752E-04 1.44159E-01 1.32294E-15 2.68458E-13
 -1       429 2.00115E+01 4.83199E-01 1.34694E-04 3.66501E-01-5.89132E-13 1.63132E-14
 -1       430 2.00715E+01 3.19723E-01 9.01130E-04 3.28929E-01-1.55103E-13-2.14637E-14
 -1       431 2.00999E+01 1.98295E-01 1.20884E-03 2.45736E-01-1.10503E-13-5.74212E-14
 -1       432 1.99579E+01 6.36753E-01-3.36258E-04 3.46764E-01-6.31797E-13-6.43021E-13
 -1       433 1.99142E+01 7.68292E-01-7.57788E-04 2.75529E-01-9.74315E-14 4.50647E-13
 -1       434 1.98863E+01 8.58772E-01-1.04360E-03 1.66662E-01 4.26699E-13 5.92296E-13
 -1       435 1.98759E+01 8.97910E-01-1.16595E-03 3.76280E-02 2.73607E-13 2.07986E-13
 -1       436 1.98825E+01 8.82176E-01-1.11928E-03-9.31545E-02 1.41909E-13-2.52304E-14
 -1       437 1.99042E+01 8.15029E-01-9.16166E-04-2.08478E-01 1.53504E-13-3.44858E-13
 -1       438 1.99371E+01 7.08201E-01-5.85355E-04-2.92970E-01 2.51142E-13-3.28331E-13
 -1       439 1.99787E+01 5.71404E-01-1.92727E-04-3.39384E-01 4.10320E-13 4.21015E-13
 -1       440 2.00249E+01 4.21883E-01 2.61957E-04-3.40029E-01 1.77746E-13 1.62069E-13
 -1       441 2.00718E+01 2.74379E-01 8.27873E-04-2.94786E-01-1.31891E-13-4.01878E-13
 -1       442 1.01892E+01-5.66988E+00-5.93855E-02 6.63901E+00-3.83998E-14 1.29972E-13
 -1       443 1.10991E+00-4.45235E+00-6.60280E-02-3.33690E-01-3.37621E-14 4.90497E-13
 -1       444 3.64019E+00-4.60945E+00-4.31572E-02 4.08311E+00-1.29341E-13 1.94914E-13
 -1       445 1.80275E+01-5.66974E+00-5.71340E-02 6.65928E+00 4.37983E-14-3.06675E-13
 -1       446 2.75541E+01-4.17412E+00-1.30192E-02 3.44919E+00 1.04097E-13-4.99781E-13
 -1       447 1.97885E+01 3.43972E+00-2.08404E-02-1.72694E+00-3.05673E-14-9.81537E-14
 -1       448 3.58491E+01 5.21437E+00 8.47382E-02-1.83700E-01-1.40582E-14-1.74388E-13
 -1       449 3.70652E+01 7.77823E+00 1.27996E-01-1.27822E-01-9.26759E-14 5.72112E-14
 -1       450 3.58491E+01 7.23476E+00 4.92336E-02 4.96886E-01-1.29508E-13 2.40079E-13
 -1       451 3.43045E+01 3.80295E+00-2.03124E-02 4.21429E-01 8.82489E-14 1.96995E-13
 -1       452 3.01588E+01-1.81044E+00-3.37246E-02-2.17305E+00 1.24470E-13 2.92127E-13
 -1       453 2.51937E+01-4.39748E+00 3.93493E-03-4.88697E+00 9.49657E-14 1.39028E-13
 -1       454 1.64314E+01-5.69489E+00-4.60961E-02-6.80166E+00 1.52156E-13 2.76827E-14
 -1       455 7.60041E+00-5.27719E+00-5.60516E-02-6.05626E+00 6.99857E-14-2.68702E-13
 -1       456 2.51888E+00-4.69219E+00-6.10216E-02-3.11551E+00-7.51413E-14-5.39638E-13
 -1       457 1.67769E+00-3.73242E+00 1.22049E-02 1.19522E+00-1.00892E-13-5.70738E-13
 -1       458 5.67038E+00-4.38381E+00 3.56961E-02 5.56100E+00-1.12341E-13-1.08816E-13
 -1       459 1.12359E+01-5.38159E+00-1.87770E-02 7.10593E+00-3.28904E-14-1.53412E-13
 -1       460 1.99444E+01-5.02544E+00-3.96973E-03 6.55084E+00-3.01842E-14 2.97123E-14
 -1       461 2.61174E+01-3.16215E+00-2.68373E-02 4.52651E+00-2.26902E-13 3.99458E-13
 -1       462 3.21144E+01 1.59696E+00 2.37372E-02 1.54926E+00-1.99164E-13 1.57790E-13
 -1       463 3.43540E+01 5.13491E+00 2.32077E-02 1.82894E-02-8.35443E-14 1.40138E-13
 -1       464 3.41579E+01 7.90379E+00-3.16410E-02-2.82718E-01-1.14408E-13 2.78864E-13
 -1       465 3.42967E+01 7.09276E+00-1.91665E-02 4.09272E-01-5.71626E-14 2.10575E-13
 -1       466 3.37806E+01 4.15376E+00 1.54112E-02-1.18341E-01 2.64525E-13 2.90032E-13
 -1       467 3.01816E+01-8.28645E-01-1.90830E-02-2.40662E+00 7.90080E-14-2.14467E-13
 -1       468 2.54860E+01-3.72697E+00 2.00869E-02-4.86044E+00-8.46823E-14-5.42871E-13
 -1       469 1.69021E+01-5.52411E+00-2.85019E-03-7.10161E+00-1.90958E-14-1.93862E-13
 -1       470 8.77031E+00-5.51099E+00-8.34901E-02-6.64249E+00 1.04555E-13-5.99312E-14
 -1       471 3.58536E+00-4.47457E+00-2.49027E-02-4.31325E+00-1.06026E-14 1.95927E-13
 -1       472 3.26718E+01 6.09608E-01-4.07311E-03 6.41823E-01 7.58629E-14-2.89782E-13
 -1       473 2.92642E+01-2.27952E+00-4.44728E-02 1.21600E+00-1.68942E-13 2.12177E-13
 -1       474 3.11402E+01-2.15917E-01-8.19774E-02 1.14630E+00 1.21396E-14 1.79273E-13
 -1       475 2.03670E+01 8.32352E-01 4.02862E-03 9.73473E-01 8.26153E-14 1.00904E-13
 -1       476 1.97416E+01 3.10662E+00-5.51150E-03-6.33954E-01 3.58573E-14-9.06482E-14
 -1       477 1.98357E+01 2.93241E+00-5.86820E-03-9.50905E-01 2.48249E-14-1.06478E-13
 -1       478 1.96754E+01 3.23028E+00-5.03057E-03 8.91127E-03 5.94692E-14-3.98747E-14
 -1       479 1.96935E+01 3.19697E+00-5.10187E-03 3.30291E-01 9.02131E-14-9.05103E-15
 -1       480 1.97462E+01 3.09951E+00-5.41827E-03 6.45833E-01 1.02527E-13-4.23793E-14
 -1       481 1.98426E+01 2.92097E+00-5.96826E-03 9.61680E-01 1.27744E-13-9.07325E-15
 -1       482 1.99951E+01 2.63504E+00-6.53131E-03 1.25742E+00 1.20288E-13 3.49137E-14
 -1       483 2.02331E+01 2.18840E+00-5.69747E-03 1.50271E+00 1.31594E-13 8.26038E-14
 -1       484 2.01059E+01 4.54645E-01 5.07744E-03 4.64898E-01 8.07042E-14 1.02814E-13
 -1       485 2.03376E+01 9.77504E-01 3.69743E-03-9.40358E-01-3.40125E-14-7.96486E-14
 -1       486 3.11769E+01 2.18741E+00-9.74196E-02-2.11467E+00 3.31610E-14-1.62023E-13
 -1       487 2.01735E+01 5.34371E-01 4.28322E-04-4.68890E-01-2.36862E-14-4.92488E-14
 -1       488 2.00224E+01 3.07481E-01 1.17153E-03-1.64262E-01-2.65806E-14-7.06401E-15
 -1       489 1.99244E+01 1.67197E-01 5.37461E-04 2.06855E-02-5.93487E-15 6.52940E-15
 -1       490 1.98692E+01 8.40410E-02 1.96366E-04 1.28541E-01 1.38928E-14 4.31174E-15
 -1       491 1.98472E+01 3.55798E-02 5.50672E-05 1.87793E-01-4.42570E-14-5.60706E-14
 -1       492 1.98488E+01 9.71294E-03-3.31071E-06 2.17755E-01-2.36688E-14-1.05193E-13
 -1       493 1.98670E+01-6.66733E-04-2.16474E-05 2.31994E-01-7.38340E-14-6.74286E-14
 -1       494 1.98969E+01 3.56166E-06-1.50766E-05 2.40208E-01-6.20067E-14 9.30521E-15
 -1       495 1.99357E+01 8.82254E-03 9.38662E-06 2.49488E-01-4.16757E-14-1.77049E-14
 -1       496 1.99824E+01 2.37789E-02 4.71949E-05 2.65116E-01-3.97132E-14-9.29438E-14
 -1       497 2.00371E+01 4.33125E-02 9.46097E-05 2.91033E-01-2.70833E-14-1.18490E-13
 -1       498 2.01009E+01 6.59383E-02 1.47727E-04 3.30062E-01-1.28973E-14 1.67201E-14
 -1       499 2.01757E+01 8.98525E-02 2.01434E-04 3.83885E-01-4.36465E-14 4.96793E-14
 -1       500 2.02638E+01 1.12468E-01 2.48119E-04 4.52782E-01-1.08318E-13-1.36829E-14
 -1       501 2.03684E+01 1.29846E-01 2.76125E-04 5.35070E-01-1.74016E-14-2.88442E-14
 -1       502 2.04932E+01 1.36035E-01 2.68104E-04 6.26229E-01-1.53248E-13-1.06331E-13
 -1       503 2.06429E+01 1.22416E-01 1.99788E-04 7.17663E-01-1.00813E-13-1.16950E-13
 -1       504 2.08231E+01 7.73561E-02 4.05353E-05 7.95148E-01 7.83130E-14-2.30482E-13
 -1       505 2.10411E+01-1.31316E-02-2.42074E-04 8.37158E-01 2.38712E-13-2.31081E-13
 -1       506 2.13051E+01-1.62385E-01-6.67855E-04 8.13635E-01 1.97127E-13-7.87386E-14
 -1       507 2.16211E+01-3.75633E-01-1.22032E-03 6.86550E-01 8.37828E-14-1.15926E-13
 -1       508 2.19860E+01-6.35712E-01-1.74458E-03 4.15185E-01-7.87556E-14-1.28627E-13
 -1       509 2.23739E+01-8.82810E-01-2.05993E-03-2.85638E-02 5.14622E-15-1.86775E-13
 -1       510 2.27203E+01-9.97212E-01-1.69938E-03-6.30065E-01 1.30839E-14-1.88706E-13
 -1       511 2.29137E+01-8.08735E-01-1.29355E-03-1.27971E+00-8.81565E-14-1.69470E-13
 -1       512 2.28489E+01-2.03258E-01-2.02292E-03-1.73744E+00-5.91624E-14-5.48897E-14
 -1       513 2.25351E+01 7.26432E-01-1.89128E-03-1.68101E+00-2.11779E-13-1.16051E-13
 -1       514 2.21698E+01 1.57675E+00-3.42639E-03-9.59530E-01-8.98264E-14-8.51808E-14
 -1       515 2.20573E+01 1.82329E+00-3.95276E-03 2.20799E-01 3.03967E-15-2.27823E-13
 -1       516 2.22877E+01 1.30392E+00-3.00132E-03 1.28702E+00-9.58977E-14-9.30708E-14
 -1       517 2.26644E+01 3.60657E-01-1.33210E-03 1.76366E+00 1.87161E-13-1.20831E-13
 -1       518 2.28952E+01-4.82657E-01-1.05926E-03 1.58918E+00 1.42633E-13-1.32608E-13
 -1       519 2.28516E+01-9.30806E-01-1.20007E-03 1.02165E+00 1.56193E-13 5.05621E-14
 -1       520 2.25826E+01-9.88795E-01-2.03273E-03 3.64269E-01 3.91740E-14-9.79902E-14
 -1       521 2.22053E+01-8.09540E-01-2.13596E-03-1.91579E-01-1.77304E-13-2.37815E-13
 -1       522 2.18142E+01-5.47481E-01-1.65212E-03-5.76834E-01-7.65270E-14-3.13285E-13
 -1       523 2.14591E+01-2.99784E-01-1.03701E-03-7.96461E-01 1.05663E-14-2.93488E-14
 -1       524 2.11558E+01-1.07484E-01-5.06266E-04-8.85359E-01-4.60535E-14 1.73193E-13
 -1       525 2.09030E+01 2.37285E-02-1.21196E-04-8.83088E-01-8.47482E-14 7.73510E-14
 -1       526 2.06935E+01 1.04761E-01 1.37468E-04-8.23038E-01 2.90300E-13-1.65901E-13
 -1       527 2.05197E+01 1.51578E-01 3.13558E-04-7.29339E-01 3.05610E-13-1.33720E-13
 -1       528 2.03748E+01 1.79326E-01 4.14000E-04-6.17273E-01 5.68046E-14-2.62958E-13
 -1       529 2.02540E+01 2.00054E-01 5.42235E-04-4.94598E-01-2.30340E-13-3.89032E-13
 -1       530 1.98071E+01 1.32397E-01 1.00975E-03-2.30313E-02 4.18765E-15 6.00819E-14
 -1       531 1.97527E+01 6.51368E-02 3.90753E-04-1.25761E-01 2.08943E-14 4.05669E-14
 -1       532 1.97395E+01 2.63642E-02 1.28144E-04-1.80327E-01 6.13713E-14 1.98646E-14
 -1       533 1.97539E+01 5.66148E-03 1.26002E-05-2.06417E-01 5.66313E-14 7.90288E-14
 -1       534 1.97866E+01-2.79132E-03-2.97386E-05-2.17361E-01 6.78782E-14 1.33336E-13
 -1       535 1.98317E+01-2.43940E-03-2.59860E-05-2.22590E-01 8.29895E-14 1.12931E-13
 -1       536 1.98860E+01 4.64186E-03 1.18368E-05-2.29091E-01 1.44055E-13 3.35118E-14
 -1       537 1.99488E+01 1.72400E-02 7.72835E-05-2.42313E-01 1.41566E-13-5.65058E-14
 -1       538 2.00208E+01 3.47149E-02 1.66767E-04-2.66774E-01 4.47591E-14-2.95731E-14
 -1       539 2.01040E+01 5.67872E-02 2.78298E-04-3.06446E-01 4.73192E-15 2.85869E-14
 -1       540 2.02014E+01 8.33300E-02 4.10098E-04-3.64968E-01-5.32270E-14 1.41229E-13
 -1       541 2.03166E+01 1.14092E-01 5.58499E-04-4.45665E-01-1.76964E-14 9.41205E-14
 -1       542 2.04538E+01 1.48254E-01 7.14625E-04-5.51313E-01 2.31795E-14 2.32998E-13
 -1       543 2.06175E+01 1.83682E-01 8.59066E-04-6.83509E-01 1.99951E-14 1.44906E-13
 -1       544 2.08124E+01 2.15674E-01 9.53637E-04-8.41424E-01 2.56821E-14 2.24840E-14
 -1       545 2.10441E+01 2.34971E-01 9.30350E-04-1.01963E+00 6.43319E-14-1.15396E-13
 -1       546 2.13200E+01 2.24916E-01 6.85020E-04-1.20459E+00 1.03558E-13-2.22847E-13
 -1       547 2.16516E+01 1.58226E-01 7.62623E-05-1.36933E+00 7.57065E-14 1.97343E-14
 -1       548 2.20588E+01-4.40138E-03-1.02887E-03-1.46646E+00-1.11398E-14 7.63794E-14
 -1       549 2.25719E+01-3.07417E-01-2.64828E-03-1.42046E+00-7.64337E-14-1.31145E-13
 -1       550 2.32255E+01-7.71541E-01-4.56831E-03-1.12536E+00-1.42474E-13-1.55402E-13
 -1       551 2.40289E+01-1.32792E+00-6.62707E-03-4.64195E-01-1.70512E-13-4.15885E-14
 -1       552 2.48867E+01-1.70663E+00-7.92479E-03 6.14430E-01 2.81096E-14 9.73830E-14
 -1       553 2.55361E+01-1.41222E+00-1.10951E-02 1.90949E+00-2.71330E-14 1.41387E-13
 -1       554 2.55958E+01-1.20256E-02-2.09849E-02 2.75389E+00-2.83614E-14 3.43734E-13
 -1       555 2.50185E+01 2.08822E+00-6.92239E-02 2.17792E+00 1.39890E-13 4.42681E-13
 -1       556 2.47443E+01 3.12719E+00-6.57524E-02 6.62634E-02-5.51295E-14 2.02923E-13
 -1       557 2.50587E+01 2.15033E+00-5.47346E-02-2.05495E+00-5.57700E-13 4.32004E-13
 -1       558 2.55610E+01 8.55609E-02-2.85802E-02-2.70993E+00-1.60622E-13 5.66273E-13
 -1       559 2.55214E+01-1.37200E+00-1.35846E-02-1.93448E+00 1.00748E-13 4.76927E-13
 -1       560 2.48980E+01-1.71448E+00-6.08808E-03-6.40925E-01 1.37497E-13 5.85137E-13
 -1       561 2.40373E+01-1.35887E+00-6.74303E-03 4.54953E-01 2.04168E-13 4.53218E-13
 -1       562 2.32211E+01-8.02522E-01-5.49744E-03 1.13868E+00-1.02369E-14 3.40399E-13
 -1       563 2.25531E+01-3.31703E-01-3.06513E-03 1.45142E+00-4.76906E-14 1.91669E-13
 -1       564 2.20257E+01-2.16371E-02-1.13293E-03 1.51099E+00-3.84310E-14-3.21586E-13
 -1       565 2.16049E+01 1.47254E-01 1.17080E-04 1.42335E+00 2.90074E-13-4.48479E-13
 -1       566 2.12605E+01 2.20063E-01 7.97669E-04 1.26395E+00 1.23589E-13-3.01291E-13
 -1       567 2.09729E+01 2.37684E-01 1.08058E-03 1.07936E+00 4.56660E-13-2.89081E-13
 -1       568 2.07314E+01 2.29392E-01 1.20778E-03 8.94789E-01 3.54340E-13-1.86460E-14
 -1       569 2.05295E+01 2.15203E-01 1.53522E-03 7.21946E-01-2.31831E-13 1.99911E-13
 -1       570 2.03629E+01 2.04319E-01 1.47314E-03 5.59941E-01-2.80338E-13 2.34423E-13
 -1       571 2.02206E+01 2.01510E-01 1.02048E-03 4.04827E-01 2.98809E-14 1.40810E-13
 -1       572 1.98577E+01 6.87909E-01-2.55643E-04 4.26283E-01 3.86605E-13 2.68987E-13
 -1       573 1.97838E+01 7.86994E-01-4.28242E-04 2.98292E-01 5.27140E-13 1.07743E-12
 -1       574 2.00732E+01 4.01356E-01 1.86031E-04 5.00230E-01-2.18818E-13-4.92141E-13
 -1       575 1.99582E+01 5.54205E-01 3.00781E-04 4.95771E-01-3.96918E-13 3.19257E-14
 -1       576 1.97444E+01 8.40893E-01-5.07771E-04 1.33393E-01 3.29059E-13 5.48509E-14
 -1       577 1.97414E+01 8.44839E-01-5.22699E-04-4.46360E-02 1.37770E-13 1.19620E-14
 -1       578 1.97723E+01 8.00470E-01-4.62891E-04-2.12018E-01 2.06588E-13 9.64335E-14
 -1       579 1.98299E+01 7.16771E-01-3.37090E-04-3.46225E-01 2.95010E-13-3.79395E-13
 -1       580 1.99084E+01 6.01412E-01-2.03644E-04-4.36670E-01 2.28455E-13 6.62109E-14
 -1       581 1.99977E+01 4.67923E-01-6.18886E-05-4.72013E-01 1.98954E-13 1.54847E-13
 -1       582 2.00914E+01 3.29111E-01 2.34020E-04-4.47586E-01-2.03660E-13-4.59084E-13
 -1       583 5.14259E+00-1.40254E+00 1.72398E-01 1.95099E+00-9.80067E-14 4.93952E-13
 -1       584 1.01994E+01-3.26539E+00 1.48519E-01 5.96878E+00-1.51233E-13-1.17635E-13
 -1       585 4.76023E+00-1.71111E+00 1.62498E-01-2.35125E+00-1.00867E-13 1.27440E-13
 -1       586 1.99198E+01 2.48300E-01 2.44905E-03 1.57930E-01 2.68967E-14 8.93976E-14
 -1       587 1.69634E+01-5.15991E+00 9.15450E-02 6.57957E+00-2.65427E-13-1.08361E-13
 -1       588 2.03907E+01 1.76959E+00-5.29572E-03-1.54701E+00-4.28516E-14-9.06621E-14
 -1       589 2.94345E+01-2.53592E+00-8.40598E-02-3.43833E-01 1.10233E-13-3.04076E-13
 -1       590 2.96438E+01 5.69318E+00-1.69375E-01-1.59012E+00-2.10942E-13 9.51947E-14
 -1       591 6.40080E+00-1.49046E+00 1.83316E-01 3.60700E+00 5.24650E-14-2.88047E-13
 -1       592 1.96908E+01 3.20137E+00-5.19233E-03-3.12597E-01 5.39514E-14-6.68103E-14
 -1       593 3.12265E+01 7.10657E+00-1.55548E-01 2.18341E-01-1.84103E-13 3.24221E-13
 -1       594 1.53443E+01-4.79441E+00 1.12311E-01-6.70361E+00-6.10761E-14 9.16628E-14
 -1       595 3.12817E+01 5.69388E+00-1.56675E-01-1.61210E+00-1.05582E-13 1.29119E-13
 -1       596 3.08097E+01 4.89519E+00-1.59789E-01 2.00596E+00-3.20299E-14 1.39923E-13
 -1       597 2.74917E+01-4.58630E+00-6.53675E-02-1.65318E+00 1.71838E-13 3.10120E-13
 -1       598 2.92314E+01 7.16488E+00-1.77983E-01 4.45850E-01-9.57012E-14 8.69790E-14
 -1       599 2.31856E+01-5.68782E+00 4.10463E-02-4.78955E+00 1.37883E-13 1.44555E-13
 -1       600 7.69837E+00-2.64900E+00 1.45925E-01-4.91522E+00-1.47882E-13-3.73271E-13
 -1       601 4.73993E+00-1.41500E+00 1.70770E-01-1.33779E+00-7.02632E-14-5.13048E-13
 -1       602 1.13886E+01-3.58020E+00 1.30241E-01 6.57721E+00-2.48135E-14 1.00614E-15
 -1       603 1.83453E+01-5.20460E+00 7.96114E-02 6.59873E+00 1.51566E-13 8.02570E-14
 -1       604 2.43620E+01-5.19973E+00 8.88506E-04 4.36308E+00-1.41567E-13 3.29556E-13
 -1       605 3.01093E+01 1.99665E+00-1.32155E-01-1.44744E+00-2.58217E-13 2.06488E-13
 -1       606 1.44211E+01-4.67045E+00 8.70591E-02-6.99525E+00 2.64885E-13-2.24688E-13
 -1       607 3.00474E+01 4.68924E+00-1.60979E-01 1.69692E+00 5.32491E-14 1.71495E-13
 -1       608 2.98020E+01 4.56562E-01-1.09925E-01 9.97897E-01 2.73642E-13 4.66537E-13
 -1       609 2.77378E+01-3.58272E+00-4.03716E-02-1.81910E+00-1.97203E-14 5.58442E-14
 -1       610 2.27622E+01-5.35767E+00 7.15592E-03-5.07731E+00-7.55854E-14-5.41425E-13
 -1       611 8.95797E+00-3.09627E+00 1.48423E-01-5.96180E+00 1.32117E-13-2.42181E-13
 -1       612 2.05778E+01 1.30531E+00-9.97058E-04 1.54965E+00 1.10362E-13 1.45857E-13
 -1       613 2.42436E+01-5.56279E+00 2.43643E-02 4.21108E+00 1.59039E-14-6.59015E-13
 -1       614 1.99852E+01 2.66311E+00-6.27972E-03-1.25875E+00 5.45890E-15-7.31858E-14
 -1       615 2.71079E+01-4.42195E+00-1.23644E-02 1.05792E+00-1.25325E-14-2.70070E-13
 -1       616 2.00669E+01-5.06479E+00 7.00170E-02-5.84984E+00 3.83096E-14-3.09829E-13
 -1       617 2.94029E+01 1.60764E+00-1.28593E-01 2.64395E+00 6.87575E-14 1.07130E-13
 -1       618 2.01835E+01 2.11151E-01 6.60342E-04-4.05276E-01-4.31707E-13-3.50586E-13
 -1       619 1.99698E+01 2.45432E+00-1.58125E-03 3.93472E-01 8.75429E-14-1.56420E-14
 -1       620 1.99384E+01 2.52954E+00-1.58747E-03 1.34776E-01 7.68279E-14-1.12907E-14
 -1       621 2.01263E+01 2.04896E+00-1.57393E-03 8.49667E-01 9.57136E-14 1.30677E-14
 -1       622 2.02410E+01 1.67782E+00-2.25252E-03 9.92394E-01 1.03218E-13 6.97958E-14
 -1       623 2.03180E+01 1.03808E+00 2.90735E-03 8.31968E-01 8.94760E-14 6.59114E-14
 -1       624 2.02053E+01 6.17783E-01 1.11504E-03 4.19560E-01 7.05905E-14 5.45644E-14
 -1       625 2.77685E+01 1.96346E+00-1.06746E-01 2.19769E+00 9.24295E-14-2.42174E-13
 -1       626 2.02444E+01 6.80673E-01 1.96697E-03-3.92287E-01-2.39520E-14-4.83980E-14
 -1       627 2.01712E+01 4.00490E-01 3.82595E-04-1.35182E-01-2.26603E-14-3.90053E-14
 -1       628 2.01070E+01 2.24461E-01 6.49511E-05 3.25408E-02 1.97409E-14-5.12427E-14
 -1       629 2.00598E+01 1.16166E-01 1.95623E-05 1.35222E-01-3.03073E-14-6.78216E-14
 -1       630 2.00285E+01 5.25640E-02-4.57179E-06 1.94941E-01-4.22899E-14-3.71852E-14
 -1       631 2.00111E+01 1.97978E-02-1.09093E-05 2.28386E-01 5.92242E-16 2.28055E-14
 -1       632 2.00046E+01 9.01326E-03-1.02376E-05 2.48067E-01-4.62809E-14 3.97971E-14
 -1       633 2.00067E+01 1.43339E-02-4.19963E-06 2.63397E-01-6.68774E-14 2.56904E-14
 -1       634 2.00157E+01 3.17127E-02 6.28097E-06 2.81491E-01-9.87287E-14 4.23103E-14
 -1       635 2.00304E+01 5.81758E-02 2.03193E-05 3.07751E-01-4.29546E-14 4.51664E-14
 -1       636 2.00506E+01 9.12233E-02 3.69666E-05 3.46241E-01-2.61890E-15 3.53856E-14
 -1       637 2.00763E+01 1.28257E-01 5.50796E-05 3.99849E-01-8.88239E-15-9.77290E-14
 -1       638 2.01086E+01 1.65951E-01 7.30417E-05 4.70245E-01-8.60143E-14-4.90665E-14
 -1       639 2.01493E+01 1.99507E-01 8.83121E-05 5.57600E-01-1.01266E-13-5.32447E-15
 -1       640 2.02018E+01 2.21775E-01 9.68395E-05 6.60067E-01-1.19950E-13-1.00484E-13
 -1       641 2.02720E+01 2.22270E-01 9.22607E-05 7.72948E-01-1.15183E-13-1.16125E-13
 -1       642 2.03692E+01 1.86303E-01 6.45994E-05 8.87526E-01-4.40971E-14-4.02656E-14
 -1       643 2.05081E+01 9.47468E-02-4.79528E-07 9.89437E-01 7.92244E-14-7.45579E-14
 -1       644 2.07098E+01-7.44334E-02-1.21839E-04 1.05648E+00 2.57510E-13-2.51894E-13
 -1       645 2.10026E+01-3.40640E-01-3.14958E-04 1.05581E+00 1.35757E-13-1.91890E-13
 -1       646 2.14166E+01-7.07473E-01-5.96601E-04 9.41193E-01-3.72275E-14-1.53797E-13
 -1       647 2.19697E+01-1.13654E+00-8.03095E-04 6.53741E-01-3.66967E-14-6.60022E-14
 -1       648 2.26389E+01-1.51236E+00-1.14159E-03 1.39636E-01-4.84787E-14-9.38689E-14
 -1       649 2.33238E+01-1.60841E+00-9.86116E-04-6.18002E-01 3.98585E-14-1.68586E-13
 -1       650 2.38010E+01-1.10397E+00-4.72537E-03-1.45901E+00-1.43356E-13-1.18631E-13
 -1       651 2.38752E+01 1.75605E-01-5.47413E-03-2.03940E+00-1.34011E-13-1.34424E-13
 -1       652 2.34792E+01 1.88713E+00-2.99817E-02-1.76299E+00-1.55657E-13-5.97461E-14
 -1       653 2.31792E+01 2.98500E+00-2.60347E-02-5.13148E-01-7.12468E-14-1.68607E-13
 -1       654 2.32665E+01 2.70907E+00-2.27929E-02 1.03842E+00 2.91043E-14-1.16910E-13
 -1       655 2.36612E+01 1.23032E+00-1.76057E-02 1.94464E+00 4.73128E-14 1.56579E-13
 -1       656 2.38837E+01-3.95672E-01-1.01157E-02 1.85793E+00 1.02389E-13 1.90982E-15
 -1       657 2.36572E+01-1.38868E+00-2.01227E-03 1.13161E+00 8.28737E-14-7.80080E-14
 -1       658 2.30716E+01-1.63679E+00-1.15239E-03 2.82789E-01-5.85183E-14-3.39466E-13
 -1       659 2.23752E+01-1.40796E+00-1.19429E-03-3.94550E-01-5.47576E-14-3.97337E-13
 -1       660 2.17395E+01-9.91880E-01-7.84356E-04-8.27308E-01 5.33296E-14-3.49898E-13
 -1       661 2.12369E+01-5.76176E-01-3.66993E-04-1.04905E+00 1.71350E-13-1.27309E-13
 -1       662 2.08707E+01-2.42741E-01-8.95070E-05-1.12038E+00-1.09376E-13-1.47028E-13
 -1       663 2.06151E+01-8.64835E-03 4.26183E-05-1.09496E+00-1.08410E-13-4.98230E-13
 -1       664 2.04395E+01 1.39651E-01 1.01930E-04-1.01221E+00 1.40564E-13-3.18804E-13
 -1       665 2.03177E+01 2.25730E-01 1.35929E-04-8.98475E-01 2.35237E-13-3.61540E-13
 -1       666 2.02306E+01 2.73385E-01 2.01110E-04-7.70082E-01-8.29340E-14-3.86753E-13
 -1       667 2.01642E+01 3.02243E-01 2.12360E-04-6.35656E-01-1.49251E-13-6.52531E-13
 -1       668 1.99805E+01 1.01093E-01 6.92807E-05-1.34102E-01 4.38018E-14 3.25522E-14
 -1       669 2.01109E+01 4.09926E-01-2.82986E-05 6.68908E-01-7.34594E-14-4.82235E-13
 -1       670 2.00307E+01 1.97885E-01 1.74737E-04-2.90011E-02 1.37849E-14 1.24540E-14
 -1       671 1.99449E+01 1.49039E-02-2.91231E-06-2.25993E-01 4.16479E-14 1.35259E-13
 -1       672 1.99497E+01 4.78352E-03-8.13601E-06-2.43770E-01 1.02298E-13 6.88899E-14
 -1       673 1.99647E+01 9.06638E-03-7.99160E-07-2.56976E-01 1.48167E-13 1.11049E-13
 -1       674 1.99876E+01 2.46703E-02 1.68885E-05-2.73155E-01 1.62440E-13 1.09326E-13
 -1       675 2.00174E+01 4.97567E-02 4.34312E-05-2.98317E-01 7.89278E-14 1.75425E-13
 -1       676 2.00534E+01 8.33097E-02 7.81278E-05-3.37476E-01-4.74780E-14 1.60039E-13
 -1       677 2.00955E+01 1.24774E-01 1.20825E-04-3.94986E-01-9.49292E-14 1.59851E-13
 -1       678 2.01440E+01 1.73662E-01 1.71298E-04-4.74705E-01-6.32387E-15 9.19897E-14
 -1       679 2.01991E+01 2.29002E-01 2.28329E-04-5.79961E-01-3.51517E-14 1.48427E-13
 -1       680 2.02611E+01 2.88464E-01 2.88765E-04-7.13282E-01 7.05283E-14 4.79802E-14
 -1       681 2.03309E+01 3.46953E-01 3.45225E-04-8.75796E-01 3.94660E-14 6.32180E-14
 -1       682 2.04110E+01 3.94382E-01 3.82356E-04-1.06620E+00 1.20227E-13 7.88202E-14
 -1       683 2.05076E+01 4.12315E-01 3.69934E-04-1.27913E+00 8.08856E-14 1.47434E-13
 -1       684 2.06361E+01 3.69516E-01 2.71924E-04-1.50260E+00 4.69157E-15 2.01829E-13
 -1       685 2.08284E+01 2.17438E-01 3.28642E-05-1.71397E+00 5.35592E-14 1.72954E-13
 -1       686 2.11446E+01-1.10593E-01-3.41584E-04-1.87270E+00 4.04585E-14 2.29148E-13
 -1       687 2.16838E+01-6.85367E-01-7.06829E-04-1.90662E+00-1.01204E-13 3.10134E-13
 -1       688 2.25794E+01-1.52588E+00-1.93015E-04-1.68600E+00-1.77253E-13 3.60885E-13
 -1       689 2.39361E+01-2.46995E+00-7.25930E-03-1.00889E+00-9.58478E-14 3.45579E-13
 -1       690 2.57058E+01-2.92887E+00-1.08231E-03 2.87662E-01-8.20073E-14 3.56559E-13
 -1       691 2.71102E+01-1.92185E+00-4.73817E-02 1.92891E+00-6.76126E-14 3.71970E-13
 -1       692 2.71977E+01 4.69728E+00-1.64742E-01-1.36311E+00-2.83787E-13 4.11261E-13
 -1       693 2.73893E+01 1.50214E+00-1.42091E-01-2.92646E+00-3.36495E-13 1.89545E-14
 -1       694 2.70972E+01-1.65908E+00-4.37046E-02-2.12507E+00-2.03483E-14-2.75075E-14
 -1       695 2.56914E+01-2.83599E+00-1.37350E-02-4.40828E-01 2.36515E-13 5.16883E-14
 -1       696 2.40478E+01-2.46276E+00-9.70597E-03 8.87529E-01 3.94163E-13-3.65376E-14
 -1       697 2.27049E+01-1.54470E+00-3.72924E-03 1.62678E+00 1.73782E-13-1.84629E-14
 -1       698 2.18004E+01-7.21107E-01-1.77464E-03 1.89226E+00 9.60690E-14-1.12209E-13
 -1       699 2.12382E+01-1.49104E-01-6.82979E-04 1.89194E+00 1.98392E-13-3.84676E-13
 -1       700 2.08977E+01 1.82362E-01-8.61771E-05 1.75462E+00 7.32969E-14-4.42122E-13
 -1       701 2.06829E+01 3.41390E-01 2.49858E-04 1.55569E+00 1.20288E-13-1.42082E-13
 -1       702 2.05349E+01 3.94785E-01 3.97828E-04 1.33740E+00 4.84281E-13-2.90328E-13
 -1       703 2.04219E+01 3.92741E-01 4.81741E-04 1.12272E+00 2.27266E-13-1.44096E-13
 -1       704 2.03268E+01 3.69560E-01 4.69487E-04 9.22924E-01 5.44984E-14-1.18391E-14
 -1       705 2.01999E+01 3.90536E-01 6.86772E-04 7.93779E-01-1.48660E-13-1.89397E-13
 -1       706 1.95612E+01 8.51074E-01-1.81144E-04 4.43138E-02 2.14438E-13-7.87991E-14
 -1       707 2.01271E+01 3.16043E-01 2.95065E-04-5.42513E-01-9.29450E-14-6.48515E-13
 -1       708 1.96868E+01 7.56314E-01-1.29029E-04 4.54810E-01 3.90854E-13 8.50726E-13
 -1       709 1.95873E+01 8.21432E-01-1.60284E-04-1.73832E-01 3.62003E-13-1.47560E-13
 -1       710 1.95942E+01 8.29380E-01-1.77167E-04 2.63729E-01 5.22321E-14 3.84243E-13
 -1       711 2.73105E+01 2.86731E+00-1.16596E-01-2.27034E+00-2.65822E-13-5.55493E-14
 -1       712 1.96629E+01 7.48705E-01-1.24910E-04-3.60442E-01 1.92871E-13-2.06522E-13
 -1       713 1.97782E+01 6.41263E-01-1.08580E-04-5.00896E-01 8.81517E-14-4.25663E-13
 -1       714 1.99184E+01 5.12966E-01-1.09223E-04-5.77498E-01 2.34156E-13 4.03096E-13
 -1       715 2.23543E+01-4.86433E+00 3.05148E-02 4.34175E+00 5.35214E-14-1.40750E-13
 -1       716 2.02968E+01 1.42633E+00 5.84781E-04-9.71346E-01 2.61802E-15-6.80235E-14
 -1       717 2.68551E+01-3.89883E+00-2.84222E-02 1.36415E+00-2.51780E-13 1.01107E-13
 -1       718 2.02795E+01-4.60593E+00 6.75356E-02-5.10743E+00-9.85392E-14 1.16485E-13
 -1       719 2.01066E+01 3.58091E-01 5.51760E-04 1.45542E-01 4.82693E-14 4.18522E-14
 -1       720 1.00443E+01-8.74294E-01 1.45792E-01 3.87336E+00-1.07483E-13 3.86982E-14
 -1       721 1.99536E+01 4.43727E-02 1.89390E-05-1.93820E-01 2.01645E-14 8.44418E-14
 -1       722 2.79717E+01-8.67211E-01-9.12278E-02-1.38116E+00-3.46202E-13 6.76889E-14
 -1       723 2.52120E+01-4.67353E+00 4.36686E-03-2.54005E+00-7.81424E-14-7.75352E-14
 -1       724 8.05735E+00 1.42529E-01 1.53008E-01 7.19450E-01 4.31618E-14-4.46525E-13
 -1       725 2.00322E+01 2.29886E+00-1.64705E-03 6.37457E-01 9.00024E-14-2.36182E-14
 -1       726 2.76097E+01 4.88190E+00-1.63724E-01 1.36667E+00 1.04819E-13 1.99129E-13
 -1       727 2.65037E+01 4.78103E+00-1.38411E-01 1.63274E+00 3.42643E-14-3.10484E-13
 -1       728 2.00294E+01 2.30159E+00-1.84521E-03-6.24093E-01 3.76571E-14-8.13781E-14
 -1       729 2.51863E+01-4.99171E+00-8.97238E-03-2.47251E+00 6.85806E-14 2.88752E-13
 -1       730 2.87842E+01-2.39640E+00-3.41954E-02 1.33777E+00 3.61265E-14 1.03494E-13
 -1       731 8.66295E+00-6.50706E-01 1.47299E-01-3.06275E+00-6.48197E-14-2.54533E-13
 -1       732 9.14696E+00-9.58307E-01 1.52019E-01-3.97913E+00-8.26561E-14-3.01058E-13
 -1       733 1.10420E+01-1.56181E+00 1.13012E-01 4.94885E+00 1.53513E-13-2.25167E-14
 -1       734 7.34294E+00-7.34109E-02 1.53714E-01-4.44507E-01 6.97021E-14 4.25028E-13
 -1       735 2.66274E+01 5.78281E+00-1.44801E-01-8.44754E-01-8.72774E-14-2.54949E-13
 -1       736 1.66636E+01-3.50038E+00 8.92179E-02 5.93305E+00 1.53346E-13 2.00697E-13
 -1       737 1.34697E+01-2.49156E+00 1.12138E-01-5.49894E+00-2.69455E-13-1.19640E-13
 -1       738 1.59243E+01-3.01786E+00 1.06442E-01 5.55323E+00 1.12722E-14-1.18624E-13
 -1       739 2.76993E+01-2.11133E+00-6.43981E-02 5.99951E-01 1.05473E-13 1.88485E-13
 -1       740 2.11048E+01-4.61858E+00 4.94296E-02 4.70946E+00-5.89806E-15-3.06097E-13
 -1       741 1.38659E+01-3.07729E+00 1.17336E-01-6.16633E+00 1.37914E-13-9.66553E-14
 -1       742 2.01183E+01 2.05678E+00-3.59006E-03-8.38872E-01 1.42252E-14-7.99107E-14
 -1       743 1.99370E+01 2.53050E+00-1.67244E-03-1.27785E-01 5.84857E-14-5.28435E-14
 -1       744 2.42568E+01-4.46025E+00 2.42606E-02 2.49872E+00 1.61909E-13-2.00479E-13
 -1       745 1.98280E+01 6.40086E-01-1.39849E-04 5.90512E-01 2.33544E-13 6.58096E-13
 -1       746 1.99683E+01 2.45666E+00-1.33858E-03-3.82464E-01 3.23237E-14-6.68682E-14
 -1       747 1.06930E+01 9.41941E-02 8.85977E-02 2.67882E+00 2.32041E-13-1.46858E-13
 -1       748 2.00284E+01 4.08202E-01 3.85584E-05-6.25418E-01-2.04323E-13-5.76284E-13
 -1       749 1.46489E+01-7.91962E-01 5.79165E-02 3.92563E+00 1.87784E-13 1.32313E-13
 -1       750 2.02694E+01 1.31258E+00 1.74630E-04 6.30382E-01 7.25965E-14 5.33214E-14
 -1       751 1.82772E+01-3.59648E+00 5.90142E-02-5.39305E+00 5.24442E-14-1.17354E-13
 -1       752 2.64226E+01-4.65190E-01-5.36923E-02 1.88048E+00-3.34316E-14-1.07206E-13
 -1       753 2.64030E+01-2.71093E+00-2.42822E-02-4.18727E-01-1.86977E-13-2.30874E-14
 -1       754 2.02688E+01 4.48628E-01-2.96176E-05-8.60131E-02-1.86694E-14-5.58628E-14
 -1       755 2.02285E+01 2.55584E-01-1.09432E-04 5.11060E-02-5.35720E-15-7.92355E-14
 -1       756 2.01877E+01 1.35223E-01-2.42123E-05 1.37861E-01-2.18551E-14-8.09051E-14
 -1       757 2.01504E+01 6.52795E-02-1.08344E-05 1.90803E-01-1.66885E-14-5.74604E-14
 -1       758 2.01182E+01 3.18937E-02-6.18992E-06 2.23188E-01 1.54522E-14-8.84831E-14
 -1       759 2.00911E+01 2.54405E-02-3.82987E-06 2.45549E-01-4.08220E-14-2.38953E-14
 -1       760 2.00682E+01 3.91681E-02-1.48969E-06 2.66144E-01-4.50379E-14 4.27921E-14
 -1       761 2.00484E+01 6.81966E-02 1.61797E-06 2.91405E-01-9.48036E-15 1.27164E-13
 -1       762 2.00306E+01 1.08728E-01 5.57087E-06 3.26344E-01-8.86991E-15 1.03571E-13
 -1       763 2.00138E+01 1.57321E-01 1.02491E-05 3.74841E-01-8.12201E-14 5.73644E-14
 -1       764 1.99976E+01 2.10141E-01 1.56084E-05 4.39791E-01-1.00246E-13-1.18810E-14
 -1       765 1.99823E+01 2.62123E-01 2.15554E-05 5.23099E-01-1.04237E-13-4.77206E-14
 -1       766 1.99697E+01 3.05970E-01 2.78783E-05 6.25537E-01-1.55252E-13 9.58809E-16
 -1       767 1.99644E+01 3.31008E-01 3.41551E-05 7.46429E-01-1.49839E-13-8.80267E-15
 -1       768 1.99748E+01 3.21937E-01 3.89514E-05 8.83119E-01 2.50450E-14-6.69712E-15
 -1       769 2.00160E+01 2.57752E-01 3.76350E-05 1.03006E+00 2.87200E-14-1.82680E-14
 -1       770 2.01123E+01 1.11455E-01 2.37594E-05 1.17714E+00 9.21386E-14-4.56918E-14
 -1       771 2.03009E+01-1.48033E-01-7.03845E-06 1.30641E+00 2.04420E-13-1.32005E-13
 -1       772 2.06339E+01-5.48627E-01-4.52409E-05 1.38588E+00 1.47595E-13-1.33319E-13
 -1       773 2.11754E+01-1.09744E+00-1.60790E-04 1.35899E+00-5.45501E-14-3.43222E-14
 -1       774 2.19853E+01-1.73645E+00 1.25690E-03 1.12373E+00-3.45030E-14-6.87041E-14
 -1       775 2.30418E+01-2.25525E+00-1.79892E-03 5.60311E-01-2.77781E-14 5.06940E-14
 -1       776 2.42802E+01-2.35539E+00 5.89760E-04-4.14228E-01-5.33469E-14-6.14292E-14
 -1       777 2.49921E+01-1.22503E+00-2.28028E-02-1.55505E+00-3.20736E-13-1.18189E-13
 -1       778 2.47628E+01 3.68140E+00-6.73538E-02-1.54378E+00-9.27973E-14-2.90873E-13
 -1       779 2.47957E+01 2.77418E+00-5.93959E-02 1.99772E+00-5.01561E-14-2.75876E-13
 -1       780 2.51653E+01 1.68785E-01-2.01927E-02 2.11756E+00-2.90861E-14-2.50706E-13
 -1       781 2.47676E+01-1.76715E+00-8.46321E-03 1.16934E+00 2.27564E-14-2.74469E-13
 -1       782 2.37955E+01-2.34300E+00 1.30486E-03 3.99198E-02-7.25581E-14-1.22187E-13
 -1       783 2.26697E+01-2.09286E+00-3.37935E-04-7.86849E-01-8.42512E-14 3.67473E-14
 -1       784 2.17107E+01-1.50502E+00-4.86509E-04-1.23108E+00-8.87074E-14-8.41325E-14
 -1       785 2.10128E+01-8.99329E-01-2.10326E-04-1.39501E+00 7.30559E-14-3.05285E-13
 -1       786 2.05563E+01-4.08844E-01 6.74601E-05-1.39378E+00-8.99050E-14-5.34734E-13
 -1       787 2.02816E+01-6.08292E-02 1.08396E-04-1.30512E+00-1.36908E-13-3.99303E-13
 -1       788 2.01300E+01 1.62399E-01 8.92445E-05-1.17493E+00-4.34773E-14-5.02327E-14
 -1       789 2.00551E+01 2.93022E-01 7.65182E-05-1.02839E+00 6.32705E-14-2.47664E-13
 -1       790 2.00252E+01 3.62589E-01-2.66292E-05-8.78183E-01 8.45854E-14-6.83221E-13
 -1       791 2.00272E+01 3.90585E-01-6.03970E-06-7.49402E-01-2.79026E-13-6.61173E-13
 -1       792 1.25209E+01-6.76355E-01 7.99392E-02-3.82654E+00-1.55098E-13 5.52267E-14
 -1       793 2.01776E+01 2.40804E-01 1.77091E-05-4.55292E-02 1.64623E-14 6.41495E-14
 -1       794 2.00580E+01 1.95296E-02-3.15892E-06-2.50275E-01 1.08220E-13 9.90786E-14
 -1       795 2.00757E+01 2.67560E-02-5.18756E-06-2.28378E-01 9.10777E-14 9.12002E-14
 -1       796 2.00386E+01 5.96212E-02 7.64089E-06-2.94273E-01 5.69703E-14 1.78804E-13
 -1       797 2.00332E+01 1.00848E-01 1.56081E-05-3.29191E-01 2.55368E-14 1.49132E-13
 -1       798 2.00283E+01 1.54043E-01 2.55537E-05-3.79399E-01-2.80623E-14 8.45089E-14
 -1       799 2.00216E+01 2.18249E-01 3.83135E-05-4.48945E-01-2.64311E-14 5.51237E-14
 -1       800 2.00104E+01 2.92358E-01 5.39510E-05-5.41301E-01-2.79415E-14 6.05214E-14
 -1       801 1.99920E+01 3.74244E-01 7.29316E-05-6.59373E-01 5.24401E-14-4.94871E-14
 -1       802 1.99631E+01 4.59502E-01 9.54594E-05-8.05419E-01 2.63421E-14 8.76495E-15
 -1       803 1.99216E+01 5.39486E-01 1.20851E-04-9.80943E-01-1.50945E-14 4.30526E-14
 -1       804 1.98681E+01 5.98344E-01 1.44311E-04-1.18668E+00-6.47138E-14 2.77169E-13
 -1       805 1.98099E+01 6.08721E-01 1.47729E-04-1.42276E+00 2.61188E-15 4.38188E-13
 -1       806 1.97686E+01 5.26177E-01 1.63471E-04-1.68875E+00 4.52747E-14 3.73139E-13
 -1       807 1.97923E+01 2.83590E-01 2.21659E-04-1.98305E+00-1.45180E-14 4.04068E-13
 -1       808 1.99776E+01-2.13300E-01 8.37307E-04-2.29633E+00-6.70565E-14 4.58875E-13
 -1       809 2.04905E+01-1.06613E+00 3.19365E-03-2.58571E+00-1.57919E-13 3.13281E-13
 -1       810 2.16344E+01-2.33856E+00 4.57036E-03-2.71731E+00-1.92755E-13 3.13209E-13
 -1       811 1.11148E+01 4.67666E-01 7.93484E-02 1.84656E+00 1.25607E-14 2.19269E-15
 -1       812 2.18284E+01-2.38968E+00 1.27054E-02 2.64651E+00 3.70848E-13 9.17161E-14
 -1       813 2.06790E+01-1.14662E+00 2.11051E-03 2.57500E+00 1.94198E-13 1.08280E-13
 -1       814 2.01174E+01-2.80731E-01 8.71127E-04 2.32817E+00 2.33019E-13 3.01191E-14
 -1       815 1.98995E+01 2.28415E-01 1.99128E-04 2.03826E+00 1.06817E-13 1.81119E-13
 -1       816 1.98524E+01 4.84710E-01 1.18282E-04 1.75584E+00-6.10589E-14-9.76574E-14
 -1       817 1.98778E+01 5.82072E-01 1.56719E-04 1.49466E+00 1.92823E-13-1.67955E-14
 -1       818 1.99251E+01 5.90315E-01 1.26171E-04 1.25727E+00 1.84496E-13 3.20166E-13
 -1       819 1.99683E+01 5.58291E-01-2.19006E-05 1.04456E+00 2.44639E-13 3.83158E-13
 -1       820 2.01486E+01 1.89745E+00-3.51577E-04 1.98168E-01 7.60335E-14 1.44967E-14
 -1       821 1.93544E+01 8.72761E-01-5.28147E-05-9.85556E-02 8.43055E-14 1.22095E-13
 -1       822 1.97731E+01 5.64675E-01-2.35676E-04-6.64273E-01 2.51585E-14 3.87975E-14
 -1       823 1.94351E+01 8.05994E-01-2.85713E-05-3.42253E-01 2.26715E-13-1.07937E-13
 -1       824 2.00058E+01-3.40229E+00 2.15235E-02 4.30630E+00 3.96610E-14-2.93795E-13
 -1       825 1.31392E+01-1.32044E+00 8.25141E-02-4.70015E+00 8.44567E-14-3.37959E-13
 -1       826 1.05907E+01 4.87440E-01 8.78029E-02-1.38811E+00 3.46745E-14-1.99191E-13
 -1       827 2.02988E+01 1.12726E+00 4.09986E-04-4.23329E-01 2.01991E-14-6.56240E-14
 -1       828 1.95820E+01 6.97909E-01-3.99409E-05-5.38909E-01 1.30428E-13-5.68533E-13
 -1       829 2.00462E+01 3.17462E-02 1.33436E-06-2.69876E-01 9.03329E-14 1.68832E-13
 -1       830 2.62118E+01 3.93314E-01-5.26705E-02-2.20636E+00-2.90221E-13-1.61753E-13
 -1       831 2.43923E+01 4.34082E+00-7.15373E-02 3.42835E-01 3.37577E-15-2.02727E-13
 -1       832 2.03112E+01 7.35020E-01 1.65662E-04-2.46264E-01-6.25218E-15-4.47502E-14
 -1       833 1.05680E+01 3.87291E-01 8.45085E-02-1.96306E+00 1.74471E-13 1.04642E-13
 -1       834 2.40782E+01-4.17477E+00 6.80566E-03 2.24293E+00-1.02576E-13-5.76572E-14
 -1       835 1.52291E+01-1.38362E+00 5.76483E-02 4.50501E+00 1.45862E-13 1.23804E-13
 -1       836 2.27356E+01-3.96268E+00 2.51752E-02-3.15011E+00-1.68791E-13 4.08324E-13
 -1       837 1.79479E+01-2.67395E+00 5.64443E-02-4.67092E+00-2.94010E-13 2.97540E-14
 -1       838 2.02804E+01 9.46917E-01 6.57670E-05 5.52134E-01 6.88249E-14 7.98214E-14
 -1       839 2.28904E+01-4.30236E+00 1.69593E-02-3.34194E+00-1.53033E-13-1.84431E-14
 -1       840 2.57023E+01-3.18040E+00-3.00186E-02-1.63823E-01 6.22506E-15 2.88242E-14
 -1       841 1.95287E+01-2.97634E+00 4.30352E-02 4.26114E+00 2.01160E-13-1.69375E-13
 -1       842 2.01388E+01 1.93261E+00-3.56098E-04 3.76146E-03 6.33927E-14-1.24565E-14
 -1       843 2.02290E+01 1.58795E+00 8.06003E-05 5.33537E-01 7.02251E-14-1.56750E-14
 -1       844 2.02833E+01 1.33663E+00 1.52747E-04-3.40215E-01 5.98307E-15-8.87046E-14
 -1       845 1.96171E+01 7.42905E-01-1.89375E-05 6.37179E-01 1.98447E-13 8.31250E-13
 -1       846 2.01348E+01 1.26108E-01 6.61031E-07-1.39132E-01 2.61758E-14 7.46048E-14
 -1       847 2.02263E+01 4.24259E-01-3.44513E-05 1.03884E-01 5.06186E-14 8.46813E-14
 -1       848 2.01009E+01 5.93014E-02-3.77921E-06-1.95171E-01-8.75458E-16 5.81994E-14
 -1       849 2.02641E+01 1.47790E+00-1.91129E-04-2.19258E-01 1.08892E-14-3.31832E-14
 -1       850 1.99167E+01 5.65075E-01-1.17560E-03 8.83302E-01 1.64247E-13 2.44683E-13
 -1       851 2.01802E+01 1.78367E+00-2.71247E-04 3.79544E-01 6.92808E-14-3.22039E-14
 -1       852 1.94433E+01 8.43673E-01-1.00692E-04 4.27954E-01-2.08487E-13 5.30169E-13
 -1       853 1.93543E+01 8.87601E-01-1.42487E-04 1.71169E-01-1.88302E-13 1.30976E-13
 -1       854 1.14827E+01 8.30075E-01 5.26866E-02 5.44977E-01 3.00396E-13-2.41375E-13
 -1       855 2.42872E+01-3.54620E+00-3.29163E-03-1.23117E+00-5.41730E-14-5.50711E-14
 -1       856 2.02535E+01 6.44479E-01 1.53514E-04 2.91928E-01 6.18966E-14 7.90521E-14
 -1       857 1.98970E+01 5.73960E-01-4.44843E-04 7.89066E-01 2.58545E-13 1.87830E-13
 -1       858 1.98949E+01 4.78847E-01 5.50699E-04-7.19365E-01-2.03868E-13-7.07743E-14
 -1       859 1.34114E+01-4.07965E-02 3.84872E-02-3.12687E+00-1.66616E-14-2.40663E-13
 -1       860 2.03086E+01 2.61533E-01-6.30523E-05 6.62453E-02 4.78421E-15-1.93521E-14
 -1       861 2.02694E+01 1.40906E-01-1.18217E-05 1.32559E-01-3.38455E-14-5.36153E-15
 -1       862 2.02251E+01 7.35267E-02-5.47770E-06 1.74777E-01-1.72094E-14-3.92650E-14
 -1       863 2.01792E+01 4.60198E-02-3.20287E-06 2.02948E-01 2.47640E-14-1.03600E-13
 -1       864 2.01331E+01 4.86206E-02-2.72556E-06 2.25323E-01 1.21826E-14 1.70919E-15
 -1       865 2.00866E+01 7.41913E-02-2.67823E-06 2.48584E-01 2.06063E-14 5.14264E-14
 -1       866 2.00387E+01 1.17364E-01-2.51459E-06 2.78103E-01-1.78461E-14 2.23636E-15
 -1       867 1.99879E+01 1.73739E-01-2.24894E-06 3.18259E-01-1.04220E-14-1.51968E-14
 -1       868 1.99326E+01 2.39063E-01-1.78363E-06 3.72673E-01-1.18947E-13 8.80662E-14
 -1       869 1.98717E+01 3.08355E-01-9.17798E-07 4.44401E-01-1.14326E-13 1.61070E-14
 -1       870 1.98047E+01 3.74917E-01 4.35340E-07 5.36074E-01-9.70171E-14-4.30660E-14
 -1       871 1.97333E+01 4.29175E-01 2.89704E-06 6.50013E-01-8.62737E-14 1.00976E-13
 -1       872 1.96624E+01 4.57346E-01 7.17874E-06 7.88312E-01-2.93793E-14 2.39954E-13
 -1       873 1.96020E+01 4.39988E-01 1.26050E-05 9.52843E-01-4.34757E-14 9.93504E-14
 -1       874 1.95710E+01 3.50585E-01 1.31237E-05 1.14491E+00 6.08454E-14-1.14294E-14
 -1       875 1.96013E+01 1.54646E-01 1.69755E-05 1.36386E+00 9.21352E-14-1.16905E-13
 -1       876 1.97444E+01-1.89710E-01 7.40972E-05 1.60285E+00 1.82708E-13-2.20155E-13
 -1       877 2.00788E+01-7.24225E-01 6.74518E-04 1.83832E+00 9.43431E-14-2.98594E-13
 -1       878 2.07097E+01-1.47220E+00 5.49410E-04 2.01123E+00 6.40327E-14-1.41262E-13
 -1       879 2.18155E+01-2.40853E+00 2.49317E-03 1.97992E+00 5.34555E-15 2.02165E-14
 -1       880 2.24143E+01-2.96655E+00 5.02132E-03-2.06573E+00 3.09362E-14-1.17466E-13
 -1       881 2.10186E+01-1.96246E+00-2.16113E-04-2.23806E+00-3.39739E-14-2.06565E-13
 -1       882 2.01972E+01-1.07615E+00-9.69725E-05-2.08215E+00-1.51795E-13-1.92455E-13
 -1       883 1.97620E+01-4.20228E-01-8.86822E-05-1.82388E+00-2.05772E-13-3.76109E-13
 -1       884 1.95740E+01 2.08011E-02-9.45611E-05-1.55359E+00 1.09784E-15-3.80919E-13
 -1       885 1.95318E+01 2.92767E-01-1.13057E-04-1.30645E+00-8.37564E-14-1.65068E-13
 -1       886 1.95707E+01 4.44298E-01-1.02386E-04-1.09108E+00 3.94758E-14-2.23361E-13
 -1       887 1.96498E+01 5.18219E-01-1.02565E-04-9.03216E-01-1.46271E-13-1.16896E-13
 -1       888 1.23456E+01 9.76324E-01 3.93586E-02-1.71733E-01 1.56871E-14 9.37150E-14
 -1       889 2.00007E+01 1.68285E-01 5.24062E-06-3.30182E-01-2.38182E-14 9.95481E-14
 -1       890 2.00426E+01 1.08621E-01 4.12337E-06-2.90294E-01 1.04482E-13 1.47972E-13
 -1       891 1.98911E+01 3.30444E-01 9.16016E-06-4.57319E-01-7.20746E-14 3.50069E-14
 -1       892 1.98140E+01 4.29555E-01 1.34175E-05-5.50412E-01 4.95324E-14 3.14680E-14
 -1       893 1.97142E+01 5.36580E-01 2.00258E-05-6.66319E-01 1.81705E-14-2.99017E-15
 -1       894 1.95852E+01 6.45091E-01 2.98954E-05-8.07232E-01-9.24769E-14 5.45657E-14
 -1       895 1.94208E+01 7.43569E-01 4.24213E-05-9.76043E-01-1.58841E-13 1.50482E-13
 -1       896 1.92171E+01 8.12383E-01 4.45572E-05-1.17790E+00-7.58691E-14 1.95466E-13
 -1       897 1.89760E+01 8.19369E-01-1.29786E-05-1.42328E+00 9.29026E-14 1.23883E-13
 -1       898 1.87135E+01 7.13615E-01 3.97748E-05-1.73100E+00-8.44602E-15 2.28143E-13
 -1       899 1.84680E+01 4.22023E-01 4.56645E-04-2.13629E+00-6.36085E-14 1.97894E-13
 -1       900 1.83366E+01-1.81544E-01 1.57261E-03-2.69159E+00-1.07624E-13 1.96680E-13
 -1       901 1.85439E+01-1.23064E+00 1.48045E-02-3.41423E+00-1.64080E-13 1.71759E-13
 -1       902 1.85151E+01-2.78924E-01 3.02226E-03 2.75050E+00 2.88505E-13-1.77224E-15
 -1       903 2.01561E+01 4.09548E-02-3.22000E-06-2.15277E-01 5.10350E-14 2.37065E-14
 -1       904 1.86919E+01-1.33473E+00 8.88773E-03 3.45645E+00 3.04239E-13-8.73303E-15
 -1       905 1.88191E+01 6.59546E-01-4.58395E-05 1.81179E+00 1.11077E-13 4.72317E-14
 -1       906 1.90689E+01 7.82838E-01-9.82050E-05 1.50404E+00-9.22087E-15-2.67381E-14
 -1       907 1.93047E+01 7.96111E-01-5.55200E-05 1.25740E+00-1.35195E-13 2.00221E-13
 -1       908 1.95070E+01 7.55767E-01 1.31816E-04 1.05019E+00 1.88787E-13 3.36581E-13
 -1       909 2.23378E+01-3.26385E+00 3.32790E-03 2.47197E+00-4.85974E-14-8.18158E-14
 -1       910 1.91463E+01 8.84786E-01 2.54876E-05-2.94555E-01-6.26904E-14-6.86204E-14
 -1       911 1.86009E+01 3.43745E-01 4.44818E-04 2.21214E+00 6.38537E-14-8.23986E-14
 -1       912 1.99516E+01 2.42704E-01 6.80809E-06-3.84794E-01-4.18269E-14 4.04090E-14
 -1       913 2.03036E+01 9.11035E-01-1.74963E-04 3.73718E-01 6.16885E-14 5.79435E-14
 -1       914 1.60356E+01-7.79699E-01 2.87584E-02-3.62410E+00-1.25142E-13 4.39457E-14
 -1       915 1.37886E+01 2.29488E-01 4.18369E-02 2.72395E+00 2.25236E-13-1.10374E-13
 -1       916 2.03362E+01 4.55714E-01-5.71320E-05-3.59479E-02 5.76592E-15-5.47676E-14
 -1       917 2.03405E+01 9.24725E-01-6.30621E-05-2.22837E-01-3.77100E-15-1.23344E-13
 -1       918 1.42377E+01 5.85962E-01 2.84104E-02 2.15192E+00 2.52582E-13 3.24395E-13
 -1       919 1.68262E+01-1.96043E+00 3.88289E-02-4.51149E+00 4.21768E-14-3.05693E-14
 -1       920 2.02034E+01 1.71988E+00 2.39895E-04-1.27651E-01 4.15596E-14-8.93679E-15
 -1       921 1.37544E+01 3.55356E-01 3.53040E-02-2.49108E+00 4.79224E-14 1.87039E-13
 -1       922 1.82873E+01-1.72029E+00 5.08197E-03 3.67176E+00 5.25632E-14-3.09605E-13
 -1       923 2.05684E+01-3.20882E+00 2.14031E-02-3.78305E+00-2.61768E-14-7.95128E-14
 -1       924 2.01182E+01 4.15849E-02 3.70482E-06-2.38200E-01 4.64024E-14 1.27927E-13
 -1       925 1.96111E+01 7.23780E-01 6.74687E-04 8.58812E-01 2.46025E-13 5.99999E-13
 -1       926 2.03072E+01 4.48828E-01 7.14190E-05 5.30446E-02 5.16331E-14 1.02246E-16
 -1       927 2.01957E+01 6.99854E-02-6.34224E-06-1.84972E-01-1.47209E-14-3.66877E-14
 -1       928 2.00809E+01 6.55237E-02 4.98099E-06-2.61238E-01 9.74749E-14 1.47218E-13
 -1       929 1.93157E+01 8.61966E-01-4.90514E-05 6.46479E-01-3.17080E-14 1.07344E-13
 -1       930 2.02755E+01 2.57888E-01 6.10547E-06-6.30512E-02 8.49237E-15 2.19696E-14
 -1       931 1.34676E+01 9.45193E-01 2.35150E-02-1.12712E+00 1.43274E-14 1.06045E-13
 -1       932 2.02847E+01 1.41852E+00-5.29785E-05 6.83012E-02 7.24602E-14-9.69948E-15
 -1       933 1.93162E+01 7.70458E-01-6.50144E-06-5.55961E-01-7.11639E-14-3.41462E-13
 -1       934 2.02940E+01 1.35158E+00-1.27546E-05 1.94172E-01 4.60942E-14-3.11806E-14
 -1       935 1.90802E+01 9.45527E-01-7.52605E-05 1.98576E-02-2.78368E-13 3.45086E-13
 -1       936 1.65345E+01-3.31712E-01 1.00873E-02 2.97620E+00 2.72166E-14-2.24951E-13
 -1       937 1.65470E+01 6.37582E-02 8.97060E-03 2.77466E+00 3.75006E-13 1.22803E-13
 -1       938 2.03473E+01 1.06154E+00-9.86744E-05-1.61629E-01 3.52755E-14-2.49742E-14
 -1       939 2.03512E+01 6.61969E-01-1.58091E-04-1.25501E-01-4.02599E-15-9.94910E-14
 -1       940 1.86020E+01 9.96909E-01 2.70371E-05 1.09280E+00-5.50985E-14 3.28572E-13
 -1       941 2.03576E+01 2.46354E-01-2.64084E-05 7.02750E-02 7.82850E-15-2.23157E-14
 -1       942 1.60753E+01 2.71670E-01 1.64061E-02-2.63656E+00-1.09360E-13 1.78642E-13
 -1       943 1.98465E+01-1.68777E+00 5.99162E-03 2.77426E+00 1.07402E-13-2.06106E-13
 -1       944 2.03146E+01 1.35729E-01-4.56088E-06 1.15256E-01-7.72677E-15 5.76906E-15
 -1       945 2.02614E+01 7.86504E-02-3.66624E-06 1.45256E-01-3.37591E-14 4.09593E-14
 -1       946 2.02019E+01 6.25869E-02-4.67960E-06 1.67269E-01 3.19140E-14 4.54312E-14
 -1       947 2.01379E+01 7.80705E-02-5.73731E-06 1.87235E-01 3.13073E-14-4.68741E-15
 -1       948 2.00690E+01 1.17979E-01-8.10163E-06 2.10121E-01 2.20077E-14 2.75587E-14
 -1       949 1.99941E+01 1.76835E-01-1.11074E-05 2.40099E-01-2.74304E-14 6.65227E-14
 -1       950 1.99108E+01 2.49907E-01-1.59830E-05 2.80870E-01-2.17243E-14-1.00596E-14
 -1       951 1.98166E+01 3.32395E-01-2.06406E-05 3.35841E-01-1.15717E-13-1.76040E-14
 -1       952 1.97093E+01 4.18506E-01-2.69330E-05 4.08461E-01-8.37914E-14 1.29697E-13
 -1       953 1.95871E+01 5.00387E-01-3.49259E-05 5.02561E-01-3.91855E-14 1.31703E-13
 -1       954 1.94502E+01 5.66943E-01-4.47754E-05 6.22802E-01 1.74303E-14 1.70439E-13
 -1       955 1.93019E+01 6.02486E-01-5.79109E-05 7.75318E-01-9.15207E-14 1.78486E-13
 -1       956 1.91506E+01 5.85157E-01-8.09321E-05 9.68517E-01-2.71144E-14 2.12769E-13
 -1       957 1.90134E+01 4.85055E-01-1.28654E-04 1.21382E+00-1.30374E-14 2.42999E-13
 -1       958 1.89222E+01 2.61959E-01-5.14654E-05 1.52553E+00 5.76471E-14 8.49426E-14
 -1       959 1.89314E+01-1.37791E-01 2.74727E-04 1.91728E+00 3.37946E-14-1.47472E-14
 -1       960 1.92058E+01-7.74708E-01 1.46963E-03 2.35473E+00 8.36544E-14-1.71687E-13
 -1       961 1.75849E+01 8.81371E-01-9.06749E-04 1.63792E+00 3.52023E-14 2.81249E-13
 -1       962 1.93604E+01-1.87182E+00 8.37522E-03-3.29279E+00-1.01208E-13-7.49919E-14
 -1       963 1.88018E+01-8.33851E-01-2.43852E-03-2.63590E+00-3.42523E-14-2.13019E-13
 -1       964 1.86493E+01-1.42940E-01-3.00446E-04-2.06985E+00-1.10017E-13-6.94933E-14
 -1       965 1.87201E+01 2.77677E-01 2.43375E-05-1.61617E+00-3.20417E-13 4.85550E-15
 -1       966 1.88810E+01 5.18148E-01-3.39694E-05-1.27083E+00 2.71653E-15-1.07007E-13
 -1       967 1.90744E+01 6.41942E-01-2.06000E-04-1.00429E+00 4.34713E-14-3.12501E-13
 -1       968 1.97915E+01 5.09232E-01 1.04164E-04-7.82947E-01-5.34139E-14-3.88290E-14
 -1       969 1.43049E+01 8.07785E-01 1.38745E-02-1.57635E+00 3.86997E-14-1.38328E-13
 -1       970 1.95771E+01 5.71322E-01-1.06457E-05-4.91194E-01 3.61666E-14 9.79444E-14
 -1       971 1.97209E+01 4.50690E-01-7.13812E-06-4.11473E-01 2.63643E-14 1.14730E-15
 -1       972 1.91640E+01 8.25246E-01-1.86031E-05-7.02514E-01-1.73036E-13 1.39785E-13
 -1       973 1.88716E+01 9.38210E-01-2.58763E-05-8.40079E-01-7.33985E-14 9.37230E-14
 -1       974 1.85040E+01 1.01817E+00-3.38724E-05-1.00932E+00-3.12565E-14 1.26278E-13
 -1       975 1.80436E+01 1.03637E+00-3.93969E-04-1.23244E+00-2.09708E-14 2.41564E-13
 -1       976 1.74764E+01 9.43716E-01-3.53599E-04-1.54635E+00-3.43424E-14 1.90669E-13
 -1       977 1.90937E+01 9.19678E-01-1.03120E-04 8.05932E-01 7.01000E-14 2.43201E-15
 -1       978 2.03202E+01 7.36470E-01-4.67265E-04 2.24421E-01 6.92195E-14 5.61001E-15
 -1       979 1.88629E+01 9.66723E-01-2.61160E-04 9.36535E-01-2.94233E-15 1.03957E-13
 -1       980 1.81443E+01 9.92120E-01-4.96689E-04 1.31920E+00 1.66223E-14 3.04094E-13
 -1       981 1.38653E+01 1.01073E+00 1.38840E-02 9.62627E-01 1.18658E-13-1.04050E-13
 -1       982 1.70506E+01 6.02197E-01-2.59969E-05 2.09420E+00 1.21638E-13 2.60587E-13
 -1       983 2.00075E+01 1.68356E-01 2.94964E-06-2.58577E-01 4.72597E-14 1.59814E-13
 -1       984 1.91368E+01 9.39203E-01-5.10121E-05 3.45158E-01-2.70963E-13 4.39186E-13
 -1       985 2.03097E+01 1.21377E+00 5.68818E-05 3.01088E-01 6.03731E-14-2.72620E-14
 -1       986 1.62388E+01-6.26976E-01 1.92318E-02-3.36995E+00-5.40262E-14-9.90813E-14
 -1       987 1.95574E+01 6.25425E-01-5.43990E-07-7.36080E-01 8.25457E-14-3.85743E-13
 -1       988 2.03829E+01 4.29061E-01 8.23715E-06 2.48693E-03 3.44584E-14-3.00462E-14
 -1       989 2.02363E+01 1.37859E-01-4.53234E-06-1.37981E-01 3.05594E-14-6.20479E-15
 -1       990 1.93950E+01 6.98758E-01-1.43095E-05-5.87582E-01-8.67356E-14 6.48207E-14
 -1       991 2.03226E+01 1.26949E+00 1.62233E-04-2.91565E-02 7.69383E-14 2.53058E-14
 -1       992 1.45519E+01 1.14766E+00 1.29594E-02 5.31319E-01 1.30034E-13 2.62941E-13
 -1       993 1.92926E+01 6.74642E-01 3.00213E-04-8.20850E-01 4.24830E-14-3.75809E-13
 -1       994 2.00756E+01 1.08416E-01-1.07377E-05-2.29876E-01 4.80195E-14-4.34378E-15
 -1       995 1.80785E+01-6.39555E-01 4.76562E-03 2.75373E+00-7.25006E-15-2.83221E-13
 -1       996 1.56721E+01 9.26850E-01 2.83719E-03 1.53707E+00 1.11771E-13 3.62312E-13
 -1       997 2.02481E+01 7.70199E-02-1.69639E-05-1.61640E-01-1.92347E-14-7.11030E-14
 -1       998 1.98358E+01 3.41525E-01-3.25758E-06-3.47162E-01-1.50062E-14 1.66062E-13
 -1       999 1.67815E+01 6.83928E-01 4.33607E-03-2.02963E+00-1.04400E-13 2.18115E-13
 -1      1000 1.99292E+01 2.46706E-01 2.97891E-06-2.96854E-01 2.59864E-14 1.87656E-13
 -1      1001 2.03655E+01 7.11025E-01 2.76685E-04 1.28067E-01 2.77526E-14 1.16484E-14
 -1      1002 2.03919E+01 6.13202E-01-2.09953E-04-5.60038E-02 3.24966E-14-5.24656E-14
 -1      1003 1.89939E+01 8.46447E-01-5.04698E-04-5.78581E-01 6.92854E-14-3.09771E-13
 -1      1004 2.03762E+01 9.88636E-01 3.00916E-05 7.82134E-02 4.06342E-14-3.63514E-14
 -1      1005 1.88095E+01 9.68274E-01-4.77556E-05-2.46608E-01-1.17242E-13 4.24775E-13
 -1      1006 1.57402E+01 6.15376E-01 2.34185E-03 1.87267E+00 8.74671E-14-2.33485E-13
 -1      1007 2.03791E+01 8.19239E-01 3.72681E-04-1.09639E-01 2.33723E-14 1.07430E-15
 -1      1008 2.03636E+01 4.36580E-01 4.57031E-05 8.76087E-03 1.77079E-14-6.89364E-15
 -1      1009 2.01945E+01 5.73850E-02-1.99268E-05-1.86241E-01 2.89397E-14-1.98922E-14
 -1      1010 2.03361E+01 1.18176E+00-9.31764E-05-1.05299E-01 5.30379E-14 2.08951E-14
 -1      1011 2.03985E+01 8.94311E-01 2.94276E-04 1.44528E-02 5.12662E-14-3.76633E-14
 -1      1012 2.03293E+01 1.23575E-01 7.57151E-07 8.33601E-02-2.37686E-15 3.23699E-14
 -1      1013 2.02660E+01 8.26042E-02-3.91771E-06 1.01251E-01 3.10979E-14 9.19478E-14
 -1      1014 2.01937E+01 8.18779E-02-9.27147E-06 1.15996E-01 1.22238E-14 7.07824E-14
 -1      1015 2.01134E+01 1.12652E-01-5.29529E-06 1.31292E-01 2.78672E-14 4.17790E-14
 -1      1016 2.00246E+01 1.67922E-01-3.17519E-05 1.50347E-01 4.56758E-14 5.59442E-14
 -1      1017 1.99247E+01 2.42868E-01-5.11199E-05 1.76333E-01-7.83575E-14 1.98810E-14
 -1      1018 1.98108E+01 3.32463E-01-5.90329E-05 2.12099E-01-5.49863E-14-2.91075E-14
 -1      1019 1.96789E+01 4.31839E-01-7.35744E-05 2.60948E-01-9.36212E-14-1.47684E-14
 -1      1020 1.95248E+01 5.34875E-01-9.27281E-05 3.26832E-01-4.20311E-14-1.75250E-14
 -1      1021 1.93447E+01 6.33306E-01-1.17955E-04 4.14886E-01-2.18648E-14 3.81491E-14
 -1      1022 1.91352E+01 7.15693E-01-1.53978E-04 5.32221E-01 3.25285E-14-3.88225E-16
 -1      1023 1.88947E+01 7.66273E-01-2.15757E-04 6.89126E-01 2.09341E-14 1.31332E-13
 -1      1024 1.86237E+01 7.63508E-01-3.55584E-04 9.00902E-01-2.28925E-14 1.23234E-13
 -1      1025 1.83287E+01 6.77665E-01-4.58881E-04 1.18996E+00-6.82563E-14 1.94578E-14
 -1      1026 1.80212E+01 4.68412E-01-3.08252E-04 1.59069E+00-1.33999E-14-1.26951E-13
 -1      1027 1.93301E+01 7.00617E-01-8.85998E-05-3.57990E-01-1.49667E-14 1.93570E-13
 -1      1028 1.55533E+01 1.12915E+00 5.52338E-03-6.23859E-01-4.33703E-14-1.74495E-13
 -1      1029 1.49220E+01 1.17148E+00 1.04152E-02-8.47746E-01-1.01634E-13 1.41845E-13
 -1      1030 1.73424E+01 1.34848E-01 3.61874E-03-2.20444E+00 6.09730E-14-6.73647E-14
 -1      1031 1.77507E+01 5.12744E-01 5.15633E-04-1.60615E+00-2.21282E-13-5.20261E-14
 -1      1032 1.81615E+01 7.20162E-01-2.17723E-04-1.18636E+00-1.51744E-13 1.79297E-13
 -1      1033 1.85392E+01 8.19475E-01 7.30906E-04-8.89659E-01-1.31547E-13 7.13754E-14
 -1      1034 1.83353E+01 1.09448E+00-2.31154E-04-5.55168E-01-5.84580E-14 1.03627E-13
 -1      1035 1.87488E+01 9.75141E-01-1.55277E-04-4.80702E-01-1.17696E-13 9.45499E-14
 -1      1036 1.71098E+01 1.22376E+00 9.75567E-05-7.86686E-01-1.41873E-13 2.32425E-13
 -1      1037 2.01372E+01 7.00600E-02-7.29861E-06-2.07163E-01 4.38043E-14-4.93017E-14
 -1      1038 1.88291E+01 1.01485E+00-1.04161E-04 4.43489E-01 1.07986E-14 2.59097E-13
 -1      1039 2.02972E+01 1.37687E-01-6.28055E-06-1.26401E-01 2.56870E-14-2.09562E-14
 -1      1040 1.87456E+01 1.02979E+00-2.29505E-04 1.01868E-01 1.32659E-13 3.73715E-13
 -1      1041 1.62331E+01 1.21498E+00 1.27112E-02-8.17750E-01-1.66570E-13 3.87257E-13
 -1      1042 1.61975E+01 2.82971E-01-4.42126E-03-2.26348E+00 1.23930E-13-2.62461E-13
 -1      1043 1.78071E+01 1.17996E+00-1.07090E-04-6.46500E-01-1.13316E-13 1.22120E-13
 -1      1044 2.04106E+01 3.77328E-01 1.91526E-05 2.06922E-02 3.50421E-15 1.82582E-14
 -1      1045 1.95346E+01 5.65430E-01-6.61180E-05-3.06798E-01-7.64608E-15 2.07513E-13
 -1      1046 1.90734E+01 8.39936E-01-1.18313E-04-4.15917E-01-1.19492E-13 2.31440E-13
 -1      1047 1.99447E+01 2.33109E-01-3.10680E-06-1.97503E-01-2.14298E-14 4.07729E-14
 -1      1048 2.03376E+01 2.52402E-01-9.74371E-07-7.24964E-02 2.79709E-14-4.78399E-14
 -1      1049 2.03798E+01 2.16322E-01-1.27047E-05 5.79804E-02-1.19914E-14 2.33127E-15
 -1      1050 2.00396E+01 1.57226E-01-9.21585E-05-1.74804E-01-3.47548E-14 3.45140E-14
 -1      1051 1.79311E+01 4.34464E-02 1.40985E-03 2.11565E+00-1.24551E-13-1.41419E-13
 -1      1052 1.71906E+01 1.17356E+00-4.32140E-04 8.65062E-01 8.87782E-14 6.28393E-13
 -1      1053 2.04038E+01 8.44175E-01 3.09148E-04-2.87042E-02 4.54561E-14 4.03445E-14
 -1      1054 1.55481E+01 1.22264E+00 2.23804E-04 3.92679E-01-6.42856E-14-5.44475E-15
 -1      1055 1.81824E+01 1.03341E+00-2.64889E-04-4.53126E-01-9.75297E-14-6.87464E-14
 -1      1056 1.96990E+01 4.40045E-01-4.85281E-05-2.62867E-01 5.36711E-14 1.06378E-13
 -1      1057 2.03249E+01 1.28788E-01-3.78202E-06-1.00889E-01 4.70358E-15 6.06733E-16
 -1      1058 1.98330E+01 3.28324E-01-3.34184E-05-2.26503E-01 2.46463E-14 9.54897E-14
 -1      1059 2.02659E+01 8.28373E-02-1.05804E-05-1.23680E-01-1.04362E-14-1.53812E-14
 -1      1060 2.03678E+01 9.05498E-01 1.84867E-04 1.39359E-01 1.89743E-14-1.80651E-14
 -1      1061 2.04206E+01 5.35012E-01-2.15222E-04-1.21126E-02 1.91982E-14 3.67557E-14
 -1      1062 1.83447E+01 1.10384E+00 7.48631E-04 6.27524E-01 1.00815E-13 1.04680E-13
 -1      1063 1.65028E+01 1.10565E+00-1.96446E-04 1.12543E+00 9.58769E-14 5.50142E-13
 -1      1064 1.85931E+01 1.06525E+00-5.10159E-04 5.28568E-01 2.69239E-13 1.97293E-13
 -1      1065 2.03992E+01 5.69933E-01-2.98857E-04 3.89212E-02 2.98435E-14-3.25390E-14
 -1      1066 2.04200E+01 6.52906E-01 1.27296E-05 2.42769E-02 3.76512E-14-6.14626E-14
 -1      1067 1.58210E+01 1.21396E+00 1.09592E-03 3.39950E-01-7.75833E-14 1.96931E-13
 -1      1068 1.68970E+01 2.88730E-01-3.84697E-03 2.11448E+00-1.07319E-13-4.28864E-13
 -1      1069 1.78304E+01 1.16576E+00 1.64941E-04 7.27525E-01 6.28146E-14 3.55331E-13
 -1      1070 2.03932E+01 8.45239E-01 4.26522E-04-7.02299E-02 3.53450E-14 1.90842E-14
 -1      1071 1.91050E+01 7.99693E-01-1.77077E-04-1.50205E-01-5.44592E-14 1.90939E-13
 -1      1072 2.02453E+01 8.69838E-02-3.39042E-05 4.33516E-02 1.43554E-14 7.93416E-15
 -1      1073 2.01622E+01 1.03490E-01-2.69418E-05 5.01572E-02-6.40180E-15 6.81174E-14
 -1      1074 2.00692E+01 1.50312E-01 1.43691E-04 5.90176E-02 3.83288E-14 4.31989E-14
 -1      1075 1.99630E+01 2.21809E-01 1.09406E-04 7.10201E-02-4.08048E-14-1.53166E-14
 -1      1076 1.98417E+01 3.11758E-01 7.86123E-05 8.79263E-02-7.21618E-14 2.24022E-14
 -1      1077 1.97002E+01 4.16801E-01 9.90577E-05 1.12498E-01-6.86103E-15 7.46056E-16
 -1      1078 1.95330E+01 5.32096E-01 1.28600E-04 1.47708E-01-9.97515E-14 3.40201E-14
 -1      1079 1.93333E+01 6.51734E-01 1.73378E-04 1.97788E-01-3.93326E-14-2.81799E-15
 -1      1080 1.90936E+01 7.67834E-01 2.38505E-04 2.68726E-01 3.23618E-14 1.31011E-14
 -1      1081 1.88051E+01 8.69819E-01 3.18607E-04 3.69119E-01 1.03190E-13 3.11334E-14
 -1      1082 1.84570E+01 9.43668E-01 3.50531E-04 5.11428E-01-1.03427E-13-1.85594E-14
 -1      1083 1.80361E+01 9.70821E-01 2.19112E-04 7.13401E-01-1.75365E-13-1.02915E-13
 -1      1084 1.75361E+01 9.26818E-01 1.22148E-03 1.00244E+00-2.09443E-13-2.82854E-13
 -1      1085 1.73383E+01 9.77434E-01 2.18465E-03-9.01314E-01-2.71967E-13-4.28449E-14
 -1      1086 1.77764E+01 1.03197E+00 1.12884E-03-6.49034E-01-3.43287E-13 6.34913E-14
 -1      1087 1.72494E+01 1.24731E+00-2.52498E-04-6.60291E-02-2.75040E-13 3.34474E-14
 -1      1088 2.04130E+01 4.04801E-01 2.61410E-04-1.32130E-02 2.46068E-14-3.24046E-14
 -1      1089 1.98668E+01 2.97125E-01-5.05634E-05-1.06998E-01-1.61737E-14-3.59301E-14
 -1      1090 1.87910E+01 9.37462E-01-2.48569E-04-1.49908E-01-3.19229E-14 5.18082E-14
 -1      1091 1.78895E+01 1.17322E+00-2.07318E-04-1.05541E-01-1.51926E-13-8.94698E-14
 -1      1092 2.03772E+01 1.78277E-01 2.52253E-05 2.75048E-02 1.44113E-14 5.03581E-14
 -1      1093 2.03726E+01 2.27623E-01-1.94251E-04-6.71684E-02 4.86193E-14-3.54893E-14
 -1      1094 2.04179E+01 3.10581E-01-9.47646E-05 1.53957E-02 1.78565E-14 2.34563E-14
 -1      1095 1.93570E+01 6.60655E-01-1.24082E-04-1.42803E-01-6.61581E-14 1.46643E-13
 -1      1096 1.83956E+01 1.06510E+00-3.13393E-04-1.37069E-01-5.92002E-14-1.23623E-13
 -1      1097 2.03177E+01 1.08197E-01-4.43391E-05 3.62412E-02 3.63010E-14 5.40020E-14
 -1      1098 2.04309E+01 5.83806E-01-2.35088E-04 5.10197E-04 3.91679E-14-1.44719E-14
 -1      1099 1.69114E+01 7.71642E-01 2.09959E-04 1.42940E+00-1.76618E-13-4.87530E-13
 -1      1100 1.65614E+01 8.37024E-01 1.53492E-03-1.31340E+00 9.64876E-14-1.58825E-13
 -1      1101 1.72498E+01 1.22440E+00-1.98078E-03 1.28913E-01 1.62561E-13 3.02546E-14
 -1      1102 1.95610E+01 5.27303E-01-8.73213E-05-1.31475E-01-6.30920E-14 7.70311E-14
 -1      1103 1.97280E+01 4.04814E-01-6.25681E-05-1.18957E-01-4.44946E-14 1.46778E-14
 -1      1104 2.04285E+01 3.69569E-01 1.67509E-05-9.03199E-03 2.90186E-15-4.24632E-14
 -1      1105 2.01992E+01 7.66709E-02 9.13487E-06-1.40839E-01 5.02841E-14-1.05593E-16
 -1      1106 1.99844E+01 2.07388E-01-3.12122E-05-9.59240E-02 5.93685E-16-5.58107E-14
 -1      1107 2.01238E+01 1.03983E-01 9.46945E-06-1.56822E-01-3.01074E-15-2.19498E-14
 -1      1108 1.66359E+01 1.23499E+00 4.09710E-03 2.15133E-01 2.14043E-13 1.69695E-13
 -1      1109 2.03248E+01 1.14884E-01 3.92379E-05-6.01747E-02-9.88390E-15-6.49959E-14
 -1      1110 1.84876E+01 1.08768E+00 3.26643E-03 1.38547E-01 1.47047E-13 5.41844E-13
 -1      1111 1.81686E+01 1.14231E+00-1.67697E-03 1.75943E-01 1.35017E-13 4.79958E-13
 -1      1112 2.03874E+01 3.53507E-01 5.89153E-05-3.15225E-02 4.75976E-14-1.11552E-14
 -1      1113 1.64640E+01 1.13642E+00-9.24017E-04-5.48114E-01 1.82477E-14-5.49330E-13
 -1      1114 2.03811E+01 1.93143E-01 1.81148E-04-4.38773E-02 1.56024E-14-8.24090E-15
 -1      1115 2.01157E+01 1.27242E-01-3.98264E-05-2.79640E-02-4.39672E-15-2.84184E-14
 -1      1116 2.04296E+01 4.24551E-01-3.15118E-05 4.31150E-03 3.24278E-14 3.04757E-14
 -1      1117 2.04017E+01 2.38261E-01 3.02327E-05-1.45025E-02 2.79322E-14-6.34157E-14
 -1      1118 2.02858E+01 9.41531E-02 4.53575E-05-2.37360E-02 6.06236E-15-5.69220E-14
 -1      1119 2.02061E+01 9.39668E-02 6.54144E-05-2.63788E-02 4.87352E-14-3.17253E-14
 -1      1120 1.65018E+01 1.14012E+00-1.04802E-02 5.94454E-01-2.35449E-13-9.82646E-14
 -1      1121 2.03583E+01 1.45825E-01 4.61256E-06-1.18526E-02 1.16401E-14-4.72549E-14
 -1      1122 2.79497E+01 9.08228E+00 2.32439E+00-6.69740E+00-1.49880E-14 1.95038E-13
 -1      1123 2.05384E+01 6.22435E+00 2.09408E-01-3.90564E+00-6.27276E-15-8.02414E-14
 -1      1124 1.94299E+01 5.85157E+00 7.53140E-02-2.89051E+00-4.38538E-15-1.69009E-13
 -1      1125 1.90250E+01 5.72561E+00 6.03427E-02-2.23763E+00-1.76942E-15-1.89496E-13
 -1      1126 1.88420E+01 5.66989E+00 5.76347E-02-1.70396E+00 4.25007E-16-1.95775E-13
 -1      1127 1.87513E+01 5.64212E+00 5.57291E-02-1.23623E+00 9.62772E-16-1.85939E-13
 -1      1128 1.87046E+01 5.62758E+00 5.39963E-02-8.05755E-01 1.78677E-15-1.68731E-13
 -1      1129 1.86819E+01 5.62038E+00 5.27370E-02-3.93532E-01 1.79457E-15-1.39221E-13
 -1      1130 1.86754E+01 5.61833E+00 5.23323E-02 8.51035E-03 1.62056E-15-1.25015E-13
 -1      1131 1.86829E+01 5.62071E+00 5.28377E-02 4.10940E-01 2.46634E-15-1.06952E-13
 -1      1132 1.87067E+01 5.62828E+00 5.42162E-02 8.24450E-01 3.39052E-15-7.64814E-14
 -1      1133 1.87553E+01 5.64352E+00 5.64050E-02 1.25748E+00 3.72445E-15-4.56067E-14
 -1      1134 1.88476E+01 5.67187E+00 5.85749E-02 1.72977E+00 4.28477E-15-2.55872E-16
 -1      1135 1.90305E+01 5.72730E+00 6.04491E-02 2.27107E+00 5.44356E-15 6.72587E-14
 -1      1136 1.94261E+01 5.84858E+00 6.91280E-02 2.93104E+00 5.23193E-15 1.79254E-13
 -1      1137 2.04445E+01 6.17924E+00 1.52968E-01 3.88017E+00 3.08087E-15 3.46195E-13
 -1      1138 2.52043E+01 7.99022E+00 1.42961E+00 5.84607E+00 2.77556E-16 6.40321E-13
 -1      1139 2.87974E+01 3.61526E+00 1.27114E+00-4.21641E+00-5.20417E-14 3.51108E-13
 -1      1140 2.02113E+01-1.77657E-01-6.16152E-01-1.10173E-01-1.30868E-14 2.30232E-13
 -1      1141 1.88148E+01-9.63888E-02-2.36342E-01 6.24144E-02 2.11636E-16 8.32216E-14
 -1      1142 1.84791E+01-4.80564E-02-5.95590E-02 4.03857E-02-5.24580E-15-6.48093E-15
 -1      1143 1.84218E+01-2.47005E-02-1.52507E-02 2.66050E-02-5.05455E-15-1.14107E-13
 -1      1144 1.85018E+01-1.32133E-02-5.12331E-03 1.88724E-02 5.73760E-16-1.83104E-13
 -1      1145 1.86480E+01-6.84256E-03-1.68555E-03 1.38935E-02-5.73586E-15-2.10124E-13
 -1      1146 1.88213E+01-3.20486E-03 2.25500E-04 1.04249E-02 8.38484E-15-2.05025E-13
 -1      1147 1.90003E+01-1.15414E-03 1.33842E-03 7.85841E-03 2.40204E-15-2.11832E-13
 -1      1148 1.91737E+01-1.03040E-04 1.80253E-03 5.89639E-03-9.19033E-15-2.89519E-13
 -1      1149 1.93366E+01 2.77833E-04 1.73786E-03 4.38568E-03 5.93069E-15-4.04354E-13
 -1      1150 1.94888E+01 1.86119E-04 1.25824E-03 3.24574E-03 3.07977E-14-2.78165E-13
 -1      1151 1.96333E+01-2.52429E-04 4.52576E-04 2.43531E-03-1.65291E-14-3.49267E-13
 -1      1152 1.97754E+01-9.51939E-04-6.15390E-04 1.93851E-03 1.27770E-14-4.05286E-13
 -1      1153 1.99225E+01-1.84568E-03-1.89606E-03 1.75940E-03-1.27574E-14-3.02792E-13
 -1      1154 2.00836E+01-2.86856E-03-3.33754E-03 1.91932E-03-1.83659E-14-4.81835E-13
 -1      1155 2.02685E+01-3.93866E-03-4.86367E-03 2.45368E-03-6.41658E-15-5.48362E-13
 -1      1156 2.04880E+01-4.93504E-03-6.34369E-03 3.40496E-03-1.71210E-14-6.06958E-13
 -1      1157 2.07522E+01-5.67053E-03-7.55015E-03 4.80740E-03 1.45484E-14-7.69895E-13
 -1      1158 2.10691E+01-5.86016E-03-8.10344E-03 6.65644E-03 3.10679E-14-6.41593E-13
 -1      1159 2.14421E+01-5.09167E-03-7.40868E-03 8.85296E-03 1.76973E-14-3.23963E-13
 -1      1160 2.18659E+01-2.81601E-03-4.60994E-03 1.11109E-02-2.30615E-14-2.27547E-13
 -1      1161 2.23204E+01 1.60330E-03 1.37231E-03 1.28228E-02 3.05218E-14-1.90906E-13
 -1      1162 2.27638E+01 8.71087E-03 1.15896E-02 1.29055E-02-2.71208E-14-2.34071E-13
 -1      1163 2.31255E+01 1.85573E-02 2.64021E-02 9.71753E-03 3.68000E-15-2.95776E-13
 -1      1164 2.33037E+01 3.00017E-02 4.42637E-02 1.26029E-03 9.28641E-15-6.45118E-14
 -1      1165 2.31764E+01 3.98880E-02 6.01805E-02-1.39838E-02 1.31123E-14-4.26794E-14
 -1      1166 2.26342E+01 4.26289E-02 6.50686E-02-3.53168E-02 4.49250E-15-2.51008E-13
 -1      1167 2.16431E+01 3.17116E-02 4.84113E-02-5.77057E-02-3.53385E-14-1.96065E-13
 -1      1168 2.03173E+01 4.08198E-03 5.51186E-03-7.13218E-02 2.57214E-14-9.14754E-14
 -1      1169 1.89531E+01-3.42569E-02-5.38000E-02-6.53677E-02 1.12800E-14-1.38702E-13
 -1      1170 1.79617E+01-6.70988E-02-1.04256E-01-3.58449E-02 3.48124E-14-2.63300E-13
 -1      1171 1.76941E+01-7.65701E-02-1.18727E-01 8.50483E-03 1.43704E-14-3.21627E-13
 -1      1172 1.82507E+01-5.68076E-02-8.85376E-02 4.92510E-02 2.21810E-14-3.10654E-13
 -1      1173 1.94215E+01-1.94865E-02-3.10869E-02 7.03451E-02-2.83382E-14-1.11272E-13
 -1      1174 2.08072E+01 1.64235E-02 2.45945E-02 6.79463E-02-6.83936E-15-1.47660E-14
 -1      1175 2.20223E+01 3.80111E-02 5.80718E-02 4.96321E-02-2.45979E-14-4.18034E-13
 -1      1176 2.28362E+01 4.32668E-02 6.57630E-02 2.66265E-02 1.40526E-14-2.47052E-13
 -1      1177 2.31965E+01 3.71763E-02 5.56411E-02 7.11105E-03-2.31933E-14-6.61970E-14
 -1      1178 2.31731E+01 2.62252E-02 3.82465E-02-5.71770E-03 2.32002E-14 3.96146E-14
 -1      1179 2.28851E+01 1.51028E-02 2.11774E-02-1.22247E-02-4.29706E-14-2.47465E-13
 -1      1180 2.24496E+01 6.11372E-03 7.95429E-03-1.42524E-02-2.82481E-14-8.83141E-13
 -1      1181 2.19575E+01-1.86053E-04-8.19197E-04-1.37168E-02 4.69005E-15-5.10108E-13
 -1      1182 2.14699E+01-4.16474E-03-5.98988E-03-1.20283E-02-2.40318E-14-3.14077E-13
 -1      1183 2.10232E+01-6.52729E-03-8.87492E-03-1.00022E-02 7.79462E-14 4.86521E-14
 -1      1184 2.06380E+01-7.99723E-03-1.07966E-02-7.92818E-03-1.30127E-14 4.47833E-13
 -1      1185 2.03272E+01-9.13884E-03-1.27825E-02-5.60648E-03 4.57302E-14 4.42966E-13
 -1      1186 2.01042E+01-9.99897E-03-1.46536E-02-2.18105E-03 3.23174E-14 7.17181E-13
 -1      1187 1.99899E+01-1.11525E-02-1.17012E-02 4.25400E-03-8.45348E-14 3.31095E-13
 -1      1188 1.99853E+01 5.13681E-03 1.08399E-02 5.11753E-03 1.49122E-14 2.20454E-13
 -1      1189 2.77777E+01 5.25576E-01 3.77275E-01 1.96627E+00-1.66395E-14 8.53706E-13
 -1      1190 2.00687E+01-6.62074E-02-5.73496E-01 1.29567E-01 2.50494E-15 7.82430E-13
 -1      1191 1.88893E+01-4.05968E-02-1.93207E-01 1.94929E-02 6.19817E-15 7.04669E-13
 -1      1192 1.85075E+01-2.14321E-02-5.05520E-02 1.55393E-03 6.54858E-16 6.67834E-13
 -1      1193 1.84342E+01-1.24524E-02-1.34222E-02-3.94461E-03 3.13833E-15 5.97168E-13
 -1      1194 1.85079E+01-7.49696E-03-4.72185E-03-5.34322E-03 7.12538E-16 5.05311E-13
 -1      1195 1.86507E+01-4.49596E-03-2.07077E-03-5.45384E-03-1.55925E-15 5.69138E-13
 -1      1196 1.88220E+01-2.63367E-03-6.06709E-04-5.07233E-03 1.90454E-15 6.71022E-13
 -1      1197 1.89996E+01-1.51552E-03 3.33529E-04-4.44757E-03 4.30705E-15 5.91090E-13
 -1      1198 1.91718E+01-9.23483E-04 7.90893E-04-3.68945E-03 1.11375E-14 5.17709E-13
 -1      1199 1.93337E+01-7.28112E-04 8.05410E-04-2.86102E-03 1.63478E-14 3.38837E-13
 -1      1200 1.94850E+01-8.52688E-04 4.34661E-04-2.00138E-03-1.04554E-15 1.80232E-13
 -1      1201 1.96288E+01-1.25569E-03-2.79578E-04-1.13475E-03 2.12877E-15 1.96168E-13
 -1      1202 1.97710E+01-1.92092E-03-1.32335E-03-2.77197E-04-4.67208E-14 3.50933E-13
 -1      1203 1.99197E+01-2.85042E-03-2.71039E-03 5.56828E-04 1.81023E-14 2.38333E-13
 -1      1204 2.00857E+01-4.05709E-03-4.47737E-03 1.34634E-03 1.33392E-14 1.18581E-14
 -1      1205 2.02818E+01-5.55380E-03-6.67464E-03 2.05240E-03-2.33668E-14 1.41118E-13
 -1      1206 2.05236E+01-7.33355E-03-9.34727E-03 2.60058E-03 1.43139E-14 1.16551E-13
 -1      1207 2.08293E+01-9.33263E-03-1.24948E-02 2.85387E-03 3.64368E-14-6.71962E-14
 -1      1208 2.12194E+01-1.13637E-02-1.59886E-02 2.57222E-03-1.01874E-14-6.98660E-14
 -1      1209 2.17158E+01-1.30017E-02-1.94106E-02 1.35850E-03-1.65236E-14 2.52843E-13
 -1      1210 2.23381E+01-1.34101E-02-2.17658E-02-1.39575E-03 4.14057E-15 3.55042E-13
 -1      1211 2.30978E+01-1.11265E-02-2.10353E-02-6.51178E-03 1.45120E-14 5.46785E-14
 -1      1212 2.39852E+01-3.93977E-03-1.36679E-02-1.48311E-02-9.97293E-15-1.58557E-13
 -1      1213 2.49477E+01 1.07582E-02 5.48534E-03-2.65425E-02-2.52496E-14 1.22194E-13
 -1      1214 2.58587E+01 3.43668E-02 4.14805E-02-3.96477E-02 4.32380E-15 3.32616E-13
 -1      1215 2.64856E+01 6.33941E-02 9.37590E-02-4.75893E-02-7.85916E-15 3.43121E-13
 -1      1216 2.64894E+01 8.46564E-02 1.46277E-01-3.78972E-02 2.78015E-14-1.76303E-13
 -1      1217 2.55186E+01 7.53138E-02 1.60572E-01 2.84871E-03-4.67733E-14-8.44047E-14
 -1      1218 2.34606E+01 1.92540E-02 9.17757E-02 7.29846E-02 1.93161E-15-7.04714E-14
 -1      1219 2.07691E+01-6.36527E-02-6.11790E-02 1.39122E-01 3.96905E-15-3.43392E-13
 -1      1220 1.85232E+01-1.18245E-01-2.17668E-01 1.48206E-01-1.17580E-14 9.20097E-15
 -1      1221 1.78811E+01-1.02348E-01-2.64649E-01 7.70719E-02-4.97692E-15 1.49986E-13
 -1      1222 1.92074E+01-3.81640E-02-1.69080E-01-3.27372E-02-4.29465E-14 3.12764E-13
 -1      1223 2.17527E+01 2.12935E-02-1.30650E-02-1.11480E-01-3.03336E-14 6.70963E-13
 -1      1224 2.42878E+01 4.79304E-02 9.90642E-02-1.26359E-01-4.87718E-14 5.72972E-13
 -1      1225 2.59442E+01 4.68945E-02 1.30193E-01-9.41455E-02 4.52737E-14-9.69086E-14
 -1      1226 2.65112E+01 3.35039E-02 1.05266E-01-4.87294E-02-1.81626E-15-5.81552E-13
 -1      1227 2.62228E+01 1.88504E-02 6.26157E-02-1.20882E-02 8.50969E-15-2.67088E-13
 -1      1228 2.54405E+01 7.63459E-03 2.61720E-02 9.68828E-03-1.32583E-14-1.30618E-13
 -1      1229 2.44661E+01 5.24367E-04 3.02604E-03 1.92556E-02 1.92744E-15 1.12039E-13
 -1      1230 2.34901E+01-3.33558E-03-8.67120E-03 2.13713E-02-4.88744E-14 2.51382E-13
 -1      1231 2.26086E+01-5.10126E-03-1.30587E-02 1.98717E-02-3.24349E-14 1.93130E-13
 -1      1232 2.18576E+01-5.76420E-03-1.37095E-02 1.71381E-02-1.24979E-14 3.42781E-15
 -1      1233 2.12411E+01-6.04464E-03-1.30484E-02 1.44080E-02 3.00104E-14-3.44074E-13
 -1      1234 2.07505E+01-6.48249E-03-1.26788E-02 1.21977E-02 7.83679E-14-1.15829E-12
 -1      1235 2.03765E+01-7.46674E-03-1.36401E-02 1.05041E-02 1.70881E-15-1.47343E-12
 -1      1236 2.01181E+01-8.60407E-03-1.53448E-02 8.35514E-03-2.46347E-14-1.16227E-12
 -1      1237 1.99874E+01-6.42611E-03-1.13711E-02 2.83477E-03 8.64072E-14-1.37598E-12
 -1      1238 1.99854E+01 5.12407E-03 1.28280E-02-5.29507E-03 4.18136E-14-8.93912E-13
 -1      1239 2.00048E+01-1.53387E-02 1.18728E-02-5.11968E-03-1.06785E-12-1.13246E-13
 -1      1240 1.99908E+01-8.45768E-03-1.24719E-02-4.17646E-03-1.77831E-12-1.24370E-13
 -1      1241 1.99915E+01 1.24693E-01-1.36704E-02 4.62006E-03-1.04084E-12-7.89375E-15
 -1      1242 1.99961E+01 3.56832E-01-6.69851E-03 8.58127E-03-6.50710E-13 5.50897E-14
 -1      1243 2.00013E+01 6.31590E-01 1.20409E-03 9.46445E-03-5.42292E-14-2.26908E-14
 -1      1244 2.00057E+01 8.94287E-01 7.73296E-03 8.27111E-03-1.25234E-12-1.03557E-13
 -1      1245 2.00090E+01 1.10481E+00 1.22093E-02 5.94594E-03-1.12841E-12 8.73504E-14
 -1      1246 2.00107E+01 1.23472E+00 1.45937E-02 2.74843E-03-3.74952E-13-3.10213E-14
 -1      1247 2.00109E+01 1.26581E+00 1.48033E-02-6.57864E-04 4.41340E-14-2.98537E-14
 -1      1248 2.00096E+01 1.19666E+00 1.30378E-02-3.82751E-03 3.15904E-13-1.94289E-15
 -1      1249 2.00070E+01 1.03919E+00 9.59252E-03-6.37947E-03 4.85788E-13-1.60921E-13
 -1      1250 2.00037E+01 8.18603E-01 4.91203E-03-8.01464E-03-8.33430E-13 3.12577E-14
 -1      1251 1.99997E+01 5.64747E-01-7.84159E-04-8.41444E-03-5.33819E-13 1.66663E-13
 -1      1252 1.99954E+01 3.12478E-01-7.25010E-03-7.35216E-03 4.09273E-13-5.34631E-14
 -1      1253 1.99921E+01 1.03717E-01-1.33842E-02-4.56650E-03 1.47871E-13-4.46028E-14
 -1      1254 1.99897E+01-3.18743E-03-9.90085E-03 7.28383E-03-3.19805E-13-1.68379E-13
 -1      1255 2.00048E+01-1.50758E-02 1.03849E-02 5.14782E-03-2.68763E-13-4.64629E-15
 -1      1256-1.13111E+00-2.41710E+01-3.74242E+00-2.24229E+00 6.47205E-13 2.06037E-13
 -1      1257-1.90034E+00-1.60787E+01-3.19881E+00-4.27858E+00 1.04750E-12 4.08729E-13
 -1      1258-2.93058E-02-3.48711E+00-2.01987E+00-7.54585E-01 1.34670E-12 8.79630E-13
 -1      1259 8.85037E+00 7.02907E+00-3.83058E-01 7.72604E+00 1.39755E-12 1.14531E-12
 -1      1260 2.61071E+01 1.07711E+01 1.38551E+00 1.59347E+01 1.87073E-13 1.05027E-13
 -1      1261 4.70837E+01 8.01921E+00 3.01611E+00 1.77024E+01-1.18794E-13 3.46390E-14
 -1      1262 6.33253E+01 3.29471E+00 4.07606E+00 1.06885E+01-2.30926E-14-1.08691E-13
 -1      1263 6.80960E+01 1.56412E+00 4.34870E+00-2.37628E+00 2.10040E-14-1.19238E-13
 -1      1264 5.87097E+01 4.93566E+00 3.83768E+00-1.40225E+01-3.44724E-14 9.33698E-14
 -1      1265 3.94726E+01 9.56483E+00 2.47406E+00-1.77693E+01 2.08611E-13-2.36033E-13
 -1      1266 1.90836E+01 1.04940E+01 7.85278E-01-1.35925E+01 5.57332E-13-7.65610E-13
 -1      1267 4.93896E+00 4.46745E+00-1.00397E+00-4.90356E+00 9.09273E-13-7.41407E-13
 -1      1268-1.12961E+00-7.08765E+00-2.40249E+00 2.28702E+00 1.34381E-12-6.24167E-13
 -1      1269-1.70893E+00-1.90425E+01-3.39554E+00 4.26806E+00 1.27121E-12-4.31100E-13
 -1      1270-1.03879E+00-2.49567E+01-3.80313E+00 1.18449E+00 1.56319E-13-1.66644E-13
 -1      1271-1.32975E+00-2.24315E+01-3.59710E+00-2.79249E+00-6.68465E-13-8.98379E-14
 -1      1272-1.69754E+00-1.30037E+01-2.87002E+00-3.73417E+00-8.06910E-13-3.07032E-13
 -1      1273 9.95889E-01-6.95444E-01-1.61783E+00 8.39488E-01-1.04539E-12-5.67546E-13
 -1      1274 1.01028E+01 8.43167E+00-9.16062E-02 9.02515E+00-1.02207E-12-9.85878E-13
 -1      1275 2.61001E+01 1.10830E+01 1.43913E+00 1.61264E+01-6.47815E-13-8.61755E-13
 -1      1276 4.58883E+01 8.10633E+00 2.93695E+00 1.76716E+01-2.11053E-13-2.82885E-13
 -1      1277 6.15279E+01 3.65340E+00 3.96889E+00 1.03543E+01-6.57668E-14-3.13083E-13
 -1      1278 6.60157E+01 2.12556E+00 4.22102E+00-2.42694E+00 8.17055E-14-5.53557E-13
 -1      1279 5.73273E+01 5.00150E+00 3.72337E+00-1.38500E+01 1.91930E-13-5.50227E-13
 -1      1280 3.92349E+01 9.63149E+00 2.47266E+00-1.79528E+01 4.02234E-13-6.83231E-13
 -1      1281 2.03205E+01 1.10325E+01 9.76814E-01-1.44297E+01 4.07674E-13-5.39568E-13
 -1      1282 6.32843E+00 5.95939E+00-6.25012E-01-6.18310E+00-6.66134E-15-1.19238E-13
 -1      1283-4.84233E-01-4.58823E+00-2.04053E+00 1.30202E+00-6.82343E-13 2.32592E-13
 -1      1284-1.69212E+00-1.62075E+01-3.09305E+00 4.04219E+00-7.12208E-13 3.42504E-13
 -1      1285-1.04097E+00-2.40485E+01-3.70312E+00 1.98640E+00-2.47413E-13 1.03043E-13
 -1      1286 2.22533E+01 1.83749E+00-7.25704E-01-2.79114E+00-2.09555E-14 1.14131E-13
 -1      1287 2.03510E+01 4.68894E+00-4.86314E-02-3.30884E+00-3.50830E-14-1.22014E-13
 -1      1288 2.08562E+01 4.80890E+00-1.13485E-01-4.16248E+00-5.37348E-14-6.99024E-14
 -1      1289 1.95280E+01 4.99265E+00-1.95540E-02-2.65701E+00-3.17940E-14-1.76914E-13
 -1      1290 1.98237E+01 5.08889E+00 1.98573E-04-3.04781E+00-3.75533E-14-1.57180E-13
 -1      1291 2.05184E+01 3.95207E+00-2.59129E-02-3.07675E+00-6.28733E-14-9.78939E-14
 -1      1292 1.91842E+01 5.08409E+00-3.61159E-03-2.07262E+00-1.22471E-14-1.90476E-13
 -1      1293 1.93317E+01 5.13876E+00 1.05854E-02-2.36583E+00-1.96371E-14-1.82996E-13
 -1      1294 1.97514E+01 4.36551E+00-2.42472E-02-2.49164E+00-4.24157E-14-1.41435E-13
 -1      1295 1.90122E+01 5.13163E+00 3.32925E-03-1.56690E+00-6.82614E-16-1.91821E-13
 -1      1296 1.90881E+01 5.16105E+00 1.25798E-02-1.81694E+00 2.40780E-15-1.92516E-13
 -1      1297 1.93935E+01 4.55571E+00-1.95415E-02-1.93306E+00-9.29291E-15-1.55910E-13
 -1      1298 1.89218E+01 5.16196E+00 6.67309E-03-1.11872E+00 1.06052E-14-1.79644E-13
 -1      1299 1.89628E+01 5.17786E+00 1.27629E-02-1.34044E+00 8.23820E-15-1.85411E-13
 -1      1300 1.92100E+01 4.66204E+00-1.60303E-02-1.44664E+00 3.70407E-15-1.47621E-13
 -1      1301 1.88724E+01 5.18229E+00 8.26216E-03-6.94851E-01 1.53540E-14-1.56385E-13
 -1      1302 1.88945E+01 5.19089E+00 1.20885E-02-9.05348E-01 1.56650E-14-1.69325E-13
 -1      1303 1.91100E+01 4.72794E+00-1.39096E-02-1.00547E+00 1.74815E-14-1.37560E-13
 -1      1304 1.88495E+01 5.19452E+00 9.34243E-03-2.89580E-01 2.98084E-14-1.36051E-13
 -1      1305 1.88590E+01 5.19822E+00 1.11263E-02-4.91979E-01 2.32518E-14-1.45250E-13
 -1      1306 1.90560E+01 4.76739E+00-1.28734E-02-5.89475E-01 2.97903E-14-1.20466E-13
 -1      1307 1.88460E+01 5.19954E+00 1.02710E-02 1.08387E-01 3.63692E-14-1.16060E-13
 -1      1308 1.88457E+01 5.19941E+00 1.02034E-02-9.15541E-02 3.56343E-14-1.26933E-13
 -1      1309 1.90327E+01 4.78567E+00-1.24340E-02-1.89296E-01 5.23799E-14-1.01183E-13
 -1      1310 1.88606E+01 5.19788E+00 1.12099E-02 5.09368E-01 4.46878E-14-9.72347E-14
 -1      1311 1.88505E+01 5.19390E+00 9.27712E-03 3.06566E-01 4.51176E-14-1.09491E-13
 -1      1312 1.90335E+01 4.78505E+00-1.24517E-02 2.06038E-01 6.56741E-14-8.33916E-14
 -1      1313 1.88977E+01 5.18976E+00 1.21419E-02 9.24176E-01 5.60559E-14-7.72091E-14
 -1      1314 1.88748E+01 5.18099E+00 8.18615E-03 7.12739E-01 5.08710E-14-8.88543E-14
 -1      1315 1.90585E+01 4.76537E+00-1.29415E-02 6.06870E-01 7.89134E-14-6.50036E-14
 -1      1316 1.89673E+01 5.17614E+00 1.29396E-02 1.35789E+00 5.77541E-14-3.96558E-14
 -1      1317 1.89253E+01 5.15978E+00 6.50319E-03 1.13477E+00 5.62952E-14-6.30312E-14
 -1      1318 1.91142E+01 4.72448E+00-1.39671E-02 1.02063E+00 8.98038E-14-5.12299E-14
 -1      1319 1.90968E+01 5.15690E+00 1.28487E-02 1.84295E+00 7.29659E-14 1.01585E-14
 -1      1320 1.90190E+01 5.12705E+00 3.19977E-03 1.58998E+00 6.44242E-14-1.42907E-14
 -1      1321 1.92171E+01 4.65552E+00-1.61174E-02 1.46416E+00 9.92288E-14-4.73926E-15
 -1      1322 1.93416E+01 5.13281E+00 1.01587E-02 2.40021E+00 7.59531E-14 8.09422E-14
 -1      1323 1.91935E+01 5.07628E+00-4.32511E-03 2.10291E+00 6.99371E-14 3.59088E-14
 -1      1324 1.94063E+01 4.54245E+00-1.99646E-02 1.96016E+00 1.16666E-13 4.01484E-14
 -1      1325 1.98489E+01 5.09798E+00 5.98193E-03 3.08608E+00 7.41490E-14 1.97641E-13
 -1      1326 1.95391E+01 4.98362E+00-2.05059E-02 2.69892E+00 6.73489E-14 1.28290E-13
 -1      1327 1.97714E+01 4.34589E+00-2.45577E-02 2.53012E+00 1.16452E-13 1.20723E-13
 -1      1328 2.10923E+01 4.90518E+00 8.19391E-03 4.05520E+00 5.22637E-14 3.76088E-13
 -1      1329 2.03254E+01 4.73251E+00-4.79685E-02 3.41819E+00 5.73708E-14 2.71394E-13
 -1      1330 2.05565E+01 3.91509E+00-2.24424E-02 3.18022E+00 1.01797E-13 2.37310E-13
 -1      1331 2.71879E+01 3.20419E+00 9.28744E-01 4.58209E+00 9.85323E-15 6.46649E-13
 -1      1332 2.20075E+01 3.52103E+00-1.81964E-01 3.88585E+00 1.74860E-14 4.66960E-13
 -1      1333 2.21000E+01 2.56120E+00-3.26418E-02 3.45794E+00 8.21149E-14 3.94546E-13
 -1      1334 2.14121E+01 3.59674E-01-7.63360E-01 1.18480E+00 2.65760E-14 6.46483E-13
 -1      1335 2.19862E+01 1.31469E-01-4.00801E-01-1.28657E+00-4.56857E-14 1.39500E-13
 -1      1336 2.06625E+01 3.06773E-01-1.64814E-01-8.06546E-01-4.02178E-14 8.73468E-14
 -1      1337 2.00644E+01 1.53523E-01-7.35244E-02-4.02849E-01-2.69160E-14 6.21473E-14
 -1      1338 1.95937E+01 9.12267E-02-1.49194E-02-3.30652E-01-3.43441E-14 1.60635E-14
 -1      1339 2.09584E+01 3.69336E-01-1.04208E-01-1.27532E+00-7.29000E-14 1.06963E-14
 -1      1340 1.92359E+01 6.44677E-02 3.06406E-03-1.36031E-01-2.99673E-14 3.66027E-15
 -1      1341 1.90806E+01 4.12356E-02 1.32373E-02-1.18272E-01-3.00159E-14-4.36144E-14
 -1      1342 1.99068E+01 1.33772E-01-3.51865E-02-5.05242E-01-5.75963E-14-2.12313E-14
 -1      1343 1.89199E+01 3.15592E-02 1.32623E-02-2.87588E-02-2.18692E-14-6.78659E-14
 -1      1344 1.88995E+01 1.95091E-02 1.10692E-02-1.93345E-02-3.26462E-14-1.09659E-13
 -1      1345 1.94290E+01 5.56107E-02-8.46368E-03-1.71340E-01-5.40141E-14-4.62078E-14
 -1      1346 1.88433E+01 1.61458E-02 8.79459E-03 2.46144E-02-1.40597E-14-1.13003E-13
 -1      1347 1.88851E+01 9.26733E-03 6.45962E-03 2.93199E-02-9.23654E-15-1.26704E-13
 -1      1348 1.92196E+01 2.45407E-02-3.58087E-03-1.21177E-02-4.24027E-14-6.29826E-14
 -1      1349 1.88857E+01 8.06840E-03 4.72054E-03 5.09584E-02-1.48015E-15-1.42462E-13
 -1      1350 1.89561E+01 3.80526E-03 3.70756E-03 5.29660E-02-2.43544E-15-1.43514E-13
 -1      1351 1.91632E+01 1.04884E-02-2.29328E-03 6.75228E-02-1.69144E-14-7.46556E-14
 -1      1352 1.89870E+01 3.53698E-03 2.51780E-03 6.25197E-02 1.29344E-14-1.26906E-13
 -1      1353 1.90687E+01 8.05389E-04 2.30000E-03 6.29804E-02 2.31407E-14-1.14206E-13
 -1      1354 1.91913E+01 3.24728E-03-1.42782E-03 1.05843E-01 1.10728E-14-4.76602E-14
 -1      1355 1.91150E+01 9.99071E-04 1.42264E-03 6.58553E-02 5.78196E-15-1.12461E-13
 -1      1356 1.91987E+01-7.44552E-04 1.55259E-03 6.54800E-02-1.50723E-14-1.24948E-13
 -1      1357 1.92645E+01-5.38899E-04-7.24040E-04 1.21470E-01-1.08803E-14-4.21857E-14
 -1      1358 1.92520E+01-3.02221E-04 8.53874E-04 6.48839E-02-3.40144E-14-1.25546E-13
 -1      1359 1.93331E+01-1.36342E-03 1.11538E-03 6.41443E-02-3.84158E-14-1.54115E-13
 -1      1360 1.93602E+01-2.32414E-03-2.46404E-04 1.24740E-01-3.95510E-14-5.74195E-14
 -1      1361 1.93890E+01-7.74587E-04 5.34937E-04 6.21545E-02-4.18712E-14-1.71482E-13
 -1      1362 1.94658E+01-1.34246E-03 8.41780E-04 6.13833E-02 1.26490E-14-1.80951E-13
 -1      1363 1.94659E+01-2.82447E-03 9.08304E-07 1.22029E-01-4.46750E-14-1.14716E-14
 -1      1364 1.95223E+01-6.57459E-04 3.46827E-04 5.94374E-02 4.80973E-14-2.15921E-13
 -1      1365 1.95952E+01-8.60658E-04 6.69048E-04 5.88796E-02 4.09338E-15-1.91383E-13
 -1      1366 1.95750E+01-2.43205E-03 5.66902E-05 1.17592E-01 1.71294E-15-6.54748E-14
 -1      1367 1.96522E+01-1.00451E-04 2.33254E-04 5.80228E-02-4.77513E-14-1.99287E-13
 -1      1368 1.97232E+01-3.44511E-05 5.64245E-04 5.78657E-02-6.10698E-14-2.64346E-13
 -1      1369 1.96856E+01-1.38262E-03-3.60673E-05 1.14440E-01-2.84821E-14-1.49634E-13
 -1      1370 1.97819E+01 7.98065E-04 1.61097E-04 5.88878E-02-1.83970E-15-2.70040E-13
 -1      1371 1.98539E+01 1.05476E-03 5.04758E-04 5.92799E-02 3.23278E-14-2.37918E-13
 -1      1372 1.97986E+01 1.73573E-04-2.43008E-04 1.14801E-01-3.52135E-14-1.53175E-13
 -1      1373 1.99166E+01 1.96654E-03 1.06023E-04 6.27887E-02 9.22550E-15-2.30556E-13
 -1      1374 1.99934E+01 2.33980E-03 4.71102E-04 6.38485E-02-6.54912E-14-3.01586E-13
 -1      1375 1.99174E+01 2.13138E-03-5.38132E-04 1.20370E-01-3.30281E-15-1.72346E-13
 -1      1376 2.00629E+01 3.33956E-03 4.69728E-05 7.02937E-02-9.28367E-14-2.84947E-13
 -1      1377 2.01492E+01 3.74725E-03 4.43555E-04 7.21104E-02-7.16213E-14-3.72441E-13
 -1      1378 2.00468E+01 4.39825E-03-8.99559E-04 1.32431E-01-7.57563E-14-2.06899E-13
 -1      1379 2.02288E+01 4.83536E-03-3.60455E-05 8.17580E-02-3.61009E-14-4.15424E-13
 -1      1380 2.03295E+01 5.17331E-03 4.00291E-04 8.43795E-02-4.38055E-14-4.93639E-13
 -1      1381 2.01929E+01 6.85915E-03-1.30403E-03 1.51857E-01-9.88450E-14-2.29506E-13
 -1      1382 2.04227E+01 6.32743E-03-1.62056E-04 9.72273E-02-2.68883E-14-4.31763E-13
 -1      1383 2.05426E+01 6.45280E-03 3.17025E-04 1.00633E-01-4.00461E-14-4.85559E-13
 -1      1384 2.03622E+01 9.33194E-03-1.72018E-03 1.78979E-01-6.34212E-14-3.02949E-13
 -1      1385 2.06526E+01 7.60703E-03-3.46414E-04 1.16250E-01-1.20674E-14-4.76410E-13
 -1      1386 2.07960E+01 7.31953E-03 1.69400E-04 1.20305E-01 2.42970E-14-4.64644E-13
 -1      1387 2.05614E+01 1.15074E-02-2.09988E-03 2.13303E-01-3.82456E-14-2.75210E-13
 -1      1388 2.09249E+01 8.33509E-03-5.93452E-04 1.37573E-01 6.25160E-14-5.05707E-13
 -1      1389 2.10944E+01 7.35937E-03-5.93988E-05 1.41950E-01 4.11953E-14-4.42556E-13
 -1      1390 2.07958E+01 1.28705E-02-2.36694E-03 2.53009E-01 7.90329E-15-3.16150E-13
 -1      1391 2.12426E+01 7.98733E-03-8.81777E-04 1.58704E-01 8.83655E-14-4.59667E-13
 -1      1392 2.14371E+01 5.96650E-03-3.62592E-04 1.62776E-01 3.11620E-14-3.31315E-13
 -1      1393 2.10680E+01 1.26075E-02-2.40286E-03 2.94223E-01 5.15053E-14-3.34698E-13
 -1      1394 2.16017E+01 5.81010E-03-1.14015E-03 1.75348E-01-5.70551E-15-2.78843E-13
 -1      1395 2.18147E+01 2.33298E-03-6.83257E-04 1.78059E-01-1.75926E-14-2.70710E-13
 -1      1396 2.13759E+01 9.52485E-03-2.03185E-03 3.30042E-01 3.71090E-14-3.97694E-13
 -1      1397 2.19878E+01 8.33537E-04-1.21686E-03 1.80851E-01 3.01789E-14-2.73699E-13
 -1      1398 2.22039E+01-4.46186E-03-8.82239E-04 1.80587E-01 2.36006E-14-2.76943E-13
 -1      1399 2.17096E+01 2.05124E-03-1.01253E-03 3.49478E-01-8.16696E-15-2.82714E-13
 -1      1400 2.23709E+01-7.96170E-03-8.59854E-04 1.65953E-01-1.59313E-14-2.24577E-13
 -1      1401 2.25626E+01-1.51433E-02-7.21568E-04 1.60515E-01-3.08508E-14-2.82608E-13
 -1      1402 2.20478E+01-1.15225E-02 9.44089E-04 3.36759E-01 1.89438E-14-3.39437E-13
 -1      1403 2.27007E+01-2.11631E-02 2.50841E-04 1.19540E-01 8.47152E-15-2.26324E-13
 -1      1404 2.28269E+01-2.95586E-02 8.39037E-05 1.06424E-01 6.86222E-14-1.86216E-13
 -1      1405 2.23548E+01-3.23109E-02 4.09158E-03 2.72010E-01-1.37911E-16-1.99487E-13
 -1      1406 2.29052E+01-3.79716E-02 2.34060E-03 3.14813E-02 6.54867E-14-1.52351E-13
 -1      1407 2.29134E+01-4.55533E-02 1.68703E-03 8.75521E-03 2.46352E-14-6.92905E-14
 -1      1408 2.25786E+01-5.93250E-02 8.44143E-03 1.35048E-01 9.05118E-14-1.78497E-13
 -1      1409 2.28966E+01-5.47903E-02 5.21630E-03-1.01261E-01-1.36072E-14-1.20371E-13
 -1      1410 2.27337E+01-5.77103E-02 3.76262E-03-1.33180E-01-3.79453E-14-1.96065E-13
 -1      1411 2.26542E+01-8.72356E-02 1.33910E-02-8.55381E-02 6.72552E-15-1.14424E-13
 -1      1412 2.25919E+01-6.40848E-02 7.82575E-03-2.65256E-01-3.09995E-14-2.38438E-13
 -1      1413 2.22265E+01-5.72121E-02 5.20371E-03-3.01144E-01-2.16667E-14-2.49897E-13
 -1      1414 2.25156E+01-1.04362E-01 1.72893E-02-3.77061E-01-1.01956E-13-1.56072E-13
 -1      1415 2.19515E+01-5.55109E-02 8.29891E-03-4.21939E-01 4.36613E-14-1.81376E-13
 -1      1416 2.14050E+01-3.50323E-02 4.33196E-03-4.50248E-01 2.28294E-14-1.08684E-13
 -1      1417 2.21212E+01-9.43165E-02 1.72502E-02-6.85359E-01 4.35225E-14-2.35295E-13
 -1      1418 2.10303E+01-2.16317E-02 4.90068E-03-5.09562E-01-7.05162E-14-9.22873E-14
 -1      1419 2.03998E+01 1.05992E-02-2.60509E-05-5.14942E-01-3.95218E-14-7.37604E-14
 -1      1420 2.14905E+01-4.41438E-02 1.03210E-02-9.09629E-01-4.64650E-14-5.33948E-14
 -1      1421 2.00104E+01 3.29486E-02-2.23427E-03-4.66431E-01-8.88031E-14-1.52454E-13
 -1      1422 1.94606E+01 6.66131E-02-6.84887E-03-4.38159E-01-5.28154E-14-1.80970E-13
 -1      1423 2.07370E+01 4.16757E-02-4.02215E-03-9.29861E-01-7.94434E-14-1.79768E-13
 -1      1424 1.91755E+01 8.72652E-02-9.89190E-03-2.72051E-01 3.93964E-14-2.38920E-13
 -1      1425 1.88822E+01 1.07033E-01-1.24945E-02-2.14084E-01 1.11369E-15-1.88599E-13
 -1      1426 2.00649E+01 1.33677E-01-2.10024E-02-6.72924E-01-7.32045E-14-1.98092E-13
 -1      1427 1.88045E+01 1.13163E-01-1.35161E-02 2.23914E-02 1.90681E-14-3.27508E-13
 -1      1428 1.88717E+01 1.08383E-01-1.29248E-02 8.90339E-02-4.81837E-14-4.16165E-13
 -1      1429 1.97010E+01 1.87828E-01-3.17059E-02-1.81744E-01-5.54400E-14-2.90236E-13
 -1      1430 1.90312E+01 9.56767E-02-1.08805E-02 3.08398E-01-5.97872E-15-2.78860E-13
 -1      1431 1.94335E+01 6.89617E-02-7.36060E-03 3.57025E-01 3.40891E-14-3.12202E-13
 -1      1432 1.97833E+01 1.74718E-01-2.90963E-02 3.76360E-01 2.19581E-14-3.12379E-13
 -1      1433 1.97680E+01 4.59537E-02-4.23877E-03 4.81680E-01 4.26603E-14-2.17000E-13
 -1      1434 2.03652E+01 1.10387E-02 6.79911E-04 4.96858E-01 4.54302E-14-1.90681E-13
 -1      1435 2.02781E+01 1.01409E-01-1.49313E-02 7.94353E-01 4.89331E-14-2.78697E-13
 -1      1436 2.07579E+01-8.94735E-03 2.01477E-03 5.00907E-01-3.91913E-14-1.52385E-13
 -1      1437 2.13684E+01-3.75978E-02 6.67305E-03 4.85081E-01-6.97654E-14-2.53582E-13
 -1      1438 2.10005E+01 6.58628E-03 2.10634E-03 9.45111E-01 5.82870E-14-3.64115E-13
 -1      1439 2.17083E+01-4.65895E-02 5.05258E-03 3.95798E-01-6.75467E-14-2.64604E-13
 -1      1440 2.21882E+01-6.18437E-02 8.48507E-03 3.62742E-01-4.14599E-15-2.76057E-13
 -1      1441 2.17192E+01-6.83840E-02 1.39404E-02 8.34515E-01-1.03565E-13-3.87804E-13
 -1      1442 2.24089E+01-6.00198E-02 4.85786E-03 2.31496E-01 9.11016E-14-3.20133E-13
 -1      1443 2.26900E+01-6.26743E-02 6.96536E-03 1.95803E-01-3.25000E-15-2.19224E-13
 -1      1444 2.22592E+01-1.03054E-01 1.80637E-02 5.62704E-01 5.86579E-14-3.09866E-13
 -1      1445 2.27756E+01-5.47887E-02 3.01283E-03 6.78826E-02-7.43832E-14-1.84982E-14
 -1      1446 2.28594E+01-4.95722E-02 4.08191E-03 3.87284E-02 5.82433E-14-8.61663E-14
 -1      1447 2.25438E+01-1.01247E-01 1.62713E-02 2.48388E-01 3.42565E-14-2.15819E-13
 -1      1448 2.28280E+01-4.04374E-02 1.05761E-03-6.03771E-02 8.92298E-15-6.77119E-14
 -1      1449 2.27570E+01-3.21433E-02 1.45675E-03-7.98059E-02-1.31470E-13-1.89654E-13
 -1      1450 2.25803E+01-7.85414E-02 1.17332E-02-2.39728E-02 3.32078E-14-4.38761E-14
 -1      1451 2.26420E+01-2.46223E-02-2.12590E-04-1.43105E-01-1.85801E-13-2.47884E-13
 -1      1452 2.24709E+01-1.63910E-02-2.27503E-04-1.53487E-01-2.36761E-13-5.23785E-13
 -1      1453 2.24227E+01-5.00614E-02 6.88668E-03-2.17053E-01-2.14143E-13-3.09045E-13
 -1      1454 2.23069E+01-1.14141E-02-6.99187E-04-1.85093E-01-1.20314E-13-5.97448E-13
 -1      1455 2.20848E+01-4.67397E-03-9.75823E-04-1.88681E-01 8.68229E-15-6.46591E-13
 -1      1456 2.21391E+01-2.49593E-02 2.94314E-03-3.28775E-01-2.64050E-13-3.07674E-13
 -1      1457 2.19003E+01-2.02269E-03-6.35455E-04-1.96863E-01 1.84766E-13-5.49318E-13
 -1      1458 2.16640E+01 2.93588E-03-1.07699E-03-1.96034E-01 1.47189E-13-3.91228E-13
 -1      1459 2.17909E+01-6.61601E-03 2.11077E-04-3.74695E-01 1.74496E-13-4.73122E-13
 -1      1460 2.14796E+01 3.92772E-03-3.10224E-04-1.88950E-01 2.59495E-14-9.48243E-14
 -1      1461 2.12529E+01 7.38076E-03-8.49059E-04-1.85564E-01 7.93339E-14-8.76226E-14
 -1      1462 2.14256E+01 5.13354E-03-1.46405E-03-3.74722E-01 2.58337E-13-2.35079E-13
 -1      1463 2.10821E+01 7.43439E-03 4.05610E-05-1.69380E-01 1.58697E-13-8.11391E-14
 -1      1464 2.08794E+01 9.85375E-03-5.56727E-04-1.64617E-01 1.13374E-13 1.34131E-13
 -1      1465 2.10753E+01 1.19906E-02-2.39816E-03-3.46003E-01 1.41721E-13 2.39486E-13
 -1      1466 2.07302E+01 9.60413E-03 2.23097E-04-1.43046E-01 9.92490E-14 1.79970E-13
 -1      1467 2.05603E+01 1.14614E-02-4.25620E-04-1.37438E-01 1.06847E-13 2.58007E-13
 -1      1468 2.07605E+01 1.60235E-02-2.92337E-03-3.00309E-01 1.93392E-13 1.54009E-13
 -1      1469 2.04377E+01 1.14252E-02 4.00349E-05-1.11948E-01 3.57800E-14 1.50754E-13
 -1      1470 2.03069E+01 1.30362E-02-6.20995E-04-1.05463E-01 2.78848E-14 2.61796E-13
 -1      1471 2.04932E+01 1.91726E-02-3.32224E-03-2.43829E-01 8.61368E-14 3.62004E-15
 -1      1472 2.02141E+01 1.35120E-02-6.06099E-04-7.60813E-02 7.24308E-14 2.21798E-13
 -1      1473 2.01291E+01 1.47564E-02-8.17111E-04-6.82304E-02-1.47406E-14 2.90638E-13
 -1      1474 2.02813E+01 2.29340E-02-3.64431E-03-1.78209E-01 5.62434E-14-1.35504E-13
 -1      1475 2.00664E+01 1.69898E-02-7.11379E-04-3.49281E-02-1.07420E-13 3.69951E-13
 -1      1476 2.00325E+01 1.43194E-02 8.99386E-04-2.58460E-02-1.18242E-13 2.43054E-13
 -1      1477 2.01280E+01 2.76732E-02-3.51861E-03-1.04202E-01-4.99884E-14-4.14872E-14
 -1      1478 1.99961E+01 1.63910E-03 2.94869E-03 5.21048E-03-2.71386E-13 1.64485E-13
 -1      1479 2.00258E+01 1.85586E-02-7.85062E-04-2.25911E-02-2.11894E-13-4.23110E-14
 -1      1480 2.02429E+01 7.54919E-02-1.52108E-01 4.84630E-01 3.88786E-14 5.68899E-13
 -1      1481 2.15143E+01 2.16070E-01-2.29276E-01 7.21632E-01 3.33206E-14 6.06723E-13
 -1      1482 2.17144E+01 8.81783E-01-8.53996E-02 2.06606E+00 6.00492E-14 4.48905E-13
 -1      1483 1.93129E+01 3.23871E-02-2.13436E-02 1.86767E-01 1.88426E-14 5.08617E-13
 -1      1484 1.97346E+01 1.13592E-01-6.27113E-02 2.38761E-01 2.04906E-14 5.37336E-13
 -1      1485 2.02880E+01 1.87718E-01-5.51644E-02 7.87541E-01 4.47281E-14 3.92985E-13
 -1      1486 1.89294E+01 1.51232E-02 5.66497E-03 5.42250E-02 3.04123E-14 4.57162E-13
 -1      1487 1.90691E+01 5.16168E-02 9.74992E-04 8.05153E-02 1.76083E-14 4.73864E-13
 -1      1488 1.95418E+01 7.18651E-02-1.21383E-02 3.00310E-01 4.11008E-14 3.19833E-13
 -1      1489 1.88175E+01 7.16695E-03 6.97499E-03-8.39593E-03 2.87721E-14 3.88975E-13
 -1      1490 1.88331E+01 2.58819E-02 1.10972E-02 5.99347E-03 2.46118E-14 4.34975E-13
 -1      1491 1.92055E+01 3.10933E-02-2.44970E-03 8.46445E-02 5.20634E-14 2.74484E-13
 -1      1492 1.88428E+01 3.30040E-03 4.77667E-03-3.89264E-02-1.92530E-14 3.77511E-13
 -1      1493 1.87997E+01 1.38852E-02 8.53779E-03-3.07891E-02-1.54629E-15 3.79342E-13
 -1      1494 1.90885E+01 1.33914E-02-1.61267E-03-2.07450E-02 1.65159E-14 2.47848E-13
 -1      1495 1.89373E+01 1.21429E-03 3.27760E-03-5.28768E-02-2.70118E-14 4.31979E-13
 -1      1496 1.88670E+01 7.44632E-03 5.39465E-03-4.83353E-02-2.74196E-14 3.91727E-13
 -1      1497 1.90902E+01 4.77874E-03-1.64353E-03-7.30232E-02-3.94021E-14 2.65193E-13
 -1      1498 1.90640E+01 6.79944E-05 2.47878E-03-5.77121E-02 2.16930E-14 4.44200E-13
 -1      1499 1.89830E+01 3.74950E-03 3.47021E-03-5.53475E-02-6.00569E-15 4.35889E-13
 -1      1500 1.91552E+01 2.97930E-04-1.41408E-03-9.70357E-02-2.39459E-14 2.79450E-13
 -1      1501 1.92024E+01-4.97093E-04 1.99050E-03-5.76160E-02 2.57433E-14 3.81821E-13
 -1      1502 1.91197E+01 1.61577E-03 2.38394E-03-5.65505E-02 4.24893E-14 4.20791E-13
 -1      1503 1.92520E+01-1.97593E-03-1.07938E-03-1.05444E-01 3.70108E-14 2.41186E-13
 -1      1504 1.93415E+01-6.65681E-04 1.61334E-03-5.52180E-02 3.75007E-14 2.74640E-13
 -1      1505 1.92617E+01 4.86492E-04 1.72695E-03-5.48573E-02 3.41757E-14 3.41963E-13
 -1      1506 1.93629E+01-2.90888E-03-7.98019E-04-1.05578E-01 6.65864E-14 1.69617E-13
 -1      1507 1.94770E+01-5.44113E-04 1.27825E-03-5.23085E-02 5.13141E-14 2.00739E-13
 -1      1508 1.94014E+01 6.10512E-05 1.29433E-03-5.22223E-02 4.83832E-14 2.80160E-13
 -1      1509 1.94786E+01-2.95486E-03-6.22712E-04-1.02128E-01 7.72858E-14 1.40132E-13
 -1      1510 1.96084E+01-1.95104E-04 9.63761E-04-5.01939E-02 6.46621E-15 1.33502E-13
 -1      1511 1.95367E+01 1.66763E-04 9.98181E-04-5.00481E-02 1.70723E-14 1.76323E-13
 -1      1512 1.95951E+01-2.37264E-03-5.58888E-04-9.83411E-02 4.01131E-14 1.90733E-13
 -1      1513 1.97388E+01 3.47393E-04 6.60659E-04-4.99016E-02-3.02005E-14 1.50616E-13
 -1      1514 1.96688E+01 7.05734E-04 7.97985E-04-4.94153E-02-7.55585E-15 1.21535E-13
 -1      1515 1.97125E+01-1.31164E-03-6.02881E-04-9.66315E-02 1.01703E-14 8.81466E-14
 -1      1516 1.98738E+01 1.06996E-03 3.60731E-04-5.23131E-02 2.90561E-15 1.96184E-13
 -1      1517 1.98021E+01 1.63004E-03 6.71197E-04-5.12279E-02-2.88430E-14 1.32565E-13
 -1      1518 1.98337E+01 1.48662E-04-7.54730E-04-9.89420E-02-3.03278E-14-6.94231E-15
 -1      1519 2.00213E+01 1.97371E-03 5.36135E-05-5.82559E-02 7.70844E-14 2.99099E-14
 -1      1520 1.99435E+01 2.92766E-03 6.02280E-04-5.63123E-02 7.70445E-14 1.58335E-13
 -1      1521 1.99639E+01 1.97708E-03-1.02110E-03-1.06976E-01 9.04871E-14-3.16964E-14
 -1      1522 2.01915E+01 3.06795E-03-2.74275E-04-6.85648E-02-1.75189E-14 1.86949E-15
 -1      1523 2.01017E+01 4.61166E-03 5.77942E-04-6.54834E-02 3.84568E-14 5.83395E-14
 -1      1524 2.01107E+01 4.17520E-03-1.41543E-03-1.22356E-01 6.29266E-14 5.15185E-14
 -1      1525 2.03967E+01 4.36090E-03-6.40102E-04-8.41077E-02-2.35957E-14 5.01543E-14
 -1      1526 2.02881E+01 6.70755E-03 5.83758E-04-7.95781E-02-6.51341E-14-1.63469E-14
 -1      1527 2.02834E+01 6.76119E-03-1.95688E-03-1.46708E-01-5.19624E-14-3.10740E-14
 -1      1528 2.06515E+01 5.84319E-03-1.06367E-03-1.05760E-01 3.83082E-14-3.60302E-14
 -1      1529 2.05157E+01 9.23243E-03 6.00577E-04-9.94408E-02 3.06376E-14 3.18339E-14
 -1      1530 2.04931E+01 9.74579E-03-2.66746E-03-1.81674E-01 4.35476E-14-1.22826E-13
 -1      1531 2.09721E+01 7.45727E-03-1.56261E-03-1.34284E-01 1.41710E-14-5.35791E-14
 -1      1532 2.07999E+01 1.21559E-02 6.00478E-04-1.25827E-01 4.74724E-14 1.97082E-14
 -1      1533 2.07528E+01 1.30895E-02-3.56456E-03-2.28775E-01 6.15658E-14-2.72072E-15
 -1      1534 2.13763E+01 9.04148E-03-2.13733E-03-1.70036E-01-9.30462E-14 7.31169E-14
 -1      1535 2.11575E+01 1.53257E-02 5.43641E-04-1.59159E-01-8.20980E-14-2.28845E-14
 -1      1536 2.10762E+01 1.66227E-02-4.64387E-03-2.89043E-01-6.50200E-14 7.54141E-14
 -1      1537 2.18807E+01 1.02331E-02-2.73235E-03-2.12363E-01-4.13333E-14 2.31266E-13
 -1      1538 2.16055E+01 1.83326E-02 3.81363E-04-1.99017E-01-6.90207E-14 1.21689E-13
 -1      1539 2.14770E+01 1.98984E-02-5.84257E-03-3.62224E-01-1.24405E-13 1.07871E-13
 -1      1540 2.24967E+01 1.03148E-02-3.15067E-03-2.58484E-01 1.06356E-13 1.79650E-13
 -1      1541 2.21580E+01 2.02814E-02 7.79384E-05-2.43192E-01 4.40381E-14 2.36190E-13
 -1      1542 2.19663E+01 2.19391E-02-6.96633E-03-4.45246E-01 4.87761E-15 1.12014E-13
 -1      1543 2.32228E+01 8.01333E-03-2.89614E-03-3.01611E-01 8.90865E-14-6.42351E-14
 -1      1544 2.28211E+01 1.94511E-02-3.25093E-04-2.86072E-01 9.24022E-14 1.17229E-13
 -1      1545 2.25481E+01 2.08424E-02-7.56127E-03-5.29588E-01 1.40991E-13 8.16274E-14
 -1      1546 2.40308E+01 1.34642E-03-9.60386E-04-3.28210E-01-5.17227E-14-6.76854E-14
 -1      1547 2.35823E+01 1.29218E-02-5.76325E-04-3.16257E-01-1.35474E-14-1.46855E-13
 -1      1548 2.32114E+01 1.32988E-02-6.73179E-03-5.97210E-01 6.45356E-14-9.45841E-14
 -1      1549 2.48460E+01-1.21451E-02 4.25556E-03-3.15079E-01-3.89155E-14 1.16469E-13
 -1      1550 2.43950E+01-3.47106E-03-3.19949E-05-3.13836E-01-9.28012E-14-4.25285E-14
 -1      1551 2.39193E+01-5.64471E-03-3.00381E-03-6.15531E-01-1.01651E-13-1.88396E-13
 -1      1552 2.55254E+01-3.40425E-02 1.43394E-02-2.28987E-01-2.90089E-14 1.79402E-13
 -1      1553 2.51583E+01-3.39107E-02 2.38331E-03-2.49396E-01-3.82073E-15 1.36991E-13
 -1      1554 2.45939E+01-4.15372E-02 5.43600E-03-5.34228E-01-7.21576E-14-1.24784E-13
 -1      1555 2.58472E+01-6.15201E-02 2.87204E-02-3.54335E-02 9.82981E-14 1.49811E-13
 -1      1556 2.56994E+01-7.84495E-02 7.62144E-03-8.99406E-02 1.48978E-14 2.23623E-13
 -1      1557 2.51046E+01-9.62356E-02 1.94428E-02-2.91686E-01-2.60642E-14 3.31514E-14
 -1      1558 2.55463E+01-8.19003E-02 4.08290E-02 2.73676E-01 1.27346E-14-1.87211E-14
 -1      1559 2.57793E+01-1.25009E-01 1.47682E-02 1.79900E-01 1.14969E-13 1.39173E-13
 -1      1560 2.52719E+01-1.58016E-01 3.62165E-02 1.54776E-01 1.49828E-13 1.73969E-13
 -1      1561 2.44379E+01-7.10941E-02 3.58004E-02 6.32097E-01-8.28539E-14 5.06539E-14
 -1      1562 2.51603E+01-1.42417E-01 1.83041E-02 5.17285E-01-1.05712E-13-6.28941E-14
 -1      1563 2.49135E+01-1.89732E-01 4.61535E-02 7.63033E-01-4.15570E-14 1.00156E-13
 -1      1564 2.26344E+01-9.26759E-03-9.11756E-04 8.66675E-01 1.12879E-13-2.98372E-14
 -1      1565 2.37663E+01-9.06668E-02 8.45021E-03 7.83575E-01 7.87408E-14 9.49379E-14
 -1      1566 2.39599E+01-1.33499E-01 3.47602E-02 1.32816E+00 2.53374E-14 4.97172E-14
 -1      1567 2.07188E+01 8.50242E-02-6.03140E-02 7.64068E-01-6.07014E-14-2.08125E-13
 -1      1568 2.18920E+01 3.71487E-02-1.90019E-02 7.78135E-01 1.41900E-15-1.78538E-13
 -1      1569 2.26180E+01 4.27460E-02-2.08847E-03 1.49651E+00 1.10193E-13-9.44314E-14
 -1      1570 1.95845E+01 1.48037E-01-1.01705E-01 2.67505E-01-1.21833E-13 9.74706E-14
 -1      1571 2.02560E+01 1.75962E-01-4.98844E-02 3.97048E-01-1.69999E-13-1.03431E-13
 -1      1572 2.14280E+01 2.67014E-01-4.48949E-02 9.95282E-01-2.08500E-13-1.13836E-13
 -1      1573 1.98688E+01 1.23915E-01-8.58283E-02-3.87044E-01-2.32731E-14 2.79908E-13
 -1      1574 1.96692E+01 2.24215E-01-5.76920E-02-2.09323E-01-7.28584E-15 2.74157E-13
 -1      1575 2.10121E+01 3.78937E-01-6.21215E-02-4.28178E-02-1.47316E-13 1.37464E-13
 -1      1576 2.14115E+01 3.53145E-02-2.25179E-02-8.18267E-01-6.56419E-14 3.50095E-13
 -1      1577 2.04528E+01 1.46750E-01-3.21008E-02-6.95468E-01-5.16080E-15 3.55563E-13
 -1      1578 2.16072E+01 2.69572E-01-4.60716E-02-1.05309E+00-8.06993E-15 3.37428E-13
 -1      1579 2.33912E+01-4.68304E-02 3.81547E-02-8.40224E-01-1.12468E-13 5.41123E-13
 -1      1580 2.21715E+01 1.51412E-02 7.13731E-03-8.19917E-01-8.96392E-14 4.50459E-13
 -1      1581 2.28600E+01 2.90728E-02-1.62780E-02-1.49677E+00-1.55148E-13 3.20202E-13
 -1      1582 2.49707E+01-8.03709E-02 6.14284E-02-5.59946E-01 1.66360E-13 2.98969E-13
 -1      1583 2.39925E+01-8.04558E-02 3.21138E-02-6.15430E-01 9.72451E-14 4.98240E-13
 -1      1584 2.41379E+01-1.63693E-01 5.71304E-03-1.28430E+00 8.88439E-14 2.77063E-13
 -1      1585 2.57513E+01-7.15344E-02 5.18216E-02-1.98158E-01 1.96117E-13-2.00687E-13
 -1      1586 2.52542E+01-1.08663E-01 3.40017E-02-2.76341E-01 1.73885E-13 1.10134E-13
 -1      1587 2.49688E+01-2.23170E-01 1.39570E-02-7.07616E-01 3.04080E-13 5.09072E-14
 -1      1588 2.57665E+01-4.56849E-02 2.96477E-02 9.17928E-02-1.24802E-13-3.10616E-13
 -1      1589 2.57292E+01-9.02079E-02 2.23890E-02 2.68296E-02-7.38264E-14-2.79330E-13
 -1      1590 2.52102E+01-1.82322E-01 1.31970E-02-1.08634E-01 7.30041E-14 7.91385E-14
 -1      1591 2.52565E+01-2.09743E-02 1.01670E-02 2.62967E-01-3.80221E-14-2.04434E-13
 -1      1592 2.55321E+01-5.62140E-02 8.94391E-03 2.22595E-01-5.23956E-14-2.26470E-13
 -1      1593 2.49572E+01-1.08178E-01 9.13329E-03 3.24366E-01-1.05837E-13-1.18025E-13
 -1      1594 2.44793E+01-4.12713E-03-1.57874E-03 3.32609E-01-6.37700E-14 2.21684E-13
 -1      1595 2.49112E+01-2.58791E-02-1.84419E-04 3.13721E-01-6.28139E-14 1.76525E-14
 -1      1596 2.43927E+01-4.36371E-02 5.26792E-03 5.57334E-01-1.57819E-13 1.00749E-13
 -1      1597 2.36261E+01 5.05577E-03-6.69510E-03 3.36771E-01-3.53475E-14 3.09742E-13
 -1      1598 2.41002E+01-5.40620E-03-4.33401E-03 3.32031E-01 6.80992E-14 3.19085E-13
 -1      1599 2.36869E+01-2.06074E-03 2.61642E-03 6.34541E-01-1.85384E-14 4.71223E-13
 -1      1600 2.28106E+01 8.95824E-03-7.82270E-03 3.06792E-01 1.23145E-13 1.27566E-13
 -1      1601 2.32607E+01 5.97196E-03-5.16730E-03 3.09747E-01 2.10856E-14 1.13937E-13
 -1      1602 2.29603E+01 1.92948E-02 1.07828E-03 6.16159E-01 7.64573E-14 2.12815E-13
 -1      1603 2.20879E+01 9.88345E-03-7.10518E-03 2.63301E-01 3.13465E-15-2.33973E-13
 -1      1604 2.24835E+01 1.10884E-02-4.42624E-03 2.69660E-01 4.63854E-14-1.48182E-13
 -1      1605 2.22837E+01 2.73841E-02 2.70050E-04 5.50256E-01 1.06783E-13-2.03291E-13
 -1      1606 2.14767E+01 9.47406E-03-5.83145E-03 2.17508E-01 1.51220E-13-3.12267E-13
 -1      1607 2.18085E+01 1.26557E-02-3.22935E-03 2.24909E-01 5.47383E-14-2.24319E-13
 -1      1608 2.16904E+01 2.83268E-02-1.55645E-04 4.67218E-01 6.68372E-14-3.77648E-13
 -1      1609 2.09775E+01 8.73677E-03-4.69005E-03 1.74101E-01 1.91814E-13-7.46603E-13
 -1      1610 2.12465E+01 1.26671E-02-2.13593E-03 1.81548E-01 1.42813E-13-4.75969E-13
 -1      1611 2.11912E+01 2.62943E-02-4.59951E-04 3.82806E-01 3.50065E-13-6.17626E-13
 -1      1612 2.05844E+01 8.28960E-03-4.09871E-03 1.33766E-01 4.69421E-14-1.00309E-12
 -1      1613 2.07945E+01 1.24639E-02-1.41069E-03 1.41159E-01 1.65670E-13-7.55941E-13
 -1      1614 2.07858E+01 2.37949E-02-8.76838E-04 3.02857E-01 2.67290E-13-6.17075E-13
 -1      1615 2.02926E+01 8.57938E-03-4.18156E-03 9.45527E-02-1.33038E-13-8.90859E-13
 -1      1616 2.04465E+01 1.30378E-02-1.21083E-03 1.02549E-01-6.87172E-14-9.17483E-13
 -1      1617 2.04697E+01 2.24529E-02-1.62252E-03 2.26991E-01 2.81797E-14-4.11587E-13
 -1      1618 2.01025E+01 9.67257E-03-3.91871E-03 5.30201E-02 8.79229E-14-9.51125E-13
 -1      1619 2.01983E+01 1.48988E-02-1.32725E-03 6.30732E-02 6.13984E-15-8.66817E-13
 -1      1620 2.02388E+01 2.34859E-02-2.50383E-03 1.51188E-01-5.73161E-14-4.27475E-13
 -1      1621 2.00166E+01 9.94271E-03 1.37093E-03 1.15812E-02-8.96316E-14-1.05952E-12
 -1      1622 2.00495E+01 1.54200E-02-4.75966E-04 2.22689E-02-2.45760E-14-1.08168E-12
 -1      1623 2.00886E+01 2.43098E-02-2.61430E-03 7.19441E-02 5.90625E-14-8.11975E-13
 -1      1624 1.99979E+01 2.12859E-03 3.77339E-03-4.05033E-03-6.69804E-13-6.75896E-13
 -1      1625 2.00160E+01 7.68556E-02-2.30261E-03 4.20252E-02-7.90899E-13 1.00543E-13
 -1      1626 2.00169E+01 3.85852E-02 1.20714E-03 3.12308E-02-8.32458E-13-1.46854E-13
 -1      1627 2.00108E+01 2.33719E-01-1.67445E-03 8.23884E-02-4.96147E-13 2.31856E-13
 -1      1628 2.00144E+01 1.43898E-01-1.56269E-03 7.51814E-02-7.59151E-13 3.94857E-14
 -1      1629 2.00305E+01 1.46242E-01-2.86808E-03 1.15927E-01-2.65504E-13 7.64764E-14
 -1      1630 2.00032E+01 4.44557E-01-6.48993E-04 1.05655E-01-4.19475E-13 1.48659E-13
 -1      1631 2.00077E+01 3.23309E-01-1.13768E-03 1.02565E-01-5.20329E-13 1.18678E-13
 -1      1632 2.00168E+01 3.02564E-01-2.50162E-03 1.79850E-01-2.31622E-13 2.47865E-13
 -1      1633 1.99961E+01 6.72717E-01 3.87809E-05 1.08822E-01-3.82705E-13-9.43812E-14
 -1      1634 2.00002E+01 5.44219E-01-4.29449E-04 1.09819E-01-4.54977E-13 2.22395E-13
 -1      1635 2.00039E+01 4.91882E-01-3.67181E-04 2.08589E-01-5.10275E-13 9.82833E-14
 -1      1636 1.99904E+01 8.77383E-01 3.22720E-04 9.42861E-02-8.53038E-13-2.19940E-13
 -1      1637 1.99937E+01 7.65382E-01-2.93323E-05 9.84483E-02-4.29197E-13-4.30134E-13
 -1      1638 1.99922E+01 6.83762E-01 1.64611E-03 2.00362E-01-4.97750E-13-4.80854E-13
 -1      1639 1.99866E+01 1.03473E+00 4.04838E-04 6.56433E-02-5.44919E-13 2.67588E-13
 -1      1640 1.99888E+01 9.52874E-01 1.88139E-04 7.22303E-02-7.95448E-13 1.02640E-13
 -1      1641 1.99834E+01 8.51047E-01 3.20148E-03 1.60930E-01-2.84241E-13-1.25182E-13
 -1      1642 1.99849E+01 1.11909E+00 3.61714E-04 2.83355E-02-1.54701E-13 7.41709E-14
 -1      1643 1.99858E+01 1.08052E+00 2.47833E-04 3.61278E-02-3.95652E-13 2.83358E-13
 -1      1644 1.99777E+01 9.71233E-01 4.19628E-03 9.83462E-02-3.19987E-13 4.24630E-13
 -1      1645 1.99854E+01 1.12068E+00 2.69291E-04-1.18680E-02 2.07025E-13 1.60588E-13
 -1      1646 1.99849E+01 1.12965E+00 2.58866E-04-3.99234E-03-9.47726E-14 2.79779E-13
 -1      1647 1.99755E+01 1.02686E+00 4.54951E-03 2.34767E-02 9.28956E-14 2.24402E-13
 -1      1648 1.99877E+01 1.04131E+00 1.53630E-04-4.94284E-02 3.34942E-13-2.06178E-14
 -1      1649 1.99861E+01 1.09540E+00 2.50692E-04-4.25038E-02 1.98215E-13 6.32764E-14
 -1      1650 1.99768E+01 1.01184E+00 4.28775E-03-5.26751E-02 2.18456E-13 1.16468E-13
 -1      1651 1.99915E+01 8.93549E-01 1.91543E-05-7.95199E-02-1.83109E-14-3.70478E-13
 -1      1652 1.99890E+01 9.84380E-01 2.43470E-04-7.44129E-02 3.22594E-13-2.07335E-13
 -1      1653 1.99810E+01 9.29846E-01 3.48474E-03-1.19905E-01 9.08857E-14-1.81245E-13
 -1      1654 1.99963E+01 7.02200E-01-1.31085E-04-9.81333E-02-3.47173E-13-3.21612E-14
 -1      1655 1.99932E+01 8.14625E-01 1.67507E-04-9.55101E-02-5.51907E-14-3.64943E-13
 -1      1656 1.99878E+01 7.94470E-01 2.30395E-03-1.69372E-01 1.17944E-13-5.02609E-13
 -1      1657 2.00020E+01 4.87859E-01-4.40391E-04-1.03158E-01 2.72898E-14 2.76959E-13
 -1      1658 1.99984E+01 6.09323E-01-4.10942E-05-1.03346E-01-3.51641E-13 4.47765E-13
 -1      1659 1.99961E+01 6.23655E-01 7.88162E-04-1.95141E-01 1.16507E-13 2.93087E-13
 -1      1660 2.00077E+01 2.84921E-01-1.04994E-03-9.26120E-02 1.13767E-13-1.67396E-13
 -1      1661 2.00043E+01 3.94986E-01-5.33956E-04-9.58728E-02 1.21798E-13 4.69121E-14
 -1      1662 2.00059E+01 4.38593E-01-9.02035E-04-1.93021E-01 2.50086E-14 2.25455E-13
 -1      1663 2.00143E+01 1.27544E-01-3.25471E-04-6.65002E-02-1.04898E-13-1.86231E-13
 -1      1664 2.00095E+01 2.05265E-01-1.40000E-03-7.31030E-02 7.69484E-14-1.01801E-13
 -1      1665 2.00160E+01 2.66073E-01-2.42288E-03-1.60637E-01 1.12178E-14-2.25958E-13
 -1      1666 2.00237E+01 5.07340E-02 1.88302E-03-4.36586E-02-2.51193E-13-2.80965E-13
 -1      1667 2.00224E+01 8.59618E-02-1.21038E-03-5.71755E-02-3.84738E-14-2.77403E-13
 -1      1668 2.00379E+01 1.46663E-01-1.69151E-03-1.23372E-01-1.24333E-13-2.81320E-13
 -1      1669 2.00666E+01 7.09383E-02 7.36556E-04-8.86286E-02-1.08710E-13-2.14648E-13
 -1      1670-6.55372E-01-1.48070E+01-1.69670E+00-1.10524E+00 6.43374E-13 3.99514E-13
 -1      1671-6.03516E-01-1.66163E+01-1.84159E+00 1.68353E-01 1.37113E-13 2.90684E-13
 -1      1672 1.07509E+00-8.77610E+00-1.30226E+00 1.05637E-01 8.56426E-13 4.73954E-13
 -1      1673 4.60641E-01-1.35969E+01-1.75022E+00-3.12262E-01 8.24230E-13 2.65121E-13
 -1      1674 6.18983E+00-1.12368E+00-7.09194E-01 3.96685E+00 1.02585E-12 7.15317E-13
 -1      1675 3.27057E+00-6.73659E+00-1.44388E+00 1.14570E+00 8.15570E-13 6.82399E-13
 -1      1676 1.77401E+01 3.68720E+00 1.20543E-01 9.13625E+00 6.19615E-13 2.61680E-13
 -1      1677 1.12858E+01 2.02404E-01-7.34285E-01 5.51130E+00 9.31255E-13 4.17888E-13
 -1      1678 3.23374E+01 5.59016E+00 9.35936E-01 1.17017E+01 1.75526E-13 6.03961E-14
 -1      1679 2.29310E+01 4.92497E+00 1.80495E-02 9.57437E+00 4.94271E-13 2.79554E-13
 -1      1680 4.61983E+01 5.03617E+00 1.63902E+00 1.03512E+01-3.18634E-14 4.14113E-14
 -1      1681 3.73144E+01 6.38308E+00 8.88990E-01 1.16849E+01-5.23470E-14 6.50591E-14
 -1      1682 5.52935E+01 3.60028E+00 2.03626E+00 4.29857E+00 4.38538E-14-1.42553E-13
 -1      1683 5.01363E+01 4.88856E+00 1.63913E+00 8.89287E+00-7.42462E-15-8.49321E-14
 -1      1684 5.51718E+01 3.81036E+00 1.92701E+00-4.42409E+00 2.35922E-14-1.20015E-13
 -1      1685 5.64770E+01 3.50893E+00 2.05241E+00 1.55681E+00-2.65343E-14-1.02723E-13
 -1      1686 4.57274E+01 5.54241E+00 1.31260E+00-1.01730E+01 6.67383E-14-5.06262E-14
 -1      1687 5.25531E+01 4.09542E+00 1.89201E+00-6.66224E+00 5.31242E-14 2.09832E-14
 -1      1688 3.18374E+01 5.90265E+00 5.17747E-01-1.06998E+01 2.55629E-13-1.94067E-13
 -1      1689 4.11754E+01 5.02722E+00 1.25391E+00-1.06104E+01 1.45078E-13-4.59632E-14
 -1      1690 1.76659E+01 4.58110E+00-2.54931E-01-8.78837E+00 4.84279E-13-4.63407E-13
 -1      1691 2.61097E+01 5.94628E+00 6.05455E-01-1.17072E+01 3.74700E-13-3.38396E-13
 -1      1692 7.88418E+00-1.07619E+00-9.48368E-01-4.10258E+00 7.12319E-13-3.72813E-13
 -1      1693 1.29762E+01 3.21227E+00-1.19341E-01-7.68030E+00 5.59552E-13-5.62661E-13
 -1      1694 2.61113E+00-8.91731E+00-1.46974E+00-7.54478E-01 8.07687E-13-3.80029E-13
 -1      1695 4.79147E+00-3.33308E+00-8.20446E-01-2.93203E+00 7.73603E-13-3.72702E-13
 -1      1696-6.66861E-02-1.50692E+01-1.84297E+00 4.73953E-01 5.87974E-13-2.76001E-13
 -1      1697 1.42695E-01-1.08981E+01-1.47153E+00 7.06977E-01 7.96252E-13-3.83318E-13
 -1      1698-6.80339E-01-1.63879E+01-1.77046E+00-3.80698E-01-1.77032E-13-3.88384E-13
 -1      1699-7.22694E-01-1.56736E+01-1.74091E+00 1.03923E+00 4.20330E-13-4.76286E-13
 -1      1700-2.44242E-01-1.30195E+01-1.49524E+00-5.50355E-01-4.74065E-13-1.27620E-13
 -1      1701-3.48460E-01-1.57739E+01-1.73758E+00 3.38272E-01-2.77667E-13-1.80744E-13
 -1      1702 1.76485E+00-6.84043E+00-1.12192E+00 8.38479E-01-6.28497E-13-3.39589E-13
 -1      1703 8.94866E-01-1.19093E+01-1.64259E+00-7.56218E-03-5.36904E-13-1.81459E-13
 -1      1704 7.94457E+00 3.14329E-01-4.54956E-01 5.20614E+00-7.02549E-13-5.36904E-13
 -1      1705 4.58762E+00-4.88495E+00-1.19705E+00 2.23422E+00-6.53810E-13-4.15501E-13
 -1      1706 1.76693E+01 5.14528E+00 2.04720E-01 9.81653E+00-6.23723E-13-6.46039E-13
 -1      1707 1.15346E+01 2.26945E+00-5.83480E-01 6.44637E+00-7.27196E-13-5.63216E-13
 -1      1708 3.16980E+01 5.85280E+00 8.93049E-01 1.18333E+01-4.25326E-13-2.22600E-13
 -1      1709 2.31691E+01 5.50466E+00 1.42087E-01 1.00172E+01-6.41820E-13-4.86278E-13
 -1      1710 4.48045E+01 5.18794E+00 1.49919E+00 1.07172E+01-2.08972E-13-2.38476E-13
 -1      1711 3.64022E+01 6.80037E+00 8.97682E-01 1.22033E+01-2.34146E-13-3.84581E-13
 -1      1712 5.20784E+01 3.80046E+00 1.57281E+00 3.74435E+00-7.54952E-15-2.78333E-13
 -1      1713 4.74464E+01 5.11544E+00 1.33458E+00 8.33133E+00-1.17253E-13-2.14495E-13
 -1      1714 5.15517E+01 4.26450E+00 1.48816E+00-4.17822E+00 9.47020E-14-3.49165E-13
 -1      1715 5.26014E+01 3.94139E+00 1.53071E+00 1.39105E+00-8.16014E-15-2.78069E-13
 -1      1716 4.46146E+01 5.65968E+00 1.23562E+00-1.02944E+01 1.85837E-13-3.76588E-13
 -1      1717 5.07640E+01 4.04155E+00 1.62175E+00-6.68587E+00 1.22125E-13-2.09943E-13
 -1      1718 3.17726E+01 6.55921E+00 6.13250E-01-1.15696E+01 3.13416E-13-4.08340E-13
 -1      1719 4.06208E+01 5.51564E+00 1.28819E+00-1.13449E+01 2.99483E-13-3.51497E-13
 -1      1720 1.88072E+01 5.40221E+00-6.86109E-02-9.52805E+00 1.39111E-13-3.96350E-13
 -1      1721 2.66703E+01 6.50238E+00 7.38295E-01-1.20843E+01 1.51990E-13-5.16476E-13
 -1      1722 9.26110E+00-3.49476E-01-7.67921E-01-4.90808E+00-1.07581E-13-2.30926E-14
 -1      1723 1.47371E+01 3.60194E+00 4.80146E-02-8.45860E+00 5.16254E-14-3.92575E-13
 -1      1724 2.89562E+00-7.15174E+00-1.38769E+00-1.15635E+00-4.83280E-13 1.93734E-14
 -1      1725 5.13800E+00-1.92337E+00-7.19965E-01-3.44352E+00-2.10942E-13-4.14668E-14
 -1      1726 3.32240E-01-1.37453E+01-1.76673E+00 2.42346E-01-1.84297E-13 3.11737E-13
 -1      1727 8.37537E-01-9.14982E+00-1.31960E+00-2.92452E-02-4.91385E-13 3.18412E-13
 -1      1728-5.96780E-01-1.68491E+01-1.88087E+00-3.88231E-01-6.91114E-15 1.26343E-13
 -1      1729-5.98242E-01-1.49926E+01-1.71603E+00 8.82544E-01-1.56986E-13 8.89844E-14
 -1      1730 2.52199E+01-4.14123E-01 2.10356E-01 6.55876E+00 4.97269E-13-1.56541E-13
 -1      1731 1.42948E+01-3.71864E+00-3.28991E-01 6.22647E+00 4.88054E-13 2.03060E-13
 -1      1732 2.00158E+01 1.05483E-02-1.57970E-04 9.97968E-03-8.73665E-13-6.83575E-13
 -1      1733 2.00397E+01 5.62923E-02-2.03794E-04 5.31482E-02-2.59524E-13-2.77499E-13
 -1      1734 3.36455E-01-1.03050E+01-1.20220E+00 2.03212E+00 3.83082E-13 3.62321E-13
 -1      1735 5.29017E+00-7.56285E+00-9.39647E-01 4.10048E+00 5.89861E-13 4.95895E-13
 -1      1736-1.35163E+00-1.15190E+01-1.33126E+00-1.26838E-01 4.62755E-14 4.12281E-13
 -1      1737 3.51183E+01 3.43324E+00 7.58980E-01 5.92222E+00 2.02449E-13 1.24123E-13
 -1      1738 4.36469E+01 6.12833E+00 1.34626E+00 4.47258E+00 3.50275E-14 5.83977E-14
 -1      1739 4.84157E+01 7.13966E+00 1.68823E+00 1.27969E+00 3.17524E-14-1.75415E-13
 -1      1740 4.69730E+01 7.02147E+00 1.56664E+00-2.31175E+00-1.88183E-14-6.16729E-14
 -1      1741 4.01805E+01 5.03590E+00 9.75872E-01-4.29184E+00 1.69309E-13-7.81597E-14
 -1      1742 3.16050E+01 2.56158E+00 6.62941E-01-6.51633E+00 3.32345E-13-5.11813E-14
 -1      1743 2.05504E+01-5.69201E-01 1.82998E-03-7.06315E+00 2.39253E-13-1.28231E-13
 -1      1744 1.11021E+01-4.84500E+00-5.83597E-01-5.63762E+00 4.40203E-13-1.37945E-13
 -1      1745 3.82020E+00-8.45235E+00-9.75143E-01-3.71968E+00 3.40061E-13-2.79762E-13
 -1      1746-5.22150E-01-1.09381E+01-1.28238E+00-1.30691E+00 1.41553E-13-5.21194E-13
 -1      1747-1.15048E+00-1.08145E+01-1.22503E+00 8.17631E-01-9.39526E-14-5.02820E-13
 -1      1748 1.23736E+00-9.52003E+00-1.12427E+00 2.83812E+00-3.63043E-13-2.27873E-13
 -1      1749 6.79456E+00-6.51459E+00-7.81905E-01 4.89939E+00-3.59712E-13-3.54550E-13
 -1      1750 1.48652E+01-2.49985E+00-2.79161E-01 6.61610E+00-3.86025E-13-3.71925E-13
 -1      1751 2.49654E+01 1.03112E+00 3.41202E-01 7.29265E+00-4.16445E-13-1.55542E-13
 -1      1752 3.42962E+01 3.76887E+00 6.95548E-01 6.43430E+00-3.26017E-13-5.92859E-14
 -1      1753 4.19124E+01 6.45263E+00 1.24696E+00 4.55689E+00-1.78385E-13-8.40439E-14
 -1      1754 4.43820E+01 7.79454E+00 1.30350E+00 9.81489E-01-7.53286E-14-2.48357E-13
 -1      1755 4.42839E+01 7.41156E+00 1.33504E+00-2.34874E+00-9.82547E-15-1.90958E-14
 -1      1756 3.97791E+01 5.67588E+00 1.11119E+00-5.22606E+00 2.43083E-13-1.41442E-13
 -1      1757 3.13826E+01 3.36523E+00 6.86326E-01-7.16035E+00 1.32838E-13-2.65565E-13
 -1      1758 2.15218E+01-1.36634E-01 8.64853E-02-7.27082E+00-1.20237E-13-3.46723E-13
 -1      1759 1.23218E+01-3.92271E+00-3.99783E-01-6.18979E+00-1.93401E-13-1.55320E-13
 -1      1760 4.60190E+00-7.67460E+00-9.28557E-01-4.08825E+00-1.46883E-13-4.49085E-14
 -1      1761 1.29730E-01-1.05972E+01-1.25457E+00-2.11329E+00-2.16493E-14 2.93376E-13
 -1      1762 2.28464E+01 1.98452E+00-2.35888E-02-2.72327E+00-5.64722E-14 8.78186E-14
 -1      1763 1.98240E+01 3.71349E+00-3.53582E-02-2.15488E+00-3.69167E-14-1.14415E-13
 -1      1764 2.00541E+01 3.56239E+00-4.02455E-02-2.44706E+00-5.94733E-14-1.12126E-13
 -1      1765 2.03571E+01 3.18115E+00-4.57797E-02-2.58666E+00-7.03686E-14-9.04971E-14
 -1      1766 2.05749E+01 2.80938E+00-1.42525E-01-2.85482E+00-7.65742E-14-6.24223E-14
 -1      1767 2.04191E+01 2.69304E+00-4.10399E-03-2.22620E+00-6.79957E-14-9.48061E-14
 -1      1768 1.93602E+01 4.18963E+00-2.00286E-02-1.27176E+00 1.07134E-14-1.11669E-13
 -1      1769 1.94324E+01 4.14982E+00-1.69301E-02-1.49633E+00-5.82867E-16-1.16376E-13
 -1      1770 1.92660E+01 4.29600E+00-1.67636E-02-8.60380E-01 2.10968E-14-1.07197E-13
 -1      1771 1.93077E+01 4.27182E+00-1.42382E-02-1.07132E+00 1.16970E-14-1.15153E-13
 -1      1772 1.95332E+01 3.78427E+00-8.92141E-03-1.12039E+00 9.79533E-15-1.14452E-13
 -1      1773 1.92160E+01 4.35683E+00-1.48220E-02-4.67147E-01 4.28373E-14-8.92550E-14
 -1      1774 1.92373E+01 4.34381E+00-1.33218E-02-6.67620E-01 3.62119E-14-1.00852E-13
 -1      1775 1.94379E+01 3.90498E+00-9.15149E-03-7.33631E-01 3.06669E-14-1.03336E-13
 -1      1776 1.91971E+01 4.38268E+00-1.36934E-02-8.36483E-02 6.88942E-14-6.94288E-14
 -1      1777 1.92034E+01 4.37869E+00-1.32359E-02-2.79246E-01 5.50126E-14-8.35391E-14
 -1      1778 1.93889E+01 3.96986E+00-9.13736E-03-3.58432E-01 5.11805E-14-8.33344E-14
 -1      1779 1.92049E+01 4.37735E+00-1.31862E-02 2.98390E-01 8.29901E-14-4.59407E-14
 -1      1780 1.91976E+01 4.38186E+00-1.37728E-02 1.02644E-01 7.62805E-14-5.96970E-14
 -1      1781 1.93745E+01 3.98947E+00-9.11671E-03 1.06245E-02 7.78539E-14-6.05297E-14
 -1      1782 1.92412E+01 4.33984E+00-1.33404E-02 6.87433E-01 9.99260E-14-3.95135E-14
 -1      1783 1.92186E+01 4.35370E+00-1.49356E-02 4.86475E-01 9.29358E-14-4.25476E-14
 -1      1784 1.93915E+01 3.96659E+00-9.16357E-03 3.79826E-01 9.06310E-14-3.50102E-14
 -1      1785 1.93129E+01 4.26593E+00-1.44179E-02 1.08544E+00 1.07552E-13-2.55213E-14
 -1      1786 1.92705E+01 4.29065E+00-1.69859E-02 8.77310E-01 1.07166E-13-3.96697E-14
 -1      1787 1.94431E+01 3.89867E+00-9.17487E-03 7.52222E-01 1.10658E-13-3.23248E-14
 -1      1788 1.94418E+01 4.13814E+00-1.74085E-02 1.51580E+00 1.25620E-13 2.24057E-14
 -1      1789 1.93668E+01 4.18102E+00-2.05055E-02 1.28612E+00 1.11633E-13-3.26128E-15
 -1      1790 1.95407E+01 3.77420E+00-9.22512E-03 1.13629E+00 1.20791E-13-1.13815E-14
 -1      1791 1.96674E+01 3.92105E+00-2.51988E-02 1.98118E+00 1.35092E-13 6.73697E-14
 -1      1792 1.95365E+01 3.99812E+00-2.68912E-02 1.72375E+00 1.30770E-13 4.10193E-14
 -1      1793 1.97111E+01 3.56653E+00-8.69462E-03 1.53637E+00 1.33942E-13 3.92533E-14
 -1      1794 2.00718E+01 3.52237E+00-4.51880E-02 2.47372E+00 1.34396E-13 1.42594E-13
 -1      1795 1.98340E+01 3.68306E+00-3.96938E-02 2.18465E+00 1.31696E-13 9.61904E-14
 -1      1796 2.00037E+01 3.22294E+00-5.27135E-03 1.93603E+00 1.40356E-13 9.12482E-14
 -1      1797 2.09124E+01 2.68139E+00-5.76471E-02 2.85927E+00 1.08665E-13 2.52923E-13
 -1      1798 2.04074E+01 3.09656E+00-5.03918E-02 2.61766E+00 1.15396E-13 1.87191E-13
 -1      1799 2.05123E+01 2.60976E+00 3.18503E-03 2.24619E+00 1.31417E-13 1.54366E-13
 -1      1800 2.17195E+01 1.21291E+00-1.22070E-01 2.33111E+00 8.11989E-14 3.77490E-13
 -1      1801 2.12647E+01 2.26272E+00 1.26841E-04 2.74185E+00 9.58018E-14 2.95500E-13
 -1      1802 2.09285E+01 1.68490E+00-2.29693E-02 2.14180E+00 1.02659E-13 2.38188E-13
 -1      1803 2.09404E+01 7.78649E-01-6.24660E-02 1.52557E+00 8.22883E-14 3.46966E-13
 -1      1804 2.17861E+01 2.45788E+00 9.09302E-02-3.04942E+00-7.01418E-14 1.72085E-15
 -1      1805 2.00890E+01 2.97981E-01-8.92356E-03 6.58411E-01 5.40019E-14 2.80172E-13
 -1      1806 2.06415E+01 4.40433E-01-1.24617E-02 1.03541E+00 5.98202E-14 3.11752E-13
 -1      1807 2.07343E+01 8.45133E-01 2.25841E-03 1.41669E+00 7.82499E-14 2.37950E-13
 -1      1808 2.14974E+01 1.74224E+00 7.94332E-02-2.33860E+00-7.55160E-14-2.63886E-14
 -1      1809 2.05099E+01 5.00976E-01 3.24363E-02-9.22760E-01-5.26801E-14-4.03246E-14
 -1      1810 2.00779E+01 3.52106E-01 7.52572E-03-6.30650E-01-4.30159E-14-5.20825E-14
 -1      1811 1.98845E+01 2.56851E-01 2.74244E-02-3.92407E-01-4.60847E-14-4.62443E-14
 -1      1812 1.96930E+01 1.77936E-01 1.03653E-02-2.54998E-01-5.50168E-14-5.82269E-14
 -1      1813 2.01904E+01 4.81399E-01-6.71052E-03-7.23425E-01-4.30576E-14-5.41468E-14
 -1      1814 1.95709E+01 1.33532E-01 1.66658E-02-1.20734E-01-6.09690E-14-3.77693E-14
 -1      1815 1.94929E+01 9.39778E-02 7.00099E-03-4.94633E-02-2.97323E-14-4.62070E-14
 -1      1816 1.98650E+01 2.43695E-01-6.24884E-03-2.96686E-01-5.50549E-14-5.03625E-14
 -1      1817 1.94289E+01 6.94083E-02 8.74248E-03 2.48551E-02-8.26552E-15-4.82279E-14
 -1      1818 1.94151E+01 4.80031E-02 4.23634E-03 6.17363E-02-6.47551E-15-5.64832E-14
 -1      1819 1.96835E+01 1.26662E-01-4.72475E-03-5.82462E-02-2.84152E-14-5.39614E-14
 -1      1820 1.93905E+01 3.39737E-02 4.33262E-03 1.01665E-01 7.40066E-15-3.60276E-14
 -1      1821 1.94118E+01 2.19905E-02 2.62017E-03 1.19539E-01 1.64141E-14-2.70121E-14
 -1      1822 1.95993E+01 6.31005E-02-3.52969E-03 7.36128E-02 2.15203E-15-3.99354E-14
 -1      1823 1.94125E+01 1.38352E-02 1.97456E-03 1.39372E-01-1.14807E-14-3.31173E-14
 -1      1824 1.94525E+01 7.31645E-03 1.71606E-03 1.46520E-01-1.24575E-16-4.27479E-14
 -1      1825 1.95787E+01 2.74917E-02-2.46345E-03 1.43584E-01 1.02386E-14-2.47342E-14
 -1      1826 1.94688E+01 2.77857E-03 7.13651E-04 1.54794E-01-2.38336E-14-4.07188E-14
 -1      1827 1.95180E+01-3.10945E-04 1.21503E-03 1.56154E-01-2.26357E-14-2.21229E-14
 -1      1828 1.95983E+01 7.80930E-03-1.62538E-03 1.77363E-01-4.36267E-15-2.30817E-14
 -1      1829 1.95437E+01-2.43846E-03 4.61766E-05 1.58311E-01-6.65615E-14-3.02032E-16
 -1      1830 1.95971E+01-3.22545E-03 9.67522E-04 1.57094E-01-4.12930E-14 8.61927E-16
 -1      1831 1.96424E+01-1.97221E-03-1.05074E-03 1.90755E-01-2.56592E-14-5.55721E-14
 -1      1832 1.96285E+01-3.65686E-03-2.73333E-04 1.56819E-01-1.26901E-14-3.91920E-14
 -1      1833 1.96836E+01-2.81465E-03 9.02916E-04 1.55244E-01-1.47466E-14-7.26291E-14
 -1      1834 1.97011E+01-5.12831E-03-7.04051E-04 1.94131E-01-7.45404E-14-4.01489E-14
 -1      1835 1.97189E+01-2.00442E-03-3.74694E-04 1.55148E-01-2.93115E-14-9.70826E-14
 -1      1836 1.97753E+01 4.29046E-05 9.81604E-04 1.54821E-01-2.57754E-14-1.13428E-13
 -1      1837 1.97692E+01-3.60510E-03-5.34303E-04 1.94660E-01-4.40650E-14-7.17031E-14
 -1      1838 1.98140E+01 1.78828E-03-3.35375E-04 1.56819E-01-3.61361E-14-1.39893E-13
 -1      1839 1.98728E+01 4.75801E-03 1.17575E-03 1.58944E-01-2.05784E-14-1.17729E-13
 -1      1840 1.98443E+01 1.36520E-03-4.97097E-04 1.97495E-01-3.96718E-14-1.09358E-13
 -1      1841 1.99154E+01 7.21276E-03-2.06694E-04 1.64471E-01-4.24167E-15-1.37591E-13
 -1      1842 1.99785E+01 1.08913E-02 1.46035E-03 1.69960E-01-3.73930E-15-1.37121E-13
 -1      1843 1.99265E+01 8.94615E-03-5.57744E-04 2.06451E-01-2.33588E-14-1.19366E-13
 -1      1844 2.00261E+01 1.38577E-02-2.58906E-05 1.80081E-01-2.31869E-14-1.51199E-13
 -1      1845 2.00961E+01 1.80377E-02 1.80647E-03 1.89596E-01-6.35023E-14-9.80153E-14
 -1      1846 2.00176E+01 1.84891E-02-6.88852E-04 2.24369E-01-1.65979E-14-7.92994E-14
 -1      1847 2.01505E+01 2.12934E-02 1.77130E-04 2.05020E-01-1.11486E-13-1.11366E-13
 -1      1848 2.02306E+01 2.57046E-02 2.17367E-03 2.18941E-01-5.64040E-14-1.24076E-13
 -1      1849 2.01204E+01 2.93548E-02-8.67137E-04 2.53260E-01-6.28944E-14-1.40183E-13
 -1      1850 2.02937E+01 2.89400E-02 3.75344E-04 2.39940E-01-4.10140E-14-1.46646E-13
 -1      1851 2.03871E+01 3.31648E-02 2.50078E-03 2.58251E-01-6.12117E-14-1.45147E-13
 -1      1852 2.02389E+01 4.07200E-02-1.07061E-03 2.94240E-01-6.88533E-14-7.99192E-14
 -1      1853 2.04611E+01 3.59045E-02 5.41615E-04 2.84470E-01-7.45575E-14-1.58893E-13
 -1      1854 2.05705E+01 3.92695E-02 2.69512E-03 3.06545E-01-3.52634E-14-1.53122E-13
 -1      1855 2.03771E+01 5.13419E-02-1.27632E-03 3.47233E-01-5.15024E-14-1.51877E-14
 -1      1856 2.06572E+01 4.07741E-02 6.47274E-04 3.36673E-01-4.97052E-15-1.68918E-13
 -1      1857 2.07845E+01 4.22192E-02 2.62160E-03 3.60933E-01-1.90217E-14-1.91689E-13
 -1      1858 2.05390E+01 5.92618E-02-1.45864E-03 4.10413E-01-3.85720E-14-4.03363E-14
 -1      1859 2.08853E+01 4.13752E-02 6.62915E-04 3.92223E-01-4.25280E-14-2.09490E-13
 -1      1860 2.10302E+01 3.93197E-02 2.09662E-03 4.15655E-01-3.09908E-14-2.63718E-13
 -1      1861 2.07278E+01 6.14554E-02-1.58785E-03 4.79315E-01-3.79475E-14-1.20435E-13
 -1      1862 2.11457E+01 3.45480E-02 5.62094E-04 4.43287E-01 4.23583E-14-3.15658E-13
 -1      1863 2.13047E+01 2.68177E-02 8.96562E-04 4.60870E-01 4.19880E-14-3.16623E-13
 -1      1864 2.09454E+01 5.34952E-02-1.62802E-03 5.45626E-01 2.77724E-15-2.92798E-13
 -1      1865 2.14339E+01 1.60860E-02 3.27370E-04 4.77256E-01 1.29814E-14-2.91530E-13
 -1      1866 2.15987E+01 4.93746E-05-1.20064E-03 4.81423E-01 2.13112E-14-2.89297E-13
 -1      1867 2.11909E+01 2.94168E-02-1.53170E-03 5.95749E-01 4.11344E-14-2.73697E-13
 -1      1868 2.17384E+01-1.88361E-02-4.53471E-05 4.75718E-01 1.03969E-13-2.40526E-13
 -1      1869 2.18944E+01-4.56388E-02-4.31470E-03 4.56242E-01 8.00861E-14-1.74826E-13
 -1      1870 2.14595E+01-1.77743E-02-1.22669E-03 6.09503E-01 1.05785E-13-2.10794E-13
 -1      1871 2.20380E+01-7.41592E-02-5.55302E-04 4.14646E-01 9.16021E-15-1.15572E-13
 -1      1872 2.21630E+01-1.12473E-01-8.27298E-03 3.59683E-01 4.81737E-14-7.39959E-14
 -1      1873 2.17410E+01-9.41651E-02-5.90412E-04 5.59880E-01 5.67096E-14-9.29967E-14
 -1      1874 2.22992E+01-1.49558E-01-1.22214E-03 2.67637E-01 5.51338E-14-8.35146E-14
 -1      1875 2.23646E+01-1.95626E-01-1.23492E-02 1.67065E-01 6.44493E-14-1.07176E-13
 -1      1876 2.20168E+01-2.00466E-01 5.84291E-04 4.15607E-01 7.21662E-14-3.40160E-14
 -1      1877 2.24749E+01-2.34771E-01-2.15497E-03 1.48912E-02 5.71808E-14-1.75054E-13
 -1      1878 2.24502E+01-2.76670E-01-1.50335E-02-1.32969E-01-5.02445E-14-1.63788E-13
 -1      1879 2.22575E+01-3.24281E-01 2.56984E-03 1.49365E-01 3.38982E-14-1.98916E-13
 -1      1880 2.25084E+01-3.02917E-01-3.50804E-03-3.39839E-01-6.98556E-14-1.25287E-13
 -1      1881 2.23706E+01-3.18379E-01-1.41352E-02-5.18374E-01-6.56350E-14-9.48161E-14
 -1      1882 2.24200E+01-4.30795E-01 5.50885E-03-2.45341E-01-9.91394E-15-2.40365E-13
 -1      1883 2.23451E+01-3.08517E-01-5.38214E-03-7.45686E-01-5.57063E-14-1.01192E-13
 -1      1884 2.20936E+01-2.70161E-01-7.90398E-03-9.11212E-01 1.99632E-14-1.08197E-13
 -1      1885 2.24496E+01-4.58188E-01 8.95331E-03-7.28225E-01-7.78873E-14-9.07822E-14
 -1      1886 2.19627E+01-2.02626E-01-6.94795E-03-1.08796E+00 1.61828E-14-1.52268E-13
 -1      1887 2.16336E+01-9.59122E-02 3.10665E-03-1.17303E+00-1.43757E-14-7.54587E-14
 -1      1888 2.22951E+01-3.36478E-01 1.05565E-02-1.18588E+00-1.12974E-14-1.64455E-13
 -1      1889 2.14120E+01 2.89844E-02-6.06017E-03-1.20666E+00-1.09253E-13-1.34979E-13
 -1      1890 2.10810E+01 1.81319E-01 1.43058E-02-1.14617E+00-1.08929E-13-1.58391E-13
 -1      1891 2.19487E+01-3.44808E-02 7.42631E-03-1.43556E+00-1.02545E-13-2.17193E-13
 -1      1892 2.08432E+01 3.21661E-01-6.89215E-04-9.72480E-01-1.20545E-13-2.04144E-13
 -1      1893 2.06067E+01 4.54067E-01 1.91796E-02-7.50435E-01-1.24149E-13-2.08153E-13
 -1      1894 2.14951E+01 3.77169E-01-2.20496E-03-1.29290E+00-9.55030E-14-1.85079E-13
 -1      1895 2.04642E+01 5.40313E-01 8.77929E-03-3.94552E-01-1.23917E-13-2.44577E-13
 -1      1896 2.04002E+01 5.78686E-01 1.47253E-02-7.40637E-02-3.56971E-14-2.43774E-13
 -1      1897 2.11175E+01 7.25283E-01-1.35174E-02-7.03955E-01-1.43216E-13-1.74848E-13
 -1      1898 2.04332E+01 5.57596E-01 1.73429E-02 3.35029E-01 4.82947E-14-2.42238E-13
 -1      1899 2.05639E+01 4.77602E-01 4.92745E-03 6.31447E-01 2.23450E-14-1.11995E-13
 -1      1900 2.10085E+01 8.25222E-01-1.70336E-02 1.60386E-01 1.27606E-14-6.75554E-14
 -1      1901 2.07521E+01 3.62567E-01 1.84422E-02 9.29870E-01-8.43856E-15-1.76541E-13
 -1      1902 2.10311E+01 2.12763E-01-3.40205E-03 1.09463E+00 7.72381E-14-1.89437E-13
 -1      1903 2.12287E+01 6.16671E-01-9.70259E-03 9.57108E-01 5.41598E-14-9.07076E-14
 -1      1904 2.12725E+01 7.01536E-02 1.06236E-02 1.18761E+00 1.30304E-13-2.20003E-13
 -1      1905 2.16094E+01-7.13641E-02-6.87366E-03 1.18756E+00 7.39509E-14-1.94197E-13
 -1      1906 2.16542E+01 2.19317E-01 2.07878E-03 1.38680E+00 7.32311E-14-8.25221E-14
 -1      1907 2.17992E+01-1.77560E-01-1.30338E-03 1.08897E+00 5.30062E-14-1.95175E-13
 -1      1908 2.21013E+01-2.59309E-01-6.62263E-03 9.64257E-01-1.17614E-14-8.87450E-14
 -1      1909 2.20788E+01-1.68720E-01 9.45970E-03 1.36473E+00 9.07421E-14 9.91126E-14
 -1      1910 2.21884E+01-3.03955E-01-1.08959E-02 7.56754E-01-6.00405E-14 1.17462E-14
 -1      1911 2.23936E+01-3.19721E-01-4.84751E-03 5.78045E-01 5.45545E-14-3.26687E-14
 -1      1912 2.23506E+01-4.05952E-01 1.04724E-02 1.01076E+00 4.05231E-14 2.12765E-13
 -1      1913 2.23801E+01-3.13492E-01-1.50877E-02 3.49981E-01 1.75417E-13-9.44624E-14
 -1      1914 2.24670E+01-2.85424E-01-3.20851E-03 1.77483E-01 1.44170E-13 6.73274E-14
 -1      1915 2.24241E+01-4.66110E-01 7.74000E-03 5.21429E-01 1.01869E-13 1.72462E-13
 -1      1916 2.23807E+01-2.52249E-01-1.44021E-02-1.37103E-02 4.73597E-14-6.30663E-14
 -1      1917 2.23598E+01-2.06966E-01-2.01639E-03-1.46836E-01-1.63120E-14-1.49689E-14
 -1      1918 2.23287E+01-4.01662E-01 4.35116E-03 5.73591E-02 7.38658E-14-2.70005E-14
 -1      1919 2.22310E+01-1.67338E-01-1.09495E-02-2.78877E-01-5.94802E-14 1.91362E-15
 -1      1920 2.21297E+01-1.23250E-01-1.16393E-03-3.63806E-01-2.02893E-13-2.96826E-14
 -1      1921 2.21195E+01-2.83417E-01 1.75029E-03-2.96924E-01-5.62467E-14-5.72838E-15
 -1      1922 2.19821E+01-8.87256E-02-6.74088E-03-4.38008E-01-3.03298E-13 9.10340E-15
 -1      1923 2.18311E+01-5.42570E-02-4.95187E-04-4.80297E-01-1.63014E-13 4.32096E-14
 -1      1924 2.18482E+01-1.63201E-01 9.48755E-05-5.21124E-01-1.78539E-13 1.61171E-13
 -1      1925 2.16806E+01-2.88430E-02-2.99146E-03-5.08687E-01-3.76606E-14-7.19661E-14
 -1      1926 2.15069E+01-5.50761E-03 8.34661E-05-5.19276E-01 2.08831E-13-1.07700E-13
 -1      1927 2.15530E+01-6.63989E-02-8.76007E-04-6.31283E-01-1.35783E-13 9.91557E-14
 -1      1928 2.13632E+01 1.11492E-02-1.83722E-04-5.15936E-01 4.41290E-13-2.07891E-13
 -1      1929 2.11870E+01 2.52671E-02 6.12776E-04-5.05654E-01 3.76341E-13-3.74917E-15
 -1      1930 2.12597E+01 1.01722E-03-1.42321E-03-6.56500E-01 2.30121E-13 2.89042E-14
 -1      1931 2.10559E+01 3.53443E-02 1.64819E-03-4.82441E-01 2.38217E-13 8.96131E-14
 -1      1932 2.08910E+01 4.32747E-02 1.11637E-03-4.59561E-01 2.54422E-13 3.60918E-13
 -1      1933 2.09845E+01 4.32495E-02-1.71418E-03-6.25274E-01 4.20622E-13-1.43472E-13
 -1      1934 2.07756E+01 4.93347E-02 2.65787E-03-4.24691E-01 1.26341E-13 2.65118E-13
 -1      1935 2.06307E+01 5.40694E-02 1.60126E-03-3.94333E-01 1.77888E-13 1.81237E-13
 -1      1936 2.07369E+01 6.81378E-02-1.84389E-03-5.59587E-01 2.10082E-13-4.17082E-15
 -1      1937 2.05321E+01 5.84143E-02 3.01827E-03-3.52463E-01-7.48728E-14 1.47783E-13
 -1      1938 2.04125E+01 6.23820E-02 2.02175E-03-3.16916E-01-1.00137E-13 5.96921E-14
 -1      1939 2.05221E+01 8.37114E-02-1.85641E-03-4.73596E-01-3.35860E-14 9.15765E-14
 -1      1940 2.03306E+01 6.65462E-02 2.82236E-03-2.70023E-01 4.49629E-14-2.06401E-13
 -1      1941 2.02395E+01 7.08230E-02 2.26133E-03-2.29710E-01-6.52449E-14-1.84376E-13
 -1      1942 2.03420E+01 9.64604E-02-1.66441E-03-3.74678E-01-1.76475E-13 2.96678E-15
 -1      1943 2.01803E+01 7.25702E-02 2.42121E-03-1.81396E-01-3.83852E-14-2.73245E-13
 -1      1944 2.01171E+01 7.52569E-02 2.56029E-03-1.38763E-01-1.05608E-13-1.84158E-13
 -1      1945 2.01005E+01 1.03793E-01-1.41005E-03-1.64373E-01-1.91699E-13-2.89187E-13
 -1      1946 2.02021E+01 1.05358E-01-2.05243E-03-2.69173E-01-1.09798E-13-3.15026E-13
 -1      1947 1.96057E+01 1.42168E-01 7.88688E-03 2.60610E-01 8.71143E-14 2.09475E-13
 -1      1948 1.98783E+01 2.04183E-01 1.64471E-02 4.33647E-01 6.19522E-14 2.57230E-13
 -1      1949 2.00917E+01 3.50668E-01-1.53086E-03 6.56426E-01 7.65499E-14 1.90958E-13
 -1      1950 1.93633E+01 7.22337E-02 6.96423E-03 5.71793E-02 5.27261E-14 2.00276E-13
 -1      1951 1.94785E+01 1.02036E-01 1.42223E-02 1.45855E-01 6.35846E-14 2.07010E-13
 -1      1952 1.96989E+01 1.65483E-01-1.95928E-03 2.57269E-01 6.81443E-14 1.63038E-13
 -1      1953 1.92735E+01 3.67574E-02 4.46588E-03-4.91815E-02-3.36849E-14 1.95200E-13
 -1      1954 1.93035E+01 5.24485E-02 8.38194E-03-1.62618E-03 4.80041E-15 1.84727E-13
 -1      1955 1.94993E+01 8.13022E-02-2.85379E-03 4.44009E-02 1.97767E-14 1.43355E-13
 -1      1956 1.92738E+01 1.72684E-02 2.92738E-03-1.03254E-01-4.45306E-14 2.09341E-13
 -1      1957 1.92577E+01 2.59467E-02 4.42408E-03-7.79803E-02-3.15739E-14 2.10991E-13
 -1      1958 1.94218E+01 3.86057E-02-2.88838E-03-6.90753E-02-2.90013E-14 1.35237E-13
 -1      1959 1.93251E+01 6.27757E-03 2.09465E-03-1.27920E-01 1.11279E-14 1.86434E-13
 -1      1960 1.92848E+01 1.10579E-02 2.25767E-03-1.15395E-01-2.15084E-14 1.87770E-13
 -1      1961 1.94186E+01 1.55248E-02-2.38293E-03-1.27245E-01-1.50137E-14 1.31351E-13
 -1      1962 1.94038E+01 3.77111E-04 1.61073E-03-1.36090E-01 8.45007E-14 1.39774E-13
 -1      1963 1.93517E+01 2.78186E-03 1.11057E-03-1.30867E-01 5.79326E-14 1.76278E-13
 -1      1964 1.94588E+01 2.99544E-03-1.79639E-03-1.53883E-01 6.21720E-14 6.41854E-14
 -1      1965 1.94962E+01-2.18719E-03 1.30966E-03-1.35801E-01 8.45234E-14 7.57798E-14
 -1      1966 1.94391E+01-1.31740E-03 5.05337E-04-1.34435E-01 9.45731E-14 1.33159E-13
 -1      1967 1.95237E+01-3.16426E-03-1.32057E-03-1.63000E-01 1.10252E-13 9.38795E-14
 -1      1968 1.95949E+01-2.40364E-03 1.13384E-03-1.32460E-01 2.22415E-14 1.45086E-13
 -1      1969 1.95363E+01-2.56995E-03 2.10285E-04-1.32588E-01 5.56876E-14 8.58799E-14
 -1      1970 1.96020E+01-5.12165E-03-9.90526E-04-1.63579E-01 7.40476E-14 8.61678E-14
 -1      1971 1.96972E+01-8.52385E-04 1.06413E-03-1.29950E-01 4.73325E-14 1.68849E-13
 -1      1972 1.96382E+01-1.74757E-03 1.14761E-04-1.29836E-01 5.47260E-14 1.65820E-13
 -1      1973 1.96880E+01-4.09313E-03-7.90722E-04-1.61794E-01 3.82028E-14 1.32553E-13
 -1      1974 1.98038E+01 2.13468E-03 1.09440E-03-1.31260E-01 5.66397E-15 5.52092E-14
 -1      1975 1.97435E+01 6.98807E-04 1.60103E-04-1.29530E-01 3.78538E-14 1.04309E-13
 -1      1976 1.97797E+01-7.78981E-04-6.99274E-04-1.62178E-01 5.36201E-14 9.80303E-14
 -1      1977 1.99176E+01 6.39091E-03 1.22406E-03-1.38873E-01 7.14894E-14-9.66572E-14
 -1      1978 1.98540E+01 4.52409E-03 3.11840E-04-1.34352E-01 2.19290E-14-3.24320E-14
 -1      1979 1.98779E+01 4.43732E-03-6.98929E-04-1.68295E-01 7.50716E-14-2.58478E-14
 -1      1980 2.00439E+01 1.18619E-02 1.45529E-03-1.55026E-01 9.11534E-14-4.89306E-14
 -1      1981 1.99738E+01 9.62286E-03 5.48173E-04-1.46619E-01 6.61873E-14-4.97088E-14
 -1      1982 1.99857E+01 1.13816E-02-7.78112E-04-1.83173E-01 7.35054E-14-6.99336E-14
 -1      1983 2.01900E+01 1.85580E-02 1.79007E-03-1.81872E-01-4.27392E-16 2.31433E-14
 -1      1984 2.01091E+01 1.59793E-02 8.53700E-04-1.68493E-01 6.26012E-14 6.79011E-15
 -1      1985 2.01081E+01 2.00138E-02-9.29747E-04-2.09574E-01 4.36723E-14-2.97242E-14
 -1      1986 2.03645E+01 2.64946E-02 2.22492E-03-2.21548E-01 8.13954E-15-7.30465E-14
 -1      1987 2.02676E+01 2.36129E-02 1.21410E-03-2.02082E-01-3.35696E-14-3.34830E-14
 -1      1988 2.02515E+01 3.03519E-02-1.15009E-03-2.50146E-01-3.78387E-15-8.21143E-14
 -1      1989 2.05776E+01 3.55940E-02 2.74136E-03-2.76096E-01 4.65728E-14-7.76531E-14
 -1      1990 2.04588E+01 3.24981E-02 1.60979E-03-2.49432E-01 4.28605E-14-5.53495E-14
 -1      1991 2.04238E+01 4.23631E-02-1.43797E-03-3.07428E-01 4.39168E-14-4.97288E-14
 -1      1992 2.08408E+01 4.55118E-02 3.28912E-03-3.47165E-01-1.19234E-14 2.76463E-14
 -1      1993 2.06933E+01 4.24251E-02 2.00721E-03-3.12331E-01 3.97236E-14-3.45971E-14
 -1      1994 2.06337E+01 5.57784E-02-1.79432E-03-3.83635E-01 2.34212E-14-2.87124E-16
 -1      1995 2.11655E+01 5.53274E-02 3.75945E-03-4.35307E-01-1.22653E-13 2.49569E-14
 -1      1996 2.09825E+01 5.27522E-02 2.34661E-03-3.91806E-01-4.72296E-14 7.71388E-15
 -1      1997 2.08909E+01 6.97641E-02-2.22201E-03-4.80091E-01-4.99158E-14-4.64068E-15
 -1      1998 2.15622E+01 6.30175E-02 3.94866E-03-5.38596E-01-9.31839E-14-9.57999E-14
 -1      1999 2.13377E+01 6.19740E-02 2.52715E-03-4.87082E-01-9.50941E-14-2.79153E-14
 -1      2000 2.12044E+01 8.23493E-02-2.72478E-03-5.96046E-01-5.99750E-14-6.86548E-14
 -1      2001 2.20374E+01 6.46332E-02 3.52247E-03-6.50164E-01 9.64816E-14-1.36137E-14
 -1      2002 2.17681E+01 6.70195E-02 2.39493E-03-5.93679E-01-2.57875E-14-8.86723E-14
 -1      2003 2.15822E+01 8.94934E-02-3.30103E-03-7.26526E-01-2.33964E-14-2.02060E-13
 -1      2004 2.25890E+01 5.32195E-02 2.01642E-03-7.54207E-01 1.80176E-13-7.15270E-14
 -1      2005 2.22778E+01 6.22420E-02 1.74824E-03-7.00240E-01 1.77263E-13 5.11804E-14
 -1      2006 2.20284E+01 8.37443E-02-3.92177E-03-8.58742E-01 1.46230E-13-6.68016E-14
 -1      2007 2.32001E+01 1.79540E-02-1.04519E-03-8.20367E-01-2.23000E-14-2.11125E-13
 -1      2008 2.28605E+01 3.83310E-02 3.88620E-04-7.83818E-01 9.98105E-14-1.15876E-13
 -1      2009 2.25405E+01 5.27784E-02-4.47417E-03-9.66767E-01 1.50170E-13-1.79741E-13
 -1      2010 2.38299E+01-5.48778E-02-5.78229E-03-7.97931E-01-1.43408E-13-2.66741E-13
 -1      2011 2.34924E+01-1.78359E-02-1.75770E-03-8.04296E-01-1.76959E-13-3.05256E-13
 -1      2012 2.31048E+01-2.08357E-02-4.64137E-03-1.00507E+00-7.91207E-14-2.76653E-13
 -1      2013 2.44047E+01-1.75375E-01-1.12879E-02-6.15240E-01-8.16760E-14-1.19764E-13
 -1      2014 2.41219E+01-1.19641E-01-4.46027E-03-7.01188E-01-1.01044E-13-2.26662E-13
 -1      2015 2.36902E+01-1.55106E-01-3.73280E-03-9.04250E-01-1.45776E-13-2.92122E-13
 -1      2016 2.48128E+01-3.32676E-01-1.49136E-02-1.96955E-01 1.04951E-16-1.67628E-14
 -1      2017 2.46591E+01-2.68582E-01-7.18152E-03-4.01620E-01-8.97060E-14-9.34539E-14
 -1      2018 2.42397E+01-3.52839E-01-6.67859E-04-5.78175E-01-6.76898E-14-1.48438E-13
 -1      2019 2.49136E+01-4.66192E-01-1.24677E-02 4.81186E-01 9.59666E-14 2.95812E-13
 -1      2020 2.49701E+01-4.28852E-01-9.11901E-03 1.44714E-01 1.16318E-13 1.64594E-13
 -1      2021 2.46593E+01-5.69301E-01 5.54295E-03 4.02285E-02 1.82302E-14 6.08131E-14
 -1      2022 2.45754E+01-4.49452E-01-2.60735E-03 1.29228E+00-3.42226E-14 1.49783E-13
 -1      2023 2.48936E+01-4.99058E-01-9.90093E-03 8.88909E-01 3.23526E-15 2.74215E-13
 -1      2024 2.48139E+01-6.74805E-01 1.40922E-02 9.15236E-01 3.38115E-14 2.88207E-13
 -1      2025 2.37675E+01-1.52704E-01 5.33558E-03 1.87254E+00 1.17859E-13 1.80474E-13
 -1      2026 2.43161E+01-3.30646E-01-1.08357E-02 1.58625E+00 5.59136E-14 2.55278E-13
 -1      2027 2.45625E+01-4.75462E-01 1.76115E-02 1.79098E+00 6.54130E-14 2.69642E-13
 -1      2028 2.27152E+01 3.77701E-01-2.14852E-03 1.73248E+00 1.68286E-14 1.21368E-13
 -1      2029 2.33324E+01 1.34446E-01-1.06730E-02 1.80048E+00 1.49979E-13 1.58644E-13
 -1      2030 2.38930E+01 1.10537E-01 2.83779E-03 2.15869E+00 1.68398E-13 4.02050E-13
 -1      2031 2.19432E+01 8.14888E-01-2.42075E-02 6.95754E-01-2.58300E-13-2.01889E-14
 -1      2032 2.23637E+01 6.75364E-01-5.38669E-03 1.18675E+00-1.98164E-13-1.78572E-14
 -1      2033 2.31129E+01 8.40603E-01-2.30422E-02 1.55083E+00-7.86489E-14 2.29399E-13
 -1      2034 2.19789E+01 7.83719E-01-3.79578E-02-7.55872E-01-9.03028E-14 4.61159E-14
 -1      2035 2.19671E+01 8.84075E-01 3.84712E-03-9.37772E-02-2.02630E-13-1.00225E-13
 -1      2036 2.27484E+01 1.20462E+00-3.63362E-02 6.18406E-02-1.94515E-13-7.80717E-14
 -1      2037 2.28259E+01 3.17132E-01-2.35433E-02-1.75674E+00-9.16923E-14 3.28862E-13
 -1      2038 2.23736E+01 5.71560E-01 6.56054E-03-1.31381E+00-4.67092E-14 2.39940E-13
 -1      2039 2.30917E+01 8.95844E-01-2.09625E-02-1.46011E+00-1.36748E-13 6.33790E-14
 -1      2040 2.39398E+01-1.94727E-01 3.91445E-03-1.84797E+00-1.16098E-13 2.80970E-13
 -1      2041 2.32869E+01 1.81628E-02-2.47207E-06-1.80389E+00-1.54769E-13 2.48378E-13
 -1      2042 2.38603E+01 1.72305E-01 3.26754E-03-2.14370E+00-1.48866E-13 3.31351E-13
 -1      2043 2.47475E+01-4.52976E-01 1.95030E-02-1.24137E+00 3.15479E-13 9.67039E-14
 -1      2044 2.41916E+01-3.81707E-01-9.94440E-03-1.49093E+00 4.17964E-14 1.78801E-13
 -1      2045 2.45202E+01-4.53574E-01 7.59239E-03-1.82774E+00 8.50205E-14 1.71457E-13
 -1      2046 2.50210E+01-4.45860E-01 1.91144E-02-4.27079E-01 2.02107E-13 6.73468E-14
 -1      2047 2.47316E+01-4.86455E-01-1.58009E-02-7.63292E-01 2.69250E-13 1.58889E-13
 -1      2048 2.47718E+01-6.89818E-01-2.37513E-04-9.66029E-01 2.80574E-13 3.44770E-13
 -1      2049 2.48251E+01-3.09203E-01 1.07860E-02 2.43249E-01-1.28801E-13 1.26294E-13
 -1      2050 2.48183E+01-3.89837E-01-1.56123E-02-3.60790E-02 1.22562E-13 1.74812E-13
 -1      2051 2.46210E+01-6.01667E-01-6.69217E-03-7.61800E-02 1.25287E-13 4.43714E-13
 -1      2052 2.43291E+01-1.58860E-01 2.83789E-03 6.51764E-01-1.43179E-13 1.85395E-13
 -1      2053 2.45321E+01-2.31565E-01-1.17012E-02 4.78288E-01-1.84680E-13 7.77763E-14
 -1      2054 2.42013E+01-3.83154E-01-7.63432E-03 5.67615E-01-1.28868E-13 3.54273E-13
 -1      2055 2.36909E+01-4.72031E-02-1.77958E-03 8.27461E-01-3.12956E-13 2.85330E-13
 -1      2056 2.40112E+01-9.54975E-02-6.63954E-03 7.49166E-01-2.60265E-13 7.63859E-14
 -1      2057 2.36456E+01-1.75029E-01-5.27809E-03 9.16958E-01-2.25572E-13 2.68478E-13
 -1      2058 2.30208E+01 1.89923E-02-3.50265E-03 8.47000E-01 8.89821E-14 3.35978E-13
 -1      2059 2.33832E+01-6.57083E-03-2.22625E-03 8.33470E-01-1.72336E-14 3.30703E-13
 -1      2060 2.30476E+01-3.11761E-02-2.69040E-03 1.03537E+00-1.57147E-13 1.21552E-13
 -1      2061 2.23848E+01 5.07377E-02-3.54127E-03 7.80879E-01 2.22277E-13-2.31911E-14
 -1      2062 2.27401E+01 4.07758E-02 8.77026E-04 8.03574E-01 1.90565E-13 2.24288E-13
 -1      2063 2.24655E+01 4.90788E-02-9.99384E-04 1.00890E+00 1.97795E-13 2.11785E-13
 -1      2064 2.18166E+01 6.14010E-02-2.85185E-03 6.77733E-01 7.89295E-14-4.56135E-14
 -1      2065 2.21381E+01 6.02804E-02 2.69929E-03 7.16710E-01 1.86868E-13 4.92028E-14
 -1      2066 2.19322E+01 8.43589E-02-2.03895E-04 9.07535E-01 2.19420E-13-9.91264E-15
 -1      2067 2.13294E+01 6.14411E-02-1.95108E-03 5.65428E-01 3.59452E-13-5.09448E-13
 -1      2068 2.16059E+01 6.43267E-02 3.55642E-03 6.09144E-01 1.23450E-13-3.37480E-13
 -1      2069 2.14638E+01 9.36141E-02 1.90534E-05 7.76878E-01 3.05749E-13-5.84372E-14
 -1      2070 2.09250E+01 5.78049E-02-1.08544E-03 4.56645E-01 3.28903E-13-6.60926E-13
 -1      2071 2.11539E+01 6.17166E-02 3.81250E-03 4.99869E-01 3.77402E-13-6.79933E-13
 -1      2072 2.10654E+01 9.08803E-02-3.31511E-05 6.41740E-01 4.04326E-13-5.06323E-13
 -1      2073 2.06004E+01 5.46237E-02-3.93495E-04 3.54644E-01 7.88419E-14-4.71285E-13
 -1      2074 2.07828E+01 5.78137E-02 3.70315E-03 3.96076E-01 1.46201E-13-4.77634E-13
 -1      2075 2.07363E+01 8.47461E-02-3.22775E-04 5.12246E-01 2.19321E-14-3.09984E-13
 -1      2076 2.03509E+01 5.46810E-02 7.08688E-05 2.56871E-01-1.04770E-13-9.55218E-14
 -1      2077 2.04889E+01 5.61128E-02 3.32571E-03 2.97953E-01-7.09285E-14-2.46264E-13
 -1      2078 2.04729E+01 8.09599E-02-6.89989E-04 3.89866E-01-7.74376E-14-2.26507E-13
 -1      2079 2.01731E+01 5.85074E-02 1.03508E-03 1.58885E-01 6.72622E-14-2.11826E-13
 -1      2080 2.02669E+01 5.76679E-02 2.56471E-03 2.01823E-01 5.55524E-14 9.40095E-14
 -1      2081 2.02699E+01 8.24910E-02-8.54022E-04 2.71167E-01 2.27283E-14 1.90990E-13
 -1      2082 2.00753E+01 6.05433E-02 2.01065E-03 8.54091E-02-1.22233E-13-2.39288E-13
 -1      2083 2.01329E+01 6.26804E-02 1.80204E-03 1.28119E-01 6.01371E-14-2.70457E-13
 -1      2084 2.01426E+01 8.81599E-02-9.04337E-04 1.77819E-01 6.31209E-14 2.40368E-13
 -1      2085 2.00711E+01 8.98504E-02-8.53851E-05 1.09763E-01-7.05358E-14 2.32671E-13
 -1      2086 1.99982E+01 5.33781E-01-1.39206E-03 2.87799E-01-4.98637E-13-6.27519E-15
 -1      2087 2.00178E+01 4.42036E-01 1.53614E-03 2.83241E-01-4.77607E-13 6.31828E-14
 -1      2088 2.00371E+01 3.57321E-01-4.86931E-04 2.66060E-01-2.94996E-13 2.13139E-14
 -1      2089 2.00557E+01 2.73270E-01 2.07675E-03 2.38699E-01-1.79066E-13 1.94234E-13
 -1      2090 2.00411E+01 4.00581E-01 3.41105E-05 3.51334E-01-4.03416E-13-7.43206E-14
 -1      2091 2.00622E+01 2.11147E-01 2.95869E-04 1.99989E-01-2.47836E-13-4.36580E-14
 -1      2092 2.00731E+01 1.43847E-01 1.88342E-03 1.57723E-01-7.37505E-14-4.44089E-16
 -1      2093 2.01046E+01 1.44969E-01 1.31669E-03 1.94164E-01-2.59856E-14 1.29288E-13
 -1      2094 2.00815E+01 2.57462E-01-7.13271E-04 2.87173E-01-1.26059E-13 1.85247E-15
 -1      2095 1.99650E+01 6.98139E-01-2.26965E-03 2.64202E-01-6.23310E-13-5.88560E-13
 -1      2096 1.99815E+01 6.12538E-01 1.03339E-04 2.79202E-01-5.97363E-13-3.68497E-13
 -1      2097 1.99857E+01 5.62689E-01 8.85797E-04 3.59156E-01-6.38693E-13-2.85796E-13
 -1      2098 1.99392E+01 8.35243E-01-2.94044E-03 2.01248E-01-1.37695E-13 2.64596E-13
 -1      2099 1.99513E+01 7.65611E-01-1.28374E-03 2.32567E-01-3.37768E-13 3.36914E-14
 -1      2100 1.99390E+01 7.09004E-01 2.00272E-03 3.13294E-01-3.56220E-13-1.02390E-13
 -1      2101 1.99240E+01 9.24018E-01-3.22138E-03 1.10964E-01 1.58794E-13 4.53336E-13
 -1      2102 1.99305E+01 8.81468E-01-2.46397E-03 1.52637E-01 3.12222E-14 5.15248E-13
 -1      2103 1.99045E+01 8.22860E-01 2.74749E-03 2.22462E-01 2.01879E-13 5.67092E-13
 -1      2104 1.99202E+01 9.53973E-01-3.09369E-03 7.70212E-03 2.25474E-13 1.85630E-13
 -1      2105 1.99208E+01 9.43898E-01-3.20590E-03 5.32991E-02 2.10906E-13 3.08269E-13
 -1      2106 1.98860E+01 8.89211E-01 3.13239E-03 1.02651E-01 4.04868E-13 3.40604E-13
 -1      2107 1.99271E+01 9.22664E-01-2.58433E-03-9.39593E-02 1.81686E-13-8.10437E-14
 -1      2108 1.99223E+01 9.45779E-01-3.44898E-03-5.07655E-02 1.56723E-13 1.44157E-13
 -1      2109 1.98841E+01 9.00997E-01 3.10913E-03-2.81117E-02 1.66715E-13 8.80419E-14
 -1      2110 1.99432E+01 8.35657E-01-1.77897E-03-1.80732E-01 8.03649E-14-1.88874E-13
 -1      2111 1.99339E+01 8.88251E-01-3.18931E-03-1.45540E-01 1.07696E-13-1.29742E-13
 -1      2112 1.98976E+01 8.58271E-01 2.70167E-03-1.51919E-01 1.14527E-13-3.18588E-13
 -1      2113 1.99660E+01 7.07922E-01-7.18223E-04-2.41071E-01 2.26028E-13-3.76082E-13
 -1      2114 1.99535E+01 7.81002E-01-2.55349E-03-2.18495E-01 6.42099E-14-2.31979E-13
 -1      2115 1.99239E+01 7.68770E-01 2.05749E-03-2.52341E-01 2.11019E-13-2.20307E-13
 -1      2116 1.99939E+01 5.51850E-01 4.43809E-04-2.69446E-01 2.68149E-13 5.77695E-13
 -1      2117 1.99790E+01 6.37976E-01-1.66957E-03-2.61805E-01 3.01960E-13 9.44106E-14
 -1      2118 1.99596E+01 6.43940E-01 1.16702E-03-3.18220E-01 3.86776E-13-5.63427E-14
 -1      2119 2.00242E+01 3.88748E-01 1.50157E-03-2.60125E-01 1.52565E-13 1.01585E-13
 -1      2120 2.00083E+01 4.75330E-01-7.23380E-04-2.69542E-01 1.51121E-13 4.06689E-13
 -1      2121 2.00019E+01 4.97453E-01 2.66546E-04-3.41899E-01 2.73877E-13 4.21308E-13
 -1      2122 2.00529E+01 2.33565E-01 7.79412E-04-2.12975E-01-5.02556E-14-3.76008E-13
 -1      2123 2.00383E+01 3.13087E-01-3.76235E-05-2.39152E-01-2.24436E-14-1.80186E-13
 -1      2124 2.00467E+01 3.46668E-01-3.17285E-04-3.19049E-01 5.20867E-15-1.54540E-13
 -1      2125 9.78902E+00-5.48232E+00-2.08139E-01 6.06232E+00 2.44027E-13 3.12451E-13
 -1      2126 6.27208E+00-6.88606E+00-4.19851E-01 4.90224E+00 2.63234E-13 1.93429E-13
 -1      2127 2.32062E-01-7.09885E+00-3.78733E-01 4.97952E-01 1.16629E-13 5.35239E-13
 -1      2128 2.30278E-01-7.31891E+00-4.16427E-01-9.68812E-01-1.65423E-14 3.46501E-13
 -1      2129 3.29957E+00-6.42837E+00-2.93786E-01 3.89962E+00 2.22822E-13 2.45470E-13
 -1      2130 1.41885E+00-7.16231E+00-4.12333E-01 2.37022E+00 2.13718E-14 3.88134E-13
 -1      2131 1.86349E+01-3.95788E+00-9.53470E-02 6.70988E+00 2.54519E-13-2.16438E-13
 -1      2132 1.34612E+01-5.51871E+00-3.69899E-01 5.92616E+00 2.90434E-13 7.51066E-14
 -1      2133 1.41103E+01-5.79162E+00-7.17776E-02 6.66619E+00 4.60743E-14 7.31325E-14
 -1      2134 2.85206E+01-1.56283E+00 9.53315E-02 4.86438E+00 2.70117E-13-3.16247E-13
 -1      2135 2.37752E+01-3.39507E+00-1.37960E-01 5.02345E+00 2.79998E-13-2.76001E-13
 -1      2136 1.95203E+01 4.01595E+00-2.70403E-02-1.70410E+00-1.33170E-14-1.18596E-13
 -1      2137 1.96469E+01 3.94557E+00-2.47401E-02-1.95547E+00-2.99682E-14-1.08732E-13
 -1      2138 1.99720E+01 3.24681E+00-1.36440E-02-1.92008E+00-3.77545E-14-9.72659E-14
 -1      2139 1.97004E+01 3.58591E+00-7.03375E-03-1.52202E+00-1.02444E-14-1.08372E-13
 -1      2140 4.04475E+01 5.77858E+00 4.79884E-01 1.66965E+00 9.17044E-14-1.34337E-13
 -1      2141 3.71939E+01 4.61773E+00 1.69612E-01 2.38181E+00 3.42504E-14-7.80487E-14
 -1      2142 4.18506E+01 7.05299E+00 4.30924E-01-8.90509E-02-1.08635E-13-7.20708E-14
 -1      2143 4.10912E+01 6.78462E+00 3.89284E-01 1.13607E+00-5.55112E-15-7.08877E-14
 -1      2144 3.92541E+01 6.25104E+00 2.31448E-01-1.25364E+00-1.43774E-14 1.27121E-13
 -1      2145 4.12401E+01 6.92048E+00 4.50410E-01-3.77992E-01-9.93094E-14 6.48648E-14
 -1      2146 3.49201E+01 3.31536E+00 1.11551E-01-2.02479E+00 1.03750E-13 1.13243E-13
 -1      2147 3.86754E+01 4.98329E+00 4.36486E-01-1.86111E+00 9.97258E-14 3.89688E-14
 -1      2148 2.81001E+01-7.98323E-01-5.99631E-02-4.57842E+00 2.30316E-13 1.39000E-13
 -1      2149 3.22674E+01 5.54264E-01 5.87846E-02-3.32267E+00 1.47299E-13 7.87703E-14
 -1      2150 2.02966E+01-3.59895E+00-2.53512E-01-5.75456E+00 1.40221E-13-6.58362E-14
 -1      2151 2.53125E+01-1.77267E+00 7.81302E-02-6.10511E+00 1.91736E-13 6.19504E-14
 -1      2152 2.81015E+01-2.93848E+00 1.43020E-01-3.53770E+00 1.31700E-13 2.05336E-13
 -1      2153 1.17799E+01-5.87563E+00-3.39038E-01-5.87063E+00 2.96430E-13-2.10942E-15
 -1      2154 1.60297E+01-4.08589E+00-8.71899E-02-6.71419E+00 2.34257E-13-1.00697E-13
 -1      2155 4.35979E+00-7.16481E+00-4.49421E-01-4.18664E+00 1.35114E-13-3.65097E-13
 -1      2156 7.64776E+00-5.70352E+00-1.96863E-01-5.70215E+00 2.31315E-13-1.73417E-13
 -1      2157 7.13358E-01-7.21813E+00-3.98296E-01-1.61897E+00-1.28647E-14-5.14422E-13
 -1      2158 2.01106E+00-6.93363E+00-3.58819E-01-2.98790E+00 7.94365E-14-4.18665E-13
 -1      2159 8.77090E-01-6.24319E+00-2.66986E-01 1.82769E+00-1.74083E-13-4.92106E-13
 -1      2160 4.00365E-01-6.76517E+00-3.45515E-01 1.95896E-01-2.69368E-14-5.48006E-13
 -1      2161 4.93550E+00-5.96714E+00-2.13735E-01 4.96263E+00-2.73948E-13-2.24376E-13
 -1      2162 2.79066E+00-6.48717E+00-2.86971E-01 3.75449E+00-1.93678E-13-1.99674E-13
 -1      2163 1.11046E+01-4.82380E+00-1.07930E-01 6.68186E+00-1.60649E-13-3.20681E-13
 -1      2164 7.45130E+00-6.39439E+00-3.57814E-01 5.51656E+00-2.21434E-13-2.16965E-13
 -1      2165 8.35100E+00-5.15219E+00-9.44886E-02 6.30712E+00-7.42739E-14-1.21209E-13
 -1      2166 1.96830E+01-2.80851E+00 1.54280E-02 6.93215E+00-2.37310E-13-1.50546E-13
 -1      2167 1.52737E+01-4.68239E+00-2.75261E-01 6.29268E+00-1.82632E-13-2.28206E-13
 -1      2168 2.74351E+01-8.28763E-01 2.85228E-02 5.34002E+00-3.07754E-13 2.02061E-13
 -1      2169 2.28213E+01-2.13963E+00-1.59455E-01 5.82621E+00-2.92044E-13 3.61378E-14
 -1      2170 2.32959E+01-4.05316E+00 6.24186E-02 5.53574E+00-1.30340E-13 2.08139E-13
 -1      2171 3.50870E+01 3.36435E+00 3.83679E-01 4.02689E+00-2.19848E-13 5.44009E-15
 -1      2172 3.09296E+01 1.52716E+00 9.02830E-02 4.00686E+00-2.09055E-13 1.40110E-13
 -1      2173 3.79193E+01 5.74052E+00 1.88782E-01 1.40880E+00-8.62088E-14-2.57572E-14
 -1      2174 3.63723E+01 4.73814E+00 2.38120E-01 2.81825E+00-1.90903E-13 8.19345E-14
 -1      2175 3.37899E+01 3.61002E+00 2.42825E-01 7.75933E-01-1.91125E-13 1.50990E-13
 -1      2176 3.82838E+01 7.47170E+00 1.75890E-01-8.21467E-02-1.18350E-13 9.17148E-14
 -1      2177 3.81066E+01 7.07009E+00 2.10356E-01 7.24189E-01-1.05915E-13 2.38698E-15
 -1      2178 3.80530E+01 6.28162E+00 2.38141E-01-1.46552E+00-1.11022E-16 1.54099E-13
 -1      2179 3.82281E+01 7.07021E+00 1.44900E-01-2.89944E-01-9.95870E-14 5.36654E-14
 -1      2180 3.43123E+01 3.80468E+00 7.60576E-02-2.79992E+00 2.32259E-13 7.77156E-16
 -1      2181 3.75315E+01 5.00645E+00 2.77374E-01-2.20067E+00 2.06057E-13 1.69753E-13
 -1      2182 3.45609E+01 5.97719E+00 2.52134E-01 1.49526E-01 7.69940E-14 2.51132E-13
 -1      2183 2.81283E+01 7.91778E-02-4.92292E-02-4.90582E+00-3.28348E-14-1.93290E-13
 -1      2184 3.22658E+01 1.58217E+00 1.66065E-01-4.23708E+00 1.33782E-13-2.38420E-13
 -1      2185 2.11851E+01-3.07219E+00-1.69156E-01-5.88335E+00-2.09999E-13-3.39562E-13
 -1      2186 2.57238E+01-1.05681E+00 1.38203E-01-6.20655E+00-7.36078E-14-3.47500E-13
 -1      2187 2.81223E+01-2.14619E+00 1.23985E-01-3.63342E+00 3.64153E-14-4.04454E-13
 -1      2188 1.23951E+01-5.47393E+00-3.17283E-01-6.20163E+00-1.26454E-13-1.21431E-13
 -1      2189 1.68761E+01-3.88248E+00-3.87562E-02-7.05779E+00-1.40499E-13-1.87655E-13
 -1      2190 5.36201E+00-6.91623E+00-4.46579E-01-4.85951E+00 1.50435E-14 4.18277E-14
 -1      2191 8.47676E+00-5.41192E+00-2.19997E-01-6.02199E+00-5.41789E-14-1.80481E-13
 -1      2192 1.40586E+00-7.21655E+00-4.08167E-01-2.65178E+00 5.47895E-14 3.47555E-13
 -1      2193 3.07117E+00-6.43848E+00-2.93949E-01-4.00312E+00-6.39488E-14 3.72702E-13
 -1      2194 3.56070E+01 2.70281E+00 3.29387E-01 3.08250E+00 2.75197E-14-9.41469E-14
 -1      2195 3.11836E+01 6.62875E-01-4.94433E-02 3.28042E+00 2.24321E-13-1.27676E-13
 -1      2196 2.31912E+01-4.81130E+00 7.91033E-02 5.29923E+00 1.18017E-13-4.00041E-13
 -1      2197 2.07253E+01 1.10868E+00-2.06777E-02-1.61743E+00-6.68146E-14-4.77188E-14
 -1      2198 3.46463E+01 3.18504E+00 2.17512E-01 1.93252E-01-8.88178E-16-1.96843E-13
 -1      2199 2.06181E+01 1.33063E+00-1.85183E-02-1.67955E+00-6.57755E-14-6.57408E-14
 -1      2200 6.72744E+00-5.47153E+00-1.54901E-01 5.37592E+00-8.33777E-14 6.83620E-14
 -1      2201 2.11526E+00-4.85526E+00-1.82645E-01 1.90109E+00-8.11018E-14 4.75064E-13
 -1      2202 2.00681E+01 1.89572E-01 1.20710E-03-2.03267E-01-9.40946E-14-3.68611E-13
 -1      2203 2.11201E+00-4.79352E+00-1.85080E-01-2.35545E+00-5.96745E-15 2.93376E-13
 -1      2204 3.03383E+01-1.83873E+00 4.48418E-02 2.00471E+00 9.30783E-14-3.36731E-13
 -1      2205 5.98265E+00-5.36511E+00-1.75274E-01-5.46414E+00 3.50830E-14 5.95912E-14
 -1      2206 2.12501E+01-4.80545E+00-4.57414E-03-6.07937E+00-8.45990E-14-3.75588E-13
 -1      2207 3.25553E+01 1.86286E+00 1.79831E-01-1.30487E+00 2.07334E-13 5.82867E-14
 -1      2208 3.48959E+01 6.83540E+00 2.30548E-01-1.27843E-01-5.39568E-14 1.80828E-13
 -1      2209 2.94209E+01-6.05929E-01 5.34356E-02 3.51542E+00-2.24432E-13 1.60871E-13
 -1      2210 2.80631E+01-2.47705E+00 1.28606E-01 2.89507E+00-1.96745E-13 3.46889E-13
 -1      2211 3.02829E+01-6.53039E-01-1.92176E-01 1.32556E+00-1.66388E-13 2.16660E-13
 -1      2212 1.55550E+01-5.41771E+00-4.31566E-02 6.89500E+00-1.18239E-14-1.46487E-13
 -1      2213 3.42485E+00-4.40645E+00-9.73234E-02 3.42026E+00-1.10967E-13-3.45557E-13
 -1      2214 1.83313E+00-4.55404E+00-1.61403E-01-9.42224E-01-6.42889E-14-5.58498E-13
 -1      2215 4.90629E+00-5.23347E+00-1.62816E-01-4.61616E+00-2.81442E-14-3.95073E-13
 -1      2216 2.10027E+01-5.08353E+00 1.15326E-02-5.93784E+00 9.69225E-14 7.41074E-14
 -1      2217 3.31012E+01 1.17723E+00 7.45802E-02-1.36507E+00 6.82059E-14 1.19349E-13
 -1      2218 3.24246E+01 1.63779E+00-1.50516E-01 8.68732E-01 1.44051E-14 2.21378E-13
 -1      2219 3.09963E+01-7.60755E-01 9.21802E-02-4.96217E-01 5.98965E-14 2.24376E-13
 -1      2220 3.56626E+01 5.78091E+00 2.17997E-01 4.63777E-01 3.60822E-14 1.47826E-13
 -1      2221 3.71290E+01 6.88303E+00 3.76129E-01-1.35968E-01-5.29576E-14-8.87068E-14
 -1      2222 3.71281E+01 7.92355E+00 3.69634E-01 1.83913E-01-1.27676E-13 2.34278E-13
 -1      2223 1.18984E+01-5.76833E+00-1.03119E-01-6.46558E+00 1.71252E-13-1.03861E-13
 -1      2224 3.48728E+01 7.84761E+00 1.96930E-01 6.49497E-02-1.22236E-13 2.25243E-13
 -1      2225 1.28182E+01-5.50186E+00-4.45803E-02-6.97640E+00-3.58602E-14-4.67543E-14
 -1      2226 2.01391E+01 5.06804E-01 3.76340E-03 6.79389E-01 8.34558E-14 1.41107E-13
 -1      2227 2.04071E+01 7.00184E-01 2.08023E-02 9.71140E-01 7.83922E-14 1.50636E-13
 -1      2228 1.95689E+01 3.51831E+00-1.11650E-02-5.91718E-01 4.06816E-14-9.03617E-14
 -1      2229 1.96036E+01 3.47219E+00-1.05068E-02-7.76191E-01 2.70409E-14-1.03904E-13
 -1      2230 1.96491E+01 3.38378E+00-1.27189E-02-9.40873E-01 1.98622E-14-1.14291E-13
 -1      2231 1.97092E+01 3.30242E+00-1.25894E-02-1.13039E+00 1.50825E-14-1.12772E-13
 -1      2232 1.97946E+01 3.03553E+00 2.02796E-04-7.92603E-01 2.98751E-14-1.00185E-13
 -1      2233 1.95226E+01 3.60149E+00-9.63227E-03 9.95353E-02 7.22550E-14-3.57015E-14
 -1      2234 1.95220E+01 3.60222E+00-9.67254E-03-7.99907E-02 6.49394E-14-6.33009E-14
 -1      2235 1.95482E+01 3.56174E+00-9.73105E-03 4.45670E-01 1.00215E-13-2.53434E-14
 -1      2236 1.95311E+01 3.58444E+00-1.01751E-02 2.64747E-01 8.41745E-14-2.22261E-14
 -1      2237 1.96887E+01 3.22499E+00-8.75718E-04 1.69583E-01 7.37407E-14-2.28090E-14
 -1      2238 1.96087E+01 3.46466E+00-1.06209E-02 7.89935E-01 1.13082E-13-3.48168E-14
 -1      2239 1.95731E+01 3.51190E+00-1.12364E-02 6.08355E-01 1.03173E-13-4.00201E-14
 -1      2240 1.97248E+01 3.16092E+00-4.73955E-04 4.88041E-01 9.44002E-14-2.48768E-14
 -1      2241 1.97171E+01 3.29029E+00-1.29548E-02 1.14365E+00 1.30185E-13 3.18408E-15
 -1      2242 1.96556E+01 3.37390E+00-1.29011E-02 9.54220E-01 1.24292E-13-1.57365E-14
 -1      2243 1.98003E+01 3.02659E+00 2.85176E-04 8.04001E-01 1.14422E-13-2.75713E-14
 -1      2244 1.98931E+01 3.00405E+00-1.81716E-02 1.49119E+00 1.34524E-13 5.05360E-14
 -1      2245 1.97953E+01 3.14559E+00-1.51944E-02 1.30058E+00 1.25263E-13 2.45099E-14
 -1      2246 1.99270E+01 2.80065E+00 1.94705E-03 1.11064E+00 1.18872E-13 1.27572E-14
 -1      2247 2.01674E+01 2.54406E+00-2.84063E-02 1.79597E+00 1.42544E-13 1.02253E-13
 -1      2248 2.00183E+01 2.78361E+00-1.70849E-02 1.62136E+00 1.39838E-13 7.11948E-14
 -1      2249 2.01183E+01 2.44934E+00 5.85996E-03 1.37698E+00 1.25385E-13 5.75937E-14
 -1      2250 1.98625E+01 2.69084E-01 4.77843E-03 2.86143E-01 5.64071E-14 1.44682E-13
 -1      2251 2.00230E+01 3.68557E-01 2.01856E-02 4.43662E-01 7.86333E-14 1.38260E-13
 -1      2252 2.02046E+01 6.35311E-01-2.25938E-03 7.05968E-01 8.28860E-14 1.03127E-13
 -1      2253 2.03921E+01 8.57579E-01 1.29059E-02-1.00215E+00-3.72757E-14-6.68068E-14
 -1      2254 2.01810E+01 6.26401E-01-5.59382E-03-6.88251E-01-3.79844E-14-7.07588E-14
 -1      2255 3.32956E+01 3.60465E+00-4.24903E-02-1.02871E+00-2.74780E-14-1.47382E-13
 -1      2256 3.17951E+01 1.51677E+00-8.70918E-02-8.56380E-01 5.16254E-14-2.06390E-13
 -1      2257 2.01242E+01 4.70874E-01 1.78175E-02-4.79981E-01-3.79770E-14-5.77119E-14
 -1      2258 1.99775E+01 3.48531E-01 4.90767E-04-3.04336E-01-3.48376E-14-4.60293E-14
 -1      2259 2.02356E+01 7.26116E-01-9.81309E-03-6.90935E-01-4.02462E-14-6.54984E-14
 -1      2260 1.99156E+01 2.61809E-01 1.09836E-02-1.65175E-01-3.40719E-14-2.05778E-14
 -1      2261 1.98374E+01 1.90944E-01 8.63918E-04-6.68870E-02-1.51884E-14-2.55009E-14
 -1      2262 2.00753E+01 4.20020E-01-4.16484E-03-3.08853E-01-2.25251E-14-3.43711E-14
 -1      2263 1.97941E+01 1.42076E-01 6.45688E-03 1.66769E-02-1.14904E-14-2.05382E-14
 -1      2264 1.97607E+01 1.00684E-01 9.15090E-04 7.16089E-02 1.23919E-15-7.66074E-15
 -1      2265 1.99588E+01 2.31552E-01-3.64920E-03-6.76316E-02-1.60435E-14 4.19912E-16
 -1      2266 1.97364E+01 7.18438E-02 3.61573E-03 1.19659E-01 1.03348E-14-1.78415E-14
 -1      2267 1.97318E+01 4.77140E-02 8.61586E-04 1.48740E-01 1.56462E-14-1.47158E-14
 -1      2268 1.98859E+01 1.21585E-01-3.00732E-03 7.71676E-02 4.55121E-16 5.60646E-15
 -1      2269 1.97225E+01 3.09268E-02 1.88788E-03 1.74540E-01-1.18579E-14-4.62721E-14
 -1      2270 1.97359E+01 1.75653E-02 8.27309E-04 1.88392E-01-1.62246E-14-5.67121E-14
 -1      2271 1.98505E+01 5.70532E-02-2.25649E-03 1.59755E-01-1.08930E-14-1.63989E-14
 -1      2272 1.97375E+01 8.59635E-03 8.29291E-04 2.00906E-01-2.14439E-14-8.69390E-14
 -1      2273 1.97620E+01 2.39668E-03 8.31630E-04 2.06411E-01-3.19858E-14-7.55865E-14
 -1      2274 1.98427E+01 2.07622E-02-1.62283E-03 2.03684E-01-4.04918E-14-8.53931E-14
 -1      2275 1.97711E+01-1.20796E-03 1.86706E-04 2.11909E-01-6.62478E-14-6.14927E-14
 -1      2276 1.98025E+01-2.41556E-03 8.87475E-04 2.13755E-01-8.55996E-14-6.72856E-14
 -1      2277 1.98542E+01 3.22163E-03-1.16060E-03 2.25307E-01-3.16620E-14-1.15135E-13
 -1      2278 1.98170E+01-2.18228E-03-1.87549E-04 2.16715E-01-6.09238E-14-5.02143E-14
 -1      2279 1.98532E+01 2.29194E-04 1.00196E-03 2.18227E-01-3.45996E-14-3.89611E-14
 -1      2280 1.98792E+01-1.27975E-03-8.57605E-04 2.36187E-01-7.19749E-14-8.76551E-15
 -1      2281 1.98718E+01 3.29999E-03-3.84768E-04 2.21921E-01-3.57709E-14-5.84245E-14
 -1      2282 1.99120E+01 8.41914E-03 1.17551E-03 2.25534E-01-4.00596E-14-4.42628E-14
 -1      2283 1.99141E+01 3.64301E-03-6.83557E-04 2.44678E-01-5.95456E-14-8.01151E-15
 -1      2284 1.99343E+01 1.36298E-02-4.64790E-04 2.32404E-01-2.58884E-14-9.53792E-14
 -1      2285 1.99788E+01 2.08023E-02 1.40241E-03 2.39931E-01-1.39581E-14-6.47441E-14
 -1      2286 1.99571E+01 1.55772E-02-6.08643E-04 2.56940E-01-4.65732E-14-7.01908E-14
 -1      2287 2.00049E+01 2.76063E-02-4.67397E-04 2.51804E-01-2.92414E-14-9.26739E-14
 -1      2288 2.00549E+01 3.62793E-02 1.66983E-03 2.64574E-01-2.37635E-14-9.12565E-14
 -1      2289 2.00078E+01 3.27719E-02-6.07959E-04 2.77570E-01-2.30487E-14-9.15520E-14
 -1      2290 2.00854E+01 4.41498E-02-4.17755E-04 2.82765E-01-2.91372E-14-6.35651E-14
 -1      2291 2.01423E+01 5.37223E-02 1.95484E-03 3.01652E-01-5.09376E-14-3.04756E-14
 -1      2292 2.00668E+01 5.37333E-02-6.61837E-04 3.09946E-01-2.55582E-14-6.76594E-14
 -1      2293 2.01782E+01 6.20123E-02-3.28836E-04 3.26946E-01-6.50788E-14-1.95092E-14
 -1      2294 2.02440E+01 7.16660E-02 2.21942E-03 3.52279E-01-3.14805E-14 4.72518E-15
 -1      2295 2.01357E+01 7.68416E-02-7.55736E-04 3.56327E-01-3.43710E-14 3.78916E-14
 -1      2296 2.02865E+01 7.94415E-02-2.01753E-04 3.84802E-01-7.91537E-14-1.65487E-14
 -1      2297 2.03631E+01 8.79331E-02 2.40396E-03 4.16160E-01-8.36099E-14-1.86159E-14
 -1      2298 2.02167E+01 9.99224E-02-8.81048E-04 4.17713E-01-7.79825E-14 3.09881E-14
 -1      2299 2.04140E+01 9.37670E-02-2.43821E-05 4.55100E-01-2.67622E-14-3.58517E-14
 -1      2300 2.05030E+01 9.91766E-02 2.41993E-03 4.90945E-01-1.26550E-14-4.38050E-14
 -1      2301 2.03127E+01 1.19731E-01-1.03738E-03 4.93431E-01-5.45384E-14-2.54167E-15
 -1      2302 2.05643E+01 1.00907E-01 2.31128E-04 5.34118E-01-1.03858E-13-8.68297E-14
 -1      2303 2.06665E+01 1.00358E-01 2.14328E-03 5.71274E-01-7.53000E-14-1.74753E-13
 -1      2304 2.04270E+01 1.31333E-01-1.23636E-03 5.80428E-01-7.05999E-14-7.26751E-14
 -1      2305 2.07410E+01 9.48490E-02 6.10133E-04 6.14498E-01-3.99961E-14-2.07486E-13
 -1      2306 2.08561E+01 8.42793E-02 1.41271E-03 6.47475E-01-3.52665E-14-2.43510E-13
 -1      2307 2.05639E+01 1.27444E-01-1.50585E-03 6.72207E-01-1.41426E-13-1.04810E-13
 -1      2308 2.09474E+01 6.72990E-02 1.17192E-03 6.83788E-01 3.39890E-14-2.53702E-13
 -1      2309 2.10734E+01 4.14738E-02 4.02313E-05 7.04057E-01 7.30984E-14-2.79989E-13
 -1      2310 2.07283E+01 9.79184E-02-1.89016E-03 7.57434E-01-3.00407E-15-1.86869E-13
 -1      2311 2.11856E+01 7.95741E-03 1.97021E-03 7.22871E-01 1.55209E-13-2.71916E-13
 -1      2312 2.13181E+01-3.88612E-02-2.15083E-03 7.18374E-01 1.97077E-13-1.67340E-13
 -1      2313 2.09268E+01 2.99095E-02-2.43575E-03 8.18310E-01 1.54656E-13-3.04836E-13
 -1      2314 2.14561E+01-9.36595E-02 2.99974E-03 7.04866E-01 1.67936E-13-1.37326E-13
 -1      2315 2.15872E+01-1.65675E-01-5.23506E-03 6.60358E-01 1.08106E-13-6.14348E-14
 -1      2316 2.11671E+01-9.02820E-02-3.14167E-03 8.29086E-01 2.34779E-13-1.39387E-13
 -1      2317 2.17546E+01-2.43363E-01 4.08080E-03 5.95838E-01 7.47197E-14-3.96126E-14
 -1      2318 2.18724E+01-3.38873E-01-8.98026E-03 4.95153E-01 7.09959E-14-8.57731E-14
 -1      2319 2.14563E+01-2.71897E-01-3.84796E-03 7.55656E-01 1.27834E-13-6.38538E-14
 -1      2320 2.20672E+01-4.32608E-01 4.71863E-03 3.59951E-01-2.11441E-14-1.07499E-13
 -1      2321 2.21548E+01-5.36872E-01-1.25405E-02 1.91815E-01-2.91616E-14-1.75774E-13
 -1      2322 2.17971E+01-5.08697E-01-4.03762E-03 5.58288E-01 2.84787E-15-1.25010E-13
 -1      2323 2.23617E+01-6.24021E-01 3.88374E-03-2.67242E-02 1.90297E-14-2.36081E-13
 -1      2324 2.23982E+01-7.01276E-01-1.41495E-02-2.57993E-01 4.49892E-14-1.81715E-13
 -1      2325 2.21764E+01-7.61298E-01-2.72569E-03 2.01625E-01-6.11945E-14-1.59272E-13
 -1      2326 2.25799E+01-7.37740E-01 3.37065E-04-5.50276E-01 2.96607E-14-1.93728E-13
 -1      2327 2.25449E+01-7.28762E-01-1.09380E-02-8.10212E-01-1.36930E-14-6.21428E-14
 -1      2328 2.25516E+01-9.39481E-01 1.10084E-03-3.22727E-01 5.41106E-14-2.59225E-13
 -1      2329 2.26382E+01-6.53998E-01-7.02423E-03-1.11926E+00-7.56996E-14-1.13494E-13
 -1      2330 2.25242E+01-4.98810E-01-1.39493E-03-1.33022E+00-7.00833E-14-1.83567E-13
 -1      2331 2.28350E+01-8.95034E-01 8.02125E-03-9.56536E-01-6.52553E-14-1.46608E-13
 -1      2332 2.24714E+01-2.74241E-01-1.59106E-02-1.53904E+00-3.52767E-14-1.44689E-13
 -1      2333 2.23000E+01 3.60743E-02 1.23974E-02-1.59451E+00-6.34484E-14-1.11629E-13
 -1      2334 2.29110E+01-4.92055E-01 1.24127E-02-1.52447E+00-5.37941E-14-9.95918E-14
 -1      2335 2.21054E+01 3.74359E-01-1.93873E-02-1.55487E+00-1.30377E-13-1.60907E-13
 -1      2336 2.19354E+01 7.35147E-01 2.11774E-02-1.36898E+00-1.77846E-13-1.31118E-13
 -1      2337 2.27152E+01 2.77334E-01 8.65954E-03-1.74123E+00-1.66721E-13-8.38730E-14
 -1      2338 2.17198E+01 1.03865E+00-1.18816E-02-1.01682E+00-1.55776E-13-1.96466E-13
 -1      2339 2.16214E+01 1.26601E+00 1.57330E-02-6.10990E-01-3.48393E-14-8.14424E-14
 -1      2340 2.23572E+01 1.15278E+00-3.88988E-03-1.35599E+00-1.40239E-13-1.33653E-13
 -1      2341 2.15536E+01 1.35533E+00 5.76148E-03-4.89984E-02 3.48107E-14-1.61571E-13
 -1      2342 2.15756E+01 1.29954E+00-1.16539E-03 4.21629E-01 4.28867E-14-8.72835E-14
 -1      2343 2.20970E+01 1.68648E+00-1.73776E-02-3.78526E-01-4.55851E-14-1.25219E-13
 -1      2344 2.17122E+01 1.11334E+00 1.95159E-02 9.31778E-01-1.07093E-14-6.88748E-14
 -1      2345 2.18430E+01 8.12866E-01-1.60242E-02 1.26697E+00-5.50536E-14-1.45078E-13
 -1      2346 2.21596E+01 1.55424E+00-1.43604E-02 7.75129E-01-3.27863E-14-1.68824E-13
 -1      2347 2.20686E+01 4.72958E-01 1.93782E-02 1.50495E+00 1.14389E-13-1.54820E-13
 -1      2348 2.22456E+01 1.09874E-01-1.89528E-02 1.59549E+00 2.04280E-13-5.59860E-14
 -1      2349 2.24887E+01 8.39290E-01 1.42325E-03 1.56113E+00 1.84523E-14-1.45152E-13
 -1      2350 2.23930E+01-1.98398E-01 7.57808E-03 1.52517E+00 1.18944E-13-2.27969E-14
 -1      2351 2.25439E+01-4.56558E-01-1.27067E-02 1.39794E+00 7.25520E-14-5.43875E-14
 -1      2352 2.28091E+01-4.55277E-02 1.20516E-02 1.70348E+00 1.69104E-13-7.50344E-14
 -1      2353 2.25365E+01-6.24964E-01-5.44367E-03 1.13336E+00 6.31899E-14 5.91124E-14
 -1      2354 2.26176E+01-7.21419E-01-3.99626E-03 8.90702E-01 1.18751E-13 1.78209E-13
 -1      2355 2.28996E+01-6.93955E-01 1.20087E-02 1.31565E+00 1.37522E-13-8.81842E-14
 -1      2356 2.24814E+01-7.48524E-01-1.28295E-02 5.75093E-01 3.94927E-14 5.79598E-14
 -1      2357 2.24832E+01-7.18572E-01 1.74620E-03 3.16860E-01 7.04701E-14 3.17576E-14
 -1      2358 2.27301E+01-9.55022E-01 5.40310E-03 6.90734E-01 9.01473E-14-1.02749E-13
 -1      2359 2.22838E+01-6.57494E-01-1.39956E-02 4.54047E-02-2.38516E-14-8.26943E-14
 -1      2360 2.22203E+01-5.65080E-01 4.18593E-03-1.67430E-01-9.16875E-14-1.85788E-13
 -1      2361 2.23952E+01-8.99519E-01-5.68336E-04 7.88310E-02-5.83713E-14-1.53459E-13
 -1      2362 2.20118E+01-4.71652E-01-1.13804E-02-3.57917E-01-1.44665E-14-2.90820E-13
 -1      2363 2.19043E+01-3.67750E-01 4.40082E-03-5.03337E-01-1.03589E-13-2.53378E-13
 -1      2364 2.20048E+01-6.81068E-01-3.51106E-03-3.92372E-01-1.37280E-13-2.75922E-13
 -1      2365 2.17155E+01-2.78035E-01-7.54387E-03-6.13288E-01-9.24653E-14-1.03463E-13
 -1      2366 2.15841E+01-1.89895E-01 3.59034E-03-6.94031E-01-6.93441E-14 3.04033E-14
 -1      2367 2.16298E+01-4.26611E-01-4.10865E-03-6.93422E-01-6.33107E-14-1.64267E-13
 -1      2368 2.14243E+01-1.19607E-01-3.96818E-03-7.39800E-01-1.58493E-13 1.22460E-13
 -1      2369 2.12843E+01-5.58626E-02 2.58448E-03-7.69448E-01 9.30733E-15 1.16735E-13
 -1      2370 2.13007E+01-2.06395E-01-3.64362E-03-8.45811E-01 1.74112E-15 8.87613E-14
 -1      2371 2.11529E+01-7.55625E-03-1.21780E-03-7.70341E-01 3.56991E-14 6.78274E-14
 -1      2372 2.10151E+01 3.34638E-02 1.77747E-03-7.64413E-01 1.25618E-13-4.87460E-14
 -1      2373 2.10233E+01-4.43474E-02-2.93435E-03-8.87440E-01-6.98182E-14 1.61212E-13
 -1      2374 2.09077E+01 6.35578E-02 6.30244E-04-7.36906E-01 3.28411E-13-2.06792E-13
 -1      2375 2.07794E+01 8.76530E-02 1.29133E-03-7.08483E-01 3.42831E-13-3.03583E-13
 -1      2376 2.07928E+01 6.19743E-02-2.31820E-03-8.55004E-01 8.44004E-14-3.79181E-14
 -1      2377 2.06914E+01 1.05308E-01 1.70173E-03-6.64478E-01 2.90291E-13-3.23686E-13
 -1      2378 2.05768E+01 1.18975E-01 1.10501E-03-6.22749E-01 2.17712E-13-9.84889E-14
 -1      2379 2.06015E+01 1.26017E-01-1.84992E-03-7.77287E-01 2.84518E-13-2.02194E-13
 -1      2380 2.05040E+01 1.29774E-01 2.15689E-03-5.69704E-01 1.64645E-13-1.50777E-13
 -1      2381 2.04056E+01 1.38681E-01 1.14137E-03-5.20119E-01 2.94766E-14-2.37372E-14
 -1      2382 2.04425E+01 1.63420E-01-1.48535E-03-6.73894E-01 1.81252E-13-1.62753E-13
 -1      2383 2.03444E+01 1.46947E-01 2.13950E-03-4.61855E-01-1.71933E-13-8.53214E-14
 -1      2384 2.02641E+01 1.54839E-01 1.50072E-03-4.06927E-01-1.73393E-13-8.21696E-14
 -1      2385 2.03097E+01 1.87873E-01-1.11984E-03-5.56396E-01-8.58031E-14-4.15703E-13
 -1      2386 1.96185E+01 7.52948E-02 2.20244E-03-6.90690E-02-1.43759E-14 8.49972E-14
 -1      2387 1.96446E+01 1.06375E-01 6.94605E-03-2.17511E-02-5.89893E-15 1.05785E-13
 -1      2388 1.95990E+01 3.50760E-02 1.54309E-03-1.38552E-01 8.18730E-15 4.10962E-14
 -1      2389 1.95936E+01 5.30798E-02 3.73800E-03-1.14172E-01 6.31136E-15 8.31412E-14
 -1      2390 1.97673E+01 9.42472E-02-3.28787E-03-7.69303E-02 4.13835E-15 5.26658E-14
 -1      2391 1.96177E+01 1.22866E-02 1.17293E-03-1.72782E-01 8.33188E-14 4.90762E-14
 -1      2392 1.95937E+01 2.22791E-02 1.89808E-03-1.61703E-01 2.82154E-14 3.27239E-14
 -1      2393 1.97376E+01 4.27624E-02-2.43538E-03-1.54577E-01 3.55419E-14 3.02711E-14
 -1      2394 1.96601E+01 7.21136E-04 9.79149E-04-1.86945E-01 8.25141E-14 1.22382E-13
 -1      2395 1.96256E+01 5.45450E-03 8.30698E-04-1.83100E-01 8.18064E-14 7.83648E-14
 -1      2396 1.97411E+01 1.40536E-02-1.71741E-03-1.94252E-01 6.67045E-14 4.14167E-14
 -1      2397 1.97172E+01-3.12164E-03 9.21905E-04-1.91271E-01 5.68094E-14 1.25947E-13
 -1      2398 1.96766E+01-2.06169E-03 2.16446E-04-1.90567E-01 1.02194E-13 1.28861E-13
 -1      2399 1.97664E+01 1.32210E-04-1.20755E-03-2.12314E-01 6.68488E-14 1.26498E-13
 -1      2400 1.97840E+01-1.31901E-03 9.85950E-04-1.93019E-01 6.94300E-14 9.50373E-14
 -1      2401 1.97396E+01-2.98605E-03-1.11488E-04-1.92522E-01 4.51672E-14 1.21030E-13
 -1      2402 1.98064E+01-3.54462E-03-8.86197E-04-2.20068E-01 6.59065E-14 1.22114E-13
 -1      2403 1.98588E+01 4.88923E-03 1.16457E-03-1.97621E-01 9.19434E-14 2.43272E-14
 -1      2404 1.98109E+01 1.05289E-03-2.50650E-04-1.95093E-01 1.09463E-13 6.76666E-14
 -1      2405 1.98566E+01 3.29600E-04-7.16006E-04-2.25679E-01 1.24447E-13 8.84610E-14
 -1      2406 1.99419E+01 1.48008E-02 1.45530E-03-2.09398E-01 1.24959E-13-6.56408E-14
 -1      2407 1.98896E+01 9.09788E-03-2.63593E-04-2.03009E-01 1.06505E-13-1.25836E-14
 -1      2408 1.99153E+01 1.01610E-02-6.62289E-04-2.35335E-01 1.39034E-13-2.56241E-14
 -1      2409 2.00358E+01 2.80712E-02 1.85793E-03-2.32022E-01 4.79251E-14-3.51188E-14
 -1      2410 1.99772E+01 2.06347E-02-1.93097E-04-2.20168E-01 8.10908E-14-4.97145E-14
 -1      2411 1.99824E+01 2.50605E-02-6.96793E-04-2.54001E-01 7.92753E-14-5.16063E-14
 -1      2412 2.01442E+01 4.45725E-02 2.37157E-03-2.68816E-01 2.51857E-14 1.39456E-15
 -1      2413 2.00765E+01 3.54380E-02-6.97346E-05-2.50000E-01 2.68033E-14-1.15438E-14
 -1      2414 2.00594E+01 4.45972E-02-7.96343E-04-2.85909E-01 3.37086E-14 3.06023E-15
 -1      2415 2.02723E+01 6.42404E-02 2.98935E-03-3.22899E-01-2.55781E-14 1.81526E-14
 -1      2416 2.01919E+01 5.34301E-02 8.34603E-05-2.95687E-01-1.80087E-14 4.26567E-14
 -1      2417 2.01490E+01 6.85932E-02-9.40635E-04-3.34859E-01-2.26654E-14 7.35585E-14
 -1      2418 2.04259E+01 8.68534E-02 3.68910E-03-3.97142E-01 2.24651E-14 6.33161E-14
 -1      2419 2.03287E+01 7.45042E-02 2.48088E-04-3.60215E-01-1.67471E-14 2.31613E-14
 -1      2420 2.02544E+01 9.68840E-02-1.11145E-03-4.04338E-01-4.86663E-14 1.14463E-13
 -1      2421 2.06117E+01 1.11666E-01 4.41801E-03-4.93864E-01-3.38011E-15 1.07324E-13
 -1      2422 2.04932E+01 9.82457E-02 4.09198E-04-4.46215E-01 7.80295E-14 1.49867E-13
 -1      2423 2.03798E+01 1.28963E-01-1.29349E-03-4.97414E-01 3.37557E-14 1.60584E-13
 -1      2424 2.08364E+01 1.36781E-01 5.06890E-03-6.14094E-01-1.00700E-14 2.89271E-14
 -1      2425 2.06921E+01 1.23459E-01 5.56562E-04-5.55466E-01-5.51599E-15 1.13461E-13
 -1      2426 2.05294E+01 1.63385E-01-1.47921E-03-6.16309E-01-7.79964E-15 1.99741E-13
 -1      2427 2.11066E+01 1.58102E-01 5.44618E-03-7.56133E-01-2.55258E-14-4.73378E-14
 -1      2428 2.09326E+01 1.47362E-01 6.90618E-04-6.87860E-01-2.48608E-14-1.51718E-14
 -1      2429 2.07080E+01 1.96768E-01-1.68117E-03-7.61479E-01 3.09858E-14 3.05097E-14
 -1      2430 2.14277E+01 1.67690E-01 5.22550E-03-9.13044E-01 1.12211E-14-1.68504E-13
 -1      2431 2.12215E+01 1.64272E-01 8.36704E-04-8.39502E-01 5.07623E-15-1.27585E-13
 -1      2432 2.09209E+01 2.22157E-01-1.95629E-03-9.29918E-01 4.42864E-14-3.43081E-14
 -1      2433 2.18037E+01 1.51517E-01 3.92171E-03-1.06864E+00 1.78949E-13-1.68221E-13
 -1      2434 2.15655E+01 1.63655E-01 1.07389E-03-9.99513E-01 9.14752E-14-2.05927E-13
 -1      2435 2.11742E+01 2.26582E-01-2.44252E-03-1.11233E+00 7.93721E-14-1.78878E-13
 -1      2436 2.22362E+01 8.72216E-02 9.00639E-04-1.19172E+00 6.80382E-14-8.78755E-14
 -1      2437 2.19712E+01 1.27723E-01 1.57107E-03-1.14510E+00 1.72493E-13-8.55714E-14
 -1      2438 2.14771E+01 1.87967E-01-3.39741E-03-1.28874E+00 1.19013E-13-1.31094E-13
 -1      2439 2.27243E+01-5.57084E-02-4.48139E-03-1.22938E+00-5.92621E-14-1.77763E-13
 -1      2440 2.24445E+01 2.98569E-02 2.60708E-03-1.23487E+00 1.26085E-14-5.60810E-14
 -1      2441 2.18445E+01 7.27271E-02-5.19599E-03-1.42233E+00-1.61321E-15 9.91437E-14
 -1      2442 2.32621E+01-3.07083E-01-1.24291E-02-1.10269E+00-1.09216E-13-1.82395E-13
 -1      2443 2.29901E+01-1.62224E-01 4.44259E-03-1.20180E+00-1.39335E-13-2.05530E-13
 -1      2444 2.23006E+01-1.61504E-01-8.12009E-03-1.45202E+00-5.62156E-14-3.28123E-14
 -1      2445 2.38310E+01-6.67197E-01-2.19009E-02-7.14571E-01-1.00387E-13-1.37744E-13
 -1      2446 2.36033E+01-4.69680E-01 6.80298E-03-9.51993E-01-1.21018E-13-1.71284E-13
 -1      2447 2.28782E+01-5.47808E-01-1.17639E-02-1.28706E+00-9.13655E-14-1.82089E-13
 -1      2448 2.43806E+01-1.04784E+00-2.88812E-02 1.09424E-02-6.37936E-14 9.34746E-14
 -1      2449 2.42490E+01-8.59809E-01 7.52650E-03-3.84743E-01-1.21489E-13-1.01965E-13
 -1      2450 2.36017E+01-1.06021E+00-1.41484E-02-8.15102E-01-1.46982E-13-5.31414E-14
 -1      2451 2.47957E+01-1.20376E+00-2.55954E-02 1.03437E+00-1.38752E-14 1.86831E-13
 -1      2452 2.48216E+01-1.17485E+00 2.57008E-03 5.38969E-01 5.06175E-14 2.06694E-13
 -1      2453 2.44397E+01-1.53077E+00-1.20038E-02 5.47659E-02-5.42279E-14-5.51750E-16
 -1      2454 2.48964E+01-7.67710E-01-7.88517E-03 2.04625E+00 6.30667E-14 2.81283E-13
 -1      2455 2.51106E+01-1.08736E+00-1.41931E-02 1.64932E+00-1.33843E-14 2.26477E-13
 -1      2456 2.52200E+01-1.56386E+00-1.99040E-03 1.25583E+00-5.92928E-15 1.23446E-13
 -1      2457 2.45571E+01 4.24863E-01 1.11633E-02 2.39468E+00 3.14089E-14 4.46562E-13
 -1      2458 2.48841E+01-2.55518E-01-4.59878E-02 2.41212E+00 1.09350E-13 4.02813E-13
 -1      2459 2.56006E+01-6.86052E-01-3.32312E-03 2.37977E+00-1.22350E-14 2.42764E-13
 -1      2460 2.39964E+01 1.74840E+00-3.39220E-04 1.48814E+00-1.61399E-14 2.24895E-13
 -1      2461 2.42423E+01 1.11861E+00-7.01183E-02 2.06833E+00 1.20154E-13 4.35378E-13
 -1      2462 2.53632E+01 1.07402E+00-2.17445E-02 2.58025E+00 2.62498E-14 3.68663E-13
 -1      2463 2.37830E+01 2.13327E+00-4.08665E-02-3.93820E-01-1.29272E-13 1.15706E-14
 -1      2464 2.37969E+01 2.12833E+00-3.75900E-02 4.90407E-01-1.41255E-13 5.47644E-14
 -1      2465 2.49660E+01 2.61668E+00-5.06077E-02 1.17110E+00 6.46219E-14 3.49935E-13
 -1      2466 2.42189E+01 1.19071E+00-6.19716E-02-2.02187E+00-3.13981E-13 3.63471E-13
 -1      2467 2.39692E+01 1.79752E+00-1.20583E-03-1.41274E+00-2.96749E-13 1.82175E-13
 -1      2468 2.49197E+01 2.65365E+00-6.58696E-02-1.04361E+00-3.04395E-13 2.63913E-13
 -1      2469 2.48536E+01-2.06787E-01-4.24900E-02-2.40264E+00-1.50939E-13 5.30921E-13
 -1      2470 2.45228E+01 4.68031E-01 1.04329E-02-2.36991E+00-1.95219E-13 4.48990E-13
 -1      2471 2.53633E+01 1.14140E+00-2.46986E-02-2.47929E+00-3.67709E-13 4.78976E-13
 -1      2472 2.50905E+01-1.06353E+00-1.35873E-02-1.67919E+00 1.66064E-13 4.07526E-13
 -1      2473 2.48723E+01-7.33333E-01-6.72143E-03-2.05941E+00 9.11684E-15 3.80817E-13
 -1      2474 2.55924E+01-6.24633E-01 2.30185E-03-2.36934E+00-4.81039E-15 5.13929E-13
 -1      2475 2.48157E+01-1.17929E+00 4.92959E-03-5.72020E-01 2.16160E-13 5.75291E-13
 -1      2476 2.47851E+01-1.19845E+00-2.32165E-02-1.05712E+00 2.41581E-13 5.70467E-13
 -1      2477 2.52285E+01-1.54039E+00 2.66026E-03-1.28549E+00 8.57185E-14 5.29586E-13
 -1      2478 2.42423E+01-8.80247E-01 8.47897E-03 3.69955E-01 4.42571E-14 5.72271E-13
 -1      2479 2.43728E+01-1.06042E+00-2.67171E-02-2.36542E-02 2.18756E-13 5.68034E-13
 -1      2480 2.44536E+01-1.54443E+00-8.27411E-03-7.42944E-02 2.13160E-13 5.14795E-13
 -1      2481 2.35845E+01-4.91140E-01 6.50788E-03 9.60197E-01-1.12648E-13 3.98323E-13
 -1      2482 2.38169E+01-6.84751E-01-2.07636E-02 7.20450E-01-3.93279E-14 5.33966E-13
 -1      2483 2.36059E+01-1.09042E+00-1.39689E-02 8.16589E-01 1.28401E-13 3.77633E-13
 -1      2484 2.29565E+01-1.80082E-01 3.90883E-03 1.22891E+00-1.91071E-13 2.14649E-13
 -1      2485 2.32362E+01-3.23068E-01-1.17982E-02 1.12452E+00-7.11800E-14 2.81285E-13
 -1      2486 2.28676E+01-5.73987E-01-1.17308E-02 1.30854E+00-5.91792E-14 1.87516E-13
 -1      2487 2.23946E+01 1.65566E-02 2.04475E-03 1.27600E+00-1.72893E-14-8.58632E-14
 -1      2488 2.26838E+01-6.88394E-02-4.31990E-03 1.26406E+00-2.34177E-13-4.16030E-14
 -1      2489 2.22756E+01-1.81447E-01-7.86620E-03 1.48943E+00-9.27082E-14 5.83908E-15
 -1      2490 2.19041E+01 1.18920E-01 1.09477E-03 1.19542E+00 2.79275E-13-1.60646E-13
 -1      2491 2.21795E+01 7.72745E-02 6.96684E-04 1.23591E+00 2.09622E-13-1.19994E-13
 -1      2492 2.18054E+01 5.91571E-02-4.81675E-03 1.47153E+00 1.31778E-13-4.88098E-13
 -1      2493 2.14812E+01 1.59650E-01 7.79730E-04 1.05439E+00 1.80341E-13-1.96969E-13
 -1      2494 2.17300E+01 1.45195E-01 3.53673E-03 1.11889E+00 1.71260E-13-2.39081E-13
 -1      2495 2.14247E+01 1.80399E-01-2.99408E-03 1.34555E+00 2.42057E-13-3.02630E-13
 -1      2496 2.11209E+01 1.66482E-01 8.08137E-04 8.93706E-01 5.07306E-13-2.45737E-13
 -1      2497 2.13371E+01 1.66198E-01 4.80820E-03 9.65258E-01 3.40686E-13-1.46923E-13
 -1      2498 2.11092E+01 2.25690E-01-2.08435E-03 1.17217E+00 2.74679E-13-3.04080E-13
 -1      2499 2.08185E+01 1.58900E-01 1.08400E-03 7.34335E-01 2.36813E-13-2.10162E-13
 -1      2500 2.10004E+01 1.63925E-01 5.10058E-03 8.04701E-01 4.53506E-13-1.65200E-13
 -1      2501 2.08447E+01 2.30383E-01-1.68280E-03 9.86836E-01 3.85481E-13-1.28631E-13
 -1      2502 2.05684E+01 1.48852E-01 1.20779E-03 5.83252E-01-1.37903E-13 5.66937E-14
 -1      2503 2.07172E+01 1.54490E-01 4.91275E-03 6.50464E-01-4.60539E-14-6.85838E-14
 -1      2504 2.06219E+01 2.18609E-01-1.73720E-03 8.07893E-01 8.77149E-14 8.80703E-14
 -1      2505 2.03668E+01 1.43511E-01 1.35179E-03 4.41048E-01-1.90388E-13 1.28001E-13
 -1      2506 2.04851E+01 1.46338E-01 4.54228E-03 5.05834E-01-1.45048E-13 5.96350E-14
 -1      2507 2.04350E+01 2.04145E-01-2.90204E-03 6.40000E-01-2.69146E-13 3.08871E-13
 -1      2508 2.02082E+01 1.45361E-01 1.87612E-03 3.05530E-01 5.53622E-14 1.20896E-13
 -1      2509 2.02989E+01 1.44029E-01 3.95991E-03 3.68678E-01-1.38583E-14 9.35965E-14
 -1      2510 2.02818E+01 1.96662E-01-3.29841E-03 4.80787E-01-1.40491E-13 1.68616E-13
 -1      2511 2.01486E+01 1.42602E-01 2.33125E-03 2.30011E-01 1.55656E-14 4.66288E-14
 -1      2512 1.98789E+01 7.22887E-01-3.29805E-03 3.48282E-01 1.36746E-13 3.96885E-13
 -1      2513 1.99134E+01 6.62263E-01 6.15413E-04 3.86938E-01-8.99004E-14-2.31173E-13
 -1      2514 1.98299E+01 8.17618E-01-3.15910E-03 2.29643E-01 4.98805E-13 8.36826E-13
 -1      2515 1.98519E+01 7.75483E-01-8.17939E-04 2.88177E-01 2.09489E-13 7.59625E-13
 -1      2516 1.98237E+01 7.44254E-01 2.43922E-03 3.64486E-01 4.50959E-13 6.86625E-13
 -1      2517 2.00336E+01 4.39427E-01-2.34456E-03 4.31461E-01-4.20545E-13-1.70364E-13
 -1      2518 2.00812E+01 3.62443E-01 2.95762E-03 4.14397E-01-2.10394E-13-2.70067E-13
 -1      2519 1.99513E+01 5.90660E-01-2.81461E-03 4.19218E-01-5.66992E-13-2.97387E-13
 -1      2520 1.99929E+01 5.20381E-01 2.05293E-03 4.29496E-01-5.77025E-13-5.91658E-14
 -1      2521 2.00085E+01 4.79199E-01-1.02032E-03 4.98664E-01-2.43370E-13-2.60388E-13
 -1      2522 1.99117E+01 6.25223E-01 1.94355E-03 4.65023E-01-7.43901E-14 1.65637E-13
 -1      2523 1.98074E+01 8.64629E-01-2.66906E-03 8.28804E-02 3.28540E-13 1.25779E-13
 -1      2524 1.98155E+01 8.46107E-01-1.97533E-03 1.52100E-01 4.10301E-13 3.18208E-13
 -1      2525 1.97678E+01 8.22120E-01 2.88205E-03 2.17000E-01 3.87649E-13 5.73617E-13
 -1      2526 1.98117E+01 8.59760E-01-1.90492E-03-7.10038E-02 1.54863E-13 1.68873E-14
 -1      2527 1.98062E+01 8.66618E-01-2.80589E-03-9.33484E-04 1.03844E-13 1.24348E-13
 -1      2528 1.97467E+01 8.51405E-01 2.96711E-03 4.44072E-02 2.13768E-13-3.51510E-14
 -1      2529 1.98403E+01 8.05363E-01-1.00102E-03-2.11597E-01 1.85961E-13-2.66234E-13
 -1      2530 1.98228E+01 8.36221E-01-3.18738E-03-1.49893E-01 1.28254E-13 3.42160E-14
 -1      2531 1.97603E+01 8.30529E-01 2.67884E-03-1.29344E-01 1.71192E-13 3.06780E-14
 -1      2532 1.98875E+01 7.11628E-01 6.39416E-06-3.20098E-01 2.65191E-13-2.82459E-13
 -1      2533 1.98611E+01 7.61031E-01-3.15366E-03-2.74854E-01 2.59944E-13-3.44752E-13
 -1      2534 1.98040E+01 7.64851E-01 2.16483E-03-2.80888E-01 2.95777E-13-2.18932E-13
 -1      2535 1.99490E+01 5.87063E-01 9.46248E-04-3.87675E-01 3.58339E-13 2.34499E-13
 -1      2536 1.99161E+01 6.50743E-01-2.76644E-03-3.62768E-01 2.81633E-13-1.68085E-13
 -1      2537 1.98708E+01 6.63338E-01 1.38636E-03-3.93864E-01 2.12911E-13-2.53387E-13
 -1      2538 2.00181E+01 4.46381E-01 1.61249E-03-4.04646E-01 1.43145E-13 2.62959E-13
 -1      2539 1.99823E+01 5.16937E-01-2.04410E-03-4.04082E-01 2.91069E-13 4.39982E-13
 -1      2540 1.99538E+01 5.36820E-01 4.99186E-04-4.56785E-01 2.69231E-13 2.08589E-13
 -1      2541 2.00870E+01 3.03899E-01 2.09934E-03-3.69142E-01-2.25408E-13-4.24688E-13
 -1      2542 2.00527E+01 3.74443E-01-1.00959E-03-3.93244E-01-3.91441E-14-1.74286E-13
 -1      2543 2.00431E+01 3.98733E-01-2.20085E-04-4.61883E-01 1.41780E-14-1.62660E-13
 -1      2544 4.32100E+00-2.93882E+00 5.64971E-02 3.07358E+00-1.06970E-13 3.40838E-13
 -1      2545 3.20406E+00-2.80429E+00 7.81916E-02 7.46448E-01-1.32101E-13 5.50726E-13
 -1      2546 1.01362E+01-4.50526E+00 2.74979E-02 6.38093E+00-1.17018E-13-8.32945E-14
 -1      2547 7.00253E+00-3.79185E+00 8.23235E-02 4.99779E+00-1.46189E-13-1.23596E-13
 -1      2548 3.00172E+00-3.00019E+00 6.15342E-02-1.26470E+00-8.42035E-14 2.82885E-13
 -1      2549 4.11293E+00-3.05532E+00 6.03382E-02-3.37504E+00-8.39329E-14 6.95555E-14
 -1      2550 1.96972E+01 1.44920E-01 3.34499E-03 5.93780E-02 8.24124E-15 1.17967E-13
 -1      2551 1.97751E+01 1.99330E-01 1.24055E-02 1.46278E-01 2.88636E-14 1.34442E-13
 -1      2552 1.98455E+01 1.83601E-01-3.93793E-03 6.33560E-02 1.59833E-14 6.96947E-14
 -1      2553 2.01129E+01 1.91120E-01 1.41009E-03-2.58911E-01-2.21102E-13-3.04265E-13
 -1      2554 1.72909E+01-5.52107E+00-3.80101E-02 6.69461E+00-1.58429E-13-2.56954E-13
 -1      2555 1.37047E+01-5.29793E+00 3.59151E-02 6.52749E+00-1.62537E-13 5.53169E-14
 -1      2556 2.05415E+01 1.95517E+00-1.38701E-02-1.89961E+00-5.82243E-14-8.79366E-14
 -1      2557 2.04073E+01 1.21577E+00-6.07031E-03-1.28801E+00-4.40828E-14-8.27720E-14
 -1      2558 2.03751E+01 1.37532E+00 5.42132E-03-1.23598E+00-3.29099E-14-8.91166E-14
 -1      2559 2.02851E+01 2.38515E+00-5.27827E-03-1.84487E+00-4.56033E-14-9.32032E-14
 -1      2560 3.08546E+01-1.17428E+00-8.54732E-02 3.65523E-01 9.16385E-14-3.08392E-13
 -1      2561 2.85102E+01-3.23201E+00-3.60596E-02 1.56662E+00 6.77514E-14-3.34566E-13
 -1      2562 3.16031E+01 6.69800E+00-1.86568E-01-8.45763E-01-1.89126E-13 1.75512E-13
 -1      2563 3.19418E+01 5.37932E+00-8.82457E-02-9.37374E-01-1.66006E-13 1.08968E-13
 -1      2564 5.91803E+00-2.94472E+00 8.94076E-02 4.62741E+00-2.35367E-14-1.62592E-13
 -1      2565 4.11246E+00-2.50967E+00 1.26982E-01 2.35446E+00-1.87142E-14-4.14391E-13
 -1      2566 1.95292E+01 3.58755E+00-1.01345E-02-2.45253E-01 6.15556E-14-7.34638E-14
 -1      2567 1.95448E+01 3.56660E+00-9.73330E-03-4.26048E-01 4.83091E-14-8.35391E-14
 -1      2568 1.97209E+01 3.16657E+00-6.89635E-04-4.73391E-01 4.57820E-14-7.61934E-14
 -1      2569 1.96873E+01 3.22716E+00-9.19930E-04-1.51908E-01 5.46014E-14-5.75130E-14
 -1      2570 3.34053E+01 7.11217E+00-1.08032E-01 4.72868E-01-1.97509E-13 2.49786E-13
 -1      2571 3.40036E+01 7.32859E+00-6.73502E-02-1.36198E-01-1.19071E-13 2.13191E-13
 -1      2572 1.15948E+01-4.88346E+00 6.55189E-02-6.34761E+00-1.08802E-14-4.57412E-14
 -1      2573 1.57458E+01-5.39267E+00-1.95038E-02-6.82578E+00 5.35127E-14 6.86950E-14
 -1      2574 3.39826E+01 6.65249E+00-7.85194E-02-7.23415E-01-8.33777E-14 5.65936E-14
 -1      2575 3.34180E+01 5.36389E+00-1.14861E-01-1.04715E+00-1.07470E-13-6.26166E-14
 -1      2576 3.14536E+01 3.98812E+00-4.37186E-02-1.81013E+00-4.56302E-14-3.68316E-14
 -1      2577 3.25634E+01 4.29793E+00-1.11575E-01 1.29500E+00 1.22125E-14 1.93567E-13
 -1      2578 3.32296E+01 5.93865E+00-8.21617E-02 1.11136E+00-9.63674E-14 1.82021E-13
 -1      2579 2.64847E+01-4.48476E+00-2.46084E-02-3.10576E+00 1.35600E-13 2.59598E-13
 -1      2580 2.86142E+01-3.39174E+00-1.12805E-01-2.01496E+00 1.77136E-13 3.35010E-13
 -1      2581 3.16841E+01 7.08919E+00-1.23035E-01 5.73919E-01-8.23230E-14 1.83492E-13
 -1      2582 3.15121E+01 7.50556E+00-1.50753E-01-4.88568E-02-1.24678E-13 2.11605E-13
 -1      2583 2.00520E+01-5.63656E+00 1.21946E-02-5.72076E+00 9.56735E-14 6.16590E-14
 -1      2584 2.39186E+01-5.18376E+00-5.13090E-02-4.85710E+00 9.93372E-14 1.72307E-13
 -1      2585 2.55884E+01-5.12113E+00 4.76656E-02-3.28470E+00 1.70003E-13 2.36616E-13
 -1      2586 5.21007E+00-3.55478E+00 6.53334E-02-3.92671E+00-1.40110E-13-4.77007E-13
 -1      2587 7.54846E+00-3.93610E+00 2.42191E-02-5.55969E+00-5.30131E-14-3.19106E-13
 -1      2588 3.15147E+00-2.52180E+00 7.51314E-02-3.59498E-02-1.04913E-13-5.12923E-13
 -1      2589 3.69236E+00-3.01304E+00 6.98456E-02-2.30272E+00-8.23785E-14-5.63161E-13
 -1      2590 6.20156E+00-2.08713E+00 1.59109E-01-3.13617E+00-1.01016E-13-4.71817E-13
 -1      2591 1.12507E+01-4.47830E+00 3.41577E-02 6.90569E+00-6.35603E-14-1.03306E-13
 -1      2592 8.61184E+00-3.88240E+00 9.80536E-02 5.96912E+00-2.40641E-14-9.90319E-14
 -1      2593 1.89700E+01-5.22624E+00-1.76541E-03 6.64526E+00 5.57332E-14 5.92339E-14
 -1      2594 1.49142E+01-5.16296E+00 5.30858E-02 6.81955E+00 4.32987E-14-7.81458E-14
 -1      2595 2.51155E+01-4.27197E+00-4.23892E-02 4.56151E+00-1.79468E-13 4.01901E-13
 -1      2596 2.22822E+01-5.03413E+00 9.63170E-03 5.34851E+00-4.54081E-14 2.39017E-13
 -1      2597 3.18403E+01 3.39569E+00-1.60915E-01-6.11203E-01-2.43527E-13 2.04753E-13
 -1      2598 3.12464E+01 1.72721E+00-5.22209E-02-1.69289E-01-2.95292E-13 1.70863E-13
 -1      2599 1.17690E+01-5.09037E+00 9.38454E-03-6.76212E+00 1.86740E-13-4.66988E-14
 -1      2600 1.54468E+01-5.11410E+00 2.62962E-03-6.99611E+00 9.36196E-14-1.74097E-13
 -1      2601 3.18205E+01 4.41255E+00-9.18363E-02 9.24522E-01 1.49519E-13 2.56101E-13
 -1      2602 3.18766E+01 5.74594E+00-1.79731E-01 9.30994E-01 4.07452E-14 1.97176E-13
 -1      2603 3.00879E+01-1.18482E-01-5.76233E-02-5.73347E-01 1.96065E-13 1.01474E-13
 -1      2604 3.14773E+01 2.14434E+00-1.35577E-01 3.46999E-01 2.89574E-13 4.07813E-13
 -1      2605 2.66987E+01-3.58575E+00 1.92585E-03-3.18260E+00 1.50713E-14-2.80553E-13
 -1      2606 2.86744E+01-2.35432E+00-1.10261E-01-2.20058E+00 8.33222E-14-8.73190E-14
 -1      2607 1.99775E+01-5.30231E+00 3.70603E-02-6.10669E+00 1.48770E-14-4.20532E-13
 -1      2608 2.38852E+01-4.64164E+00-3.04396E-02-5.08067E+00-8.49321E-14-5.64770E-13
 -1      2609 6.36388E+00-3.68272E+00 8.64815E-02-5.07715E+00 2.25098E-14-1.98230E-13
 -1      2610 8.81905E+00-4.35568E+00 1.95457E-02-6.37776E+00 1.68976E-13-1.34059E-13
 -1      2611 1.17773E+01-4.00195E+00 1.28863E-01-6.51561E+00 2.70728E-13-1.54016E-13
 -1      2612 2.04810E+01 8.75026E-01-7.30109E-03 1.22848E+00 9.36386E-14 1.73730E-13
 -1      2613 2.08317E+01 1.25693E+00-6.04464E-03 1.72916E+00 9.39145E-14 2.07726E-13
 -1      2614 2.06391E+01 1.71558E+00-1.57935E-02 1.92337E+00 1.14421E-13 1.68830E-13
 -1      2615 2.04422E+01 1.05822E+00-9.41360E-03 1.24315E+00 9.71697E-14 1.26534E-13
 -1      2616 2.54977E+01-4.98824E+00-1.00429E-01 3.84185E+00 5.41511E-14-5.99742E-13
 -1      2617 2.14676E+01-5.56145E+00 2.58436E-02 5.37390E+00-4.42424E-14-5.02251E-13
 -1      2618 2.08430E+01-5.43028E+00 1.10366E-01 5.49180E+00-1.76192E-13-3.58671E-13
 -1      2619 3.16030E+01 6.61839E+00-4.09465E-02-6.94772E-01-1.57208E-13 2.38212E-13
 -1      2620 1.99191E+01 2.81841E+00 3.19622E-03-1.10130E+00 1.85443E-14-9.05335E-14
 -1      2621 1.97846E+01 3.16145E+00-1.49532E-02-1.28635E+00 1.07544E-14-9.33628E-14
 -1      2622 1.98774E+01 3.03647E+00-1.82933E-02-1.48259E+00-1.54100E-14-8.59573E-14
 -1      2623 1.99895E+01 3.41645E-01-3.62392E-03 3.04607E-01 5.66695E-14 9.40324E-14
 -1      2624 2.04174E+01 2.11579E+00-1.27581E-02 1.87632E+00 1.30466E-13 1.28406E-13
 -1      2625 2.73991E+01-4.35928E+00 7.49739E-03 2.17035E+00 1.40166E-15-4.29712E-13
 -1      2626 2.58181E+01-4.89595E+00 5.31582E-02 2.73195E+00 5.93692E-14-4.84099E-13
 -1      2627 2.80957E+01-3.58537E+00-8.81652E-02 3.34718E-01 5.67948E-14-2.35770E-13
 -1      2628 2.55108E+01-4.56554E+00 3.27558E-02-3.53503E+00-7.09988E-14-2.35326E-13
 -1      2629 2.90436E+01-1.55248E+00-1.30106E-02-3.73595E-01 1.44242E-13 2.21462E-13
 -1      2630 3.05158E+01-1.38657E-01-4.02578E-02-1.34875E+00 7.74242E-14-2.33341E-13
 -1      2631 3.01719E+01 2.66480E+00-5.19594E-02 1.37216E+00 1.46438E-13 3.78808E-13
 -1      2632 1.36467E+01-4.30254E+00 1.32409E-01 6.30926E+00-2.02116E-13-3.55271E-15
 -1      2633 3.01168E+01 3.93094E+00-6.52825E-02-1.54424E+00-2.38948E-13 2.13551E-13
 -1      2634 2.01556E+01 2.00023E-01 5.13314E-04 3.24078E-01-3.47430E-14 1.31358E-13
 -1      2635 2.01373E+01 2.59048E-01-4.19741E-04 3.66580E-01-2.82023E-15 1.05597E-13
 -1      2636 2.68682E+01-3.82067E+00-1.67722E-03 2.77399E+00-1.98591E-13 2.84078E-13
 -1      2637 4.92099E+00-1.61597E+00 1.63619E-01-1.81755E-01-8.54334E-14 3.62710E-13
 -1      2638 7.54518E+00-2.38844E+00 1.64702E-01 4.05116E+00-6.96249E-14 9.31755E-14
 -1      2639 2.15155E+01-5.27750E+00 7.62404E-02 5.51574E+00 5.68157E-14 1.95968E-13
 -1      2640 6.76344E+00-2.47677E+00 1.43125E-01-4.23027E+00-6.01325E-14-1.44107E-13
 -1      2641 2.04327E+01 1.80836E+00 1.25482E-02 1.56386E+00 1.20753E-13 1.14391E-13
 -1      2642 2.01137E+01 2.62197E+00-1.12017E-02-1.68089E+00-3.55534E-14-9.06445E-14
 -1      2643 5.38105E+00-1.48698E+00 1.67139E-01 1.18105E+00-1.90611E-14-4.42951E-13
 -1      2644 1.94494E+01-5.33582E+00 1.07270E-01-5.82974E+00 5.27356E-14 1.69621E-14
 -1      2645 1.86925E+01-5.31185E+00 5.76665E-02-6.43541E+00 5.97300E-14-3.14646E-13
 -1      2646 2.11418E+01-5.36753E+00-7.53304E-02-5.44272E+00-3.46945E-16-4.89539E-13
 -1      2647 1.74108E+01-4.73163E+00 1.47130E-01-6.48060E+00 1.21791E-13-3.15858E-13
 -1      2648 2.96785E+01 6.64551E+00-1.07945E-01-6.02894E-01-1.64591E-13 8.47794E-14
 -1      2649 2.98921E+01 6.06670E+00-8.90659E-02 1.11584E+00 6.68909E-15 1.28578E-13
 -1      2650 1.14569E+01-3.77729E+00 1.36094E-01-5.94655E+00-1.26177E-13-7.30249E-14
 -1      2651 3.00328E+01 2.30023E-02-9.87576E-04-4.33215E-02-2.04683E-13 1.32339E-13
 -1      2652 8.74740E+00-2.62975E+00 1.41156E-01 5.17768E+00 6.80012E-14-1.57430E-13
 -1      2653 2.94206E+01-2.47015E+00-4.43469E-02-1.66615E-01 1.18483E-13 2.17992E-13
 -1      2654 3.03356E+01 9.41554E-01-4.43644E-02 1.75522E+00 3.25712E-14 1.26454E-13
 -1      2655 3.17551E+01 2.47297E+00-1.09181E-01 1.60750E+00 7.27751E-14 2.08222E-13
 -1      2656 3.00006E+01 3.18822E+00-1.94562E-01 2.31219E+00 1.90403E-14 1.07164E-13
 -1      2657 3.13358E+01 6.11830E+00-7.24488E-02 1.20127E+00-7.32192E-14 1.95274E-13
 -1      2658 1.49395E+01-4.46902E+00 1.18011E-01 6.66683E+00 1.49603E-14 2.06779E-14
 -1      2659 2.01723E+01 1.63114E-01 2.33435E-03-3.10136E-01-3.68901E-13-3.25712E-13
 -1      2660 2.01208E+01 2.41269E-01-9.67693E-04-3.50309E-01-3.07973E-13-4.25404E-13
 -1      2661 2.01382E+01 2.69689E-01 6.22905E-04-4.27814E-01-3.14388E-13-4.47113E-13
 -1      2662 2.02309E+01 1.59542E-01 2.51763E-03-3.64090E-01-2.81877E-13-1.28865E-13
 -1      2663 2.01541E+01 3.02131E-01 2.06564E-03 4.56688E-01-1.21562E-13-2.38858E-13
 -1      2664 2.02147E+01 2.02875E-01-1.42818E-03-4.49095E-01-3.27333E-13-3.10408E-13
 -1      2665 1.98542E+01 2.76880E+00-6.29814E-03 5.15902E-01 9.22510E-14-3.04327E-14
 -1      2666 1.98299E+01 2.81889E+00-5.70185E-03 3.65023E-01 8.83948E-14-1.15556E-14
 -1      2667 1.98132E+01 2.85675E+00-5.61014E-03 2.29365E-01 8.40513E-14-8.39845E-15
 -1      2668 1.98045E+01 2.87358E+00-5.60124E-03 7.48155E-02 7.09154E-14-2.30961E-14
 -1      2669 1.99597E+01 2.50637E+00 3.68968E-03 2.64520E-01 8.18546E-14-1.43534E-14
 -1      2670 2.00486E+01 2.32594E+00-1.07171E-02 1.04615E+00 1.10332E-13 2.08473E-14
 -1      2671 1.99856E+01 2.47531E+00-6.36660E-03 9.10287E-01 1.12919E-13-3.39138E-15
 -1      2672 2.02177E+01 1.90977E+00-1.19426E-02 1.22818E+00 1.15158E-13 7.20695E-14
 -1      2673 2.01274E+01 2.14780E+00-4.83956E-03 1.13465E+00 1.09904E-13 4.86872E-14
 -1      2674 2.01937E+01 1.88907E+00 6.47850E-03 9.26552E-01 9.74523E-14 4.49663E-14
 -1      2675 2.02094E+01 7.28168E-01-3.43595E-03 6.43461E-01 8.82337E-14 8.19081E-14
 -1      2676 2.03510E+01 9.52548E-01 9.17985E-03 9.07607E-01 8.18113E-14 8.50863E-14
 -1      2677 2.01893E+01 2.27698E+00 3.99365E-03-1.42848E+00-2.50198E-14-7.85500E-14
 -1      2678 2.00675E+01 4.18324E-01-1.53301E-03 2.86887E-01 5.37697E-14 6.99268E-14
 -1      2679 2.01682E+01 5.55971E-01 1.04769E-02 4.50675E-01 7.66394E-14 7.53109E-14
 -1      2680 2.02530E+01 8.24090E-01 7.91575E-04 6.17288E-01 8.70061E-14 6.21165E-14
 -1      2681 2.88454E+01 1.35910E+00-5.66942E-02 1.66603E+00 1.60649E-13 1.65173E-13
 -1      2682 2.87000E+01 3.17543E+00-2.02276E-01 1.85920E+00 5.20972E-14-8.47794E-14
 -1      2683 2.02239E+01 6.27642E-01 1.10156E-02-4.34747E-01-1.68396E-14-4.50664E-14
 -1      2684 2.01332E+01 4.79248E-01-3.15426E-03-2.74893E-01-2.38520E-14-3.94364E-14
 -1      2685 2.01069E+01 3.67845E-01 6.62555E-03-1.54776E-01-2.74362E-14-2.15043E-14
 -1      2686 2.00495E+01 2.74731E-01-1.46592E-03-5.52566E-02-1.23612E-14-2.91808E-14
 -1      2687 2.02006E+01 5.36712E-01-6.67259E-04-2.59486E-01-2.23271E-14-4.15255E-14
 -1      2688 2.00240E+01 2.06114E-01 4.51394E-03 2.23927E-02 1.18034E-14-2.09438E-14
 -1      2689 1.99902E+01 1.48820E-01-6.19980E-04 8.18234E-02 2.05110E-14-1.39242E-14
 -1      2690 2.01305E+01 3.08206E-01-2.13798E-03-4.77976E-02-3.33780E-15-5.13284E-14
 -1      2691 1.99705E+01 1.07046E-01 2.85315E-03 1.28883E-01-4.53064E-15-1.50956E-14
 -1      2692 1.99554E+01 7.27181E-02-3.03997E-05 1.62530E-01-4.17559E-14-4.23234E-14
 -1      2693 2.00763E+01 1.67576E-01-1.97020E-03 8.61745E-02-1.29081E-15-5.71944E-14
 -1      2694 1.99420E+01 4.84167E-02 1.64530E-03 1.89290E-01-5.50586E-14-4.23622E-14
 -1      2695 1.99404E+01 2.95689E-02 3.55491E-04 2.07178E-01-3.22713E-14-5.23456E-14
 -1      2696 2.00385E+01 8.22773E-02-1.62345E-03 1.66507E-01-4.82630E-14-6.20879E-14
 -1      2697 1.99327E+01 1.72091E-02 8.03688E-04 2.21670E-01-1.30091E-14-3.06859E-14
 -1      2698 1.99406E+01 9.14699E-03 6.25195E-04 2.30896E-01-3.79787E-14-2.56576E-14
 -1      2699 2.00155E+01 3.46083E-02-1.26887E-03 2.12480E-01-1.05037E-14 1.95995E-15
 -1      2700 1.99375E+01 5.25077E-03 2.20210E-04 2.39109E-01-5.69313E-14-3.64743E-16
 -1      2701 1.99522E+01 4.95444E-03 8.38884E-04 2.44780E-01-5.32940E-14 1.36012E-14
 -1      2702 2.00046E+01 1.32197E-02-9.74838E-04 2.38587E-01-2.64171E-14 3.29644E-14
 -1      2703 1.99528E+01 7.24431E-03-1.80344E-04 2.51206E-01-8.51680E-14 1.90390E-14
 -1      2704 1.99727E+01 1.26966E-02 1.03281E-03 2.57073E-01-6.24406E-14-4.32087E-15
 -1      2705 2.00031E+01 1.07611E-02-7.54725E-04 2.55749E-01-4.95001E-14 3.98842E-14
 -1      2706 1.99762E+01 1.96139E-02-4.53860E-04 2.65104E-01-6.49069E-14 2.07349E-14
 -1      2707 2.00006E+01 2.94010E-02 1.22642E-03 2.73960E-01-9.13394E-14-2.79413E-14
 -1      2708 2.00092E+01 2.22910E-02-6.01699E-04 2.72202E-01-8.49978E-14 3.25993E-14
 -1      2709 2.00067E+01 3.97999E-02-6.39775E-04 2.86172E-01-6.27670E-14-4.20209E-14
 -1      2710 2.00355E+01 5.28276E-02 1.42739E-03 3.00098E-01-3.09644E-14-4.27279E-14
 -1      2711 2.00214E+01 4.43196E-02-5.04307E-04 2.94182E-01-7.86641E-14 3.45431E-14
 -1      2712 2.00440E+01 6.57364E-02-7.62568E-04 3.18434E-01 4.47756E-15-6.45379E-14
 -1      2713 2.00776E+01 8.09850E-02 1.63344E-03 3.38917E-01 1.53080E-14-1.06455E-14
 -1      2714 2.00390E+01 7.41277E-02-4.52645E-04 3.26411E-01-1.43920E-14 6.35009E-14
 -1      2715 2.00887E+01 9.53774E-02-8.31903E-04 3.64759E-01-1.50956E-14-2.74402E-14
 -1      2716 2.01280E+01 1.11646E-01 1.83219E-03 3.92689E-01-3.68538E-14-2.77201E-14
 -1      2717 2.00620E+01 1.09179E-01-4.41515E-04 3.72363E-01-8.30231E-15-3.28831E-14
 -1      2718 2.01422E+01 1.26188E-01-8.41184E-04 4.26827E-01-7.14494E-14 8.13899E-15
 -1      2719 2.01883E+01 1.41800E-01 1.99972E-03 4.62373E-01-1.07784E-13-2.34764E-14
 -1      2720 2.00910E+01 1.46516E-01-4.73693E-04 4.34324E-01-4.80735E-14-1.06092E-13
 -1      2721 2.02068E+01 1.54544E-01-7.64239E-04 5.04856E-01-8.13632E-14-3.28005E-14
 -1      2722 2.02611E+01 1.66992E-01 2.09842E-03 5.47205E-01-4.54959E-14-1.45302E-14
 -1      2723 2.01273E+01 1.82072E-01-5.64718E-04 5.13233E-01-9.67458E-14-2.94661E-14
 -1      2724 2.02858E+01 1.75018E-01-5.50219E-04 5.97054E-01-7.14615E-14-8.23687E-14
 -1      2725 2.03498E+01 1.80548E-01 2.07406E-03 6.43996E-01-1.25555E-13-1.07449E-13
 -1      2726 2.01735E+01 2.09849E-01-7.49703E-04 6.08277E-01-1.12652E-13-2.72228E-14
 -1      2727 2.03840E+01 1.79564E-01-1.17683E-04 6.98767E-01-1.51708E-13-1.03931E-13
 -1      2728 2.04597E+01 1.72757E-01 1.85175E-03 7.46111E-01-1.12680E-13-7.87553E-14
 -1      2729 2.02342E+01 2.20975E-01-1.09207E-03 7.16229E-01-1.18967E-13-1.25974E-13
 -1      2730 2.05086E+01 1.56758E-01 6.49049E-04 8.01258E-01-6.72070E-14-6.34646E-14
 -1      2731 2.05984E+01 1.30264E-01 1.32909E-03 8.42114E-01 2.20822E-14-8.89252E-14
 -1      2732 2.03167E+01 2.02771E-01-1.69185E-03 8.30438E-01-6.59895E-14-8.80869E-14
 -1      2733 2.06700E+01 9.14991E-02 1.89403E-03 8.90117E-01 9.41289E-14-1.02429E-13
 -1      2734 2.07767E+01 3.62930E-02 3.64562E-04 9.14116E-01 1.69393E-13-1.35906E-13
 -1      2735 2.04324E+01 1.38180E-01-2.68556E-03 9.39444E-01 1.21299E-14-4.46596E-14
 -1      2736 2.08827E+01-3.39568E-02 3.75603E-03 9.43349E-01 2.52290E-13-1.92317E-13
 -1      2737 2.10094E+01-1.27038E-01-1.23415E-03 9.36047E-01 2.30103E-13-1.67843E-13
 -1      2738 2.05991E+01 6.42643E-03-4.21817E-03 1.02507E+00 1.66124E-13-1.69288E-13
 -1      2739 2.11647E+01-2.35896E-01 6.27454E-03 9.29440E-01 1.69584E-13-1.44404E-13
 -1      2740 2.13132E+01-3.72060E-01-3.70520E-03 8.72477E-01 1.04156E-13-1.18017E-13
 -1      2741 2.08410E+01-2.13397E-01-6.34718E-03 1.05995E+00 2.17720E-13-2.74737E-13
 -1      2742 2.15336E+01-5.19301E-01 9.15267E-03 8.06471E-01 2.22691E-14-1.75270E-13
 -1      2743 2.17010E+01-6.91254E-01-7.12135E-03 6.79680E-01-5.00560E-14-1.84125E-13
 -1      2744 2.11879E+01-5.32797E-01-8.82843E-03 1.00471E+00 2.48822E-14-1.04886E-13
 -1      2745 2.19949E+01-8.58742E-01 1.14676E-02 5.25595E-01-7.38172E-14-1.62539E-13
 -1      2746 2.21685E+01-1.03280E+00-1.08616E-02 3.13583E-01-6.18889E-14-1.36192E-13
 -1      2747 2.16662E+01-9.34023E-01-1.06628E-02 8.06673E-01-4.54217E-14-1.30582E-13
 -1      2748 2.25198E+01-1.17058E+00 1.09378E-02 4.77952E-02-2.25576E-14-1.09137E-13
 -1      2749 2.26711E+01-1.27400E+00-1.35822E-02-2.45173E-01-1.72106E-14-2.16934E-13
 -1      2750 2.22766E+01-1.33596E+00-9.68237E-03 4.08403E-01-2.91070E-14-2.68794E-14
 -1      2751 2.30235E+01-1.29171E+00 4.90062E-03-6.23918E-01 3.17238E-15-1.72058E-13
 -1      2752 2.31078E+01-1.20233E+00-9.89154E-03-9.53177E-01-1.60145E-14-1.80990E-13
 -1      2753 2.29652E+01-1.57465E+00-5.58631E-03-2.26552E-01-1.55355E-15-2.16632E-13
 -1      2754 2.33350E+01-9.82000E-01-1.12836E-02-1.35606E+00-7.13222E-14-1.34086E-13
 -1      2755 2.33193E+01-6.07626E-01-1.55112E-03-1.60230E+00-1.00997E-13-9.67924E-14
 -1      2756 2.35727E+01-1.34702E+00 7.19452E-03-1.04011E+00-3.86808E-14-1.29541E-13
 -1      2757 2.33138E+01-9.04034E-02-3.05568E-02-1.85820E+00-1.46917E-13-1.42854E-13
 -1      2758 2.32063E+01 5.52967E-01 1.61709E-02-1.85411E+00-1.74187E-13-9.66957E-14
 -1      2759 2.38762E+01-4.67559E-01 7.11139E-03-1.77222E+00-1.81022E-13-1.49228E-13
 -1      2760 2.29626E+01 1.17833E+00-4.90337E-02-1.67595E+00-1.49387E-13-6.73229E-14
 -1      2761 2.28668E+01 1.79263E+00 1.44093E-02-1.33587E+00-1.27627E-13-6.22623E-14
 -1      2762 2.37102E+01 1.10085E+00 5.79387E-03-1.96196E+00-1.07133E-13-8.18980E-14
 -1      2763 2.26518E+01 2.22751E+00-2.67384E-02-7.32630E-01-8.09457E-14-1.31881E-13
 -1      2764 2.26191E+01 2.40842E+00-8.11894E-03-1.34925E-01-2.04316E-14-1.92803E-13
 -1      2765 2.33816E+01 2.42736E+00-1.83521E-02-1.18212E+00-1.87489E-13-1.65066E-13
 -1      2766 2.26703E+01 2.30399E+00 2.21861E-03 6.13940E-01 3.00454E-14-1.89279E-13
 -1      2767 2.27453E+01 1.92614E+00-3.33203E-02 1.15217E+00 1.14587E-14-1.05617E-13
 -1      2768 2.32205E+01 2.84631E+00-3.74325E-02 2.71497E-01 4.22475E-14-1.52651E-13
 -1      2769 2.29924E+01 1.36273E+00 1.63223E-02 1.60736E+00 2.68396E-14 2.93708E-14
 -1      2770 2.31160E+01 6.97254E-01-3.96213E-02 1.82715E+00 1.52340E-13 2.48729E-14
 -1      2771 2.34899E+01 1.98468E+00-1.48962E-02 1.54402E+00 1.61329E-14 9.32934E-15
 -1      2772 2.32816E+01 6.34488E-02 9.68876E-03 1.81429E+00 1.22920E-13 1.96868E-14
 -1      2773 2.33531E+01-4.98677E-01-2.53584E-02 1.70013E+00 1.14507E-13 1.24576E-14
 -1      2774 2.38182E+01 4.36079E-01 3.95592E-03 1.94611E+00 1.29112E-13 9.63066E-14
 -1      2775 2.32697E+01-9.02897E-01-3.40707E-03 1.36774E+00 1.74829E-13-3.28380E-14
 -1      2776 2.32410E+01-1.16996E+00-4.49680E-03 1.06938E+00 1.80767E-13 9.11592E-14
 -1      2777 2.38039E+01-8.76517E-01 1.16250E-02 1.51049E+00 5.78474E-14-5.88019E-14
 -1      2778 2.29533E+01-1.29004E+00-1.17036E-02 6.56439E-01 7.86888E-14-1.52015E-13
 -1      2779 2.28341E+01-1.29456E+00 7.19441E-03 3.27913E-01 5.30351E-14-2.66025E-13
 -1      2780 2.33662E+01-1.51542E+00 2.78729E-03 7.00468E-01 1.49712E-14-1.95533E-13
 -1      2781 2.24743E+01-1.21997E+00-1.25830E-02-1.42859E-02 4.55482E-14-2.84500E-13
 -1      2782 2.23062E+01-1.08131E+00 1.10336E-02-2.84265E-01-9.02935E-14-3.28822E-13
 -1      2783 2.27044E+01-1.53380E+00-6.46587E-03-6.80582E-02-3.35269E-14-4.20801E-13
 -1      2784 2.19717E+01-9.23363E-01-9.41395E-03-5.10370E-01-1.06247E-13-3.79680E-13
 -1      2785 2.17936E+01-7.44383E-01 1.03861E-02-6.93461E-01-4.41369E-14-3.41383E-13
 -1      2786 2.20311E+01-1.21216E+00-1.00294E-02-6.21938E-01-5.04454E-14-3.25635E-13
 -1      2787 2.15270E+01-5.79726E-01-5.55737E-03-8.14284E-01 1.85929E-14-1.27236E-13
 -1      2788 2.13618E+01-4.18716E-01 7.91603E-03-9.16117E-01 7.26760E-14-5.66390E-14
 -1      2789 2.14644E+01-7.93840E-01-9.39331E-03-9.46024E-01 1.47348E-13-2.01250E-13
 -1      2790 2.11671E+01-2.83525E-01-2.52753E-03-9.59661E-01-3.06740E-14-1.56590E-14
 -1      2791 2.10231E+01-1.61981E-01 5.26228E-03-9.98302E-01-2.45898E-14-5.53130E-14
 -1      2792 2.10358E+01-4.16331E-01-7.20462E-03-1.08978E+00 3.83909E-14-1.25143E-13
 -1      2793 2.08878E+01-6.55778E-02-5.03734E-04-9.91242E-01-6.14657E-14-1.79142E-13
 -1      2794 2.07656E+01 1.57887E-02 3.11162E-03-9.86055E-01-1.08961E-13-2.01877E-13
 -1      2795 2.07305E+01-1.30214E-01-4.99291E-03-1.11072E+00-8.89925E-14-3.82999E-13
 -1      2796 2.06735E+01 7.76517E-02 7.20564E-04-9.48646E-01-4.75678E-15-1.12817E-13
 -1      2797 2.05708E+01 1.27035E-01 1.63497E-03-9.15706E-01 1.79654E-13-1.88510E-13
 -1      2798 2.05192E+01 6.26039E-02-3.26957E-03-1.05529E+00 1.72160E-14-3.69439E-13
 -1      2799 2.05077E+01 1.63501E-01 1.37405E-03-8.61729E-01 2.66969E-13-2.05342E-13
 -1      2800 2.04216E+01 1.91355E-01 7.70756E-04-8.12646E-01 2.91217E-13-1.84172E-13
 -1      2801 2.03734E+01 1.80810E-01-2.07540E-03-9.56185E-01 1.41505E-13-3.77295E-13
 -1      2802 2.03769E+01 2.12084E-01 1.64961E-03-7.50653E-01 1.58001E-13-1.18391E-13
 -1      2803 2.03045E+01 2.27862E-01 3.65281E-04-6.92764E-01-7.60919E-14-2.59791E-13
 -1      2804 2.02706E+01 2.48427E-01-1.19755E-03-8.34622E-01 1.69869E-13-3.71343E-13
 -1      2805 2.02703E+01 2.41012E-01 1.53216E-03-6.27610E-01-1.69170E-13-4.71875E-13
 -1      2806 2.02106E+01 2.52357E-01 4.71352E-04-5.64658E-01-1.93345E-13-6.16561E-13
 -1      2807 2.01942E+01 2.86799E-01-9.23104E-04-7.02959E-01-2.22358E-13-5.03337E-13
 -1      2808 1.98624E+01 6.07089E-02 3.05477E-04-1.58405E-01 5.63622E-14 1.88746E-14
 -1      2809 1.98733E+01 9.03802E-02 3.13873E-03-1.26609E-01 4.14681E-14 4.42708E-14
 -1      2810 2.00926E+01 4.03514E-01-8.46074E-05 5.81842E-01-1.75221E-13-5.44019E-13
 -1      2811 2.01808E+01 3.07457E-01 1.92820E-03 5.37678E-01-5.49875E-14-2.61966E-13
 -1      2812 2.02479E+01 3.11723E-01 4.36169E-03 6.19391E-01-1.17078E-13-2.02539E-13
 -1      2813 1.98947E+01 1.26236E-01-8.02831E-05-7.89789E-02 1.05747E-14 3.31428E-14
 -1      2814 1.99283E+01 1.76255E-01 5.18180E-03-2.11722E-02 7.46920E-15 4.13820E-14
 -1      2815 1.99969E+01 1.46266E-01-2.44477E-03-8.39335E-02 2.51319E-14 1.05715E-14
 -1      2816 1.98674E+01 5.70991E-03 7.30480E-04-2.22402E-01 4.56701E-14 1.18031E-13
 -1      2817 1.98523E+01 1.28150E-02 8.26298E-04-2.14755E-01 4.73928E-14 9.47649E-14
 -1      2818 1.98922E+01 1.68118E-03 9.03537E-04-2.33831E-01 9.08475E-14 1.04494E-13
 -1      2819 1.98699E+01 2.11900E-03 2.14991E-04-2.29632E-01 6.87186E-14 1.07772E-13
 -1      2820 1.99437E+01 8.58120E-03-1.07037E-03-2.35261E-01 7.28853E-14 1.07158E-13
 -1      2821 1.99269E+01 8.06552E-03 1.09963E-03-2.43691E-01 1.48788E-13 9.39786E-14
 -1      2822 1.98992E+01 3.40959E-03-1.85477E-04-2.39180E-01 1.32821E-13 1.06160E-13
 -1      2823 1.99544E+01 5.96116E-03-8.18538E-04-2.50393E-01 1.24242E-13 6.48578E-14
 -1      2824 1.99700E+01 2.27860E-02 1.33803E-03-2.58461E-01 1.60487E-13 4.39675E-14
 -1      2825 1.99375E+01 1.39835E-02-4.47971E-04-2.50714E-01 1.55635E-13 7.14884E-14
 -1      2826 1.99739E+01 1.60757E-02-6.57786E-04-2.64805E-01 1.56781E-13 1.23762E-13
 -1      2827 2.00211E+01 4.46479E-02 1.63076E-03-2.83390E-01 3.56135E-14 5.55435E-14
 -1      2828 1.99835E+01 3.22255E-02-6.26561E-04-2.70002E-01 9.82737E-14 5.70773E-14
 -1      2829 2.00006E+01 3.64980E-02-5.64496E-04-2.85246E-01 1.19039E-13 1.32155E-13
 -1      2830 2.00810E+01 7.30265E-02 1.98419E-03-3.22956E-01-2.60573E-14 7.90625E-14
 -1      2831 2.00373E+01 5.72452E-02-7.61580E-04-3.01841E-01-4.40178E-15 5.93710E-14
 -1      2832 2.00335E+01 6.58295E-02-5.16277E-04-3.17211E-01 2.47796E-14 1.85879E-13
 -1      2833 2.01511E+01 1.07582E-01 2.39873E-03-3.81135E-01-9.07295E-14 1.59131E-13
 -1      2834 2.00999E+01 8.85873E-02-8.82695E-04-3.50416E-01-6.12613E-14 1.18980E-13
 -1      2835 2.00726E+01 1.03313E-01-4.90867E-04-3.65374E-01-7.51271E-14 1.49539E-13
 -1      2836 2.02333E+01 1.47922E-01 2.86591E-03-4.61498E-01 1.01455E-14 1.01579E-13
 -1      2837 2.01728E+01 1.25932E-01-1.01008E-03-4.19496E-01-1.91458E-14 1.43792E-13
 -1      2838 2.01179E+01 1.48454E-01-4.67415E-04-4.33837E-01-5.40331E-14 1.31465E-13
 -1      2839 2.03298E+01 1.93086E-01 3.36351E-03-5.67068E-01-3.68750E-14 1.92699E-13
 -1      2840 2.02580E+01 1.68687E-01-1.15198E-03-5.12423E-01-2.56841E-14 9.63501E-14
 -1      2841 2.01697E+01 2.00549E-01-4.29784E-04-5.26199E-01-2.27598E-14 9.61878E-14
 -1      2842 2.04429E+01 2.40729E-01 3.84922E-03-6.99873E-01 2.07090E-14 1.39895E-13
 -1      2843 2.03576E+01 2.15348E-01-1.29778E-03-6.31856E-01 2.14909E-14 1.62570E-13
 -1      2844 2.02283E+01 2.57970E-01-3.72637E-04-6.45406E-01 2.94753E-14 1.21433E-13
 -1      2845 2.05754E+01 2.85764E-01 4.25247E-03-8.60034E-01 5.82520E-14 5.96551E-14
 -1      2846 2.04744E+01 2.62448E-01-1.40415E-03-7.79147E-01 5.57342E-14 1.05141E-13
 -1      2847 2.02944E+01 3.17011E-01-3.17581E-04-7.93322E-01 4.82720E-14 2.04390E-14
 -1      2848 2.07313E+01 3.18233E-01 4.46436E-03-1.04418E+00 9.79728E-14-1.81625E-14
 -1      2849 2.06121E+01 3.02862E-01-1.36981E-03-9.53182E-01 7.79957E-14 6.45258E-14
 -1      2850 2.03695E+01 3.70048E-01-3.43932E-04-9.69913E-01 5.70426E-14 9.63338E-14
 -1      2851 2.09177E+01 3.20172E-01 4.32779E-03-1.24293E+00 5.59853E-14-8.71009E-15
 -1      2852 2.07771E+01 3.23200E-01-9.96033E-04-1.14843E+00 1.18156E-13 4.56537E-15
 -1      2853 2.04574E+01 4.02698E-01-6.42516E-04-1.17193E+00 1.30046E-13 7.83106E-14
 -1      2854 2.11483E+01 2.61739E-01 3.62088E-03-1.43701E+00 6.41423E-14 8.39205E-14
 -1      2855 2.09814E+01 3.00240E-01 7.77904E-05-1.35185E+00 6.25894E-14 2.72614E-14
 -1      2856 2.05681E+01 3.89823E-01-1.59082E-03-1.39084E+00 2.95303E-14 1.99144E-13
 -1      2857 2.14495E+01 9.81605E-02 1.98660E-03-1.59182E+00 1.96647E-16 1.42866E-13
 -1      2858 2.12477E+01 1.97163E-01 2.42782E-03-1.53808E+00 3.20412E-14 1.02593E-13
 -1      2859 2.07234E+01 2.90966E-01-3.82631E-03-1.60951E+00 2.22457E-14 1.55614E-13
 -1      2860 2.18668E+01-2.27285E-01-1.18611E-03-1.64996E+00-1.86084E-14 6.35309E-14
 -1      2861 2.16175E+01-3.75272E-02 6.87448E-03-1.66229E+00-8.53809E-16 1.43837E-13
 -1      2862 2.09667E+01 4.73766E-02-8.29368E-03-1.79678E+00 4.46329E-14 2.14568E-13
 -1      2863 2.24656E+01-7.61486E-01-7.03548E-03-1.52275E+00-1.25506E-13 6.90629E-14
 -1      2864 2.21560E+01-4.60003E-01 1.41435E-02-1.64965E+00-4.45822E-14 9.24737E-14
 -1      2865 2.13743E+01-4.11053E-01-1.57847E-02-1.89710E+00-2.24591E-14 2.69413E-13
 -1      2866 2.33150E+01-1.47360E+00-1.49782E-02-1.08658E+00-1.45492E-13 1.38803E-13
 -1      2867 2.29431E+01-1.09089E+00 2.36412E-02-1.38324E+00-1.28332E-13 9.43679E-14
 -1      2868 2.20616E+01-1.13253E+00-2.61180E-02-1.81208E+00-1.41326E-13 3.58121E-13
 -1      2869 2.44061E+01-2.13894E+00-2.64043E-02-2.32449E-01-4.15197E-14 1.67211E-13
 -1      2870 2.40144E+01-1.82105E+00 2.81896E-02-7.21873E-01-1.13156E-13 1.14193E-13
 -1      2871 2.31303E+01-2.03799E+00-4.20253E-02-1.37290E+00-1.11439E-13 3.41985E-13
 -1      2872 2.55543E+01-2.17493E+00-3.13876E-02 1.06294E+00-4.87440E-14 1.60741E-13
 -1      2873 2.52917E+01-2.25821E+00 2.75394E-02 4.60758E-01 5.41277E-15 1.98491E-13
 -1      2874 2.46685E+01-2.81441E+00-6.28165E-02-3.99935E-01-9.01163E-14 3.32364E-13
 -1      2875 2.63078E+01-8.66356E-01-2.79743E-02 2.32303E+00-1.89258E-14 3.05214E-13
 -1      2876 2.63514E+01-1.69342E+00-9.81808E-03 1.91714E+00 4.16420E-15 2.43601E-13
 -1      2877 2.63201E+01-2.53356E+00-7.15632E-02 1.07581E+00-7.22686E-14 3.73858E-13
 -1      2878 2.71361E+01 2.16685E+00-7.52066E-02 2.49187E+00 7.89507E-14 2.12247E-13
 -1      2879 2.72817E+01 6.06459E-01-1.03950E-01 2.69494E+00 1.80272E-14 2.55927E-13
 -1      2880 2.60756E+01 3.26192E+00-1.41213E-01-1.67176E+00-5.10814E-13 4.18145E-13
 -1      2881 2.59315E+01 3.98622E+00-1.02034E-01-6.44186E-01-1.78857E-13 3.88960E-13
 -1      2882 2.64552E+01 5.63400E-01-1.14850E-01-2.72674E+00-2.07750E-13 2.76154E-13
 -1      2883 2.62641E+01 2.03271E+00-4.35887E-02-2.45959E+00-4.95728E-13 2.88080E-13
 -1      2884 2.74773E+01 3.16301E+00-8.49516E-02-2.20633E+00-3.44599E-13 2.31905E-13
 -1      2885 2.62511E+01-1.59121E+00-3.83063E-02-1.98342E+00 6.69881E-14 3.21966E-13
 -1      2886 2.62889E+01-6.49993E-01-2.25380E-02-2.39012E+00-4.70249E-14 2.37615E-13
 -1      2887 2.73398E+01-9.83424E-02-7.26156E-02-2.60103E+00-1.50414E-13-4.58522E-14
 -1      2888 2.53050E+01-2.23414E+00 1.42050E-02-5.33667E-01 1.35092E-13 2.85483E-13
 -1      2889 2.55804E+01-2.09601E+00-3.01954E-02-1.16038E+00 1.74567E-13 3.20880E-13
 -1      2890 2.63368E+01-2.32586E+00-4.27909E-02-1.29334E+00 1.27032E-13 1.07588E-13
 -1      2891 2.40771E+01-1.82869E+00 2.74960E-02 6.61275E-01 3.29749E-13 1.12669E-13
 -1      2892 2.44628E+01-2.11916E+00-2.43145E-02 1.54126E-01 2.55207E-13 1.75407E-13
 -1      2893 2.47819E+01-2.67363E+00-3.54606E-02 2.30331E-01 2.96689E-13 1.43479E-14
 -1      2894 2.30008E+01-1.11441E+00 2.18667E-02 1.36329E+00 7.50577E-14 9.99045E-14
 -1      2895 2.33697E+01-1.49908E+00-2.01031E-02 1.05534E+00 2.05732E-13 1.49051E-13
 -1      2896 2.32677E+01-2.04729E+00-4.32452E-02 1.28790E+00 3.04411E-13-1.32620E-14
 -1      2897 2.22022E+01-4.88044E-01 1.35913E-02 1.65857E+00 1.46721E-14 1.08112E-14
 -1      2898 2.25149E+01-7.94380E-01-1.00072E-02 1.52248E+00 2.75574E-14 9.59131E-14
 -1      2899 2.21883E+01-1.15813E+00-2.63411E-02 1.77421E+00 1.37739E-13-7.64522E-14
 -1      2900 2.16463E+01-6.37358E-02 6.86146E-03 1.69352E+00 7.76455E-14-3.34629E-13
 -1      2901 2.19007E+01-2.59508E-01-3.04293E-03 1.67445E+00 8.32359E-14-5.51877E-14
 -1      2902 2.14816E+01-4.48048E-01-1.57187E-02 1.89983E+00 1.32805E-13-2.37308E-13
 -1      2903 2.12582E+01 1.75458E-01 2.59266E-03 1.58423E+00 1.83460E-13-4.37442E-13
 -1      2904 2.14662E+01 7.08331E-02 9.28393E-04 1.63341E+00 1.19917E-13-3.80927E-13
 -1      2905 2.10488E+01 1.05629E-02-8.25447E-03 1.82702E+00 1.78947E-13-4.63349E-13
 -1      2906 2.09746E+01 2.84911E-01 3.27808E-04 1.40670E+00 1.32846E-13-2.22768E-13
 -1      2907 2.11481E+01 2.40891E-01 3.02002E-03 1.48949E+00 2.02947E-13-2.86814E-13
 -1      2908 2.07813E+01 2.59193E-01-3.88845E-03 1.65671E+00 7.25030E-14-2.83643E-13
 -1      2909 2.07549E+01 3.16985E-01-6.73507E-04 1.20605E+00 4.51157E-13-3.19093E-13
 -1      2910 2.09017E+01 3.07612E-01 3.96435E-03 1.30076E+00 2.37417E-13-3.08339E-13
 -1      2911 2.06047E+01 3.66798E-01-1.67758E-03 1.44689E+00 2.51935E-13-2.27391E-13
 -1      2912 2.05772E+01 3.10593E-01-7.28634E-04 1.00666E+00 3.02712E-13-1.75163E-13
 -1      2913 2.07012E+01 3.17342E-01 4.18957E-03 1.10135E+00 3.37551E-13-3.20593E-13
 -1      2914 2.04758E+01 3.92793E-01-7.58387E-04 1.22966E+00 3.94778E-13-2.17989E-13
 -1      2915 2.04326E+01 2.92018E-01 9.48243E-04 8.19246E-01-6.30894E-14-1.06070E-14
 -1      2916 2.05334E+01 3.02033E-01 4.09818E-03 9.07727E-01 2.36521E-13-3.80735E-14
 -1      2917 2.03705E+01 3.79428E-01-1.15576E-03 1.02190E+00 1.59767E-13-2.40494E-14
 -1      2918 2.02917E+01 2.97169E-01 2.04215E-03 6.76534E-01-2.09899E-13-9.87312E-15
 -1      2919 2.03714E+01 3.05450E-01 4.34665E-03 7.60619E-01-2.31822E-13-2.14237E-14
 -1      2920 2.02496E+01 3.74714E-01-4.14687E-03 8.56739E-01-6.15981E-14-1.54973E-13
 -1      2921 2.01402E+01 3.91683E-01-6.48193E-03 7.28087E-01-7.10138E-14-2.52436E-13
 -1      2922 1.96506E+01 8.44671E-01-1.48091E-03-1.98209E-03 2.32401E-13-6.72865E-14
 -1      2923 1.96520E+01 8.42481E-01-1.77435E-03 9.07287E-02 3.04037E-13-9.28286E-15
 -1      2924 2.01936E+01 2.59486E-01 1.68529E-03-5.19158E-01-1.46366E-13-5.49472E-13
 -1      2925 2.01579E+01 2.64888E-01 6.86038E-04-4.73754E-01-1.85412E-13-4.74411E-13
 -1      2926 2.01433E+01 3.07662E-01-1.01368E-03-5.88727E-01-7.38638E-14-7.09211E-13
 -1      2927 1.97283E+01 7.66152E-01-3.38037E-03 3.73711E-01 5.16322E-13 9.33378E-13
 -1      2928 1.97783E+01 7.21638E-01 7.93706E-04 4.40912E-01 5.08621E-13 4.75812E-13
 -1      2929 1.96821E+01 8.09178E-01-3.74004E-04-1.93950E-01 2.73973E-13 3.83405E-14
 -1      2930 1.96605E+01 8.28741E-01-2.64097E-03-1.06972E-01 2.75017E-13-2.17497E-14
 -1      2931 1.95773E+01 8.43070E-01 2.82893E-03-6.55038E-02 3.15569E-13-9.92701E-14
 -1      2932 1.96653E+01 8.30568E-01-2.54514E-03 1.96140E-01 1.37749E-13 2.16475E-13
 -1      2933 1.96916E+01 8.06093E-01-5.88743E-04 2.82216E-01 2.91552E-13 7.29021E-13
 -1      2934 1.96436E+01 7.99582E-01 2.84624E-03 3.61106E-01 2.04303E-13 7.34706E-13
 -1      2935 1.95810E+01 8.47463E-01 3.02958E-03 1.54612E-01 5.08009E-14 1.37654E-13
 -1      2936 2.82840E+01 4.09898E+00-2.08688E-01-1.84998E+00-2.15883E-13 2.44943E-14
 -1      2937 2.87276E+01 2.53388E+00-7.95188E-02-1.93718E+00-2.28151E-13 1.48367E-13
 -1      2938 1.97512E+01 7.32545E-01 6.96952E-04-3.53541E-01 2.63079E-13-3.67149E-13
 -1      2939 1.97116E+01 7.69832E-01-3.10910E-03-2.83890E-01 2.52668E-13 4.09859E-14
 -1      2940 1.96278E+01 7.90518E-01 2.32259E-03-2.68913E-01 2.84418E-13-8.63097E-14
 -1      2941 1.98498E+01 6.22535E-01 1.49820E-03-4.68260E-01 1.16075E-13-2.02262E-13
 -1      2942 1.97965E+01 6.74589E-01-3.16843E-03-4.21440E-01 1.93151E-13-4.20525E-13
 -1      2943 1.97221E+01 6.98782E-01 1.51849E-03-4.33354E-01 8.61917E-14-3.91269E-13
 -1      2944 1.99636E+01 4.92021E-01 1.22680E-03-5.22970E-01 2.73419E-13 2.03432E-13
 -1      2945 1.99058E+01 5.53797E-01-2.61812E-03-5.06064E-01 2.83256E-13 3.02475E-13
 -1      2946 1.98480E+01 5.79511E-01 6.52244E-04-5.42838E-01 1.81510E-13 9.95486E-14
 -1      2947 2.31467E+01-5.19994E+00-7.12354E-02 4.44022E+00-7.64666E-14 8.09804E-14
 -1      2948 2.05536E+01-4.87842E+00 1.06672E-01 5.35801E+00 1.09940E-13-3.08104E-14
 -1      2949 2.90137E+01 5.91425E+00-1.91156E-01-5.10550E-01-1.85824E-13 3.74508E-13
 -1      2950 2.91084E+01 5.18366E+00-1.84179E-01-1.59602E+00-1.32477E-13 3.07573E-13
 -1      2951 2.03068E+01 1.59031E+00-1.18730E-02-1.23683E+00-2.36772E-14-7.92607E-14
 -1      2952 2.03260E+01 1.23344E+00 1.30269E-02-9.68082E-01-1.49085E-14-7.99268E-14
 -1      2953 2.02444E+01 9.50268E-01-5.05660E-03-7.21767E-01-7.24247E-15-6.48877E-14
 -1      2954 2.01619E+01 2.05033E+00 1.04367E-03-1.14035E+00 1.44741E-15-6.37333E-14
 -1      2955 2.03347E+01 1.50082E+00-1.87475E-03 1.26842E+00 1.04251E-13 8.83139E-14
 -1      2956 2.77485E+01-3.20637E+00-1.30370E-01 1.37861E+00-2.33868E-13 9.45494E-14
 -1      2957 2.56841E+01-4.36119E+00 2.72211E-02 2.78596E+00-2.48794E-13 1.60677E-13
 -1      2958 1.80844E+01-4.58496E+00 1.58304E-01-5.79387E+00-5.29299E-14 1.29965E-14
 -1      2959 2.13769E+01-5.28228E+00-5.53724E-02-5.00273E+00 1.56125E-14 1.06058E-13
 -1      2960 1.99609E+01 2.35724E-01-7.02699E-04 5.90291E-02 3.11664E-14 4.93068E-14
 -1      2961 2.00253E+01 3.18509E-01 7.83100E-03 1.58156E-01 3.61107E-14 6.95168E-14
 -1      2962 2.01465E+01 4.81879E-01-1.97155E-03 2.78081E-01 5.89428E-14 4.39282E-14
 -1      2963 2.00586E+01 2.72753E-01-2.81374E-03 5.47455E-02 3.02084E-14 2.84636E-14
 -1      2964 9.89690E+00-2.14285E+00 6.72090E-02 4.93052E+00-1.00225E-13-3.54161E-14
 -1      2965 7.68963E+00-1.09246E+00 1.83378E-01 2.90428E+00-7.92422E-14 2.31815E-13
 -1      2966 1.98557E+01 2.35527E-02 5.48614E-04-2.01017E-01 4.59917E-14 5.96353E-14
 -1      2967 1.98510E+01 3.98683E-02 1.75104E-03-1.84856E-01 5.78202E-14 3.85145E-14
 -1      2968 1.99606E+01 7.03558E-02-1.90667E-03-1.65461E-01 3.55032E-14 4.69862E-14
 -1      2969 1.99445E+01 2.79152E-02-1.43252E-03-2.10761E-01 2.80794E-14 1.19756E-13
 -1      2970 2.87914E+01 3.87464E-01-2.03728E-01-1.36301E+00-2.78999E-13 6.21170E-14
 -1      2971 2.86938E+01-1.34226E+00-1.72523E-02-1.74005E-01-2.57766E-13 1.01225E-13
 -1      2972 2.76200E+01-2.37231E+00-2.84165E-02-4.68791E-02-2.70722E-13 7.82430E-14
 -1      2973 2.42948E+01-4.89597E+00 9.60761E-02-3.72359E+00-7.56409E-14-1.87655E-13
 -1      2974 2.61346E+01-4.33307E+00-1.28381E-01-2.30128E+00-1.08240E-13 4.54636E-14
 -1      2975 7.10266E+00-6.71381E-01 1.32081E-01 2.08690E+00 4.39371E-14-3.46528E-13
 -1      2976 6.43986E+00-5.80620E-01 1.79013E-01-2.84968E-01-2.07195E-14-4.63463E-13
 -1      2977 1.99308E+01 2.59896E+00-7.90808E-03 7.94385E-01 1.16954E-13-1.62305E-14
 -1      2978 1.98881E+01 2.69140E+00-6.15716E-03 6.45288E-01 9.86245E-14-3.30148E-14
 -1      2979 2.00074E+01 2.39317E+00 4.39245E-03 5.16171E-01 7.96179E-14-2.38722E-14
 -1      2980 2.00870E+01 2.19448E+00 5.72264E-03 7.45264E-01 9.73784E-14-3.36807E-15
 -1      2981 2.90269E+01 3.43632E+00-1.86723E-01-2.25282E+00-2.36644E-13 6.15341E-14
 -1      2982 2.91289E+01 1.73634E+00-1.85248E-01-2.55894E+00-1.46688E-13-1.10092E-13
 -1      2983 2.93303E+01 4.96076E+00-1.25631E-01 1.81756E+00 3.58324E-14 1.30410E-13
 -1      2984 2.92535E+01 5.87440E+00-2.08681E-01 7.17928E-01-5.32629E-14 2.80120E-13
 -1      2985 2.82812E+01 4.80208E+00-1.16109E-01 1.76047E+00 4.00791E-14-1.07775E-13
 -1      2986 2.77123E+01 5.87564E+00-1.99712E-01 9.95937E-01-1.32672E-14-9.02160E-14
 -1      2987 1.98838E+01 2.70049E+00-6.10371E-03-6.34683E-01 3.97719E-14-8.28205E-14
 -1      2988 1.99247E+01 2.60794E+00-8.68579E-03-7.84677E-01 2.90759E-14-8.30993E-14
 -1      2989 2.42864E+01-5.11269E+00 1.04536E-01-3.51331E+00 1.19321E-13 2.86521E-13
 -1      2990 2.59905E+01-4.97900E+00-1.56856E-01-2.23317E+00 1.25407E-13 3.13707E-13
 -1      2991 2.82135E+01-3.20467E+00 2.31474E-02-7.72180E-02 9.20991E-14 1.83867E-13
 -1      2992 2.97584E+01-1.49315E+00-1.37928E-01 1.07625E+00 5.86579E-14 1.32533E-13
 -1      2993 6.69826E+00-1.03458E+00 1.33276E-01-2.17067E+00-5.20486E-14-3.97404E-13
 -1      2994 8.08767E+00-1.68988E+00 9.81456E-02-4.00841E+00-7.89369E-14-3.19605E-13
 -1      2995 2.01089E+01 3.22327E-01 2.05021E-04-4.95102E-01-1.17941E-13-5.03642E-13
 -1      2996 7.01898E+00-1.29393E+00 1.59311E-01-3.16381E+00-7.88952E-14-1.60594E-13
 -1      2997 8.90710E+00-2.05864E+00 1.01656E-01-4.97774E+00-2.31343E-14-2.76695E-13
 -1      2998 1.10380E+01-2.62895E+00 6.72637E-02 5.78735E+00 8.13377E-14 5.50116E-14
 -1      2999 8.76427E+00-1.47888E+00 1.51679E-01 4.30387E+00 1.03056E-13-1.64591E-13
 -1      3000 6.13548E+00-7.73637E-01 1.09690E-01 7.40275E-01-1.54321E-14 3.95850E-13
 -1      3001 6.09031E+00-9.00025E-01 1.45668E-01-1.43138E+00-3.35149E-15 2.99843E-13
 -1      3002 2.78477E+01 6.46975E+00-1.79097E-01-1.44210E-01-1.01363E-13-1.52304E-13
 -1      3003 2.81540E+01 5.81432E+00-1.32386E-01-1.29494E+00-1.28619E-13-8.36761E-14
 -1      3004 1.72424E+01-4.45787E+00-4.50531E-03 6.30152E+00 1.52517E-13 1.53655E-13
 -1      3005 1.42313E+01-3.44036E+00 1.55063E-01 6.19138E+00 4.06064E-14 1.56972E-13
 -1      3006 1.07495E+01-2.47918E+00 1.68306E-01-5.18163E+00-2.25042E-13-1.79967E-13
 -1      3007 1.40767E+01-3.74304E+00 6.60236E-03-6.13486E+00-1.51462E-13-8.72913E-15
 -1      3008 1.62111E+01-4.15905E+00 2.23151E-02 6.08911E+00-9.50490E-14-1.64146E-13
 -1      3009 1.32839E+01-3.05921E+00 1.63945E-01 5.69750E+00-5.46785E-14-4.76841E-14
 -1      3010 2.78366E+01-2.64581E+00 1.86254E-02-4.90964E-01-4.08475E-14 1.27398E-13
 -1      3011 2.85001E+01-1.03973E+00-1.90023E-01 6.91868E-01 1.79842E-13 3.05880E-13
 -1      3012 2.24097E+01-5.17105E+00-1.89714E-02 4.46628E+00 5.13478E-15-4.57395E-13
 -1      3013 1.92478E+01-4.83237E+00 1.04839E-01 5.54151E+00-1.30049E-13-1.82677E-13
 -1      3014 1.86999E+01-3.88904E+00 1.19957E-01 5.13746E+00-2.35645E-14-1.69559E-13
 -1      3015 1.15334E+01-3.00972E+00 1.54894E-01-6.01038E+00 1.35961E-13-8.88456E-14
 -1      3016 1.40494E+01-3.93005E+00 6.47786E-02-6.64618E+00 2.21823E-13-1.99035E-13
 -1      3017 1.99805E+01 2.48746E+00-6.38728E-03-9.00980E-01 1.96787E-14-9.41179E-14
 -1      3018 2.00316E+01 2.33716E+00-1.64122E-02-1.04495E+00 7.98434E-15-8.53753E-14
 -1      3019 2.00843E+01 2.20760E+00 7.58532E-03-7.31066E-01 2.09964E-14-7.59282E-14
 -1      3020 1.99422E+01 2.54578E+00 3.64412E-03 3.34824E-03 7.03439E-14-3.16493E-14
 -1      3021 1.98045E+01 2.87577E+00-5.11956E-03-6.15160E-02 6.01964E-14-4.83075E-14
 -1      3022 1.98110E+01 2.85913E+00-6.03844E-03-2.16357E-01 5.43211E-14-6.43923E-14
 -1      3023 2.72859E+01 3.42525E+00-7.97653E-02 1.96722E+00 6.21447E-14-3.47854E-13
 -1      3024 2.02895E+01 1.58863E+00-1.23728E-03 1.16681E+00 1.04102E-13 8.11660E-14
 -1      3025 1.30286E+01-1.96946E+00 1.51722E-01 4.84193E+00-1.52517E-14-9.03444E-15
 -1      3026 2.83698E+01-2.14229E+00-5.61611E-02-1.34987E+00 3.40804E-14-2.63983E-13
 -1      3027 2.72586E+01-2.96691E+00-2.40661E-02-5.56388E-01 5.68989E-16-1.84668E-13
 -1      3028 2.78916E+01-1.08653E-01-7.19372E-02 1.44144E+00 1.60497E-13 3.55410E-14
 -1      3029 2.43659E+01-5.01462E+00 5.18669E-02 3.27265E+00 9.90805E-14-4.27838E-13
 -1      3030 2.27807E+01-4.49934E+00 6.91581E-02 3.64429E+00 8.63545E-14-2.99771E-13
 -1      3031 2.54649E+01-4.52922E+00-5.41695E-02 1.73348E+00 3.58845E-14-1.48395E-13
 -1      3032 2.87775E+01-2.95676E-01-8.25777E-02-1.83707E+00-6.01325E-14-1.81938E-13
 -1      3033 2.65706E+01-3.51260E+00-1.83635E-02-9.77469E-01-6.31648E-14 2.59376E-14
 -1      3034 1.69222E+01-4.12768E+00 1.08138E-01-6.06795E+00 9.76996E-14-1.75499E-13
 -1      3035 1.97613E+01 7.03270E-01 2.39540E-03 5.23986E-01 3.45381E-13 7.41024E-13
 -1      3036 1.98323E+01 6.57842E-01-4.56456E-03 5.04313E-01 3.40720E-13 4.91257E-13
 -1      3037 1.99031E+01 6.00354E-01 3.14666E-03 5.44627E-01-3.69369E-14 3.36244E-13
 -1      3038 2.78065E+01 9.50785E-01-8.34313E-02-1.81407E+00-3.19994E-13 2.95736E-14
 -1      3039 1.10791E+01-1.53422E+00 1.65787E-01-4.36115E+00-1.84047E-13-1.22097E-13
 -1      3040 2.80775E+01-3.35632E-01-9.09224E-02 2.30841E+00-8.21565E-15 2.80873E-13
 -1      3041 2.74880E+01 4.95246E+00-1.30681E-01 8.17868E-03-9.51739E-14 3.23807E-13
 -1      3042 2.60747E+01 4.06576E+00-1.03847E-01 7.31869E-01 7.68968E-14 3.00645E-13
 -1      3043 2.61243E+01 3.35499E+00-1.70594E-01 1.74871E+00 1.57749E-13 3.57476E-13
 -1      3044 8.61155E+00-3.82148E-01 1.98167E-01 1.76814E+00-7.68136E-15 2.53964E-13
 -1      3045 1.96626E+01-4.21416E+00 9.91502E-02 5.21239E+00 1.26857E-13 1.09635E-15
 -1      3046 1.14981E+01-1.99941E+00 1.67239E-01-5.14127E+00-2.52992E-14-1.52184E-13
 -1      3047 2.70927E+01 4.42209E+00-9.67163E-02-1.67370E+00-1.57790E-13-1.67644E-13
 -1      3048 2.00179E+01 4.78038E-01-2.74959E-03 5.80887E-01-1.83130E-13-2.14572E-13
 -1      3049 2.66186E+01 5.45426E+00-1.26624E-01 4.44704E-01-3.02258E-14-2.55854E-13
 -1      3050 2.46870E+01-4.51772E+00 2.23188E-02 2.87431E+00-1.37848E-13-5.93275E-15
 -1      3051 2.00582E+01 3.90741E-01 9.29409E-05-5.08566E-01 1.61475E-14-3.34082E-13
 -1      3052 1.39394E+01-2.55056E+00 1.36591E-01 5.56149E+00 1.46674E-13 1.43829E-13
 -1      3053 2.02799E+01 1.36817E+00 2.04774E-03 9.19976E-01 9.78556E-14 6.85852E-14
 -1      3054 8.28850E+00-2.31685E-01 1.74060E-01-1.12853E+00-4.13506E-14-4.00180E-13
 -1      3055 2.27823E+01-4.77407E+00 6.79676E-02-3.89192E+00-2.22461E-14 2.09058E-13
 -1      3056 2.02665E+01 1.02867E+00-9.24861E-04-6.69987E-01-1.02096E-14-5.52166E-14
 -1      3057 1.98278E+01 2.82553E+00-5.23806E-03-3.50551E-01 4.69393E-14-6.14281E-14
 -1      3058 1.98504E+01 2.77403E+00-6.89479E-03-5.04744E-01 3.45940E-14-7.75981E-14
 -1      3059 2.00056E+01 2.40076E+00 5.61284E-03-5.04078E-01 3.63436E-14-8.05860E-14
 -1      3060 1.99581E+01 2.51199E+00 4.58976E-03-2.55452E-01 4.49510E-14-6.11288E-14
 -1      3061 2.91776E+01-5.70515E-01-1.02522E-01 1.93330E+00 4.05925E-14 9.20930E-14
 -1      3062 8.86084E+00-6.46108E-01 1.71020E-01 3.07563E+00 1.46848E-13-1.81050E-13
 -1      3063 9.36780E+00 1.25784E-01 1.10266E-01 1.76117E+00 1.76040E-13-2.80026E-13
 -1      3064 1.06811E+01-7.66215E-01 4.17104E-02 3.76011E+00 1.75755E-13-9.48130E-14
 -1      3065 1.69867E+01-3.59062E+00 1.31599E-01-5.42386E+00-1.58040E-13-6.54060E-14
 -1      3066 2.28698E+01-4.82460E+00 8.29076E-02-4.25620E+00 3.40145E-14-1.75745E-13
 -1      3067 8.32860E+00-4.99977E-01 1.98395E-01-2.23601E+00 1.90681E-14 5.96190E-14
 -1      3068 2.00775E+01 3.62555E-01 1.22013E-05-5.83213E-01-1.80750E-13-6.22545E-13
 -1      3069 2.00089E+01 4.37075E-01-8.26353E-04-5.48323E-01 5.05893E-14-3.00265E-13
 -1      3070 1.99749E+01 4.60563E-01 7.72125E-04-6.02561E-01 1.13836E-14-1.66582E-13
 -1      3071 2.00989E+01 3.56330E-01 1.48625E-03-6.30414E-01-1.15204E-13-5.85696E-13
 -1      3072 1.49834E+01-1.96845E+00-5.70559E-03 4.75614E+00 7.21645E-14-1.41137E-14
 -1      3073 1.25547E+01-7.70493E-01 1.40226E-01 3.85427E+00 2.00118E-14 5.45189E-14
 -1      3074 2.02437E+01 1.48462E+00-6.08134E-03 8.02627E-01 8.56135E-14 6.01622E-14
 -1      3075 2.02067E+01 1.67316E+00-3.13132E-04 7.46314E-01 8.21379E-14 3.44281E-14
 -1      3076 1.61740E+01-3.28940E+00 1.16775E-01-5.72996E+00 1.22763E-13-1.42823E-13
 -1      3077 1.88614E+01-4.40920E+00-2.86129E-02-5.63799E+00 2.94487E-14-1.60448E-13
 -1      3078 2.71655E+01-1.05492E+00 2.25892E-02 1.33225E+00 7.83262E-14 6.95555E-14
 -1      3079 2.69598E+01 5.99283E-01-1.46118E-01 1.99022E+00 1.98452E-14-1.71460E-13
 -1      3080 2.69817E+01-1.91782E+00-1.33925E-01-8.13949E-01-2.54217E-13 1.14311E-13
 -1      3081 2.67445E+01-3.13232E+00 3.84114E-02 3.57983E-01-1.83013E-13 9.18293E-14
 -1      3082 2.02238E+01 4.31010E-01 2.23878E-03-1.14051E-01-2.14463E-14-4.54334E-14
 -1      3083 2.01876E+01 3.29192E-01-1.98570E-03-2.50849E-02-2.90479E-15-5.65231E-14
 -1      3084 2.01731E+01 2.47778E-01 2.89629E-03 3.89424E-02 2.58216E-16-6.88684E-14
 -1      3085 2.01449E+01 1.81154E-01-1.12623E-03 9.38534E-02-2.05960E-14-9.11754E-14
 -1      3086 2.02445E+01 3.48759E-01-1.01971E-03-1.41899E-02-9.05821E-15-6.06193E-14
 -1      3087 2.01281E+01 1.31249E-01 2.08171E-03 1.34306E-01-3.02485E-14-7.74555E-14
 -1      3088 2.01092E+01 9.10684E-02-3.76623E-04 1.67075E-01-3.58531E-14-7.53110E-14
 -1      3089 2.02037E+01 1.93729E-01-1.08859E-03 9.63053E-02-1.69999E-14-8.18992E-14
 -1      3090 2.00926E+01 6.24697E-02 1.26053E-03 1.91235E-01-2.09719E-14-4.29668E-14
 -1      3091 2.00820E+01 4.11779E-02 1.38785E-04 2.10251E-01 2.37633E-15-9.83680E-15
 -1      3092 2.01652E+01 9.88043E-02-9.96147E-04 1.65464E-01-1.43039E-14-8.74174E-14
 -1      3093 2.00668E+01 2.78077E-02 6.08018E-04 2.24637E-01 6.21718E-15-2.60825E-14
 -1      3094 2.00627E+01 2.02043E-02 5.00334E-04 2.36255E-01-2.23126E-14-2.63547E-14
 -1      3095 2.01311E+01 4.74012E-02-8.51117E-04 2.07624E-01-5.90339E-15-5.14320E-14
 -1      3096 2.00492E+01 1.79603E-02 1.01796E-04 2.46042E-01-5.75305E-14-3.44562E-15
 -1      3097 2.00502E+01 2.04843E-02 7.67260E-04 2.55075E-01-4.55046E-14-1.46951E-14
 -1      3098 2.01021E+01 2.77299E-02-6.87780E-04 2.34602E-01-1.00873E-14-5.93537E-14
 -1      3099 2.00381E+01 2.65384E-02-2.90355E-04 2.64301E-01-5.84482E-14 2.05326E-14
 -1      3100 2.00433E+01 3.66891E-02 9.79351E-04 2.74400E-01-6.87655E-14 3.08725E-14
 -1      3101 2.00777E+01 3.15885E-02-5.28043E-04 2.55774E-01-4.35532E-14 8.21849E-15
 -1      3102 2.00322E+01 4.90132E-02-5.99194E-04 2.86207E-01-4.67068E-14 7.96427E-14
 -1      3103 2.00408E+01 6.49413E-02 1.16236E-03 3.00145E-01-1.46527E-14 9.14099E-14
 -1      3104 2.00568E+01 5.31603E-02-3.80595E-04 2.78464E-01-2.65308E-14 8.19814E-14
 -1      3105 2.00303E+01 8.19531E-02-8.47547E-04 3.16980E-01-2.21437E-14 9.11472E-14
 -1      3106 2.00420E+01 1.02119E-01 1.33172E-03 3.36846E-01-3.04509E-14 8.60284E-14
 -1      3107 2.00385E+01 8.81098E-02-2.49205E-04 3.08379E-01 5.65774E-15 1.37944E-13
 -1      3108 2.00317E+01 1.22365E-01-1.04690E-03 3.60602E-01-6.47510E-14 5.97398E-14
 -1      3109 2.00465E+01 1.45211E-01 1.49527E-03 3.87883E-01-3.93522E-14-6.81405E-15
 -1      3110 2.00216E+01 1.32819E-01-1.38989E-04 3.49957E-01-5.42759E-14 5.71739E-14
 -1      3111 2.00363E+01 1.67039E-01-1.19480E-03 4.19966E-01-4.26340E-14-6.32983E-14
 -1      3112 2.00546E+01 1.90624E-01 1.65551E-03 4.55538E-01-7.90839E-14-4.77657E-14
 -1      3113 2.00054E+01 1.83646E-01-6.05073E-05 4.06581E-01-9.50954E-14 1.48978E-14
 -1      3114 2.00447E+01 2.11813E-01-1.27135E-03 4.96848E-01-9.35072E-14-4.30254E-14
 -1      3115 2.00674E+01 2.33399E-01 1.81146E-03 5.40858E-01-1.23484E-13-4.89946E-14
 -1      3116 1.99899E+01 2.36127E-01-3.62900E-05 4.80654E-01-8.81896E-14-4.28321E-14
 -1      3117 2.00589E+01 2.50714E-01-1.23379E-03 5.91689E-01-1.36037E-13-1.89193E-15
 -1      3118 2.00875E+01 2.66264E-01 1.96033E-03 6.43323E-01-1.44716E-13-2.80584E-14
 -1      3119 1.99759E+01 2.84046E-01-1.08740E-04 5.73525E-01-1.29763E-13-4.92546E-14
 -1      3120 2.00830E+01 2.74950E-01-1.00870E-03 7.03172E-01-1.52848E-13-5.32766E-14
 -1      3121 2.01203E+01 2.78575E-01 2.09766E-03 7.60292E-01-1.27520E-13-6.28844E-14
 -1      3122 1.99666E+01 3.18353E-01-3.50779E-04 6.85259E-01-1.73349E-13 2.26458E-14
 -1      3123 2.01244E+01 2.71817E-01-4.81388E-04 8.27520E-01-4.11958E-14-3.81028E-14
 -1      3124 2.01748E+01 2.55236E-01 2.21081E-03 8.86153E-01-8.22182E-15-2.48488E-14
 -1      3125 1.99680E+01 3.25946E-01-8.80173E-04 8.14215E-01-5.34342E-14-7.78137E-15
 -1      3126 2.01955E+01 2.23755E-01 5.16784E-04 9.57446E-01-1.98031E-14 3.95413E-15
 -1      3127 2.02659E+01 1.76007E-01 2.25730E-03 1.01107E+00 3.83271E-14-3.31065E-14
 -1      3128 1.99914E+01 2.88491E-01-1.87536E-03 9.56337E-01 3.41334E-14-4.52413E-14
 -1      3129 2.03162E+01 1.08137E-01 2.22190E-03 1.08048E+00 7.21551E-14-9.09776E-14
 -1      3130 2.04166E+01 1.60454E-02 2.11042E-03 1.11902E+00 1.78045E-13-1.28093E-13
 -1      3131 2.00558E+01 1.81713E-01-3.58363E-03 1.10388E+00 4.28994E-14-4.79882E-14
 -1      3132 2.05164E+01-1.00966E-01 4.93137E-03 1.17625E+00 2.25581E-13-1.88142E-13
 -1      3133 2.06595E+01-2.50487E-01 1.46786E-03 1.18475E+00 1.82094E-13-2.07644E-13
 -1      3134 2.01912E+01-2.38099E-02-6.29696E-03 1.24301E+00 1.46422E-13-5.49511E-14
 -1      3135 2.08362E+01-4.26466E-01 8.93051E-03 1.21205E+00 1.26302E-13-1.51646E-13
 -1      3136 2.10351E+01-6.40318E-01-3.24650E-04 1.16912E+00 4.18103E-14-1.05065E-13
 -1      3137 2.04412E+01-3.58017E-01-1.02259E-02 1.34909E+00 2.02158E-13-1.50483E-13
 -1      3138 2.13220E+01-8.73117E-01 1.41111E-02 1.13641E+00-5.47431E-14-9.87690E-14
 -1      3139 2.15818E+01-1.13882E+00-4.45487E-03 1.01390E+00-4.62466E-14-2.11734E-14
 -1      3140 2.08639E+01-8.38458E-01-1.52346E-02 1.37849E+00 4.15822E-14-9.82139E-14
 -1      3141 2.20074E+01-1.39503E+00 1.95202E-02 8.71449E-01-1.05957E-14-6.06090E-14
 -1      3142 2.23180E+01-1.65055E+00-8.18734E-03 6.38962E-01-4.75394E-14-2.70633E-14
 -1      3143 2.15242E+01-1.44292E+00-2.02302E-02 1.25469E+00-4.25074E-14-6.69718E-14
 -1      3144 2.28557E+01-1.84166E+00 1.86170E-02 3.47117E-01-6.66294E-14-6.92793E-14
 -1      3145 2.31684E+01-1.97628E+00-1.92531E-02 2.33567E-03 2.51036E-15-6.01101E-14
 -1      3146 2.24270E+01-2.02339E+00-2.48548E-02 8.56597E-01-5.61291E-14-3.79202E-14
 -1      3147 2.37911E+01-1.92679E+00 1.96090E-02-5.16166E-01 5.24537E-15-5.88037E-14
 -1      3148 2.40124E+01-1.68857E+00-4.13367E-03-9.20849E-01-1.09711E-13-1.16118E-13
 -1      3149 2.35641E+01-2.38954E+00-4.37150E-02 1.13112E-01-1.67741E-14 5.36758E-14
 -1      3150 2.43947E+01-1.21816E+00-2.27426E-02-1.48912E+00-2.71518E-13-1.25641E-13
 -1      3151 2.44443E+01-5.15748E-01-1.93665E-02-1.76587E+00-2.13997E-13-1.32105E-13
 -1      3152 2.46377E+01-1.81571E+00 5.01155E-03-9.98661E-01-1.92746E-13-1.15167E-13
 -1      3153 2.40186E+01 2.65518E+00-9.86933E-02-1.63431E+00-1.68976E-13-1.56793E-13
 -1      3154 2.39530E+01 3.40941E+00-1.99472E-02-1.00868E+00-1.35690E-13-1.13158E-13
 -1      3155 2.40531E+01 2.84436E+00-1.58246E-03 1.48207E+00-3.91839E-14-1.13872E-13
 -1      3156 2.41655E+01 1.83761E+00-7.81639E-02 1.90629E+00-7.63539E-14-6.99545E-14
 -1      3157 2.44094E+01 8.18847E-01 3.29071E-04 2.03154E+00-4.18762E-14-2.32193E-15
 -1      3158 2.44656E+01-2.30186E-01-5.12913E-02 1.96300E+00 6.48995E-14-1.62995E-13
 -1      3159 2.43125E+01-1.01743E+00-6.00637E-03 1.50521E+00 9.20288E-14-1.76974E-13
 -1      3160 2.41973E+01-1.57466E+00-2.33483E-03 1.14010E+00 3.96970E-14-2.57768E-13
 -1      3161 2.49787E+01-8.97576E-01-1.53945E-02 1.63589E+00 2.10439E-14-2.55820E-13
 -1      3162 2.36895E+01-1.87209E+00-1.69298E-02 5.70583E-01-1.87207E-14-1.60626E-13
 -1      3163 2.34429E+01-1.94323E+00 2.09012E-02 1.71745E-01-6.20763E-14-2.11118E-13
 -1      3164 2.42215E+01-2.09226E+00-2.62741E-02 5.89690E-01-3.80499E-14-1.54461E-13
 -1      3165 2.28504E+01-1.89152E+00-1.60619E-02-2.66471E-01-1.23322E-13-1.54299E-13
 -1      3166 2.25452E+01-1.69664E+00 2.26362E-02-5.72369E-01-1.11810E-13-2.46538E-13
 -1      3167 2.31476E+01-2.27595E+00-3.24741E-02-4.00933E-01-5.90892E-14-3.24210E-14
 -1      3168 2.20385E+01-1.47981E+00-9.20380E-03-8.23580E-01-8.14816E-14-2.77256E-13
 -1      3169 2.17468E+01-1.20621E+00 1.74516E-02-1.01205E+00 2.36736E-14-2.05943E-13
 -1      3170 2.21116E+01-1.84355E+00-3.10178E-02-1.02666E+00-1.27802E-13-1.20022E-13
 -1      3171 2.13803E+01-9.60327E-01-3.11253E-03-1.11748E+00 1.20357E-13-3.26216E-13
 -1      3172 2.11412E+01-7.10071E-01 1.13424E-02-1.20917E+00 1.42980E-13-3.18687E-13
 -1      3173 2.13028E+01-1.22936E+00-2.29017E-02-1.32208E+00 2.92330E-14-1.26296E-13
 -1      3174 2.09034E+01-5.00491E-01 3.44976E-04-1.22434E+00 5.88658E-14-3.79839E-13
 -1      3175 2.07242E+01-3.09373E-01 6.48202E-03-1.24830E+00-1.06627E-13-3.42935E-13
 -1      3176 2.07464E+01-6.68955E-01-1.46628E-02-1.39834E+00 8.43265E-15-4.32803E-13
 -1      3177 2.05828E+01-1.55600E-01 1.83072E-03-1.21353E+00-1.50867E-13-3.25347E-13
 -1      3178 2.04546E+01-2.58668E-02 3.08854E-03-1.19433E+00-1.09281E-13-4.28897E-13
 -1      3179 2.03967E+01-2.42140E-01-8.50374E-03-1.35080E+00-1.45005E-13-5.15982E-13
 -1      3180 2.03783E+01 7.54505E-02 2.27506E-03-1.13455E+00-1.02529E-13-3.09478E-13
 -1      3181 2.02880E+01 1.55268E-01 9.74013E-04-1.08991E+00 7.35213E-14-2.14287E-13
 -1      3182 2.01942E+01 4.78470E-02-4.45622E-03-1.24011E+00-6.44141E-14-1.94381E-13
 -1      3183 2.02519E+01 2.16164E-01 2.24436E-03-1.01942E+00 9.55348E-14-3.24819E-13
 -1      3184 2.01879E+01 2.60957E-01-1.84185E-04-9.61094E-01 7.10700E-14-3.54984E-13
 -1      3185 2.00874E+01 2.27150E-01-1.95532E-03-1.10125E+00-1.22191E-14-1.03655E-13
 -1      3186 2.01743E+01 2.94672E-01 1.93598E-03-8.87643E-01 1.78705E-13-4.82935E-13
 -1      3187 2.01291E+01 3.18309E-01-3.80960E-04-8.22816E-01 2.53824E-14-5.94515E-13
 -1      3188 2.00381E+01 3.29118E-01-3.39486E-04-9.53006E-01 9.31566E-14-4.72452E-13
 -1      3189 2.01312E+01 3.32583E-01 1.60487E-03-7.59469E-01-2.05337E-13-6.41201E-13
 -1      3190 2.00974E+01 3.46817E-01-1.03248E-04-6.91263E-01-1.94538E-13-6.02255E-13
 -1      3191 2.00264E+01 3.98716E-01-7.99762E-04-6.86577E-01-2.79072E-13-5.04016E-13
 -1      3192 2.00259E+01 3.76938E-01 3.89286E-06-8.13605E-01-8.77268E-14-7.61197E-13
 -1      3193 1.06840E+01-6.49536E-01 1.27492E-01-3.41795E+00-1.18988E-13-4.95437E-14
 -1      3194 1.27447E+01-1.67686E+00 4.52450E-03-4.66943E+00-2.25715E-13-2.82413E-14
 -1      3195 2.00803E+01 1.65922E-01-9.33863E-04-9.07359E-02 1.97123E-14 5.73852E-14
 -1      3196 2.01108E+01 2.28277E-01 3.62997E-03-3.38308E-02 2.56388E-14 4.78602E-14
 -1      3197 2.00128E+01 1.49312E-02 8.44823E-04-2.54279E-01 1.12693E-13 8.54531E-14
 -1      3198 2.00054E+01 1.29755E-02 1.37065E-04-2.46183E-01 1.14620E-13 6.15472E-14
 -1      3199 2.00141E+01 1.55039E-02 5.81020E-04-2.36758E-01 9.52604E-14 7.46634E-14
 -1      3200 2.00127E+01 2.29745E-02 6.90138E-04-2.25921E-01 6.27232E-14 1.25767E-13
 -1      3201 2.00640E+01 2.20891E-02-8.09241E-04-2.39597E-01 1.07056E-13 7.80566E-14
 -1      3202 2.00296E+01 5.66527E-02 1.29429E-03-2.96951E-01 6.83718E-14 1.70256E-13
 -1      3203 2.00134E+01 4.11251E-02-6.22768E-04-2.83422E-01 1.15228E-13 1.43282E-13
 -1      3204 2.00450E+01 9.45736E-02 1.52178E-03-3.34004E-01-7.50019E-15 1.97280E-13
 -1      3205 2.00252E+01 7.36034E-02-9.18026E-04-3.13644E-01 4.99594E-14 2.03218E-13
 -1      3206 2.00348E+01 7.98112E-02-2.78241E-04-3.11184E-01 2.12685E-14 1.60766E-13
 -1      3207 2.00636E+01 1.42373E-01 1.76419E-03-3.87868E-01-6.39805E-14 9.70346E-14
 -1      3208 2.00403E+01 1.16385E-01-1.20177E-03-3.58482E-01-4.24172E-14 1.37215E-13
 -1      3209 2.00301E+01 1.27198E-01-1.10497E-04-3.53564E-01 5.66033E-15 1.21633E-13
 -1      3210 2.00845E+01 1.99328E-01 2.02400E-03-4.62475E-01-7.68916E-15 5.28198E-14
 -1      3211 2.00577E+01 1.68683E-01-1.49780E-03-4.22158E-01-2.77451E-14 1.07547E-13
 -1      3212 2.00248E+01 1.86099E-01 8.24038E-05-4.13285E-01-3.33299E-14 6.39806E-14
 -1      3213 2.01065E+01 2.64377E-01 2.29857E-03-5.61208E-01-3.25451E-14 7.73296E-14
 -1      3214 2.00759E+01 2.29689E-01-1.82046E-03-5.08355E-01-3.37072E-14 6.73342E-14
 -1      3215 2.00166E+01 2.55505E-01 3.15443E-04-4.94103E-01-2.55633E-14 5.04386E-14
 -1      3216 2.01281E+01 3.35255E-01 2.58531E-03-6.86765E-01 8.86667E-14-2.56249E-14
 -1      3217 2.00938E+01 2.97870E-01-2.16971E-03-6.20204E-01 5.78963E-14 5.72512E-14
 -1      3218 2.00026E+01 3.33821E-01 5.98359E-04-5.99213E-01 1.90855E-14 1.65735E-14
 -1      3219 2.01484E+01 4.07164E-01 2.89007E-03-8.40835E-01-7.55862E-15 1.70229E-14
 -1      3220 2.01099E+01 3.69913E-01-2.52307E-03-7.60091E-01 6.20440E-14-1.01750E-15
 -1      3221 1.99800E+01 4.17793E-01 9.20887E-04-7.31200E-01 4.75733E-14-4.35386E-14
 -1      3222 2.01676E+01 4.70697E-01 3.24272E-03-1.02356E+00 4.72106E-14 5.68316E-14
 -1      3223 2.01238E+01 4.39049E-01-2.81957E-03-9.29298E-01-1.09482E-14 3.24042E-14
 -1      3224 1.99459E+01 5.00869E-01 1.22938E-03-8.91951E-01-1.90538E-14-2.82839E-15
 -1      3225 2.01895E+01 5.08689E-01 3.71702E-03-1.23274E+00-2.17811E-15 2.09176E-13
 -1      3226 2.01371E+01 4.92494E-01-2.93220E-03-1.12743E+00 4.41576E-14 1.52916E-13
 -1      3227 1.98991E+01 5.70706E-01 1.38386E-03-1.08258E+00-2.92552E-14 1.55257E-13
 -1      3228 2.02261E+01 4.91824E-01 4.45466E-03-1.46275E+00-2.31504E-14 3.35368E-13
 -1      3229 2.01574E+01 5.07686E-01-2.62119E-03-1.35163E+00 3.30754E-14 3.19618E-13
 -1      3230 1.98429E+01 6.05474E-01 1.08301E-03-1.30350E+00-1.47218E-14 3.52149E-13
 -1      3231 2.03052E+01 3.73520E-01 5.69022E-03-1.70256E+00 5.54460E-14 2.64984E-13
 -1      3232 2.02043E+01 4.47415E-01-1.40990E-03-1.59519E+00-6.88489E-16 2.93488E-13
 -1      3233 1.97903E+01 5.68723E-01-2.36005E-04-1.55457E+00 2.61803E-14 4.07168E-13
 -1      3234 2.04826E+01 8.59296E-02 7.49535E-03-1.93213E+00 1.27683E-14 2.86519E-13
 -1      3235 2.03196E+01 2.55137E-01 1.56397E-03-1.84500E+00 4.72661E-14 2.80872E-13
 -1      3236 1.97731E+01 4.03983E-01-3.44256E-03-1.83468E+00 3.48986E-14 3.92747E-13
 -1      3237 2.08576E+01-4.55996E-01 9.59729E-03-2.11156E+00-9.54287E-14 3.56826E-13
 -1      3238 2.05847E+01-1.46689E-01 8.02392E-03-2.07423E+00 4.35491E-15 3.56111E-13
 -1      3239 1.98585E+01 2.84547E-02-1.00758E-02-2.13899E+00-5.81621E-14 4.44824E-13
 -1      3240 2.15833E+01-1.31950E+00 1.14744E-02-2.15621E+00-1.88881E-13 3.57708E-13
 -1      3241 2.11367E+01-8.40736E-01 2.07092E-02-2.22316E+00-1.02852E-13 3.18987E-13
 -1      3242 2.01727E+01-6.57968E-01-2.06906E-02-2.44232E+00-1.03217E-13 3.81757E-13
 -1      3243 2.29249E+01-2.42435E+00 3.17023E-02-1.86782E+00-1.06770E-13 3.65854E-13
 -1      3244 2.21879E+01-1.86685E+00 4.19595E-02-2.16155E+00-1.85694E-13 3.77730E-13
 -1      3245 2.09222E+01-1.73642E+00-3.58021E-02-2.66868E+00-1.73165E-13 3.15453E-13
 -1      3246 2.66022E+01-3.47054E+00-7.56606E-04-1.31070E-01-2.82101E-14 3.65645E-13
 -1      3247 2.57298E+01-3.79305E+00 7.32475E-02-9.18185E-01-5.47531E-14 3.66686E-13
 -1      3248 1.04375E+01-2.82677E-01 3.52797E-02 2.83749E+00-7.95752E-14-9.03305E-14
 -1      3249 9.23968E+00 2.39368E-01 1.17395E-01 7.52342E-01 2.81494E-14 1.67102E-13
 -1      3250 1.29658E+01-1.60412E-01 1.01461E-01 2.95381E+00 1.44607E-13 1.01016E-13
 -1      3251 2.87640E+01 3.52367E+00-9.44382E-02 2.15375E+00 8.21843E-14 4.65739E-14
 -1      3252 2.42089E+01-3.33822E+00 3.52699E-02 1.59077E+00 2.95436E-13-9.42493E-14
 -1      3253 2.51062E+01-3.62732E+00 2.77079E-03 1.00835E+00 2.24766E-13-1.09017E-13
 -1      3254 2.23605E+01-1.89163E+00 4.27220E-02 2.08750E+00 3.07956E-13 5.48099E-14
 -1      3255 2.30206E+01-2.48993E+00 5.86325E-03 1.79745E+00 3.87945E-13 6.59707E-14
 -1      3256 2.12886E+01-8.95922E-01 2.03336E-02 2.20998E+00 1.44201E-13-4.76349E-14
 -1      3257 2.17391E+01-1.37192E+00 7.40561E-03 2.11977E+00 2.13104E-13 4.87332E-14
 -1      3258 2.11311E+01-1.81548E+00-3.99397E-02 2.61734E+00 3.00068E-13 1.39060E-13
 -1      3259 2.07030E+01-1.98198E-01 8.64352E-03 2.09937E+00 2.32504E-13-1.58961E-13
 -1      3260 2.09864E+01-5.10641E-01 8.22745E-03 2.12056E+00 2.07539E-13-9.11229E-15
 -1      3261 2.03321E+01-7.32438E-01-2.21970E-02 2.45433E+00 2.02622E-13 2.83714E-14
 -1      3262 2.04094E+01 2.11343E-01 2.18313E-03 1.89282E+00 6.16005E-14-1.77374E-13
 -1      3263 2.05834E+01 3.72799E-02 6.91807E-03 1.96982E+00 1.88366E-13-1.65134E-13
 -1      3264 1.99800E+01-3.36831E-02-1.07491E-02 2.18292E+00 1.48243E-13 7.59809E-14
 -1      3265 2.02710E+01 4.13700E-01-8.75977E-04 1.65534E+00 1.40883E-14-8.30345E-14
 -1      3266 2.03819E+01 3.34018E-01 5.38684E-03 1.75717E+00-5.26046E-14-2.29632E-13
 -1      3267 1.98667E+01 3.54868E-01-4.15428E-03 1.89624E+00 3.96782E-14 7.63688E-14
 -1      3268 2.02063E+01 4.86646E-01-2.11277E-03 1.41674E+00 3.61549E-13-5.48939E-14
 -1      3269 2.02835E+01 4.63511E-01 4.30484E-03 1.52591E+00 1.62214E-13-6.79663E-14
 -1      3270 1.98648E+01 5.34153E-01-7.07792E-04 1.62433E+00 6.93541E-14-1.00140E-13
 -1      3271 2.01726E+01 4.89011E-01-2.29250E-03 1.19088E+00 2.48400E-13 1.60275E-13
 -1      3272 2.02316E+01 4.95189E-01 3.59470E-03 1.29767E+00 4.19958E-13 2.22818E-14
 -1      3273 1.99040E+01 5.87529E-01 6.11991E-04 1.37488E+00 1.72967E-13 1.32623E-13
 -1      3274 2.01507E+01 4.63051E-01-5.60876E-04 9.84423E-01 1.22257E-13 2.05227E-13
 -1      3275 2.01981E+01 4.78318E-01 3.34696E-03 1.08278E+00 1.99585E-13 1.54995E-13
 -1      3276 1.99490E+01 5.74603E-01 2.68708E-04 1.14966E+00 2.18309E-13 3.99110E-13
 -1      3277 2.00547E+01 2.16740E+00-4.31259E-03 2.91820E-01 8.28213E-14 1.16416E-15
 -1      3278 2.00415E+01 2.20599E+00-3.54099E-03 1.69990E-01 7.20004E-14-3.26291E-15
 -1      3279 1.94729E+01 8.45507E-01-2.24046E-04-1.37160E-01 1.97282E-13-8.46419E-14
 -1      3280 1.94551E+01 8.58121E-01-2.18421E-03-2.51816E-02 1.56342E-13 5.96536E-14
 -1      3281 1.98514E+01 5.40591E-01 1.29513E-03-6.19621E-01 1.02137E-13 2.27123E-13
 -1      3282 1.97671E+01 5.99280E-01-3.07509E-03-5.81598E-01 1.19557E-13-1.66348E-13
 -1      3283 1.95543E+01 7.77646E-01 1.12551E-03-3.51338E-01 1.76726E-13-2.55049E-13
 -1      3284 1.95054E+01 8.09088E-01-3.04762E-03-2.55881E-01 3.08768E-13-1.61833E-13
 -1      3285 1.93973E+01 8.44305E-01 2.48771E-03-2.22166E-01 1.94184E-13 1.42744E-14
 -1      3286 2.08785E+01-4.23392E+00-7.73605E-02 4.38754E+00 6.49689E-14-2.32595E-13
 -1      3287 1.85387E+01-3.34821E+00 1.13143E-01 5.03124E+00 8.09769E-14-7.82430E-14
 -1      3288 1.11940E+01-1.13265E+00 1.14415E-01-4.31810E+00-6.76403E-14-3.19023E-13
 -1      3289 1.33367E+01-2.26721E+00 3.39926E-02-5.44713E+00 8.81586E-14-2.19422E-13
 -1      3290 2.70915E+01-3.78108E+00-1.69537E-02-5.48064E-01 7.21576E-14 2.25459E-13
 -1      3291 9.23617E+00 2.76769E-01 8.69789E-02-3.79319E-01 3.18322E-14-3.61058E-13
 -1      3292 9.60471E+00-5.04067E-02 1.14536E-01-2.19524E+00-2.80678E-14-2.54824E-13
 -1      3293 2.02176E+01 1.78130E+00 7.24052E-03-9.18289E-01 6.43745E-16-7.29816E-14
 -1      3294 2.02833E+01 1.26540E+00-4.94929E-03-6.81207E-01 8.04608E-15-6.77739E-14
 -1      3295 2.02678E+01 9.13153E-01-3.57977E-04-4.10398E-01-9.16465E-15-6.36999E-14
 -1      3296 2.02210E+01 1.57631E+00 1.00123E-03-6.34304E-01 1.81951E-14-6.41906E-14
 -1      3297 1.96876E+01 6.71432E-01 2.07574E-03-5.19101E-01 7.02720E-14-5.38284E-13
 -1      3298 1.96144E+01 7.18690E-01-3.42879E-03-4.47599E-01 1.61689E-13-4.11031E-13
 -1      3299 1.95098E+01 7.55104E-01 1.54042E-03-4.43513E-01 1.57131E-13-3.96864E-13
 -1      3300 1.96770E+01 6.33190E-01 5.67830E-04-6.05867E-01 8.24141E-14-2.42803E-13
 -1      3301 2.64662E+01-3.58613E+00 1.72185E-02 2.45583E-01 1.20976E-13-1.78888E-13
 -1      3302 2.62576E+01 2.56816E+00-4.08945E-02 2.16676E+00 1.93318E-14-2.93841E-13
 -1      3303 2.55061E+01 3.60463E+00-1.54238E-01 1.73251E+00 1.35725E-14-3.13369E-13
 -1      3304 2.00185E+01 2.95639E-02 1.07387E-03-2.72162E-01 1.24533E-13 1.48055E-13
 -1      3305 2.00063E+01 2.02004E-02-2.84660E-04-2.62900E-01 1.20255E-13 1.50312E-13
 -1      3306 2.00499E+01 2.48311E-02-6.14419E-04-2.60011E-01 8.91756E-14 1.23026E-13
 -1      3307 2.00408E+01 4.50800E-02-4.41508E-04-2.81744E-01 9.04702E-14 2.03606E-13
 -1      3308 2.66124E+01 1.42188E+00-1.68841E-01-2.16126E+00-3.00704E-13-1.13777E-13
 -1      3309 2.71979E+01-1.12041E-01-2.74697E-03-1.80972E+00-3.68643E-13 2.07195E-14
 -1      3310 2.54126E+01 4.68012E+00-8.47058E-02 9.88716E-01 5.82867E-16-3.05393E-13
 -1      3311 2.54363E+01 5.06820E+00-1.08549E-01-2.49547E-01-7.02216E-14-2.60366E-13
 -1      3312 2.02770E+01 7.11848E-01-2.66433E-04-3.23971E-01-1.82183E-14-5.73768E-14
 -1      3313 2.02412E+01 5.62388E-01-2.57525E-03-1.91060E-01-1.44151E-14-4.30847E-14
 -1      3314 2.02898E+01 5.90670E-01 6.64504E-04-1.65290E-01-1.41439E-14-4.29440E-14
 -1      3315 2.03073E+01 9.38177E-01 2.79576E-03-3.38209E-01 1.15172E-14-5.92244E-14
 -1      3316 8.96352E+00 1.22404E-01 8.45009E-02-1.21606E+00 1.85086E-13 3.07532E-13
 -1      3317 9.81160E+00-3.05914E-01 8.34916E-02-2.95954E+00 4.10678E-14-8.76521E-14
 -1      3318 2.51714E+01-4.23242E+00-9.85267E-02 1.92921E+00-1.83763E-13 7.97314E-14
 -1      3319 2.33134E+01-4.36793E+00 8.03920E-02 3.23064E+00 9.01362E-15-1.20921E-13
 -1      3320 2.53694E+01-3.49822E+00 2.41667E-02 8.69247E-01-1.87357E-13-6.21586E-14
 -1      3321 1.56298E+01-2.51597E+00-2.44449E-02 5.22577E+00 1.12084E-13 1.83110E-13
 -1      3322 1.34124E+01-1.36789E+00 1.66015E-01 4.69955E+00 1.48461E-13 8.06577E-14
 -1      3323 2.16910E+01-4.14393E+00 1.26674E-01-4.01614E+00-1.31593E-13 2.64937E-13
 -1      3324 2.35835E+01-4.59207E+00-1.01609E-01-2.91892E+00-7.65360E-14 3.28436E-13
 -1      3325 1.59347E+01-2.48335E+00 1.55496E-01-5.05123E+00-2.46456E-13-8.06161E-14
 -1      3326 1.87625E+01-3.74740E+00-4.84575E-02-4.93955E+00-1.86143E-13 1.12001E-13
 -1      3327 1.99651E+01 5.30679E-01 1.26499E-03 6.37675E-01 4.82749E-14-2.45465E-14
 -1      3328 2.02919E+01 9.91606E-01-4.36827E-04 6.89930E-01 7.89069E-14 5.98275E-14
 -1      3329 2.02695E+01 1.30952E+00 2.85033E-03 7.70889E-01 8.79305E-14 7.54966E-14
 -1      3330 2.02746E+01 1.13170E+00 1.33226E-04 5.92573E-01 7.11903E-14 6.84471E-14
 -1      3331 2.02331E+01 7.79465E-01-3.80956E-03 4.83759E-01 7.21176E-14 7.51611E-14
 -1      3332 2.17019E+01-4.54517E+00 1.01608E-01-4.48834E+00-7.71258E-14-1.12046E-13
 -1      3333 2.37964E+01-4.55629E+00-6.43995E-02-2.96892E+00-4.42979E-14-7.91884E-14
 -1      3334 2.07937E+01-4.00911E+00 6.75399E-02-4.41093E+00-9.35224E-14-9.00304E-14
 -1      3335 2.55137E+01-3.78944E+00 2.21182E-02-1.30557E+00-8.79652E-14-9.88688E-14
 -1      3336 2.65408E+01-2.83784E+00-1.15656E-01 1.07539E-01 4.74941E-14 9.10938E-14
 -1      3337 2.01587E+01-3.89708E+00-1.75994E-02 4.53123E+00 1.12813E-13-3.20799E-13
 -1      3338 1.78794E+01-2.92252E+00 1.14779E-01 4.81843E+00 1.37810E-13-1.29476E-13
 -1      3339 2.55750E+01 4.56260E+00-1.52143E-01-1.14235E+00-8.90676E-14-3.28688E-13
 -1      3340 2.61168E+01 3.50029E+00-2.08352E-02-1.98758E+00-1.63175E-13-3.07254E-13
 -1      3341 2.44716E+01-3.52002E+00 2.75248E-02-1.42435E+00-1.29325E-13 4.95336E-13
 -1      3342 2.00362E+01 2.22437E+00-3.51108E-03 6.58637E-02 7.20553E-14-1.15689E-14
 -1      3343 2.00327E+01 2.21896E+00-5.87316E-03-5.99181E-02 5.91330E-14-3.02897E-14
 -1      3344 2.01480E+01 1.93171E+00 4.91845E-03 1.01384E-01 7.25961E-14-7.65582E-16
 -1      3345 2.02613E+01 1.46685E+00 7.14167E-03 5.86372E-01 7.35996E-14 1.37278E-14
 -1      3346 2.01645E+01 1.80513E+00-7.37565E-03 6.83421E-01 8.26797E-14 1.29375E-15
 -1      3347 2.01301E+01 1.93575E+00-2.87795E-03 5.89190E-01 7.91891E-14-1.62820E-14
 -1      3348 2.62175E+01-1.92428E+00-2.36799E-02 9.00732E-01 9.45424E-16 3.19189E-16
 -1      3349 2.57100E+01 1.27381E+00-4.60839E-02 2.04623E+00-7.59739E-14-2.01145E-13
 -1      3350 1.29361E+01-6.53987E-01 8.25846E-02 3.72083E+00 1.92187E-13 5.65520E-15
 -1      3351 2.01625E+01 1.79481E+00-3.27314E-03-4.82919E-01 2.03287E-14-7.89256E-14
 -1      3352 2.01911E+01 1.67024E+00-8.40114E-03-5.74323E-01 2.08528E-14-7.61816E-14
 -1      3353 2.02966E+01 1.25075E+00 6.49878E-03-3.83222E-01 1.95516E-14-8.76723E-14
 -1      3354 2.45855E+01 4.01116E+00-7.73100E-02-6.06008E-01-3.58463E-14-1.95077E-13
 -1      3355 2.37750E+01 3.64471E+00-4.78131E-02-8.81772E-02 1.55154E-14-8.77215E-14
 -1      3356 1.96420E+01 7.43619E-01-4.29407E-03 5.42766E-01 2.25950E-13 8.23425E-13
 -1      3357 1.97353E+01 6.93382E-01 3.33896E-03 6.12028E-01 1.69849E-13 8.85444E-13
 -1      3358 2.55400E+01-5.15480E-01-5.32556E-02-1.83271E+00-2.92912E-13-1.19939E-13
 -1      3359 2.49294E+01 2.21983E-01-5.15681E-02-2.09389E+00-1.56385E-13-1.80521E-13
 -1      3360 2.48396E+01 1.39048E+00-1.19571E-02-2.05084E+00-1.79481E-13-1.75868E-13
 -1      3361 2.37980E+01 3.45256E+00-6.40399E-02 6.84037E-01 1.22402E-14-1.44474E-13
 -1      3362 1.52439E+01-1.64667E+00 1.02741E-01-4.38763E+00-2.05953E-13-3.73729E-14
 -1      3363 2.00627E+01 1.19735E-01 2.40123E-03-1.34069E-01 3.27631E-14 7.49175E-14
 -1      3364 2.01507E+01 1.81338E-01-1.43075E-03-9.43189E-02 1.77347E-14 6.29738E-14
 -1      3365 2.00457E+01 8.22760E-02-2.33356E-04-1.67300E-01 1.45324E-14 8.89248E-14
 -1      3366 2.01956E+01 3.29910E-01-1.49258E-03 2.60100E-02 4.41092E-14 6.46237E-14
 -1      3367 2.01290E+01 3.03706E-01-1.86521E-03 3.64128E-02 4.30679E-14 6.02844E-14
 -1      3368 2.01734E+01 4.02726E-01 4.51327E-03 1.29312E-01 4.72776E-14 7.45609E-14
 -1      3369 2.64538E+01-1.20580E+00-2.76141E-02-1.30747E+00-2.76286E-13-1.30174E-14
 -1      3370 2.00846E+01 4.16687E-02-1.02940E-03-2.12475E-01 4.37426E-14 7.96578E-14
 -1      3371 2.00243E+01 3.56769E-02 2.42843E-04-2.11326E-01 1.86564E-14 1.01864E-13
 -1      3372 2.00308E+01 5.57148E-02 1.42715E-03-1.92668E-01-3.18352E-15 8.35224E-14
 -1      3373 2.34989E+01-3.12582E+00 4.94422E-02-1.97933E+00-1.18040E-13 4.25652E-13
 -1      3374 2.19688E+01-3.22205E+00-6.08485E-02-2.95159E+00-1.79948E-13 3.00527E-13
 -1      3375 1.07832E+01 5.26260E-01 1.28681E-01-4.05878E-02 1.62309E-13 1.38306E-13
 -1      3376 2.01225E+01 1.94743E+00-2.37966E-03-3.01079E-01 2.03847E-14-5.05224E-14
 -1      3377 2.01409E+01 1.86731E+00-6.75225E-03-4.09070E-01 2.14858E-14-7.16052E-14
 -1      3378 2.02801E+01 1.42889E+00 6.68392E-03-2.80216E-01-5.24732E-15-6.05806E-14
 -1      3379 2.27729E+01-3.45185E+00-2.99902E-02 2.63952E+00 2.91347E-13-6.98643E-14
 -1      3380 2.01265E+01 4.71592E-01 3.29724E-03 9.08489E-01 6.76876E-14 1.06781E-13
 -1      3381 1.99365E+01 5.61720E-01-1.69152E-03 9.62951E-01 1.99672E-13 3.06700E-13
 -1      3382 2.00668E+01 4.79233E-01 1.74176E-03 8.39866E-01 3.28035E-14 5.46994E-14
 -1      3383 2.00746E+01 2.11149E+00-3.10586E-03 3.90127E-01 7.76897E-14-1.88249E-14
 -1      3384 2.01706E+01 1.85622E+00 5.35712E-03 2.89819E-01 7.28229E-14-7.93457E-15
 -1      3385 2.00994E+01 2.03081E+00-5.34160E-03 5.03401E-01 7.48655E-14-3.02607E-14
 -1      3386 1.95130E+01 8.31491E-01-3.02820E-03 3.43344E-01-1.10851E-14 4.78431E-13
 -1      3387 1.95704E+01 7.99509E-01 6.45290E-04 4.41849E-01 1.15199E-14 7.40099E-13
 -1      3388 1.95330E+01 7.98859E-01 2.65435E-03 5.35026E-01-2.66899E-15 5.75975E-13
 -1      3389 1.18733E+01-3.94168E-01 1.32877E-01-3.34483E+00 1.15741E-14-1.84922E-13
 -1      3390 1.94559E+01 8.65907E-01-1.68387E-03 1.05865E-01-8.89976E-14 4.41873E-14
 -1      3391 1.94755E+01 8.56074E-01-9.39023E-04 2.18793E-01-5.91778E-14 1.66664E-13
 -1      3392 1.94018E+01 8.71994E-01 3.00662E-03 3.00862E-01-1.47255E-13 2.34566E-13
 -1      3393 1.93572E+01 8.86450E-01 2.98390E-03 3.59586E-02-7.55849E-14 2.09757E-13
 -1      3394 2.21765E+01-3.81464E+00 6.15336E-02 3.33092E+00 3.31159E-14-1.99671E-13
 -1      3395 1.57130E+01-2.43458E+00 1.10556E-01-5.13257E+00 1.23936E-13-1.52607E-13
 -1      3396 1.70936E+01-1.86972E+00 8.49247E-02 4.21657E+00 2.09759E-13 5.87586E-14
 -1      3397 1.76631E+01-2.42108E+00 6.42561E-02 4.50344E+00 5.56707E-14-8.66651E-14
 -1      3398 1.00177E+01 5.02576E-01 1.42635E-01 6.17885E-01 2.00175E-13-3.29056E-13
 -1      3399 1.10056E+01 6.67850E-01 6.51873E-02-3.61210E-01 1.76318E-13-2.04156E-13
 -1      3400 1.08998E+01 3.94645E-01 5.15625E-03 1.53273E+00 2.71441E-13-1.90542E-13
 -1      3401 2.56064E+01 2.17725E+00-3.78181E-02-2.01577E+00-1.66568E-13-3.19224E-13
 -1      3402 2.46414E+01 3.59426E+00-5.11335E-02 1.20403E+00-8.00054E-15-2.35850E-13
 -1      3403 2.35701E+01-3.88517E+00 9.26356E-03-2.32940E+00-1.15068E-13-4.72877E-14
 -1      3404 2.47552E+01-4.06104E+00 2.19579E-02-1.84112E+00-7.61457E-14-1.62583E-13
 -1      3405 2.49152E+01-3.39911E+00-4.45181E-02-7.12148E-01-5.38458E-15-2.64597E-14
 -1      3406 2.01785E+01 4.92803E-01-2.77805E-03 2.17080E-01 6.33846E-14 4.96211E-14
 -1      3407 2.02332E+01 6.40285E-01 3.94221E-03 3.58474E-01 7.20466E-14 5.63955E-14
 -1      3408 2.02633E+01 7.99625E-01 1.10590E-03 4.19662E-01 6.72636E-14 8.32281E-14
 -1      3409 2.02343E+01 5.31896E-01-1.51094E-03 1.94438E-01 5.12566E-14 8.86449E-14
 -1      3410 2.79646E+01-2.12108E+00-2.41429E-02 1.64641E+00-5.73222E-14 2.51410E-13
 -1      3411 1.15588E+01-4.76780E-02 1.21270E-01-2.58192E+00-7.04055E-14-3.53190E-14
 -1      3412 2.04364E+01-3.33716E+00 8.00599E-02-3.98345E+00-2.30010E-13 2.02088E-13
 -1      3413 1.98450E+01 6.00378E-01-5.76689E-03 6.88238E-01 2.34771E-13 3.98917E-13
 -1      3414 2.00173E+01 4.95852E-01 3.56744E-03 7.27760E-01 3.10422E-14-1.48046E-13
 -1      3415 1.99630E+01 4.43544E-01-1.98346E-04-6.71237E-01-2.88379E-13-3.51393E-13
 -1      3416 1.99027E+01 4.94204E-01-1.39194E-03-6.47639E-01-4.37738E-14 1.44765E-13
 -1      3417 1.98347E+01 5.21836E-01 7.28149E-04-6.92940E-01-4.49658E-14 2.69221E-14
 -1      3418 1.99612E+01 4.35373E-01 6.52809E-04-7.34471E-01-2.77975E-13-3.29187E-13
 -1      3419 2.18785E+01-3.81633E+00 3.93920E-02 3.49197E+00 1.60073E-13-2.78134E-13
 -1      3420 2.56772E+01-1.85438E+00-1.37403E-02-1.01976E+00-2.57228E-13-8.64690E-14
 -1      3421 1.19450E+01 1.14557E-01 2.23409E-02-2.56256E+00 3.85698E-14-7.03812E-14
 -1      3422 1.32134E+01-7.11549E-01 2.59261E-02-3.90088E+00 4.06931E-14-3.20466E-13
 -1      3423 2.07463E+01-2.63014E+00 4.49541E-02 3.37828E+00 2.28725E-13-3.26926E-14
 -1      3424 1.97540E+01 6.63649E-01 1.29832E-03 7.18871E-01 2.84478E-13 6.44571E-13
 -1      3425 2.02721E+01 2.64098E-01 1.85717E-03 5.68026E-02-3.69989E-15-4.13421E-14
 -1      3426 2.02483E+01 1.94657E-01-1.12214E-03 1.02383E-01-1.13319E-14-3.97212E-14
 -1      3427 2.02315E+01 1.42113E-01 1.38835E-03 1.33656E-01-2.24860E-14-5.17082E-14
 -1      3428 2.02104E+01 1.00895E-01-4.36222E-04 1.62120E-01-2.15038E-14-3.98251E-14
 -1      3429 2.02865E+01 2.00265E-01-3.97381E-04 1.00723E-01-1.27583E-14-2.17097E-14
 -1      3430 2.01899E+01 7.19597E-02 8.23825E-04 1.81600E-01-1.57284E-14-5.52310E-14
 -1      3431 2.01725E+01 5.17426E-02 5.98516E-05 1.99484E-01 1.23272E-15-6.92307E-14
 -1      3432 2.02447E+01 1.06283E-01-4.88897E-04 1.54464E-01-1.72255E-14-3.49442E-15
 -1      3433 2.01502E+01 4.02620E-02 3.29495E-04 2.12222E-01 1.90256E-14-1.16339E-13
 -1      3434 2.01362E+01 3.57173E-02 4.12191E-04 2.24759E-01-1.63535E-15-6.58256E-14
 -1      3435 2.01999E+01 5.89603E-02-4.72166E-04 1.89272E-01 6.90139E-16-8.91376E-14
 -1      3436 2.01129E+01 3.73107E-02-9.29503E-05 2.34899E-01-2.01939E-14-7.91331E-15
 -1      3437 2.01017E+01 4.46125E-02 6.65242E-04 2.46220E-01-1.71459E-14 2.62352E-14
 -1      3438 2.01544E+01 4.66819E-02-3.80637E-04 2.14230E-01 1.41868E-14-6.03413E-14
 -1      3439 2.00776E+01 5.61247E-02-4.55333E-04 2.57101E-01-1.76107E-14 7.71002E-14
 -1      3440 2.00685E+01 7.24727E-02 8.54591E-04 2.70433E-01-1.05692E-14 7.73840E-14
 -1      3441 2.01086E+01 6.09750E-02-2.42266E-04 2.36796E-01 1.96079E-14 5.19752E-14
 -1      3442 2.00433E+01 9.15395E-02-7.73255E-04 2.84737E-01-3.30858E-14 8.30239E-14
 -1      3443 2.00356E+01 1.14759E-01 1.00774E-03 3.02597E-01-4.12639E-15 6.52061E-14
 -1      3444 2.00620E+01 9.55751E-02-7.47715E-05 2.62984E-01-2.09137E-15 1.34333E-14
 -1      3445 2.00085E+01 1.39426E-01-1.05863E-03 3.22504E-01-9.15333E-15 2.76536E-14
 -1      3446 2.00018E+01 1.67581E-01 1.14575E-03 3.46848E-01-4.36926E-14 3.82354E-14
 -1      3447 2.00133E+01 1.45589E-01 1.06437E-04 2.97657E-01 8.83477E-16-3.84455E-14
 -1      3448 1.99721E+01 1.95919E-01-1.31519E-03 3.74154E-01-9.44537E-14 8.10453E-14
 -1      3449 1.99660E+01 2.26916E-01 1.28767E-03 4.06450E-01-1.28656E-13 6.23616E-14
 -1      3450 1.99609E+01 2.06681E-01 2.86173E-04 3.44805E-01-5.79412E-14 3.86365E-14
 -1      3451 1.99332E+01 2.56615E-01-1.53604E-03 4.42655E-01-1.20546E-13 3.57820E-15
 -1      3452 1.99278E+01 2.87757E-01 1.45442E-03 4.83897E-01-8.92084E-14-9.78936E-15
 -1      3453 1.99034E+01 2.74219E-01 4.41873E-04 4.07761E-01-1.37011E-13 5.63727E-14
 -1      3454 1.98919E+01 3.15653E-01-1.69954E-03 5.30253E-01-1.01419E-13-2.39849E-14
 -1      3455 1.98882E+01 3.43122E-01 1.67359E-03 5.80920E-01-1.26287E-13-1.95180E-14
 -1      3456 1.98399E+01 3.42334E-01 5.35964E-04 4.89362E-01-9.26554E-14-4.30256E-14
 -1      3457 1.98500E+01 3.64647E-01-1.76333E-03 6.38449E-01-1.30305E-13 3.40380E-14
 -1      3458 1.98502E+01 3.82907E-01 1.98538E-03 6.98392E-01-1.29713E-13 4.71593E-14
 -1      3459 1.97709E+01 4.02836E-01 5.07803E-04 5.92080E-01-7.86221E-14 5.05306E-15
 -1      3460 1.98123E+01 3.91460E-01-1.65448E-03 7.67876E-01-7.80685E-14 9.25462E-14
 -1      3461 1.98206E+01 3.92586E-01 2.44549E-03 8.36119E-01 1.80812E-14 8.70912E-14
 -1      3462 1.96993E+01 4.43956E-01 2.58896E-04 7.18118E-01-7.77329E-14 1.96985E-13
 -1      3463 1.97885E+01 3.78891E-01-1.25113E-03 9.18003E-01-7.63923E-15 5.59255E-14
 -1      3464 1.98125E+01 3.51919E-01 3.11663E-03 9.92398E-01 5.48059E-15-1.70288E-14
 -1      3465 1.96323E+01 4.48930E-01-3.68906E-04 8.69458E-01-1.13329E-14 1.66745E-13
 -1      3466 1.97959E+01 3.03507E-01-3.49146E-04 1.08649E+00 5.11819E-14-3.52202E-14
 -1      3467 1.98476E+01 2.34006E-01 4.03761E-03 1.16303E+00 7.42460E-14-7.60976E-14
 -1      3468 1.95836E+01 3.94533E-01-1.62543E-03 1.04771E+00 1.25021E-14 2.32069E-14
 -1      3469 1.98634E+01 1.35208E-01 1.41154E-03 1.26757E+00 9.34352E-14-9.22610E-14
 -1      3470 1.99611E+01 5.55602E-03 5.13263E-03 1.33898E+00 1.36001E-13-1.34372E-13
 -1      3471 1.95774E+01 2.49868E-01-3.88535E-03 1.25326E+00 6.87409E-14-6.55812E-14
 -1      3472 2.00365E+01-1.61255E-01 4.64009E-03 1.44827E+00 2.03912E-13-1.69610E-13
 -1      3473 2.02047E+01-3.69599E-01 6.01776E-03 1.50105E+00 1.90794E-13-1.87214E-13
 -1      3474 1.96539E+01-2.38392E-02-7.66153E-03 1.48264E+00 1.45686E-13-1.53516E-13
 -1      3475 2.03821E+01-6.19223E-01 1.02895E-02 1.59969E+00 9.98144E-14-2.14142E-13
 -1      3476 2.06500E+01-9.18396E-01 5.77586E-03 1.60875E+00 2.00445E-14-1.28387E-13
 -1      3477 1.98767E+01-4.69635E-01-1.32621E-02 1.72126E+00 1.22720E-13-2.96410E-13
 -1      3478 2.09886E+01-1.25107E+00 1.93338E-02 1.66406E+00 6.97554E-15-1.08824E-13
 -1      3479 2.13801E+01-1.63137E+00 2.19431E-03 1.58436E+00 2.52216E-14-8.27798E-14
 -1      3480 2.03370E+01-1.11818E+00-2.04237E-02 1.92817E+00 7.65353E-14-2.43938E-13
 -1      3481 2.19768E+01-2.02128E+00 3.29975E-02 1.51555E+00-2.37306E-14-4.82388E-14
 -1      3482 2.25328E+01-2.32859E+00 2.07870E-02 1.23655E+00-1.44205E-14 2.93255E-14
 -1      3483 2.11693E+01-1.98086E+00-3.11879E-02 2.01815E+00 3.55219E-14-1.95555E-14
 -1      3484 2.51630E+01-2.64652E+00-6.17922E-02-3.44987E-01-1.31140E-13-1.04897E-13
 -1      3485 2.50228E+01 1.46162E+00-4.53182E-02 2.10725E+00-7.37119E-14-2.96929E-13
 -1      3486 2.46762E+01-2.66614E+00-1.29161E-03 3.16367E-02-4.26970E-15-1.22130E-13
 -1      3487 2.41497E+01-2.85988E+00 4.34563E-02-5.42701E-01-3.45488E-14-5.10009E-14
 -1      3488 2.31975E+01-2.69668E+00 7.14965E-03-1.00273E+00-6.45690E-14-8.51767E-14
 -1      3489 2.26369E+01-2.43770E+00 4.46827E-02-1.36787E+00-1.29059E-14 1.56351E-14
 -1      3490 2.31688E+01-3.29405E+00-4.36887E-02-1.66965E+00-4.73753E-14-7.86385E-14
 -1      3491 2.19333E+01-2.05957E+00 1.19493E-02-1.51818E+00-9.21147E-14 1.99797E-15
 -1      3492 2.14488E+01-1.69129E+00 2.72460E-02-1.70063E+00-1.63577E-13-1.17193E-13
 -1      3493 2.15514E+01-2.52110E+00-5.15937E-02-2.19002E+00-4.37454E-14-2.16201E-13
 -1      3494 2.10191E+01-1.29900E+00 1.56969E-02-1.66622E+00-1.30519E-13-4.43254E-14
 -1      3495 2.06581E+01-9.73466E-01 1.38235E-02-1.72320E+00-6.85456E-14-2.31795E-13
 -1      3496 2.05124E+01-1.54978E+00-3.38810E-02-2.16908E+00-2.16162E-14-1.68374E-13
 -1      3497 2.04291E+01-6.58117E-01 1.36929E-02-1.61800E+00-1.06311E-13-3.27878E-13
 -1      3498 2.01893E+01-4.13860E-01 5.61176E-03-1.60334E+00-1.70315E-13-4.63564E-13
 -1      3499 1.99299E+01-7.60097E-01-1.76378E-02-1.95326E+00-2.23612E-13-2.32719E-13
 -1      3500 2.00889E+01-1.89042E-01 1.03044E-02-1.48044E+00-8.27410E-14-4.70960E-13
 -1      3501 1.99429E+01-2.47043E-02 1.04252E-03-1.42910E+00-7.64772E-14-3.39642E-13
 -1      3502 1.96462E+01-2.02048E-01-7.81889E-03-1.68570E+00-1.36423E-13-4.82461E-13
 -1      3503 1.99189E+01 1.20991E-01 7.05509E-03-1.31076E+00-1.15701E-13-1.84839E-13
 -1      3504 1.98370E+01 2.21266E-01-1.34063E-03-1.24279E+00-5.43389E-14-8.59293E-15
 -1      3505 1.95468E+01 1.58515E-01-2.41708E-03-1.42638E+00-1.15048E-14-2.26307E-13
 -1      3506 1.98550E+01 3.07817E-01 4.62860E-03-1.13640E+00-1.39388E-14-8.33139E-14
 -1      3507 1.98140E+01 3.63174E-01-2.14279E-03-1.06249E+00 4.17660E-14-1.50703E-13
 -1      3508 1.95526E+01 3.72221E-01 4.31340E-04-1.19542E+00-3.85498E-14-1.51952E-13
 -1      3509 1.98510E+01 4.08777E-01 2.47705E-03-9.69069E-01-7.48337E-14-1.77731E-13
 -1      3510 1.98380E+01 4.36846E-01-1.49774E-03-8.94082E-01-7.71904E-14-3.98377E-13
 -1      3511 1.96133E+01 4.86083E-01 1.62227E-03-9.95043E-01-5.65743E-14-1.49935E-13
 -1      3512 1.15733E+01 6.59698E-01-4.15802E-03 7.93802E-01 2.83150E-15 8.82558E-14
 -1      3513 1.14943E+01 6.95241E-01 7.32350E-02-1.03676E+00 1.11704E-13 9.11840E-14
 -1      3514 2.00154E+01 1.63390E-01 1.21948E-03-3.55109E-01-2.92250E-14 1.09955E-13
 -1      3515 2.00162E+01 1.32581E-01-1.17805E-03-3.29887E-01 1.44739E-14 8.66838E-14
 -1      3516 2.00390E+01 1.06581E-01 1.08892E-03-3.10167E-01 5.82923E-14 1.13418E-13
 -1      3517 2.00404E+01 8.28169E-02-8.20443E-04-2.92228E-01 5.81566E-14 1.17792E-13
 -1      3518 2.00217E+01 1.38482E-01 1.55834E-04-3.09693E-01 4.61052E-14 1.32257E-13
 -1      3519 1.99511E+01 3.14116E-01 1.42955E-03-4.99257E-01-4.21862E-14 4.94529E-14
 -1      3520 1.99543E+01 2.71160E-01-1.95058E-03-4.53901E-01-6.86630E-14 6.53489E-14
 -1      3521 1.99028E+01 4.04727E-01 1.52339E-03-6.04541E-01 1.68304E-14 4.17151E-14
 -1      3522 1.99094E+01 3.57199E-01-2.39943E-03-5.46972E-01 1.24385E-14 5.30608E-14
 -1      3523 1.98560E+01 3.81319E-01 1.29034E-03-5.02963E-01-1.65070E-14 2.13639E-14
 -1      3524 1.98380E+01 5.00921E-01 1.64079E-03-7.35135E-01 2.05088E-14 3.62856E-14
 -1      3525 1.98494E+01 4.51078E-01-2.90259E-03-6.64370E-01 9.66179E-15-3.11078E-14
 -1      3526 1.97692E+01 4.85031E-01 1.83663E-03-6.07383E-01 5.15463E-14 4.29320E-15
 -1      3527 1.97522E+01 5.95244E-01 1.85069E-03-8.92914E-01-6.03059E-14 4.32038E-14
 -1      3528 1.97696E+01 5.47354E-01-3.45983E-03-8.08320E-01-1.31579E-14 3.14761E-14
 -1      3529 1.96568E+01 5.93576E-01 2.46450E-03-7.35709E-01-3.41590E-14 4.53561E-14
 -1      3530 1.96429E+01 6.74211E-01 2.29958E-03-1.07978E+00-1.12292E-13 2.59692E-13
 -1      3531 1.96657E+01 6.35896E-01-4.05861E-03-9.80987E-01-5.62540E-14 1.70900E-13
 -1      3532 1.95122E+01 6.97959E-01 3.12440E-03-8.90440E-01-1.32662E-13 9.10053E-14
 -1      3533 1.95124E+01 7.14712E-01 3.26042E-03-1.29859E+00-5.34217E-14 3.44680E-13
 -1      3534 1.95365E+01 6.98879E-01-4.66458E-03-1.18522E+00-9.84180E-14 3.03117E-13
 -1      3535 1.93302E+01 7.82516E-01 3.68726E-03-1.07550E+00-1.35627E-13 1.55520E-13
 -1      3536 1.93736E+01 6.78876E-01 5.17122E-03-1.55480E+00 7.68854E-14 2.44151E-13
 -1      3537 1.93872E+01 7.06509E-01-5.18604E-03-1.42605E+00 5.57549E-14 2.76840E-13
 -1      3538 1.91091E+01 8.21248E-01 3.87642E-03-1.29850E+00 1.86055E-14 1.77038E-13
 -1      3539 1.92603E+01 5.08733E-01 8.97958E-03-1.85755E+00 1.63872E-15 3.53774E-13
 -1      3540 1.92377E+01 6.11260E-01-5.21913E-03-1.71224E+00 2.75323E-14 3.05428E-13
 -1      3541 1.88563E+01 7.71727E-01 3.12026E-03-1.57407E+00 4.62500E-14 1.54800E-13
 -1      3542 1.92433E+01 1.19257E-01 1.57278E-02-2.22174E+00-1.11382E-13 3.30825E-13
 -1      3543 1.91346E+01 3.43476E-01-3.80286E-03-2.05937E+00-6.15029E-14 3.33313E-13
 -1      3544 1.85966E+01 5.72291E-01 1.07359E-03-1.92808E+00-1.43685E-14 2.16583E-13
 -1      3545 1.94593E+01-6.07443E-01 2.53077E-02-2.64972E+00-1.40263E-13 2.80878E-13
 -1      3546 1.91814E+01-2.03056E-01 1.22230E-03-2.48542E+00-6.05415E-14 3.17383E-13
 -1      3547 1.83916E+01 1.24334E-01-3.69563E-03-2.40604E+00-1.06964E-13 1.81928E-13
 -1      3548 2.01705E+01-1.77199E+00 4.01087E-02-3.08601E+00-1.92592E-13 2.67382E-13
 -1      3549 1.95717E+01-1.14531E+00 1.63493E-02-2.97236E+00-1.67248E-13 2.72635E-13
 -1      3550 1.83980E+01-7.08480E-01-4.52851E-03-3.04406E+00-1.25500E-13 2.22029E-13
 -1      3551 1.93457E+01-2.84718E-01 3.38498E-03 2.53117E+00 2.30860E-13 6.76130E-14
 -1      3552 1.96497E+01-6.99516E-01 2.65297E-02 2.67479E+00 2.53532E-13 7.44258E-14
 -1      3553 2.01082E+01 3.01728E-02 4.65672E-04-2.33343E-01 8.37193E-14 7.83612E-14
 -1      3554 2.01177E+01 3.54023E-02 4.30725E-04-2.20853E-01 7.64379E-14 6.76900E-14
 -1      3555 1.97563E+01-1.22714E+00 2.08521E-02 2.99224E+00 2.53348E-13 1.59209E-13
 -1      3556 2.03589E+01-1.87233E+00 3.98594E-02 3.07725E+00 2.95321E-13 3.69917E-14
 -1      3557 1.89899E+01-2.21230E+00-2.68280E-02 3.86759E+00 2.09915E-13-1.16022E-13
 -1      3558 1.85612E+01-8.01983E-01-4.71894E-03 3.09141E+00 3.39792E-13 3.18148E-14
 -1      3559 1.93337E+01 5.64608E-01-4.75642E-03 1.78559E+00 4.83115E-14-5.36244E-14
 -1      3560 1.93676E+01 4.53654E-01 9.15103E-03 1.92618E+00 1.22201E-13 1.19145E-13
 -1      3561 1.94685E+01 6.75686E-01-4.91895E-03 1.50193E+00 9.39853E-14-1.19484E-13
 -1      3562 1.94627E+01 6.39825E-01 5.38135E-03 1.62903E+00 1.00799E-14-1.36317E-13
 -1      3563 1.89533E+01 7.25954E-01 2.34399E-03 1.65490E+00 4.93360E-14 4.61935E-14
 -1      3564 1.96090E+01 6.88186E-01-4.36165E-03 1.25872E+00-4.72296E-14 2.79970E-13
 -1      3565 1.95905E+01 6.94177E-01 3.72706E-03 1.37424E+00-4.55083E-15 1.30610E-13
 -1      3566 1.91975E+01 7.93916E-01 3.10857E-03 1.37865E+00-1.11076E-13 5.70371E-14
 -1      3567 1.97333E+01 6.53248E-01-3.08826E-03 1.04733E+00 2.55838E-13 3.83680E-13
 -1      3568 1.97148E+01 6.76868E-01 3.00639E-03 1.15124E+00 1.35134E-13 3.79092E-13
 -1      3569 1.94123E+01 7.77455E-01 1.45016E-03 1.15269E+00 5.85765E-14 2.53784E-13
 -1      3570 2.00590E+01 4.88589E-01 4.96914E-03 7.95226E-01 6.60569E-14-6.14806E-14
 -1      3571 2.30439E+01-3.84346E+00-7.73306E-02 2.38235E+00-5.35743E-14-4.98178E-14
 -1      3572 2.13057E+01-3.22145E+00 7.18757E-02 3.31005E+00 6.19665E-14-1.92052E-13
 -1      3573 1.92971E+01 8.46089E-01 1.53788E-03-3.18150E-01 1.37759E-13-8.57459E-14
 -1      3574 1.92451E+01 8.73684E-01-3.22127E-03-1.94913E-01 4.03981E-14 6.73903E-14
 -1      3575 1.92569E+01 2.78568E-01-3.06950E-03 2.12427E+00 3.86283E-14 1.70592E-13
 -1      3576 1.93817E+01 4.60257E-02 1.59589E-02 2.27528E+00 1.11248E-13 9.01865E-14
 -1      3577 1.85469E+01 3.61912E-02-3.08125E-03 2.47244E+00 1.79469E-13-2.41111E-14
 -1      3578 1.99873E+01 2.32993E-01 1.33150E-03-4.17034E-01-6.08885E-14 5.46432E-14
 -1      3579 1.99886E+01 1.95773E-01-1.54766E-03-3.82568E-01-3.18136E-14 7.17452E-14
 -1      3580 1.99771E+01 2.05876E-01 4.63571E-04-3.56802E-01-3.08894E-14 8.96606E-14
 -1      3581 1.99234E+01 2.87373E-01 8.35415E-04-4.20250E-01-5.85361E-14 3.36605E-14
 -1      3582 2.02918E+01 9.33401E-01 9.35499E-04 4.61659E-01 6.78584E-14 7.29669E-14
 -1      3583 2.02810E+01 1.10615E+00-2.15254E-03 4.97612E-01 6.58292E-14 5.69555E-14
 -1      3584 2.02760E+01 7.76335E-01-1.37814E-03 3.31758E-01 6.07093E-14 8.32841E-14
 -1      3585 1.44182E+01-6.96538E-01 8.16574E-02-3.74884E+00-1.38134E-13 6.30745E-15
 -1      3586 1.68291E+01-1.71070E+00 2.03948E-02-4.13789E+00-2.47468E-13 1.24414E-14
 -1      3587 1.43063E+01-5.94367E-01 4.22369E-03 3.57054E+00 2.16353E-13 7.35523E-15
 -1      3588 1.24259E+01 2.63641E-01 1.39643E-01 2.72365E+00 2.33041E-13-1.11550E-13
 -1      3589 2.03043E+01 4.56098E-01 1.00396E-03-6.25312E-02-3.92538E-15-5.11613E-14
 -1      3590 2.02818E+01 3.50016E-01-1.76270E-03 8.21807E-03 5.75877E-15-5.49894E-14
 -1      3591 2.03206E+01 3.56118E-01-2.27462E-04 1.74812E-02 8.65803E-16-3.70002E-14
 -1      3592 1.99609E+01-2.50557E+00 3.86767E-02-3.64337E+00-2.73313E-13 1.93392E-13
 -1      3593 2.03143E+01 1.13257E+00 9.94542E-04-2.86253E-01 1.22447E-15-1.11153E-13
 -1      3594 2.03115E+01 1.01928E+00-4.32414E-03-3.19962E-01 1.03342E-14-9.38984E-14
 -1      3595 2.03242E+01 8.35687E-01 8.01881E-04-2.34918E-01-8.56175E-15-8.60233E-14
 -1      3596 1.67499E+01-1.10372E+00 2.61655E-02 3.72365E+00 2.10921E-13 3.69982E-14
 -1      3597 1.42932E+01-1.10237E-01 2.62994E-03 2.96484E+00 2.63564E-13 1.60746E-13
 -1      3598 1.28779E+01 5.77491E-01 1.04123E-01 2.00514E+00 1.82770E-13 1.53228E-13
 -1      3599 2.43464E+01-3.09901E+00 4.74436E-02 7.62058E-01-1.25988E-13-6.92233E-14
 -1      3600 1.50524E+01-1.62422E+00 7.28712E-02-4.60533E+00 1.10738E-13-1.39971E-13
 -1      3601 1.73204E+01-2.84993E+00-2.68557E-02-4.96114E+00 5.73534E-14-4.15223E-14
 -1      3602 2.00729E+01 2.11443E+00-2.11311E-03-1.31010E-01 4.89533E-14-2.85065E-14
 -1      3603 2.00801E+01 2.07073E+00-6.16911E-03-2.49592E-01 3.43352E-14-3.85505E-14
 -1      3604 2.02406E+01 1.61449E+00 5.84530E-03-1.75566E-01 2.96779E-14-8.11016E-15
 -1      3605 2.01785E+01 1.83917E+00 5.41026E-03-6.41763E-02 4.64030E-14-1.58768E-14
 -1      3606 1.21566E+01 3.96904E-01 3.96517E-02-1.99042E+00 5.06418E-14 3.06838E-14
 -1      3607 1.30961E+01-1.66793E-01 3.11265E-02-3.12805E+00-5.39881E-14 1.28862E-13
 -1      3608 1.50086E+01-2.18150E-01 7.01889E-02-3.07019E+00-4.18511E-14 1.02456E-13
 -1      3609 1.89563E+01-2.66468E+00-6.12691E-02 4.03630E+00 2.10196E-14-2.58130E-13
 -1      3610 1.68879E+01-1.52062E+00 5.46639E-02 4.03167E+00 5.66457E-14-1.01245E-13
 -1      3611 1.96396E+01-3.34027E+00 9.44616E-02-4.52402E+00-2.93585E-14-1.26917E-13
 -1      3612 2.15570E+01-3.80206E+00-2.51225E-02-3.55717E+00-1.07916E-13-4.49883E-14
 -1      3613 1.88513E+01-2.63043E+00 6.28344E-02-4.19998E+00-1.67453E-14-4.28893E-14
 -1      3614 2.35422E+01-2.86511E+00 1.74982E-02 9.84004E-01-1.11241E-13-4.12873E-14
 -1      3615 2.02742E+01 1.24318E+00 3.98052E-05 4.61713E-01 5.98089E-14 9.65249E-15
 -1      3616 1.28452E+01 5.62579E-01 8.18690E-02-1.65530E+00 9.86667E-15 1.32394E-14
 -1      3617 1.82595E+01-1.97498E+00 1.36788E-02-3.96232E+00-2.60441E-13 8.76191E-14
 -1      3618 2.53757E+01-2.33731E+00 4.18856E-02 5.81921E-01 3.23699E-15-1.20407E-13
 -1      3619 1.87124E+01 5.04970E-01-4.24629E-04 2.00731E+00 5.72891E-14-1.41243E-13
 -1      3620 2.20105E+01-2.80525E+00-6.69219E-03 2.20945E+00-2.27492E-14-2.14709E-14
 -1      3621 2.28757E+01-2.69359E+00 4.08496E-02 1.43018E+00-5.43714E-14 4.80345E-14
 -1      3622 2.00891E+01 3.09566E-02-4.51745E-05-2.43612E-01 8.43221E-14 1.43049E-13
 -1      3623 2.01351E+01 4.05244E-02-4.78711E-04-2.26878E-01 5.65690E-14 7.33361E-14
 -1      3624 2.00834E+01 3.73957E-02 7.31695E-04-2.54582E-01 5.64616E-14 1.44162E-13
 -1      3625 2.01132E+01 9.09842E-02-1.25520E-03-1.68405E-01 7.12545E-15 5.21399E-14
 -1      3626 1.96001E+01 7.27764E-01-4.40718E-03 7.44381E-01 2.93109E-13 7.62679E-13
 -1      3627 1.97643E+01 6.49100E-01 1.84303E-03 8.21950E-01 2.58835E-13 5.33399E-13
 -1      3628 1.72088E+01-1.01872E+00-4.97447E-03-3.53488E+00-1.52886E-13 9.17322E-14
 -1      3629 1.33022E+01 7.84475E-01 4.85688E-02 1.08115E+00 1.73868E-13 2.02473E-13
 -1      3630 2.02420E+01 3.38628E-01-1.98783E-03 3.49989E-03 3.59518E-14 3.60816E-14
 -1      3631 2.02721E+01 4.44504E-01 3.16921E-03 8.06381E-02 5.17060E-14 2.94513E-14
 -1      3632 2.01367E+01 4.72616E-02 1.03105E-04-2.07248E-01 4.78131E-14 4.19976E-14
 -1      3633 2.01509E+01 6.76003E-02 1.00265E-03-1.88693E-01 6.57487E-16 2.24656E-14
 -1      3634 2.01733E+01 5.44975E-02-6.23220E-04-2.00620E-01 1.88961E-14-6.26761E-15
 -1      3635 2.00611E+01 8.68138E-02-9.34443E-05-2.75407E-01 1.13586E-13 1.35809E-13
 -1      3636 2.00609E+01 6.39245E-02 9.30557E-04-2.78252E-01 9.32110E-14 1.62028E-13
 -1      3637 2.00640E+01 4.81072E-02-4.51802E-04-2.65230E-01 9.82257E-14 1.64210E-13
 -1      3638 1.94756E+01 8.02152E-01 1.79013E-03 6.39835E-01 1.06707E-13 4.00551E-13
 -1      3639 1.94666E+01 7.97511E-01 3.11816E-03 7.55735E-01 1.27744E-13 3.46099E-13
 -1      3640 1.93702E+01 8.48928E-01-3.26323E-03 5.33464E-01-1.04127E-13 3.90891E-13
 -1      3641 2.02309E+01 2.55937E-01 2.42933E-03-5.20329E-02 1.44686E-14 3.76064E-14
 -1      3642 2.02884E+01 3.52033E-01-3.57180E-04-7.08338E-03 2.91622E-14 1.46703E-15
 -1      3643 2.02055E+01 1.87824E-01-1.10157E-03-1.01544E-01 2.06610E-14 5.25801E-14
 -1      3644 2.54396E+01-1.27627E+00-7.42365E-02 1.43573E+00-3.15446E-14-2.37001E-13
 -1      3645 2.57854E+01-9.77793E-02-2.71035E-02 1.99134E+00-3.90452E-14-1.92256E-13
 -1      3646 1.22413E+01 7.23247E-01 8.74984E-02-1.25548E+00 4.74412E-14-3.78447E-14
 -1      3647 1.35304E+01 6.32675E-01 3.99506E-03-1.81043E+00 4.15772E-14 1.62429E-13
 -1      3648 1.23775E+01 8.44100E-01-5.83800E-03-3.29373E-01 1.76525E-13-9.58990E-14
 -1      3649 2.02133E+01 1.65169E+00-2.86491E-03 1.29799E-01 7.56995E-14 8.95997E-15
 -1      3650 2.02071E+01 1.66644E+00-4.12102E-03 3.97409E-02 7.59718E-14-1.23825E-14
 -1      3651 1.98982E+01 5.62281E-01-5.94920E-03 8.33607E-01 2.03483E-13 1.97175E-13
 -1      3652 1.97867E+01 6.43622E-01 2.31924E-03 9.54325E-01 2.35804E-13 4.30302E-13
 -1      3653 1.95549E+01 7.36748E-01-1.56728E-03 9.52379E-01 1.92384E-13 4.82306E-13
 -1      3654 1.93674E+01 7.83175E-01-3.78061E-03-4.47279E-01 2.92490E-14-2.14194E-13
 -1      3655 1.92315E+01 8.29347E-01 1.13713E-03-4.28849E-01-5.29632E-14-2.83271E-13
 -1      3656 1.94585E+01 7.37066E-01 2.84960E-03-5.46054E-01 4.00423E-14-4.77077E-13
 -1      3657 2.02110E+01 1.70398E+00 6.32995E-03 4.58408E-01 6.99567E-14-2.36724E-14
 -1      3658 2.02309E+01 1.55848E+00-4.15150E-03 2.82677E-01 5.92917E-14-3.37047E-14
 -1      3659 2.02203E+01 1.61758E+00-2.21679E-03 1.99673E-01 6.28760E-14-4.71772E-15
 -1      3660 2.02940E+01 1.40105E+00 5.08589E-03 1.32216E-01 5.61234E-14-6.35627E-15
 -1      3661 1.92189E+01 9.08124E-01-1.06643E-04-4.06804E-02-7.04187E-14 2.89276E-13
 -1      3662 1.92160E+01 9.12367E-01-2.09494E-03 9.61989E-02-1.90194E-13 3.01001E-13
 -1      3663 1.91130E+01 9.19478E-01 1.88672E-03-1.39247E-01-1.84763E-13 2.45264E-13
 -1      3664 1.25881E+01 5.27443E-01 5.10742E-02 1.73678E+00 2.47500E-13-1.67408E-13
 -1      3665 1.59596E+01-8.42131E-01 3.88107E-02 3.69363E+00 9.49588E-14-9.17131E-14
 -1      3666 1.51220E+01-1.00402E-01-1.03028E-02 2.88573E+00 1.14504E-13-1.62400E-13
 -1      3667 1.74257E+01-9.69437E-01 3.30265E-02 3.27662E+00 3.90651E-14-2.86063E-13
 -1      3668 1.51542E+01-9.36393E-01 8.86089E-02-3.87555E+00 4.27956E-15-2.07844E-13
 -1      3669 2.26724E+01-3.59726E+00 2.71322E-02-2.64853E+00-3.34507E-14-6.84507E-14
 -1      3670 1.76094E+01-5.86251E-01 2.97471E-02 3.10858E+00 4.08810E-13 3.11296E-14
 -1      3671 1.57268E+01-3.59350E-01 4.22585E-02 3.28198E+00 3.04205E-13 6.96890E-14
 -1      3672 1.53424E+01 2.69898E-01-1.59338E-02 2.50426E+00 2.41739E-13 2.27662E-13
 -1      3673 1.74859E+01-1.52215E-01-1.88538E-02 2.76601E+00 3.46083E-13 2.31135E-14
 -1      3674 2.03083E+01 1.19587E+00-3.83337E-03-2.49328E-01 9.08841E-15-6.07192E-14
 -1      3675 2.03456E+01 1.00054E+00 1.74984E-03-1.92675E-01 1.31014E-14-6.77121E-14
 -1      3676 2.03053E+01 1.27131E+00-1.00393E-04-1.96469E-01 2.00386E-14-3.46155E-14
 -1      3677 2.03289E+01 6.96845E-01-9.15598E-04-1.84128E-01-7.15305E-15-6.15916E-14
 -1      3678 2.03096E+01 5.55642E-01-1.05355E-03-1.06499E-01-1.10084E-14-6.55845E-14
 -1      3679 2.03434E+01 5.60760E-01 7.70572E-04-8.15144E-02 1.87003E-15-5.94325E-14
 -1      3680 2.03475E+01 7.94400E-01 1.25842E-03-1.75634E-01-3.38419E-15-1.20738E-13
 -1      3681 2.15453E+01-3.05059E+00 2.72298E-02-2.90522E+00 7.51425E-14-5.31164E-14
 -1      3682 2.03332E+01-2.52803E+00 2.57382E-02 3.19590E+00 3.23578E-14-2.21096E-13
 -1      3683 1.89433E+01 8.87205E-01-6.44915E-03 1.17851E+00-1.48322E-13 1.35984E-13
 -1      3684 1.88305E+01 8.94812E-01 2.41844E-03 1.29390E+00-5.10251E-14 1.48963E-13
 -1      3685 2.03352E+01 2.57571E-01 1.05732E-03 6.71112E-02 2.02722E-14-2.52482E-14
 -1      3686 2.03133E+01 1.91021E-01-9.14509E-04 1.01564E-01-1.43409E-14-2.25364E-14
 -1      3687 1.50433E+01 3.44252E-01 6.38216E-02-2.56159E+00-3.20429E-14 1.82812E-13
 -1      3688 1.60261E+01-2.58635E-01 9.70191E-03-3.10612E+00-6.76434E-14 1.21920E-13
 -1      3689 2.07835E+01-2.07911E+00-8.55249E-03 2.43091E+00 5.40817E-14-4.07669E-14
 -1      3690 2.08962E+01-2.51736E+00-3.24837E-02 2.69458E+00 3.01724E-14-1.59364E-13
 -1      3691 1.91685E+01-1.68108E+00 3.36436E-02 3.21587E+00 1.08447E-13-2.66369E-13
 -1      3692 2.03269E+01-1.52881E+00 2.46879E-02 2.36338E+00 8.51177E-14-1.43655E-13
 -1      3693 2.02938E+01 1.40953E-01 7.86922E-04 1.22886E-01-1.96569E-14 2.17195E-14
 -1      3694 2.02701E+01 1.03154E-01-3.64016E-04 1.45318E-01-2.00207E-14 1.00273E-14
 -1      3695 2.03347E+01 1.90543E-01 2.77425E-05 9.36029E-02 1.92844E-15-6.67851E-15
 -1      3696 2.02446E+01 7.76786E-02 4.14075E-04 1.59217E-01-3.17405E-14 8.68394E-15
 -1      3697 2.02209E+01 6.18025E-02 4.25535E-05 1.74478E-01 6.39056E-16-1.46208E-14
 -1      3698 2.02864E+01 1.06632E-01-1.36593E-04 1.30740E-01-3.19635E-14 2.71501E-14
 -1      3699 2.01914E+01 5.49593E-02 5.10637E-05 1.84559E-01 3.19102E-14-9.08599E-15
 -1      3700 2.01682E+01 5.58040E-02 3.27236E-04 1.96671E-01 2.79949E-14 1.72895E-14
 -1      3701 2.02303E+01 7.01239E-02-1.68086E-04 1.56469E-01-7.67127E-16 4.76804E-14
 -1      3702 2.01358E+01 6.31894E-02-2.92187E-04 2.05992E-01 2.91745E-14 1.46917E-14
 -1      3703 2.01129E+01 7.68891E-02 5.22510E-04 2.18232E-01 3.63393E-14 3.02659E-14
 -1      3704 2.01690E+01 6.99952E-02-9.09993E-05 1.77228E-01 2.48532E-14 1.19661E-14
 -1      3705 2.00776E+01 9.52227E-02-6.19782E-04 2.29331E-01 3.35810E-14 1.78491E-14
 -1      3706 2.00545E+01 1.18860E-01 6.59587E-04 2.44338E-01 8.50754E-15 2.64553E-14
 -1      3707 2.01031E+01 9.79194E-02 6.29912E-05 1.98467E-01 3.15752E-14-1.12043E-15
 -1      3708 2.00156E+01 1.45603E-01-9.40545E-04 2.59351E-01-1.13365E-14 2.22509E-14
 -1      3709 1.99914E+01 1.76818E-01 7.65797E-04 2.79283E-01-1.52861E-14 2.41728E-14
 -1      3710 2.00320E+01 1.47594E-01 2.77426E-04 2.24734E-01-4.65449E-15 5.01613E-14
 -1      3711 1.99480E+01 2.09745E-01-1.25998E-03 3.00086E-01-2.37540E-14 1.59293E-14
 -1      3712 1.99220E+01 2.46307E-01 8.66791E-04 3.26733E-01-6.19395E-14 5.13665E-14
 -1      3713 1.99537E+01 2.13876E-01 5.22488E-04 2.59964E-01-2.41630E-14 2.49597E-14
 -1      3714 1.98728E+01 2.83100E-01-1.58171E-03 3.55050E-01-1.24318E-13 3.49023E-14
 -1      3715 1.98442E+01 3.22481E-01 9.93632E-04 3.89936E-01-1.22463E-13 3.07205E-14
 -1      3716 1.98658E+01 2.92011E-01 7.88581E-04 3.07697E-01-7.05999E-14-3.94305E-14
 -1      3717 1.97881E+01 3.60262E-01-1.90498E-03 4.27482E-01-8.43542E-14 7.80016E-14
 -1      3718 1.97570E+01 3.99143E-01 1.18431E-03 4.71957E-01-8.72964E-14 7.35550E-14
 -1      3719 1.97660E+01 3.76670E-01 1.04461E-03 3.71346E-01-9.96369E-14 4.32897E-14
 -1      3720 1.96931E+01 4.33945E-01-2.22058E-03 5.20593E-01-5.78218E-14 6.02710E-14
 -1      3721 1.96603E+01 4.67649E-01 1.49489E-03 5.75913E-01-3.48555E-14 1.22631E-13
 -1      3722 1.96520E+01 4.61003E-01 1.25243E-03 4.54536E-01-6.64155E-14 1.55127E-13
 -1      3723 1.95887E+01 4.93808E-01-2.50852E-03 6.37831E-01-3.46210E-14 1.65660E-13
 -1      3724 1.95568E+01 5.15662E-01 2.00933E-03 7.05250E-01-2.36206E-14 2.41323E-13
 -1      3725 1.95230E+01 5.35483E-01 1.35280E-03 5.61490E-01-9.46334E-15 1.41583E-13
 -1      3726 1.94792E+01 5.25132E-01-2.72776E-03 7.83232E-01-5.57239E-14 2.38101E-13
 -1      3727 1.94535E+01 5.25743E-01 2.84850E-03 8.64083E-01-6.71170E-14 1.70432E-13
 -1      3728 1.93806E+01 5.86638E-01 1.25000E-03 6.97571E-01-2.59750E-14 1.65942E-13
 -1      3729 1.93742E+01 5.07354E-01-2.79113E-03 9.61796E-01-4.76744E-14 1.60361E-13
 -1      3730 1.93644E+01 4.73821E-01 4.16774E-03 1.05745E+00 2.61969E-14 1.24697E-13
 -1      3731 1.92300E+01 5.95551E-01 7.81422E-04 8.70005E-01-8.21383E-14 1.80408E-13
 -1      3732 1.92921E+01 4.12549E-01-2.50373E-03 1.17962E+00 1.08783E-14 1.30379E-13
 -1      3733 1.93147E+01 3.27692E-01 6.15416E-03 1.29102E+00 2.67489E-14 7.40576E-14
 -1      3734 1.90833E+01 5.36086E-01-3.39130E-04 1.08867E+00-6.97634E-15 2.19929E-13
 -1      3735 1.92661E+01 2.04190E-01-1.34611E-03 1.44308E+00 1.03733E-13-1.47413E-14
 -1      3736 1.93468E+01 4.58229E-02 8.96807E-03 1.56908E+00 1.13016E-13-7.04148E-14
 -1      3737 1.89634E+01 3.72720E-01-2.56261E-03 1.36646E+00 1.79067E-14 1.86349E-13
 -1      3738 1.93521E+01-1.63960E-01 1.62123E-03 1.75458E+00 9.58763E-14-1.16908E-13
 -1      3739 1.95260E+01-4.22860E-01 1.14818E-02 1.88766E+00 7.95080E-14-1.59977E-13
 -1      3740 1.89121E+01 5.72344E-02-6.74706E-03 1.71743E+00 5.29686E-14 2.46908E-14
 -1      3741 1.96716E+01-7.38579E-01 8.89873E-03 2.08275E+00 1.29882E-13-2.28557E-13
 -1      3742 1.99848E+01-1.12454E+00 1.11301E-02 2.19662E+00 8.34398E-14-1.49904E-13
 -1      3743 1.94776E+01-1.24999E+00-1.76559E-02 2.55991E+00 8.04360E-14-2.14348E-13
 -1      3744 1.90345E+01-4.66426E-01-1.23460E-02 2.13271E+00 5.22202E-14-7.97205E-14
 -1      3745 1.81892E+01 7.51311E-01-1.18106E-02 1.73394E+00 7.71704E-14 2.10173E-13
 -1      3746 1.80930E+01 6.32686E-01 1.05027E-02 1.92553E+00 8.75582E-14 7.57981E-14
 -1      3747 1.72640E+01-4.54971E-01 2.66520E-02-3.05559E+00-1.03438E-13 1.60331E-13
 -1      3748 2.09026E+01-2.44400E+00 2.06437E-02-2.75347E+00-4.35034E-14-9.57459E-14
 -1      3749 2.02383E+01-1.89140E+00 2.30264E-02-2.73603E+00-2.46604E-14-1.77273E-13
 -1      3750 1.97956E+01-2.61280E+00-4.68927E-02-3.56060E+00-7.60598E-14-7.53148E-14
 -1      3751 1.99400E+01-1.37034E+00 2.76601E-02-2.47984E+00 4.29452E-14-2.15781E-13
 -1      3752 1.95150E+01-9.52673E-01 4.33937E-03-2.35641E+00-6.86584E-14-2.69219E-13
 -1      3753 1.89683E+01-1.40651E+00-4.54362E-02-2.96328E+00-3.49239E-14-1.44726E-13
 -1      3754 1.94362E+01-5.84563E-01 1.76836E-02-2.09734E+00-1.49960E-13-2.44385E-13
 -1      3755 1.92053E+01-2.97103E-01-5.64199E-03-1.94762E+00-1.51156E-13-2.27956E-13
 -1      3756 1.86837E+01-4.93998E-01-1.36322E-02-2.34624E+00-6.66440E-14-1.73781E-13
 -1      3757 1.92415E+01-4.93569E-02 1.13739E-02-1.73174E+00-2.19532E-13-2.46042E-13
 -1      3758 1.91366E+01 1.33752E-01-7.70272E-03-1.58815E+00-1.45460E-13-1.89085E-13
 -1      3759 1.86806E+01 6.98538E-02-2.43887E-03-1.83349E+00-2.44476E-13-3.24263E-14
 -1      3760 1.92228E+01 2.84946E-01 6.55909E-03-1.41807E+00 5.93694E-14-2.33913E-13
 -1      3761 1.91936E+01 3.92588E-01-7.47582E-03-1.29238E+00-1.14202E-14-2.67733E-13
 -1      3762 1.88065E+01 4.03078E-01 1.68472E-03-1.43623E+00-1.21479E-13 1.82693E-14
 -1      3763 1.92984E+01 4.75473E-01 3.34309E-03-1.15827E+00-1.63116E-14-3.31129E-13
 -1      3764 1.93117E+01 5.30079E-01-7.10705E-03-1.05341E+00 5.78306E-14-3.68898E-13
 -1      3765 1.89890E+01 5.84792E-01 3.34214E-03-1.13178E+00-1.44562E-14-2.14254E-13
 -1      3766 1.99057E+01 4.37027E-01 5.70909E-04-8.31045E-01-3.19673E-15-4.19045E-13
 -1      3767 1.99093E+01 4.48406E-01-8.23638E-04-7.67127E-01-1.49907E-13-3.91170E-13
 -1      3768 1.32371E+01 8.29655E-01-2.37041E-02-9.25100E-01 2.54267E-15 1.92311E-14
 -1      3769 1.38559E+01 3.98863E-01 2.30166E-02-2.32323E+00 3.39876E-14-1.40794E-13
 -1      3770 1.96433E+01 5.55438E-01 5.18691E-04-5.77352E-01 2.26635E-14 5.25174E-14
 -1      3771 1.96913E+01 4.96602E-01-2.75215E-03-5.22680E-01 4.71348E-14 3.86436E-14
 -1      3772 1.97661E+01 4.41731E-01 6.22254E-04-4.80061E-01 3.23309E-14-2.08936E-14
 -1      3773 1.98028E+01 3.87343E-01-2.21931E-03-4.35752E-01-3.39286E-14 1.38593E-14
 -1      3774 1.96554E+01 5.13477E-01 2.30624E-03-4.50678E-01 3.39663E-14 1.95031E-14
 -1      3775 1.92878E+01 7.85955E-01 4.98803E-04-8.36507E-01-1.88518E-13 9.38910E-14
 -1      3776 1.93674E+01 7.29589E-01-4.20835E-03-7.58173E-01-1.25549E-13 1.16983E-13
 -1      3777 1.90387E+01 8.77648E-01 8.88288E-04-1.00547E+00-7.21225E-14 8.91158E-14
 -1      3778 1.91371E+01 8.33755E-01-5.29556E-03-9.12323E-01-1.42839E-13 8.32285E-14
 -1      3779 1.90336E+01 8.87804E-01 5.31341E-03-7.70285E-01-1.25030E-13 9.91794E-14
 -1      3780 1.87340E+01 9.23584E-01 2.08345E-03-1.21209E+00 2.36729E-14 1.32379E-13
 -1      3781 1.88491E+01 9.05520E-01-6.84424E-03-1.09908E+00-1.63735E-14 1.04227E-13
 -1      3782 1.87083E+01 9.85960E-01 6.72640E-03-9.23229E-01-6.06911E-14 8.45685E-14
 -1      3783 1.83741E+01 8.83271E-01 4.39002E-03-1.47727E+00-1.43729E-14 2.14880E-13
 -1      3784 1.84967E+01 9.13237E-01-9.20152E-03-1.33429E+00 5.23947E-14 1.69600E-13
 -1      3785 1.83008E+01 1.03774E+00 8.55830E-03-1.11751E+00-1.45049E-14 2.21323E-13
 -1      3786 1.79743E+01 7.01801E-01 1.02414E-02-1.83374E+00-2.11112E-14 1.79812E-13
 -1      3787 1.80830E+01 8.06628E-01-1.20340E-02-1.64437E+00-2.67403E-14 2.00652E-13
 -1      3788 1.77990E+01 1.00340E+00 1.15559E-02-1.38490E+00-3.36973E-14 2.11508E-13
 -1      3789 1.71786E+01-9.44962E-03-1.98200E-02-2.67653E+00-1.08270E-13 1.94813E-13
 -1      3790 1.93561E+01 8.20631E-01-1.30133E-03 8.34224E-01 1.31591E-13 3.25331E-13
 -1      3791 1.93067E+01 8.41919E-01 3.70717E-03 9.30279E-01 1.38229E-13 1.97723E-13
 -1      3792 1.92047E+01 8.87026E-01-1.78011E-03 7.25460E-01-1.43578E-14 5.00823E-14
 -1      3793 1.97691E+01 6.46814E-01 1.66224E-03 8.71580E-01 1.73036E-13 4.06810E-13
 -1      3794 2.03104E+01 5.91749E-01 4.95175E-06 1.35533E-01 6.21760E-14-1.30156E-15
 -1      3795 2.02729E+01 5.74272E-01-2.22496E-03 1.65359E-01 5.74504E-14 5.63241E-14
 -1      3796 1.91857E+01 8.57402E-01-3.25984E-03 9.98505E-01 9.90182E-14 1.23228E-13
 -1      3797 1.90844E+01 8.84851E-01 2.46416E-03 1.09604E+00-3.69205E-14 1.03094E-13
 -1      3798 1.87460E+01 9.86515E-01 4.84158E-03 1.01288E+00-7.34285E-14 2.33358E-13
 -1      3799 1.89840E+01 9.43097E-01 9.43828E-04 8.70408E-01 4.44720E-14 6.75751E-14
 -1      3800 1.85937E+01 8.74588E-01-8.89257E-03 1.41754E+00-6.84213E-15 2.48781E-13
 -1      3801 1.84779E+01 8.36734E-01 5.23724E-03 1.56194E+00 7.33010E-14 2.32585E-13
 -1      3802 1.78944E+01 9.48328E-01 8.01202E-03 1.47364E+00 4.90250E-14 2.27637E-13
 -1      3803 1.83970E+01 1.00256E+00 6.89951E-03 1.20379E+00 1.28723E-14 2.95861E-13
 -1      3804 1.37096E+01 5.86717E-01-9.07056E-03 1.81472E+00 1.77530E-13-1.30888E-13
 -1      3805 1.28149E+01 9.98896E-01 8.67314E-02 7.72544E-01 2.21173E-13-1.99289E-13
 -1      3806 1.35848E+01 9.85376E-01 1.28358E-02-1.05032E-02 5.94537E-14-2.98633E-14
 -1      3807 1.78078E+01 4.42306E-01-1.61899E-02 2.16340E+00 1.09916E-13 1.40382E-14
 -1      3808 1.77798E+01 1.95903E-01 1.77134E-02 2.42559E+00 1.93442E-13 1.40920E-14
 -1      3809 1.68379E+01 3.59124E-01 2.23918E-02 2.41323E+00 2.30678E-13 1.94384E-13
 -1      3810 1.73523E+01 7.57630E-01 1.07290E-02 1.85613E+00 4.84253E-14 3.16759E-13
 -1      3811 2.00044E+01 1.69754E-01 7.38804E-04-2.94459E-01 1.10675E-14 1.47657E-13
 -1      3812 2.00243E+01 1.37003E-01-9.79231E-04-2.74654E-01 9.38943E-14 1.70578E-13
 -1      3813 1.92421E+01 9.10324E-01-1.83353E-03 2.55780E-01-2.52035E-13 3.09601E-13
 -1      3814 1.92935E+01 8.88534E-01-4.64033E-04 3.85983E-01-2.76460E-13 3.93034E-13
 -1      3815 1.91090E+01 9.47898E-01 2.50189E-03 1.81911E-01-3.04203E-13 4.21459E-13
 -1      3816 2.02596E+01 1.39124E+00-5.12122E-03 4.11618E-01 7.51947E-14-1.90374E-14
 -1      3817 2.02453E+01 1.49211E+00-1.39200E-03 3.42616E-01 6.54827E-14-2.30751E-14
 -1      3818 2.03065E+01 1.29704E+00 4.98828E-03 2.47600E-01 4.71238E-14-2.41536E-14
 -1      3819 1.48167E+01-3.70654E-01 1.18419E-02-3.26841E+00-7.18470E-14-2.36294E-13
 -1      3820 1.63890E+01-1.34952E+00-2.30109E-02-3.94712E+00-5.59630E-14-9.54722E-14
 -1      3821 1.96735E+01 5.97718E-01 2.20354E-03-6.98991E-01 4.04265E-14-2.48561E-13
 -1      3822 1.95597E+01 6.57617E-01-3.57807E-03-6.36523E-01 1.32623E-13-4.82108E-13
 -1      3823 2.03604E+01 4.44635E-01 4.59046E-04-1.73546E-02 2.43948E-14-7.37912E-14
 -1      3824 2.03451E+01 3.41253E-01-1.32754E-03 3.44260E-02 2.67244E-14-4.62122E-14
 -1      3825 2.03697E+01 3.35867E-01 2.40114E-04 3.78984E-02 2.03070E-14-1.66228E-14
 -1      3826 2.02906E+01 7.00526E-01 2.69094E-03 2.62061E-01 5.93853E-14 6.45014E-14
 -1      3827 2.01694E+01 9.61265E-02-3.99616E-04-1.67120E-01 1.17862E-14 1.96703E-14
 -1      3828 2.01891E+01 1.36634E-01 1.67764E-03-1.36723E-01 2.01232E-14 2.93216E-14
 -1      3829 2.02526E+01 1.96546E-01-6.47655E-04-1.01977E-01 2.01202E-14 1.75803E-14
 -1      3830 1.94867E+01 6.73320E-01 4.41659E-04-6.95365E-01-1.13285E-13 5.37996E-14
 -1      3831 1.95490E+01 6.13098E-01-3.39523E-03-6.29465E-01-4.63348E-14 2.80145E-14
 -1      3832 1.92915E+01 7.66615E-01 4.11821E-03-6.44259E-01-1.23493E-13 9.10571E-14
 -1      3833 1.82500E+01-1.85596E+00 5.93370E-02-3.84542E+00-6.54329E-14-3.71673E-14
 -1      3834 2.03099E+01 1.35512E+00 4.78199E-03 1.74857E-02 7.23738E-14 2.10858E-15
 -1      3835 2.02332E+01 1.59765E+00 5.10876E-04-1.54010E-02 7.08063E-14 5.57037E-15
 -1      3836 2.02548E+01 1.48658E+00-4.68827E-03-7.57049E-02 6.39456E-14 9.92967E-16
 -1      3837 1.98464E+01 4.94079E-01 1.10220E-03-7.49946E-01-7.89004E-14-3.30777E-14
 -1      3838 1.97766E+01 5.35063E-01-2.07475E-03-7.21883E-01-6.20465E-14 2.14735E-14
 -1      3839 1.42817E+01 8.29209E-01-1.69608E-02 1.30890E+00 2.63157E-13 3.09461E-13
 -1      3840 1.35847E+01 1.10840E+00 6.19097E-02 2.03444E-01 1.31089E-13 9.99235E-14
 -1      3841 1.97280E+01 5.15921E-01 2.04029E-03-8.41920E-01-7.42168E-14-1.21267E-13
 -1      3842 1.96738E+01 5.66450E-01-6.34539E-04-7.61491E-01 4.66370E-15-2.08105E-13
 -1      3843 1.95975E+01 5.71833E-01-1.52457E-03-8.16420E-01 3.93015E-14-2.54770E-13
 -1      3844 1.94338E+01 6.97803E-01-3.53092E-04-6.50810E-01 1.96566E-14-3.30915E-13
 -1      3845 1.94662E+01 5.90802E-01-3.28224E-03-8.63830E-01-2.13736E-14-2.85898E-13
 -1      3846 1.94379E+01 6.53516E-01 3.84267E-03-7.76111E-01 2.97759E-14-3.52251E-13
 -1      3847 2.00419E+01 1.38523E-01 2.91689E-04-2.43853E-01 6.00323E-14 7.51629E-14
 -1      3848 2.00597E+01 1.09691E-01 6.79221E-04-2.60315E-01 8.61816E-14 1.05226E-13
 -1      3849 2.00781E+01 8.62199E-02-6.15388E-04-2.45469E-01 5.80868E-14 5.45808E-14
 -1      3850 1.90216E+01-1.15354E+00 2.67321E-02 2.76628E+00 5.69003E-14-2.18046E-13
 -1      3851 1.81234E+01-1.17710E+00-1.55805E-02 3.19855E+00 5.82939E-14-2.75713E-13
 -1      3852 1.72829E+01-5.19421E-01-8.98932E-03 2.85811E+00 6.90593E-15-2.58208E-13
 -1      3853 1.86598E+01-7.11318E-01 4.02205E-03 2.54578E+00 1.82458E-14-2.51972E-13
 -1      3854 1.94949E+01 6.38468E-01 3.12384E-03-5.38688E-01-3.05345E-14 1.19365E-13
 -1      3855 1.44284E+01 1.01323E+00 3.40218E-02-4.72850E-01 3.70090E-14 3.66781E-14
 -1      3856 2.03056E+01 8.24481E-01-2.11664E-03 2.94715E-01 6.71582E-14 3.61261E-14
 -1      3857 1.60645E+01 5.14817E-01 8.37414E-03 2.14766E+00 2.13418E-13 3.15510E-13
 -1      3858 1.50791E+01 7.87741E-01 5.04780E-02 1.80861E+00 1.89610E-13 3.55100E-13
 -1      3859 1.50529E+01 9.97373E-01-2.00344E-02 1.06522E+00 1.33163E-13 2.56433E-13
 -1      3860 1.63000E+01 7.16624E-01-2.95007E-02 1.83584E+00 1.15016E-13 4.03942E-13
 -1      3861 2.02028E+01 5.82698E-02 3.79393E-05-1.88894E-01 2.25462E-14-1.96025E-14
 -1      3862 2.02236E+01 7.54947E-02 5.71844E-04-1.72352E-01-2.41119E-14-4.70764E-14
 -1      3863 1.94265E+01 5.65874E-01 1.97582E-03-9.54744E-01 4.36618E-14-3.75014E-13
 -1      3864 1.52294E+01 1.63239E-01 4.98197E-02-2.50843E+00 3.41957E-16-1.92610E-13
 -1      3865 2.02129E+01 1.02765E-01-6.92552E-04-1.62415E-01 1.28917E-14-2.96097E-14
 -1      3866 1.79136E+01-1.24870E+00 4.63952E-02-3.38537E+00-1.03681E-13-6.47002E-14
 -1      3867 1.92265E+01 9.06455E-01 2.64759E-03 4.96663E-01-8.19241E-14 1.90837E-13
 -1      3868 1.97827E+01 3.97808E-01 1.63860E-03-3.78706E-01 5.18052E-16 1.01416E-13
 -1      3869 1.98628E+01 3.37646E-01 7.03771E-04-4.01770E-01-4.42048E-14 7.62966E-14
 -1      3870 1.98914E+01 2.89463E-01-1.76069E-03-3.66901E-01-2.39920E-14 1.02214E-13
 -1      3871 1.75713E+01 2.79692E-01 1.98620E-02-2.35322E+00-7.25185E-14 1.23303E-13
 -1      3872 1.76188E+01 5.17459E-01-1.52564E-02-2.08546E+00-2.03188E-14 2.05386E-13
 -1      3873 2.00981E+01 5.30409E-02-3.02538E-04-2.49581E-01 5.12113E-14 1.47253E-13
 -1      3874 1.92928E+01 7.18733E-01-3.99281E-03-6.87301E-01 2.19921E-15-3.09140E-13
 -1      3875 1.99403E+01 2.46314E-01 7.45398E-04-3.40665E-01-1.71079E-14 1.16588E-13
 -1      3876 1.99635E+01 2.05427E-01-1.34919E-03-3.14073E-01-1.40821E-14 1.29747E-13
 -1      3877 1.98853E+01 2.95190E-01 1.09755E-03-3.21458E-01 5.57499E-15 1.93009E-13
 -1      3878 2.03350E+01 5.74890E-01-2.17102E-03 9.09578E-02 4.17310E-14 2.99068E-15
 -1      3879 2.03451E+01 7.27587E-01 1.24832E-03 1.76697E-01 4.93079E-14-1.39695E-14
 -1      3880 2.03637E+01 5.36064E-01-6.61930E-04-4.64982E-02 9.10042E-15-7.90251E-14
 -1      3881 2.03869E+01 5.23626E-01 7.77670E-04-2.79746E-02 3.30462E-14-4.82557E-14
 -1      3882 2.03712E+01 6.38056E-01-5.04512E-04-9.00702E-02 1.34830E-14-9.78341E-14
 -1      3883 1.91672E+01 8.12550E-01 4.47206E-03-5.64301E-01 2.19199E-15-3.68969E-13
 -1      3884 1.90597E+01 8.60737E-01-3.83281E-03-4.34024E-01-1.21233E-14-2.37787E-13
 -1      3885 1.91306E+01 7.54682E-01-3.85241E-03-7.05815E-01 1.04731E-13-2.94747E-13
 -1      3886 2.03301E+01 1.16285E+00-3.28877E-03 1.31183E-01 4.99263E-14-2.69796E-14
 -1      3887 2.03265E+01 1.19619E+00-3.02094E-03 7.51816E-02 6.03065E-14-2.15296E-14
 -1      3888 1.89844E+01 9.28288E-01 2.30023E-03-2.69321E-01-1.77364E-13 1.49937E-13
 -1      3889 1.89327E+01 9.52389E-01-4.70066E-03-1.12398E-01-2.75579E-13 4.09502E-13
 -1      3890 1.89063E+01 9.08148E-01 1.74853E-03-4.14498E-01-3.04707E-15-2.64792E-14
 -1      3891 2.03126E+01 1.08037E+00 4.10340E-03 3.45699E-01 6.60399E-14 4.11831E-15
 -1      3892 1.71890E+01 8.38594E-01 2.07720E-02-1.77550E+00-7.17790E-14 2.68366E-13
 -1      3893 1.61092E+01 1.58024E-01 1.02031E-02 2.41086E+00 7.65416E-14-2.30981E-13
 -1      3894 1.49092E+01 4.36736E-01 4.81276E-02 2.27023E+00 1.41379E-13-2.07515E-13
 -1      3895 1.47350E+01 7.77224E-01-2.54339E-02 1.46761E+00 8.04834E-14-1.09675E-13
 -1      3896 1.99698E+01 2.08112E-01 6.65532E-04-2.77273E-01 3.13515E-14 1.90798E-13
 -1      3897 2.03569E+01 8.69658E-01-1.76751E-03-1.64884E-01 1.74261E-14-6.03725E-14
 -1      3898 2.03647E+01 7.42544E-01-1.58985E-04-1.17622E-01 1.65574E-14-6.54674E-14
 -1      3899 2.03857E+01 7.16200E-01 5.78624E-04-8.26128E-02 2.88556E-14-1.77066E-14
 -1      3900 2.03638E+01 9.39033E-01 2.25288E-04-1.37111E-01 3.20038E-14-5.38907E-15
 -1      3901 1.46772E+01 5.60868E-01-9.94567E-03-1.95531E+00-7.36442E-14 1.97932E-13
 -1      3902 2.03195E+01 3.42814E-01-1.52133E-03-2.67218E-02 2.74261E-15-4.08281E-15
 -1      3903 2.03374E+01 4.47976E-01 1.44149E-03 3.25982E-02 2.71910E-14-3.94976E-15
 -1      3904 2.03643E+01 5.73588E-01 7.51947E-04 6.67763E-02 2.05954E-14 1.06049E-14
 -1      3905 2.01764E+01 5.01148E-02 1.49293E-04-2.00111E-01 3.68414E-14 9.07548E-16
 -1      3906 2.02196E+01 6.65271E-02-3.15973E-04-1.74272E-01 1.04357E-14-4.25350E-14
 -1      3907 2.01571E+01 4.96329E-02 3.52828E-04-2.12632E-01 3.12178E-14 4.32569E-14
 -1      3908 2.02704E+01 1.45108E+00 5.39743E-04-1.20792E-01 5.39225E-14 9.89375E-15
 -1      3909 2.02912E+01 1.32550E+00-4.68030E-03-1.64262E-01 4.01373E-14 2.21890E-15
 -1      3910 2.03447E+01 1.13080E+00 3.01954E-03-1.33676E-01 4.11794E-14 3.23323E-16
 -1      3911 2.03343E+01 1.23720E+00 4.27572E-03-6.78412E-02 6.45771E-14 2.05912E-14
 -1      3912 2.03424E+01 1.15102E+00-1.38265E-04 3.88380E-02 6.15399E-14-2.29963E-14
 -1      3913 2.03551E+01 1.07156E+00-4.18532E-03-4.50832E-03 5.81990E-14 3.63595E-15
 -1      3914 2.03923E+01 9.51759E-01 4.29175E-03 4.56363E-02 4.96410E-14-4.60966E-14
 -1      3915 2.03208E+01 9.73500E-01-1.00655E-04 2.69452E-01 6.49712E-14-3.21623E-14
 -1      3916 1.91963E+01 6.68816E-01 6.04138E-03-9.08234E-01 5.33246E-14-3.64212E-13
 -1      3917 1.65060E+01 5.13840E-01 3.81020E-02-2.30870E+00-1.34327E-13 1.23901E-13
 -1      3918 2.03229E+01 1.31108E-01 3.17315E-04 9.86737E-02-1.00415E-14-5.38157E-15
 -1      3919 2.02955E+01 1.00307E-01-2.52320E-04 1.14537E-01-1.72239E-14 3.64364E-14
 -1      3920 2.02644E+01 8.14035E-02 8.86334E-05 1.22766E-01-2.04264E-16 3.70669E-14
 -1      3921 2.02343E+01 7.24246E-02 2.94861E-05 1.34537E-01 2.28222E-14 5.88971E-14
 -1      3922 2.02968E+01 1.02796E-01 9.15187E-05 9.25370E-02 1.86630E-14 7.72091E-14
 -1      3923 2.01981E+01 7.23632E-02-1.68839E-04 1.41343E-01 2.17341E-14 5.05033E-14
 -1      3924 2.01662E+01 8.02898E-02 2.15162E-04 1.51843E-01 1.67132E-14 3.40733E-14
 -1      3925 2.02292E+01 8.20160E-02 6.40263E-05 1.08684E-01 1.72143E-14 7.31290E-14
 -1      3926 2.01255E+01 9.48625E-02-4.43380E-04 1.59208E-01 2.95501E-14 1.98041E-14
 -1      3927 2.00915E+01 1.15968E-01 3.23486E-04 1.70829E-01 2.52361E-14 3.22003E-14
 -1      3928 2.01534E+01 9.72097E-02 1.71555E-04 1.23536E-01 1.80843E-14 6.12303E-14
 -1      3929 2.00461E+01 1.41909E-01-7.50288E-04 1.80479E-01 2.79567E-14 2.91606E-14
 -1      3930 2.00093E+01 1.73374E-01 3.88151E-04 1.95191E-01 1.31075E-14 5.55013E-14
 -1      3931 2.00695E+01 1.40575E-01 3.78933E-04 1.40635E-01 3.52366E-14 3.79743E-14
 -1      3932 1.99580E+01 2.08198E-01-1.08905E-03 2.08743E-01-5.04453E-14 6.17300E-14
 -1      3933 1.99175E+01 2.47599E-01 4.26876E-04 2.28362E-01-4.63143E-14 5.86139E-15
 -1      3934 1.99760E+01 2.05996E-01 6.06443E-04 1.62954E-01-5.70404E-15 5.89804E-14
 -1      3935 1.98588E+01 2.88906E-01-1.45461E-03 2.47348E-01-5.85180E-14-2.29202E-14
 -1      3936 1.98132E+01 3.33879E-01 4.76799E-04 2.73514E-01-8.52259E-14-3.97194E-14
 -1      3937 1.98703E+01 2.88705E-01 9.57229E-04 1.93710E-01-7.99466E-14-1.39594E-14
 -1      3938 1.97450E+01 3.79143E-01-1.86877E-03 2.99620E-01-8.27645E-14-2.30989E-14
 -1      3939 1.96932E+01 4.26925E-01 5.70990E-04 3.34023E-01-8.27305E-14 1.81547E-14
 -1      3940 1.97487E+01 3.83693E-01 1.34814E-03 2.35863E-01-5.51628E-14-3.47451E-14
 -1      3941 1.96135E+01 4.72911E-01-2.34333E-03 3.69259E-01-5.17751E-14 8.04164E-15
 -1      3942 1.95548E+01 5.19831E-01 7.59029E-04 4.13803E-01-3.37030E-14 4.34088E-14
 -1      3943 1.96071E+01 4.85453E-01 1.76443E-03 2.93038E-01-7.61267E-14-3.55363E-14
 -1      3944 1.94615E+01 5.62087E-01-2.89857E-03 4.60739E-01-4.26564E-14 8.09608E-14
 -1      3945 1.93962E+01 6.03037E-01 1.11455E-03 5.17790E-01 2.24693E-15 8.32013E-14
 -1      3946 1.94414E+01 5.86777E-01 2.18663E-03 3.69748E-01-3.01176E-14 5.01518E-14
 -1      3947 1.92875E+01 6.35313E-01-3.56318E-03 5.79933E-01 2.93606E-14 6.59533E-14
 -1      3948 1.92176E+01 6.63158E-01 1.75021E-03 6.52664E-01-2.21027E-14 5.28352E-14
 -1      3949 1.92481E+01 6.77801E-01 2.58705E-03 4.72072E-01-2.09640E-15 4.59100E-15
 -1      3950 1.90923E+01 6.76744E-01-4.37469E-03 7.35014E-01-5.59273E-14 1.20720E-13
 -1      3951 1.90225E+01 6.81646E-01 2.83969E-03 8.27877E-01-1.19966E-14 1.44950E-13
 -1      3952 1.90246E+01 7.44899E-01 2.91792E-03 6.08645E-01 1.72579E-14 2.94783E-14
 -1      3953 1.88808E+01 6.64591E-01-5.35957E-03 9.37757E-01-3.02152E-14 1.68718E-13
 -1      3954 1.88204E+01 6.33084E-01 4.61501E-03 1.05699E+00-2.71994E-15 1.62246E-13
 -1      3955 1.87700E+01 7.69377E-01 3.06780E-03 7.92149E-01-2.33204E-15 1.38998E-13
 -1      3956 1.86650E+01 5.69317E-01-6.37961E-03 1.20502E+00-2.58279E-14 1.30682E-13
 -1      3957 1.86312E+01 4.83257E-01 7.74529E-03 1.35885E+00-2.52872E-14 5.16439E-14
 -1      3958 1.84871E+01 7.25372E-01 2.73912E-03 1.04152E+00-3.08830E-14 6.40362E-14
 -1      3959 1.84705E+01 3.51309E-01-6.37461E-03 1.56089E+00 6.59444E-15-2.15203E-15
 -1      3960 1.84884E+01 1.82592E-01 1.19869E-02 1.75953E+00 4.24346E-15-8.06530E-14
 -1      3961 1.81838E+01 5.75962E-01 1.01462E-03 1.38362E+00-4.44617E-14-5.31501E-14
 -1      3962 1.93578E+01 6.99269E-01-7.89218E-04-4.70272E-01-2.18921E-14 1.37784E-13
 -1      3963 1.94481E+01 6.32466E-01-2.86345E-03-4.27121E-01 3.57075E-14 1.44406E-13
 -1      3964 1.49894E+01 1.09745E+00-2.05644E-02-7.50760E-02-6.13806E-14 9.31364E-14
 -1      3965 1.49919E+01 1.00370E+00 3.01371E-02-1.07184E+00-5.81783E-14-1.25839E-13
 -1      3966 1.53861E+01 7.19195E-01-2.97168E-03-1.73201E+00-1.24574E-13 1.80196E-13
 -1      3967 1.57574E+01 8.68703E-01-2.98867E-02-1.48306E+00-1.55050E-13 2.04957E-13
 -1      3968 1.43064E+01 1.15289E+00 7.52045E-02-9.77127E-01-6.23609E-14 1.19504E-13
 -1      3969 1.76311E+01-7.44605E-01 1.02969E-02-3.00150E+00-1.03858E-14-1.32955E-13
 -1      3970 1.81070E+01-3.20788E-01 2.17025E-02-2.41345E+00 5.53238E-14-1.24613E-13
 -1      3971 1.79847E+01-2.97677E-02-1.09203E-02-2.13659E+00 7.47200E-15-4.78378E-14
 -1      3972 1.82148E+01 2.08093E-01 1.38755E-02-1.83173E+00-1.45629E-13-7.33796E-14
 -1      3973 1.82268E+01 3.74006E-01-1.07932E-02-1.61434E+00-2.65441E-13-7.00407E-14
 -1      3974 1.75558E+01 3.25696E-01 4.78092E-03-1.89577E+00-1.22032E-13-1.33333E-13
 -1      3975 1.84494E+01 5.14954E-01 8.90196E-03-1.39643E+00-2.42621E-13 1.18817E-13
 -1      3976 1.85124E+01 6.03578E-01-8.70885E-03-1.23129E+00-1.02939E-13 1.31203E-13
 -1      3977 1.79705E+01 6.23082E-01 4.29237E-03-1.38994E+00-1.55204E-13 9.41651E-14
 -1      3978 1.87129E+01 6.79235E-01 5.99801E-03-1.07607E+00-9.47957E-14 8.30856E-14
 -1      3979 1.87946E+01 7.20297E-01-7.05123E-03-9.47012E-01-6.93995E-14-1.75967E-14
 -1      3980 1.83613E+01 7.73513E-01 3.12173E-03-1.03519E+00-1.47476E-13 1.26582E-13
 -1      3981 1.84080E+01 1.05579E+00-1.78623E-03-7.76275E-01-4.52022E-14 1.32002E-13
 -1      3982 1.85906E+01 1.00837E+00-6.31055E-03-7.03722E-01-4.18937E-14 1.18478E-13
 -1      3983 1.88014E+01 9.55705E-01-1.55082E-03-6.55767E-01-7.20886E-14 1.03620E-13
 -1      3984 1.89467E+01 8.94523E-01-4.68668E-03-5.96139E-01-1.27305E-13 1.24158E-13
 -1      3985 1.85652E+01 1.04344E+00 7.64323E-03-5.17499E-01-9.26069E-14 8.72935E-14
 -1      3986 1.72505E+01 1.07484E+00-9.82282E-03-1.14837E+00-6.72580E-14 2.12223E-13
 -1      3987 1.75498E+01 1.10372E+00-1.48879E-02-1.01354E+00-5.61045E-14 2.00759E-13
 -1      3988 2.01098E+01 6.85436E-02 5.60860E-04-2.34544E-01 5.09822E-14 5.63020E-14
 -1      3989 2.01281E+01 5.58557E-02-2.39439E-04-2.22315E-01 4.10583E-14 3.77482E-14
 -1      3990 2.01646E+01 6.32837E-02-2.03424E-04-1.96741E-01 3.54572E-14-3.64918E-14
 -1      3991 2.01059E+01 8.90749E-02-6.30170E-07-2.18336E-01 3.27823E-14-4.09821E-14
 -1      3992 1.90706E+01 9.36380E-01-2.64886E-03 5.49029E-01-4.25839E-14 1.52738E-13
 -1      3993 1.89587E+01 9.73558E-01 2.47029E-03 6.25427E-01 7.98421E-14 2.43783E-14
 -1      3994 1.89881E+01 9.75315E-01 2.49381E-05 3.95064E-01-9.82624E-14 4.30792E-13
 -1      3995 2.02708E+01 1.06656E-01-2.78079E-04-1.44642E-01 3.44200E-15-5.14915E-14
 -1      3996 2.02469E+01 1.02075E-01-3.87439E-04-1.56035E-01-2.06917E-15-3.33856E-14
 -1      3997 2.02690E+01 1.40967E-01 1.01757E-03-1.30926E-01 3.48420E-14-1.99210E-14
 -1      3998 2.03383E+01 9.56007E-01 1.52518E-04 2.13084E-01 3.89365E-14-1.44886E-14
 -1      3999 1.90265E+01 7.51301E-01 1.21579E-03-7.86505E-01 5.58012E-14-1.99749E-13
 -1      4000 1.89230E+01 9.89623E-01 2.94062E-03 6.12861E-02-1.42437E-13 3.05829E-13
 -1      4001 1.89394E+01 9.78968E-01-3.03117E-03 2.24260E-01-9.51436E-14 5.07166E-13
 -1      4002 1.87888E+01 1.02104E+00 1.02385E-03 2.67258E-01 3.06359E-14 4.52687E-13
 -1      4003 1.87676E+01 1.00283E+00-1.24320E-03-7.52648E-02-1.33280E-14 3.76333E-13
 -1      4004 1.87756E+01 8.34614E-01 4.94328E-04-7.28327E-01-6.34799E-14-1.21804E-13
 -1      4005 1.64109E+01 9.60859E-01-7.18386E-03-1.41579E+00-1.74127E-13 3.44359E-13
 -1      4006 1.67800E+01 1.06118E+00-1.81933E-02-1.19845E+00-9.67763E-14 3.17457E-13
 -1      4007 1.67263E+01 1.22907E+00 2.10494E-02-8.10893E-01-1.74566E-13 3.53572E-13
 -1      4008 1.57022E+01 1.22187E+00 4.79467E-02-8.13311E-01-1.27437E-13 2.49335E-13
 -1      4009 1.52221E+01 4.98372E-01-1.86159E-02-1.96338E+00 8.20375E-14-2.21892E-13
 -1      4010 1.62264E+01-1.32303E-01 2.37253E-02-2.76500E+00 8.30091E-14-9.27539E-14
 -1      4011 1.79086E+01 1.11119E+00-1.74196E-03-9.30341E-01-1.00471E-13 1.82103E-13
 -1      4012 1.81368E+01 1.08730E+00-9.01813E-03-8.36242E-01-9.11937E-14 1.48071E-13
 -1      4013 1.81022E+01 1.14931E+00 1.03910E-02-6.00666E-01-8.78835E-14 1.00172E-13
 -1      4014 2.03971E+01 4.04099E-01 2.12179E-06 1.14163E-02 8.46487E-15 9.61527E-15
 -1      4015 2.03837E+01 3.09302E-01-8.88626E-04 4.53017E-02-3.24127E-15-5.34059E-15
 -1      4016 1.95525E+01 5.68423E-01-4.19008E-04-3.97232E-01 1.72991E-14 1.33117E-13
 -1      4017 1.96237E+01 5.05156E-01-2.28628E-03-3.60998E-01 1.57764E-15 1.22547E-13
 -1      4018 1.94416E+01 6.36577E-01 3.22451E-03-3.32121E-01-8.68377E-15 1.89648E-13
 -1      4019 1.91121E+01 8.31745E-01-1.19689E-03-5.55760E-01-1.82264E-13 1.67105E-13
 -1      4020 1.92269E+01 7.65014E-01-3.61818E-03-5.05134E-01-9.86150E-14 1.49949E-13
 -1      4021 1.92144E+01 7.75082E-01 4.31150E-03-3.86719E-01-6.27673E-14 1.91930E-13
 -1      4022 1.99363E+01 2.40704E-01 2.59342E-04-2.46829E-01 3.26296E-15 1.52310E-13
 -1      4023 1.99747E+01 1.99364E-01-1.03045E-03-2.28555E-01-1.25097E-14 1.11018E-13
 -1      4024 2.02872E+01 1.91853E-01-9.49864E-04-1.05424E-01 4.05155E-14-2.90810E-14
 -1      4025 2.03090E+01 2.59270E-01 1.29367E-03-6.62796E-02 1.86927E-14-1.78985E-14
 -1      4026 2.03498E+01 3.42916E-01 1.10489E-04-3.28231E-02 2.02482E-14-3.29082E-14
 -1      4027 2.03159E+01 1.93829E-01-2.09381E-04-1.00419E-01 3.56117E-14-3.66386E-14
 -1      4028 2.03698E+01 2.33378E-01 4.47888E-04 6.34585E-02-4.83935E-15-1.87980E-14
 -1      4029 2.03470E+01 1.74466E-01-6.45112E-04 8.67190E-02-3.98163E-15-1.14891E-14
 -1      4030 2.03951E+01 2.95472E-01 3.86192E-04 4.02063E-02-2.03618E-15 8.81334E-15
 -1      4031 1.43129E+01 1.06344E+00-1.29626E-02 4.31523E-03-1.33747E-14-3.71213E-14
 -1      4032 1.99938E+01 1.95793E-01 7.30299E-04-1.85940E-01-2.45700E-14 2.03975E-14
 -1      4033 2.00236E+01 1.63532E-01 3.34778E-04-2.16624E-01 8.29222E-15 7.71610E-14
 -1      4034 2.00569E+01 1.31805E-01-8.09157E-04-2.02477E-01 1.75311E-14 2.13097E-14
 -1      4035 1.84351E+01-5.73333E-02-3.74924E-03 2.01178E+00-2.98181E-14-8.83888E-14
 -1      4036 1.85845E+01-3.44473E-01 1.59685E-02 2.24140E+00-3.32876E-14-1.32016E-13
 -1      4037 1.79825E+01-3.01504E-01-5.41455E-03 2.42845E+00-8.31670E-14-2.06907E-13
 -1      4038 1.79676E+01 2.52051E-01-4.43317E-03 1.84884E+00-5.75644E-14-1.58939E-13
 -1      4039 1.58487E+01 7.55777E-01 2.02943E-02-1.44282E+00 4.03969E-14-2.45737E-13
 -1      4040 1.76445E+01 1.06660E+00-1.26256E-02 1.10582E+00 3.57099E-14 5.03093E-13
 -1      4041 1.73718E+01 1.03839E+00 1.59865E-03 1.24495E+00 5.67322E-14 4.47061E-13
 -1      4042 2.04050E+01 8.80772E-01 4.26506E-03-7.53887E-03 4.61942E-14 2.13385E-15
 -1      4043 2.03623E+01 1.05314E+00-6.19146E-04-3.09304E-02 6.51383E-14 3.34599E-14
 -1      4044 2.03654E+01 1.00598E+00-2.97897E-03-6.31071E-02 4.42479E-14 2.73180E-14
 -1      4045 1.48456E+01 1.15268E+00 4.84637E-02 6.71510E-01 1.98276E-14-3.61143E-14
 -1      4046 1.51647E+01 1.16971E+00-2.12647E-02-1.88542E-01-1.04209E-13 2.96889E-14
 -1      4047 1.55726E+01 9.24438E-01-5.22092E-03 1.12664E+00 3.80203E-14-6.23453E-14
 -1      4048 1.86065E+01 9.36088E-01-1.09430E-03-5.24555E-01-4.75914E-14-1.28890E-13
 -1      4049 1.85150E+01 1.00061E+00 9.46966E-04-3.42522E-01 1.62844E-15 2.77124E-13
 -1      4050 1.83710E+01 9.26926E-01 4.46073E-03-6.74466E-01-1.35948E-13-2.73124E-14
 -1      4051 1.97078E+01 4.45794E-01-1.18454E-04-3.36000E-01 5.62681E-14 6.67234E-14
 -1      4052 1.97644E+01 3.88390E-01-1.81254E-03-3.06338E-01 3.02246E-14 1.41036E-13
 -1      4053 1.96234E+01 5.05296E-01 2.36445E-03-2.84526E-01 1.48716E-14 1.82902E-13
 -1      4054 2.03538E+01 1.69686E-01 2.38816E-04 7.11128E-02-7.87965E-15 1.08650E-14
 -1      4055 1.89282E+01 9.13954E-01 5.72755E-03-4.48069E-01-1.14242E-13 1.48468E-13
 -1      4056 2.02868E+01 1.01778E-01-3.10231E-04-1.31525E-01-1.05835E-14-4.95323E-14
 -1      4057 2.03125E+01 1.35177E-01 5.18191E-04-1.12863E-01 2.35210E-14-1.90280E-14
 -1      4058 1.98331E+01 3.35601E-01 1.06003E-04-2.86129E-01-1.19099E-14 1.41175E-13
 -1      4059 1.98790E+01 2.85603E-01-1.40410E-03-2.62554E-01 3.11928E-14 1.71874E-13
 -1      4060 1.97705E+01 3.85944E-01 1.67311E-03-2.44371E-01 3.40158E-14 9.70764E-14
 -1      4061 2.02305E+01 6.92094E-02-4.61299E-05-1.55539E-01 1.44654E-14-3.04532E-14
 -1      4062 2.02579E+01 8.07760E-02 2.45544E-04-1.42053E-01-2.54650E-14-5.56186E-14
 -1      4063 2.02942E+01 1.04970E-01-2.06758E-05-1.12554E-01-9.47917E-15 9.54063E-15
 -1      4064 2.03339E+01 1.05105E+00-2.84246E-03 2.14456E-01 3.38444E-14-2.22612E-14
 -1      4065 2.03331E+01 1.12275E+00-7.48389E-04 1.70695E-01 3.43962E-14-2.81260E-14
 -1      4066 2.04071E+01 5.75355E-01 2.78348E-04-3.34064E-02 3.64735E-14 5.86719E-15
 -1      4067 2.04016E+01 4.85151E-01-1.40283E-04-4.30147E-03 2.82725E-14 2.21496E-14
 -1      4068 2.04145E+01 4.57691E-01 2.68824E-04 3.39475E-03 1.49321E-14 2.65191E-14
 -1      4069 1.85872E+01 1.02942E+00-6.06176E-03 7.84207E-01 5.66665E-14 1.68621E-13
 -1      4070 1.84620E+01 1.05410E+00 8.78606E-06 8.56708E-01 1.29406E-14 2.97926E-13
 -1      4071 2.03773E+01 9.58402E-01 3.97862E-03 1.10913E-01 3.10085E-14-2.43372E-14
 -1      4072 1.70043E+01 9.64125E-01-2.05106E-02 1.39654E+00 3.43923E-14 4.02287E-13
 -1      4073 1.67579E+01 8.73235E-01 4.86156E-03 1.60205E+00 7.99703E-14 4.99256E-13
 -1      4074 1.61609E+01 1.04969E+00 2.88849E-02 1.31545E+00 6.23132E-14 4.65326E-13
 -1      4075 1.68986E+01 1.16100E+00 1.80404E-02 9.87880E-01 9.52133E-14 5.90027E-13
 -1      4076 1.75138E+01 1.22192E+00 1.97385E-02-7.11464E-01-9.67885E-14 1.60880E-13
 -1      4077 1.88344E+01 9.87750E-01-4.48178E-03 6.70011E-01 1.96493E-13 3.15464E-14
 -1      4078 1.87220E+01 1.01805E+00 2.01800E-04 7.31706E-01 1.67096E-13 1.20925E-13
 -1      4079 1.84791E+01 1.08635E+00 3.24649E-03 5.79757E-01 1.60609E-13 1.80767E-13
 -1      4080 1.87196E+01 1.04256E+00 2.68545E-03 4.84731E-01 2.16316E-13 1.77106E-13
 -1      4081 2.03645E+01 8.10906E-01 2.85916E-04 1.33261E-01 2.29682E-14 8.85143E-16
 -1      4082 1.98916E+01 2.81822E-01 1.11724E-03-2.11690E-01 1.03662E-14 9.41981E-14
 -1      4083 2.03822E+01 6.41201E-01 2.68129E-05 8.23952E-02 2.82918E-14-3.87191E-15
 -1      4084 2.03827E+01 7.33936E-01-7.27486E-04 8.74979E-02 2.14829E-14-2.70339E-14
 -1      4085 2.03790E+01 5.05670E-01-3.65627E-04 2.31262E-02 3.08813E-14-8.19028E-15
 -1      4086 2.03965E+01 8.17250E-01-9.52140E-04 4.94576E-02 3.55967E-14-3.38521E-14
 -1      4087 2.04047E+01 7.66792E-01-3.55931E-03 2.04793E-02 4.30353E-14-4.63312E-14
 -1      4088 1.57091E+01 1.07150E+00-4.41734E-03 9.21037E-01 1.37780E-15 2.17126E-13
 -1      4089 1.52988E+01 1.20343E+00 3.89756E-02 4.14143E-01-4.29344E-14 2.92790E-13
 -1      4090 1.56535E+01 1.14944E+00-1.23052E-02-1.21535E-01-8.11960E-14 2.41367E-14
 -1      4091 1.61053E+01 1.12845E+00-2.34508E-02 7.50520E-01 2.59443E-14 3.25915E-13
 -1      4092 1.74961E+01-1.44361E-01 1.75698E-02 2.43207E+00-7.22421E-14-3.22623E-13
 -1      4093 1.67272E+01-1.60719E-03 1.30737E-02 2.52548E+00-2.28699E-14-3.00316E-13
 -1      4094 1.62944E+01 4.17134E-01-1.79717E-02 2.00804E+00 1.91657E-14-3.59844E-13
 -1      4095 1.74141E+01 1.53064E-01-5.00079E-03 2.11600E+00-1.26937E-13-2.83512E-13
 -1      4096 1.68103E+01-2.45831E-01-3.05685E-03-2.73200E+00 1.08848E-13-5.01146E-14
 -1      4097 1.82021E+01 1.06804E+00-8.65997E-03 9.20873E-01 3.02994E-14 4.21271E-13
 -1      4098 1.79751E+01 1.07875E+00-8.55509E-04 1.01829E+00 4.29474E-14 3.82912E-13
 -1      4099 1.75503E+01 1.18437E+00 1.32824E-02 7.95650E-01 1.07575E-13 5.19208E-13
 -1      4100 1.81090E+01 1.13954E+00 6.05828E-03 6.73343E-01 6.97201E-14 1.34888E-13
 -1      4101 2.03645E+01 1.00941E+00-6.91013E-04-8.84299E-02 4.28025E-14 1.69707E-14
 -1      4102 2.03666E+01 9.48789E-01-2.16233E-03-1.14213E-01 4.10070E-14-1.85053E-15
 -1      4103 2.03865E+01 8.36755E-01 1.58190E-03-9.05781E-02 1.92747E-14 1.44111E-14
 -1      4104 2.04023E+01 8.52445E-01 3.50905E-03-4.93287E-02 4.04269E-14 2.79863E-14
 -1      4105 2.03898E+01 7.75104E-01-8.53166E-04 6.56529E-02 2.19671E-14-4.59786E-14
 -1      4106 2.04138E+01 6.22173E-01 3.10373E-03 3.40648E-02 3.59998E-14-5.01351E-14
 -1      4107 1.90843E+01 8.15495E-01-2.79863E-03-2.80183E-01-8.40617E-14 2.31717E-13
 -1      4108 1.92144E+01 7.46412E-01-2.69980E-03-2.58477E-01-6.46400E-14 2.17447E-13
 -1      4109 2.02559E+01 8.50848E-02-1.08175E-04 7.20684E-02 2.48887E-14 8.69726E-14
 -1      4110 2.02197E+01 8.45258E-02-1.45571E-05 7.98405E-02 9.36527E-15 5.15298E-14
 -1      4111 2.01779E+01 9.25096E-02-3.02204E-04 8.29772E-02-3.16442E-15 7.83318E-14
 -1      4112 2.01379E+01 1.08397E-01 6.09199E-05 9.07466E-02 3.34291E-15 6.54446E-14
 -1      4113 2.02035E+01 9.51588E-02 1.59726E-04 4.66937E-02 1.38935E-15 2.87289E-14
 -1      4114 2.00908E+01 1.30702E-01-4.86818E-04 9.50078E-02 2.20662E-14 5.58539E-14
 -1      4115 2.00467E+01 1.59369E-01 8.98531E-05 1.04222E-01 3.21112E-14 5.23205E-14
 -1      4116 2.01164E+01 1.27179E-01 5.45202E-04 5.43922E-02 2.06547E-14 8.08707E-14
 -1      4117 1.99927E+01 1.93196E-01-9.06092E-04 1.10545E-01 5.16741E-16 2.83081E-14
 -1      4118 1.99440E+01 2.32608E-01 1.87459E-04 1.22903E-01-7.40431E-14 1.15730E-15
 -1      4119 2.00179E+01 1.87162E-01 1.03880E-03 6.45309E-02 9.41403E-15 4.22255E-15
 -1      4120 1.98818E+01 2.74776E-01-1.34731E-03 1.32295E-01-1.00446E-13-1.80356E-14
 -1      4121 1.98264E+01 3.22336E-01 1.33610E-04 1.48761E-01-7.15604E-14-6.27079E-15
 -1      4122 1.99069E+01 2.68366E-01 1.85569E-03 7.90559E-02-6.90875E-14 4.89300E-16
 -1      4123 1.97537E+01 3.71160E-01-1.82547E-03 1.62736E-01-1.63498E-15-3.50522E-14
 -1      4124 1.96897E+01 4.24532E-01 1.11784E-04 1.84857E-01-5.03516E-14 5.33566E-15
 -1      4125 1.97781E+01 3.67021E-01 2.79942E-03 9.98151E-02-3.59456E-14-2.85117E-14
 -1      4126 1.96035E+01 4.77341E-01-2.42398E-03 2.05039E-01-9.85112E-14 3.79119E-14
 -1      4127 1.95292E+01 5.33781E-01 1.51670E-04 2.34674E-01-7.44921E-14 4.89187E-14
 -1      4128 1.96269E+01 4.78456E-01 3.90540E-03 1.29665E-01-5.16638E-14 2.18996E-14
 -1      4129 1.94259E+01 5.87214E-01-3.17855E-03 2.63277E-01-4.95720E-14 3.61641E-14
 -1      4130 1.93395E+01 6.43080E-01 3.04916E-04 3.02858E-01-1.67411E-14 3.45005E-14
 -1      4131 1.94472E+01 5.97395E-01 5.20861E-03 1.72219E-01-7.42671E-14 3.54940E-14
 -1      4132 1.92152E+01 6.92558E-01-4.15719E-03 3.42978E-01-2.32554E-14 5.87310E-14
 -1      4133 1.91155E+01 7.42891E-01 6.44639E-04 3.95903E-01 2.21996E-14 5.00519E-14
 -1      4134 1.92319E+01 7.17012E-01 6.77183E-03 2.32555E-01-1.19644E-14 2.58649E-14
 -1      4135 1.89651E+01 7.82143E-01-5.47629E-03 4.51954E-01 5.41000E-14 9.31126E-14
 -1      4136 1.88519E+01 8.20239E-01 1.27425E-03 5.23179E-01 4.62726E-14 1.28473E-13
 -1      4137 1.89733E+01 8.28183E-01 8.69124E-03 3.17913E-01 8.68042E-14 1.90425E-14
 -1      4138 1.86693E+01 8.40832E-01-7.32908E-03 6.01595E-01-1.42098E-16 1.12544E-13
 -1      4139 1.85439E+01 8.57718E-01 2.32962E-03 6.98586E-01-4.20572E-14 7.95279E-14
 -1      4140 1.86619E+01 9.18721E-01 1.10381E-02 4.38719E-01-1.42697E-15-2.58529E-14
 -1      4141 1.83206E+01 8.48928E-01-9.92873E-03 8.09021E-01-8.72933E-14 3.37041E-15
 -1      4142 1.81882E+01 8.32582E-01 4.42983E-03 9.43336E-01-1.15926E-13-3.87244E-14
 -1      4143 1.82848E+01 9.71922E-01 1.33702E-02 6.09855E-01-1.39139E-13-3.62414E-14
 -1      4144 1.79131E+01 7.81206E-01-1.27083E-02 1.10232E+00-1.50035E-13-1.18846E-13
 -1      4145 1.77825E+01 7.11983E-01 7.84862E-03 1.29312E+00-9.86271E-14-1.82684E-13
 -1      4146 1.78182E+01 9.61807E-01 1.17338E-02 8.51562E-01-2.04642E-13-2.18942E-13
 -1      4147 1.75399E+01 7.60473E-01 7.51619E-03-1.25230E+00-2.53657E-13 4.98934E-14
 -1      4148 1.77265E+01 8.28168E-01-1.25054E-02-1.05412E+00-1.92330E-13 8.63374E-14
 -1      4149 1.79734E+01 8.74102E-01 2.62797E-03-9.16373E-01-2.83801E-13 1.05643E-13
 -1      4150 1.81563E+01 9.08121E-01-6.72054E-03-7.81720E-01-2.58937E-13 5.28623E-14
 -1      4151 1.80024E+01 1.04217E+00 9.47294E-03-5.48304E-01-2.76867E-13-2.36379E-14
 -1      4152 1.75859E+01 1.01702E+00 1.33418E-02-7.69265E-01-3.08894E-13 1.04219E-13
 -1      4153 1.71591E+01 1.22803E+00-8.61213E-03-4.15815E-01-2.02371E-13 1.63174E-13
 -1      4154 1.74968E+01 1.19580E+00-1.24490E-02-3.70299E-01-1.33153E-13 9.08239E-14
 -1      4155 2.04034E+01 4.83550E-01-1.87552E-03 8.94350E-03 2.68433E-14-3.97532E-14
 -1      4156 2.04167E+01 5.22980E-01-1.17643E-03 7.28362E-03 3.70464E-14-7.26424E-14
 -1      4157 1.98489E+01 3.12144E-01-4.24912E-04-1.66127E-01 1.85776E-14-8.46613E-15
 -1      4158 1.99049E+01 2.63614E-01-9.28202E-04-1.53045E-01 1.18438E-14-9.65328E-15
 -1      4159 1.87628E+01 9.50421E-01-3.92609E-03-3.11517E-01-6.76363E-14 7.12769E-14
 -1      4160 1.89279E+01 8.84084E-01-3.44719E-03-2.88928E-01-1.86451E-14 2.01189E-13
 -1      4161 1.89727E+01 8.77454E-01 8.19108E-03-1.50236E-01-4.54179E-14 1.53249E-13
 -1      4162 1.78323E+01 1.16783E+00-7.00523E-03-3.71725E-01-1.02011E-13 3.77551E-14
 -1      4163 1.81028E+01 1.12557E+00-6.28426E-03-3.42926E-01-9.12339E-14 2.22147E-14
 -1      4164 1.76113E+01 1.22835E+00 1.62803E-02-7.92980E-02-1.98928E-13-3.24367E-14
 -1      4165 2.03791E+01 1.98135E-01 4.75971E-05 4.23849E-02 8.44749E-16 3.02878E-14
 -1      4166 2.03532E+01 1.50222E-01-4.06022E-04 5.55938E-02 1.07377E-14 4.38749E-14
 -1      4167 2.03474E+01 1.78388E-01 1.64274E-04-8.47670E-02 2.36524E-14-3.28603E-14
 -1      4168 2.03345E+01 1.81519E-01-6.11397E-04-9.68788E-02 3.59501E-14-1.79839E-14
 -1      4169 2.03562E+01 2.43393E-01 6.76408E-04-6.88773E-02 3.59725E-14-1.67637E-14
 -1      4170 2.04145E+01 3.44604E-01-4.10751E-05 1.84619E-02 1.53763E-14 4.21977E-14
 -1      4171 2.03988E+01 2.62202E-01-4.86565E-04 3.63839E-02 1.41516E-15 2.68031E-14
 -1      4172 2.03976E+01 2.43388E-01 4.26340E-04 2.16549E-02 2.02725E-14 2.89491E-14
 -1      4173 1.93401E+01 6.77612E-01-1.94349E-03-2.48260E-01-4.27960E-14 1.89647E-13
 -1      4174 1.94434E+01 6.09938E-01-2.14430E-03-2.27962E-01-5.45125E-15 1.89685E-13
 -1      4175 1.92495E+01 7.36893E-01 6.24038E-03-1.46603E-01-6.13255E-14 1.84312E-13
 -1      4176 1.83550E+01 1.07218E+00-5.43499E-03-3.41224E-01-6.28416E-14 5.31367E-15
 -1      4177 1.85661E+01 1.01414E+00-4.54870E-03-3.17262E-01-9.98930E-14 1.90080E-14
 -1      4178 1.81869E+01 1.13355E+00 1.40983E-02-1.21925E-01-1.02618E-13-1.31236E-13
 -1      4179 2.03241E+01 1.16574E-01 2.42068E-05 5.95235E-02 1.54640E-14 6.59684E-14
 -1      4180 2.02920E+01 9.52030E-02-2.01749E-04 6.89528E-02 4.12496E-14 9.73945E-14
 -1      4181 2.03471E+01 1.42952E-01 2.93343E-04 3.21907E-02 2.20150E-14 6.94575E-14
 -1      4182 2.03916E+01 7.27152E-01-9.33683E-04-6.40658E-02 3.08742E-14 4.54987E-15
 -1      4183 2.04292E+01 6.25989E-01 2.77141E-03 1.16135E-02 2.61631E-14-4.50174E-14
 -1      4184 2.04143E+01 7.37285E-01-7.74457E-05 4.85896E-03 4.43730E-14-2.90067E-14
 -1      4185 1.72712E+01 8.50333E-01 1.05175E-02 1.21578E+00-1.97299E-13-4.01379E-13
 -1      4186 1.74604E+01 6.00834E-01-8.63038E-03 1.51430E+00-9.11779E-14-3.36340E-13
 -1      4187 2.04068E+01 6.84187E-01-5.28931E-04-3.97087E-02 2.41264E-14 1.60079E-14
 -1      4188 1.74060E+01 4.27182E-01 8.43036E-03 1.77707E+00-1.56068E-13-3.86296E-13
 -1      4189 1.86262E+01 1.01283E+00 1.07362E-02-1.43799E-01-6.08214E-14-5.44315E-14
 -1      4190 1.67627E+01 1.80903E-01-1.81912E-02-2.23010E+00 1.27459E-13-1.51855E-13
 -1      4191 1.63985E+01 7.24023E-01 2.59086E-02 1.63402E+00-3.59479E-14-3.44317E-13
 -1      4192 1.61877E+01 9.63975E-01-1.34743E-02 9.65426E-01-7.07646E-14-1.38103E-13
 -1      4193 1.69470E+01 5.20394E-01 1.92691E-02-1.75972E+00-1.17493E-14-8.63326E-14
 -1      4194 1.71368E+01 6.45873E-01-1.50225E-02-1.47596E+00-1.58624E-13-3.98965E-14
 -1      4195 1.75292E+01 1.18589E+00-7.36608E-03 4.43520E-01 5.00816E-14 2.40215E-13
 -1      4196 1.72039E+01 1.18797E+00-6.86896E-03 4.89318E-01 1.33759E-13 3.13087E-13
 -1      4197 1.63235E+01 1.23856E+00-2.25256E-03-2.70329E-01-1.89072E-13 1.25366E-13
 -1      4198 1.65158E+01 1.23944E+00 1.34654E-02 1.21628E-01-2.06085E-13-8.56737E-15
 -1      4199 1.95454E+01 5.44382E-01-1.29047E-03-2.17609E-01-1.39471E-14 1.72544E-13
 -1      4200 1.96282E+01 4.81114E-01-1.69357E-03-1.99387E-01-1.19607E-14 1.19402E-13
 -1      4201 1.94726E+01 5.98939E-01 4.68083E-03-1.37199E-01-4.94126E-14 1.15284E-13
 -1      4202 1.97119E+01 4.21251E-01-7.94939E-04-1.89887E-01-1.71312E-15 3.49557E-14
 -1      4203 1.97792E+01 3.64532E-01-1.30228E-03-1.74189E-01 2.06841E-15 2.43944E-14
 -1      4204 1.96542E+01 4.69553E-01 3.39432E-03-1.25279E-01-5.67883E-14 3.72444E-14
 -1      4205 2.04238E+01 3.92002E-01 1.75684E-03-1.15152E-02 2.32222E-14-1.81240E-14
 -1      4206 2.04237E+01 5.06423E-01-4.66149E-04 4.21541E-03 1.97657E-14-5.25260E-14
 -1      4207 2.04273E+01 4.70708E-01-1.92722E-03-3.22756E-03 1.39374E-14-4.11794E-14
 -1      4208 2.01682E+01 7.35389E-02 2.62243E-04-1.74372E-01 6.64818E-14-4.38476E-14
 -1      4209 2.01973E+01 6.74766E-02 6.81218E-05-1.62844E-01 6.54667E-14-2.38521E-14
 -1      4210 2.02314E+01 7.85822E-02-2.89489E-04-1.32829E-01 2.87688E-14-2.38673E-14
 -1      4211 1.60280E+01 9.52215E-01-1.20497E-02-9.85072E-01 1.41433E-13-2.23023E-13
 -1      4212 1.63792E+01 5.97716E-01 9.97181E-03-1.76916E+00 1.20316E-13-2.86839E-13
 -1      4213 1.99292E+01 2.53442E-01 1.30663E-03-1.01928E-01 1.26954E-14-2.22932E-14
 -1      4214 1.99639E+01 2.20110E-01-1.60126E-04-1.46582E-01 1.15452E-14-2.44242E-14
 -1      4215 2.00114E+01 1.80914E-01-7.99008E-04-1.35462E-01-1.06369E-14-5.33442E-15
 -1      4216 2.00998E+01 1.06758E-01 3.84391E-04-1.93449E-01 3.13888E-14-2.74120E-14
 -1      4217 2.01304E+01 8.66518E-02-3.22671E-04-1.81545E-01 3.11458E-14-4.63917E-14
 -1      4218 2.01605E+01 8.97219E-02-1.16333E-04-1.49383E-01 2.13515E-14-4.44737E-15
 -1      4219 2.00818E+01 1.31026E-01 2.70810E-04-1.66083E-01-3.26038E-14 7.09364E-15
 -1      4220 2.02810E+01 9.77492E-02 1.87308E-04 3.98762E-02 2.66302E-14 3.27617E-14
 -1      4221 1.68689E+01 1.18769E+00-1.45259E-02 5.44394E-01 1.65718E-13 3.22505E-13
 -1      4222 1.65387E+01 1.17328E+00-3.07291E-03 6.54631E-01 1.94968E-13 3.54819E-13
 -1      4223 1.62855E+01 1.24642E+00 2.31002E-02 2.68798E-01 8.26290E-14 2.30660E-13
 -1      4224 1.69785E+01 1.23332E+00 9.39822E-03 1.80676E-01 2.01071E-13 1.17519E-13
 -1      4225 2.02959E+01 9.83465E-02-2.33058E-04-9.13715E-02-6.23044E-15-3.15880E-14
 -1      4226 2.03252E+01 1.22620E-01 2.86603E-05-7.99001E-02-8.04786E-15-3.22635E-14
 -1      4227 1.86471E+01 1.04269E+00-4.36311E-03 2.86828E-01 1.57854E-14 4.22951E-13
 -1      4228 1.85368E+01 1.07560E+00 8.47293E-04 3.26675E-01 1.55563E-13 3.92121E-13
 -1      4229 1.86204E+01 1.05819E+00 1.95969E-03 1.23109E-01 1.96082E-13 4.99134E-13
 -1      4230 1.98039E+01 3.53219E-01 2.30985E-03-1.13085E-01-4.14476E-14-5.24218E-14
 -1      4231 2.04148E+01 7.08079E-01-2.33150E-03-1.18371E-02 4.42663E-14 2.14713E-14
 -1      4232 1.83778E+01 1.09953E+00-3.44248E-03 3.53574E-01 1.78945E-13 3.52786E-13
 -1      4233 1.82462E+01 1.11835E+00-3.60914E-03 3.99689E-01 2.22843E-13 2.47288E-13
 -1      4234 1.83506E+01 1.12392E+00 1.03182E-02 1.60159E-01 1.25653E-13 4.70034E-13
 -1      4235 2.03756E+01 3.94977E-01-1.33852E-04-1.09532E-02 4.14717E-14-1.00569E-14
 -1      4236 2.03920E+01 4.61520E-01 1.41829E-04 2.89545E-03 5.00937E-14-1.40979E-14
 -1      4237 2.03616E+01 3.01710E-01-8.39489E-04-5.25380E-02 2.83508E-14-2.80834E-14
 -1      4238 1.61222E+01 1.16590E+00-6.28581E-03-1.27608E-01-4.54064E-16-1.58377E-13
 -1      4239 1.60849E+01 1.14526E+00 2.36320E-02-5.91945E-01 2.47987E-14-3.45336E-13
 -1      4240 1.65338E+01 1.17406E+00-5.14309E-03-1.62973E-01 9.72265E-14-1.61636E-13
 -1      4241 1.79919E+01 1.15202E+00-4.02039E-03 4.31266E-01 1.39118E-13 3.58953E-13
 -1      4242 2.03528E+01 1.60277E-01-4.27490E-04-7.28763E-02-3.35716E-15-1.79812E-14
 -1      4243 2.03777E+01 2.11167E-01-1.10919E-04-5.50630E-02 2.63833E-14-4.26236E-14
 -1      4244 2.03521E+01 1.53930E-01 3.31991E-04-5.25829E-02-4.97089E-15-2.57815E-14
 -1      4245 1.69932E+01 9.08648E-01 8.83826E-03-1.10337E+00-9.35463E-14-9.26594E-14
 -1      4246 1.65107E+01 9.88428E-01 1.22539E-03-9.07545E-01 1.05263E-13-3.72934E-13
 -1      4247 2.04010E+01 3.82527E-01 1.35327E-03-2.23115E-02 3.54710E-14-1.69988E-14
 -1      4248 2.04123E+01 6.84170E-01-1.11574E-03-2.38077E-02 2.19277E-14 3.44814E-14
 -1      4249 2.01385E+01 1.14737E-01-4.24618E-04 1.09285E-02 1.03342E-14 4.35046E-15
 -1      4250 2.00917E+01 1.38143E-01-3.23727E-04 1.59811E-02 2.96219E-14 8.74288E-15
 -1      4251 2.00254E+01 1.78732E-01-4.22466E-04-1.73508E-02 6.59436E-15-2.93845E-14
 -1      4252 1.99711E+01 2.15763E-01-5.10395E-04-1.27044E-02-1.36370E-14-3.41465E-14
 -1      4253 1.99110E+01 2.58168E-01-1.36957E-03-1.61522E-02-2.58697E-14 1.04470E-14
 -1      4254 1.98489E+01 3.05495E-01-1.00476E-03-9.77607E-03-3.93465E-14 2.36852E-14
 -1      4255 1.97779E+01 3.56411E-01-2.13689E-03-1.29626E-02-4.53916E-14 5.42314E-14
 -1      4256 1.97057E+01 4.11788E-01-1.54254E-03-3.68755E-03-4.26200E-14 4.50340E-14
 -1      4257 1.96203E+01 4.69375E-01-3.03106E-03-6.01892E-03-5.87346E-14 3.68247E-14
 -1      4258 1.95349E+01 5.30687E-01-2.14097E-03 7.46056E-03-9.49699E-14 2.13552E-14
 -1      4259 1.94306E+01 5.92648E-01-4.12958E-03 7.12380E-03-1.00398E-13 5.50216E-14
 -1      4260 1.93287E+01 6.57279E-01-2.82086E-03 2.66998E-02-7.87785E-14 4.82840E-14
 -1      4261 1.91999E+01 7.20599E-01-5.50720E-03 3.00590E-02-3.79253E-14 5.27081E-14
 -1      4262 1.90773E+01 7.85073E-01-3.61307E-03 5.84343E-02 6.72509E-15 4.18381E-14
 -1      4263 1.89168E+01 8.45683E-01-7.28233E-03 6.78690E-02-9.11334E-15-7.38016E-16
 -1      4264 1.87690E+01 9.05388E-01-4.55724E-03 1.08911E-01 2.35858E-14-3.11902E-14
 -1      4265 1.85672E+01 9.57968E-01-9.60184E-03 1.27671E-01 2.80263E-14-8.97911E-14
 -1      4266 1.83885E+01 1.00702E+00-5.59263E-03 1.86876E-01-1.02869E-13-1.23907E-13
 -1      4267 1.81317E+01 1.04536E+00-1.23570E-02 2.19847E-01-1.75514E-13-5.52165E-14
 -1      4268 1.79171E+01 1.07667E+00-5.65925E-03 3.04791E-01-1.83019E-13-7.94131E-14
 -1      4269 1.75853E+01 1.09635E+00-1.35659E-02 3.61787E-01-2.41046E-13-1.96096E-14
 -1      4270 1.73307E+01 1.10406E+00-1.26552E-03 4.73765E-01-2.42860E-13-1.21487E-13
 -1      4271 1.68914E+01 1.03816E+00-9.42748E-03-7.20559E-01-1.38746E-13-3.62411E-13
 -1      4272 1.77739E+01 1.19428E+00 1.34346E-02 1.52631E-01 8.02820E-14 3.51090E-13
 -1      4273 1.68856E+01 5.39151E-01-6.18336E-03 1.75099E+00-1.42947E-13-5.26450E-13
 -1      4274 1.79384E+01 1.09028E+00-7.49304E-03-2.19691E-01-1.25698E-13 2.03856E-13
 -1      4275 1.74746E+01 1.12254E+00-9.42809E-03-2.82773E-01-2.73512E-14-4.81494E-14
 -1      4276 2.04277E+01 5.68848E-01 1.89549E-03-6.44936E-03 2.71797E-14 2.55352E-14
 -1      4277 1.84563E+01 1.03789E+00-1.96609E-03-1.61419E-01 1.32027E-13 1.36273E-13
 -1      4278 2.04241E+01 4.78651E-01-9.56093E-04-1.87244E-03 2.52641E-14 4.41755E-14
 -1      4279 2.04201E+01 4.03432E-01 2.24232E-04 1.34627E-02 1.96453E-14 3.14111E-14
 -1      4280 2.04104E+01 2.73283E-01-5.01223E-04 5.81635E-04 1.93001E-14-3.98700E-14
 -1      4281 2.03896E+01 2.08142E-01-2.90830E-04 6.63289E-03 2.35707E-14-1.80598E-14
 -1      4282 1.58223E+01 1.19190E+00-1.57046E-02-2.35729E-01-1.47619E-13 1.49829E-13
 -1      4283 2.03016E+01 1.01733E-01 8.12901E-05 6.24979E-03 2.58929E-14-4.39161E-14
 -1      4284 2.02655E+01 9.05825E-02-3.01597E-05 1.03918E-02 1.80504E-14-5.08844E-14
 -1      4285 2.02780E+01 9.15885E-02 3.62677E-04-7.35094E-02-6.13501E-15-2.47131E-14
 -1      4286 2.03049E+01 1.03870E-01-2.87859E-04-4.30100E-02-7.57190E-15-6.24307E-14
 -1      4287 2.02253E+01 9.00902E-02-2.37928E-04 8.11674E-03 2.17797E-14-3.14326E-14
 -1      4288 2.01841E+01 9.87767E-02 2.60351E-05 1.22280E-02 1.64648E-14 1.45782E-14
 -1      4289 2.02450E+01 9.33968E-02-6.68989E-06-2.56424E-02 2.92820E-14-3.77627E-14
 -1      4290 2.03787E+01 2.88710E-01-5.89970E-04-5.07752E-02 4.78931E-14-1.42519E-14
 -1      4291 2.04223E+01 3.69609E-01 2.33207E-04 9.42667E-03 2.34906E-14 2.55091E-14
 -1      4292 2.03915E+01 3.16194E-01 1.12220E-04-4.00909E-02 4.38454E-14-2.05354E-14
 -1      4293 2.04034E+01 2.99021E-01-1.34805E-04-3.59740E-02 4.22814E-14-3.94214E-14
 -1      4294 2.01610E+01 1.10344E-01 2.65071E-04-2.76813E-02 3.15640E-14-2.27348E-14
 -1      4295 1.69137E+01 1.20602E+00 3.77128E-03 2.40609E-01-2.94773E-13-7.78250E-14
 -1      4296 1.69938E+01 1.02341E+00-1.49882E-02 8.05508E-01-2.28982E-13-1.81217E-13
 -1      4297 1.68649E+01 1.19192E+00 1.88535E-03-1.94791E-01 1.39729E-13-2.34588E-13
 -1      4298 1.72489E+01 1.11061E+00-2.82124E-03-3.87783E-01-1.73119E-14-1.43668E-13
 -1      4299 2.00514E+01 1.66728E-01 5.86318E-04-6.09128E-02-1.25789E-14-5.64986E-14
 -1      4300 2.04304E+01 5.01906E-01-6.73402E-04 9.33843E-04 4.22912E-14 1.07380E-14
 -1      4301 2.04299E+01 4.02600E-01 1.31099E-03-2.68447E-03 1.10564E-14-3.26450E-14
 -1      4302 2.00776E+01 1.42802E-01-2.81657E-06-1.00990E-01-3.85784E-14-1.31807E-14
 -1      4303 2.01202E+01 1.16773E-01-1.71384E-04-9.28281E-02-1.93152E-14-9.24081E-15
 -1      4304 2.02440E+01 8.50816E-02-9.46049E-05-8.17837E-02 1.02428E-14-1.15534E-14
 -1      4305 2.03377E+01 1.25931E-01-4.71077E-04 1.22700E-02 2.38250E-14-1.51657E-14
 -1      4306 2.03210E+01 1.18612E-01 1.17988E-04-1.73762E-02 1.10867E-14-4.32743E-14
 -1      4307 2.03416E+01 1.30981E-01 2.02001E-04-3.62201E-02 6.01160E-15-3.73492E-14
 -1      4308 2.03678E+01 1.62772E-01-9.65190E-06 7.46319E-03 8.56891E-15-9.66791E-15
 -1      4309 2.04234E+01 3.44277E-01 4.00251E-04 3.62294E-03-1.17768E-15-3.66578E-14
 -1      4310 2.04134E+01 3.01300E-01-7.08894E-04-1.21689E-02 1.12914E-14-5.38524E-14
 -1      4311 2.03693E+01 1.68669E-01-5.08155E-04-2.84802E-02 1.44913E-14-3.20702E-14
 -1      4312 1.66699E+01 9.51065E-01-1.09726E-02 1.01630E+00-2.02257E-13-2.15006E-13
 -1      4313 2.03798E+01 1.93087E-01 5.73912E-04-1.28787E-02 2.30033E-14-5.46246E-14
 -1      4314 1.81392E+01 1.08323E+00-7.50744E-03-1.40965E-01-7.95159E-14 1.20048E-13
 -1      4315 2.02041E+01 8.71283E-02 1.78710E-04-8.33338E-02 3.52477E-14-4.16361E-16
 -1      4316 1.83066E+01 1.06196E+00-3.87330E-03-1.54652E-01 8.78044E-14 1.79761E-13
 -1      4317 2.01656E+01 9.85999E-02-1.08342E-04-9.11947E-02 2.90921E-14-2.46722E-14
 -1      4318 1.60897E+01 1.18609E+00 1.01812E-02 5.23835E-01-1.03606E-13-6.38108E-14
 -1      4319 2.03920E+01 2.17429E-01 8.92055E-04-2.86414E-02 3.30071E-14-2.44905E-14
 -1      4320 2.04039E+01 2.78781E-01-9.85285E-05-2.47677E-02 3.37609E-14-9.25475E-15
 -3
    1PSTEP                         3           1           1          
  100CL  101 1.000000000        4320                     0    1           1
 -4  TOSTRAIN    6    1
 -5  EXX         1    4    1    1
 -5  EYY         1    4    2    2
 -5  EZZ         1    4    3    3
 -5  EXY         1    4    1    2
 -5  EYZ         1    4    2    3
 -5  EZX         1    4    3    1
 -1         1 2.87333E-04-8.25543E-05-7.59945E-05-5.52110E-05 9.90340E-19-3.21851E-18
 -1         2 3.65290E-05-1.10875E-04 1.99719E-05-6.61885E-07 3.35107E-19 3.36828E-19
 -1         3 9.51825E-05-2.86293E-05-2.84424E-05-4.63884E-08-2.13949E-18-2.68520E-18
 -1         4 9.51892E-05-2.86205E-05-2.84578E-05 3.81769E-08 4.12753E-19 4.28263E-19
 -1         5 1.43277E-04-2.14695E-05-4.25049E-05 3.85215E-05-9.67206E-20 5.16701E-18
 -1         6 1.45342E-04 2.57397E-10-4.41636E-05-5.35129E-05-2.89262E-19 2.68848E-18
 -1         7 9.05584E-05-5.09508E-07-3.90487E-05-2.92571E-05-4.89162E-20-2.14749E-19
 -1         8 8.50942E-05 8.67256E-08-3.63263E-05-2.02854E-05-2.58345E-20-9.46849E-19
 -1         9 8.28036E-05 7.58641E-08-3.53457E-05-1.56562E-05-3.12343E-20-1.17296E-18
 -1        10 8.17752E-05 3.94516E-08-3.48829E-05-1.20937E-05 1.03894E-20-1.23432E-18
 -1        11 8.12705E-05 1.89719E-08-3.46601E-05-9.02788E-06-2.72970E-21-1.21668E-18
 -1        12 8.10126E-05 8.69510E-09-3.45501E-05-6.29467E-06 2.27855E-20-1.13508E-18
 -1        13 8.08786E-05 4.08889E-09-3.44957E-05-3.69166E-06 1.12356E-20-9.61000E-19
 -1        14 8.08231E-05 2.23551E-09-3.44737E-05-1.18553E-06 3.92437E-20-8.49114E-19
 -1        15 8.08251E-05 2.23737E-09-3.44744E-05 1.29113E-06 4.55123E-20-7.37395E-19
 -1        16 8.08848E-05 4.04890E-09-3.44979E-05 3.80214E-06 3.90165E-20-5.84896E-19
 -1        17 8.10242E-05 7.96647E-09-3.45540E-05 6.41690E-06 5.93022E-20-4.25143E-19
 -1        18 8.12884E-05 1.77875E-08-3.46653E-05 9.16930E-06 4.39365E-20-1.73164E-19
 -1        19 8.18010E-05 3.79202E-08-3.48912E-05 1.22739E-05 6.06820E-20 1.35461E-19
 -1        20 8.28229E-05 8.14474E-08-3.53578E-05 1.58870E-05 6.52348E-20 6.44772E-19
 -1        21 8.50588E-05 1.69784E-07-3.63645E-05 2.04959E-05 9.23531E-20 1.49853E-18
 -1        22 9.15964E-05-9.83137E-08-3.87203E-05 2.80041E-05-1.00585E-20 2.81720E-18
 -1        23 1.12898E-04-3.81006E-05-3.53740E-05-4.40475E-06-1.83515E-19 1.64049E-18
 -1        24 9.27234E-05-2.76727E-05-2.89748E-05 3.90479E-07-3.14329E-21 9.15325E-19
 -1        25 8.90308E-05-2.68256E-05-2.69026E-05 3.75378E-07-2.22776E-20 2.56519E-19
 -1        26 8.79198E-05-2.64598E-05-2.63628E-05 2.03050E-07 1.20040E-20-3.98595E-19
 -1        27 8.79380E-05-2.64357E-05-2.63527E-05 1.38737E-07-3.79573E-20-9.73737E-19
 -1        28 8.84674E-05-2.65709E-05-2.65210E-05 9.96207E-08 1.91726E-20-1.22077E-18
 -1        29 8.92239E-05-2.67843E-05-2.67541E-05 7.36638E-08-2.43637E-20-1.31972E-18
 -1        30 9.00600E-05-2.70277E-05-2.70078E-05 5.51026E-08 1.49555E-19-1.21872E-18
 -1        31 9.08969E-05-2.72746E-05-2.72605E-05 4.11754E-08-5.64735E-20-1.42558E-18
 -1        32 9.16960E-05-2.75121E-05-2.75017E-05 3.04963E-08-1.93153E-19-2.11857E-18
 -1        33 9.24451E-05-2.77358E-05-2.77280E-05 2.23404E-08 3.93966E-19-2.16746E-18
 -1        34 9.31505E-05-2.79470E-05-2.79414E-05 1.63224E-08-2.85524E-20-1.60902E-18
 -1        35 9.38319E-05-2.81517E-05-2.81479E-05 1.22556E-08-1.18687E-19-2.55340E-18
 -1        36 9.45197E-05-2.83586E-05-2.83565E-05 1.00966E-08 2.62110E-19-1.88926E-18
 -1        37 9.52525E-05-2.85793E-05-2.85789E-05 9.92290E-09-3.92377E-19-2.34295E-18
 -1        38 9.60754E-05-2.88270E-05-2.88286E-05 1.19203E-08 1.12610E-20-3.20812E-18
 -1        39 9.70372E-05-2.91164E-05-2.91202E-05 1.63586E-08-5.20275E-20-3.81326E-18
 -1        40 9.81874E-05-2.94618E-05-2.94682E-05 2.35349E-08-1.16907E-19-4.38920E-18
 -1        41 9.95694E-05-2.98761E-05-2.98853E-05 3.36487E-08 3.08674E-19-4.39553E-18
 -1        42 1.01211E-04-3.03673E-05-3.03789E-05 4.65563E-08 1.90018E-19-3.25617E-18
 -1        43 1.03107E-04-3.09335E-05-3.09463E-05 6.13264E-08-1.38397E-19-1.33175E-18
 -1        44 1.05199E-04-3.15568E-05-3.15675E-05 7.55209E-08 9.72065E-21-1.55170E-18
 -1        45 1.07341E-04-3.21935E-05-3.21959E-05 8.41912E-08-5.46237E-20-9.94013E-19
 -1        46 1.09266E-04-3.27647E-05-3.27491E-05 7.88545E-08-1.94511E-19-1.82574E-18
 -1        47 1.10567E-04-3.31495E-05-3.31041E-05 4.73376E-08 2.63651E-19-1.15939E-18
 -1        48 1.10710E-04-3.31901E-05-3.31061E-05-2.36561E-08 6.21585E-20-1.09850E-20
 -1        49 1.09138E-04-3.27215E-05-3.26034E-05-1.40555E-07 3.15983E-22-1.17838E-18
 -1        50 1.05495E-04-3.16375E-05-3.15140E-05-2.88802E-07-9.17823E-20-1.42352E-18
 -1        51 9.99547E-05-2.99873E-05-2.99131E-05-4.20168E-07-7.90185E-20-9.22895E-19
 -1        52 9.34869E-05-2.80578E-05-2.80917E-05-4.59882E-07-1.81798E-20-3.40243E-19
 -1        53 8.77984E-05-2.63577E-05-2.65204E-05-3.48027E-07 3.66067E-19-1.55567E-18
 -1        54 8.47488E-05-2.54449E-05-2.56881E-05-9.50408E-08 3.68716E-19-1.44840E-18
 -1        55 8.54496E-05-2.56546E-05-2.58784E-05 2.00254E-07-3.92469E-19-2.29038E-18
 -1        56 8.96308E-05-2.69053E-05-2.70224E-05 4.08660E-07 9.14944E-21-1.39193E-18
 -1        57 9.57962E-05-2.87467E-05-2.87350E-05 4.60475E-07-7.56089E-20-8.89914E-20
 -1        58 1.02038E-04-3.06074E-05-3.05071E-05 3.77087E-07-2.45865E-19-1.29012E-18
 -1        59 1.06879E-04-3.20485E-05-3.19213E-05 2.31116E-07 1.09077E-19-2.42420E-18
 -1        60 1.09660E-04-3.28758E-05-3.27679E-05 9.02398E-08-5.35389E-19-4.48987E-19
 -1        61 1.10439E-04-3.31087E-05-3.30386E-05-1.08196E-08 6.22515E-19-2.03376E-19
 -1        62 1.09678E-04-3.28843E-05-3.28500E-05-6.71160E-08-3.75292E-19-1.86728E-19
 -1        63 1.07943E-04-3.23700E-05-3.23607E-05-8.89110E-08-5.33700E-19-4.31896E-18
 -1        64 1.05728E-04-3.17122E-05-3.17165E-05-8.96694E-08 1.96668E-19-4.73672E-18
 -1        65 1.03393E-04-3.10176E-05-3.10272E-05-8.02491E-08-3.12868E-19-1.84473E-18
 -1        66 1.01168E-04-3.03547E-05-3.03652E-05-6.74838E-08 5.34831E-19-2.00268E-18
 -1        67 9.91881E-05-2.97636E-05-2.97739E-05-5.46076E-08 2.75962E-20 1.73196E-18
 -1        68 9.75308E-05-2.92679E-05-2.92800E-05-4.18135E-08 2.29754E-19 2.42035E-18
 -1        69 9.62565E-05-2.88852E-05-2.89033E-05-2.60268E-08 3.93921E-19 3.73368E-18
 -1        70 9.54359E-05-2.86357E-05-2.86607E-05 3.43835E-09-3.34623E-19 4.07206E-18
 -1        71 9.51398E-05-2.85365E-05-2.85462E-05 4.28947E-08-4.62726E-19 1.85329E-18
 -1        72 1.02106E-04-3.05653E-05-3.41273E-05-1.92632E-06 1.85288E-21 5.12984E-18
 -1        73 9.24793E-05-2.74886E-05-2.88829E-05-3.32555E-07 5.02562E-20 4.53697E-18
 -1        74 8.90165E-05-2.66745E-05-2.69453E-05-1.25316E-07-1.96761E-20 4.17482E-18
 -1        75 8.79470E-05-2.64098E-05-2.64060E-05-9.47853E-08 5.01036E-20 3.93584E-18
 -1        76 8.79705E-05-2.64150E-05-2.63785E-05-7.54848E-08 5.25400E-20 3.27543E-18
 -1        77 8.84981E-05-2.65643E-05-2.65371E-05-6.10168E-08-2.45652E-20 3.18221E-18
 -1        78 8.92501E-05-2.67839E-05-2.67650E-05-4.97296E-08-7.94061E-20 3.84397E-18
 -1        79 9.00804E-05-2.70298E-05-2.70150E-05-4.02372E-08 1.66665E-19 3.99111E-18
 -1        80 9.09105E-05-2.72771E-05-2.72648E-05-3.18733E-08-1.42809E-20 3.44884E-18
 -1        81 9.17022E-05-2.75138E-05-2.75032E-05-2.43758E-08 7.11331E-20 2.65599E-18
 -1        82 9.24437E-05-2.77358E-05-2.77271E-05-1.76385E-08 1.11756E-19 1.39810E-18
 -1        83 9.31418E-05-2.79452E-05-2.79384E-05-1.16153E-08-2.17267E-20 1.08254E-18
 -1        84 9.38183E-05-2.81483E-05-2.81436E-05-6.29355E-09-1.85676E-19 1.56658E-18
 -1        85 9.45068E-05-2.83552E-05-2.83530E-05-1.70261E-09-7.08141E-20 2.48915E-18
 -1        86 9.52524E-05-2.85793E-05-2.85800E-05 2.05789E-09 2.62091E-19 4.94247E-19
 -1        87 9.61111E-05-2.88375E-05-2.88417E-05 4.76842E-09-2.55464E-19 1.62682E-19
 -1        88 9.71513E-05-2.91501E-05-2.91586E-05 6.01187E-09-5.04999E-20 1.18307E-18
 -1        89 9.84534E-05-2.95409E-05-2.95552E-05 5.05576E-09 2.36484E-19 7.08993E-20
 -1        90 1.00110E-04-3.00377E-05-3.00594E-05 6.83815E-10-9.85172E-22-1.03136E-18
 -1        91 1.02223E-04-3.06702E-05-3.07013E-05-9.01757E-09-2.18530E-19 5.58185E-19
 -1        92 1.04893E-04-3.14679E-05-3.15101E-05-2.68519E-08-4.91548E-20 2.32905E-18
 -1        93 1.08194E-04-3.24528E-05-3.25058E-05-5.64546E-08 2.73327E-19 1.52727E-18
 -1        94 1.12134E-04-3.36263E-05-3.36843E-05-1.01380E-07 7.25011E-20-9.97017E-19
 -1        95 1.16566E-04-3.49462E-05-3.49911E-05-1.62053E-07-2.88424E-19-1.04820E-19
 -1        96 1.21066E-04-3.62897E-05-3.62833E-05-2.28636E-07 2.43076E-19 2.05472E-18
 -1        97 1.24778E-04-3.74100E-05-3.72902E-05-2.68727E-07-1.95953E-19 2.42087E-18
 -1        98 1.26329E-04-3.79071E-05-3.76079E-05-2.15803E-07 4.81090E-19 8.24246E-19
 -1        99 1.24030E-04-3.72767E-05-3.67942E-05 1.69335E-08-4.21619E-19-1.41642E-18
 -1       100 1.16688E-04-3.51301E-05-3.46233E-05 4.57162E-07-1.62524E-19 2.65439E-19
 -1       101 1.05034E-04-3.16207E-05-3.14336E-05 9.39651E-07 6.25555E-20-1.34800E-18
 -1       102 9.28328E-05-2.78433E-05-2.82730E-05 1.09363E-06-1.35641E-19-1.62524E-18
 -1       103 8.57679E-05-2.55724E-05-2.65146E-05 6.49834E-07 1.76338E-19 1.24067E-18
 -1       104 8.77583E-05-2.61208E-05-2.70300E-05-1.87465E-07 5.54989E-20 1.55716E-18
 -1       105 9.76686E-05-2.91799E-05-2.95518E-05-8.43507E-07-2.59389E-19 2.89786E-18
 -1       106 1.10287E-04-3.30885E-05-3.28784E-05-9.79035E-07-5.94928E-19 4.49155E-18
 -1       107 1.20371E-04-3.61822E-05-3.56948E-05-7.11532E-07-8.46206E-21 1.88915E-18
 -1       108 1.25466E-04-3.77152E-05-3.72535E-05-3.38945E-07 3.40358E-19-3.15983E-18
 -1       109 1.25851E-04-3.78049E-05-3.75068E-05-5.30180E-08-4.08071E-19-2.68121E-18
 -1       110 1.23080E-04-3.69467E-05-3.68121E-05 1.02864E-07 4.78863E-20-1.81550E-18
 -1       111 1.18768E-04-3.56361E-05-3.56100E-05 1.60087E-07 3.18993E-19 5.02185E-19
 -1       112 1.14067E-04-3.42187E-05-3.42468E-05 1.62654E-07-7.68785E-19 1.00684E-18
 -1       113 1.09632E-04-3.28867E-05-3.29333E-05 1.42200E-07 1.59973E-19 1.45314E-18
 -1       114 1.05754E-04-3.17246E-05-3.17715E-05 1.16306E-07-4.57619E-19 2.34251E-19
 -1       115 1.02515E-04-3.07546E-05-3.07950E-05 9.29539E-08 1.91688E-19-8.75832E-19
 -1       116 9.98961E-05-2.99706E-05-3.00043E-05 7.46794E-08 8.22832E-19-4.84979E-18
 -1       117 9.78531E-05-2.93582E-05-2.93897E-05 6.12576E-08-1.18272E-19-9.16071E-18
 -1       118 9.63584E-05-2.89084E-05-2.89447E-05 4.90828E-08-4.01848E-19-8.01026E-18
 -1       119 9.54342E-05-2.86277E-05-2.86692E-05 2.48004E-08 2.66210E-19-8.00054E-18
 -1       120 9.51272E-05-2.85215E-05-2.85431E-05-3.42255E-08 1.24781E-18-7.91449E-18
 -1       121 9.52621E-05-2.86513E-05-2.85486E-05-5.38387E-08-9.94441E-18-1.73336E-18
 -1       122 9.51614E-05-2.83254E-05-2.86802E-05 9.63140E-09-8.88380E-18-3.06622E-19
 -1       123 9.48951E-05-2.74346E-05-2.89368E-05 4.64889E-08-5.02532E-18 3.63599E-19
 -1       124 9.45320E-05-2.62190E-05-2.92837E-05 6.01333E-08-2.19741E-18 1.49283E-18
 -1       125 9.41487E-05-2.49316E-05-2.96549E-05 5.77402E-08-2.40183E-18-1.03187E-18
 -1       126 9.38164E-05-2.38118E-05-2.99804E-05 4.61493E-08-9.42458E-18 8.19078E-20
 -1       127 9.35735E-05-2.29949E-05-3.02193E-05 2.76685E-08-4.03258E-18 1.63086E-18
 -1       128 9.34596E-05-2.26114E-05-3.03322E-05 6.35385E-09-1.82450E-18 2.33361E-19
 -1       129 9.34866E-05-2.27026E-05-3.03064E-05-1.47345E-08 1.24207E-18 2.86204E-21
 -1       130 9.36471E-05-2.32433E-05-3.01490E-05-3.29954E-08 3.72781E-18-3.79921E-19
 -1       131 9.39161E-05-2.41496E-05-2.98846E-05-4.67755E-08-1.51061E-18-1.29982E-18
 -1       132 9.42496E-05-2.52720E-05-2.95575E-05-5.30412E-08-5.83275E-18 1.92902E-18
 -1       133 9.46105E-05-2.64842E-05-2.92061E-05-5.15292E-08 9.04274E-19 9.48555E-19
 -1       134 9.49370E-05-2.75831E-05-2.88912E-05-4.19684E-08 1.73807E-18-5.11242E-19
 -1       135 9.51708E-05-2.83529E-05-2.86644E-05-1.02339E-08-8.48381E-20-9.13688E-19
 -1       136 9.52376E-05-2.86252E-05-2.85481E-05 8.16092E-08-2.95876E-18-9.02096E-19
 -1       137 2.67815E-05-9.05264E-05 1.61504E-05-2.39628E-05 6.93593E-18 1.69317E-18
 -1       138 8.58022E-06-3.86745E-05 4.30340E-06-2.08933E-05 6.62973E-18 3.97237E-18
 -1       139 1.10044E-05 1.13836E-05-1.38369E-05 1.95136E-05 9.77434E-18 6.70638E-18
 -1       140 6.06437E-05 2.42980E-05-3.53399E-05 7.70113E-05 4.38678E-18 4.29446E-18
 -1       141 1.54974E-04-7.50293E-06-5.65629E-05 1.12482E-04-7.73341E-19-2.24464E-19
 -1       142 2.52496E-04-5.97077E-05-7.16998E-05 9.54786E-05-4.33416E-19-2.09641E-19
 -1       143 3.11376E-04-9.54451E-05-7.93231E-05 2.93703E-05-2.36905E-20-6.94673E-19
 -1       144 2.97293E-04-8.66753E-05-7.75827E-05-5.67878E-05 2.05900E-19-9.52912E-20
 -1       145 2.20467E-04-4.13163E-05-6.72317E-05-1.06776E-04 2.53898E-19-1.75336E-19
 -1       146 1.16160E-04 8.57288E-06-4.89015E-05-1.03628E-04 2.07227E-18-3.23736E-18
 -1       147 3.67782E-05 2.70086E-05-2.81612E-05-5.88162E-05 4.60405E-18-5.54552E-18
 -1       148 6.45671E-06-6.72704E-08-8.35543E-06-5.52971E-06 6.99819E-18-3.70746E-18
 -1       149 1.28520E-05-5.47995E-05 8.55625E-06 2.59450E-05 8.39960E-18-3.37066E-18
 -1       150 3.11519E-05-9.97557E-05 1.79389E-05 1.92946E-05 5.66242E-18-1.60546E-18
 -1       151 3.52560E-05-1.08529E-04 1.96632E-05-6.17943E-06-2.76996E-18-5.67327E-19
 -1       152 2.22764E-05-7.76815E-05 1.34647E-05-2.38527E-05-4.44650E-18-4.38022E-19
 -1       153 6.21838E-06-2.53298E-05 8.89219E-07-1.38553E-05-5.93304E-18-2.80728E-18
 -1       154 1.45857E-05 1.89870E-05-1.73988E-05 3.00292E-05-6.76017E-18-4.86155E-18
 -1       155 6.29790E-05 2.60314E-05-3.64895E-05 8.08591E-05-5.41000E-18-6.51877E-18
 -1       156 1.50878E-04-5.52817E-06-5.58464E-05 1.12662E-04-2.08518E-18-3.30639E-18
 -1       157 2.44038E-04-5.65174E-05-7.01184E-05 9.38027E-05-1.26600E-18-1.66738E-18
 -1       158 3.00403E-04-9.03944E-05-7.77724E-05 2.70417E-05 3.72694E-20-2.24803E-18
 -1       159 2.15604E-04-3.96363E-05-6.62486E-05-1.06144E-04 1.68507E-18-3.75786E-18
 -1       160 1.18152E-04 8.87953E-06-4.94766E-05-1.06314E-04 2.24273E-18-4.43803E-18
 -1       161 4.37114E-05 2.85522E-05-3.07151E-05-6.66818E-05 1.73134E-18-2.63046E-18
 -1       162 7.20534E-06 6.54382E-06-1.04593E-05-1.19506E-05-1.23879E-18 1.21422E-18
 -1       163 1.00004E-05-4.16936E-05 5.24245E-06 2.08654E-05-5.92838E-18 2.17677E-18
 -1       164 2.74959E-05-9.04030E-05 1.60564E-05 2.21111E-05-2.27492E-18 1.04347E-18
 -1       165 9.48223E-05-1.23361E-05-3.55540E-05-2.23581E-05-4.68012E-19-4.35296E-19
 -1       166 8.92257E-05-8.45211E-06-3.47790E-05-1.74034E-05-3.79345E-19-8.42440E-19
 -1       167 8.65467E-05-6.50661E-06-3.44146E-05-1.35948E-05-1.70052E-19-9.33139E-19
 -1       168 8.52018E-05-5.51583E-06-3.42351E-05-1.03825E-05-5.88953E-22-9.76179E-19
 -1       169 8.44744E-05-4.94963E-06-3.41509E-05-7.55565E-06 8.93603E-20-9.06180E-19
 -1       170 8.40568E-05-4.60463E-06-3.41125E-05-4.90890E-06 1.66220E-19-8.02934E-19
 -1       171 8.38442E-05-4.42027E-06-3.40969E-05-2.39764E-06 2.67017E-19-7.05559E-19
 -1       172 8.37814E-05-4.36434E-06-3.40929E-05 5.14382E-08 3.82800E-19-5.72369E-19
 -1       173 8.38536E-05-4.42840E-06-3.40976E-05 2.50245E-06 4.80261E-19-4.57292E-19
 -1       174 8.40782E-05-4.62339E-06-3.41140E-05 5.02010E-06 5.69824E-19-3.96795E-19
 -1       175 8.45018E-05-4.97594E-06-3.41521E-05 7.63198E-06 5.91101E-19-2.09627E-19
 -1       176 8.52644E-05-5.57704E-06-3.42366E-05 1.05234E-05 7.33919E-19 8.74562E-20
 -1       177 8.66434E-05-6.60862E-06-3.44168E-05 1.37956E-05 7.64060E-19 4.16661E-19
 -1       178 8.93680E-05-8.59594E-06-3.47836E-05 1.76348E-05 7.34153E-19 1.01373E-18
 -1       179 9.57335E-05-1.36030E-05-3.54103E-05 2.19029E-05 6.12564E-19 1.89762E-18
 -1       180 1.05541E-04-2.60826E-05-3.52437E-05 1.86695E-05 3.16082E-19 2.93650E-18
 -1       181 1.03337E-04-2.72830E-05-3.25921E-05-1.21350E-05-4.57980E-19 1.78936E-19
 -1       182 9.70434E-05-2.82698E-05-2.95097E-05-4.73833E-06-3.77036E-19-7.33808E-20
 -1       183 9.34409E-05-2.76173E-05-2.81621E-05-1.77572E-06-3.16271E-19-2.10911E-19
 -1       184 9.19029E-05-2.73841E-05-2.76154E-05-4.28581E-07-3.62666E-19-3.78988E-19
 -1       185 9.13276E-05-2.73087E-05-2.74183E-05 2.40624E-07-1.18644E-19-3.73905E-19
 -1       186 9.12920E-05-2.73488E-05-2.73954E-05 5.73638E-07-5.19469E-20-4.38459E-19
 -1       187 9.15505E-05-2.74547E-05-2.74654E-05 7.23751E-07 4.13594E-20-2.14448E-19
 -1       188 9.19621E-05-2.75933E-05-2.75845E-05 7.72316E-07-1.20077E-19-3.27839E-19
 -1       189 9.24459E-05-2.77452E-05-2.77278E-05 7.67671E-07-3.56331E-19-5.46032E-20
 -1       190 9.29584E-05-2.78998E-05-2.78817E-05 7.41168E-07-1.20659E-19-6.98725E-20
 -1       191 9.34804E-05-2.80530E-05-2.80399E-05 7.14512E-07 1.12088E-20-7.53053E-19
 -1       192 9.40100E-05-2.82053E-05-2.82015E-05 7.03482E-07-3.70117E-19-9.11559E-19
 -1       193 9.45579E-05-2.83605E-05-2.83695E-05 7.19988E-07 2.02988E-20-8.53785E-19
 -1       194 9.51436E-05-2.85250E-05-2.85497E-05 7.73172E-07-1.54975E-19-1.33851E-18
 -1       195 9.57936E-05-2.87074E-05-2.87497E-05 8.69780E-07-7.89645E-19-1.04025E-18
 -1       196 9.65385E-05-2.89176E-05-2.89785E-05 1.01379E-06-3.22727E-19-1.80840E-18
 -1       197 9.74102E-05-2.91663E-05-2.92452E-05 1.20519E-06-4.02421E-19-1.76594E-18
 -1       198 9.84380E-05-2.94643E-05-2.95579E-05 1.43758E-06 1.86819E-20-1.55942E-18
 -1       199 9.96424E-05-2.98213E-05-2.99215E-05 1.69444E-06 1.29024E-19-1.94737E-18
 -1       200 1.01027E-04-3.02433E-05-3.03350E-05 1.94378E-06 4.13497E-19-2.48657E-18
 -1       201 1.02566E-04-3.07298E-05-3.07878E-05 2.13152E-06 1.70379E-21-2.09462E-18
 -1       202 1.04190E-04-3.12688E-05-3.12551E-05 2.17522E-06 2.03455E-19-2.14184E-18
 -1       203 1.05766E-04-3.18296E-05-3.16933E-05 1.96233E-06-7.81632E-20-1.53471E-18
 -1       204 1.07087E-04-3.23533E-05-3.20381E-05 1.36135E-06 3.52981E-19-9.23808E-19
 -1       205 1.07870E-04-3.27427E-05-3.22086E-05 2.59141E-07 5.13830E-19-8.77857E-19
 -1       206 1.07785E-04-3.28583E-05-3.21221E-05-1.36275E-06-5.07434E-19-8.53699E-19
 -1       207 1.06541E-04-3.25355E-05-3.17240E-05-3.31624E-06-3.45161E-19-1.19428E-18
 -1       208 1.04043E-04-3.16496E-05-3.10269E-05-5.11243E-06 4.04306E-19-8.80835E-19
 -1       209 1.00579E-04-3.02374E-05-3.01413E-05-6.00792E-06-4.86261E-19-3.65627E-19
 -1       210 9.69391E-05-2.86153E-05-2.92722E-05-5.30670E-06-7.75252E-19-1.18144E-18
 -1       211 9.42555E-05-2.73508E-05-2.86624E-05-2.85360E-06-3.81393E-19-1.39382E-18
 -1       212 9.35215E-05-2.69975E-05-2.84992E-05 6.53131E-07 3.54596E-20-2.47722E-18
 -1       213 9.50276E-05-2.77265E-05-2.88328E-05 3.90331E-06 5.46899E-20-1.53512E-18
 -1       214 9.81697E-05-2.91894E-05-2.95550E-05 5.73777E-06 7.87046E-19-1.88451E-18
 -1       215 1.01827E-04-3.07798E-05-3.04461E-05 5.77888E-06-2.23986E-19-2.44719E-18
 -1       216 1.04951E-04-3.20036E-05-3.12672E-05 4.44268E-06-5.11454E-19-1.69157E-18
 -1       217 1.06937E-04-3.26570E-05-3.18434E-05 2.49578E-06 7.40424E-19-2.22724E-18
 -1       218 1.07657E-04-3.27790E-05-3.21020E-05 6.06268E-07 2.90329E-19-1.96234E-19
 -1       219 1.07299E-04-3.25192E-05-3.20594E-05-8.53528E-07-5.02166E-19-9.59308E-19
 -1       220 1.06182E-04-3.20368E-05-3.17849E-05-1.78373E-06-2.12550E-18-2.15357E-18
 -1       221 1.04626E-04-3.14562E-05-3.13637E-05-2.24652E-06-4.50153E-19-2.21392E-18
 -1       222 1.02893E-04-3.08603E-05-3.08731E-05-2.36419E-06 2.19996E-18-2.85221E-18
 -1       223 1.01168E-04-3.02976E-05-3.03726E-05-2.25692E-06 8.46827E-19 6.90614E-19
 -1       224 9.95724E-05-2.97936E-05-2.99030E-05-2.01550E-06 1.07614E-18 1.60765E-18
 -1       225 9.81793E-05-2.93597E-05-2.94908E-05-1.69483E-06 1.19148E-18 7.12874E-19
 -1       226 9.70318E-05-2.89998E-05-2.91531E-05-1.31697E-06 4.37786E-19-3.22994E-19
 -1       227 9.61566E-05-2.87160E-05-2.88998E-05-8.82029E-07 8.38186E-20-8.22407E-19
 -1       228 9.55477E-05-2.85130E-05-2.87266E-05-3.97670E-07-7.58365E-19 2.61078E-19
 -1       229 9.94352E-05-2.85347E-05-3.05675E-05 7.21893E-06 3.83693E-19 2.57768E-18
 -1       230 9.43465E-05-2.77697E-05-2.85035E-05 2.75126E-06 1.95519E-19 2.18610E-18
 -1       231 9.20225E-05-2.73787E-05-2.76594E-05 9.36601E-07 3.57852E-19 1.71565E-18
 -1       232 9.10717E-05-2.72152E-05-2.73400E-05 7.27433E-08 2.76139E-19 1.54793E-18
 -1       233 9.08615E-05-2.72081E-05-2.72664E-05-3.58803E-07-1.52790E-19 1.57455E-18
 -1       234 9.10528E-05-2.72956E-05-2.73176E-05-5.66139E-07-2.96833E-19 1.63787E-18
 -1       235 9.14539E-05-2.74328E-05-2.74338E-05-6.49991E-07 5.08616E-20 1.63657E-18
 -1       236 9.19555E-05-2.75921E-05-2.75821E-05-6.66102E-07 4.10875E-19 1.33946E-18
 -1       237 9.24966E-05-2.77579E-05-2.77438E-05-6.48993E-07 4.32974E-19 6.78364E-19
 -1       238 9.30476E-05-2.79226E-05-2.79097E-05-6.21890E-07 3.95089E-19 1.08042E-18
 -1       239 9.36002E-05-2.80849E-05-2.80772E-05-6.01560E-07 1.54442E-19 8.59394E-19
 -1       240 9.41621E-05-2.82475E-05-2.82483E-05-6.01025E-07-2.09453E-19 3.08954E-19
 -1       241 9.47532E-05-2.84168E-05-2.84290E-05-6.31274E-07 1.39551E-19-2.31207E-19
 -1       242 9.54044E-05-2.86018E-05-2.86286E-05-7.02427E-07 7.46922E-19-8.56824E-20
 -1       243 9.61557E-05-2.88145E-05-2.88591E-05-8.24487E-07-4.64600E-20 2.38802E-19
 -1       244 9.70564E-05-2.90697E-05-2.91355E-05-1.00766E-06-1.49360E-19-4.75847E-19
 -1       245 9.81642E-05-2.93844E-05-2.94751E-05-1.26207E-06 4.13917E-19-6.09669E-19
 -1       246 9.95433E-05-2.97785E-05-2.98972E-05-1.59633E-06 1.42159E-19 2.78194E-19
 -1       247 1.01261E-04-3.02734E-05-3.04217E-05-2.01418E-06-9.16755E-19 5.50870E-19
 -1       248 1.03380E-04-3.08913E-05-3.10657E-05-2.50767E-06-6.37280E-19 4.64759E-19
 -1       249 1.05939E-04-3.16516E-05-3.18387E-05-3.04460E-06 7.82997E-19 8.36782E-19
 -1       250 1.08931E-04-3.25656E-05-3.27319E-05-3.54767E-06 9.30060E-19-4.97781E-20
 -1       251 1.12252E-04-3.36249E-05-3.37034E-05-3.86455E-06-5.02312E-19-1.15505E-18
 -1       252 1.15637E-04-3.47828E-05-3.46586E-05-3.73620E-06-6.31392E-19-1.00231E-18
 -1       253 1.18595E-04-3.59198E-05-3.54340E-05-2.79327E-06-3.91723E-19-3.23980E-19
 -1       254 1.20366E-04-3.67949E-05-3.58049E-05-6.50326E-07 6.27953E-19 4.81030E-19
 -1       255 1.20012E-04-3.70021E-05-3.55475E-05 2.79706E-06 5.70338E-19 1.46013E-18
 -1       256 1.16785E-04-3.60304E-05-3.45767E-05 6.84948E-06-5.68574E-19 2.88382E-19
 -1       257 1.10851E-04-3.36145E-05-3.31003E-05 9.61599E-06 1.04633E-18 1.82337E-19
 -1       258 1.04074E-04-3.04021E-05-3.16349E-05 8.68765E-06-4.40292E-19-8.59533E-19
 -1       259 9.97095E-05-2.80958E-05-3.07966E-05 3.31384E-06-1.72260E-18-2.40832E-19
 -1       260 1.00380E-04-2.83449E-05-3.09584E-05-3.98512E-06-1.73906E-19 1.81831E-18
 -1       261 1.05679E-04-3.09710E-05-3.20377E-05-8.95933E-06-4.64426E-19 2.04352E-18
 -1       262 1.12560E-04-3.41801E-05-3.35576E-05-9.41373E-06-9.20867E-19 2.22674E-18
 -1       263 1.17915E-04-3.63607E-05-3.49108E-05-6.40796E-06 2.04113E-18 9.76278E-19
 -1       264 1.20334E-04-3.70655E-05-3.56654E-05-2.35858E-06 1.82650E-18 3.91008E-21
 -1       265 1.19981E-04-3.66536E-05-3.57121E-05 9.79178E-07-1.10205E-18-4.84556E-19
 -1       266 1.17727E-04-3.56487E-05-3.51871E-05 3.01012E-06-6.65462E-19-4.63324E-19
 -1       267 1.14491E-04-3.44404E-05-3.43189E-05 3.88013E-06-1.01637E-18 2.47465E-18
 -1       268 1.10965E-04-3.32467E-05-3.33158E-05 3.97726E-06 4.22497E-19 2.90124E-18
 -1       269 1.07576E-04-3.21682E-05-3.23213E-05 3.65688E-06 1.03298E-18-3.29234E-20
 -1       270 1.04544E-04-3.12402E-05-3.14160E-05 3.16119E-06-7.41691E-20-2.40070E-18
 -1       271 1.01953E-04-3.04657E-05-3.06354E-05 2.62643E-06 1.68310E-18-3.19900E-18
 -1       272 9.98151E-05-2.98336E-05-2.99890E-05 2.11261E-06 2.09445E-18-4.39440E-18
 -1       273 9.81128E-05-2.93298E-05-2.94755E-05 1.63236E-06 9.10449E-19-3.36253E-18
 -1       274 9.68230E-05-2.89404E-05-2.90911E-05 1.16750E-06-5.48553E-19-1.90237E-18
 -1       275 9.59300E-05-2.86577E-05-2.88296E-05 6.84332E-07 6.69430E-19-4.16303E-18
 -1       276 9.54089E-05-2.85135E-05-2.86643E-05 1.96438E-07-1.37157E-18-5.14574E-18
 -1       277 9.52931E-05-2.82008E-05-2.87508E-05 4.75724E-07-6.20929E-19 9.97341E-19
 -1       278 9.50583E-05-2.75577E-05-2.89279E-05 9.53031E-07-1.65798E-18 1.24350E-18
 -1       279 9.47290E-05-2.67010E-05-2.91546E-05 1.25016E-06-2.24654E-18 7.78006E-19
 -1       280 9.43793E-05-2.57606E-05-2.94086E-05 1.30822E-06-3.33097E-18-7.90783E-20
 -1       281 9.40628E-05-2.48891E-05-2.96478E-05 1.15304E-06-2.50925E-18-3.51133E-18
 -1       282 9.38111E-05-2.41827E-05-2.98439E-05 8.24408E-07-1.77019E-18 1.49519E-18
 -1       283 9.36620E-05-2.37549E-05-2.99641E-05 3.85291E-07-3.42232E-19 1.99904E-18
 -1       284 9.36310E-05-2.36574E-05-2.99928E-05-9.54586E-08 9.73079E-19 1.68451E-18
 -1       285 9.37181E-05-2.38955E-05-2.99276E-05-5.50927E-07 1.33234E-18-7.91140E-20
 -1       286 9.39090E-05-2.44301E-05-2.97794E-05-9.22277E-07 9.26368E-20-2.24291E-18
 -1       287 9.41719E-05-2.51708E-05-2.95733E-05-1.15980E-06 1.21368E-18-2.36383E-18
 -1       288 9.44830E-05-2.60430E-05-2.93315E-05-1.23810E-06 6.55213E-19 3.62065E-18
 -1       289 9.47995E-05-2.69191E-05-2.90909E-05-1.13189E-06 2.66030E-19-3.31997E-19
 -1       290 9.50856E-05-2.76810E-05-2.88850E-05-8.35448E-07-5.42109E-19-1.60138E-18
 -1       291 9.53402E-05-2.81340E-05-2.87996E-05-6.90842E-07-6.57840E-19-2.27351E-18
 -1       292 1.19935E-05-4.68148E-05 1.16950E-05 5.84957E-06 1.17976E-18 3.13032E-18
 -1       293 2.53480E-05-4.34577E-05 4.94464E-06 2.01928E-05 3.69222E-18 1.87565E-18
 -1       294 5.05887E-05-3.69935E-05-7.83378E-06 3.24226E-05 3.18993E-18 3.25197E-18
 -1       295 9.75268E-05-3.90955E-05-2.54285E-05 4.21704E-05 2.62030E-18-7.97693E-19
 -1       296 1.40691E-04-3.75034E-05-4.34196E-05 3.84885E-05 2.67408E-18-1.60089E-19
 -1       297 1.78510E-04-3.44136E-05-5.93659E-05 3.37850E-05 1.02729E-19 7.10449E-19
 -1       298 2.08654E-04-3.73416E-05-6.96736E-05 1.95579E-05 5.85617E-19-5.85935E-19
 -1       299 2.16760E-04-3.82231E-05-7.24230E-05-4.21636E-06-3.28649E-19-1.02303E-18
 -1       300 1.97138E-04-3.50745E-05-6.64419E-05-2.30704E-05 5.26643E-19-1.83171E-19
 -1       301 1.64390E-04-3.69497E-05-5.32422E-05-2.86626E-05 1.22624E-18-7.87741E-20
 -1       302 1.20235E-04-3.17294E-05-3.74106E-05-4.62755E-05 1.95686E-18-2.52204E-19
 -1       303 7.68954E-05-3.33043E-05-1.97107E-05-4.04907E-05 2.00366E-18-1.41031E-18
 -1       304 4.51818E-05-4.01428E-05-4.12648E-06-3.14494E-05 2.38249E-18-7.41485E-19
 -1       305 2.00144E-05-4.57815E-05 7.87442E-06-1.48475E-05 1.59920E-18-2.11928E-18
 -1       306 1.07940E-05-4.66992E-05 1.22194E-05-2.37231E-06 1.59851E-19-3.98995E-18
 -1       307 1.37724E-05-4.33477E-05 9.92860E-06 1.28189E-05-1.37833E-18-1.68200E-18
 -1       308 2.92657E-05-4.13831E-05 2.58665E-06 2.38053E-05-2.43945E-18-1.68170E-18
 -1       309 5.76999E-05-3.54671E-05-1.10072E-05 3.72922E-05-2.08116E-18-2.66937E-18
 -1       310 9.23759E-05-2.94881E-05-2.71847E-05 4.56363E-05-2.40409E-18-1.88592E-18
 -1       311 1.38225E-04-3.48523E-05-4.34330E-05 3.97501E-05-2.48001E-18 4.10811E-19
 -1       312 1.74494E-04-3.17463E-05-5.87070E-05 3.90644E-05-1.52405E-18-9.02302E-19
 -1       313 1.92550E-04-3.03166E-05-6.70539E-05 1.53044E-05-4.80056E-19-1.20088E-18
 -1       314 1.94507E-04-2.76365E-05-6.91324E-05-3.24054E-06-3.35107E-19-7.71409E-19
 -1       315 1.91725E-04-3.29361E-05-6.53345E-05-2.53410E-05 7.44383E-19 7.22096E-20
 -1       316 1.61302E-04-3.18468E-05-5.37095E-05-3.74202E-05 1.59709E-18-1.19283E-18
 -1       317 1.20797E-04-2.88057E-05-3.86836E-05-4.77928E-05-3.33519E-19-2.04071E-18
 -1       318 8.43066E-05-3.47742E-05-2.17940E-05-4.31319E-05-9.76205E-19-1.61042E-18
 -1       319 4.58704E-05-3.63848E-05-6.00206E-06-3.24369E-05-1.09860E-18-1.39427E-18
 -1       320 2.36913E-05-4.37642E-05 5.63322E-06-1.96887E-05-6.09017E-19 1.96935E-18
 -1       321 1.26182E-05-4.86650E-05 1.19965E-05-7.31895E-06-3.41460E-20 1.36256E-18
 -1       322 9.16359E-05-1.43909E-05-3.31680E-05-1.30761E-05-3.11215E-19-6.61943E-19
 -1       323 9.56721E-05-1.90998E-05-3.28796E-05-1.46412E-05-4.98661E-19-4.93886E-19
 -1       324 8.80282E-05-1.03804E-05-3.33309E-05-8.16062E-06 4.33889E-20-6.91702E-19
 -1       325 8.72235E-05-9.45849E-06-3.33759E-05-5.72127E-06 9.14676E-20-7.05797E-19
 -1       326 8.67718E-05-8.92922E-06-3.34061E-05-3.36867E-06 2.68089E-19-5.73438E-19
 -1       327 8.65701E-05-8.68896E-06-3.34212E-05-1.07266E-06 4.24802E-19-4.75579E-19
 -1       328 8.65782E-05-8.69820E-06-3.34207E-05 1.20429E-06 5.16510E-19-2.31806E-19
 -1       329 8.67983E-05-8.95937E-06-3.34047E-05 3.50204E-06 6.55890E-19-2.27068E-19
 -1       330 8.72629E-05-9.50328E-06-3.33743E-05 5.81875E-06 7.53499E-19-1.85599E-19
 -1       331 8.80903E-05-1.04537E-05-3.33282E-05 8.26025E-06 8.06646E-19 7.60708E-20
 -1       332 8.94890E-05-1.20341E-05-3.32616E-05 1.07717E-05 8.93476E-19 3.67619E-19
 -1       333 9.18886E-05-1.47185E-05-3.31540E-05 1.31788E-05 8.97160E-19 7.11064E-19
 -1       334 9.57683E-05-1.94471E-05-3.28169E-05 1.43862E-05 7.33980E-19 1.21895E-18
 -1       335 9.87403E-05-2.44292E-05-3.19358E-05 1.19079E-05 5.62668E-19 1.71171E-18
 -1       336 9.63379E-05-2.67964E-05-2.97740E-05 5.75120E-06 4.38512E-19 1.24528E-18
 -1       337 9.63914E-05-2.60119E-05-3.01189E-05-6.35601E-06-2.94840E-19-3.70762E-19
 -1       338 9.48876E-05-2.70270E-05-2.90591E-05-2.84305E-06-2.83112E-19-3.81007E-19
 -1       339 9.39050E-05-2.74092E-05-2.84838E-05-9.21608E-07-3.18500E-19-2.32781E-19
 -1       340 9.33922E-05-2.76208E-05-2.81808E-05 1.48746E-07-3.74334E-20-3.23602E-19
 -1       341 9.32132E-05-2.77732E-05-2.80427E-05 7.31735E-07 1.15675E-19-1.35129E-19
 -1       342 9.32519E-05-2.79021E-05-2.80059E-05 1.02781E-06 6.45636E-20-1.87760E-19
 -1       343 9.34258E-05-2.80175E-05-2.80318E-05 1.15779E-06-6.04163E-20-2.54416E-19
 -1       344 9.36804E-05-2.81217E-05-2.80966E-05 1.19885E-06-4.07696E-19-1.03727E-19
 -1       345 9.39836E-05-2.82157E-05-2.81863E-05 1.20327E-06-3.27395E-19-4.32847E-19
 -1       346 9.43194E-05-2.83016E-05-2.82933E-05 1.20808E-06-2.18685E-19-5.08356E-19
 -1       347 9.46841E-05-2.83828E-05-2.84146E-05 1.24038E-06-2.24750E-19-6.51904E-19
 -1       348 9.50832E-05-2.84639E-05-2.85505E-05 1.32047E-06-6.27703E-20-5.73433E-19
 -1       349 9.55288E-05-2.85515E-05-2.87036E-05 1.46331E-06-1.51781E-19-6.36261E-19
 -1       350 9.60379E-05-2.86536E-05-2.88776E-05 1.67879E-06-5.44094E-19-5.25457E-19
 -1       351 9.66309E-05-2.87808E-05-2.90768E-05 1.97067E-06-2.58750E-19-2.35909E-19
 -1       352 9.73292E-05-2.89463E-05-2.93049E-05 2.33397E-06-3.83703E-19-2.31712E-19
 -1       353 9.81539E-05-2.91669E-05-2.95637E-05 2.75054E-06-1.61083E-19-2.66822E-19
 -1       354 9.91221E-05-2.94641E-05-2.98516E-05 3.18257E-06-1.53901E-19-1.27845E-18
 -1       355 1.00244E-04-2.98637E-05-3.01621E-05 3.56411E-06 2.07658E-19-1.76054E-18
 -1       356 1.01517E-04-3.03945E-05-3.04819E-05 3.79189E-06 3.31436E-19-1.76420E-18
 -1       357 1.02916E-04-3.10813E-05-3.07901E-05 3.71892E-06 9.29284E-19-7.40523E-19
 -1       358 1.04384E-04-3.19281E-05-3.10595E-05 3.15877E-06 2.25543E-19-5.79326E-20
 -1       359 1.05803E-04-3.28859E-05-3.12613E-05 1.91481E-06 2.94073E-19-5.41196E-19
 -1       360 1.06975E-04-3.38028E-05-3.13736E-05-1.45191E-07 5.16880E-20-1.69478E-18
 -1       361 1.07597E-04-3.43767E-05-3.13941E-05-2.95350E-06-1.21302E-19-9.34738E-19
 -1       362 1.07292E-04-3.41671E-05-3.13492E-05-6.05830E-06-3.26446E-19-2.89612E-19
 -1       363 1.05788E-04-3.27898E-05-3.12874E-05-8.50276E-06-1.43461E-19-1.27790E-18
 -1       364 1.03238E-04-3.02954E-05-3.12538E-05-9.01741E-06-7.00611E-19-1.20117E-18
 -1       365 1.00496E-04-2.75235E-05-3.12600E-05-6.68790E-06-1.11396E-18-1.20487E-18
 -1       366 9.88484E-05-2.58296E-05-3.12768E-05-1.83108E-06-2.32987E-19-8.10239E-19
 -1       367 9.92335E-05-2.62386E-05-3.12673E-05 3.76828E-06 3.73551E-19-2.19272E-19
 -1       368 1.01414E-04-2.84915E-05-3.12404E-05 7.82535E-06 1.18803E-19-7.80533E-19
 -1       369 1.04203E-04-3.13086E-05-3.12361E-05 9.04245E-06 8.08543E-19 1.31367E-19
 -1       370 1.06391E-04-3.34327E-05-3.12733E-05 7.64676E-06 3.56235E-19 4.95098E-19
 -1       371 1.07401E-04-3.43415E-05-3.13233E-05 4.79411E-06 2.10037E-19 1.68169E-18
 -1       372 1.07278E-04-3.41974E-05-3.13349E-05 1.68742E-06 1.07047E-18 7.72937E-19
 -1       373 1.06360E-04-3.34390E-05-3.12653E-05-9.05360E-07-2.67014E-21-6.82020E-19
 -1       374 1.05007E-04-3.24631E-05-3.11000E-05-2.69185E-06-7.73949E-19 2.73374E-19
 -1       375 1.03484E-04-3.15128E-05-3.08509E-05-3.69374E-06-1.48190E-18 1.23730E-18
 -1       376 1.01960E-04-3.06946E-05-3.05448E-05-4.07409E-06 2.74573E-19 7.74437E-19
 -1       377 1.00528E-04-3.00312E-05-3.02131E-05-4.02277E-06 2.67096E-18-6.05651E-19
 -1       378 9.92386E-05-2.95055E-05-2.98839E-05-3.69996E-06 2.08410E-18-5.53131E-19
 -1       379 9.81124E-05-2.90868E-05-2.95796E-05-3.21726E-06 7.91534E-19 8.14987E-20
 -1       380 9.71549E-05-2.87435E-05-2.93156E-05-2.63905E-06-1.43099E-18 1.16039E-18
 -1       381 9.63642E-05-2.84514E-05-2.91010E-05-1.99344E-06-6.52960E-19-8.72633E-19
 -1       382 9.58010E-05-2.82635E-05-2.89408E-05-1.34394E-06-1.21617E-18-2.05569E-18
 -1       383 9.43170E-05-2.73243E-05-2.86729E-05 2.47732E-06 5.51739E-19 1.03105E-18
 -1       384 9.31114E-05-2.74432E-05-2.81216E-05 7.48563E-07 3.08409E-19 1.00635E-18
 -1       385 9.25618E-05-2.75203E-05-2.78649E-05-1.79744E-07-1.41694E-19 8.40181E-19
 -1       386 9.24300E-05-2.76132E-05-2.77744E-05-6.67717E-07-1.65362E-19 8.99387E-19
 -1       387 9.25516E-05-2.77243E-05-2.77813E-05-9.05372E-07 3.82971E-20 4.52076E-19
 -1       388 9.28194E-05-2.78449E-05-2.78456E-05-1.00049E-06 6.70159E-19 4.65396E-19
 -1       389 9.31678E-05-2.79672E-05-2.79430E-05-1.02009E-06 6.91321E-19 5.93052E-19
 -1       390 9.35595E-05-2.80868E-05-2.80597E-05-1.00900E-06 1.38421E-19 7.09771E-19
 -1       391 9.39780E-05-2.82028E-05-2.81893E-05-9.99176E-07 4.29282E-19 7.81553E-19
 -1       392 9.44216E-05-2.83170E-05-2.83302E-05-1.01498E-06 2.99200E-19 2.78070E-19
 -1       393 9.49004E-05-2.84336E-05-2.84850E-05-1.07636E-06 5.83306E-19-5.67856E-19
 -1       394 9.54338E-05-2.85588E-05-2.86594E-05-1.20096E-06 3.17585E-19-3.28374E-19
 -1       395 9.60490E-05-2.87008E-05-2.88615E-05-1.40544E-06 1.18439E-19-1.36133E-19
 -1       396 9.67802E-05-2.88697E-05-2.91017E-05-1.70598E-06 4.07409E-20-6.11291E-19
 -1       397 9.76674E-05-2.90779E-05-2.93919E-05-2.11779E-06 3.61431E-19-2.65653E-20
 -1       398 9.87553E-05-2.93407E-05-2.97446E-05-2.65289E-06-9.93233E-20 1.37803E-19
 -1       399 1.00091E-04-2.96777E-05-3.01718E-05-3.31505E-06-4.67922E-19-1.59675E-19
 -1       400 1.01719E-04-3.01143E-05-3.06823E-05-4.08999E-06-3.49942E-19-1.01343E-18
 -1       401 1.03677E-04-3.06855E-05-3.12776E-05-4.92809E-06 2.67629E-19-1.05234E-18
 -1       402 1.05984E-04-3.14393E-05-3.19460E-05-5.71669E-06 1.46226E-18-5.26554E-19
 -1       403 1.08625E-04-3.24383E-05-3.26548E-05-6.24149E-06 2.94472E-19-1.16314E-18
 -1       404 1.11527E-04-3.37489E-05-3.33439E-05-6.14608E-06-1.12725E-18-2.16960E-18
 -1       405 1.14511E-04-3.53917E-05-3.39267E-05-4.92440E-06-6.56578E-19-1.30068E-18
 -1       406 1.17215E-04-3.72168E-05-3.43095E-05-2.02846E-06-3.92960E-19-7.92915E-19
 -1       407 1.18985E-04-3.86855E-05-3.44386E-05 2.77378E-06 5.89049E-19 1.81689E-18
 -1       408 1.18858E-04-3.87175E-05-3.43642E-05 8.70765E-06-6.59031E-20 1.57461E-18
 -1       409 1.16007E-04-3.61252E-05-3.42586E-05 1.32911E-05 1.08493E-18 2.42003E-18
 -1       410 1.11032E-04-3.11560E-05-3.42752E-05 1.28484E-05 7.07325E-19 2.64530E-18
 -1       411 1.06783E-04-2.66884E-05-3.43802E-05 5.70800E-06-1.47848E-18 1.11817E-19
 -1       412 1.06718E-04-2.65324E-05-3.44124E-05-4.95985E-06-9.41795E-19-7.78939E-19
 -1       413 1.10863E-04-3.07874E-05-3.43368E-05-1.25671E-05-7.83115E-19 1.76972E-18
 -1       414 1.15923E-04-3.58727E-05-3.43097E-05-1.34139E-05-5.90969E-19 1.76311E-18
 -1       415 1.18862E-04-3.86619E-05-3.43858E-05-9.01690E-06 1.79133E-18 1.36572E-18
 -1       416 1.19005E-04-3.87515E-05-3.44216E-05-3.03898E-06 1.39290E-18 2.39424E-18
 -1       417 1.17176E-04-3.73042E-05-3.42617E-05 1.91238E-06-2.84868E-19 2.89712E-18
 -1       418 1.14372E-04-3.54363E-05-3.38536E-05 4.95969E-06-9.38790E-19 2.20678E-18
 -1       419 1.11282E-04-3.37369E-05-3.32473E-05 6.29857E-06-2.22046E-18 9.94982E-19
 -1       420 1.08276E-04-3.23730E-05-3.25343E-05 6.47586E-06 5.56255E-19 1.29707E-18
 -1       421 1.05530E-04-3.13255E-05-3.18004E-05 6.00239E-06 1.59546E-18 3.07351E-20
 -1       422 1.03118E-04-3.05253E-05-3.11065E-05 5.23719E-06 1.27709E-18 7.63168E-19
 -1       423 1.01059E-04-2.99062E-05-3.04882E-05 4.39102E-06 3.01330E-18-2.28534E-18
 -1       424 9.93435E-05-2.94170E-05-2.99621E-05 3.56409E-06 1.26366E-18-3.23279E-18
 -1       425 9.79501E-05-2.90240E-05-2.95338E-05 2.78552E-06-2.09365E-19-1.60546E-18
 -1       426 9.68501E-05-2.86987E-05-2.92026E-05 2.04350E-06-9.73836E-19 1.29978E-19
 -1       427 9.60151E-05-2.84327E-05-2.89597E-05 1.31050E-06 8.33625E-19 1.44922E-18
 -1       428 9.56023E-05-2.82786E-05-2.88501E-05 8.92415E-07 8.18971E-21 1.66188E-18
 -1       429 9.46024E-05-2.62871E-05-2.92775E-05 2.26882E-06-3.64701E-18 1.00987E-19
 -1       430 9.51206E-05-2.71524E-05-2.91261E-05 2.03623E-06-9.60161E-19-1.32871E-19
 -1       431 9.54288E-05-2.77716E-05-2.89917E-05 1.52122E-06-6.84065E-19-3.55465E-19
 -1       432 9.41285E-05-2.54787E-05-2.94225E-05 2.14664E-06-3.91112E-18-3.98061E-18
 -1       433 9.37331E-05-2.47893E-05-2.95501E-05 1.70566E-06-6.03147E-19 2.78972E-18
 -1       434 9.34714E-05-2.43181E-05-2.96408E-05 1.03172E-06 2.64147E-18 3.66660E-18
 -1       435 9.33659E-05-2.41167E-05-2.96824E-05 2.32935E-07 1.69376E-18 1.28753E-18
 -1       436 9.34199E-05-2.42011E-05-2.96692E-05-5.76671E-07 8.78485E-19-1.56188E-19
 -1       437 9.36190E-05-2.45522E-05-2.96033E-05-1.29058E-06 9.50264E-19-2.13484E-18
 -1       438 9.39275E-05-2.51083E-05-2.94960E-05-1.81362E-06 1.55469E-18-2.03252E-18
 -1       439 9.43206E-05-2.58197E-05-2.93582E-05-2.10095E-06 2.54007E-18 2.60628E-18
 -1       440 9.47535E-05-2.65984E-05-2.92084E-05-2.10494E-06 1.10033E-18 1.00328E-18
 -1       441 9.51867E-05-2.73686E-05-2.90620E-05-1.82487E-06-8.16468E-19-2.48782E-18
 -1       442 5.67048E-05-4.14706E-05-6.73901E-06 4.10987E-05-2.37487E-19 8.04575E-19
 -1       443 1.17401E-05-2.26929E-05 4.46049E-06-2.06570E-06-2.08972E-19 3.03651E-18
 -1       444 2.39808E-05-2.70884E-05 1.17915E-06 2.52764E-05-8.00764E-19 1.20692E-18
 -1       445 9.40263E-05-5.26706E-05-1.79260E-05 4.12241E-05 2.70839E-19-1.89831E-18
 -1       446 1.37192E-04-5.92212E-05-3.34620E-05 2.13521E-05 6.44380E-19-3.09400E-18
 -1       447 8.93469E-05-1.18599E-05-3.32824E-05-1.06906E-05-1.89226E-19-6.07634E-19
 -1       448 1.63140E-04-2.65037E-05-5.82586E-05-1.13719E-06-8.70326E-20-1.07944E-18
 -1       449 1.65206E-04-1.60939E-05-6.34525E-05-7.91277E-07-5.73759E-19 3.54166E-19
 -1       450 1.60304E-04-1.68321E-05-6.13139E-05 3.07596E-06-8.02034E-19 1.48628E-18
 -1       451 1.57951E-04-3.08680E-05-5.45359E-05 2.60885E-06 5.46336E-19 1.21930E-18
 -1       452 1.46248E-04-5.16570E-05-4.06583E-05-1.34522E-05 7.70562E-19 1.80810E-18
 -1       453 1.26247E-04-5.69370E-05-2.96902E-05-3.02527E-05 5.87629E-19 8.60691E-19
 -1       454 8.64461E-05-5.05261E-05-1.55573E-05-4.21055E-05 9.42007E-19 1.71312E-19
 -1       455 4.38114E-05-3.59071E-05-3.58581E-06-3.74911E-05 4.33046E-19-1.66341E-18
 -1       456 1.87850E-05-2.58550E-05 2.81415E-06-1.92865E-05-4.65233E-19-3.34102E-18
 -1       457 1.33036E-05-2.01875E-05 2.99344E-06 7.39899E-06-6.24581E-19-3.53308E-18
 -1       458 3.32134E-05-2.90268E-05-1.66798E-06 3.44252E-05-6.95626E-19-6.73709E-19
 -1       459 6.12191E-05-4.16511E-05-8.45271E-06 4.39891E-05-2.03500E-19-9.49736E-19
 -1       460 1.02158E-04-5.24170E-05-2.13317E-05 4.05528E-05-1.87194E-19 1.84124E-19
 -1       461 1.28924E-04-5.23301E-05-3.29210E-05 2.80213E-05-1.40491E-18 2.47260E-18
 -1       462 1.50611E-04-3.83071E-05-4.80461E-05 9.59067E-06-1.23286E-18 9.76417E-19
 -1       463 1.56222E-04-2.46583E-05-5.63022E-05 1.13220E-07-5.17325E-19 8.67150E-19
 -1       464 1.51411E-04-1.11147E-05-6.02388E-05-1.75016E-06-7.08331E-19 1.72631E-18
 -1       465 1.53212E-04-1.51928E-05-5.92190E-05 2.53359E-06-3.54272E-19 1.30364E-18
 -1       466 1.54904E-04-2.85003E-05-5.41186E-05-7.32587E-07 1.63769E-18 1.79592E-18
 -1       467 1.44933E-04-4.70353E-05-4.20237E-05-1.48981E-05 4.89003E-19-1.32815E-18
 -1       468 1.26658E-04-5.41848E-05-3.09887E-05-3.00885E-05-5.24260E-19-3.36039E-18
 -1       469 8.83819E-05-5.04471E-05-1.62679E-05-4.39624E-05-1.18161E-19-1.20010E-18
 -1       470 4.97555E-05-3.86525E-05-5.05375E-06-4.11202E-05 6.47027E-19-3.71000E-19
 -1       471 2.35010E-05-2.63938E-05 1.15171E-06-2.67011E-05-6.59098E-20 1.21327E-18
 -1       472 1.54715E-04-4.37652E-05-4.75642E-05 3.97319E-06 4.69706E-19-1.79380E-18
 -1       473 1.42673E-04-5.25973E-05-3.87613E-05 7.52763E-06-1.04581E-18 1.31364E-18
 -1       474 1.48712E-04-4.53971E-05-4.45679E-05 7.09613E-06 7.51477E-20 1.10961E-18
 -1       475 9.57908E-05-2.51379E-05-3.02656E-05 6.02626E-06 5.11436E-19 6.24644E-19
 -1       476 8.95773E-05-1.34010E-05-3.26665E-05-3.92448E-06 2.21974E-19-5.61156E-19
 -1       477 9.02751E-05-1.43645E-05-3.25539E-05-5.88655E-06 1.53678E-19-6.59145E-19
 -1       478 8.90850E-05-1.27183E-05-3.27464E-05 5.51650E-08 3.68143E-19-2.46841E-19
 -1       479 8.92187E-05-1.29026E-05-3.27250E-05 2.04466E-06 5.58462E-19-5.60283E-20
 -1       480 8.96092E-05-1.34415E-05-3.26625E-05 3.99801E-06 6.34688E-19-2.62349E-19
 -1       481 9.03242E-05-1.44287E-05-3.25478E-05 5.95326E-06 7.90793E-19-5.61722E-20
 -1       482 9.14598E-05-1.60073E-05-3.23599E-05 7.78401E-06 7.44637E-19 2.16131E-19
 -1       483 9.32298E-05-1.84753E-05-3.20578E-05 9.30250E-06 8.14633E-19 5.11360E-19
 -1       484 9.50854E-05-2.65649E-05-2.93480E-05 2.87794E-06 4.99599E-19 6.36464E-19
 -1       485 9.54442E-05-2.44043E-05-3.04326E-05-5.82127E-06-2.10554E-19-4.93065E-19
 -1       486 1.45476E-04-3.39830E-05-4.81271E-05-1.30908E-05 2.05458E-19-1.00310E-18
 -1       487 9.53005E-05-2.62753E-05-2.95807E-05-2.90265E-06-1.46629E-19-3.04874E-19
 -1       488 9.49036E-05-2.71408E-05-2.90370E-05-1.01686E-06-1.64547E-19-4.37299E-20
 -1       489 9.46383E-05-2.76680E-05-2.86997E-05 1.28053E-07-3.67397E-20 4.04198E-20
 -1       490 9.44947E-05-2.79846E-05-2.85036E-05 7.95728E-07 8.60033E-20 2.66918E-20
 -1       491 9.44593E-05-2.81837E-05-2.84036E-05 1.16253E-06-2.73972E-19-3.47104E-19
 -1       492 9.45043E-05-2.83092E-05-2.83693E-05 1.34800E-06-1.46521E-19-6.51193E-19
 -1       493 9.46056E-05-2.83845E-05-2.83805E-05 1.43615E-06-4.57067E-19-4.17415E-19
 -1       494 9.47469E-05-2.84240E-05-2.84242E-05 1.48700E-06-3.83851E-19 5.76036E-20
 -1       495 9.49194E-05-2.84376E-05-2.84922E-05 1.54445E-06-2.57992E-19-1.09602E-19
 -1       496 9.51205E-05-2.84332E-05-2.85801E-05 1.64119E-06-2.45843E-19-5.75366E-19
 -1       497 9.53530E-05-2.84184E-05-2.86859E-05 1.80163E-06-1.67659E-19-7.33507E-19
 -1       498 9.56243E-05-2.84018E-05-2.88091E-05 2.04324E-06-7.98406E-20 1.03506E-19
 -1       499 9.59459E-05-2.83948E-05-2.89498E-05 2.37643E-06-2.70193E-19 3.07538E-19
 -1       500 9.63333E-05-2.84131E-05-2.91078E-05 2.80294E-06-6.70537E-19-8.47038E-20
 -1       501 9.68066E-05-2.84798E-05-2.92819E-05 3.31234E-06-1.07724E-19-1.78560E-19
 -1       502 9.73921E-05-2.86286E-05-2.94691E-05 3.87666E-06-9.48676E-19-6.58240E-19
 -1       503 9.81241E-05-2.89071E-05-2.96637E-05 4.44268E-06-6.24081E-19-7.23979E-19
 -1       504 9.90470E-05-2.93790E-05-2.98576E-05 4.92235E-06 4.84795E-19-1.42679E-18
 -1       505 1.00215E-04-3.01210E-05-3.00412E-05 5.18241E-06 1.47774E-18-1.43050E-18
 -1       506 1.01686E-04-3.12082E-05-3.02071E-05 5.03679E-06 1.22031E-18-4.87429E-19
 -1       507 1.03496E-04-3.26743E-05-3.03565E-05 4.25007E-06 5.18655E-19-7.17640E-19
 -1       508 1.05606E-04-3.44333E-05-3.05087E-05 2.57019E-06-4.87534E-19-7.96259E-19
 -1       509 1.07806E-04-3.61636E-05-3.07113E-05-1.76823E-07 3.18568E-20-1.15623E-18
 -1       510 1.09619E-04-3.72038E-05-3.10411E-05-3.90040E-06 8.09971E-20-1.16818E-18
 -1       511 1.10270E-04-3.65831E-05-3.15847E-05-7.92200E-06-5.45730E-19-1.04910E-18
 -1       512 1.09097E-04-3.36062E-05-3.23605E-05-1.07556E-05-3.66242E-19-3.39796E-19
 -1       513 1.06275E-04-2.87312E-05-3.32398E-05-1.04062E-05-1.31101E-18-7.18405E-19
 -1       514 1.03323E-04-2.41579E-05-3.39399E-05-5.93995E-06-5.56056E-19-5.27308E-19
 -1       515 1.02436E-04-2.28224E-05-3.41339E-05 1.36685E-06 1.88233E-20-1.41033E-18
 -1       516 1.04273E-04-2.56261E-05-3.37166E-05 7.96727E-06-5.93658E-19-5.76153E-19
 -1       517 1.07412E-04-3.06584E-05-3.28992E-05 1.09179E-05 1.15861E-18-7.48003E-19
 -1       518 1.09716E-04-3.50043E-05-3.20230E-05 9.83781E-06 8.82964E-19-8.20902E-19
 -1       519 1.10148E-04-3.70758E-05-3.13211E-05 6.32453E-06 9.66904E-19 3.13003E-19
 -1       520 1.08952E-04-3.69665E-05-3.08580E-05 2.25500E-06 2.42506E-19-6.06605E-19
 -1       521 1.06899E-04-3.55737E-05-3.05755E-05-1.18596E-06-1.09759E-18-1.47219E-18
 -1       522 1.04662E-04-3.37678E-05-3.03889E-05-3.57087E-06-4.73739E-19-1.93938E-18
 -1       523 1.02616E-04-3.20819E-05-3.02325E-05-4.93047E-06 6.54108E-20-1.81683E-19
 -1       524 1.00896E-04-3.07337E-05-3.00714E-05-5.48080E-06-2.85093E-19 1.07215E-18
 -1       525 9.95042E-05-2.97482E-05-2.98959E-05-5.46673E-06-5.24632E-19 4.78839E-19
 -1       526 9.83907E-05-2.90635E-05-2.97112E-05-5.09500E-06 1.79709E-18-1.02701E-18
 -1       527 9.74960E-05-2.85925E-05-2.95289E-05-4.51496E-06 1.89187E-18-8.27791E-19
 -1       528 9.67663E-05-2.82536E-05-2.93611E-05-3.82122E-06 3.51648E-19-1.62784E-18
 -1       529 9.61609E-05-2.79824E-05-2.92174E-05-3.06180E-06-1.42591E-18-2.40829E-18
 -1       530 9.41289E-05-2.76668E-05-2.84802E-05-1.42575E-07 2.59234E-20 3.71935E-19
 -1       531 9.39671E-05-2.79086E-05-2.83094E-05-7.78522E-07 1.29345E-19 2.51129E-19
 -1       532 9.39599E-05-2.80740E-05-2.82364E-05-1.11631E-06 3.79918E-19 1.22971E-19
 -1       533 9.40583E-05-2.81930E-05-2.82280E-05-1.27782E-06 3.50575E-19 4.89226E-19
 -1       534 9.42260E-05-2.82798E-05-2.82627E-05-1.34557E-06 4.20198E-19 8.25413E-19
 -1       535 9.44400E-05-2.83425E-05-2.83276E-05-1.37794E-06 5.13744E-19 6.99099E-19
 -1       536 9.46888E-05-2.83865E-05-2.84152E-05-1.41818E-06 8.91769E-19 2.07454E-19
 -1       537 9.49698E-05-2.84164E-05-2.85226E-05-1.50003E-06 8.76360E-19-3.49798E-19
 -1       538 9.52875E-05-2.84361E-05-2.86500E-05-1.65146E-06 2.77080E-19-1.83071E-19
 -1       539 9.56518E-05-2.84500E-05-2.87998E-05-1.89705E-06 2.92933E-20 1.76967E-19
 -1       540 9.60773E-05-2.84629E-05-2.89762E-05-2.25932E-06-3.29501E-19 8.74276E-19
 -1       541 9.65817E-05-2.84812E-05-2.91840E-05-2.75888E-06-1.09549E-19 5.82651E-19
 -1       542 9.71861E-05-2.85147E-05-2.94281E-05-3.41289E-06 1.43492E-19 1.44237E-18
 -1       543 9.79147E-05-2.85801E-05-2.97118E-05-4.23124E-06 1.23779E-19 8.97036E-19
 -1       544 9.87973E-05-2.87064E-05-3.00356E-05-5.20881E-06 1.58985E-19 1.39187E-19
 -1       545 9.98731E-05-2.89455E-05-3.03943E-05-6.31202E-06 3.98244E-19-7.14355E-19
 -1       546 1.01201E-04-2.93870E-05-3.07751E-05-7.45697E-06 6.41076E-19-1.37953E-18
 -1       547 1.02877E-04-3.01775E-05-3.11566E-05-8.47683E-06 4.68659E-19 1.22164E-19
 -1       548 1.05050E-04-3.15320E-05-3.15112E-05-9.07809E-06-6.89604E-20 4.72826E-19
 -1       549 1.07928E-04-3.37057E-05-3.18191E-05-8.79335E-06-4.73160E-19-8.11850E-19
 -1       550 1.11706E-04-3.68468E-05-3.20988E-05-6.96650E-06-8.81983E-19-9.62013E-19
 -1       551 1.16330E-04-4.06410E-05-3.24615E-05-2.87359E-06-1.05555E-18-2.57452E-19
 -1       552 1.20957E-04-4.36678E-05-3.31521E-05 3.80362E-06 1.74007E-19 6.02852E-19
 -1       553 1.23634E-04-4.31892E-05-3.45155E-05 1.18207E-05-1.67969E-19 8.75248E-19
 -1       554 1.21932E-04-3.65927E-05-3.66481E-05 1.70479E-05-1.75571E-19 2.12788E-18
 -1       555 1.16251E-04-2.56979E-05-3.90535E-05 1.34824E-05 8.66025E-19 2.74043E-18
 -1       556 1.13456E-04-2.03636E-05-4.01295E-05 4.10202E-07-3.41301E-19 1.25618E-18
 -1       557 1.16334E-04-2.54803E-05-3.91307E-05-1.27211E-05-3.45245E-18 2.67431E-18
 -1       558 1.21638E-04-3.60674E-05-3.67740E-05-1.67757E-05-9.94334E-19 3.50550E-18
 -1       559 1.23510E-04-4.29731E-05-3.45639E-05-1.19754E-05 6.23680E-19 2.95241E-18
 -1       560 1.21020E-04-4.37240E-05-3.31483E-05-3.96763E-06 8.51164E-19 3.62227E-18
 -1       561 1.16414E-04-4.08002E-05-3.24299E-05 2.81638E-06 1.26390E-18 2.80563E-18
 -1       562 1.11731E-04-3.69867E-05-3.20528E-05 7.04898E-06-6.33728E-20 2.10723E-18
 -1       563 1.07874E-04-3.37938E-05-3.17594E-05 8.98500E-06-2.95229E-19 1.18652E-18
 -1       564 1.04917E-04-3.15667E-05-3.14398E-05 9.35374E-06-2.37907E-19-1.99077E-18
 -1       565 1.02670E-04-3.01631E-05-3.10740E-05 8.81121E-06 1.79569E-18-2.77630E-18
 -1       566 1.00925E-04-2.93253E-05-3.06827E-05 7.82447E-06 7.65076E-19-1.86514E-18
 -1       567 9.95297E-05-2.88310E-05-3.02956E-05 6.68177E-06 2.82694E-18-1.78955E-18
 -1       568 9.83914E-05-2.85256E-05-2.99382E-05 5.53917E-06 2.19353E-18-1.15428E-19
 -1       569 9.74501E-05-2.83053E-05-2.96280E-05 4.46919E-06-1.43514E-18 1.23754E-18
 -1       570 9.66720E-05-2.81190E-05-2.93747E-05 3.46630E-06-1.73543E-18 1.45119E-18
 -1       571 9.59992E-05-2.79284E-05-2.91696E-05 2.50607E-06 1.84977E-19 8.71679E-19
 -1       572 9.35783E-05-2.50921E-05-2.93521E-05 2.63889E-06 2.39327E-18 1.66515E-18
 -1       573 9.30848E-05-2.45143E-05-2.93889E-05 1.84657E-06 3.26324E-18 6.66980E-18
 -1       574 9.50133E-05-2.67651E-05-2.92485E-05 3.09666E-06-1.35458E-18-3.04659E-18
 -1       575 9.42467E-05-2.58730E-05-2.93019E-05 3.06906E-06-2.45711E-18 1.97636E-19
 -1       576 9.28203E-05-2.42013E-05-2.94100E-05 8.25764E-07 2.03703E-18 3.39553E-19
 -1       577 9.28004E-05-2.41782E-05-2.94114E-05-2.76318E-07 8.52861E-19 7.40504E-20
 -1       578 9.30109E-05-2.44337E-05-2.93919E-05-1.31249E-06 1.27888E-18 5.96969E-19
 -1       579 9.34044E-05-2.49147E-05-2.93539E-05-2.14330E-06 1.82625E-18-2.34863E-18
 -1       580 9.39431E-05-2.55764E-05-2.93007E-05-2.70320E-06 1.41424E-18 4.09877E-19
 -1       581 9.45587E-05-2.63398E-05-2.92369E-05-2.92198E-06 1.23162E-18 9.58574E-19
 -1       582 9.52030E-05-2.71352E-05-2.91711E-05-2.77077E-06-1.26075E-18-2.84195E-18
 -1       583 2.62459E-05-1.42716E-05-4.52198E-06 1.20776E-05-6.06648E-19 3.05789E-18
 -1       584 5.30215E-05-3.03323E-05-9.19856E-06 3.69496E-05-9.36024E-19-7.28078E-19
 -1       585 2.48801E-05-1.51806E-05-3.58208E-06-1.45554E-05-6.24409E-19 7.89117E-19
 -1       586 9.44978E-05-2.72779E-05-2.87999E-05 9.77660E-07 1.66504E-19 5.53415E-19
 -1       587 8.80185E-05-4.89352E-05-1.64262E-05 4.07307E-05-1.64330E-18-6.70718E-19
 -1       588 9.45783E-05-2.06954E-05-3.16828E-05-9.57670E-06-2.65270E-19-5.61238E-19
 -1       589 1.43907E-04-5.40050E-05-3.88268E-05-2.12849E-06 6.82424E-19-1.88242E-18
 -1       590 1.33270E-04-1.49959E-05-5.12879E-05-9.84358E-06-1.30565E-18 5.89191E-19
 -1       591 3.23474E-05-1.65033E-05-6.14184E-06 2.23290E-05 3.24811E-19-1.78337E-18
 -1       592 8.91996E-05-1.28777E-05-3.27278E-05-1.93512E-06 3.33985E-19-4.13587E-19
 -1       593 1.38768E-04-1.05462E-05-5.55022E-05 1.35163E-06-1.13979E-18 2.00708E-18
 -1       594 7.97571E-05-4.49115E-05-1.45365E-05-4.14986E-05-3.78147E-19 5.67459E-19
 -1       595 1.41050E-04-1.73507E-05-5.35684E-05-9.97969E-06-6.53592E-19 7.99281E-19
 -1       596 1.39948E-04-2.04751E-05-5.17678E-05 1.24178E-05-1.98312E-19 8.66409E-19
 -1       597 1.37558E-04-6.10201E-05-3.30333E-05-1.02340E-05 1.06373E-18 1.91977E-18
 -1       598 1.29216E-04-7.38635E-06-5.28422E-05 2.76002E-06-5.92394E-19 5.38428E-19
 -1       599 1.18474E-04-6.02657E-05-2.48013E-05-2.96496E-05 8.53280E-19 8.94798E-19
 -1       600 4.02347E-05-2.38204E-05-6.51850E-06-3.04275E-05-9.15431E-19-2.31076E-18
 -1       601 2.43486E-05-1.37534E-05-3.93672E-06-8.28158E-06-4.35004E-19-3.17574E-18
 -1       602 5.91602E-05-3.35041E-05-1.05347E-05 4.07160E-05-1.53525E-19 6.19393E-21
 -1       603 9.46799E-05-5.11051E-05-1.83933E-05 4.08493E-05 9.38301E-19 4.96851E-19
 -1       604 1.23436E-04-5.95647E-05-2.73704E-05 2.70095E-05-8.76414E-19 2.04011E-18
 -1       605 1.40714E-04-3.33166E-05-4.64950E-05-8.96037E-06-1.59867E-18 1.27801E-18
 -1       606 7.52195E-05-4.29662E-05-1.35149E-05-4.33039E-05 1.63975E-18-1.39088E-18
 -1       607 1.36614E-04-2.03652E-05-5.03904E-05 1.05047E-05 3.29655E-19 1.06170E-18
 -1       608 1.41419E-04-4.02431E-05-4.37499E-05 6.17746E-06 1.69388E-18 2.88806E-18
 -1       609 1.37261E-04-5.66284E-05-3.46996E-05-1.12611E-05-1.22145E-19 3.45854E-19
 -1       610 1.16035E-04-5.80403E-05-2.48295E-05-3.14310E-05-4.67880E-19-3.35160E-18
 -1       611 4.68682E-05-2.77533E-05-7.66708E-06-3.69064E-05 8.17704E-19-1.49930E-18
 -1       612 9.61263E-05-2.31797E-05-3.12664E-05 9.59305E-06 6.83195E-19 9.02917E-19
 -1       613 1.23358E-04-6.11579E-05-2.65708E-05 2.60686E-05 9.84146E-20-4.07958E-18
 -1       614 9.13720E-05-1.58598E-05-3.23846E-05-7.79229E-06 3.37930E-20-4.53052E-19
 -1       615 1.35420E-04-5.97648E-05-3.24674E-05 6.54902E-06-7.75895E-20-1.67191E-18
 -1       616 1.02692E-04-5.28850E-05-2.10981E-05-3.62133E-05 2.37143E-19-1.91799E-18
 -1       617 1.37901E-04-3.41650E-05-4.49132E-05 1.63673E-05 4.25661E-19 6.63227E-19
 -1       618 9.58093E-05-2.78290E-05-2.91321E-05-2.50885E-06-2.67247E-18-2.17029E-18
 -1       619 9.15906E-05-1.68388E-05-3.20420E-05 2.43578E-06 5.41932E-19-9.68308E-20
 -1       620 9.13336E-05-1.64358E-05-3.21047E-05 8.34325E-07 4.75601E-19-6.98953E-20
 -1       621 9.29147E-05-1.89927E-05-3.16864E-05 5.25984E-06 5.92513E-19 8.08954E-20
 -1       622 9.39919E-05-2.09228E-05-3.13233E-05 6.14339E-06 6.38966E-19 4.32069E-19
 -1       623 9.52654E-05-2.40867E-05-3.04949E-05 5.15028E-06 5.53898E-19 4.08022E-19
 -1       624 9.53315E-05-2.59245E-05-2.97419E-05 2.59728E-06 4.36989E-19 3.37779E-19
 -1       625 1.29579E-04-3.01670E-05-4.29826E-05 1.36047E-05 5.72118E-19-1.49912E-18
 -1       626 9.54265E-05-2.56820E-05-2.98835E-05-2.42844E-06-1.48275E-19-2.99607E-19
 -1       627 9.54806E-05-2.69094E-05-2.93863E-05-8.36840E-07-1.40278E-19-2.41461E-19
 -1       628 9.54268E-05-2.76555E-05-2.90446E-05 2.01443E-07 1.22205E-19-3.17217E-19
 -1       629 9.53569E-05-2.81037E-05-2.88227E-05 8.37087E-07-1.87617E-19-4.19848E-19
 -1       630 9.52989E-05-2.83619E-05-2.86873E-05 1.20677E-06-2.61795E-19-2.30195E-19
 -1       631 9.52626E-05-2.84930E-05-2.86156E-05 1.41382E-06 3.66626E-21 1.41177E-19
 -1       632 9.52471E-05-2.85351E-05-2.85909E-05 1.53565E-06-2.86501E-19 2.46363E-19
 -1       633 9.52495E-05-2.85127E-05-2.86015E-05 1.63055E-06-4.14003E-19 1.59036E-19
 -1       634 9.52674E-05-2.84428E-05-2.86391E-05 1.74257E-06-6.11178E-19 2.61921E-19
 -1       635 9.52999E-05-2.83379E-05-2.86979E-05 1.90513E-06-2.65909E-19 2.79602E-19
 -1       636 9.53486E-05-2.82093E-05-2.87738E-05 2.14339E-06-1.62122E-20 2.19054E-19
 -1       637 9.54182E-05-2.80698E-05-2.88634E-05 2.47526E-06-5.49864E-20-6.04989E-19
 -1       638 9.55179E-05-2.79364E-05-2.89632E-05 2.91104E-06-5.32470E-19-3.03745E-19
 -1       639 9.56637E-05-2.78347E-05-2.90692E-05 3.45181E-06-6.26884E-19-3.29609E-20
 -1       640 9.58822E-05-2.78038E-05-2.91761E-05 4.08613E-06-7.42551E-19-6.22042E-19
 -1       641 9.62158E-05-2.79017E-05-2.92771E-05 4.78492E-06-7.13039E-19-7.18871E-19
 -1       642 9.67302E-05-2.82119E-05-2.93648E-05 5.49421E-06-2.72982E-19-2.49263E-19
 -1       643 9.75222E-05-2.88461E-05-2.94326E-05 6.12509E-06 4.90437E-19-4.61549E-19
 -1       644 9.87248E-05-2.99398E-05-2.94797E-05 6.54008E-06 1.59411E-18-1.55934E-18
 -1       645 1.00499E-04-3.16253E-05-2.95185E-05 6.53597E-06 8.40398E-19-1.18789E-18
 -1       646 1.02995E-04-3.39633E-05-2.95874E-05 5.82643E-06-2.30458E-19-9.52080E-19
 -1       647 1.06242E-04-3.67962E-05-2.97654E-05 4.04697E-06-2.27170E-19-4.08585E-19
 -1       648 1.09966E-04-3.95414E-05-3.01862E-05 8.64414E-07-3.00107E-19-5.81093E-19
 -1       649 1.13365E-04-4.09773E-05-3.10266E-05-3.82573E-06 2.46741E-19-1.04363E-18
 -1       650 1.14922E-04-3.92516E-05-3.24468E-05-9.03197E-06-8.87441E-19-7.34386E-19
 -1       651 1.13449E-04-3.32634E-05-3.43844E-05-1.26248E-05-8.29591E-19-8.32137E-19
 -1       652 1.09153E-04-2.45125E-05-3.63804E-05-1.09137E-05-9.63596E-19-3.69851E-19
 -1       653 1.06150E-04-1.88617E-05-3.75014E-05-3.17663E-06-4.41073E-19-1.04376E-18
 -1       654 1.06956E-04-2.03050E-05-3.72166E-05 6.42829E-06 1.80180E-19-7.23728E-19
 -1       655 1.10940E-04-2.79179E-05-3.56431E-05 1.20383E-05 2.92885E-19 9.69298E-19
 -1       656 1.14311E-04-3.59892E-05-3.36024E-05 1.15015E-05 6.33832E-19 1.18262E-20
 -1       657 1.14640E-04-4.04058E-05-3.18217E-05 7.00518E-06 5.13028E-19-4.82906E-19
 -1       658 1.12204E-04-4.07519E-05-3.06266E-05 1.75060E-06-3.62256E-19-2.10145E-18
 -1       659 1.08561E-04-3.86674E-05-2.99588E-05-2.44245E-06-3.38977E-19-2.45970E-18
 -1       660 1.04939E-04-3.57785E-05-2.96432E-05-5.12143E-06 3.30136E-19-2.16604E-18
 -1       661 1.01952E-04-3.30816E-05-2.95171E-05-6.49414E-06 1.06074E-18-7.88104E-19
 -1       662 9.97311E-05-3.09710E-05-2.94689E-05-6.93568E-06-6.77087E-19-9.10176E-19
 -1       663 9.81796E-05-2.94914E-05-2.94376E-05-6.77833E-06-6.71112E-19-3.08428E-18
 -1       664 9.71314E-05-2.85345E-05-2.93983E-05-6.26605E-06 8.70157E-19-1.97355E-18
 -1       665 9.64285E-05-2.79506E-05-2.93472E-05-5.56199E-06 1.45623E-18-2.23811E-18
 -1       666 9.59454E-05-2.75993E-05-2.92905E-05-4.76718E-06-5.13401E-19-2.39418E-18
 -1       667 9.55878E-05-2.73670E-05-2.92367E-05-3.93501E-06-9.23932E-19-4.03948E-18
 -1       668 9.50007E-05-2.80623E-05-2.86876E-05-8.30156E-07 2.71154E-19 2.01514E-19
 -1       669 9.51806E-05-2.67778E-05-2.93156E-05 4.14086E-06-4.54749E-19-2.98526E-18
 -1       670 9.51012E-05-2.76732E-05-2.88971E-05-1.79531E-07 8.53349E-20 7.70964E-20
 -1       671 9.49542E-05-2.84217E-05-2.85140E-05-1.39901E-06 2.57820E-19 8.37317E-19
 -1       672 9.49915E-05-2.84767E-05-2.85064E-05-1.50905E-06 6.33274E-19 4.26461E-19
 -1       673 9.50568E-05-2.84778E-05-2.85339E-05-1.59080E-06 9.17227E-19 6.87447E-19
 -1       674 9.51440E-05-2.84363E-05-2.85889E-05-1.69096E-06 1.00558E-18 6.76779E-19
 -1       675 9.52498E-05-2.83594E-05-2.86672E-05-1.84672E-06 4.88601E-19 1.08596E-18
 -1       676 9.53731E-05-2.82511E-05-2.87663E-05-2.08914E-06-2.93911E-19 9.90720E-19
 -1       677 9.55146E-05-2.81139E-05-2.88856E-05-2.44515E-06-5.87657E-19 9.89554E-19
 -1       678 9.56755E-05-2.79504E-05-2.90244E-05-2.93865E-06-3.91477E-20 5.69460E-19
 -1       679 9.58586E-05-2.77657E-05-2.91819E-05-3.59024E-06-2.17606E-19 9.18834E-19
 -1       680 9.60690E-05-2.75712E-05-2.93552E-05-4.41556E-06 4.36604E-19 2.97020E-19
 -1       681 9.63179E-05-2.73925E-05-2.95382E-05-5.42159E-06 2.44313E-19 3.91350E-19
 -1       682 9.66311E-05-2.72811E-05-2.97201E-05-6.60029E-06 7.44260E-19 4.87935E-19
 -1       683 9.70658E-05-2.73337E-05-2.98839E-05-7.91843E-06 5.00720E-19 9.12685E-19
 -1       684 9.77390E-05-2.77210E-05-3.00068E-05-9.30184E-06 2.90430E-20 1.24942E-18
 -1       685 9.88722E-05-2.87195E-05-3.00653E-05-1.06103E-05 3.31557E-19 1.07067E-18
 -1       686 1.00847E-04-3.07327E-05-3.00502E-05-1.15929E-05 2.50458E-19 1.41854E-18
 -1       687 1.04236E-04-3.42394E-05-3.00011E-05-1.18029E-05-6.26500E-19 1.91988E-18
 -1       688 1.09701E-04-3.95221E-05-3.00774E-05-1.04372E-05-1.09727E-18 2.23405E-18
 -1       689 1.17520E-04-4.59457E-05-3.07005E-05-6.24548E-06-5.93347E-19 2.13931E-18
 -1       690 1.26594E-04-5.06680E-05-3.25436E-05 1.78077E-06-5.07661E-19 2.20729E-18
 -1       691 1.31909E-04-4.78128E-05-3.62090E-05 1.19409E-05-4.18567E-19 2.30268E-18
 -1       692 1.23038E-04-1.62505E-05-4.63488E-05-8.43832E-06-1.75669E-18 2.54588E-18
 -1       693 1.28482E-04-3.17716E-05-4.19501E-05-1.81162E-05-2.08304E-18 1.17327E-19
 -1       694 1.31467E-04-4.65483E-05-3.65483E-05-1.31552E-05-1.25943E-19-1.70287E-19
 -1       695 1.26411E-04-5.01871E-05-3.27160E-05-2.72893E-06 1.46414E-18 3.19970E-19
 -1       696 1.18045E-04-4.60675E-05-3.08820E-05 5.49423E-06 2.44005E-18-2.26181E-19
 -1       697 1.10331E-04-3.97860E-05-3.02466E-05 1.00705E-05 1.07579E-18-1.14299E-19
 -1       698 1.04844E-04-3.45747E-05-3.01217E-05 1.17140E-05 5.94713E-19-6.94627E-19
 -1       699 1.01348E-04-3.10494E-05-3.01306E-05 1.17120E-05 1.22814E-18-2.38133E-18
 -1       700 9.92524E-05-2.89853E-05-3.01148E-05 1.08619E-05 4.53743E-19-2.73695E-18
 -1       701 9.80022E-05-2.79218E-05-3.00336E-05 9.63044E-06 7.44639E-19-8.79552E-19
 -1       702 9.72207E-05-2.74562E-05-2.98977E-05 8.27912E-06 2.99793E-18-1.79727E-18
 -1       703 9.66854E-05-2.73046E-05-2.97329E-05 6.95020E-06 1.40688E-18-8.92021E-19
 -1       704 9.62657E-05-2.72791E-05-2.95640E-05 5.71334E-06 3.37371E-19-7.32897E-20
 -1       705 9.56313E-05-2.69983E-05-2.94117E-05 4.91387E-06-9.20277E-19-1.17246E-18
 -1       706 9.19332E-05-2.38916E-05-2.91613E-05 2.74324E-07 1.32747E-18-4.87804E-19
 -1       707 9.53915E-05-2.72485E-05-2.92031E-05-3.35841E-06-5.75374E-19-4.01462E-18
 -1       708 9.26664E-05-2.45223E-05-2.92051E-05 2.81549E-06 2.41957E-18 5.26640E-18
 -1       709 9.20998E-05-2.40701E-05-2.91562E-05-1.07610E-06 2.24097E-18-9.13465E-19
 -1       710 9.21213E-05-2.40421E-05-2.91774E-05 1.63261E-06 3.23342E-19 2.37865E-18
 -1       711 1.26120E-04-2.51945E-05-4.36663E-05-1.40545E-05-1.64552E-18-3.43789E-19
 -1       712 9.25636E-05-2.45245E-05-2.91601E-05-2.23131E-06 1.19397E-18-1.27847E-18
 -1       713 9.32659E-05-2.52008E-05-2.91711E-05-3.10078E-06 5.45701E-19-2.63506E-18
 -1       714 9.41167E-05-2.60120E-05-2.91881E-05-3.57499E-06 1.44954E-18 2.49535E-18
 -1       715 1.13355E-04-5.51418E-05-2.48404E-05 2.68775E-05 3.31375E-19-8.71310E-19
 -1       716 9.46131E-05-2.22042E-05-3.10303E-05-6.01310E-06 1.62061E-20-4.21098E-19
 -1       717 1.33492E-04-5.68897E-05-3.29301E-05 8.44474E-06-1.55866E-18 6.25944E-19
 -1       718 1.03052E-04-5.10002E-05-2.20692E-05-3.16174E-05-6.10075E-19 7.21129E-19
 -1       719 9.52336E-05-2.70194E-05-2.92327E-05 9.00973E-07 2.98810E-19 2.59085E-19
 -1       720 4.88707E-05-1.87206E-05-1.24058E-05 2.39780E-05-6.65305E-19 2.39499E-19
 -1       721 9.49538E-05-2.82939E-05-2.85685E-05-1.19984E-06 1.24828E-19 5.22735E-19
 -1       722 1.34568E-04-4.39588E-05-3.91551E-05-8.55007E-06-2.14314E-18 4.18964E-19
 -1       723 1.26727E-04-5.82783E-05-2.93199E-05-1.57241E-05-4.83748E-19-4.79990E-19
 -1       724 3.79462E-05-1.10504E-05-1.09855E-05 4.45374E-06 2.67189E-19-2.76429E-18
 -1       725 9.21097E-05-1.76681E-05-3.19094E-05 3.94616E-06 5.57158E-19-1.46207E-19
 -1       726 1.24735E-04-1.59614E-05-4.71963E-05 8.46031E-06 6.48827E-19 1.23270E-18
 -1       727 1.19576E-04-1.48980E-05-4.53516E-05 1.01074E-05 2.12155E-19-1.92204E-18
 -1       728 9.20926E-05-1.76508E-05-3.19102E-05-3.86343E-06 2.33115E-19-5.03770E-19
 -1       729 1.27079E-04-5.97377E-05-2.88922E-05-1.53060E-05 4.24575E-19 1.78752E-18
 -1       730 1.40540E-04-5.24829E-05-3.78597E-05 8.28141E-06 2.23666E-19 6.40675E-19
 -1       731 4.19713E-05-1.56847E-05-1.07446E-05-1.89599E-05-4.01282E-19-1.57569E-18
 -1       732 4.47088E-05-1.78476E-05-1.09742E-05-2.46327E-05-5.11634E-19-1.86374E-18
 -1       733 5.46505E-05-2.33729E-05-1.30049E-05 3.06358E-05 9.50265E-19-1.39496E-19
 -1       734 3.48517E-05-1.10591E-05-9.65307E-06-2.75171E-06 4.31471E-19 2.63125E-18
 -1       735 1.18743E-04-1.02951E-05-4.69898E-05-5.22943E-06-5.40460E-19-1.57827E-18
 -1       736 8.42236E-05-4.06011E-05-1.83798E-05 3.67284E-05 9.49339E-19 1.24245E-18
 -1       737 6.75407E-05-3.12672E-05-1.51491E-05-3.40410E-05-1.66820E-18-7.40704E-19
 -1       738 7.99892E-05-3.72718E-05-1.79309E-05 3.43771E-05 6.98273E-20-7.34325E-19
 -1       739 1.35010E-04-4.95324E-05-3.68609E-05 3.71398E-06 6.52983E-19 1.16671E-18
 -1       740 1.07027E-04-5.22136E-05-2.33164E-05 2.91538E-05-3.65283E-20-1.89492E-18
 -1       741 7.02568E-05-3.46299E-05-1.48536E-05-3.81725E-05 8.53730E-19-5.98243E-19
 -1       742 9.28683E-05-1.89411E-05-3.16958E-05-5.19302E-06 8.80608E-20-4.94685E-19
 -1       743 9.13253E-05-1.64290E-05-3.21043E-05-7.91052E-07 3.62054E-19-3.27126E-19
 -1       744 1.21846E-04-5.59264E-05-2.81652E-05 1.54683E-05 1.00228E-18-1.24107E-18
 -1       745 9.35047E-05-2.52774E-05-2.92408E-05 3.65555E-06 1.44575E-18 4.07393E-18
 -1       746 9.15796E-05-1.68259E-05-3.20421E-05-2.36763E-06 2.00099E-19-4.13946E-19
 -1       747 5.06581E-05-1.49538E-05-1.49884E-05 1.65832E-05 1.43645E-18-9.09158E-19
 -1       748 9.47903E-05-2.66683E-05-2.91950E-05-3.87163E-06-1.26486E-18-3.56747E-18
 -1       749 7.08054E-05-2.47810E-05-1.95198E-05 2.43015E-05 1.16249E-18 8.19094E-19
 -1       750 9.46456E-05-2.27062E-05-3.08306E-05 3.90237E-06 4.49407E-19 3.30085E-19
 -1       751 9.20877E-05-4.33207E-05-2.06914E-05-3.33856E-05 3.24639E-19-7.26450E-19
 -1       752 1.26563E-04-3.98850E-05-3.73377E-05 1.16410E-05-2.06967E-19-6.63690E-19
 -1       753 1.29636E-04-5.05931E-05-3.39615E-05-2.59212E-06-1.15750E-18-1.42963E-19
 -1       754 9.58773E-05-2.68191E-05-2.95965E-05-5.32462E-07-1.15572E-19-3.45817E-19
 -1       755 9.59613E-05-2.76807E-05-2.92635E-05 3.16370E-07-3.31638E-20-4.90505E-19
 -1       756 9.59387E-05-2.81956E-05-2.90329E-05 8.53424E-07-1.35294E-19-5.00841E-19
 -1       757 9.58609E-05-2.84754E-05-2.88795E-05 1.18116E-06-1.03310E-19-3.55707E-19
 -1       758 9.57553E-05-2.85884E-05-2.87859E-05 1.38164E-06 9.56563E-20-5.47752E-19
 -1       759 9.56354E-05-2.85804E-05-2.87379E-05 1.52007E-06-2.52708E-19-1.47923E-19
 -1       760 9.55067E-05-2.84823E-05-2.87248E-05 1.64756E-06-2.78806E-19 2.64904E-19
 -1       761 9.53710E-05-2.83158E-05-2.87379E-05 1.80394E-06-5.86880E-20 7.87205E-19
 -1       762 9.52283E-05-2.80973E-05-2.87704E-05 2.02022E-06-5.49090E-20 6.41152E-19
 -1       763 9.50790E-05-2.78420E-05-2.88158E-05 2.32045E-06-5.02791E-19 3.55113E-19
 -1       764 9.49263E-05-2.75673E-05-2.88681E-05 2.72252E-06-6.20573E-19-7.35487E-20
 -1       765 9.47792E-05-2.72979E-05-2.89205E-05 3.23823E-06-6.45277E-19-2.95413E-19
 -1       766 9.46569E-05-2.70712E-05-2.89652E-05 3.87237E-06-9.61083E-19 5.93548E-21
 -1       767 9.45957E-05-2.69444E-05-2.89933E-05 4.62075E-06-9.27575E-19-5.44927E-20
 -1       768 9.46584E-05-2.70025E-05-2.89952E-05 5.46692E-06 1.55041E-19-4.14583E-20
 -1       769 9.49460E-05-2.73670E-05-2.89623E-05 6.37655E-06 1.77791E-19-1.13087E-19
 -1       770 9.56136E-05-2.82011E-05-2.88910E-05 7.28704E-06 5.70382E-19-2.82854E-19
 -1       771 9.68825E-05-2.97062E-05-2.87899E-05 8.08730E-06 1.26546E-18-8.17173E-19
 -1       772 9.90403E-05-3.20894E-05-2.86934E-05 8.57928E-06 9.13682E-19-8.25306E-19
 -1       773 1.02403E-04-3.54763E-05-2.86836E-05 8.41279E-06-3.37691E-19-2.12473E-19
 -1       774 1.07171E-04-3.96782E-05-2.89209E-05 6.95643E-06-2.13593E-19-4.25317E-19
 -1       775 1.12947E-04-4.36536E-05-2.97037E-05 3.46859E-06-1.71961E-19 3.13824E-19
 -1       776 1.18984E-04-4.59030E-05-3.13184E-05-2.56427E-06-3.30248E-19-3.80267E-19
 -1       777 1.20793E-04-4.15039E-05-3.40615E-05-9.62652E-06-1.98553E-18-7.31654E-19
 -1       778 1.12755E-04-1.77488E-05-4.09553E-05-9.55673E-06-5.74474E-19-1.80065E-18
 -1       779 1.14196E-04-2.21272E-05-3.96684E-05 1.23669E-05-3.10491E-19-1.70782E-18
 -1       780 1.19623E-04-3.51179E-05-3.62877E-05 1.31087E-05-1.80067E-19-1.55196E-18
 -1       781 1.20478E-04-4.37852E-05-3.28981E-05 7.23874E-06 1.40874E-19-1.69910E-18
 -1       782 1.16657E-04-4.51526E-05-3.06403E-05 2.47122E-07-4.49167E-19-7.56397E-19
 -1       783 1.10941E-04-4.23509E-05-2.93971E-05-4.87097E-06-5.21556E-19 2.27479E-19
 -1       784 1.05535E-04-3.81814E-05-2.88676E-05-7.62098E-06-5.49139E-19-5.20823E-19
 -1       785 1.01346E-04-3.43006E-05-2.87346E-05-8.63578E-06 4.52251E-19-1.88986E-18
 -1       786 9.84712E-05-3.13131E-05-2.87818E-05-8.62816E-06-5.56554E-19-3.31026E-18
 -1       787 9.66657E-05-2.92635E-05-2.88863E-05-8.07933E-06-8.47526E-19-2.47188E-18
 -1       788 9.56250E-05-2.79839E-05-2.89887E-05-7.27335E-06-2.69145E-19-3.10964E-19
 -1       789 9.50816E-05-2.72548E-05-2.90683E-05-6.36625E-06 3.91675E-19-1.53316E-18
 -1       790 9.48400E-05-2.68807E-05-2.91255E-05-5.43637E-06 5.23624E-19-4.22946E-18
 -1       791 9.48098E-05-2.67504E-05-2.91684E-05-4.63916E-06-1.72730E-18-4.09298E-18
 -1       792 6.04753E-05-2.12219E-05-1.65401E-05-2.36881E-05-9.60132E-19 3.41937E-19
 -1       793 9.57397E-05-2.76785E-05-2.91690E-05-2.81848E-07 1.01910E-19 3.97116E-19
 -1       794 9.54866E-05-2.85613E-05-2.86823E-05-1.54932E-06 6.69931E-19 6.13344E-19
 -1       795 9.55603E-05-2.85521E-05-2.87178E-05-1.41377E-06 5.63814E-19 5.64573E-19
 -1       796 9.53366E-05-2.83426E-05-2.87117E-05-1.82169E-06 3.52673E-19 1.10688E-18
 -1       797 9.52523E-05-2.81387E-05-2.87629E-05-2.03785E-06 1.58085E-19 9.23196E-19
 -1       798 9.51528E-05-2.78784E-05-2.88318E-05-2.34866E-06-1.73719E-19 5.23150E-19
 -1       799 9.50289E-05-2.75630E-05-2.89138E-05-2.77918E-06-1.63621E-19 3.41242E-19
 -1       800 9.48701E-05-2.71942E-05-2.90037E-05-3.35091E-06-1.72971E-19 3.74656E-19
 -1       801 9.46651E-05-2.67779E-05-2.90942E-05-4.08183E-06 3.24629E-19-3.06349E-19
 -1       802 9.44059E-05-2.63308E-05-2.91747E-05-4.98593E-06 1.63071E-19 5.42595E-20
 -1       803 9.40941E-05-2.58907E-05-2.92296E-05-6.07251E-06-9.34424E-20 2.66516E-19
 -1       804 9.37550E-05-2.55339E-05-2.92371E-05-7.34612E-06-4.00609E-19 1.71581E-18
 -1       805 9.34628E-05-2.54013E-05-2.91687E-05-8.80759E-06 1.61688E-20 2.71259E-18
 -1       806 9.33841E-05-2.57354E-05-2.89917E-05-1.04542E-05 2.80272E-19 2.30991E-18
 -1       807 9.38434E-05-2.69245E-05-2.86787E-05-1.22761E-05-8.98730E-20 2.50138E-18
 -1       808 9.54349E-05-2.95563E-05-2.82307E-05-1.42154E-05-4.15113E-19 2.84065E-18
 -1       809 9.90921E-05-3.43535E-05-2.77338E-05-1.60068E-05-9.77596E-19 1.93936E-18
 -1       810 1.06355E-04-4.20487E-05-2.75437E-05-1.68215E-05-1.19324E-18 1.93891E-18
 -1       811 5.21464E-05-1.37647E-05-1.61686E-05 1.14311E-05 7.77715E-20 1.35261E-20
 -1       812 1.07340E-04-4.25809E-05-2.77090E-05 1.63832E-05 2.29573E-18 5.67767E-19
 -1       813 1.00107E-04-3.50046E-05-2.78934E-05 1.59405E-05 1.20218E-18 6.70302E-19
 -1       814 9.61970E-05-3.00772E-05-2.83340E-05 1.44124E-05 1.44250E-18 1.86454E-19
 -1       815 9.44329E-05-2.73404E-05-2.87532E-05 1.26178E-05 6.61249E-19 1.12121E-18
 -1       816 9.38425E-05-2.60526E-05-2.90524E-05 1.08695E-05-3.77984E-19-6.04546E-19
 -1       817 9.38244E-05-2.56253E-05-2.92276E-05 9.25269E-06 1.19367E-18-1.03972E-19
 -1       818 9.40378E-05-2.56535E-05-2.93071E-05 7.78310E-06 1.14212E-18 1.98198E-18
 -1       819 9.42896E-05-2.58676E-05-2.93238E-05 6.46635E-06 1.51443E-18 2.37193E-18
 -1       820 9.32357E-05-1.97478E-05-3.14961E-05 1.22675E-06 4.70684E-19 8.97412E-20
 -1       821 9.09172E-05-2.34931E-05-2.88962E-05-6.10106E-07 5.21891E-19 7.55824E-19
 -1       822 9.33511E-05-2.55580E-05-2.90550E-05-4.11217E-06 1.55743E-19 2.40175E-19
 -1       823 9.13967E-05-2.39263E-05-2.89160E-05-2.11871E-06 1.40347E-18-6.68183E-19
 -1       824 1.00095E-04-4.48118E-05-2.36167E-05 2.66581E-05 2.45494E-19-1.81872E-18
 -1       825 6.43359E-05-2.51759E-05-1.64909E-05-2.90961E-05 5.22778E-19-2.09214E-18
 -1       826 4.96102E-05-1.29339E-05-1.54078E-05-8.59306E-06 2.14643E-19-1.23307E-18
 -1       827 9.50498E-05-2.36309E-05-3.06067E-05-2.62061E-06 1.25042E-19-4.06244E-19
 -1       828 9.22505E-05-2.46508E-05-2.89714E-05-3.33610E-06 8.07409E-19-3.51949E-18
 -1       829 9.54130E-05-2.84863E-05-2.86828E-05-1.67066E-06 5.59204E-19 1.04515E-18
 -1       830 1.24331E-04-3.54973E-05-3.82581E-05-1.36584E-05-1.79657E-18-1.00138E-18
 -1       831 1.10055E-04-1.40733E-05-4.13879E-05 2.12231E-06 2.08979E-20-1.25498E-18
 -1       832 9.56700E-05-2.55162E-05-3.00653E-05-1.52449E-06-3.87040E-20-2.77025E-19
 -1       833 4.96498E-05-1.33736E-05-1.52480E-05-1.21523E-05 1.08005E-18 6.47848E-19
 -1       834 1.20612E-04-5.42869E-05-2.84010E-05 1.38848E-05-6.34967E-19-3.56925E-19
 -1       835 7.44139E-05-2.84269E-05-1.95048E-05 2.78882E-05 9.02924E-19 7.66380E-19
 -1       836 1.13890E-04-5.13853E-05-2.66986E-05-1.95007E-05-1.04489E-18 2.52770E-18
 -1       837 8.92055E-05-3.84536E-05-2.15511E-05-2.89152E-05-1.82007E-18 1.84203E-19
 -1       838 9.52203E-05-2.44629E-05-3.03244E-05 3.41797E-06 4.26059E-19 4.94133E-19
 -1       839 1.15124E-04-5.32123E-05-2.64736E-05-2.06882E-05-9.47337E-19-1.14173E-19
 -1       840 1.26978E-04-5.18194E-05-3.23170E-05-1.01414E-06 3.85268E-20 1.78446E-19
 -1       841 9.71842E-05-4.21327E-05-2.34413E-05 2.63785E-05 1.24529E-18-1.04852E-18
 -1       842 9.31387E-05-1.95663E-05-3.15323E-05 2.32852E-08 3.92431E-19-7.71123E-20
 -1       843 9.40598E-05-2.13370E-05-3.11666E-05 3.30285E-06 4.34727E-19-9.70356E-20
 -1       844 9.46775E-05-2.26114E-05-3.08849E-05-2.10609E-06 3.70377E-20-5.49123E-19
 -1       845 9.23536E-05-2.44868E-05-2.90859E-05 3.94444E-06 1.22848E-18 5.14584E-18
 -1       846 9.56999E-05-2.81635E-05-2.89442E-05-8.61296E-07 1.62040E-19 4.61839E-19
 -1       847 9.57096E-05-2.68744E-05-2.95010E-05 6.43090E-07 3.13354E-19 5.24217E-19
 -1       848 9.56336E-05-2.84331E-05-2.88002E-05-1.20820E-06-5.41944E-21 3.60282E-19
 -1       849 9.43845E-05-2.19108E-05-3.10609E-05-1.35731E-06 6.74090E-20-2.05420E-19
 -1       850 9.40358E-05-2.57599E-05-2.92652E-05 5.46806E-06 1.01677E-18 1.51470E-18
 -1       851 9.35484E-05-2.03348E-05-3.13782E-05 2.34956E-06 4.28881E-19-1.99357E-19
 -1       852 9.13819E-05-2.37585E-05-2.89818E-05 2.64924E-06-1.29063E-18 3.28200E-18
 -1       853 9.08953E-05-2.34221E-05-2.89176E-05 1.05962E-06-1.16568E-18 8.10803E-19
 -1       854 5.34186E-05-1.25264E-05-1.73388E-05 3.37367E-06 1.85960E-18-1.49422E-18
 -1       855 1.20724E-04-5.15780E-05-2.96457E-05-7.62152E-06-3.35356E-19-3.40918E-19
 -1       856 9.55242E-05-2.58648E-05-2.98535E-05 1.80717E-06 3.83170E-19 4.89370E-19
 -1       857 9.39285E-05-2.56906E-05-2.92464E-05 4.88469E-06 1.60052E-18 1.16276E-18
 -1       858 9.40528E-05-2.61419E-05-2.91027E-05-4.45321E-06-1.26204E-18-4.38126E-19
 -1       859 6.38671E-05-1.94084E-05-1.89176E-05-1.93568E-05-1.03146E-19-1.48984E-18
 -1       860 9.63343E-05-2.77669E-05-2.93863E-05 4.10090E-07 2.96166E-20-1.19798E-19
 -1       861 9.63196E-05-2.82853E-05-2.91576E-05 8.20601E-07-2.09520E-19-3.31904E-20
 -1       862 9.62048E-05-2.85428E-05-2.89980E-05 1.08195E-06-1.06534E-19-2.43069E-19
 -1       863 9.60258E-05-2.86083E-05-2.88932E-05 1.25635E-06 1.53301E-19-6.41335E-19
 -1       864 9.58024E-05-2.85300E-05-2.88310E-05 1.39486E-06 7.54163E-20 1.05807E-20
 -1       865 9.55444E-05-2.83418E-05-2.88011E-05 1.53885E-06 1.27563E-19 3.18354E-19
 -1       866 9.52546E-05-2.80678E-05-2.87943E-05 1.72159E-06-1.10476E-19 1.38442E-20
 -1       867 9.49322E-05-2.77268E-05-2.88023E-05 1.97018E-06-6.45174E-20-9.40754E-20
 -1       868 9.45758E-05-2.73368E-05-2.88167E-05 2.30703E-06-7.36339E-19 5.45172E-19
 -1       869 9.41866E-05-2.69198E-05-2.88286E-05 2.75105E-06-7.07734E-19 9.97097E-20
 -1       870 9.37726E-05-2.65072E-05-2.88281E-05 3.31855E-06-6.00582E-19-2.66599E-19
 -1       871 9.33552E-05-2.61468E-05-2.88036E-05 4.02389E-06-5.34075E-19 6.25086E-19
 -1       872 9.29770E-05-2.59113E-05-2.87424E-05 4.88003E-06-1.81872E-19 1.48543E-18
 -1       873 9.27144E-05-2.59077E-05-2.86314E-05 5.89855E-06-2.69135E-19 6.15026E-19
 -1       874 9.26945E-05-2.62892E-05-2.84594E-05 7.08754E-06 3.76662E-19-7.07536E-20
 -1       875 9.31185E-05-2.72655E-05-2.82227E-05 8.44292E-06 5.70360E-19-7.23698E-19
 -1       876 9.42921E-05-2.91098E-05-2.79350E-05 9.92241E-06 1.13105E-18-1.36286E-18
 -1       877 9.66468E-05-3.21336E-05-2.76461E-05 1.13801E-05 5.84028E-19-1.84844E-18
 -1       878 1.00720E-04-3.65965E-05-2.74795E-05 1.24505E-05 3.96395E-19-8.74484E-19
 -1       879 1.07320E-04-4.26377E-05-2.77124E-05 1.22566E-05 3.31071E-20 1.25146E-19
 -1       880 1.10965E-04-4.61540E-05-2.77585E-05-1.27878E-05 1.91506E-19-7.27168E-19
 -1       881 1.02892E-04-3.93713E-05-2.72240E-05-1.38546E-05-2.10312E-19-1.27873E-18
 -1       882 9.77148E-05-3.39776E-05-2.73163E-05-1.28895E-05-9.39681E-19-1.19139E-18
 -1       883 9.47054E-05-3.02324E-05-2.76316E-05-1.12907E-05-1.27383E-18-2.32829E-18
 -1       884 9.31798E-05-2.78636E-05-2.79930E-05-9.61747E-06 6.79674E-21-2.35807E-18
 -1       885 9.25907E-05-2.65083E-05-2.83214E-05-8.08753E-06-5.18492E-19-1.02185E-18
 -1       886 9.25593E-05-2.58423E-05-2.85934E-05-6.75431E-06 2.44373E-19-1.38271E-18
 -1       887 9.28301E-05-2.56032E-05-2.88119E-05-5.59133E-06-9.05488E-19-7.23639E-19
 -1       888 5.73377E-05-1.30437E-05-1.88439E-05-1.06311E-06 9.71093E-20 5.80158E-19
 -1       889 9.50009E-05-2.77710E-05-2.88128E-05-2.04398E-06-1.47446E-19 6.16250E-19
 -1       890 9.52860E-05-2.81151E-05-2.87875E-05-1.79706E-06 6.46793E-19 9.16014E-19
 -1       891 9.42475E-05-2.68424E-05-2.88879E-05-2.83102E-06-4.46176E-19 2.16709E-19
 -1       892 9.37387E-05-2.62602E-05-2.89193E-05-3.40731E-06 3.06629E-19 1.94802E-19
 -1       893 9.31107E-05-2.56081E-05-2.89296E-05-4.12483E-06 1.12484E-19-1.85107E-20
 -1       894 9.23413E-05-2.49071E-05-2.89003E-05-4.99715E-06-5.72476E-19 3.37787E-19
 -1       895 9.14177E-05-2.42033E-05-2.88061E-05-6.04217E-06-9.83302E-19 9.31553E-19
 -1       896 9.03492E-05-2.35845E-05-2.86133E-05-7.29179E-06-4.69666E-19 1.21003E-18
 -1       897 8.91915E-05-2.32068E-05-2.82792E-05-8.81076E-06 5.75112E-19 7.66892E-19
 -1       898 8.80922E-05-2.33354E-05-2.77528E-05-1.07157E-05-5.22851E-20 1.41231E-18
 -1       899 8.73394E-05-2.43739E-05-2.69836E-05-1.32247E-05-3.93768E-19 1.22506E-18
 -1       900 8.75743E-05-2.70619E-05-2.59283E-05-1.66622E-05-6.66246E-19 1.21754E-18
 -1       901 9.00413E-05-3.23726E-05-2.46627E-05-2.11357E-05-1.01575E-18 1.06327E-18
 -1       902 8.85612E-05-2.77827E-05-2.60373E-05 1.70269E-05 1.78599E-18-1.09734E-20
 -1       903 9.59231E-05-2.85994E-05-2.88530E-05-1.33267E-06 3.15931E-19 1.46754E-19
 -1       904 9.09029E-05-3.30712E-05-2.47536E-05 2.13971E-05 1.88338E-18-5.40513E-20
 -1       905 8.86725E-05-2.37436E-05-2.78268E-05 1.12158E-05 6.87622E-19 2.92387E-19
 -1       906 8.96860E-05-2.35133E-05-2.83601E-05 9.31071E-06-5.70819E-20-1.65522E-19
 -1       907 9.07900E-05-2.37871E-05-2.87157E-05 7.78390E-06-8.36924E-19 1.23946E-18
 -1       908 9.18106E-05-2.42684E-05-2.89462E-05 6.50115E-06 1.16868E-18 2.08360E-18
 -1       909 1.11028E-04-4.74581E-05-2.72327E-05 1.53027E-05-3.00847E-19-5.06478E-19
 -1       910 8.99091E-05-2.31387E-05-2.86158E-05-1.82343E-06-3.88084E-19-4.24793E-19
 -1       911 8.80838E-05-2.49364E-05-2.70616E-05 1.36942E-05 3.95285E-19-5.10088E-19
 -1       912 9.46609E-05-2.73466E-05-2.88490E-05-2.38206E-06-2.58928E-19 2.50151E-19
 -1       913 9.53826E-05-2.46666E-05-3.03075E-05 2.31349E-06 3.81881E-19 3.58698E-19
 -1       914 7.74327E-05-2.66619E-05-2.16572E-05-2.24349E-05-7.74684E-19 2.72043E-19
 -1       915 6.52723E-05-1.86650E-05-1.98266E-05 1.68626E-05 1.39431E-18-6.83274E-19
 -1       916 9.61882E-05-2.68816E-05-2.97030E-05-2.22535E-07 3.56938E-20-3.39037E-19
 -1       917 9.55388E-05-2.46544E-05-3.03793E-05-1.37947E-06-2.33443E-20-7.63559E-19
 -1       918 6.69207E-05-1.75898E-05-2.10413E-05 1.33214E-05 1.56361E-18 2.00816E-18
 -1       919 8.28698E-05-3.34282E-05-2.10519E-05-2.79283E-05 2.61111E-19-1.89259E-19
 -1       920 9.37493E-05-2.06724E-05-3.13178E-05-7.90221E-07 2.57274E-19-5.53232E-20
 -1       921 6.49388E-05-1.80073E-05-1.99886E-05-1.54210E-05 2.96663E-19 1.15786E-18
 -1       922 8.95326E-05-3.43238E-05-2.36429E-05 2.27299E-05 3.25389E-19-1.91659E-18
 -1       923 1.02498E-04-4.46942E-05-2.46975E-05-2.34189E-05-1.62049E-19-4.92252E-19
 -1       924 9.57413E-05-2.85422E-05-2.87996E-05-1.47457E-06 2.87253E-19 7.91926E-19
 -1       925 9.23514E-05-2.45703E-05-2.90466E-05 5.31646E-06 1.52301E-18 3.71428E-18
 -1       926 9.60597E-05-2.68731E-05-2.96511E-05 3.28371E-07 3.19633E-19 6.33330E-22
 -1       927 9.60699E-05-2.85177E-05-2.89510E-05-1.14506E-06-9.11295E-20-2.27115E-19
 -1       928 9.55298E-05-2.83750E-05-2.87806E-05-1.61718E-06 6.03416E-19 9.11348E-19
 -1       929 9.07483E-05-2.34892E-05-2.88255E-05 4.00202E-06-1.96288E-19 6.64510E-19
 -1       930 9.61814E-05-2.77369E-05-2.93333E-05-3.90317E-07 5.25720E-20 1.36003E-19
 -1       931 6.27476E-05-1.47721E-05-2.04777E-05-6.97739E-06 8.86887E-20 6.56477E-19
 -1       932 9.45675E-05-2.22232E-05-3.10049E-05 4.22817E-07 4.48563E-19-6.00441E-20
 -1       933 9.08814E-05-2.39258E-05-2.86953E-05-3.44167E-06-4.40538E-19-2.11381E-18
 -1       934 9.47071E-05-2.25553E-05-3.09223E-05 1.20202E-06 2.85345E-19-1.93023E-19
 -1       935 8.95073E-05-2.27548E-05-2.86085E-05 1.22928E-07-1.72323E-18 2.13625E-18
 -1       936 7.91950E-05-2.52147E-05-2.30988E-05 1.84241E-05 1.68487E-19-1.39256E-18
 -1       937 7.86911E-05-2.33477E-05-2.36869E-05 1.71765E-05 2.32147E-18 7.60200E-19
 -1       938 9.53755E-05-2.40124E-05-3.05845E-05-1.00056E-06 2.18372E-19-1.54602E-19
 -1       939 9.59650E-05-2.59207E-05-3.00196E-05-7.76913E-07-2.49226E-20-6.15897E-19
 -1       940 8.71570E-05-2.18272E-05-2.79984E-05 6.76494E-06-3.41086E-19 2.03401E-18
 -1       941 9.65890E-05-2.79091E-05-2.94343E-05 4.35036E-07 4.84622E-20-1.38145E-19
 -1       942 7.61377E-05-2.16945E-05-2.32747E-05-1.63216E-05-6.76994E-19 1.10586E-18
 -1       943 9.69095E-05-3.63976E-05-2.59124E-05 1.71740E-05 6.64868E-19-1.27589E-18
 -1       944 9.65422E-05-2.83745E-05-2.92148E-05 7.13487E-07-4.78323E-20 3.57132E-20
 -1       945 9.63703E-05-2.85703E-05-2.90572E-05 8.99206E-07-2.08985E-19 2.53558E-19
 -1       946 9.61102E-05-2.85618E-05-2.89493E-05 1.03547E-06 1.97563E-19 2.81241E-19
 -1       947 9.57830E-05-2.83966E-05-2.88799E-05 1.15907E-06 1.93807E-19-2.90173E-20
 -1       948 9.53984E-05-2.81083E-05-2.88386E-05 1.30075E-06 1.36238E-19 1.70602E-19
 -1       949 9.49573E-05-2.77209E-05-2.88156E-05 1.48633E-06-1.69807E-19 4.11807E-19
 -1       950 9.44563E-05-2.72539E-05-2.88011E-05 1.73872E-06-1.34484E-19-6.22735E-20
 -1       951 9.38902E-05-2.67266E-05-2.87844E-05 2.07902E-06-7.16344E-19-1.08977E-19
 -1       952 9.32558E-05-2.61632E-05-2.87541E-05 2.52857E-06-5.18709E-19 8.02885E-19
 -1       953 9.25569E-05-2.55987E-05-2.86965E-05 3.11109E-06-2.42577E-19 8.15303E-19
 -1       954 9.18101E-05-2.50862E-05-2.85961E-05 3.85544E-06 1.07902E-19 1.05510E-18
 -1       955 9.10532E-05-2.47051E-05-2.84351E-05 4.79959E-06-5.66557E-19 1.10491E-18
 -1       956 9.03574E-05-2.45714E-05-2.81943E-05 5.99558E-06-1.67851E-19 1.31714E-18
 -1       957 8.98471E-05-2.48520E-05-2.78555E-05 7.51411E-06-8.07078E-20 1.50428E-18
 -1       958 8.97316E-05-2.57842E-05-2.74062E-05 9.44378E-06 3.56864E-19 5.25835E-19
 -1       959 9.03462E-05-2.77015E-05-2.68468E-05 1.18689E-05 2.09206E-19-9.12921E-20
 -1       960 9.25606E-05-3.11280E-05-2.63231E-05 1.45769E-05 5.17861E-19-1.06282E-18
 -1       961 8.24796E-05-2.09229E-05-2.63846E-05 1.01395E-05 2.17917E-19 1.74106E-18
 -1       962 9.48542E-05-3.65831E-05-2.49437E-05-2.03840E-05-6.26533E-19-4.64239E-19
 -1       963 9.07271E-05-3.08270E-05-2.56801E-05-1.63174E-05-2.12044E-19-1.31869E-18
 -1       964 8.90110E-05-2.73221E-05-2.64391E-05-1.28134E-05-6.81054E-19-4.30196E-19
 -1       965 8.87465E-05-2.54207E-05-2.71395E-05-1.00049E-05-1.98353E-18 3.00582E-20
 -1       966 8.91692E-05-2.45054E-05-2.77132E-05-7.86701E-06 1.68165E-20-6.62422E-19
 -1       967 8.99135E-05-2.41919E-05-2.81671E-05-6.21701E-06 2.69109E-19-1.93453E-18
 -1       968 9.35177E-05-2.58488E-05-2.90006E-05-4.84682E-06-3.30657E-19-2.40370E-19
 -1       969 6.69450E-05-1.66089E-05-2.15235E-05-9.75838E-06 2.39572E-19-8.56311E-19
 -1       970 9.24080E-05-2.52467E-05-2.87835E-05-3.04073E-06 2.23889E-19 6.06322E-19
 -1       971 9.32654E-05-2.60266E-05-2.88167E-05-2.54722E-06 1.63208E-19 7.10247E-21
 -1       972 9.00780E-05-2.34473E-05-2.85561E-05-4.34889E-06-1.07117E-18 8.65335E-19
 -1       973 8.85244E-05-2.24917E-05-2.82998E-05-5.20049E-06-4.54372E-19 5.80190E-19
 -1       974 8.66599E-05-2.15859E-05-2.78890E-05-6.24818E-06-1.93492E-19 7.81717E-19
 -1       975 8.44420E-05-2.08409E-05-2.72590E-05-7.62939E-06-1.29820E-19 1.49540E-18
 -1       976 8.18732E-05-2.04719E-05-2.63161E-05-9.57264E-06-2.12596E-19 1.18033E-18
 -1       977 8.96085E-05-2.28971E-05-2.85910E-05 4.98910E-06 4.33952E-19 1.50558E-20
 -1       978 9.57113E-05-2.55212E-05-3.00831E-05 1.38927E-06 4.28502E-19 3.47287E-20
 -1       979 8.84428E-05-2.23432E-05-2.83293E-05 5.79760E-06-1.82147E-20 6.43540E-19
 -1       980 8.49849E-05-2.11954E-05-2.73401E-05 8.16649E-06 1.02900E-19 1.88248E-18
 -1       981 6.45613E-05-1.50143E-05-2.11853E-05 5.95912E-06 7.34553E-19-6.44109E-19
 -1       982 8.03329E-05-2.14903E-05-2.52184E-05 1.29641E-05 7.52996E-19 1.61316E-18
 -1       983 9.50332E-05-2.77804E-05-2.88226E-05-1.60071E-06 2.92560E-19 9.89324E-19
 -1       984 8.97860E-05-2.28658E-05-2.86803E-05 2.13669E-06-1.67739E-18 2.71877E-18
 -1       985 9.49787E-05-2.32341E-05-3.07475E-05 1.86388E-06 3.73738E-19-1.68765E-19
 -1       986 7.81957E-05-2.62113E-05-2.22110E-05-2.08616E-05-3.34453E-19-6.13361E-19
 -1       987 9.22368E-05-2.49609E-05-2.88326E-05-4.55669E-06 5.10997E-19-2.38793E-18
 -1       988 9.64486E-05-2.70753E-05-2.97314E-05 1.53953E-08 2.13314E-19-1.86000E-19
 -1       989 9.61664E-05-2.82525E-05-2.91060E-05-8.54167E-07 1.89177E-19-3.84106E-20
 -1       990 9.13590E-05-2.43797E-05-2.87054E-05-3.63741E-06-5.36935E-19 4.01271E-19
 -1       991 9.49606E-05-2.29874E-05-3.08451E-05-1.80493E-07 4.76285E-19 1.56655E-19
 -1       992 6.76369E-05-1.53420E-05-2.23663E-05 3.28912E-06 8.04971E-19 1.62773E-18
 -1       993 9.09052E-05-2.43487E-05-2.85232E-05-5.08145E-06 2.62990E-19-2.32643E-18
 -1       994 9.54434E-05-2.81632E-05-2.88344E-05-1.42304E-06 2.97264E-19-2.68901E-20
 -1       995 8.69949E-05-2.88787E-05-2.48901E-05 1.70469E-05-4.48828E-20-1.75327E-18
 -1       996 7.33008E-05-1.79792E-05-2.36992E-05 9.51522E-06 6.91918E-19 2.24288E-18
 -1       997 9.63097E-05-2.85591E-05-2.90360E-05-1.00063E-06-1.19072E-19-4.40162E-19
 -1       998 9.39682E-05-2.67105E-05-2.88247E-05-2.14910E-06-9.28957E-20 1.02800E-18
 -1       999 7.89286E-05-2.07229E-05-2.49299E-05-1.25644E-05-6.46282E-19 1.35024E-18
 -1      1000 9.45486E-05-2.72955E-05-2.88227E-05-1.83767E-06 1.60868E-19 1.16168E-18
 -1      1001 9.59626E-05-2.57082E-05-3.01081E-05 7.92798E-07 1.71802E-19 7.21090E-20
 -1      1002 9.62287E-05-2.62110E-05-3.00083E-05-3.46690E-07 2.01170E-19-3.24787E-19
 -1      1003 8.92387E-05-2.31027E-05-2.83458E-05-3.58169E-06 4.28909E-19-1.91763E-18
 -1      1004 9.56173E-05-2.44012E-05-3.05211E-05 4.84178E-07 2.51545E-19-2.25033E-19
 -1      1005 8.81861E-05-2.22599E-05-2.82543E-05-1.52662E-06-7.25782E-19 2.62956E-18
 -1      1006 7.40711E-05-1.95590E-05-2.33540E-05 1.15927E-05 5.41467E-19-1.44539E-18
 -1      1007 9.58725E-05-2.52124E-05-3.02816E-05-6.78718E-07 1.44685E-19 6.65047E-21
 -1      1008 9.63460E-05-2.70120E-05-2.97144E-05 5.42340E-08 1.09620E-19-4.26750E-20
 -1      1009 9.60823E-05-2.85760E-05-2.89314E-05-1.15292E-06 1.79151E-19-1.23142E-19
 -1      1010 9.51505E-05-2.34240E-05-3.07402E-05-6.51853E-07 3.28330E-19 1.29350E-19
 -1      1011 9.58579E-05-2.48826E-05-3.04170E-05 8.94697E-08 3.17362E-19-2.33154E-19
 -1      1012 9.66294E-05-2.84533E-05-2.92183E-05 5.16039E-07-1.47139E-20 2.00385E-19
 -1      1013 9.63868E-05-2.85581E-05-2.90695E-05 6.26794E-07 1.92511E-19 5.69201E-19
 -1      1014 9.60434E-05-2.84582E-05-2.89651E-05 7.18072E-07 7.56713E-20 4.38177E-19
 -1      1015 9.56171E-05-2.81970E-05-2.88944E-05 8.12761E-07 1.72511E-19 2.58632E-19
 -1      1016 9.51152E-05-2.78068E-05-2.88465E-05 9.30721E-07 2.82755E-19 3.46321E-19
 -1      1017 9.45326E-05-2.73073E-05-2.88110E-05 1.09159E-06-4.85070E-19 1.23073E-19
 -1      1018 9.38624E-05-2.67179E-05-2.87764E-05 1.31299E-06-3.40391E-19-1.80189E-19
 -1      1019 9.30923E-05-2.60562E-05-2.87300E-05 1.61539E-06-5.79560E-19-9.14236E-20
 -1      1020 9.22114E-05-2.53455E-05-2.86572E-05 2.02325E-06-2.60193E-19-1.08488E-19
 -1      1021 9.12130E-05-2.46193E-05-2.85405E-05 2.56834E-06-1.35354E-19 2.36161E-19
 -1      1022 9.00979E-05-2.39278E-05-2.83592E-05 3.29470E-06 2.01367E-19-2.40310E-21
 -1      1023 8.88802E-05-2.33432E-05-2.80881E-05 4.26602E-06 1.29592E-19 8.13009E-19
 -1      1024 8.75940E-05-2.29690E-05-2.76977E-05 5.57701E-06-1.41715E-19 7.62877E-19
 -1      1025 8.63121E-05-2.29562E-05-2.71541E-05 7.36639E-06-4.22540E-19 1.20454E-19
 -1      1026 8.51466E-05-2.35136E-05-2.64152E-05 9.84715E-06-8.29517E-20-7.85888E-19
 -1      1027 9.10473E-05-2.42780E-05-2.86157E-05-2.21613E-06-9.26507E-20 1.19829E-18
 -1      1028 7.24424E-05-1.68500E-05-2.38058E-05-3.86199E-06-2.68485E-19-1.08021E-18
 -1      1029 6.93689E-05-1.57536E-05-2.29411E-05-5.24795E-06-6.29167E-19 8.78078E-19
 -1      1030 8.23852E-05-2.41379E-05-2.49503E-05-1.36465E-05 3.77453E-19-4.17018E-19
 -1      1031 8.37940E-05-2.29173E-05-2.60882E-05-9.94282E-06-1.36984E-18-3.22067E-19
 -1      1032 8.54547E-05-2.25153E-05-2.69748E-05-7.34414E-06-9.39368E-19 1.10993E-18
 -1      1033 8.71103E-05-2.25834E-05-2.76518E-05-5.50741E-06-8.14339E-19 4.41847E-19
 -1      1034 8.57477E-05-2.09811E-05-2.77579E-05-3.43675E-06-3.61883E-19 6.41503E-19
 -1      1035 8.78870E-05-2.21402E-05-2.81777E-05-2.97577E-06-7.28594E-19 5.85309E-19
 -1      1036 7.97266E-05-1.86152E-05-2.61903E-05-4.86996E-06-8.78262E-19 1.43882E-18
 -1      1037 9.57914E-05-2.84338E-05-2.88676E-05-1.28244E-06 2.71169E-19-3.05201E-19
 -1      1038 8.82130E-05-2.20660E-05-2.83490E-05 2.74541E-06 6.68488E-20 1.60393E-18
 -1      1039 9.64568E-05-2.83404E-05-2.91928E-05-7.82484E-07 1.59015E-19-1.29729E-19
 -1      1040 8.77941E-05-2.18754E-05-2.82517E-05 6.30614E-07 8.21219E-19 2.31347E-18
 -1      1041 7.55468E-05-1.74227E-05-2.48654E-05-5.06226E-06-1.03115E-18 2.39731E-18
 -1      1042 7.67330E-05-2.17855E-05-2.35646E-05-1.40120E-05 7.67185E-19-1.62477E-18
 -1      1043 8.31101E-05-1.98197E-05-2.71248E-05-4.00214E-06-7.01480E-19 7.55982E-19
 -1      1044 9.66542E-05-2.73612E-05-2.96969E-05 1.28094E-07 2.16927E-20 1.13027E-19
 -1      1045 9.22142E-05-2.52139E-05-2.87146E-05-1.89923E-06-4.73328E-20 1.28461E-18
 -1      1046 8.96258E-05-2.32478E-05-2.84481E-05-2.57473E-06-7.39714E-19 1.43273E-18
 -1      1047 9.46415E-05-2.73823E-05-2.88254E-05-1.22264E-06-1.32661E-19 2.52404E-19
 -1      1048 9.64852E-05-2.78518E-05-2.94143E-05-4.48788E-07 1.73153E-19-2.96152E-19
 -1      1049 9.67376E-05-2.80839E-05-2.94231E-05 3.58926E-07-7.42324E-20 1.44318E-20
 -1      1050 9.52023E-05-2.78792E-05-2.88531E-05-1.08212E-06-2.15149E-19 2.13658E-19
 -1      1051 8.53221E-05-2.54110E-05-2.56712E-05 1.30969E-05-7.71030E-19-8.75447E-19
 -1      1052 8.01839E-05-1.89689E-05-2.62365E-05 5.35515E-06 5.49579E-19 3.89005E-18
 -1      1053 9.59545E-05-2.51288E-05-3.03528E-05-1.77693E-07 2.81395E-19 2.49752E-19
 -1      1054 7.22918E-05-1.63899E-05-2.39572E-05 2.43087E-06-3.97956E-19-3.37047E-20
 -1      1055 8.51068E-05-2.10535E-05-2.74524E-05-2.80507E-06-6.03756E-19-4.25573E-19
 -1      1056 9.31761E-05-2.60459E-05-2.87703E-05-1.62727E-06 3.32250E-19 6.58532E-19
 -1      1057 9.66013E-05-2.84223E-05-2.92196E-05-6.24550E-07 2.91174E-20 3.75606E-21
 -1      1058 9.39739E-05-2.67694E-05-2.88021E-05-1.40216E-06 1.52572E-19 5.91127E-19
 -1      1059 9.63859E-05-2.85568E-05-2.90697E-05-7.65636E-07-6.46052E-20-9.52172E-20
 -1      1060 9.56959E-05-2.47853E-05-3.03896E-05 8.62699E-07 1.17460E-19-1.11832E-19
 -1      1061 9.64769E-05-2.66243E-05-2.99376E-05-7.49826E-08 1.18846E-19 2.27535E-19
 -1      1062 8.57777E-05-2.09514E-05-2.77801E-05 3.88468E-06 6.24091E-19 6.48020E-19
 -1      1063 7.70055E-05-1.83101E-05-2.51559E-05 6.96696E-06 5.93525E-19 3.40564E-18
 -1      1064 8.70173E-05-2.14882E-05-2.80857E-05 3.27209E-06 1.66672E-18 1.22134E-18
 -1      1065 9.63252E-05-2.64273E-05-2.99573E-05 2.40941E-07 1.84745E-19-2.01432E-19
 -1      1066 9.63055E-05-2.60624E-05-3.01041E-05 1.50286E-07 2.33079E-19-3.80483E-19
 -1      1067 7.36022E-05-1.68222E-05-2.43304E-05 2.10445E-06-4.80279E-19 1.21910E-18
 -1      1068 8.00550E-05-2.27582E-05-2.45694E-05 1.30896E-05-6.64358E-19-2.65487E-18
 -1      1069 8.32412E-05-1.99210E-05-2.71366E-05 4.50373E-06 3.88851E-19 2.19967E-18
 -1      1070 9.59025E-05-2.51088E-05-3.03386E-05-4.34757E-07 2.18802E-19 1.18140E-19
 -1      1071 8.98342E-05-2.34846E-05-2.84362E-05-9.29841E-07-3.37128E-19 1.18200E-18
 -1      1072 9.62819E-05-2.85076E-05-2.90463E-05 2.68367E-07 8.88668E-20 4.91162E-20
 -1      1073 9.58629E-05-2.83104E-05-2.89512E-05 3.10497E-07-3.96301E-20 4.21679E-19
 -1      1074 9.53528E-05-2.79548E-05-2.88844E-05 3.65347E-07 2.37274E-19 2.67422E-19
 -1      1075 9.47450E-05-2.74625E-05-2.88350E-05 4.39648E-07-2.52601E-19-9.48173E-20
 -1      1076 9.40387E-05-2.68608E-05-2.87902E-05 5.44306E-07-4.46716E-19 1.38680E-19
 -1      1077 9.32151E-05-2.61586E-05-2.87382E-05 6.96415E-07-4.24727E-20 4.61893E-21
 -1      1078 9.22539E-05-2.53707E-05-2.86638E-05 9.14382E-07-6.17509E-19 2.10600E-19
 -1      1079 9.11320E-05-2.45157E-05-2.85492E-05 1.22440E-06-2.43487E-19-1.74443E-20
 -1      1080 8.98246E-05-2.36205E-05-2.83723E-05 1.66354E-06 2.00336E-19 8.11021E-20
 -1      1081 8.83050E-05-2.27229E-05-2.81055E-05 2.28502E-06 6.38792E-19 1.92731E-19
 -1      1082 8.65421E-05-2.18740E-05-2.77136E-05 3.16599E-06-6.40261E-19-1.14891E-19
 -1      1083 8.44990E-05-2.11432E-05-2.71517E-05 4.41629E-06-1.08559E-18-6.37096E-19
 -1      1084 8.21793E-05-2.06398E-05-2.63697E-05 6.20557E-06-1.29655E-18-1.75100E-18
 -1      1085 8.11636E-05-2.01176E-05-2.61549E-05-5.57956E-06-1.68361E-18-2.65230E-19
 -1      1086 8.31735E-05-2.04823E-05-2.68637E-05-4.01783E-06-2.12511E-18 3.93043E-19
 -1      1087 8.03586E-05-1.87021E-05-2.64251E-05-4.08752E-07-1.70263E-18 2.07052E-19
 -1      1088 9.66263E-05-2.72342E-05-2.97385E-05-8.17945E-08 1.52328E-19-2.00600E-19
 -1      1089 9.41796E-05-2.69663E-05-2.88059E-05-6.62372E-07-1.00123E-19-2.22424E-19
 -1      1090 8.81420E-05-2.23798E-05-2.81847E-05-9.28003E-07-1.97619E-19 3.20717E-19
 -1      1091 8.35126E-05-1.99694E-05-2.72335E-05-6.53352E-07-9.40497E-19-5.53860E-19
 -1      1092 9.67797E-05-2.82614E-05-2.93649E-05 1.70268E-07 8.92127E-20 3.11740E-19
 -1      1093 9.66877E-05-2.80196E-05-2.94299E-05-4.15805E-07 3.00977E-19-2.19695E-19
 -1      1094 9.67846E-05-2.76893E-05-2.96126E-05 9.53066E-08 1.10540E-19 1.45205E-19
 -1      1095 9.12326E-05-2.45067E-05-2.85973E-05-8.84016E-07-4.09550E-19 9.07787E-19
 -1      1096 8.60770E-05-2.12071E-05-2.78025E-05-8.48521E-07-3.66478E-19-7.65283E-19
 -1      1097 9.65967E-05-2.85101E-05-2.91801E-05 2.24350E-07 2.24721E-19 3.34298E-19
 -1      1098 9.64565E-05-2.64067E-05-3.00222E-05 3.15837E-09 2.42468E-19-8.95879E-20
 -1      1099 7.94280E-05-2.04850E-05-2.52605E-05 8.84866E-06-1.09334E-18-3.01804E-18
 -1      1100 7.76658E-05-1.96755E-05-2.48476E-05-8.13057E-06 5.97303E-19-9.83206E-19
 -1      1101 8.03956E-05-1.88093E-05-2.64011E-05 7.98033E-07 1.00633E-18 1.87289E-19
 -1      1102 9.23946E-05-2.54332E-05-2.86980E-05-8.13891E-07-3.90569E-19 4.76859E-19
 -1      1103 9.33649E-05-2.62551E-05-2.87615E-05-7.36401E-07-2.75443E-19 9.08626E-20
 -1      1104 9.67508E-05-2.74238E-05-2.97115E-05-5.59123E-08 1.79639E-20-2.62868E-19
 -1      1105 9.60771E-05-2.84909E-05-2.89655E-05-8.71862E-07 3.11283E-19-6.53641E-22
 -1      1106 9.48677E-05-2.75616E-05-2.88456E-05-5.93815E-07 3.67522E-21-3.45495E-19
 -1      1107 9.56790E-05-2.82531E-05-2.88968E-05-9.70802E-07-1.86379E-20-1.35879E-19
 -1      1108 7.74487E-05-1.78906E-05-2.55104E-05 1.33178E-06 1.32502E-18 1.05049E-18
 -1      1109 9.66206E-05-2.84884E-05-2.91994E-05-3.72510E-07-6.11860E-20-4.02356E-19
 -1      1110 8.64778E-05-2.12361E-05-2.79492E-05 8.57671E-07 9.10290E-19 3.35427E-18
 -1      1111 8.48879E-05-2.05132E-05-2.75951E-05 1.08917E-06 8.35822E-19 2.97117E-18
 -1      1112 9.65776E-05-2.74415E-05-2.96295E-05-1.95140E-07 2.94652E-19-6.90559E-20
 -1      1113 7.67777E-05-1.81071E-05-2.51478E-05-3.39309E-06 1.12962E-19-3.40062E-18
 -1      1114 9.67766E-05-2.81964E-05-2.93909E-05-2.71621E-07 9.65863E-20-5.10150E-20
 -1      1115 9.56074E-05-2.81308E-05-2.89187E-05-1.73110E-07-2.72178E-20-1.75923E-19
 -1      1116 9.66773E-05-2.71634E-05-2.97918E-05 2.66902E-08 2.00743E-19 1.88659E-19
 -1      1117 9.68106E-05-2.80108E-05-2.94855E-05-8.97774E-08 1.72913E-19-3.92574E-19
 -1      1118 9.64646E-05-2.85315E-05-2.91140E-05-1.46937E-07 3.75289E-20-3.52374E-19
 -1      1119 9.60854E-05-2.84185E-05-2.89998E-05-1.63297E-07 3.01694E-19-1.96395E-19
 -1      1120 7.69660E-05-1.81298E-05-2.52526E-05 3.67996E-06-1.45754E-18-6.08303E-19
 -1      1121 9.67358E-05-2.83888E-05-2.92915E-05-7.33730E-08 7.20577E-20-2.92530E-19
 -1      1122 1.16799E-04 2.57397E-10-4.18343E-05-4.14601E-05-9.19031E-20 1.20745E-18
 -1      1123 8.86107E-05 7.18548E-11-3.72353E-05-2.41778E-05-3.86459E-20-4.96679E-19
 -1      1124 8.40563E-05 4.14317E-11-3.57577E-05-1.78937E-05-2.71051E-20-1.04623E-18
 -1      1125 8.23295E-05 3.20311E-11-3.50706E-05-1.38520E-05-1.09320E-20-1.17305E-18
 -1      1126 8.15415E-05 2.73417E-11-3.47425E-05-1.05483E-05 2.59404E-21-1.21196E-18
 -1      1127 8.11522E-05 2.46338E-11-3.45824E-05-7.65288E-06 5.94908E-21-1.15106E-18
 -1      1128 8.09529E-05 2.29819E-11-3.45031E-05-4.98800E-06 1.10544E-20-1.04453E-18
 -1      1129 8.08568E-05 2.20876E-11-3.44664E-05-2.43615E-06 1.11074E-20-8.61846E-19
 -1      1130 8.08296E-05 2.18162E-11-3.44561E-05 5.26831E-08 1.00329E-20-7.73900E-19
 -1      1131 8.08609E-05 2.21299E-11-3.44678E-05 2.54391E-06 1.52664E-20-6.62099E-19
 -1      1132 8.09617E-05 2.30788E-11-3.45061E-05 5.10374E-06 2.09839E-20-4.73465E-19
 -1      1133 8.11682E-05 2.47920E-11-3.45869E-05 7.78441E-06 2.30618E-20-2.82320E-19
 -1      1134 8.15643E-05 2.76575E-11-3.47489E-05 1.07081E-05 2.64962E-20-1.59480E-21
 -1      1135 8.23533E-05 3.25016E-11-3.50804E-05 1.40590E-05 3.36960E-20 4.16350E-19
 -1      1136 8.40514E-05 4.19016E-11-3.57775E-05 1.81445E-05 3.23461E-20 1.10969E-18
 -1      1137 8.83086E-05 6.66796E-11-3.73054E-05 2.40201E-05 1.90582E-20 2.14307E-18
 -1      1138 1.06564E-04 1.63793E-10-4.06131E-05 3.61899E-05 2.11758E-21 3.96401E-18
 -1      1139 1.30150E-04-2.57396E-05-4.02508E-05-2.61016E-05-3.22296E-19 2.17349E-18
 -1      1140 9.73781E-05-2.88390E-05-3.15535E-05-6.82022E-07-8.11034E-20 1.42513E-18
 -1      1141 9.00699E-05-2.69997E-05-2.78661E-05 3.86375E-07 1.25731E-21 5.15168E-19
 -1      1142 8.81492E-05-2.65424E-05-2.66136E-05 2.50007E-07-3.24685E-20-4.01017E-20
 -1      1143 8.77802E-05-2.64128E-05-2.63543E-05 1.64697E-07-3.12939E-20-7.06320E-19
 -1      1144 8.81302E-05-2.64868E-05-2.64367E-05 1.16829E-07 3.55605E-21-1.13352E-18
 -1      1145 8.88121E-05-2.66702E-05-2.66382E-05 8.60071E-08-3.55084E-20-1.30075E-18
 -1      1146 8.96296E-05-2.69032E-05-2.68820E-05 6.45350E-08 5.19060E-20-1.26921E-18
 -1      1147 9.04775E-05-2.71507E-05-2.71353E-05 4.86473E-08 1.48697E-20-1.31135E-18
 -1      1148 9.13008E-05-2.73940E-05-2.73822E-05 3.65014E-08-5.68925E-20-1.79227E-18
 -1      1149 9.20762E-05-2.76249E-05-2.76158E-05 2.71494E-08 3.67138E-20-2.50314E-18
 -1      1150 9.28018E-05-2.78421E-05-2.78354E-05 2.00927E-08 1.90652E-19-1.72197E-18
 -1      1151 9.34915E-05-2.80494E-05-2.80450E-05 1.50758E-08-1.02323E-19-2.16213E-18
 -1      1152 9.41707E-05-2.82542E-05-2.82521E-05 1.20003E-08 7.90960E-20-2.50891E-18
 -1      1153 9.48745E-05-2.84668E-05-2.84671E-05 1.08915E-08-7.89744E-20-1.87442E-18
 -1      1154 9.56449E-05-2.86997E-05-2.87026E-05 1.18815E-08-1.13693E-19-2.98279E-18
 -1      1155 9.65295E-05-2.89669E-05-2.89726E-05 1.51895E-08-3.97220E-20-3.39462E-18
 -1      1156 9.75782E-05-2.92831E-05-2.92918E-05 2.10783E-08-1.05987E-19-3.75736E-18
 -1      1157 9.88387E-05-2.96622E-05-2.96738E-05 2.97601E-08 9.00614E-20-4.76602E-18
 -1      1158 1.00349E-04-3.01150E-05-3.01289E-05 4.12065E-08 1.92325E-19-3.97176E-18
 -1      1159 1.02123E-04-3.06453E-05-3.06596E-05 5.48040E-08 1.09554E-19-2.00548E-18
 -1      1160 1.04134E-04-3.12438E-05-3.12550E-05 6.87816E-08-1.42762E-19-1.40863E-18
 -1      1161 1.06283E-04-3.18806E-05-3.18821E-05 7.93794E-08 1.88944E-19-1.18182E-18
 -1      1162 1.08370E-04-3.24948E-05-3.24770E-05 7.98914E-08-1.67892E-19-1.44904E-18
 -1      1163 1.10057E-04-3.29857E-05-3.29372E-05 6.01562E-08 2.27789E-20-1.83098E-18
 -1      1164 1.10864E-04-3.32114E-05-3.31231E-05 7.80177E-09 5.74940E-20-3.99353E-19
 -1      1165 1.10221E-04-3.30051E-05-3.28795E-05-8.65663E-08 8.11762E-20-2.64195E-19
 -1      1166 1.07628E-04-3.22245E-05-3.20856E-05-2.18628E-07 2.78131E-20-1.55388E-18
 -1      1167 1.02948E-04-3.08368E-05-3.07334E-05-3.57226E-07-2.18768E-19-1.21364E-18
 -1      1168 9.67353E-05-2.90131E-05-2.90043E-05-4.41516E-07 1.59228E-19-5.66136E-19
 -1      1169 9.03786E-05-2.71621E-05-2.72831E-05-4.04657E-07 6.98273E-20-8.58468E-19
 -1      1170 8.57768E-05-2.58302E-05-2.60602E-05-2.21897E-07 2.15510E-19-1.62998E-18
 -1      1171 8.45364E-05-2.54722E-05-2.57332E-05 5.26489E-08 8.89517E-20-1.99104E-18
 -1      1172 8.71160E-05-2.62165E-05-2.64129E-05 3.04887E-07 1.37305E-19-1.92308E-18
 -1      1173 9.25557E-05-2.77934E-05-2.78652E-05 4.35470E-07-1.75427E-19-6.88638E-19
 -1      1174 9.90233E-05-2.96815E-05-2.96309E-05 4.20620E-07-4.23401E-20-9.13737E-20
 -1      1175 1.04731E-04-3.13623E-05-3.12382E-05 3.07246E-07-1.52274E-19-2.58769E-18
 -1      1176 1.08588E-04-3.25110E-05-3.23717E-05 1.64831E-07 8.69830E-20-1.52934E-18
 -1      1177 1.10327E-04-3.30404E-05-3.29261E-05 4.40208E-08-1.43575E-19-4.09779E-19
 -1      1178 1.10256E-04-3.30342E-05-3.29598E-05-3.53953E-08 1.43618E-19 2.45236E-19
 -1      1179 1.08925E-04-3.26514E-05-3.26138E-05-7.56766E-08-2.66008E-19-1.53194E-18
 -1      1180 1.06883E-04-3.20531E-05-3.20417E-05-8.82293E-08-1.74869E-19-5.46707E-18
 -1      1181 1.04561E-04-3.13676E-05-3.13715E-05-8.49134E-08 2.90338E-20-3.15782E-18
 -1      1182 1.02252E-04-3.06826E-05-3.06939E-05-7.44612E-08-1.48769E-19-1.94428E-18
 -1      1183 1.00133E-04-3.00516E-05-3.00661E-05-6.19183E-08 4.82524E-19 3.01173E-19
 -1      1184 9.83029E-05-2.95055E-05-2.95228E-05-4.90792E-08-8.05542E-20 2.77229E-18
 -1      1185 9.68275E-05-2.90641E-05-2.90867E-05-3.47068E-08 2.83091E-19 2.74217E-18
 -1      1186 9.57697E-05-2.87470E-05-2.87758E-05-1.35017E-08 2.00060E-19 4.43969E-18
 -1      1187 9.52224E-05-2.85933E-05-2.85967E-05 2.63343E-08-5.23311E-19 2.04964E-18
 -1      1188 9.51453E-05-2.85414E-05-2.85061E-05 3.16799E-08 9.23134E-20 1.36472E-18
 -1      1189 1.30985E-04-3.77186E-05-3.86367E-05 1.21722E-05-1.02967E-19 5.28549E-18
 -1      1190 9.64793E-05-2.81656E-05-3.13060E-05 8.02079E-07 1.55642E-20 4.84365E-18
 -1      1191 9.02832E-05-2.69021E-05-2.78468E-05 1.20671E-07 3.83481E-20 4.36226E-18
 -1      1192 8.82339E-05-2.64692E-05-2.66494E-05 9.61958E-09 4.05319E-21 4.13421E-18
 -1      1193 8.78188E-05-2.63747E-05-2.63807E-05-2.44190E-08 1.94272E-20 3.69666E-18
 -1      1194 8.81503E-05-2.64688E-05-2.64516E-05-3.30771E-08 4.41053E-21 3.12812E-18
 -1      1195 8.88222E-05-2.66623E-05-2.66473E-05-3.37619E-08-9.65237E-21 3.52319E-18
 -1      1196 8.96331E-05-2.69002E-05-2.68877E-05-3.14002E-08 1.17902E-20 4.15396E-18
 -1      1197 9.04758E-05-2.71499E-05-2.71385E-05-2.75326E-08 2.66626E-20 3.65911E-18
 -1      1198 9.12944E-05-2.73938E-05-2.73832E-05-2.28394E-08 6.89461E-20 3.20488E-18
 -1      1199 9.20651E-05-2.76242E-05-2.76147E-05-1.77111E-08 1.01201E-19 2.09757E-18
 -1      1200 9.27863E-05-2.78404E-05-2.78324E-05-1.23895E-08-6.47243E-21 1.11572E-18
 -1      1201 9.34727E-05-2.80467E-05-2.80407E-05-7.02466E-09 1.31782E-20 1.21437E-18
 -1      1202 9.41521E-05-2.82515E-05-2.82478E-05-1.71598E-09-2.89224E-19 2.17244E-18
 -1      1203 9.48638E-05-2.84664E-05-2.84656E-05 3.44703E-09 1.12062E-19 1.47540E-18
 -1      1204 9.56582E-05-2.87067E-05-2.87093E-05 8.33451E-09 8.25754E-20 7.34073E-20
 -1      1205 9.65974E-05-2.89909E-05-2.89978E-05 1.27053E-08-1.44652E-19 8.73590E-19
 -1      1206 9.77552E-05-2.93410E-05-2.93534E-05 1.60988E-08 8.86092E-20 7.21500E-19
 -1      1207 9.92183E-05-2.97827E-05-2.98023E-05 1.76668E-08 2.25561E-19-4.15986E-19
 -1      1208 1.01084E-04-3.03448E-05-3.03734E-05 1.59233E-08-6.30626E-20-4.32503E-19
 -1      1209 1.03455E-04-3.10567E-05-3.10964E-05 8.40978E-09-1.02288E-19 1.56521E-18
 -1      1210 1.06422E-04-3.19443E-05-3.19961E-05-8.64033E-09 2.56335E-20 2.19790E-18
 -1      1211 1.10036E-04-3.30199E-05-3.30812E-05-4.03110E-08 8.98368E-20 3.38496E-19
 -1      1212 1.14241E-04-3.42638E-05-3.43241E-05-9.18119E-08-6.17375E-20-9.81526E-19
 -1      1213 1.18775E-04-3.55962E-05-3.56288E-05-1.64311E-07-1.56306E-19 7.56427E-19
 -1      1214 1.23028E-04-3.68366E-05-3.67925E-05-2.45438E-07 2.67709E-20 2.05908E-18
 -1      1215 1.25898E-04-3.76687E-05-3.74807E-05-2.94600E-07-4.86614E-20 2.12409E-18
 -1      1216 1.25810E-04-3.76478E-05-3.72663E-05-2.34602E-07 1.72126E-19-1.09140E-18
 -1      1217 1.21180E-04-3.63258E-05-3.57981E-05 1.76348E-08-2.89533E-19-5.22513E-19
 -1      1218 1.11559E-04-3.35546E-05-3.31057E-05 4.51809E-07 1.19478E-20-4.36116E-19
 -1      1219 9.90786E-05-2.98858E-05-2.98705E-05 8.61233E-07 2.45706E-20-2.12605E-18
 -1      1220 8.86855E-05-2.67138E-05-2.73293E-05 9.17464E-07-7.28184E-20 5.68571E-20
 -1      1221 8.56725E-05-2.56538E-05-2.66585E-05 4.77112E-07-3.07844E-20 9.28467E-19
 -1      1222 9.17597E-05-2.73793E-05-2.81897E-05-2.02659E-07-2.65856E-19 1.93632E-18
 -1      1223 1.03572E-04-3.09552E-05-3.11679E-05-6.90117E-07-1.87780E-19 4.15385E-18
 -1      1224 1.15446E-04-3.46102E-05-3.42936E-05-7.82224E-07-3.01918E-19 3.54684E-18
 -1      1225 1.23291E-04-3.70258E-05-3.65102E-05-5.82805E-07 2.80262E-19-5.99911E-19
 -1      1226 1.26046E-04-3.78641E-05-3.74198E-05-3.01658E-07-1.12530E-20-3.60010E-18
 -1      1227 1.24754E-04-3.74609E-05-3.71899E-05-7.48319E-08 5.26848E-20-1.65340E-18
 -1      1228 1.21097E-04-3.63446E-05-3.62299E-05 5.99751E-08-8.20729E-20-8.08546E-19
 -1      1229 1.16500E-04-3.49534E-05-3.49379E-05 1.19202E-07 1.19317E-20 6.93561E-19
 -1      1230 1.11875E-04-3.35607E-05-3.35937E-05 1.32298E-07-3.02555E-19 1.55616E-18
 -1      1231 1.07686E-04-3.23036E-05-3.23529E-05 1.23015E-07-2.00787E-19 1.19556E-18
 -1      1232 1.04112E-04-3.12330E-05-3.12822E-05 1.06093E-07-7.73695E-20 2.12155E-20
 -1      1233 1.01175E-04-3.03546E-05-3.03979E-05 8.91925E-08 1.85781E-19-2.12998E-18
 -1      1234 9.88391E-05-2.96563E-05-2.96946E-05 7.55097E-08 4.85134E-19-7.17040E-18
 -1      1235 9.70613E-05-2.91254E-05-2.91636E-05 6.50256E-08 1.05780E-20-9.12127E-18
 -1      1236 9.58346E-05-2.87592E-05-2.88009E-05 5.17223E-08-1.52498E-19-7.19501E-18
 -1      1237 9.52033E-05-2.85677E-05-2.85983E-05 1.75486E-08 5.34902E-19-8.51796E-18
 -1      1238 9.51428E-05-2.85445E-05-2.84968E-05-3.27790E-08 2.58847E-19-5.53374E-18
 -1      1239 9.52660E-05-2.86683E-05-2.84999E-05-3.16933E-08-6.61051E-18-7.01043E-19
 -1      1240 9.52243E-05-2.85808E-05-2.86056E-05-2.58543E-08-1.10086E-17-7.69910E-19
 -1      1241 9.50392E-05-2.79460E-05-2.88026E-05 2.86004E-08-6.44327E-18-4.88649E-20
 -1      1242 9.47192E-05-2.68570E-05-2.91075E-05 5.31221E-08-4.02820E-18 3.41032E-19
 -1      1243 9.43401E-05-2.55674E-05-2.94698E-05 5.85895E-08-3.35716E-19-1.40467E-19
 -1      1244 9.39768E-05-2.43321E-05-2.98203E-05 5.12021E-08-7.75258E-18-6.41065E-19
 -1      1245 9.36851E-05-2.33407E-05-3.01044E-05 3.68082E-08-6.98541E-18 5.40743E-19
 -1      1246 9.35045E-05-2.27280E-05-3.02812E-05 1.70141E-08-2.32113E-18-1.92035E-19
 -1      1247 9.34607E-05-2.25805E-05-3.03248E-05-4.07249E-09 2.73208E-19-1.84809E-19
 -1      1248 9.35558E-05-2.29054E-05-3.02326E-05-2.36941E-08 1.95559E-18-1.20272E-20
 -1      1249 9.37733E-05-2.36466E-05-3.00203E-05-3.94919E-08 3.00726E-18-9.96177E-19
 -1      1250 9.40794E-05-2.46857E-05-2.97228E-05-4.96144E-08-5.15934E-18 1.93500E-19
 -1      1251 9.44308E-05-2.58805E-05-2.93814E-05-5.20894E-08-3.30458E-18 1.03172E-18
 -1      1252 9.47803E-05-2.70666E-05-2.90458E-05-4.55133E-08 2.53359E-18-3.30962E-19
 -1      1253 9.50713E-05-2.80471E-05-2.87720E-05-2.82688E-08 9.15401E-19-2.76112E-19
 -1      1254 9.52078E-05-2.85578E-05-2.85993E-05 4.50904E-08-1.97974E-18-1.04235E-18
 -1      1255 9.52675E-05-2.86649E-05-2.85072E-05 3.18675E-08-1.66377E-18-2.87615E-20
 -1      1256 3.44901E-05-1.08138E-04 1.83249E-05-1.38808E-05 4.00647E-18 1.27553E-18
 -1      1257 1.84901E-05-6.92808E-05 1.04519E-05-2.64864E-05 6.48319E-18 2.53030E-18
 -1      1258 7.72756E-06-1.36779E-05-4.59497E-06-4.67124E-06 8.33819E-18 5.44557E-18
 -1      1259 3.26503E-05 2.13756E-05-2.45090E-05 4.78279E-05 8.65329E-18 7.08967E-18
 -1      1260 1.06953E-04 1.20160E-05-4.60856E-05 9.86433E-05 1.15789E-18 6.50521E-19
 -1      1261 2.08443E-04-3.33844E-05-6.43559E-05 1.09586E-04-7.35225E-19 2.15146E-19
 -1      1262 2.91019E-04-8.05985E-05-7.57616E-05 6.61667E-05-1.42937E-19-6.73391E-19
 -1      1263 3.15820E-04-9.60443E-05-7.88064E-05-1.47103E-05 1.30152E-19-7.38401E-19
 -1      1264 2.67037E-04-6.58503E-05-7.26473E-05-8.68061E-05-2.13241E-19 5.78524E-19
 -1      1265 1.70766E-04-1.43770E-05-5.82722E-05-1.10001E-04 1.29173E-18-1.46028E-18
 -1      1266 7.47609E-05 2.15875E-05-3.85143E-05-8.41443E-05 3.45251E-18-4.74169E-18
 -1      1267 1.85710E-05 1.56522E-05-1.82186E-05-3.03554E-05 5.63108E-18-4.58838E-18
 -1      1268 8.17825E-06-2.87048E-05 2.98515E-07 1.41577E-05 8.31956E-18-3.86374E-18
 -1      1269 2.39166E-05-8.33866E-05 1.34757E-05 2.64213E-05 7.86978E-18-2.66900E-18
 -1      1270 3.61388E-05-1.11924E-04 1.90262E-05 7.33257E-06 9.67947E-19-1.03169E-18
 -1      1271 3.08515E-05-9.97781E-05 1.68156E-05-1.72869E-05-4.13903E-18-5.56077E-19
 -1      1272 1.45933E-05-5.53975E-05 7.33508E-06-2.31163E-05-4.99580E-18-1.90117E-18
 -1      1273 8.04701E-06-2.42315E-06-8.13316E-06 5.19683E-06-6.47303E-18-3.51519E-18
 -1      1274 3.61940E-05 2.58492E-05-2.69140E-05 5.58700E-05-6.32734E-18-6.10372E-18
 -1      1275 1.06397E-04 1.34345E-05-4.62657E-05 9.98300E-05-4.00985E-18-5.33292E-18
 -1      1276 2.02739E-04-3.11487E-05-6.31496E-05 1.09396E-04-1.30697E-18-1.75082E-18
 -1      1277 2.82101E-04-7.61697E-05-7.42167E-05 6.40980E-05-4.06893E-19-1.93801E-18
 -1      1278 3.05294E-04-9.02165E-05-7.72446E-05-1.50239E-05 5.05785E-19-3.42646E-18
 -1      1279 2.60523E-04-6.33985E-05-7.13108E-05-8.57380E-05 1.18796E-18-3.40592E-18
 -1      1280 1.69541E-04-1.37179E-05-5.80345E-05-1.11137E-04 2.49112E-18-4.23008E-18
 -1      1281 7.96083E-05 2.21107E-05-4.01385E-05-8.93269E-05 2.52416E-18-3.34070E-18
 -1      1282 2.25148E-05 2.02303E-05-2.05303E-05-3.82763E-05-3.89635E-20-7.36919E-19
 -1      1283 7.16379E-06-1.82419E-05-2.47043E-06 8.06010E-06-4.22500E-18 1.44080E-18
 -1      1284 1.95145E-05-7.03427E-05 1.08421E-05 2.50231E-05-4.40627E-18 2.12034E-18
 -1      1285 3.46882E-05-1.07740E-04 1.82082E-05 1.22967E-05-1.53101E-18 6.37922E-19
 -1      1286 1.04380E-04-2.20038E-05-3.78712E-05-1.72785E-05-1.29596E-19 7.06425E-19
 -1      1287 9.02806E-05-6.67511E-06-3.60029E-05-2.04833E-05-2.17052E-19-7.55342E-19
 -1      1288 9.26075E-05-6.73293E-06-3.72048E-05-2.57677E-05-3.32672E-19-4.32728E-19
 -1      1289 8.58861E-05-4.09470E-06-3.51226E-05-1.64481E-05-1.96829E-19-1.09519E-18
 -1      1290 8.71282E-05-4.08696E-06-3.55884E-05-1.88674E-05-2.32405E-19-9.73082E-19
 -1      1291 9.20977E-05-1.04556E-05-3.50811E-05-1.90466E-05-3.89185E-19-6.05946E-19
 -1      1292 8.40954E-05-3.19086E-06-3.46861E-05-1.28305E-05-7.58094E-20-1.17911E-18
 -1      1293 8.46993E-05-3.16147E-06-3.49073E-05-1.46456E-05-1.21549E-19-1.13283E-18
 -1      1294 8.78527E-05-7.39359E-06-3.45683E-05-1.54244E-05-2.62580E-19-8.75567E-19
 -1      1295 8.31987E-05-2.72875E-06-3.44754E-05-9.69984E-06-4.24840E-21-1.18745E-18
 -1      1296 8.35048E-05-2.71026E-06-3.45817E-05-1.12477E-05 1.49290E-20-1.19176E-18
 -1      1297 8.58698E-05-5.98326E-06-3.43062E-05-1.19665E-05-5.75254E-20-9.65141E-19
 -1      1298 8.27202E-05-2.45995E-06-3.43737E-05-6.92540E-06 6.56517E-20-1.11210E-18
 -1      1299 8.28838E-05-2.45146E-06-3.44259E-05-8.29799E-06 5.09874E-20-1.14776E-18
 -1      1300 8.48390E-05-5.21973E-06-3.41792E-05-8.95541E-06 2.29294E-20-9.13843E-19
 -1      1301 8.24535E-05-2.29482E-06-3.43245E-05-4.30146E-06 9.50497E-20-9.68119E-19
 -1      1302 8.25408E-05-2.29086E-06-3.43501E-05-5.60454E-06 9.69687E-20-1.04820E-18
 -1      1303 8.42655E-05-4.76609E-06-3.41204E-05-6.22433E-06 1.08220E-19-8.51533E-19
 -1      1304 8.23256E-05-2.20543E-06-3.43042E-05-1.79264E-06 1.84528E-19-8.42215E-19
 -1      1305 8.23628E-05-2.20386E-06-3.43145E-05-3.04558E-06 1.43938E-19-8.99205E-19
 -1      1306 8.39507E-05-4.50262E-06-3.40947E-05-3.64913E-06 1.84415E-19-7.45786E-19
 -1      1307 8.23003E-05-2.17781E-06-3.43019E-05 6.70966E-07 2.25143E-19-7.18469E-19
 -1      1308 8.22990E-05-2.17787E-06-3.43015E-05-5.66763E-07 2.20593E-19-7.85782E-19
 -1      1309 8.38129E-05-4.38289E-06-3.40854E-05-1.17183E-06 3.24256E-19-6.26381E-19
 -1      1310 8.23710E-05-2.20798E-06-3.43159E-05 3.15323E-06 2.76636E-19-6.01936E-19
 -1      1311 8.23311E-05-2.20963E-06-3.43049E-05 1.89779E-06 2.79300E-19-6.77812E-19
 -1      1312 8.38177E-05-4.38694E-06-3.40858E-05 1.27547E-06 4.06554E-19-5.16253E-19
 -1      1313 8.25577E-05-2.30089E-06-3.43528E-05 5.72109E-06 3.47012E-19-4.77978E-19
 -1      1314 8.24668E-05-2.30428E-06-3.43264E-05 4.41220E-06 3.14916E-19-5.50068E-19
 -1      1315 8.39657E-05-4.51575E-06-3.40958E-05 3.75681E-06 4.88511E-19-4.02420E-19
 -1      1316 8.29073E-05-2.46626E-06-3.44290E-05 8.40599E-06 3.57534E-19-2.45494E-19
 -1      1317 8.27399E-05-2.47500E-06-3.43762E-05 7.02476E-06 3.48501E-19-3.90204E-19
 -1      1318 8.42907E-05-4.78853E-06-3.41218E-05 6.31818E-06 5.55928E-19-3.17134E-19
 -1      1319 8.35517E-05-2.74278E-06-3.45869E-05 1.14087E-05 4.51667E-19 6.28922E-20
 -1      1320 8.32375E-05-2.75997E-06-3.44791E-05 9.84276E-06 3.98820E-19-8.84885E-20
 -1      1321 8.48822E-05-5.26082E-06-3.41805E-05 9.06385E-06 6.14271E-19-2.93815E-20
 -1      1322 8.47557E-05-3.20342E-06-3.49151E-05 1.48585E-05 4.70156E-19 5.01073E-19
 -1      1323 8.41520E-05-3.24034E-06-3.46917E-05 1.30180E-05 4.32913E-19 2.22320E-19
 -1      1324 8.59501E-05-6.06402E-06-3.43075E-05 1.21343E-05 7.22201E-19 2.48525E-19
 -1      1325 8.72270E-05-4.08794E-06-3.56098E-05 1.91043E-05 4.59039E-19 1.22354E-18
 -1      1326 8.59531E-05-4.15216E-06-3.51301E-05 1.67076E-05 4.16899E-19 7.94199E-19
 -1      1327 8.79763E-05-7.51511E-06-3.45702E-05 1.56627E-05 7.20904E-19 7.47374E-19
 -1      1328 9.34205E-05-6.78561E-06-3.71003E-05 2.51036E-05 3.23461E-19 2.32828E-18
 -1      1329 9.00956E-05-6.43206E-06-3.60255E-05 2.11602E-05 3.55330E-19 1.68004E-18
 -1      1330 9.23273E-05-1.06911E-05-3.50663E-05 1.96871E-05 6.30140E-19 1.46902E-18
 -1      1331 1.23562E-04-2.49086E-05-3.89947E-05 2.83653E-05 6.11981E-20 4.00308E-18
 -1      1332 1.00028E-04-1.44125E-05-3.73358E-05 2.40553E-05 1.08420E-19 2.89082E-18
 -1      1333 1.01626E-04-1.93286E-05-3.53857E-05 2.14063E-05 5.08326E-19 2.44242E-18
 -1      1334 1.02539E-04-2.77854E-05-3.47375E-05 7.33448E-06 1.64563E-19 4.00181E-18
 -1      1335 1.05081E-04-3.02102E-05-3.35052E-05-7.96446E-06-2.82697E-19 8.63550E-19
 -1      1336 9.81902E-05-2.78216E-05-3.07410E-05-4.99290E-06-2.48922E-19 5.40778E-19
 -1      1337 9.54305E-05-2.78273E-05-2.92329E-05-2.49383E-06-1.66627E-19 3.84718E-19
 -1      1338 9.31942E-05-2.75352E-05-2.81923E-05-2.04689E-06-2.12632E-19 9.94734E-20
 -1      1339 9.94232E-05-2.80330E-05-3.09644E-05-7.89486E-06-4.51151E-19 6.62274E-20
 -1      1340 9.15032E-05-2.71773E-05-2.75574E-05-8.42094E-07-1.85500E-19 2.26581E-20
 -1      1341 9.07824E-05-2.70806E-05-2.72539E-05-7.32160E-07-1.85818E-19-2.69992E-19
 -1      1342 9.46537E-05-2.77511E-05-2.87970E-05-3.12769E-06-3.56548E-19-1.31422E-19
 -1      1343 9.00307E-05-2.68971E-05-2.70103E-05-1.78030E-07-1.35383E-19-4.20075E-19
 -1      1344 8.99539E-05-2.69222E-05-2.69744E-05-1.19690E-07-2.02100E-19-6.78831E-19
 -1      1345 9.24519E-05-2.74789E-05-2.78755E-05-1.06068E-06-3.34373E-19-2.86072E-19
 -1      1346 8.96945E-05-2.68547E-05-2.69002E-05 1.52375E-07-8.70326E-20-6.99543E-19
 -1      1347 8.99068E-05-2.69439E-05-2.69612E-05 1.81504E-07-5.71780E-20-7.84339E-19
 -1      1348 9.14918E-05-2.73345E-05-2.75086E-05-7.50143E-08-2.62491E-19-3.89906E-19
 -1      1349 8.99134E-05-2.69478E-05-2.69686E-05 3.15457E-07-9.16351E-21-8.81894E-19
 -1      1350 9.02564E-05-2.70673E-05-2.70679E-05 3.27885E-07-1.50770E-20-8.88425E-19
 -1      1351 9.12416E-05-2.73228E-05-2.74019E-05 4.17998E-07-1.04711E-19-4.62152E-19
 -1      1352 9.04055E-05-2.71110E-05-2.71173E-05 3.87027E-07 8.00698E-20-7.85610E-19
 -1      1353 9.07987E-05-2.72404E-05-2.72311E-05 3.89879E-07 1.43252E-19-7.06995E-19
 -1      1354 9.13844E-05-2.73986E-05-2.74275E-05 6.55218E-07 6.85460E-20-2.95040E-19
 -1      1355 9.10204E-05-2.73044E-05-2.73018E-05 4.07676E-07 3.57928E-20-6.96185E-19
 -1      1356 9.14211E-05-2.74325E-05-2.74182E-05 4.05353E-07-9.33049E-20-7.73490E-19
 -1      1357 9.17374E-05-2.75222E-05-2.75234E-05 7.51955E-07-6.73540E-20-2.61149E-19
 -1      1358 9.16756E-05-2.75056E-05-2.74984E-05 4.01663E-07-2.10565E-19-7.77192E-19
 -1      1359 9.20627E-05-2.76268E-05-2.76114E-05 3.97083E-07-2.37812E-19-9.54050E-19
 -1      1360 9.21953E-05-2.76682E-05-2.76553E-05 7.72203E-07-2.44840E-19-3.55454E-19
 -1      1361 9.23289E-05-2.77030E-05-2.76949E-05 3.84766E-07-2.59203E-19-1.06155E-18
 -1      1362 9.26948E-05-2.78158E-05-2.78023E-05 3.79992E-07 7.83032E-20-1.12017E-18
 -1      1363 9.26986E-05-2.78218E-05-2.78043E-05 7.55420E-07-2.76560E-19-7.10147E-20
 -1      1364 9.29637E-05-2.78926E-05-2.78864E-05 3.67946E-07 2.97746E-19-1.33666E-18
 -1      1365 9.33107E-05-2.79982E-05-2.79887E-05 3.64493E-07 2.53400E-20-1.18475E-18
 -1      1366 9.32176E-05-2.79759E-05-2.79605E-05 7.27951E-07 1.06039E-20-4.05320E-19
 -1      1367 9.35819E-05-2.80754E-05-2.80734E-05 3.59189E-07-2.95603E-19-1.23368E-18
 -1      1368 9.39190E-05-2.81769E-05-2.81732E-05 3.58216E-07-3.78051E-19-1.63643E-18
 -1      1369 9.37428E-05-2.81288E-05-2.81204E-05 7.08440E-07-1.76318E-19-9.26307E-19
 -1      1370 9.41984E-05-2.82563E-05-2.82603E-05 3.64544E-07-1.13886E-20-1.67168E-18
 -1      1371 9.45400E-05-2.83584E-05-2.83618E-05 3.66971E-07 2.00125E-19-1.47283E-18
 -1      1372 9.42793E-05-2.82826E-05-2.82852E-05 7.10672E-07-2.17989E-19-9.48228E-19
 -1      1373 9.48379E-05-2.84430E-05-2.84546E-05 3.88692E-07 5.71102E-20-1.42725E-18
 -1      1374 9.52027E-05-2.85515E-05-2.85631E-05 3.95253E-07-4.05421E-19-1.86696E-18
 -1      1375 9.48424E-05-2.84425E-05-2.84590E-05 7.45147E-07-2.04456E-20-1.06691E-18
 -1      1376 9.55329E-05-2.86455E-05-2.86659E-05 4.35152E-07-5.74703E-19-1.76396E-18
 -1      1377 9.59425E-05-2.87674E-05-2.87878E-05 4.46398E-07-4.43370E-19-2.30559E-18
 -1      1378 9.54559E-05-2.86160E-05-2.86488E-05 8.19811E-07-4.68968E-19-1.28080E-18
 -1      1379 9.63209E-05-2.88752E-05-2.89054E-05 5.06121E-07-2.23481E-19-2.57167E-18
 -1      1380 9.67990E-05-2.90180E-05-2.90476E-05 5.22350E-07-2.71177E-19-3.05586E-18
 -1      1381 9.61485E-05-2.88124E-05-2.88629E-05 9.40065E-07-6.11897E-19-1.42075E-18
 -1      1382 9.72421E-05-2.91449E-05-2.91851E-05 6.01883E-07-1.66453E-19-2.67282E-18
 -1      1383 9.78122E-05-2.93163E-05-2.93543E-05 6.22969E-07-2.47904E-19-3.00585E-18
 -1      1384 9.69521E-05-2.90420E-05-2.91104E-05 1.10797E-06-3.92608E-19-1.87540E-18
 -1      1385 9.83352E-05-2.94669E-05-2.95162E-05 7.19643E-07-7.47035E-20-2.94921E-18
 -1      1386 9.90178E-05-2.96740E-05-2.97182E-05 7.44745E-07 1.50409E-19-2.87637E-18
 -1      1387 9.78980E-05-2.93156E-05-2.93999E-05 1.32045E-06-2.36758E-19-1.70368E-18
 -1      1388 9.96314E-05-2.98522E-05-2.99075E-05 8.51645E-07 3.87004E-19-3.13057E-18
 -1      1389 1.00439E-04-3.00997E-05-3.01456E-05 8.78738E-07 2.55021E-19-2.73963E-18
 -1      1390 9.90125E-05-2.96436E-05-2.97379E-05 1.56625E-06 4.89244E-20-1.95712E-18
 -1      1391 1.01145E-04-3.03072E-05-3.03621E-05 9.82451E-07 5.47025E-19-2.84555E-18
 -1      1392 1.02074E-04-3.05955E-05-3.06347E-05 1.00766E-06 1.92908E-19-2.05099E-18
 -1      1393 1.00309E-04-3.00337E-05-3.01266E-05 1.82138E-06 3.18843E-19-2.07194E-18
 -1      1394 1.02858E-04-3.08302E-05-3.08733E-05 1.08548E-06-3.53204E-20-1.72616E-18
 -1      1395 1.03877E-04-3.11518E-05-3.11705E-05 1.10227E-06-1.08907E-19-1.67583E-18
 -1      1396 1.01779E-04-3.04888E-05-3.05603E-05 2.04312E-06 2.29723E-19-2.46192E-18
 -1      1397 1.04704E-04-3.14054E-05-3.14181E-05 1.11955E-06 1.86821E-19-1.69432E-18
 -1      1398 1.05740E-04-3.17398E-05-3.17176E-05 1.11792E-06 1.46099E-19-1.71441E-18
 -1      1399 1.03377E-04-3.10025E-05-3.10214E-05 2.16343E-06-5.05575E-20-1.75013E-18
 -1      1400 1.06541E-04-3.19951E-05-3.19511E-05 1.02733E-06-9.86231E-20-1.39025E-18
 -1      1401 1.07464E-04-3.23034E-05-3.22141E-05 9.93666E-07-1.90981E-19-1.74948E-18
 -1      1402 1.05005E-04-3.15531E-05-3.14759E-05 2.08470E-06 1.17271E-19-2.10128E-18
 -1      1403 1.08128E-04-3.25307E-05-3.23982E-05 7.40008E-07 5.24416E-20-1.40105E-18
 -1      1404 1.08742E-04-3.27507E-05-3.25672E-05 6.58815E-07 4.24805E-19-1.15276E-18
 -1      1405 1.06492E-04-3.20952E-05-3.18698E-05 1.68387E-06-8.56959E-22-1.23491E-18
 -1      1406 1.09123E-04-3.29059E-05-3.26563E-05 1.94884E-07 4.05395E-19-9.43125E-19
 -1      1407 1.09174E-04-3.29527E-05-3.26603E-05 5.41989E-08 1.52506E-19-4.28943E-19
 -1      1408 1.07590E-04-3.25498E-05-3.21303E-05 8.36012E-07 5.60319E-19-1.10498E-18
 -1      1409 1.09102E-04-3.29778E-05-3.26063E-05-6.26854E-07-8.42368E-20-7.45154E-19
 -1      1410 1.08333E-04-3.27568E-05-3.23763E-05-8.24449E-07-2.34906E-19-1.21371E-18
 -1      1411 1.07983E-04-3.27977E-05-3.21748E-05-5.29522E-07 4.16303E-20-7.08337E-19
 -1      1412 1.07661E-04-3.25904E-05-3.21453E-05-1.64206E-06-1.91906E-19-1.47606E-18
 -1      1413 1.05915E-04-3.20320E-05-3.16456E-05-1.86422E-06-1.34122E-19-1.54695E-18
 -1      1414 1.07342E-04-3.26868E-05-3.19337E-05-2.33419E-06-6.31159E-19-9.66159E-19
 -1      1415 1.04599E-04-3.16355E-05-3.12405E-05-2.61200E-06 2.70276E-19-1.12274E-18
 -1      1416 1.01972E-04-3.07516E-05-3.05079E-05-2.78725E-06 1.41322E-19-6.72782E-19
 -1      1417 1.05449E-04-3.20754E-05-3.13848E-05-4.24270E-06 2.69423E-19-1.45658E-18
 -1      1418 1.00168E-04-3.01532E-05-2.99890E-05-3.15443E-06-4.36530E-19-5.71244E-19
 -1      1419 9.71267E-05-2.90920E-05-2.91578E-05-3.18774E-06-2.44659E-19-4.56551E-19
 -1      1420 1.02384E-04-3.09256E-05-3.05884E-05-5.63103E-06-2.87634E-19-3.30548E-19
 -1      1421 9.52437E-05-2.84262E-05-2.86440E-05-2.88743E-06-5.49731E-19-9.43727E-19
 -1      1422 9.25840E-05-2.74738E-05-2.79286E-05-2.71242E-06-3.26951E-19-1.12023E-18
 -1      1423 9.86938E-05-2.94201E-05-2.97030E-05-5.75628E-06-4.91792E-19-1.11282E-18
 -1      1424 9.12016E-05-2.69640E-05-2.75654E-05-1.68413E-06 2.43879E-19-1.47900E-18
 -1      1425 8.97803E-05-2.64471E-05-2.71870E-05-1.32528E-06 6.89538E-21-1.16750E-18
 -1      1426 9.53862E-05-2.79976E-05-2.89551E-05-4.16572E-06-4.53156E-19-1.22629E-18
 -1      1427 8.94031E-05-2.63055E-05-2.70897E-05 1.38614E-07 1.18055E-19-2.02743E-18
 -1      1428 8.97288E-05-2.64250E-05-2.71759E-05 5.51162E-07-2.98288E-19-2.57625E-18
 -1      1429 9.35914E-05-2.72046E-05-2.85636E-05-1.12508E-06-3.43181E-19-1.79669E-18
 -1      1430 9.05036E-05-2.67163E-05-2.73759E-05 1.90913E-06-3.70114E-20-1.72628E-18
 -1      1431 9.24527E-05-2.74233E-05-2.78958E-05 2.21016E-06 2.11030E-19-1.93266E-18
 -1      1432 9.39984E-05-2.73884E-05-2.86501E-05 2.32985E-06 1.35922E-19-1.93378E-18
 -1      1433 9.40737E-05-2.80151E-05-2.83258E-05 2.98183E-06 2.64089E-19-1.34329E-18
 -1      1434 9.69602E-05-2.90415E-05-2.91056E-05 3.07579E-06 2.81235E-19-1.18026E-18
 -1      1435 9.64388E-05-2.84645E-05-2.91847E-05 4.91742E-06 3.02914E-19-1.72527E-18
 -1      1436 9.88570E-05-2.96996E-05-2.96318E-05 3.10085E-06-2.42615E-19-9.43330E-19
 -1      1437 1.01799E-04-3.07149E-05-3.04408E-05 3.00288E-06-4.31884E-19-1.56979E-18
 -1      1438 9.99898E-05-2.99723E-05-3.00000E-05 5.85069E-06 3.60825E-19-2.25405E-18
 -1      1439 1.03432E-04-3.12410E-05-3.09213E-05 2.45018E-06-4.18146E-19-1.63795E-18
 -1      1440 1.05734E-04-3.20040E-05-3.15686E-05 2.24554E-06-2.56625E-20-1.70889E-18
 -1      1441 1.03502E-04-3.13730E-05-3.08633E-05 5.16604E-06-6.41118E-19-2.40070E-18
 -1      1442 1.06788E-04-3.23055E-05-3.19039E-05 1.43307E-06 5.63959E-19-1.98177E-18
 -1      1443 1.08127E-04-3.27227E-05-3.22916E-05 1.21212E-06-2.01170E-20-1.35711E-18
 -1      1444 1.06118E-04-3.23154E-05-3.15656E-05 3.48340E-06 3.63119E-19-1.91822E-18
 -1      1445 1.08529E-04-3.28017E-05-3.24439E-05 4.20226E-07-4.60468E-19-1.14508E-19
 -1      1446 1.08919E-04-3.28982E-05-3.25661E-05 2.39747E-07 3.60558E-19-5.33409E-19
 -1      1447 1.07473E-04-3.27108E-05-3.19833E-05 1.53764E-06 2.12063E-19-1.33602E-18
 -1      1448 1.08761E-04-3.28055E-05-3.25486E-05-3.73763E-07 5.52325E-20-4.19170E-19
 -1      1449 1.08411E-04-3.26652E-05-3.24572E-05-4.94036E-07-8.13870E-19-1.17404E-18
 -1      1450 1.07621E-04-3.26483E-05-3.20894E-05-1.48403E-07 2.05564E-19-2.71615E-19
 -1      1451 1.07855E-04-3.24627E-05-3.23115E-05-8.85890E-07-1.15020E-18-1.53452E-18
 -1      1452 1.07028E-04-3.21790E-05-3.20789E-05-9.50158E-07-1.46566E-18-3.24248E-18
 -1      1453 1.06837E-04-3.22807E-05-3.19281E-05-1.34366E-06-1.32565E-18-1.91314E-18
 -1      1454 1.06241E-04-3.19203E-05-3.18540E-05-1.14582E-06-7.44800E-19-3.69850E-18
 -1      1455 1.05174E-04-3.15706E-05-3.15477E-05-1.16802E-06 5.37469E-20-4.00272E-18
 -1      1456 1.05456E-04-3.17503E-05-3.15776E-05-2.03527E-06-1.63459E-18-1.90465E-18
 -1      1457 1.04291E-04-3.12949E-05-3.12863E-05-1.21868E-06 1.14379E-18-3.40055E-18
 -1      1458 1.03159E-04-3.09330E-05-3.09578E-05-1.21354E-06 9.11169E-19-2.42189E-18
 -1      1459 1.03776E-04-3.11617E-05-3.11195E-05-2.31954E-06 1.08021E-18-2.92885E-18
 -1      1460 1.02279E-04-3.06660E-05-3.06922E-05-1.16969E-06 1.60641E-19-5.87014E-19
 -1      1461 1.01195E-04-3.03250E-05-3.03759E-05-1.14873E-06 4.91114E-19-5.42412E-19
 -1      1462 1.02021E-04-3.05815E-05-3.06223E-05-2.31971E-06 1.59923E-18-1.45525E-18
 -1      1463 1.00380E-04-3.00819E-05-3.01277E-05-1.04855E-06 9.82408E-19-5.02277E-19
 -1      1464 9.94126E-05-2.97800E-05-2.98445E-05-1.01905E-06 7.01840E-19 8.30331E-19
 -1      1465 1.00345E-04-3.00471E-05-3.01362E-05-2.14192E-06 8.77321E-19 1.48253E-18
 -1      1466 9.87014E-05-2.95692E-05-2.96273E-05-8.85526E-07 6.14399E-19 1.11410E-18
 -1      1467 9.78903E-05-2.93166E-05-2.93902E-05-8.50808E-07 6.61435E-19 1.59718E-18
 -1      1468 9.88406E-05-2.95773E-05-2.96946E-05-1.85906E-06 1.19719E-18 9.53389E-19
 -1      1469 9.73062E-05-2.91424E-05-2.92129E-05-6.93009E-07 2.21495E-19 9.33238E-19
 -1      1470 9.66816E-05-2.89468E-05-2.90314E-05-6.52865E-07 1.72619E-19 1.62065E-18
 -1      1471 9.75642E-05-2.91800E-05-2.93193E-05-1.50942E-06 5.33227E-19 2.24083E-20
 -1      1472 9.62394E-05-2.88121E-05-2.88995E-05-4.70980E-07 4.48380E-19 1.37303E-18
 -1      1473 9.58329E-05-2.86844E-05-2.87808E-05-4.22379E-07-9.12537E-20 1.79919E-18
 -1      1474 9.65501E-05-2.88589E-05-2.90234E-05-1.10320E-06 3.48175E-19-8.38833E-19
 -1      1475 9.55312E-05-2.85844E-05-2.86940E-05-2.16221E-07-6.64982E-19 2.29018E-18
 -1      1476 9.53713E-05-2.85510E-05-2.86341E-05-1.59999E-07-7.31974E-19 1.50462E-18
 -1      1477 9.58133E-05-2.86175E-05-2.88106E-05-6.45062E-07-3.09452E-19-2.56826E-19
 -1      1478 9.52132E-05-2.85623E-05-2.85542E-05 3.22553E-08-1.68001E-18 1.01825E-18
 -1      1479 9.53358E-05-2.85189E-05-2.86386E-05-1.39850E-07-1.31172E-18-2.61924E-19
 -1      1480 9.65042E-05-2.83417E-05-2.97506E-05 3.00009E-06 2.40663E-19 3.52170E-18
 -1      1481 1.02468E-04-2.93783E-05-3.21352E-05 4.46724E-06 2.06305E-19 3.75596E-18
 -1      1482 1.02264E-04-2.66996E-05-3.26870E-05 1.27899E-05 3.71689E-19 2.77901E-18
 -1      1483 9.19503E-05-2.74051E-05-2.77377E-05 1.15618E-06 1.16666E-19 3.14855E-18
 -1      1484 9.39018E-05-2.75618E-05-2.86533E-05 1.47804E-06 1.26870E-19 3.32637E-18
 -1      1485 9.64204E-05-2.80102E-05-2.95138E-05 4.87525E-06 2.76927E-19 2.43274E-18
 -1      1486 9.01104E-05-2.69781E-05-2.70367E-05 3.35679E-07 1.88266E-19 2.83004E-18
 -1      1487 9.07300E-05-2.69972E-05-2.73106E-05 4.98428E-07 1.08996E-19 2.93346E-18
 -1      1488 9.29708E-05-2.75573E-05-2.80773E-05 1.85906E-06 2.54414E-19 1.97990E-18
 -1      1489 8.95871E-05-2.68580E-05-2.68592E-05-5.19748E-08 1.78112E-19 2.40792E-18
 -1      1490 8.96286E-05-2.67970E-05-2.68886E-05 3.71025E-08 1.52357E-19 2.69270E-18
 -1      1491 9.14137E-05-2.72848E-05-2.74925E-05 5.23990E-07 3.22296E-19 1.69920E-18
 -1      1492 8.97160E-05-2.69094E-05-2.69002E-05-2.40973E-07-1.19185E-19 2.33698E-18
 -1      1493 8.94903E-05-2.68028E-05-2.68359E-05-1.90599E-07-9.57296E-21 2.34832E-18
 -1      1494 9.08806E-05-2.72032E-05-2.72960E-05-1.28421E-07 1.02243E-19 1.53429E-18
 -1      1495 9.01711E-05-2.70522E-05-2.70394E-05-3.27333E-07-1.67215E-19 2.67415E-18
 -1      1496 8.98243E-05-2.69251E-05-2.69378E-05-2.99218E-07-1.69739E-19 2.42496E-18
 -1      1497 9.09014E-05-2.72467E-05-2.72864E-05-4.52048E-07-2.43919E-19 1.64168E-18
 -1      1498 9.07773E-05-2.72375E-05-2.72226E-05-3.57266E-07 1.34290E-19 2.74981E-18
 -1      1499 9.03851E-05-2.71057E-05-2.71075E-05-3.42627E-07-3.71787E-20 2.69838E-18
 -1      1500 9.12167E-05-2.73611E-05-2.73717E-05-6.00697E-07-1.48237E-19 1.72993E-18
 -1      1501 9.14377E-05-2.74371E-05-2.74217E-05-3.56670E-07 1.59363E-19 2.36365E-18
 -1      1502 9.10406E-05-2.73096E-05-2.73049E-05-3.50074E-07 2.63029E-19 2.60490E-18
 -1      1503 9.16804E-05-2.75107E-05-2.75051E-05-6.52750E-07 2.29114E-19 1.49305E-18
 -1      1504 9.21012E-05-2.76362E-05-2.76221E-05-3.41826E-07 2.32147E-19 1.70016E-18
 -1      1505 9.17192E-05-2.75169E-05-2.75092E-05-3.39593E-07 2.11564E-19 2.11691E-18
 -1      1506 9.22096E-05-2.76740E-05-2.76609E-05-6.53578E-07 4.12201E-19 1.05001E-18
 -1      1507 9.27463E-05-2.78286E-05-2.78174E-05-3.23815E-07 3.17659E-19 1.24267E-18
 -1      1508 9.23858E-05-2.77179E-05-2.77103E-05-3.23281E-07 2.99515E-19 1.73432E-18
 -1      1509 9.27603E-05-2.78397E-05-2.78253E-05-6.32221E-07 4.78436E-19 8.67482E-19
 -1      1510 9.33721E-05-2.80143E-05-2.80071E-05-3.10724E-07 4.00289E-20 8.26441E-19
 -1      1511 9.30300E-05-2.79101E-05-2.79050E-05-3.09821E-07 1.05686E-19 1.09152E-18
 -1      1512 9.33144E-05-2.80036E-05-2.79923E-05-6.08778E-07 2.48319E-19 1.18073E-18
 -1      1513 9.39927E-05-2.81975E-05-2.81956E-05-3.08915E-07-1.86955E-19 9.32388E-19
 -1      1514 9.36587E-05-2.80960E-05-2.80955E-05-3.05904E-07-4.67744E-20 7.52357E-19
 -1      1515 9.38719E-05-2.81661E-05-2.81618E-05-5.98195E-07 6.29589E-20 5.45670E-19
 -1      1516 9.46349E-05-2.83865E-05-2.83909E-05-3.23843E-07 1.79870E-20 1.21447E-18
 -1      1517 9.42926E-05-2.82820E-05-2.82879E-05-3.17125E-07-1.78552E-19 8.20641E-19
 -1      1518 9.44469E-05-2.83320E-05-2.83376E-05-6.12498E-07-1.87744E-19-4.29761E-20
 -1      1519 9.53367E-05-2.85925E-05-2.86044E-05-3.60632E-07 4.77189E-19 1.85156E-19
 -1      1520 9.49639E-05-2.84776E-05-2.84920E-05-3.48600E-07 4.76942E-19 9.80172E-19
 -1      1521 9.50649E-05-2.85090E-05-2.85276E-05-6.62233E-07 5.60158E-19-1.96216E-19
 -1      1522 9.61461E-05-2.88300E-05-2.88507E-05-4.24449E-07-1.08451E-19 1.15739E-20
 -1      1523 9.57152E-05-2.86956E-05-2.87206E-05-4.05373E-07 2.38064E-19 3.61150E-19
 -1      1524 9.57612E-05-2.87076E-05-2.87423E-05-7.57439E-07 3.89544E-19 3.18924E-19
 -1      1525 9.71220E-05-2.91165E-05-2.91475E-05-5.20667E-07-1.46069E-19 3.10474E-19
 -1      1526 9.65995E-05-2.89519E-05-2.89898E-05-4.92626E-07-4.03211E-19-1.01197E-19
 -1      1527 9.65805E-05-2.89412E-05-2.89952E-05-9.08192E-07-3.21672E-19-1.92363E-19
 -1      1528 9.83335E-05-2.94727E-05-2.95155E-05-6.54705E-07 2.37147E-19-2.23043E-19
 -1      1529 9.76798E-05-2.92651E-05-2.93185E-05-6.15586E-07 1.89663E-19 1.97063E-19
 -1      1530 9.75761E-05-2.92257E-05-2.93025E-05-1.12465E-06 2.69583E-19-7.60349E-19
 -1      1531 9.98589E-05-2.99225E-05-2.99783E-05-8.31284E-07 8.77250E-20-3.31689E-19
 -1      1532 9.90290E-05-2.96572E-05-2.97287E-05-7.78929E-07 2.93877E-19 1.22003E-19
 -1      1533 9.88091E-05-2.95794E-05-2.96825E-05-1.41622E-06 3.81122E-19-1.68422E-20
 -1      1534 1.01782E-04-3.04915E-05-3.05607E-05-1.05261E-06-5.76001E-19 4.52627E-19
 -1      1535 1.00727E-04-3.01528E-05-3.02443E-05-9.85268E-07-5.08223E-19-1.41666E-19
 -1      1536 1.00346E-04-3.00230E-05-3.01546E-05-1.78932E-06-4.02503E-19 4.66849E-19
 -1      1537 1.04183E-04-3.12055E-05-3.12858E-05-1.31463E-06-2.55872E-19 1.43166E-18
 -1      1538 1.02856E-04-3.07782E-05-3.08893E-05-1.23201E-06-4.27272E-19 7.53323E-19
 -1      1539 1.02251E-04-3.05783E-05-3.07377E-05-2.24234E-06-7.70127E-19 6.67773E-19
 -1      1540 1.07117E-04-3.20846E-05-3.21679E-05-1.60014E-06 6.58393E-19 1.11211E-18
 -1      1541 1.05485E-04-3.15579E-05-3.16829E-05-1.50547E-06 2.72619E-19 1.46214E-18
 -1      1542 1.04580E-04-3.12660E-05-3.14450E-05-2.75629E-06 3.01987E-20 6.93416E-19
 -1      1543 1.10578E-04-3.31332E-05-3.32007E-05-1.86712E-06 5.51490E-19-3.97642E-19
 -1      1544 1.08645E-04-3.25085E-05-3.26310E-05-1.77092E-06 5.72012E-19 7.25748E-19
 -1      1545 1.07353E-04-3.21015E-05-3.22773E-05-3.27840E-06 8.72800E-19 5.05311E-19
 -1      1546 1.14432E-04-3.43219E-05-3.43362E-05-2.03177E-06-3.20188E-19-4.18990E-19
 -1      1547 1.12279E-04-3.36266E-05-3.37102E-05-1.95778E-06-8.38658E-20-9.09105E-19
 -1      1548 1.10521E-04-3.30862E-05-3.32102E-05-3.69701E-06 3.99507E-19-5.85525E-19
 -1      1549 1.18326E-04-3.55582E-05-3.54567E-05-1.95049E-06-2.40910E-19 7.21024E-19
 -1      1550 1.16172E-04-3.48665E-05-3.48452E-05-1.94279E-06-5.74484E-19-2.63242E-19
 -1      1551 1.13914E-04-3.41930E-05-3.41766E-05-3.81043E-06-6.29268E-19-1.16625E-18
 -1      1552 1.21578E-04-3.66475E-05-3.63480E-05-1.41754E-06-1.79584E-19 1.11058E-18
 -1      1553 1.19847E-04-3.61053E-05-3.58807E-05-1.54388E-06-2.36474E-20 8.48065E-19
 -1      1554 1.17165E-04-3.53397E-05-3.50489E-05-3.30713E-06-4.46697E-19-7.72481E-19
 -1      1555 1.23129E-04-3.72586E-05-3.67000E-05-2.19350E-07 6.08501E-19 9.27408E-19
 -1      1556 1.22479E-04-3.70978E-05-3.65650E-05-5.56775E-07 9.22141E-20 1.38434E-18
 -1      1557 1.19655E-04-3.63497E-05-3.56336E-05-1.80568E-06-1.61373E-19 2.05227E-19
 -1      1558 1.21708E-04-3.69430E-05-3.61832E-05 1.69418E-06 7.88204E-20-1.15991E-19
 -1      1559 1.22916E-04-3.74439E-05-3.65786E-05 1.11367E-06 7.11719E-19 8.61538E-19
 -1      1560 1.20516E-04-3.69069E-05-3.57045E-05 9.58137E-07 9.27514E-19 1.07695E-18
 -1      1561 1.16422E-04-3.53010E-05-3.46393E-05 3.91298E-06-5.12905E-19 3.13455E-19
 -1      1562 1.19988E-04-3.66476E-05-3.56527E-05 3.20224E-06-6.54399E-19-3.89423E-19
 -1      1563 1.18841E-04-3.65602E-05-3.50999E-05 4.72354E-06-2.57260E-19 6.20015E-19
 -1      1564 1.07798E-04-3.23777E-05-3.23260E-05 5.36513E-06 6.98772E-19-1.84759E-19
 -1      1565 1.13290E-04-3.43956E-05-3.37820E-05 4.85070E-06 4.87434E-19 5.87629E-19
 -1      1566 1.14236E-04-3.49138E-05-3.38722E-05 8.22196E-06 1.56860E-19 3.07817E-19
 -1      1567 9.86255E-05-2.91072E-05-3.00069E-05 4.72994E-06-3.75765E-19-1.28844E-18
 -1      1568 1.04222E-04-3.10702E-05-3.14178E-05 4.81703E-06 8.78797E-21-1.10527E-18
 -1      1569 1.07647E-04-3.21049E-05-3.23824E-05 9.26413E-06 6.82159E-19-5.84612E-19
 -1      1570 9.31933E-05-2.71276E-05-2.86736E-05 1.65598E-06-7.54230E-19 6.03405E-19
 -1      1571 9.62768E-05-2.80279E-05-2.94260E-05 2.45792E-06-1.05239E-18-6.40357E-19
 -1      1572 1.01721E-04-2.92757E-05-3.12066E-05 6.16127E-06-1.29067E-18-7.04678E-19
 -1      1573 9.45589E-05-2.76713E-05-2.89697E-05-2.39599E-06-1.44049E-19 1.73271E-18
 -1      1574 9.34252E-05-2.69488E-05-2.86940E-05-1.29581E-06-4.51045E-20 1.69718E-18
 -1      1575 9.96050E-05-2.81241E-05-3.08544E-05-2.65063E-07-9.11884E-19 8.50977E-19
 -1      1576 1.01941E-04-3.03875E-05-3.07455E-05-5.06546E-06-4.06351E-19 2.16735E-18
 -1      1577 9.72307E-05-2.84737E-05-2.95808E-05-4.30528E-06-3.19358E-20 2.20107E-18
 -1      1578 1.02572E-04-2.95179E-05-3.14719E-05-6.51915E-06-5.00014E-20 2.08884E-18
 -1      1579 1.11399E-04-3.36935E-05-3.31674E-05-5.20139E-06-6.96231E-19 3.34991E-18
 -1      1580 1.05547E-04-3.16116E-05-3.16612E-05-5.07568E-06-5.54911E-19 2.78864E-18
 -1      1581 1.08839E-04-3.24954E-05-3.27761E-05-9.26574E-06-9.60438E-19 1.98216E-18
 -1      1582 1.18935E-04-3.61429E-05-3.52651E-05-3.46633E-06 1.02985E-18 1.85066E-18
 -1      1583 1.14319E-04-3.47040E-05-3.40071E-05-3.80980E-06 6.01989E-19 3.08431E-18
 -1      1584 1.15168E-04-3.52704E-05-3.42217E-05-7.95043E-06 5.49989E-19 1.71514E-18
 -1      1585 1.22653E-04-3.72022E-05-3.64386E-05-1.22669E-06 1.21406E-18-1.24233E-18
 -1      1586 1.20365E-04-3.66434E-05-3.57602E-05-1.71068E-06 1.07642E-18 6.81809E-19
 -1      1587 1.19198E-04-3.67524E-05-3.52844E-05-4.38048E-06 1.88242E-18 3.15123E-19
 -1      1588 1.22720E-04-3.70691E-05-3.66028E-05 5.68241E-07-7.72593E-19-1.92287E-18
 -1      1589 1.22617E-04-3.72175E-05-3.65205E-05 1.66088E-07-4.57034E-19-1.72922E-18
 -1      1590 1.20290E-04-3.69016E-05-3.56912E-05-6.72495E-07 4.51945E-19 4.89903E-19
 -1      1591 1.20285E-04-3.61951E-05-3.60024E-05 1.62789E-06-2.35376E-19-1.26557E-18
 -1      1592 1.21649E-04-3.67548E-05-3.63515E-05 1.37797E-06-3.24347E-19-1.40197E-18
 -1      1593 1.18985E-04-3.61814E-05-3.54552E-05 2.00798E-06-6.55200E-19-7.30639E-19
 -1      1594 1.16576E-04-3.49879E-05-3.49721E-05 2.05901E-06-3.94765E-19 1.37235E-18
 -1      1595 1.18662E-04-3.57104E-05-3.55514E-05 1.94208E-06-3.88848E-19 1.09294E-19
 -1      1596 1.16211E-04-3.50620E-05-3.47593E-05 3.45016E-06-9.76980E-19 6.23688E-19
 -1      1597 1.12507E-04-3.37179E-05-3.37906E-05 2.08477E-06-2.18818E-19 1.91747E-18
 -1      1598 1.14777E-04-3.44483E-05-3.44417E-05 2.05543E-06 4.21567E-19 1.97528E-18
 -1      1599 1.12794E-04-3.38519E-05-3.38230E-05 3.92811E-06-1.14762E-19 2.91710E-18
 -1      1600 1.08620E-04-3.25327E-05-3.26366E-05 1.89919E-06 7.62329E-19 7.89673E-19
 -1      1601 1.10764E-04-3.31937E-05-3.32627E-05 1.91748E-06 1.30529E-19 7.05314E-19
 -1      1602 1.09306E-04-3.27101E-05-3.28229E-05 3.81432E-06 4.73306E-19 1.31743E-18
 -1      1603 1.05176E-04-3.14969E-05-3.16021E-05 1.62996E-06 1.94057E-20-1.44840E-18
 -1      1604 1.07055E-04-3.20601E-05-3.21562E-05 1.66933E-06 2.87147E-19-9.17337E-19
 -1      1605 1.06073E-04-3.17038E-05-3.18717E-05 3.40635E-06 6.61038E-19-1.25847E-18
 -1      1606 1.02265E-04-3.06276E-05-3.07223E-05 1.34648E-06 9.36124E-19-1.93309E-18
 -1      1607 1.03837E-04-3.10901E-05-3.11885E-05 1.39229E-06 3.38855E-19-1.38863E-18
 -1      1608 1.03247E-04-3.08511E-05-3.10275E-05 2.89230E-06 4.13756E-19-2.33782E-18
 -1      1609 9.98871E-05-2.99196E-05-3.00027E-05 1.07777E-06 1.18742E-18-4.62183E-18
 -1      1610 1.01159E-04-3.02887E-05-3.03804E-05 1.12387E-06 8.84081E-19-2.94648E-18
 -1      1611 1.00874E-04-3.01473E-05-3.03130E-05 2.36975E-06 2.16707E-18-3.82340E-18
 -1      1612 9.80148E-05-2.93609E-05-2.94376E-05 8.28074E-07 2.90590E-19-6.20963E-18
 -1      1613 9.90059E-05-2.96451E-05-2.97310E-05 8.73839E-07 1.02558E-18-4.67965E-18
 -1      1614 9.89472E-05-2.95794E-05-2.97322E-05 1.87483E-06 1.65465E-18-3.81999E-18
 -1      1615 9.66250E-05-2.89426E-05-2.90216E-05 5.85327E-07-8.23571E-19-5.51484E-18
 -1      1616 9.73472E-05-2.91454E-05-2.92336E-05 6.34827E-07-4.25396E-19-5.67966E-18
 -1      1617 9.74449E-05-2.91332E-05-2.92822E-05 1.40518E-06 1.74444E-19-2.54792E-18
 -1      1618 9.57181E-05-2.86662E-05-2.87504E-05 3.28219E-07 5.44287E-19-5.88792E-18
 -1      1619 9.61631E-05-2.87819E-05-2.88823E-05 3.90453E-07 3.80106E-20-5.36601E-18
 -1      1620 9.63450E-05-2.87971E-05-2.89580E-05 9.35928E-07-3.54816E-19-2.64627E-18
 -1      1621 9.53010E-05-2.85498E-05-2.86028E-05 7.16930E-08-5.54862E-19-6.55890E-18
 -1      1622 9.54525E-05-2.85680E-05-2.86665E-05 1.37855E-07-1.52138E-19-6.69612E-18
 -1      1623 9.56290E-05-2.85785E-05-2.87452E-05 4.45368E-07 3.65625E-19-5.02651E-18
 -1      1624 9.52196E-05-2.85637E-05-2.85535E-05-2.50734E-08-4.14640E-18-4.18412E-18
 -1      1625 9.52078E-05-2.82250E-05-2.87150E-05 2.60156E-07-4.89604E-18 6.22410E-19
 -1      1626 9.52618E-05-2.84136E-05-2.86450E-05 1.93334E-07-5.15331E-18-9.09094E-19
 -1      1627 9.49579E-05-2.74715E-05-2.89287E-05 5.10023E-07-3.07139E-18 1.43530E-18
 -1      1628 9.51035E-05-2.79046E-05-2.88051E-05 4.65409E-07-4.69951E-18 2.44436E-19
 -1      1629 9.51786E-05-2.79146E-05-2.88376E-05 7.17646E-07-1.64359E-18 4.73427E-19
 -1      1630 9.46193E-05-2.64582E-05-2.92142E-05 6.54056E-07-2.59676E-18 9.20271E-19
 -1      1631 9.48145E-05-2.70412E-05-2.90497E-05 6.34926E-07-3.22108E-18 7.34673E-19
 -1      1632 9.48895E-05-2.71511E-05-2.90396E-05 1.11336E-06-1.43385E-18 1.53440E-18
 -1      1633 9.42582E-05-2.53624E-05-2.95266E-05 6.73661E-07-2.36913E-18-5.84265E-19
 -1      1634 9.44624E-05-2.59796E-05-2.93513E-05 6.79829E-07-2.81653E-18 1.37673E-18
 -1      1635 9.45546E-05-2.62342E-05-2.92815E-05 1.29127E-06-3.15885E-18 6.08420E-19
 -1      1636 9.39386E-05-2.43802E-05-2.98096E-05 5.83676E-07-5.28071E-18-1.36154E-18
 -1      1637 9.41147E-05-2.49177E-05-2.96560E-05 6.09442E-07-2.65693E-18-2.66273E-18
 -1      1638 9.42218E-05-2.53066E-05-2.95293E-05 1.24034E-06-3.08131E-18-2.97672E-18
 -1      1639 9.36954E-05-2.36255E-05-3.00285E-05 4.06363E-07-3.37331E-18 1.65650E-18
 -1      1640 9.38233E-05-2.40182E-05-2.99158E-05 4.47140E-07-4.92421E-18 6.35392E-19
 -1      1641 9.39385E-05-2.44996E-05-2.97482E-05 9.96234E-07-1.75958E-18-7.74934E-19
 -1      1642 9.35670E-05-2.32214E-05-3.01468E-05 1.75410E-07-9.57674E-19 4.59156E-19
 -1      1643 9.36265E-05-2.34061E-05-3.00936E-05 2.23649E-07-2.44928E-18 1.75412E-18
 -1      1644 9.37383E-05-2.39206E-05-2.99070E-05 6.08810E-07-1.98087E-18 2.62866E-18
 -1      1645 9.35670E-05-2.32143E-05-3.01502E-05-7.34685E-08 1.28159E-18 9.94116E-19
 -1      1646 9.35521E-05-2.31710E-05-3.01624E-05-2.47145E-08-5.86688E-19 1.73196E-18
 -1      1647 9.36482E-05-2.36532E-05-2.99818E-05 1.45332E-07 5.75068E-19 1.38915E-18
 -1      1648 9.36916E-05-2.35954E-05-3.00407E-05-3.05985E-07 2.07345E-18-1.27634E-19
 -1      1649 9.36065E-05-2.33357E-05-3.01152E-05-2.63119E-07 1.22705E-18 3.91713E-19
 -1      1650 9.36760E-05-2.37261E-05-2.99634E-05-3.26084E-07 1.35235E-18 7.20997E-19
 -1      1651 9.39210E-05-2.43043E-05-2.98357E-05-4.92266E-07-1.13354E-19-2.29344E-18
 -1      1652 9.37791E-05-2.38685E-05-2.99608E-05-4.60651E-07 1.99701E-18-1.28350E-18
 -1      1653 9.38145E-05-2.41215E-05-2.98561E-05-7.42269E-07 5.62625E-19-1.12199E-18
 -1      1654 9.42177E-05-2.52222E-05-2.95700E-05-6.07492E-07-2.14917E-18-1.99094E-19
 -1      1655 9.40417E-05-2.46828E-05-2.97247E-05-5.91253E-07-3.41665E-19-2.25917E-18
 -1      1656 9.40417E-05-2.47741E-05-2.96780E-05-1.04849E-06 7.30132E-19-3.11139E-18
 -1      1657 9.45514E-05-2.62506E-05-2.92734E-05-6.38599E-07 1.68930E-19 1.71451E-18
 -1      1658 9.43603E-05-2.56676E-05-2.94399E-05-6.39762E-07-2.17682E-18 2.77188E-18
 -1      1659 9.43275E-05-2.55972E-05-2.94531E-05-1.20802E-06 7.21232E-19 1.81435E-18
 -1      1660 9.48694E-05-2.72242E-05-2.89945E-05-5.73312E-07 7.04268E-19-1.03626E-18
 -1      1661 9.46950E-05-2.66959E-05-2.91444E-05-5.93498E-07 7.53985E-19 2.90408E-19
 -1      1662 9.46410E-05-2.64901E-05-2.92107E-05-1.19489E-06 1.54817E-19 1.39567E-18
 -1      1663 9.51245E-05-2.79841E-05-2.87756E-05-4.11668E-07-6.49364E-19-1.15286E-18
 -1      1664 9.49923E-05-2.76056E-05-2.88850E-05-4.52542E-07 4.76347E-19-6.30196E-19
 -1      1665 9.49377E-05-2.73238E-05-2.89859E-05-9.94421E-07 6.94447E-20-1.39879E-18
 -1      1666 9.52759E-05-2.83664E-05-2.86688E-05-2.70268E-07-1.55500E-18-1.73931E-18
 -1      1667 9.52236E-05-2.81923E-05-2.87320E-05-3.53944E-07-2.38171E-19-1.71726E-18
 -1      1668 9.52113E-05-2.79247E-05-2.88431E-05-7.63734E-07-7.69680E-19-1.74150E-18
 -1      1669 9.54528E-05-2.83298E-05-2.87644E-05-5.48653E-07-6.72968E-19-1.32877E-18
 -1      1670 2.04560E-05-6.71496E-05 1.40096E-05-6.84195E-06 3.98275E-18 2.47312E-18
 -1      1671 2.34945E-05-7.56322E-05 1.58303E-05 1.04218E-06 8.48939E-19 1.79952E-18
 -1      1672 1.95171E-05-4.14664E-05 4.80022E-06 6.53942E-07 5.30158E-18 2.93380E-18
 -1      1673 2.41180E-05-6.29051E-05 1.04318E-05-1.93305E-06 5.10168E-18 1.64123E-18
 -1      1674 3.20938E-05-1.31803E-05-1.06145E-05 2.45567E-05 6.35021E-18 4.42744E-18
 -1      1675 2.72605E-05-3.46886E-05-1.92414E-06 7.09246E-06 5.05001E-18 4.22415E-18
 -1      1676 7.90370E-05-7.95711E-06-3.00364E-05 5.65578E-05 3.83452E-18 1.62037E-18
 -1      1677 5.45016E-05-1.41097E-05-1.99083E-05 3.41175E-05 5.76575E-18 2.58514E-18
 -1      1678 1.44665E-04-2.09136E-05-4.97254E-05 7.24393E-05 1.08590E-18 3.71847E-19
 -1      1679 1.02134E-04-9.33214E-06-3.97083E-05 5.92699E-05 3.06033E-18 1.72964E-18
 -1      1680 2.10456E-04-4.43572E-05-6.53873E-05 6.40786E-05-1.97465E-19 2.56651E-19
 -1      1681 1.67299E-04-2.41807E-05-5.81917E-05 7.23349E-05-3.23990E-19 4.02341E-19
 -1      1682 2.55250E-04-6.47554E-05-7.44374E-05 2.66102E-05 2.71686E-19-8.82185E-19
 -1      1683 2.29419E-04-5.06861E-05-7.08016E-05 5.50511E-05-4.57398E-20-5.25160E-19
 -1      1684 2.54527E-04-6.34252E-05-7.50840E-05-2.73872E-05 1.45901E-19-7.42848E-19
 -1      1685 2.60993E-04-6.69042E-05-7.59208E-05 9.63740E-06-1.63901E-19-6.36016E-19
 -1      1686 2.07957E-04-4.08076E-05-6.69921E-05-6.29757E-05 4.13405E-19-3.13402E-19
 -1      1687 2.41699E-04-5.82766E-05-7.19168E-05-4.12424E-05 3.28755E-19 1.30020E-19
 -1      1688 1.42435E-04-1.81138E-05-5.14489E-05-6.62369E-05 1.58226E-18-1.20109E-18
 -1      1689 1.87100E-04-3.66741E-05-6.00327E-05-6.56833E-05 8.98278E-19-2.83756E-19
 -1      1690 7.79430E-05-3.05802E-06-3.29954E-05-5.44042E-05 2.99850E-18-2.86890E-18
 -1      1691 1.14972E-04-9.84895E-06-4.29112E-05-7.24730E-05 2.31918E-18-2.09387E-18
 -1      1692 4.04359E-05-1.50330E-05-1.42417E-05-2.53969E-05 4.40965E-18-2.30816E-18
 -1      1693 5.73731E-05-3.07044E-06-2.36947E-05-4.75447E-05 3.46521E-18-3.48300E-18
 -1      1694 2.72726E-05-4.40939E-05 2.01008E-06-4.67058E-06 4.99919E-18-2.35285E-18
 -1      1695 2.87501E-05-2.15447E-05-5.99030E-06-1.81506E-05 4.78912E-18-2.30689E-18
 -1      1696 2.38427E-05-6.90301E-05 1.28467E-05 2.93400E-06 3.64097E-18-1.70847E-18
 -1      1697 1.83504E-05-4.99975E-05 8.35759E-06 4.37652E-06 4.92973E-18-2.37317E-18
 -1      1698 2.27008E-05-7.45363E-05 1.59524E-05-2.35670E-06-1.09595E-18-2.40430E-18
 -1      1699 2.14364E-05-7.11166E-05 1.51332E-05 6.43333E-06 2.60251E-18-2.94810E-18
 -1      1700 1.95723E-05-5.95127E-05 1.18280E-05-3.40696E-06-2.93370E-18-7.90176E-19
 -1      1701 2.33571E-05-7.21337E-05 1.47578E-05 2.09407E-06-1.71905E-18-1.11914E-18
 -1      1702 1.97788E-05-3.34920E-05 1.90834E-06 5.19059E-06-3.89042E-18-2.10234E-18
 -1      1703 2.36212E-05-5.56429E-05 7.91308E-06-4.68135E-08-3.32291E-18-1.12338E-18
 -1      1704 3.80322E-05-9.20265E-06-1.39649E-05 3.22285E-05-4.34867E-18-3.32376E-18
 -1      1705 3.05344E-05-2.81053E-05-5.27548E-06 1.38309E-05-4.04543E-18-2.57244E-18
 -1      1706 7.64968E-05-1.03305E-06-3.16174E-05 6.07690E-05-3.86078E-18-3.99884E-18
 -1      1707 5.25181E-05-4.83753E-06-2.24985E-05 3.99061E-05-4.50198E-18-3.48639E-18
 -1      1708 1.41306E-04-1.86881E-05-4.93913E-05 7.32535E-05-2.63258E-18-1.37558E-18
 -1      1709 1.02262E-04-7.08897E-06-4.02858E-05 6.20110E-05-3.97258E-18-3.01120E-18
 -1      1710 2.03802E-04-4.14437E-05-6.42788E-05 6.63444E-05-1.29374E-18-1.47553E-18
 -1      1711 1.62347E-04-2.09028E-05-5.74433E-05 7.55441E-05-1.44949E-18-2.38101E-18
 -1      1712 2.40316E-04-5.85471E-05-7.23374E-05 2.31793E-05-4.61633E-20-1.72287E-18
 -1      1713 2.16721E-04-4.53278E-05-6.87332E-05 5.15749E-05-7.25907E-19-1.32561E-18
 -1      1714 2.37266E-04-5.54641E-05-7.26509E-05-2.58652E-05 5.86359E-19-2.16099E-18
 -1      1715 2.42665E-04-5.85630E-05-7.34863E-05 8.61126E-06-4.99749E-20-1.72159E-18
 -1      1716 2.02600E-04-3.85495E-05-6.59366E-05-6.37272E-05 1.15059E-18-2.33188E-18
 -1      1717 2.33643E-04-5.55913E-05-7.05710E-05-4.13887E-05 7.56189E-19-1.29977E-18
 -1      1718 1.41052E-04-1.50312E-05-5.18395E-05-7.16212E-05 1.94013E-18-2.52924E-18
 -1      1719 1.83713E-04-3.36051E-05-5.97750E-05-7.02300E-05 1.85416E-18-2.17518E-18
 -1      1720 8.19388E-05-1.04463E-06-3.49116E-05-5.89832E-05 8.60585E-19-2.45385E-18
 -1      1721 1.16658E-04-8.19141E-06-4.38738E-05-7.48076E-05 9.40207E-19-3.19924E-18
 -1      1722 4.56968E-05-1.37973E-05-1.63877E-05-3.03833E-05-6.65768E-19-1.42302E-19
 -1      1723 6.49625E-05-3.96951E-06-2.59700E-05-5.23628E-05 3.17637E-19-2.42844E-18
 -1      1724 2.59878E-05-3.62101E-05-5.27877E-07-7.15834E-06-2.99257E-18 1.20279E-19
 -1      1725 2.82429E-05-1.54704E-05-8.02074E-06-2.13170E-05-1.30612E-18-2.56651E-19
 -1      1726 2.37422E-05-6.34047E-05 1.07486E-05 1.50023E-06-1.14011E-18 1.92991E-18
 -1      1727 1.89446E-05-4.28819E-05 5.59089E-06-1.81042E-07-3.04085E-18 1.97147E-18
 -1      1728 2.39154E-05-7.66945E-05 1.59662E-05-2.40334E-06-4.27752E-20 7.82235E-19
 -1      1729 2.10207E-05-6.80872E-05 1.41010E-05 5.46336E-06-9.71547E-19 5.50995E-19
 -1      1730 1.20386E-04-3.83010E-05-3.44352E-05 4.06019E-05 3.07812E-18-9.69429E-19
 -1      1731 7.38528E-05-3.76590E-05-1.66754E-05 3.85448E-05 3.02137E-18 1.25700E-18
 -1      1732 9.52985E-05-2.85436E-05-2.86098E-05 6.17790E-08-5.40840E-18-4.23166E-18
 -1      1733 9.53468E-05-2.83597E-05-2.87095E-05 3.29013E-07-1.60658E-18-1.71785E-18
 -1      1734 1.80410E-05-4.78346E-05 8.51600E-06 1.25798E-05 2.37085E-18 2.24252E-18
 -1      1735 3.73377E-05-4.22286E-05-1.22782E-06 2.53840E-05 3.64902E-18 3.06952E-18
 -1      1736 1.19211E-05-5.10195E-05 1.20472E-05-7.85187E-07 2.86403E-19 2.55169E-18
 -1      1737 1.61241E-04-3.49045E-05-5.14594E-05 3.66614E-05 1.25297E-18 7.69106E-19
 -1      1738 1.97164E-04-3.50934E-05-6.46967E-05 2.76874E-05 2.16629E-19 3.61683E-19
 -1      1739 2.17940E-04-3.75786E-05-7.13256E-05 7.92191E-06 1.96512E-19-1.08632E-18
 -1      1740 2.11412E-04-3.59067E-05-6.96748E-05-1.43109E-05-1.16467E-19-3.82012E-19
 -1      1741 1.82748E-04-3.48144E-05-5.99479E-05-2.65685E-05 1.04820E-18-4.81962E-19
 -1      1742 1.45893E-04-3.38990E-05-4.56525E-05-4.03392E-05 2.05787E-18-3.17637E-19
 -1      1743 9.86695E-05-3.20708E-05-2.85358E-05-4.37243E-05 1.48061E-18-7.93670E-19
 -1      1744 6.06222E-05-3.80979E-05-1.17177E-05-3.48995E-05 2.72575E-18-8.54444E-19
 -1      1745 3.16593E-05-4.43136E-05 1.97382E-06-2.30266E-05 2.10615E-18-1.73176E-18
 -1      1746 1.49715E-05-4.95085E-05 1.02653E-05-8.09042E-06 8.76467E-19-3.22635E-18
 -1      1747 1.17209E-05-4.81041E-05 1.12594E-05 5.06152E-06-5.81700E-19-3.11327E-18
 -1      1748 2.10983E-05-4.54950E-05 6.47872E-06 1.75693E-05-2.24633E-18-1.41073E-18
 -1      1749 4.27786E-05-3.96114E-05-4.12331E-06 3.03295E-05-2.22685E-18-2.19477E-18
 -1      1750 7.47569E-05-3.27413E-05-1.89942E-05 4.09568E-05-2.38863E-18-2.30181E-18
 -1      1751 1.16922E-04-3.12422E-05-3.55131E-05 4.51450E-05-2.57837E-18-9.62229E-19
 -1      1752 1.56937E-04-3.20412E-05-5.10665E-05 3.98314E-05-2.01806E-18-3.67612E-19
 -1      1753 1.88583E-04-3.09294E-05-6.31550E-05 2.82093E-05-1.10432E-18-5.19655E-19
 -1      1754 1.98345E-04-2.81481E-05-6.83307E-05 6.07588E-06-4.65868E-19-1.53747E-18
 -1      1755 1.98380E-04-2.98767E-05-6.74933E-05-1.45398E-05-6.09864E-20-1.18161E-19
 -1      1756 1.79728E-04-3.13867E-05-5.96443E-05-3.23518E-05 1.50507E-18-8.75409E-19
 -1      1757 1.43653E-04-2.97878E-05-4.63716E-05-4.43260E-05 8.22681E-19-1.64324E-18
 -1      1758 1.02556E-04-3.15196E-05-3.01384E-05-4.50098E-05-7.44542E-19-2.14681E-18
 -1      1759 6.48502E-05-3.57110E-05-1.39024E-05-3.83178E-05-1.19770E-18-9.61806E-19
 -1      1760 3.42041E-05-4.17934E-05-3.21300E-08-2.53082E-05-9.09713E-19-2.78039E-19
 -1      1761 1.75488E-05-4.88557E-05 8.97935E-06-1.30823E-05-1.34255E-19 1.81625E-18
 -1      1762 1.05991E-04-2.31539E-05-3.55851E-05-1.68584E-05-3.49533E-19 5.43795E-19
 -1      1763 8.91454E-05-1.05861E-05-3.37933E-05-1.33397E-05-2.28540E-19-7.08305E-19
 -1      1764 9.04640E-05-1.16274E-05-3.39295E-05-1.51485E-05-3.68168E-19-6.94144E-19
 -1      1765 9.24596E-05-1.38679E-05-3.38441E-05-1.60126E-05-4.35623E-19-5.60286E-19
 -1      1766 9.41657E-05-1.58111E-05-3.40847E-05-1.76727E-05-4.74047E-19-3.86406E-19
 -1      1767 9.33926E-05-1.63403E-05-3.30369E-05-1.37812E-05-4.20926E-19-5.86888E-19
 -1      1768 8.62350E-05-7.67824E-06-3.37380E-05-7.87283E-06 6.63233E-20-6.91298E-19
 -1      1769 8.66313E-05-7.97537E-06-3.37696E-05-9.26299E-06-3.60982E-21-7.20428E-19
 -1      1770 8.56295E-05-7.04172E-06-3.37398E-05-5.32616E-06 1.30599E-19-6.63597E-19
 -1      1771 8.58590E-05-7.22004E-06-3.37528E-05-6.63198E-06 7.24106E-20-7.12884E-19
 -1      1772 8.76217E-05-9.87143E-06-3.33531E-05-6.93574E-06 6.06373E-20-7.08530E-19
 -1      1773 8.53017E-05-6.68337E-06-3.37460E-05-2.89186E-06 2.65182E-19-5.52517E-19
 -1      1774 8.54196E-05-6.77796E-06-3.37507E-05-4.13289E-06 2.24169E-19-6.24343E-19
 -1      1775 8.69962E-05-9.16028E-06-3.33906E-05-4.54153E-06 1.89842E-19-6.39695E-19
 -1      1776 8.51735E-05-6.53499E-06-3.37507E-05-5.17823E-07 4.26488E-19-4.29777E-19
 -1      1777 8.52083E-05-6.56358E-06-3.37517E-05-1.72867E-06 3.40554E-19-5.17140E-19
 -1      1778 8.66701E-05-8.78131E-06-3.34132E-05-2.21886E-06 3.16832E-19-5.15903E-19
 -1      1779 8.52176E-05-6.57226E-06-3.37518E-05 1.84718E-06 5.13748E-19-2.84378E-19
 -1      1780 8.51769E-05-6.53943E-06-3.37505E-05 6.35413E-07 4.72213E-19-3.69558E-19
 -1      1781 8.65734E-05-8.66739E-06-3.34205E-05 6.57705E-08 4.81953E-19-3.74713E-19
 -1      1782 8.54440E-05-6.80246E-06-3.37507E-05 4.25554E-06 6.18590E-19-2.44634E-19
 -1      1783 8.53189E-05-6.70191E-06-3.37458E-05 3.01151E-06 5.75315E-19-2.63401E-19
 -1      1784 8.66869E-05-8.80049E-06-3.34123E-05 2.35130E-06 5.61048E-19-2.16728E-19
 -1      1785 8.58925E-05-7.25525E-06-3.37527E-05 6.71936E-06 6.65794E-19-1.57972E-19
 -1      1786 8.56592E-05-7.07337E-06-3.37397E-05 5.43097E-06 6.63410E-19-2.45587E-19
 -1      1787 8.70296E-05-9.19759E-06-3.33890E-05 4.65661E-06 6.85024E-19-2.00105E-19
 -1      1788 8.66932E-05-8.04371E-06-3.37685E-05 9.38355E-06 7.77646E-19 1.38688E-19
 -1      1789 8.62791E-05-7.72790E-06-3.37373E-05 7.96170E-06 6.91058E-19-2.01832E-20
 -1      1790 8.76722E-05-9.92965E-06-3.33509E-05 7.03416E-06 7.47751E-19-7.04493E-20
 -1      1791 8.80889E-05-9.38867E-06-3.38178E-05 1.22644E-05 8.36286E-19 4.17005E-19
 -1      1792 8.73577E-05-8.83219E-06-3.37489E-05 1.06708E-05 8.09525E-19 2.53925E-19
 -1      1793 8.87796E-05-1.11628E-05-3.32951E-05 9.51087E-06 8.29164E-19 2.42993E-19
 -1      1794 9.06126E-05-1.18363E-05-3.39211E-05 1.53135E-05 8.31985E-19 8.82661E-19
 -1      1795 8.92426E-05-1.07392E-05-3.37848E-05 1.35240E-05 8.15269E-19 5.95438E-19
 -1      1796 9.06589E-05-1.32218E-05-3.32060E-05 1.19850E-05 8.68871E-19 5.64878E-19
 -1      1797 9.58347E-05-1.70240E-05-3.39799E-05 1.77002E-05 6.72686E-19 1.56574E-18
 -1      1798 9.28264E-05-1.43359E-05-3.38171E-05 1.62046E-05 7.14363E-19 1.15874E-18
 -1      1799 9.39449E-05-1.68804E-05-3.30164E-05 1.39050E-05 8.13532E-19 9.55559E-19
 -1      1800 1.01868E-04-2.50778E-05-3.33419E-05 1.44307E-05 5.02714E-19 2.33686E-18
 -1      1801 9.80279E-05-1.96035E-05-3.36100E-05 1.69733E-05 5.93062E-19 1.82927E-18
 -1      1802 9.72851E-05-2.18416E-05-3.24142E-05 1.32588E-05 6.35526E-19 1.47442E-18
 -1      1803 9.86932E-05-2.61178E-05-3.13247E-05 9.44402E-06 5.09358E-19 2.14786E-18
 -1      1804 1.00102E-04-1.95487E-05-3.42013E-05-1.88774E-05-4.34223E-19 1.06938E-20
 -1      1805 9.52488E-05-2.72668E-05-2.91667E-05 4.07588E-06 3.34287E-19 1.73439E-18
 -1      1806 9.76817E-05-2.73728E-05-3.01765E-05 6.40971E-06 3.70339E-19 1.92989E-18
 -1      1807 9.75242E-05-2.55992E-05-3.08170E-05 8.77001E-06 4.84423E-19 1.47298E-18
 -1      1808 9.97664E-05-2.25277E-05-3.28213E-05-1.44770E-05-4.67509E-19-1.63266E-19
 -1      1809 9.69042E-05-2.69606E-05-2.98611E-05-5.71232E-06-3.26081E-19-2.49627E-19
 -1      1810 9.50954E-05-2.70168E-05-2.91499E-05-3.90402E-06-2.66312E-19-3.22422E-19
 -1      1811 9.42819E-05-2.72225E-05-2.86427E-05-2.42919E-06-2.85278E-19-2.86271E-19
 -1      1812 9.35073E-05-2.73004E-05-2.83377E-05-1.57856E-06-3.40573E-19-3.60452E-19
 -1      1813 9.54666E-05-2.65414E-05-2.95631E-05-4.47834E-06-2.66557E-19-3.35193E-19
 -1      1814 9.29803E-05-2.73464E-05-2.80699E-05-7.47400E-07-3.77426E-19-2.33808E-19
 -1      1815 9.26793E-05-2.74096E-05-2.79480E-05-3.06201E-07-1.84051E-19-2.86046E-19
 -1      1816 9.42562E-05-2.72092E-05-2.87565E-05-1.83663E-06-3.40818E-19-3.11774E-19
 -1      1817 9.24070E-05-2.74376E-05-2.78131E-05 1.53865E-07-5.11694E-20-2.98554E-19
 -1      1818 9.23782E-05-2.75133E-05-2.77843E-05 3.82177E-07-4.00852E-20-3.49656E-19
 -1      1819 9.35570E-05-2.75095E-05-2.83228E-05-3.60572E-07-1.75902E-19-3.34049E-19
 -1      1820 9.22808E-05-2.75451E-05-2.77286E-05 6.29353E-07 4.58151E-20-2.23029E-19
 -1      1821 9.24022E-05-2.76302E-05-2.77501E-05 7.40001E-07 1.01612E-19-1.67218E-19
 -1      1822 9.32447E-05-2.76934E-05-2.81059E-05 4.55698E-07 1.33217E-20-2.47219E-19
 -1      1823 9.24178E-05-2.76690E-05-2.77425E-05 8.62778E-07-7.10707E-20-2.05011E-19
 -1      1824 9.26182E-05-2.77569E-05-2.77916E-05 9.07029E-07-7.71553E-22-2.64630E-19
 -1      1825 9.31963E-05-2.78352E-05-2.80206E-05 8.88851E-07 6.33815E-20-1.53117E-19
 -1      1826 9.27035E-05-2.78003E-05-2.78131E-05 9.58249E-07-1.47541E-19-2.52068E-19
 -1      1827 9.29418E-05-2.78861E-05-2.78767E-05 9.66668E-07-1.40126E-19-1.36952E-19
 -1      1828 9.33166E-05-2.79581E-05-2.80165E-05 1.09796E-06-2.70072E-20-1.42887E-19
 -1      1829 9.30687E-05-2.79313E-05-2.79159E-05 9.80021E-07-4.12047E-19-1.86963E-21
 -1      1830 9.33226E-05-2.80125E-05-2.79866E-05 9.72484E-07-2.55623E-19 5.33573E-21
 -1      1831 9.35395E-05-2.80684E-05-2.80627E-05 1.18086E-06-1.58842E-19-3.44017E-19
 -1      1832 9.34745E-05-2.80577E-05-2.80368E-05 9.70786E-07-7.85578E-20-2.42617E-19
 -1      1833 9.37340E-05-2.81341E-05-2.81111E-05 9.61034E-07-9.12883E-20-4.49608E-19
 -1      1834 9.38232E-05-2.81679E-05-2.81405E-05 1.20176E-06-4.61440E-19-2.48540E-19
 -1      1835 9.39029E-05-2.81789E-05-2.81688E-05 9.60441E-07-1.81452E-19-6.00988E-19
 -1      1836 9.41668E-05-2.82517E-05-2.82459E-05 9.58417E-07-1.59562E-19-7.02171E-19
 -1      1837 9.41449E-05-2.82581E-05-2.82391E-05 1.20504E-06-2.72784E-19-4.43877E-19
 -1      1838 9.43505E-05-2.82968E-05-2.83099E-05 9.70785E-07-2.23700E-19-8.66006E-19
 -1      1839 9.46240E-05-2.83688E-05-2.83909E-05 9.83937E-07-1.27390E-19-7.28797E-19
 -1      1840 9.44953E-05-2.83418E-05-2.83533E-05 1.22259E-06-2.45587E-19-6.76977E-19
 -1      1841 9.48252E-05-2.84159E-05-2.84619E-05 1.01815E-06-2.62580E-20-8.51754E-19
 -1      1842 9.51179E-05-2.84909E-05-2.85493E-05 1.05213E-06-2.31482E-20-8.48846E-19
 -1      1843 9.48761E-05-2.84230E-05-2.84819E-05 1.27803E-06-1.44602E-19-7.38931E-19
 -1      1844 9.53426E-05-2.85427E-05-2.86286E-05 1.11479E-06-1.43538E-19-9.35995E-19
 -1      1845 9.56675E-05-2.86255E-05-2.87259E-05 1.17369E-06-3.93109E-19-6.06761E-19
 -1      1846 9.52963E-05-2.85075E-05-2.86262E-05 1.38895E-06-1.02749E-19-4.90901E-19
 -1      1847 9.59242E-05-2.86853E-05-2.88160E-05 1.26917E-06-6.90152E-19-6.89409E-19
 -1      1848 9.62965E-05-2.87816E-05-2.89273E-05 1.35535E-06-3.49168E-19-7.68090E-19
 -1      1849 9.57710E-05-2.86025E-05-2.87896E-05 1.56780E-06-3.89346E-19-8.67802E-19
 -1      1850 9.65950E-05-2.88538E-05-2.90306E-05 1.48534E-06-2.53895E-19-9.07809E-19
 -1      1851 9.70306E-05-2.89701E-05-2.91599E-05 1.59870E-06-3.78931E-19-8.98531E-19
 -1      1852 9.63191E-05-2.87173E-05-2.89760E-05 1.82148E-06-4.26235E-19-4.94738E-19
 -1      1853 9.73816E-05-2.90599E-05-2.92788E-05 1.76100E-06-4.61545E-19-9.83624E-19
 -1      1854 9.78948E-05-2.92033E-05-2.94297E-05 1.89766E-06-2.18297E-19-9.47899E-19
 -1      1855 9.69622E-05-2.88638E-05-2.91895E-05 2.14954E-06-3.18825E-19-9.40192E-20
 -1      1856 9.83084E-05-2.93170E-05-2.95654E-05 2.08417E-06-3.07703E-20-1.04568E-18
 -1      1857 9.89096E-05-2.94948E-05-2.97399E-05 2.23435E-06-1.17754E-19-1.18664E-18
 -1      1858 9.77220E-05-2.90571E-05-2.94330E-05 2.54065E-06-2.38779E-19-2.49701E-19
 -1      1859 9.93938E-05-2.96401E-05-2.98921E-05 2.42805E-06-2.63268E-19-1.29684E-18
 -1      1860 1.00085E-04-2.98589E-05-3.00893E-05 2.57310E-06-1.91846E-19-1.63254E-18
 -1      1861 9.86184E-05-2.93163E-05-2.97065E-05 2.96719E-06-2.34913E-19-7.45551E-19
 -1      1862 1.00644E-04-3.00444E-05-3.02548E-05 2.74415E-06 2.62219E-19-1.95407E-18
 -1      1863 1.01411E-04-3.03089E-05-3.04694E-05 2.85300E-06 2.59925E-19-1.96005E-18
 -1      1864 9.96659E-05-2.96649E-05-3.00062E-05 3.37768E-06 1.71929E-20-1.81256E-18
 -1      1865 1.02043E-04-3.05437E-05-3.06413E-05 2.95444E-06 8.03610E-20-1.80471E-18
 -1      1866 1.02853E-04-3.08534E-05-3.08611E-05 2.98023E-06 1.31926E-19-1.79088E-18
 -1      1867 1.00869E-04-3.01304E-05-3.03220E-05 3.68797E-06 2.54641E-19-1.69431E-18
 -1      1868 1.03543E-04-3.11445E-05-3.10282E-05 2.94492E-06 6.43617E-19-1.48897E-18
 -1      1869 1.04330E-04-3.14888E-05-3.12330E-05 2.82435E-06 4.95771E-19-1.08226E-18
 -1      1870 1.02215E-04-3.07393E-05-3.06369E-05 3.77312E-06 6.54859E-19-1.30491E-18
 -1      1871 1.05050E-04-3.18352E-05-3.13796E-05 2.56685E-06 5.67016E-20-7.15443E-19
 -1      1872 1.05710E-04-3.21852E-05-3.15401E-05 2.22661E-06 2.98220E-19-4.58069E-19
 -1      1873 1.03664E-04-3.15061E-05-3.09268E-05 3.46592E-06 3.51058E-19-5.75693E-19
 -1      1874 1.06402E-04-3.25664E-05-3.16481E-05 1.65680E-06 3.41305E-19-5.16995E-19
 -1      1875 1.06795E-04-3.28633E-05-3.17287E-05 1.03421E-06 3.98976E-19-6.63472E-19
 -1      1876 1.05127E-04-3.24080E-05-3.11634E-05 2.57281E-06 4.46740E-19-2.10576E-19
 -1      1877 1.07362E-04-3.32219E-05-3.17819E-05 9.21837E-08 3.53974E-19-1.08367E-18
 -1      1878 1.07322E-04-3.33677E-05-3.17481E-05-8.23139E-07-3.11040E-19-1.01393E-18
 -1      1879 1.06448E-04-3.33443E-05-3.13209E-05 9.24641E-07 2.09849E-19-1.23138E-18
 -1      1880 1.07621E-04-3.35923E-05-3.17388E-05-2.10377E-06-4.32450E-19-7.75590E-19
 -1      1881 1.07002E-04-3.34539E-05-3.15704E-05-3.20898E-06-4.06311E-19-5.86952E-19
 -1      1882 1.07370E-04-3.40879E-05-3.13870E-05-1.51878E-06-6.13702E-20-1.48797E-18
 -1      1883 1.06853E-04-3.33830E-05-3.15064E-05-4.61615E-06-3.44845E-19-6.26426E-19
 -1      1884 1.05605E-04-3.28375E-05-3.12140E-05-5.64084E-06 1.23581E-19-6.69788E-19
 -1      1885 1.07545E-04-3.42655E-05-3.13737E-05-4.50806E-06-4.82160E-19-5.61983E-19
 -1      1886 1.04883E-04-3.23302E-05-3.11188E-05-6.73497E-06 1.00178E-19-9.42612E-19
 -1      1887 1.03150E-04-3.13663E-05-3.07534E-05-7.26164E-06-8.89947E-20-4.67125E-19
 -1      1888 1.06633E-04-3.34675E-05-3.13192E-05-7.34118E-06-6.99365E-20-1.01806E-18
 -1      1889 1.01929E-04-3.04419E-05-3.06589E-05-7.46979E-06-6.76331E-19-8.35585E-19
 -1      1890 1.00106E-04-2.92728E-05-3.03067E-05-7.09533E-06-6.74321E-19-9.80513E-19
 -1      1891 1.04556E-04-3.15302E-05-3.12707E-05-8.88679E-06-6.34802E-19-1.34452E-18
 -1      1892 9.87950E-05-2.82433E-05-3.02388E-05-6.02011E-06-7.46223E-19-1.26375E-18
 -1      1893 9.74512E-05-2.73034E-05-2.99955E-05-4.64555E-06-7.68543E-19-1.28857E-18
 -1      1894 1.01822E-04-2.89081E-05-3.12566E-05-8.00364E-06-5.91212E-19-1.14573E-18
 -1      1895 9.66639E-05-2.66741E-05-2.99646E-05-2.44247E-06-7.67094E-19-1.51405E-18
 -1      1896 9.62962E-05-2.64086E-05-2.98998E-05-4.58490E-07-2.20996E-19-1.50907E-18
 -1      1897 9.95429E-05-2.66949E-05-3.12684E-05-4.35781E-06-8.86579E-19-1.08239E-18
 -1      1898 9.64797E-05-2.65599E-05-2.99043E-05 2.07399E-06 2.98976E-19-1.49957E-18
 -1      1899 9.72341E-05-2.71098E-05-3.00359E-05 3.90896E-06 1.38351E-19-6.93306E-19
 -1      1900 9.88858E-05-2.60581E-05-3.12721E-05 9.92863E-07 7.89924E-20-4.18202E-19
 -1      1901 9.82755E-05-2.79458E-05-3.00761E-05 5.75634E-06-5.22315E-20-1.09288E-18
 -1      1902 9.98491E-05-2.90264E-05-3.03646E-05 6.77630E-06 4.78143E-19-1.17270E-18
 -1      1903 1.00222E-04-2.73763E-05-3.12539E-05 5.92496E-06 3.35289E-19-5.61528E-19
 -1      1904 1.01182E-04-3.00704E-05-3.04389E-05 7.35184E-06 8.06643E-19-1.36192E-18
 -1      1905 1.03014E-04-3.12006E-05-3.08014E-05 7.35158E-06 4.57792E-19-1.20218E-18
 -1      1906 1.02799E-04-2.98932E-05-3.12380E-05 8.58498E-06 4.53331E-19-5.10852E-19
 -1      1907 1.04061E-04-3.19854E-05-3.08943E-05 6.74121E-06 3.28136E-19-1.20823E-18
 -1      1908 1.05624E-04-3.27986E-05-3.12344E-05 5.96921E-06-7.28051E-20-5.49377E-19
 -1      1909 1.05364E-04-3.23580E-05-3.12550E-05 8.44831E-06 5.61733E-19 6.13555E-19
 -1      1910 1.06109E-04-3.31295E-05-3.13153E-05 4.68467E-06-3.71685E-19 7.27191E-20
 -1      1911 1.07100E-04-3.35064E-05-3.15572E-05 3.57837E-06 3.37721E-19-2.02236E-19
 -1      1912 1.06996E-04-3.38775E-05-3.12996E-05 6.25710E-06 2.50861E-19 1.31712E-18
 -1      1913 1.07041E-04-3.34428E-05-3.15956E-05 2.16655E-06 1.08592E-18-5.84765E-19
 -1      1914 1.07398E-04-3.34503E-05-3.17033E-05 1.09871E-06 8.92482E-19 4.16789E-19
 -1      1915 1.07436E-04-3.42651E-05-3.13317E-05 3.22789E-06 6.30616E-19 1.06762E-18
 -1      1916 1.06955E-04-3.31530E-05-3.16806E-05-8.48736E-08 2.93179E-19-3.90410E-19
 -1      1917 1.06774E-04-3.29253E-05-3.16566E-05-9.08987E-07-1.00976E-19-9.26657E-20
 -1      1918 1.06895E-04-3.38170E-05-3.13036E-05 3.55080E-07 4.57265E-19-1.67147E-19
 -1      1919 1.06117E-04-3.25398E-05-3.15717E-05-1.72638E-06-3.68211E-19 1.18461E-20
 -1      1920 1.05557E-04-3.21991E-05-3.14433E-05-2.25213E-06-1.25601E-18-1.83750E-19
 -1      1921 1.05733E-04-3.29514E-05-3.11861E-05-1.83810E-06-3.48195E-19-3.54621E-20
 -1      1922 1.04813E-04-3.18159E-05-3.13084E-05-2.71148E-06-1.87756E-18 5.63558E-20
 -1      1923 1.04036E-04-3.14450E-05-3.11122E-05-2.97327E-06-1.00913E-18 2.67487E-19
 -1      1924 1.04272E-04-3.19890E-05-3.09781E-05-3.22600E-06-1.10525E-18 9.97726E-19
 -1      1925 1.03286E-04-3.11053E-05-3.09453E-05-3.14902E-06-2.33137E-19-4.45503E-19
 -1      1926 1.02422E-04-3.07505E-05-3.07159E-05-3.21457E-06 1.29276E-18-6.66713E-19
 -1      1927 1.02730E-04-3.11050E-05-3.06994E-05-3.90794E-06-8.40564E-19 6.13822E-19
 -1      1928 1.01714E-04-3.04655E-05-3.05356E-05-3.19389E-06 2.73180E-18-1.28694E-18
 -1      1929 1.00854E-04-3.01477E-05-3.03003E-05-3.13024E-06 2.32973E-18-2.32107E-20
 -1      1930 1.01237E-04-3.03642E-05-3.03793E-05-4.06405E-06 1.42456E-18 1.78930E-19
 -1      1931 1.00213E-04-2.99139E-05-3.01225E-05-2.98654E-06 1.47467E-18 5.54749E-19
 -1      1932 9.94176E-05-2.96398E-05-2.99008E-05-2.84490E-06 1.57499E-18 2.23426E-18
 -1      1933 9.98669E-05-2.97695E-05-3.00478E-05-3.87074E-06 2.60385E-18-8.88160E-19
 -1      1934 9.88570E-05-2.94482E-05-2.97372E-05-2.62904E-06 7.82112E-19 1.64121E-18
 -1      1935 9.81617E-05-2.92172E-05-2.95420E-05-2.44111E-06 1.10121E-18 1.12195E-18
 -1      1936 9.86525E-05-2.92971E-05-2.97303E-05-3.46411E-06 1.30051E-18-2.58192E-20
 -1      1937 9.76843E-05-2.90578E-05-2.94007E-05-2.18192E-06-4.63499E-19 9.14846E-19
 -1      1938 9.71103E-05-2.88665E-05-2.92402E-05-1.96186E-06-6.19893E-19 3.69522E-19
 -1      1939 9.76073E-05-2.89160E-05-2.94457E-05-2.93178E-06-2.07912E-19 5.66902E-19
 -1      1940 9.67134E-05-2.87309E-05-2.91254E-05-1.67157E-06 2.78342E-19-1.27772E-18
 -1      1941 9.62741E-05-2.85795E-05-2.90040E-05-1.42201E-06-4.03897E-19-1.14138E-18
 -1      1942 9.67314E-05-2.85983E-05-2.92058E-05-2.31944E-06-1.09247E-18 1.83659E-20
 -1      1943 9.59893E-05-2.84868E-05-2.89211E-05-1.12293E-06-2.37623E-19-1.69152E-18
 -1      1944 9.56846E-05-2.83840E-05-2.88341E-05-8.59007E-07-6.53763E-19-1.14003E-18
 -1      1945 9.55705E-05-2.82188E-05-2.88700E-05-1.01754E-06-1.18671E-18-1.79021E-18
 -1      1946 9.60529E-05-2.83555E-05-2.90204E-05-1.66631E-06-6.79704E-19-1.95016E-18
 -1      1947 9.31463E-05-2.73425E-05-2.81737E-05 1.61330E-06 5.39289E-19 1.29674E-18
 -1      1948 9.43432E-05-2.74487E-05-2.86109E-05 2.68448E-06 3.83481E-19 1.59240E-18
 -1      1949 9.51760E-05-2.70304E-05-2.92107E-05 4.06359E-06 4.73862E-19 1.18211E-18
 -1      1950 9.20929E-05-2.73278E-05-2.77318E-05 3.53967E-07 3.26392E-19 1.23980E-18
 -1      1951 9.25887E-05-2.73609E-05-2.79045E-05 9.02912E-07 3.93622E-19 1.28149E-18
 -1      1952 9.35709E-05-2.73505E-05-2.83871E-05 1.59262E-06 4.21836E-19 1.00929E-18
 -1      1953 9.17196E-05-2.73649E-05-2.75648E-05-3.04457E-07-2.08524E-19 1.20838E-18
 -1      1954 9.18344E-05-2.73386E-05-2.76114E-05-1.00668E-08 2.97173E-20 1.14355E-18
 -1      1955 9.27416E-05-2.74649E-05-2.79858E-05 2.74863E-07 1.22428E-19 8.87439E-19
 -1      1956 9.17509E-05-2.74559E-05-2.75447E-05-6.39192E-07-2.75665E-19 1.29592E-18
 -1      1957 9.16599E-05-2.73938E-05-2.75270E-05-4.82735E-07-1.95456E-19 1.30614E-18
 -1      1958 9.24339E-05-2.75575E-05-2.78144E-05-4.27609E-07-1.79531E-19 8.37183E-19
 -1      1959 9.20121E-05-2.75803E-05-2.76062E-05-7.91889E-07 6.88880E-20 1.15411E-18
 -1      1960 9.18133E-05-2.75003E-05-2.75547E-05-7.14352E-07-1.33148E-19 1.16239E-18
 -1      1961 9.24506E-05-2.76635E-05-2.77743E-05-7.87710E-07-9.29412E-20 8.13125E-19
 -1      1962 9.23961E-05-2.77202E-05-2.77126E-05-8.42460E-07 5.23099E-19 8.65265E-19
 -1      1963 9.21453E-05-2.76336E-05-2.76440E-05-8.10126E-07 3.58630E-19 1.09124E-18
 -1      1964 9.26593E-05-2.77815E-05-2.78111E-05-9.52606E-07 3.84875E-19 3.97338E-19
 -1      1965 9.28401E-05-2.78639E-05-2.78423E-05-8.40675E-07 5.23240E-19 4.69113E-19
 -1      1966 9.25684E-05-2.77772E-05-2.77659E-05-8.32214E-07 5.85452E-19 8.24319E-19
 -1      1967 9.29763E-05-2.79041E-05-2.78927E-05-1.00905E-06 6.82513E-19 5.81159E-19
 -1      1968 9.33108E-05-2.80058E-05-2.79839E-05-8.19992E-07 1.37685E-19 8.98150E-19
 -1      1969 9.30335E-05-2.79216E-05-2.79044E-05-8.20781E-07 3.44733E-19 5.31638E-19
 -1      1970 9.33516E-05-2.80258E-05-2.80003E-05-1.01263E-06 4.58390E-19 5.33420E-19
 -1      1971 9.37961E-05-2.81445E-05-2.81326E-05-8.04455E-07 2.93011E-19 1.04526E-18
 -1      1972 9.35174E-05-2.80630E-05-2.80515E-05-8.03744E-07 3.38780E-19 1.02650E-18
 -1      1973 9.37593E-05-2.81441E-05-2.81236E-05-1.00158E-06 2.36494E-19 8.20565E-19
 -1      1974 9.42990E-05-2.82825E-05-2.82889E-05-8.12563E-07 3.50624E-20 3.41771E-19
 -1      1975 9.40153E-05-2.82019E-05-2.82052E-05-8.01855E-07 2.34333E-19 6.45725E-19
 -1      1976 9.41910E-05-2.82594E-05-2.82589E-05-1.00396E-06 3.31934E-19 6.06854E-19
 -1      1977 9.48347E-05-2.84250E-05-2.84570E-05-8.59690E-07 4.42554E-19-5.98354E-19
 -1      1978 9.45358E-05-2.83417E-05-2.83678E-05-8.31702E-07 1.35750E-19-2.00769E-19
 -1      1979 9.46512E-05-2.83748E-05-2.84066E-05-1.04183E-06 4.64729E-19-1.60010E-19
 -1      1980 9.54283E-05-2.85798E-05-2.86442E-05-9.59683E-07 5.64283E-19-3.02904E-19
 -1      1981 9.50989E-05-2.84890E-05-2.85452E-05-9.07643E-07 4.09731E-19-3.07721E-19
 -1      1982 9.51549E-05-2.84957E-05-2.85710E-05-1.13393E-06 4.55033E-19-4.32922E-19
 -1      1983 9.61136E-05-2.87570E-05-2.88608E-05-1.12588E-06-2.64615E-21 1.43268E-19
 -1      1984 9.57336E-05-2.86524E-05-2.87461E-05-1.04305E-06 3.87531E-19 4.20340E-20
 -1      1985 9.57256E-05-2.86292E-05-2.87589E-05-1.29736E-06 2.70353E-19-1.84007E-19
 -1      1986 9.69326E-05-2.89691E-05-2.91193E-05-1.37149E-06 5.03877E-20-4.52192E-19
 -1      1987 9.64771E-05-2.88431E-05-2.89817E-05-1.25098E-06-2.07813E-19-2.07276E-19
 -1      1988 9.63941E-05-2.87846E-05-2.89796E-05-1.54852E-06-2.34233E-20-5.08327E-19
 -1      1989 9.79340E-05-2.92310E-05-2.94344E-05-1.70917E-06 2.88308E-19-4.80709E-19
 -1      1990 9.73741E-05-2.90744E-05-2.92656E-05-1.54410E-06 2.65326E-19-3.42640E-19
 -1      1991 9.71976E-05-2.89730E-05-2.92442E-05-1.90312E-06 2.71864E-19-3.07845E-19
 -1      1992 9.91722E-05-2.95605E-05-2.98219E-05-2.14912E-06-7.38110E-20 1.71144E-19
 -1      1993 9.84759E-05-2.93627E-05-2.96129E-05-1.93348E-06 2.45909E-19-2.14172E-19
 -1      1994 9.81788E-05-2.92086E-05-2.95650E-05-2.37488E-06 1.44988E-19-1.77740E-21
 -1      1995 1.00704E-04-2.99784E-05-3.02976E-05-2.69476E-06-7.59281E-19 1.54495E-19
 -1      1996 9.98379E-05-2.97271E-05-3.00392E-05-2.42547E-06-2.92372E-19 4.77527E-20
 -1      1997 9.93838E-05-2.95087E-05-2.99543E-05-2.97199E-06-3.09000E-19-2.87284E-20
 -1      1998 1.02582E-04-3.05088E-05-3.08744E-05-3.33416E-06-5.76853E-19-5.93045E-19
 -1      1999 1.01516E-04-3.01909E-05-3.05589E-05-3.01527E-06-5.88678E-19-1.72808E-19
 -1      2000 1.00860E-04-2.98960E-05-3.04227E-05-3.68981E-06-3.71275E-19-4.25005E-19
 -1      2001 1.04842E-04-3.11792E-05-3.15575E-05-4.02483E-06 5.97269E-19-8.42732E-20
 -1      2002 1.03559E-04-3.07816E-05-3.11817E-05-3.67516E-06-1.59636E-19-5.48924E-19
 -1      2003 1.02649E-04-3.04009E-05-3.09753E-05-4.49754E-06-1.44833E-19-1.25085E-18
 -1      2004 1.07488E-04-3.20194E-05-3.23364E-05-4.66890E-06 1.11538E-18-4.42793E-19
 -1      2005 1.05993E-04-3.15315E-05-3.19060E-05-4.33482E-06 1.09734E-18 3.16830E-19
 -1      2006 1.04783E-04-3.10648E-05-3.16075E-05-5.31602E-06 9.05237E-19-4.13534E-19
 -1      2007 1.10452E-04-3.30560E-05-3.31736E-05-5.07846E-06-1.38048E-19-1.30696E-18
 -1      2008 1.08804E-04-3.24759E-05-3.27108E-05-4.85221E-06 6.17875E-19-7.17334E-19
 -1      2009 1.07267E-04-3.19430E-05-3.22974E-05-5.98475E-06 9.29624E-19-1.11268E-18
 -1      2010 1.13562E-04-3.42958E-05-3.39918E-05-4.93957E-06-8.87768E-19-1.65126E-18
 -1      2011 1.11896E-04-3.36430E-05-3.35434E-05-4.97898E-06-1.09546E-18-1.88967E-18
 -1      2012 1.10059E-04-3.30994E-05-3.29991E-05-6.22186E-06-4.89793E-19-1.71261E-18
 -1      2013 1.16479E-04-3.56828E-05-3.46670E-05-3.80863E-06-5.05616E-19-7.41392E-19
 -1      2014 1.15044E-04-3.50232E-05-3.43102E-05-4.34069E-06-6.25507E-19-1.40314E-18
 -1      2015 1.13038E-04-3.45765E-05-3.36394E-05-5.59774E-06-9.02421E-19-1.80838E-18
 -1      2016 1.18653E-04-3.70097E-05-3.50426E-05-1.21925E-06 6.48510E-22-1.03767E-19
 -1      2017 1.17818E-04-3.64960E-05-3.48779E-05-2.48622E-06-5.55329E-19-5.78530E-19
 -1      2018 1.15932E-04-3.63074E-05-3.41273E-05-3.57918E-06-4.19030E-19-9.18898E-19
 -1      2019 1.19320E-04-3.77931E-05-3.49843E-05 2.97877E-06 5.94081E-19 1.83121E-18
 -1      2020 1.19531E-04-3.77006E-05-3.51023E-05 8.95851E-07 7.20071E-19 1.01892E-18
 -1      2021 1.18231E-04-3.79464E-05-3.43879E-05 2.49034E-07 1.12854E-19 3.76466E-19
 -1      2022 1.17671E-04-3.72442E-05-3.44780E-05 7.99985E-06-2.11857E-19 9.27236E-19
 -1      2023 1.19268E-04-3.79246E-05-3.48965E-05 5.50277E-06 2.00244E-20 1.69751E-18
 -1      2024 1.19105E-04-3.86819E-05-3.44173E-05 5.66574E-06 2.09323E-19 1.78414E-18
 -1      2025 1.13389E-04-3.46884E-05-3.37100E-05 1.15919E-05 7.29607E-19 1.11724E-18
 -1      2026 1.16279E-04-3.62963E-05-3.43165E-05 9.81962E-06 3.46139E-19 1.58027E-18
 -1      2027 1.17618E-04-3.73785E-05-3.43262E-05 1.10870E-05 4.04948E-19 1.66920E-18
 -1      2028 1.07631E-04-3.06487E-05-3.30001E-05 1.07249E-05 1.04185E-19 7.51318E-19
 -1      2029 1.10930E-04-3.26765E-05-3.35749E-05 1.11458E-05 9.28441E-19 9.82055E-19
 -1      2030 1.13614E-04-3.36105E-05-3.42772E-05 1.33633E-05 1.04247E-18 2.48889E-18
 -1      2031 1.03362E-04-2.74324E-05-3.26268E-05 4.30705E-06-1.59901E-18-1.24982E-19
 -1      2032 1.05536E-04-2.87244E-05-3.29385E-05 7.34657E-06-1.22674E-18-1.10538E-19
 -1      2033 1.08894E-04-2.89827E-05-3.43290E-05 9.60041E-06-4.86938E-19 1.42010E-18
 -1      2034 1.03596E-04-2.76122E-05-3.26988E-05-4.67921E-06-5.58989E-19 2.85490E-19
 -1      2035 1.03337E-04-2.71772E-05-3.26263E-05-5.80525E-07-1.25430E-18-6.20452E-19
 -1      2036 1.06657E-04-2.67095E-05-3.43916E-05 3.82823E-07-1.20416E-18-4.83295E-19
 -1      2037 1.08275E-04-3.10646E-05-3.31735E-05-1.08750E-05-5.67611E-19 2.03582E-18
 -1      2038 1.05715E-04-2.92499E-05-3.27475E-05-8.13311E-06-2.89156E-19 1.48536E-18
 -1      2039 1.08711E-04-2.86923E-05-3.43678E-05-9.03878E-06-8.46530E-19 3.92342E-19
 -1      2040 1.14272E-04-3.51326E-05-3.39030E-05-1.14398E-05-7.18707E-19 1.73933E-18
 -1      2041 1.10864E-04-3.31805E-05-3.32930E-05-1.11670E-05-9.58094E-19 1.53758E-18
 -1      2042 1.13370E-04-3.32703E-05-3.43167E-05-1.32705E-05-9.21532E-19 2.05122E-18
 -1      2043 1.18465E-04-3.75385E-05-3.46136E-05-7.68466E-06 1.95297E-18 5.98641E-19
 -1      2044 1.15757E-04-3.63628E-05-3.40614E-05-9.22956E-06 2.58742E-19 1.10689E-18
 -1      2045 1.17400E-04-3.71996E-05-3.43448E-05-1.13146E-05 5.26312E-19 1.06139E-18
 -1      2046 1.19757E-04-3.78947E-05-3.50163E-05-2.64382E-06 1.25115E-18 4.16912E-19
 -1      2047 1.18487E-04-3.76248E-05-3.47112E-05-4.72514E-06 1.66682E-18 9.83591E-19
 -1      2048 1.18947E-04-3.86728E-05-3.44039E-05-5.98018E-06 1.73689E-18 2.13429E-18
 -1      2049 1.18641E-04-3.69522E-05-3.49714E-05 1.50582E-06-7.97336E-19 7.81811E-19
 -1      2050 1.18762E-04-3.72888E-05-3.49722E-05-2.23346E-07 7.58717E-19 1.08217E-18
 -1      2051 1.18112E-04-3.80284E-05-3.43452E-05-4.71590E-07 7.75565E-19 2.74680E-18
 -1      2052 1.16076E-04-3.55164E-05-3.45154E-05 4.03473E-06-8.86350E-19 1.14769E-18
 -1      2053 1.17167E-04-3.61318E-05-3.47707E-05 2.96083E-06-1.14328E-18 4.81465E-19
 -1      2054 1.15803E-04-3.63870E-05-3.40623E-05 3.51381E-06-7.97753E-19 2.19312E-18
 -1      2055 1.12884E-04-3.40664E-05-3.37852E-05 5.12238E-06-1.93734E-18 1.76632E-18
 -1      2056 1.14485E-04-3.47470E-05-3.41970E-05 4.63770E-06-1.61117E-18 4.72863E-19
 -1      2057 1.12856E-04-3.46053E-05-3.35545E-05 5.67641E-06-1.39640E-18 1.66201E-18
 -1      2058 1.09601E-04-3.27914E-05-3.29306E-05 5.24333E-06 5.50842E-19 2.07986E-18
 -1      2059 1.11361E-04-3.34327E-05-3.34058E-05 5.15958E-06-1.06683E-19 2.04721E-18
 -1      2060 1.09799E-04-3.30698E-05-3.28934E-05 6.40944E-06-9.72814E-19 7.52466E-19
 -1      2061 1.06527E-04-3.17316E-05-3.20676E-05 4.83402E-06 1.37600E-18-1.43565E-19
 -1      2062 1.08227E-04-3.22929E-05-3.25399E-05 4.97451E-06 1.17969E-18 1.38845E-18
 -1      2063 1.06910E-04-3.18584E-05-3.21684E-05 6.24557E-06 1.22445E-18 1.31105E-18
 -1      2064 1.03805E-04-3.08701E-05-3.12678E-05 4.19549E-06 4.88611E-19-2.82370E-19
 -1      2065 1.05330E-04-3.13427E-05-3.16992E-05 4.43678E-06 1.15680E-18 3.04584E-19
 -1      2066 1.04319E-04-3.09298E-05-3.14532E-05 5.61807E-06 1.35832E-18-6.13652E-20
 -1      2067 1.01483E-04-3.01752E-05-3.05676E-05 3.50027E-06 2.22518E-18-3.15373E-18
 -1      2068 1.02788E-04-3.05644E-05-3.09406E-05 3.77089E-06 7.64217E-19-2.08916E-18
 -1      2069 1.02075E-04-3.02168E-05-3.07962E-05 4.80924E-06 1.89273E-18-3.61753E-19
 -1      2070 9.95618E-05-2.96160E-05-2.99806E-05 2.82685E-06 2.03607E-18-4.09145E-18
 -1      2071 1.00639E-04-2.99314E-05-3.02898E-05 3.09443E-06 2.33629E-18-4.20911E-18
 -1      2072 1.00182E-04-2.96607E-05-3.02235E-05 3.97268E-06 2.50297E-18-3.13438E-18
 -1      2073 9.80196E-05-2.91685E-05-2.95090E-05 2.19542E-06 4.88068E-19-2.91748E-18
 -1      2074 9.88776E-05-2.94196E-05-2.97546E-05 2.45190E-06 9.05055E-19-2.95678E-18
 -1      2075 9.86235E-05-2.92192E-05-2.97458E-05 3.17105E-06 1.35770E-19-1.91895E-18
 -1      2076 9.68309E-05-2.88125E-05-2.91505E-05 1.59015E-06-6.48577E-19-5.91325E-19
 -1      2077 9.74813E-05-2.90074E-05-2.93342E-05 1.84447E-06-4.39082E-19-1.52449E-18
 -1      2078 9.73751E-05-2.88604E-05-2.93659E-05 2.41346E-06-4.79374E-19-1.40219E-18
 -1      2079 9.59775E-05-2.85416E-05-2.88974E-05 9.83572E-07 4.16385E-19-1.31130E-18
 -1      2080 9.64230E-05-2.86818E-05-2.90229E-05 1.24938E-06 3.43892E-19 5.81965E-19
 -1      2081 9.64067E-05-2.85630E-05-2.90789E-05 1.67865E-06 1.40697E-19 1.18232E-18
 -1      2082 9.55072E-05-2.83935E-05-2.87559E-05 5.28723E-07-7.56682E-19-1.48130E-18
 -1      2083 9.57789E-05-2.84654E-05-2.88423E-05 7.93120E-07 3.72276E-19-1.67426E-18
 -1      2084 9.57924E-05-2.83540E-05-2.89054E-05 1.10078E-06 3.90749E-19 1.48799E-18
 -1      2085 9.54485E-05-2.82450E-05-2.88018E-05 6.79486E-07-4.36650E-19 1.44035E-18
 -1      2086 9.44692E-05-2.60251E-05-2.93381E-05 1.78161E-06-3.08680E-18-3.88465E-20
 -1      2087 9.46893E-05-2.64942E-05-2.92211E-05 1.75339E-06-2.95661E-18 3.91132E-19
 -1      2088 9.49050E-05-2.69222E-05-2.91372E-05 1.64704E-06-1.82616E-18 1.31943E-19
 -1      2089 9.51099E-05-2.73527E-05-2.90315E-05 1.47766E-06-1.10850E-18 1.20240E-18
 -1      2090 9.48614E-05-2.67226E-05-2.92022E-05 2.17492E-06-2.49734E-18-4.60080E-19
 -1      2091 9.52322E-05-2.76552E-05-2.89605E-05 1.23802E-06-1.53422E-18-2.70264E-19
 -1      2092 9.53781E-05-2.79936E-05-2.88724E-05 9.76382E-07-4.56550E-19-2.74872E-21
 -1      2093 9.55272E-05-2.80324E-05-2.89217E-05 1.20197E-06-1.60863E-19 8.00354E-19
 -1      2094 9.52592E-05-2.74608E-05-2.90590E-05 1.77774E-06-7.80368E-19 1.14676E-20
 -1      2095 9.40774E-05-2.51937E-05-2.95296E-05 1.63554E-06-3.85859E-18-3.64347E-18
 -1      2096 9.42749E-05-2.56283E-05-2.94196E-05 1.72839E-06-3.69796E-18-2.28117E-18
 -1      2097 9.43648E-05-2.58728E-05-2.93506E-05 2.22335E-06-3.95381E-18-1.76922E-18
 -1      2098 9.37594E-05-2.45030E-05-2.96917E-05 1.24582E-06-8.52398E-19 1.63798E-18
 -1      2099 9.39143E-05-2.48542E-05-2.96017E-05 1.43970E-06-2.09094E-18 2.08565E-19
 -1      2100 9.39320E-05-2.51110E-05-2.94876E-05 1.93944E-06-2.20517E-18-6.33842E-19
 -1      2101 9.35610E-05-2.40582E-05-2.97983E-05 6.86920E-07 9.83007E-19 2.80636E-18
 -1      2102 9.36512E-05-2.42711E-05-2.97431E-05 9.44894E-07 1.93282E-19 3.18963E-18
 -1      2103 9.36037E-05-2.45205E-05-2.95974E-05 1.37714E-06 1.24972E-18 3.51057E-18
 -1      2104 9.34998E-05-2.39103E-05-2.98350E-05 4.76798E-08 1.39579E-18 1.14914E-18
 -1      2105 9.35169E-05-2.39589E-05-2.98219E-05 3.29947E-07 1.30561E-18 1.90834E-18
 -1      2106 9.34203E-05-2.41787E-05-2.96639E-05 6.35457E-07 2.50632E-18 2.10850E-18
 -1      2107 9.35768E-05-2.40700E-05-2.97977E-05-5.81653E-07 1.12472E-18-5.01700E-19
 -1      2108 9.35217E-05-2.39517E-05-2.98279E-05-3.14263E-07 9.70193E-19 8.92399E-19
 -1      2109 9.33945E-05-2.41198E-05-2.96782E-05-1.74025E-07 1.03205E-18 5.45022E-19
 -1      2110 9.37765E-05-2.45085E-05-2.96926E-05-1.11882E-06 4.97497E-19-1.16922E-18
 -1      2111 9.36590E-05-2.42427E-05-2.97611E-05-9.00963E-07 6.66692E-19-8.03166E-19
 -1      2112 9.35204E-05-2.43420E-05-2.96383E-05-9.40448E-07 7.08975E-19-1.97221E-18
 -1      2113 9.40659E-05-2.51508E-05-2.95376E-05-1.49234E-06 1.39922E-18-2.32812E-18
 -1      2114 9.39044E-05-2.47822E-05-2.96328E-05-1.35259E-06 3.97489E-19-1.43606E-18
 -1      2115 9.37747E-05-2.48049E-05-2.95512E-05-1.56211E-06 1.30631E-18-1.36381E-18
 -1      2116 9.44202E-05-2.59356E-05-2.93490E-05-1.66800E-06 1.65997E-18 3.57621E-18
 -1      2117 9.42292E-05-2.55011E-05-2.94608E-05-1.62070E-06 1.86928E-18 5.84446E-19
 -1      2118 9.41240E-05-2.54489E-05-2.94280E-05-1.96993E-06 2.39433E-18-3.48787E-19
 -1      2119 9.47957E-05-2.67569E-05-2.91542E-05-1.61029E-06 9.44450E-19 6.28860E-19
 -1      2120 9.45998E-05-2.63188E-05-2.92658E-05-1.66859E-06 9.35511E-19 2.51760E-18
 -1      2121 9.45361E-05-2.62057E-05-2.92835E-05-2.11652E-06 1.69543E-18 2.60810E-18
 -1      2122 9.51551E-05-2.75359E-05-2.89769E-05-1.31842E-06-3.11106E-19-2.32767E-18
 -1      2123 9.49731E-05-2.71351E-05-2.90735E-05-1.48047E-06-1.38937E-19-1.11544E-18
 -1      2124 9.49657E-05-2.69869E-05-2.91349E-05-1.97507E-06 3.22435E-20-9.56679E-19
 -1      2125 5.47436E-05-3.97932E-05-7.14358E-06 3.75286E-05 1.51068E-18 1.93425E-18
 -1      2126 4.03041E-05-4.11511E-05-1.12218E-06 3.03472E-05 1.62884E-18 1.19728E-18
 -1      2127 1.17873E-05-3.35945E-05 8.00620E-06 3.08256E-06 7.21884E-19 3.31317E-18
 -1      2128 1.21470E-05-3.45860E-05 8.14363E-06-5.99741E-06-1.02279E-19 2.14511E-18
 -1      2129 2.53153E-05-3.49052E-05 3.07072E-06 2.41405E-05 1.37939E-18 1.51958E-18
 -1      2130 1.75774E-05-3.55441E-05 6.24145E-06 1.46728E-05 1.32561E-19 2.40303E-18
 -1      2131 9.45278E-05-4.53321E-05-2.14212E-05 4.15374E-05 1.57548E-18-1.34001E-18
 -1      2132 7.25135E-05-4.49815E-05-1.31079E-05 3.66858E-05 1.79740E-18 4.65021E-19
 -1      2133 7.55681E-05-4.76342E-05-1.22256E-05 4.12669E-05 2.85450E-19 4.52832E-19
 -1      2134 1.37909E-04-4.83220E-05-3.80572E-05 3.01128E-05 1.67225E-18-1.95665E-18
 -1      2135 1.18262E-04-4.99344E-05-2.97714E-05 3.10975E-05 1.73261E-18-1.70889E-18
 -1      2136 8.72556E-05-8.72399E-06-3.37520E-05-1.05492E-05-8.24434E-20-7.34179E-19
 -1      2137 8.79553E-05-9.24318E-06-3.38213E-05-1.21053E-05-1.85513E-19-6.73113E-19
 -1      2138 9.04862E-05-1.30510E-05-3.32348E-05-1.18862E-05-2.33718E-19-6.02135E-19
 -1      2139 8.86988E-05-1.10576E-05-3.32997E-05-9.42203E-06-6.34166E-20-6.70877E-19
 -1      2140 1.83666E-04-3.09506E-05-6.37521E-05 1.03359E-05 5.67089E-19-8.31363E-19
 -1      2141 1.70275E-04-3.13873E-05-5.89233E-05 1.47446E-05 2.11970E-19-4.83232E-19
 -1      2142 1.88597E-04-2.68165E-05-6.78102E-05-5.51267E-07-6.73391E-19-4.46214E-19
 -1      2143 1.85424E-04-2.69501E-05-6.65403E-05 7.03280E-06-3.43048E-20-4.39187E-19
 -1      2144 1.77663E-04-2.66410E-05-6.39051E-05-7.76061E-06-8.89385E-20 7.86894E-19
 -1      2145 1.85851E-04-2.66031E-05-6.66560E-05-2.33995E-06-6.14946E-19 4.01494E-19
 -1      2146 1.61390E-04-3.42577E-05-5.40908E-05-1.25344E-05 6.42263E-19 7.01343E-19
 -1      2147 1.76426E-04-3.21441E-05-6.02910E-05-1.15211E-05 6.17275E-19 2.41404E-19
 -1      2148 1.35036E-04-4.38589E-05-3.92881E-05-2.83426E-05 1.42556E-18 8.58891E-19
 -1      2149 1.52779E-04-4.35409E-05-4.66082E-05-2.05689E-05 9.11778E-19 4.88314E-19
 -1      2150 1.02154E-04-4.57708E-05-2.50610E-05-3.56235E-05 8.68209E-19-4.07846E-19
 -1      2151 1.22956E-04-4.47135E-05-3.32562E-05-3.77936E-05 1.18669E-18 3.82859E-19
 -1      2152 1.37810E-04-5.43421E-05-3.52661E-05-2.19001E-05 8.14846E-19 1.27097E-18
 -1      2153 6.49728E-05-4.43233E-05-1.00491E-05-3.63420E-05 1.83467E-18-1.31290E-20
 -1      2154 8.22934E-05-4.22316E-05-1.74778E-05-4.15640E-05 1.45097E-18-6.23628E-19
 -1      2155 3.16384E-05-3.97044E-05 1.86707E-06-2.59173E-05 8.36869E-19-2.25988E-18
 -1      2156 4.48470E-05-3.78037E-05-3.71494E-06-3.52990E-05 1.43149E-18-1.07361E-18
 -1      2157 1.42776E-05-3.48221E-05 7.39588E-06-1.00222E-05-7.98329E-20-3.18442E-18
 -1      2158 1.99942E-05-3.53776E-05 5.32359E-06-1.84965E-05 4.91279E-19-2.59150E-18
 -1      2159 1.34769E-05-3.06011E-05 6.39450E-06 1.13143E-05-1.07785E-18-3.04593E-18
 -1      2160 1.20646E-05-3.22935E-05 7.44727E-06 1.21269E-06-1.66813E-19-3.39237E-18
 -1      2161 3.23322E-05-3.51603E-05 4.55987E-07 3.07210E-05-1.69534E-18-1.38892E-18
 -1      2162 2.29662E-05-3.44680E-05 3.91419E-06 2.32421E-05-1.19940E-18-1.23582E-18
 -1      2163 5.99244E-05-3.86800E-05-9.48653E-06 4.13639E-05-9.93570E-19-1.98497E-18
 -1      2164 4.51284E-05-4.05831E-05-3.21374E-06 3.41502E-05-1.37092E-18-1.34308E-18
 -1      2165 4.72619E-05-3.63293E-05-5.01967E-06 3.90441E-05-4.60151E-19-7.50683E-19
 -1      2166 9.77186E-05-4.15144E-05-2.40329E-05 4.29133E-05-1.47003E-18-9.31313E-19
 -1      2167 7.98142E-05-4.37234E-05-1.64412E-05 3.89547E-05-1.13079E-18-1.41264E-18
 -1      2168 1.31787E-04-4.31803E-05-3.78733E-05 3.30572E-05-1.90540E-18 1.25107E-18
 -1      2169 1.11957E-04-4.25628E-05-3.03046E-05 3.60670E-05-1.80884E-18 2.23617E-19
 -1      2170 1.16634E-04-5.26697E-05-2.71924E-05 3.42689E-05-8.07222E-19 1.28876E-18
 -1      2171 1.61727E-04-3.46518E-05-5.31035E-05 2.49284E-05-1.36094E-18 3.38813E-20
 -1      2172 1.44973E-04-3.70419E-05-4.59369E-05 2.48044E-05-1.29427E-18 8.66938E-19
 -1      2173 1.72097E-04-2.71042E-05-6.14722E-05 8.72117E-06-5.34054E-19-1.59877E-19
 -1      2174 1.66092E-04-2.97380E-05-5.75953E-05 1.74463E-05-1.18161E-18 5.07373E-19
 -1      2175 1.55400E-04-3.14276E-05-5.22721E-05 4.80340E-06-1.18299E-18 9.35124E-19
 -1      2176 1.71379E-04-1.93628E-05-6.45274E-05-5.08527E-07-7.32260E-19 5.67724E-19
 -1      2177 1.71059E-04-2.10714E-05-6.35364E-05 4.48307E-06-6.56027E-19 1.46113E-20
 -1      2178 1.71891E-04-2.47891E-05-6.22011E-05-9.07225E-06-1.05879E-21 9.54183E-19
 -1      2179 1.71731E-04-2.11508E-05-6.40218E-05-1.79489E-06-6.17064E-19 3.32249E-19
 -1      2180 1.57848E-04-3.10088E-05-5.40907E-05-1.73328E-05 1.43784E-18 6.35275E-21
 -1      2181 1.71173E-04-3.01725E-05-5.94477E-05-1.36232E-05 1.27563E-18 1.05117E-18
 -1      2182 1.55677E-04-2.12701E-05-5.67109E-05 9.25639E-07 4.76668E-19 1.55473E-18
 -1      2183 1.33902E-04-3.97360E-05-4.05309E-05-3.03694E-05-2.02864E-19-1.19686E-18
 -1      2184 1.51149E-04-3.87971E-05-4.75635E-05-2.62296E-05 8.28081E-19-1.47553E-18
 -1      2185 1.05512E-04-4.46523E-05-2.66811E-05-3.64207E-05-1.29977E-18-2.10149E-18
 -1      2186 1.23807E-04-4.19781E-05-3.45805E-05-3.84215E-05-4.54857E-19-2.15062E-18
 -1      2187 1.36805E-04-5.05719E-05-3.65184E-05-2.24926E-05 2.25523E-19-2.50383E-18
 -1      2188 6.72977E-05-4.33204E-05-1.13983E-05-3.83910E-05-7.81811E-19-7.51636E-19
 -1      2189 8.59642E-05-4.25414E-05-1.87469E-05-4.36911E-05-8.69479E-19-1.16171E-18
 -1      2190 3.60517E-05-3.99565E-05 9.37601E-08-3.00827E-05 9.35971E-20 2.58769E-19
 -1      2191 4.84111E-05-3.75664E-05-5.42595E-06-3.72790E-05-3.35002E-19-1.11726E-18
 -1      2192 1.75870E-05-3.57898E-05 6.35733E-06-1.64158E-05 3.39025E-19 2.15189E-18
 -1      2193 2.42424E-05-3.46269E-05 3.41069E-06-2.47812E-05-3.96411E-19 2.30689E-18
 -1      2194 1.65225E-04-3.84671E-05-5.31597E-05 1.90822E-05 1.70412E-19-5.81912E-19
 -1      2195 1.47617E-04-4.13208E-05-4.57303E-05 2.03074E-05 1.38892E-18-7.89858E-19
 -1      2196 1.17194E-04-5.61542E-05-2.58803E-05 3.28048E-05 7.30142E-19-2.47630E-18
 -1      2197 9.71376E-05-2.42986E-05-3.12899E-05-1.00126E-05-4.13617E-19-2.95416E-19
 -1      2198 1.60121E-04-3.46386E-05-5.30090E-05 1.19632E-06-5.29396E-21-1.21846E-18
 -1      2199 9.63070E-05-2.30916E-05-3.14435E-05-1.03972E-05-4.07158E-19-4.06973E-19
 -1      2200 4.00732E-05-3.54442E-05-2.53178E-06 3.32795E-05-5.15631E-19 4.23305E-19
 -1      2201 1.72697E-05-2.58812E-05 3.04454E-06 1.17687E-05-5.02079E-19 2.94090E-18
 -1      2202 9.52900E-05-2.77678E-05-2.89338E-05-1.25832E-06-5.82490E-19-2.28188E-18
 -1      2203 1.71695E-05-2.55791E-05 2.94940E-06-1.45813E-05-3.69518E-20 1.81604E-18
 -1      2204 1.47031E-04-5.21603E-05-4.05001E-05 1.24101E-05 5.76300E-19-2.08412E-18
 -1      2205 3.64036E-05-3.38444E-05-1.71684E-06-3.38256E-05 2.17052E-19 3.69306E-19
 -1      2206 1.08062E-04-5.32338E-05-2.35141E-05-3.76342E-05-5.23466E-19-2.32532E-18
 -1      2207 1.52107E-04-3.78937E-05-4.83125E-05-8.07779E-06 1.28352E-18 3.60836E-19
 -1      2208 1.56077E-04-1.76312E-05-5.85183E-05-7.91406E-07-3.34154E-19 1.11914E-18
 -1      2209 1.40889E-04-4.49915E-05-4.09097E-05 2.17621E-05-1.38945E-18 9.96111E-19
 -1      2210 1.36989E-04-5.20693E-05-3.59391E-05 1.79219E-05-1.21772E-18 2.14681E-18
 -1      2211 1.45412E-04-4.60964E-05-4.32434E-05 8.20585E-06-1.02999E-18 1.34149E-18
 -1      2212 8.18727E-05-4.79584E-05-1.46874E-05 4.26833E-05-7.28448E-20-9.06643E-19
 -1      2213 2.27427E-05-2.57367E-05 9.38843E-07 2.11730E-05-6.87367E-19-2.13918E-18
 -1      2214 1.54655E-05-2.40741E-05 3.11844E-06-5.83281E-06-3.98000E-19-3.45716E-18
 -1      2215 3.10723E-05-3.16977E-05-3.07909E-07-2.85762E-05-1.74065E-19-2.44602E-18
 -1      2216 1.07259E-04-5.42277E-05-2.26868E-05-3.67580E-05 6.00123E-19 4.58880E-19
 -1      2217 1.55837E-04-4.17882E-05-4.86141E-05-8.45045E-06 4.22180E-19 7.39460E-19
 -1      2218 1.52278E-04-3.83069E-05-4.93773E-05 5.37787E-06 8.92561E-20 1.37008E-18
 -1      2219 1.48557E-04-4.80348E-05-4.27547E-05-3.07182E-06 3.70709E-19 1.38913E-18
 -1      2220 1.61252E-04-2.37298E-05-5.81669E-05 2.87100E-06 2.23193E-19 9.15007E-19
 -1      2221 1.66434E-04-2.08024E-05-6.10832E-05-8.41708E-07-3.28225E-19-5.49513E-19
 -1      2222 1.64953E-04-1.58370E-05-6.25994E-05 1.13851E-06-7.90705E-19 1.45044E-18
 -1      2223 6.50470E-05-4.43187E-05-9.24833E-06-4.00250E-05 1.06006E-18-6.42845E-19
 -1      2224 1.54569E-04-1.27301E-05-6.00914E-05 4.02070E-07-7.57247E-19 1.39443E-18
 -1      2225 6.89626E-05-4.44474E-05-1.06642E-05-4.31872E-05-2.21923E-19-2.89421E-19
 -1      2226 9.51711E-05-2.63622E-05-2.94762E-05 4.20574E-06 5.16637E-19 8.73513E-19
 -1      2227 9.61465E-05-2.58484E-05-3.00541E-05 6.01182E-06 4.85297E-19 9.32510E-19
 -1      2228 8.81752E-05-1.11858E-05-3.30350E-05-3.66302E-06 2.51838E-19-5.59379E-19
 -1      2229 8.84051E-05-1.14558E-05-3.30154E-05-4.80499E-06 1.67396E-19-6.43216E-19
 -1      2230 8.87514E-05-1.19388E-05-3.29647E-05-5.82445E-06 1.22956E-19-7.07517E-19
 -1      2231 8.91538E-05-1.24123E-05-3.29338E-05-6.99763E-06 9.33684E-20-6.98101E-19
 -1      2232 8.99234E-05-1.38235E-05-3.26136E-05-4.90659E-06 1.84941E-19-6.20194E-19
 -1      2233 8.78337E-05-1.07257E-05-3.30803E-05 6.16171E-07 4.47293E-19-2.21009E-19
 -1      2234 8.78296E-05-1.07213E-05-3.30806E-05-4.95180E-07 4.02006E-19-3.91859E-19
 -1      2235 8.80122E-05-1.09514E-05-3.30605E-05 2.75891E-06 6.20378E-19-1.56886E-19
 -1      2236 8.78991E-05-1.08183E-05-3.30706E-05 1.63891E-06 5.21080E-19-1.37583E-19
 -1      2237 8.91497E-05-1.27683E-05-3.27380E-05 1.04980E-06 4.56490E-19-1.41196E-19
 -1      2238 8.84402E-05-1.14988E-05-3.30125E-05 4.89007E-06 7.00029E-19-2.15524E-19
 -1      2239 8.82045E-05-1.12222E-05-3.30321E-05 3.76601E-06 6.38687E-19-2.47744E-19
 -1      2240 8.94129E-05-1.31257E-05-3.26962E-05 3.02121E-06 5.84382E-19-1.53998E-19
 -1      2241 8.92089E-05-1.24807E-05-3.29294E-05 7.07975E-06 8.05907E-19 1.97134E-20
 -1      2242 8.87969E-05-1.19949E-05-3.29608E-05 5.90708E-06 7.69429E-19-9.74154E-20
 -1      2243 8.99631E-05-1.38742E-05-3.26085E-05 4.97715E-06 7.08330E-19-1.70680E-19
 -1      2244 9.04636E-05-1.40878E-05-3.27968E-05 9.23120E-06 8.32767E-19 3.12840E-19
 -1      2245 8.97914E-05-1.32783E-05-3.28451E-05 8.05120E-06 7.75436E-19 1.51718E-19
 -1      2246 9.08869E-05-1.51335E-05-3.24589E-05 6.87536E-06 7.35878E-19 7.89759E-20
 -1      2247 9.24412E-05-1.66554E-05-3.25801E-05 1.11179E-05 8.82414E-19 6.32985E-19
 -1      2248 9.13732E-05-1.53179E-05-3.26556E-05 1.00370E-05 8.65665E-19 4.40728E-19
 -1      2249 9.22942E-05-1.70854E-05-3.22116E-05 8.52418E-06 7.76189E-19 3.56531E-19
 -1      2250 9.41919E-05-2.71004E-05-2.87366E-05 1.77136E-06 3.49193E-19 8.95648E-19
 -1      2251 9.47923E-05-2.68781E-05-2.90347E-05 2.74648E-06 4.86779E-19 8.55887E-19
 -1      2252 9.53081E-05-2.58352E-05-2.97821E-05 4.37028E-06 5.13100E-19 6.38401E-19
 -1      2253 9.58618E-05-2.50663E-05-3.02953E-05-6.20377E-06-2.30760E-19-4.13569E-19
 -1      2254 9.52131E-05-2.58391E-05-2.97515E-05-4.26060E-06-2.35144E-19-4.38035E-19
 -1      2255 1.53462E-04-3.03395E-05-5.29170E-05-6.36821E-06-1.70042E-19-9.12043E-19
 -1      2256 1.49363E-04-3.80745E-05-4.80032E-05-5.30140E-06 3.19543E-19-1.27733E-18
 -1      2257 9.51313E-05-2.65320E-05-2.93367E-05-2.97131E-06-2.35098E-19-3.57263E-19
 -1      2258 9.46322E-05-2.68803E-05-2.90348E-05-1.88399E-06-2.15664E-19-2.84941E-19
 -1      2259 9.53365E-05-2.54362E-05-2.99920E-05-4.27722E-06-2.49143E-19-4.05467E-19
 -1      2260 9.44463E-05-2.72198E-05-2.87725E-05-1.02251E-06-2.10921E-19-1.27388E-19
 -1      2261 9.41896E-05-2.74311E-05-2.86077E-05-4.14063E-07-9.40223E-20-1.57864E-19
 -1      2262 9.50027E-05-2.66730E-05-2.92989E-05-1.91195E-06-1.39441E-19-2.12773E-19
 -1      2263 9.40453E-05-2.76099E-05-2.84495E-05 1.03238E-07-7.11312E-20-1.27141E-19
 -1      2264 9.39533E-05-2.77514E-05-2.83690E-05 4.43293E-07 7.67086E-21-4.74247E-20
 -1      2265 9.47161E-05-2.74047E-05-2.88607E-05-4.18671E-07-9.93167E-20 2.59900E-21
 -1      2266 9.38751E-05-2.78579E-05-2.82803E-05 7.40744E-07 6.39768E-20-1.10448E-19
 -1      2267 9.38914E-05-2.79623E-05-2.82523E-05 9.20769E-07 9.68569E-20-9.10974E-20
 -1      2268 9.45252E-05-2.78251E-05-2.85964E-05 4.77704E-07 2.81738E-21 3.47068E-20
 -1      2269 9.38699E-05-2.80305E-05-2.82102E-05 1.08049E-06-7.34060E-20-2.86446E-19
 -1      2270 9.39543E-05-2.81117E-05-2.82153E-05 1.16624E-06-1.00438E-19-3.51075E-19
 -1      2271 9.44478E-05-2.80829E-05-2.84501E-05 9.88959E-07-6.74333E-20-1.01517E-19
 -1      2272 9.39746E-05-2.81567E-05-2.82048E-05 1.24370E-06-1.32748E-19-5.38194E-19
 -1      2273 9.41000E-05-2.82212E-05-2.82309E-05 1.27778E-06-1.98007E-19-4.67916E-19
 -1      2274 9.44615E-05-2.82455E-05-2.83840E-05 1.26090E-06-2.50664E-19-5.28624E-19
 -1      2275 9.41496E-05-2.82505E-05-2.82418E-05 1.31182E-06-4.10105E-19-3.80669E-19
 -1      2276 9.42998E-05-2.83021E-05-2.82816E-05 1.32325E-06-5.29902E-19-4.16530E-19
 -1      2277 9.45407E-05-2.83461E-05-2.83732E-05 1.39476E-06-1.96003E-19-7.12742E-19
 -1      2278 9.43702E-05-2.83202E-05-2.83078E-05 1.34157E-06-3.77148E-19-3.10850E-19
 -1      2279 9.45371E-05-2.83620E-05-2.83572E-05 1.35093E-06-2.14188E-19-2.41188E-19
 -1      2280 9.46659E-05-2.84037E-05-2.84011E-05 1.46211E-06-4.45559E-19-5.42627E-20
 -1      2281 9.46236E-05-2.83721E-05-2.83949E-05 1.37380E-06-2.21439E-19-3.61675E-19
 -1      2282 9.48053E-05-2.84073E-05-2.84521E-05 1.39616E-06-2.47988E-19-2.74008E-19
 -1      2283 9.48248E-05-2.84304E-05-2.84572E-05 1.51467E-06-3.68616E-19-4.95950E-20
 -1      2284 9.49065E-05-2.84120E-05-2.84993E-05 1.43869E-06-1.60262E-19-5.90443E-19
 -1      2285 9.51056E-05-2.84441E-05-2.85642E-05 1.48529E-06-8.64073E-20-4.00797E-19
 -1      2286 9.50124E-05-2.84351E-05-2.85353E-05 1.59058E-06-2.88310E-19-4.34514E-19
 -1      2287 9.52228E-05-2.84463E-05-2.86201E-05 1.55879E-06-1.81018E-19-5.73696E-19
 -1      2288 9.54452E-05-2.84795E-05-2.86937E-05 1.63784E-06-1.47107E-19-5.64921E-19
 -1      2289 9.52291E-05-2.84256E-05-2.86322E-05 1.71829E-06-1.42682E-19-5.66751E-19
 -1      2290 9.55821E-05-2.84825E-05-2.87584E-05 1.75045E-06-1.80373E-19-3.93498E-19
 -1      2291 9.58363E-05-2.85217E-05-2.88422E-05 1.86737E-06-3.15328E-19-1.88659E-19
 -1      2292 9.54803E-05-2.84100E-05-2.87467E-05 1.91871E-06-1.58217E-19-4.18844E-19
 -1      2293 9.59983E-05-2.85302E-05-2.89161E-05 2.02395E-06-4.02869E-19-1.20771E-19
 -1      2294 9.62945E-05-2.85819E-05-2.90118E-05 2.18078E-06-1.94879E-19 2.92511E-20
 -1      2295 9.57756E-05-2.83983E-05-2.88787E-05 2.20584E-06-2.12773E-19 2.34567E-19
 -1      2296 9.64893E-05-2.86022E-05-2.90952E-05 2.38211E-06-4.89999E-19-1.02445E-19
 -1      2297 9.68383E-05-2.86749E-05-2.92044E-05 2.57623E-06-5.17586E-19-1.15241E-19
 -1      2298 9.61287E-05-2.84040E-05-2.90280E-05 2.58584E-06-4.82749E-19 1.91831E-19
 -1      2299 9.70757E-05-2.87163E-05-2.92970E-05 2.81729E-06-1.65671E-19-2.21939E-19
 -1      2300 9.74880E-05-2.88211E-05-2.94201E-05 3.03919E-06-7.83406E-20-2.71174E-19
 -1      2301 9.65577E-05-2.84465E-05-2.91941E-05 3.05457E-06-3.37619E-19-1.57341E-20
 -1      2302 9.77809E-05-2.88974E-05-2.95207E-05 3.30644E-06-6.42927E-19-5.37517E-19
 -1      2303 9.82654E-05-2.90487E-05-2.96567E-05 3.53646E-06-4.66143E-19-1.08180E-18
 -1      2304 9.70858E-05-2.85543E-05-2.93750E-05 3.59312E-06-4.37047E-19-4.49894E-19
 -1      2305 9.86305E-05-2.91793E-05-2.97627E-05 3.80403E-06-2.47595E-19-1.28443E-18
 -1      2306 9.91925E-05-2.93952E-05-2.99081E-05 4.00818E-06-2.18316E-19-1.50744E-18
 -1      2307 9.77432E-05-2.87679E-05-2.95662E-05 4.16128E-06-8.75494E-19-6.48822E-19
 -1      2308 9.96515E-05-2.96060E-05-3.00154E-05 4.23297E-06 2.10408E-19-1.57054E-18
 -1      2309 1.00290E-04-2.99074E-05-3.01639E-05 4.35845E-06 4.52514E-19-1.73326E-18
 -1      2310 9.85690E-05-2.91429E-05-2.97608E-05 4.68888E-06-1.85964E-20-1.15681E-18
 -1      2311 1.00870E-04-3.02300E-05-3.02671E-05 4.47492E-06 9.60816E-19-1.68329E-18
 -1      2312 1.01573E-04-3.06364E-05-3.04091E-05 4.44708E-06 1.22000E-18-1.03591E-18
 -1      2313 9.96123E-05-2.97496E-05-2.99498E-05 5.06573E-06 9.57396E-19-1.88708E-18
 -1      2314 1.02301E-04-3.11018E-05-3.05034E-05 4.36345E-06 1.03960E-18-8.50113E-19
 -1      2315 1.03041E-04-3.16204E-05-3.06272E-05 4.08793E-06 6.69230E-19-3.80310E-19
 -1      2316 1.00929E-04-3.06641E-05-3.01246E-05 5.13244E-06 1.45339E-18-8.62872E-19
 -1      2317 1.03935E-04-3.22427E-05-3.07109E-05 3.68852E-06 4.62551E-19-2.45221E-19
 -1      2318 1.04651E-04-3.28472E-05-3.08050E-05 3.06524E-06 4.39498E-19-5.30975E-19
 -1      2319 1.02567E-04-3.19412E-05-3.02818E-05 4.67787E-06 7.91356E-19-3.95285E-19
 -1      2320 1.05693E-04-3.35913E-05-3.08840E-05 2.22827E-06-1.30891E-19-6.65470E-19
 -1      2321 1.06284E-04-3.41884E-05-3.09425E-05 1.18743E-06-1.80524E-19-1.08812E-18
 -1      2322 1.04528E-04-3.35552E-05-3.04312E-05 3.45607E-06 1.76305E-20-7.73874E-19
 -1      2323 1.07370E-04-3.49223E-05-3.10353E-05-1.65435E-07 1.17802E-19-1.46145E-18
 -1      2324 1.07680E-04-3.53166E-05-3.10630E-05-1.59710E-06 2.78505E-19-1.12490E-18
 -1      2325 1.06693E-04-3.53019E-05-3.06060E-05 1.24815E-06-3.78824E-19-9.85969E-19
 -1      2326 1.08577E-04-3.57706E-05-3.12015E-05-3.40647E-06 1.83616E-19-1.19927E-18
 -1      2327 1.08413E-04-3.56616E-05-3.12180E-05-5.01560E-06-8.47662E-20-3.84692E-19
 -1      2328 1.08729E-04-3.66919E-05-3.08692E-05-1.99783E-06 3.34970E-19-1.60473E-18
 -1      2329 1.08745E-04-3.54445E-05-3.14394E-05-6.92877E-06-4.68618E-19-7.02580E-19
 -1      2330 1.07973E-04-3.45507E-05-3.14715E-05-8.23472E-06-4.33848E-19-1.13636E-18
 -1      2331 1.10005E-04-3.68950E-05-3.13046E-05-5.92142E-06-4.03960E-19-9.07574E-19
 -1      2332 1.07421E-04-3.33852E-05-3.17860E-05-9.52737E-06-2.18378E-19-8.95694E-19
 -1      2333 1.06121E-04-3.17030E-05-3.18496E-05-9.87081E-06-3.92777E-19-6.91038E-19
 -1      2334 1.09785E-04-3.50909E-05-3.19680E-05-9.43720E-06-3.33010E-19-6.16521E-19
 -1      2335 1.04756E-04-2.97687E-05-3.22062E-05-9.62537E-06-8.07094E-19-9.96098E-19
 -1      2336 1.03374E-04-2.78658E-05-3.22856E-05-8.47464E-06-1.10095E-18-8.11681E-19
 -1      2337 1.07759E-04-3.11420E-05-3.28052E-05-1.07790E-05-1.03208E-18-5.19216E-19
 -1      2338 1.01961E-04-2.60653E-05-3.25686E-05-6.29460E-06-9.64324E-19-1.21621E-18
 -1      2339 1.01128E-04-2.48815E-05-3.26214E-05-3.78232E-06-2.15669E-19-5.04168E-19
 -1      2340 1.04821E-04-2.64438E-05-3.36041E-05-8.39424E-06-8.68136E-19-8.27373E-19
 -1      2341 1.00692E-04-2.43451E-05-3.26996E-05-3.03323E-07 2.15490E-19-1.00020E-18
 -1      2342 1.00886E-04-2.46323E-05-3.26843E-05 2.61008E-06 2.65492E-19-5.40326E-19
 -1      2343 1.02839E-04-2.35115E-05-3.40592E-05-2.34326E-06-2.82194E-19-7.75164E-19
 -1      2344 1.01773E-04-2.57437E-05-3.25149E-05 5.76815E-06-6.62936E-20-4.26368E-19
 -1      2345 1.02876E-04-2.73106E-05-3.24419E-05 7.84315E-06-3.40812E-19-8.98101E-19
 -1      2346 1.03322E-04-2.42350E-05-3.39454E-05 4.79842E-06-2.02957E-19-1.04510E-18
 -1      2347 1.04385E-04-2.93021E-05-3.21100E-05 9.31636E-06 7.08116E-19-9.58410E-19
 -1      2348 1.05801E-04-3.12291E-05-3.20266E-05 9.87682E-06 1.26459E-18-3.46582E-19
 -1      2349 1.05888E-04-2.81321E-05-3.33189E-05 9.66412E-06 1.14219E-19-8.98559E-19
 -1      2350 1.06906E-04-3.29456E-05-3.16705E-05 9.44155E-06 7.36321E-19-1.41124E-19
 -1      2351 1.08022E-04-3.43615E-05-3.16138E-05 8.65394E-06 4.49131E-19-3.36685E-19
 -1      2352 1.08663E-04-3.28184E-05-3.24620E-05 1.05454E-05 1.04684E-18-4.64498E-19
 -1      2353 1.08217E-04-3.51632E-05-3.13281E-05 7.01602E-06 3.91175E-19 3.65933E-19
 -1      2354 1.08739E-04-3.57405E-05-3.12994E-05 5.51387E-06 7.35129E-19 1.10320E-18
 -1      2355 1.10020E-04-3.60355E-05-3.16652E-05 8.14448E-06 8.51323E-19-5.45903E-19
 -1      2356 1.08142E-04-3.56624E-05-3.11081E-05 3.56010E-06 2.44478E-19 3.58798E-19
 -1      2357 1.08087E-04-3.55431E-05-3.10840E-05 1.96152E-06 4.36245E-19 1.96595E-19
 -1      2358 1.09595E-04-3.70270E-05-3.10815E-05 4.27598E-06 5.58056E-19-6.36063E-19
 -1      2359 1.07073E-04-3.49450E-05-3.09614E-05 2.81076E-07-1.47655E-19-5.11917E-19
 -1      2360 1.06612E-04-3.44401E-05-3.09160E-05-1.03647E-06-5.67587E-19-1.15012E-18
 -1      2361 1.07930E-04-3.62758E-05-3.07108E-05 4.88001E-07-3.61349E-19-9.49982E-19
 -1      2362 1.05508E-04-3.36751E-05-3.08258E-05-2.21568E-06-8.95555E-20-1.80032E-18
 -1      2363 1.04825E-04-3.30493E-05-3.07455E-05-3.11590E-06-6.41263E-19-1.56853E-18
 -1      2364 1.05763E-04-3.46736E-05-3.04792E-05-2.42897E-06-8.49827E-19-1.70809E-18
 -1      2365 1.03815E-04-3.23353E-05-3.06609E-05-3.79655E-06-5.72406E-19-6.40489E-19
 -1      2366 1.03047E-04-3.17438E-05-3.05460E-05-4.29638E-06-4.29270E-19 1.88210E-19
 -1      2367 1.03614E-04-3.29253E-05-3.03098E-05-4.29261E-06-3.91922E-19-1.01689E-18
 -1      2368 1.02197E-04-3.11700E-05-3.04542E-05-4.57972E-06-9.81145E-19 7.58087E-19
 -1      2369 1.01430E-04-3.06759E-05-3.03140E-05-4.76325E-06 5.76164E-20 7.22648E-19
 -1      2370 1.01732E-04-3.14073E-05-3.01521E-05-5.23597E-06 1.07790E-20 5.49475E-19
 -1      2371 1.00741E-04-3.02526E-05-3.02134E-05-4.76878E-06 2.20995E-19 4.19884E-19
 -1      2372 1.00022E-04-2.98648E-05-3.00609E-05-4.73208E-06 7.77636E-19-3.01761E-19
 -1      2373 1.00179E-04-3.02403E-05-2.99840E-05-5.49368E-06-4.32208E-19 9.97980E-19
 -1      2374 9.94690E-05-2.95665E-05-2.99560E-05-4.56180E-06 2.03302E-18-1.28014E-18
 -1      2375 9.88224E-05-2.92693E-05-2.98039E-05-4.38585E-06 2.12229E-18-1.87932E-18
 -1      2376 9.89279E-05-2.94055E-05-2.98035E-05-5.29288E-06 5.22479E-19-2.34731E-19
 -1      2377 9.83774E-05-2.90601E-05-2.97014E-05-4.11344E-06 1.79704E-18-2.00377E-18
 -1      2378 9.78133E-05-2.88305E-05-2.95602E-05-3.85511E-06 1.34774E-18-6.09693E-19
 -1      2379 9.79251E-05-2.88280E-05-2.96196E-05-4.81178E-06 1.76130E-18-1.25168E-18
 -1      2380 9.74496E-05-2.86765E-05-2.94665E-05-3.52674E-06 1.01923E-18-9.33384E-19
 -1      2381 9.69699E-05-2.84921E-05-2.93436E-05-3.21979E-06 1.82474E-19-1.46945E-19
 -1      2382 9.71140E-05-2.84233E-05-2.94441E-05-4.17173E-06 1.12204E-18-1.00752E-18
 -1      2383 9.66649E-05-2.83667E-05-2.92631E-05-2.85910E-06-1.06435E-18-5.28180E-19
 -1      2384 9.62725E-05-2.82136E-05-2.91628E-05-2.51907E-06-1.07339E-18-5.08669E-19
 -1      2385 9.64459E-05-2.81176E-05-2.92875E-05-3.44436E-06-5.31162E-19-2.57340E-18
 -1      2386 9.33108E-05-2.76710E-05-2.81235E-05-4.27570E-07-8.89947E-20 5.26172E-19
 -1      2387 9.33838E-05-2.75671E-05-2.81826E-05-1.34649E-07-3.65171E-20 6.54857E-19
 -1      2388 9.32765E-05-2.78338E-05-2.80414E-05-8.57702E-07 5.06838E-20 2.54405E-19
 -1      2389 9.32217E-05-2.77434E-05-2.80489E-05-7.06778E-07 3.90700E-20 5.14683E-19
 -1      2390 9.40001E-05-2.77855E-05-2.83893E-05-4.76235E-07 2.56184E-20 3.26026E-19
 -1      2391 9.33985E-05-2.79685E-05-2.80373E-05-1.06961E-06 5.15784E-19 3.03805E-19
 -1      2392 9.32690E-05-2.78877E-05-2.80139E-05-1.00102E-06 1.74667E-19 2.02577E-19
 -1      2393 9.39310E-05-2.79895E-05-2.82693E-05-9.56905E-07 2.20021E-19 1.87392E-19
 -1      2394 9.36171E-05-2.80838E-05-2.80822E-05-1.15728E-06 5.10802E-19 7.57604E-19
 -1      2395 9.34462E-05-2.80118E-05-2.80404E-05-1.13347E-06 5.06421E-19 4.85115E-19
 -1      2396 9.39874E-05-2.81321E-05-2.82298E-05-1.20252E-06 4.12933E-19 2.56389E-19
 -1      2397 9.38945E-05-2.81836E-05-2.81586E-05-1.18406E-06 3.51677E-19 7.79671E-19
 -1      2398 9.37009E-05-2.81196E-05-2.81055E-05-1.17970E-06 6.32627E-19 7.97710E-19
 -1      2399 9.41275E-05-2.82354E-05-2.82437E-05-1.31432E-06 4.13826E-19 7.83085E-19
 -1      2400 9.42102E-05-2.82706E-05-2.82563E-05-1.19488E-06 4.29805E-19 5.88326E-19
 -1      2401 9.40025E-05-2.82135E-05-2.81957E-05-1.19180E-06 2.79607E-19 7.49231E-19
 -1      2402 9.43224E-05-2.83104E-05-2.82940E-05-1.36233E-06 4.07993E-19 7.55943E-19
 -1      2403 9.45569E-05-2.83480E-05-2.83711E-05-1.22337E-06 5.69173E-19 1.50597E-19
 -1      2404 9.43363E-05-2.82959E-05-2.83039E-05-1.20772E-06 6.77628E-19 4.18888E-19
 -1      2405 9.45558E-05-2.83640E-05-2.83705E-05-1.39706E-06 7.70388E-19 5.47615E-19
 -1      2406 9.49382E-05-2.84200E-05-2.85026E-05-1.29627E-06 7.73556E-19-4.06348E-19
 -1      2407 9.46998E-05-2.83700E-05-2.84280E-05-1.25673E-06 6.59315E-19-7.78982E-20
 -1      2408 9.48210E-05-2.84010E-05-2.84680E-05-1.45684E-06 8.60684E-19-1.58626E-19
 -1      2409 9.53657E-05-2.84915E-05-2.86538E-05-1.43632E-06 2.96679E-19-2.17402E-19
 -1      2410 9.51001E-05-2.84403E-05-2.85692E-05-1.36294E-06 5.01990E-19-3.07756E-19
 -1      2411 9.51193E-05-2.84259E-05-2.85854E-05-1.57239E-06 4.90752E-19-3.19468E-19
 -1      2412 9.58578E-05-2.85686E-05-2.88298E-05-1.66410E-06 1.55911E-19 8.63308E-21
 -1      2413 9.55517E-05-2.85118E-05-2.87316E-05-1.54762E-06 1.65926E-19-7.14615E-20
 -1      2414 9.54584E-05-2.84428E-05-2.87238E-05-1.76991E-06 2.08673E-19 1.89442E-20
 -1      2415 9.64387E-05-2.86588E-05-2.90380E-05-1.99890E-06-1.58341E-19 1.12373E-19
 -1      2416 9.60752E-05-2.85912E-05-2.89214E-05-1.83044E-06-1.11482E-19 2.64065E-19
 -1      2417 9.58508E-05-2.84563E-05-2.88867E-05-2.07294E-06-1.40310E-19 4.55362E-19
 -1      2418 9.71370E-05-2.87716E-05-2.92864E-05-2.45850E-06 1.39069E-19 3.91957E-19
 -1      2419 9.66965E-05-2.86865E-05-2.91462E-05-2.22990E-06-1.03673E-19 1.43379E-19
 -1      2420 9.63127E-05-2.84719E-05-2.90786E-05-2.50304E-06-3.01267E-19 7.08577E-19
 -1      2421 9.79852E-05-2.89199E-05-2.95838E-05-3.05725E-06-2.09244E-20 6.64387E-19
 -1      2422 9.74457E-05-2.88087E-05-2.94144E-05-2.76228E-06 4.83040E-19 9.27747E-19
 -1      2423 9.68641E-05-2.84980E-05-2.93043E-05-3.07923E-06 2.08964E-19 9.94094E-19
 -1      2424 9.90185E-05-2.91222E-05-2.99376E-05-3.80154E-06-6.23363E-20 1.79072E-19
 -1      2425 9.83568E-05-2.89731E-05-2.97339E-05-3.43860E-06-3.41452E-20 7.02375E-19
 -1      2426 9.75277E-05-2.85476E-05-2.95682E-05-3.81525E-06-4.82834E-20 1.23649E-18
 -1      2427 1.00274E-04-2.94072E-05-3.03522E-05-4.68082E-06-1.58018E-19-2.93044E-19
 -1      2428 9.94674E-05-2.92029E-05-3.01109E-05-4.25818E-06-1.53899E-19-9.39207E-20
 -1      2429 9.83311E-05-2.86435E-05-2.98720E-05-4.71392E-06 1.91817E-19 1.88869E-19
 -1      2430 1.01790E-04-2.98200E-05-3.08257E-05-5.65218E-06 6.94633E-20-1.04312E-18
 -1      2431 1.00819E-04-2.95353E-05-3.05471E-05-5.19692E-06 3.14262E-20-7.89814E-19
 -1      2432 9.93086E-05-2.88263E-05-3.02136E-05-5.75663E-06 2.74153E-19-2.12384E-19
 -1      2433 1.03605E-04-3.04322E-05-3.13459E-05-6.61536E-06 1.10778E-18-1.04136E-18
 -1      2434 1.02458E-04-3.00301E-05-3.10366E-05-6.18746E-06 5.66277E-19-1.27479E-18
 -1      2435 1.00509E-04-2.91664E-05-3.05841E-05-6.88584E-06 4.91350E-19-1.10734E-18
 -1      2436 1.05761E-04-3.13520E-05-3.18864E-05-7.37732E-06 4.21188E-19-5.43992E-19
 -1      2437 1.04440E-04-3.07815E-05-3.15624E-05-7.08873E-06 1.06781E-18-5.29727E-19
 -1      2438 1.02008E-04-2.97816E-05-3.09662E-05-7.97790E-06 7.36748E-19-8.11535E-19
 -1      2439 1.08297E-04-3.27222E-05-3.24050E-05-7.61045E-06-3.66860E-19-1.10043E-18
 -1      2440 1.06832E-04-3.19252E-05-3.20939E-05-7.64441E-06 7.80523E-20-3.47163E-19
 -1      2441 1.03925E-04-3.08527E-05-3.13351E-05-8.80489E-06-9.98686E-21 6.13747E-19
 -1      2442 1.11228E-04-3.46761E-05-3.28520E-05-6.82618E-06-6.76098E-19-1.12911E-18
 -1      2443 1.09702E-04-3.36218E-05-3.25901E-05-7.43969E-06-8.62551E-19-1.27232E-18
 -1      2444 1.06436E-04-3.26155E-05-3.16660E-05-8.98872E-06-3.48001E-19-2.03122E-19
 -1      2445 1.14466E-04-3.71902E-05-3.31955E-05-4.42354E-06-6.21438E-19-8.52699E-19
 -1      2446 1.13058E-04-3.59653E-05-3.30156E-05-5.89329E-06-7.49161E-19-1.06033E-18
 -1      2447 1.09743E-04-3.52750E-05-3.19566E-05-7.96749E-06-5.65598E-19-1.12722E-18
 -1      2448 1.17636E-04-3.97778E-05-3.34700E-05 6.77387E-08-3.94903E-19 5.78653E-19
 -1      2449 1.16689E-04-3.87466E-05-3.33773E-05-2.38174E-06-7.52066E-19-6.31212E-19
 -1      2450 1.13924E-04-3.87452E-05-3.22696E-05-5.04587E-06-9.09885E-19-3.28971E-19
 -1      2451 1.19831E-04-4.11181E-05-3.38247E-05 6.40327E-06-8.58878E-20 1.15658E-18
 -1      2452 1.19873E-04-4.10576E-05-3.37688E-05 3.33647E-06 3.13346E-19 1.27953E-18
 -1      2453 1.18584E-04-4.21861E-05-3.27842E-05 3.39027E-07-3.35705E-19-3.41646E-21
 -1      2454 1.19662E-04-3.92107E-05-3.45070E-05 1.26673E-05 3.90410E-19 1.74128E-18
 -1      2455 1.21148E-04-4.10299E-05-3.43864E-05 1.02101E-05-8.28438E-20 1.40200E-18
 -1      2456 1.22332E-04-4.34727E-05-3.38039E-05 7.77418E-06-3.67070E-20 7.64194E-19
 -1      2457 1.16316E-04-3.30744E-05-3.56354E-05 1.48242E-05 1.94447E-19 2.76444E-18
 -1      2458 1.18926E-04-3.66997E-05-3.54027E-05 1.49322E-05 6.76925E-19 2.49361E-18
 -1      2459 1.22892E-04-3.98344E-05-3.56080E-05 1.47319E-05-7.57300E-20 1.50281E-18
 -1      2460 1.11771E-04-2.59544E-05-3.67799E-05 9.21231E-06-9.99234E-20 1.39221E-18
 -1      2461 1.13942E-04-2.92049E-05-3.65637E-05 1.28039E-05 7.43827E-19 2.69520E-18
 -1      2462 1.19274E-04-3.10876E-05-3.78710E-05 1.59730E-05 1.62498E-19 2.28222E-18
 -1      2463 1.10263E-04-2.37589E-05-3.72179E-05-2.43794E-06-8.00181E-19 7.16272E-20
 -1      2464 1.10332E-04-2.38070E-05-3.72151E-05 3.03585E-06-8.74509E-19 3.39033E-19
 -1      2465 1.15220E-04-2.31331E-05-3.96449E-05 7.24967E-06 4.00011E-19 2.16631E-18
 -1      2466 1.13716E-04-2.88398E-05-3.65945E-05-1.25164E-05-1.94373E-18 2.25004E-18
 -1      2467 1.11573E-04-2.56804E-05-3.68153E-05-8.74552E-06-1.83700E-18 1.12775E-18
 -1      2468 1.14969E-04-2.28691E-05-3.97042E-05-6.46043E-06-1.88438E-18 1.63375E-18
 -1      2469 1.18707E-04-3.64292E-05-3.54121E-05-1.48735E-05-9.34380E-19 3.28665E-18
 -1      2470 1.16092E-04-3.28187E-05-3.56515E-05-1.46709E-05-1.20845E-18 2.77946E-18
 -1      2471 1.19182E-04-3.07628E-05-3.79815E-05-1.53480E-05-2.27630E-18 2.96509E-18
 -1      2472 1.21017E-04-4.08886E-05-3.43889E-05-1.03950E-05 1.02801E-18 2.52278E-18
 -1      2473 1.19497E-04-3.90143E-05-3.45162E-05-1.27487E-05 5.64385E-20 2.35743E-18
 -1      2474 1.22758E-04-3.95383E-05-3.56573E-05-1.46674E-05-2.97785E-20 3.18146E-18
 -1      2475 1.19848E-04-4.10737E-05-3.37429E-05-3.54108E-06 1.33813E-18 3.56133E-18
 -1      2476 1.19770E-04-4.10810E-05-3.38058E-05-6.54405E-06 1.49550E-18 3.53147E-18
 -1      2477 1.22333E-04-4.33797E-05-3.38275E-05-7.95782E-06 5.30641E-19 3.27839E-18
 -1      2478 1.16685E-04-3.88357E-05-3.33341E-05 2.29020E-06 2.73972E-19 3.54263E-18
 -1      2479 1.17614E-04-3.98297E-05-3.34306E-05-1.46431E-07 1.35421E-18 3.51640E-18
 -1      2480 1.18664E-04-4.22764E-05-3.27668E-05-4.59918E-07 1.31956E-18 3.18683E-18
 -1      2481 1.13000E-04-3.60402E-05-3.29595E-05 5.94408E-06-6.97346E-19 2.46581E-18
 -1      2482 1.14422E-04-3.72552E-05-3.31448E-05 4.45993E-06-2.43456E-19 3.30550E-18
 -1      2483 1.13987E-04-3.88952E-05-3.22314E-05 5.05508E-06 7.94864E-19 2.33773E-18
 -1      2484 1.09568E-04-3.36581E-05-3.25191E-05 7.60751E-06-1.18282E-18 1.32878E-18
 -1      2485 1.11127E-04-3.47161E-05-3.27892E-05 6.96133E-06-4.40636E-19 1.74129E-18
 -1      2486 1.09730E-04-3.53845E-05-3.19039E-05 8.10049E-06-3.66347E-19 1.16081E-18
 -1      2487 1.06614E-04-3.19164E-05-3.20062E-05 7.89903E-06-1.07029E-19-5.31531E-19
 -1      2488 1.08123E-04-3.27271E-05-3.23277E-05 7.82514E-06-1.44967E-18-2.57544E-19
 -1      2489 1.06345E-04-3.26751E-05-3.16005E-05 9.22026E-06-5.73909E-19 3.61474E-20
 -1      2490 1.04134E-04-3.07268E-05-3.14562E-05 7.40023E-06 1.72885E-18-9.94473E-19
 -1      2491 1.05505E-04-3.13181E-05-3.17921E-05 7.65088E-06 1.29766E-18-7.42821E-19
 -1      2492 1.03758E-04-3.08621E-05-3.12581E-05 9.10944E-06 8.15770E-19-3.02156E-18
 -1      2493 1.02062E-04-2.99283E-05-3.09118E-05 6.52720E-06 1.11640E-18-1.21933E-18
 -1      2494 1.03264E-04-3.03565E-05-3.12334E-05 6.92644E-06 1.06018E-18-1.48003E-18
 -1      2495 1.01769E-04-2.97433E-05-3.08786E-05 8.32962E-06 1.49845E-18-1.87342E-18
 -1      2496 1.00337E-04-2.93811E-05-3.04067E-05 5.53247E-06 3.14046E-18-1.52123E-18
 -1      2497 1.01361E-04-2.96971E-05-3.06961E-05 5.97541E-06 2.10901E-18-9.09524E-19
 -1      2498 1.00201E-04-2.90783E-05-3.04884E-05 7.25629E-06 1.70039E-18-1.88240E-18
 -1      2499 9.89070E-05-2.89855E-05-2.99625E-05 4.54588E-06 1.46599E-18-1.30100E-18
 -1      2500 9.97606E-05-2.92273E-05-3.02105E-05 4.98148E-06 2.80742E-18-1.02267E-18
 -1      2501 9.89338E-05-2.86787E-05-3.01153E-05 6.10898E-06 2.38631E-18-7.96288E-19
 -1      2502 9.77303E-05-2.86763E-05-2.95903E-05 3.61061E-06-8.53688E-19 3.50961E-19
 -1      2503 9.84257E-05-2.88674E-05-2.97933E-05 4.02668E-06-2.85097E-19-4.24567E-19
 -1      2504 9.78898E-05-2.84164E-05-2.97805E-05 5.00124E-06 5.42996E-19 5.45197E-19
 -1      2505 9.67777E-05-2.84139E-05-2.92940E-05 2.73029E-06-1.17859E-18 7.92390E-19
 -1      2506 9.73327E-05-2.85741E-05-2.94519E-05 3.13136E-06-8.97918E-19 3.69169E-19
 -1      2507 9.70219E-05-2.82166E-05-2.94983E-05 3.96191E-06-1.66614E-18 1.91206E-18
 -1      2508 9.60191E-05-2.81793E-05-2.90675E-05 1.89137E-06 3.42717E-19 7.48402E-19
 -1      2509 9.64500E-05-2.83182E-05-2.91853E-05 2.28229E-06-8.57886E-20 5.79407E-19
 -1      2510 9.63038E-05-2.80328E-05-2.92707E-05 2.97630E-06-8.69708E-19 1.04381E-18
 -1      2511 9.57385E-05-2.81079E-05-2.89763E-05 1.42388E-06 9.63583E-20 2.88654E-19
 -1      2512 9.36334E-05-2.49514E-05-2.94468E-05 2.15603E-06 8.46522E-19 2.45691E-18
 -1      2513 9.38788E-05-2.52950E-05-2.93909E-05 2.39533E-06-5.56526E-19-1.43107E-18
 -1      2514 9.32645E-05-2.44305E-05-2.95115E-05 1.42160E-06 3.08784E-18 5.18035E-18
 -1      2515 9.34264E-05-2.46660E-05-2.94716E-05 1.78395E-06 1.29684E-18 4.70244E-18
 -1      2516 9.33321E-05-2.47791E-05-2.93712E-05 2.25634E-06 2.79165E-18 4.25054E-18
 -1      2517 9.47739E-05-2.65236E-05-2.92584E-05 2.67095E-06-2.60337E-18-1.05463E-18
 -1      2518 9.51030E-05-2.69658E-05-2.91912E-05 2.56531E-06-1.30244E-18-1.67184E-18
 -1      2519 9.41666E-05-2.56852E-05-2.93591E-05 2.59516E-06-3.50995E-18-1.84097E-18
 -1      2520 9.44580E-05-2.60862E-05-2.92949E-05 2.65879E-06-3.57206E-18-3.66264E-19
 -1      2521 9.45953E-05-2.63002E-05-2.92729E-05 3.08697E-06-1.50657E-18-1.61192E-18
 -1      2522 9.39215E-05-2.54708E-05-2.93292E-05 2.87871E-06-4.60510E-19 1.02538E-18
 -1      2523 9.30894E-05-2.41751E-05-2.95441E-05 5.13069E-07 2.03382E-18 7.78631E-19
 -1      2524 9.31536E-05-2.42760E-05-2.95260E-05 9.41569E-07 2.53996E-18 1.96986E-18
 -1      2525 9.29537E-05-2.43289E-05-2.94004E-05 1.34333E-06 2.39973E-18 3.55096E-18
 -1      2526 9.31160E-05-2.42056E-05-2.95397E-05-4.39547E-07 9.58677E-19 1.04540E-19
 -1      2527 9.30810E-05-2.41637E-05-2.95459E-05-5.77871E-09 6.42842E-19 7.69776E-19
 -1      2528 9.28115E-05-2.41595E-05-2.94118E-05 2.74902E-07 1.32332E-18-2.17602E-19
 -1      2529 9.33286E-05-2.45068E-05-2.94986E-05-1.30989E-06 1.15119E-18-1.64812E-18
 -1      2530 9.32044E-05-2.43318E-05-2.95281E-05-9.27908E-07 7.93951E-19 2.11814E-19
 -1      2531 9.29063E-05-2.42779E-05-2.94027E-05-8.00698E-07 1.05976E-18 1.89912E-19
 -1      2532 9.36858E-05-2.50220E-05-2.94273E-05-1.98156E-06 1.64166E-18-1.74856E-18
 -1      2533 9.34942E-05-2.47446E-05-2.94753E-05-1.70148E-06 1.60917E-18-2.13418E-18
 -1      2534 9.32091E-05-2.46524E-05-2.93738E-05-1.73883E-06 1.83100E-18-1.35529E-18
 -1      2535 9.41554E-05-2.57044E-05-2.93328E-05-2.39989E-06 2.21829E-18 1.45166E-18
 -1      2536 9.39130E-05-2.53489E-05-2.93944E-05-2.24571E-06 1.74344E-18-1.04052E-18
 -1      2537 9.36734E-05-2.52301E-05-2.93279E-05-2.43821E-06 1.31802E-18-1.56859E-18
 -1      2538 9.46842E-05-2.64739E-05-2.92273E-05-2.50495E-06 8.86133E-19 1.62784E-18
 -1      2539 9.44183E-05-2.60816E-05-2.92944E-05-2.50146E-06 1.80185E-18 2.72370E-18
 -1      2540 9.42505E-05-2.59499E-05-2.92699E-05-2.82772E-06 1.66667E-18 1.29126E-18
 -1      2541 9.52150E-05-2.72515E-05-2.91198E-05-2.28517E-06-1.39538E-18-2.62902E-18
 -1      2542 9.49557E-05-2.68622E-05-2.91865E-05-2.43436E-06-2.42321E-19-1.07891E-18
 -1      2543 9.48740E-05-2.67340E-05-2.92037E-05-2.85927E-06 8.77687E-20-1.00694E-18
 -1      2544 2.46938E-05-2.02480E-05-1.70551E-06 1.90269E-05-6.62274E-19 2.10954E-18
 -1      2545 1.91518E-05-1.80427E-05-1.98754E-07 4.62087E-06-8.17718E-19 3.40931E-18
 -1      2546 5.46646E-05-3.59732E-05-7.91330E-06 3.95010E-05-7.24213E-19-5.15843E-19
 -1      2547 3.86447E-05-2.81776E-05-4.19468E-06 3.09387E-05-9.04843E-19-7.65083E-19
 -1      2548 1.84920E-05-1.86627E-05 2.90833E-07-7.82910E-06-5.21296E-19 1.75082E-18
 -1      2549 2.38639E-05-2.05110E-05-1.22356E-06-2.08931E-05-5.19655E-19 4.30716E-19
 -1      2550 9.35844E-05-2.74535E-05-2.83300E-05 3.67578E-07 5.10172E-20 7.30271E-19
 -1      2551 9.38649E-05-2.73187E-05-2.84759E-05 9.05531E-07 1.78679E-19 8.32261E-19
 -1      2552 9.42456E-05-2.74708E-05-2.86317E-05 3.92204E-07 9.89457E-20 4.31444E-19
 -1      2553 9.55009E-05-2.78247E-05-2.89991E-05-1.60278E-06-1.36873E-18-1.88355E-18
 -1      2554 9.02791E-05-5.09377E-05-1.69950E-05 4.14428E-05-9.80864E-19-1.59065E-18
 -1      2555 7.27775E-05-4.48576E-05-1.18386E-05 4.04083E-05-1.00649E-18 3.42519E-19
 -1      2556 9.50432E-05-2.00148E-05-3.22041E-05-1.17595E-05-3.60426E-19-5.44404E-19
 -1      2557 9.54495E-05-2.33552E-05-3.09190E-05-7.97337E-06-2.72897E-19-5.12400E-19
 -1      2558 9.50516E-05-2.25658E-05-3.10462E-05-7.65132E-06-2.03725E-19-5.51677E-19
 -1      2559 9.31961E-05-1.76134E-05-3.24113E-05-1.14206E-05-2.82307E-19-5.76962E-19
 -1      2560 1.48727E-04-4.95478E-05-4.28075E-05 2.26276E-06 5.67314E-19-1.90921E-18
 -1      2561 1.40431E-04-5.60678E-05-3.62834E-05 9.69811E-06 4.19493E-19-2.07142E-18
 -1      2562 1.41189E-04-1.29855E-05-5.56043E-05-5.23568E-06-1.17081E-18 1.08653E-18
 -1      2563 1.44545E-04-1.98892E-05-5.37361E-05-5.80279E-06-1.02745E-18 6.74026E-19
 -1      2564 3.22601E-05-2.26045E-05-3.82184E-06 2.86459E-05-1.45690E-19-1.00670E-18
 -1      2565 2.29870E-05-1.80072E-05-1.68502E-06 1.45752E-05-1.15726E-19-2.56524E-18
 -1      2566 8.78856E-05-1.08008E-05-3.30722E-05-1.51823E-06 3.81058E-19-4.54771E-19
 -1      2567 8.79895E-05-1.09235E-05-3.30627E-05-2.63744E-06 2.99056E-19-5.17153E-19
 -1      2568 8.93866E-05-1.30929E-05-3.26997E-05-2.93051E-06 2.83412E-19-4.71672E-19
 -1      2569 8.91403E-05-1.27560E-05-3.27394E-05-9.40386E-07 3.38009E-19-3.56035E-19
 -1      2570 1.49067E-04-1.37000E-05-5.83965E-05 2.92728E-06-1.22312E-18 1.54647E-18
 -1      2571 1.51549E-04-1.35823E-05-5.93667E-05-8.43133E-07-7.36495E-19 1.31978E-18
 -1      2572 6.20959E-05-3.99121E-05-9.27558E-06-3.92947E-05-6.73391E-20-2.83121E-19
 -1      2573 8.27118E-05-4.81456E-05-1.48831E-05-4.22548E-05 3.31402E-19 4.25263E-19
 -1      2574 1.52431E-04-1.67559E-05-5.84241E-05-4.47828E-06-5.15843E-19 3.50354E-19
 -1      2575 1.51635E-04-2.20335E-05-5.59496E-05-6.48233E-06-6.65133E-19-3.87729E-19
 -1      2576 1.44144E-04-2.58802E-05-5.08392E-05-1.12056E-05-2.81850E-19-2.27852E-19
 -1      2577 1.49083E-04-2.58934E-05-5.31903E-05 8.01666E-06 7.55977E-20 1.19855E-18
 -1      2578 1.49870E-04-1.90742E-05-5.63459E-05 6.87984E-06-5.96946E-19 1.12698E-18
 -1      2579 1.32559E-04-5.91561E-05-3.15456E-05-1.92261E-05 8.39304E-19 1.60682E-18
 -1      2580 1.41264E-04-5.68674E-05-3.65692E-05-1.24736E-05 1.09648E-18 2.07375E-18
 -1      2581 1.40925E-04-1.13292E-05-5.59763E-05 3.55283E-06-5.09279E-19 1.13608E-18
 -1      2582 1.39551E-04-9.06119E-06-5.64574E-05-3.02447E-07-7.71647E-19 1.30994E-18
 -1      2583 1.03521E-04-5.55040E-05-2.05355E-05-3.54143E-05 5.92076E-19 3.81588E-19
 -1      2584 1.21377E-04-5.87806E-05-2.70083E-05-3.00677E-05 6.14734E-19 1.06663E-18
 -1      2585 1.29097E-04-6.10093E-05-2.90120E-05-2.03338E-05 1.05223E-18 1.46463E-18
 -1      2586 2.97948E-05-2.44638E-05-2.05359E-06-2.43082E-05-8.67573E-19-2.95276E-18
 -1      2587 4.15334E-05-2.95614E-05-5.04518E-06-3.44171E-05-3.28014E-19-1.97507E-18
 -1      2588 1.85022E-05-1.66180E-05-5.41765E-07-2.22546E-07-6.49476E-19-3.17553E-18
 -1      2589 2.17872E-05-1.97224E-05-6.37864E-07-1.42550E-05-5.10020E-19-3.48596E-18
 -1      2590 3.22855E-05-1.90254E-05-5.12010E-06-1.94144E-05-6.25534E-19-2.92099E-18
 -1      2591 5.99236E-05-3.74465E-05-9.51222E-06 4.27495E-05-3.93447E-19-6.39616E-19
 -1      2592 4.64150E-05-3.09303E-05-6.28943E-06 3.69517E-05-1.49501E-19-6.13040E-19
 -1      2593 9.78020E-05-5.19844E-05-1.96424E-05 4.11373E-05 3.44319E-19 3.66659E-19
 -1      2594 7.83199E-05-4.59674E-05-1.36776E-05 4.22162E-05 2.67874E-19-4.83762E-19
 -1      2595 1.25761E-04-5.61614E-05-2.99783E-05 2.82379E-05-1.11110E-18 2.48805E-18
 -1      2596 1.13284E-04-5.58176E-05-2.45943E-05 3.31098E-05-2.81215E-19 1.47977E-18
 -1      2597 1.47000E-04-2.90864E-05-5.11034E-05-3.78364E-06-1.50772E-18 1.26737E-18
 -1      2598 1.46400E-04-3.63384E-05-4.73539E-05-1.04798E-06-1.82790E-18 1.05731E-18
 -1      2599 6.33014E-05-4.10661E-05-9.49620E-06-4.18607E-05 1.15599E-18-2.89156E-19
 -1      2600 8.08582E-05-4.64234E-05-1.47484E-05-4.33093E-05 5.79371E-19-1.07769E-18
 -1      2601 1.45354E-04-2.43145E-05-5.21988E-05 5.72323E-06 9.25807E-19 1.58522E-18
 -1      2602 1.43841E-04-1.79196E-05-5.46023E-05 5.76330E-06 2.52416E-19 1.22026E-18
 -1      2603 1.43527E-04-4.34646E-05-4.30879E-05-3.54929E-06 1.21369E-18 6.27651E-19
 -1      2604 1.47022E-04-3.45628E-05-4.86766E-05 2.14809E-06 1.79253E-18 2.52416E-18
 -1      2605 1.32256E-04-5.52187E-05-3.30093E-05-1.97018E-05 9.32795E-20-1.73663E-18
 -1      2606 1.40066E-04-5.20169E-05-3.81251E-05-1.36227E-05 5.15790E-19-5.39984E-19
 -1      2607 1.02653E-04-5.38414E-05-2.07881E-05-3.78033E-05 9.25383E-20-2.60325E-18
 -1      2608 1.20413E-04-5.61813E-05-2.76357E-05-3.14518E-05-5.25584E-19-3.49592E-18
 -1      2609 3.54417E-05-2.67516E-05-3.41840E-06-3.14300E-05 1.39125E-19-1.22672E-18
 -1      2610 4.81900E-05-3.33679E-05-6.28317E-06-3.94814E-05 1.04587E-18-8.29669E-19
 -1      2611 6.16152E-05-3.60657E-05-1.04940E-05-4.03347E-05 1.67607E-18-9.53336E-19
 -1      2612 9.62890E-05-2.50814E-05-3.05434E-05 7.60485E-06 5.79662E-19 1.07547E-18
 -1      2613 9.74114E-05-2.37655E-05-3.15839E-05 1.07044E-05 5.81409E-19 1.28590E-18
 -1      2614 9.58532E-05-2.12925E-05-3.20105E-05 1.19066E-05 7.08318E-19 1.04511E-18
 -1      2615 9.58456E-05-2.41506E-05-3.07597E-05 7.69570E-06 6.01539E-19 7.83304E-19
 -1      2616 1.28687E-04-6.00353E-05-2.97775E-05 2.37829E-05 3.35319E-19-3.71276E-18
 -1      2617 1.10135E-04-5.71881E-05-2.26000E-05 3.32670E-05-2.74015E-19-3.10893E-18
 -1      2618 1.06852E-04-5.57918E-05-2.14926E-05 3.39969E-05-1.09055E-18-2.22034E-18
 -1      2619 1.41094E-04-1.35725E-05-5.47970E-05-4.30097E-06-9.73029E-19 1.47479E-18
 -1      2620 9.08219E-05-1.50394E-05-3.24669E-05-6.81760E-06 1.14798E-19-5.60438E-19
 -1      2621 8.97172E-05-1.31878E-05-3.28512E-05-7.96309E-06 6.65750E-20-5.77948E-19
 -1      2622 9.03424E-05-1.39107E-05-3.28211E-05-9.17794E-06-9.53954E-20-5.32109E-19
 -1      2623 9.47051E-05-2.69243E-05-2.90617E-05 1.88566E-06 3.50812E-19 5.82105E-19
 -1      2624 9.42212E-05-1.90743E-05-3.22510E-05 1.16153E-05 8.07643E-19 7.94861E-19
 -1      2625 1.36689E-04-5.99108E-05-3.28784E-05 1.34355E-05 8.57621E-21-2.66011E-18
 -1      2626 1.29861E-04-6.02729E-05-2.96356E-05 1.69121E-05 3.67506E-19-2.99686E-18
 -1      2627 1.39037E-04-5.70840E-05-3.54346E-05 2.07206E-06 3.51598E-19-1.45954E-18
 -1      2628 1.27955E-04-5.82315E-05-2.97658E-05-2.18835E-05-4.39610E-19-1.45668E-18
 -1      2629 1.40540E-04-4.88651E-05-3.93351E-05-2.31273E-06 8.92918E-19 1.37113E-18
 -1      2630 1.45569E-04-4.41967E-05-4.35876E-05-8.34942E-06 4.79209E-19-1.44461E-18
 -1      2631 1.39943E-04-3.03389E-05-4.71569E-05 8.49431E-06 9.06219E-19 2.34501E-18
 -1      2632 7.09414E-05-4.01727E-05-1.27182E-05 3.90573E-05-1.25128E-18-2.18111E-20
 -1      2633 1.37891E-04-2.42120E-05-4.89505E-05-9.55957E-06-1.47955E-18 1.32190E-18
 -1      2634 9.56925E-05-2.78419E-05-2.90770E-05 2.00620E-06-2.15076E-19 8.13170E-19
 -1      2635 9.55226E-05-2.75335E-05-2.91397E-05 2.26930E-06-1.74585E-20 6.53694E-19
 -1      2636 1.33404E-04-5.65744E-05-3.29330E-05 1.71723E-05-1.22947E-18 1.75844E-18
 -1      2637 2.55080E-05-1.49588E-05-3.94232E-06-1.12515E-06-5.28840E-19 2.24527E-18
 -1      2638 3.91062E-05-2.23877E-05-6.58248E-06 2.50786E-05-4.31034E-19 5.76829E-19
 -1      2639 1.09885E-04-5.59763E-05-2.28341E-05 3.41451E-05 3.51942E-19 1.21314E-18
 -1      2640 3.55406E-05-2.16607E-05-5.44227E-06-2.61874E-05-3.72271E-19-8.92349E-19
 -1      2641 9.46973E-05-2.05963E-05-3.17132E-05 9.68104E-06 7.47526E-19 7.08133E-19
 -1      2642 9.20501E-05-1.62324E-05-3.25329E-05-1.04055E-05-2.20094E-19-5.61126E-19
 -1      2643 2.75095E-05-1.50068E-05-4.76705E-06 7.31127E-06-1.17923E-19-2.74206E-18
 -1      2644 1.00086E-04-5.33468E-05-1.96515E-05-3.60889E-05 3.26108E-19 1.05019E-19
 -1      2645 9.65179E-05-5.20805E-05-1.88406E-05-3.98382E-05 3.69730E-19-1.94778E-18
 -1      2646 1.08451E-04-5.56546E-05-2.28933E-05-3.36930E-05-2.11758E-21-3.03047E-18
 -1      2647 8.94577E-05-4.76143E-05-1.74124E-05-4.01180E-05 7.54071E-19-1.95522E-18
 -1      2648 1.31987E-04-1.05984E-05-5.24055E-05-3.73220E-06-1.01877E-18 5.24737E-19
 -1      2649 1.33804E-04-1.36866E-05-5.17938E-05 6.90758E-06 4.12929E-20 7.95999E-19
 -1      2650 5.97584E-05-3.45485E-05-1.03228E-05-3.68120E-05-7.81176E-19-4.52104E-19
 -1      2651 1.42982E-04-4.27930E-05-4.29415E-05-2.68180E-07-1.26700E-18 8.19504E-19
 -1      2652 4.52094E-05-2.52205E-05-8.06734E-06 3.20523E-05 4.21081E-19-9.74935E-19
 -1      2653 1.43690E-04-5.37286E-05-3.87118E-05-1.03143E-06 7.33451E-19 1.34932E-18
 -1      2654 1.43173E-04-3.87896E-05-4.48929E-05 1.08657E-05 2.01594E-19 7.82764E-19
 -1      2655 1.47838E-04-3.34324E-05-4.94171E-05 9.95116E-06 4.50304E-19 1.28897E-18
 -1      2656 1.38583E-04-2.73980E-05-4.83391E-05 1.43135E-05 1.17738E-19 6.63439E-19
 -1      2657 1.40581E-04-1.55272E-05-5.38509E-05 7.43645E-06-4.53374E-19 1.20893E-18
 -1      2658 7.73564E-05-4.27918E-05-1.43959E-05 4.12708E-05 9.23266E-20 1.28008E-19
 -1      2659 9.58224E-05-2.80442E-05-2.90395E-05-1.91989E-06-2.28367E-18-2.01631E-18
 -1      2660 9.54700E-05-2.75937E-05-2.90933E-05-2.16858E-06-1.90650E-18-2.63345E-18
 -1      2661 9.55101E-05-2.74855E-05-2.91512E-05-2.64837E-06-1.94621E-18-2.76784E-18
 -1      2662 9.61062E-05-2.81452E-05-2.91172E-05-2.25389E-06-1.74495E-18-7.97738E-19
 -1      2663 9.55373E-05-2.73558E-05-2.92133E-05 2.82712E-06-7.52529E-19-1.47865E-18
 -1      2664 9.59727E-05-2.79100E-05-2.91748E-05-2.78011E-06-2.02635E-18-1.92157E-18
 -1      2665 9.05976E-05-1.51694E-05-3.23486E-05 3.19368E-06 5.71078E-19-1.88394E-19
 -1      2666 9.04094E-05-1.48970E-05-3.23826E-05 2.25967E-06 5.47206E-19-7.15346E-20
 -1      2667 9.02757E-05-1.46931E-05-3.24124E-05 1.41988E-06 5.20317E-19-5.19900E-20
 -1      2668 9.02102E-05-1.46005E-05-3.24240E-05 4.63144E-07 4.39000E-19-1.42973E-19
 -1      2669 9.14604E-05-1.65840E-05-3.20768E-05 1.63751E-06 5.06719E-19-8.88549E-20
 -1      2670 9.21620E-05-1.75496E-05-3.20146E-05 6.47616E-06 6.83006E-19 1.29055E-19
 -1      2671 9.16427E-05-1.67546E-05-3.21174E-05 5.63511E-06 6.99023E-19-2.09955E-20
 -1      2672 9.35637E-05-1.97713E-05-3.16676E-05 7.60302E-06 7.12879E-19 4.46145E-19
 -1      2673 9.27833E-05-1.85189E-05-3.18447E-05 7.02401E-06 6.80353E-19 3.01398E-19
 -1      2674 9.34527E-05-1.98619E-05-3.15160E-05 5.73580E-06 6.03276E-19 2.78363E-19
 -1      2675 9.51998E-05-2.53982E-05-2.99271E-05 3.98333E-06 5.46211E-19 5.07050E-19
 -1      2676 9.55358E-05-2.45501E-05-3.03900E-05 5.61852E-06 5.06456E-19 5.26725E-19
 -1      2677 9.28811E-05-1.80048E-05-3.20757E-05-8.84297E-06-1.54885E-19-4.86250E-19
 -1      2678 9.49642E-05-2.66737E-05-2.92728E-05 1.77597E-06 3.32859E-19 4.32880E-19
 -1      2679 9.52298E-05-2.61792E-05-2.95561E-05 2.78989E-06 4.74435E-19 4.66209E-19
 -1      2680 9.52646E-05-2.50098E-05-3.01064E-05 3.82131E-06 5.38610E-19 3.84531E-19
 -1      2681 1.35499E-04-3.46549E-05-4.34193E-05 1.03135E-05 9.94417E-19 1.02237E-18
 -1      2682 1.32419E-04-2.55899E-05-4.64996E-05 1.15093E-05 3.22508E-19-5.24843E-19
 -1      2683 9.53921E-05-2.59183E-05-2.97355E-05-2.69129E-06-1.04246E-19-2.78983E-19
 -1      2684 9.51922E-05-2.64751E-05-2.94614E-05-1.70172E-06-1.47656E-19-2.44131E-19
 -1      2685 9.52120E-05-2.69819E-05-2.92180E-05-9.58139E-07-1.69844E-19-1.33121E-19
 -1      2686 9.50832E-05-2.73317E-05-2.90415E-05-3.42065E-07-7.65210E-20-1.80644E-19
 -1      2687 9.54275E-05-2.63012E-05-2.96279E-05-1.60634E-06-1.38215E-19-2.57063E-19
 -1      2688 9.50513E-05-2.76306E-05-2.88786E-05 1.38622E-07 7.30684E-20-1.29652E-19
 -1      2689 9.49798E-05-2.78479E-05-2.87730E-05 5.06526E-07 1.26973E-19-8.61973E-20
 -1      2690 9.54221E-05-2.72871E-05-2.92083E-05-2.95890E-07-2.06628E-20-3.17748E-19
 -1      2691 9.49405E-05-2.80236E-05-2.86686E-05 7.97848E-07-2.80468E-20-9.34490E-20
 -1      2692 9.49218E-05-2.81614E-05-2.86117E-05 1.00614E-06-2.58489E-19-2.62002E-19
 -1      2693 9.53650E-05-2.78797E-05-2.89293E-05 5.33461E-07-7.99087E-21-3.54061E-19
 -1      2694 9.48903E-05-2.82603E-05-2.85499E-05 1.17179E-06-3.40839E-19-2.62243E-19
 -1      2695 9.49115E-05-2.83460E-05-2.85268E-05 1.28253E-06-1.99775E-19-3.24045E-19
 -1      2696 9.53064E-05-2.82324E-05-2.87517E-05 1.03076E-06-2.98771E-19-3.84354E-19
 -1      2697 9.48918E-05-2.83944E-05-2.84960E-05 1.37224E-06-8.05330E-20-1.89961E-19
 -1      2698 9.49413E-05-2.84439E-05-2.84967E-05 1.42935E-06-2.35106E-19-1.58833E-19
 -1      2699 9.52643E-05-2.84269E-05-2.86490E-05 1.31536E-06-6.50229E-20 1.21330E-20
 -1      2700 9.49327E-05-2.84575E-05-2.84886E-05 1.48020E-06-3.52432E-19-2.25794E-21
 -1      2701 9.50023E-05-2.84808E-05-2.85063E-05 1.51531E-06-3.29915E-19 8.41980E-20
 -1      2702 9.52423E-05-2.85136E-05-2.86015E-05 1.47696E-06-1.63534E-19 2.04065E-19
 -1      2703 9.50032E-05-2.84692E-05-2.85152E-05 1.55509E-06-5.27230E-19 1.17860E-19
 -1      2704 9.50886E-05-2.84735E-05-2.85457E-05 1.59141E-06-3.86537E-19-2.67483E-20
 -1      2705 9.52387E-05-2.85236E-05-2.85949E-05 1.58321E-06-3.06429E-19 2.46902E-19
 -1      2706 9.50976E-05-2.84434E-05-2.85677E-05 1.64112E-06-4.01805E-19 1.28359E-19
 -1      2707 9.51974E-05-2.84341E-05-2.86085E-05 1.69594E-06-5.65435E-19-1.72970E-19
 -1      2708 9.52508E-05-2.84775E-05-2.86192E-05 1.68506E-06-5.26177E-19 2.01805E-19
 -1      2709 9.52140E-05-2.83906E-05-2.86409E-05 1.77154E-06-3.88558E-19-2.60129E-19
 -1      2710 9.53297E-05-2.83726E-05-2.86908E-05 1.85775E-06-1.91684E-19-2.64506E-19
 -1      2711 9.52772E-05-2.83902E-05-2.86677E-05 1.82113E-06-4.86968E-19 2.13838E-19
 -1      2712 9.53546E-05-2.83201E-05-2.87318E-05 1.97126E-06 2.77182E-20-3.99520E-19
 -1      2713 9.54897E-05-2.82990E-05-2.87902E-05 2.09806E-06 9.47640E-20-6.59009E-20
 -1      2714 9.53186E-05-2.82735E-05-2.87352E-05 2.02064E-06-8.90932E-20 3.93101E-19
 -1      2715 9.55252E-05-2.82427E-05-2.88383E-05 2.25803E-06-9.34491E-20-1.69868E-19
 -1      2716 9.56856E-05-2.82253E-05-2.89051E-05 2.43093E-06-2.28143E-19-1.71601E-19
 -1      2717 9.53780E-05-2.81395E-05-2.88181E-05 2.30510E-06-5.13953E-20-2.03562E-19
 -1      2718 9.57361E-05-2.81725E-05-2.89588E-05 2.64226E-06-4.42306E-19 5.03841E-20
 -1      2719 9.59295E-05-2.81681E-05-2.90335E-05 2.86231E-06-6.67237E-19-1.45330E-19
 -1      2720 9.54626E-05-2.80030E-05-2.89129E-05 2.68868E-06-2.97598E-19-6.56761E-19
 -1      2721 9.60031E-05-2.81298E-05-2.90913E-05 3.12530E-06-5.03677E-19-2.03051E-19
 -1      2722 9.62398E-05-2.81522E-05-2.91730E-05 3.38746E-06-2.81641E-19-8.99488E-20
 -1      2723 9.55849E-05-2.78854E-05-2.90160E-05 3.17715E-06-5.98902E-19-1.82409E-19
 -1      2724 9.63496E-05-2.81455E-05-2.92323E-05 3.69605E-06-4.42381E-19-5.09902E-19
 -1      2725 9.66429E-05-2.82144E-05-2.93192E-05 3.98664E-06-7.77242E-19-6.65161E-19
 -1      2726 9.57658E-05-2.78190E-05-2.91227E-05 3.76553E-06-6.97371E-19-1.68522E-19
 -1      2727 9.68101E-05-2.82647E-05-2.93770E-05 4.32570E-06-9.39145E-19-6.43382E-19
 -1      2728 9.71776E-05-2.84081E-05-2.94661E-05 4.61878E-06-6.97544E-19-4.87533E-19
 -1      2729 9.60394E-05-2.78522E-05-2.92269E-05 4.43380E-06-7.36462E-19-7.79837E-19
 -1      2730 9.74350E-05-2.85524E-05-2.95188E-05 4.96017E-06-4.16043E-19-3.92876E-19
 -1      2731 9.78994E-05-2.88078E-05-2.96060E-05 5.21308E-06 1.36699E-19-5.50489E-19
 -1      2732 9.64587E-05-2.80558E-05-2.93215E-05 5.14081E-06-4.08507E-19-5.45300E-19
 -1      2733 9.82951E-05-2.90955E-05-2.96502E-05 5.51025E-06 5.82703E-19-6.34083E-19
 -1      2734 9.88844E-05-2.95087E-05-2.97311E-05 5.65881E-06 1.04862E-18-8.41322E-19
 -1      2735 9.71037E-05-2.85273E-05-2.93994E-05 5.81561E-06 7.50894E-20-2.76464E-19
 -1      2736 9.94845E-05-2.99995E-05-2.97660E-05 5.83978E-06 1.56179E-18-1.19053E-18
 -1      2737 1.00228E-04-3.06166E-05-2.98378E-05 5.79457E-06 1.42444E-18-1.03903E-18
 -1      2738 9.80877E-05-2.93906E-05-2.94565E-05 6.34569E-06 1.02838E-18-1.04797E-18
 -1      2739 1.01112E-04-3.13676E-05-2.98684E-05 5.75367E-06 1.04981E-18-8.93929E-19
 -1      2740 1.02028E-04-3.22138E-05-2.99335E-05 5.40105E-06 6.44777E-19-7.30582E-19
 -1      2741 9.95568E-05-3.07800E-05-2.94982E-05 6.56159E-06 1.34779E-18-1.70075E-18
 -1      2742 1.03270E-04-3.32482E-05-2.99768E-05 4.99244E-06 1.37856E-19-1.08501E-18
 -1      2743 1.04336E-04-3.42830E-05-3.00479E-05 4.20755E-06-3.09872E-19-1.13982E-18
 -1      2744 1.01668E-04-3.27929E-05-2.95493E-05 6.21962E-06 1.54034E-19-6.49295E-19
 -1      2745 1.05948E-04-3.55269E-05-3.01398E-05 3.25368E-06-4.56964E-19-1.00619E-18
 -1      2746 1.07055E-04-3.65719E-05-3.02456E-05 1.94123E-06-3.83122E-19-8.43091E-19
 -1      2747 1.04522E-04-3.53842E-05-2.96681E-05 4.99369E-06-2.81184E-19-8.08366E-19
 -1      2748 1.08894E-04-3.77609E-05-3.04468E-05 2.95875E-07-1.39642E-19-6.75608E-19
 -1      2749 1.09797E-04-3.84346E-05-3.06320E-05-1.51774E-06-1.06541E-19-1.34293E-18
 -1      2750 1.08001E-04-3.81716E-05-2.99613E-05 2.52821E-06-1.80188E-19-1.66397E-19
 -1      2751 1.11474E-04-3.90487E-05-3.10220E-05-3.86235E-06 1.96389E-20-1.06512E-18
 -1      2752 1.11769E-04-3.87224E-05-3.13407E-05-5.90062E-06-9.91359E-20-1.12042E-18
 -1      2753 1.11616E-04-4.02978E-05-3.05845E-05-1.40246E-06-9.61680E-21-1.34105E-18
 -1      2754 1.12538E-04-3.79958E-05-3.19866E-05-8.39466E-06-4.41518E-19-8.30059E-19
 -1      2755 1.11915E-04-3.62046E-05-3.24527E-05-9.91901E-06-6.25221E-19-5.99198E-19
 -1      2756 1.14165E-04-4.01000E-05-3.17168E-05-6.43877E-06-2.39453E-19-8.01919E-19
 -1      2757 1.11191E-04-3.36922E-05-3.33217E-05-1.15031E-05-9.09483E-19-8.84334E-19
 -1      2758 1.09693E-04-3.05418E-05-3.38648E-05-1.14778E-05-1.07830E-18-5.98579E-19
 -1      2759 1.14354E-04-3.63454E-05-3.34070E-05-1.09709E-05-1.12061E-18-9.23795E-19
 -1      2760 1.07732E-04-2.71225E-05-3.47205E-05-1.03749E-05-9.24778E-19-4.16753E-19
 -1      2761 1.06308E-04-2.41511E-05-3.51591E-05-8.26966E-06-7.90057E-19-3.85426E-19
 -1      2762 1.11325E-04-2.86379E-05-3.54168E-05-1.21455E-05-6.63214E-19-5.06976E-19
 -1      2763 1.04722E-04-2.17143E-05-3.56692E-05-4.53533E-06-5.01080E-19-8.16411E-19
 -1      2764 1.04281E-04-2.08327E-05-3.57922E-05-8.35250E-07-1.26473E-19-1.19354E-18
 -1      2765 1.07900E-04-2.18173E-05-3.69574E-05-7.31791E-06-1.16063E-18-1.02183E-18
 -1      2766 1.04659E-04-2.14180E-05-3.56670E-05 3.80058E-06 1.86016E-19-1.17173E-18
 -1      2767 1.05607E-04-2.32735E-05-3.54035E-05 7.13250E-06 7.09390E-20-6.53819E-19
 -1      2768 1.06561E-04-1.95649E-05-3.74166E-05 1.68069E-06 2.61521E-19-9.44983E-19
 -1      2769 1.07517E-04-2.63804E-05-3.47153E-05 9.95029E-06 1.66171E-19 1.81818E-19
 -1      2770 1.09137E-04-2.96460E-05-3.42076E-05 1.13109E-05 9.43055E-19 1.53978E-19
 -1      2771 1.09043E-04-2.40849E-05-3.64632E-05 9.55822E-06 9.98837E-20 5.77637E-20
 -1      2772 1.10761E-04-3.29712E-05-3.33040E-05 1.12313E-05 7.60927E-19 1.21870E-19
 -1      2773 1.11954E-04-3.57001E-05-3.27700E-05 1.05246E-05 7.08853E-19 7.71214E-20
 -1      2774 1.12791E-04-3.19550E-05-3.46301E-05 1.20474E-05 7.99242E-19 5.96192E-19
 -1      2775 1.12103E-04-3.75370E-05-3.19687E-05 8.46696E-06 1.08227E-18-2.03281E-19
 -1      2776 1.12349E-04-3.87662E-05-3.15515E-05 6.61995E-06 1.11903E-18 5.64318E-19
 -1      2777 1.14587E-04-3.81961E-05-3.26980E-05 9.35063E-06 3.58101E-19-3.64009E-19
 -1      2778 1.11161E-04-3.89167E-05-3.10032E-05 4.06367E-06 4.87118E-19-9.41048E-19
 -1      2779 1.10573E-04-3.87950E-05-3.07365E-05 2.02994E-06 3.28313E-19-1.64682E-18
 -1      2780 1.13429E-04-4.06006E-05-3.12021E-05 4.33623E-06 9.26798E-20-1.21044E-18
 -1      2781 1.08781E-04-3.78975E-05-3.04232E-05-8.84367E-08 2.81965E-19-1.76119E-18
 -1      2782 1.07749E-04-3.70308E-05-3.02687E-05-1.75973E-06-5.58960E-19-2.03556E-18
 -1      2783 1.10317E-04-3.97294E-05-3.02745E-05-4.21313E-07-2.07548E-19-2.60496E-18
 -1      2784 1.05960E-04-3.57716E-05-3.01138E-05-3.15944E-06-6.57721E-19-2.35040E-18
 -1      2785 1.04828E-04-3.46933E-05-3.00209E-05-4.29285E-06-2.73228E-19-2.11332E-18
 -1      2786 1.06656E-04-3.72309E-05-2.97891E-05-3.85009E-06-3.12281E-19-2.01584E-18
 -1      2787 1.03346E-04-3.35056E-05-2.99512E-05-5.04081E-06 1.15100E-19-7.87651E-19
 -1      2788 1.02309E-04-3.25220E-05-2.98809E-05-5.67120E-06 4.49899E-19-3.50622E-19
 -1      2789 1.03359E-04-3.44301E-05-2.95740E-05-5.85634E-06 9.12154E-19-1.24583E-18
 -1      2790 1.01204E-04-3.15852E-05-2.98457E-05-5.94076E-06-1.89886E-19-9.69354E-20
 -1      2791 1.00334E-04-3.08119E-05-2.97765E-05-6.17997E-06-1.52223E-19-3.42413E-19
 -1      2792 1.00775E-04-3.20233E-05-2.94906E-05-6.74626E-06 2.37659E-19-7.74691E-19
 -1      2793 9.95600E-05-3.01512E-05-2.97484E-05-6.13626E-06-3.80502E-19-1.10898E-18
 -1      2794 9.88570E-05-2.95945E-05-2.96729E-05-6.10415E-06-6.74523E-19-1.24971E-18
 -1      2795 9.89100E-05-3.02280E-05-2.94528E-05-6.87586E-06-5.50906E-19-2.37095E-18
 -1      2796 9.83331E-05-2.91648E-05-2.96410E-05-5.87257E-06-2.94468E-20-6.98393E-19
 -1      2797 9.77724E-05-2.87843E-05-2.95606E-05-5.66866E-06 1.11214E-18-1.16697E-18
 -1      2798 9.76259E-05-2.90104E-05-2.94182E-05-6.53272E-06 1.06576E-19-2.28700E-18
 -1      2799 9.74203E-05-2.85201E-05-2.95238E-05-5.33452E-06 1.65267E-18-1.27117E-18
 -1      2800 9.69711E-05-2.82636E-05-2.94434E-05-5.03067E-06 1.80277E-18-1.14011E-18
 -1      2801 9.67607E-05-2.82409E-05-2.93730E-05-5.91924E-06 8.75983E-19-2.33564E-18
 -1      2802 9.67273E-05-2.81022E-05-2.94049E-05-4.64690E-06 9.78099E-19-7.32898E-19
 -1      2803 9.63621E-05-2.79219E-05-2.93302E-05-4.28854E-06-4.71045E-19-1.60823E-18
 -1      2804 9.61734E-05-2.77733E-05-2.93186E-05-5.16671E-06 1.05157E-18-2.29879E-18
 -1      2805 9.61787E-05-2.78121E-05-2.92946E-05-3.88520E-06-1.04724E-18-2.92113E-18
 -1      2806 9.58800E-05-2.76713E-05-2.92306E-05-3.49550E-06-1.19690E-18-3.81681E-18
 -1      2807 9.57543E-05-2.74818E-05-2.92629E-05-4.35165E-06-1.37650E-18-3.11590E-18
 -1      2808 9.44958E-05-2.80862E-05-2.84602E-05-9.80601E-07 3.48909E-19 1.16843E-19
 -1      2809 9.45011E-05-2.79645E-05-2.85046E-05-7.83771E-07 2.56707E-19 2.74058E-19
 -1      2810 9.51028E-05-2.67821E-05-2.92806E-05 3.60188E-06-1.08470E-18-3.36773E-18
 -1      2811 9.56573E-05-2.73685E-05-2.92598E-05 3.32849E-06-3.40397E-19-1.62170E-18
 -1      2812 9.59672E-05-2.74475E-05-2.93502E-05 3.83432E-06-7.24766E-19-1.25381E-18
 -1      2813 9.45562E-05-2.78197E-05-2.86017E-05-4.88917E-07 6.54627E-20 2.05171E-19
 -1      2814 9.46376E-05-2.76371E-05-2.86961E-05-1.31066E-07 4.62381E-20 2.56174E-19
 -1      2815 9.50179E-05-2.78670E-05-2.87876E-05-5.19589E-07 1.55578E-19 6.54424E-20
 -1      2816 9.45975E-05-2.83559E-05-2.83867E-05-1.37677E-06 2.82720E-19 7.30670E-19
 -1      2817 9.45151E-05-2.83005E-05-2.83748E-05-1.32943E-06 2.93384E-19 5.86640E-19
 -1      2818 9.47211E-05-2.84107E-05-2.84155E-05-1.44752E-06 5.62390E-19 6.46870E-19
 -1      2819 9.46153E-05-2.83758E-05-2.83876E-05-1.42153E-06 4.25401E-19 6.67162E-19
 -1      2820 9.49594E-05-2.84486E-05-2.85084E-05-1.45638E-06 4.51195E-19 6.63361E-19
 -1      2821 9.48770E-05-2.84302E-05-2.84733E-05-1.50856E-06 9.21070E-19 5.81772E-19
 -1      2822 9.47536E-05-2.84110E-05-2.84332E-05-1.48064E-06 8.22223E-19 6.57179E-19
 -1      2823 9.50138E-05-2.84768E-05-2.85188E-05-1.55005E-06 7.69115E-19 4.01500E-19
 -1      2824 9.50607E-05-2.84219E-05-2.85547E-05-1.60000E-06 9.93489E-19 2.72180E-19
 -1      2825 9.49210E-05-2.84149E-05-2.85042E-05-1.55204E-06 9.63457E-19 4.42547E-19
 -1      2826 9.50920E-05-2.84567E-05-2.85603E-05-1.63927E-06 9.70549E-19 7.66148E-19
 -1      2827 9.52724E-05-2.83913E-05-2.86576E-05-1.75432E-06 2.20465E-19 3.43841E-19
 -1      2828 9.51143E-05-2.83935E-05-2.85969E-05-1.67144E-06 6.08361E-19 3.53336E-19
 -1      2829 9.51895E-05-2.83976E-05-2.86271E-05-1.76581E-06 7.36909E-19 8.18101E-19
 -1      2830 9.55167E-05-2.83422E-05-2.87820E-05-1.99925E-06-1.61307E-19 4.89434E-19
 -1      2831 9.53352E-05-2.83511E-05-2.87102E-05-1.86854E-06-2.72490E-20 3.67535E-19
 -1      2832 9.53045E-05-2.83051E-05-2.87158E-05-1.96369E-06 1.53397E-19 1.15068E-18
 -1      2833 9.58006E-05-2.82784E-05-2.89296E-05-2.35941E-06-5.61659E-19 9.85095E-19
 -1      2834 9.55887E-05-2.82911E-05-2.88450E-05-2.16924E-06-3.79236E-19 7.36545E-19
 -1      2835 9.54369E-05-2.81825E-05-2.88251E-05-2.26184E-06-4.65073E-19 9.25719E-19
 -1      2836 9.61338E-05-2.82045E-05-2.91024E-05-2.85689E-06 6.28051E-20 6.28820E-19
 -1      2837 9.58827E-05-2.82172E-05-2.90031E-05-2.59688E-06-1.18522E-19 8.90140E-19
 -1      2838 9.55881E-05-2.80322E-05-2.89541E-05-2.68566E-06-3.34491E-19 8.13831E-19
 -1      2839 9.65280E-05-2.81279E-05-2.93024E-05-3.51042E-06-2.28274E-19 1.19290E-18
 -1      2840 9.62271E-05-2.81350E-05-2.91864E-05-3.17214E-06-1.58997E-19 5.96453E-19
 -1      2841 9.57602E-05-2.78582E-05-2.91024E-05-3.25742E-06-1.40894E-19 5.95448E-19
 -1      2842 9.69978E-05-2.80633E-05-2.95297E-05-4.33254E-06 1.28199E-19 8.66016E-19
 -1      2843 9.66350E-05-2.80549E-05-2.93961E-05-3.91149E-06 1.33039E-19 1.00638E-18
 -1      2844 9.59575E-05-2.76687E-05-2.92679E-05-3.99537E-06 1.82466E-19 7.51730E-19
 -1      2845 9.75639E-05-2.80388E-05-2.97815E-05-5.32402E-06 3.60608E-19 3.69293E-19
 -1      2846 9.71241E-05-2.79974E-05-2.96307E-05-4.82329E-06 3.45022E-19 6.50872E-19
 -1      2847 9.61878E-05-2.74820E-05-2.94465E-05-4.91104E-06 2.98826E-19 1.26527E-19
 -1      2848 9.82596E-05-2.81072E-05-3.00496E-05-6.46400E-06 6.06498E-19-1.12434E-19
 -1      2849 9.77223E-05-2.80017E-05-2.98851E-05-5.90065E-06 4.82830E-19 3.99446E-19
 -1      2850 9.64693E-05-2.73366E-05-2.96295E-05-6.00422E-06 3.53121E-19 5.96352E-19
 -1      2851 9.91445E-05-2.83640E-05-3.03192E-05-7.69433E-06 3.46575E-19-5.39194E-20
 -1      2852 9.84785E-05-2.81412E-05-3.01481E-05-7.10935E-06 7.31444E-19 2.82619E-20
 -1      2853 9.68418E-05-2.73063E-05-2.98032E-05-7.25483E-06 8.05046E-19 4.84780E-19
 -1      2854 1.00327E-04-2.89706E-05-3.05685E-05-8.89575E-06 3.97072E-19 5.19508E-19
 -1      2855 9.94823E-05-2.85438E-05-3.04019E-05-8.36858E-06 3.87458E-19 1.68761E-19
 -1      2856 9.73887E-05-2.75244E-05-2.99475E-05-8.60995E-06 1.82807E-19 1.23280E-18
 -1      2857 1.01997E-04-3.01775E-05-3.07729E-05-9.85410E-06 1.21699E-21 8.84408E-19
 -1      2858 1.00895E-04-2.94185E-05-3.06240E-05-9.52148E-06 1.98350E-19 6.35100E-19
 -1      2859 9.82727E-05-2.82139E-05-3.00388E-05-9.96365E-06 1.37712E-19 9.63326E-19
 -1      2860 1.04454E-04-3.23189E-05-3.09193E-05-1.02140E-05-1.15195E-19 3.93287E-19
 -1      2861 1.02984E-04-3.10707E-05-3.07958E-05-1.02904E-05-5.28548E-21 8.90417E-19
 -1      2862 9.97854E-05-2.97149E-05-3.00596E-05-1.11229E-05 2.76299E-19 1.32828E-18
 -1      2863 1.08077E-04-3.57098E-05-3.10394E-05-9.42655E-06-7.76941E-19 4.27533E-19
 -1      2864 1.06142E-04-3.38622E-05-3.09270E-05-1.02121E-05-2.75984E-19 5.72457E-19
 -1      2865 1.02392E-04-3.24696E-05-3.00227E-05-1.17439E-05-1.39030E-19 1.66780E-18
 -1      2866 1.13150E-04-4.03028E-05-3.12733E-05-6.72643E-06-9.00654E-19 8.59252E-19
 -1      2867 1.10778E-04-3.80043E-05-3.11049E-05-8.56289E-06-7.94433E-19 5.84183E-19
 -1      2868 1.06711E-04-3.68723E-05-3.00231E-05-1.12176E-05-8.74873E-19 2.21694E-18
 -1      2869 1.19313E-04-4.50135E-05-3.19359E-05-1.43897E-06-2.57031E-19 1.03513E-18
 -1      2870 1.16915E-04-4.30182E-05-3.15705E-05-4.46874E-06-7.00486E-19 7.06909E-19
 -1      2871 1.13116E-04-4.26881E-05-3.03321E-05-8.49889E-06-6.89855E-19 2.11705E-18
 -1      2872 1.24839E-04-4.68181E-05-3.35486E-05 6.58011E-06-3.01749E-19 9.95063E-19
 -1      2873 1.23623E-04-4.69237E-05-3.27739E-05 2.85231E-06 3.35041E-20 1.22876E-18
 -1      2874 1.21580E-04-4.85530E-05-3.15193E-05-2.47579E-06-5.57870E-19 2.05750E-18
 -1      2875 1.26553E-04-4.16681E-05-3.64781E-05 1.43806E-05-1.17208E-19 1.88943E-18
 -1      2876 1.27916E-04-4.56948E-05-3.52725E-05 1.18680E-05 2.57683E-20 1.50800E-18
 -1      2877 1.29055E-04-4.95625E-05-3.43215E-05 6.65980E-06-4.47366E-19 2.31435E-18
 -1      2878 1.26231E-04-2.83401E-05-4.22195E-05 1.54259E-05 4.88844E-19 1.31396E-18
 -1      2879 1.29195E-04-3.59375E-05-4.03352E-05 1.66830E-05 1.11597E-19 1.58435E-18
 -1      2880 1.19712E-04-2.15162E-05-4.25832E-05-1.03490E-05-3.16219E-18 2.58851E-18
 -1      2881 1.17935E-04-1.79173E-05-4.32255E-05-3.98782E-06-1.10728E-18 2.40784E-18
 -1      2882 1.25336E-04-3.49462E-05-3.91449E-05-1.68798E-05-1.28611E-18 1.70952E-18
 -1      2883 1.22226E-04-2.77783E-05-4.06316E-05-1.52260E-05-3.06885E-18 1.78336E-18
 -1      2884 1.26447E-04-2.40700E-05-4.41764E-05-1.36582E-05-2.13346E-18 1.43551E-18
 -1      2885 1.27333E-04-4.50240E-05-3.54108E-05-1.22783E-05 4.14702E-19 1.99312E-18
 -1      2886 1.26146E-04-4.06186E-05-3.67344E-05-1.47960E-05-2.91115E-19 1.47092E-18
 -1      2887 1.30434E-04-3.94214E-05-3.92621E-05-1.61016E-05-9.31101E-19-2.83888E-19
 -1      2888 1.23672E-04-4.68091E-05-3.28908E-05-3.30365E-06 8.36285E-19 1.76726E-18
 -1      2889 1.24849E-04-4.64813E-05-3.36929E-05-7.18328E-06 1.08065E-18 1.98639E-18
 -1      2890 1.28797E-04-4.86383E-05-3.45051E-05-8.00640E-06 7.86391E-19 6.66006E-19
 -1      2891 1.17226E-04-4.31431E-05-3.16525E-05 4.09361E-06 2.04131E-18 6.97465E-19
 -1      2892 1.19551E-04-4.50033E-05-3.20352E-05 9.54112E-07 1.57985E-18 1.08585E-18
 -1      2893 1.21879E-04-4.80837E-05-3.17522E-05 1.42586E-06 1.83664E-18 8.88193E-20
 -1      2894 1.11088E-04-3.81962E-05-3.11621E-05 8.43941E-06 4.64644E-19 6.18456E-19
 -1      2895 1.13455E-04-4.04951E-05-3.13395E-05 6.53304E-06 1.27359E-18 9.22689E-19
 -1      2896 1.13785E-04-4.29267E-05-3.05208E-05 7.97271E-06 1.88445E-18-8.20927E-20
 -1      2897 1.06402E-04-3.40608E-05-3.09555E-05 1.02673E-05 9.08261E-20 6.69297E-20
 -1      2898 1.08363E-04-3.59326E-05-3.10769E-05 9.42488E-06 1.70598E-19 5.93751E-19
 -1      2899 1.07351E-04-3.71748E-05-3.01685E-05 1.09832E-05 8.52673E-19-4.73274E-19
 -1      2900 1.03159E-04-3.12365E-05-3.07995E-05 1.04837E-05 4.80663E-19-2.07151E-18
 -1      2901 1.04664E-04-3.25181E-05-3.09304E-05 1.03656E-05 5.15271E-19-3.41638E-19
 -1      2902 1.02956E-04-3.27991E-05-3.01228E-05 1.17609E-05 8.22126E-19-1.46905E-18
 -1      2903 1.00975E-04-2.95370E-05-3.06072E-05 9.80711E-06 1.13570E-18-2.70798E-18
 -1      2904 1.02118E-04-3.03301E-05-3.07628E-05 1.01116E-05 7.42341E-19-2.35812E-18
 -1      2905 1.00229E-04-3.00076E-05-3.01241E-05 1.13101E-05 1.10777E-18-2.86835E-18
 -1      2906 9.94713E-05-2.86074E-05-3.03691E-05 8.70817E-06 8.22380E-19-1.37904E-18
 -1      2907 1.00357E-04-2.90687E-05-3.05413E-05 9.22067E-06 1.25634E-18-1.77551E-18
 -1      2908 9.85940E-05-2.84478E-05-3.00764E-05 1.02559E-05 4.48828E-19-1.75588E-18
 -1      2909 9.83809E-05-2.81394E-05-3.01059E-05 7.46599E-06 2.79288E-18-1.97534E-18
 -1      2910 9.90867E-05-2.84004E-05-3.02801E-05 8.05231E-06 1.46972E-18-1.90876E-18
 -1      2911 9.75958E-05-2.76862E-05-2.99672E-05 8.95691E-06 1.55960E-18-1.40766E-18
 -1      2912 9.75439E-05-2.79159E-05-2.98432E-05 6.23169E-06 1.87393E-18-1.08435E-18
 -1      2913 9.81178E-05-2.80680E-05-3.00065E-05 6.81789E-06 2.08960E-18-1.98462E-18
 -1      2914 9.69436E-05-2.73796E-05-2.98158E-05 7.61219E-06 2.44387E-18-1.34946E-18
 -1      2915 9.68795E-05-2.78002E-05-2.96020E-05 5.07152E-06-3.90553E-19-6.56624E-20
 -1      2916 9.73409E-05-2.79011E-05-2.97454E-05 5.61926E-06 1.46418E-18-2.35693E-19
 -1      2917 9.64618E-05-2.72922E-05-2.96482E-05 6.32607E-06 9.89031E-19-1.48877E-19
 -1      2918 9.61996E-05-2.75759E-05-2.94029E-05 4.18807E-06-1.29937E-18-6.11195E-20
 -1      2919 9.65642E-05-2.76537E-05-2.95177E-05 4.70860E-06-1.43509E-18-1.32623E-19
 -1      2920 9.58971E-05-2.71377E-05-2.94830E-05 5.30362E-06-3.81322E-19-9.59360E-19
 -1      2921 9.53554E-05-2.68973E-05-2.93621E-05 4.50721E-06-4.39610E-19-1.56270E-18
 -1      2922 9.23696E-05-2.40479E-05-2.92860E-05-1.22701E-08 1.43867E-18-4.16536E-19
 -1      2923 9.23798E-05-2.40599E-05-2.92862E-05 5.61654E-07 1.88213E-18-5.74653E-20
 -1      2924 9.57871E-05-2.76148E-05-2.92107E-05-3.21384E-06-9.06074E-19-3.40150E-18
 -1      2925 9.56104E-05-2.75366E-05-2.91721E-05-2.93276E-06-1.14779E-18-2.93683E-18
 -1      2926 9.54824E-05-2.73096E-05-2.92205E-05-3.64450E-06-4.57252E-19-4.39036E-18
 -1      2927 9.28546E-05-2.45301E-05-2.92939E-05 2.31345E-06 3.19628E-18 5.77805E-18
 -1      2928 9.31501E-05-2.48194E-05-2.92818E-05 2.72946E-06 3.14861E-18 2.94550E-18
 -1      2929 9.25688E-05-2.42635E-05-2.92750E-05-1.20064E-06 1.69602E-18 2.37346E-19
 -1      2930 9.24413E-05-2.41363E-05-2.92829E-05-6.62207E-07 1.70248E-18-1.34641E-19
 -1      2931 9.20169E-05-2.39570E-05-2.91585E-05-4.05500E-07 1.95352E-18-6.14529E-19
 -1      2932 9.24613E-05-2.41345E-05-2.92919E-05 1.21420E-06 8.52730E-19 1.34009E-18
 -1      2933 9.26186E-05-2.42914E-05-2.92852E-05 1.74705E-06 1.80484E-18 4.51299E-18
 -1      2934 9.23947E-05-2.42588E-05-2.91910E-05 2.23542E-06 1.26474E-18 4.54818E-18
 -1      2935 9.20281E-05-2.39417E-05-2.91692E-05 9.57124E-07 3.14481E-19 8.52146E-19
 -1      2936 1.29128E-04-2.05887E-05-4.72552E-05-1.14523E-05-1.33641E-18 1.51725E-19
 -1      2937 1.33292E-04-2.88597E-05-4.50379E-05-1.19921E-05-1.41243E-18 9.18395E-19
 -1      2938 9.30058E-05-2.47287E-05-2.92592E-05-2.18858E-06 1.62858E-18-2.27283E-18
 -1      2939 9.27693E-05-2.44891E-05-2.92740E-05-1.75741E-06 1.56414E-18 2.53722E-19
 -1      2940 9.23332E-05-2.42787E-05-2.91580E-05-1.66470E-06 1.76068E-18-5.34298E-19
 -1      2941 9.36312E-05-2.53945E-05-2.92390E-05-2.89875E-06 7.18558E-19-1.25210E-18
 -1      2942 9.33099E-05-2.50639E-05-2.92595E-05-2.60892E-06 1.19570E-18-2.60325E-18
 -1      2943 9.29144E-05-2.48491E-05-2.91655E-05-2.68266E-06 5.33568E-19-2.42214E-18
 -1      2944 9.43599E-05-2.61782E-05-2.92164E-05-3.23744E-06 1.69259E-18 1.25934E-18
 -1      2945 9.40020E-05-2.57959E-05-2.92404E-05-3.13278E-06 1.75349E-18 1.87246E-18
 -1      2946 9.36857E-05-2.55957E-05-2.91791E-05-3.36042E-06 1.12363E-18 6.16253E-19
 -1      2947 1.17753E-04-5.77266E-05-2.59775E-05 2.74871E-05-4.73280E-19 5.01338E-19
 -1      2948 1.04691E-04-5.27452E-05-2.18851E-05 3.31686E-05 6.80591E-19-1.90688E-19
 -1      2949 1.29985E-04-1.30120E-05-5.08073E-05-3.16055E-06-1.15027E-18 2.31838E-18
 -1      2950 1.31469E-04-1.66362E-05-4.98657E-05-9.88011E-06-8.20140E-19 1.90402E-18
 -1      2951 9.44442E-05-2.14199E-05-3.13382E-05-7.65656E-06-1.46573E-19-4.90663E-19
 -1      2952 9.50097E-05-2.31822E-05-3.07371E-05-5.99289E-06-9.22918E-20-4.94783E-19
 -1      2953 9.50516E-05-2.43883E-05-3.03022E-05-4.46808E-06-4.48365E-20-4.01686E-19
 -1      2954 9.30783E-05-1.90407E-05-3.17267E-05-7.05931E-06 8.95919E-21-3.94545E-19
 -1      2955 9.46906E-05-2.19001E-05-3.12025E-05 7.85211E-06 6.45373E-19 5.46707E-19
 -1      2956 1.36902E-04-5.47228E-05-3.56810E-05 8.53424E-06-1.44782E-18 5.85194E-19
 -1      2957 1.28496E-04-5.74980E-05-3.03316E-05 1.72464E-05-1.54022E-18 9.94628E-19
 -1      2958 9.24400E-05-4.78942E-05-1.85311E-05-3.58668E-05-3.27908E-19 8.05740E-20
 -1      2959 1.09420E-04-5.56130E-05-2.32559E-05-3.09693E-05 9.67735E-20 6.56583E-19
 -1      2960 9.47160E-05-2.73920E-05-2.88556E-05 3.65418E-07 1.92934E-19 3.05233E-19
 -1      2961 9.48926E-05-2.71021E-05-2.90253E-05 9.79059E-07 2.23543E-19 4.30342E-19
 -1      2962 9.52500E-05-2.64832E-05-2.94785E-05 1.72146E-06 3.64884E-19 2.71936E-19
 -1      2963 9.51316E-05-2.73523E-05-2.90582E-05 3.38901E-07 1.87004E-19 1.76203E-19
 -1      2964 5.00933E-05-2.44385E-05-1.07572E-05 3.05223E-05-6.20346E-19-2.19382E-19
 -1      2965 3.79160E-05-1.64494E-05-8.55129E-06 1.79789E-05-4.90485E-19 1.43509E-18
 -1      2966 9.45167E-05-2.82540E-05-2.83964E-05-1.24439E-06 2.84710E-19 3.69171E-19
 -1      2967 9.44693E-05-2.81713E-05-2.84072E-05-1.14434E-06 3.57934E-19 2.38423E-19
 -1      2968 9.49525E-05-2.81773E-05-2.86247E-05-1.02428E-06 2.19782E-19 2.90868E-19
 -1      2969 9.49357E-05-2.83571E-05-2.85388E-05-1.30471E-06 1.73825E-19 7.41346E-19
 -1      2970 1.36840E-04-3.89945E-05-4.26543E-05-8.43769E-06-1.72699E-18 3.84447E-19
 -1      2971 1.38579E-04-4.73581E-05-3.91558E-05-1.07717E-06-1.59565E-18 6.26593E-19
 -1      2972 1.34953E-04-5.07132E-05-3.62034E-05-2.90204E-07-1.67594E-18 4.84397E-19
 -1      2973 1.22547E-04-5.81583E-05-2.72552E-05-2.30508E-05-4.68356E-19-1.16160E-18
 -1      2974 1.30824E-04-5.77854E-05-3.17564E-05-1.42460E-05-6.70109E-19 2.81427E-19
 -1      2975 3.45926E-05-1.35324E-05-8.55859E-06 1.29189E-05 2.71977E-19-2.14532E-18
 -1      2976 3.12397E-05-1.22204E-05-7.51791E-06-1.76409E-06-1.28259E-19-2.86911E-18
 -1      2977 9.12073E-05-1.60853E-05-3.22231E-05 4.91762E-06 7.24000E-19-1.00476E-19
 -1      2978 9.08694E-05-1.55866E-05-3.22858E-05 3.99464E-06 6.10533E-19-2.04376E-19
 -1      2979 9.18481E-05-1.71922E-05-3.19798E-05 3.19534E-06 4.92873E-19-1.47779E-19
 -1      2980 9.25092E-05-1.82540E-05-3.18034E-05 4.61354E-06 6.02819E-19-2.08499E-20
 -1      2981 1.33581E-04-2.48368E-05-4.72652E-05-1.39460E-05-1.46505E-18 3.80847E-19
 -1      2982 1.36493E-04-3.30799E-05-4.49754E-05-1.58411E-05-9.07913E-19-6.81544E-19
 -1      2983 1.32761E-04-1.80983E-05-4.95855E-05 1.12516E-05 2.21923E-19 8.07434E-19
 -1      2984 1.31208E-04-1.35192E-05-5.11764E-05 4.44432E-06-3.29708E-19 1.73408E-18
 -1      2985 1.27978E-04-1.73688E-05-4.78147E-05 1.08982E-05 2.48181E-19-6.67250E-19
 -1      2986 1.23855E-04-1.13244E-05-4.89338E-05 6.16533E-06-8.23740E-20-5.58565E-19
 -1      2987 9.08355E-05-1.55372E-05-3.22923E-05-3.92899E-06 2.46207E-19-5.12696E-19
 -1      2988 9.11663E-05-1.60327E-05-3.22309E-05-4.85752E-06 1.79994E-19-5.14424E-19
 -1      2989 1.22804E-04-5.91904E-05-2.68933E-05-2.17491E-05 7.38666E-19 1.77369E-18
 -1      2990 1.31101E-04-6.06147E-05-3.07633E-05-1.38244E-05 7.76306E-19 1.94198E-18
 -1      2991 1.38895E-04-5.55984E-05-3.56166E-05-4.78016E-07 5.70189E-19 1.13820E-18
 -1      2992 1.44037E-04-4.94252E-05-4.10357E-05 6.66252E-06 3.63112E-19 8.20563E-19
 -1      2993 3.31840E-05-1.46859E-05-7.45633E-06-1.34375E-05-3.22270E-19-2.46000E-18
 -1      2994 4.07866E-05-1.97410E-05-8.67234E-06-2.48140E-05-4.88632E-19-1.97846E-18
 -1      2995 9.52960E-05-2.71924E-05-2.91865E-05-3.06492E-06-7.30113E-19-3.11778E-18
 -1      2996 3.50446E-05-1.64163E-05-7.42001E-06-1.95855E-05-4.88420E-19-9.94417E-19
 -1      2997 4.52105E-05-2.26727E-05-9.29943E-06-3.08146E-05-1.43149E-19-1.71312E-18
 -1      2998 5.62215E-05-2.83835E-05-1.16926E-05 3.58264E-05 5.03455E-19 3.40719E-19
 -1      2999 4.36306E-05-1.97794E-05-9.68541E-06 2.66430E-05 6.37975E-19-1.01940E-18
 -1      3000 3.01651E-05-1.26057E-05-7.13744E-06 4.58265E-06-9.55294E-20 2.45068E-18
 -1      3001 3.00791E-05-1.31944E-05-6.72104E-06-8.86094E-06-2.07523E-20 1.85648E-18
 -1      3002 1.23621E-04-8.71816E-06-4.98777E-05-8.92726E-07-6.27228E-19-9.42830E-19
 -1      3003 1.25949E-04-1.23436E-05-4.91565E-05-8.01631E-06-7.96211E-19-5.18119E-19
 -1      3004 8.84817E-05-4.58536E-05-1.82851E-05 3.90094E-05 9.44230E-19 9.51324E-19
 -1      3005 7.24615E-05-3.69346E-05-1.46773E-05 3.83276E-05 2.51357E-19 9.71653E-19
 -1      3006 5.44891E-05-2.74024E-05-1.10132E-05-3.20767E-05-1.39316E-18-1.11417E-18
 -1      3007 7.23697E-05-3.79430E-05-1.47310E-05-3.79777E-05-9.37454E-19-5.41042E-20
 -1      3008 8.31053E-05-4.29956E-05-1.71110E-05 3.76945E-05-5.88476E-19-1.01602E-18
 -1      3009 6.73925E-05-3.37788E-05-1.38259E-05 3.52703E-05-3.38390E-19-2.95191E-19
 -1      3010 1.36308E-04-5.23923E-05-3.58982E-05-3.03930E-06-2.52839E-19 7.88588E-19
 -1      3011 1.37471E-04-4.53940E-05-4.01340E-05 4.28299E-06 1.11332E-18 1.89375E-18
 -1      3012 1.14127E-04-5.66109E-05-2.47170E-05 2.76484E-05 3.17637E-20-2.83151E-18
 -1      3013 9.84100E-05-5.06580E-05-2.00943E-05 3.43046E-05-8.05105E-19-1.13092E-18
 -1      3014 9.44318E-05-4.54048E-05-2.05872E-05 3.18033E-05-1.45743E-19-1.04955E-18
 -1      3015 5.89991E-05-3.10295E-05-1.14391E-05-3.72071E-05 8.41739E-19-5.50042E-19
 -1      3016 7.24239E-05-3.88777E-05-1.41478E-05-4.11430E-05 1.37325E-18-1.23212E-18
 -1      3017 9.16006E-05-1.66894E-05-3.21274E-05-5.57750E-06 1.21820E-19-5.82635E-19
 -1      3018 9.20731E-05-1.74638E-05-3.20335E-05-6.46872E-06 4.94265E-20-5.28515E-19
 -1      3019 9.24751E-05-1.81903E-05-3.18095E-05-4.52565E-06 1.29979E-19-4.70033E-19
 -1      3020 9.13210E-05-1.63714E-05-3.21084E-05 2.07272E-08 4.35462E-19-1.95924E-19
 -1      3021 9.02062E-05-1.45907E-05-3.24248E-05-3.80813E-07 3.72644E-19-2.99044E-19
 -1      3022 9.02622E-05-1.46779E-05-3.24146E-05-1.33936E-06 3.36274E-19-3.98620E-19
 -1      3023 1.25154E-04-2.25552E-05-4.42529E-05 1.21781E-05 3.84871E-19-2.15326E-18
 -1      3024 9.43489E-05-2.14183E-05-3.12603E-05 7.22312E-06 6.44439E-19 5.02453E-19
 -1      3025 6.46375E-05-2.82073E-05-1.50762E-05 2.99738E-05-9.43912E-20-5.57983E-20
 -1      3026 1.38235E-04-5.06495E-05-3.77354E-05-8.35633E-06 2.10991E-19-1.63424E-18
 -1      3027 1.34076E-04-5.30346E-05-3.48170E-05-3.44430E-06 3.52048E-21-1.14320E-18
 -1      3028 1.33075E-04-4.02598E-05-4.00325E-05 8.92321E-06 9.93464E-19 2.20123E-19
 -1      3029 1.23118E-04-5.87617E-05-2.73978E-05 2.02592E-05 6.13305E-19-2.64851E-18
 -1      3030 1.14808E-04-5.40680E-05-2.57868E-05 2.25599E-05 5.34531E-19-1.85572E-18
 -1      3031 1.27809E-04-5.78688E-05-3.01661E-05 1.07311E-05 2.22161E-19-9.18634E-19
 -1      3032 1.37576E-04-4.24007E-05-4.10815E-05-1.13723E-05-3.72271E-19-1.12634E-18
 -1      3033 1.31571E-04-5.46585E-05-3.30275E-05-6.05100E-06-3.91012E-19 1.60513E-19
 -1      3034 8.63240E-05-4.39847E-05-1.77629E-05-3.75635E-05 6.04887E-19-1.08648E-18
 -1      3035 9.30933E-05-2.48850E-05-2.92237E-05 3.24372E-06 2.13807E-18 4.58729E-18
 -1      3036 9.35064E-05-2.51928E-05-2.92934E-05 3.12194E-06 2.10922E-18 3.04111E-18
 -1      3037 9.39145E-05-2.55787E-05-2.92757E-05 3.37150E-06-2.28657E-19 2.08151E-18
 -1      3038 1.31173E-04-3.50768E-05-4.14791E-05-1.12300E-05-1.98084E-18 1.82959E-19
 -1      3039 5.47123E-05-2.33699E-05-1.28460E-05-2.69976E-05-1.13937E-18-7.55977E-19
 -1      3040 1.34312E-04-4.15791E-05-4.00642E-05 1.42902E-05-5.09279E-20 1.73875E-18
 -1      3041 1.24007E-04-1.54988E-05-4.69658E-05 5.06299E-08-5.89217E-19 2.00452E-18
 -1      3042 1.18505E-04-1.77405E-05-4.35523E-05 4.53062E-06 4.76033E-19 1.86112E-18
 -1      3043 1.19852E-04-2.11006E-05-4.29256E-05 1.08253E-05 9.76629E-19 2.21297E-18
 -1      3044 4.12702E-05-1.44051E-05-1.08126E-05 1.09456E-05-4.75927E-20 1.57188E-18
 -1      3045 9.95098E-05-4.82985E-05-2.15970E-05 3.22672E-05 7.85358E-19 6.88214E-21
 -1      3046 5.73702E-05-2.61858E-05-1.27732E-05-3.18269E-05-1.56701E-19-9.42007E-19
 -1      3047 1.22834E-04-1.75082E-05-4.54817E-05-1.03610E-05-9.76841E-19-1.03777E-18
 -1      3048 9.46443E-05-2.63167E-05-2.92930E-05 3.59597E-06-1.13366E-18-1.32830E-18
 -1      3049 1.19144E-04-1.18730E-05-4.64213E-05 2.75293E-06-1.87194E-19-1.58389E-18
 -1      3050 1.23979E-04-5.68119E-05-2.87069E-05 1.77933E-05-8.53280E-19-3.66342E-20
 -1      3051 9.49567E-05-2.67940E-05-2.92123E-05-3.14827E-06 9.99607E-20-2.06813E-18
 -1      3052 6.98268E-05-3.22542E-05-1.56194E-05 3.44283E-05 9.08019E-19 8.90232E-19
 -1      3053 9.46133E-05-2.24591E-05-3.09160E-05 5.69509E-06 6.05772E-19 4.24575E-19
 -1      3054 3.95514E-05-1.31926E-05-1.06809E-05-6.98615E-06-2.55976E-19-2.47736E-18
 -1      3055 1.15210E-04-5.53769E-05-2.54025E-05-2.40928E-05-1.37537E-19 1.29419E-18
 -1      3056 9.50391E-05-2.40525E-05-3.04261E-05-4.14754E-06-6.32024E-20-3.41816E-19
 -1      3057 9.03890E-05-1.48630E-05-3.23868E-05-2.17008E-06 2.90577E-19-3.80268E-19
 -1      3058 9.05728E-05-1.51382E-05-3.23535E-05-3.12461E-06 2.14153E-19-4.80367E-19
 -1      3059 9.18271E-05-1.71553E-05-3.19824E-05-3.12049E-06 2.24984E-19-4.98867E-19
 -1      3060 9.14432E-05-1.65562E-05-3.20782E-05-1.58137E-06 2.78268E-19-3.78417E-19
 -1      3061 1.39903E-04-4.42526E-05-4.13555E-05 1.19680E-05 2.51172E-19 5.70159E-19
 -1      3062 4.28732E-05-1.59794E-05-1.09209E-05 1.90396E-05 9.09025E-19-1.12094E-18
 -1      3063 4.42713E-05-1.29411E-05-1.30372E-05 1.09025E-05 1.08979E-18-1.73356E-18
 -1      3064 5.18975E-05-1.89670E-05-1.39655E-05 2.32769E-05 1.08804E-18-5.87206E-19
 -1      3065 8.58307E-05-4.15529E-05-1.85107E-05-3.35763E-05-9.78535E-19-4.05041E-19
 -1      3066 1.15677E-04-5.57638E-05-2.53840E-05-2.63479E-05 2.10488E-19-1.08793E-18
 -1      3067 4.00908E-05-1.45623E-05-1.02390E-05-1.38420E-05 1.18029E-19 3.68989E-19
 -1      3068 9.50890E-05-2.69557E-05-2.92000E-05-3.61037E-06-1.11893E-18-3.85385E-18
 -1      3069 9.46570E-05-2.65016E-05-2.92124E-05-3.39438E-06 3.13172E-19-1.85878E-18
 -1      3070 9.44597E-05-2.63436E-05-2.91899E-05-3.73014E-06 7.04696E-20-1.03122E-18
 -1      3071 9.51980E-05-2.70181E-05-2.92147E-05-3.90256E-06-7.13166E-19-3.62574E-18
 -1      3072 7.41698E-05-3.07703E-05-1.86200E-05 2.94428E-05 4.46730E-19-8.74032E-20
 -1      3073 6.06849E-05-2.18047E-05-1.61669E-05 2.38598E-05 1.23932E-19 3.37437E-19
 -1      3074 9.42862E-05-2.18412E-05-3.10694E-05 4.96864E-06 5.29989E-19 3.72433E-19
 -1      3075 9.38326E-05-2.08989E-05-3.12584E-05 4.62004E-06 5.08474E-19 2.13126E-19
 -1      3076 8.15516E-05-3.89364E-05-1.78506E-05-3.54712E-05 7.60000E-19-8.84091E-19
 -1      3077 9.61559E-05-4.79002E-05-2.07822E-05-3.49019E-05 1.82112E-19-9.93252E-19
 -1      3078 1.30834E-04-4.38636E-05-3.71933E-05 8.24729E-06 4.84820E-19 4.30610E-19
 -1      3079 1.27733E-04-3.54515E-05-4.00659E-05 1.23204E-05 1.22820E-19-1.06144E-18
 -1      3080 1.31415E-04-4.74864E-05-3.64432E-05-5.03873E-06-1.57379E-18 7.07590E-19
 -1      3081 1.31775E-04-5.31771E-05-3.35488E-05 2.21608E-06-1.13295E-18 5.68465E-19
 -1      3082 9.56847E-05-2.68419E-05-2.94962E-05-7.06032E-07-1.32763E-19-2.81254E-19
 -1      3083 9.56641E-05-2.72690E-05-2.93192E-05-1.55287E-07-1.79821E-20-3.49904E-19
 -1      3084 9.57044E-05-2.76430E-05-2.91589E-05 2.41072E-07 1.59832E-21-4.26328E-19
 -1      3085 9.56711E-05-2.79142E-05-2.90426E-05 5.80997E-07-1.27499E-19-5.64419E-19
 -1      3086 9.59055E-05-2.72585E-05-2.94238E-05-8.78420E-08-5.60748E-20-3.75262E-19
 -1      3087 9.56575E-05-2.81324E-05-2.89320E-05 8.31418E-07-1.87252E-19-4.79486E-19
 -1      3088 9.56285E-05-2.82932E-05-2.88593E-05 1.03427E-06-2.21948E-19-4.66211E-19
 -1      3089 9.59330E-05-2.79384E-05-2.91444E-05 5.96176E-07-1.05238E-19-5.06995E-19
 -1      3090 9.55880E-05-2.84080E-05-2.87870E-05 1.18383E-06-1.29826E-19-2.65985E-19
 -1      3091 9.55694E-05-2.84926E-05-2.87467E-05 1.30155E-06 1.47106E-20-6.08945E-20
 -1      3092 9.58848E-05-2.83354E-05-2.89533E-05 1.02430E-06-8.85483E-20-5.41155E-19
 -1      3093 9.55155E-05-2.85353E-05-2.87037E-05 1.39061E-06 3.84874E-20-1.61463E-19
 -1      3094 9.55071E-05-2.85655E-05-2.86875E-05 1.46253E-06-1.38126E-19-1.63148E-19
 -1      3095 9.57957E-05-2.85317E-05-2.88304E-05 1.28529E-06-3.65447E-20-3.18389E-19
 -1      3096 9.54464E-05-2.85563E-05-2.86668E-05 1.52312E-06-3.56141E-19-2.13300E-20
 -1      3097 9.54469E-05-2.85467E-05-2.86688E-05 1.57903E-06-2.81695E-19-9.09699E-20
 -1      3098 9.56855E-05-2.85842E-05-2.87601E-05 1.45230E-06-6.24453E-20-3.67428E-19
 -1      3099 9.53822E-05-2.84991E-05-2.86652E-05 1.63615E-06-3.61822E-19 1.27107E-19
 -1      3100 9.53904E-05-2.84600E-05-2.86810E-05 1.69867E-06-4.25691E-19 1.91116E-19
 -1      3101 9.55635E-05-2.85312E-05-2.87300E-05 1.58336E-06-2.69615E-19 5.08764E-20
 -1      3102 9.53224E-05-2.83832E-05-2.86904E-05 1.77176E-06-2.89137E-19 4.93026E-19
 -1      3103 9.53379E-05-2.83221E-05-2.87169E-05 1.85804E-06-9.07074E-20 5.65871E-19
 -1      3104 9.54333E-05-2.83989E-05-2.87304E-05 1.72383E-06-1.64239E-19 5.07504E-19
 -1      3105 9.52667E-05-2.82233E-05-2.87359E-05 1.96226E-06-1.37080E-19 5.64244E-19
 -1      3106 9.52903E-05-2.81470E-05-2.87710E-05 2.08523E-06-1.88505E-19 5.32557E-19
 -1      3107 9.52959E-05-2.82065E-05-2.87535E-05 1.90901E-06 3.50241E-20 8.53939E-19
 -1      3108 9.52159E-05-2.80326E-05-2.87966E-05 2.23230E-06-4.00840E-19 3.69818E-19
 -1      3109 9.52500E-05-2.79485E-05-2.88382E-05 2.40118E-06-2.43609E-19-4.21823E-20
 -1      3110 9.51514E-05-2.79696E-05-2.87927E-05 2.16640E-06-3.35994E-19 3.53934E-19
 -1      3111 9.51740E-05-2.78262E-05-2.88676E-05 2.59979E-06-2.63925E-19-3.91847E-19
 -1      3112 9.52233E-05-2.77440E-05-2.89138E-05 2.82000E-06-4.89567E-19-2.95692E-19
 -1      3113 9.50016E-05-2.77046E-05-2.88418E-05 2.51693E-06-5.88686E-19 9.22245E-20
 -1      3114 9.51502E-05-2.76249E-05-2.89439E-05 3.07572E-06-5.78854E-19-2.66348E-19
 -1      3115 9.52228E-05-2.75588E-05-2.89925E-05 3.34817E-06-7.64424E-19-3.03300E-19
 -1      3116 9.48525E-05-2.74325E-05-2.88944E-05 2.97548E-06-5.45935E-19-2.65151E-19
 -1      3117 9.51624E-05-2.74600E-05-2.90197E-05 3.66284E-06-8.42135E-19-1.17118E-20
 -1      3118 9.52718E-05-2.74314E-05-2.90675E-05 3.98248E-06-8.95858E-19-1.73694E-19
 -1      3119 9.47178E-05-2.71843E-05-2.89433E-05 3.55040E-06-8.03297E-19-3.04910E-19
 -1      3120 9.52422E-05-2.73793E-05-2.90877E-05 4.35297E-06-9.46201E-19-3.29808E-19
 -1      3121 9.54100E-05-2.74197E-05-2.91313E-05 4.70657E-06-7.89412E-19-3.89284E-19
 -1      3122 9.46245E-05-2.70072E-05-2.89801E-05 4.24208E-06-1.07311E-18 1.40188E-19
 -1      3123 9.54428E-05-2.74541E-05-2.91397E-05 5.12274E-06-2.55022E-19-2.35875E-19
 -1      3124 9.57025E-05-2.76088E-05-2.91752E-05 5.48571E-06-5.08970E-20-1.53826E-19
 -1      3125 9.46212E-05-2.69723E-05-2.89955E-05 5.04038E-06-3.30783E-19-4.81704E-20
 -1      3126 9.58486E-05-2.77859E-05-2.91679E-05 5.92705E-06-1.22591E-19 2.44780E-20
 -1      3127 9.62494E-05-2.81163E-05-2.91919E-05 6.25898E-06 2.37263E-19-2.04945E-19
 -1      3128 9.47877E-05-2.71827E-05-2.89802E-05 5.92018E-06 2.11302E-19-2.80065E-19
 -1      3129 9.65864E-05-2.85114E-05-2.91671E-05 6.68870E-06 4.46674E-19-5.63194E-19
 -1      3130 9.71959E-05-2.90932E-05-2.91794E-05 6.92728E-06 1.10219E-18-7.92958E-19
 -1      3131 9.52495E-05-2.77808E-05-2.89278E-05 6.83357E-06 2.65568E-19-2.97070E-19
 -1      3132 9.78343E-05-2.97970E-05-2.91414E-05 7.28158E-06 1.39645E-18-1.16469E-18
 -1      3133 9.87343E-05-3.07085E-05-2.91488E-05 7.33416E-06 1.12725E-18-1.28541E-18
 -1      3134 9.61915E-05-2.89489E-05-2.88405E-05 7.69485E-06 9.06423E-19-3.40173E-19
 -1      3135 9.98164E-05-3.18095E-05-2.91142E-05 7.50320E-06 7.81871E-19-9.38763E-19
 -1      3136 1.01083E-04-3.30989E-05-2.91370E-05 7.23743E-06 2.58826E-19-6.50404E-19
 -1      3137 9.78653E-05-3.08920E-05-2.87390E-05 8.35151E-06 1.25145E-18-9.31565E-19
 -1      3138 1.02760E-04-3.46378E-05-2.91455E-05 7.03489E-06-3.38887E-19-6.11427E-19
 -1      3139 1.04404E-04-3.62478E-05-2.92255E-05 6.27653E-06-2.86288E-19-1.31072E-19
 -1      3140 1.00571E-04-3.37764E-05-2.86803E-05 8.53351E-06 2.57414E-19-6.07991E-19
 -1      3141 1.06762E-04-3.81100E-05-2.93533E-05 5.39468E-06-6.55929E-20-3.75199E-19
 -1      3142 1.08646E-04-3.97310E-05-2.95640E-05 3.95548E-06-2.94295E-19-1.67536E-19
 -1      3143 1.04587E-04-3.75911E-05-2.87839E-05 7.76714E-06-2.63141E-19-4.14588E-19
 -1      3144 1.11441E-04-4.14474E-05-2.99314E-05 2.14882E-06-4.12469E-19-4.28872E-19
 -1      3145 1.13177E-04-4.24811E-05-3.03662E-05 1.44589E-08 1.55411E-20-3.72109E-19
 -1      3146 1.09721E-04-4.16383E-05-2.92663E-05 5.30275E-06-3.47469E-19-2.34747E-19
 -1      3147 1.16016E-04-4.31905E-05-3.11414E-05-3.19531E-06 3.24685E-20-3.64021E-19
 -1      3148 1.16763E-04-4.23383E-05-3.19108E-05-5.70050E-06-6.79165E-19-7.18826E-19
 -1      3149 1.15686E-04-4.49793E-05-3.04576E-05 7.00219E-07-1.03844E-19 3.32275E-19
 -1      3150 1.17938E-04-4.06179E-05-3.32177E-05-9.21835E-06-1.68082E-18-7.77775E-19
 -1      3151 1.17166E-04-3.73487E-05-3.42758E-05-1.09316E-05-1.32473E-18-8.17790E-19
 -1      3152 1.19909E-04-4.38502E-05-3.25790E-05-6.18219E-06-1.19322E-18-7.12935E-19
 -1      3153 1.10722E-04-2.15276E-05-3.85754E-05-1.01172E-05-1.04601E-18-9.70620E-19
 -1      3154 1.09220E-04-1.79547E-05-3.91841E-05-6.24420E-06-8.40018E-19-7.00503E-19
 -1      3155 1.10477E-04-2.08147E-05-3.84325E-05 9.17474E-06-2.42596E-19-7.04930E-19
 -1      3156 1.12560E-04-2.56599E-05-3.75195E-05 1.18009E-05-4.72697E-19-4.33062E-19
 -1      3157 1.15065E-04-3.09718E-05-3.60389E-05 1.25762E-05-2.59245E-19-1.43599E-20
 -1      3158 1.16905E-04-3.59737E-05-3.48663E-05 1.21519E-05 4.01738E-19-1.00900E-18
 -1      3159 1.17236E-04-3.95685E-05-3.33073E-05 9.31796E-06 5.69706E-19-1.09555E-18
 -1      3160 1.17478E-04-4.20626E-05-3.23292E-05 7.05778E-06 2.45745E-19-1.59570E-18
 -1      3161 1.20250E-04-3.99361E-05-3.44749E-05 1.01269E-05 1.30271E-19-1.58365E-18
 -1      3162 1.15506E-04-4.27326E-05-3.12483E-05 3.53218E-06-1.15890E-19-9.94354E-19
 -1      3163 1.14379E-04-4.27732E-05-3.06144E-05 1.06318E-06-3.84283E-19-1.30692E-18
 -1      3164 1.18367E-04-4.45278E-05-3.17383E-05 3.65046E-06-2.35541E-19-9.56189E-19
 -1      3165 1.11537E-04-4.16277E-05-3.00178E-05-1.64958E-06-7.63424E-19-9.55184E-19
 -1      3166 1.09750E-04-4.03190E-05-2.96759E-05-3.54323E-06-6.92158E-19-1.52619E-18
 -1      3167 1.13524E-04-4.38595E-05-2.99713E-05-2.48197E-06-3.65796E-19-2.00703E-19
 -1      3168 1.07072E-04-3.85171E-05-2.94134E-05-5.09835E-06-5.04410E-19-1.71635E-18
 -1      3169 1.05254E-04-3.68356E-05-2.92606E-05-6.26510E-06 1.46551E-19-1.27489E-18
 -1      3170 1.07971E-04-4.03225E-05-2.91020E-05-6.35552E-06-7.91157E-19-7.42993E-19
 -1      3171 1.03187E-04-3.51118E-05-2.91861E-05-6.91774E-06 7.45065E-19-2.01943E-18
 -1      3172 1.01671E-04-3.35993E-05-2.91334E-05-7.48532E-06 8.85117E-19-1.97282E-18
 -1      3173 1.03231E-04-3.62539E-05-2.87854E-05-8.18431E-06 1.80966E-19-7.81834E-19
 -1      3174 1.00254E-04-3.22458E-05-2.91454E-05-7.57923E-06 3.64407E-19-2.35139E-18
 -1      3175 9.91193E-05-3.10884E-05-2.91331E-05-7.72755E-06-6.60074E-19-2.12293E-18
 -1      3176 9.97689E-05-3.28022E-05-2.87518E-05-8.65638E-06 5.22017E-20-2.67926E-18
 -1      3177 9.82332E-05-3.01476E-05-2.91731E-05-7.51231E-06-9.33939E-19-2.01405E-18
 -1      3178 9.74355E-05-2.93485E-05-2.91692E-05-7.39346E-06-6.76504E-19-2.65508E-18
 -1      3179 9.74851E-05-3.02790E-05-2.88327E-05-8.36210E-06-8.97648E-19-3.19417E-18
 -1      3180 9.69284E-05-2.87558E-05-2.92088E-05-7.02339E-06-6.34706E-19-1.91582E-18
 -1      3181 9.63864E-05-2.82449E-05-2.92001E-05-6.74706E-06 4.55132E-19-1.32654E-18
 -1      3182 9.61008E-05-2.86146E-05-2.89384E-05-7.67690E-06-3.98754E-19-1.20331E-18
 -1      3183 9.61254E-05-2.79051E-05-2.92293E-05-6.31069E-06 5.91406E-19-2.01079E-18
 -1      3184 9.57602E-05-2.75969E-05-2.92135E-05-5.94963E-06 4.39957E-19-2.19752E-18
 -1      3185 9.53326E-05-2.76118E-05-2.90301E-05-6.81725E-06-7.56425E-20-6.41672E-19
 -1      3186 9.56442E-05-2.74199E-05-2.92321E-05-5.49493E-06 1.10627E-18-2.98960E-18
 -1      3187 9.53985E-05-2.72395E-05-2.92123E-05-5.09362E-06 1.57129E-19-3.68033E-18
 -1      3188 9.49499E-05-2.70582E-05-2.90977E-05-5.89956E-06 5.76684E-19-2.92470E-18
 -1      3189 9.53854E-05-2.71774E-05-2.92263E-05-4.70148E-06-1.27114E-18-3.96934E-18
 -1      3190 9.52066E-05-2.70589E-05-2.92065E-05-4.27925E-06-1.20428E-18-3.72824E-18
 -1      3191 9.47954E-05-2.67094E-05-2.91825E-05-4.25024E-06-1.72759E-18-3.12010E-18
 -1      3192 9.48230E-05-2.68135E-05-2.91469E-05-5.03660E-06-5.43070E-19-4.71217E-18
 -1      3193 5.16217E-05-1.85380E-05-1.37278E-05-2.11587E-05-7.36601E-19-3.06626E-19
 -1      3194 6.30783E-05-2.61983E-05-1.57897E-05-2.89060E-05-1.39729E-18-1.74912E-19
 -1      3195 9.53848E-05-2.78947E-05-2.89276E-05-5.61699E-07 1.22029E-19 3.55242E-19
 -1      3196 9.54345E-05-2.76479E-05-2.90386E-05-2.09429E-07 1.58717E-19 2.96278E-19
 -1      3197 9.52766E-05-2.85199E-05-2.86071E-05-1.57411E-06 6.97623E-19 5.28995E-19
 -1      3198 9.52449E-05-2.85175E-05-2.85970E-05-1.52399E-06 7.09554E-19 3.81006E-19
 -1      3199 9.52824E-05-2.85186E-05-2.86110E-05-1.46564E-06 5.89707E-19 4.62202E-19
 -1      3200 9.52647E-05-2.84811E-05-2.86191E-05-1.39856E-06 3.88287E-19 7.78557E-19
 -1      3201 9.55124E-05-2.85565E-05-2.86982E-05-1.48322E-06 6.62725E-19 4.83207E-19
 -1      3202 9.52961E-05-2.83457E-05-2.86884E-05-1.83827E-06 4.23254E-19 1.05397E-18
 -1      3203 9.52441E-05-2.83939E-05-2.86523E-05-1.75452E-06 7.13315E-19 8.86983E-19
 -1      3204 9.53149E-05-2.81875E-05-2.87635E-05-2.06765E-06-4.64296E-20 1.22126E-18
 -1      3205 9.52542E-05-2.82556E-05-2.87169E-05-1.94161E-06 3.09272E-19 1.25801E-18
 -1      3206 9.52900E-05-2.82406E-05-2.87364E-05-1.92638E-06 1.31662E-19 9.95217E-19
 -1      3207 9.53352E-05-2.79869E-05-2.88573E-05-2.40109E-06-3.96070E-19 6.00691E-19
 -1      3208 9.52656E-05-2.80731E-05-2.88010E-05-2.21917E-06-2.62583E-19 8.49424E-19
 -1      3209 9.52000E-05-2.80086E-05-2.87967E-05-2.18873E-06 3.50402E-20 7.52969E-19
 -1      3210 9.53529E-05-2.77459E-05-2.89673E-05-2.86294E-06-4.75996E-20 3.26979E-19
 -1      3211 9.52738E-05-2.78484E-05-2.89019E-05-2.61336E-06-1.71756E-19 6.65768E-19
 -1      3212 9.50904E-05-2.77208E-05-2.88724E-05-2.55843E-06-2.06328E-19 3.96071E-19
 -1      3213 9.53641E-05-2.74679E-05-2.90902E-05-3.47414E-06-2.01470E-19 4.78707E-19
 -1      3214 9.52741E-05-2.75835E-05-2.90167E-05-3.14696E-06-2.08664E-19 4.16831E-19
 -1      3215 9.49516E-05-2.73789E-05-2.89586E-05-3.05874E-06-1.58249E-19 3.12239E-19
 -1      3216 9.53656E-05-2.71617E-05-2.92211E-05-4.25140E-06 5.48889E-19-1.58630E-19
 -1      3217 9.52622E-05-2.72839E-05-2.91413E-05-3.83936E-06 3.58406E-19 3.54412E-19
 -1      3218 9.47728E-05-2.69864E-05-2.90492E-05-3.70941E-06 1.18148E-19 1.02598E-19
 -1      3219 9.53592E-05-2.68487E-05-2.93514E-05-5.20517E-06-4.67917E-20 1.05380E-19
 -1      3220 9.52367E-05-2.69634E-05-2.92689E-05-4.70533E-06 3.84082E-19-6.29872E-21
 -1      3221 9.45445E-05-2.65546E-05-2.91353E-05-4.52648E-06 2.94502E-19-2.69525E-19
 -1      3222 9.53593E-05-2.65741E-05-2.94679E-05-6.33631E-06 2.92256E-19 3.51815E-19
 -1      3223 9.52043E-05-2.66535E-05-2.93889E-05-5.75279E-06-6.77743E-20 2.00598E-19
 -1      3224 9.42630E-05-2.61108E-05-2.92038E-05-5.52160E-06-1.17952E-19-1.75091E-20
 -1      3225 9.54087E-05-2.64252E-05-2.95512E-05-7.63127E-06-1.34837E-20 1.29490E-18
 -1      3226 9.51915E-05-2.64179E-05-2.94848E-05-6.97934E-06 2.73356E-19 9.46622E-19
 -1      3227 9.39404E-05-2.57116E-05-2.92360E-05-6.70169E-06-1.81104E-19 9.61115E-19
 -1      3228 9.56057E-05-2.65588E-05-2.95758E-05-9.05514E-06-1.43312E-19 2.07609E-18
 -1      3229 9.52661E-05-2.63750E-05-2.95340E-05-8.36724E-06 2.04752E-19 1.97859E-18
 -1      3230 9.36236E-05-2.54654E-05-2.92068E-05-8.06932E-06-9.11349E-20 2.17997E-18
 -1      3231 9.61497E-05-2.72369E-05-2.95139E-05-1.05397E-05 3.43237E-19 1.64037E-18
 -1      3232 9.55736E-05-2.67307E-05-2.95091E-05-9.87496E-06-4.26200E-21 1.81683E-18
 -1      3233 9.34272E-05-2.55632E-05-2.90854E-05-9.62352E-06 1.62069E-19 2.52056E-18
 -1      3234 9.74026E-05-2.88624E-05-2.93479E-05-1.19608E-05 7.90417E-20 1.77369E-18
 -1      3235 9.63933E-05-2.78153E-05-2.93850E-05-1.14215E-05 2.92600E-19 1.73873E-18
 -1      3236 9.35853E-05-2.63186E-05-2.88408E-05-1.13575E-05 2.16039E-19 2.43129E-18
 -1      3237 9.99595E-05-3.19817E-05-2.90994E-05-1.30716E-05-5.90751E-19 2.20892E-18
 -1      3238 9.82204E-05-3.01167E-05-2.91589E-05-1.28405E-05 2.69591E-20 2.20450E-18
 -1      3239 9.45382E-05-2.82194E-05-2.84580E-05-1.32414E-05-3.60051E-19 2.75367E-18
 -1      3240 1.04646E-04-3.71330E-05-2.88936E-05-1.33480E-05-1.16926E-18 2.21439E-18
 -1      3241 1.01822E-04-3.42284E-05-2.88956E-05-1.37624E-05-6.36706E-19 1.97468E-18
 -1      3242 9.70302E-05-3.19218E-05-2.79768E-05-1.51191E-05-6.38965E-19 2.36326E-18
 -1      3243 1.12584E-04-4.43396E-05-2.91355E-05-1.15627E-05-6.60950E-19 2.26481E-18
 -1      3244 1.08264E-04-4.06468E-05-2.88303E-05-1.33810E-05-1.14954E-18 2.33833E-18
 -1      3245 1.02161E-04-3.81064E-05-2.75788E-05-1.65204E-05-1.07198E-18 1.95282E-18
 -1      3246 1.31636E-04-5.45285E-05-3.30489E-05-8.11386E-07-1.74615E-19 2.26354E-18
 -1      3247 1.27837E-04-5.49236E-05-3.09894E-05-5.68400E-06-3.38939E-19 2.26992E-18
 -1      3248 5.00558E-05-1.63072E-05-1.43389E-05 1.75654E-05-4.92603E-19-5.59359E-19
 -1      3249 4.34888E-05-1.22274E-05-1.29825E-05 4.65736E-06 1.74254E-19 1.03433E-18
 -1      3250 6.18263E-05-1.94314E-05-1.78103E-05 1.82855E-05 8.95181E-19 6.25375E-19
 -1      3251 1.32073E-04-2.41772E-05-4.65750E-05 1.33327E-05 5.08855E-19 2.88362E-19
 -1      3252 1.19999E-04-5.05308E-05-2.96473E-05 9.84765E-06 1.82889E-18-5.83453E-19
 -1      3253 1.24731E-04-5.31429E-05-3.06710E-05 6.24219E-06 1.39141E-18-6.74870E-19
 -1      3254 1.09120E-04-4.10124E-05-2.90378E-05 1.29226E-05 1.90639E-18 3.39293E-19
 -1      3255 1.13170E-04-4.47517E-05-2.93016E-05 1.11271E-05 2.40160E-18 4.08376E-19
 -1      3256 1.02625E-04-3.47076E-05-2.90355E-05 1.36808E-05 8.92671E-19-2.94883E-19
 -1      3257 1.05469E-04-3.75993E-05-2.90607E-05 1.31224E-05 1.31921E-18 3.01676E-19
 -1      3258 1.03275E-04-3.87754E-05-2.77840E-05 1.62026E-05 1.85757E-18 8.60844E-19
 -1      3259 9.88567E-05-3.05319E-05-2.92515E-05 1.29961E-05 1.43931E-18-9.84042E-19
 -1      3260 1.00653E-04-3.24240E-05-2.92119E-05 1.31273E-05 1.28477E-18-5.64079E-20
 -1      3261 9.78978E-05-3.25020E-05-2.81053E-05 1.51935E-05 1.25433E-18 1.75637E-19
 -1      3262 9.68825E-05-2.81530E-05-2.94478E-05 1.17174E-05 3.81337E-19-1.09803E-18
 -1      3263 9.79530E-05-2.92372E-05-2.94252E-05 1.21941E-05 1.16608E-18-1.02226E-18
 -1      3264 9.52065E-05-2.86879E-05-2.85460E-05 1.35133E-05 9.17695E-19 4.70358E-19
 -1      3265 9.59388E-05-2.69873E-05-2.95538E-05 1.02473E-05 8.72133E-20-5.14023E-19
 -1      3266 9.65719E-05-2.75342E-05-2.95685E-05 1.08777E-05-3.25648E-19-1.42153E-18
 -1      3267 9.41024E-05-2.66853E-05-2.89078E-05 1.17386E-05 2.45627E-19 4.72760E-19
 -1      3268 9.55285E-05-2.65458E-05-2.95715E-05 8.77032E-06 2.23816E-18-3.39819E-19
 -1      3269 9.59200E-05-2.67754E-05-2.96181E-05 9.44608E-06 1.00418E-18-4.20744E-19
 -1      3270 9.38320E-05-2.58336E-05-2.91447E-05 1.00554E-05 4.29335E-19-6.19914E-19
 -1      3271 9.53645E-05-2.64860E-05-2.95274E-05 7.37209E-06 1.53771E-18 9.92176E-19
 -1      3272 9.56285E-05-2.65494E-05-2.95926E-05 8.03318E-06 2.59974E-18 1.37935E-19
 -1      3273 9.39408E-05-2.56374E-05-2.92707E-05 8.51116E-06 1.07075E-18 8.20998E-19
 -1      3274 9.52952E-05-2.65810E-05-2.94509E-05 6.09404E-06 7.56831E-19 1.27045E-18
 -1      3275 9.54934E-05-2.65815E-05-2.95218E-05 6.70292E-06 1.23553E-18 9.59493E-19
 -1      3276 9.41742E-05-2.57628E-05-2.93182E-05 7.11697E-06 1.35144E-18 2.47068E-18
 -1      3277 9.24083E-05-1.83224E-05-3.17663E-05 1.80650E-06 5.12704E-19 7.20598E-21
 -1      3278 9.22894E-05-1.81209E-05-3.17990E-05 1.05232E-06 4.45717E-19-2.01989E-20
 -1      3279 9.15203E-05-2.37918E-05-2.90273E-05-8.49084E-07 1.22127E-18-5.23974E-19
 -1      3280 9.14205E-05-2.37036E-05-2.90293E-05-1.55886E-07 9.67830E-19 3.69284E-19
 -1      3281 9.37565E-05-2.57868E-05-2.91253E-05-3.83575E-06 6.32274E-19 1.40600E-18
 -1      3282 9.32774E-05-2.53806E-05-2.91095E-05-3.60037E-06 7.40113E-19-1.02977E-18
 -1      3283 9.20034E-05-2.42333E-05-2.90403E-05-2.17495E-06 1.09402E-18-1.57887E-18
 -1      3284 9.17314E-05-2.40077E-05-2.90352E-05-1.58403E-06 1.91142E-18-1.00182E-18
 -1      3285 9.11584E-05-2.36935E-05-2.89047E-05-1.37531E-06 1.20209E-18 8.83648E-20
 -1      3286 1.05580E-04-4.98774E-05-2.41463E-05 2.71610E-05 4.02208E-19-1.43985E-18
 -1      3287 9.29011E-05-4.25894E-05-2.11619E-05 3.11458E-05 5.01285E-19-4.84344E-19
 -1      3288 5.47595E-05-2.15485E-05-1.38286E-05-2.67311E-05-4.18725E-19-1.97486E-18
 -1      3289 6.66986E-05-2.98973E-05-1.56517E-05-3.37204E-05 5.45701E-19-1.35822E-18
 -1      3290 1.34433E-04-5.66830E-05-3.33813E-05-3.39278E-06 4.46678E-19 1.39570E-18
 -1      3291 4.34621E-05-1.20008E-05-1.31757E-05-2.34816E-06 1.97041E-19-2.23511E-18
 -1      3292 4.56451E-05-1.41247E-05-1.31036E-05-1.35896E-05-1.73748E-19-1.57739E-18
 -1      3293 9.37193E-05-2.04103E-05-3.13925E-05-5.68464E-06 3.98453E-21-4.51790E-19
 -1      3294 9.47866E-05-2.29434E-05-3.08075E-05-4.21699E-06 4.98062E-20-4.19553E-19
 -1      3295 9.52091E-05-2.46051E-05-3.02601E-05-2.54056E-06-5.67326E-20-3.94330E-19
 -1      3296 9.40372E-05-2.13823E-05-3.11342E-05-3.92664E-06 1.12636E-19-3.97371E-19
 -1      3297 9.27885E-05-2.49309E-05-2.90745E-05-3.21348E-06 4.35017E-19-3.33224E-18
 -1      3298 9.23801E-05-2.45933E-05-2.90636E-05-2.77085E-06 1.00093E-18-2.54448E-18
 -1      3299 9.18227E-05-2.42776E-05-2.89425E-05-2.74556E-06 9.72717E-19-2.45678E-18
 -1      3300 9.27947E-05-2.50956E-05-2.90119E-05-3.75061E-06 5.10182E-19-1.50307E-18
 -1      3301 1.31128E-04-5.49103E-05-3.26038E-05 1.52027E-06 7.48896E-19-1.10742E-18
 -1      3302 1.21426E-04-2.52231E-05-4.13744E-05 1.34133E-05 1.19590E-19-1.81908E-18
 -1      3303 1.16529E-04-1.90521E-05-4.23212E-05 1.07251E-05 8.40680E-20-1.93989E-18
 -1      3304 9.52822E-05-2.84586E-05-2.86349E-05-1.68481E-06 7.70917E-19 9.16531E-19
 -1      3305 9.52395E-05-2.84838E-05-2.86106E-05-1.62748E-06 7.44438E-19 9.30504E-19
 -1      3306 9.54413E-05-2.85236E-05-2.86812E-05-1.60959E-06 5.52040E-19 7.61590E-19
 -1      3307 9.53685E-05-2.84144E-05-2.86962E-05-1.74413E-06 5.60053E-19 1.26042E-18
 -1      3308 1.24935E-04-3.10056E-05-4.08529E-05-1.33793E-05-1.86135E-18-7.04308E-19
 -1      3309 1.29678E-04-3.93837E-05-3.87071E-05-1.12031E-05-2.28201E-18 1.28167E-19
 -1      3310 1.14447E-04-1.38963E-05-4.33929E-05 6.12062E-06 3.59989E-21-1.89051E-18
 -1      3311 1.14040E-04-1.20481E-05-4.40947E-05-1.54482E-06-4.34740E-19-1.61179E-18
 -1      3312 9.55407E-05-2.55770E-05-2.99854E-05-2.00554E-06-1.12779E-19-3.55189E-19
 -1      3313 9.55870E-05-2.62343E-05-2.97317E-05-1.18275E-06-8.92371E-20-2.66715E-19
 -1      3314 9.57733E-05-2.61736E-05-2.98261E-05-1.02323E-06-8.75575E-20-2.65844E-19
 -1      3315 9.53573E-05-2.45469E-05-3.03374E-05-2.09367E-06 7.12971E-20-3.66627E-19
 -1      3316 4.23878E-05-1.23429E-05-1.25775E-05-7.52801E-06 1.14576E-18 1.90360E-18
 -1      3317 4.70397E-05-1.55926E-05-1.31820E-05-1.83210E-05 2.54216E-19-5.42525E-19
 -1      3318 1.26051E-04-5.59727E-05-3.03820E-05 1.19427E-05-1.13757E-18 4.93582E-19
 -1      3319 1.17141E-04-5.42193E-05-2.66821E-05 1.99992E-05 5.58248E-20-7.48575E-19
 -1      3320 1.25770E-04-5.29348E-05-3.11295E-05 5.38106E-06-1.15981E-18-3.84818E-19
 -1      3321 7.80568E-05-3.42742E-05-1.88505E-05 3.23500E-05 6.93879E-19 1.13349E-18
 -1      3322 6.55856E-05-2.59115E-05-1.64159E-05 2.90925E-05 9.19057E-19 4.99220E-19
 -1      3323 1.09029E-04-5.09011E-05-2.44640E-05-2.48618E-05-8.14634E-19 1.64008E-18
 -1      3324 1.19008E-04-5.54126E-05-2.76145E-05-1.80695E-05-4.73756E-19 2.03314E-18
 -1      3325 7.92053E-05-3.48116E-05-1.84758E-05-3.12695E-05-1.52577E-18-4.99061E-19
 -1      3326 9.47678E-05-4.45791E-05-2.16809E-05-3.05782E-05-1.15239E-18 6.93296E-19
 -1      3327 9.43119E-05-2.59963E-05-2.92736E-05 3.94751E-06 2.98844E-19-1.51955E-19
 -1      3328 9.52120E-05-2.42658E-05-3.04070E-05 4.27100E-06 4.88469E-19 3.70361E-19
 -1      3329 9.46466E-05-2.27247E-05-3.08136E-05 4.77217E-06 5.44332E-19 4.67360E-19
 -1      3330 9.49290E-05-2.35749E-05-3.05798E-05 3.66831E-06 4.40702E-19 4.23720E-19
 -1      3331 9.52401E-05-2.51873E-05-3.00361E-05 2.99470E-06 4.46443E-19 4.65283E-19
 -1      3332 1.09690E-04-5.27915E-05-2.40257E-05-2.77850E-05-4.77515E-19-6.93627E-19
 -1      3333 1.19917E-04-5.55995E-05-2.77925E-05-1.83790E-05-2.74253E-19-4.90207E-19
 -1      3334 1.04648E-04-4.88928E-05-2.36564E-05-2.73058E-05-5.78947E-19-5.57334E-19
 -1      3335 1.26876E-04-5.45247E-05-3.09293E-05-8.08212E-06-5.44543E-19-6.11981E-19
 -1      3336 1.30604E-04-5.12638E-05-3.44122E-05 6.65716E-07 2.94000E-19 5.63912E-19
 -1      3337 1.01586E-04-4.73306E-05-2.33148E-05 2.80505E-05 6.98379E-19-1.98587E-18
 -1      3338 8.91510E-05-3.96227E-05-2.08204E-05 2.98284E-05 8.53068E-19-8.01478E-19
 -1      3339 1.15485E-04-1.45917E-05-4.37782E-05-7.07170E-06-5.51313E-19-2.03476E-18
 -1      3340 1.19395E-04-2.06120E-05-4.24094E-05-1.23041E-05-1.01009E-18-1.90204E-18
 -1      3341 1.21521E-04-5.17608E-05-2.97998E-05-8.81742E-06-8.00565E-19 3.06639E-18
 -1      3342 9.22378E-05-1.80259E-05-3.18175E-05 4.07728E-07 4.46057E-19-7.16169E-20
 -1      3343 9.22325E-05-1.80433E-05-3.18161E-05-3.70921E-07 3.66061E-19-1.87508E-19
 -1      3344 9.31764E-05-1.95913E-05-3.15191E-05 6.27618E-07 4.49404E-19-4.73892E-21
 -1      3345 9.43766E-05-2.19699E-05-3.10062E-05 3.62992E-06 4.55617E-19 8.49814E-20
 -1      3346 9.34533E-05-2.02000E-05-3.14203E-05 4.23070E-06 5.11827E-19 8.00856E-21
 -1      3347 9.30965E-05-1.95354E-05-3.15364E-05 3.64736E-06 4.90218E-19-1.00793E-19
 -1      3348 1.27628E-04-4.65830E-05-3.48174E-05 5.57596E-06 5.81673E-21 1.93229E-21
 -1      3349 1.20675E-04-3.05970E-05-3.87677E-05 1.26671E-05-4.70262E-19-1.24523E-18
 -1      3350 6.24169E-05-2.17124E-05-1.71526E-05 2.30337E-05 1.18968E-18 3.49401E-20
 -1      3351 9.34525E-05-2.02521E-05-3.13831E-05-2.98950E-06 1.25844E-19-4.88587E-19
 -1      3352 9.37742E-05-2.08790E-05-3.12705E-05-3.55533E-06 1.29088E-19-4.71600E-19
 -1      3353 9.48543E-05-2.30485E-05-3.07509E-05-2.37232E-06 1.21033E-19-5.42732E-19
 -1      3354 1.11454E-04-1.59110E-05-4.12205E-05-3.75148E-06-2.21870E-19-1.20762E-18
 -1      3355 1.08076E-04-1.65402E-05-3.93987E-05-5.45859E-07 9.59794E-20-5.43037E-19
 -1      3356 9.24771E-05-2.45128E-05-2.91428E-05 3.35998E-06 1.39874E-18 5.09739E-18
 -1      3357 9.29821E-05-2.48962E-05-2.91679E-05 3.78874E-06 1.05144E-18 5.48132E-18
 -1      3358 1.22432E-04-3.88643E-05-3.60030E-05-1.13453E-05-1.81326E-18-7.42510E-19
 -1      3359 1.18468E-04-3.44827E-05-3.61761E-05-1.29622E-05-9.68119E-19-1.11751E-18
 -1      3360 1.16314E-04-2.88467E-05-3.75284E-05-1.26957E-05-1.11110E-18-1.08872E-18
 -1      3361 1.08483E-04-1.74649E-05-3.92344E-05 4.23452E-06 7.57565E-20-8.94368E-19
 -1      3362 7.47958E-05-2.97651E-05-1.89354E-05-2.71615E-05-1.27494E-18-2.31293E-19
 -1      3363 9.53621E-05-2.80942E-05-2.88206E-05-8.29949E-07 2.02819E-19 4.63775E-19
 -1      3364 9.56987E-05-2.79212E-05-2.90526E-05-5.83879E-07 1.09786E-19 3.89838E-19
 -1      3365 9.53383E-05-2.82445E-05-2.87553E-05-1.03567E-06 8.99624E-20 5.50487E-19
 -1      3366 9.57003E-05-2.72777E-05-2.93292E-05 1.61014E-07 2.73057E-19 4.00052E-19
 -1      3367 9.54212E-05-2.73068E-05-2.91985E-05 2.25413E-07 2.66611E-19 3.73189E-19
 -1      3368 9.54821E-05-2.69079E-05-2.93730E-05 8.00500E-07 2.92671E-19 4.61567E-19
 -1      3369 1.27733E-04-4.34936E-05-3.62001E-05-8.09383E-06-1.71034E-18-8.06269E-20
 -1      3370 9.55828E-05-2.84924E-05-2.87567E-05-1.31532E-06 2.70788E-19 4.93120E-19
 -1      3371 9.53026E-05-2.84366E-05-2.86560E-05-1.30821E-06 1.15492E-19 6.30586E-19
 -1      3372 9.53032E-05-2.83522E-05-2.86882E-05-1.19270E-06-1.97075E-20 5.17044E-19
 -1      3373 1.16294E-04-4.85253E-05-2.88689E-05-1.22530E-05-7.30715E-19 2.63498E-18
 -1      3374 1.09303E-04-4.66402E-05-2.70708E-05-1.82717E-05-1.11395E-18 1.86040E-18
 -1      3375 5.04129E-05-1.30824E-05-1.55436E-05-2.51258E-07 1.00477E-18 8.56139E-19
 -1      3376 9.30426E-05-1.94695E-05-3.15397E-05-1.86383E-06 1.26191E-19-3.12758E-19
 -1      3377 9.32512E-05-1.98711E-05-3.14725E-05-2.53234E-06 1.33007E-19-4.43270E-19
 -1      3378 9.45212E-05-2.21769E-05-3.09810E-05-1.73467E-06-3.24835E-20-3.75022E-19
 -1      3379 1.13416E-04-4.89272E-05-2.77443E-05 1.63399E-05 1.80357E-18-4.32490E-19
 -1      3380 9.51619E-05-2.65111E-05-2.94101E-05 5.62398E-06 4.19019E-19 6.61026E-19
 -1      3381 9.41355E-05-2.58034E-05-2.92912E-05 5.96112E-06 1.23607E-18 1.89862E-18
 -1      3382 9.48690E-05-2.63873E-05-2.93432E-05 5.19917E-06 2.03070E-19 3.38615E-19
 -1      3383 9.25811E-05-1.86188E-05-3.17091E-05 2.41507E-06 4.80936E-19-1.16535E-19
 -1      3384 9.33909E-05-1.99836E-05-3.14413E-05 1.79412E-06 4.50809E-19-4.91188E-20
 -1      3385 9.28177E-05-1.90352E-05-3.16400E-05 3.11629E-06 4.63453E-19-1.87328E-19
 -1      3386 9.17354E-05-2.39119E-05-2.90779E-05 2.12547E-06-6.86217E-20 2.96172E-18
 -1      3387 9.20495E-05-2.41515E-05-2.90968E-05 2.73525E-06 7.13135E-20 4.58156E-18
 -1      3388 9.18694E-05-2.41040E-05-2.90329E-05 3.31207E-06-1.65225E-20 3.56556E-18
 -1      3389 5.69126E-05-1.90286E-05-1.57660E-05-2.07061E-05 7.16008E-20-1.14466E-18
 -1      3390 9.14124E-05-2.36683E-05-2.90391E-05 6.55356E-07-5.50937E-19 2.73540E-19
 -1      3391 9.15186E-05-2.37442E-05-2.90495E-05 1.35443E-06-3.66339E-19 1.03173E-18
 -1      3392 9.11396E-05-2.35688E-05-2.89483E-05 1.86248E-06-9.11577E-19 1.45207E-18
 -1      3393 9.09068E-05-2.34363E-05-2.89054E-05 2.22601E-07-4.67907E-19 1.29850E-18
 -1      3394 1.10964E-04-4.99336E-05-2.59383E-05 2.06200E-05 2.04982E-19-1.23607E-18
 -1      3395 7.81436E-05-3.41982E-05-1.84427E-05-3.17731E-05 7.67147E-19-9.44706E-19
 -1      3396 8.39478E-05-3.34442E-05-2.13440E-05 2.61026E-05 1.29850E-18 3.63695E-19
 -1      3397 8.74768E-05-3.68537E-05-2.14683E-05 2.78784E-05 3.44584E-19-5.36489E-19
 -1      3398 4.67818E-05-1.21216E-05-1.43498E-05 3.82500E-06 1.23919E-18-2.03706E-18
 -1      3399 5.13603E-05-1.26351E-05-1.63659E-05-2.23606E-06 1.09149E-18-1.26388E-18
 -1      3400 5.13328E-05-1.36993E-05-1.61104E-05 9.48833E-06 1.68035E-18-1.17955E-18
 -1      3401 1.18879E-04-2.61587E-05-3.98710E-05-1.24785E-05-1.03110E-18-1.97618E-18
 -1      3402 1.12279E-04-1.80135E-05-4.05802E-05 7.45353E-06-4.95514E-20-1.46003E-18
 -1      3403 1.17775E-04-5.21856E-05-2.80772E-05-1.44201E-05-7.12341E-19-2.92726E-19
 -1      3404 1.23652E-04-5.47342E-05-2.94585E-05-1.13974E-05-4.71374E-19-1.00649E-18
 -1      3405 1.23563E-04-5.17158E-05-3.09493E-05-4.40854E-06-3.33255E-20-1.63788E-19
 -1      3406 9.53880E-05-2.64758E-05-2.95436E-05 1.34383E-06 3.92381E-19 3.07178E-19
 -1      3407 9.54284E-05-2.58613E-05-2.98005E-05 2.21913E-06 4.46003E-19 3.49115E-19
 -1      3408 9.53482E-05-2.51415E-05-3.00847E-05 2.59791E-06 4.16394E-19 5.15221E-19
 -1      3409 9.55961E-05-2.63712E-05-2.96732E-05 1.20366E-06 3.17303E-19 5.48754E-19
 -1      3410 1.36230E-04-5.00154E-05-3.70343E-05 1.01920E-05-3.54854E-19 1.55632E-18
 -1      3411 5.49369E-05-1.69129E-05-1.58670E-05-1.59833E-05-4.35838E-19-2.18640E-19
 -1      3412 1.01969E-04-4.52005E-05-2.40462E-05-2.46594E-05-1.42386E-18 1.25104E-18
 -1      3413 9.36505E-05-2.54828E-05-2.92351E-05 4.26052E-06 1.45334E-18 2.46949E-18
 -1      3414 9.46072E-05-2.62401E-05-2.92876E-05 4.50518E-06 1.92166E-19-9.16476E-19
 -1      3415 9.44286E-05-2.64062E-05-2.91532E-05-4.15528E-06-1.78521E-18-2.17529E-18
 -1      3416 9.40705E-05-2.60770E-05-2.91450E-05-4.00919E-06-2.70981E-19 8.96161E-19
 -1      3417 9.37045E-05-2.58514E-05-2.90773E-05-4.28963E-06-2.78359E-19 1.66661E-19
 -1      3418 9.44304E-05-2.64437E-05-2.91349E-05-4.54673E-06-1.72080E-18-2.03782E-18
 -1      3419 1.09579E-04-4.94842E-05-2.56155E-05 2.16169E-05 9.90896E-19-1.72179E-18
 -1      3420 1.24941E-04-4.54924E-05-3.40980E-05-6.31277E-06-1.59237E-18-5.35298E-19
 -1      3421 5.66854E-05-1.65507E-05-1.71216E-05-1.58635E-05 2.38757E-19-4.35640E-19
 -1      3422 6.39003E-05-2.23016E-05-1.77363E-05-2.41483E-05 2.51886E-19-1.98386E-18
 -1      3423 1.02485E-04-4.22263E-05-2.56662E-05 2.09132E-05 1.41590E-18-2.02388E-19
 -1      3424 9.31166E-05-2.50616E-05-2.91618E-05 4.45015E-06 1.76106E-18 3.99020E-18
 -1      3425 9.61538E-05-2.77052E-05-2.93286E-05 3.51635E-07-2.29042E-20-2.55927E-19
 -1      3426 9.61439E-05-2.79976E-05-2.92095E-05 6.33798E-07-7.01500E-20-2.45893E-19
 -1      3427 9.61354E-05-2.82274E-05-2.90985E-05 8.27395E-07-1.39199E-19-3.20098E-19
 -1      3428 9.60967E-05-2.83910E-05-2.90183E-05 1.00360E-06-1.33119E-19-2.46536E-19
 -1      3429 9.63168E-05-2.80265E-05-2.92687E-05 6.23526E-07-7.89799E-20-1.34393E-19
 -1      3430 9.60385E-05-2.85012E-05-2.89416E-05 1.12419E-06-9.73663E-20-3.41906E-19
 -1      3431 9.59855E-05-2.85715E-05-2.88915E-05 1.23490E-06 7.63126E-21-4.28571E-19
 -1      3432 9.62523E-05-2.84142E-05-2.90752E-05 9.56209E-07-1.06634E-19-2.16323E-20
 -1      3433 9.58953E-05-2.85947E-05-2.88419E-05 1.31375E-06 1.17778E-19-7.20197E-19
 -1      3434 9.58348E-05-2.85964E-05-2.88150E-05 1.39137E-06-1.01236E-20-4.07492E-19
 -1      3435 9.61067E-05-2.85756E-05-2.89435E-05 1.17168E-06 4.27234E-21-5.51804E-19
 -1      3436 9.57226E-05-2.85549E-05-2.87865E-05 1.45414E-06-1.25010E-19-4.89871E-20
 -1      3437 9.56576E-05-2.85052E-05-2.87773E-05 1.52422E-06-1.06141E-19 1.62408E-19
 -1      3438 9.59073E-05-2.85692E-05-2.88605E-05 1.32618E-06 8.78232E-20-3.73542E-19
 -1      3439 9.55283E-05-2.84144E-05-2.87647E-05 1.59158E-06-1.09019E-19 4.77287E-19
 -1      3440 9.54596E-05-2.83254E-05-2.87688E-05 1.67411E-06-6.54285E-20 4.79044E-19
 -1      3441 9.56687E-05-2.84359E-05-2.88149E-05 1.46588E-06 1.21382E-19 3.21751E-19
 -1      3442 9.53145E-05-2.81962E-05-2.87677E-05 1.76266E-06-2.04817E-19 5.13958E-19
 -1      3443 9.52423E-05-2.80773E-05-2.87814E-05 1.87322E-06-2.55442E-20 4.03657E-19
 -1      3444 9.53970E-05-2.82048E-05-2.87969E-05 1.62800E-06-1.29466E-20 8.31583E-20
 -1      3445 9.50810E-05-2.79182E-05-2.87878E-05 1.99645E-06-5.66636E-20 1.71189E-19
 -1      3446 9.50055E-05-2.77776E-05-2.88079E-05 2.14715E-06-2.70478E-19 2.36695E-19
 -1      3447 9.50933E-05-2.78973E-05-2.87979E-05 1.84264E-06 5.46907E-21-2.37996E-19
 -1      3448 9.48273E-05-2.75968E-05-2.88177E-05 2.31619E-06-5.84714E-19 5.01709E-19
 -1      3449 9.47500E-05-2.74441E-05-2.88408E-05 2.51612E-06-7.96439E-19 3.86048E-19
 -1      3450 9.47563E-05-2.75318E-05-2.88095E-05 2.13451E-06-3.58684E-19 2.39178E-19
 -1      3451 9.45556E-05-2.72518E-05-2.88499E-05 2.74025E-06-7.46236E-19 2.21508E-20
 -1      3452 9.44812E-05-2.71001E-05-2.88725E-05 2.99555E-06-5.52243E-19-6.06010E-20
 -1      3453 9.43856E-05-2.71282E-05-2.88230E-05 2.52423E-06-8.48165E-19 3.48974E-19
 -1      3454 9.42747E-05-2.69114E-05-2.88760E-05 3.28252E-06-6.27834E-19-1.48478E-19
 -1      3455 9.42131E-05-2.67802E-05-2.88939E-05 3.59617E-06-7.81775E-19-1.20826E-19
 -1      3456 9.39857E-05-2.67133E-05-2.88292E-05 3.02938E-06-5.73581E-19-2.66349E-19
 -1      3457 9.40052E-05-2.66182E-05-2.88864E-05 3.95231E-06-8.06651E-19 2.10711E-19
 -1      3458 9.39747E-05-2.65368E-05-2.88949E-05 4.32338E-06-8.02983E-19 2.91939E-19
 -1      3459 9.35707E-05-2.63265E-05-2.88171E-05 3.66526E-06-4.86708E-19 3.12809E-20
 -1      3460 9.37873E-05-2.64368E-05-2.88704E-05 4.75352E-06-4.83281E-19 5.72905E-19
 -1      3461 9.38196E-05-2.64492E-05-2.88644E-05 5.17597E-06 1.11931E-19 5.39136E-19
 -1      3462 9.31716E-05-2.60281E-05-2.87748E-05 4.44549E-06-4.81204E-19 1.21943E-18
 -1      3463 9.36914E-05-2.64632E-05-2.88165E-05 5.68288E-06-4.72905E-20 3.46205E-19
 -1      3464 9.38380E-05-2.66322E-05-2.87914E-05 6.14342E-06 3.39274E-20-1.05416E-19
 -1      3465 9.28463E-05-2.59078E-05-2.86892E-05 5.38236E-06-7.01565E-20 1.03223E-18
 -1      3466 9.38331E-05-2.68341E-05-2.87151E-05 6.72586E-06 3.16840E-19-2.18030E-19
 -1      3467 9.41725E-05-2.72452E-05-2.86688E-05 7.19970E-06 4.59618E-19-4.71081E-19
 -1      3468 9.26940E-05-2.60955E-05-2.85479E-05 6.48579E-06 7.73940E-20 1.43662E-19
 -1      3469 9.43926E-05-2.77345E-05-2.85628E-05 7.84687E-06 5.78409E-19-5.71139E-19
 -1      3470 9.50374E-05-2.84967E-05-2.84993E-05 8.28895E-06 8.41910E-19-8.31830E-19
 -1      3471 9.28745E-05-2.67724E-05-2.83432E-05 7.75827E-06 4.25539E-19-4.05979E-19
 -1      3472 9.56358E-05-2.93981E-05-2.83712E-05 8.96547E-06 1.26231E-18-1.04997E-18
 -1      3473 9.67325E-05-3.06325E-05-2.83073E-05 9.29223E-06 1.18111E-18-1.15894E-18
 -1      3474 9.36349E-05-2.81795E-05-2.80794E-05 9.17825E-06 9.01863E-19-9.50335E-19
 -1      3475 9.79274E-05-3.20806E-05-2.81836E-05 9.90285E-06 6.17898E-19-1.32564E-18
 -1      3476 9.96370E-05-3.38815E-05-2.81605E-05 9.95892E-06 1.24083E-19-7.94777E-19
 -1      3477 9.53408E-05-3.06127E-05-2.77875E-05 1.06554E-05 7.59696E-19-1.83492E-18
 -1      3478 1.01705E-04-3.59688E-05-2.81044E-05 1.03013E-05 4.31805E-20-6.73676E-19
 -1      3479 1.04137E-04-3.83146E-05-2.82020E-05 9.80792E-06 1.56135E-19-5.12453E-19
 -1      3480 9.84696E-05-3.43484E-05-2.75528E-05 1.19363E-05 4.73790E-19-1.51009E-18
 -1      3481 1.07492E-04-4.10676E-05-2.83507E-05 9.38196E-06-1.46904E-19-2.98632E-19
 -1      3482 1.10596E-04-4.33079E-05-2.87641E-05 7.65482E-06-8.92578E-20 1.81536E-19
 -1      3483 1.03680E-04-3.96299E-05-2.75606E-05 1.24933E-05 2.19911E-19-1.21063E-19
 -1      3484 1.23693E-04-4.84613E-05-3.24606E-05-2.13563E-06-8.11825E-19-6.49360E-19
 -1      3485 1.17133E-04-2.87221E-05-3.80507E-05 1.30449E-05-4.56313E-19-1.83811E-18
 -1      3486 1.21317E-04-4.79458E-05-3.14492E-05 1.95846E-07-2.64243E-20-7.56030E-19
 -1      3487 1.19022E-04-4.81801E-05-3.02071E-05-3.35958E-06-2.13876E-19-3.15718E-19
 -1      3488 1.14307E-04-4.59909E-05-2.92529E-05-6.20735E-06-3.99720E-19-5.27278E-19
 -1      3489 1.11213E-04-4.40104E-05-2.86433E-05-8.46774E-06-7.98974E-20 9.67934E-20
 -1      3490 1.15096E-04-4.87218E-05-2.86005E-05-1.03359E-05-2.93270E-19-4.86812E-19
 -1      3491 1.07369E-04-4.11578E-05-2.83341E-05-9.39823E-06-5.70225E-19 1.23680E-20
 -1      3492 1.04514E-04-3.87339E-05-2.80953E-05-1.05277E-05-1.01262E-18-7.25485E-19
 -1      3493 1.06301E-04-4.27192E-05-2.74318E-05-1.35572E-05-2.70806E-19-1.33838E-18
 -1      3494 1.01924E-04-3.62354E-05-2.80968E-05-1.03147E-05-8.07973E-19-2.74402E-19
 -1      3495 9.97428E-05-3.41669E-05-2.80551E-05-1.06674E-05-4.24330E-19-1.43493E-18
 -1      3496 9.99404E-05-3.66349E-05-2.72508E-05-1.34277E-05-1.33814E-19-1.04232E-18
 -1      3497 9.82018E-05-3.23378E-05-2.81790E-05-1.00162E-05-6.58115E-19-2.02972E-18
 -1      3498 9.67229E-05-3.08207E-05-2.82240E-05-9.92546E-06-1.05433E-18-2.86968E-18
 -1      3499 9.60153E-05-3.20656E-05-2.74694E-05-1.20916E-05-1.38426E-18-1.44064E-18
 -1      3500 9.59169E-05-2.96134E-05-2.83794E-05-9.16463E-06-5.12206E-19-2.91547E-18
 -1      3501 9.49999E-05-2.86090E-05-2.84496E-05-8.84680E-06-4.73431E-19-2.10255E-18
 -1      3502 9.38533E-05-2.90170E-05-2.78146E-05-1.04353E-05-8.44520E-19-2.98666E-18
 -1      3503 9.46689E-05-2.78895E-05-2.85948E-05-8.11421E-06-7.16246E-19-1.14424E-18
 -1      3504 9.41479E-05-2.72831E-05-2.86611E-05-7.69347E-06-3.36384E-19-5.31941E-20
 -1      3505 9.28569E-05-2.71657E-05-2.81619E-05-8.82998E-06-7.12203E-20-1.40095E-18
 -1      3506 9.41015E-05-2.69052E-05-2.87821E-05-7.03488E-06-8.62878E-20-5.15753E-19
 -1      3507 9.38366E-05-2.65733E-05-2.88347E-05-6.57732E-06 2.58551E-19-9.32922E-19
 -1      3508 9.25754E-05-2.61605E-05-2.84620E-05-7.40021E-06-2.38641E-19-9.40654E-19
 -1      3509 9.39411E-05-2.64156E-05-2.89308E-05-5.99900E-06-4.63257E-19-1.10024E-18
 -1      3510 9.38445E-05-2.62576E-05-2.89711E-05-5.53479E-06-4.77845E-19-2.46614E-18
 -1      3511 9.26999E-05-2.57066E-05-2.87057E-05-6.15979E-06-3.50222E-19-9.28167E-19
 -1      3512 5.41744E-05-1.33859E-05-1.74955E-05 4.91402E-06 1.75346E-20 5.46336E-19
 -1      3513 5.36370E-05-1.32144E-05-1.70649E-05-6.41803E-06 6.91497E-19 5.64495E-19
 -1      3514 9.50763E-05-2.78171E-05-2.88210E-05-2.19829E-06-1.80916E-19 6.80672E-19
 -1      3515 9.51274E-05-2.79615E-05-2.87895E-05-2.04216E-06 8.96004E-20 5.36614E-19
 -1      3516 9.52701E-05-2.81212E-05-2.87742E-05-1.92008E-06 3.60857E-19 7.02110E-19
 -1      3517 9.53133E-05-2.82336E-05-2.87514E-05-1.80903E-06 3.60017E-19 7.29186E-19
 -1      3518 9.51434E-05-2.79432E-05-2.87995E-05-1.91715E-06 2.85413E-19 8.18736E-19
 -1      3519 9.45545E-05-2.70078E-05-2.89435E-05-3.09064E-06-2.61153E-19 3.06137E-19
 -1      3520 9.46358E-05-2.72121E-05-2.89028E-05-2.80987E-06-4.25056E-19 4.04541E-19
 -1      3521 9.41951E-05-2.65075E-05-2.90036E-05-3.74239E-06 1.04188E-19 2.58236E-19
 -1      3522 9.42999E-05-2.67376E-05-2.89637E-05-3.38602E-06 7.69999E-20 3.28472E-19
 -1      3523 9.40057E-05-2.65517E-05-2.89043E-05-3.11358E-06-1.02186E-19 1.32253E-19
 -1      3524 9.37486E-05-2.59570E-05-2.90477E-05-4.55083E-06 1.26959E-19 2.24625E-19
 -1      3525 9.38808E-05-2.62042E-05-2.90145E-05-4.11277E-06 5.98114E-20-1.92572E-19
 -1      3526 9.34435E-05-2.59347E-05-2.89259E-05-3.75999E-06 3.19096E-19 2.65771E-20
 -1      3527 9.32049E-05-2.53855E-05-2.90589E-05-5.52756E-06-3.73322E-19 2.67452E-19
 -1      3528 9.33638E-05-2.56308E-05-2.90406E-05-5.00388E-06-8.14533E-20 1.94853E-19
 -1      3529 9.27521E-05-2.52581E-05-2.89173E-05-4.55439E-06-2.11461E-19 2.80776E-19
 -1      3530 9.25711E-05-2.48540E-05-2.90135E-05-6.68436E-06-6.95139E-19 1.60762E-18
 -1      3531 9.27436E-05-2.50600E-05-2.90216E-05-6.07278E-06-3.48239E-19 1.05796E-18
 -1      3532 9.19138E-05-2.45555E-05-2.88568E-05-5.51225E-06-8.21244E-19 5.63366E-19
 -1      3533 9.18907E-05-2.44762E-05-2.88804E-05-8.03887E-06-3.30706E-19 2.13373E-18
 -1      3534 9.20391E-05-2.45746E-05-2.89299E-05-7.33708E-06-6.09254E-19 1.87644E-18
 -1      3535 9.09256E-05-2.38936E-05-2.87150E-05-6.65788E-06-8.39594E-19 9.62742E-19
 -1      3536 9.12780E-05-2.44512E-05-2.86218E-05-9.62494E-06 4.75957E-19 1.51141E-18
 -1      3537 9.13179E-05-2.43242E-05-2.87299E-05-8.82795E-06 3.45150E-19 1.71377E-18
 -1      3538 8.98171E-05-2.33936E-05-2.84535E-05-8.03833E-06 1.15177E-19 1.09595E-18
 -1      3539 9.09759E-05-2.51049E-05-2.81987E-05-1.14991E-05 1.01445E-20 2.19003E-18
 -1      3540 9.07425E-05-2.45643E-05-2.83806E-05-1.05996E-05 1.70438E-19 1.89075E-18
 -1      3541 8.86852E-05-2.32672E-05-2.80252E-05-9.74425E-06 2.86310E-19 9.58283E-19
 -1      3542 9.14418E-05-2.69450E-05-2.75859E-05-1.37536E-05-6.89509E-19 2.04796E-18
 -1      3543 9.06318E-05-2.56941E-05-2.78439E-05-1.27485E-05-3.80732E-19 2.06337E-18
 -1      3544 8.77361E-05-2.38429E-05-2.73790E-05-1.19358E-05-8.89493E-20 1.34075E-18
 -1      3545 9.34951E-05-3.07278E-05-2.68107E-05-1.64030E-05-8.68295E-19 1.73877E-18
 -1      3546 9.16284E-05-2.83707E-05-2.71061E-05-1.53859E-05-3.74782E-19 1.96475E-18
 -1      3547 8.74066E-05-2.56763E-05-2.64689E-05-1.48945E-05-6.62156E-19 1.12622E-18
 -1      3548 9.85240E-05-3.73103E-05-2.60925E-05-1.91039E-05-1.19225E-18 1.65521E-18
 -1      3549 9.48112E-05-3.34367E-05-2.62455E-05-1.84003E-05-1.03534E-18 1.68773E-18
 -1      3550 8.86280E-05-2.96501E-05-2.52923E-05-1.88442E-05-7.76928E-19 1.37446E-18
 -1      3551 9.25241E-05-2.89973E-05-2.72138E-05 1.56691E-05 1.42913E-18 4.18560E-19
 -1      3552 9.45315E-05-3.14399E-05-2.69454E-05 1.65582E-05 1.56949E-18 4.60729E-19
 -1      3553 9.57097E-05-2.85830E-05-2.87669E-05-1.44451E-06 5.18263E-19 4.85093E-19
 -1      3554 9.57472E-05-2.85716E-05-2.87880E-05-1.36719E-06 4.73187E-19 4.19034E-19
 -1      3555 9.58011E-05-3.40966E-05-2.63710E-05 1.85234E-05 1.56834E-18 9.85586E-19
 -1      3556 9.95649E-05-3.80569E-05-2.62196E-05 1.90497E-05 1.82816E-18 2.28993E-19
 -1      3557 9.36268E-05-3.76248E-05-2.40957E-05 2.39422E-05 1.29948E-18-7.18218E-19
 -1      3558 8.95390E-05-3.03282E-05-2.53928E-05 1.91373E-05 2.10347E-18 1.96955E-19
 -1      3559 9.12656E-05-2.49242E-05-2.84489E-05 1.10537E-05 2.99071E-19-3.31960E-19
 -1      3560 9.15657E-05-2.55209E-05-2.82726E-05 1.19240E-05 7.56481E-19 7.37566E-19
 -1      3561 9.17489E-05-2.45876E-05-2.88008E-05 9.29769E-06 5.81814E-19-7.39662E-19
 -1      3562 9.17578E-05-2.47648E-05-2.86923E-05 1.00845E-05 6.23992E-20-8.43870E-19
 -1      3563 8.92136E-05-2.36226E-05-2.81021E-05 1.02446E-05 3.05413E-19 2.85960E-19
 -1      3564 9.23993E-05-2.47296E-05-2.90168E-05 7.79207E-06-2.92373E-19 1.73315E-18
 -1      3565 9.22912E-05-2.46862E-05-2.89604E-05 8.50721E-06-2.81717E-20 8.08539E-19
 -1      3566 9.02780E-05-2.36489E-05-2.85443E-05 8.53452E-06-6.87614E-19 3.53087E-19
 -1      3567 9.30391E-05-2.50753E-05-2.91383E-05 6.48346E-06 1.58376E-18 2.37516E-18
 -1      3568 9.29089E-05-2.49452E-05-2.91167E-05 7.12674E-06 8.36543E-19 2.34676E-18
 -1      3569 9.13267E-05-2.40317E-05-2.88356E-05 7.13568E-06 3.62616E-19 1.57104E-18
 -1      3570 9.48140E-05-2.63362E-05-2.93300E-05 4.92283E-06 4.08924E-19-3.80595E-19
 -1      3571 1.15334E-04-5.11116E-05-2.77975E-05 1.47479E-05-3.31633E-19-3.08386E-19
 -1      3572 1.05955E-04-4.58796E-05-2.54923E-05 2.04908E-05 3.83597E-19-1.18888E-18
 -1      3573 9.06802E-05-2.35405E-05-2.87687E-05-1.96950E-06 8.52793E-19-5.30808E-19
 -1      3574 9.03997E-05-2.33280E-05-2.87564E-05-1.20660E-06 2.50084E-19 4.17178E-19
 -1      3575 9.13061E-05-2.61790E-05-2.79225E-05 1.31502E-05 2.39127E-19 1.05604E-18
 -1      3576 9.22051E-05-2.74917E-05-2.76779E-05 1.40851E-05 6.88675E-19 5.58298E-19
 -1      3577 8.82712E-05-2.63188E-05-2.65619E-05 1.53056E-05 1.11100E-18-1.49260E-19
 -1      3578 9.48427E-05-2.74456E-05-2.88797E-05-2.58164E-06-3.76929E-19 3.38268E-19
 -1      3579 9.49062E-05-2.76206E-05-2.88421E-05-2.36828E-06-1.96941E-19 4.44137E-19
 -1      3580 9.48343E-05-2.75590E-05-2.88306E-05-2.20877E-06-1.91220E-19 5.55042E-19
 -1      3581 9.44618E-05-2.70948E-05-2.88686E-05-2.60155E-06-3.62367E-19 2.08375E-19
 -1      3582 9.52930E-05-2.45449E-05-3.03173E-05 2.85789E-06 4.20076E-19 4.51700E-19
 -1      3583 9.49989E-05-2.37023E-05-3.05633E-05 3.08045E-06 4.07514E-19 3.52581E-19
 -1      3584 9.54455E-05-2.52670E-05-3.00814E-05 2.05374E-06 3.75819E-19 5.15568E-19
 -1      3585 6.95365E-05-2.40309E-05-1.92135E-05-2.32071E-05-8.55086E-19 3.90429E-20
 -1      3586 8.25532E-05-3.22169E-05-2.15006E-05-2.56155E-05-1.53194E-18 7.70271E-20
 -1      3587 6.89683E-05-2.32739E-05-1.95684E-05 2.21034E-05 1.33932E-18 4.55280E-20
 -1      3588 5.85948E-05-1.66953E-05-1.74629E-05 1.68607E-05 1.44263E-18-6.90597E-19
 -1      3589 9.60340E-05-2.68356E-05-2.96529E-05-3.87098E-07-2.43001E-20-3.16713E-19
 -1      3590 9.60823E-05-2.73047E-05-2.94824E-05 5.08738E-08 3.56495E-20-3.40411E-19
 -1      3591 9.62565E-05-2.73334E-05-2.95393E-05 1.08217E-07 5.35967E-21-2.29049E-19
 -1      3592 9.85760E-05-4.05021E-05-2.47520E-05-2.25542E-05-1.69195E-18 1.19720E-18
 -1      3593 9.51152E-05-2.36286E-05-3.06336E-05-1.77204E-06 7.58008E-21-6.88091E-19
 -1      3594 9.52714E-05-2.41565E-05-3.04931E-05-1.98071E-06 6.39733E-20-5.81275E-19
 -1      3595 9.55870E-05-2.50563E-05-3.02246E-05-1.45425E-06-5.30014E-20-5.32525E-19
 -1      3596 8.13010E-05-2.92217E-05-2.22271E-05 2.30512E-05 1.30571E-18 2.29043E-19
 -1      3597 6.82168E-05-2.09476E-05-2.02489E-05 1.83538E-05 1.63161E-18 9.95131E-19
 -1      3598 6.03494E-05-1.57957E-05-1.87261E-05 1.24128E-05 1.13145E-18 9.48571E-19
 -1      3599 1.20295E-04-4.96055E-05-3.01275E-05 4.71750E-06-7.79932E-19-4.28506E-19
 -1      3600 7.38944E-05-2.93419E-05-1.88362E-05-2.85092E-05 6.85514E-19-8.66515E-19
 -1      3601 8.65878E-05-3.82761E-05-2.08000E-05-3.07118E-05 3.55013E-19-2.56995E-19
 -1      3602 9.25676E-05-1.86038E-05-3.17062E-05-8.11017E-07 3.03044E-19-1.76469E-19
 -1      3603 9.26702E-05-1.88164E-05-3.16734E-05-1.54509E-06 2.12551E-19-2.38647E-19
 -1      3604 9.40692E-05-2.12355E-05-3.11938E-05-1.08684E-06 1.83721E-19-5.02053E-20
 -1      3605 9.34529E-05-2.00762E-05-3.14280E-05-3.97282E-07 2.87257E-19-9.82860E-20
 -1      3606 5.72649E-05-1.55332E-05-1.77448E-05-1.23216E-05 3.13508E-19 1.89947E-19
 -1      3607 6.25562E-05-1.95474E-05-1.83222E-05-1.93641E-05-3.34207E-19 7.97799E-19
 -1      3608 7.16811E-05-2.25800E-05-2.07950E-05-1.90059E-05-2.59076E-19 6.34269E-19
 -1      3609 9.41622E-05-3.96818E-05-2.35655E-05 2.49866E-05 1.30112E-19-1.59795E-18
 -1      3610 8.25128E-05-3.14447E-05-2.16930E-05 2.49580E-05 3.50655E-19-6.26751E-19
 -1      3611 9.81588E-05-4.40976E-05-2.28349E-05-2.80058E-05-1.81768E-19-7.85663E-19
 -1      3612 1.08120E-04-4.88648E-05-2.54838E-05-2.20206E-05-6.68038E-19-2.78502E-19
 -1      3613 9.34359E-05-3.95460E-05-2.28734E-05-2.59999E-05-1.03656E-19-2.65545E-19
 -1      3614 1.16174E-04-4.73001E-05-2.94554E-05 6.09145E-06-6.88625E-19-2.55579E-19
 -1      3615 9.47677E-05-2.30433E-05-3.07389E-05 2.85822E-06 3.70245E-19 5.97530E-20
 -1      3616 6.02468E-05-1.57882E-05-1.87641E-05-1.02471E-05 6.10790E-20 8.19240E-20
 -1      3617 8.97519E-05-3.55092E-05-2.31985E-05-2.45286E-05-1.61226E-18 5.42405E-19
 -1      3618 1.24116E-04-4.74410E-05-3.27126E-05 3.60237E-06 2.00376E-20-7.45376E-19
 -1      3619 8.83861E-05-2.43268E-05-2.74555E-05 1.24262E-05 3.54646E-19-8.74362E-19
 -1      3620 1.08829E-04-4.47924E-05-2.74680E-05 1.36775E-05-1.40819E-19-1.32908E-19
 -1      3621 1.12721E-04-4.55645E-05-2.86370E-05 8.85348E-06-3.36590E-19 2.97355E-19
 -1      3622 9.56183E-05-2.85513E-05-2.87432E-05-1.50808E-06 5.21994E-19 8.85540E-19
 -1      3623 9.58243E-05-2.85708E-05-2.88246E-05-1.40448E-06 3.50189E-19 4.53986E-19
 -1      3624 9.55807E-05-2.85135E-05-2.87405E-05-1.57598E-06 3.49524E-19 8.92432E-19
 -1      3625 9.56491E-05-2.82981E-05-2.88691E-05-1.04251E-06 4.41099E-20 3.22771E-19
 -1      3626 9.23006E-05-2.45283E-05-2.90608E-05 4.60807E-06 1.81448E-18 4.72135E-18
 -1      3627 9.31860E-05-2.51465E-05-2.91533E-05 5.08826E-06 1.60231E-18 3.30199E-18
 -1      3628 8.34093E-05-2.94280E-05-2.31524E-05-2.18826E-05-9.46440E-19 5.67883E-19
 -1      3629 6.21535E-05-1.53369E-05-1.98925E-05 6.69282E-06 1.07631E-18 1.25342E-18
 -1      3630 9.59097E-05-2.73018E-05-2.94104E-05 2.16660E-08 2.22559E-19 2.23363E-19
 -1      3631 9.58941E-05-2.68479E-05-2.95800E-05 4.99188E-07 3.20084E-19 1.82318E-19
 -1      3632 9.58215E-05-2.85418E-05-2.88338E-05-1.28297E-06 2.95986E-19 2.59985E-19
 -1      3633 9.58584E-05-2.84665E-05-2.88787E-05-1.16810E-06 4.07014E-21 1.39073E-19
 -1      3634 9.59864E-05-2.85586E-05-2.88998E-05-1.24193E-06 1.16976E-19-3.87997E-20
 -1      3635 9.54049E-05-2.82451E-05-2.87831E-05-1.70490E-06 7.03153E-19 8.40723E-19
 -1      3636 9.54355E-05-2.83554E-05-2.87453E-05-1.72251E-06 5.77020E-19 1.00303E-18
 -1      3637 9.54746E-05-2.84331E-05-2.87337E-05-1.64190E-06 6.08064E-19 1.01654E-18
 -1      3638 9.15925E-05-2.40051E-05-2.89597E-05 3.96088E-06 6.60566E-19 2.47960E-18
 -1      3639 9.15545E-05-2.40162E-05-2.89339E-05 4.67836E-06 7.90799E-19 2.14252E-18
 -1      3640 9.10309E-05-2.36245E-05-2.89000E-05 3.30239E-06-6.44598E-19 2.41980E-18
 -1      3641 9.59685E-05-2.76860E-05-2.92553E-05-3.22108E-07 8.95677E-20 2.32802E-19
 -1      3642 9.61090E-05-2.73066E-05-2.94880E-05-4.38495E-08 1.80528E-19 9.08141E-21
 -1      3643 9.59498E-05-2.79690E-05-2.91385E-05-6.28606E-07 1.27902E-19 3.25496E-19
 -1      3644 1.23070E-04-4.23137E-05-3.48725E-05 8.88787E-06-1.95274E-19-1.46716E-18
 -1      3645 1.22966E-04-3.72632E-05-3.68257E-05 1.23273E-05-2.41669E-19-1.19016E-18
 -1      3646 5.71339E-05-1.41686E-05-1.81042E-05-7.77200E-06 2.93682E-19-2.34284E-19
 -1      3647 6.35211E-05-1.63222E-05-2.02140E-05-1.12074E-05 2.57388E-19 1.00545E-18
 -1      3648 5.77429E-05-1.36543E-05-1.89158E-05-2.03897E-06 1.09277E-18-5.93638E-19
 -1      3649 9.38985E-05-2.10069E-05-3.12494E-05 8.03517E-07 4.68616E-19 5.54666E-20
 -1      3650 9.38495E-05-2.09260E-05-3.12675E-05 2.46015E-07 4.70301E-19-7.66537E-20
 -1      3651 9.39587E-05-2.57400E-05-2.92576E-05 5.16042E-06 1.25966E-18 1.22060E-18
 -1      3652 9.32995E-05-2.52051E-05-2.91751E-05 5.90773E-06 1.45974E-18 2.66378E-18
 -1      3653 9.20685E-05-2.44251E-05-2.89956E-05 5.89568E-06 1.19095E-18 2.98571E-18
 -1      3654 9.11121E-05-2.39329E-05-2.88045E-05-2.76887E-06 1.81065E-19-1.32596E-18
 -1      3655 9.03923E-05-2.35260E-05-2.86530E-05-2.65478E-06-3.27868E-19-1.75358E-18
 -1      3656 9.16027E-05-2.42921E-05-2.88373E-05-3.38033E-06 2.47881E-19-2.95334E-18
 -1      3657 9.37993E-05-2.07676E-05-3.12769E-05 2.83776E-06 4.33065E-19-1.46543E-19
 -1      3658 9.41171E-05-2.14740E-05-3.11474E-05 1.74990E-06 3.67044E-19-2.08648E-19
 -1      3659 9.39796E-05-2.11802E-05-3.12076E-05 1.23607E-06 3.89232E-19-2.92054E-20
 -1      3660 9.46295E-05-2.23271E-05-3.09688E-05 8.18482E-07 3.47430E-19-3.93479E-20
 -1      3661 9.02214E-05-2.31310E-05-2.87534E-05-2.51831E-07-4.35926E-19 1.79076E-18
 -1      3662 9.02043E-05-2.31038E-05-2.87648E-05 5.95517E-07-1.17739E-18 1.86334E-18
 -1      3663 8.96982E-05-2.29286E-05-2.86089E-05-8.62003E-07-1.14377E-18 1.51830E-18
 -1      3664 5.91170E-05-1.55444E-05-1.84933E-05 1.07515E-05 1.53214E-18-1.03634E-18
 -1      3665 7.71456E-05-2.68650E-05-2.14115E-05 2.28653E-05 5.87841E-19-5.67750E-19
 -1      3666 7.21678E-05-2.20663E-05-2.15085E-05 1.78641E-05 7.08838E-19-1.00532E-18
 -1      3667 8.43173E-05-2.95574E-05-2.33517E-05 2.02838E-05 2.41828E-19-1.77087E-18
 -1      3668 7.33740E-05-2.62345E-05-1.98892E-05-2.39915E-05 2.64962E-20-1.28664E-18
 -1      3669 1.13064E-04-4.95577E-05-2.71210E-05-1.63957E-05-2.07073E-19-4.23740E-19
 -1      3670 8.46494E-05-2.79905E-05-2.41772E-05 1.92436E-05 2.53073E-18 1.92710E-19
 -1      3671 7.53425E-05-2.42384E-05-2.17523E-05 2.03170E-05 1.88319E-18 4.31418E-19
 -1      3672 7.26964E-05-2.06098E-05-2.23792E-05 1.55026E-05 1.49649E-18 1.40934E-18
 -1      3673 8.35104E-05-2.56777E-05-2.48521E-05 1.71229E-05 2.14242E-18 1.43079E-19
 -1      3674 9.50031E-05-2.33117E-05-3.07384E-05-1.54346E-06 5.62613E-20-3.75880E-19
 -1      3675 9.54521E-05-2.43032E-05-3.04862E-05-1.19275E-06 8.11042E-20-4.19170E-19
 -1      3676 9.48761E-05-2.29536E-05-3.08243E-05-1.21624E-06 1.24048E-19-2.14286E-19
 -1      3677 9.58100E-05-2.57216E-05-3.00411E-05-1.13984E-06-4.42808E-20-3.81281E-19
 -1      3678 9.59200E-05-2.63662E-05-2.98125E-05-6.59282E-07-6.81476E-20-4.05999E-19
 -1      3679 9.60712E-05-2.63928E-05-2.98594E-05-5.04613E-07 1.15765E-20-3.67915E-19
 -1      3680 9.57563E-05-2.52868E-05-3.01968E-05-1.08726E-06-2.09497E-20-7.47425E-19
 -1      3681 1.06916E-04-4.53445E-05-2.62913E-05-1.79847E-05 4.65166E-19-3.28821E-19
 -1      3682 1.00399E-04-4.11224E-05-2.53134E-05 1.97841E-05 2.00297E-19-1.36869E-18
 -1      3683 8.89480E-05-2.28279E-05-2.83600E-05 7.29551E-06-9.18181E-19 8.41803E-19
 -1      3684 8.83871E-05-2.26431E-05-2.81675E-05 8.00988E-06-3.15870E-19 9.22152E-19
 -1      3685 9.64646E-05-2.78252E-05-2.94132E-05 4.15450E-07 1.25495E-19-1.56299E-19
 -1      3686 9.64584E-05-2.81081E-05-2.92962E-05 6.28727E-07-8.87770E-20-1.39511E-19
 -1      3687 7.10520E-05-1.99424E-05-2.16784E-05-1.58574E-05-1.98365E-19 1.13169E-18
 -1      3688 7.66702E-05-2.41398E-05-2.24787E-05-1.92284E-05-4.18746E-19 7.54759E-19
 -1      3689 1.01952E-04-3.95791E-05-2.67613E-05 1.50485E-05 3.34803E-19-2.52376E-19
 -1      3690 1.03148E-04-4.17927E-05-2.64101E-05 1.66808E-05 1.86777E-19-9.86529E-19
 -1      3691 9.36320E-05-3.54368E-05-2.48218E-05 1.99078E-05 6.71333E-19-1.64895E-18
 -1      3692 9.89434E-05-3.63537E-05-2.67368E-05 1.46305E-05 5.26924E-19-8.89294E-19
 -1      3693 9.64347E-05-2.83211E-05-2.91888E-05 7.60721E-07-1.21686E-19 1.34454E-19
 -1      3694 9.63776E-05-2.84656E-05-2.91064E-05 8.99589E-07-1.23938E-19 6.20735E-20
 -1      3695 9.65597E-05-2.81423E-05-2.93217E-05 5.79447E-07 1.19380E-20-4.13431E-20
 -1      3696 9.62912E-05-2.85515E-05-2.90298E-05 9.85630E-07-1.96489E-19 5.37577E-20
 -1      3697 9.62016E-05-2.85927E-05-2.89751E-05 1.08010E-06 3.95604E-21-9.05097E-20
 -1      3698 9.64500E-05-2.84727E-05-2.91336E-05 8.09343E-07-1.97869E-19 1.68072E-19
 -1      3699 9.60711E-05-2.85833E-05-2.89232E-05 1.14251E-06 1.97539E-19-5.62465E-20
 -1      3700 9.59590E-05-2.85465E-05-2.88899E-05 1.21749E-06 1.73302E-19 1.07030E-19
 -1      3701 9.62348E-05-2.85662E-05-2.90014E-05 9.68620E-07-4.74887E-21 2.95165E-19
 -1      3702 9.57949E-05-2.84641E-05-2.88571E-05 1.27519E-06 1.80604E-19 9.09489E-20
 -1      3703 9.56652E-05-2.83673E-05-2.88401E-05 1.35096E-06 2.24958E-19 1.87361E-19
 -1      3704 9.59428E-05-2.84794E-05-2.89132E-05 1.09713E-06 1.53853E-19 7.40761E-20
 -1      3705 9.54724E-05-2.82279E-05-2.88213E-05 1.41967E-06 2.07882E-19 1.10495E-19
 -1      3706 9.53267E-05-2.80842E-05-2.88159E-05 1.51257E-06 5.26657E-20 1.63771E-19
 -1      3707 9.55892E-05-2.82525E-05-2.88583E-05 1.22860E-06 1.95466E-19-6.93601E-21
 -1      3708 9.51057E-05-2.78990E-05-2.88062E-05 1.60551E-06-7.01783E-20 1.37744E-19
 -1      3709 9.49435E-05-2.77183E-05-2.88081E-05 1.72890E-06-9.46283E-20 1.49641E-19
 -1      3710 9.51790E-05-2.79147E-05-2.88266E-05 1.39121E-06-2.88134E-20 3.10522E-19
 -1      3711 9.46927E-05-2.74966E-05-2.88028E-05 1.85768E-06-1.47049E-19 9.86099E-20
 -1      3712 9.45134E-05-2.72883E-05-2.88077E-05 2.02263E-06-3.83435E-19 3.17983E-19
 -1      3713 9.47111E-05-2.74875E-05-2.88083E-05 1.60930E-06-1.49581E-19 1.54512E-19
 -1      3714 9.42301E-05-2.70393E-05-2.88016E-05 2.19793E-06-7.69588E-19 2.16062E-19
 -1      3715 9.40343E-05-2.68147E-05-2.88049E-05 2.41389E-06-7.58102E-19 1.90174E-19
 -1      3716 9.41809E-05-2.69903E-05-2.87931E-05 1.90479E-06-4.37047E-19-2.44094E-19
 -1      3717 9.37170E-05-2.65504E-05-2.87924E-05 2.64632E-06-5.22193E-19 4.82867E-19
 -1      3718 9.35089E-05-2.63253E-05-2.87888E-05 2.92164E-06-5.40407E-19 4.55340E-19
 -1      3719 9.35840E-05-2.64449E-05-2.87702E-05 2.29881E-06-6.16800E-19 2.67984E-19
 -1      3720 9.31598E-05-2.60634E-05-2.87635E-05 3.22272E-06-3.57945E-19 3.73106E-19
 -1      3721 9.29501E-05-2.58613E-05-2.87470E-05 3.56517E-06-2.15772E-19 7.59142E-19
 -1      3722 9.29205E-05-2.58808E-05-2.87269E-05 2.81379E-06-4.11144E-19 9.60312E-19
 -1      3723 9.25777E-05-2.56288E-05-2.87013E-05 3.94848E-06-2.14321E-19 1.02552E-18
 -1      3724 9.23880E-05-2.54856E-05-2.86653E-05 4.36583E-06-1.46222E-19 1.49390E-18
 -1      3725 9.22000E-05-2.53421E-05-2.86486E-05 3.47589E-06-5.85825E-20 8.76466E-19
 -1      3726 9.20118E-05-2.53229E-05-2.85906E-05 4.84858E-06-3.44957E-19 1.47396E-18
 -1      3727 9.18805E-05-2.52912E-05-2.85282E-05 5.34908E-06-4.15486E-19 1.05506E-18
 -1      3728 9.14487E-05-2.48948E-05-2.85187E-05 4.31829E-06-1.60797E-19 1.02726E-18
 -1      3729 9.15371E-05-2.52574E-05-2.84155E-05 5.95397E-06-2.95127E-19 9.92713E-19
 -1      3730 9.15286E-05-2.54131E-05-2.83205E-05 6.54613E-06 1.62171E-19 7.71931E-19
 -1      3731 9.07196E-05-2.46366E-05-2.83185E-05 5.38575E-06-5.08475E-19 1.11681E-18
 -1      3732 9.12816E-05-2.55921E-05-2.81615E-05 7.30243E-06 6.73418E-20 8.07108E-19
 -1      3733 9.14977E-05-2.60407E-05-2.80312E-05 7.99204E-06 1.65588E-19 4.58452E-19
 -1      3734 9.01074E-05-2.47085E-05-2.80293E-05 6.73938E-06-4.31868E-20 1.36147E-18
 -1      3735 9.14534E-05-2.65487E-05-2.78211E-05 8.93333E-06 6.42158E-19-9.12556E-20
 -1      3736 9.20491E-05-2.74328E-05-2.76610E-05 9.71338E-06 6.99624E-19-4.35901E-19
 -1      3737 8.97731E-05-2.53120E-05-2.76352E-05 8.45906E-06 1.10851E-19 1.15359E-18
 -1      3738 9.23847E-05-2.84289E-05-2.74039E-05 1.08617E-05 5.93519E-19-7.23718E-19
 -1      3739 9.35684E-05-2.99243E-05-2.72355E-05 1.16855E-05 4.92193E-19-9.90330E-19
 -1      3740 8.99854E-05-2.67351E-05-2.71311E-05 1.06317E-05 3.27901E-19 1.52847E-19
 -1      3741 9.47169E-05-3.16321E-05-2.70049E-05 1.28932E-05 8.04034E-19-1.41488E-18
 -1      3742 9.67561E-05-3.39205E-05-2.68902E-05 1.35981E-05 5.16533E-19-9.27978E-19
 -1      3743 9.45614E-05-3.37523E-05-2.61235E-05 1.58471E-05 4.97937E-19-1.32691E-18
 -1      3744 9.13247E-05-2.93957E-05-2.65847E-05 1.32025E-05 3.23269E-19-4.93508E-19
 -1      3745 8.55590E-05-2.23901E-05-2.71142E-05 1.07339E-05 4.77721E-19 1.30107E-18
 -1      3746 8.52382E-05-2.28493E-05-2.67009E-05 1.19199E-05 5.42027E-19 4.69222E-19
 -1      3747 8.28215E-05-2.68675E-05-2.38860E-05-1.89156E-05-6.40330E-19 9.92531E-19
 -1      3748 1.02998E-04-4.15285E-05-2.62712E-05-1.70453E-05-2.69310E-19-5.92711E-19
 -1      3749 9.90421E-05-3.79515E-05-2.61003E-05-1.69373E-05-1.52662E-19-1.09741E-18
 -1      3750 9.80642E-05-4.06543E-05-2.47701E-05-2.20418E-05-4.70848E-19-4.66239E-19
 -1      3751 9.68707E-05-3.50507E-05-2.63964E-05-1.53514E-05 2.65850E-19-1.33578E-18
 -1      3752 9.42835E-05-3.24214E-05-2.64970E-05-1.45873E-05-4.25027E-19-1.66659E-18
 -1      3753 9.23995E-05-3.37303E-05-2.53046E-05-1.83441E-05-2.16210E-19-8.95916E-19
 -1      3754 9.33630E-05-3.05748E-05-2.68467E-05-1.29836E-05-9.28322E-19-1.51286E-18
 -1      3755 9.18862E-05-2.88428E-05-2.70385E-05-1.20567E-05-9.35730E-19-1.41116E-18
 -1      3756 8.96953E-05-2.90239E-05-2.60502E-05-1.45244E-05-4.12558E-19-1.07579E-18
 -1      3757 9.16804E-05-2.77391E-05-2.73632E-05-1.07203E-05-1.35901E-18-1.52311E-18
 -1      3758 9.09465E-05-2.66900E-05-2.75657E-05-9.83140E-06-9.00466E-19-1.17053E-18
 -1      3759 8.88589E-05-2.63504E-05-2.67980E-05-1.13502E-05-1.51342E-18-2.00734E-19
 -1      3760 9.11208E-05-2.61137E-05-2.78370E-05-8.77855E-06 3.67525E-19-1.44803E-18
 -1      3761 9.08478E-05-2.55392E-05-2.80158E-05-8.00043E-06-7.06964E-20-1.65739E-18
 -1      3762 8.89766E-05-2.49494E-05-2.74343E-05-8.89093E-06-7.52015E-19 1.13096E-19
 -1      3763 9.12129E-05-2.53097E-05-2.82324E-05-7.17022E-06-1.00976E-19-2.04985E-18
 -1      3764 9.12135E-05-2.50538E-05-2.83793E-05-6.52108E-06 3.57999E-19-2.28365E-18
 -1      3765 8.95838E-05-2.43472E-05-2.79467E-05-7.00624E-06-8.94906E-20-1.32633E-18
 -1      3766 9.41641E-05-2.63565E-05-2.90584E-05-5.14457E-06-1.97893E-20-2.59409E-18
 -1      3767 9.41667E-05-2.63054E-05-2.90863E-05-4.74888E-06-9.27994E-19-2.42153E-18
 -1      3768 6.18823E-05-1.49255E-05-2.02082E-05-5.72681E-06 1.57396E-20 1.19048E-19
 -1      3769 6.53779E-05-1.79277E-05-2.02544E-05-1.43819E-05 2.10395E-19-8.71570E-19
 -1      3770 9.27455E-05-2.54177E-05-2.88529E-05-3.57408E-06 1.40298E-19 3.25107E-19
 -1      3771 9.30625E-05-2.57617E-05-2.88529E-05-3.23564E-06 2.91787E-19 2.39222E-19
 -1      3772 9.34923E-05-2.61347E-05-2.88653E-05-2.97180E-06 2.00143E-19-1.29341E-19
 -1      3773 9.37491E-05-2.64421E-05-2.88537E-05-2.69751E-06-2.10034E-19 8.57954E-20
 -1      3774 9.28603E-05-2.56373E-05-2.88017E-05-2.78991E-06 2.10268E-19 1.20734E-19
 -1      3775 9.07231E-05-2.38120E-05-2.86744E-05-5.17838E-06-1.16702E-18 5.81230E-19
 -1      3776 9.11895E-05-2.41875E-05-2.87300E-05-4.69345E-06-7.77209E-19 7.24178E-19
 -1      3777 8.94052E-05-2.30201E-05-2.84476E-05-6.22437E-06-4.46473E-19 5.51670E-19
 -1      3778 8.99455E-05-2.33609E-05-2.85550E-05-5.64771E-06-8.84240E-19 5.15224E-19
 -1      3779 8.93602E-05-2.29708E-05-2.84338E-05-4.76843E-06-7.73996E-19 6.13967E-19
 -1      3780 8.78870E-05-2.23678E-05-2.80723E-05-7.50339E-06 1.46547E-19 8.19488E-19
 -1      3781 8.84740E-05-2.26056E-05-2.82535E-05-6.80385E-06-1.01360E-19 6.45213E-19
 -1      3782 8.76691E-05-2.20407E-05-2.81026E-05-5.71523E-06-3.75706E-19 5.23519E-19
 -1      3783 8.62278E-05-2.20490E-05-2.74897E-05-9.14503E-06-8.89753E-20 1.33021E-18
 -1      3784 8.67878E-05-2.20619E-05-2.77722E-05-8.25986E-06 3.24349E-19 1.04990E-18
 -1      3785 8.56517E-05-2.12145E-05-2.75857E-05-6.91793E-06-8.97911E-20 1.37009E-18
 -1      3786 8.45748E-05-2.23503E-05-2.66314E-05-1.13517E-05-1.30690E-19 1.11312E-18
 -1      3787 8.49743E-05-2.19745E-05-2.70425E-05-1.01794E-05-1.65536E-19 1.24213E-18
 -1      3788 8.33071E-05-2.06656E-05-2.68055E-05-8.57317E-06-2.08603E-19 1.30933E-18
 -1      3789 8.18445E-05-2.45575E-05-2.46217E-05-1.65690E-05-6.70245E-19 1.20598E-18
 -1      3790 9.10014E-05-2.37419E-05-2.88301E-05 5.16424E-06 8.14612E-19 2.01395E-18
 -1      3791 9.07288E-05-2.35772E-05-2.87661E-05 5.75887E-06 8.55705E-19 1.22400E-18
 -1      3792 9.01861E-05-2.32087E-05-2.87109E-05 4.49094E-06-8.88816E-20 3.10033E-19
 -1      3793 9.32123E-05-2.51639E-05-2.91577E-05 5.39550E-06 1.07117E-18 2.51835E-18
 -1      3794 9.58710E-05-2.61971E-05-2.98602E-05 8.39014E-07 3.84898E-19-8.05695E-21
 -1      3795 9.57206E-05-2.62235E-05-2.97923E-05 1.02365E-06 3.55645E-19 3.48673E-19
 -1      3796 9.01401E-05-2.33206E-05-2.86485E-05 6.18122E-06 6.12969E-19 7.62839E-19
 -1      3797 8.96105E-05-2.30534E-05-2.85158E-05 6.78501E-06-2.28556E-19 6.38198E-19
 -1      3798 8.78503E-05-2.20892E-05-2.81662E-05 6.27020E-06-4.54557E-19 1.44460E-18
 -1      3799 8.90514E-05-2.26304E-05-2.84628E-05 5.38824E-06 2.75302E-19 4.18323E-19
 -1      3800 8.73046E-05-2.23850E-05-2.78541E-05 8.77522E-06-4.23566E-20 1.54007E-18
 -1      3801 8.67871E-05-2.24200E-05-2.75674E-05 9.66917E-06 4.53769E-19 1.43981E-18
 -1      3802 8.38453E-05-2.10590E-05-2.68801E-05 9.12256E-06 3.03488E-19 1.40918E-18
 -1      3803 8.61628E-05-2.15172E-05-2.76808E-05 7.45206E-06 7.96860E-20 1.83152E-18
 -1      3804 6.44585E-05-1.67783E-05-2.04665E-05 1.12340E-05 1.09900E-18-8.10227E-19
 -1      3805 5.94724E-05-1.36743E-05-1.93210E-05 4.78242E-06 1.36916E-18-1.23366E-18
 -1      3806 6.32634E-05-1.47329E-05-2.07534E-05-6.50200E-08 3.68042E-19-1.84852E-19
 -1      3807 8.41901E-05-2.33103E-05-2.61486E-05 1.33925E-05 6.80435E-19 8.69015E-20
 -1      3808 8.43603E-05-2.44921E-05-2.55952E-05 1.50156E-05 1.19750E-18 8.72328E-20
 -1      3809 7.96354E-05-2.23760E-05-2.44605E-05 1.49390E-05 1.42801E-18 1.20333E-18
 -1      3810 8.15323E-05-2.11966E-05-2.58202E-05 1.14903E-05 2.99775E-19 1.96089E-18
 -1      3811 9.50155E-05-2.77704E-05-2.88167E-05-1.82284E-06 6.85129E-20 9.14066E-19
 -1      3812 9.51594E-05-2.79523E-05-2.88065E-05-1.70024E-06 5.81251E-19 1.05596E-18
 -1      3813 9.03310E-05-2.31512E-05-2.87978E-05 1.58340E-06-1.56022E-18 1.91658E-18
 -1      3814 9.06049E-05-2.33303E-05-2.88336E-05 2.38942E-06-1.71142E-18 2.43307E-18
 -1      3815 8.96376E-05-2.27884E-05-2.86408E-05 1.12612E-06-1.88316E-18 2.60903E-18
 -1      3816 9.44943E-05-2.23100E-05-3.09542E-05 2.54811E-06 4.65491E-19-1.17850E-19
 -1      3817 9.42765E-05-2.18145E-05-3.10600E-05 2.12096E-06 4.05369E-19-1.42846E-19
 -1      3818 9.48375E-05-2.28400E-05-3.08384E-05 1.53276E-06 2.91719E-19-1.49522E-19
 -1      3819 7.10685E-05-2.29487E-05-2.05809E-05-2.02330E-05-4.44762E-19-1.46275E-18
 -1      3820 8.00036E-05-2.98063E-05-2.15945E-05-2.44346E-05-3.46430E-19-5.91070E-19
 -1      3821 9.28265E-05-2.52619E-05-2.89484E-05-4.32709E-06 2.50259E-19-1.53871E-18
 -1      3822 9.22070E-05-2.48058E-05-2.88989E-05-3.94038E-06 8.21001E-19-2.98448E-18
 -1      3823 9.63184E-05-2.69696E-05-2.97193E-05-1.07433E-07 1.51016E-19-4.56803E-19
 -1      3824 9.63958E-05-2.74375E-05-2.95583E-05 2.13113E-07 1.65437E-19-2.86075E-19
 -1      3825 9.65185E-05-2.75006E-05-2.95783E-05 2.34609E-07 1.25710E-19-1.02903E-19
 -1      3826 9.56173E-05-2.56546E-05-2.99745E-05 1.62228E-06 3.67623E-19 3.99294E-19
 -1      3827 9.59079E-05-2.83551E-05-2.89526E-05-1.03455E-06 7.29622E-20 1.21769E-19
 -1      3828 9.59408E-05-2.81933E-05-2.90287E-05-8.46382E-07 1.24572E-19 1.81515E-19
 -1      3829 9.61612E-05-2.79955E-05-2.92162E-05-6.31286E-07 1.24554E-19 1.08830E-19
 -1      3830 9.18313E-05-2.46325E-05-2.87979E-05-4.30464E-06-7.01290E-19 3.33045E-19
 -1      3831 9.22196E-05-2.50028E-05-2.88192E-05-3.89669E-06-2.86835E-19 1.73423E-19
 -1      3832 9.07631E-05-2.39146E-05-2.86348E-05-3.98827E-06-7.64481E-19 5.63687E-19
 -1      3833 8.94712E-05-3.49941E-05-2.31374E-05-2.38050E-05-4.05070E-19-2.30095E-19
 -1      3834 9.47711E-05-2.25680E-05-3.09273E-05 1.08245E-07 4.48029E-19 1.30530E-20
 -1      3835 9.40655E-05-2.12974E-05-3.11845E-05-9.53394E-08 4.38325E-19 3.44832E-20
 -1      3836 9.43346E-05-2.18498E-05-3.10815E-05-4.68650E-07 3.95854E-19 6.14678E-21
 -1      3837 9.37994E-05-2.60009E-05-2.90526E-05-4.64252E-06-4.88431E-19-2.04766E-19
 -1      3838 9.34129E-05-2.57014E-05-2.90265E-05-4.46880E-06-3.84097E-19 1.32931E-19
 -1      3839 6.68477E-05-1.64296E-05-2.16678E-05 8.10271E-06 1.62906E-18 1.91570E-18
 -1      3840 6.30170E-05-1.42170E-05-2.06953E-05 1.25941E-06 8.11499E-19 6.18579E-19
 -1      3841 9.32031E-05-2.57291E-05-2.89102E-05-5.21189E-06-4.59437E-19-7.50703E-19
 -1      3842 9.28763E-05-2.54071E-05-2.89176E-05-4.71399E-06 2.88706E-20-1.28827E-18
 -1      3843 9.25066E-05-2.52712E-05-2.88206E-05-5.05403E-06 2.43295E-19-1.57714E-18
 -1      3844 9.15457E-05-2.44393E-05-2.87612E-05-4.02883E-06 1.21684E-19-2.04852E-18
 -1      3845 9.18568E-05-2.49908E-05-2.86685E-05-5.34752E-06-1.32313E-19-1.76984E-18
 -1      3846 9.16223E-05-2.46619E-05-2.86837E-05-4.80450E-06 1.84327E-19-2.18060E-18
 -1      3847 9.52394E-05-2.79721E-05-2.88278E-05-1.50957E-06 3.71628E-19 4.65294E-19
 -1      3848 9.53649E-05-2.81354E-05-2.88102E-05-1.61147E-06 5.33505E-19 6.51400E-19
 -1      3849 9.54878E-05-2.82716E-05-2.88091E-05-1.51957E-06 3.59585E-19 3.37881E-19
 -1      3850 9.21889E-05-3.27050E-05-2.53985E-05 1.71246E-05 3.52238E-19-1.34981E-18
 -1      3851 8.80058E-05-3.14735E-05-2.42832E-05 1.98006E-05 3.60864E-19-1.70680E-18
 -1      3852 8.30542E-05-2.71504E-05-2.39906E-05 1.76930E-05 4.27520E-20-1.59844E-18
 -1      3853 8.98666E-05-3.00498E-05-2.56215E-05 1.57596E-05 1.12948E-19-1.55983E-18
 -1      3854 9.19164E-05-2.48140E-05-2.87471E-05-3.33474E-06-1.89023E-19 7.38928E-19
 -1      3855 6.72108E-05-1.58357E-05-2.18975E-05-2.92717E-06 2.29099E-19 2.27058E-19
 -1      3856 9.55187E-05-2.50789E-05-3.01960E-05 1.82443E-06 4.15741E-19 2.23637E-19
 -1      3857 7.57504E-05-2.05098E-05-2.36449E-05 1.32951E-05 1.32116E-18 1.95316E-18
 -1      3858 7.06077E-05-1.78625E-05-2.24265E-05 1.11962E-05 1.17378E-18 2.19822E-18
 -1      3859 7.02841E-05-1.67261E-05-2.30243E-05 6.59421E-06 8.24345E-19 1.58743E-18
 -1      3860 7.66376E-05-1.98311E-05-2.44500E-05 1.13647E-05 7.12001E-19 2.50059E-18
 -1      3861 9.61206E-05-2.85838E-05-2.89442E-05-1.16934E-06 1.39572E-19-1.21349E-19
 -1      3862 9.61942E-05-2.85322E-05-2.89960E-05-1.06694E-06-1.49264E-19-2.91425E-19
 -1      3863 9.16958E-05-2.50603E-05-2.85511E-05-5.91032E-06 2.70287E-19-2.32151E-18
 -1      3864 7.22164E-05-2.10501E-05-2.17522E-05-1.55284E-05 2.11924E-21-1.19234E-18
 -1      3865 9.61062E-05-2.83853E-05-2.90257E-05-1.00542E-06 7.98060E-20-1.83298E-19
 -1      3866 8.70204E-05-3.16033E-05-2.35861E-05-2.09571E-05-6.41839E-19-4.00523E-19
 -1      3867 9.02559E-05-2.31537E-05-2.87487E-05 3.07458E-06-5.07150E-19 1.18137E-18
 -1      3868 9.36329E-05-2.63691E-05-2.88215E-05-2.34437E-06 3.20703E-21 6.27815E-19
 -1      3869 9.41014E-05-2.67686E-05-2.88544E-05-2.48715E-06-2.73649E-19 4.72312E-19
 -1      3870 9.43100E-05-2.70354E-05-2.88382E-05-2.27129E-06-1.48522E-19 6.32755E-19
 -1      3871 8.32448E-05-2.37983E-05-2.54068E-05-1.45675E-05-4.48926E-19 7.63303E-19
 -1      3872 8.31818E-05-2.26839E-05-2.59816E-05-1.29100E-05-1.25784E-19 1.27143E-18
 -1      3873 9.56300E-05-2.84586E-05-2.87888E-05-1.54503E-06 3.17023E-19 9.11565E-19
 -1      3874 9.08493E-05-2.41329E-05-2.86069E-05-4.25472E-06 1.36148E-20-1.91372E-18
 -1      3875 9.46010E-05-2.73143E-05-2.88345E-05-2.10888E-06-1.05906E-19 7.21736E-19
 -1      3876 9.47726E-05-2.75391E-05-2.88191E-05-1.94426E-06-8.71752E-20 8.03194E-19
 -1      3877 9.42684E-05-2.70034E-05-2.88240E-05-1.98998E-06 3.45119E-20 1.19482E-18
 -1      3878 9.60151E-05-2.63093E-05-2.98816E-05 5.63072E-07 2.58335E-19 1.85139E-20
 -1      3879 9.58404E-05-2.56016E-05-3.00979E-05 1.09384E-06 3.05240E-19-8.64777E-20
 -1      3880 9.62052E-05-2.65374E-05-2.98600E-05-2.87846E-07 5.63358E-20-4.89203E-19
 -1      3881 9.63312E-05-2.66318E-05-2.98684E-05-1.73176E-07 2.04572E-19-2.98726E-19
 -1      3882 9.60949E-05-2.60626E-05-3.00156E-05-5.57577E-07 8.34666E-20-6.05639E-19
 -1      3883 9.01051E-05-2.35188E-05-2.85212E-05-3.49329E-06 1.35699E-20-2.28410E-18
 -1      3884 8.95363E-05-2.31239E-05-2.84760E-05-2.68681E-06-7.50497E-20-1.47202E-18
 -1      3885 9.00254E-05-2.37302E-05-2.84259E-05-4.36933E-06 6.48334E-19-1.82463E-18
 -1      3886 9.51532E-05-2.35008E-05-3.07198E-05 8.12082E-07 3.09067E-19-1.67016E-19
 -1      3887 9.50882E-05-2.33374E-05-3.07610E-05 4.65410E-07 3.73326E-19-1.33278E-19
 -1      3888 8.90725E-05-2.27034E-05-2.84357E-05-1.66723E-06-1.09797E-18 9.28184E-19
 -1      3889 8.88019E-05-2.25048E-05-2.84297E-05-6.95794E-07-1.70596E-18 2.53501E-18
 -1      3890 8.87299E-05-2.26869E-05-2.82980E-05-2.56594E-06-1.88633E-20-1.63919E-19
 -1      3891 9.51773E-05-2.38792E-05-3.05418E-05 2.14004E-06 4.08818E-19 2.54944E-20
 -1      3892 8.06245E-05-2.05920E-05-2.56547E-05-1.09912E-05-4.44348E-19 1.66132E-18
 -1      3893 7.64700E-05-2.22752E-05-2.31903E-05 1.49244E-05 4.73832E-19-1.42988E-18
 -1      3894 7.03034E-05-1.92879E-05-2.16935E-05 1.40538E-05 8.75205E-19-1.28462E-18
 -1      3895 6.90927E-05-1.73126E-05-2.22814E-05 9.08519E-06 4.98237E-19-6.78930E-19
 -1      3896 9.47961E-05-2.75382E-05-2.88224E-05-1.71645E-06 1.94081E-19 1.18113E-18
 -1      3897 9.56978E-05-2.49376E-05-3.03321E-05-1.02071E-06 1.07876E-19-3.73735E-19
 -1      3898 9.59144E-05-2.55563E-05-3.01540E-05-7.28135E-07 1.02498E-19-4.05275E-19
 -1      3899 9.60506E-05-2.57127E-05-3.01428E-05-5.11413E-07 1.78630E-19-1.09613E-19
 -1      3900 9.56285E-05-2.46198E-05-3.04315E-05-8.48784E-07 1.98119E-19-3.33609E-20
 -1      3901 6.91042E-05-1.82824E-05-2.18160E-05-1.21043E-05-4.55896E-19 1.22526E-18
 -1      3902 9.62718E-05-2.73932E-05-2.95248E-05-1.65420E-07 1.69780E-20-2.52746E-20
 -1      3903 9.62028E-05-2.69223E-05-2.96865E-05 2.01799E-07 1.68325E-19-2.44508E-20
 -1      3904 9.61526E-05-2.63616E-05-2.99077E-05 4.13377E-07 1.27495E-19 6.56494E-20
 -1      3905 9.60063E-05-2.85850E-05-2.88943E-05-1.23879E-06 2.28066E-19 5.61826E-21
 -1      3906 9.61893E-05-2.85679E-05-2.89817E-05-1.07883E-06 6.46016E-20-2.63312E-19
 -1      3907 9.59148E-05-2.85600E-05-2.88651E-05-1.31629E-06 1.93253E-19 2.67781E-19
 -1      3908 9.44517E-05-2.20485E-05-3.10280E-05-7.47757E-07 3.33806E-19 6.12468E-20
 -1      3909 9.47381E-05-2.26689E-05-3.09033E-05-1.01686E-06 2.48469E-19 1.37363E-20
 -1      3910 9.52597E-05-2.36834E-05-3.06649E-05-8.27518E-07 2.54920E-19 2.00162E-21
 -1      3911 9.50563E-05-2.31636E-05-3.07960E-05-4.19969E-07 3.99763E-19 1.27469E-19
 -1      3912 9.52247E-05-2.35794E-05-3.07056E-05 2.40426E-07 3.80961E-19-1.42358E-19
 -1      3913 9.54043E-05-2.39701E-05-3.06295E-05-2.79086E-08 3.60280E-19 2.25083E-20
 -1      3914 9.57403E-05-2.46058E-05-3.04710E-05 2.82511E-07 3.07301E-19-2.85360E-19
 -1      3915 9.53749E-05-2.43938E-05-3.04208E-05 1.66804E-06 4.02203E-19-1.99100E-19
 -1      3916 9.04469E-05-2.42471E-05-2.83500E-05-5.62240E-06 3.30105E-19-2.25465E-18
 -1      3917 7.78117E-05-2.11876E-05-2.41327E-05-1.42920E-05-8.31545E-19 7.67000E-19
 -1      3918 9.65881E-05-2.84089E-05-2.92185E-05 6.10837E-07-6.21619E-20-3.33145E-20
 -1      3919 9.65023E-05-2.85156E-05-2.91381E-05 7.09038E-07-1.06624E-19 2.25559E-19
 -1      3920 9.63808E-05-2.85616E-05-2.90650E-05 7.59978E-07-1.26450E-21 2.29461E-19
 -1      3921 9.62505E-05-2.85614E-05-2.90095E-05 8.32846E-07 1.41280E-19 3.64601E-19
 -1      3922 9.65043E-05-2.85060E-05-2.91418E-05 5.72848E-07 1.15533E-19 4.77961E-19
 -1      3923 9.60784E-05-2.85096E-05-2.89586E-05 8.74981E-07 1.34544E-19 3.12639E-19
 -1      3924 9.59143E-05-2.84268E-05-2.89225E-05 9.39978E-07 1.03463E-19 2.10930E-19
 -1      3925 9.62120E-05-2.85083E-05-2.90157E-05 6.72803E-07 1.06565E-19 4.52703E-19
 -1      3926 9.57008E-05-2.82983E-05-2.88883E-05 9.85575E-07 1.82929E-19 1.22597E-19
 -1      3927 9.55076E-05-2.81504E-05-2.88663E-05 1.05751E-06 1.56224E-19 1.99335E-19
 -1      3928 9.58293E-05-2.83279E-05-2.89286E-05 7.64748E-07 1.11950E-19 3.79045E-19
 -1      3929 9.52559E-05-2.79604E-05-2.88436E-05 1.11725E-06 1.73065E-19 1.80518E-19
 -1      3930 9.50344E-05-2.77597E-05-2.88306E-05 1.20832E-06 8.11415E-20 3.43579E-19
 -1      3931 9.53677E-05-2.80019E-05-2.88697E-05 8.70597E-07 2.18131E-19 2.35079E-19
 -1      3932 9.47425E-05-2.75185E-05-2.88141E-05 1.29222E-06-3.12280E-19 3.82138E-19
 -1      3933 9.44909E-05-2.72751E-05-2.88053E-05 1.41367E-06-2.86708E-19 3.62849E-20
 -1      3934 9.48288E-05-2.75571E-05-2.88286E-05 1.00876E-06-3.53108E-20 3.65116E-19
 -1      3935 9.41550E-05-2.69919E-05-2.87893E-05 1.53120E-06-3.62254E-19-1.41887E-19
 -1      3936 9.38707E-05-2.67153E-05-2.87792E-05 1.69318E-06-5.27589E-19-2.45882E-19
 -1      3937 9.42067E-05-2.70127E-05-2.87940E-05 1.19916E-06-4.94908E-19-8.64156E-20
 -1      3938 9.34849E-05-2.63991E-05-2.87577E-05 1.85479E-06-5.12351E-19-1.42993E-19
 -1      3939 9.31664E-05-2.61010E-05-2.87403E-05 2.06776E-06-5.12141E-19 1.12386E-19
 -1      3940 9.34912E-05-2.63872E-05-2.87541E-05 1.46010E-06-3.41484E-19-2.15089E-19
 -1      3941 9.27253E-05-2.57640E-05-2.87060E-05 2.28589E-06-3.20513E-19 4.97814E-20
 -1      3942 9.23744E-05-2.54611E-05-2.86744E-05 2.56164E-06-2.08638E-19 2.68721E-19
 -1      3943 9.26709E-05-2.57009E-05-2.86952E-05 1.81404E-06-4.71261E-19-2.19987E-19
 -1      3944 9.18749E-05-2.51214E-05-2.86189E-05 2.85220E-06-2.64063E-19 5.01186E-19
 -1      3945 9.14999E-05-2.48389E-05-2.85651E-05 3.20536E-06 1.39097E-20 5.15056E-19
 -1      3946 9.17368E-05-2.49824E-05-2.86013E-05 2.28891E-06-1.86443E-19 3.10463E-19
 -1      3947 9.09427E-05-2.45232E-05-2.84781E-05 3.59006E-06 1.81756E-19 4.08283E-19
 -1      3948 9.05625E-05-2.42983E-05-2.83928E-05 4.04030E-06-1.36826E-19 3.27075E-19
 -1      3949 9.06857E-05-2.42734E-05-2.84533E-05 2.92235E-06-1.29779E-20 2.84207E-20
 -1      3950 8.99553E-05-2.40459E-05-2.82624E-05 4.55009E-06-3.46217E-19 7.47316E-19
 -1      3951 8.96057E-05-2.39332E-05-2.81353E-05 5.12495E-06-7.42645E-20 8.97308E-19
 -1      3952 8.95249E-05-2.36350E-05-2.82282E-05 3.76780E-06 1.06835E-19 1.82485E-19
 -1      3953 8.89668E-05-2.38002E-05-2.79475E-05 5.80516E-06-1.87046E-19 1.04444E-18
 -1      3954 8.87100E-05-2.38782E-05-2.77687E-05 6.54329E-06-1.68377E-20 1.00438E-18
 -1      3955 8.82776E-05-2.31550E-05-2.78988E-05 4.90378E-06-1.44364E-20 8.60463E-19
 -1      3956 8.80765E-05-2.39441E-05-2.75079E-05 7.45968E-06-1.59887E-19 8.08987E-19
 -1      3957 8.80188E-05-2.43259E-05-2.72696E-05 8.41194E-06-1.56539E-19 3.19700E-19
 -1      3958 8.69935E-05-2.29599E-05-2.74333E-05 6.44752E-06-1.91181E-19 3.96415E-19
 -1      3959 8.74620E-05-2.47044E-05-2.69187E-05 9.66264E-06 4.08228E-20-1.33232E-20
 -1      3960 8.77622E-05-2.55597E-05-2.66158E-05 1.08923E-05 2.62690E-20-4.99282E-19
 -1      3961 8.57651E-05-2.32356E-05-2.67948E-05 8.56524E-06-2.75239E-19-3.29024E-19
 -1      3962 9.11823E-05-2.43230E-05-2.86567E-05-2.91121E-06-1.35522E-19 8.52951E-19
 -1      3963 9.17106E-05-2.47672E-05-2.87002E-05-2.64408E-06 2.21046E-19 8.93945E-19
 -1      3964 6.98395E-05-1.61581E-05-2.30791E-05-4.64756E-07-3.79974E-19 5.76558E-19
 -1      3965 6.99131E-05-1.66805E-05-2.27073E-05-6.63518E-06-3.60154E-19-7.78996E-19
 -1      3966 7.22438E-05-1.85511E-05-2.30217E-05-1.07220E-05-7.71176E-19 1.11548E-18
 -1      3967 7.38367E-05-1.83311E-05-2.38938E-05-9.18087E-06-9.59834E-19 1.26878E-18
 -1      3968 6.63713E-05-1.50552E-05-2.17266E-05-6.04888E-06-3.86050E-19 7.39777E-19
 -1      3969 8.50068E-05-2.87478E-05-2.40746E-05-1.85807E-05-6.43050E-20-8.23060E-19
 -1      3970 8.66509E-05-2.74257E-05-2.53055E-05-1.49404E-05 3.42481E-19-7.71415E-19
 -1      3971 8.56995E-05-2.58186E-05-2.57019E-05-1.32265E-05 4.62551E-20-2.96137E-19
 -1      3972 8.64202E-05-2.50501E-05-2.62524E-05-1.13393E-05-9.01510E-19-4.54253E-19
 -1      3973 8.62753E-05-2.42419E-05-2.66240E-05-9.99354E-06-1.64320E-18-4.33585E-19
 -1      3974 8.31270E-05-2.35356E-05-2.55222E-05-1.17357E-05-7.55438E-19-8.25394E-19
 -1      3975 8.71060E-05-2.39169E-05-2.70496E-05-8.64459E-06-1.50194E-18 7.35530E-19
 -1      3976 8.73047E-05-2.35597E-05-2.73501E-05-7.62228E-06-6.37243E-19 8.12207E-19
 -1      3977 8.46777E-05-2.27113E-05-2.65419E-05-8.60437E-06-9.60787E-19 5.82926E-19
 -1      3978 8.81303E-05-2.35069E-05-2.76745E-05-6.66136E-06-5.86830E-19 5.14340E-19
 -1      3979 8.84790E-05-2.34093E-05-2.79119E-05-5.86246E-06-4.29616E-19-1.08933E-19
 -1      3980 8.63252E-05-2.25515E-05-2.73206E-05-6.40832E-06-9.12946E-19 7.83606E-19
 -1      3981 8.61516E-05-2.12671E-05-2.78140E-05-4.80551E-06-2.79824E-19 8.17152E-19
 -1      3982 8.70949E-05-2.17472E-05-2.80285E-05-4.35638E-06-2.59342E-19 7.33437E-19
 -1      3983 8.81673E-05-2.23059E-05-2.82318E-05-4.05951E-06-4.46263E-19 6.41459E-19
 -1      3984 8.89513E-05-2.28004E-05-2.83670E-05-3.69038E-06-7.88076E-19 7.68594E-19
 -1      3985 8.69044E-05-2.15640E-05-2.79760E-05-3.20357E-06-5.73281E-19 5.40389E-19
 -1      3986 8.06240E-05-1.95113E-05-2.62259E-05-7.10896E-06-4.16360E-19 1.31376E-18
 -1      3987 8.20150E-05-1.97941E-05-2.67188E-05-6.27429E-06-3.47315E-19 1.24279E-18
 -1      3988 9.56623E-05-2.84027E-05-2.88235E-05-1.45194E-06 3.15604E-19 3.48537E-19
 -1      3989 9.57688E-05-2.84882E-05-2.88354E-05-1.37623E-06 2.54170E-19 2.33680E-19
 -1      3990 9.59318E-05-2.85049E-05-2.88980E-05-1.21792E-06 2.19497E-19-2.25902E-19
 -1      3991 9.56149E-05-2.82985E-05-2.88499E-05-1.35160E-06 2.02938E-19-2.53699E-19
 -1      3992 8.94783E-05-2.27809E-05-2.85939E-05 3.39875E-06-2.63615E-19 9.45521E-19
 -1      3993 8.88851E-05-2.24514E-05-2.84629E-05 3.87169E-06 4.94261E-19 1.50914E-19
 -1      3994 8.90261E-05-2.24815E-05-2.85190E-05 2.44563E-06-6.08291E-19 2.66680E-18
 -1      3995 9.63755E-05-2.84500E-05-2.91119E-05-8.95406E-07 2.13076E-20-3.18757E-19
 -1      3996 9.62684E-05-2.84375E-05-2.90718E-05-9.65929E-07-1.28090E-20-2.06673E-19
 -1      3997 9.63162E-05-2.82859E-05-2.91522E-05-8.10493E-07 2.15689E-19-1.23320E-19
 -1      3998 9.54831E-05-2.45025E-05-3.04197E-05 1.31909E-06 2.41036E-19-8.96912E-20
 -1      3999 8.95274E-05-2.36049E-05-2.82482E-05-4.86884E-06 3.45436E-19-1.23654E-18
 -1      4000 8.86916E-05-2.23246E-05-2.84326E-05 3.79390E-07-8.81751E-19 1.89323E-18
 -1      4001 8.87933E-05-2.23902E-05-2.84692E-05 1.38828E-06-5.88984E-19 3.13960E-18
 -1      4002 8.80105E-05-2.19805E-05-2.82949E-05 1.65445E-06 1.89650E-19 2.80235E-18
 -1      4003 8.79389E-05-2.20337E-05-2.82495E-05-4.65925E-07-8.25071E-20 2.32968E-18
 -1      4004 8.82147E-05-2.28487E-05-2.80123E-05-4.50869E-06-3.92972E-19-7.54025E-19
 -1      4005 7.67846E-05-1.88583E-05-2.48510E-05-8.76443E-06-1.07793E-18 2.13175E-18
 -1      4006 7.84150E-05-1.88923E-05-2.55741E-05-7.41899E-06-5.99091E-19 1.96521E-18
 -1      4007 7.78631E-05-1.80720E-05-2.55503E-05-5.01981E-06-1.08064E-18 2.18878E-18
 -1      4008 7.29584E-05-1.66818E-05-2.39489E-05-5.03478E-06-7.88895E-19 1.54350E-18
 -1      4009 7.18011E-05-1.93461E-05-2.25465E-05-1.21543E-05 5.07850E-19-1.37361E-18
 -1      4010 7.74235E-05-2.38444E-05-2.28785E-05-1.71167E-05 5.13861E-19-5.74182E-19
 -1      4011 8.36942E-05-2.02899E-05-2.71795E-05-5.75925E-06-6.21960E-19 1.12730E-18
 -1      4012 8.48251E-05-2.07192E-05-2.75059E-05-5.17674E-06-5.64531E-19 9.16629E-19
 -1      4013 8.45443E-05-2.04022E-05-2.74527E-05-3.71841E-06-5.44041E-19 6.20115E-19
 -1      4014 9.65518E-05-2.72144E-05-2.97160E-05 7.06722E-08 5.24017E-20 5.95231E-20
 -1      4015 9.66245E-05-2.76454E-05-2.95656E-05 2.80439E-07-2.00651E-20-3.30608E-20
 -1      4016 9.22959E-05-2.52248E-05-2.87462E-05-2.45906E-06 1.07090E-19 8.24060E-19
 -1      4017 9.27276E-05-2.56250E-05-2.87663E-05-2.23475E-06 9.76652E-21 7.58626E-19
 -1      4018 9.16650E-05-2.47470E-05-2.86677E-05-2.05599E-06-5.37567E-20 1.17401E-18
 -1      4019 8.98235E-05-2.33406E-05-2.84969E-05-3.44042E-06-1.12830E-18 1.03446E-18
 -1      4020 9.04691E-05-2.38189E-05-2.85771E-05-3.12702E-06-6.10473E-19 9.28257E-19
 -1      4021 9.03835E-05-2.37644E-05-2.85358E-05-2.39397E-06-3.88559E-19 1.18814E-18
 -1      4022 9.45907E-05-2.73346E-05-2.88231E-05-1.52799E-06 2.01992E-20 9.42870E-19
 -1      4023 9.48344E-05-2.75845E-05-2.88250E-05-1.41487E-06-7.74413E-20 6.87254E-19
 -1      4024 9.63330E-05-2.80668E-05-2.92603E-05-6.52627E-07 2.50810E-19-1.80025E-19
 -1      4025 9.63372E-05-2.77801E-05-2.93770E-05-4.10302E-07 1.15717E-19-1.10800E-19
 -1      4026 9.64139E-05-2.74384E-05-2.95605E-05-2.03190E-07 1.25346E-19-2.03717E-19
 -1      4027 9.64656E-05-2.80994E-05-2.93006E-05-6.21640E-07 2.20453E-19-2.26810E-19
 -1      4028 9.66648E-05-2.79890E-05-2.94309E-05 3.92839E-07-2.99579E-20-1.16368E-19
 -1      4029 9.66422E-05-2.82354E-05-2.93195E-05 5.36832E-07-2.46482E-20-7.11229E-20
 -1      4030 9.66970E-05-2.77294E-05-2.95562E-05 2.48896E-07-1.26050E-20 5.45589E-20
 -1      4031 6.66561E-05-1.53645E-05-2.20280E-05 2.67133E-08-8.28041E-20-2.29804E-19
 -1      4032 9.49278E-05-2.76313E-05-2.88388E-05-1.15106E-06-1.52100E-19 1.26270E-19
 -1      4033 9.51162E-05-2.78268E-05-2.88371E-05-1.34100E-06 5.13328E-20 4.77663E-19
 -1      4034 9.53219E-05-2.80239E-05-2.88449E-05-1.25343E-06 1.08526E-19 1.31917E-19
 -1      4035 8.78736E-05-2.66036E-05-2.62719E-05 1.24539E-05-1.84589E-19-5.47168E-19
 -1      4036 8.89669E-05-2.82125E-05-2.59812E-05 1.38753E-05-2.06067E-19-8.17243E-19
 -1      4037 8.60692E-05-2.71172E-05-2.52843E-05 1.50333E-05-5.14844E-19-1.28085E-18
 -1      4038 8.52060E-05-2.44614E-05-2.60491E-05 1.14452E-05-3.56349E-19-9.83909E-19
 -1      4039 7.43613E-05-1.90710E-05-2.36240E-05-8.93173E-06 2.50073E-19-1.52124E-18
 -1      4040 8.25158E-05-2.01093E-05-2.67903E-05 6.84555E-06 2.21063E-19 3.11438E-18
 -1      4041 8.12372E-05-1.98745E-05-2.62927E-05 7.70685E-06 3.51199E-19 2.76752E-18
 -1      4042 9.59022E-05-2.49619E-05-3.03879E-05-4.66692E-08 2.85964E-19 1.32094E-20
 -1      4043 9.54596E-05-2.40731E-05-3.05964E-05-1.91474E-07 4.03237E-19 2.07133E-19
 -1      4044 9.55451E-05-2.42987E-05-3.05447E-05-3.90663E-07 2.73916E-19 1.69111E-19
 -1      4045 6.89775E-05-1.57883E-05-2.26239E-05 4.15696E-06 1.22740E-19-2.23564E-19
 -1      4046 7.05720E-05-1.60634E-05-2.34361E-05-1.16717E-06-6.45102E-19 1.83786E-19
 -1      4047 7.28422E-05-1.78371E-05-2.35921E-05 6.97445E-06 2.35365E-19-3.85948E-19
 -1      4048 8.72666E-05-2.21216E-05-2.79232E-05-3.24724E-06-2.94613E-19-7.97889E-19
 -1      4049 8.67357E-05-2.16865E-05-2.78749E-05-2.12037E-06 1.00804E-20 1.71553E-18
 -1      4050 8.61503E-05-2.18367E-05-2.75472E-05-4.17527E-06-8.41581E-19-1.69077E-19
 -1      4051 9.32101E-05-2.60310E-05-2.87914E-05-2.08000E-06 3.48326E-19 4.13049E-19
 -1      4052 9.35638E-05-2.63827E-05-2.87983E-05-1.89638E-06 1.87105E-19 8.73080E-19
 -1      4053 9.27195E-05-2.56306E-05-2.87440E-05-1.76135E-06 9.20624E-20 1.13225E-18
 -1      4054 9.66801E-05-2.82692E-05-2.93181E-05 4.40222E-07-4.87788E-20 6.72597E-20
 -1      4055 8.88203E-05-2.26963E-05-2.83186E-05-2.77376E-06-7.07210E-19 9.19090E-19
 -1      4056 9.64589E-05-2.84960E-05-2.91280E-05-8.14204E-07-6.55168E-20-3.06629E-19
 -1      4057 9.65322E-05-2.83749E-05-2.92085E-05-6.98676E-07 1.45606E-19-1.17792E-19
 -1      4058 9.39639E-05-2.67351E-05-2.88120E-05-1.77127E-06-7.37282E-20 8.73943E-19
 -1      4059 9.42560E-05-2.70366E-05-2.88133E-05-1.62533E-06 1.93098E-19 1.06398E-18
 -1      4060 9.35915E-05-2.64081E-05-2.87870E-05-1.51277E-06 2.10574E-19 6.00949E-19
 -1      4061 9.62369E-05-2.85711E-05-2.89998E-05-9.62860E-07 8.95474E-20-1.88520E-19
 -1      4062 9.63506E-05-2.85556E-05-2.90541E-05-8.79374E-07-1.57641E-19-3.44306E-19
 -1      4063 9.64890E-05-2.84918E-05-2.91417E-05-6.96765E-07-5.86806E-20 5.90613E-20
 -1      4064 9.53307E-05-2.40394E-05-3.05635E-05 1.32758E-06 2.09513E-19-1.37807E-19
 -1      4065 9.52213E-05-2.36997E-05-3.06547E-05 1.05668E-06 2.12929E-19-1.74114E-19
 -1      4066 9.63544E-05-2.64136E-05-2.99736E-05-2.06801E-07 2.25789E-19 3.63207E-20
 -1      4067 9.64576E-05-2.68347E-05-2.98389E-05-2.66281E-08 1.75020E-19 1.37116E-19
 -1      4068 9.65576E-05-2.69845E-05-2.98161E-05 2.10151E-08 9.24368E-20 1.64166E-19
 -1      4069 8.70486E-05-2.16425E-05-2.80526E-05 4.85461E-06 3.50792E-19 1.04384E-18
 -1      4070 8.64086E-05-2.13548E-05-2.78802E-05 5.30343E-06 8.01083E-20 1.84430E-18
 -1      4071 9.56598E-05-2.45522E-05-3.04606E-05 6.86604E-07 1.91957E-19-1.50659E-19
 -1      4072 7.96251E-05-1.96716E-05-2.57669E-05 8.64522E-06 2.12904E-19 2.49035E-18
 -1      4073 7.85451E-05-1.97885E-05-2.51642E-05 9.91746E-06 4.95055E-19 3.09063E-18
 -1      4074 7.54159E-05-1.81297E-05-2.44490E-05 8.14324E-06 3.85749E-19 2.88059E-18
 -1      4075 7.87854E-05-1.86381E-05-2.57136E-05 6.11545E-06 5.89416E-19 3.65255E-18
 -1      4076 8.16254E-05-1.92293E-05-2.66714E-05-4.40430E-06-5.99164E-19 9.95922E-19
 -1      4077 8.82828E-05-2.21963E-05-2.83386E-05 4.14769E-06 1.21638E-18 1.95287E-19
 -1      4078 8.76977E-05-2.18981E-05-2.81991E-05 4.52961E-06 1.03440E-18 7.48586E-19
 -1      4079 8.64393E-05-2.12303E-05-2.79352E-05 3.58897E-06 9.94245E-19 1.11903E-18
 -1      4080 8.76478E-05-2.17816E-05-2.82189E-05 3.00072E-06 1.33910E-18 1.09637E-18
 -1      4081 9.58150E-05-2.52311E-05-3.02492E-05 8.24952E-07 1.42184E-19 5.47955E-21
 -1      4082 9.43178E-05-2.70762E-05-2.88139E-05-1.31046E-06 6.41716E-20 5.83131E-19
 -1      4083 9.61421E-05-2.60642E-05-3.00333E-05 5.10065E-07 1.75139E-19-2.39690E-20
 -1      4084 9.60130E-05-2.56222E-05-3.01701E-05 5.41653E-07 1.32989E-19-1.67353E-19
 -1      4085 9.63210E-05-2.67044E-05-2.98370E-05 1.43162E-07 1.91170E-19-5.07016E-20
 -1      4086 9.59601E-05-2.52448E-05-3.03099E-05 3.06166E-07 2.20360E-19-2.09560E-19
 -1      4087 9.60749E-05-2.54931E-05-3.02619E-05 1.26777E-07 2.66409E-19-2.86812E-19
 -1      4088 7.32806E-05-1.73328E-05-2.39933E-05 5.70166E-06 8.52823E-21 1.34411E-18
 -1      4089 7.10766E-05-1.61805E-05-2.33890E-05 2.56374E-06-2.65783E-19 1.81251E-18
 -1      4090 7.29158E-05-1.68710E-05-2.40627E-05-7.52361E-07-5.02643E-19 1.49415E-19
 -1      4091 7.51134E-05-1.76005E-05-2.47313E-05 4.64607E-06 1.60609E-19 2.01757E-18
 -1      4092 8.34957E-05-2.57069E-05-2.47045E-05 1.50557E-05-4.47215E-19-1.99719E-18
 -1      4093 7.96372E-05-2.39224E-05-2.38315E-05 1.56340E-05-1.41576E-19-1.85910E-18
 -1      4094 7.70223E-05-2.12657E-05-2.39592E-05 1.24307E-05 1.18646E-19-2.22761E-18
 -1      4095 8.27127E-05-2.41413E-05-2.51198E-05 1.30991E-05-7.85803E-19-1.75507E-18
 -1      4096 8.04045E-05-2.51809E-05-2.36781E-05-1.69124E-05 6.73819E-19-3.10232E-19
 -1      4097 8.51634E-05-2.09048E-05-2.75701E-05 5.70065E-06 1.87568E-19 2.60787E-18
 -1      4098 8.40558E-05-2.05406E-05-2.72238E-05 6.30370E-06 2.65864E-19 2.37041E-18
 -1      4099 8.18621E-05-1.94510E-05-2.67006E-05 4.92545E-06 6.65938E-19 3.21414E-18
 -1      4100 8.45965E-05-2.04522E-05-2.74690E-05 4.16832E-06 4.31601E-19 8.35021E-19
 -1      4101 9.55330E-05-2.42845E-05-3.05375E-05-5.47423E-07 2.64968E-19 1.05057E-19
 -1      4102 9.56314E-05-2.45740E-05-3.04608E-05-7.07030E-07 2.53853E-19-1.14554E-20
 -1      4103 9.58810E-05-2.51413E-05-3.03114E-05-5.60722E-07 1.19320E-19 8.92116E-20
 -1      4104 9.59311E-05-2.50919E-05-3.03472E-05-3.05368E-07 2.50262E-19 1.73248E-19
 -1      4105 9.59881E-05-2.54361E-05-3.02396E-05 4.06423E-07 1.35987E-19-2.84630E-19
 -1      4106 9.63153E-05-2.62043E-05-3.00366E-05 2.10877E-07 2.22856E-19-3.10360E-19
 -1      4107 8.97164E-05-2.33759E-05-2.84415E-05-1.73447E-06-5.20382E-19 1.43444E-18
 -1      4108 9.04349E-05-2.38910E-05-2.85284E-05-1.60009E-06-4.00153E-19 1.34610E-18
 -1      4109 9.63354E-05-2.85317E-05-2.90591E-05 4.46137E-07 1.54073E-19 5.38402E-19
 -1      4110 9.61634E-05-2.84827E-05-2.90061E-05 4.94251E-07 5.79755E-20 3.18994E-19
 -1      4111 9.59534E-05-2.83846E-05-2.89591E-05 5.13668E-07-1.95893E-20 4.84911E-19
 -1      4112 9.57397E-05-2.82523E-05-2.89230E-05 5.61765E-07 2.06943E-20 4.05133E-19
 -1      4113 9.60709E-05-2.84092E-05-2.89973E-05 2.89056E-07 8.60079E-21 1.77845E-19
 -1      4114 9.54844E-05-2.80780E-05-2.88902E-05 5.88144E-07 1.36600E-19 3.45762E-19
 -1      4115 9.52328E-05-2.78794E-05-2.88654E-05 6.45182E-07 1.98784E-19 3.23889E-19
 -1      4116 9.56100E-05-2.81329E-05-2.89168E-05 3.36714E-07 1.27862E-19 5.00628E-19
 -1      4117 9.49287E-05-2.76398E-05-2.88413E-05 6.84329E-07 3.19886E-21 1.75241E-19
 -1      4118 9.46387E-05-2.73840E-05-2.88228E-05 7.60828E-07-4.58362E-19 7.16413E-21
 -1      4119 9.50545E-05-2.77072E-05-2.88594E-05 3.99477E-07 5.82774E-20 2.61395E-20
 -1      4120 9.42845E-05-2.70922E-05-2.88015E-05 8.18968E-07-6.21811E-19-1.11649E-19
 -1      4121 9.39507E-05-2.67887E-05-2.87832E-05 9.20903E-07-4.42993E-19-3.88191E-20
 -1      4122 9.44085E-05-2.71631E-05-2.88129E-05 4.89394E-07-4.27684E-19 3.02903E-21
 -1      4123 9.35374E-05-2.64495E-05-2.87584E-05 1.00741E-06-1.01211E-20-2.16990E-19
 -1      4124 9.31540E-05-2.61068E-05-2.87341E-05 1.14436E-06-3.11701E-19 3.30304E-20
 -1      4125 9.36533E-05-2.65108E-05-2.87655E-05 6.17903E-07-2.22521E-19-1.76501E-19
 -1      4126 9.26716E-05-2.57285E-05-2.86985E-05 1.26929E-06-6.09831E-19 2.34693E-19
 -1      4127 9.22333E-05-2.53572E-05-2.86606E-05 1.45274E-06-4.61142E-19 3.02830E-19
 -1      4128 9.27725E-05-2.57657E-05-2.87034E-05 8.02690E-07-3.19823E-19 1.35569E-19
 -1      4129 9.16701E-05-2.49505E-05-2.86053E-05 1.62981E-06-3.06874E-19 2.23873E-19
 -1      4130 9.11739E-05-2.45660E-05-2.85451E-05 1.87483E-06-1.03636E-19 2.13575E-19
 -1      4131 9.17447E-05-2.49444E-05-2.86103E-05 1.06612E-06-4.59748E-19 2.19724E-19
 -1      4132 9.05173E-05-2.41464E-05-2.84594E-05 2.12320E-06-1.43963E-19 3.63573E-19
 -1      4133 8.99640E-05-2.37712E-05-2.83661E-05 2.45083E-06 1.37426E-19 3.09846E-19
 -1      4134 9.05466E-05-2.40695E-05-2.84662E-05 1.43963E-06-7.40653E-20 1.60117E-19
 -1      4135 8.92004E-05-2.33607E-05-2.82364E-05 2.79781E-06 3.34905E-19 5.76412E-19
 -1      4136 8.85975E-05-2.30272E-05-2.80970E-05 3.23873E-06 2.86449E-19 7.95310E-19
 -1      4137 8.91536E-05-2.31734E-05-2.82465E-05 1.96803E-06 5.37360E-19 1.17882E-19
 -1      4138 8.77105E-05-2.26559E-05-2.79065E-05 3.72416E-06-8.79707E-22 6.96702E-19
 -1      4139 8.70756E-05-2.24102E-05-2.77055E-05 4.32458E-06-2.60354E-19 4.92316E-19
 -1      4140 8.75378E-05-2.23007E-05-2.79197E-05 2.71588E-06-8.83470E-21-1.60041E-19
 -1      4141 8.60422E-05-2.21155E-05-2.74323E-05 5.00822E-06-5.40386E-19 2.08646E-20
 -1      4142 8.54147E-05-2.20248E-05-2.71514E-05 5.83970E-06-7.17635E-19-2.39721E-19
 -1      4143 8.56628E-05-2.15120E-05-2.74459E-05 3.77529E-06-8.61337E-19-2.24350E-19
 -1      4144 8.42028E-05-2.18520E-05-2.67667E-05 6.82392E-06-9.28785E-19-7.35713E-19
 -1      4145 8.36504E-05-2.20244E-05-2.63834E-05 8.00504E-06-6.10549E-19-1.13090E-18
 -1      4146 8.34579E-05-2.08913E-05-2.67727E-05 5.27157E-06-1.26683E-18-1.35536E-18
 -1      4147 8.24264E-05-2.14465E-05-2.61077E-05-7.75235E-06-1.57026E-18 3.08863E-19
 -1      4148 8.32466E-05-2.13620E-05-2.65662E-05-6.52552E-06-1.19061E-18 5.34469E-19
 -1      4149 8.43354E-05-2.15177E-05-2.69126E-05-5.67278E-06-1.75686E-18 6.53978E-19
 -1      4150 8.51708E-05-2.16036E-05-2.72669E-05-4.83922E-06-1.60294E-18 3.27244E-19
 -1      4151 8.42236E-05-2.07686E-05-2.71615E-05-3.39427E-06-1.71394E-18-1.46329E-19
 -1      4152 8.22705E-05-2.02988E-05-2.65121E-05-4.76211E-06-1.91220E-18 6.45162E-19
 -1      4153 7.99682E-05-1.86530E-05-2.63084E-05-2.57409E-06-1.25277E-18 1.01013E-18
 -1      4154 8.16278E-05-1.92834E-05-2.67631E-05-2.29233E-06-8.24278E-19 5.62240E-19
 -1      4155 9.64709E-05-2.68424E-05-2.98474E-05 5.53645E-08 1.66173E-19-2.46091E-19
 -1      4156 9.64771E-05-2.66747E-05-2.99195E-05 4.50891E-08 2.29335E-19-4.49691E-19
 -1      4157 9.40730E-05-2.68685E-05-2.88034E-05-1.02840E-06 1.15004E-19-5.24091E-20
 -1      4158 9.44098E-05-2.71789E-05-2.88165E-05-9.47423E-07 7.33184E-20-5.97584E-20
 -1      4159 8.79945E-05-2.22726E-05-2.81804E-05-1.92844E-06-4.18701E-19 4.41238E-19
 -1      4160 8.88750E-05-2.28251E-05-2.83193E-05-1.78860E-06-1.15421E-19 1.24546E-18
 -1      4161 8.90808E-05-2.29372E-05-2.83183E-05-9.30031E-07-2.81158E-19 9.48683E-19
 -1      4162 8.32572E-05-1.99036E-05-2.71763E-05-2.30116E-06-6.31495E-19 2.33723E-19
 -1      4163 8.46050E-05-2.04924E-05-2.74991E-05-2.12287E-06-5.64781E-19 1.37520E-19
 -1      4164 8.20853E-05-1.93330E-05-2.68363E-05-4.90892E-07-1.23146E-18-2.00798E-19
 -1      4165 9.67600E-05-2.81695E-05-2.93958E-05 2.62383E-07 5.22938E-21 1.87496E-19
 -1      4166 9.67057E-05-2.83600E-05-2.92925E-05 3.44152E-07 6.64716E-20 2.71606E-19
 -1      4167 9.66374E-05-2.82185E-05-2.93218E-05-5.24748E-07 1.46419E-19-2.03421E-19
 -1      4168 9.65726E-05-2.81841E-05-2.93115E-05-5.99726E-07 2.22548E-19-1.11329E-19
 -1      4169 9.65858E-05-2.79223E-05-2.94248E-05-4.26383E-07 2.22687E-19-1.03776E-19
 -1      4170 9.67199E-05-2.75226E-05-2.96561E-05 1.14288E-07 9.51866E-20 2.61224E-19
 -1      4171 9.67631E-05-2.78918E-05-2.95180E-05 2.25234E-07 8.76057E-21 1.65924E-19
 -1      4172 9.67833E-05-2.79811E-05-2.94852E-05 1.34054E-07 1.25497E-19 1.79209E-19
 -1      4173 9.11304E-05-2.43992E-05-2.86060E-05-1.53685E-06-2.64927E-19 1.17400E-18
 -1      4174 9.17195E-05-2.48688E-05-2.86579E-05-1.41119E-06-3.37458E-20 1.17424E-18
 -1      4175 9.06026E-05-2.39992E-05-2.85222E-05-9.07542E-07-3.79633E-19 1.14098E-18
 -1      4176 8.58810E-05-2.11081E-05-2.77791E-05-2.11234E-06-3.89021E-19 3.28935E-20
 -1      4177 8.69677E-05-2.16873E-05-2.79934E-05-1.96400E-06-6.18385E-19 1.17669E-19
 -1      4178 8.49647E-05-2.06035E-05-2.75335E-05-7.54774E-07-6.35253E-19-8.12410E-19
 -1      4179 9.66150E-05-2.84794E-05-2.92009E-05 3.68479E-07 9.57295E-20 4.08376E-19
 -1      4180 9.64929E-05-2.85350E-05-2.91256E-05 4.26851E-07 2.55355E-19 6.02919E-19
 -1      4181 9.66863E-05-2.83870E-05-2.92701E-05 1.99276E-07 1.36283E-19 4.29975E-19
 -1      4182 9.60653E-05-2.56669E-05-3.01740E-05-3.96598E-07 1.91126E-19 2.81658E-20
 -1      4183 9.63836E-05-2.62076E-05-3.00656E-05 7.18934E-08 1.61962E-19-2.78679E-19
 -1      4184 9.61579E-05-2.56523E-05-3.02170E-05 3.00793E-08 2.74690E-19-1.79565E-19
 -1      4185 8.10141E-05-2.06390E-05-2.58378E-05 7.52624E-06-1.22138E-18-2.48472E-18
 -1      4186 8.22986E-05-2.20699E-05-2.58428E-05 9.37422E-06-5.64435E-19-2.08211E-18
 -1      4187 9.61986E-05-2.58938E-05-3.01325E-05-2.45816E-07 1.49354E-19 9.90967E-20
 -1      4188 8.22635E-05-2.28436E-05-2.54358E-05 1.10009E-05-9.66134E-19-2.39136E-18
 -1      4189 8.72339E-05-2.18012E-05-2.80046E-05-8.90187E-07-3.76514E-19-3.36957E-19
 -1      4190 7.95902E-05-2.30594E-05-2.42918E-05-1.38054E-05 7.89036E-19-9.40061E-19
 -1      4191 7.70169E-05-2.00158E-05-2.43374E-05 1.01154E-05-2.22531E-19-2.13148E-18
 -1      4192 7.57263E-05-1.85156E-05-2.45665E-05 5.97645E-06-4.38065E-19-8.54923E-19
 -1      4193 7.99292E-05-2.17595E-05-2.48617E-05-1.08935E-05-7.27323E-20-5.34439E-19
 -1      4194 8.07027E-05-2.13841E-05-2.54754E-05-9.13689E-06-9.81966E-19-2.46976E-19
 -1      4195 8.17886E-05-1.93840E-05-2.67709E-05 2.74560E-06 3.10027E-19 1.48705E-18
 -1      4196 8.02359E-05-1.89101E-05-2.63068E-05 3.02911E-06 8.28032E-19 1.93816E-18
 -1      4197 7.59649E-05-1.74182E-05-2.50994E-05-1.67346E-06-1.17045E-18 7.76076E-19
 -1      4198 7.68566E-05-1.77111E-05-2.53005E-05 7.52935E-07-1.27576E-18-5.30388E-20
 -1      4199 9.22975E-05-2.53279E-05-2.87058E-05-1.34710E-06-8.63395E-20 1.06813E-18
 -1      4200 9.27828E-05-2.57469E-05-2.87357E-05-1.23430E-06-7.40425E-20 7.39153E-19
 -1      4201 9.18644E-05-2.49726E-05-2.86514E-05-8.49327E-07-3.05887E-19 7.13663E-19
 -1      4202 9.32654E-05-2.61527E-05-2.87654E-05-1.17549E-06-1.06050E-20 2.16392E-19
 -1      4203 9.36678E-05-2.65183E-05-2.87830E-05-1.07831E-06 1.28045E-20 1.51013E-19
 -1      4204 9.29158E-05-2.58463E-05-2.87321E-05-7.75536E-07-3.51546E-19 2.30561E-19
 -1      4205 9.66938E-05-2.73127E-05-2.97285E-05-7.12844E-08 1.43757E-19-1.12196E-19
 -1      4206 9.65328E-05-2.67645E-05-2.99024E-05 2.60954E-08 1.22359E-19-3.25161E-19
 -1      4207 9.66032E-05-2.69376E-05-2.98635E-05-1.99801E-08 8.62791E-20-2.54920E-19
 -1      4208 9.59337E-05-2.84619E-05-2.89155E-05-1.07944E-06 4.11554E-19-2.71438E-19
 -1      4209 9.60809E-05-2.85320E-05-2.89493E-05-1.00808E-06 4.05270E-19-1.47656E-19
 -1      4210 9.62281E-05-2.85274E-05-2.90156E-05-8.22277E-07 1.78093E-19-1.47750E-19
 -1      4211 7.49809E-05-1.83456E-05-2.43149E-05-6.09807E-06 8.75536E-19-1.38063E-18
 -1      4212 7.71280E-05-2.05668E-05-2.42052E-05-1.09520E-05 7.44809E-19-1.77569E-18
 -1      4213 9.45370E-05-2.72653E-05-2.88261E-05-6.30983E-07 7.85907E-20-1.38006E-19
 -1      4214 9.47521E-05-2.74715E-05-2.88351E-05-9.07412E-07 7.14702E-20-1.51198E-19
 -1      4215 9.50352E-05-2.77251E-05-2.88500E-05-8.38574E-07-6.58476E-20-3.30225E-20
 -1      4216 9.55603E-05-2.82062E-05-2.88647E-05-1.19754E-06 1.94311E-19-1.69693E-19
 -1      4217 9.57357E-05-2.83446E-05-2.88830E-05-1.12385E-06 1.92807E-19-2.87187E-19
 -1      4218 9.58743E-05-2.83733E-05-2.89294E-05-9.24754E-07 1.32176E-19-2.75315E-20
 -1      4219 9.54400E-05-2.80647E-05-2.88742E-05-1.02814E-06-2.01833E-19 4.39131E-20
 -1      4220 9.64361E-05-2.85076E-05-2.91115E-05 2.46852E-07 1.64854E-19 2.02810E-19
 -1      4221 7.86523E-05-1.84220E-05-2.58644E-05 3.37006E-06 1.02587E-18 1.99646E-18
 -1      4222 7.70840E-05-1.80353E-05-2.53174E-05 4.05248E-06 1.20695E-18 2.19650E-18
 -1      4223 7.57363E-05-1.73626E-05-2.49356E-05 1.66399E-06 5.11512E-19 1.42790E-18
 -1      4224 7.90748E-05-1.83955E-05-2.59722E-05 1.11847E-06 1.24472E-18 7.27502E-19
 -1      4225 9.65068E-05-2.85254E-05-2.91357E-05-5.65633E-07-3.85693E-20-1.95545E-19
 -1      4226 9.66115E-05-2.84521E-05-2.92110E-05-4.94619E-07-4.98201E-20-1.99726E-19
 -1      4227 8.73122E-05-2.16672E-05-2.81490E-05 1.77560E-06 9.77188E-20 2.61827E-18
 -1      4228 8.67325E-05-2.13604E-05-2.80136E-05 2.02228E-06 9.63011E-19 2.42742E-18
 -1      4229 8.71542E-05-2.15644E-05-2.81030E-05 7.62106E-07 1.21384E-18 3.08988E-18
 -1      4230 9.37963E-05-2.66126E-05-2.87849E-05-7.00053E-07-2.56580E-19-3.24516E-19
 -1      4231 9.62052E-05-2.57889E-05-3.01867E-05-7.32774E-08 2.74030E-19 1.32918E-19
 -1      4232 8.59473E-05-2.10132E-05-2.78411E-05 2.18879E-06 1.10776E-18 2.18391E-18
 -1      4233 8.52944E-05-2.07354E-05-2.76809E-05 2.47427E-06 1.37950E-18 1.53083E-18
 -1      4234 8.57633E-05-2.08778E-05-2.77716E-05 9.91463E-07 7.77854E-19 2.90973E-18
 -1      4235 9.64627E-05-2.72270E-05-2.96729E-05-6.78055E-08 2.56730E-19-6.22569E-20
 -1      4236 9.64452E-05-2.69339E-05-2.97901E-05 1.79242E-08 3.10104E-19-8.72727E-20
 -1      4237 9.65302E-05-2.76501E-05-2.95230E-05-3.25235E-07 1.75505E-19-1.73850E-19
 -1      4238 7.51159E-05-1.74709E-05-2.47272E-05-7.89954E-07-2.80993E-21-9.80426E-19
 -1      4239 7.49249E-05-1.75586E-05-2.45020E-05-3.66442E-06 1.53516E-19-2.13780E-18
 -1      4240 7.70626E-05-1.80216E-05-2.53215E-05-1.00888E-06 6.01876E-19-1.00060E-18
 -1      4241 8.40357E-05-2.02112E-05-2.73676E-05 2.66974E-06 8.61208E-19 2.22209E-18
 -1      4242 9.66896E-05-2.83115E-05-2.93064E-05-4.51139E-07-2.07823E-20-1.11312E-19
 -1      4243 9.67351E-05-2.81053E-05-2.94132E-05-3.40866E-07 1.63325E-19-2.63860E-19
 -1      4244 9.66944E-05-2.83419E-05-2.92928E-05-3.25513E-07-3.07721E-20-1.59600E-19
 -1      4245 7.96091E-05-1.99617E-05-2.55319E-05-6.83039E-06-5.79095E-19-5.73608E-19
 -1      4246 7.72088E-05-1.88817E-05-2.49930E-05-5.61813E-06 6.51627E-19-2.30864E-18
 -1      4247 9.65991E-05-2.73246E-05-2.96843E-05-1.38119E-07 2.19582E-19-1.05231E-19
 -1      4248 9.62256E-05-2.59009E-05-3.01431E-05-1.47381E-07 1.35743E-19 2.13456E-19
 -1      4249 9.57341E-05-2.82222E-05-2.89352E-05 6.76527E-08 6.39735E-20 2.69313E-20
 -1      4250 9.54777E-05-2.80441E-05-2.89013E-05 9.89306E-08 1.83374E-19 5.41225E-20
 -1      4251 9.51046E-05-2.77561E-05-2.88651E-05-1.07410E-07 4.08224E-20-1.81904E-19
 -1      4252 9.47931E-05-2.75020E-05-2.88409E-05-7.86461E-08-8.44197E-20-2.11383E-19
 -1      4253 9.44473E-05-2.72129E-05-2.88196E-05-9.99899E-08-1.60145E-19 6.46717E-20
 -1      4254 9.40838E-05-2.68995E-05-2.87968E-05-6.05185E-08-2.43574E-19 1.46622E-19
 -1      4255 9.36746E-05-2.65540E-05-2.87735E-05-8.02444E-08-2.80996E-19 3.35718E-19
 -1      4256 9.32508E-05-2.61879E-05-2.87467E-05-2.28277E-08-2.63838E-19 2.78783E-19
 -1      4257 9.27639E-05-2.57896E-05-2.87140E-05-3.72600E-08-3.63595E-19 2.27963E-19
 -1      4258 9.22685E-05-2.53769E-05-2.86754E-05 4.61844E-08-5.87908E-19 1.32199E-19
 -1      4259 9.16861E-05-2.49300E-05-2.86244E-05 4.40997E-08-6.21513E-19 3.40610E-19
 -1      4260 9.11064E-05-2.44785E-05-2.85648E-05 1.65285E-07-4.87676E-19 2.98900E-19
 -1      4261 9.04064E-05-2.39891E-05-2.84840E-05 1.86080E-07-2.34776E-19 3.26288E-19
 -1      4262 8.97281E-05-2.35097E-05-2.83921E-05 3.61736E-07 4.16322E-20 2.58998E-19
 -1      4263 8.88825E-05-2.29866E-05-2.82669E-05 4.20142E-07-5.64143E-20-4.56935E-21
 -1      4264 8.80895E-05-2.24950E-05-2.81280E-05 6.74211E-07 1.46006E-19-1.93082E-19
 -1      4265 8.70604E-05-2.19491E-05-2.79388E-05 7.90346E-07 1.73495E-19-5.55850E-19
 -1      4266 8.61339E-05-2.14661E-05-2.77346E-05 1.15685E-06-6.36810E-19-7.67043E-19
 -1      4267 8.48657E-05-2.09069E-05-2.74546E-05 1.36096E-06-1.08652E-18-3.41816E-19
 -1      4268 8.37897E-05-2.04608E-05-2.71610E-05 1.88680E-06-1.13298E-18-4.91605E-19
 -1      4269 8.21927E-05-1.98818E-05-2.67527E-05 2.23964E-06-1.49219E-18-1.21395E-19
 -1      4270 8.09520E-05-1.94990E-05-2.63415E-05 2.93283E-06-1.50342E-18-7.52060E-19
 -1      4271 7.89657E-05-1.91735E-05-2.56586E-05-4.46061E-06-8.58903E-19-2.24349E-18
 -1      4272 8.29124E-05-1.97235E-05-2.70334E-05 9.44859E-07 4.96984E-19 2.17342E-18
 -1      4273 7.96463E-05-2.15461E-05-2.49220E-05 1.08395E-05-8.84908E-19-3.25897E-18
 -1      4274 8.38739E-05-2.04237E-05-2.72195E-05-1.35999E-06-7.78130E-19 1.26197E-18
 -1      4275 8.16221E-05-1.96048E-05-2.66122E-05-1.75050E-06-1.69316E-19-2.98068E-19
 -1      4276 9.64596E-05-2.64764E-05-2.99861E-05-3.99246E-08 1.68255E-19 1.58075E-19
 -1      4277 8.64070E-05-2.14210E-05-2.78581E-05-9.99259E-07 8.17312E-19 8.43596E-19
 -1      4278 9.65753E-05-2.68967E-05-2.98657E-05-1.15913E-08 1.56397E-19 2.73467E-19
 -1      4279 9.66619E-05-2.72508E-05-2.97468E-05 8.33404E-08 1.21614E-19 1.94450E-19
 -1      4280 9.68028E-05-2.78557E-05-2.95505E-05 3.60060E-09 1.19477E-19-2.46814E-19
 -1      4281 9.67966E-05-2.81365E-05-2.94268E-05 4.10607E-08 1.45914E-19-1.11799E-19
 -1      4282 7.36642E-05-1.69052E-05-2.43809E-05-1.45927E-06-9.13833E-19 9.27514E-19
 -1      4283 9.65286E-05-2.85179E-05-2.91472E-05 3.86892E-08 1.60289E-19-2.71862E-19
 -1      4284 9.63730E-05-2.85193E-05-2.90802E-05 6.43303E-08 1.11740E-19-3.14999E-19
 -1      4285 9.64305E-05-2.85329E-05-2.90977E-05-4.55058E-07-3.79787E-20-1.52986E-19
 -1      4286 9.65422E-05-2.85120E-05-2.91568E-05-2.66252E-07-4.68737E-20-3.86476E-19
 -1      4287 9.61826E-05-2.84640E-05-2.90231E-05 5.02465E-08 1.34827E-19-1.94583E-19
 -1      4288 9.59737E-05-2.83641E-05-2.89754E-05 7.56971E-08 1.01925E-19 9.02461E-20
 -1      4289 9.62713E-05-2.84767E-05-2.90549E-05-1.58739E-07 1.81269E-19-2.33769E-19
 -1      4290 9.66298E-05-2.77368E-05-2.95277E-05-3.14323E-07 2.96481E-19-8.82263E-20
 -1      4291 9.67209E-05-2.74151E-05-2.97017E-05 5.83556E-08 1.45418E-19 1.57914E-19
 -1      4292 9.66507E-05-2.76253E-05-2.95819E-05-2.48182E-07 2.71424E-19-1.27124E-19
 -1      4293 9.67321E-05-2.77236E-05-2.95755E-05-2.22696E-07 2.61742E-19-2.44037E-19
 -1      4294 9.58468E-05-2.82764E-05-2.89578E-05-1.71361E-07 1.95396E-19-1.40739E-19
 -1      4295 7.88130E-05-1.84248E-05-2.58673E-05 1.48949E-06-1.82478E-18-4.81776E-19
 -1      4296 7.94823E-05-1.93821E-05-2.58103E-05 4.98648E-06-1.41751E-18-1.12182E-18
 -1      4297 7.86036E-05-1.84196E-05-2.57865E-05-1.20585E-06 8.64988E-19-1.45221E-18
 -1      4298 8.05549E-05-1.93486E-05-2.62413E-05-2.40056E-06-1.07169E-19-8.89374E-19
 -1      4299 9.52439E-05-2.78518E-05-2.88803E-05-3.77080E-07-7.78692E-20-3.49753E-19
 -1      4300 9.65717E-05-2.67953E-05-2.99065E-05 5.78093E-09 2.61803E-19 6.64736E-20
 -1      4301 9.67083E-05-2.72703E-05-2.97545E-05-1.66182E-08 6.84442E-20-2.02088E-19
 -1      4302 9.54034E-05-2.80022E-05-2.88862E-05-6.25179E-07-2.38819E-19-8.15946E-20
 -1      4303 9.56438E-05-2.81868E-05-2.89107E-05-5.74650E-07-1.19570E-19-5.72050E-20
 -1      4304 9.62784E-05-2.85147E-05-2.90419E-05-5.06280E-07 6.34080E-20-7.15207E-20
 -1      4305 9.66670E-05-2.84535E-05-2.92360E-05 7.59571E-08 1.47488E-19-9.38826E-20
 -1      4306 9.65971E-05-2.84654E-05-2.91989E-05-1.07567E-07 6.86322E-20-2.67889E-19
 -1      4307 9.66774E-05-2.84360E-05-2.92456E-05-2.24220E-07 3.72148E-20-2.31209E-19
 -1      4308 9.67572E-05-2.83218E-05-2.93295E-05 4.62007E-08 5.30457E-20-5.98489E-20
 -1      4309 9.67621E-05-2.75375E-05-2.96663E-05 2.24278E-08-7.29046E-21-2.26929E-19
 -1      4310 9.67771E-05-2.77262E-05-2.95957E-05-7.53314E-08 6.98990E-20-3.33372E-19
 -1      4311 9.67562E-05-2.82950E-05-2.93423E-05-1.76306E-07 8.97079E-20-1.98530E-19
 -1      4312 7.80375E-05-1.92696E-05-2.52251E-05 6.29138E-06-1.25207E-18-1.33099E-18
 -1      4313 9.67699E-05-2.81953E-05-2.93871E-05-7.97254E-08 1.42401E-19-3.38152E-19
 -1      4314 8.48405E-05-2.07442E-05-2.74964E-05-8.72642E-07-4.92241E-19 7.43151E-19
 -1      4315 9.60852E-05-2.84483E-05-2.89866E-05-5.15876E-07 2.18200E-19-2.57739E-21
 -1      4316 8.56625E-05-2.10897E-05-2.76878E-05-9.57369E-07 5.43549E-19 1.11281E-18
 -1      4317 9.58861E-05-2.83383E-05-2.89494E-05-5.64538E-07 1.80094E-19-1.52732E-19
 -1      4318 7.49087E-05-1.73518E-05-2.46312E-05 3.24279E-06-6.41368E-19-3.95020E-19
 -1      4319 9.67927E-05-2.80973E-05-2.94377E-05-1.77304E-07 2.04330E-19-1.51608E-19
 -1      4320 9.67634E-05-2.78208E-05-2.95472E-05-1.53324E-07 2.08996E-19-5.72914E-20
 -3
    1PSTEP                         4           1           1          
  100CL  101 1.000000000        4320                     0    1           1
 -4  ERROR       1    1
 -5  STR(%)      1    1    0    0
 -1         1 1.32811E+01
 -1         2 2.45469E+01
 -1         3 4.72706E-02
 -1         4 4.70153E-02
 -1         5 1.40451E+01
 -1         6 1.31493E+01
 -1         7 1.31493E+01
 -1         8 3.65977E+00
 -1         9 1.81846E+00
 -1        10 1.28900E+00
 -1        11 1.04327E+00
 -1        12 8.97289E-01
 -1        13 8.07601E-01
 -1        14 7.54012E-01
 -1        15 7.55912E-01
 -1        16 8.11891E-01
 -1        17 8.98988E-01
 -1        18 1.05004E+00
 -1        19 1.30458E+00
 -1        20 1.83048E+00
 -1        21 3.50161E+00
 -1        22 8.64371E+00
 -1        23 1.31493E+01
 -1        24 4.32543E+00
 -1        25 3.35061E+00
 -1        26 2.12234E+00
 -1        27 1.37568E+00
 -1        28 1.02800E+00
 -1        29 7.93068E-01
 -1        30 6.18434E-01
 -1        31 4.84786E-01
 -1        32 3.82485E-01
 -1        33 3.05611E-01
 -1        34 2.49703E-01
 -1        35 2.10921E-01
 -1        36 1.85667E-01
 -1        37 2.04655E-01
 -1        38 2.39163E-01
 -1        39 2.83142E-01
 -1        40 3.33774E-01
 -1        41 3.85679E-01
 -1        42 4.39844E-01
 -1        43 5.57097E-01
 -1        44 6.98657E-01
 -1        45 8.39367E-01
 -1        46 9.30234E-01
 -1        47 9.30234E-01
 -1        48 9.84518E-01
 -1        49 9.84518E-01
 -1        50 1.23425E+00
 -1        51 1.65390E+00
 -1        52 2.62977E+00
 -1        53 3.13790E+00
 -1        54 3.13790E+00
 -1        55 3.07670E+00
 -1        56 3.02500E+00
 -1        57 2.29792E+00
 -1        58 1.38386E+00
 -1        59 1.09244E+00
 -1        60 9.64847E-01
 -1        61 9.40005E-01
 -1        62 9.38037E-01
 -1        63 9.03211E-01
 -1        64 7.79228E-01
 -1        65 6.16892E-01
 -1        66 4.96294E-01
 -1        67 4.64132E-01
 -1        68 4.08200E-01
 -1        69 3.32376E-01
 -1        70 2.85982E-01
 -1        71 1.95473E-01
 -1        72 1.40451E+01
 -1        73 3.40066E+00
 -1        74 2.42078E+00
 -1        75 1.67494E+00
 -1        76 1.15551E+00
 -1        77 9.17439E-01
 -1        78 7.47061E-01
 -1        79 6.09527E-01
 -1        80 4.97919E-01
 -1        81 4.08854E-01
 -1        82 3.40399E-01
 -1        83 2.91055E-01
 -1        84 2.59441E-01
 -1        85 2.44218E-01
 -1        86 2.57225E-01
 -1        87 2.81798E-01
 -1        88 3.27561E-01
 -1        89 4.08860E-01
 -1        90 5.06814E-01
 -1        91 6.16635E-01
 -1        92 7.27468E-01
 -1        93 8.19178E-01
 -1        94 8.58980E-01
 -1        95 1.05071E+00
 -1        96 1.35914E+00
 -1        97 1.56881E+00
 -1        98 1.81109E+00
 -1        99 2.04043E+00
 -1       100 2.22475E+00
 -1       101 2.72380E+00
 -1       102 4.30900E+00
 -1       103 4.83837E+00
 -1       104 5.01452E+00
 -1       105 5.01452E+00
 -1       106 3.36816E+00
 -1       107 1.91884E+00
 -1       108 1.53734E+00
 -1       109 1.83887E+00
 -1       110 1.83887E+00
 -1       111 1.80672E+00
 -1       112 1.58697E+00
 -1       113 1.32811E+00
 -1       114 1.08202E+00
 -1       115 8.38513E-01
 -1       116 6.25693E-01
 -1       117 5.13010E-01
 -1       118 3.97728E-01
 -1       119 2.67820E-01
 -1       120 1.70237E-01
 -1       121 7.51014E-02
 -1       122 7.51014E-02
 -1       123 6.27251E-02
 -1       124 3.16089E-02
 -1       125 3.49579E-02
 -1       126 5.53506E-02
 -1       127 6.58483E-02
 -1       128 6.65886E-02
 -1       129 6.65886E-02
 -1       130 5.90187E-02
 -1       131 4.31971E-02
 -1       132 2.25288E-02
 -1       133 3.35551E-02
 -1       134 5.64695E-02
 -1       135 8.75624E-02
 -1       136 9.73633E-02
 -1       137 2.51007E+01
 -1       138 4.92487E+01
 -1       139 4.92487E+01
 -1       140 2.17519E+01
 -1       141 1.21885E+01
 -1       142 1.21885E+01
 -1       143 1.20393E+01
 -1       144 1.25442E+01
 -1       145 1.25442E+01
 -1       146 1.32577E+01
 -1       147 2.92655E+01
 -1       148 2.96074E+01
 -1       149 2.81418E+01
 -1       150 2.47600E+01
 -1       151 2.56095E+01
 -1       152 2.56095E+01
 -1       153 4.53601E+01
 -1       154 4.53601E+01
 -1       155 1.78557E+01
 -1       156 1.20553E+01
 -1       157 1.33191E+01
 -1       158 1.33191E+01
 -1       159 1.26919E+01
 -1       160 1.20489E+01
 -1       161 2.50287E+01
 -1       162 3.05377E+01
 -1       163 3.05377E+01
 -1       164 2.44034E+01
 -1       165 6.07401E+00
 -1       166 2.29321E+00
 -1       167 1.50524E+00
 -1       168 1.15500E+00
 -1       169 9.71213E-01
 -1       170 8.62874E-01
 -1       171 7.95569E-01
 -1       172 7.55912E-01
 -1       173 7.98939E-01
 -1       174 8.66107E-01
 -1       175 9.79117E-01
 -1       176 1.16983E+00
 -1       177 1.52423E+00
 -1       178 2.25723E+00
 -1       179 3.92872E+00
 -1       180 1.40451E+01
 -1       181 4.32543E+00
 -1       182 3.35061E+00
 -1       183 2.12234E+00
 -1       184 1.45784E+00
 -1       185 1.03777E+00
 -1       186 7.93068E-01
 -1       187 6.18434E-01
 -1       188 4.90845E-01
 -1       189 3.96024E-01
 -1       190 3.19907E-01
 -1       191 2.60090E-01
 -1       192 2.14087E-01
 -1       193 1.85667E-01
 -1       194 1.80676E-01
 -1       195 2.04655E-01
 -1       196 2.39163E-01
 -1       197 2.83142E-01
 -1       198 3.33774E-01
 -1       199 4.11391E-01
 -1       200 4.99891E-01
 -1       201 5.83818E-01
 -1       202 6.98657E-01
 -1       203 8.39367E-01
 -1       204 9.30234E-01
 -1       205 9.10742E-01
 -1       206 9.84518E-01
 -1       207 9.21490E-01
 -1       208 1.23425E+00
 -1       209 1.74118E+00
 -1       210 2.62977E+00
 -1       211 3.13790E+00
 -1       212 3.07670E+00
 -1       213 3.02500E+00
 -1       214 2.29792E+00
 -1       215 1.49008E+00
 -1       216 1.09244E+00
 -1       217 9.64847E-01
 -1       218 9.40005E-01
 -1       219 9.38037E-01
 -1       220 9.03211E-01
 -1       221 7.79228E-01
 -1       222 6.24585E-01
 -1       223 5.08058E-01
 -1       224 4.64132E-01
 -1       225 4.08200E-01
 -1       226 3.32376E-01
 -1       227 2.85982E-01
 -1       228 1.95473E-01
 -1       229 3.40066E+00
 -1       230 2.42078E+00
 -1       231 1.67494E+00
 -1       232 1.15551E+00
 -1       233 9.17439E-01
 -1       234 7.47061E-01
 -1       235 6.09527E-01
 -1       236 4.97919E-01
 -1       237 4.08854E-01
 -1       238 3.40399E-01
 -1       239 2.91055E-01
 -1       240 2.59441E-01
 -1       241 2.44218E-01
 -1       242 2.44005E-01
 -1       243 2.57225E-01
 -1       244 2.91752E-01
 -1       245 3.59101E-01
 -1       246 4.38798E-01
 -1       247 5.27772E-01
 -1       248 6.16635E-01
 -1       249 7.27468E-01
 -1       250 8.19178E-01
 -1       251 9.35022E-01
 -1       252 1.13446E+00
 -1       253 1.35914E+00
 -1       254 1.56881E+00
 -1       255 1.81109E+00
 -1       256 2.04043E+00
 -1       257 2.22475E+00
 -1       258 2.88466E+00
 -1       259 4.30900E+00
 -1       260 4.83837E+00
 -1       261 5.01452E+00
 -1       262 3.36816E+00
 -1       263 1.91884E+00
 -1       264 1.38781E+00
 -1       265 1.55196E+00
 -1       266 1.83887E+00
 -1       267 1.80672E+00
 -1       268 1.58697E+00
 -1       269 1.32811E+00
 -1       270 1.08481E+00
 -1       271 8.64659E-01
 -1       272 6.54972E-01
 -1       273 5.13010E-01
 -1       274 3.97728E-01
 -1       275 2.67820E-01
 -1       276 1.70237E-01
 -1       277 1.00798E-01
 -1       278 1.00798E-01
 -1       279 9.80054E-02
 -1       280 5.98438E-02
 -1       281 9.96034E-02
 -1       282 1.22504E-01
 -1       283 1.27209E-01
 -1       284 1.27209E-01
 -1       285 1.24886E-01
 -1       286 1.06500E-01
 -1       287 7.62736E-02
 -1       288 4.65443E-02
 -1       289 9.04126E-02
 -1       290 9.04126E-02
 -1       291 1.13881E-01
 -1       292 2.98802E+01
 -1       293 3.07069E+01
 -1       294 4.92487E+01
 -1       295 2.49054E+01
 -1       296 1.17306E+01
 -1       297 1.21885E+01
 -1       298 1.20393E+01
 -1       299 1.15768E+01
 -1       300 1.25442E+01
 -1       301 1.24315E+01
 -1       302 1.32577E+01
 -1       303 2.96074E+01
 -1       304 2.96074E+01
 -1       305 2.47600E+01
 -1       306 3.07067E+01
 -1       307 3.07067E+01
 -1       308 3.87507E+01
 -1       309 4.53601E+01
 -1       310 1.88067E+01
 -1       311 1.08077E+01
 -1       312 1.20553E+01
 -1       313 1.33191E+01
 -1       314 1.32811E+01
 -1       315 1.26919E+01
 -1       316 1.20489E+01
 -1       317 1.16539E+01
 -1       318 2.73506E+01
 -1       319 3.14529E+01
 -1       320 3.14529E+01
 -1       321 2.98802E+01
 -1       322 1.04111E+00
 -1       323 2.47539E+00
 -1       324 7.88885E-01
 -1       325 6.92085E-01
 -1       326 6.30485E-01
 -1       327 5.86933E-01
 -1       328 5.90059E-01
 -1       329 6.33276E-01
 -1       330 6.99443E-01
 -1       331 7.94118E-01
 -1       332 9.29078E-01
 -1       333 1.15493E+00
 -1       334 1.32397E+00
 -1       335 2.20329E+00
 -1       336 1.91700E+00
 -1       337 1.73720E+00
 -1       338 1.27691E+00
 -1       339 9.17410E-01
 -1       340 6.67792E-01
 -1       341 5.54953E-01
 -1       342 4.61693E-01
 -1       343 3.80639E-01
 -1       344 3.12341E-01
 -1       345 2.57204E-01
 -1       346 2.11673E-01
 -1       347 1.76302E-01
 -1       348 1.49889E-01
 -1       349 1.68494E-01
 -1       350 1.94406E-01
 -1       351 2.27178E-01
 -1       352 2.89899E-01
 -1       353 3.70278E-01
 -1       354 4.50068E-01
 -1       355 5.19074E-01
 -1       356 5.87446E-01
 -1       357 6.62266E-01
 -1       358 7.02110E-01
 -1       359 6.59074E-01
 -1       360 5.19238E-01
 -1       361 4.81546E-01
 -1       362 7.49823E-01
 -1       363 1.23962E+00
 -1       364 1.61830E+00
 -1       365 1.96601E+00
 -1       366 1.95420E+00
 -1       367 1.99624E+00
 -1       368 1.87423E+00
 -1       369 1.44671E+00
 -1       370 1.07539E+00
 -1       371 6.22934E-01
 -1       372 4.90869E-01
 -1       373 5.62842E-01
 -1       374 6.76357E-01
 -1       375 6.75902E-01
 -1       376 6.04824E-01
 -1       377 5.19754E-01
 -1       378 4.46301E-01
 -1       379 3.63726E-01
 -1       380 3.05506E-01
 -1       381 2.42676E-01
 -1       382 1.69816E-01
 -1       383 1.13691E+00
 -1       384 8.99701E-01
 -1       385 7.13019E-01
 -1       386 5.54869E-01
 -1       387 4.52948E-01
 -1       388 3.89455E-01
 -1       389 3.28946E-01
 -1       390 2.76193E-01
 -1       391 2.40897E-01
 -1       392 2.15466E-01
 -1       393 1.99930E-01
 -1       394 1.93824E-01
 -1       395 1.97790E-01
 -1       396 2.40253E-01
 -1       397 3.34758E-01
 -1       398 4.61829E-01
 -1       399 6.13927E-01
 -1       400 7.87427E-01
 -1       401 9.70235E-01
 -1       402 1.13724E+00
 -1       403 1.27729E+00
 -1       404 1.36080E+00
 -1       405 1.36080E+00
 -1       406 1.27055E+00
 -1       407 1.06570E+00
 -1       408 1.15928E+00
 -1       409 1.95473E+00
 -1       410 2.45349E+00
 -1       411 2.99499E+00
 -1       412 2.93652E+00
 -1       413 2.85368E+00
 -1       414 2.27044E+00
 -1       415 1.19982E+00
 -1       416 1.05473E+00
 -1       417 1.24542E+00
 -1       418 1.34821E+00
 -1       419 1.37420E+00
 -1       420 1.28829E+00
 -1       421 1.14914E+00
 -1       422 9.91540E-01
 -1       423 8.09046E-01
 -1       424 6.28521E-01
 -1       425 4.63693E-01
 -1       426 3.67390E-01
 -1       427 2.66366E-01
 -1       428 1.60284E-01
 -1       429 1.09492E-01
 -1       430 1.97144E-01
 -1       431 1.97144E-01
 -1       432 1.36888E-01
 -1       433 1.71813E-01
 -1       434 1.82791E-01
 -1       435 1.82791E-01
 -1       436 1.80281E-01
 -1       437 1.71602E-01
 -1       438 1.42764E-01
 -1       439 9.65774E-02
 -1       440 1.01192E-01
 -1       441 1.49279E-01
 -1       442 3.07069E+01
 -1       443 3.28170E+01
 -1       444 3.28170E+01
 -1       445 1.77037E+01
 -1       446 1.10732E+01
 -1       447 9.17223E-01
 -1       448 9.73099E+00
 -1       449 1.05752E+01
 -1       450 1.10216E+01
 -1       451 8.67406E+00
 -1       452 5.88153E+00
 -1       453 1.21347E+01
 -1       454 2.02393E+01
 -1       455 2.36443E+01
 -1       456 3.51366E+01
 -1       457 3.51366E+01
 -1       458 2.68204E+01
 -1       459 2.64518E+01
 -1       460 1.52477E+01
 -1       461 8.35922E+00
 -1       462 7.52777E+00
 -1       463 8.99821E+00
 -1       464 1.01342E+01
 -1       465 9.92254E+00
 -1       466 9.01087E+00
 -1       467 6.21972E+00
 -1       468 1.05361E+01
 -1       469 1.83125E+01
 -1       470 3.14529E+01
 -1       471 2.98762E+01
 -1       472 7.18791E+00
 -1       473 5.12368E+00
 -1       474 5.33314E+00
 -1       475 1.05533E+00
 -1       476 4.84742E-01
 -1       477 5.07252E-01
 -1       478 4.30767E-01
 -1       479 4.56386E-01
 -1       480 4.85500E-01
 -1       481 5.09230E-01
 -1       482 5.09230E-01
 -1       483 6.01499E-01
 -1       484 8.99701E-01
 -1       485 8.03631E-01
 -1       486 5.11297E+00
 -1       487 7.12263E-01
 -1       488 5.96545E-01
 -1       489 4.84225E-01
 -1       490 3.84759E-01
 -1       491 3.38045E-01
 -1       492 2.89565E-01
 -1       493 2.43176E-01
 -1       494 2.00681E-01
 -1       495 1.62333E-01
 -1       496 1.27366E-01
 -1       497 1.21635E-01
 -1       498 1.39551E-01
 -1       499 1.77583E-01
 -1       500 2.47599E-01
 -1       501 3.24048E-01
 -1       502 4.03906E-01
 -1       503 4.81075E-01
 -1       504 5.47371E-01
 -1       505 6.01638E-01
 -1       506 6.73874E-01
 -1       507 7.17720E-01
 -1       508 7.03894E-01
 -1       509 8.28499E-01
 -1       510 9.38966E-01
 -1       511 1.13739E+00
 -1       512 1.31984E+00
 -1       513 1.54719E+00
 -1       514 1.98357E+00
 -1       515 1.78229E+00
 -1       516 1.87171E+00
 -1       517 1.46802E+00
 -1       518 1.25861E+00
 -1       519 1.04753E+00
 -1       520 9.03425E-01
 -1       521 7.67614E-01
 -1       522 6.91809E-01
 -1       523 6.76273E-01
 -1       524 6.13012E-01
 -1       525 5.42462E-01
 -1       526 4.78903E-01
 -1       527 4.02408E-01
 -1       528 3.19469E-01
 -1       529 2.40021E-01
 -1       530 5.54869E-01
 -1       531 4.52948E-01
 -1       532 3.89455E-01
 -1       533 3.28946E-01
 -1       534 2.74635E-01
 -1       535 2.27698E-01
 -1       536 1.87933E-01
 -1       537 1.54192E-01
 -1       538 1.41103E-01
 -1       539 1.65057E-01
 -1       540 1.99640E-01
 -1       541 2.92648E-01
 -1       542 4.05669E-01
 -1       543 5.41105E-01
 -1       544 6.98777E-01
 -1       545 8.73644E-01
 -1       546 1.05266E+00
 -1       547 1.21122E+00
 -1       548 1.31823E+00
 -1       549 1.52026E+00
 -1       550 1.70539E+00
 -1       551 1.78352E+00
 -1       552 2.16980E+00
 -1       553 2.44765E+00
 -1       554 3.17636E+00
 -1       555 5.43573E+00
 -1       556 4.44271E+00
 -1       557 3.45941E+00
 -1       558 2.32986E+00
 -1       559 2.03313E+00
 -1       560 2.07769E+00
 -1       561 1.61966E+00
 -1       562 1.55758E+00
 -1       563 1.39451E+00
 -1       564 1.29520E+00
 -1       565 1.15818E+00
 -1       566 9.73371E-01
 -1       567 7.83890E-01
 -1       568 6.14189E-01
 -1       569 4.56848E-01
 -1       570 3.48996E-01
 -1       571 2.40171E-01
 -1       572 2.26183E-01
 -1       573 2.48230E-01
 -1       574 2.32851E-01
 -1       575 2.56549E-01
 -1       576 2.48230E-01
 -1       577 2.39604E-01
 -1       578 2.39604E-01
 -1       579 2.18177E-01
 -1       580 1.69981E-01
 -1       581 1.67410E-01
 -1       582 1.67410E-01
 -1       583 3.28170E+01
 -1       584 2.15464E+01
 -1       585 2.98762E+01
 -1       586 7.13019E-01
 -1       587 1.32644E+01
 -1       588 8.76116E-01
 -1       589 4.12786E+00
 -1       590 7.04686E+00
 -1       591 2.68204E+01
 -1       592 4.56589E-01
 -1       593 8.00941E+00
 -1       594 1.63237E+01
 -1       595 7.39457E+00
 -1       596 6.31809E+00
 -1       597 5.87440E+00
 -1       598 7.66320E+00
 -1       599 1.02443E+01
 -1       600 2.36443E+01
 -1       601 3.51366E+01
 -1       602 1.67827E+01
 -1       603 1.26530E+01
 -1       604 7.62771E+00
 -1       605 5.12776E+00
 -1       606 1.35777E+01
 -1       607 6.05018E+00
 -1       608 4.33504E+00
 -1       609 6.14185E+00
 -1       610 9.20978E+00
 -1       611 2.06792E+01
 -1       612 1.32954E+00
 -1       613 9.42089E+00
 -1       614 7.20093E-01
 -1       615 4.88228E+00
 -1       616 9.36541E+00
 -1       617 5.43573E+00
 -1       618 1.56628E-01
 -1       619 3.58052E-01
 -1       620 3.42929E-01
 -1       621 3.60938E-01
 -1       622 3.36660E-01
 -1       623 5.43828E-01
 -1       624 5.21661E-01
 -1       625 4.01541E+00
 -1       626 4.03785E-01
 -1       627 3.89322E-01
 -1       628 3.46809E-01
 -1       629 2.94876E-01
 -1       630 2.42711E-01
 -1       631 2.11679E-01
 -1       632 1.77632E-01
 -1       633 1.42601E-01
 -1       634 1.07176E-01
 -1       635 7.34128E-02
 -1       636 8.52954E-02
 -1       637 1.32645E-01
 -1       638 1.96096E-01
 -1       639 2.67921E-01
 -1       640 3.48046E-01
 -1       641 4.34899E-01
 -1       642 5.24557E-01
 -1       643 6.09579E-01
 -1       644 6.98371E-01
 -1       645 8.32426E-01
 -1       646 9.58924E-01
 -1       647 1.04293E+00
 -1       648 1.25407E+00
 -1       649 1.65985E+00
 -1       650 1.57484E+00
 -1       651 2.34184E+00
 -1       652 3.45275E+00
 -1       653 2.59171E+00
 -1       654 2.45322E+00
 -1       655 1.87171E+00
 -1       656 1.51406E+00
 -1       657 1.51783E+00
 -1       658 1.49015E+00
 -1       659 1.17743E+00
 -1       660 9.27498E-01
 -1       661 8.18738E-01
 -1       662 6.88143E-01
 -1       663 6.13012E-01
 -1       664 5.25678E-01
 -1       665 4.31135E-01
 -1       666 3.36336E-01
 -1       667 2.51326E-01
 -1       668 3.31975E-01
 -1       669 4.12062E-01
 -1       670 4.02087E-01
 -1       671 2.45609E-01
 -1       672 2.07231E-01
 -1       673 1.69700E-01
 -1       674 1.33349E-01
 -1       675 9.73325E-02
 -1       676 1.09966E-01
 -1       677 1.49870E-01
 -1       678 2.28534E-01
 -1       679 3.23554E-01
 -1       680 4.38542E-01
 -1       681 5.76901E-01
 -1       682 7.41292E-01
 -1       683 9.32667E-01
 -1       684 1.14860E+00
 -1       685 1.37978E+00
 -1       686 1.60260E+00
 -1       687 1.94694E+00
 -1       688 2.49231E+00
 -1       689 2.83716E+00
 -1       690 4.41323E+00
 -1       691 3.53011E+00
 -1       692 6.33054E+00
 -1       693 4.83959E+00
 -1       694 3.07940E+00
 -1       695 3.54534E+00
 -1       696 2.94415E+00
 -1       697 2.39900E+00
 -1       698 1.91411E+00
 -1       699 1.55641E+00
 -1       700 1.34814E+00
 -1       701 1.12092E+00
 -1       702 9.02372E-01
 -1       703 7.04918E-01
 -1       704 5.27359E-01
 -1       705 4.36203E-01
 -1       706 3.17203E-01
 -1       707 1.67410E-01
 -1       708 3.25168E-01
 -1       709 3.06303E-01
 -1       710 3.25168E-01
 -1       711 4.01236E+00
 -1       712 3.01582E-01
 -1       713 2.57597E-01
 -1       714 2.06281E-01
 -1       715 7.41707E+00
 -1       716 4.65600E-01
 -1       717 4.94255E+00
 -1       718 9.82275E+00
 -1       719 4.70348E-01
 -1       720 1.62844E+01
 -1       721 2.82893E-01
 -1       722 2.45730E+00
 -1       723 7.01445E+00
 -1       724 1.32987E+01
 -1       725 3.60938E-01
 -1       726 5.46967E+00
 -1       727 5.39601E+00
 -1       728 3.64633E-01
 -1       729 6.23184E+00
 -1       730 4.39142E+00
 -1       731 1.51512E+01
 -1       732 1.59929E+01
 -1       733 1.39038E+01
 -1       734 1.46289E+01
 -1       735 5.27066E+00
 -1       736 9.80986E+00
 -1       737 1.33464E+01
 -1       738 1.13069E+01
 -1       739 3.76407E+00
 -1       740 7.27715E+00
 -1       741 1.11852E+01
 -1       742 4.65600E-01
 -1       743 3.64292E-01
 -1       744 5.06111E+00
 -1       745 4.12062E-01
 -1       746 4.03914E-01
 -1       747 9.90882E+00
 -1       748 1.65689E-01
 -1       749 8.72453E+00
 -1       750 2.42188E-01
 -1       751 7.61643E+00
 -1       752 2.21857E+00
 -1       753 3.34522E+00
 -1       754 2.57757E-01
 -1       755 2.48937E-01
 -1       756 2.23315E-01
 -1       757 1.89790E-01
 -1       758 1.61560E-01
 -1       759 1.32529E-01
 -1       760 9.92048E-02
 -1       761 6.25252E-02
 -1       762 6.31050E-02
 -1       763 9.50896E-02
 -1       764 1.48307E-01
 -1       765 2.10603E-01
 -1       766 2.81219E-01
 -1       767 3.71909E-01
 -1       768 4.77854E-01
 -1       769 5.95827E-01
 -1       770 7.31879E-01
 -1       771 8.77501E-01
 -1       772 1.08117E+00
 -1       773 1.36257E+00
 -1       774 1.66545E+00
 -1       775 1.71372E+00
 -1       776 2.91383E+00
 -1       777 2.34184E+00
 -1       778 3.86078E+00
 -1       779 4.01541E+00
 -1       780 1.71613E+00
 -1       781 1.99060E+00
 -1       782 2.29456E+00
 -1       783 2.18225E+00
 -1       784 1.89699E+00
 -1       785 1.52060E+00
 -1       786 1.17217E+00
 -1       787 9.87383E-01
 -1       788 8.03232E-01
 -1       789 6.31431E-01
 -1       790 4.81456E-01
 -1       791 2.88887E-01
 -1       792 9.63103E+00
 -1       793 2.88150E-01
 -1       794 1.46751E-01
 -1       795 1.80163E-01
 -1       796 7.43438E-02
 -1       797 5.49110E-02
 -1       798 9.39714E-02
 -1       799 1.55314E-01
 -1       800 2.36012E-01
 -1       801 3.38292E-01
 -1       802 4.63334E-01
 -1       803 6.13665E-01
 -1       804 7.88887E-01
 -1       805 9.96776E-01
 -1       806 1.29076E+00
 -1       807 1.70582E+00
 -1       808 2.25821E+00
 -1       809 2.94081E+00
 -1       810 4.48894E+00
 -1       811 1.05016E+01
 -1       812 4.46729E+00
 -1       813 2.86147E+00
 -1       814 2.20416E+00
 -1       815 1.68323E+00
 -1       816 1.26865E+00
 -1       817 9.69247E-01
 -1       818 7.35986E-01
 -1       819 5.60073E-01
 -1       820 2.88302E-01
 -1       821 3.87967E-01
 -1       822 2.85485E-01
 -1       823 3.87967E-01
 -1       824 6.83224E+00
 -1       825 9.70755E+00
 -1       826 8.30596E+00
 -1       827 2.73501E-01
 -1       828 3.51871E-01
 -1       829 1.10583E-01
 -1       830 3.45275E+00
 -1       831 3.74520E+00
 -1       832 2.41671E-01
 -1       833 1.05016E+01
 -1       834 4.86996E+00
 -1       835 9.90882E+00
 -1       836 6.10574E+00
 -1       837 8.85803E+00
 -1       838 2.81871E-01
 -1       839 5.93831E+00
 -1       840 2.37405E+00
 -1       841 7.02778E+00
 -1       842 3.64292E-01
 -1       843 2.78818E-01
 -1       844 3.58175E-01
 -1       845 4.06669E-01
 -1       846 2.52682E-01
 -1       847 3.09075E-01
 -1       848 2.11319E-01
 -1       849 4.03914E-01
 -1       850 5.09235E-01
 -1       851 2.88302E-01
 -1       852 4.14484E-01
 -1       853 4.14484E-01
 -1       854 8.15377E+00
 -1       855 3.15496E+00
 -1       856 2.74235E-01
 -1       857 4.12062E-01
 -1       858 2.55467E-01
 -1       859 6.50834E+00
 -1       860 1.79758E-01
 -1       861 1.68605E-01
 -1       862 1.47226E-01
 -1       863 1.26404E-01
 -1       864 1.04493E-01
 -1       865 8.63635E-02
 -1       866 9.11493E-02
 -1       867 9.80653E-02
 -1       868 1.47653E-01
 -1       869 2.09729E-01
 -1       870 2.81219E-01
 -1       871 3.61867E-01
 -1       872 4.49661E-01
 -1       873 5.60143E-01
 -1       874 6.98077E-01
 -1       875 9.18541E-01
 -1       876 1.21123E+00
 -1       877 1.49112E+00
 -1       878 1.85642E+00
 -1       879 2.99234E+00
 -1       880 3.59022E+00
 -1       881 2.70337E+00
 -1       882 2.23855E+00
 -1       883 1.73443E+00
 -1       884 1.26539E+00
 -1       885 9.04369E-01
 -1       886 7.11951E-01
 -1       887 5.66401E-01
 -1       888 6.68286E+00
 -1       889 9.27547E-02
 -1       890 8.40734E-02
 -1       891 2.24626E-01
 -1       892 3.19098E-01
 -1       893 4.36849E-01
 -1       894 5.83896E-01
 -1       895 7.67452E-01
 -1       896 9.96323E-01
 -1       897 1.27553E+00
 -1       898 1.62668E+00
 -1       899 2.19754E+00
 -1       900 3.38910E+00
 -1       901 3.84834E+00
 -1       902 3.09290E+00
 -1       903 1.40703E-01
 -1       904 5.91385E+00
 -1       905 1.59882E+00
 -1       906 1.24166E+00
 -1       907 9.59181E-01
 -1       908 8.26962E-01
 -1       909 4.73521E+00
 -1       910 4.69643E-01
 -1       911 2.04487E+00
 -1       912 1.48454E-01
 -1       913 1.60245E-01
 -1       914 6.54517E+00
 -1       915 6.96994E+00
 -1       916 1.72294E-01
 -1       917 1.23995E-01
 -1       918 6.68286E+00
 -1       919 6.61059E+00
 -1       920 4.03914E-01
 -1       921 6.17060E+00
 -1       922 5.12610E+00
 -1       923 5.15131E+00
 -1       924 1.15688E-01
 -1       925 6.72671E-01
 -1       926 2.08466E-01
 -1       927 1.64613E-01
 -1       928 8.58175E-02
 -1       929 6.72671E-01
 -1       930 2.07792E-01
 -1       931 5.75464E+00
 -1       932 2.63953E-01
 -1       933 4.32211E-01
 -1       934 2.15665E-01
 -1       935 4.97249E-01
 -1       936 4.61914E+00
 -1       937 4.47536E+00
 -1       938 1.52180E-01
 -1       939 1.36442E-01
 -1       940 1.16894E+00
 -1       941 1.32502E-01
 -1       942 5.50126E+00
 -1       943 3.46331E+00
 -1       944 1.28064E-01
 -1       945 1.13975E-01
 -1       946 9.99518E-02
 -1       947 1.00220E-01
 -1       948 1.07584E-01
 -1       949 1.17711E-01
 -1       950 1.34965E-01
 -1       951 1.91106E-01
 -1       952 2.59621E-01
 -1       953 3.42376E-01
 -1       954 4.41827E-01
 -1       955 5.60143E-01
 -1       956 6.98077E-01
 -1       957 8.86288E-01
 -1       958 1.17067E+00
 -1       959 1.53447E+00
 -1       960 2.02719E+00
 -1       961 2.04379E+00
 -1       962 4.37834E+00
 -1       963 3.19797E+00
 -1       964 1.91359E+00
 -1       965 1.32157E+00
 -1       966 1.02293E+00
 -1       967 7.76497E-01
 -1       968 4.12695E-01
 -1       969 4.64127E+00
 -1       970 3.71692E-01
 -1       971 2.72505E-01
 -1       972 6.61789E-01
 -1       973 8.79041E-01
 -1       974 1.18101E+00
 -1       975 1.59192E+00
 -1       976 2.30594E+00
 -1       977 8.26962E-01
 -1       978 1.83188E-01
 -1       979 8.89564E-01
 -1       980 1.59882E+00
 -1       981 5.45792E+00
 -1       982 2.53241E+00
 -1       983 1.12573E-01
 -1       984 6.31491E-01
 -1       985 2.04947E-01
 -1       986 5.04974E+00
 -1       987 3.89861E-01
 -1       988 1.21771E-01
 -1       989 1.91024E-01
 -1       990 4.98021E-01
 -1       991 2.63953E-01
 -1       992 4.62326E+00
 -1       993 5.81725E-01
 -1       994 1.03056E-01
 -1       995 2.58334E+00
 -1       996 3.26432E+00
 -1       997 1.27351E-01
 -1       998 1.93619E-01
 -1       999 3.55829E+00
 -1      1000 1.30208E-01
 -1      1001 1.16197E-01
 -1      1002 9.95155E-02
 -1      1003 1.05826E+00
 -1      1004 1.82628E-01
 -1      1005 1.05826E+00
 -1      1006 3.86835E+00
 -1      1007 8.77242E-02
 -1      1008 1.44187E-01
 -1      1009 1.10673E-01
 -1      1010 2.07162E-01
 -1      1011 1.82628E-01
 -1      1012 9.82200E-02
 -1      1013 9.49753E-02
 -1      1014 1.04613E-01
 -1      1015 1.12928E-01
 -1      1016 1.26179E-01
 -1      1017 1.43475E-01
 -1      1018 1.72864E-01
 -1      1019 2.17457E-01
 -1      1020 2.91493E-01
 -1      1021 3.86478E-01
 -1      1022 5.09722E-01
 -1      1023 6.71706E-01
 -1      1024 8.86288E-01
 -1      1025 1.17067E+00
 -1      1026 1.49342E+00
 -1      1027 3.77640E-01
 -1      1028 3.24616E+00
 -1      1029 4.07059E+00
 -1      1030 3.03239E+00
 -1      1031 1.72512E+00
 -1      1032 1.27813E+00
 -1      1033 1.04468E+00
 -1      1034 8.88689E-01
 -1      1035 6.60940E-01
 -1      1036 2.68381E+00
 -1      1037 9.41233E-02
 -1      1038 6.54455E-01
 -1      1039 1.44682E-01
 -1      1040 7.85626E-01
 -1      1041 2.68381E+00
 -1      1042 3.31792E+00
 -1      1043 1.20993E+00
 -1      1044 8.94316E-02
 -1      1045 2.84767E-01
 -1      1046 4.98198E-01
 -1      1047 1.32920E-01
 -1      1048 1.51977E-01
 -1      1049 9.94238E-02
 -1      1050 1.52488E-01
 -1      1051 1.75007E+00
 -1      1052 1.54174E+00
 -1      1053 1.38861E-01
 -1      1054 2.92125E+00
 -1      1055 1.05826E+00
 -1      1056 2.11504E-01
 -1      1057 1.10529E-01
 -1      1058 1.61311E-01
 -1      1059 1.17302E-01
 -1      1060 1.40966E-01
 -1      1061 7.21918E-02
 -1      1062 1.00843E+00
 -1      1063 2.03281E+00
 -1      1064 6.88611E-01
 -1      1065 8.96662E-02
 -1      1066 8.96662E-02
 -1      1067 2.15446E+00
 -1      1068 2.00378E+00
 -1      1069 1.28037E+00
 -1      1070 1.15566E-01
 -1      1071 4.10989E-01
 -1      1072 1.04613E-01
 -1      1073 1.12928E-01
 -1      1074 1.53742E-01
 -1      1075 1.43475E-01
 -1      1076 1.72864E-01
 -1      1077 2.24354E-01
 -1      1078 2.96126E-01
 -1      1079 3.94918E-01
 -1      1080 5.33355E-01
 -1      1081 7.31590E-01
 -1      1082 1.01996E+00
 -1      1083 1.42584E+00
 -1      1084 1.63843E+00
 -1      1085 1.62601E+00
 -1      1086 1.25363E+00
 -1      1087 2.62044E+00
 -1      1088 9.03258E-02
 -1      1089 1.62392E-01
 -1      1090 5.33355E-01
 -1      1091 1.01996E+00
 -1      1092 8.48497E-02
 -1      1093 1.13495E-01
 -1      1094 6.76095E-02
 -1      1095 3.20961E-01
 -1      1096 7.31590E-01
 -1      1097 9.77896E-02
 -1      1098 7.98618E-02
 -1      1099 2.77664E+00
 -1      1100 1.80147E+00
 -1      1101 1.30052E+00
 -1      1102 2.52951E-01
 -1      1103 2.01376E-01
 -1      1104 9.03258E-02
 -1      1105 1.17302E-01
 -1      1106 1.53742E-01
 -1      1107 1.10569E-01
 -1      1108 1.38801E+00
 -1      1109 1.01124E-01
 -1      1110 7.62902E-01
 -1      1111 1.25363E+00
 -1      1112 8.75994E-02
 -1      1113 1.51782E+00
 -1      1114 8.58005E-02
 -1      1115 1.53742E-01
 -1      1116 4.99687E-02
 -1      1117 6.84179E-02
 -1      1118 1.17302E-01
 -1      1119 1.11849E-01
 -1      1120 2.62044E+00
 -1      1121 1.01124E-01
 -1      1122 1.31493E+01
 -1      1123 8.40451E+00
 -1      1124 2.73912E+00
 -1      1125 1.55373E+00
 -1      1126 1.16613E+00
 -1      1127 9.70280E-01
 -1      1128 8.52445E-01
 -1      1129 7.80806E-01
 -1      1130 7.54962E-01
 -1      1131 7.83901E-01
 -1      1132 8.55439E-01
 -1      1133 9.74512E-01
 -1      1134 1.17731E+00
 -1      1135 1.56753E+00
 -1      1136 2.66604E+00
 -1      1137 6.07266E+00
 -1      1138 1.13444E+01
 -1      1139 1.31493E+01
 -1      1140 8.73735E+00
 -1      1141 3.83802E+00
 -1      1142 2.73647E+00
 -1      1143 1.74901E+00
 -1      1144 1.20184E+00
 -1      1145 9.10535E-01
 -1      1146 7.05751E-01
 -1      1147 5.51610E-01
 -1      1148 4.33636E-01
 -1      1149 3.44048E-01
 -1      1150 2.77657E-01
 -1      1151 2.30312E-01
 -1      1152 1.98294E-01
 -1      1153 1.95161E-01
 -1      1154 2.21909E-01
 -1      1155 2.61153E-01
 -1      1156 3.08458E-01
 -1      1157 3.59726E-01
 -1      1158 4.12761E-01
 -1      1159 4.98471E-01
 -1      1160 6.27877E-01
 -1      1161 7.69012E-01
 -1      1162 8.84800E-01
 -1      1163 9.30234E-01
 -1      1164 9.57376E-01
 -1      1165 9.84518E-01
 -1      1166 1.10939E+00
 -1      1167 1.44408E+00
 -1      1168 2.14184E+00
 -1      1169 2.88384E+00
 -1      1170 3.13790E+00
 -1      1171 3.10730E+00
 -1      1172 3.05085E+00
 -1      1173 2.66146E+00
 -1      1174 1.84089E+00
 -1      1175 1.23815E+00
 -1      1176 1.02864E+00
 -1      1177 9.52426E-01
 -1      1178 9.39021E-01
 -1      1179 9.20624E-01
 -1      1180 8.41220E-01
 -1      1181 6.98060E-01
 -1      1182 5.56593E-01
 -1      1183 4.80213E-01
 -1      1184 4.36166E-01
 -1      1185 3.70288E-01
 -1      1186 3.09179E-01
 -1      1187 2.40728E-01
 -1      1188 1.21244E-01
 -1      1189 1.40451E+01
 -1      1190 8.72287E+00
 -1      1191 2.91072E+00
 -1      1192 2.04786E+00
 -1      1193 1.41522E+00
 -1      1194 1.03647E+00
 -1      1195 8.32250E-01
 -1      1196 6.78294E-01
 -1      1197 5.53723E-01
 -1      1198 4.53386E-01
 -1      1199 3.74627E-01
 -1      1200 3.15727E-01
 -1      1201 2.75248E-01
 -1      1202 2.51830E-01
 -1      1203 2.50722E-01
 -1      1204 2.69512E-01
 -1      1205 3.04679E-01
 -1      1206 3.68211E-01
 -1      1207 4.57837E-01
 -1      1208 5.61724E-01
 -1      1209 6.72052E-01
 -1      1210 7.73323E-01
 -1      1211 8.39079E-01
 -1      1212 9.54846E-01
 -1      1213 1.20492E+00
 -1      1214 1.46397E+00
 -1      1215 1.68995E+00
 -1      1216 1.92576E+00
 -1      1217 2.13259E+00
 -1      1218 2.47427E+00
 -1      1219 3.51640E+00
 -1      1220 4.57369E+00
 -1      1221 4.92645E+00
 -1      1222 5.01452E+00
 -1      1223 4.19134E+00
 -1      1224 2.64350E+00
 -1      1225 1.72809E+00
 -1      1226 1.68811E+00
 -1      1227 1.83887E+00
 -1      1228 1.82279E+00
 -1      1229 1.69684E+00
 -1      1230 1.45754E+00
 -1      1231 1.20507E+00
 -1      1232 9.60268E-01
 -1      1233 7.32103E-01
 -1      1234 5.69352E-01
 -1      1235 4.55369E-01
 -1      1236 3.32774E-01
 -1      1237 2.19029E-01
 -1      1238 1.08754E-01
 -1      1239 6.11860E-02
 -1      1240 7.51014E-02
 -1      1241 6.89133E-02
 -1      1242 4.71670E-02
 -1      1243 3.32834E-02
 -1      1244 4.51543E-02
 -1      1245 6.05995E-02
 -1      1246 6.62185E-02
 -1      1247 6.65886E-02
 -1      1248 6.28037E-02
 -1      1249 5.11079E-02
 -1      1250 3.28629E-02
 -1      1251 2.80420E-02
 -1      1252 4.50123E-02
 -1      1253 7.20159E-02
 -1      1254 9.24629E-02
 -1      1255 7.21893E-02
 -1      1256 2.48238E+01
 -1      1257 3.71747E+01
 -1      1258 4.92487E+01
 -1      1259 3.55003E+01
 -1      1260 1.69702E+01
 -1      1261 1.21885E+01
 -1      1262 1.21139E+01
 -1      1263 1.22917E+01
 -1      1264 1.25442E+01
 -1      1265 1.29009E+01
 -1      1266 2.12616E+01
 -1      1267 2.94364E+01
 -1      1268 2.88746E+01
 -1      1269 2.64509E+01
 -1      1270 2.51848E+01
 -1      1271 2.56095E+01
 -1      1272 3.54848E+01
 -1      1273 4.53601E+01
 -1      1274 3.16079E+01
 -1      1275 1.49555E+01
 -1      1276 1.26872E+01
 -1      1277 1.33191E+01
 -1      1278 1.33001E+01
 -1      1279 1.29865E+01
 -1      1280 1.23704E+01
 -1      1281 1.85388E+01
 -1      1282 2.77832E+01
 -1      1283 3.05377E+01
 -1      1284 2.74706E+01
 -1      1285 2.44752E+01
 -1      1286 1.31493E+01
 -1      1287 4.86689E+00
 -1      1288 9.61163E+00
 -1      1289 2.05584E+00
 -1      1290 2.97649E+00
 -1      1291 4.18361E+00
 -1      1292 1.39712E+00
 -1      1293 1.66185E+00
 -1      1294 1.89922E+00
 -1      1295 1.09914E+00
 -1      1296 1.22200E+00
 -1      1297 1.33012E+00
 -1      1298 9.34251E-01
 -1      1299 1.00724E+00
 -1      1300 1.06311E+00
 -1      1301 8.35237E-01
 -1      1302 8.80081E-01
 -1      1303 9.17044E-01
 -1      1304 7.74790E-01
 -1      1305 8.01585E-01
 -1      1306 8.29221E-01
 -1      1307 7.55912E-01
 -1      1308 7.54962E-01
 -1      1309 7.75741E-01
 -1      1310 8.05415E-01
 -1      1311 7.77425E-01
 -1      1312 7.77425E-01
 -1      1313 8.82547E-01
 -1      1314 8.38999E-01
 -1      1315 8.32523E-01
 -1      1316 1.01458E+00
 -1      1317 9.39052E-01
 -1      1318 9.22612E-01
 -1      1319 1.23721E+00
 -1      1320 1.10994E+00
 -1      1321 1.07448E+00
 -1      1322 1.67735E+00
 -1      1323 1.41441E+00
 -1      1324 1.34703E+00
 -1      1325 2.87942E+00
 -1      1326 2.04385E+00
 -1      1327 1.89073E+00
 -1      1328 6.28622E+00
 -1      1329 3.71517E+00
 -1      1330 3.09298E+00
 -1      1331 1.40451E+01
 -1      1332 1.13444E+01
 -1      1333 8.98690E+00
 -1      1334 1.40451E+01
 -1      1335 8.73735E+00
 -1      1336 4.32543E+00
 -1      1337 3.83802E+00
 -1      1338 3.35061E+00
 -1      1339 3.83802E+00
 -1      1340 2.73647E+00
 -1      1341 2.12234E+00
 -1      1342 2.73647E+00
 -1      1343 1.79009E+00
 -1      1344 1.41676E+00
 -1      1345 1.79009E+00
 -1      1346 1.20672E+00
 -1      1347 1.03288E+00
 -1      1348 1.24781E+00
 -1      1349 9.10535E-01
 -1      1350 7.93068E-01
 -1      1351 9.15418E-01
 -1      1352 7.05751E-01
 -1      1353 6.18434E-01
 -1      1354 7.05751E-01
 -1      1355 5.54640E-01
 -1      1356 4.87816E-01
 -1      1357 5.54640E-01
 -1      1358 4.40405E-01
 -1      1359 3.89255E-01
 -1      1360 4.43435E-01
 -1      1361 3.51196E-01
 -1      1362 3.12759E-01
 -1      1363 3.57965E-01
 -1      1364 2.82851E-01
 -1      1365 2.54897E-01
 -1      1366 2.89999E-01
 -1      1367 2.31895E-01
 -1      1368 2.12504E-01
 -1      1369 2.37089E-01
 -1      1370 1.98294E-01
 -1      1371 1.85667E-01
 -1      1372 1.99877E-01
 -1      1373 1.83172E-01
 -1      1374 1.92666E-01
 -1      1375 1.83172E-01
 -1      1376 2.04655E-01
 -1      1377 2.21909E-01
 -1      1378 1.92666E-01
 -1      1379 2.39163E-01
 -1      1380 2.61153E-01
 -1      1381 2.21909E-01
 -1      1382 2.83142E-01
 -1      1383 3.08458E-01
 -1      1384 2.61153E-01
 -1      1385 3.33774E-01
 -1      1386 3.59726E-01
 -1      1387 3.08458E-01
 -1      1388 3.98535E-01
 -1      1389 4.25617E-01
 -1      1390 3.72582E-01
 -1      1391 4.69867E-01
 -1      1392 5.28494E-01
 -1      1393 4.55641E-01
 -1      1394 5.70457E-01
 -1      1395 6.41237E-01
 -1      1396 5.41854E-01
 -1      1397 6.98657E-01
 -1      1398 7.69012E-01
 -1      1399 6.41237E-01
 -1      1400 8.39367E-01
 -1      1401 8.84800E-01
 -1      1402 7.69012E-01
 -1      1403 9.30234E-01
 -1      1404 9.30234E-01
 -1      1405 8.84800E-01
 -1      1406 9.20488E-01
 -1      1407 9.47630E-01
 -1      1408 9.20488E-01
 -1      1409 9.84518E-01
 -1      1410 9.84518E-01
 -1      1411 9.47630E-01
 -1      1412 9.53004E-01
 -1      1413 1.07787E+00
 -1      1414 9.53004E-01
 -1      1415 1.23425E+00
 -1      1416 1.44408E+00
 -1      1417 1.07787E+00
 -1      1418 1.69754E+00
 -1      1419 2.18548E+00
 -1      1420 1.48772E+00
 -1      1421 2.62977E+00
 -1      1422 2.88384E+00
 -1      1423 2.18548E+00
 -1      1424 3.13790E+00
 -1      1425 3.13790E+00
 -1      1426 2.88384E+00
 -1      1427 3.10730E+00
 -1      1428 3.07670E+00
 -1      1429 3.10730E+00
 -1      1430 3.05085E+00
 -1      1431 3.02500E+00
 -1      1432 3.05085E+00
 -1      1433 2.66146E+00
 -1      1434 2.29792E+00
 -1      1435 2.66146E+00
 -1      1436 1.89400E+00
 -1      1437 1.43697E+00
 -1      1438 1.89400E+00
 -1      1439 1.23815E+00
 -1      1440 1.09244E+00
 -1      1441 1.29126E+00
 -1      1442 1.02864E+00
 -1      1443 9.64847E-01
 -1      1444 1.02864E+00
 -1      1445 9.52426E-01
 -1      1446 9.40005E-01
 -1      1447 9.52426E-01
 -1      1448 9.39021E-01
 -1      1449 9.38037E-01
 -1      1450 9.39021E-01
 -1      1451 9.20624E-01
 -1      1452 9.03211E-01
 -1      1453 9.20624E-01
 -1      1454 8.41220E-01
 -1      1455 7.79228E-01
 -1      1456 8.41220E-01
 -1      1457 7.01906E-01
 -1      1458 6.20738E-01
 -1      1459 7.01906E-01
 -1      1460 5.62475E-01
 -1      1461 5.02176E-01
 -1      1462 5.66321E-01
 -1      1463 4.80213E-01
 -1      1464 4.64132E-01
 -1      1465 4.86095E-01
 -1      1466 4.36166E-01
 -1      1467 4.08200E-01
 -1      1468 4.36166E-01
 -1      1469 3.70288E-01
 -1      1470 3.32376E-01
 -1      1471 3.70288E-01
 -1      1472 3.09179E-01
 -1      1473 2.85982E-01
 -1      1474 3.09179E-01
 -1      1475 2.40728E-01
 -1      1476 1.95473E-01
 -1      1477 2.40728E-01
 -1      1478 1.46418E-01
 -1      1479 1.46418E-01
 -1      1480 3.40066E+00
 -1      1481 8.72287E+00
 -1      1482 8.72287E+00
 -1      1483 2.42078E+00
 -1      1484 2.91072E+00
 -1      1485 2.91072E+00
 -1      1486 1.67494E+00
 -1      1487 2.04786E+00
 -1      1488 2.04786E+00
 -1      1489 1.15551E+00
 -1      1490 1.41522E+00
 -1      1491 1.41522E+00
 -1      1492 9.17439E-01
 -1      1493 1.03647E+00
 -1      1494 1.03647E+00
 -1      1495 7.47061E-01
 -1      1496 8.32250E-01
 -1      1497 8.32250E-01
 -1      1498 6.09527E-01
 -1      1499 6.78294E-01
 -1      1500 6.78294E-01
 -1      1501 4.97919E-01
 -1      1502 5.53723E-01
 -1      1503 5.53723E-01
 -1      1504 4.08854E-01
 -1      1505 4.53386E-01
 -1      1506 4.53386E-01
 -1      1507 3.40399E-01
 -1      1508 3.74627E-01
 -1      1509 3.74627E-01
 -1      1510 2.91055E-01
 -1      1511 3.15727E-01
 -1      1512 3.15727E-01
 -1      1513 2.59441E-01
 -1      1514 2.75248E-01
 -1      1515 2.75248E-01
 -1      1516 2.44218E-01
 -1      1517 2.51830E-01
 -1      1518 2.51830E-01
 -1      1519 2.50615E-01
 -1      1520 2.44112E-01
 -1      1521 2.44112E-01
 -1      1522 2.69512E-01
 -1      1523 2.57225E-01
 -1      1524 2.50615E-01
 -1      1525 3.09657E-01
 -1      1526 2.86775E-01
 -1      1527 2.74489E-01
 -1      1528 3.83981E-01
 -1      1529 3.43331E-01
 -1      1530 3.25427E-01
 -1      1531 4.72806E-01
 -1      1532 4.23829E-01
 -1      1533 3.98950E-01
 -1      1534 5.72203E-01
 -1      1535 5.17293E-01
 -1      1536 4.83285E-01
 -1      1537 6.72052E-01
 -1      1538 6.16635E-01
 -1      1539 5.72203E-01
 -1      1540 7.73323E-01
 -1      1541 7.27468E-01
 -1      1542 6.72052E-01
 -1      1543 8.39079E-01
 -1      1544 8.19178E-01
 -1      1545 7.73323E-01
 -1      1546 9.92867E-01
 -1      1547 8.97001E-01
 -1      1548 8.77100E-01
 -1      1549 1.24680E+00
 -1      1550 1.09259E+00
 -1      1551 1.03474E+00
 -1      1552 1.46397E+00
 -1      1553 1.35914E+00
 -1      1554 1.24680E+00
 -1      1555 1.68995E+00
 -1      1556 1.56881E+00
 -1      1557 1.46397E+00
 -1      1558 1.92576E+00
 -1      1559 1.81109E+00
 -1      1560 1.68995E+00
 -1      1561 2.13259E+00
 -1      1562 2.04043E+00
 -1      1563 1.92576E+00
 -1      1564 2.47427E+00
 -1      1565 2.22475E+00
 -1      1566 2.13259E+00
 -1      1567 3.59683E+00
 -1      1568 2.80423E+00
 -1      1569 2.55471E+00
 -1      1570 4.57369E+00
 -1      1571 4.30900E+00
 -1      1572 3.59683E+00
 -1      1573 4.92645E+00
 -1      1574 4.83837E+00
 -1      1575 4.57369E+00
 -1      1576 5.01452E+00
 -1      1577 5.01452E+00
 -1      1578 4.92645E+00
 -1      1579 3.36816E+00
 -1      1580 4.19134E+00
 -1      1581 4.19134E+00
 -1      1582 1.91884E+00
 -1      1583 2.64350E+00
 -1      1584 2.64350E+00
 -1      1585 1.46257E+00
 -1      1586 1.65333E+00
 -1      1587 1.65333E+00
 -1      1588 1.69541E+00
 -1      1589 1.54465E+00
 -1      1590 1.46988E+00
 -1      1591 1.83887E+00
 -1      1592 1.83887E+00
 -1      1593 1.69541E+00
 -1      1594 1.80672E+00
 -1      1595 1.82279E+00
 -1      1596 1.82279E+00
 -1      1597 1.58697E+00
 -1      1598 1.69684E+00
 -1      1599 1.69684E+00
 -1      1600 1.32811E+00
 -1      1601 1.45754E+00
 -1      1602 1.45754E+00
 -1      1603 1.08342E+00
 -1      1604 1.20646E+00
 -1      1605 1.20646E+00
 -1      1606 8.51586E-01
 -1      1607 9.73340E-01
 -1      1608 9.74734E-01
 -1      1609 6.40333E-01
 -1      1610 7.46743E-01
 -1      1611 7.59815E-01
 -1      1612 5.13010E-01
 -1      1613 5.69352E-01
 -1      1614 5.83991E-01
 -1      1615 3.97728E-01
 -1      1616 4.55369E-01
 -1      1617 4.55369E-01
 -1      1618 2.67820E-01
 -1      1619 3.32774E-01
 -1      1620 3.32774E-01
 -1      1621 1.70237E-01
 -1      1622 2.19029E-01
 -1      1623 2.19029E-01
 -1      1624 1.22669E-01
 -1      1625 8.79495E-02
 -1      1626 8.79495E-02
 -1      1627 8.17614E-02
 -1      1628 8.79495E-02
 -1      1629 1.00798E-01
 -1      1630 6.48071E-02
 -1      1631 8.03653E-02
 -1      1632 9.94015E-02
 -1      1633 4.74008E-02
 -1      1634 4.57263E-02
 -1      1635 7.89246E-02
 -1      1636 7.74770E-02
 -1      1637 6.72806E-02
 -1      1638 7.97236E-02
 -1      1639 9.41762E-02
 -1      1640 8.89274E-02
 -1      1641 1.11054E-01
 -1      1642 9.68990E-02
 -1      1643 9.65288E-02
 -1      1644 1.24857E-01
 -1      1645 9.68990E-02
 -1      1646 9.68990E-02
 -1      1647 1.27209E-01
 -1      1648 9.19522E-02
 -1      1649 9.57371E-02
 -1      1650 1.26047E-01
 -1      1651 7.48486E-02
 -1      1652 8.27594E-02
 -1      1653 1.15693E-01
 -1      1654 4.94012E-02
 -1      1655 5.97354E-02
 -1      1656 9.13869E-02
 -1      1657 4.00497E-02
 -1      1658 3.45365E-02
 -1      1659 6.14090E-02
 -1      1660 7.34410E-02
 -1      1661 6.19839E-02
 -1      1662 6.84785E-02
 -1      1663 8.89875E-02
 -1      1664 7.34410E-02
 -1      1665 9.04126E-02
 -1      1666 1.05622E-01
 -1      1667 1.00721E-01
 -1      1668 1.02147E-01
 -1      1669 1.54677E-01
 -1      1670 2.74904E+01
 -1      1671 2.72136E+01
 -1      1672 3.99778E+01
 -1      1673 2.79038E+01
 -1      1674 4.92487E+01
 -1      1675 4.92487E+01
 -1      1676 2.33287E+01
 -1      1677 3.70771E+01
 -1      1678 1.19595E+01
 -1      1679 1.67413E+01
 -1      1680 1.21885E+01
 -1      1681 1.21885E+01
 -1      1682 1.20393E+01
 -1      1683 1.21139E+01
 -1      1684 1.20605E+01
 -1      1685 1.18080E+01
 -1      1686 1.25442E+01
 -1      1687 1.25442E+01
 -1      1688 1.28446E+01
 -1      1689 1.24878E+01
 -1      1690 2.12616E+01
 -1      1691 1.32577E+01
 -1      1692 2.96074E+01
 -1      1693 2.94364E+01
 -1      1694 2.88746E+01
 -1      1695 2.96074E+01
 -1      1696 2.47600E+01
 -1      1697 2.64509E+01
 -1      1698 2.81581E+01
 -1      1699 2.77334E+01
 -1      1700 2.81581E+01
 -1      1701 2.81581E+01
 -1      1702 4.20554E+01
 -1      1703 3.21801E+01
 -1      1704 4.53601E+01
 -1      1705 4.53601E+01
 -1      1706 1.83312E+01
 -1      1707 3.20834E+01
 -1      1708 1.14315E+01
 -1      1709 1.43317E+01
 -1      1710 1.26872E+01
 -1      1711 1.20553E+01
 -1      1712 1.33191E+01
 -1      1713 1.33191E+01
 -1      1714 1.32811E+01
 -1      1715 1.33001E+01
 -1      1716 1.26919E+01
 -1      1717 1.29865E+01
 -1      1718 1.20489E+01
 -1      1719 1.23704E+01
 -1      1720 1.83413E+01
 -1      1721 1.18514E+01
 -1      1722 2.89442E+01
 -1      1723 2.61897E+01
 -1      1724 3.09953E+01
 -1      1725 3.09953E+01
 -1      1726 2.79281E+01
 -1      1727 3.09953E+01
 -1      1728 2.72136E+01
 -1      1729 2.71418E+01
 -1      1730 1.83180E+01
 -1      1731 3.70771E+01
 -1      1732 1.22669E-01
 -1      1733 1.35517E-01
 -1      1734 3.02936E+01
 -1      1735 3.99778E+01
 -1      1736 2.98802E+01
 -1      1737 1.19595E+01
 -1      1738 1.21139E+01
 -1      1739 1.18080E+01
 -1      1740 1.20605E+01
 -1      1741 1.24878E+01
 -1      1742 1.28446E+01
 -1      1743 2.14325E+01
 -1      1744 2.96074E+01
 -1      1745 2.71837E+01
 -1      1746 2.77334E+01
 -1      1747 3.07067E+01
 -1      1748 3.47287E+01
 -1      1749 4.20554E+01
 -1      1750 3.20834E+01
 -1      1751 1.48072E+01
 -1      1752 1.14315E+01
 -1      1753 1.26872E+01
 -1      1754 1.33001E+01
 -1      1755 1.29865E+01
 -1      1756 1.23704E+01
 -1      1757 1.18514E+01
 -1      1758 1.95022E+01
 -1      1759 2.94017E+01
 -1      1760 3.14529E+01
 -1      1761 3.06665E+01
 -1      1762 9.61163E+00
 -1      1763 1.27317E+00
 -1      1764 1.66716E+00
 -1      1765 2.38430E+00
 -1      1766 4.27470E+00
 -1      1767 1.75825E+00
 -1      1768 8.80049E-01
 -1      1769 9.71943E-01
 -1      1770 7.77479E-01
 -1      1771 8.31649E-01
 -1      1772 7.40485E-01
 -1      1773 7.13027E-01
 -1      1774 7.46679E-01
 -1      1775 6.61285E-01
 -1      1776 6.71422E-01
 -1      1777 6.91251E-01
 -1      1778 6.08709E-01
 -1      1779 6.94499E-01
 -1      1780 6.72986E-01
 -1      1781 5.88496E-01
 -1      1782 7.49692E-01
 -1      1783 7.16108E-01
 -1      1784 6.11668E-01
 -1      1785 8.39280E-01
 -1      1786 7.82775E-01
 -1      1787 6.66360E-01
 -1      1788 9.81976E-01
 -1      1789 8.86617E-01
 -1      1790 7.46780E-01
 -1      1791 1.22666E+00
 -1      1792 1.04946E+00
 -1      1793 8.61598E-01
 -1      1794 1.70608E+00
 -1      1795 1.33958E+00
 -1      1796 1.04200E+00
 -1      1797 2.62635E+00
 -1      1798 1.79060E+00
 -1      1799 1.23945E+00
 -1      1800 8.12418E+00
 -1      1801 3.06600E+00
 -1      1802 1.76363E+00
 -1      1803 2.80197E+00
 -1      1804 5.19972E+00
 -1      1805 2.16889E+00
 -1      1806 2.65883E+00
 -1      1807 2.06014E+00
 -1      1808 3.40041E+00
 -1      1809 2.54390E+00
 -1      1810 1.92977E+00
 -1      1811 1.69963E+00
 -1      1812 1.36738E+00
 -1      1813 1.50706E+00
 -1      1814 1.18763E+00
 -1      1815 9.77589E-01
 -1      1816 1.09716E+00
 -1      1817 8.52780E-01
 -1      1818 7.30430E-01
 -1      1819 7.92601E-01
 -1      1820 6.74010E-01
 -1      1821 5.86694E-01
 -1      1822 6.11372E-01
 -1      1823 5.40064E-01
 -1      1824 4.76269E-01
 -1      1825 5.08323E-01
 -1      1826 4.35742E-01
 -1      1827 3.88331E-01
 -1      1828 4.21166E-01
 -1      1829 3.54183E-01
 -1      1830 3.16124E-01
 -1      1831 3.46490E-01
 -1      1832 2.88556E-01
 -1      1833 2.58647E-01
 -1      1834 2.84773E-01
 -1      1835 2.35882E-01
 -1      1836 2.12880E-01
 -1      1837 2.34439E-01
 -1      1838 1.95195E-01
 -1      1839 1.80985E-01
 -1      1840 1.93988E-01
 -1      1841 1.67778E-01
 -1      1842 1.65282E-01
 -1      1843 1.63095E-01
 -1      1844 1.74585E-01
 -1      1845 1.86575E-01
 -1      1846 1.59192E-01
 -1      1847 1.99531E-01
 -1      1848 2.16785E-01
 -1      1849 1.81450E-01
 -1      1850 2.33171E-01
 -1      1851 2.55160E-01
 -1      1852 2.10792E-01
 -1      1853 2.86520E-01
 -1      1854 3.11837E-01
 -1      1855 2.58538E-01
 -1      1856 3.52026E-01
 -1      1857 3.90834E-01
 -1      1858 3.30088E-01
 -1      1859 4.30729E-01
 -1      1860 4.74979E-01
 -1      1861 4.10173E-01
 -1      1862 5.09483E-01
 -1      1863 5.51446E-01
 -1      1864 4.84571E-01
 -1      1865 5.85632E-01
 -1      1866 6.43051E-01
 -1      1867 5.53260E-01
 -1      1868 6.80462E-01
 -1      1869 7.50817E-01
 -1      1870 6.24856E-01
 -1      1871 7.70739E-01
 -1      1872 8.16172E-01
 -1      1873 6.82188E-01
 -1      1874 7.94654E-01
 -1      1875 7.84908E-01
 -1      1876 6.80592E-01
 -1      1877 7.14990E-01
 -1      1878 7.51878E-01
 -1      1879 5.89156E-01
 -1      1880 7.33032E-01
 -1      1881 7.01518E-01
 -1      1882 5.00392E-01
 -1      1883 8.35657E-01
 -1      1884 9.92038E-01
 -1      1885 6.15685E-01
 -1      1886 1.23694E+00
 -1      1887 1.49040E+00
 -1      1888 9.94723E-01
 -1      1889 1.67974E+00
 -1      1890 2.12404E+00
 -1      1891 1.42896E+00
 -1      1892 2.29789E+00
 -1      1893 2.55195E+00
 -1      1894 1.79215E+00
 -1      1895 2.54605E+00
 -1      1896 2.51545E+00
 -1      1897 1.96010E+00
 -1      1898 2.53647E+00
 -1      1899 2.51062E+00
 -1      1900 1.97522E+00
 -1      1901 2.44962E+00
 -1      1902 2.08608E+00
 -1      1903 1.93524E+00
 -1      1904 1.87232E+00
 -1      1905 1.46840E+00
 -1      1906 1.66047E+00
 -1      1907 1.28273E+00
 -1      1908 1.08391E+00
 -1      1909 1.26105E+00
 -1      1910 8.57684E-01
 -1      1911 7.93890E-01
 -1      1912 8.49161E-01
 -1      1913 7.27858E-01
 -1      1914 7.15437E-01
 -1      1915 5.56902E-01
 -1      1916 7.51424E-01
 -1      1917 7.50439E-01
 -1      1918 5.26856E-01
 -1      1919 8.07197E-01
 -1      1920 7.89784E-01
 -1      1921 6.19600E-01
 -1      1922 7.89556E-01
 -1      1923 7.27565E-01
 -1      1924 6.76130E-01
 -1      1925 6.92026E-01
 -1      1926 6.14704E-01
 -1      1927 6.40363E-01
 -1      1928 5.72170E-01
 -1      1929 5.13906E-01
 -1      1930 5.62289E-01
 -1      1931 4.77179E-01
 -1      1932 4.55217E-01
 -1      1933 4.83028E-01
 -1      1934 4.13929E-01
 -1      1935 3.85963E-01
 -1      1936 4.05013E-01
 -1      1937 3.56853E-01
 -1      1938 3.18941E-01
 -1      1939 3.34616E-01
 -1      1940 2.87526E-01
 -1      1941 2.64329E-01
 -1      1942 2.74091E-01
 -1      1943 2.27899E-01
 -1      1944 1.82644E-01
 -1      1945 1.41848E-01
 -1      1946 2.06246E-01
 -1      1947 1.40593E+00
 -1      1948 1.77884E+00
 -1      1949 1.52695E+00
 -1      1950 1.02760E+00
 -1      1951 1.28732E+00
 -1      1952 1.01830E+00
 -1      1953 8.15229E-01
 -1      1954 9.34263E-01
 -1      1955 8.06360E-01
 -1      1956 6.50965E-01
 -1      1957 7.36154E-01
 -1      1958 6.33944E-01
 -1      1959 5.31238E-01
 -1      1960 6.00005E-01
 -1      1961 5.03909E-01
 -1      1962 4.43687E-01
 -1      1963 4.99491E-01
 -1      1964 4.21202E-01
 -1      1965 3.68900E-01
 -1      1966 4.13432E-01
 -1      1967 3.59200E-01
 -1      1968 3.08296E-01
 -1      1969 3.42524E-01
 -1      1970 3.02570E-01
 -1      1971 2.65976E-01
 -1      1972 2.90648E-01
 -1      1973 2.58545E-01
 -1      1974 2.37454E-01
 -1      1975 2.53261E-01
 -1      1976 2.28182E-01
 -1      1977 2.22074E-01
 -1      1978 2.29686E-01
 -1      1979 2.07698E-01
 -1      1980 2.18915E-01
 -1      1981 2.19021E-01
 -1      1982 1.96877E-01
 -1      1983 2.27508E-01
 -1      1984 2.20898E-01
 -1      1985 1.95807E-01
 -1      1986 2.66002E-01
 -1      1987 2.48739E-01
 -1      1988 2.19022E-01
 -1      1989 3.46930E-01
 -1      1990 3.13255E-01
 -1      1991 2.87505E-01
 -1      1992 4.50313E-01
 -1      1993 4.10465E-01
 -1      1994 3.98293E-01
 -1      1995 5.70849E-01
 -1      1996 5.26362E-01
 -1      1997 5.37878E-01
 -1      1998 7.02031E-01
 -1      1999 6.57600E-01
 -1      2000 7.00677E-01
 -1      2001 8.48852E-01
 -1      2002 7.93435E-01
 -1      2003 8.78831E-01
 -1      2004 9.78208E-01
 -1      2005 9.32353E-01
 -1      2006 1.05374E+00
 -1      2007 1.10615E+00
 -1      2008 1.04823E+00
 -1      2009 1.20726E+00
 -1      2010 1.24763E+00
 -1      2011 1.14791E+00
 -1      2012 1.31904E+00
 -1      2013 1.35997E+00
 -1      2014 1.24763E+00
 -1      2015 1.36080E+00
 -1      2016 1.41968E+00
 -1      2017 1.31484E+00
 -1      2018 1.31567E+00
 -1      2019 1.43840E+00
 -1      2020 1.31725E+00
 -1      2021 1.16813E+00
 -1      2022 1.59985E+00
 -1      2023 1.48518E+00
 -1      2024 1.11249E+00
 -1      2025 2.08974E+00
 -1      2026 1.99758E+00
 -1      2027 1.55700E+00
 -1      2028 2.66908E+00
 -1      2029 2.33912E+00
 -1      2030 2.20411E+00
 -1      2031 3.65200E+00
 -1      2032 2.93983E+00
 -1      2033 2.72424E+00
 -1      2034 3.88745E+00
 -1      2035 3.62276E+00
 -1      2036 2.96576E+00
 -1      2037 3.93410E+00
 -1      2038 3.84603E+00
 -1      2039 2.89510E+00
 -1      2040 2.81930E+00
 -1      2041 3.64248E+00
 -1      2042 2.56206E+00
 -1      2043 1.55933E+00
 -1      2044 2.28399E+00
 -1      2045 1.73513E+00
 -1      2046 1.22127E+00
 -1      2047 1.48679E+00
 -1      2048 1.12728E+00
 -1      2049 1.39869E+00
 -1      2050 1.31661E+00
 -1      2051 1.15008E+00
 -1      2052 1.59354E+00
 -1      2053 1.45008E+00
 -1      2054 1.29681E+00
 -1      2055 1.59046E+00
 -1      2056 1.60653E+00
 -1      2057 1.36120E+00
 -1      2058 1.43763E+00
 -1      2059 1.54750E+00
 -1      2060 1.33124E+00
 -1      2061 1.23863E+00
 -1      2062 1.36806E+00
 -1      2063 1.21872E+00
 -1      2064 1.03817E+00
 -1      2065 1.15982E+00
 -1      2066 1.07034E+00
 -1      2067 8.36852E-01
 -1      2068 9.46927E-01
 -1      2069 9.00293E-01
 -1      2070 6.41746E-01
 -1      2071 7.46590E-01
 -1      2072 7.18784E-01
 -1      2073 4.88351E-01
 -1      2074 5.59332E-01
 -1      2075 5.46107E-01
 -1      2076 3.82559E-01
 -1      2077 4.40200E-01
 -1      2078 4.15541E-01
 -1      2079 2.67093E-01
 -1      2080 3.32047E-01
 -1      2081 3.16878E-01
 -1      2082 1.65261E-01
 -1      2083 2.14052E-01
 -1      2084 2.13325E-01
 -1      2085 1.30541E-01
 -1      2086 8.46680E-02
 -1      2087 1.03749E-01
 -1      2088 1.47575E-01
 -1      2089 1.48971E-01
 -1      2090 1.53318E-01
 -1      2091 1.48971E-01
 -1      2092 1.48971E-01
 -1      2093 1.78714E-01
 -1      2094 1.97144E-01
 -1      2095 1.18246E-01
 -1      2096 9.83658E-02
 -1      2097 1.23190E-01
 -1      2098 1.47159E-01
 -1      2099 1.35708E-01
 -1      2100 1.54350E-01
 -1      2101 1.55000E-01
 -1      2102 1.52648E-01
 -1      2103 1.77302E-01
 -1      2104 1.55000E-01
 -1      2105 1.55000E-01
 -1      2106 1.82791E-01
 -1      2107 1.52583E-01
 -1      2108 1.53745E-01
 -1      2109 1.81536E-01
 -1      2110 1.39051E-01
 -1      2111 1.48244E-01
 -1      2112 1.75941E-01
 -1      2113 1.09519E-01
 -1      2114 1.24632E-01
 -1      2115 1.57183E-01
 -1      2116 7.15609E-02
 -1      2117 8.64255E-02
 -1      2118 1.19671E-01
 -1      2119 9.58021E-02
 -1      2120 7.38680E-02
 -1      2121 9.88845E-02
 -1      2122 1.19846E-01
 -1      2123 1.19846E-01
 -1      2124 1.25235E-01
 -1      2125 3.99778E+01
 -1      2126 3.07069E+01
 -1      2127 3.13486E+01
 -1      2128 3.13486E+01
 -1      2129 3.17619E+01
 -1      2130 3.13486E+01
 -1      2131 2.13046E+01
 -1      2132 3.34762E+01
 -1      2133 2.42053E+01
 -1      2134 1.14019E+01
 -1      2135 1.79893E+01
 -1      2136 1.03611E+00
 -1      2137 1.21123E+00
 -1      2138 9.79166E-01
 -1      2139 8.53054E-01
 -1      2140 1.08851E+01
 -1      2141 1.09597E+01
 -1      2142 1.10760E+01
 -1      2143 1.13072E+01
 -1      2144 1.17829E+01
 -1      2145 1.12992E+01
 -1      2146 1.05528E+01
 -1      2147 1.06091E+01
 -1      2148 9.56960E+00
 -1      2149 9.15652E+00
 -1      2150 2.08710E+01
 -1      2151 1.26962E+01
 -1      2152 9.00811E+00
 -1      2153 2.49233E+01
 -1      2154 2.49233E+01
 -1      2155 2.42022E+01
 -1      2156 2.66258E+01
 -1      2157 3.29217E+01
 -1      2158 2.99483E+01
 -1      2159 3.29217E+01
 -1      2160 3.29217E+01
 -1      2161 3.27856E+01
 -1      2162 2.87636E+01
 -1      2163 3.59060E+01
 -1      2164 3.26013E+01
 -1      2165 2.66361E+01
 -1      2166 1.70272E+01
 -1      2167 3.03039E+01
 -1      2168 9.58348E+00
 -1      2169 1.35830E+01
 -1      2170 1.18034E+01
 -1      2171 9.79154E+00
 -1      2172 9.16775E+00
 -1      2173 1.11587E+01
 -1      2174 1.05268E+01
 -1      2175 8.26299E+00
 -1      2176 1.17076E+01
 -1      2177 1.17267E+01
 -1      2178 1.13072E+01
 -1      2179 1.16018E+01
 -1      2180 1.05299E+01
 -1      2181 1.08514E+01
 -1      2182 9.46671E+00
 -1      2183 8.93680E+00
 -1      2184 9.13430E+00
 -1      2185 1.89434E+01
 -1      2186 1.10950E+01
 -1      2187 8.37793E+00
 -1      2188 2.48827E+01
 -1      2189 2.28315E+01
 -1      2190 3.14529E+01
 -1      2191 3.14529E+01
 -1      2192 2.98782E+01
 -1      2193 3.06645E+01
 -1      2194 9.68819E+00
 -1      2195 9.45926E+00
 -1      2196 1.43885E+01
 -1      2197 2.91300E+00
 -1      2198 8.45945E+00
 -1      2199 2.10629E+00
 -1      2200 3.17619E+01
 -1      2201 3.28170E+01
 -1      2202 1.31580E-01
 -1      2203 3.13466E+01
 -1      2204 9.13057E+00
 -1      2205 3.06645E+01
 -1      2206 1.44243E+01
 -1      2207 7.61530E+00
 -1      2208 9.56620E+00
 -1      2209 7.96571E+00
 -1      2210 6.74145E+00
 -1      2211 6.32573E+00
 -1      2212 2.08498E+01
 -1      2213 3.09785E+01
 -1      2214 3.51366E+01
 -1      2215 2.93905E+01
 -1      2216 1.61870E+01
 -1      2217 8.88232E+00
 -1      2218 7.00360E+00
 -1      2219 5.60733E+00
 -1      2220 9.84783E+00
 -1      2221 1.01531E+01
 -1      2222 1.07984E+01
 -1      2223 2.19418E+01
 -1      2224 1.00284E+01
 -1      2225 2.48827E+01
 -1      2226 1.09612E+00
 -1      2227 1.48616E+00
 -1      2228 5.57613E-01
 -1      2229 5.88414E-01
 -1      2230 5.99669E-01
 -1      2231 6.48069E-01
 -1      2232 4.95997E-01
 -1      2233 5.10413E-01
 -1      2234 5.08850E-01
 -1      2235 5.44831E-01
 -1      2236 5.23223E-01
 -1      2237 4.43577E-01
 -1      2238 5.92471E-01
 -1      2239 5.59388E-01
 -1      2240 4.70943E-01
 -1      2241 6.51674E-01
 -1      2242 6.04336E-01
 -1      2243 4.97365E-01
 -1      2244 7.19154E-01
 -1      2245 6.51674E-01
 -1      2246 5.09230E-01
 -1      2247 8.78212E-01
 -1      2248 7.65288E-01
 -1      2249 5.55364E-01
 -1      2250 8.99701E-01
 -1      2251 1.01830E+00
 -1      2252 9.77517E-01
 -1      2253 1.27041E+00
 -1      2254 1.04027E+00
 -1      2255 7.42198E+00
 -1      2256 6.15044E+00
 -1      2257 9.94589E-01
 -1      2258 8.14837E-01
 -1      2259 7.57947E-01
 -1      2260 7.56977E-01
 -1      2261 6.32168E-01
 -1      2262 6.54404E-01
 -1      2263 5.76008E-01
 -1      2264 5.19589E-01
 -1      2265 5.40385E-01
 -1      2266 4.69856E-01
 -1      2267 4.23226E-01
 -1      2268 4.34492E-01
 -1      2269 3.99869E-01
 -1      2270 3.59342E-01
 -1      2271 3.61402E-01
 -1      2272 3.35102E-01
 -1      2273 3.00953E-01
 -1      2274 3.13805E-01
 -1      2275 2.77759E-01
 -1      2276 2.50190E-01
 -1      2277 2.66370E-01
 -1      2278 2.28943E-01
 -1      2279 2.06177E-01
 -1      2280 2.21929E-01
 -1      2281 1.87003E-01
 -1      2282 1.69318E-01
 -1      2283 1.81507E-01
 -1      2284 1.51834E-01
 -1      2285 1.38627E-01
 -1      2286 1.44849E-01
 -1      2287 1.35762E-01
 -1      2288 1.45065E-01
 -1      2289 1.24500E-01
 -1      2290 1.54023E-01
 -1      2291 1.66979E-01
 -1      2292 1.30593E-01
 -1      2293 1.85995E-01
 -1      2294 2.02380E-01
 -1      2295 1.58567E-01
 -1      2296 2.37389E-01
 -1      2297 2.68749E-01
 -1      2298 2.12591E-01
 -1      2299 3.06974E-01
 -1      2300 3.47163E-01
 -1      2301 2.85824E-01
 -1      2302 3.87092E-01
 -1      2303 4.26987E-01
 -1      2304 3.63977E-01
 -1      2305 4.65572E-01
 -1      2306 5.00075E-01
 -1      2307 4.42491E-01
 -1      2308 5.33223E-01
 -1      2309 5.67408E-01
 -1      2310 5.14223E-01
 -1      2311 5.94542E-01
 -1      2312 6.31952E-01
 -1      2313 5.74504E-01
 -1      2314 6.68070E-01
 -1      2315 6.87992E-01
 -1      2316 6.37756E-01
 -1      2317 7.09915E-01
 -1      2318 6.88397E-01
 -1      2319 6.95797E-01
 -1      2320 6.81484E-01
 -1      2321 6.11566E-01
 -1      2322 7.10807E-01
 -1      2323 6.73868E-01
 -1      2324 6.55022E-01
 -1      2325 7.66197E-01
 -1      2326 7.10256E-01
 -1      2327 8.44395E-01
 -1      2328 8.83732E-01
 -1      2329 9.43608E-01
 -1      2330 1.18851E+00
 -1      2331 1.03818E+00
 -1      2332 1.27973E+00
 -1      2333 1.46907E+00
 -1      2334 1.22862E+00
 -1      2335 1.58274E+00
 -1      2336 1.75660E+00
 -1      2337 1.43351E+00
 -1      2338 1.97479E+00
 -1      2339 1.96889E+00
 -1      2340 1.76538E+00
 -1      2341 1.86825E+00
 -1      2342 1.88926E+00
 -1      2343 1.88293E+00
 -1      2344 1.93397E+00
 -1      2345 1.87297E+00
 -1      2346 1.82700E+00
 -1      2347 1.67113E+00
 -1      2348 1.45736E+00
 -1      2349 1.66987E+00
 -1      2350 1.35266E+00
 -1      2351 1.16700E+00
 -1      2352 1.36332E+00
 -1      2353 1.06146E+00
 -1      2354 8.35229E-01
 -1      2355 1.15307E+00
 -1      2356 7.63180E-01
 -1      2357 6.97147E-01
 -1      2358 9.75475E-01
 -1      2359 6.29242E-01
 -1      2360 6.65228E-01
 -1      2361 8.35520E-01
 -1      2362 6.27326E-01
 -1      2363 6.84083E-01
 -1      2364 7.29712E-01
 -1      2365 6.76315E-01
 -1      2366 6.76087E-01
 -1      2367 6.84041E-01
 -1      2368 6.44457E-01
 -1      2369 6.08918E-01
 -1      2370 6.44642E-01
 -1      2371 5.73643E-01
 -1      2372 5.31108E-01
 -1      2373 5.77737E-01
 -1      2374 4.99329E-01
 -1      2375 4.62602E-01
 -1      2376 5.10683E-01
 -1      2377 4.24354E-01
 -1      2378 3.83067E-01
 -1      2379 4.40655E-01
 -1      2380 3.41597E-01
 -1      2381 3.12487E-01
 -1      2382 3.60938E-01
 -1      2383 2.72764E-01
 -1      2384 2.41349E-01
 -1      2385 2.79745E-01
 -1      2386 5.54869E-01
 -1      2387 6.33944E-01
 -1      2388 4.52948E-01
 -1      2389 5.03909E-01
 -1      2390 5.03909E-01
 -1      2391 3.89455E-01
 -1      2392 4.21202E-01
 -1      2393 4.21202E-01
 -1      2394 3.28946E-01
 -1      2395 3.59200E-01
 -1      2396 3.59200E-01
 -1      2397 2.75414E-01
 -1      2398 3.01791E-01
 -1      2399 3.01791E-01
 -1      2400 2.34298E-01
 -1      2401 2.51946E-01
 -1      2402 2.51167E-01
 -1      2403 2.01700E-01
 -1      2404 2.14415E-01
 -1      2405 2.07816E-01
 -1      2406 1.77061E-01
 -1      2407 1.84829E-01
 -1      2408 1.71062E-01
 -1      2409 1.67463E-01
 -1      2410 1.70516E-01
 -1      2411 1.47647E-01
 -1      2412 1.81424E-01
 -1      2413 1.79440E-01
 -1      2414 1.53080E-01
 -1      2415 2.19947E-01
 -1      2416 1.98715E-01
 -1      2417 1.82348E-01
 -1      2418 3.13703E-01
 -1      2419 2.66451E-01
 -1      2420 2.46144E-01
 -1      2421 4.33749E-01
 -1      2422 3.70213E-01
 -1      2423 3.49159E-01
 -1      2424 5.77516E-01
 -1      2425 5.01467E-01
 -1      2426 4.73387E-01
 -1      2427 7.43102E-01
 -1      2428 6.56352E-01
 -1      2429 6.19941E-01
 -1      2430 9.21939E-01
 -1      2431 8.30535E-01
 -1      2432 7.86210E-01
 -1      2433 1.09495E+00
 -1      2434 1.01145E+00
 -1      2435 9.63154E-01
 -1      2436 1.24425E+00
 -1      2437 1.17423E+00
 -1      2438 1.13194E+00
 -1      2439 1.33951E+00
 -1      2440 1.29776E+00
 -1      2441 1.26473E+00
 -1      2442 1.44053E+00
 -1      2443 1.44053E+00
 -1      2444 1.41925E+00
 -1      2445 1.48797E+00
 -1      2446 1.53309E+00
 -1      2447 1.61283E+00
 -1      2448 1.42461E+00
 -1      2449 1.52704E+00
 -1      2450 1.74446E+00
 -1      2451 1.66454E+00
 -1      2452 1.61775E+00
 -1      2453 1.97666E+00
 -1      2454 2.20119E+00
 -1      2455 1.80346E+00
 -1      2456 2.30872E+00
 -1      2457 2.81492E+00
 -1      2458 2.56554E+00
 -1      2459 2.81200E+00
 -1      2460 4.21536E+00
 -1      2461 3.94461E+00
 -1      2462 4.30604E+00
 -1      2463 3.68962E+00
 -1      2464 3.71885E+00
 -1      2465 4.93922E+00
 -1      2466 3.15654E+00
 -1      2467 3.19797E+00
 -1      2468 3.95106E+00
 -1      2469 2.30015E+00
 -1      2470 2.59177E+00
 -1      2471 2.89463E+00
 -1      2472 1.61648E+00
 -1      2473 2.15178E+00
 -1      2474 2.18149E+00
 -1      2475 1.56621E+00
 -1      2476 1.63876E+00
 -1      2477 2.05541E+00
 -1      2478 1.43254E+00
 -1      2479 1.33720E+00
 -1      2480 1.84868E+00
 -1      2481 1.45289E+00
 -1      2482 1.40150E+00
 -1      2483 1.58862E+00
 -1      2484 1.38435E+00
 -1      2485 1.37136E+00
 -1      2486 1.47604E+00
 -1      2487 1.29174E+00
 -1      2488 1.33470E+00
 -1      2489 1.34485E+00
 -1      2490 1.15366E+00
 -1      2491 1.22323E+00
 -1      2492 1.22669E+00
 -1      2493 9.82456E-01
 -1      2494 1.06126E+00
 -1      2495 1.06577E+00
 -1      2496 7.96468E-01
 -1      2497 8.87715E-01
 -1      2498 8.78630E-01
 -1      2499 6.21355E-01
 -1      2500 7.11618E-01
 -1      2501 6.99039E-01
 -1      2502 4.60270E-01
 -1      2503 5.42684E-01
 -1      2504 5.35518E-01
 -1      2505 3.58193E-01
 -1      2506 4.06344E-01
 -1      2507 4.02922E-01
 -1      2508 2.53269E-01
 -1      2509 3.03781E-01
 -1      2510 2.94583E-01
 -1      2511 2.31755E-01
 -1      2512 1.98998E-01
 -1      2513 1.81536E-01
 -1      2514 2.15511E-01
 -1      2515 2.10021E-01
 -1      2516 2.37207E-01
 -1      2517 1.71172E-01
 -1      2518 2.14997E-01
 -1      2519 1.96719E-01
 -1      2520 1.83021E-01
 -1      2521 2.44700E-01
 -1      2522 2.41366E-01
 -1      2523 2.15511E-01
 -1      2524 2.15511E-01
 -1      2525 2.48230E-01
 -1      2526 2.09942E-01
 -1      2527 2.11198E-01
 -1      2528 2.43917E-01
 -1      2529 2.05603E-01
 -1      2530 2.09942E-01
 -1      2531 2.39604E-01
 -1      2532 1.80471E-01
 -1      2533 1.94889E-01
 -1      2534 2.28891E-01
 -1      2535 1.33279E-01
 -1      2536 1.56372E-01
 -1      2537 1.94079E-01
 -1      2538 1.34301E-01
 -1      2539 1.31994E-01
 -1      2540 1.68695E-01
 -1      2541 1.58344E-01
 -1      2542 1.34301E-01
 -1      2543 1.67410E-01
 -1      2544 3.28170E+01
 -1      2545 3.28170E+01
 -1      2546 2.61266E+01
 -1      2547 2.71817E+01
 -1      2548 3.13466E+01
 -1      2549 2.98762E+01
 -1      2550 7.13019E-01
 -1      2551 8.06360E-01
 -1      2552 6.33944E-01
 -1      2553 1.59548E-01
 -1      2554 1.54840E+01
 -1      2555 2.19857E+01
 -1      2556 1.67575E+00
 -1      2557 1.30666E+00
 -1      2558 8.39874E-01
 -1      2559 9.58612E-01
 -1      2560 5.65789E+00
 -1      2561 7.60054E+00
 -1      2562 8.59053E+00
 -1      2563 8.02253E+00
 -1      2564 2.68204E+01
 -1      2565 3.09785E+01
 -1      2566 5.21761E-01
 -1      2567 5.43537E-01
 -1      2568 4.70666E-01
 -1      2569 4.43678E-01
 -1      2570 9.51551E+00
 -1      2571 9.29230E+00
 -1      2572 1.99840E+01
 -1      2573 1.82815E+01
 -1      2574 8.98487E+00
 -1      2575 8.56278E+00
 -1      2576 6.25377E+00
 -1      2577 7.49608E+00
 -1      2578 8.66985E+00
 -1      2579 9.00454E+00
 -1      2580 5.87796E+00
 -1      2581 8.79287E+00
 -1      2582 8.89870E+00
 -1      2583 1.52418E+01
 -1      2584 1.11895E+01
 -1      2585 8.05933E+00
 -1      2586 2.93905E+01
 -1      2587 2.36443E+01
 -1      2588 3.51366E+01
 -1      2589 3.51366E+01
 -1      2590 2.93905E+01
 -1      2591 2.16173E+01
 -1      2592 2.18015E+01
 -1      2593 1.39503E+01
 -1      2594 1.95524E+01
 -1      2595 7.99347E+00
 -1      2596 1.14377E+01
 -1      2597 7.06298E+00
 -1      2598 6.32776E+00
 -1      2599 2.25153E+01
 -1      2600 1.59451E+01
 -1      2601 7.53053E+00
 -1      2602 7.98636E+00
 -1      2603 5.27738E+00
 -1      2604 6.67296E+00
 -1      2605 8.33899E+00
 -1      2606 6.18079E+00
 -1      2607 1.37611E+01
 -1      2608 9.87296E+00
 -1      2609 2.52777E+01
 -1      2610 2.60660E+01
 -1      2611 1.71285E+01
 -1      2612 1.62327E+00
 -1      2613 1.76641E+00
 -1      2614 1.32676E+00
 -1      2615 1.19244E+00
 -1      2616 1.02471E+01
 -1      2617 1.35623E+01
 -1      2618 1.13426E+01
 -1      2619 7.70199E+00
 -1      2620 6.13673E-01
 -1      2621 7.54489E-01
 -1      2622 8.18658E-01
 -1      2623 8.06360E-01
 -1      2624 1.24223E+00
 -1      2625 7.97775E+00
 -1      2626 7.15158E+00
 -1      2627 4.50507E+00
 -1      2628 7.67582E+00
 -1      2629 5.23845E+00
 -1      2630 4.62041E+00
 -1      2631 5.19261E+00
 -1      2632 1.74054E+01
 -1      2633 6.08731E+00
 -1      2634 2.18657E-01
 -1      2635 2.18657E-01
 -1      2636 6.37570E+00
 -1      2637 3.13466E+01
 -1      2638 2.71817E+01
 -1      2639 1.01404E+01
 -1      2640 2.52777E+01
 -1      2641 9.65519E-01
 -1      2642 8.96670E-01
 -1      2643 3.09785E+01
 -1      2644 1.32840E+01
 -1      2645 1.38389E+01
 -1      2646 9.28759E+00
 -1      2647 1.14716E+01
 -1      2648 7.35503E+00
 -1      2649 6.85669E+00
 -1      2650 1.99840E+01
 -1      2651 5.12572E+00
 -1      2652 2.18015E+01
 -1      2653 5.60377E+00
 -1      2654 5.38443E+00
 -1      2655 7.05490E+00
 -1      2656 5.87691E+00
 -1      2657 7.16375E+00
 -1      2658 1.47178E+01
 -1      2659 1.63222E-01
 -1      2660 1.52954E-01
 -1      2661 1.62019E-01
 -1      2662 1.99652E-01
 -1      2663 2.36511E-01
 -1      2664 1.98325E-01
 -1      2665 4.21776E-01
 -1      2666 4.07219E-01
 -1      2667 3.99657E-01
 -1      2668 3.86848E-01
 -1      2669 3.50491E-01
 -1      2670 4.35084E-01
 -1      2671 4.35084E-01
 -1      2672 4.69079E-01
 -1      2673 4.22945E-01
 -1      2674 3.48799E-01
 -1      2675 7.21764E-01
 -1      2676 7.99581E-01
 -1      2677 7.98105E-01
 -1      2678 6.17340E-01
 -1      2679 7.10681E-01
 -1      2680 5.32745E-01
 -1      2681 4.17523E+00
 -1      2682 5.03280E+00
 -1      2683 5.58024E-01
 -1      2684 5.00165E-01
 -1      2685 4.92933E-01
 -1      2686 4.36773E-01
 -1      2687 3.96553E-01
 -1      2688 4.15517E-01
 -1      2689 3.65784E-01
 -1      2690 3.68065E-01
 -1      2691 3.39818E-01
 -1      2692 3.16461E-01
 -1      2693 3.20842E-01
 -1      2694 2.90378E-01
 -1      2695 2.66138E-01
 -1      2696 2.68793E-01
 -1      2697 2.50622E-01
 -1      2698 2.27428E-01
 -1      2699 2.27195E-01
 -1      2700 2.10404E-01
 -1      2701 1.89157E-01
 -1      2702 1.94656E-01
 -1      2703 1.71641E-01
 -1      2704 1.52467E-01
 -1      2705 1.60116E-01
 -1      2706 1.34755E-01
 -1      2707 1.17271E-01
 -1      2708 1.24888E-01
 -1      2709 1.00389E-01
 -1      2710 9.75240E-02
 -1      2711 9.02944E-02
 -1      2712 1.03465E-01
 -1      2713 1.12423E-01
 -1      2714 7.93541E-02
 -1      2715 1.36098E-01
 -1      2716 1.55114E-01
 -1      2717 1.08970E-01
 -1      2718 1.86839E-01
 -1      2719 2.21848E-01
 -1      2720 1.64370E-01
 -1      2721 2.57760E-01
 -1      2722 2.95985E-01
 -1      2723 2.32008E-01
 -1      2724 3.36047E-01
 -1      2725 3.75976E-01
 -1      2726 3.07983E-01
 -1      2727 4.19403E-01
 -1      2728 4.57987E-01
 -1      2729 3.91472E-01
 -1      2730 5.02816E-01
 -1      2731 5.35964E-01
 -1      2732 4.79728E-01
 -1      2733 5.78475E-01
 -1      2734 6.05608E-01
 -1      2735 5.67068E-01
 -1      2736 6.50004E-01
 -1      2737 6.86122E-01
 -1      2738 6.53975E-01
 -1      2739 7.53150E-01
 -1      2740 7.75073E-01
 -1      2741 7.65398E-01
 -1      2742 8.38322E-01
 -1      2743 8.31409E-01
 -1      2744 8.95675E-01
 -1      2745 8.73414E-01
 -1      2746 9.35716E-01
 -1      2747 1.00093E+00
 -1      2748 1.04128E+00
 -1      2749 1.09652E+00
 -1      2750 1.14850E+00
 -1      2751 1.29941E+00
 -1      2752 1.39862E+00
 -1      2753 1.45696E+00
 -1      2754 1.35612E+00
 -1      2755 1.44734E+00
 -1      2756 1.61734E+00
 -1      2757 1.83084E+00
 -1      2758 1.94451E+00
 -1      2759 1.95834E+00
 -1      2760 2.49997E+00
 -1      2761 2.71816E+00
 -1      2762 2.89729E+00
 -1      2763 2.28764E+00
 -1      2764 2.18700E+00
 -1      2765 3.02223E+00
 -1      2766 2.11775E+00
 -1      2767 2.16246E+00
 -1      2768 2.52246E+00
 -1      2769 1.87171E+00
 -1      2770 1.66987E+00
 -1      2771 2.16246E+00
 -1      2772 1.49104E+00
 -1      2773 1.38634E+00
 -1      2774 1.69289E+00
 -1      2775 1.38822E+00
 -1      2776 1.28268E+00
 -1      2777 1.51595E+00
 -1      2778 1.26884E+00
 -1      2779 1.19679E+00
 -1      2780 1.50399E+00
 -1      2781 1.04043E+00
 -1      2782 9.72522E-01
 -1      2783 1.33379E+00
 -1      2784 8.47556E-01
 -1      2785 8.09654E-01
 -1      2786 1.05246E+00
 -1      2787 7.55274E-01
 -1      2788 7.47505E-01
 -1      2789 8.73118E-01
 -1      2790 6.82208E-01
 -1      2791 6.50577E-01
 -1      2792 7.53440E-01
 -1      2793 6.13012E-01
 -1      2794 5.77737E-01
 -1      2795 6.50577E-01
 -1      2796 5.34070E-01
 -1      2797 5.02290E-01
 -1      2798 5.69345E-01
 -1      2799 4.55019E-01
 -1      2800 4.16771E-01
 -1      2801 4.78406E-01
 -1      2802 3.69372E-01
 -1      2803 3.27903E-01
 -1      2804 3.83735E-01
 -1      2805 2.85397E-01
 -1      2806 2.45674E-01
 -1      2807 2.93831E-01
 -1      2808 3.60715E-01
 -1      2809 3.92462E-01
 -1      2810 3.22456E-01
 -1      2811 3.26116E-01
 -1      2812 3.80529E-01
 -1      2813 4.27518E-01
 -1      2814 4.78478E-01
 -1      2815 3.67031E-01
 -1      2816 2.60122E-01
 -1      2817 2.87278E-01
 -1      2818 2.17464E-01
 -1      2819 2.40933E-01
 -1      2820 2.26420E-01
 -1      2821 1.78817E-01
 -1      2822 1.98699E-01
 -1      2823 1.88466E-01
 -1      2824 1.43770E-01
 -1      2825 1.60641E-01
 -1      2826 1.51525E-01
 -1      2827 1.19218E-01
 -1      2828 1.25762E-01
 -1      2829 1.15341E-01
 -1      2830 1.37512E-01
 -1      2831 1.25534E-01
 -1      2832 1.03649E-01
 -1      2833 1.74755E-01
 -1      2834 1.57463E-01
 -1      2835 1.29918E-01
 -1      2836 2.60591E-01
 -1      2837 2.14087E-01
 -1      2838 1.89202E-01
 -1      2839 3.64612E-01
 -1      2840 3.08101E-01
 -1      2841 2.76044E-01
 -1      2842 4.89824E-01
 -1      2843 4.22105E-01
 -1      2844 3.81048E-01
 -1      2845 6.37839E-01
 -1      2846 5.59003E-01
 -1      2847 5.07721E-01
 -1      2848 8.07468E-01
 -1      2849 7.20035E-01
 -1      2850 6.59096E-01
 -1      2851 9.92666E-01
 -1      2852 9.03155E-01
 -1      2853 8.36980E-01
 -1      2854 1.17991E+00
 -1      2855 1.10063E+00
 -1      2856 1.04064E+00
 -1      2857 1.34900E+00
 -1      2858 1.29550E+00
 -1      2859 1.26419E+00
 -1      2860 1.56143E+00
 -1      2861 1.46042E+00
 -1      2862 1.49119E+00
 -1      2863 1.82617E+00
 -1      2864 1.73360E+00
 -1      2865 1.77477E+00
 -1      2866 2.13792E+00
 -1      2867 2.09885E+00
 -1      2868 2.21963E+00
 -1      2869 2.50348E+00
 -1      2870 2.31034E+00
 -1      2871 2.66474E+00
 -1      2872 3.43044E+00
 -1      2873 3.29151E+00
 -1      2874 3.62519E+00
 -1      2875 3.35323E+00
 -1      2876 2.98888E+00
 -1      2877 3.97167E+00
 -1      2878 5.43573E+00
 -1      2879 4.30604E+00
 -1      2880 4.89498E+00
 -1      2881 5.38663E+00
 -1      2882 3.58472E+00
 -1      2883 4.14950E+00
 -1      2884 5.58506E+00
 -1      2885 2.55627E+00
 -1      2886 2.70463E+00
 -1      2887 3.95950E+00
 -1      2888 2.81152E+00
 -1      2889 2.78924E+00
 -1      2890 3.31237E+00
 -1      2891 2.28191E+00
 -1      2892 2.51092E+00
 -1      2893 3.24475E+00
 -1      2894 1.97829E+00
 -1      2895 2.00933E+00
 -1      2896 2.67158E+00
 -1      2897 1.65431E+00
 -1      2898 1.73585E+00
 -1      2899 2.15656E+00
 -1      2900 1.42580E+00
 -1      2901 1.47546E+00
 -1      2902 1.73526E+00
 -1      2903 1.25316E+00
 -1      2904 1.32167E+00
 -1      2905 1.45227E+00
 -1      2906 1.04715E+00
 -1      2907 1.13955E+00
 -1      2908 1.23453E+00
 -1      2909 8.43131E-01
 -1      2910 9.37872E-01
 -1      2911 1.01165E+00
 -1      2912 6.59553E-01
 -1      2913 7.44404E-01
 -1      2914 8.03645E-01
 -1      2915 4.92104E-01
 -1      2916 5.70774E-01
 -1      2917 6.16139E-01
 -1      2918 3.92599E-01
 -1      2919 4.46526E-01
 -1      2920 4.81781E-01
 -1      2921 4.24132E-01
 -1      2922 2.78403E-01
 -1      2923 2.82716E-01
 -1      2924 2.03716E-01
 -1      2925 1.62019E-01
 -1      2926 2.09368E-01
 -1      2927 2.86699E-01
 -1      2928 2.75676E-01
 -1      2929 2.72954E-01
 -1      2930 2.72954E-01
 -1      2931 3.11753E-01
 -1      2932 2.86699E-01
 -1      2933 2.86699E-01
 -1      2934 3.25168E-01
 -1      2935 3.21186E-01
 -1      2936 5.52961E+00
 -1      2937 4.57006E+00
 -1      2938 2.59880E-01
 -1      2939 2.70593E-01
 -1      2940 3.03943E-01
 -1      2941 2.13789E-01
 -1      2942 2.37887E-01
 -1      2943 2.79589E-01
 -1      2944 1.86845E-01
 -1      2945 1.88131E-01
 -1      2946 2.31939E-01
 -1      2947 7.52239E+00
 -1      2948 1.00350E+01
 -1      2949 7.16998E+00
 -1      2950 6.86255E+00
 -1      2951 6.70858E-01
 -1      2952 6.34616E-01
 -1      2953 5.88932E-01
 -1      2954 5.92847E-01
 -1      2955 8.28416E-01
 -1      2956 5.03312E+00
 -1      2957 6.28513E+00
 -1      2958 1.30732E+01
 -1      2959 1.00335E+01
 -1      2960 5.12609E-01
 -1      2961 5.91684E-01
 -1      2962 4.96005E-01
 -1      2963 4.36218E-01
 -1      2964 1.89154E+01
 -1      2965 2.45507E+01
 -1      2966 3.05919E-01
 -1      2967 3.36174E-01
 -1      2968 3.07434E-01
 -1      2969 2.64251E-01
 -1      2970 3.79253E+00
 -1      2971 3.79049E+00
 -1      2972 3.69993E+00
 -1      2973 8.11211E+00
 -1      2974 6.57815E+00
 -1      2975 2.00595E+01
 -1      2976 2.42177E+01
 -1      2977 4.35084E-01
 -1      2978 4.23219E-01
 -1      2979 3.59495E-01
 -1      2980 3.60938E-01
 -1      2981 6.11708E+00
 -1      2982 4.97628E+00
 -1      2983 5.89388E+00
 -1      2984 6.73954E+00
 -1      2985 5.72309E+00
 -1      2986 6.52960E+00
 -1      2987 4.24688E-01
 -1      2988 4.35943E-01
 -1      2989 8.23805E+00
 -1      2990 6.05312E+00
 -1      2991 5.13291E+00
 -1      2992 4.86228E+00
 -1      2993 2.51439E+01
 -1      2994 1.93978E+01
 -1      2995 1.67410E-01
 -1      2996 2.29346E+01
 -1      2997 1.83361E+01
 -1      2998 1.53432E+01
 -1      2999 2.03621E+01
 -1      3000 2.37229E+01
 -1      3001 2.22526E+01
 -1      3002 6.46693E+00
 -1      3003 6.15876E+00
 -1      3004 1.12314E+01
 -1      3005 1.32963E+01
 -1      3006 1.84953E+01
 -1      3007 1.48350E+01
 -1      3008 1.22857E+01
 -1      3009 1.64266E+01
 -1      3010 4.95296E+00
 -1      3011 4.04956E+00
 -1      3012 8.34902E+00
 -1      3013 1.02708E+01
 -1      3014 9.29203E+00
 -1      3015 1.59322E+01
 -1      3016 1.23815E+01
 -1      3017 4.86426E-01
 -1      3018 5.92847E-01
 -1      3019 4.15117E-01
 -1      3020 3.53610E-01
 -1      3021 3.97529E-01
 -1      3022 4.10440E-01
 -1      3023 4.70571E+00
 -1      3024 5.72663E-01
 -1      3025 1.37957E+01
 -1      3026 3.60363E+00
 -1      3027 3.98084E+00
 -1      3028 3.88974E+00
 -1      3029 7.24100E+00
 -1      3030 6.16913E+00
 -1      3031 4.97169E+00
 -1      3032 4.48372E+00
 -1      3033 5.38926E+00
 -1      3034 1.02753E+01
 -1      3035 3.68615E-01
 -1      3036 3.19123E-01
 -1      3037 3.34306E-01
 -1      3038 3.23483E+00
 -1      3039 1.42488E+01
 -1      3040 4.48292E+00
 -1      3041 5.90010E+00
 -1      3042 4.95619E+00
 -1      3043 5.45270E+00
 -1      3044 1.54567E+01
 -1      3045 8.61346E+00
 -1      3046 1.35891E+01
 -1      3047 4.64151E+00
 -1      3048 3.34306E-01
 -1      3049 5.33333E+00
 -1      3050 6.17981E+00
 -1      3051 1.67410E-01
 -1      3052 1.18568E+01
 -1      3053 4.40244E-01
 -1      3054 1.42250E+01
 -1      3055 8.02729E+00
 -1      3056 4.34693E-01
 -1      3057 4.30252E-01
 -1      3058 4.44328E-01
 -1      3059 3.84274E-01
 -1      3060 3.84103E-01
 -1      3061 4.91357E+00
 -1      3062 1.83646E+01
 -1      3063 1.16038E+01
 -1      3064 1.19063E+01
 -1      3065 1.15846E+01
 -1      3066 8.18993E+00
 -1      3067 1.53109E+01
 -1      3068 1.66549E-01
 -1      3069 1.66549E-01
 -1      3070 1.85985E-01
 -1      3071 2.08507E-01
 -1      3072 1.00157E+01
 -1      3073 1.25045E+01
 -1      3074 2.89424E-01
 -1      3075 3.01563E-01
 -1      3076 9.40081E+00
 -1      3077 8.49092E+00
 -1      3078 2.99132E+00
 -1      3079 3.11699E+00
 -1      3080 2.90126E+00
 -1      3081 4.14389E+00
 -1      3082 3.23539E-01
 -1      3083 3.02283E-01
 -1      3084 2.97873E-01
 -1      3085 2.71907E-01
 -1      3086 2.53347E-01
 -1      3087 2.59096E-01
 -1      3088 2.33013E-01
 -1      3089 2.36126E-01
 -1      3090 2.16251E-01
 -1      3091 2.00735E-01
 -1      3092 2.06553E-01
 -1      3093 1.86620E-01
 -1      3094 1.69596E-01
 -1      3095 1.75675E-01
 -1      3096 1.55080E-01
 -1      3097 1.37565E-01
 -1      3098 1.47045E-01
 -1      3099 1.20903E-01
 -1      3100 1.03190E-01
 -1      3101 1.15867E-01
 -1      3102 8.48506E-02
 -1      3103 6.79690E-02
 -1      3104 8.08650E-02
 -1      3105 6.82589E-02
 -1      3106 7.42002E-02
 -1      3107 6.28151E-02
 -1      3108 9.01925E-02
 -1      3109 1.13867E-01
 -1      3110 7.90973E-02
 -1      3111 1.40476E-01
 -1      3112 1.72201E-01
 -1      3113 1.21698E-01
 -1      3114 2.03350E-01
 -1      3115 2.39262E-01
 -1      3116 1.79455E-01
 -1      3117 2.74570E-01
 -1      3118 3.14632E-01
 -1      3119 2.45911E-01
 -1      3120 3.59977E-01
 -1      3121 4.03404E-01
 -1      3122 3.26564E-01
 -1      3123 4.56376E-01
 -1      3124 5.01205E-01
 -1      3125 4.24881E-01
 -1      3126 5.60192E-01
 -1      3127 6.02703E-01
 -1      3128 5.36840E-01
 -1      3129 6.70729E-01
 -1      3130 7.15125E-01
 -1      3131 6.63853E-01
 -1      3132 7.87936E-01
 -1      3133 8.54964E-01
 -1      3134 8.04690E-01
 -1      3135 9.56800E-01
 -1      3136 1.02005E+00
 -1      3137 9.79337E-01
 -1      3138 1.16075E+00
 -1      3139 1.20275E+00
 -1      3140 1.22187E+00
 -1      3141 1.35419E+00
 -1      3142 1.45976E+00
 -1      3143 1.51401E+00
 -1      3144 1.48390E+00
 -1      3145 1.68678E+00
 -1      3146 1.68959E+00
 -1      3147 2.28684E+00
 -1      3148 2.24434E+00
 -1      3149 2.31378E+00
 -1      3150 1.95834E+00
 -1      3151 2.34184E+00
 -1      3152 2.62783E+00
 -1      3153 3.65677E+00
 -1      3154 3.22625E+00
 -1      3155 3.23431E+00
 -1      3156 2.94356E+00
 -1      3157 1.79392E+00
 -1      3158 1.61510E+00
 -1      3159 1.75233E+00
 -1      3160 1.75422E+00
 -1      3161 1.85337E+00
 -1      3162 1.90620E+00
 -1      3163 1.89236E+00
 -1      3164 2.14258E+00
 -1      3165 1.83620E+00
 -1      3166 1.67984E+00
 -1      3167 2.23840E+00
 -1      3168 1.53721E+00
 -1      3169 1.41225E+00
 -1      3170 2.03962E+00
 -1      3171 1.22405E+00
 -1      3172 1.16967E+00
 -1      3173 1.70880E+00
 -1      3174 9.95456E-01
 -1      3175 9.30158E-01
 -1      3176 1.34639E+00
 -1      3177 8.37763E-01
 -1      3178 8.00197E-01
 -1      3179 1.07978E+00
 -1      3180 7.08122E-01
 -1      3181 6.64455E-01
 -1      3182 8.95307E-01
 -1      3183 5.78554E-01
 -1      3184 5.31283E-01
 -1      3185 7.17331E-01
 -1      3186 4.56296E-01
 -1      3187 4.08896E-01
 -1      3188 5.56444E-01
 -1      3189 3.12611E-01
 -1      3190 2.70106E-01
 -1      3191 2.27288E-01
 -1      3192 3.85172E-01
 -1      3193 1.23911E+01
 -1      3194 1.14887E+01
 -1      3195 3.10062E-01
 -1      3196 3.45118E-01
 -1      3197 1.58226E-01
 -1      3198 1.76991E-01
 -1      3199 1.93697E-01
 -1      3200 2.12886E-01
 -1      3201 1.63457E-01
 -1      3202 8.58381E-02
 -1      3203 1.03846E-01
 -1      3204 8.24387E-02
 -1      3205 7.61217E-02
 -1      3206 6.46274E-02
 -1      3207 1.21921E-01
 -1      3208 1.01969E-01
 -1      3209 7.44412E-02
 -1      3210 1.91924E-01
 -1      3211 1.52592E-01
 -1      3212 1.24643E-01
 -1      3213 2.79783E-01
 -1      3214 2.32273E-01
 -1      3215 1.95663E-01
 -1      3216 3.88417E-01
 -1      3217 3.30923E-01
 -1      3218 2.87152E-01
 -1      3219 5.20117E-01
 -1      3220 4.50938E-01
 -1      3221 4.00813E-01
 -1      3222 6.77479E-01
 -1      3223 5.95283E-01
 -1      3224 5.38500E-01
 -1      3225 8.60777E-01
 -1      3226 7.65090E-01
 -1      3227 7.01276E-01
 -1      3228 1.07269E+00
 -1      3229 9.64721E-01
 -1      3230 8.92831E-01
 -1      3231 1.33527E+00
 -1      3232 1.21968E+00
 -1      3233 1.14377E+00
 -1      3234 1.65421E+00
 -1      3235 1.54280E+00
 -1      3236 1.49829E+00
 -1      3237 2.10258E+00
 -1      3238 1.93040E+00
 -1      3239 1.98201E+00
 -1      3240 2.71656E+00
 -1      3241 2.44388E+00
 -1      3242 2.59951E+00
 -1      3243 3.66305E+00
 -1      3244 3.49063E+00
 -1      3245 3.71488E+00
 -1      3246 4.88098E+00
 -1      3247 5.32253E+00
 -1      3248 1.33930E+01
 -1      3249 1.25652E+01
 -1      3250 9.61304E+00
 -1      3251 5.45270E+00
 -1      3252 4.00263E+00
 -1      3253 4.30323E+00
 -1      3254 3.43315E+00
 -1      3255 3.70572E+00
 -1      3256 2.38779E+00
 -1      3257 2.63024E+00
 -1      3258 3.66438E+00
 -1      3259 1.88028E+00
 -1      3260 2.05914E+00
 -1      3261 2.53282E+00
 -1      3262 1.51568E+00
 -1      3263 1.61982E+00
 -1      3264 1.94370E+00
 -1      3265 1.19478E+00
 -1      3266 1.30839E+00
 -1      3267 1.47594E+00
 -1      3268 9.35810E-01
 -1      3269 1.04508E+00
 -1      3270 1.11895E+00
 -1      3271 7.20452E-01
 -1      3272 8.19179E-01
 -1      3273 8.52617E-01
 -1      3274 5.43716E-01
 -1      3275 6.32495E-01
 -1      3276 6.48030E-01
 -1      3277 3.23177E-01
 -1      3278 3.15616E-01
 -1      3279 3.47135E-01
 -1      3280 3.52585E-01
 -1      3281 2.45883E-01
 -1      3282 2.71541E-01
 -1      3283 3.44775E-01
 -1      3284 3.47135E-01
 -1      3285 3.87967E-01
 -1      3286 7.12466E+00
 -1      3287 8.32105E+00
 -1      3288 1.28502E+01
 -1      3289 1.04464E+01
 -1      3290 5.31163E+00
 -1      3291 1.08023E+01
 -1      3292 1.17286E+01
 -1      3293 4.65600E-01
 -1      3294 3.69551E-01
 -1      3295 3.38643E-01
 -1      3296 3.69551E-01
 -1      3297 3.04734E-01
 -1      3298 3.26726E-01
 -1      3299 3.69919E-01
 -1      3300 3.18678E-01
 -1      3301 4.21381E+00
 -1      3302 4.01541E+00
 -1      3303 4.70571E+00
 -1      3304 1.21966E-01
 -1      3305 1.40142E-01
 -1      3306 1.28667E-01
 -1      3307 9.24635E-02
 -1      3308 3.73256E+00
 -1      3309 2.95503E+00
 -1      3310 4.57060E+00
 -1      3311 4.50793E+00
 -1      3312 3.22728E-01
 -1      3313 3.15496E-01
 -1      3314 2.49714E-01
 -1      3315 2.57586E-01
 -1      3316 1.25652E+01
 -1      3317 1.32472E+01
 -1      3318 4.90626E+00
 -1      3319 6.14352E+00
 -1      3320 4.10759E+00
 -1      3321 9.85934E+00
 -1      3322 1.19063E+01
 -1      3323 7.96424E+00
 -1      3324 6.16879E+00
 -1      3325 1.11022E+01
 -1      3326 9.34039E+00
 -1      3327 4.12062E-01
 -1      3328 4.12849E-01
 -1      3329 3.09265E-01
 -1      3330 2.62029E-01
 -1      3331 4.01766E-01
 -1      3332 7.65186E+00
 -1      3333 6.47638E+00
 -1      3334 6.77737E+00
 -1      3335 4.69425E+00
 -1      3336 3.06906E+00
 -1      3337 7.15246E+00
 -1      3338 9.16735E+00
 -1      3339 4.56572E+00
 -1      3340 3.93657E+00
 -1      3341 5.25948E+00
 -1      3342 3.53610E-01
 -1      3343 3.64292E-01
 -1      3344 3.26297E-01
 -1      3345 2.60503E-01
 -1      3346 3.19878E-01
 -1      3347 3.19878E-01
 -1      3348 2.29631E+00
 -1      3349 3.11699E+00
 -1      3350 9.90882E+00
 -1      3351 3.61404E-01
 -1      3352 4.11887E-01
 -1      3353 3.15838E-01
 -1      3354 3.80299E+00
 -1      3355 3.16845E+00
 -1      3356 3.65919E-01
 -1      3357 4.09365E-01
 -1      3358 2.89729E+00
 -1      3359 2.89729E+00
 -1      3360 3.45275E+00
 -1      3361 3.09921E+00
 -1      3362 9.24453E+00
 -1      3363 2.92328E-01
 -1      3364 2.70416E-01
 -1      3365 2.67787E-01
 -1      3366 2.98612E-01
 -1      3367 3.55581E-01
 -1      3368 3.89712E-01
 -1      3369 3.39899E+00
 -1      3370 1.95741E-01
 -1      3371 2.28464E-01
 -1      3372 2.47106E-01
 -1      3373 4.47145E+00
 -1      3374 5.29734E+00
 -1      3375 1.05016E+01
 -1      3376 4.03914E-01
 -1      3377 3.84274E-01
 -1      3378 3.81044E-01
 -1      3379 4.76420E+00
 -1      3380 5.18297E-01
 -1      3381 5.34654E-01
 -1      3382 4.72719E-01
 -1      3383 3.23177E-01
 -1      3384 2.88302E-01
 -1      3385 3.24620E-01
 -1      3386 3.69826E-01
 -1      3387 3.69826E-01
 -1      3388 4.10577E-01
 -1      3389 1.01046E+01
 -1      3390 3.65844E-01
 -1      3391 3.69826E-01
 -1      3392 4.14484E-01
 -1      3393 4.01226E-01
 -1      3394 5.85110E+00
 -1      3395 8.66199E+00
 -1      3396 7.87615E+00
 -1      3397 8.37053E+00
 -1      3398 1.07262E+01
 -1      3399 8.22987E+00
 -1      3400 9.03130E+00
 -1      3401 3.65677E+00
 -1      3402 3.88031E+00
 -1      3403 4.54664E+00
 -1      3404 5.08470E+00
 -1      3405 2.76451E+00
 -1      3406 3.72292E-01
 -1      3407 3.97948E-01
 -1      3408 2.78053E-01
 -1      3409 2.91655E-01
 -1      3410 3.96077E+00
 -1      3411 8.96850E+00
 -1      3412 7.48188E+00
 -1      3413 4.12062E-01
 -1      3414 4.12062E-01
 -1      3415 2.10578E-01
 -1      3416 2.30874E-01
 -1      3417 2.70476E-01
 -1      3418 2.72177E-01
 -1      3419 6.04445E+00
 -1      3420 2.84353E+00
 -1      3421 8.50495E+00
 -1      3422 8.10794E+00
 -1      3423 5.74754E+00
 -1      3424 4.09365E-01
 -1      3425 2.14348E-01
 -1      3426 2.01537E-01
 -1      3427 1.95960E-01
 -1      3428 1.79198E-01
 -1      3429 1.74182E-01
 -1      3430 1.68508E-01
 -1      3431 1.54393E-01
 -1      3432 1.57916E-01
 -1      3433 1.43982E-01
 -1      3434 1.29466E-01
 -1      3435 1.36815E-01
 -1      3436 1.18511E-01
 -1      3437 1.01849E-01
 -1      3438 1.15448E-01
 -1      3439 9.27842E-02
 -1      3440 7.44443E-02
 -1      3441 9.54282E-02
 -1      3442 7.68373E-02
 -1      3443 7.71272E-02
 -1      3444 8.87564E-02
 -1      3445 8.05852E-02
 -1      3446 9.65775E-02
 -1      3447 9.46073E-02
 -1      3448 1.21371E-01
 -1      3449 1.47980E-01
 -1      3450 1.22859E-01
 -1      3451 1.79018E-01
 -1      3452 2.10166E-01
 -1      3453 1.78691E-01
 -1      3454 2.45911E-01
 -1      3455 2.81219E-01
 -1      3456 2.45474E-01
 -1      3457 3.21543E-01
 -1      3458 3.66888E-01
 -1      3459 3.21543E-01
 -1      3460 4.10785E-01
 -1      3461 4.63757E-01
 -1      3462 4.05764E-01
 -1      3463 5.18999E-01
 -1      3464 5.77985E-01
 -1      3465 5.04902E-01
 -1      3466 6.46952E-01
 -1      3467 7.14978E-01
 -1      3468 6.29110E-01
 -1      3469 8.25210E-01
 -1      3470 8.98021E-01
 -1      3471 8.08309E-01
 -1      3472 1.04436E+00
 -1      3473 1.14620E+00
 -1      3474 1.06488E+00
 -1      3475 1.28615E+00
 -1      3476 1.42685E+00
 -1      3477 1.35117E+00
 -1      3478 1.60949E+00
 -1      3479 1.76093E+00
 -1      3480 1.67377E+00
 -1      3481 2.32889E+00
 -1      3482 2.35303E+00
 -1      3483 2.42438E+00
 -1      3484 3.12953E+00
 -1      3485 2.86577E+00
 -1      3486 2.57278E+00
 -1      3487 2.72476E+00
 -1      3488 2.94239E+00
 -1      3489 2.88623E+00
 -1      3490 3.37259E+00
 -1      3491 2.44281E+00
 -1      3492 2.30018E+00
 -1      3493 3.14680E+00
 -1      3494 2.06777E+00
 -1      3495 1.87957E+00
 -1      3496 2.47096E+00
 -1      3497 1.62751E+00
 -1      3498 1.45330E+00
 -1      3499 1.98649E+00
 -1      3500 1.21878E+00
 -1      3501 1.12639E+00
 -1      3502 1.49991E+00
 -1      3503 9.45876E-01
 -1      3504 8.53800E-01
 -1      3505 1.08488E+00
 -1      3506 7.57592E-01
 -1      3507 6.71691E-01
 -1      3508 8.08160E-01
 -1      3509 5.98916E-01
 -1      3510 5.23928E-01
 -1      3511 6.39176E-01
 -1      3512 8.59221E+00
 -1      3513 8.59221E+00
 -1      3514 9.33630E-02
 -1      3515 7.38329E-02
 -1      3516 6.94922E-02
 -1      3517 7.92086E-02
 -1      3518 8.84141E-02
 -1      3519 2.30319E-01
 -1      3520 1.89970E-01
 -1      3521 3.28695E-01
 -1      3522 2.77555E-01
 -1      3523 2.71862E-01
 -1      3524 4.50091E-01
 -1      3525 3.87571E-01
 -1      3526 3.77974E-01
 -1      3527 5.98780E-01
 -1      3528 5.23615E-01
 -1      3529 5.10372E-01
 -1      3530 7.78170E-01
 -1      3531 6.90559E-01
 -1      3532 6.75674E-01
 -1      3533 9.96549E-01
 -1      3534 8.92605E-01
 -1      3535 8.81888E-01
 -1      3536 1.28314E+00
 -1      3537 1.13615E+00
 -1      3538 1.13593E+00
 -1      3539 1.66625E+00
 -1      3540 1.45872E+00
 -1      3541 1.45111E+00
 -1      3542 2.22787E+00
 -1      3543 1.95168E+00
 -1      3544 1.91211E+00
 -1      3545 3.16496E+00
 -1      3546 2.82365E+00
 -1      3547 2.79332E+00
 -1      3548 4.16864E+00
 -1      3549 3.39458E+00
 -1      3550 3.61872E+00
 -1      3551 2.64853E+00
 -1      3552 2.97719E+00
 -1      3553 1.43727E-01
 -1      3554 1.60433E-01
 -1      3555 4.38766E+00
 -1      3556 5.19057E+00
 -1      3557 6.47082E+00
 -1      3558 4.50337E+00
 -1      3559 1.43373E+00
 -1      3560 1.64102E+00
 -1      3561 1.10545E+00
 -1      3562 1.25515E+00
 -1      3563 1.42024E+00
 -1      3564 8.47584E-01
 -1      3565 9.64214E-01
 -1      3566 1.10042E+00
 -1      3567 6.93517E-01
 -1      3568 7.81474E-01
 -1      3569 8.93071E-01
 -1      3570 4.24132E-01
 -1      3571 4.80259E+00
 -1      3572 5.78373E+00
 -1      3573 4.28805E-01
 -1      3574 4.28805E-01
 -1      3575 1.86405E+00
 -1      3576 2.12452E+00
 -1      3577 2.56888E+00
 -1      3578 1.51884E-01
 -1      3579 1.21213E-01
 -1      3580 1.20604E-01
 -1      3581 1.86540E-01
 -1      3582 2.21058E-01
 -1      3583 2.01216E-01
 -1      3584 2.17240E-01
 -1      3585 8.08810E+00
 -1      3586 7.70160E+00
 -1      3587 8.43938E+00
 -1      3588 8.43938E+00
 -1      3589 2.15026E-01
 -1      3590 2.10616E-01
 -1      3591 1.76026E-01
 -1      3592 6.67348E+00
 -1      3593 2.41085E-01
 -1      3594 1.98748E-01
 -1      3595 1.82833E-01
 -1      3596 7.31919E+00
 -1      3597 7.70369E+00
 -1      3598 8.59221E+00
 -1      3599 3.89190E+00
 -1      3600 8.15907E+00
 -1      3601 7.11351E+00
 -1      3602 3.84103E-01
 -1      3603 4.03914E-01
 -1      3604 4.03914E-01
 -1      3605 3.84103E-01
 -1      3606 7.23828E+00
 -1      3607 7.90082E+00
 -1      3608 6.35789E+00
 -1      3609 5.97917E+00
 -1      3610 7.51746E+00
 -1      3611 6.38387E+00
 -1      3612 5.54481E+00
 -1      3613 5.88095E+00
 -1      3614 3.82452E+00
 -1      3615 2.19531E-01
 -1      3616 6.59560E+00
 -1      3617 6.35318E+00
 -1      3618 2.18233E+00
 -1      3619 1.82184E+00
 -1      3620 3.86378E+00
 -1      3621 3.22447E+00
 -1      3622 1.31219E-01
 -1      3623 1.28195E-01
 -1      3624 1.13136E-01
 -1      3625 2.32000E-01
 -1      3626 5.39670E-01
 -1      3627 5.42367E-01
 -1      3628 5.19676E+00
 -1      3629 6.68286E+00
 -1      3630 2.48308E-01
 -1      3631 2.58771E-01
 -1      3632 1.72388E-01
 -1      3633 1.87966E-01
 -1      3634 1.52658E-01
 -1      3635 8.49455E-02
 -1      3636 8.00806E-02
 -1      3637 9.82004E-02
 -1      3638 5.39670E-01
 -1      3639 6.72671E-01
 -1      3640 5.43578E-01
 -1      3641 2.47971E-01
 -1      3642 2.08129E-01
 -1      3643 2.30237E-01
 -1      3644 2.10459E+00
 -1      3645 1.96735E+00
 -1      3646 7.03030E+00
 -1      3647 5.96262E+00
 -1      3648 6.95421E+00
 -1      3649 2.76128E-01
 -1      3650 3.14122E-01
 -1      3651 4.60648E-01
 -1      3652 6.16372E-01
 -1      3653 7.49816E-01
 -1      3654 4.10089E-01
 -1      3655 4.50927E-01
 -1      3656 3.92041E-01
 -1      3657 2.83560E-01
 -1      3658 2.51984E-01
 -1      3659 2.51984E-01
 -1      3660 2.39809E-01
 -1      3661 4.42608E-01
 -1      3662 4.55866E-01
 -1      3663 4.83446E-01
 -1      3664 7.56186E+00
 -1      3665 7.26398E+00
 -1      3666 5.79454E+00
 -1      3667 4.87262E+00
 -1      3668 6.55946E+00
 -1      3669 4.76427E+00
 -1      3670 5.19460E+00
 -1      3671 6.59994E+00
 -1      3672 5.57911E+00
 -1      3673 3.78413E+00
 -1      3674 2.55177E-01
 -1      3675 1.38087E-01
 -1      3676 2.78047E-01
 -1      3677 1.89057E-01
 -1      3678 1.97100E-01
 -1      3679 1.54368E-01
 -1      3680 1.30218E-01
 -1      3681 4.37076E+00
 -1      3682 4.93066E+00
 -1      3683 1.06406E+00
 -1      3684 1.20530E+00
 -1      3685 1.56130E-01
 -1      3686 1.50553E-01
 -1      3687 5.83593E+00
 -1      3688 6.02322E+00
 -1      3689 3.22782E+00
 -1      3690 4.09926E+00
 -1      3691 4.29471E+00
 -1      3692 2.65986E+00
 -1      3693 1.48334E-01
 -1      3694 1.37645E-01
 -1      3695 1.30283E-01
 -1      3696 1.30601E-01
 -1      3697 1.20190E-01
 -1      3698 1.21019E-01
 -1      3699 1.13178E-01
 -1      3700 1.02222E-01
 -1      3701 1.06963E-01
 -1      3702 1.02356E-01
 -1      3703 9.32918E-02
 -1      3704 1.00086E-01
 -1      3705 9.69737E-02
 -1      3706 9.93666E-02
 -1      3707 1.03902E-01
 -1      3708 1.04430E-01
 -1      3709 1.07888E-01
 -1      3710 1.12648E-01
 -1      3711 1.16515E-01
 -1      3712 1.41309E-01
 -1      3713 1.26338E-01
 -1      3714 1.69379E-01
 -1      3715 2.00418E-01
 -1      3716 1.63036E-01
 -1      3717 2.34675E-01
 -1      3718 2.70420E-01
 -1      3719 2.25364E-01
 -1      3720 3.11797E-01
 -1      3721 3.52121E-01
 -1      3722 3.00998E-01
 -1      3723 4.01847E-01
 -1      3724 4.45744E-01
 -1      3725 3.92102E-01
 -1      3726 5.04902E-01
 -1      3727 5.60143E-01
 -1      3728 5.00985E-01
 -1      3729 6.29110E-01
 -1      3730 6.98077E-01
 -1      3731 6.29110E-01
 -1      3732 7.92182E-01
 -1      3733 9.02415E-01
 -1      3734 7.92182E-01
 -1      3735 1.04461E+00
 -1      3736 1.19095E+00
 -1      3737 1.02848E+00
 -1      3738 1.37285E+00
 -1      3739 1.51280E+00
 -1      3740 1.35257E+00
 -1      3741 1.75916E+00
 -1      3742 1.94180E+00
 -1      3743 2.74525E+00
 -1      3744 1.78083E+00
 -1      3745 1.82130E+00
 -1      3746 2.04433E+00
 -1      3747 4.67480E+00
 -1      3748 3.98428E+00
 -1      3749 3.54085E+00
 -1      3750 4.76482E+00
 -1      3751 2.95067E+00
 -1      3752 2.71826E+00
 -1      3753 3.78815E+00
 -1      3754 2.07607E+00
 -1      3755 1.82401E+00
 -1      3756 2.55578E+00
 -1      3757 1.52800E+00
 -1      3758 1.29348E+00
 -1      3759 1.61758E+00
 -1      3760 1.14416E+00
 -1      3761 9.63651E-01
 -1      3762 1.17225E+00
 -1      3763 8.40433E-01
 -1      3764 7.44224E-01
 -1      3765 8.99715E-01
 -1      3766 4.47076E-01
 -1      3767 3.50791E-01
 -1      3768 5.66206E+00
 -1      3769 5.57480E+00
 -1      3770 4.04270E-01
 -1      3771 3.45395E-01
 -1      3772 2.95802E-01
 -1      3773 2.48565E-01
 -1      3774 3.22098E-01
 -1      3775 7.14620E-01
 -1      3776 6.22842E-01
 -1      3777 9.37682E-01
 -1      3778 8.23247E-01
 -1      3779 7.70415E-01
 -1      3780 1.22827E+00
 -1      3781 1.08867E+00
 -1      3782 1.03003E+00
 -1      3783 1.60930E+00
 -1      3784 1.43373E+00
 -1      3785 1.38647E+00
 -1      3786 2.25174E+00
 -1      3787 1.96631E+00
 -1      3788 1.94893E+00
 -1      3789 4.44518E+00
 -1      3790 7.49816E-01
 -1      3791 8.26962E-01
 -1      3792 7.49816E-01
 -1      3793 5.90953E-01
 -1      3794 1.95827E-01
 -1      3795 2.46132E-01
 -1      3796 8.58263E-01
 -1      3797 9.24372E-01
 -1      3798 1.02925E+00
 -1      3799 8.58263E-01
 -1      3800 1.42024E+00
 -1      3801 1.59882E+00
 -1      3802 1.82130E+00
 -1      3803 1.38388E+00
 -1      3804 6.21393E+00
 -1      3805 6.80585E+00
 -1      3806 5.60628E+00
 -1      3807 2.28864E+00
 -1      3808 2.81266E+00
 -1      3809 3.50389E+00
 -1      3810 2.28810E+00
 -1      3811 1.02664E-01
 -1      3812 9.83235E-02
 -1      3813 5.22988E-01
 -1      3814 5.22988E-01
 -1      3815 5.64370E-01
 -1      3816 2.41883E-01
 -1      3817 2.46625E-01
 -1      3818 2.10306E-01
 -1      3819 5.77904E+00
 -1      3820 5.83016E+00
 -1      3821 3.37673E-01
 -1      3822 3.70866E-01
 -1      3823 1.47032E-01
 -1      3824 1.50764E-01
 -1      3825 1.27136E-01
 -1      3826 2.28711E-01
 -1      3827 2.01171E-01
 -1      3828 2.21853E-01
 -1      3829 1.99408E-01
 -1      3830 5.40958E-01
 -1      3831 4.67435E-01
 -1      3832 5.79905E-01
 -1      3833 5.49446E+00
 -1      3834 2.63953E-01
 -1      3835 3.14122E-01
 -1      3836 3.33934E-01
 -1      3837 3.34081E-01
 -1      3838 3.49090E-01
 -1      3839 5.65306E+00
 -1      3840 5.65306E+00
 -1      3841 4.89548E-01
 -1      3842 4.01278E-01
 -1      3843 4.78131E-01
 -1      3844 4.11036E-01
 -1      3845 5.74063E-01
 -1      3846 4.85793E-01
 -1      3847 1.07815E-01
 -1      3848 9.35646E-02
 -1      3849 9.44367E-02
 -1      3850 3.02333E+00
 -1      3851 3.85472E+00
 -1      3852 3.60124E+00
 -1      3853 2.30526E+00
 -1      3854 4.34856E-01
 -1      3855 4.63227E+00
 -1      3856 1.71716E-01
 -1      3857 3.86984E+00
 -1      3858 4.97359E+00
 -1      3859 3.94379E+00
 -1      3860 2.89837E+00
 -1      3861 1.34027E-01
 -1      3862 1.45982E-01
 -1      3863 6.46838E-01
 -1      3864 4.84550E+00
 -1      3865 1.77818E-01
 -1      3866 4.71404E+00
 -1      3867 6.52081E-01
 -1      3868 2.33062E-01
 -1      3869 2.09122E-01
 -1      3870 1.71037E-01
 -1      3871 3.47369E+00
 -1      3872 2.87791E+00
 -1      3873 1.00753E-01
 -1      3874 5.06968E-01
 -1      3875 1.39331E-01
 -1      3876 1.11481E-01
 -1      3877 1.61914E-01
 -1      3878 1.62332E-01
 -1      3879 1.49693E-01
 -1      3880 1.35905E-01
 -1      3881 1.10643E-01
 -1      3882 1.17979E-01
 -1      3883 7.45233E-01
 -1      3884 7.63949E-01
 -1      3885 8.19990E-01
 -1      3886 1.99146E-01
 -1      3887 2.23290E-01
 -1      3888 7.63949E-01
 -1      3889 7.77752E-01
 -1      3890 1.05826E+00
 -1      3891 1.82596E-01
 -1      3892 2.93211E+00
 -1      3893 4.24374E+00
 -1      3894 5.41914E+00
 -1      3895 4.66314E+00
 -1      3896 1.21391E-01
 -1      3897 1.05860E-01
 -1      3898 1.12083E-01
 -1      3899 9.36199E-02
 -1      3900 1.19952E-01
 -1      3901 5.62795E+00
 -1      3902 1.75990E-01
 -1      3903 1.76327E-01
 -1      3904 1.30192E-01
 -1      3905 1.25688E-01
 -1      3906 1.19012E-01
 -1      3907 1.13181E-01
 -1      3908 3.05538E-01
 -1      3909 3.05538E-01
 -1      3910 1.79671E-01
 -1      3911 2.35558E-01
 -1      3912 2.23290E-01
 -1      3913 2.23290E-01
 -1      3914 1.82628E-01
 -1      3915 1.94067E-01
 -1      3916 6.79111E-01
 -1      3917 4.52977E+00
 -1      3918 1.13142E-01
 -1      3919 1.06098E-01
 -1      3920 1.04475E-01
 -1      3921 9.74636E-02
 -1      3922 9.65976E-02
 -1      3923 1.02282E-01
 -1      3924 1.02416E-01
 -1      3925 9.97939E-02
 -1      3926 1.06574E-01
 -1      3927 1.10256E-01
 -1      3928 1.08770E-01
 -1      3929 1.16882E-01
 -1      3930 1.21945E-01
 -1      3931 1.19554E-01
 -1      3932 1.30593E-01
 -1      3933 1.39220E-01
 -1      3934 1.34827E-01
 -1      3935 1.53914E-01
 -1      3936 1.81985E-01
 -1      3937 1.58169E-01
 -1      3938 2.04282E-01
 -1      3939 2.38539E-01
 -1      3940 1.95160E-01
 -1      3941 2.75557E-01
 -1      3942 3.16935E-01
 -1      3943 2.54475E-01
 -1      3944 3.64427E-01
 -1      3945 4.14153E-01
 -1      3946 3.38986E-01
 -1      3947 4.75775E-01
 -1      3948 5.34933E-01
 -1      3949 4.48100E-01
 -1      3950 6.15925E-01
 -1      3951 6.84891E-01
 -1      3952 5.90714E-01
 -1      3953 7.92182E-01
 -1      3954 8.86288E-01
 -1      3955 7.78997E-01
 -1      3956 1.02848E+00
 -1      3957 1.17067E+00
 -1      3958 1.02848E+00
 -1      3959 1.33204E+00
 -1      3960 1.51395E+00
 -1      3961 1.33204E+00
 -1      3962 4.37831E-01
 -1      3963 3.74666E-01
 -1      3964 3.93471E+00
 -1      3965 3.94372E+00
 -1      3966 4.78592E+00
 -1      3967 3.81444E+00
 -1      3968 4.91261E+00
 -1      3969 4.12385E+00
 -1      3970 3.11518E+00
 -1      3971 2.47299E+00
 -1      3972 1.81936E+00
 -1      3973 1.52335E+00
 -1      3974 2.37876E+00
 -1      3975 1.29985E+00
 -1      3976 1.15053E+00
 -1      3977 1.50163E+00
 -1      3978 1.03381E+00
 -1      3979 9.10590E-01
 -1      3980 1.16141E+00
 -1      3981 1.03485E+00
 -1      3982 8.83865E-01
 -1      3983 7.69990E-01
 -1      3984 6.61364E-01
 -1      3985 7.74815E-01
 -1      3986 2.49488E+00
 -1      3987 2.13787E+00
 -1      3988 8.99704E-02
 -1      3989 1.04906E-01
 -1      3990 1.02398E-01
 -1      3991 9.85896E-02
 -1      3992 6.63563E-01
 -1      3993 7.40708E-01
 -1      3994 6.42973E-01
 -1      3995 1.36017E-01
 -1      3996 1.54648E-01
 -1      3997 1.67853E-01
 -1      3998 1.60572E-01
 -1      3999 9.17376E-01
 -1      4000 6.41437E-01
 -1      4001 7.08559E-01
 -1      4002 7.20040E-01
 -1      4003 9.21941E-01
 -1      4004 1.05147E+00
 -1      4005 3.12105E+00
 -1      4006 2.49488E+00
 -1      4007 2.68381E+00
 -1      4008 3.37720E+00
 -1      4009 3.97960E+00
 -1      4010 4.18383E+00
 -1      4011 1.40093E+00
 -1      4012 1.19547E+00
 -1      4013 1.04931E+00
 -1      4014 1.05601E-01
 -1      4015 1.10967E-01
 -1      4016 3.28230E-01
 -1      4017 2.78636E-01
 -1      4018 3.31204E-01
 -1      4019 5.79993E-01
 -1      4020 4.98109E-01
 -1      4021 4.37919E-01
 -1      4022 1.31564E-01
 -1      4023 1.22747E-01
 -1      4024 1.71500E-01
 -1      4025 1.79884E-01
 -1      4026 1.48082E-01
 -1      4027 1.48330E-01
 -1      4028 1.15963E-01
 -1      4029 1.13744E-01
 -1      4030 9.44277E-02
 -1      4031 4.76426E+00
 -1      4032 1.42704E-01
 -1      4033 1.32531E-01
 -1      4034 1.27772E-01
 -1      4035 1.64227E+00
 -1      4036 1.88863E+00
 -1      4037 2.16670E+00
 -1      4038 1.62174E+00
 -1      4039 3.28204E+00
 -1      4040 1.57028E+00
 -1      4041 1.79276E+00
 -1      4042 1.60745E-01
 -1      4043 2.01407E-01
 -1      4044 1.73012E-01
 -1      4045 4.18958E+00
 -1      4046 3.49592E+00
 -1      4047 3.39480E+00
 -1      4048 1.05826E+00
 -1      4049 1.05826E+00
 -1      4050 1.05147E+00
 -1      4051 2.42005E-01
 -1      4052 2.02562E-01
 -1      4053 2.48136E-01
 -1      4054 9.88219E-02
 -1      4055 5.79569E-01
 -1      4056 1.18940E-01
 -1      4057 1.27605E-01
 -1      4058 1.77465E-01
 -1      4059 1.45760E-01
 -1      4060 1.86408E-01
 -1      4061 1.13988E-01
 -1      4062 1.22327E-01
 -1      4063 1.13915E-01
 -1      4064 1.72957E-01
 -1      4065 1.78316E-01
 -1      4066 8.58536E-02
 -1      4067 9.69812E-02
 -1      4068 8.08117E-02
 -1      4069 9.48995E-01
 -1      4070 1.08868E+00
 -1      4071 1.61797E-01
 -1      4072 2.03830E+00
 -1      4073 2.28261E+00
 -1      4074 2.64857E+00
 -1      4075 1.78727E+00
 -1      4076 1.94687E+00
 -1      4077 7.57786E-01
 -1      4078 7.89087E-01
 -1      4079 8.48519E-01
 -1      4080 6.71533E-01
 -1      4081 1.28582E-01
 -1      4082 1.47116E-01
 -1      4083 1.02932E-01
 -1      4084 1.15316E-01
 -1      4085 1.16927E-01
 -1      4086 1.36147E-01
 -1      4087 1.36147E-01
 -1      4088 2.70939E+00
 -1      4089 3.38886E+00
 -1      4090 2.70031E+00
 -1      4091 2.09364E+00
 -1      4092 2.29356E+00
 -1      4093 3.31146E+00
 -1      4094 2.93606E+00
 -1      4095 1.87692E+00
 -1      4096 4.04106E+00
 -1      4097 1.22465E+00
 -1      4098 1.43959E+00
 -1      4099 1.41105E+00
 -1      4100 1.14440E+00
 -1      4101 1.61364E-01
 -1      4102 1.33873E-01
 -1      4103 1.01645E-01
 -1      4104 1.27214E-01
 -1      4105 1.36147E-01
 -1      4106 8.96662E-02
 -1      4107 4.54594E-01
 -1      4108 3.94315E-01
 -1      4109 9.97939E-02
 -1      4110 1.04613E-01
 -1      4111 1.08770E-01
 -1      4112 1.12928E-01
 -1      4113 1.08770E-01
 -1      4114 1.33335E-01
 -1      4115 1.39961E-01
 -1      4116 1.33335E-01
 -1      4117 1.34827E-01
 -1      4118 1.43475E-01
 -1      4119 1.48609E-01
 -1      4120 1.58169E-01
 -1      4121 1.72864E-01
 -1      4122 1.58169E-01
 -1      4123 1.98609E-01
 -1      4124 2.20906E-01
 -1      4125 1.98609E-01
 -1      4126 2.56792E-01
 -1      4127 2.93810E-01
 -1      4128 2.60240E-01
 -1      4129 3.43206E-01
 -1      4130 3.90698E-01
 -1      4131 3.45522E-01
 -1      4132 4.59917E-01
 -1      4133 5.21539E-01
 -1      4134 4.64136E-01
 -1      4135 6.20656E-01
 -1      4136 7.01648E-01
 -1      4137 6.32472E-01
 -1      4138 8.45835E-01
 -1      4139 9.53126E-01
 -1      4140 8.75776E-01
 -1      4141 1.15607E+00
 -1      4142 1.29826E+00
 -1      4143 1.22290E+00
 -1      4144 1.40455E+00
 -1      4145 1.56592E+00
 -1      4146 1.53214E+00
 -1      4147 1.67557E+00
 -1      4148 1.45207E+00
 -1      4149 1.26588E+00
 -1      4150 1.14915E+00
 -1      4151 1.15594E+00
 -1      4152 1.43982E+00
 -1      4153 2.65212E+00
 -1      4154 1.91518E+00
 -1      4155 8.99960E-02
 -1      4156 8.99960E-02
 -1      4157 1.61852E-01
 -1      4158 1.47656E-01
 -1      4159 5.97148E-01
 -1      4160 5.15776E-01
 -1      4161 4.72172E-01
 -1      4162 1.11495E+00
 -1      4163 9.54326E-01
 -1      4164 1.82020E+00
 -1      4165 9.21367E-02
 -1      4166 9.15348E-02
 -1      4167 1.12012E-01
 -1      4168 1.29089E-01
 -1      4169 1.32736E-01
 -1      4170 7.85205E-02
 -1      4171 8.35166E-02
 -1      4172 7.62296E-02
 -1      4173 3.49301E-01
 -1      4174 3.02864E-01
 -1      4175 3.65975E-01
 -1      4176 8.10139E-01
 -1      4177 6.96265E-01
 -1      4178 8.75776E-01
 -1      4179 9.80048E-02
 -1      4180 9.63825E-02
 -1      4181 9.13197E-02
 -1      4182 1.07541E-01
 -1      4183 8.47640E-02
 -1      4184 1.31245E-01
 -1      4185 2.20754E+00
 -1      4186 2.13503E+00
 -1      4187 9.38789E-02
 -1      4188 2.26335E+00
 -1      4189 6.32472E-01
 -1      4190 3.17516E+00
 -1      4191 3.32249E+00
 -1      4192 2.84894E+00
 -1      4193 2.41693E+00
 -1      4194 1.76330E+00
 -1      4195 1.29044E+00
 -1      4196 1.42113E+00
 -1      4197 2.80253E+00
 -1      4198 2.77084E+00
 -1      4199 2.68859E-01
 -1      4200 2.32228E-01
 -1      4201 2.86956E-01
 -1      4202 2.06440E-01
 -1      4203 1.81344E-01
 -1      4204 2.27164E-01
 -1      4205 9.03258E-02
 -1      4206 8.99960E-02
 -1      4207 8.50938E-02
 -1      4208 1.05713E-01
 -1      4209 1.13988E-01
 -1      4210 1.17302E-01
 -1      4211 2.52382E+00
 -1      4212 2.55970E+00
 -1      4213 1.58067E-01
 -1      4214 1.43331E-01
 -1      4215 1.53115E-01
 -1      4216 1.06812E-01
 -1      4217 1.02346E-01
 -1      4218 1.13936E-01
 -1      4219 1.31529E-01
 -1      4220 1.01201E-01
 -1      4221 1.46487E+00
 -1      4222 1.71041E+00
 -1      4223 1.77124E+00
 -1      4224 1.34426E+00
 -1      4225 1.09213E-01
 -1      4226 1.05826E-01
 -1      4227 7.08679E-01
 -1      4228 7.25757E-01
 -1      4229 7.74264E-01
 -1      4230 1.81884E-01
 -1      4231 1.09362E-01
 -1      4232 9.71119E-01
 -1      4233 1.13103E+00
 -1      4234 1.00826E+00
 -1      4235 1.15893E-01
 -1      4236 8.86328E-02
 -1      4237 1.19788E-01
 -1      4238 1.83614E+00
 -1      4239 2.38199E+00
 -1      4240 1.45291E+00
 -1      4241 1.26700E+00
 -1      4242 9.81645E-02
 -1      4243 9.96478E-02
 -1      4244 9.34622E-02
 -1      4245 1.71374E+00
 -1      4246 1.65964E+00
 -1      4247 8.89626E-02
 -1      4248 1.05527E-01
 -1      4249 1.33335E-01
 -1      4250 1.53742E-01
 -1      4251 1.53742E-01
 -1      4252 1.48609E-01
 -1      4253 1.52934E-01
 -1      4254 1.67628E-01
 -1      4255 1.87120E-01
 -1      4256 2.12865E-01
 -1      4257 2.38653E-01
 -1      4258 2.74538E-01
 -1      4259 3.08544E-01
 -1      4260 3.57940E-01
 -1      4261 4.02954E-01
 -1      4262 4.72172E-01
 -1      4263 5.33355E-01
 -1      4264 6.32472E-01
 -1      4265 7.31590E-01
 -1      4266 8.75776E-01
 -1      4267 1.01996E+00
 -1      4268 1.22290E+00
 -1      4269 2.02314E+00
 -1      4270 2.12943E+00
 -1      4271 1.57192E+00
 -1      4272 1.27707E+00
 -1      4273 2.39021E+00
 -1      4274 1.25363E+00
 -1      4275 1.27707E+00
 -1      4276 7.60268E-02
 -1      4277 9.21941E-01
 -1      4278 6.10802E-02
 -1      4279 6.97001E-02
 -1      4280 6.80137E-02
 -1      4281 7.66338E-02
 -1      4282 2.80253E+00
 -1      4283 1.07546E-01
 -1      4284 1.10957E-01
 -1      4285 1.17302E-01
 -1      4286 1.09213E-01
 -1      4287 1.08231E-01
 -1      4288 1.12389E-01
 -1      4289 1.14576E-01
 -1      4290 1.00547E-01
 -1      4291 5.87891E-02
 -1      4292 1.01910E-01
 -1      4293 1.01910E-01
 -1      4294 1.32796E-01
 -1      4295 2.62044E+00
 -1      4296 2.12943E+00
 -1      4297 1.40917E+00
 -1      4298 1.46327E+00
 -1      4299 1.53742E-01
 -1      4300 6.49153E-02
 -1      4301 7.01472E-02
 -1      4302 1.53115E-01
 -1      4303 1.32156E-01
 -1      4304 1.17302E-01
 -1      4305 9.94567E-02
 -1      4306 1.09213E-01
 -1      4307 1.01124E-01
 -1      4308 9.29868E-02
 -1      4309 7.89676E-02
 -1      4310 7.93718E-02
 -1      4311 9.34622E-02
 -1      4312 2.69854E+00
 -1      4313 8.47709E-02
 -1      4314 1.15594E+00
 -1      4315 1.14576E-01
 -1      4316 9.10579E-01
 -1      4317 1.11209E-01
 -1      4318 2.77084E+00
 -1      4319 7.71092E-02
 -1      4320 8.80632E-02
 -3
 9999
